<?xml version="1.0"?>
<VTKFile type="UnstructuredGrid" version="0.1" byte_order="LittleEndian">
<UnstructuredGrid>
<Piece NumberOfPoints="2876" NumberOfCells="719">
<Points>
<DataArray type="Float64" NumberOfComponents="3" format="ascii">
0.31610726166346748 0.18804489794572149 0 0.16929708765618309 0.30074819035915368 0 0.14641016151452901 0.14641016151487049 0 0.312576188949791 0.31458070521983672 0.3125761889497819 0 0.20000000000083221 0 0 0 0 0.14641016151452901 0.14641016151487049 0 0 0.14641016151432179 0.14641016151432179 0 0 0 0.19999999999955789 0 0 0.14641016151452901 0.14641016151487049 0 0.1464101615145241 0 0.14641016151486561 0 0.14641016151432179 0.14641016151432179 0 0 0.20000000000083221 0 0 0 0.1464101615145241 0 0.14641016151486561 0 0.14641016151432179 0.14641016151432179 0 0.30074819035869899 0.1692970876565193 0 0.18804489794560331 0.31610726166461361 0.312576188949791 0.31458070521983672 0.3125761889497819 0.31578456131778371 0 0.1865278143482666 0.1464101615145241 0 0.14641016151486561 0.16938214347656569 0 0.30011357660650623 0.312576188949791 0.31458070521983672 0.3125761889497819 0 0.14641016151432179 0.14641016151432179 0 0 0 0.14641016151452901 0.14641016151487049 0 0.1464101615145241 0 0.14641016151486561 0.14641016151452901 0.14641016151487049 0 0.1464101615145241 0 0.14641016151486561 0.31578456131778371 0 0.1865278143482666 0.312576188949791 0.31458070521983672 0.3125761889497819 0.14641016151452901 0.14641016151487049 0 0 0.30074819035869899 0.1692970876565193 0 0.14641016151432179 0.14641016151432179 0.312576188949791 0.31458070521983672 0.3125761889497819 0.14641016151452901 0.14641016151487049 0 0 0.14641016151432179 0.14641016151432179 0.1464101615145241 0 0.14641016151486561 0.312576188949791 0.31458070521983672 0.3125761889497819 0 0.14641016151432179 0.14641016151432179 0.16938214347656569 0 0.30011357660650623 0.1464101615145241 0 0.14641016151486561 0.312576188949791 0.31458070521983672 0.3125761889497819 0.1464101615145241 0 0.14641016151486561 0 0.14641016151432179 0.14641016151432179 0 0 0.20000000000083221 0.16938214347656569 0 0.30011357660650623 0 0.18804489794560331 0.31610726166461361 0 0 0.20000000000083221 0 0.14641016151432179 0.14641016151432179 0.16938214347656569 0 0.30011357660650623 0 0.14641016151432179 0.14641016151432179 0.14641016151452901 0.14641016151487049 0 0 0.20000000000083221 0 0 0.30074819035869899 0.1692970876565193 0 0.30074819035869899 0.1692970876565193 0.14641016151452901 0.14641016151487049 0 0 0.20000000000083221 0 0.16929708765618309 0.30074819035915368 0 0.19999999999955789 0 0 0.14641016151452901 0.14641016151487049 0 0.31578456131778371 0 0.1865278143482666 0.31610726166346748 0.18804489794572149 0 0.19999999999955789 0 0 0.14641016151452901 0.14641016151487049 0 0.1464101615145241 0 0.14641016151486561 0.31578456131778371 0 0.1865278143482666 0.31578456131778371 0 0.1865278143482666 0.3999999999989749 0 0 0.19999999999955789 0 0 0.31610726166346748 0.18804489794572149 0 0.31578456131778371 0 0.1865278143482666 0.31610726166346748 0.18804489794572149 0 0.14641016151452901 0.14641016151487049 0 0.312576188949791 0.31458070521983672 0.3125761889497819 0.31610726166346748 0.18804489794572149 0 0.312576188949791 0.31458070521983672 0.3125761889497819 0.31578456131778371 0 0.1865278143482666 0.5003997205654479 0.21136633249797621 0.2258422409314382 0.31610726166346748 0.18804489794572149 0 0.49391845158624981 0 0.1323760430705655 0.50966790549376417 0.16275515618023731 0 0.5003997205654479 0.21136633249797621 0.2258422409314382 0.31610726166346748 0.18804489794572149 0 0.50966790549376417 0.16275515618023731 0 0.45812322962036273 0.31024977578535839 0 0.5003997205654479 0.21136633249797621 0.2258422409314382 0.49391845158624981 0 0.1323760430705655 0.3999999999989749 0 0 0.31610726166346748 0.18804489794572149 0 0.50966790549376417 0.16275515618023731 0 0.49391845158624981 0 0.1323760430705655 0.3999999999989749 0 0 0.31578456131778371 0 0.1865278143482666 0.31610726166346748 0.18804489794572149 0 0.31578456131778371 0 0.1865278143482666 0.47688326899416439 0 0.31741132792405607 0.49391845158624981 0 0.1323760430705655 0.5003997205654479 0.21136633249797621 0.2258422409314382 0.31610726166346748 0.18804489794572149 0 0.31578456131778371 0 0.1865278143482666 0.49391845158624981 0 0.1323760430705655 0.5003997205654479 0.21136633249797621 0.2258422409314382 0.31030302876556398 0 0.54179813558513157 0.50073570207385831 0.24848280280289631 0.52886631355986169 0.32146143392436449 0 0.38738071487621961 0.22088738526309029 0.22111069116742441 0.50004796911802929 0.32146143392436449 0 0.38738071487621961 0.312576188949791 0.31458070521983672 0.3125761889497819 0.16938214347656569 0 0.30011357660650623 0.22088738526309029 0.22111069116742441 0.50004796911802929 0.32146143392436449 0 0.38738071487621961 0.50073570207385831 0.24848280280289631 0.52886631355986169 0.312576188949791 0.31458070521983672 0.3125761889497819 0.22088738526309029 0.22111069116742441 0.50004796911802929 0.32146143392436449 0 0.38738071487621961 0.50073570207385831 0.24848280280289631 0.52886631355986169 0.47688326899416439 0 0.31741132792405607 0.5003997205654479 0.21136633249797621 0.2258422409314382 0.32146143392436449 0 0.38738071487621961 0.312576188949791 0.31458070521983672 0.3125761889497819 0.50073570207385831 0.24848280280289631 0.52886631355986169 0.5003997205654479 0.21136633249797621 0.2258422409314382 0.32146143392436449 0 0.38738071487621961 0.31578456131778371 0 0.1865278143482666 0.16938214347656569 0 0.30011357660650623 0.312576188949791 0.31458070521983672 0.3125761889497819 0.31578456131778371 0 0.1865278143482666 0.312576188949791 0.31458070521983672 0.3125761889497819 0.32146143392436449 0 0.38738071487621961 0.5003997205654479 0.21136633249797621 0.2258422409314382 0.31578456131778371 0 0.1865278143482666 0.32146143392436449 0 0.38738071487621961 0.47688326899416439 0 0.31741132792405607 0.5003997205654479 0.21136633249797621 0.2258422409314382 0.31030302876556398 0 0.54179813558513157 0.50000000000250922 0 0.48038475773043671 0.32146143392436449 0 0.38738071487621961 0.50073570207385831 0.24848280280289631 0.52886631355986169 0.32146143392436449 0 0.38738071487621961 0.50000000000250922 0 0.48038475773043671 0.47688326899416439 0 0.31741132792405607 0.50073570207385831 0.24848280280289631 0.52886631355986169 0.16370661204827031 0 0.4886650857430957 0.31030302876556398 0 0.54179813558513157 0.32146143392436449 0 0.38738071487621961 0.22088738526309029 0.22111069116742441 0.50004796911802929 0.16370661204827031 0 0.4886650857430957 0.32146143392436449 0 0.38738071487621961 0.16938214347656569 0 0.30011357660650623 0.22088738526309029 0.22111069116742441 0.50004796911802929 0.16938214347656569 0 0.30011357660650623 0 0.14641016151432179 0.14641016151432179 0 0.18804489794560331 0.31610726166461361 0.312576188949791 0.31458070521983672 0.3125761889497819 0 0.18804489794560331 0.31610726166461361 0.16370661204827031 0 0.4886650857430957 0.16938214347656569 0 0.30011357660650623 0.22088738526309029 0.22111069116742441 0.50004796911802929 0 0.18804489794560331 0.31610726166461361 0.16938214347656569 0 0.30011357660650623 0.312576188949791 0.31458070521983672 0.3125761889497819 0.22088738526309029 0.22111069116742441 0.50004796911802929 0 0 0.40000000000166441 0 0 0.60000000000138687 0.16370661204827031 0 0.4886650857430957 0 0.16275515618034081 0.50966790549591257 0 0 0.40000000000166441 0 0.18804489794560331 0.31610726166461361 0.16370661204827031 0 0.4886650857430957 0.16938214347656569 0 0.30011357660650623 0.16370661204827031 0 0.4886650857430957 0 0.18804489794560331 0.31610726166461361 0 0 0.40000000000166441 0 0.16275515618034081 0.50966790549591257 0 0.18804489794560331 0.31610726166461361 0 0 0.40000000000166441 0 0 0.20000000000083221 0.16938214347656569 0 0.30011357660650623 0 0.18804489794560331 0.31610726166461361 0 0.16275515618034081 0.50966790549591257 0.16370661204827031 0 0.4886650857430957 0.22088738526309029 0.22111069116742441 0.50004796911802929 0 0.18804489794560331 0.31610726166461361 0 0.31024977578556651 0.45812322962166352 0 0.16275515618034081 0.50966790549591257 0.22088738526309029 0.22111069116742441 0.50004796911802929 0 0.30074819035869899 0.1692970876565193 0 0.39615100178029522 0.32925244736138171 0 0.18804489794560331 0.31610726166461361 0.312576188949791 0.31458070521983672 0.3125761889497819 0 0.31024977578556651 0.45812322962166352 0.312576188949791 0.31458070521983672 0.3125761889497819 0.24769234054476261 0.52242103280823293 0.45098450226372488 0.22088738526309029 0.22111069116742441 0.50004796911802929 0 0.18804489794560331 0.31610726166461361 0 0.39615100178029522 0.32925244736138171 0 0.31024977578556651 0.45812322962166352 0.312576188949791 0.31458070521983672 0.3125761889497819 0 0.39615100178029522 0.32925244736138171 0.24769234054476261 0.52242103280823293 0.45098450226372488 0.312576188949791 0.31458070521983672 0.3125761889497819 0.22345881830598399 0.5062398304147856 0.22345881830602041 0 0.31024977578556651 0.45812322962166352 0.312576188949791 0.31458070521983672 0.3125761889497819 0 0.39615100178029522 0.32925244736138171 0.24769234054476261 0.52242103280823293 0.45098450226372488 0 0.30074819035869899 0.1692970876565193 0 0.39615100178029522 0.32925244736138171 0.312576188949791 0.31458070521983672 0.3125761889497819 0.22345881830598399 0.5062398304147856 0.22345881830602041 0 0.18804489794560331 0.31610726166461361 0.312576188949791 0.31458070521983672 0.3125761889497819 0 0.31024977578556651 0.45812322962166352 0.22088738526309029 0.22111069116742441 0.50004796911802929 0 0.31024977578556651 0.45812322962166352 0 0.39615100178029522 0.32925244736138171 0 0.50000000000237477 0.51961524226909872 0.24769234054476261 0.52242103280823293 0.45098450226372488 0.50000000000001332 0.49999999999999561 0.49999999999999561 0.50073570207385831 0.24848280280289631 0.52886631355986169 0.312576188949791 0.31458070521983672 0.3125761889497819 0.5004045312576143 0.47050700646456922 0.24963111222780321 0.24769234054476261 0.52242103280823293 0.45098450226372488 0.5004045312576143 0.47050700646456922 0.24963111222780321 0.312576188949791 0.31458070521983672 0.3125761889497819 0.22345881830598399 0.5062398304147856 0.22345881830602041 0.312576188949791 0.31458070521983672 0.3125761889497819 0.5004045312576143 0.47050700646456922 0.24963111222780321 0.50073570207385831 0.24848280280289631 0.52886631355986169 0.5003997205654479 0.21136633249797621 0.2258422409314382 0.50000000000001332 0.49999999999999561 0.49999999999999561 0.24769234054476261 0.52242103280823293 0.45098450226372488 0.312576188949791 0.31458070521983672 0.3125761889497819 0.50073570207385831 0.24848280280289631 0.52886631355986169 0.312576188949791 0.31458070521983672 0.3125761889497819 0.24769234054476261 0.52242103280823293 0.45098450226372488 0.50000000000001332 0.49999999999999561 0.49999999999999561 0.5004045312576143 0.47050700646456922 0.24963111222780321 0.312576188949791 0.31458070521983672 0.3125761889497819 0.50073570207385831 0.24848280280289631 0.52886631355986169 0.24769234054476261 0.52242103280823293 0.45098450226372488 0.22088738526309029 0.22111069116742441 0.50004796911802929 0.32925244736090059 0.39615100178043078 0 0.312576188949791 0.31458070521983672 0.3125761889497819 0.45812322962036273 0.31024977578535839 0 0.5004045312576143 0.47050700646456922 0.24963111222780321 0.32925244736090059 0.39615100178043078 0 0.5004045312576143 0.47050700646456922 0.24963111222780321 0.32446581821364329 0.60020898676454815 0 0.22345881830598399 0.5062398304147856 0.22345881830602041 0.45812322962036273 0.31024977578535839 0 0.5004045312576143 0.47050700646456922 0.24963111222780321 0.312576188949791 0.31458070521983672 0.3125761889497819 0.5003997205654479 0.21136633249797621 0.2258422409314382 0.45812322962036273 0.31024977578535839 0 0.32925244736090059 0.39615100178043078 0 0.31610726166346748 0.18804489794572149 0 0.312576188949791 0.31458070521983672 0.3125761889497819 0.16929708765618309 0.30074819035915368 0 0.312576188949791 0.31458070521983672 0.3125761889497819 0.32925244736090059 0.39615100178043078 0 0.22345881830598399 0.5062398304147856 0.22345881830602041 0.31610726166346748 0.18804489794572149 0 0.45812322962036273 0.31024977578535839 0 0.312576188949791 0.31458070521983672 0.3125761889497819 0.5003997205654479 0.21136633249797621 0.2258422409314382 0.32925244736090059 0.39615100178043078 0 0.312576188949791 0.31458070521983672 0.3125761889497819 0.5004045312576143 0.47050700646456922 0.24963111222780321 0.22345881830598399 0.5062398304147856 0.22345881830602041 0.32925244736090059 0.39615100178043078 0 0.16929708765618309 0.30074819035915368 0 0.31610726166346748 0.18804489794572149 0 0.312576188949791 0.31458070521983672 0.3125761889497819 0.32446581821364329 0.60020898676454815 0 0.32925244736090059 0.39615100178043078 0 0.51961524226956368 0.5000000000025091 0 0.5004045312576143 0.47050700646456922 0.24963111222780321 0.51961524226956368 0.5000000000025091 0 0.32925244736090059 0.39615100178043078 0 0.45812322962036273 0.31024977578535839 0 0.5004045312576143 0.47050700646456922 0.24963111222780321 0 0.30074819035869899 0.1692970876565193 0.14641016151452901 0.14641016151487049 0 0.16929708765618309 0.30074819035915368 0 0.312576188949791 0.31458070521983672 0.3125761889497819 0 0.30074819035869899 0.1692970876565193 0.312576188949791 0.31458070521983672 0.3125761889497819 0.16929708765618309 0.30074819035915368 0 0.22345881830598399 0.5062398304147856 0.22345881830602041 0.17226134197279269 0.49836539647922029 0 0 0.49836539647891548 0.17226134197271731 0.16929708765618309 0.30074819035915368 0 0.22345881830598399 0.5062398304147856 0.22345881830602041 0.17226134197279269 0.49836539647922029 0 0.16929708765618309 0.30074819035915368 0 0.32925244736090059 0.39615100178043078 0 0.22345881830598399 0.5062398304147856 0.22345881830602041 0 0.30074819035869899 0.1692970876565193 0 0.20000000000083221 0 0 0.40000000000166441 0 0.16929708765618309 0.30074819035915368 0 0 0.30074819035869899 0.1692970876565193 0 0.40000000000166441 0 0 0.49836539647891548 0.17226134197271731 0.16929708765618309 0.30074819035915368 0 0 0.30074819035869899 0.1692970876565193 0.16929708765618309 0.30074819035915368 0 0 0.49836539647891548 0.17226134197271731 0.22345881830598399 0.5062398304147856 0.22345881830602041 0 0.30074819035869899 0.1692970876565193 0 0.49836539647891548 0.17226134197271731 0 0.39615100178029522 0.32925244736138171 0.22345881830598399 0.5062398304147856 0.22345881830602041 0 0.49836539647891548 0.17226134197271731 0 0.40000000000166441 0 0 0.60000000000138687 0 0.17226134197279269 0.49836539647922029 0 0.16929708765618309 0.30074819035915368 0 0 0.40000000000166441 0 0 0.49836539647891548 0.17226134197271731 0.17226134197279269 0.49836539647922029 0 0 0.69449451837103049 0.15896804272139439 0 0.60020898676435996 0.32446581821286191 0.22345881830598399 0.5062398304147856 0.22345881830602041 0.19259015428765269 0.77719169076434647 0.19259015428773721 0.1589680427220837 0.69449451837091269 0 0 0.69449451837103049 0.15896804272139439 0.22345881830598399 0.5062398304147856 0.22345881830602041 0.19259015428765269 0.77719169076434647 0.19259015428773721 0 0.69449451837103049 0.15896804272139439 0.17226134197279269 0.49836539647922029 0 0 0.60000000000138687 0 0.1589680427220837 0.69449451837091269 0 0.32446581821364329 0.60020898676454815 0 0.1589680427220837 0.69449451837091269 0 0.22345881830598399 0.5062398304147856 0.22345881830602041 0.19259015428765269 0.77719169076434647 0.19259015428773721 0 0.60000000000138687 0 0 0.49836539647891548 0.17226134197271731 0.17226134197279269 0.49836539647922029 0 0 0.69449451837103049 0.15896804272139439 0 0.69449451837103049 0.15896804272139439 0 0.60000000000138687 0 0 0.79999999999999982 0 0.1589680427220837 0.69449451837091269 0 0.31067093463127438 0.81480288849489035 0 0.1589680427220837 0.69449451837091269 0 0.32446581821364329 0.60020898676454815 0 0.19259015428765269 0.77719169076434647 0.19259015428773721 0.32446581821364329 0.60020898676454815 0 0.1589680427220837 0.69449451837091269 0 0.17226134197279269 0.49836539647922029 0 0.22345881830598399 0.5062398304147856 0.22345881830602041 0.1589680427220837 0.69449451837091269 0 0 0.69449451837103049 0.15896804272139439 0.17226134197279269 0.49836539647922029 0 0.22345881830598399 0.5062398304147856 0.22345881830602041 0 0.69449451837103049 0.15896804272139439 0 0.81480288849496429 0.31067093462946233 0 0.60020898676435996 0.32446581821286191 0.19259015428765269 0.77719169076434647 0.19259015428773721 0 0.49836539647891548 0.17226134197271731 0 0.69449451837103049 0.15896804272139439 0 0.60020898676435996 0.32446581821286191 0.22345881830598399 0.5062398304147856 0.22345881830602041 0 0.49836539647891548 0.17226134197271731 0.17226134197279269 0.49836539647922029 0 0 0.69449451837103049 0.15896804272139439 0.22345881830598399 0.5062398304147856 0.22345881830602041 0 0.60020898676435996 0.32446581821286191 0.22516916914780419 0.77057994845201627 0.48187244075707292 0.35848654557803328 0.70013656506632282 0.30029870175293161 0.19259015428765269 0.77719169076434647 0.19259015428773721 0 0.60020898676435996 0.32446581821286191 0.24769234054476261 0.52242103280823293 0.45098450226372488 0 0.39615100178029522 0.32925244736138171 0.22345881830598399 0.5062398304147856 0.22345881830602041 0 0.60020898676435996 0.32446581821286191 0 0.81480288849496429 0.31067093462946233 0.22516916914780419 0.77057994845201627 0.48187244075707292 0.19259015428765269 0.77719169076434647 0.19259015428773721 0.35848654557803328 0.70013656506632282 0.30029870175293161 0.22345881830598399 0.5062398304147856 0.22345881830602041 0 0.60020898676435996 0.32446581821286191 0.19259015428765269 0.77719169076434647 0.19259015428773721 0 0.49836539647891548 0.17226134197271731 0 0.60020898676435996 0.32446581821286191 0 0.39615100178029522 0.32925244736138171 0.22345881830598399 0.5062398304147856 0.22345881830602041 0 0.60020898676435996 0.32446581821286191 0.24769234054476261 0.52242103280823293 0.45098450226372488 0.35848654557803328 0.70013656506632282 0.30029870175293161 0.22516916914780419 0.77057994845201627 0.48187244075707292 0.35848654557803328 0.70013656506632282 0.30029870175293161 0.24769234054476261 0.52242103280823293 0.45098450226372488 0 0.60020898676435996 0.32446581821286191 0.22345881830598399 0.5062398304147856 0.22345881830602041 0 0.39615100178029522 0.32925244736138171 0 0.60020898676435996 0.32446581821286191 0 0.50000000000237477 0.51961524226909872 0.24769234054476261 0.52242103280823293 0.45098450226372488 0 0.68801781652248195 0.45664527743358641 0 0.50000000000237477 0.51961524226909872 0 0.60020898676435996 0.32446581821286191 0.24769234054476261 0.52242103280823293 0.45098450226372488 0 0.66416205381430016 0.59944234540882957 0.24769234054476261 0.52242103280823293 0.45098450226372488 0 0.68801781652248195 0.45664527743358641 0.22516916914780419 0.77057994845201627 0.48187244075707292 0 0.60020898676435996 0.32446581821286191 0 0.81480288849496429 0.31067093462946233 0 0.68801781652248195 0.45664527743358641 0.22516916914780419 0.77057994845201627 0.48187244075707292 0 0.68801781652248195 0.45664527743358641 0.24769234054476261 0.52242103280823293 0.45098450226372488 0 0.60020898676435996 0.32446581821286191 0.22516916914780419 0.77057994845201627 0.48187244075707292 0.16929708765615539 1 0.30074819035677097 0.32926555316115258 1 0.39615987727515128 0.22516916914780419 0.77057994845201627 0.48187244075707292 0.19259015428765269 0.77719169076434647 0.19259015428773721 0 0.81480288849496429 0.31067093462946233 0.16929708765615539 1 0.30074819035677097 0.22516916914780419 0.77057994845201627 0.48187244075707292 0.19259015428765269 0.77719169076434647 0.19259015428773721 0.17226134197293 1 0.49836539647645101 0 0.83630110503664845 0.50803330197135654 0 0.81480288849496429 0.31067093462946233 0.22516916914780419 0.77057994845201627 0.48187244075707292 0 0.68801781652248195 0.45664527743358641 0 0.81480288849496429 0.31067093462946233 0 0.83630110503664845 0.50803330197135654 0.22516916914780419 0.77057994845201627 0.48187244075707292 0.17226134197293 1 0.49836539647645101 0 1 0.3999999999989749 0 0.81480288849496429 0.31067093462946233 0 0.83630110503664845 0.50803330197135654 0 0.81480288849496429 0.31067093462946233 0.16929708765615539 1 0.30074819035677097 0 1 0.3999999999989749 0.17226134197293 1 0.49836539647645101 0.17226134197293 1 0.49836539647645101 0 0.81480288849496429 0.31067093462946233 0.16929708765615539 1 0.30074819035677097 0.22516916914780419 0.77057994845201627 0.48187244075707292 0.17226134197293 1 0.49836539647645101 0.16929708765615539 1 0.30074819035677097 0.32926555316115258 1 0.39615987727515128 0.22516916914780419 0.77057994845201627 0.48187244075707292 0 1 0.3999999999989749 0 1 0.19999999999955789 0.16929708765615539 1 0.30074819035677097 0 0.81480288849496429 0.31067093462946233 0.16929708765615539 1 0.30074819035677097 0 1 0.19999999999955789 0 0.85358983848655678 0.14641016151332509 0 0.81480288849496429 0.31067093462946233 0.14641016151352521 1 0.1464101615131837 0 1 0.19999999999955789 0 0.85358983848655678 0.14641016151332509 0.16929708765615539 1 0.30074819035677097 0.20000000000083221 1 0 0 1 0 0.14641016151479211 0.85358983848543113 0 0.14641016151352521 1 0.1464101615131837 0 0.85358983848655678 0.14641016151332509 0 1 0 0 1 0.19999999999955789 0.14641016151352521 1 0.1464101615131837 0 0.85358983848655678 0.14641016151332509 0.14641016151479211 0.85358983848543113 0 0 1 0 0.14641016151352521 1 0.1464101615131837 0.14641016151479211 0.85358983848543113 0 0 1 0 0 0.79999999999999982 0 0 0.85358983848655678 0.14641016151332509 0 0.85358983848655678 0.14641016151332509 0 0.69449451837103049 0.15896804272139439 0.1589680427220837 0.69449451837091269 0 0.19259015428765269 0.77719169076434647 0.19259015428773721 0 0.79999999999999982 0 0.1589680427220837 0.69449451837091269 0 0.14641016151479211 0.85358983848543113 0 0 0.85358983848655678 0.14641016151332509 0.14641016151352521 1 0.1464101615131837 0 0.85358983848655678 0.14641016151332509 0.14641016151479211 0.85358983848543113 0 0.19259015428765269 0.77719169076434647 0.19259015428773721 0.1589680427220837 0.69449451837091269 0 0 0.79999999999999982 0 0 0.69449451837103049 0.15896804272139439 0 0.85358983848655678 0.14641016151332509 0.1589680427220837 0.69449451837091269 0 0.14641016151479211 0.85358983848543113 0 0 0.85358983848655678 0.14641016151332509 0.19259015428765269 0.77719169076434647 0.19259015428773721 0.16929708765615539 1 0.30074819035677097 0 0.81480288849496429 0.31067093462946233 0 0.85358983848655678 0.14641016151332509 0.19259015428765269 0.77719169076434647 0.19259015428773721 0 0.85358983848655678 0.14641016151332509 0 0.81480288849496429 0.31067093462946233 0 0.69449451837103049 0.15896804272139439 0.19259015428765269 0.77719169076434647 0.19259015428773721 0.14641016151352521 1 0.1464101615131837 0.14641016151479211 0.85358983848543113 0 0.31067093463127438 0.81480288849489035 0 0.19259015428765269 0.77719169076434647 0.19259015428773721 0.1589680427220837 0.69449451837091269 0 0.31067093463127438 0.81480288849489035 0 0.14641016151479211 0.85358983848543113 0 0.19259015428765269 0.77719169076434647 0.19259015428773721 0.14641016151479211 0.85358983848543113 0 0.31067093463127438 0.81480288849489035 0 0.20000000000083221 1 0 0.14641016151352521 1 0.1464101615131837 0.31635851157303152 1 0.18818969570840721 0.20000000000083221 1 0 0.31067093463127438 0.81480288849489035 0 0.14641016151352521 1 0.1464101615131837 0.31067093463127438 0.81480288849489035 0 0.31635851157303152 1 0.18818969570840721 0.14641016151352521 1 0.1464101615131837 0.19259015428765269 0.77719169076434647 0.19259015428773721 0.31635851157303152 1 0.18818969570840721 0.16929708765615539 1 0.30074819035677097 0.14641016151352521 1 0.1464101615131837 0.19259015428765269 0.77719169076434647 0.19259015428773721 0.14641016151352521 1 0.1464101615131837 0.16929708765615539 1 0.30074819035677097 0 0.85358983848655678 0.14641016151332509 0.19259015428765269 0.77719169076434647 0.19259015428773721 0.35848654557803328 0.70013656506632282 0.30029870175293161 0.19259015428765269 0.77719169076434647 0.19259015428773721 0.31635851157303152 1 0.18818969570840721 0.52894546611500048 0.79133000140429866 0.2082794184507949 0.31067093463127438 0.81480288849489035 0 0.19259015428765269 0.77719169076434647 0.19259015428773721 0.35848654557803328 0.70013656506632282 0.30029870175293161 0.52894546611500048 0.79133000140429866 0.2082794184507949 0.31067093463127438 0.81480288849489035 0 0.31635851157303152 1 0.18818969570840721 0.19259015428765269 0.77719169076434647 0.19259015428773721 0.52894546611500048 0.79133000140429866 0.2082794184507949 0.31067093463127438 0.81480288849489035 0 0.40000000000166441 1 0 0.20000000000083221 1 0 0.31635851157303152 1 0.18818969570840721 0.31067093463127438 0.81480288849489035 0 0.50803330197353713 0.83630110503668265 0 0.31635851157303152 1 0.18818969570840721 0.52894546611500048 0.79133000140429866 0.2082794184507949 0.45664527743509797 0.68801781652245086 0 0.50803330197353713 0.83630110503668265 0 0.31067093463127438 0.81480288849489035 0 0.52894546611500048 0.79133000140429866 0.2082794184507949 0.51133491425992716 1 0.16370661204795281 0.31635851157303152 1 0.18818969570840721 0.40000000000166441 1 0 0.50803330197353713 0.83630110503668265 0 0.31635851157303152 1 0.18818969570840721 0.31067093463127438 0.81480288849489035 0 0.40000000000166441 1 0 0.50803330197353713 0.83630110503668265 0 0.51133491425992716 1 0.16370661204795281 0.45820186441796368 1 0.31030302876579191 0.31635851157303152 1 0.18818969570840721 0.52894546611500048 0.79133000140429866 0.2082794184507949 0.51133491425992716 1 0.16370661204795281 0.31635851157303152 1 0.18818969570840721 0.50803330197353713 0.83630110503668265 0 0.52894546611500048 0.79133000140429866 0.2082794184507949 0.32926555316115258 1 0.39615987727515128 0.35848654557803328 0.70013656506632282 0.30029870175293161 0.49983993748706529 0.75039103705932653 0.52967335724801234 0.22516916914780419 0.77057994845201627 0.48187244075707292 0.35848654557803328 0.70013656506632282 0.30029870175293161 0.22516916914780419 0.77057994845201627 0.48187244075707292 0.32926555316115258 1 0.39615987727515128 0.19259015428765269 0.77719169076434647 0.19259015428773721 0.31635851157303152 1 0.18818969570840721 0.45820186441796368 1 0.31030302876579191 0.32926555316115258 1 0.39615987727515128 0.35848654557803328 0.70013656506632282 0.30029870175293161 0.45820186441796368 1 0.31030302876579191 0.35848654557803328 0.70013656506632282 0.30029870175293161 0.31635851157303152 1 0.18818969570840721 0.52894546611500048 0.79133000140429866 0.2082794184507949 0.31635851157303152 1 0.18818969570840721 0.35848654557803328 0.70013656506632282 0.30029870175293161 0.32926555316115258 1 0.39615987727515128 0.19259015428765269 0.77719169076434647 0.19259015428773721 0.45820186441796368 1 0.31030302876579191 0.49983993748706529 0.75039103705932653 0.52967335724801234 0.35848654557803328 0.70013656506632282 0.30029870175293161 0.52894546611500048 0.79133000140429866 0.2082794184507949 0.45820186441796368 1 0.31030302876579191 0.32926555316115258 1 0.39615987727515128 0.35848654557803328 0.70013656506632282 0.30029870175293161 0.49983993748706529 0.75039103705932653 0.52967335724801234 0.31635851157303152 1 0.18818969570840721 0.32926555316115258 1 0.39615987727515128 0.16929708765615539 1 0.30074819035677097 0.19259015428765269 0.77719169076434647 0.19259015428773721 0.32926555316115258 1 0.39615987727515128 0.32448110831226962 1 0.6002015905153204 0.17226134197293 1 0.49836539647645101 0.22516916914780419 0.77057994845201627 0.48187244075707292 0.45820186441796368 1 0.31030302876579191 0.51961524227008238 1 0.49999999999872219 0.32926555316115258 1 0.39615987727515128 0.49983993748706529 0.75039103705932653 0.52967335724801234 0.24769234054476261 0.52242103280823293 0.45098450226372488 0.49983993748706529 0.75039103705932653 0.52967335724801234 0.35848654557803328 0.70013656506632282 0.30029870175293161 0.22516916914780419 0.77057994845201627 0.48187244075707292 0.35848654557803328 0.70013656506632282 0.30029870175293161 0.50000000000001332 0.49999999999999561 0.49999999999999561 0.24769234054476261 0.52242103280823293 0.45098450226372488 0.5004045312576143 0.47050700646456922 0.24963111222780321 0.35848654557803328 0.70013656506632282 0.30029870175293161 0.24769234054476261 0.52242103280823293 0.45098450226372488 0.50000000000001332 0.49999999999999561 0.49999999999999561 0.49983993748706529 0.75039103705932653 0.52967335724801234 0.35848654557803328 0.70013656506632282 0.30029870175293161 0.5004045312576143 0.47050700646456922 0.24963111222780321 0.24769234054476261 0.52242103280823293 0.45098450226372488 0.22345881830598399 0.5062398304147856 0.22345881830602041 0.35848654557803328 0.70013656506632282 0.30029870175293161 0.32446581821364329 0.60020898676454815 0 0.5004045312576143 0.47050700646456922 0.24963111222780321 0.22345881830598399 0.5062398304147856 0.22345881830602041 0.31067093463127438 0.81480288849489035 0 0.32446581821364329 0.60020898676454815 0 0.45664527743509797 0.68801781652245086 0 0.35848654557803328 0.70013656506632282 0.30029870175293161 0.32446581821364329 0.60020898676454815 0 0.22345881830598399 0.5062398304147856 0.22345881830602041 0.35848654557803328 0.70013656506632282 0.30029870175293161 0.19259015428765269 0.77719169076434647 0.19259015428773721 0.32446581821364329 0.60020898676454815 0 0.45664527743509797 0.68801781652245086 0 0.35848654557803328 0.70013656506632282 0.30029870175293161 0.5004045312576143 0.47050700646456922 0.24963111222780321 0.31067093463127438 0.81480288849489035 0 0.32446581821364329 0.60020898676454815 0 0.35848654557803328 0.70013656506632282 0.30029870175293161 0.19259015428765269 0.77719169076434647 0.19259015428773721 0.45664527743509797 0.68801781652245086 0 0.31067093463127438 0.81480288849489035 0 0.35848654557803328 0.70013656506632282 0.30029870175293161 0.52894546611500048 0.79133000140429866 0.2082794184507949 0.35848654557803328 0.70013656506632282 0.30029870175293161 0.5004045312576143 0.47050700646456922 0.24963111222780321 0.45664527743509797 0.68801781652245086 0 0.52894546611500048 0.79133000140429866 0.2082794184507949 0.17226134197279269 0.49836539647922029 0 0.32925244736090059 0.39615100178043078 0 0.32446581821364329 0.60020898676454815 0 0.22345881830598399 0.5062398304147856 0.22345881830602041 0.32446581821364329 0.60020898676454815 0 0.51961524226956368 0.5000000000025091 0 0.45664527743509797 0.68801781652245086 0 0.5004045312576143 0.47050700646456922 0.24963111222780321 0.72722573386132172 0.60922248848163563 0 0.68456408135056701 0.68607101396845627 0.31096060989957619 0.59944234541082553 0.66416205381394655 0 0.77713227489941183 0.50036915849493024 0.21774643624003751 0.68456408135056701 0.68607101396845627 0.31096060989957619 0.5004045312576143 0.47050700646456922 0.24963111222780321 0.59944234541082553 0.66416205381394655 0 0.77713227489941183 0.50036915849493024 0.21774643624003751 0.59944234541082553 0.66416205381394655 0 0.45664527743509797 0.68801781652245086 0 0.5004045312576143 0.47050700646456922 0.24963111222780321 0.52894546611500048 0.79133000140429866 0.2082794184507949 0.51961524226956368 0.5000000000025091 0 0.67320508075660079 0.46954769941202479 0 0.59944234541082553 0.66416205381394655 0 0.5004045312576143 0.47050700646456922 0.24963111222780321 0.59944234541082553 0.66416205381394655 0 0.5004045312576143 0.47050700646456922 0.24963111222780321 0.68456408135056701 0.68607101396845627 0.31096060989957619 0.52894546611500048 0.79133000140429866 0.2082794184507949 0.59944234541082553 0.66416205381394655 0 0.5004045312576143 0.47050700646456922 0.24963111222780321 0.67320508075660079 0.46954769941202479 0 0.77713227489941183 0.50036915849493024 0.21774643624003751 0.59944234541082553 0.66416205381394655 0 0.52894546611500048 0.79133000140429866 0.2082794184507949 0.68456408135056701 0.68607101396845627 0.31096060989957619 0.81582077266975173 0.77657922508894406 0.18483084990574741 0.59944234541082553 0.66416205381394655 0 0.45664527743509797 0.68801781652245086 0 0.51961524226956368 0.5000000000025091 0 0.5004045312576143 0.47050700646456922 0.24963111222780321 0.59944234541082553 0.66416205381394655 0 0.68456408135056701 0.68607101396845627 0.31096060989957619 0.72722573386132172 0.60922248848163563 0 0.81582077266975173 0.77657922508894406 0.18483084990574741 0.45664527743509797 0.68801781652245086 0 0.59944234541082553 0.66416205381394655 0 0.50803330197353713 0.83630110503668265 0 0.52894546611500048 0.79133000140429866 0.2082794184507949 0.59944234541082553 0.66416205381394655 0 0.72722573386132172 0.60922248848163563 0 0.7054234997318658 0.80860557108880304 0 0.81582077266975173 0.77657922508894406 0.18483084990574741 0.72722573386132172 0.60922248848163563 0 0.59944234541082553 0.66416205381394655 0 0.67320508075660079 0.46954769941202479 0 0.77713227489941183 0.50036915849493024 0.21774643624003751 0.68456408135056701 0.68607101396845627 0.31096060989957619 0.5004045312576143 0.47050700646456922 0.24963111222780321 0.35848654557803328 0.70013656506632282 0.30029870175293161 0.52894546611500048 0.79133000140429866 0.2082794184507949 0.68456408135056701 0.68607101396845627 0.31096060989957619 0.35848654557803328 0.70013656506632282 0.30029870175293161 0.50000000000001332 0.49999999999999561 0.49999999999999561 0.49983993748706529 0.75039103705932653 0.52967335724801234 0.50000000000001332 0.49999999999999561 0.49999999999999561 0.35848654557803328 0.70013656506632282 0.30029870175293161 0.68456408135056701 0.68607101396845627 0.31096060989957619 0.5004045312576143 0.47050700646456922 0.24963111222780321 0.50000000000001332 0.49999999999999561 0.49999999999999561 0.68456408135056701 0.68607101396845627 0.31096060989957619 0.7504488434426726 0.53051757989633308 0.49836643074154852 0.5004045312576143 0.47050700646456922 0.24963111222780321 0.68456408135056701 0.68607101396845627 0.31096060989957619 0.49983993748706529 0.75039103705932653 0.52967335724801234 0.7504488434426726 0.53051757989633308 0.49836643074154852 0.77374673111774417 0.78860835645735528 0.49829081152968557 0.7504488434426726 0.53051757989633308 0.49836643074154852 0.5004045312576143 0.47050700646456922 0.24963111222780321 0.68456408135056701 0.68607101396845627 0.31096060989957619 0.77713227489941183 0.50036915849493024 0.21774643624003751 0.35848654557803328 0.70013656506632282 0.30029870175293161 0.49983993748706529 0.75039103705932653 0.52967335724801234 0.68456408135056701 0.68607101396845627 0.31096060989957619 0.52894546611500048 0.79133000140429866 0.2082794184507949 0.50000000000001332 0.49999999999999561 0.49999999999999561 0.7504488434426726 0.53051757989633308 0.49836643074154852 0.68456408135056701 0.68607101396845627 0.31096060989957619 0.49983993748706529 0.75039103705932653 0.52967335724801234 0.68456408135056701 0.68607101396845627 0.31096060989957619 0.52894546611500048 0.79133000140429866 0.2082794184507949 0.61068558124908323 1 0.33127740899601937 0.81582077266975173 0.77657922508894406 0.18483084990574741 0.61068558124908323 1 0.33127740899601937 0.49983993748706529 0.75039103705932653 0.52967335724801234 0.68456408135056701 0.68607101396845627 0.31096060989957619 0.77374673111774417 0.78860835645735528 0.49829081152968557 0.61068558124908323 1 0.33127740899601937 0.68240285647621723 1 0.52310058211166854 0.49983993748706529 0.75039103705932653 0.52967335724801234 0.77374673111774417 0.78860835645735528 0.49829081152968557 0.82751535738810444 1 0.31407731390515509 0.68456408135056701 0.68607101396845627 0.31096060989957619 0.61068558124908323 1 0.33127740899601937 0.81582077266975173 0.77657922508894406 0.18483084990574741 0.45820186441796368 1 0.31030302876579191 0.61068558124908323 1 0.33127740899601937 0.49983993748706529 0.75039103705932653 0.52967335724801234 0.52894546611500048 0.79133000140429866 0.2082794184507949 0.61068558124908323 1 0.33127740899601937 0.68456408135056701 0.68607101396845627 0.31096060989957619 0.82751535738810444 1 0.31407731390515509 0.77374673111774417 0.78860835645735528 0.49829081152968557 0.68456408135056701 0.68607101396845627 0.31096060989957619 0.49983993748706529 0.75039103705932653 0.52967335724801234 0.61068558124908323 1 0.33127740899601937 0.52894546611500048 0.79133000140429866 0.2082794184507949 0.61068558124908323 1 0.33127740899601937 0.68240285647621723 1 0.52310058211166854 0.51961524227008238 1 0.49999999999872219 0.49983993748706529 0.75039103705932653 0.52967335724801234 0.51961524227008238 1 0.49999999999872219 0.45820186441796368 1 0.31030302876579191 0.61068558124908323 1 0.33127740899601937 0.49983993748706529 0.75039103705932653 0.52967335724801234 0.68240285647621723 1 0.52310058211166854 0.61068558124908323 1 0.33127740899601937 0.82751535738810444 1 0.31407731390515509 0.77374673111774417 0.78860835645735528 0.49829081152968557 0.51133491425992716 1 0.16370661204795281 0.61068558124908323 1 0.33127740899601937 0.45820186441796368 1 0.31030302876579191 0.52894546611500048 0.79133000140429866 0.2082794184507949 0.51133491425992716 1 0.16370661204795281 0.69988642339594154 1 0.16938214347578889 0.61068558124908323 1 0.33127740899601937 0.52894546611500048 0.79133000140429866 0.2082794184507949 0.69988642339594154 1 0.16938214347578889 0.61068558124908323 1 0.33127740899601937 0.52894546611500048 0.79133000140429866 0.2082794184507949 0.81582077266975173 0.77657922508894406 0.18483084990574741 0.69988642339594154 1 0.16938214347578889 0.52894546611500048 0.79133000140429866 0.2082794184507949 0.7054234997318658 0.80860557108880304 0 0.81582077266975173 0.77657922508894406 0.18483084990574741 0.69988642339594154 1 0.16938214347578889 0.51133491425992716 1 0.16370661204795281 0.50803330197353713 0.83630110503668265 0 0.52894546611500048 0.79133000140429866 0.2082794184507949 0.59944234541082553 0.66416205381394655 0 0.7054234997318658 0.80860557108880304 0 0.52894546611500048 0.79133000140429866 0.2082794184507949 0.81582077266975173 0.77657922508894406 0.18483084990574741 0.60000000000138687 1 0 0.69988642339594154 1 0.16938214347578889 0.51133491425992716 1 0.16370661204795281 0.50803330197353713 0.83630110503668265 0 0.51133491425992716 1 0.16370661204795281 0.40000000000166441 1 0 0.60000000000138687 1 0 0.50803330197353713 0.83630110503668265 0 0.50803330197353713 0.83630110503668265 0 0.59944234541082553 0.66416205381394655 0 0.7054234997318658 0.80860557108880304 0 0.52894546611500048 0.79133000140429866 0.2082794184507949 0.69988642339594154 1 0.16938214347578889 0.50803330197353713 0.83630110503668265 0 0.7054234997318658 0.80860557108880304 0 0.52894546611500048 0.79133000140429866 0.2082794184507949 0.60000000000138687 1 0 0.79999999999999982 1 0 0.69988642339594154 1 0.16938214347578889 0.7054234997318658 0.80860557108880304 0 0.50803330197353713 0.83630110503668265 0 0.60000000000138687 1 0 0.69988642339594154 1 0.16938214347578889 0.7054234997318658 0.80860557108880304 0 0.69988642339594154 1 0.16938214347578889 0.82751535738810444 1 0.31407731390515509 0.61068558124908323 1 0.33127740899601937 0.81582077266975173 0.77657922508894406 0.18483084990574741 0.82751535738810444 1 0.31407731390515509 0.69988642339594154 1 0.16938214347578889 0.85358983848665693 1 0.14641016151322461 0.81582077266975173 0.77657922508894406 0.18483084990574741 0.69988642339594154 1 0.16938214347578889 0.85358983848666903 0.85358983848666903 0 0.85358983848665693 1 0.14641016151322461 0.81582077266975173 0.77657922508894406 0.18483084990574741 0.85358983848665693 1 0.14641016151322461 1 0.85358983848655678 0.14641016151332509 0.82751535738810444 1 0.31407731390515509 0.81582077266975173 0.77657922508894406 0.18483084990574741 0.85358983848666903 0.85358983848666903 0 0.85358983848665693 1 0.14641016151322461 0.79999999999999982 1 0 0.69988642339594154 1 0.16938214347578889 0.69988642339594154 1 0.16938214347578889 0.79999999999999982 1 0 0.85358983848666903 0.85358983848666903 0 0.7054234997318658 0.80860557108880304 0 0.85358983848666903 0.85358983848666903 0 0.7054234997318658 0.80860557108880304 0 0.85173693729186062 0.69992182039541118 0 0.81582077266975173 0.77657922508894406 0.18483084990574741 0.69988642339594154 1 0.16938214347578889 0.7054234997318658 0.80860557108880304 0 0.85358983848666903 0.85358983848666903 0 0.81582077266975173 0.77657922508894406 0.18483084990574741 1 0.85358983848655678 0.14641016151332509 1 0.69449451837101916 0.15896804272136739 1 0.8148028884949543 0.31067093462944562 0.81582077266975173 0.77657922508894406 0.18483084990574741 0.82751535738810444 1 0.31407731390515509 1 0.85358983848655678 0.14641016151332509 1 0.8148028884949543 0.31067093462944562 0.81582077266975173 0.77657922508894406 0.18483084990574741 1 0.85358983848655678 0.14641016151332509 0.85358983848666903 0.85358983848666903 0 1 0.79999999999999982 0 0.81582077266975173 0.77657922508894406 0.18483084990574741 1 0.79999999999999982 0 0.81582077266975173 0.77657922508894406 0.18483084990574741 1 0.69449451837101916 0.15896804272136739 1 0.85358983848655678 0.14641016151332509 0.85358983848666903 0.85358983848666903 0 1 0.85358983848655678 0.14641016151332509 0.85358983848665693 1 0.14641016151322461 0.81582077266975173 0.77657922508894406 0.18483084990574741 0.85358983848666903 0.85358983848666903 0 0.85173693729186062 0.69992182039541118 0 1 0.79999999999999982 0 0.81582077266975173 0.77657922508894406 0.18483084990574741 1 0.85358983848655678 0.14641016151332509 0.85358983848665693 1 0.14641016151322461 1 1 0 0.85358983848666903 0.85358983848666903 0 1 1 0.19999999999955789 0.85358983848665693 1 0.14641016151322461 1 1 0 1 0.85358983848655678 0.14641016151332509 1 1 0 1 0.85358983848655678 0.14641016151332509 0.85358983848666903 0.85358983848666903 0 1 0.79999999999999982 0 0.79999999999999982 1 0 1 1 0 0.85358983848665693 1 0.14641016151322461 0.85358983848666903 0.85358983848666903 0 0.82751535738810444 1 0.31407731390515509 0.85358983848665693 1 0.14641016151322461 1 1 0.19999999999955789 1 0.85358983848655678 0.14641016151332509 1 1 0.19999999999955789 1 0.8148028884949543 0.31067093462944562 0.82751535738810444 1 0.31407731390515509 1 0.85358983848655678 0.14641016151332509 1 1 0.3999999999989749 1 0.8148028884949543 0.31067093462944562 0.82751535738810444 1 0.31407731390515509 1 1 0.19999999999955789 0.82751535738810444 1 0.31407731390515509 0.77374673111774417 0.78860835645735528 0.49829081152968557 0.68456408135056701 0.68607101396845627 0.31096060989957619 0.81582077266975173 0.77657922508894406 0.18483084990574741 1 0.8148028884949543 0.31067093462944562 0.77374673111774417 0.78860835645735528 0.49829081152968557 0.82751535738810444 1 0.31407731390515509 0.81582077266975173 0.77657922508894406 0.18483084990574741 1 0.8148028884949543 0.31067093462944562 0.68456408135056701 0.68607101396845627 0.31096060989957619 0.77374673111774417 0.78860835645735528 0.49829081152968557 0.81582077266975173 0.77657922508894406 0.18483084990574741 1 0.8148028884949543 0.31067093462944562 0.86762395692956074 1 0.5060815484123421 0.82751535738810444 1 0.31407731390515509 0.77374673111774417 0.78860835645735528 0.49829081152968557 0.68240285647621723 1 0.52310058211166854 0.82751535738810444 1 0.31407731390515509 0.86762395692956074 1 0.5060815484123421 0.77374673111774417 0.78860835645735528 0.49829081152968557 0.86762395692956074 1 0.5060815484123421 1 1 0.3999999999989749 1 0.8148028884949543 0.31067093462944562 0.82751535738810444 1 0.31407731390515509 1 1 0.3999999999989749 1 0.83630110503662825 0.50803330197135588 0.86762395692956074 1 0.5060815484123421 1 0.8148028884949543 0.31067093462944562 1 0.8148028884949543 0.31067093462944562 1 0.83630110503662825 0.50803330197135588 0.86762395692956074 1 0.5060815484123421 0.77374673111774417 0.78860835645735528 0.49829081152968557 1 0.8148028884949543 0.31067093462944562 1 0.68975022421527898 0.45812322962078778 1 0.83630110503662825 0.50803330197135588 0.77374673111774417 0.78860835645735528 0.49829081152968557 1 0.39615100178016449 0.32925244736082498 0.7504488434426726 0.53051757989633308 0.49836643074154852 1 0.60020898676431722 0.32446581821274012 0.77713227489941183 0.50036915849493024 0.21774643624003751 1 0.68975022421527898 0.45812322962078778 0.68456408135056701 0.68607101396845627 0.31096060989957619 1 0.60020898676431722 0.32446581821274012 0.7504488434426726 0.53051757989633308 0.49836643074154852 1 0.8148028884949543 0.31067093462944562 0.68456408135056701 0.68607101396845627 0.31096060989957619 1 0.68975022421527898 0.45812322962078778 0.77374673111774417 0.78860835645735528 0.49829081152968557 1 0.68975022421527898 0.45812322962078778 0.68456408135056701 0.68607101396845627 0.31096060989957619 0.7504488434426726 0.53051757989633308 0.49836643074154852 0.77374673111774417 0.78860835645735528 0.49829081152968557 1 0.68975022421527898 0.45812322962078778 1 0.8148028884949543 0.31067093462944562 1 0.60020898676431722 0.32446581821274012 0.68456408135056701 0.68607101396845627 0.31096060989957619 0.68456408135056701 0.68607101396845627 0.31096060989957619 1 0.60020898676431722 0.32446581821274012 0.7504488434426726 0.53051757989633308 0.49836643074154852 0.77713227489941183 0.50036915849493024 0.21774643624003751 1 0.8148028884949543 0.31067093462944562 1 0.60020898676431722 0.32446581821274012 0.68456408135056701 0.68607101396845627 0.31096060989957619 0.81582077266975173 0.77657922508894406 0.18483084990574741 1 0.60020898676431722 0.32446581821274012 0.77713227489941183 0.50036915849493024 0.21774643624003751 0.68456408135056701 0.68607101396845627 0.31096060989957619 0.81582077266975173 0.77657922508894406 0.18483084990574741 1 0.50000000000229983 0.51961524226898759 1 0.68975022421527898 0.45812322962078778 1 0.60020898676431722 0.32446581821274012 0.7504488434426726 0.53051757989633308 0.49836643074154852 1 0.39615100178016449 0.32925244736082498 1 0.50000000000229983 0.51961524226898759 1 0.60020898676431722 0.32446581821274012 0.7504488434426726 0.53051757989633308 0.49836643074154852 0.84191918937744659 0.51186163305076127 0 1 0.49836539647890021 0.17226134197269399 1 0.69449451837101916 0.15896804272136739 0.77713227489941183 0.50036915849493024 0.21774643624003751 1 0.69449451837101916 0.15896804272136739 0.85173693729186062 0.69992182039541118 0 0.77713227489941183 0.50036915849493024 0.21774643624003751 0.81582077266975173 0.77657922508894406 0.18483084990574741 1 0.69449451837101916 0.15896804272136739 0.77713227489941183 0.50036915849493024 0.21774643624003751 1 0.60020898676431722 0.32446581821274012 0.81582077266975173 0.77657922508894406 0.18483084990574741 1 0.69449451837101916 0.15896804272136739 1 0.49836539647890021 0.17226134197269399 1 0.60020898676431722 0.32446581821274012 0.77713227489941183 0.50036915849493024 0.21774643624003751 0.72722573386132172 0.60922248848163563 0 0.77713227489941183 0.50036915849493024 0.21774643624003751 0.85173693729186062 0.69992182039541118 0 0.81582077266975173 0.77657922508894406 0.18483084990574741 0.72722573386132172 0.60922248848163563 0 0.68456408135056701 0.68607101396845627 0.31096060989957619 0.77713227489941183 0.50036915849493024 0.21774643624003751 0.81582077266975173 0.77657922508894406 0.18483084990574741 1 0.8148028884949543 0.31067093462944562 1 0.69449451837101916 0.15896804272136739 1 0.60020898676431722 0.32446581821274012 0.81582077266975173 0.77657922508894406 0.18483084990574741 0.72722573386132172 0.60922248848163563 0 0.67320508075660079 0.46954769941202479 0 0.84191918937744659 0.51186163305076127 0 0.77713227489941183 0.50036915849493024 0.21774643624003751 0.84191918937744659 0.51186163305076127 0 1 0.69449451837101916 0.15896804272136739 0.85173693729186062 0.69992182039541118 0 0.77713227489941183 0.50036915849493024 0.21774643624003751 0.72722573386132172 0.60922248848163563 0 0.84191918937744659 0.51186163305076127 0 0.85173693729186062 0.69992182039541118 0 0.77713227489941183 0.50036915849493024 0.21774643624003751 0.7054234997318658 0.80860557108880304 0 0.72722573386132172 0.60922248848163563 0 0.85173693729186062 0.69992182039541118 0 0.81582077266975173 0.77657922508894406 0.18483084990574741 1 0.69449451837101916 0.15896804272136739 0.85173693729186062 0.69992182039541118 0 1 0.79999999999999982 0 1 0.60000000000138687 0 1 0.69449451837101916 0.15896804272136739 0.81582077266975173 0.77657922508894406 0.18483084990574741 1 0.79999999999999982 0 0.85173693729186062 0.69992182039541118 0 0.84191918937744659 0.51186163305076127 0 0.85173693729186062 0.69992182039541118 0 1 0.69449451837101916 0.15896804272136739 1 0.60000000000138687 0 1 0.60000000000138687 0 1 0.69449451837101916 0.15896804272136739 0.84191918937744659 0.51186163305076127 0 1 0.49836539647890021 0.17226134197269399 1 0.40000000000166441 0 1 0.60000000000138687 0 0.84191918937744659 0.51186163305076127 0 1 0.49836539647890021 0.17226134197269399 0.80839867011859301 0.31807971531731721 0 0.85358983848570813 0.1464101615143738 0 1 0.30074819035868428 0.16929708765640439 0.68777432594363841 0.31447353261427252 0.31366778418247038 0.80839867011859301 0.31807971531731721 0 1 0.40000000000166441 0 0.84191918937744659 0.51186163305076127 0 1 0.49836539647890021 0.17226134197269399 1 0.40000000000166441 0 0.80839867011859301 0.31807971531731721 0 1 0.30074819035868428 0.16929708765640439 1 0.49836539647890021 0.17226134197269399 0.80839867011859301 0.31807971531731721 0 0.68777432594363841 0.31447353261427252 0.31366778418247038 1 0.30074819035868428 0.16929708765640439 0.77713227489941183 0.50036915849493024 0.21774643624003751 0.84191918937744659 0.51186163305076127 0 0.67320508075660079 0.46954769941202479 0 0.80839867011859301 0.31807971531731721 0 0.77713227489941183 0.50036915849493024 0.21774643624003751 0.84191918937744659 0.51186163305076127 0 0.80839867011859301 0.31807971531731721 0 1 0.49836539647890021 0.17226134197269399 0.77713227489941183 0.50036915849493024 0.21774643624003751 0.80839867011859301 0.31807971531731721 0 1 0.30074819035868428 0.16929708765640439 1 0.49836539647890021 0.17226134197269399 0.77713227489941183 0.50036915849493024 0.21774643624003751 1 0.30074819035868428 0.16929708765640439 1 0.39615100178016449 0.32925244736082498 1 0.49836539647890021 0.17226134197269399 0.77713227489941183 0.50036915849493024 0.21774643624003751 1 0.30074819035868428 0.16929708765640439 0.80839867011859301 0.31807971531731721 0 1 0.40000000000166441 0 1 0.20000000000083221 0 1 0.30074819035868428 0.16929708765640439 0.80839867011859301 0.31807971531731721 0 1 0.20000000000083221 0 0.85358983848570813 0.1464101615143738 0 1 0.20000000000083221 0 1 0.14641016151453831 0.14641016151419689 1 0.30074819035868428 0.16929708765640439 0.85358983848570813 0.1464101615143738 0 0.83057691269884504 0 0.30018449338884379 0.85358983848650494 0 0.1464101615132356 0.68592116352011878 0 0.1724872797865501 0.68777432594363841 0.31447353261427252 0.31366778418247038 0.80839867011859301 0.31807971531731721 0 0.69380980079964416 0.1619694349440581 0 0.85358983848570813 0.1464101615143738 0 0.68777432594363841 0.31447353261427252 0.31366778418247038 1 0.18804489794556911 0.3161072616634244 1 0.30074819035868428 0.16929708765640439 1 0.14641016151453831 0.14641016151419689 0.68777432594363841 0.31447353261427252 0.31366778418247038 1 0.14641016151453831 0.14641016151419689 1 0.30074819035868428 0.16929708765640439 0.85358983848570813 0.1464101615143738 0 0.68777432594363841 0.31447353261427252 0.31366778418247038 1 0.14641016151453831 0.14641016151419689 0.85358983848650494 0 0.1464101615132356 0.83057691269884504 0 0.30018449338884379 0.68777432594363841 0.31447353261427252 0.31366778418247038 1 0.14641016151453831 0.14641016151419689 0.85358983848570813 0.1464101615143738 0 0.85358983848650494 0 0.1464101615132356 0.68777432594363841 0.31447353261427252 0.31366778418247038 0.69380980079964416 0.1619694349440581 0 0.85358983848650494 0 0.1464101615132356 0.85358983848570813 0.1464101615143738 0 0.68777432594363841 0.31447353261427252 0.31366778418247038 0.85358983848650494 0 0.1464101615132356 0.83057691269884504 0 0.30018449338884379 1 0 0.19999999999955789 1 0.14641016151453831 0.14641016151419689 0.83057691269884504 0 0.30018449338884379 1 0.18804489794556911 0.3161072616634244 1 0 0.19999999999955789 1 0.14641016151453831 0.14641016151419689 0.85358983848570813 0.1464101615143738 0 1 0 0 0.85358983848650494 0 0.1464101615132356 0.79999999999947335 0 0 0.85358983848650494 0 0.1464101615132356 1 0 0.19999999999955789 1 0 0 1 0.14641016151453831 0.14641016151419689 1 0 0 1 0.14641016151453831 0.14641016151419689 1 0.20000000000083221 0 0.85358983848570813 0.1464101615143738 0 1 0.14641016151453831 0.14641016151419689 1 0 0 0.85358983848650494 0 0.1464101615132356 0.85358983848570813 0.1464101615143738 0 0.68592116352011878 0 0.1724872797865501 0.69380980079964416 0.1619694349440581 0 0.85358983848650494 0 0.1464101615132356 0.79999999999947335 0 0 0.85358983848570813 0.1464101615143738 0 0.85358983848650494 0 0.1464101615132356 0.69380980079964416 0.1619694349440581 0 0.79999999999947335 0 0 0.68592116352011878 0 0.1724872797865501 0.68777432594363841 0.31447353261427252 0.31366778418247038 0.69380980079964416 0.1619694349440581 0 0.5003997205654479 0.21136633249797621 0.2258422409314382 0.68592116352011878 0 0.1724872797865501 0.85358983848650494 0 0.1464101615132356 0.69380980079964416 0.1619694349440581 0 0.68777432594363841 0.31447353261427252 0.31366778418247038 0.69380980079964416 0.1619694349440581 0 0.68592116352011878 0 0.1724872797865501 0.59999999999894682 0 0 0.79999999999947335 0 0 0.49391845158624981 0 0.1323760430705655 0.3999999999989749 0 0 0.50966790549376417 0.16275515618023731 0 0.59999999999894682 0 0 0.50966790549376417 0.16275515618023731 0 0.69380980079964416 0.1619694349440581 0 0.68592116352011878 0 0.1724872797865501 0.59999999999894682 0 0 0.68592116352011878 0 0.1724872797865501 0.49391845158624981 0 0.1323760430705655 0.50966790549376417 0.16275515618023731 0 0.59999999999894682 0 0 0.47688326899416439 0 0.31741132792405607 0.68592116352011878 0 0.1724872797865501 0.49391845158624981 0 0.1323760430705655 0.5003997205654479 0.21136633249797621 0.2258422409314382 0.49391845158624981 0 0.1323760430705655 0.68592116352011878 0 0.1724872797865501 0.50966790549376417 0.16275515618023731 0 0.5003997205654479 0.21136633249797621 0.2258422409314382 0.50966790549376417 0.16275515618023731 0 0.68592116352011878 0 0.1724872797865501 0.69380980079964416 0.1619694349440581 0 0.5003997205654479 0.21136633249797621 0.2258422409314382 0.6104699881764214 0.32043363027358418 0 0.50966790549376417 0.16275515618023731 0 0.69380980079964416 0.1619694349440581 0 0.5003997205654479 0.21136633249797621 0.2258422409314382 0.6104699881764214 0.32043363027358418 0 0.68777432594363841 0.31447353261427252 0.31366778418247038 0.80839867011859301 0.31807971531731721 0 0.77713227489941183 0.50036915849493024 0.21774643624003751 0.6104699881764214 0.32043363027358418 0 0.69380980079964416 0.1619694349440581 0 0.68777432594363841 0.31447353261427252 0.31366778418247038 0.5003997205654479 0.21136633249797621 0.2258422409314382 0.80839867011859301 0.31807971531731721 0 0.6104699881764214 0.32043363027358418 0 0.69380980079964416 0.1619694349440581 0 0.68777432594363841 0.31447353261427252 0.31366778418247038 0.6104699881764214 0.32043363027358418 0 0.45812322962036273 0.31024977578535839 0 0.50966790549376417 0.16275515618023731 0 0.5003997205654479 0.21136633249797621 0.2258422409314382 0.45812322962036273 0.31024977578535839 0 0.6104699881764214 0.32043363027358418 0 0.5004045312576143 0.47050700646456922 0.24963111222780321 0.5003997205654479 0.21136633249797621 0.2258422409314382 0.77713227489941183 0.50036915849493024 0.21774643624003751 0.6104699881764214 0.32043363027358418 0 0.5004045312576143 0.47050700646456922 0.24963111222780321 0.67320508075660079 0.46954769941202479 0 0.68777432594363841 0.31447353261427252 0.31366778418247038 0.5004045312576143 0.47050700646456922 0.24963111222780321 0.6104699881764214 0.32043363027358418 0 0.5003997205654479 0.21136633249797621 0.2258422409314382 0.77713227489941183 0.50036915849493024 0.21774643624003751 0.5004045312576143 0.47050700646456922 0.24963111222780321 0.6104699881764214 0.32043363027358418 0 0.68777432594363841 0.31447353261427252 0.31366778418247038 0.51961524226956368 0.5000000000025091 0 0.6104699881764214 0.32043363027358418 0 0.67320508075660079 0.46954769941202479 0 0.5004045312576143 0.47050700646456922 0.24963111222780321 0.45812322962036273 0.31024977578535839 0 0.6104699881764214 0.32043363027358418 0 0.51961524226956368 0.5000000000025091 0 0.5004045312576143 0.47050700646456922 0.24963111222780321 0.6104699881764214 0.32043363027358418 0 0.80839867011859301 0.31807971531731721 0 0.67320508075660079 0.46954769941202479 0 0.77713227489941183 0.50036915849493024 0.21774643624003751 0.68777432594363841 0.31447353261427252 0.31366778418247038 0.7504488434426726 0.53051757989633308 0.49836643074154852 0.50000000000001332 0.49999999999999561 0.49999999999999561 0.50073570207385831 0.24848280280289631 0.52886631355986169 0.7504488434426726 0.53051757989633308 0.49836643074154852 0.50073570207385831 0.24848280280289631 0.52886631355986169 0.68777432594363841 0.31447353261427252 0.31366778418247038 0.77973766487723961 0.22090161127815711 0.50014622462635805 0.50000000000001332 0.49999999999999561 0.49999999999999561 0.7504488434426726 0.53051757989633308 0.49836643074154852 0.68777432594363841 0.31447353261427252 0.31366778418247038 0.5004045312576143 0.47050700646456922 0.24963111222780321 0.68777432594363841 0.31447353261427252 0.31366778418247038 0.5004045312576143 0.47050700646456922 0.24963111222780321 0.7504488434426726 0.53051757989633308 0.49836643074154852 0.77713227489941183 0.50036915849493024 0.21774643624003751 0.50073570207385831 0.24848280280289631 0.52886631355986169 0.5004045312576143 0.47050700646456922 0.24963111222780321 0.68777432594363841 0.31447353261427252 0.31366778418247038 0.5003997205654479 0.21136633249797621 0.2258422409314382 0.50000000000001332 0.49999999999999561 0.49999999999999561 0.68777432594363841 0.31447353261427252 0.31366778418247038 0.50073570207385831 0.24848280280289631 0.52886631355986169 0.5004045312576143 0.47050700646456922 0.24963111222780321 0.83057691269884504 0 0.30018449338884379 0.68777432594363841 0.31447353261427252 0.31366778418247038 0.66852282575985944 0 0.3853248791658106 0.77973766487723961 0.22090161127815711 0.50014622462635805 0.68592116352011878 0 0.1724872797865501 0.66852282575985944 0 0.3853248791658106 0.83057691269884504 0 0.30018449338884379 0.68777432594363841 0.31447353261427252 0.31366778418247038 0.66852282575985944 0 0.3853248791658106 0.47688326899416439 0 0.31741132792405607 0.50073570207385831 0.24848280280289631 0.52886631355986169 0.5003997205654479 0.21136633249797621 0.2258422409314382 0.68969697123394857 0 0.54179813558228873 0.66852282575985944 0 0.3853248791658106 0.50073570207385831 0.24848280280289631 0.52886631355986169 0.77973766487723961 0.22090161127815711 0.50014622462635805 0.68592116352011878 0 0.1724872797865501 0.66852282575985944 0 0.3853248791658106 0.68777432594363841 0.31447353261427252 0.31366778418247038 0.5003997205654479 0.21136633249797621 0.2258422409314382 0.66852282575985944 0 0.3853248791658106 0.50073570207385831 0.24848280280289631 0.52886631355986169 0.68777432594363841 0.31447353261427252 0.31366778418247038 0.5003997205654479 0.21136633249797621 0.2258422409314382 0.68777432594363841 0.31447353261427252 0.31366778418247038 0.50073570207385831 0.24848280280289631 0.52886631355986169 0.66852282575985944 0 0.3853248791658106 0.77973766487723961 0.22090161127815711 0.50014622462635805 0.68592116352011878 0 0.1724872797865501 0.47688326899416439 0 0.31741132792405607 0.66852282575985944 0 0.3853248791658106 0.5003997205654479 0.21136633249797621 0.2258422409314382 0.50000000000250922 0 0.48038475773043671 0.66852282575985944 0 0.3853248791658106 0.47688326899416439 0 0.31741132792405607 0.50073570207385831 0.24848280280289631 0.52886631355986169 0.50000000000250922 0 0.48038475773043671 0.68969697123394857 0 0.54179813558228873 0.66852282575985944 0 0.3853248791658106 0.50073570207385831 0.24848280280289631 0.52886631355986169 0.66852282575985944 0 0.3853248791658106 0.68969697123394857 0 0.54179813558228873 0.83534964916824084 0 0.4902996892628636 0.77973766487723961 0.22090161127815711 0.50014622462635805 1 0.18804489794556911 0.3161072616634244 0.68777432594363841 0.31447353261427252 0.31366778418247038 0.83057691269884504 0 0.30018449338884379 0.77973766487723961 0.22090161127815711 0.50014622462635805 1 0.18804489794556911 0.3161072616634244 1 0.14641016151453831 0.14641016151419689 0.83057691269884504 0 0.30018449338884379 0.68777432594363841 0.31447353261427252 0.31366778418247038 0.83534964916824084 0 0.4902996892628636 0.83057691269884504 0 0.30018449338884379 0.66852282575985944 0 0.3853248791658106 0.77973766487723961 0.22090161127815711 0.50014622462635805 0.83534964916824084 0 0.4902996892628636 1 0.18804489794556911 0.3161072616634244 0.83057691269884504 0 0.30018449338884379 0.77973766487723961 0.22090161127815711 0.50014622462635805 0.83057691269884504 0 0.30018449338884379 0.83534964916824084 0 0.4902996892628636 1 0 0.3999999999989749 1 0.18804489794556911 0.3161072616634244 0.83534964916824084 0 0.4902996892628636 1 0.162755156180173 0.50966790549372887 1 0 0.59999999999894682 1 0 0.3999999999989749 1 0 0.3999999999989749 0.83534964916824084 0 0.4902996892628636 1 0.162755156180173 0.50966790549372887 1 0.18804489794556911 0.3161072616634244 1 0.18804489794556911 0.3161072616634244 1 0 0.3999999999989749 0.83057691269884504 0 0.30018449338884379 1 0 0.19999999999955789 1 0.31024977578542368 0.45812322962028301 1 0.18804489794556911 0.3161072616634244 1 0.162755156180173 0.50966790549372887 0.77973766487723961 0.22090161127815711 0.50014622462635805 0.83534964916824084 0 0.4902996892628636 1 0.162755156180173 0.50966790549372887 1 0.18804489794556911 0.3161072616634244 0.77973766487723961 0.22090161127815711 0.50014622462635805 1 0.39615100178016449 0.32925244736082498 0.68777432594363841 0.31447353261427252 0.31366778418247038 0.7504488434426726 0.53051757989633308 0.49836643074154852 0.77713227489941183 0.50036915849493024 0.21774643624003751 1 0.39615100178016449 0.32925244736082498 1 0.18804489794556911 0.3161072616634244 1 0.31024977578542368 0.45812322962028301 0.68777432594363841 0.31447353261427252 0.31366778418247038 1 0.31024977578542368 0.45812322962028301 0.7504488434426726 0.53051757989633308 0.49836643074154852 0.68777432594363841 0.31447353261427252 0.31366778418247038 0.77973766487723961 0.22090161127815711 0.50014622462635805 1 0.30074819035868428 0.16929708765640439 1 0.18804489794556911 0.3161072616634244 1 0.39615100178016449 0.32925244736082498 0.68777432594363841 0.31447353261427252 0.31366778418247038 1 0.31024977578542368 0.45812322962028301 0.68777432594363841 0.31447353261427252 0.31366778418247038 1 0.18804489794556911 0.3161072616634244 0.77973766487723961 0.22090161127815711 0.50014622462635805 1 0.30074819035868428 0.16929708765640439 0.68777432594363841 0.31447353261427252 0.31366778418247038 1 0.39615100178016449 0.32925244736082498 0.77713227489941183 0.50036915849493024 0.21774643624003751 1 0.39615100178016449 0.32925244736082498 0.68777432594363841 0.31447353261427252 0.31366778418247038 1 0.31024977578542368 0.45812322962028301 0.7504488434426726 0.53051757989633308 0.49836643074154852 1 0.60020898676431722 0.32446581821274012 1 0.49836539647890021 0.17226134197269399 1 0.39615100178016449 0.32925244736082498 0.77713227489941183 0.50036915849493024 0.21774643624003751 1 0.39615100178016449 0.32925244736082498 1 0.31024977578542368 0.45812322962028301 1 0.50000000000229983 0.51961524226898759 0.7504488434426726 0.53051757989633308 0.49836643074154852 1 0.33579115324550912 0.59952339316293046 0.7504488434426726 0.53051757989633308 0.49836643074154852 0.68742751001967084 0.31250796680084852 0.687427510020161 0.78019141325921404 0.49972466465542442 0.78019141325930785 1 0.33579115324550912 0.59952339316293046 1 0.39076805646076263 0.7272421105028648 0.68742751001967084 0.31250796680084852 0.687427510020161 0.81599560342209843 0.22280203704001911 0.81599560342233202 1 0.33579115324550912 0.59952339316293046 1 0.53045230059030524 0.6732050807565132 1 0.50000000000229983 0.51961524226898759 0.7504488434426726 0.53051757989633308 0.49836643074154852 1 0.33579115324550912 0.59952339316293046 0.7504488434426726 0.53051757989633308 0.49836643074154852 1 0.31024977578542368 0.45812322962028301 0.77973766487723961 0.22090161127815711 0.50014622462635805 0.68742751001967084 0.31250796680084852 0.687427510020161 0.77973766487723961 0.22090161127815711 0.50014622462635805 1 0.33579115324550912 0.59952339316293046 0.81599560342209843 0.22280203704001911 0.81599560342233202 1 0.33579115324550912 0.59952339316293046 0.68742751001967084 0.31250796680084852 0.687427510020161 0.7504488434426726 0.53051757989633308 0.49836643074154852 0.77973766487723961 0.22090161127815711 0.50014622462635805 1 0.53045230059030524 0.6732050807565132 0.7504488434426726 0.53051757989633308 0.49836643074154852 1 0.33579115324550912 0.59952339316293046 0.78019141325921404 0.49972466465542442 0.78019141325930785 1 0.39076805646076263 0.7272421105028648 1 0.33579115324550912 0.59952339316293046 0.68742751001967084 0.31250796680084852 0.687427510020161 0.78019141325921404 0.49972466465542442 0.78019141325930785 1 0.33579115324550912 0.59952339316293046 1 0.50000000000229983 0.51961524226898759 1 0.31024977578542368 0.45812322962028301 0.7504488434426726 0.53051757989633308 0.49836643074154852 1 0.39076805646076263 0.7272421105028648 1 0.53045230059030524 0.6732050807565132 1 0.33579115324550912 0.59952339316293046 0.78019141325921404 0.49972466465542442 0.78019141325930785 1 0.33579115324550912 0.59952339316293046 1 0.1912596090855686 0.70565701451953711 1 0.39076805646076263 0.7272421105028648 0.81599560342209843 0.22280203704001911 0.81599560342233202 1 0.33579115324550912 0.59952339316293046 1 0.31024977578542368 0.45812322962028301 1 0.162755156180173 0.50966790549372887 0.77973766487723961 0.22090161127815711 0.50014622462635805 1 0.162755156180173 0.50966790549372887 0.81469961246449951 0 0.68914937826112133 1 0.1912596090855686 0.70565701451953711 0.77973766487723961 0.22090161127815711 0.50014622462635805 0.81469961246449951 0 0.68914937826112133 0.77973766487723961 0.22090161127815711 0.50014622462635805 0.68742751001967084 0.31250796680084852 0.687427510020161 0.81599560342209843 0.22280203704001911 0.81599560342233202 0.81469961246449951 0 0.68914937826112133 1 0.1912596090855686 0.70565701451953711 0.77973766487723961 0.22090161127815711 0.50014622462635805 0.81599560342209843 0.22280203704001911 0.81599560342233202 1 0.1912596090855686 0.70565701451953711 1 0.33579115324550912 0.59952339316293046 0.77973766487723961 0.22090161127815711 0.50014622462635805 0.81599560342209843 0.22280203704001911 0.81599560342233202 1 0.162755156180173 0.50966790549372887 1 0.1912596090855686 0.70565701451953711 1 0.33579115324550912 0.59952339316293046 0.77973766487723961 0.22090161127815711 0.50014622462635805 1 0.1912596090855686 0.70565701451953711 0.81469961246449951 0 0.68914937826112133 1 0 0.59999999999894682 1 0 0.79999999999947335 0.81469961246449951 0 0.68914937826112133 1 0 0.59999999999894682 1 0.162755156180173 0.50966790549372887 1 0.1912596090855686 0.70565701451953711 1 0.162755156180173 0.50966790549372887 1 0 0.59999999999894682 0.81469961246449951 0 0.68914937826112133 0.83534964916824084 0 0.4902996892628636 0.81469961246449951 0 0.68914937826112133 0.83534964916824084 0 0.4902996892628636 0.68969697123394857 0 0.54179813558228873 0.77973766487723961 0.22090161127815711 0.50014622462635805 0.81469961246449951 0 0.68914937826112133 1 0.162755156180173 0.50966790549372887 0.83534964916824084 0 0.4902996892628636 0.77973766487723961 0.22090161127815711 0.50014622462635805 0.68969697123394857 0 0.54179813558228873 0.6002015905170176 0 0.67551889168744117 0.68742751001967084 0.31250796680084852 0.687427510020161 0.50073570207385831 0.24848280280289631 0.52886631355986169 0.6002015905170176 0 0.67551889168744117 0.81469961246449951 0 0.68914937826112133 0.68969697123394857 0 0.54179813558228873 0.68742751001967084 0.31250796680084852 0.687427510020161 0.81469961246449951 0 0.68914937826112133 0.68969697123394857 0 0.54179813558228873 0.68742751001967084 0.31250796680084852 0.687427510020161 0.77973766487723961 0.22090161127815711 0.50014622462635805 0.69447607299129699 0 0.84099946107689361 0.68742751001967084 0.31250796680084852 0.687427510020161 0.6002015905170176 0 0.67551889168744117 0.50084626324420545 0.22238844715913 0.78084811589659187 0.68742751001967084 0.31250796680084852 0.687427510020161 0.68969697123394857 0 0.54179813558228873 0.50073570207385831 0.24848280280289631 0.52886631355986169 0.77973766487723961 0.22090161127815711 0.50014622462635805 0.68742751001967084 0.31250796680084852 0.687427510020161 0.50073570207385831 0.24848280280289631 0.52886631355986169 0.6002015905170176 0 0.67551889168744117 0.50084626324420545 0.22238844715913 0.78084811589659187 0.6002015905170176 0 0.67551889168744117 0.81469961246449951 0 0.68914937826112133 0.68742751001967084 0.31250796680084852 0.687427510020161 0.81599560342209843 0.22280203704001911 0.81599560342233202 0.68969697123394857 0 0.54179813558228873 0.50000000000250922 0 0.48038475773043671 0.6002015905170176 0 0.67551889168744117 0.50073570207385831 0.24848280280289631 0.52886631355986169 0.50000000000001332 0.49999999999999561 0.49999999999999561 0.68742751001967084 0.31250796680084852 0.687427510020161 0.49816183246753282 0.5307146639261795 0.75045686993209071 0.50073570207385831 0.24848280280289631 0.52886631355986169 0.68742751001967084 0.31250796680084852 0.687427510020161 0.50000000000001332 0.49999999999999561 0.49999999999999561 0.7504488434426726 0.53051757989633308 0.49836643074154852 0.50073570207385831 0.24848280280289631 0.52886631355986169 0.68742751001967084 0.31250796680084852 0.687427510020161 0.7504488434426726 0.53051757989633308 0.49836643074154852 0.50000000000001332 0.49999999999999561 0.49999999999999561 0.49816183246753282 0.5307146639261795 0.75045686993209071 0.7504488434426726 0.53051757989633308 0.49836643074154852 0.49816183246753282 0.5307146639261795 0.75045686993209071 0.68742751001967084 0.31250796680084852 0.687427510020161 0.78019141325921404 0.49972466465542442 0.78019141325930785 0.49816183246753282 0.5307146639261795 0.75045686993209071 0.50073570207385831 0.24848280280289631 0.52886631355986169 0.68742751001967084 0.31250796680084852 0.687427510020161 0.50084626324420545 0.22238844715913 0.78084811589659187 0.68742751001967084 0.31250796680084852 0.687427510020161 0.50073570207385831 0.24848280280289631 0.52886631355986169 0.7504488434426726 0.53051757989633308 0.49836643074154852 0.77973766487723961 0.22090161127815711 0.50014622462635805 0.45812322962173568 0.31024977578554058 1 0.49816183246753282 0.5307146639261795 0.75045686993209071 0.59952339316492498 0.33579115324593939 1 0.50084626324420545 0.22238844715913 0.78084811589659187 0.59952339316492498 0.33579115324593939 1 0.68742751001967084 0.31250796680084852 0.687427510020161 0.72724211050425436 0.39076805646176382 1 0.81599560342209843 0.22280203704001911 0.81599560342233202 0.59952339316492498 0.33579115324593939 1 0.68742751001967084 0.31250796680084852 0.687427510020161 0.49816183246753282 0.5307146639261795 0.75045686993209071 0.78019141325921404 0.49972466465542442 0.78019141325930785 0.59952339316492498 0.33579115324593939 1 0.50084626324420545 0.22238844715913 0.78084811589659187 0.68742751001967084 0.31250796680084852 0.687427510020161 0.81599560342209843 0.22280203704001911 0.81599560342233202 0.59952339316492498 0.33579115324593939 1 0.49816183246753282 0.5307146639261795 0.75045686993209071 0.68742751001967084 0.31250796680084852 0.687427510020161 0.50084626324420545 0.22238844715913 0.78084811589659187 0.59952339316492498 0.33579115324593939 1 0.72724211050425436 0.39076805646176382 1 0.68742751001967084 0.31250796680084852 0.687427510020161 0.78019141325921404 0.49972466465542442 0.78019141325930785 0.59952339316492498 0.33579115324593939 1 0.49816183246753282 0.5307146639261795 0.75045686993209071 0.67320508075671459 0.53045230059073867 1 0.78019141325921404 0.49972466465542442 0.78019141325930785 0.70565701452089868 0.1912596090858541 1 0.59952339316492498 0.33579115324593939 1 0.72724211050425436 0.39076805646176382 1 0.81599560342209843 0.22280203704001911 0.81599560342233202 0.59952339316492498 0.33579115324593939 1 0.67320508075671459 0.53045230059073867 1 0.72724211050425436 0.39076805646176382 1 0.78019141325921404 0.49972466465542442 0.78019141325930785 0.45812322962173568 0.31024977578554058 1 0.51961524226934941 0.50000000000250611 1 0.59952339316492498 0.33579115324593939 1 0.49816183246753282 0.5307146639261795 0.75045686993209071 0.67320508075671459 0.53045230059073867 1 0.59952339316492498 0.33579115324593939 1 0.51961524226934941 0.50000000000250611 1 0.49816183246753282 0.5307146639261795 0.75045686993209071 0.59952339316492498 0.33579115324593939 1 0.50966790549576724 0.1627551561802443 1 0.45812322962173568 0.31024977578554058 1 0.50084626324420545 0.22238844715913 0.78084811589659187 0.50966790549576724 0.1627551561802443 1 0.70565701452089868 0.1912596090858541 1 0.69447607299129699 0 0.84099946107689361 0.50084626324420545 0.22238844715913 0.78084811589659187 0.68742751001967084 0.31250796680084852 0.687427510020161 0.50084626324420545 0.22238844715913 0.78084811589659187 0.69447607299129699 0 0.84099946107689361 0.81599560342209843 0.22280203704001911 0.81599560342233202 0.70565701452089868 0.1912596090858541 1 0.69447607299129699 0 0.84099946107689361 0.50084626324420545 0.22238844715913 0.78084811589659187 0.81599560342209843 0.22280203704001911 0.81599560342233202 0.70565701452089868 0.1912596090858541 1 0.50084626324420545 0.22238844715913 0.78084811589659187 0.59952339316492498 0.33579115324593939 1 0.81599560342209843 0.22280203704001911 0.81599560342233202 0.70565701452089868 0.1912596090858541 1 0.50966790549576724 0.1627551561802443 1 0.59952339316492498 0.33579115324593939 1 0.50084626324420545 0.22238844715913 0.78084811589659187 0.6002015905170176 0 0.67551889168744117 0.68742751001967084 0.31250796680084852 0.687427510020161 0.69447607299129699 0 0.84099946107689361 0.81599560342209843 0.22280203704001911 0.81599560342233202 0.69447607299129699 0 0.84099946107689361 0.6002015905170176 0 0.67551889168744117 0.49836539647917322 0 0.82773865802723501 0.50084626324420545 0.22238844715913 0.78084811589659187 0.69447607299129699 0 0.84099946107689361 0.49836539647917322 0 0.82773865802723501 0.50966790549576724 0.1627551561802443 1 0.50084626324420545 0.22238844715913 0.78084811589659187 0.60000000000138687 0 1 0.49836539647917322 0 0.82773865802723501 0.50966790549576724 0.1627551561802443 1 0.69447607299129699 0 0.84099946107689361 0.50966790549576724 0.1627551561802443 1 0.40000000000166441 0 1 0.49836539647917322 0 0.82773865802723501 0.60000000000138687 0 1 0.50966790549576724 0.1627551561802443 1 0.70565701452089868 0.1912596090858541 1 0.60000000000138687 0 1 0.69447607299129699 0 0.84099946107689361 0.70565701452089868 0.1912596090858541 1 0.60000000000138687 0 1 0.69447607299129699 0 0.84099946107689361 0.79999999999999982 0 1 0.6002015905170176 0 0.67551889168744117 0.69447607299129699 0 0.84099946107689361 0.81469961246449951 0 0.68914937826112133 0.81599560342209843 0.22280203704001911 0.81599560342233202 0.70565701452089868 0.1912596090858541 1 0.85358983848646974 0.14641016151341191 1 0.69447607299129699 0 0.84099946107689361 0.81599560342209843 0.22280203704001911 0.81599560342233202 0.85358983848646974 0.14641016151341191 1 0.70565701452089868 0.1912596090858541 1 0.85173693729199718 0.30007817960516198 1 0.81599560342209843 0.22280203704001911 0.81599560342233202 1 0.1912596090855686 0.70565701451953711 0.81469961246449951 0 0.68914937826112133 0.85358983848570524 0 0.85358983848556425 0.81599560342209843 0.22280203704001911 0.81599560342233202 0.69447607299129699 0 0.84099946107689361 0.85358983848570524 0 0.85358983848556425 0.81469961246449951 0 0.68914937826112133 0.81599560342209843 0.22280203704001911 0.81599560342233202 0.85358983848570524 0 0.85358983848556425 0.69447607299129699 0 0.84099946107689361 0.85358983848646974 0.14641016151341191 1 0.81599560342209843 0.22280203704001911 0.81599560342233202 0.79999999999999982 0 1 0.69447607299129699 0 0.84099946107689361 0.70565701452089868 0.1912596090858541 1 0.85358983848646974 0.14641016151341191 1 0.79999999999999982 0 1 0.85358983848570524 0 0.85358983848556425 0.69447607299129699 0 0.84099946107689361 0.85358983848646974 0.14641016151341191 1 1 0 1 1 0.14641016151333891 0.85358983848640169 0.85358983848570524 0 0.85358983848556425 0.85358983848646974 0.14641016151341191 1 0.79999999999999982 0 1 1 0 1 0.85358983848570524 0 0.85358983848556425 0.85358983848646974 0.14641016151341191 1 0.85358983848646974 0.14641016151341191 1 1 0 1 1 0.14641016151333891 0.85358983848640169 1 0.19999999999955789 1 0.85358983848570524 0 0.85358983848556425 1 0.14641016151333891 0.85358983848640169 1 0 1 1 0 0.79999999999947335 0.85358983848570524 0 0.85358983848556425 0.81469961246449951 0 0.68914937826112133 1 0.1912596090855686 0.70565701451953711 1 0 0.79999999999947335 1 0.1912596090855686 0.70565701451953711 1 0.14641016151333891 0.85358983848640169 0.85358983848570524 0 0.85358983848556425 1 0 0.79999999999947335 1 0.14641016151333891 0.85358983848640169 1 0.30007817960499339 0.85173693729139244 1 0.1912596090855686 0.70565701451953711 0.81599560342209843 0.22280203704001911 0.81599560342233202 1 0.1912596090855686 0.70565701451953711 0.85358983848570524 0 0.85358983848556425 1 0.14641016151333891 0.85358983848640169 0.81599560342209843 0.22280203704001911 0.81599560342233202 0.85358983848646974 0.14641016151341191 1 0.85173693729199718 0.30007817960516198 1 1 0.19999999999955789 1 0.81599560342209843 0.22280203704001911 0.81599560342233202 1 0.14641016151333891 0.85358983848640169 0.85358983848646974 0.14641016151341191 1 1 0.19999999999955789 1 0.81599560342209843 0.22280203704001911 0.81599560342233202 1 0.14641016151333891 0.85358983848640169 1 0.19999999999955789 1 1 0.30007817960499339 0.85173693729139244 0.81599560342209843 0.22280203704001911 0.81599560342233202 0.85358983848570524 0 0.85358983848556425 0.85358983848646974 0.14641016151341191 1 1 0.14641016151333891 0.85358983848640169 0.81599560342209843 0.22280203704001911 0.81599560342233202 1 0.19999999999955789 1 1 0.30007817960499339 0.85173693729139244 0.85173693729199718 0.30007817960516198 1 1 0.3999999999989749 1 1 0.19999999999955789 1 0.85173693729199718 0.30007817960516198 1 1 0.30007817960499339 0.85173693729139244 0.81599560342209843 0.22280203704001911 0.81599560342233202 1 0.30007817960499339 0.85173693729139244 0.85173693729199718 0.30007817960516198 1 0.78019141325921404 0.49972466465542442 0.78019141325930785 0.81599560342209843 0.22280203704001911 0.81599560342233202 0.68742751001967084 0.31250796680084852 0.687427510020161 0.78019141325921404 0.49972466465542442 0.78019141325930785 0.72724211050425436 0.39076805646176382 1 0.81599560342209843 0.22280203704001911 0.81599560342233202 1 0.39076805646076263 0.7272421105028648 1 0.30007817960499339 0.85173693729139244 0.78019141325921404 0.49972466465542442 0.78019141325930785 0.81599560342209843 0.22280203704001911 0.81599560342233202 0.85173693729199718 0.30007817960516198 1 0.72724211050425436 0.39076805646176382 1 0.78019141325921404 0.49972466465542442 0.78019141325930785 0.81599560342209843 0.22280203704001911 0.81599560342233202 1 0.39076805646076263 0.7272421105028648 0.78019141325921404 0.49972466465542442 0.78019141325930785 0.68742751001967084 0.31250796680084852 0.687427510020161 0.81599560342209843 0.22280203704001911 0.81599560342233202 0.85173693729199718 0.30007817960516198 1 1 0.30007817960499339 0.85173693729139244 1 0.48813836695007229 0.84191918937727617 1 0.3999999999989749 1 0.72724211050425436 0.39076805646176382 1 0.85173693729199718 0.30007817960516198 1 0.70565701452089868 0.1912596090858541 1 0.81599560342209843 0.22280203704001911 0.81599560342233202 1 0.1912596090855686 0.70565701451953711 1 0.30007817960499339 0.85173693729139244 1 0.39076805646076263 0.7272421105028648 0.81599560342209843 0.22280203704001911 0.81599560342233202 0.85173693729199718 0.30007817960516198 1 1 0.48813836695007229 0.84191918937727617 1 0.30007817960499339 0.85173693729139244 0.78019141325921404 0.49972466465542442 0.78019141325930785 1 0.30007817960499339 0.85173693729139244 1 0.48813836695007229 0.84191918937727617 1 0.39076805646076263 0.7272421105028648 0.78019141325921404 0.49972466465542442 0.78019141325930785 1 0.39076805646076263 0.7272421105028648 1 0.48813836695007229 0.84191918937727617 1 0.53045230059030524 0.6732050807565132 0.78019141325921404 0.49972466465542442 0.78019141325930785 0.72724211050425436 0.39076805646176382 1 0.67320508075671459 0.53045230059073867 1 0.84191918937756771 0.48813836695034618 1 0.78019141325921404 0.49972466465542442 0.78019141325930785 0.84191918937756771 0.48813836695034618 1 0.85173693729199718 0.30007817960516198 1 0.72724211050425436 0.39076805646176382 1 0.78019141325921404 0.49972466465542442 0.78019141325930785 0.84191918937756771 0.48813836695034618 1 1 0.48813836695007229 0.84191918937727617 0.85173693729199718 0.30007817960516198 1 0.78019141325921404 0.49972466465542442 0.78019141325930785 1 0.3999999999989749 1 1 0.48813836695007229 0.84191918937727617 0.84191918937756771 0.48813836695034618 1 1 0.59999999999894682 1 1 0.48813836695007229 0.84191918937727617 0.84191918937756771 0.48813836695034618 1 0.85173693729199718 0.30007817960516198 1 1 0.3999999999989749 1 0.80839867011861499 0.68192028468377774 1 0.78019141325921404 0.49972466465542442 0.78019141325930785 0.68649174659499257 0.68600703198516766 0.6864917465949647 0.77683220420328725 0.81278569633583353 0.81664766512111064 0.80839867011861499 0.68192028468377774 1 1 0.68192028468364885 0.80839867011854549 0.78019141325921404 0.49972466465542442 0.78019141325930785 0.77683220420328725 0.81278569633583353 0.81664766512111064 1 0.59999999999894682 1 1 0.48813836695007229 0.84191918937727617 0.84191918937756771 0.48813836695034618 1 1 0.68192028468364885 0.80839867011854549 0.68649174659499257 0.68600703198516766 0.6864917465949647 0.78019141325921404 0.49972466465542442 0.78019141325930785 1 0.68192028468364885 0.80839867011854549 0.77683220420328725 0.81278569633583353 0.81664766512111064 0.84191918937756771 0.48813836695034618 1 1 0.59999999999894682 1 1 0.68192028468364885 0.80839867011854549 0.80839867011861499 0.68192028468377774 1 1 0.59999999999894682 1 1 0.68192028468364885 0.80839867011854549 0.80839867011861499 0.68192028468377774 1 1 0.79999999999947335 1 0.84191918937756771 0.48813836695034618 1 0.67320508075671459 0.53045230059073867 1 0.80839867011861499 0.68192028468377774 1 0.78019141325921404 0.49972466465542442 0.78019141325930785 0.84191918937756771 0.48813836695034618 1 0.80839867011861499 0.68192028468377774 1 1 0.68192028468364885 0.80839867011854549 0.78019141325921404 0.49972466465542442 0.78019141325930785 1 0.68192028468364885 0.80839867011854549 1 0.53045230059030524 0.6732050807565132 1 0.48813836695007229 0.84191918937727617 0.78019141325921404 0.49972466465542442 0.78019141325930785 1 0.68192028468364885 0.80839867011854549 1 0.48813836695007229 0.84191918937727617 0.84191918937756771 0.48813836695034618 1 0.78019141325921404 0.49972466465542442 0.78019141325930785 1 0.67939035495490308 0.61016512164639347 0.78019141325921404 0.49972466465542442 0.78019141325930785 0.7504488434426726 0.53051757989633308 0.49836643074154852 1 0.53045230059030524 0.6732050807565132 1 0.67939035495490308 0.61016512164639347 0.7504488434426726 0.53051757989633308 0.49836643074154852 0.68649174659499257 0.68600703198516766 0.6864917465949647 0.77374673111774417 0.78860835645735528 0.49829081152968557 1 0.67939035495490308 0.61016512164639347 0.68649174659499257 0.68600703198516766 0.6864917465949647 1 0.83791821520125753 0.69361520514217179 0.77374673111774417 0.78860835645735528 0.49829081152968557 1 0.68192028468364885 0.80839867011854549 1 0.67939035495490308 0.61016512164639347 0.68649174659499257 0.68600703198516766 0.6864917465949647 0.77683220420328725 0.81278569633583353 0.81664766512111064 1 0.67939035495490308 0.61016512164639347 1 0.68975022421527898 0.45812322962078778 0.7504488434426726 0.53051757989633308 0.49836643074154852 0.77374673111774417 0.78860835645735528 0.49829081152968557 0.7504488434426726 0.53051757989633308 0.49836643074154852 0.78019141325921404 0.49972466465542442 0.78019141325930785 1 0.67939035495490308 0.61016512164639347 0.68649174659499257 0.68600703198516766 0.6864917465949647 1 0.68192028468364885 0.80839867011854549 0.68649174659499257 0.68600703198516766 0.6864917465949647 1 0.67939035495490308 0.61016512164639347 0.78019141325921404 0.49972466465542442 0.78019141325930785 1 0.53045230059030524 0.6732050807565132 1 0.68192028468364885 0.80839867011854549 1 0.67939035495490308 0.61016512164639347 0.78019141325921404 0.49972466465542442 0.78019141325930785 1 0.67939035495490308 0.61016512164639347 1 0.50000000000229983 0.51961524226898759 1 0.53045230059030524 0.6732050807565132 0.7504488434426726 0.53051757989633308 0.49836643074154852 1 0.67939035495490308 0.61016512164639347 1 0.68975022421527898 0.45812322962078778 1 0.50000000000229983 0.51961524226898759 0.7504488434426726 0.53051757989633308 0.49836643074154852 1 0.67939035495490308 0.61016512164639347 1 0.83630110503662825 0.50803330197135588 1 0.68975022421527898 0.45812322962078778 0.77374673111774417 0.78860835645735528 0.49829081152968557 1 0.83791821520125753 0.69361520514217179 0.77374673111774417 0.78860835645735528 0.49829081152968557 0.68649174659499257 0.68600703198516766 0.6864917465949647 0.77683220420328725 0.81278569633583353 0.81664766512111064 0.68649174659499257 0.68600703198516766 0.6864917465949647 0.77374673111774417 0.78860835645735528 0.49829081152968557 0.81346205468287114 1 0.68420958956387889 0.77683220420328725 0.81278569633583353 0.81664766512111064 1 0.83791821520125753 0.69361520514217179 0.68649174659499257 0.68600703198516766 0.6864917465949647 1 0.67939035495490308 0.61016512164639347 0.77683220420328725 0.81278569633583353 0.81664766512111064 1 0.68192028468364885 0.80839867011854549 1 0.83791821520125753 0.69361520514217179 1 0.67939035495490308 0.61016512164639347 0.77683220420328725 0.81278569633583353 0.81664766512111064 1 0.83791821520125753 0.69361520514217179 0.81346205468287114 1 0.68420958956387889 0.77374673111774417 0.78860835645735528 0.49829081152968557 0.77683220420328725 0.81278569633583353 0.81664766512111064 1 0.83630110503662825 0.50803330197135588 1 0.67939035495490308 0.61016512164639347 1 0.83791821520125753 0.69361520514217179 0.77374673111774417 0.78860835645735528 0.49829081152968557 1 0.83791821520125753 0.69361520514217179 0.86762395692956074 1 0.5060815484123421 1 0.83630110503662825 0.50803330197135588 0.77374673111774417 0.78860835645735528 0.49829081152968557 1 1 0.59999999999894682 1 0.83630110503662825 0.50803330197135588 1 0.83791821520125753 0.69361520514217179 0.86762395692956074 1 0.5060815484123421 0.86762395692956074 1 0.5060815484123421 1 1 0.59999999999894682 1 0.83630110503662825 0.50803330197135588 1 1 0.3999999999989749 1 0.83791821520125753 0.69361520514217179 0.81346205468287114 1 0.68420958956387889 1 1 0.59999999999894682 0.86762395692956074 1 0.5060815484123421 0.86762395692956074 1 0.5060815484123421 0.81346205468287114 1 0.68420958956387889 0.68240285647621723 1 0.52310058211166854 0.77374673111774417 0.78860835645735528 0.49829081152968557 0.81346205468287114 1 0.68420958956387889 0.86762395692956074 1 0.5060815484123421 1 0.83791821520125753 0.69361520514217179 0.77374673111774417 0.78860835645735528 0.49829081152968557 1 0.83791821520125753 0.69361520514217179 0.81346205468287114 1 0.68420958956387889 1 1 0.79999999999947335 1 1 0.59999999999894682 1 1 0.79999999999947335 0.85358983848569092 1 0.85358983848569092 0.81346205468287114 1 0.68420958956387889 1 0.83791821520125753 0.69361520514217179 0.85358983848569092 1 0.85358983848569092 1 0.83791821520125753 0.69361520514217179 1 0.85358983848587056 0.85358983848587056 0.77683220420328725 0.81278569633583353 0.81664766512111064 0.85358983848569092 1 0.85358983848569092 1 1 0.79999999999947335 1 0.85358983848587056 0.85358983848587056 1 0.83791821520125753 0.69361520514217179 0.85358983848587056 0.85358983848587056 1 1 1 1 1 0.79999999999947335 1 1 0.85358983848587056 0.85358983848587056 0.85358983848587056 0.85358983848587056 1 0.79999999999947335 1 1 1 1 1 0.85358983848569092 1 0.85358983848569092 1 1 0.79999999999947335 1 0.85358983848587056 0.85358983848587056 1 1 1 0.85358983848569092 1 0.85358983848569092 1 0.85358983848587056 0.85358983848587056 0.85358983848587056 0.85358983848587056 1 1 1 1 0.85358983848569092 1 0.85358983848569092 0.85358983848587056 0.85358983848587056 1 1 0.79999999999947335 1 1 0.68192028468364885 0.80839867011854549 1 0.85358983848587056 0.85358983848587056 1 0.79999999999947335 1 1 0.68192028468364885 0.80839867011854549 0.80839867011861499 0.68192028468377774 1 0.85358983848587056 0.85358983848587056 1 0.85358983848587056 0.85358983848587056 1 1 0.85358983848587056 0.85358983848587056 1 0.68192028468364885 0.80839867011854549 0.77683220420328725 0.81278569633583353 0.81664766512111064 1 0.68192028468364885 0.80839867011854549 1 0.85358983848587056 0.85358983848587056 1 0.83791821520125753 0.69361520514217179 0.77683220420328725 0.81278569633583353 0.81664766512111064 0.69361520514218133 0.83791821520130205 1 0.85358983848587056 0.85358983848587056 1 0.80839867011861499 0.68192028468377774 1 0.77683220420328725 0.81278569633583353 0.81664766512111064 0.80839867011861499 0.68192028468377774 1 0.85358983848587056 0.85358983848587056 1 1 0.68192028468364885 0.80839867011854549 0.77683220420328725 0.81278569633583353 0.81664766512111064 0.85358983848587056 0.85358983848587056 1 0.79999999999947335 1 1 0.85358983848569092 1 0.85358983848569092 0.77683220420328725 0.81278569633583353 0.81664766512111064 0.69981550660938663 1 0.83057691269844081 0.85358983848569092 1 0.85358983848569092 0.79999999999947335 1 1 0.77683220420328725 0.81278569633583353 0.81664766512111064 0.85358983848587056 0.85358983848587056 1 0.69361520514218133 0.83791821520130205 1 0.79999999999947335 1 1 0.77683220420328725 0.81278569633583353 0.81664766512111064 1 0.85358983848587056 0.85358983848587056 0.85358983848587056 0.85358983848587056 1 0.85358983848569092 1 0.85358983848569092 0.77683220420328725 0.81278569633583353 0.81664766512111064 0.85358983848569092 1 0.85358983848569092 0.69981550660938663 1 0.83057691269844081 0.81346205468287114 1 0.68420958956387889 0.77683220420328725 0.81278569633583353 0.81664766512111064 0.81346205468287114 1 0.68420958956387889 1 0.83791821520125753 0.69361520514217179 0.85358983848569092 1 0.85358983848569092 0.77683220420328725 0.81278569633583353 0.81664766512111064 0.69361520514218133 0.83791821520130205 1 0.49911199724958061 0.77872228561593948 0.77895350115271889 0.69981550660938663 1 0.83057691269844081 0.77683220420328725 0.81278569633583353 0.81664766512111064 0.69361520514218133 0.83791821520130205 1 0.61016512164652226 0.67939035495506384 1 0.49911199724958061 0.77872228561593948 0.77895350115271889 0.77683220420328725 0.81278569633583353 0.81664766512111064 0.81346205468287114 1 0.68420958956387889 0.69981550660938663 1 0.83057691269844081 0.6123333432449789 1 0.67837347745467769 0.77683220420328725 0.81278569633583353 0.81664766512111064 0.6123333432449789 1 0.67837347745467769 0.69981550660938663 1 0.83057691269844081 0.49911199724958061 0.77872228561593948 0.77895350115271889 0.77683220420328725 0.81278569633583353 0.81664766512111064 0.69361520514218133 0.83791821520130205 1 0.69981550660938663 1 0.83057691269844081 0.79999999999947335 1 1 0.77683220420328725 0.81278569633583353 0.81664766512111064 0.50970031073508926 1 0.83534964916803001 0.59999999999894682 1 1 0.69361520514218133 0.83791821520130205 1 0.69981550660938663 1 0.83057691269844081 0.69981550660938663 1 0.83057691269844081 0.59999999999894682 1 1 0.69361520514218133 0.83791821520130205 1 0.79999999999947335 1 1 0.80839867011861499 0.68192028468377774 1 0.61016512164652226 0.67939035495506384 1 0.69361520514218133 0.83791821520130205 1 0.77683220420328725 0.81278569633583353 0.81664766512111064 0.50803330197137353 0.83630110503667787 1 0.69361520514218133 0.83791821520130205 1 0.61016512164652226 0.67939035495506384 1 0.49911199724958061 0.77872228561593948 0.77895350115271889 0.50803330197137353 0.83630110503667787 1 0.50970031073508926 1 0.83534964916803001 0.69361520514218133 0.83791821520130205 1 0.49911199724958061 0.77872228561593948 0.77895350115271889 0.59999999999894682 1 1 0.50803330197137353 0.83630110503667787 1 0.3999999999989749 1 1 0.50970031073508926 1 0.83534964916803001 0.69361520514218133 0.83791821520130205 1 0.50803330197137353 0.83630110503667787 1 0.59999999999894682 1 1 0.50970031073508926 1 0.83534964916803001 0.69361520514218133 0.83791821520130205 1 0.50970031073508926 1 0.83534964916803001 0.69981550660938663 1 0.83057691269844081 0.49911199724958061 0.77872228561593948 0.77895350115271889 0.50970031073508926 1 0.83534964916803001 0.6123333432449789 1 0.67837347745467769 0.69981550660938663 1 0.83057691269844081 0.49911199724958061 0.77872228561593948 0.77895350115271889 0.6123333432449789 1 0.67837347745467769 0.49983993748706529 0.75039103705932653 0.52967335724801234 0.68649174659499257 0.68600703198516766 0.6864917465949647 0.49911199724958061 0.77872228561593948 0.77895350115271889 0.6123333432449789 1 0.67837347745467769 0.49983993748706529 0.75039103705932653 0.52967335724801234 0.68240285647621723 1 0.52310058211166854 0.77374673111774417 0.78860835645735528 0.49829081152968557 0.6123333432449789 1 0.67837347745467769 0.45820186441573879 1 0.68969697123405882 0.49983993748706529 0.75039103705932653 0.52967335724801234 0.49911199724958061 0.77872228561593948 0.77895350115271889 0.45820186441573879 1 0.68969697123405882 0.6123333432449789 1 0.67837347745467769 0.50970031073508926 1 0.83534964916803001 0.49911199724958061 0.77872228561593948 0.77895350115271889 0.6123333432449789 1 0.67837347745467769 0.68649174659499257 0.68600703198516766 0.6864917465949647 0.49983993748706529 0.75039103705932653 0.52967335724801234 0.77374673111774417 0.78860835645735528 0.49829081152968557 0.81346205468287114 1 0.68420958956387889 0.6123333432449789 1 0.67837347745467769 0.68649174659499257 0.68600703198516766 0.6864917465949647 0.77683220420328725 0.81278569633583353 0.81664766512111064 0.6123333432449789 1 0.67837347745467769 0.49911199724958061 0.77872228561593948 0.77895350115271889 0.68649174659499257 0.68600703198516766 0.6864917465949647 0.77683220420328725 0.81278569633583353 0.81664766512111064 0.81346205468287114 1 0.68420958956387889 0.68649174659499257 0.68600703198516766 0.6864917465949647 0.6123333432449789 1 0.67837347745467769 0.77374673111774417 0.78860835645735528 0.49829081152968557 0.81346205468287114 1 0.68420958956387889 0.6123333432449789 1 0.67837347745467769 0.68240285647621723 1 0.52310058211166854 0.77374673111774417 0.78860835645735528 0.49829081152968557 0.6123333432449789 1 0.67837347745467769 0.45820186441573879 1 0.68969697123405882 0.51961524227008238 1 0.49999999999872219 0.49983993748706529 0.75039103705932653 0.52967335724801234 0.6123333432449789 1 0.67837347745467769 0.51961524227008238 1 0.49999999999872219 0.68240285647621723 1 0.52310058211166854 0.49983993748706529 0.75039103705932653 0.52967335724801234 0.68649174659499257 0.68600703198516766 0.6864917465949647 0.49983993748706529 0.75039103705932653 0.52967335724801234 0.49816183246753282 0.5307146639261795 0.75045686993209071 0.49911199724958061 0.77872228561593948 0.77895350115271889 0.68649174659499257 0.68600703198516766 0.6864917465949647 0.50000000000001332 0.49999999999999561 0.49999999999999561 0.7504488434426726 0.53051757989633308 0.49836643074154852 0.49816183246753282 0.5307146639261795 0.75045686993209071 0.68649174659499257 0.68600703198516766 0.6864917465949647 0.49816183246753282 0.5307146639261795 0.75045686993209071 0.7504488434426726 0.53051757989633308 0.49836643074154852 0.78019141325921404 0.49972466465542442 0.78019141325930785 0.50000000000001332 0.49999999999999561 0.49999999999999561 0.68649174659499257 0.68600703198516766 0.6864917465949647 0.7504488434426726 0.53051757989633308 0.49836643074154852 0.49983993748706529 0.75039103705932653 0.52967335724801234 0.7504488434426726 0.53051757989633308 0.49836643074154852 0.49983993748706529 0.75039103705932653 0.52967335724801234 0.68649174659499257 0.68600703198516766 0.6864917465949647 0.77374673111774417 0.78860835645735528 0.49829081152968557 0.68649174659499257 0.68600703198516766 0.6864917465949647 0.50000000000001332 0.49999999999999561 0.49999999999999561 0.49816183246753282 0.5307146639261795 0.75045686993209071 0.49983993748706529 0.75039103705932653 0.52967335724801234 0.78019141325921404 0.49972466465542442 0.78019141325930785 0.61016512164652226 0.67939035495506384 1 0.49816183246753282 0.5307146639261795 0.75045686993209071 0.67320508075671459 0.53045230059073867 1 0.78019141325921404 0.49972466465542442 0.78019141325930785 0.49816183246753282 0.5307146639261795 0.75045686993209071 0.61016512164652226 0.67939035495506384 1 0.68649174659499257 0.68600703198516766 0.6864917465949647 0.61016512164652226 0.67939035495506384 1 0.68649174659499257 0.68600703198516766 0.6864917465949647 0.80839867011861499 0.68192028468377774 1 0.78019141325921404 0.49972466465542442 0.78019141325930785 0.68649174659499257 0.68600703198516766 0.6864917465949647 0.49911199724958061 0.77872228561593948 0.77895350115271889 0.61016512164652226 0.67939035495506384 1 0.77683220420328725 0.81278569633583353 0.81664766512111064 0.68649174659499257 0.68600703198516766 0.6864917465949647 0.49816183246753282 0.5307146639261795 0.75045686993209071 0.61016512164652226 0.67939035495506384 1 0.49911199724958061 0.77872228561593948 0.77895350115271889 0.80839867011861499 0.68192028468377774 1 0.68649174659499257 0.68600703198516766 0.6864917465949647 0.61016512164652226 0.67939035495506384 1 0.77683220420328725 0.81278569633583353 0.81664766512111064 0.67320508075671459 0.53045230059073867 1 0.61016512164652226 0.67939035495506384 1 0.80839867011861499 0.68192028468377774 1 0.78019141325921404 0.49972466465542442 0.78019141325930785 0.45812322962090041 0.68975022421538157 1 0.61016512164652226 0.67939035495506384 1 0.49816183246753282 0.5307146639261795 0.75045686993209071 0.49911199724958061 0.77872228561593948 0.77895350115271889 0.50803330197137353 0.83630110503667787 1 0.61016512164652226 0.67939035495506384 1 0.45812322962090041 0.68975022421538157 1 0.49911199724958061 0.77872228561593948 0.77895350115271889 0.51961524226934941 0.50000000000250611 1 0.45812322962090041 0.68975022421538157 1 0.61016512164652226 0.67939035495506384 1 0.49816183246753282 0.5307146639261795 0.75045686993209071 0.67320508075671459 0.53045230059073867 1 0.51961524226934941 0.50000000000250611 1 0.61016512164652226 0.67939035495506384 1 0.49816183246753282 0.5307146639261795 0.75045686993209071 0.3115891413135391 0.68758981780459771 0.68521708032990558 0.2184393375098648 0.50004596894495223 0.77634962490704662 0.32446581821293602 0.60020898676440626 1 0.18453958615733529 0.77655623474864555 0.81613222483915937 0.32925244736146098 0.39615100178034629 1 0.32446581821293602 0.60020898676440626 1 0.51961524226934941 0.50000000000250611 1 0.49816183246753282 0.5307146639261795 0.75045686993209071 0.45812322962090041 0.68975022421538157 1 0.3115891413135391 0.68758981780459771 0.68521708032990558 0.31067093462947892 0.81480288849497895 1 0.49911199724958061 0.77872228561593948 0.77895350115271889 0.32925244736146098 0.39615100178034629 1 0.32446581821293602 0.60020898676440626 1 0.49816183246753282 0.5307146639261795 0.75045686993209071 0.2184393375098648 0.50004596894495223 0.77634962490704662 0.45812322962090041 0.68975022421538157 1 0.49816183246753282 0.5307146639261795 0.75045686993209071 0.3115891413135391 0.68758981780459771 0.68521708032990558 0.49911199724958061 0.77872228561593948 0.77895350115271889 0.32446581821293602 0.60020898676440626 1 0.3115891413135391 0.68758981780459771 0.68521708032990558 0.49816183246753282 0.5307146639261795 0.75045686993209071 0.2184393375098648 0.50004596894495223 0.77634962490704662 0.45812322962090041 0.68975022421538157 1 0.51961524226934941 0.50000000000250611 1 0.32446581821293602 0.60020898676440626 1 0.49816183246753282 0.5307146639261795 0.75045686993209071 0.31067093462947892 0.81480288849497895 1 0.45812322962090041 0.68975022421538157 1 0.32446581821293602 0.60020898676440626 1 0.3115891413135391 0.68758981780459771 0.68521708032990558 0.45812322962090041 0.68975022421538157 1 0.32446581821293602 0.60020898676440626 1 0.3115891413135391 0.68758981780459771 0.68521708032990558 0.49816183246753282 0.5307146639261795 0.75045686993209071 0.32446581821293602 0.60020898676440626 1 0.31067093462947892 0.81480288849497895 1 0.3115891413135391 0.68758981780459771 0.68521708032990558 0.18453958615733529 0.77655623474864555 0.81613222483915937 0.3115891413135391 0.68758981780459771 0.68521708032990558 0.50000000000001332 0.49999999999999561 0.49999999999999561 0.24769234054476261 0.52242103280823293 0.45098450226372488 0.49983993748706529 0.75039103705932653 0.52967335724801234 0.3115891413135391 0.68758981780459771 0.68521708032990558 0.49816183246753282 0.5307146639261795 0.75045686993209071 0.50000000000001332 0.49999999999999561 0.49999999999999561 0.49983993748706529 0.75039103705932653 0.52967335724801234 0.3115891413135391 0.68758981780459771 0.68521708032990558 0.49983993748706529 0.75039103705932653 0.52967335724801234 0.24769234054476261 0.52242103280823293 0.45098450226372488 0.22516916914780419 0.77057994845201627 0.48187244075707292 0.50000000000001332 0.49999999999999561 0.49999999999999561 0.3115891413135391 0.68758981780459771 0.68521708032990558 0.24769234054476261 0.52242103280823293 0.45098450226372488 0.2184393375098648 0.50004596894495223 0.77634962490704662 0.3115891413135391 0.68758981780459771 0.68521708032990558 0.50000000000001332 0.49999999999999561 0.49999999999999561 0.49816183246753282 0.5307146639261795 0.75045686993209071 0.2184393375098648 0.50004596894495223 0.77634962490704662 0.49816183246753282 0.5307146639261795 0.75045686993209071 0.49983993748706529 0.75039103705932653 0.52967335724801234 0.3115891413135391 0.68758981780459771 0.68521708032990558 0.49911199724958061 0.77872228561593948 0.77895350115271889 0.32448110831226962 1 0.6002015905153204 0.45820186441573879 1 0.68969697123405882 0.3115891413135391 0.68758981780459771 0.68521708032990558 0.49983993748706529 0.75039103705932653 0.52967335724801234 0.45820186441573879 1 0.68969697123405882 0.31085062173747541 1 0.81469961246428202 0.32448110831226962 1 0.6002015905153204 0.3115891413135391 0.68758981780459771 0.68521708032990558 0.45820186441573879 1 0.68969697123405882 0.3115891413135391 0.68758981780459771 0.68521708032990558 0.49983993748706529 0.75039103705932653 0.52967335724801234 0.49911199724958061 0.77872228561593948 0.77895350115271889 0.32448110831226962 1 0.6002015905153204 0.3115891413135391 0.68758981780459771 0.68521708032990558 0.31085062173747541 1 0.81469961246428202 0.18453958615733529 0.77655623474864555 0.81613222483915937 0.32448110831226962 1 0.6002015905153204 0.49983993748706529 0.75039103705932653 0.52967335724801234 0.3115891413135391 0.68758981780459771 0.68521708032990558 0.22516916914780419 0.77057994845201627 0.48187244075707292 0.45820186441573879 1 0.68969697123405882 0.31085062173747541 1 0.81469961246428202 0.3115891413135391 0.68758981780459771 0.68521708032990558 0.49911199724958061 0.77872228561593948 0.77895350115271889 0.32926555316115258 1 0.39615987727515128 0.49983993748706529 0.75039103705932653 0.52967335724801234 0.32448110831226962 1 0.6002015905153204 0.22516916914780419 0.77057994845201627 0.48187244075707292 0.32448110831226962 1 0.6002015905153204 0.3115891413135391 0.68758981780459771 0.68521708032990558 0.15900053892265181 1 0.69447607299016312 0.22516916914780419 0.77057994845201627 0.48187244075707292 0.32926555316115258 1 0.39615987727515128 0.51961524227008238 1 0.49999999999872219 0.32448110831226962 1 0.6002015905153204 0.49983993748706529 0.75039103705932653 0.52967335724801234 0.32448110831226962 1 0.6002015905153204 0.51961524227008238 1 0.49999999999872219 0.45820186441573879 1 0.68969697123405882 0.49983993748706529 0.75039103705932653 0.52967335724801234 0.45820186441573879 1 0.68969697123405882 0.50970031073508926 1 0.83534964916803001 0.31085062173747541 1 0.81469961246428202 0.49911199724958061 0.77872228561593948 0.77895350115271889 0.31085062173747541 1 0.81469961246428202 0.49911199724958061 0.77872228561593948 0.77895350115271889 0.31067093462947892 0.81480288849497895 1 0.18453958615733529 0.77655623474864555 0.81613222483915937 0.31085062173747541 1 0.81469961246428202 0.3115891413135391 0.68758981780459771 0.68521708032990558 0.49911199724958061 0.77872228561593948 0.77895350115271889 0.18453958615733529 0.77655623474864555 0.81613222483915937 0.50803330197137353 0.83630110503667787 1 0.31085062173747541 1 0.81469961246428202 0.50970031073508926 1 0.83534964916803001 0.49911199724958061 0.77872228561593948 0.77895350115271889 0.31067093462947892 0.81480288849497895 1 0.49911199724958061 0.77872228561593948 0.77895350115271889 0.3115891413135391 0.68758981780459771 0.68521708032990558 0.18453958615733529 0.77655623474864555 0.81613222483915937 0.31085062173747541 1 0.81469961246428202 0.3999999999989749 1 1 0.50803330197137353 0.83630110503667787 1 0.50970031073508926 1 0.83534964916803001 0.31085062173747541 1 0.81469961246428202 0.3999999999989749 1 1 0.31067093462947892 0.81480288849497895 1 0.50803330197137353 0.83630110503667787 1 0.31085062173747541 1 0.81469961246428202 0.50803330197137353 0.83630110503667787 1 0.31067093462947892 0.81480288849497895 1 0.49911199724958061 0.77872228561593948 0.77895350115271889 0.45812322962090041 0.68975022421538157 1 0.31067093462947892 0.81480288849497895 1 0.50803330197137353 0.83630110503667787 1 0.49911199724958061 0.77872228561593948 0.77895350115271889 0.3999999999989749 1 1 0.19999999999955789 1 1 0.31085062173747541 1 0.81469961246428202 0.31067093462947892 0.81480288849497895 1 0.15900053892265181 1 0.69447607299016312 0.31085062173747541 1 0.81469961246428202 0.1464101615132356 1 0.85358983848650494 0.18453958615733529 0.77655623474864555 0.81613222483915937 0.31085062173747541 1 0.81469961246428202 0.31067093462947892 0.81480288849497895 1 0.1464101615132356 1 0.85358983848650494 0.18453958615733529 0.77655623474864555 0.81613222483915937 0.31085062173747541 1 0.81469961246428202 0.19999999999955789 1 1 0.1464101615132356 1 0.85358983848650494 0.31067093462947892 0.81480288849497895 1 0.14641016151332509 0.85358983848655678 1 0.1464101615132356 1 0.85358983848650494 0.19999999999955789 1 1 0.31067093462947892 0.81480288849497895 1 0.31067093462947892 0.81480288849497895 1 0.15896804272141651 0.69449451837104537 1 0.14641016151332509 0.85358983848655678 1 0.18453958615733529 0.77655623474864555 0.81613222483915937 0.14641016151332509 0.85358983848655678 1 0.1464101615132356 1 0.85358983848650494 0.31067093462947892 0.81480288849497895 1 0.18453958615733529 0.77655623474864555 0.81613222483915937 0 0.85358983848682146 0.85358983848668035 0 0.69992182039579531 0.85173693729137989 0 0.80860557108920617 0.70542349973054763 0.18453958615733529 0.77655623474864555 0.81613222483915937 0.15900053892265181 1 0.69447607299016312 0 0.85358983848682146 0.85358983848668035 0 0.80860557108920617 0.70542349973054763 0.18453958615733529 0.77655623474864555 0.81613222483915937 0.18453958615733529 0.77655623474864555 0.81613222483915937 0 0.79999999999999982 1 0.15896804272141651 0.69449451837104537 1 0.14641016151332509 0.85358983848655678 1 0.1464101615132356 1 0.85358983848650494 0.14641016151332509 0.85358983848655678 1 0 0.85358983848682146 0.85358983848668035 0.18453958615733529 0.77655623474864555 0.81613222483915937 0 0.85358983848682146 0.85358983848668035 0 0.79999999999999982 1 0 0.69992182039579531 0.85173693729137989 0.18453958615733529 0.77655623474864555 0.81613222483915937 0 0.85358983848682146 0.85358983848668035 0.14641016151332509 0.85358983848655678 1 0 0.79999999999999982 1 0.18453958615733529 0.77655623474864555 0.81613222483915937 0 1 1 0 0.85358983848682146 0.85358983848668035 0.14641016151332509 0.85358983848655678 1 0 0.79999999999999982 1 0 0.85358983848682146 0.85358983848668035 0.1464101615132356 1 0.85358983848650494 0 1 1 0.14641016151332509 0.85358983848655678 1 0.19999999999955789 1 1 0 1 1 0.1464101615132356 1 0.85358983848650494 0.14641016151332509 0.85358983848655678 1 0.1464101615132356 1 0.85358983848650494 0 1 1 0 1 0.79999999999947335 0 0.85358983848682146 0.85358983848668035 0.1464101615132356 1 0.85358983848650494 0 0.85358983848682146 0.85358983848668035 0.15900053892265181 1 0.69447607299016312 0.18453958615733529 0.77655623474864555 0.81613222483915937 0.15900053892265181 1 0.69447607299016312 0 1 0.79999999999947335 0 0.80860557108920617 0.70542349973054763 0 0.85358983848682146 0.85358983848668035 0 1 0.79999999999947335 0.15900053892265181 1 0.69447607299016312 0.1464101615132356 1 0.85358983848650494 0 0.85358983848682146 0.85358983848668035 0 0.80860557108920617 0.70542349973054763 0 1 0.59999999999894682 0 1 0.79999999999947335 0.15900053892265181 1 0.69447607299016312 0.3115891413135391 0.68758981780459771 0.68521708032990558 0.22516916914780419 0.77057994845201627 0.48187244075707292 0 0.80860557108920617 0.70542349973054763 0.18453958615733529 0.77655623474864555 0.81613222483915937 0 0.80860557108920617 0.70542349973054763 0 0.83630110503664845 0.50803330197135654 0 1 0.59999999999894682 0.15900053892265181 1 0.69447607299016312 0.15900053892265181 1 0.69447607299016312 0.3115891413135391 0.68758981780459771 0.68521708032990558 0.32448110831226962 1 0.6002015905153204 0.18453958615733529 0.77655623474864555 0.81613222483915937 0.15900053892265181 1 0.69447607299016312 0.22516916914780419 0.77057994845201627 0.48187244075707292 0.3115891413135391 0.68758981780459771 0.68521708032990558 0.18453958615733529 0.77655623474864555 0.81613222483915937 0.15900053892265181 1 0.69447607299016312 0 0.80860557108920617 0.70542349973054763 0.22516916914780419 0.77057994845201627 0.48187244075707292 0.18453958615733529 0.77655623474864555 0.81613222483915937 0.15900053892265181 1 0.69447607299016312 0.32448110831226962 1 0.6002015905153204 0.31085062173747541 1 0.81469961246428202 0.18453958615733529 0.77655623474864555 0.81613222483915937 0.32448110831226962 1 0.6002015905153204 0.15900053892265181 1 0.69447607299016312 0.17226134197293 1 0.49836539647645101 0.22516916914780419 0.77057994845201627 0.48187244075707292 0 0.83630110503664845 0.50803330197135654 0.17226134197293 1 0.49836539647645101 0.15900053892265181 1 0.69447607299016312 0.22516916914780419 0.77057994845201627 0.48187244075707292 0 1 0.59999999999894682 0 1 0.3999999999989749 0.17226134197293 1 0.49836539647645101 0 0.83630110503664845 0.50803330197135654 0 0.83630110503664845 0.50803330197135654 0.17226134197293 1 0.49836539647645101 0 1 0.59999999999894682 0.15900053892265181 1 0.69447607299016312 0 0.83630110503664845 0.50803330197135654 0.15900053892265181 1 0.69447607299016312 0 0.80860557108920617 0.70542349973054763 0.22516916914780419 0.77057994845201627 0.48187244075707292 0 0.66416205381430016 0.59944234540882957 0 0.83630110503664845 0.50803330197135654 0 0.80860557108920617 0.70542349973054763 0.22516916914780419 0.77057994845201627 0.48187244075707292 0 0.66416205381430016 0.59944234540882957 0 0.80860557108920617 0.70542349973054763 0.3115891413135391 0.68758981780459771 0.68521708032990558 0.22516916914780419 0.77057994845201627 0.48187244075707292 0 0.66416205381430016 0.59944234540882957 0.3115891413135391 0.68758981780459771 0.68521708032990558 0 0.80860557108920617 0.70542349973054763 0.18453958615733529 0.77655623474864555 0.81613222483915937 0 0.66416205381430016 0.59944234540882957 0 0.80860557108920617 0.70542349973054763 0 0.60922248848335758 0.72722573386012812 0.18453958615733529 0.77655623474864555 0.81613222483915937 0 0.66416205381430016 0.59944234540882957 0.24769234054476261 0.52242103280823293 0.45098450226372488 0.3115891413135391 0.68758981780459771 0.68521708032990558 0.2184393375098648 0.50004596894495223 0.77634962490704662 0 0.66416205381430016 0.59944234540882957 0 0.60922248848335758 0.72722573386012812 0.3115891413135391 0.68758981780459771 0.68521708032990558 0.18453958615733529 0.77655623474864555 0.81613222483915937 0 0.66416205381430016 0.59944234540882957 0 0.46954769941369501 0.67320508075638175 0 0.50000000000237477 0.51961524226909872 0.2184393375098648 0.50004596894495223 0.77634962490704662 0 0.60922248848335758 0.72722573386012812 0 0.66416205381430016 0.59944234540882957 0.3115891413135391 0.68758981780459771 0.68521708032990558 0.2184393375098648 0.50004596894495223 0.77634962490704662 0 0.66416205381430016 0.59944234540882957 0.3115891413135391 0.68758981780459771 0.68521708032990558 0.24769234054476261 0.52242103280823293 0.45098450226372488 0.22516916914780419 0.77057994845201627 0.48187244075707292 0 0.66416205381430016 0.59944234540882957 0 0.50000000000237477 0.51961524226909872 0.24769234054476261 0.52242103280823293 0.45098450226372488 0.2184393375098648 0.50004596894495223 0.77634962490704662 0 0.68801781652248195 0.45664527743358641 0 0.83630110503664845 0.50803330197135654 0 0.66416205381430016 0.59944234540882957 0.22516916914780419 0.77057994845201627 0.48187244075707292 0 0.66416205381430016 0.59944234540882957 0 0.50000000000237477 0.51961524226909872 0 0.68801781652248195 0.45664527743358641 0.24769234054476261 0.52242103280823293 0.45098450226372488 0 0.60922248848335758 0.72722573386012812 0 0.46954769941369501 0.67320508075638175 0 0.66416205381430016 0.59944234540882957 0.2184393375098648 0.50004596894495223 0.77634962490704662 0 0.5118616330515301 0.84191918937737908 0 0.69992182039579531 0.85173693729137989 0.15896804272141651 0.69449451837104537 1 0.2184393375098648 0.50004596894495223 0.77634962490704662 0 0.60922248848335758 0.72722573386012812 0.2184393375098648 0.50004596894495223 0.77634962490704662 0.3115891413135391 0.68758981780459771 0.68521708032990558 0.18453958615733529 0.77655623474864555 0.81613222483915937 0.15896804272141651 0.69449451837104537 1 0.2184393375098648 0.50004596894495223 0.77634962490704662 0 0.69992182039579531 0.85173693729137989 0.18453958615733529 0.77655623474864555 0.81613222483915937 0 0.5118616330515301 0.84191918937737908 0 0.46954769941369501 0.67320508075638175 0 0.60922248848335758 0.72722573386012812 0.2184393375098648 0.50004596894495223 0.77634962490704662 0 0.5118616330515301 0.84191918937737908 0 0.60922248848335758 0.72722573386012812 0 0.69992182039579531 0.85173693729137989 0.2184393375098648 0.50004596894495223 0.77634962490704662 0.15896804272141651 0.69449451837104537 1 0.32446581821293602 0.60020898676440626 1 0.2184393375098648 0.50004596894495223 0.77634962490704662 0.18453958615733529 0.77655623474864555 0.81613222483915937 0 0.60922248848335758 0.72722573386012812 0 0.69992182039579531 0.85173693729137989 0.2184393375098648 0.50004596894495223 0.77634962490704662 0.18453958615733529 0.77655623474864555 0.81613222483915937 0 0.80860557108920617 0.70542349973054763 0 0.69992182039579531 0.85173693729137989 0 0.60922248848335758 0.72722573386012812 0.18453958615733529 0.77655623474864555 0.81613222483915937 0.15896804272141651 0.69449451837104537 1 0.32446581821293602 0.60020898676440626 1 0.17226134197275911 0.49836539647894412 1 0.2184393375098648 0.50004596894495223 0.77634962490704662 0.15896804272141651 0.69449451837104537 1 0.17226134197275911 0.49836539647894412 1 0 0.5118616330515301 0.84191918937737908 0.2184393375098648 0.50004596894495223 0.77634962490704662 0.32446581821293602 0.60020898676440626 1 0.15896804272141651 0.69449451837104537 1 0.31067093462947892 0.81480288849497895 1 0.18453958615733529 0.77655623474864555 0.81613222483915937 0.18453958615733529 0.77655623474864555 0.81613222483915937 0.15896804272141651 0.69449451837104537 1 0 0.79999999999999982 1 0 0.69992182039579531 0.85173693729137989 0 0.69992182039579531 0.85173693729137989 0 0.5118616330515301 0.84191918937737908 0.15896804272141651 0.69449451837104537 1 0 0.60000000000138687 1 0.15896804272141651 0.69449451837104537 1 0 0.79999999999999982 1 0 0.69992182039579531 0.85173693729137989 0 0.60000000000138687 1 0 0.60000000000138687 1 0 0.5118616330515301 0.84191918937737908 0.15896804272141651 0.69449451837104537 1 0.17226134197275911 0.49836539647894412 1 0 0.5118616330515301 0.84191918937737908 0 0.60000000000138687 1 0 0.40000000000166441 1 0.17226134197275911 0.49836539647894412 1 0.17226134197275911 0.49836539647894412 1 0 0.40000000000166441 1 0 0.5118616330515301 0.84191918937737908 0 0.31807971531776508 0.80839867011913336 0 0.40000000000166441 1 0.17226134197275911 0.49836539647894412 1 0.16929708765653109 0.30074819035870082 1 0 0.31807971531776508 0.80839867011913336 0 0.14641016151490169 0.85358983848532144 0 0.31807971531776508 0.80839867011913336 0.16929708765653109 0.30074819035870082 1 0.31426750628021272 0.31270343261798911 0.68761148188185484 0.16929708765653109 0.30074819035870082 1 0.31426750628021272 0.31270343261798911 0.68761148188185484 0 0.31807971531776508 0.80839867011913336 0.2184393375098648 0.50004596894495223 0.77634962490704662 0 0.5118616330515301 0.84191918937737908 0 0.31807971531776508 0.80839867011913336 0 0.46954769941369501 0.67320508075638175 0.2184393375098648 0.50004596894495223 0.77634962490704662 0 0.5118616330515301 0.84191918937737908 0.17226134197275911 0.49836539647894412 1 0 0.31807971531776508 0.80839867011913336 0.2184393375098648 0.50004596894495223 0.77634962490704662 0 0.31807971531776508 0.80839867011913336 0.16929708765653109 0.30074819035870082 1 0 0.40000000000166441 1 0 0.20000000000083221 1 0.17226134197275911 0.49836539647894412 1 0.32925244736146098 0.39615100178034629 1 0.16929708765653109 0.30074819035870082 1 0.2184393375098648 0.50004596894495223 0.77634962490704662 0.17226134197275911 0.49836539647894412 1 0.16929708765653109 0.30074819035870082 1 0 0.31807971531776508 0.80839867011913336 0.2184393375098648 0.50004596894495223 0.77634962490704662 0.31610726166461628 0.1880448979455934 1 0.16929708765653109 0.30074819035870082 1 0.32925244736146098 0.39615100178034629 1 0.31426750628021272 0.31270343261798911 0.68761148188185484 0.32446581821293602 0.60020898676440626 1 0.32925244736146098 0.39615100178034629 1 0.17226134197275911 0.49836539647894412 1 0.2184393375098648 0.50004596894495223 0.77634962490704662 0.45812322962173568 0.31024977578554058 1 0.31426750628021272 0.31270343261798911 0.68761148188185484 0.49816183246753282 0.5307146639261795 0.75045686993209071 0.50084626324420545 0.22238844715913 0.78084811589659187 0.32925244736146098 0.39615100178034629 1 0.49816183246753282 0.5307146639261795 0.75045686993209071 0.31426750628021272 0.31270343261798911 0.68761148188185484 0.2184393375098648 0.50004596894495223 0.77634962490704662 0.31610726166461628 0.1880448979455934 1 0.32925244736146098 0.39615100178034629 1 0.45812322962173568 0.31024977578554058 1 0.31426750628021272 0.31270343261798911 0.68761148188185484 0.45812322962173568 0.31024977578554058 1 0.31610726166461628 0.1880448979455934 1 0.31426750628021272 0.31270343261798911 0.68761148188185484 0.50084626324420545 0.22238844715913 0.78084811589659187 0.32925244736146098 0.39615100178034629 1 0.45812322962173568 0.31024977578554058 1 0.31426750628021272 0.31270343261798911 0.68761148188185484 0.49816183246753282 0.5307146639261795 0.75045686993209071 0.32925244736146098 0.39615100178034629 1 0.31426750628021272 0.31270343261798911 0.68761148188185484 0.16929708765653109 0.30074819035870082 1 0.2184393375098648 0.50004596894495223 0.77634962490704662 0.32925244736146098 0.39615100178034629 1 0.51961524226934941 0.50000000000250611 1 0.45812322962173568 0.31024977578554058 1 0.49816183246753282 0.5307146639261795 0.75045686993209071 0.31426750628021272 0.31270343261798911 0.68761148188185484 0.49816183246753282 0.5307146639261795 0.75045686993209071 0.50000000000001332 0.49999999999999561 0.49999999999999561 0.2184393375098648 0.50004596894495223 0.77634962490704662 0.24769234054476261 0.52242103280823293 0.45098450226372488 0.50073570207385831 0.24848280280289631 0.52886631355986169 0.31426750628021272 0.31270343261798911 0.68761148188185484 0.22088738526309029 0.22111069116742441 0.50004796911802929 0.31426750628021272 0.31270343261798911 0.68761148188185484 0.50073570207385831 0.24848280280289631 0.52886631355986169 0.49816183246753282 0.5307146639261795 0.75045686993209071 0.50084626324420545 0.22238844715913 0.78084811589659187 0.50000000000001332 0.49999999999999561 0.49999999999999561 0.31426750628021272 0.31270343261798911 0.68761148188185484 0.24769234054476261 0.52242103280823293 0.45098450226372488 0.50073570207385831 0.24848280280289631 0.52886631355986169 0.50000000000001332 0.49999999999999561 0.49999999999999561 0.49816183246753282 0.5307146639261795 0.75045686993209071 0.31426750628021272 0.31270343261798911 0.68761148188185484 0.50073570207385831 0.24848280280289631 0.52886631355986169 0.50000000000001332 0.49999999999999561 0.49999999999999561 0.24769234054476261 0.52242103280823293 0.45098450226372488 0.31426750628021272 0.31270343261798911 0.68761148188185484 0.2184393375098648 0.50004596894495223 0.77634962490704662 0.2184393375098648 0.50004596894495223 0.77634962490704662 0.31426750628021272 0.31270343261798911 0.68761148188185484 0 0.50000000000237477 0.51961524226909872 0.24769234054476261 0.52242103280823293 0.45098450226372488 0 0.31024977578556651 0.45812322962166352 0.24769234054476261 0.52242103280823293 0.45098450226372488 0 0.32043363027398297 0.61046998817722586 0.22088738526309029 0.22111069116742441 0.50004796911802929 0 0.32043363027398297 0.61046998817722586 0 0.50000000000237477 0.51961524226909872 0.31426750628021272 0.31270343261798911 0.68761148188185484 0.24769234054476261 0.52242103280823293 0.45098450226372488 0.2184393375098648 0.50004596894495223 0.77634962490704662 0 0.32043363027398297 0.61046998817722586 0 0.50000000000237477 0.51961524226909872 0.31426750628021272 0.31270343261798911 0.68761148188185484 0 0.32043363027398297 0.61046998817722586 0.24769234054476261 0.52242103280823293 0.45098450226372488 0.31426750628021272 0.31270343261798911 0.68761148188185484 0.22088738526309029 0.22111069116742441 0.50004796911802929 0.2184393375098648 0.50004596894495223 0.77634962490704662 0 0.50000000000237477 0.51961524226909872 0 0.32043363027398297 0.61046998817722586 0 0.46954769941369501 0.67320508075638175 0 0.16196943494415611 0.69380980080116506 0 0.32043363027398297 0.61046998817722586 0.31426750628021272 0.31270343261798911 0.68761148188185484 0.22088738526309029 0.22111069116742441 0.50004796911802929 0 0.32043363027398297 0.61046998817722586 0 0.31807971531776508 0.80839867011913336 0.31426750628021272 0.31270343261798911 0.68761148188185484 0.2184393375098648 0.50004596894495223 0.77634962490704662 0 0.16196943494415611 0.69380980080116506 0 0.32043363027398297 0.61046998817722586 0 0.31807971531776508 0.80839867011913336 0.31426750628021272 0.31270343261798911 0.68761148188185484 0 0.31024977578556651 0.45812322962166352 0 0.50000000000237477 0.51961524226909872 0 0.32043363027398297 0.61046998817722586 0.24769234054476261 0.52242103280823293 0.45098450226372488 0 0.32043363027398297 0.61046998817722586 0 0.46954769941369501 0.67320508075638175 0 0.31807971531776508 0.80839867011913336 0.2184393375098648 0.50004596894495223 0.77634962490704662 0 0.32043363027398297 0.61046998817722586 0 0.16275515618034081 0.50966790549591257 0 0.31024977578556651 0.45812322962166352 0.22088738526309029 0.22111069116742441 0.50004796911802929 0 0.16196943494415611 0.69380980080116506 0.14641016151479661 0 0.85358983848542624 0.18818969570926641 0 0.68364148842842287 0.31426750628021272 0.31270343261798911 0.68761148188185484 0 0.16196943494415611 0.69380980080116506 0.31426750628021272 0.31270343261798911 0.68761148188185484 0.18818969570926641 0 0.68364148842842287 0.22088738526309029 0.22111069116742441 0.50004796911802929 0 0.16196943494415611 0.69380980080116506 0.18818969570926641 0 0.68364148842842287 0 0.16275515618034081 0.50966790549591257 0.22088738526309029 0.22111069116742441 0.50004796911802929 0 0.16196943494415611 0.69380980080116506 0 0.16275515618034081 0.50966790549591257 0 0.32043363027398297 0.61046998817722586 0.22088738526309029 0.22111069116742441 0.50004796911802929 0 0 0.79999999999999982 0 0 0.60000000000138687 0 0.16196943494415611 0.69380980080116506 0.18818969570926641 0 0.68364148842842287 0 0 0.60000000000138687 0 0.16196943494415611 0.69380980080116506 0.18818969570926641 0 0.68364148842842287 0 0.16275515618034081 0.50966790549591257 0.18818969570926641 0 0.68364148842842287 0.16370661204827031 0 0.4886650857430957 0 0 0.60000000000138687 0 0.16275515618034081 0.50966790549591257 0.18818969570926641 0 0.68364148842842287 0.31030302876556398 0 0.54179813558513157 0.16370661204827031 0 0.4886650857430957 0.22088738526309029 0.22111069116742441 0.50004796911802929 0 0.16275515618034081 0.50966790549591257 0.18818969570926641 0 0.68364148842842287 0.16370661204827031 0 0.4886650857430957 0.22088738526309029 0.22111069116742441 0.50004796911802929 0.30074819035913852 0 0.83070291234383831 0.39615987727709562 0 0.67073444684008199 0.18818969570926641 0 0.68364148842842287 0.31426750628021272 0.31270343261798911 0.68761148188185484 0.31030302876556398 0 0.54179813558513157 0.31426750628021272 0.31270343261798911 0.68761148188185484 0.50073570207385831 0.24848280280289631 0.52886631355986169 0.22088738526309029 0.22111069116742441 0.50004796911802929 0.39615987727709562 0 0.67073444684008199 0.31030302876556398 0 0.54179813558513157 0.31426750628021272 0.31270343261798911 0.68761148188185484 0.50073570207385831 0.24848280280289631 0.52886631355986169 0.39615987727709562 0 0.67073444684008199 0.31426750628021272 0.31270343261798911 0.68761148188185484 0.30074819035913852 0 0.83070291234383831 0.50084626324420545 0.22238844715913 0.78084811589659187 0.18818969570926641 0 0.68364148842842287 0.31426750628021272 0.31270343261798911 0.68761148188185484 0.31030302876556398 0 0.54179813558513157 0.22088738526309029 0.22111069116742441 0.50004796911802929 0.6002015905170176 0 0.67551889168744117 0.50073570207385831 0.24848280280289631 0.52886631355986169 0.39615987727709562 0 0.67073444684008199 0.50084626324420545 0.22238844715913 0.78084811589659187 0.31030302876556398 0 0.54179813558513157 0.18818969570926641 0 0.68364148842842287 0.39615987727709562 0 0.67073444684008199 0.31426750628021272 0.31270343261798911 0.68761148188185484 0.39615987727709562 0 0.67073444684008199 0.50073570207385831 0.24848280280289631 0.52886631355986169 0.31426750628021272 0.31270343261798911 0.68761148188185484 0.50084626324420545 0.22238844715913 0.78084811589659187 0.39615987727709562 0 0.67073444684008199 0.6002015905170176 0 0.67551889168744117 0.50000000000250922 0 0.48038475773043671 0.50073570207385831 0.24848280280289631 0.52886631355986169 0.39615987727709562 0 0.67073444684008199 0.50000000000250922 0 0.48038475773043671 0.31030302876556398 0 0.54179813558513157 0.50073570207385831 0.24848280280289631 0.52886631355986169 0.49836539647917322 0 0.82773865802723501 0.6002015905170176 0 0.67551889168744117 0.39615987727709562 0 0.67073444684008199 0.50084626324420545 0.22238844715913 0.78084811589659187 0.30074819035913852 0 0.83070291234383831 0.14641016151432179 0.14641016151432179 1 0.31610726166461628 0.1880448979455934 1 0.31426750628021272 0.31270343261798911 0.68761148188185484 0.30074819035913852 0 0.83070291234383831 0.31426750628021272 0.31270343261798911 0.68761148188185484 0.31610726166461628 0.1880448979455934 1 0.50084626324420545 0.22238844715913 0.78084811589659187 0.30074819035913852 0 0.83070291234383831 0.31610726166461628 0.1880448979455934 1 0.49836539647917322 0 0.82773865802723501 0.50084626324420545 0.22238844715913 0.78084811589659187 0.39615987727709562 0 0.67073444684008199 0.30074819035913852 0 0.83070291234383831 0.49836539647917322 0 0.82773865802723501 0.50084626324420545 0.22238844715913 0.78084811589659187 0.31610726166461628 0.1880448979455934 1 0.40000000000166441 0 1 0.49836539647917322 0 0.82773865802723501 0.50966790549576724 0.1627551561802443 1 0.40000000000166441 0 1 0.49836539647917322 0 0.82773865802723501 0.30074819035913852 0 0.83070291234383831 0.31610726166461628 0.1880448979455934 1 0.31610726166461628 0.1880448979455934 1 0.50966790549576724 0.1627551561802443 1 0.49836539647917322 0 0.82773865802723501 0.50084626324420545 0.22238844715913 0.78084811589659187 0.45812322962173568 0.31024977578554058 1 0.50966790549576724 0.1627551561802443 1 0.31610726166461628 0.1880448979455934 1 0.50084626324420545 0.22238844715913 0.78084811589659187 0.40000000000166441 0 1 0.30074819035913852 0 0.83070291234383831 0.20000000000083221 0 1 0.31610726166461628 0.1880448979455934 1 0 0.14641016151490169 0.85358983848532144 0 0.16196943494415611 0.69380980080116506 0 0.31807971531776508 0.80839867011913336 0.31426750628021272 0.31270343261798911 0.68761148188185484 0.16929708765653109 0.30074819035870082 1 0.31610726166461628 0.1880448979455934 1 0.14641016151432179 0.14641016151432179 1 0.31426750628021272 0.31270343261798911 0.68761148188185484 0.14641016151432179 0.14641016151432179 1 0.20000000000083221 0 1 0.14641016151479661 0 0.85358983848542624 0.30074819035913852 0 0.83070291234383831 0.14641016151432179 0.14641016151432179 1 0.30074819035913852 0 0.83070291234383831 0.14641016151479661 0 0.85358983848542624 0.31426750628021272 0.31270343261798911 0.68761148188185484 0.14641016151432179 0.14641016151432179 1 0.20000000000083221 0 1 0.30074819035913852 0 0.83070291234383831 0.31610726166461628 0.1880448979455934 1 0.18818969570926641 0 0.68364148842842287 0.14641016151479661 0 0.85358983848542624 0.30074819035913852 0 0.83070291234383831 0.31426750628021272 0.31270343261798911 0.68761148188185484 0 0.14641016151490169 0.85358983848532144 0.16929708765653109 0.30074819035870082 1 0.14641016151432179 0.14641016151432179 1 0.31426750628021272 0.31270343261798911 0.68761148188185484 0.14641016151432179 0.14641016151432179 1 0.14641016151479661 0 0.85358983848542624 0 0.14641016151490169 0.85358983848532144 0.31426750628021272 0.31270343261798911 0.68761148188185484 0 0.16196943494415611 0.69380980080116506 0 0.14641016151490169 0.85358983848532144 0.14641016151479661 0 0.85358983848542624 0.31426750628021272 0.31270343261798911 0.68761148188185484 0 0.20000000000083221 1 0 0.31807971531776508 0.80839867011913336 0.16929708765653109 0.30074819035870082 1 0 0.14641016151490169 0.85358983848532144 0.14641016151432179 0.14641016151432179 1 0 0.20000000000083221 1 0.16929708765653109 0.30074819035870082 1 0 0.14641016151490169 0.85358983848532144 0 0.16196943494415611 0.69380980080116506 0.14641016151479661 0 0.85358983848542624 0 0 0.79999999999999982 0.18818969570926641 0 0.68364148842842287 0 0.14641016151490169 0.85358983848532144 0.14641016151479661 0 0.85358983848542624 0 0 0.79999999999999982 0 0.16196943494415611 0.69380980080116506 0 0 1 0 0.20000000000083221 1 0.14641016151432179 0.14641016151432179 1 0 0.14641016151490169 0.85358983848532144 0.14641016151479661 0 0.85358983848542624 0 0 0.79999999999999982 0 0 1 0 0.14641016151490169 0.85358983848532144 0 0 1 0.14641016151432179 0.14641016151432179 1 0.20000000000083221 0 1 0.14641016151479661 0 0.85358983848542624 0.14641016151479661 0 0.85358983848542624 0 0 1 0.14641016151432179 0.14641016151432179 1 0 0.14641016151490169 0.85358983848532144 
</DataArray>
</Points>
<Cells>
<DataArray type="UInt32" Name="connectivity" format="ascii">
0 1 2 3 4 5 6 7 8 9 10 11 12 13 14 15 16 17 18 19 20 21 22 23 24 25 26 27 28 29 30 31 32 33 34 35 36 37 38 39 40 41 42 43 44 45 46 47 48 49 50 51 52 53 54 55 56 57 58 59 60 61 62 63 64 65 66 67 68 69 70 71 72 73 74 75 76 77 78 79 80 81 82 83 84 85 86 87 88 89 90 91 92 93 94 95 96 97 98 99 100 101 102 103 104 105 106 107 108 109 110 111 112 113 114 115 116 117 118 119 120 121 122 123 124 125 126 127 128 129 130 131 132 133 134 135 136 137 138 139 140 141 142 143 144 145 146 147 148 149 150 151 152 153 154 155 156 157 158 159 160 161 162 163 164 165 166 167 168 169 170 171 172 173 174 175 176 177 178 179 180 181 182 183 184 185 186 187 188 189 190 191 192 193 194 195 196 197 198 199 200 201 202 203 204 205 206 207 208 209 210 211 212 213 214 215 216 217 218 219 220 221 222 223 224 225 226 227 228 229 230 231 232 233 234 235 236 237 238 239 240 241 242 243 244 245 246 247 248 249 250 251 252 253 254 255 256 257 258 259 260 261 262 263 264 265 266 267 268 269 270 271 272 273 274 275 276 277 278 279 280 281 282 283 284 285 286 287 288 289 290 291 292 293 294 295 296 297 298 299 300 301 302 303 304 305 306 307 308 309 310 311 312 313 314 315 316 317 318 319 320 321 322 323 324 325 326 327 328 329 330 331 332 333 334 335 336 337 338 339 340 341 342 343 344 345 346 347 348 349 350 351 352 353 354 355 356 357 358 359 360 361 362 363 364 365 366 367 368 369 370 371 372 373 374 375 376 377 378 379 380 381 382 383 384 385 386 387 388 389 390 391 392 393 394 395 396 397 398 399 400 401 402 403 404 405 406 407 408 409 410 411 412 413 414 415 416 417 418 419 420 421 422 423 424 425 426 427 428 429 430 431 432 433 434 435 436 437 438 439 440 441 442 443 444 445 446 447 448 449 450 451 452 453 454 455 456 457 458 459 460 461 462 463 464 465 466 467 468 469 470 471 472 473 474 475 476 477 478 479 480 481 482 483 484 485 486 487 488 489 490 491 492 493 494 495 496 497 498 499 500 501 502 503 504 505 506 507 508 509 510 511 512 513 514 515 516 517 518 519 520 521 522 523 524 525 526 527 528 529 530 531 532 533 534 535 536 537 538 539 540 541 542 543 544 545 546 547 548 549 550 551 552 553 554 555 556 557 558 559 560 561 562 563 564 565 566 567 568 569 570 571 572 573 574 575 576 577 578 579 580 581 582 583 584 585 586 587 588 589 590 591 592 593 594 595 596 597 598 599 600 601 602 603 604 605 606 607 608 609 610 611 612 613 614 615 616 617 618 619 620 621 622 623 624 625 626 627 628 629 630 631 632 633 634 635 636 637 638 639 640 641 642 643 644 645 646 647 648 649 650 651 652 653 654 655 656 657 658 659 660 661 662 663 664 665 666 667 668 669 670 671 672 673 674 675 676 677 678 679 680 681 682 683 684 685 686 687 688 689 690 691 692 693 694 695 696 697 698 699 700 701 702 703 704 705 706 707 708 709 710 711 712 713 714 715 716 717 718 719 720 721 722 723 724 725 726 727 728 729 730 731 732 733 734 735 736 737 738 739 740 741 742 743 744 745 746 747 748 749 750 751 752 753 754 755 756 757 758 759 760 761 762 763 764 765 766 767 768 769 770 771 772 773 774 775 776 777 778 779 780 781 782 783 784 785 786 787 788 789 790 791 792 793 794 795 796 797 798 799 800 801 802 803 804 805 806 807 808 809 810 811 812 813 814 815 816 817 818 819 820 821 822 823 824 825 826 827 828 829 830 831 832 833 834 835 836 837 838 839 840 841 842 843 844 845 846 847 848 849 850 851 852 853 854 855 856 857 858 859 860 861 862 863 864 865 866 867 868 869 870 871 872 873 874 875 876 877 878 879 880 881 882 883 884 885 886 887 888 889 890 891 892 893 894 895 896 897 898 899 900 901 902 903 904 905 906 907 908 909 910 911 912 913 914 915 916 917 918 919 920 921 922 923 924 925 926 927 928 929 930 931 932 933 934 935 936 937 938 939 940 941 942 943 944 945 946 947 948 949 950 951 952 953 954 955 956 957 958 959 960 961 962 963 964 965 966 967 968 969 970 971 972 973 974 975 976 977 978 979 980 981 982 983 984 985 986 987 988 989 990 991 992 993 994 995 996 997 998 999 1000 1001 1002 1003 1004 1005 1006 1007 1008 1009 1010 1011 1012 1013 1014 1015 1016 1017 1018 1019 1020 1021 1022 1023 1024 1025 1026 1027 1028 1029 1030 1031 1032 1033 1034 1035 1036 1037 1038 1039 1040 1041 1042 1043 1044 1045 1046 1047 1048 1049 1050 1051 1052 1053 1054 1055 1056 1057 1058 1059 1060 1061 1062 1063 1064 1065 1066 1067 1068 1069 1070 1071 1072 1073 1074 1075 1076 1077 1078 1079 1080 1081 1082 1083 1084 1085 1086 1087 1088 1089 1090 1091 1092 1093 1094 1095 1096 1097 1098 1099 1100 1101 1102 1103 1104 1105 1106 1107 1108 1109 1110 1111 1112 1113 1114 1115 1116 1117 1118 1119 1120 1121 1122 1123 1124 1125 1126 1127 1128 1129 1130 1131 1132 1133 1134 1135 1136 1137 1138 1139 1140 1141 1142 1143 1144 1145 1146 1147 1148 1149 1150 1151 1152 1153 1154 1155 1156 1157 1158 1159 1160 1161 1162 1163 1164 1165 1166 1167 1168 1169 1170 1171 1172 1173 1174 1175 1176 1177 1178 1179 1180 1181 1182 1183 1184 1185 1186 1187 1188 1189 1190 1191 1192 1193 1194 1195 1196 1197 1198 1199 1200 1201 1202 1203 1204 1205 1206 1207 1208 1209 1210 1211 1212 1213 1214 1215 1216 1217 1218 1219 1220 1221 1222 1223 1224 1225 1226 1227 1228 1229 1230 1231 1232 1233 1234 1235 1236 1237 1238 1239 1240 1241 1242 1243 1244 1245 1246 1247 1248 1249 1250 1251 1252 1253 1254 1255 1256 1257 1258 1259 1260 1261 1262 1263 1264 1265 1266 1267 1268 1269 1270 1271 1272 1273 1274 1275 1276 1277 1278 1279 1280 1281 1282 1283 1284 1285 1286 1287 1288 1289 1290 1291 1292 1293 1294 1295 1296 1297 1298 1299 1300 1301 1302 1303 1304 1305 1306 1307 1308 1309 1310 1311 1312 1313 1314 1315 1316 1317 1318 1319 1320 1321 1322 1323 1324 1325 1326 1327 1328 1329 1330 1331 1332 1333 1334 1335 1336 1337 1338 1339 1340 1341 1342 1343 1344 1345 1346 1347 1348 1349 1350 1351 1352 1353 1354 1355 1356 1357 1358 1359 1360 1361 1362 1363 1364 1365 1366 1367 1368 1369 1370 1371 1372 1373 1374 1375 1376 1377 1378 1379 1380 1381 1382 1383 1384 1385 1386 1387 1388 1389 1390 1391 1392 1393 1394 1395 1396 1397 1398 1399 1400 1401 1402 1403 1404 1405 1406 1407 1408 1409 1410 1411 1412 1413 1414 1415 1416 1417 1418 1419 1420 1421 1422 1423 1424 1425 1426 1427 1428 1429 1430 1431 1432 1433 1434 1435 1436 1437 1438 1439 1440 1441 1442 1443 1444 1445 1446 1447 1448 1449 1450 1451 1452 1453 1454 1455 1456 1457 1458 1459 1460 1461 1462 1463 1464 1465 1466 1467 1468 1469 1470 1471 1472 1473 1474 1475 1476 1477 1478 1479 1480 1481 1482 1483 1484 1485 1486 1487 1488 1489 1490 1491 1492 1493 1494 1495 1496 1497 1498 1499 1500 1501 1502 1503 1504 1505 1506 1507 1508 1509 1510 1511 1512 1513 1514 1515 1516 1517 1518 1519 1520 1521 1522 1523 1524 1525 1526 1527 1528 1529 1530 1531 1532 1533 1534 1535 1536 1537 1538 1539 1540 1541 1542 1543 1544 1545 1546 1547 1548 1549 1550 1551 1552 1553 1554 1555 1556 1557 1558 1559 1560 1561 1562 1563 1564 1565 1566 1567 1568 1569 1570 1571 1572 1573 1574 1575 1576 1577 1578 1579 1580 1581 1582 1583 1584 1585 1586 1587 1588 1589 1590 1591 1592 1593 1594 1595 1596 1597 1598 1599 1600 1601 1602 1603 1604 1605 1606 1607 1608 1609 1610 1611 1612 1613 1614 1615 1616 1617 1618 1619 1620 1621 1622 1623 1624 1625 1626 1627 1628 1629 1630 1631 1632 1633 1634 1635 1636 1637 1638 1639 1640 1641 1642 1643 1644 1645 1646 1647 1648 1649 1650 1651 1652 1653 1654 1655 1656 1657 1658 1659 1660 1661 1662 1663 1664 1665 1666 1667 1668 1669 1670 1671 1672 1673 1674 1675 1676 1677 1678 1679 1680 1681 1682 1683 1684 1685 1686 1687 1688 1689 1690 1691 1692 1693 1694 1695 1696 1697 1698 1699 1700 1701 1702 1703 1704 1705 1706 1707 1708 1709 1710 1711 1712 1713 1714 1715 1716 1717 1718 1719 1720 1721 1722 1723 1724 1725 1726 1727 1728 1729 1730 1731 1732 1733 1734 1735 1736 1737 1738 1739 1740 1741 1742 1743 1744 1745 1746 1747 1748 1749 1750 1751 1752 1753 1754 1755 1756 1757 1758 1759 1760 1761 1762 1763 1764 1765 1766 1767 1768 1769 1770 1771 1772 1773 1774 1775 1776 1777 1778 1779 1780 1781 1782 1783 1784 1785 1786 1787 1788 1789 1790 1791 1792 1793 1794 1795 1796 1797 1798 1799 1800 1801 1802 1803 1804 1805 1806 1807 1808 1809 1810 1811 1812 1813 1814 1815 1816 1817 1818 1819 1820 1821 1822 1823 1824 1825 1826 1827 1828 1829 1830 1831 1832 1833 1834 1835 1836 1837 1838 1839 1840 1841 1842 1843 1844 1845 1846 1847 1848 1849 1850 1851 1852 1853 1854 1855 1856 1857 1858 1859 1860 1861 1862 1863 1864 1865 1866 1867 1868 1869 1870 1871 1872 1873 1874 1875 1876 1877 1878 1879 1880 1881 1882 1883 1884 1885 1886 1887 1888 1889 1890 1891 1892 1893 1894 1895 1896 1897 1898 1899 1900 1901 1902 1903 1904 1905 1906 1907 1908 1909 1910 1911 1912 1913 1914 1915 1916 1917 1918 1919 1920 1921 1922 1923 1924 1925 1926 1927 1928 1929 1930 1931 1932 1933 1934 1935 1936 1937 1938 1939 1940 1941 1942 1943 1944 1945 1946 1947 1948 1949 1950 1951 1952 1953 1954 1955 1956 1957 1958 1959 1960 1961 1962 1963 1964 1965 1966 1967 1968 1969 1970 1971 1972 1973 1974 1975 1976 1977 1978 1979 1980 1981 1982 1983 1984 1985 1986 1987 1988 1989 1990 1991 1992 1993 1994 1995 1996 1997 1998 1999 2000 2001 2002 2003 2004 2005 2006 2007 2008 2009 2010 2011 2012 2013 2014 2015 2016 2017 2018 2019 2020 2021 2022 2023 2024 2025 2026 2027 2028 2029 2030 2031 2032 2033 2034 2035 2036 2037 2038 2039 2040 2041 2042 2043 2044 2045 2046 2047 2048 2049 2050 2051 2052 2053 2054 2055 2056 2057 2058 2059 2060 2061 2062 2063 2064 2065 2066 2067 2068 2069 2070 2071 2072 2073 2074 2075 2076 2077 2078 2079 2080 2081 2082 2083 2084 2085 2086 2087 2088 2089 2090 2091 2092 2093 2094 2095 2096 2097 2098 2099 2100 2101 2102 2103 2104 2105 2106 2107 2108 2109 2110 2111 2112 2113 2114 2115 2116 2117 2118 2119 2120 2121 2122 2123 2124 2125 2126 2127 2128 2129 2130 2131 2132 2133 2134 2135 2136 2137 2138 2139 2140 2141 2142 2143 2144 2145 2146 2147 2148 2149 2150 2151 2152 2153 2154 2155 2156 2157 2158 2159 2160 2161 2162 2163 2164 2165 2166 2167 2168 2169 2170 2171 2172 2173 2174 2175 2176 2177 2178 2179 2180 2181 2182 2183 2184 2185 2186 2187 2188 2189 2190 2191 2192 2193 2194 2195 2196 2197 2198 2199 2200 2201 2202 2203 2204 2205 2206 2207 2208 2209 2210 2211 2212 2213 2214 2215 2216 2217 2218 2219 2220 2221 2222 2223 2224 2225 2226 2227 2228 2229 2230 2231 2232 2233 2234 2235 2236 2237 2238 2239 2240 2241 2242 2243 2244 2245 2246 2247 2248 2249 2250 2251 2252 2253 2254 2255 2256 2257 2258 2259 2260 2261 2262 2263 2264 2265 2266 2267 2268 2269 2270 2271 2272 2273 2274 2275 2276 2277 2278 2279 2280 2281 2282 2283 2284 2285 2286 2287 2288 2289 2290 2291 2292 2293 2294 2295 2296 2297 2298 2299 2300 2301 2302 2303 2304 2305 2306 2307 2308 2309 2310 2311 2312 2313 2314 2315 2316 2317 2318 2319 2320 2321 2322 2323 2324 2325 2326 2327 2328 2329 2330 2331 2332 2333 2334 2335 2336 2337 2338 2339 2340 2341 2342 2343 2344 2345 2346 2347 2348 2349 2350 2351 2352 2353 2354 2355 2356 2357 2358 2359 2360 2361 2362 2363 2364 2365 2366 2367 2368 2369 2370 2371 2372 2373 2374 2375 2376 2377 2378 2379 2380 2381 2382 2383 2384 2385 2386 2387 2388 2389 2390 2391 2392 2393 2394 2395 2396 2397 2398 2399 2400 2401 2402 2403 2404 2405 2406 2407 2408 2409 2410 2411 2412 2413 2414 2415 2416 2417 2418 2419 2420 2421 2422 2423 2424 2425 2426 2427 2428 2429 2430 2431 2432 2433 2434 2435 2436 2437 2438 2439 2440 2441 2442 2443 2444 2445 2446 2447 2448 2449 2450 2451 2452 2453 2454 2455 2456 2457 2458 2459 2460 2461 2462 2463 2464 2465 2466 2467 2468 2469 2470 2471 2472 2473 2474 2475 2476 2477 2478 2479 2480 2481 2482 2483 2484 2485 2486 2487 2488 2489 2490 2491 2492 2493 2494 2495 2496 2497 2498 2499 2500 2501 2502 2503 2504 2505 2506 2507 2508 2509 2510 2511 2512 2513 2514 2515 2516 2517 2518 2519 2520 2521 2522 2523 2524 2525 2526 2527 2528 2529 2530 2531 2532 2533 2534 2535 2536 2537 2538 2539 2540 2541 2542 2543 2544 2545 2546 2547 2548 2549 2550 2551 2552 2553 2554 2555 2556 2557 2558 2559 2560 2561 2562 2563 2564 2565 2566 2567 2568 2569 2570 2571 2572 2573 2574 2575 2576 2577 2578 2579 2580 2581 2582 2583 2584 2585 2586 2587 2588 2589 2590 2591 2592 2593 2594 2595 2596 2597 2598 2599 2600 2601 2602 2603 2604 2605 2606 2607 2608 2609 2610 2611 2612 2613 2614 2615 2616 2617 2618 2619 2620 2621 2622 2623 2624 2625 2626 2627 2628 2629 2630 2631 2632 2633 2634 2635 2636 2637 2638 2639 2640 2641 2642 2643 2644 2645 2646 2647 2648 2649 2650 2651 2652 2653 2654 2655 2656 2657 2658 2659 2660 2661 2662 2663 2664 2665 2666 2667 2668 2669 2670 2671 2672 2673 2674 2675 2676 2677 2678 2679 2680 2681 2682 2683 2684 2685 2686 2687 2688 2689 2690 2691 2692 2693 2694 2695 2696 2697 2698 2699 2700 2701 2702 2703 2704 2705 2706 2707 2708 2709 2710 2711 2712 2713 2714 2715 2716 2717 2718 2719 2720 2721 2722 2723 2724 2725 2726 2727 2728 2729 2730 2731 2732 2733 2734 2735 2736 2737 2738 2739 2740 2741 2742 2743 2744 2745 2746 2747 2748 2749 2750 2751 2752 2753 2754 2755 2756 2757 2758 2759 2760 2761 2762 2763 2764 2765 2766 2767 2768 2769 2770 2771 2772 2773 2774 2775 2776 2777 2778 2779 2780 2781 2782 2783 2784 2785 2786 2787 2788 2789 2790 2791 2792 2793 2794 2795 2796 2797 2798 2799 2800 2801 2802 2803 2804 2805 2806 2807 2808 2809 2810 2811 2812 2813 2814 2815 2816 2817 2818 2819 2820 2821 2822 2823 2824 2825 2826 2827 2828 2829 2830 2831 2832 2833 2834 2835 2836 2837 2838 2839 2840 2841 2842 2843 2844 2845 2846 2847 2848 2849 2850 2851 2852 2853 2854 2855 2856 2857 2858 2859 2860 2861 2862 2863 2864 2865 2866 2867 2868 2869 2870 2871 2872 2873 2874 2875 
</DataArray>
<DataArray type="UInt32" Name="offsets" format="ascii">
4 8 12 16 20 24 28 32 36 40 44 48 52 56 60 64 68 72 76 80 84 88 92 96 100 104 108 112 116 120 124 128 132 136 140 144 148 152 156 160 164 168 172 176 180 184 188 192 196 200 204 208 212 216 220 224 228 232 236 240 244 248 252 256 260 264 268 272 276 280 284 288 292 296 300 304 308 312 316 320 324 328 332 336 340 344 348 352 356 360 364 368 372 376 380 384 388 392 396 400 404 408 412 416 420 424 428 432 436 440 444 448 452 456 460 464 468 472 476 480 484 488 492 496 500 504 508 512 516 520 524 528 532 536 540 544 548 552 556 560 564 568 572 576 580 584 588 592 596 600 604 608 612 616 620 624 628 632 636 640 644 648 652 656 660 664 668 672 676 680 684 688 692 696 700 704 708 712 716 720 724 728 732 736 740 744 748 752 756 760 764 768 772 776 780 784 788 792 796 800 804 808 812 816 820 824 828 832 836 840 844 848 852 856 860 864 868 872 876 880 884 888 892 896 900 904 908 912 916 920 924 928 932 936 940 944 948 952 956 960 964 968 972 976 980 984 988 992 996 1000 1004 1008 1012 1016 1020 1024 1028 1032 1036 1040 1044 1048 1052 1056 1060 1064 1068 1072 1076 1080 1084 1088 1092 1096 1100 1104 1108 1112 1116 1120 1124 1128 1132 1136 1140 1144 1148 1152 1156 1160 1164 1168 1172 1176 1180 1184 1188 1192 1196 1200 1204 1208 1212 1216 1220 1224 1228 1232 1236 1240 1244 1248 1252 1256 1260 1264 1268 1272 1276 1280 1284 1288 1292 1296 1300 1304 1308 1312 1316 1320 1324 1328 1332 1336 1340 1344 1348 1352 1356 1360 1364 1368 1372 1376 1380 1384 1388 1392 1396 1400 1404 1408 1412 1416 1420 1424 1428 1432 1436 1440 1444 1448 1452 1456 1460 1464 1468 1472 1476 1480 1484 1488 1492 1496 1500 1504 1508 1512 1516 1520 1524 1528 1532 1536 1540 1544 1548 1552 1556 1560 1564 1568 1572 1576 1580 1584 1588 1592 1596 1600 1604 1608 1612 1616 1620 1624 1628 1632 1636 1640 1644 1648 1652 1656 1660 1664 1668 1672 1676 1680 1684 1688 1692 1696 1700 1704 1708 1712 1716 1720 1724 1728 1732 1736 1740 1744 1748 1752 1756 1760 1764 1768 1772 1776 1780 1784 1788 1792 1796 1800 1804 1808 1812 1816 1820 1824 1828 1832 1836 1840 1844 1848 1852 1856 1860 1864 1868 1872 1876 1880 1884 1888 1892 1896 1900 1904 1908 1912 1916 1920 1924 1928 1932 1936 1940 1944 1948 1952 1956 1960 1964 1968 1972 1976 1980 1984 1988 1992 1996 2000 2004 2008 2012 2016 2020 2024 2028 2032 2036 2040 2044 2048 2052 2056 2060 2064 2068 2072 2076 2080 2084 2088 2092 2096 2100 2104 2108 2112 2116 2120 2124 2128 2132 2136 2140 2144 2148 2152 2156 2160 2164 2168 2172 2176 2180 2184 2188 2192 2196 2200 2204 2208 2212 2216 2220 2224 2228 2232 2236 2240 2244 2248 2252 2256 2260 2264 2268 2272 2276 2280 2284 2288 2292 2296 2300 2304 2308 2312 2316 2320 2324 2328 2332 2336 2340 2344 2348 2352 2356 2360 2364 2368 2372 2376 2380 2384 2388 2392 2396 2400 2404 2408 2412 2416 2420 2424 2428 2432 2436 2440 2444 2448 2452 2456 2460 2464 2468 2472 2476 2480 2484 2488 2492 2496 2500 2504 2508 2512 2516 2520 2524 2528 2532 2536 2540 2544 2548 2552 2556 2560 2564 2568 2572 2576 2580 2584 2588 2592 2596 2600 2604 2608 2612 2616 2620 2624 2628 2632 2636 2640 2644 2648 2652 2656 2660 2664 2668 2672 2676 2680 2684 2688 2692 2696 2700 2704 2708 2712 2716 2720 2724 2728 2732 2736 2740 2744 2748 2752 2756 2760 2764 2768 2772 2776 2780 2784 2788 2792 2796 2800 2804 2808 2812 2816 2820 2824 2828 2832 2836 2840 2844 2848 2852 2856 2860 2864 2868 2872 2876 
</DataArray>
<DataArray type="UInt32" Name="types" format="ascii">
10 10 10 10 10 10 10 10 10 10 10 10 10 10 10 10 10 10 10 10 10 10 10 10 10 10 10 10 10 10 10 10 10 10 10 10 10 10 10 10 10 10 10 10 10 10 10 10 10 10 10 10 10 10 10 10 10 10 10 10 10 10 10 10 10 10 10 10 10 10 10 10 10 10 10 10 10 10 10 10 10 10 10 10 10 10 10 10 10 10 10 10 10 10 10 10 10 10 10 10 10 10 10 10 10 10 10 10 10 10 10 10 10 10 10 10 10 10 10 10 10 10 10 10 10 10 10 10 10 10 10 10 10 10 10 10 10 10 10 10 10 10 10 10 10 10 10 10 10 10 10 10 10 10 10 10 10 10 10 10 10 10 10 10 10 10 10 10 10 10 10 10 10 10 10 10 10 10 10 10 10 10 10 10 10 10 10 10 10 10 10 10 10 10 10 10 10 10 10 10 10 10 10 10 10 10 10 10 10 10 10 10 10 10 10 10 10 10 10 10 10 10 10 10 10 10 10 10 10 10 10 10 10 10 10 10 10 10 10 10 10 10 10 10 10 10 10 10 10 10 10 10 10 10 10 10 10 10 10 10 10 10 10 10 10 10 10 10 10 10 10 10 10 10 10 10 10 10 10 10 10 10 10 10 10 10 10 10 10 10 10 10 10 10 10 10 10 10 10 10 10 10 10 10 10 10 10 10 10 10 10 10 10 10 10 10 10 10 10 10 10 10 10 10 10 10 10 10 10 10 10 10 10 10 10 10 10 10 10 10 10 10 10 10 10 10 10 10 10 10 10 10 10 10 10 10 10 10 10 10 10 10 10 10 10 10 10 10 10 10 10 10 10 10 10 10 10 10 10 10 10 10 10 10 10 10 10 10 10 10 10 10 10 10 10 10 10 10 10 10 10 10 10 10 10 10 10 10 10 10 10 10 10 10 10 10 10 10 10 10 10 10 10 10 10 10 10 10 10 10 10 10 10 10 10 10 10 10 10 10 10 10 10 10 10 10 10 10 10 10 10 10 10 10 10 10 10 10 10 10 10 10 10 10 10 10 10 10 10 10 10 10 10 10 10 10 10 10 10 10 10 10 10 10 10 10 10 10 10 10 10 10 10 10 10 10 10 10 10 10 10 10 10 10 10 10 10 10 10 10 10 10 10 10 10 10 10 10 10 10 10 10 10 10 10 10 10 10 10 10 10 10 10 10 10 10 10 10 10 10 10 10 10 10 10 10 10 10 10 10 10 10 10 10 10 10 10 10 10 10 10 10 10 10 10 10 10 10 10 10 10 10 10 10 10 10 10 10 10 10 10 10 10 10 10 10 10 10 10 10 10 10 10 10 10 10 10 10 10 10 10 10 10 10 10 10 10 10 10 10 10 10 10 10 10 10 10 10 10 10 10 10 10 10 10 10 10 10 10 10 10 10 10 10 10 10 10 10 10 10 10 10 10 10 10 10 10 10 10 10 10 10 10 10 10 10 10 10 10 10 10 10 10 10 10 10 10 10 10 10 10 10 10 10 10 10 10 10 10 10 10 10 10 10 10 10 10 10 10 10 10 10 10 10 10 10 10 10 10 10 10 10 10 10 10 10 10 10 10 10 10 10 10 10 10 10 10 10 10 
</DataArray>
</Cells>
<PointData Scalars="" Vectors="displacement," Tensors="">
<DataArray type="Float64" Name="displacement" NumberOfComponents="3" format="ascii">
0.087419879493017022 1.8686738283882722e-05 -1.3676582199564464e-05 0.046965889406757021 8.565753251372643e-06 -1.3220308796331349e-05 0.040619655779667224 1.2335551165456391e-07 -1.0536216824812491e-05 0.086746699462524113 -2.4400508237447055e-05 -0.28966565447394194 -7.7661435856574852e-08 -1.4007469854475505e-05 -1.3167686942761764e-05 -8.5844530424940986e-08 -3.3232815444942734e-06 -1.4229502831339597e-05 0.040619655779667224 1.2335551165456468e-07 -1.0536216824807348e-05 -5.7017452199401156e-08 -9.7709035141440335e-06 -0.13516688922102146 -8.5844530424940986e-08 -3.3232815444942738e-06 -1.422950283132866e-05 0.055459947065024051 -3.6191285989008936e-06 -1.4988203052575621e-05 0.040619655779667224 1.2335551165456468e-07 -1.0536216824807348e-05 0.040649912447458608 -2.4346023126042274e-06 -0.1353970290594341 -5.7017452199401156e-08 -9.7709035141440335e-06 -0.13516688922102146 -8.771351777972433e-08 -3.1820287985274811e-06 -0.18480628068549163 -8.5844530424940986e-08 -3.3232815444942738e-06 -1.422950283132866e-05 0.040649912447458608 -2.4346023126042274e-06 -0.1353970290594341 -5.7017452199401156e-08 -9.7709035141440335e-06 -0.13516688922102146 -7.7453242314450741e-08 5.0498310752824047e-06 -0.15636965427594127 -6.9603439442261189e-08 -1.7593867595567528e-05 -0.291943089883617 0.086746699462524154 -2.4400508237447055e-05 -0.28966565447394182 0.087369686503158767 -3.2124073921833954e-06 -0.17291652961341966 0.040649912447458601 -2.4346023126042283e-06 -0.13539702905943407 0.047132381632599606 -3.0539867231005307e-06 -0.27757498967637917 0.086746699462524113 -2.4400508237447055e-05 -0.28966565447394194 -5.7017452199401156e-08 -9.7709035141440335e-06 -0.13516688922102146 -8.5844530428231841e-08 -3.3232815444942742e-06 -1.4229502831323163e-05 0.040619655779667224 1.2335551165456468e-07 -1.0536216824807348e-05 0.040649912447458608 -2.4346023126042274e-06 -0.1353970290594341 0.040619655779667224 1.2335551165456468e-07 -1.0536216824807348e-05 0.040649912447458601 -2.4346023126042287e-06 -0.13539702905943413 0.087369686503158767 -3.2124073921833946e-06 -0.17291652961341966 0.086746699462524113 -2.4400508237447055e-05 -0.28966565447394194 0.040619655779667224 1.2335551165456468e-07 -1.0536216824807348e-05 -7.7453242312883359e-08 5.049831075282414e-06 -0.15636965427594124 -5.7017452196258552e-08 -9.7709035141440419e-06 -0.13516688922102146 0.086746699462524113 -2.4400508237447055e-05 -0.28966565447394194 0.040619655779667224 1.2335551165456468e-07 -1.0536216824807348e-05 -5.7017452199032565e-08 -9.7709035141440335e-06 -0.13516688922102144 0.040649912447458608 -2.4346023126042279e-06 -0.1353970290594341 0.086746699462524113 -2.4400508237447055e-05 -0.28966565447394194 -5.7017452199401156e-08 -9.7709035141440335e-06 -0.13516688922102146 0.047132381632599613 -3.0539867231005332e-06 -0.27757498967637917 0.040649912447458608 -2.4346023126042279e-06 -0.1353970290594341 0.086746699462524127 -2.4400508237447062e-05 -0.28966565447394199 0.040649912447458608 -2.4346023126042274e-06 -0.1353970290594341 -5.7017452198855244e-08 -9.7709035141440335e-06 -0.13516688922102146 -8.7713517785422148e-08 -3.1820287985274816e-06 -0.18480628068549163 0.047132381632599606 -3.0539867231005307e-06 -0.27757498967637917 -6.9603439442261189e-08 -1.7593867595567528e-05 -0.291943089883617 -8.7713517785422148e-08 -3.1820287985274816e-06 -0.18480628068549163 -5.7017452199401156e-08 -9.7709035141440335e-06 -0.13516688922102146 0.047132381632599606 -3.0539867231005307e-06 -0.27757498967637917 -5.7017452199401156e-08 -9.7709035141440335e-06 -0.13516688922102146 0.040619655779667224 1.2335551165456468e-07 -1.0536216824807348e-05 -7.7661435856574852e-08 -1.4007469854475505e-05 -1.3167686942760883e-05 -7.7453242314450741e-08 5.0498310752824047e-06 -0.15636965427594127 -7.7453242314450741e-08 5.0498310752824047e-06 -0.15636965427594127 0.040619655779667238 1.2335551165457336e-07 -1.0536216824846284e-05 -7.7661435856574852e-08 -1.4007469854475505e-05 -1.3167686942761764e-05 0.046965889406757021 8.565753251372643e-06 -1.3220308796331349e-05 0.055459947065024051 -3.6191285989008936e-06 -1.4988203052575621e-05 0.040619655779667217 1.2335551165456174e-07 -1.0536216824822452e-05 0.087369686503158767 -3.2124073921833954e-06 -0.17291652961341966 0.087419879493017022 1.8686738283882722e-05 -1.3676582199564464e-05 0.055459947065024051 -3.6191285989008936e-06 -1.4988203052575621e-05 0.040619655779667231 1.2335551165456462e-07 -1.0536216824807239e-05 0.040649912447458594 -2.434602312604227e-06 -0.1353970290594341 0.087369686503158767 -3.2124073921833954e-06 -0.17291652961341966 0.087369686503158767 -3.2124073921833954e-06 -0.17291652961341966 0.11021286355616311 -3.2630581081001864e-06 -1.7717135719133211e-05 0.055459947065024051 -3.6191285989008945e-06 -1.4988203052584103e-05 0.087419879493017022 1.8686738283882722e-05 -1.3676582199564464e-05 0.087369686503158767 -3.2124073921833954e-06 -0.17291652961341966 0.087419879493017022 1.8686738283882725e-05 -1.3676582199565126e-05 0.040619655779667203 1.2335551165455758e-07 -1.0536216824815938e-05 0.086746699462524099 -2.4400508237447055e-05 -0.28966565447394194 0.087419879493017022 1.8686738283882722e-05 -1.3676582199564464e-05 0.086746699462524085 -2.4400508237447059e-05 -0.28966565447394188 0.087369686503158767 -3.2124073921833996e-06 -0.17291652961341969 0.13764301733558759 -5.8869564743287276e-06 -0.2103317636561487 0.087419879493017022 1.8686738283882722e-05 -1.3676582199564464e-05 0.13555325113910238 -2.9472966031023853e-06 -0.12323426346751527 0.13980233680689014 2.1813976616085836e-05 -1.2741121165355946e-05 0.13764301733558756 -5.8869564743287318e-06 -0.21033176365614872 0.087419879493017022 1.8686738283882722e-05 -1.3676582199564464e-05 0.13980233680689014 2.1813976616085836e-05 -1.2741121165384558e-05 0.12596823950748995 2.1601143374864781e-05 -1.1071908411190176e-05 0.13764301733558756 -5.886956474328736e-06 -0.21033176365614875 0.13555325113910238 -2.9472966031023951e-06 -0.12323426346751533 0.11021286355616311 -3.2630581081001864e-06 -1.7717135719133211e-05 0.08741987949301705 1.8686738283882719e-05 -1.3676582199504229e-05 0.13980233680689014 2.1813976616085836e-05 -1.2741121165355946e-05 0.13555325113910238 -2.9472966031023951e-06 -0.12323426346751533 0.11021286355616311 -3.2630581081001864e-06 -1.7717135719133211e-05 0.087369686503158767 -3.2124073921833954e-06 -0.17291652961341966 0.087419879493017022 1.8686738283882712e-05 -1.3676582199547687e-05 0.087369686503158767 -3.2124073921833954e-06 -0.17291652961341966 0.13123962214262844 -3.6156513092554904e-06 -0.2954170948544243 0.13555325113910238 -2.9472966031023951e-06 -0.12323426346751533 0.13764301733558756 -5.8869564743287301e-06 -0.2103317636561487 0.087419879493017022 1.8686738283882722e-05 -1.3676582199564464e-05 0.087369686503158767 -3.2124073921833895e-06 -0.17291652961341963 0.13555325113910235 -2.9472966031023967e-06 -0.12323426346751536 0.13764301733558756 -5.8869564743287326e-06 -0.21033176365614878 0.08670734933347872 -2.5630557916957108e-06 -0.50203959763700035 0.13873609488714281 -8.7671628964845441e-06 -0.49242307865671847 0.089267780066732069 -2.810970331549308e-06 -0.35913110313693186 0.061772617252376982 -2.7856616186470628e-05 -0.46260507631170344 0.089267780066732069 -2.8109703315493076e-06 -0.35913110313693186 0.086746699462524113 -2.4400508237447055e-05 -0.28966565447394194 0.047132381632599606 -3.0539867231005307e-06 -0.27757498967637917 0.061772617252376975 -2.7856616186470628e-05 -0.46260507631170344 0.089267780066732069 -2.8109703315493076e-06 -0.35913110313693186 0.13873609488714284 -8.7671628964845441e-06 -0.49242307865671842 0.086746699462524127 -2.4400508237447048e-05 -0.28966565447394194 0.061772617252376975 -2.7856616186470628e-05 -0.4626050763117035 0.089267780066732069 -2.8109703315493076e-06 -0.35913110313693186 0.13873609488714281 -8.7671628964845407e-06 -0.49242307865671847 0.13123962214262844 -3.6156513092554908e-06 -0.29541709485442436 0.13764301733558756 -5.8869564743287301e-06 -0.2103317636561487 0.089267780066732069 -2.8109703315493076e-06 -0.35913110313693186 0.086746699462524127 -2.4400508237447052e-05 -0.28966565447394188 0.13873609488714284 -8.7671628964845407e-06 -0.49242307865671847 0.13764301733558754 -5.8869564743287386e-06 -0.21033176365614872 0.089267780066732069 -2.8109703315493076e-06 -0.35913110313693186 0.087369686503158767 -3.2124073921833954e-06 -0.17291652961341966 0.047132381632599606 -3.0539867231005307e-06 -0.27757498967637917 0.086746699462524113 -2.4400508237447055e-05 -0.28966565447394194 0.087369686503158767 -3.2124073921833954e-06 -0.17291652961341966 0.086746699462524113 -2.4400508237447055e-05 -0.28966565447394194 0.089267780066732069 -2.8109703315493076e-06 -0.35913110313693186 0.13764301733558756 -5.8869564743287301e-06 -0.2103317636561487 0.087369686503158767 -3.2124073921833954e-06 -0.17291652961341966 0.089267780066732069 -2.8109703315493076e-06 -0.35913110313693186 0.13123962214262846 -3.6156513092554908e-06 -0.2954170948544243 0.13764301733558756 -5.8869564743287301e-06 -0.2103317636561487 0.08670734933347872 -2.5630557916957108e-06 -0.50203959763700035 0.13802827334935194 -3.1236755927263509e-06 -0.44728843470862112 0.089267780066732069 -2.8109703315493076e-06 -0.35913110313693186 0.13873609488714284 -8.767162896484539e-06 -0.49242307865671847 0.089267780066732069 -2.8109703315493076e-06 -0.35913110313693186 0.13802827334935194 -3.1236755927263509e-06 -0.44728843470862112 0.13123962214262844 -3.6156513092554904e-06 -0.2954170948544243 0.13873609488714284 -8.7671628964845407e-06 -0.49242307865671847 0.045812721017085528 -3.0541687720628601e-06 -0.45171002892720091 0.08670734933347872 -2.5630557916957108e-06 -0.50203959763700035 0.089267780066732069 -2.8109703315493076e-06 -0.35913110313693186 0.061772617252376982 -2.7856616186470628e-05 -0.46260507631170344 0.045812721017085528 -3.0541687720628601e-06 -0.45171002892720091 0.089267780066732069 -2.8109703315493076e-06 -0.35913110313693186 0.047132381632599606 -3.0539867231005307e-06 -0.27757498967637917 0.061772617252376982 -2.7856616186470628e-05 -0.46260507631170344 0.047132381632599606 -3.0539867231005307e-06 -0.27757498967637917 -5.7017452199401156e-08 -9.7709035141440335e-06 -0.13516688922102146 -6.9603439445084615e-08 -1.7593867595567524e-05 -0.291943089883617 0.086746699462524113 -2.4400508237447052e-05 -0.28966565447394188 -6.9603439442261189e-08 -1.7593867595567528e-05 -0.291943089883617 0.045812721017085507 -3.0541687720628568e-06 -0.45171002892720097 0.047132381632599606 -3.0539867231005307e-06 -0.27757498967637917 0.061772617252377003 -2.7856616186470638e-05 -0.46260507631170344 -6.9603439442261189e-08 -1.7593867595567528e-05 -0.291943089883617 0.047132381632599606 -3.0539867231005307e-06 -0.27757498967637917 0.086746699462524113 -2.4400508237447055e-05 -0.28966565447394194 0.061772617252376982 -2.7856616186470631e-05 -0.4626050763117035 -6.249902367751901e-08 -3.6974752214170621e-06 -0.36951322445375695 1.1253994093251511e-08 -4.1394854402891021e-06 -0.55396045718926468 0.045812721017085528 -3.0541687720628601e-06 -0.45171002892720091 -6.4076246431837953e-08 -3.1858880223617131e-05 -0.47055589968940215 -6.249902367751901e-08 -3.6974752214170621e-06 -0.36951322445375695 -6.9603439442261189e-08 -1.7593867595567528e-05 -0.291943089883617 0.045812721017085528 -3.0541687720628601e-06 -0.45171002892720091 0.047132381632599606 -3.0539867231005307e-06 -0.27757498967637917 0.045812721017085528 -3.0541687720628601e-06 -0.45171002892720091 -6.9603439438443082e-08 -1.7593867595567521e-05 -0.29194308988361695 -6.2499023677407453e-08 -3.6974752214170621e-06 -0.36951322445375695 -6.4076246431837953e-08 -3.1858880223617131e-05 -0.47055589968940215 -6.9603439442261189e-08 -1.7593867595567528e-05 -0.291943089883617 -6.2499023668966359e-08 -3.6974752214170608e-06 -0.36951322445375695 -8.7713517785422148e-08 -3.1820287985274816e-06 -0.18480628068549163 0.047132381632599606 -3.0539867231005307e-06 -0.27757498967637917 -6.9603439442261189e-08 -1.7593867595567528e-05 -0.291943089883617 -6.4076246431837953e-08 -3.1858880223617131e-05 -0.47055589968940215 0.045812721017085528 -3.0541687720628601e-06 -0.45171002892720091 0.061772617252377003 -2.7856616186470631e-05 -0.46260507631170344 -6.9603439442261189e-08 -1.7593867595567528e-05 -0.291943089883617 -9.270482675770098e-10 -3.229498211130314e-06 -0.4229903760651102 -6.407624642964169e-08 -3.1858880223617131e-05 -0.47055589968940215 0.061772617252376996 -2.7856616186470628e-05 -0.46260507631170344 -7.7453242314450741e-08 5.0498310752824047e-06 -0.15636965427594127 -7.6228772873742458e-08 -9.6135652679865741e-06 -0.30404925901484559 -6.9603439442261189e-08 -1.7593867595567528e-05 -0.291943089883617 0.086746699462524113 -2.4400508237447055e-05 -0.28966565447394194 -9.2704826910262212e-10 -3.2294982111303085e-06 -0.42299037606511025 0.086746699462524099 -2.4400508237447059e-05 -0.28966565447394177 0.06913739730573247 8.3361663623114045e-06 -0.41742202740064105 0.061772617252376982 -2.7856616186470628e-05 -0.46260507631170344 -6.9603439442261189e-08 -1.7593867595567528e-05 -0.291943089883617 -7.6228772870662103e-08 -9.6135652679865758e-06 -0.30404925901484559 -9.2704826929514468e-10 -3.2294982111303085e-06 -0.42299037606511025 0.086746699462524113 -2.4400508237447055e-05 -0.28966565447394194 -7.6228772873742458e-08 -9.6135652679865741e-06 -0.30404925901484559 0.069137397305732484 8.3361663623114062e-06 -0.4174220274006411 0.086746699462524127 -2.4400508237447055e-05 -0.28966565447394188 0.062051976525956461 -4.4122109971256241e-06 -0.20681259517865103 -9.2704826910262212e-10 -3.2294982111303085e-06 -0.42299037606511025 0.086746699462524113 -2.4400508237447065e-05 -0.28966565447394194 -7.6228772873742458e-08 -9.6135652679865741e-06 -0.30404925901484559 0.06913739730573247 8.3361663623114045e-06 -0.41742202740064105 -7.7453242314450741e-08 5.0498310752824047e-06 -0.15636965427594127 -7.6228772873742458e-08 -9.6135652679865741e-06 -0.30404925901484559 0.086746699462524099 -2.4400508237447059e-05 -0.28966565447394199 0.062051976525956447 -4.4122109971256258e-06 -0.20681259517865111 -6.9603439442261189e-08 -1.7593867595567528e-05 -0.291943089883617 0.086746699462524113 -2.4400508237447055e-05 -0.28966565447394199 -9.2704826988463691e-10 -3.2294982111303077e-06 -0.42299037606511025 0.061772617252376996 -2.7856616186470635e-05 -0.4626050763117035 -9.2704826910262212e-10 -3.2294982111303085e-06 -0.42299037606511025 -7.6228772875894954e-08 -9.6135652679865741e-06 -0.30404925901484559 -9.7250019124585606e-08 3.1094769154118601e-05 -0.47947136153663089 0.06913739730573247 8.3361663623114045e-06 -0.41742202740064105 0.13835378341870905 7.349541512894739e-06 -0.46557763203614277 0.13873609488714284 -8.7671628964845424e-06 -0.49242307865671847 0.086746699462524085 -2.4400508237447062e-05 -0.28966565447394182 0.13760271785606074 -1.1097587058122933e-06 -0.23241271972243094 0.06913739730573247 8.3361663623114045e-06 -0.41742202740064105 0.13760271785606074 -1.1097587058123031e-06 -0.23241271972243099 0.086746699462524127 -2.4400508237447048e-05 -0.28966565447394188 0.062051976525956461 -4.4122109971256199e-06 -0.20681259517865105 0.086746699462524113 -2.4400508237447055e-05 -0.28966565447394194 0.13760271785606074 -1.1097587058122936e-06 -0.23241271972243097 0.13873609488714284 -8.7671628964845373e-06 -0.49242307865671847 0.13764301733558756 -5.8869564743287301e-06 -0.21033176365614872 0.13835378341870905 7.349541512894739e-06 -0.46557763203614277 0.06913739730573247 8.3361663623114045e-06 -0.41742202740064105 0.086746699462524141 -2.4400508237447069e-05 -0.28966565447394188 0.13873609488714284 -8.7671628964845407e-06 -0.49242307865671847 0.086746699462524113 -2.4400508237447055e-05 -0.28966565447394194 0.06913739730573247 8.3361663623114045e-06 -0.41742202740064105 0.13835378341870905 7.3495415128947365e-06 -0.46557763203614289 0.13760271785606074 -1.1097587058122931e-06 -0.23241271972243099 0.086746699462524113 -2.4400508237447055e-05 -0.28966565447394194 0.13873609488714284 -8.7671628964845407e-06 -0.49242307865671853 0.06913739730573247 8.3361663623114062e-06 -0.41742202740064105 0.061772617252376982 -2.7856616186470628e-05 -0.46260507631170344 0.090992254132184272 -2.7347095247671598e-05 -1.5196296838105311e-05 0.086746699462524099 -2.4400508237447059e-05 -0.28966565447394194 0.12596823950748995 2.1601143374864781e-05 -1.1071908411191941e-05 0.13760271785606074 -1.1097587058122931e-06 -0.23241271972243099 0.090992254132184272 -2.7347095247671598e-05 -1.5196296838105311e-05 0.13760271785606074 -1.1097587058122931e-06 -0.23241271972243099 0.089680137945522528 -5.814125776275524e-06 -1.5936243181399515e-05 0.062051976525956461 -4.4122109971256199e-06 -0.20681259517865105 0.12596823950748995 2.1601143374864781e-05 -1.1071908411190176e-05 0.13760271785606074 -1.1097587058122931e-06 -0.23241271972243099 0.086746699462524099 -2.4400508237447055e-05 -0.28966565447394194 0.13764301733558759 -5.8869564743287233e-06 -0.2103317636561487 0.12596823950748995 2.1601143374864781e-05 -1.1071908411190176e-05 0.090992254132184272 -2.7347095247671598e-05 -1.5196296838105311e-05 0.087419879493017022 1.8686738283882722e-05 -1.3676582199564464e-05 0.086746699462524113 -2.4400508237447055e-05 -0.28966565447394194 0.046965889406757021 8.565753251372643e-06 -1.3220308796331349e-05 0.086746699462524099 -2.4400508237447052e-05 -0.28966565447394194 0.090992254132184272 -2.7347095247671598e-05 -1.5196296838105311e-05 0.062051976525956461 -4.4122109971256199e-06 -0.20681259517865105 0.087419879493017022 1.8686738283882722e-05 -1.3676582199564464e-05 0.12596823950748995 2.1601143374864781e-05 -1.1071908411190176e-05 0.086746699462524085 -2.4400508237447062e-05 -0.28966565447394194 0.13764301733558756 -5.8869564743287326e-06 -0.2103317636561487 0.090992254132184272 -2.7347095247671598e-05 -1.5196296838105311e-05 0.086746699462524127 -2.4400508237447076e-05 -0.28966565447394188 0.13760271785606074 -1.1097587058122931e-06 -0.23241271972243099 0.062051976525956475 -4.4122109971256106e-06 -0.20681259517865105 0.090992254132184272 -2.7347095247671598e-05 -1.5196296838105311e-05 0.046965889406757028 8.5657532513726481e-06 -1.3220308796327669e-05 0.087419879493017022 1.8686738283882722e-05 -1.3676582199564464e-05 0.086746699462524099 -2.4400508237447059e-05 -0.28966565447394199 0.089680137945522528 -5.814125776275524e-06 -1.5936243181399515e-05 0.090992254132184272 -2.7347095247671598e-05 -1.5196296838105311e-05 0.1425206776777794 -7.1116301559811047e-06 -1.4081265408625531e-05 0.13760271785606074 -1.1097587058122931e-06 -0.23241271972243099 0.1425206776777794 -7.1116301559811047e-06 -1.4081265408625531e-05 0.090992254132184272 -2.7347095247671598e-05 -1.5196296838105311e-05 0.12596823950748995 2.1601143374864781e-05 -1.1071908411190176e-05 0.13760271785606074 -1.1097587058122931e-06 -0.23241271972243099 -7.7453242314450741e-08 5.0498310752824047e-06 -0.15636965427594127 0.040619655779667224 1.2335551165456468e-07 -1.0536216824807348e-05 0.046965889406757021 8.565753251372643e-06 -1.3220308796329079e-05 0.086746699462524113 -2.4400508237447055e-05 -0.28966565447394194 -7.7453242314450741e-08 5.0498310752824047e-06 -0.15636965427594127 0.086746699462524113 -2.4400508237447062e-05 -0.28966565447394194 0.046965889406757021 8.565753251372643e-06 -1.3220308796322863e-05 0.062051976525956454 -4.4122109971256157e-06 -0.20681259517865105 0.047812015612810982 -7.3139360667050979e-07 -1.4415239182580139e-05 -9.1727487233219158e-08 2.3998334877185181e-06 -0.15916161531542619 0.046965889406757021 8.565753251372643e-06 -1.3220308796331349e-05 0.062051976525956461 -4.4122109971256199e-06 -0.20681259517865105 0.047812015612810982 -7.3139360667050979e-07 -1.4415239182580139e-05 0.046965889406757021 8.565753251372643e-06 -1.3220308796331349e-05 0.090992254132184272 -2.7347095247671598e-05 -1.5196296838105311e-05 0.062051976525956461 -4.4122109971256199e-06 -0.20681259517865105 -7.7453242314450741e-08 5.0498310752824047e-06 -0.15636965427594127 -7.7661435856574852e-08 -1.4007469854475505e-05 -1.3167686942761764e-05 -9.7394559562360177e-08 -3.7598879467282631e-06 -1.6809474730421201e-05 0.046965889406757021 8.565753251372643e-06 -1.3220308796331349e-05 -7.7453242314450741e-08 5.0498310752824047e-06 -0.15636965427594127 -9.7394559562360177e-08 -3.7598879467282631e-06 -1.6809474730421201e-05 -9.1727487236061747e-08 2.3998334877185172e-06 -0.15916161531542619 0.046965889406757021 8.565753251372643e-06 -1.3220308796331349e-05 -7.7453242314450741e-08 5.0498310752824047e-06 -0.15636965427594127 0.046965889406757021 8.565753251372643e-06 -1.3220308796331349e-05 -9.1727487233219158e-08 2.3998334877185181e-06 -0.15916161531542619 0.062051976525956447 -4.4122109971256165e-06 -0.20681259517865103 -7.7453242314450741e-08 5.0498310752824047e-06 -0.15636965427594127 -9.1727487233219158e-08 2.3998334877185181e-06 -0.15916161531542619 -7.6228772874695595e-08 -9.6135652679865741e-06 -0.30404925901484559 0.062051976525956447 -4.4122109971256208e-06 -0.20681259517865105 -9.1727487233219158e-08 2.3998334877185181e-06 -0.15916161531542619 -9.7394559565109553e-08 -3.7598879467282623e-06 -1.680947473040755e-05 -8.640225301418268e-08 6.1884631946738446e-06 -1.5687660400573444e-05 0.047812015612810982 -7.3139360667050979e-07 -1.4415239182580139e-05 0.046965889406757021 8.565753251372643e-06 -1.3220308796331349e-05 -9.7394559562360177e-08 -3.7598879467282631e-06 -1.6809474730421201e-05 -9.1727487233219158e-08 2.3998334877185181e-06 -0.15916161531542619 0.047812015612810982 -7.3139360667050979e-07 -1.4415239182580139e-05 -6.891405441378093e-08 1.1488464684893385e-06 -0.14680080490891273 -5.9842576900221321e-08 -2.1339562094533032e-05 -0.29955995046567124 0.062051976525956475 -4.4122109971256123e-06 -0.20681259517865103 0.053545718352734965 -4.0161820012165059e-06 -0.17819246412880285 0.044095706235695795 -1.6056791732059216e-05 -1.3130454224905452e-05 -6.8914054414444448e-08 1.148846468489338e-06 -0.14680080490891273 0.062051976525956461 -4.4122109971256191e-06 -0.20681259517865108 0.053545718352734972 -4.0161820012165084e-06 -0.17819246412880288 -6.891405441378093e-08 1.1488464684893385e-06 -0.14680080490891273 0.047812015612810982 -7.3139360667050979e-07 -1.4415239182580139e-05 -8.6402253013953226e-08 6.1884631946738446e-06 -1.5687660400572682e-05 0.044095706235695795 -1.6056791732059216e-05 -1.3130454224905452e-05 0.089680137945522528 -5.814125776275524e-06 -1.5936243181399515e-05 0.044095706235695795 -1.6056791732059216e-05 -1.3130454224905452e-05 0.062051976525956468 -4.4122109971256182e-06 -0.20681259517865108 0.053545718352734972 -4.0161820012165084e-06 -0.17819246412880288 -8.640225301418268e-08 6.1884631946738446e-06 -1.5687660400573444e-05 -9.1727487233219158e-08 2.3998334877185181e-06 -0.15916161531542619 0.047812015612810982 -7.3139360667051032e-07 -1.441523918258542e-05 -6.891405441378093e-08 1.1488464684893385e-06 -0.14680080490891273 -6.891405441378093e-08 1.1488464684893385e-06 -0.14680080490891273 -8.640225301418268e-08 6.1884631946738446e-06 -1.5687660400573444e-05 -8.7052006163439599e-08 -2.174293032900018e-05 -1.2772431807066682e-05 0.044095706235695795 -1.6056791732059216e-05 -1.3130454224905452e-05 0.085797658277572852 -2.6922024543669957e-05 -1.420434778518751e-05 0.044095706235695795 -1.605679173205922e-05 -1.3130454224901312e-05 0.089680137945522528 -5.8141257762755232e-06 -1.5936243181403682e-05 0.053545718352734972 -4.0161820012165084e-06 -0.17819246412880288 0.089680137945522528 -5.814125776275524e-06 -1.5936243181399515e-05 0.044095706235695795 -1.6056791732059216e-05 -1.3130454224905452e-05 0.047812015612810982 -7.3139360667050979e-07 -1.4415239182580139e-05 0.062051976525956461 -4.4122109971256199e-06 -0.20681259517865105 0.044095706235695795 -1.6056791732059216e-05 -1.3130454224905452e-05 -6.8914054415086208e-08 1.1488464684893389e-06 -0.1468008049089127 0.047812015612810982 -7.3139360667050979e-07 -1.4415239182580139e-05 0.062051976525956461 -4.4122109971256199e-06 -0.20681259517865105 -6.891405441378093e-08 1.1488464684893385e-06 -0.14680080490891273 -8.4888223323184429e-08 2.3004002805701725e-05 -0.28693564679437022 -5.9842576900221321e-08 -2.1339562094533032e-05 -0.29955995046567124 0.053545718352734958 -4.0161820012165033e-06 -0.17819246412880291 -9.1727487233219158e-08 2.3998334877185181e-06 -0.15916161531542619 -6.891405441378093e-08 1.1488464684893385e-06 -0.14680080490891273 -5.9842576900221321e-08 -2.1339562094533032e-05 -0.29955995046567124 0.062051976525956461 -4.4122109971256199e-06 -0.20681259517865105 -9.1727487233219158e-08 2.3998334877185181e-06 -0.15916161531542619 0.047812015612810989 -7.3139360667051043e-07 -1.4415239182584508e-05 -6.891405441378093e-08 1.1488464684893385e-06 -0.14680080490891273 0.062051976525956461 -4.4122109971256199e-06 -0.20681259517865105 -5.9842576900221321e-08 -2.1339562094533032e-05 -0.29955995046567124 0.062801836825073135 2.3531137229713516e-05 -0.44585454532691193 0.099287969889747668 -2.467697647842789e-06 -0.27860268448799747 0.053545718352734972 -4.0161820012165126e-06 -0.17819246412880282 -5.9842576900221321e-08 -2.1339562094533032e-05 -0.29955995046567124 0.069137397305732484 8.3361663623114045e-06 -0.41742202740064099 -7.6228772873742458e-08 -9.6135652679865741e-06 -0.30404925901484559 0.062051976525956482 -4.4122109971256216e-06 -0.20681259517865103 -5.9842576900221321e-08 -2.1339562094533032e-05 -0.29955995046567124 -8.4888223320680123e-08 2.3004002805701725e-05 -0.28693564679437022 0.062801836825073121 2.3531137229713513e-05 -0.44585454532691193 0.053545718352734965 -4.0161820012165093e-06 -0.17819246412880285 0.099287969889747668 -2.467697647842789e-06 -0.27860268448799747 0.062051976525956475 -4.412210997125614e-06 -0.20681259517865103 -5.9842576898148698e-08 -2.1339562094533035e-05 -0.2995599504656713 0.053545718352734965 -4.0161820012165067e-06 -0.17819246412880282 -9.1727487233219158e-08 2.3998334877185181e-06 -0.15916161531542619 -5.9842576899946909e-08 -2.1339562094533032e-05 -0.29955995046567124 -7.6228772873742458e-08 -9.6135652679865741e-06 -0.30404925901484559 0.062051976525956461 -4.4122109971256199e-06 -0.20681259517865105 -5.9842576900221321e-08 -2.1339562094533032e-05 -0.29955995046567124 0.06913739730573247 8.3361663623114096e-06 -0.4174220274006411 0.099287969889747668 -2.467697647842789e-06 -0.27860268448799747 0.062801836825073135 2.3531137229713506e-05 -0.44585454532691188 0.099287969889747668 -2.467697647842789e-06 -0.27860268448799747 0.06913739730573247 8.3361663623114011e-06 -0.41742202740064105 -5.9842576908670581e-08 -2.1339562094533035e-05 -0.2995599504656713 0.062051976525956482 -4.412210997125614e-06 -0.20681259517865108 -7.6228772873742458e-08 -9.6135652679865741e-06 -0.30404925901484559 -5.9842576904131067e-08 -2.1339562094533032e-05 -0.29955995046567124 -9.7250019124585606e-08 3.1094769154118601e-05 -0.47947136153663089 0.06913739730573247 8.3361663623114045e-06 -0.41742202740064105 1.3521218605470273e-09 3.0307725677809343e-06 -0.42159211815865394 -9.7250019124585606e-08 3.1094769154118601e-05 -0.47947136153663089 -5.9842576900221321e-08 -2.1339562094533032e-05 -0.29955995046567124 0.06913739730573247 8.3361663623114045e-06 -0.41742202740064105 -1.2934780963715798e-07 7.8457174595573884e-06 -0.55315402389124746 0.06913739730573247 8.3361663623113995e-06 -0.4174220274006411 1.3521218605470273e-09 3.0307725677809343e-06 -0.42159211815865394 0.062801836825073135 2.3531137229713509e-05 -0.44585454532691188 -5.9842576900221321e-08 -2.1339562094533032e-05 -0.29955995046567124 -8.4888223320680123e-08 2.3004002805701725e-05 -0.28693564679437022 1.3521218552974502e-09 3.030772567780936e-06 -0.42159211815865394 0.062801836825073135 2.3531137229713509e-05 -0.44585454532691188 1.3521218605470273e-09 3.0307725677809343e-06 -0.42159211815865394 0.06913739730573247 8.3361663623114062e-06 -0.41742202740064105 -5.9842576900221321e-08 -2.1339562094533032e-05 -0.29955995046567124 0.062801836825073135 2.3531137229713509e-05 -0.44585454532691188 0.047105121769771753 3.0897931724267837e-06 -0.27816896559783172 0.091402390511451714 3.5384155423279759e-06 -0.36726863653823694 0.062801836825073135 2.3531137229713509e-05 -0.44585454532691188 0.053545718352734972 -4.0161820012165084e-06 -0.17819246412880288 -8.4888223320680123e-08 2.3004002805701725e-05 -0.28693564679437022 0.047105121769771753 3.0897931724267833e-06 -0.27816896559783172 0.062801836825073135 2.3531137229713509e-05 -0.44585454532691188 0.053545718352734972 -4.0161820012165084e-06 -0.17819246412880288 0.048170587907631471 3.3694521988298489e-06 -0.46065152029668144 -8.4010467902505104e-08 4.2735679625030281e-05 -0.46900288517890387 -8.4888223319416734e-08 2.3004002805701725e-05 -0.28693564679437017 0.062801836825073135 2.3531137229713506e-05 -0.44585454532691182 1.3521218605470273e-09 3.0307725677809343e-06 -0.42159211815865394 -8.4888223320680123e-08 2.3004002805701725e-05 -0.28693564679437022 -8.4010467887722474e-08 4.2735679625030281e-05 -0.46900288517890387 0.062801836825073135 2.3531137229713509e-05 -0.44585454532691188 0.048170587907631471 3.3694521988298489e-06 -0.46065152029668144 -5.2333763246638999e-08 3.9606842544906124e-06 -0.36950380707032604 -8.4888223316475928e-08 2.3004002805701718e-05 -0.28693564679437017 -8.4010467887722474e-08 4.2735679625030288e-05 -0.46900288517890382 -8.4888223320680123e-08 2.3004002805701725e-05 -0.28693564679437022 0.047105121769771753 3.0897931724267837e-06 -0.27816896559783172 -5.2333763246638999e-08 3.9606842544906124e-06 -0.36950380707032604 0.048170587907631478 3.3694521988298485e-06 -0.46065152029668149 0.048170587907631471 3.3694521988298489e-06 -0.46065152029668144 -8.488822332876545e-08 2.3004002805701735e-05 -0.28693564679437011 0.047105121769771753 3.0897931724267837e-06 -0.27816896559783172 0.062801836825073121 2.3531137229713509e-05 -0.44585454532691188 0.048170587907631471 3.3694521988298489e-06 -0.46065152029668144 0.047105121769771753 3.0897931724267837e-06 -0.27816896559783172 0.091402390511451714 3.5384155423279759e-06 -0.36726863653823694 0.062801836825073135 2.3531137229713509e-05 -0.44585454532691188 -5.2333763246638999e-08 3.9606842544906124e-06 -0.36950380707032604 -7.9693761801984948e-08 3.105639105311702e-06 -0.18485557769709896 0.047105121769771753 3.0897931724267837e-06 -0.27816896559783172 -8.4888223320680123e-08 2.3004002805701725e-05 -0.28693564679437022 0.047105121769771753 3.0897931724267837e-06 -0.27816896559783172 -7.9693761812710807e-08 3.1056391053117071e-06 -0.18485557769709896 -5.1776691558604602e-08 -9.2172643159554787e-06 -0.13525170656777946 -8.488822332590985e-08 2.3004002805701725e-05 -0.28693564679437022 0.040661902644554646 2.4846329767770169e-06 -0.13546208228003168 -7.9693761801984948e-08 3.105639105311702e-06 -0.18485557769709896 -5.1776691543063949e-08 -9.2172643159554888e-06 -0.13525170656777946 0.047105121769771753 3.0897931724267837e-06 -0.27816896559783172 0.055410003699077448 3.4929374409759941e-06 -1.4448014472650041e-05 -9.4930262214043427e-08 3.3515469226141579e-06 -1.447297615354858e-05 0.040555884256518161 -2.0589997326188745e-05 -1.0535495580872931e-05 0.040661902644554646 2.4846329767770169e-06 -0.13546208228003168 -5.1776691543331585e-08 -9.2172643159554888e-06 -0.13525170656777946 -9.4930262212849918e-08 3.3515469226141584e-06 -1.447297615353762e-05 -7.9693761801984948e-08 3.105639105311702e-06 -0.18485557769709896 0.040661902644554646 2.4846329767770169e-06 -0.13546208228003168 -5.1776691543331585e-08 -9.2172643159554888e-06 -0.13525170656777946 0.040555884256518161 -2.0589997326188745e-05 -1.0535495580872931e-05 -9.4930262212849918e-08 3.3515469226141584e-06 -1.447297615353762e-05 0.040661902644554646 2.4846329767770169e-06 -0.13546208228003168 0.040555884256518161 -2.0589997326188745e-05 -1.0535495580872931e-05 -9.4930262217482632e-08 3.3515469226141596e-06 -1.4472976153551496e-05 -8.7052006166466577e-08 -2.174293032900018e-05 -1.2772431807076758e-05 -5.1776691543331585e-08 -9.2172643159554888e-06 -0.13525170656777946 -5.1776691543331585e-08 -9.2172643159554888e-06 -0.13525170656777946 -6.891405441378093e-08 1.1488464684893385e-06 -0.14680080490891273 0.044095706235695802 -1.6056791732059216e-05 -1.3130454224910969e-05 0.053545718352734972 -4.0161820012165084e-06 -0.17819246412880288 -8.7052006166466577e-08 -2.174293032900018e-05 -1.2772431807076758e-05 0.044095706235695795 -1.6056791732059216e-05 -1.3130454224905452e-05 0.040555884256518161 -2.0589997326188745e-05 -1.0535495580872931e-05 -5.1776691543331585e-08 -9.2172643159554888e-06 -0.13525170656777946 0.040661902644554646 2.4846329767770169e-06 -0.13546208228003168 -5.177669154468607e-08 -9.2172643159554905e-06 -0.13525170656777943 0.040555884256518161 -2.0589997326188745e-05 -1.0535495580868702e-05 0.053545718352734972 -4.0161820012165101e-06 -0.17819246412880285 0.044095706235695795 -1.6056791732059216e-05 -1.3130454224905452e-05 -8.7052006166466577e-08 -2.174293032900018e-05 -1.2772431807076758e-05 -6.891405441378093e-08 1.1488464684893385e-06 -0.14680080490891273 -5.1776691543331585e-08 -9.2172643159554888e-06 -0.13525170656777946 0.044095706235695795 -1.6056791732059216e-05 -1.3130454224905452e-05 0.040555884256518161 -2.0589997326188745e-05 -1.0535495580861999e-05 -5.1776691543331585e-08 -9.2172643159554888e-06 -0.13525170656777946 0.053545718352734972 -4.0161820012165084e-06 -0.17819246412880288 0.047105121769771753 3.0897931724267837e-06 -0.27816896559783172 -8.4888223331920462e-08 2.3004002805701715e-05 -0.28693564679437022 -5.1776691548561319e-08 -9.2172643159554803e-06 -0.13525170656777949 0.053545718352734972 -4.0161820012165084e-06 -0.17819246412880288 -5.1776691543331585e-08 -9.2172643159554888e-06 -0.13525170656777946 -8.4888223320680123e-08 2.3004002805701725e-05 -0.28693564679437022 -6.891405441378093e-08 1.1488464684893385e-06 -0.14680080490891273 0.053545718352734972 -4.0161820012165084e-06 -0.17819246412880288 0.040661902644554646 2.4846329767770169e-06 -0.13546208228003168 0.040555884256518175 -2.0589997326188742e-05 -1.053549558092283e-05 0.085797658277572852 -2.6922024543669954e-05 -1.4204347785211699e-05 0.053545718352734979 -4.0161820012165101e-06 -0.17819246412880285 0.044095706235695795 -1.6056791732059216e-05 -1.3130454224905452e-05 0.085797658277572852 -2.6922024543669957e-05 -1.420434778518751e-05 0.040555884256518161 -2.0589997326188745e-05 -1.0535495580872931e-05 0.053545718352734972 -4.0161820012165084e-06 -0.17819246412880288 0.040555884256518161 -2.0589997326188745e-05 -1.0535495580872931e-05 0.085797658277572852 -2.6922024543669957e-05 -1.420434778518751e-05 0.055410003699077448 3.4929374409759941e-06 -1.4448014472650041e-05 0.040661902644554646 2.4846329767770169e-06 -0.13546208228003168 0.087516395664613972 3.2027478057229303e-06 -0.17458351378983594 0.055410003699077462 3.4929374409760029e-06 -1.4448014472638841e-05 0.085797658277572852 -2.6922024543669957e-05 -1.420434778518751e-05 0.040661902644554646 2.4846329767770169e-06 -0.13546208228003168 0.085797658277572852 -2.6922024543669957e-05 -1.420434778518751e-05 0.087516395664613972 3.2027478057229303e-06 -0.17458351378983594 0.040661902644554639 2.4846329767770118e-06 -0.13546208228003162 0.053545718352734979 -4.0161820012165093e-06 -0.17819246412880288 0.087516395664613972 3.2027478057229303e-06 -0.17458351378983594 0.047105121769771753 3.0897931724267837e-06 -0.27816896559783172 0.040661902644554646 2.4846329767770169e-06 -0.13546208228003168 0.053545718352734972 -4.0161820012165084e-06 -0.17819246412880288 0.040661902644554646 2.4846329767770169e-06 -0.13546208228003168 0.047105121769771753 3.0897931724267842e-06 -0.27816896559783172 -5.1776691543331585e-08 -9.2172643159554888e-06 -0.13525170656777946 0.053545718352734972 -4.0161820012165084e-06 -0.17819246412880288 0.099287969889747668 -2.467697647842789e-06 -0.27860268448799747 0.053545718352734972 -4.0161820012165084e-06 -0.17819246412880282 0.087516395664613972 3.2027478057229303e-06 -0.17458351378983594 0.14518033312653927 -1.5072993744425703e-06 -0.19411572102031219 0.085797658277572852 -2.6922024543669957e-05 -1.420434778518751e-05 0.053545718352734972 -4.0161820012165084e-06 -0.17819246412880288 0.099287969889747682 -2.4676976478428102e-06 -0.27860268448799747 0.14518033312653927 -1.5072993744425667e-06 -0.19411572102031222 0.085797658277572852 -2.6922024543669957e-05 -1.420434778518751e-05 0.087516395664613972 3.202747805722926e-06 -0.17458351378983589 0.053545718352734972 -4.0161820012165101e-06 -0.17819246412880288 0.14518033312653927 -1.5072993744425646e-06 -0.19411572102031222 0.085797658277572852 -2.6922024543669957e-05 -1.420434778518751e-05 0.11021985782924189 4.0331476525354502e-06 -1.6806461009829678e-05 0.055410003699077448 3.4929374409759941e-06 -1.4448014472650041e-05 0.087516395664613972 3.2027478057229303e-06 -0.17458351378983594 0.085797658277572852 -2.6922024543669957e-05 -1.420434778518751e-05 0.13936335383943116 8.9208736986437498e-06 -1.3750108693604289e-05 0.087516395664613972 3.2027478057229303e-06 -0.17458351378983594 0.14518033312653927 -1.5072993744425817e-06 -0.19411572102031224 0.12552440854388802 -1.6290472295128657e-05 -1.0830386471843819e-05 0.13936335383943116 8.9208736986437617e-06 -1.3750108693576147e-05 0.085797658277572852 -2.6922024543669957e-05 -1.4204347785183629e-05 0.14518033312653927 -1.5072993744425677e-06 -0.19411572102031216 0.14016264253215066 2.9191565955707407e-06 -0.15250237239923461 0.087516395664613972 3.2027478057229303e-06 -0.17458351378983594 0.11021985782924187 4.0331476525354494e-06 -1.6806461009799876e-05 0.13936335383943116 8.9208736986437617e-06 -1.3750108693576147e-05 0.087516395664613972 3.2027478057229303e-06 -0.17458351378983594 0.085797658277572839 -2.6922024543669957e-05 -1.4204347785227244e-05 0.11021985782924189 4.0331476525354502e-06 -1.6806461009829678e-05 0.13936335383943116 8.9208736986437617e-06 -1.3750108693576147e-05 0.14016264253215066 2.9191565955707407e-06 -0.15250237239923461 0.12626256795058027 2.3776636233077224e-06 -0.2886694583442409 0.087516395664613972 3.2027478057229303e-06 -0.17458351378983594 0.14518033312653927 -1.5072993744425694e-06 -0.19411572102031219 0.14016264253215066 2.9191565955707407e-06 -0.15250237239923461 0.087516395664613972 3.2027478057229303e-06 -0.17458351378983594 0.13936335383943116 8.9208736986437617e-06 -1.375010869358256e-05 0.14518033312653927 -1.5072993744425682e-06 -0.19411572102031216 0.091402390511451714 3.5384155423279759e-06 -0.36726863653823694 0.099287969889747668 -2.4676976478427835e-06 -0.27860268448799752 0.13843950411153336 -1.0122407323536812e-05 -0.49313012712561982 0.062801836825073135 2.3531137229713509e-05 -0.44585454532691188 0.099287969889747668 -2.467697647842789e-06 -0.27860268448799747 0.062801836825073135 2.3531137229713509e-05 -0.44585454532691188 0.091402390511451714 3.5384155423279759e-06 -0.36726863653823694 0.053545718352734958 -4.0161820012165093e-06 -0.17819246412880282 0.087516395664613972 3.2027478057229303e-06 -0.17458351378983594 0.12626256795058027 2.377663623307722e-06 -0.2886694583442409 0.091402390511451714 3.5384155423279759e-06 -0.36726863653823694 0.099287969889747668 -2.4676976478427907e-06 -0.27860268448799747 0.12626256795058027 2.377663623307722e-06 -0.2886694583442409 0.099287969889747668 -2.467697647842789e-06 -0.27860268448799752 0.087516395664613972 3.2027478057229303e-06 -0.17458351378983594 0.14518033312653927 -1.5072993744425701e-06 -0.19411572102031219 0.087516395664613972 3.2027478057229303e-06 -0.17458351378983594 0.099287969889747682 -2.467697647842789e-06 -0.27860268448799747 0.091402390511451728 3.5384155423279764e-06 -0.36726863653823694 0.053545718352734972 -4.0161820012165084e-06 -0.17819246412880288 0.12626256795058027 2.377663623307722e-06 -0.2886694583442409 0.1384395041115333 -1.0122407323536796e-05 -0.49313012712561977 0.099287969889747668 -2.4676976478427916e-06 -0.27860268448799752 0.14518033312653927 -1.5072993744425701e-06 -0.19411572102031219 0.12626256795058027 2.377663623307722e-06 -0.2886694583442409 0.091402390511451714 3.5384155423279759e-06 -0.36726863653823694 0.099287969889747668 -2.4676976478427912e-06 -0.27860268448799747 0.13843950411153333 -1.0122407323536798e-05 -0.49313012712561971 0.087516395664613972 3.2027478057229303e-06 -0.17458351378983594 0.091402390511451714 3.5384155423279759e-06 -0.36726863653823694 0.047105121769771753 3.0897931724267837e-06 -0.27816896559783172 0.053545718352734972 -4.0161820012165084e-06 -0.17819246412880288 0.091402390511451714 3.5384155423279759e-06 -0.36726863653823694 0.09092822252349464 3.6769035633150677e-06 -0.5563173522686522 0.048170587907631471 3.3694521988298489e-06 -0.46065152029668144 0.062801836825073135 2.3531137229713509e-05 -0.44585454532691188 0.12626256795058027 2.377663623307722e-06 -0.2886694583442409 0.14343350881630981 3.0991578789889722e-06 -0.4658549649070165 0.091402390511451714 3.5384155423279759e-06 -0.36726863653823694 0.13843950411153333 -1.0122407323536798e-05 -0.49313012712561977 0.06913739730573247 8.3361663623114045e-06 -0.41742202740064105 0.1384395041115333 -1.0122407323536795e-05 -0.49313012712561977 0.099287969889747654 -2.4676976478427852e-06 -0.27860268448799747 0.062801836825073148 2.3531137229713503e-05 -0.44585454532691182 0.099287969889747668 -2.467697647842789e-06 -0.27860268448799747 0.13835378341870905 7.349541512894739e-06 -0.46557763203614283 0.06913739730573247 8.3361663623114045e-06 -0.41742202740064105 0.13760271785606071 -1.1097587058122938e-06 -0.23241271972243091 0.099287969889747668 -2.467697647842789e-06 -0.27860268448799747 0.06913739730573247 8.3361663623114045e-06 -0.41742202740064105 0.13835378341870905 7.3495415128947399e-06 -0.46557763203614272 0.13843950411153333 -1.01224073235368e-05 -0.49313012712561982 0.099287969889747668 -2.467697647842789e-06 -0.27860268448799747 0.13760271785606074 -1.1097587058122931e-06 -0.23241271972243099 0.069137397305732456 8.3361663623114045e-06 -0.41742202740064099 0.062051976525956461 -4.4122109971256199e-06 -0.20681259517865105 0.099287969889747668 -2.467697647842789e-06 -0.27860268448799747 0.089680137945522528 -5.814125776275524e-06 -1.5936243181399515e-05 0.13760271785606074 -1.1097587058122931e-06 -0.23241271972243099 0.062051976525956461 -4.4122109971256199e-06 -0.20681259517865105 0.085797658277572852 -2.6922024543669957e-05 -1.420434778518751e-05 0.089680137945522528 -5.814125776275524e-06 -1.5936243181399515e-05 0.12552440854388802 -1.6290472295128657e-05 -1.0830386471843819e-05 0.099287969889747682 -2.4676976478427882e-06 -0.27860268448799752 0.089680137945522528 -5.814125776275524e-06 -1.5936243181399515e-05 0.062051976525956482 -4.4122109971256191e-06 -0.20681259517865105 0.099287969889747654 -2.467697647842789e-06 -0.27860268448799752 0.053545718352734972 -4.0161820012165084e-06 -0.17819246412880288 0.089680137945522528 -5.814125776275524e-06 -1.5936243181399515e-05 0.12552440854388802 -1.6290472295128657e-05 -1.0830386471848056e-05 0.099287969889747668 -2.4676976478427903e-06 -0.27860268448799747 0.13760271785606074 -1.1097587058122931e-06 -0.23241271972243099 0.085797658277572852 -2.6922024543669957e-05 -1.420434778518751e-05 0.089680137945522528 -5.814125776275524e-06 -1.5936243181399515e-05 0.099287969889747682 -2.4676976478427907e-06 -0.27860268448799747 0.053545718352734972 -4.0161820012165084e-06 -0.17819246412880288 0.12552440854388802 -1.6290472295128657e-05 -1.0830386471843819e-05 0.085797658277572852 -2.6922024543669957e-05 -1.4204347785187977e-05 0.099287969889747668 -2.467697647842789e-06 -0.27860268448799747 0.14518033312653927 -1.5072993744425705e-06 -0.19411572102031216 0.099287969889747668 -2.467697647842789e-06 -0.27860268448799747 0.13760271785606074 -1.1097587058122931e-06 -0.23241271972243099 0.12552440854388802 -1.6290472295128657e-05 -1.0830386471843819e-05 0.14518033312653927 -1.5072993744425701e-06 -0.19411572102031219 0.047812015612810982 -7.3139360667050979e-07 -1.4415239182580139e-05 0.090992254132184272 -2.7347095247671598e-05 -1.5196296838105311e-05 0.089680137945522528 -5.814125776275524e-06 -1.5936243181399515e-05 0.062051976525956461 -4.4122109971256199e-06 -0.20681259517865105 0.089680137945522528 -5.814125776275524e-06 -1.5936243181399515e-05 0.1425206776777794 -7.1116301559811047e-06 -1.4081265408625531e-05 0.12552440854388802 -1.6290472295128657e-05 -1.0830386471843819e-05 0.13760271785606074 -1.1097587058122931e-06 -0.23241271972243099 0.19652209780669214 2.900493230161151e-05 -9.0257186032626637e-06 0.1865135325872587 -2.6933579794431647e-06 -0.29118375193599894 0.16356788857520038 -1.4379827507792999e-06 -1.0632261804323937e-05 0.2097518239828321 5.8815361117788245e-06 -0.2044250183265871 0.1865135325872587 -2.6933579794431431e-06 -0.29118375193599894 0.13760271785606074 -1.1097587058122936e-06 -0.23241271972243102 0.16356788857520038 -1.4379827507792993e-06 -1.0632261804316478e-05 0.20975182398283207 5.8815361117788059e-06 -0.20442501832658708 0.16356788857520038 -1.4379827507792999e-06 -1.0632261804323937e-05 0.12552440854388802 -1.6290472295128657e-05 -1.0830386471851068e-05 0.13760271785606074 -1.1097587058122919e-06 -0.23241271972243102 0.14518033312653927 -1.5072993744425677e-06 -0.19411572102031224 0.1425206776777794 -7.1116301559811047e-06 -1.4081265408625531e-05 0.18280620794198776 -2.0986259710895437e-05 -1.1112056235388375e-05 0.16356788857520038 -1.4379827507792999e-06 -1.0632261804323937e-05 0.13760271785606074 -1.1097587058122931e-06 -0.23241271972243099 0.16356788857520038 -1.4379827507792999e-06 -1.0632261804323937e-05 0.13760271785606071 -1.1097587058122925e-06 -0.23241271972243099 0.1865135325872587 -2.6933579794431431e-06 -0.29118375193599894 0.14518033312653922 -1.5072993744425692e-06 -0.19411572102031222 0.16356788857520038 -1.4379827507792999e-06 -1.0632261804323937e-05 0.13760271785606074 -1.1097587058122967e-06 -0.23241271972243099 0.18280620794198776 -2.0986259710895437e-05 -1.1112056235388375e-05 0.20975182398283204 5.8815361117787999e-06 -0.20442501832658708 0.16356788857520038 -1.4379827507792999e-06 -1.0632261804323937e-05 0.14518033312653927 -1.5072993744425307e-06 -0.19411572102031216 0.18651353258725867 -2.6933579794431431e-06 -0.29118375193599894 0.2193285808167294 6.1980945655267769e-05 -0.17364871665237355 0.16356788857520038 -1.4379827507792999e-06 -1.0632261804323937e-05 0.12552440854388802 -1.6290472295128657e-05 -1.0830386471850288e-05 0.1425206776777794 -7.1116301559811047e-06 -1.4081265408625531e-05 0.13760271785606074 -1.1097587058122931e-06 -0.23241271972243099 0.16356788857520038 -1.4379827507792999e-06 -1.0632261804323937e-05 0.1865135325872587 -2.6933579794431431e-06 -0.29118375193599894 0.19652209780669214 2.900493230161151e-05 -9.0257186032626637e-06 0.2193285808167294 6.1980945655267755e-05 -0.17364871665237355 0.12552440854388802 -1.6290472295128657e-05 -1.0830386471843819e-05 0.16356788857520038 -1.4379827507792995e-06 -1.0632261804322508e-05 0.13936335383943116 8.9208736986437633e-06 -1.3750108693591669e-05 0.14518033312653927 -1.5072993744425669e-06 -0.19411572102031216 0.16356788857520038 -1.4379827507792999e-06 -1.0632261804323937e-05 0.19652209780669214 2.9004932301611514e-05 -9.0257186032578966e-06 0.19101949406182761 8.8932510940167449e-05 -1.3745266020963133e-05 0.2193285808167294 6.1980945655267755e-05 -0.17364871665237355 0.19652209780669214 2.900493230161151e-05 -9.0257186032626637e-06 0.16356788857520038 -1.4379827507793003e-06 -1.0632261804323686e-05 0.18280620794198776 -2.0986259710895437e-05 -1.1112056235380896e-05 0.20975182398283207 5.8815361117788059e-06 -0.20442501832658708 0.1865135325872587 -2.6933579794431431e-06 -0.29118375193599894 0.13760271785606074 -1.1097587058122916e-06 -0.23241271972243094 0.099287969889747668 -2.467697647842789e-06 -0.27860268448799747 0.14518033312653925 -1.5072993744425703e-06 -0.19411572102031219 0.1865135325872587 -2.6933579794431431e-06 -0.29118375193599894 0.099287969889747654 -2.4676976478427869e-06 -0.27860268448799741 0.13835378341870905 7.349541512894739e-06 -0.46557763203614277 0.13843950411153333 -1.0122407323536798e-05 -0.49313012712561977 0.13835378341870905 7.349541512894739e-06 -0.46557763203614277 0.099287969889747668 -2.4676976478427878e-06 -0.27860268448799752 0.1865135325872587 -2.6933579794431431e-06 -0.29118375193599894 0.13760271785606076 -1.1097587058122929e-06 -0.23241271972243102 0.13835378341870905 7.349541512894739e-06 -0.46557763203614277 0.1865135325872587 -2.6933579794431431e-06 -0.29118375193599894 0.20432623283427973 -1.2247349825091405e-05 -0.46782600820148507 0.13760271785606076 -1.1097587058122976e-06 -0.23241271972243102 0.1865135325872587 -2.6933579794431431e-06 -0.29118375193599894 0.13843950411153333 -1.0122407323536798e-05 -0.49313012712561977 0.20432623283427973 -1.2247349825091405e-05 -0.46782600820148507 0.20981745434438714 3.3977392138107701e-05 -0.46793072323966833 0.20432623283427973 -1.2247349825091405e-05 -0.46782600820148507 0.13760271785606074 -1.1097587058122991e-06 -0.23241271972243108 0.1865135325872587 -2.6933579794431414e-06 -0.29118375193599888 0.2097518239828321 5.8815361117788076e-06 -0.20442501832658708 0.099287969889747668 -2.467697647842789e-06 -0.27860268448799747 0.13843950411153333 -1.0122407323536798e-05 -0.49313012712561977 0.1865135325872587 -2.6933579794431431e-06 -0.29118375193599894 0.14518033312653927 -1.5072993744425703e-06 -0.19411572102031219 0.13835378341870905 7.349541512894739e-06 -0.46557763203614277 0.20432623283427973 -1.224734982509141e-05 -0.46782600820148512 0.1865135325872587 -2.6933579794431431e-06 -0.29118375193599894 0.13843950411153333 -1.0122407323536798e-05 -0.49313012712561977 0.1865135325872587 -2.6933579794431431e-06 -0.29118375193599894 0.14518033312653927 -1.5072993744425701e-06 -0.19411572102031219 0.16704122317012665 3.2164846510964363e-06 -0.30952525166494094 0.2193285808167294 6.1980945655267755e-05 -0.17364871665237355 0.16704122317012665 3.2164846510964363e-06 -0.30952525166494094 0.13843950411153333 -1.0122407323536796e-05 -0.49313012712561977 0.1865135325872587 -2.6933579794431431e-06 -0.29118375193599894 0.20981745434438714 3.3977392138107701e-05 -0.46793072323966833 0.16704122317012665 3.2164846510964363e-06 -0.30952525166494094 0.18676613899295771 3.4631385955450855e-06 -0.4899307025560507 0.13843950411153336 -1.0122407323536785e-05 -0.49313012712561971 0.20981745434438714 3.3977392138107701e-05 -0.46793072323966833 0.22265873990577842 3.3401325031170522e-06 -0.2952726901385393 0.18651353258725867 -2.6933579794431512e-06 -0.29118375193599894 0.16704122317012665 3.2164846510964207e-06 -0.30952525166494094 0.2193285808167294 6.1980945655267688e-05 -0.17364871665237369 0.12626256795058027 2.377663623307722e-06 -0.2886694583442409 0.16704122317012665 3.2164846510964363e-06 -0.30952525166494094 0.13843950411153333 -1.0122407323536798e-05 -0.49313012712561977 0.14518033312653927 -1.5072993744425701e-06 -0.19411572102031219 0.16704122317012665 3.2164846510964363e-06 -0.30952525166494094 0.18651353258725872 -2.69335797944313e-06 -0.29118375193599899 0.22265873990577842 3.3401325031170522e-06 -0.2952726901385393 0.20981745434438714 3.3977392138107701e-05 -0.46793072323966833 0.1865135325872587 -2.6933579794431431e-06 -0.29118375193599894 0.13843950411153333 -1.0122407323536798e-05 -0.49313012712561977 0.16704122317012665 3.2164846510964363e-06 -0.30952525166494094 0.14518033312653927 -1.5072993744425701e-06 -0.19411572102031222 0.16704122317012665 3.2164846510964363e-06 -0.30952525166494094 0.18676613899295771 3.4631385955450872e-06 -0.4899307025560507 0.14343350881630981 3.0991578789889709e-06 -0.4658549649070165 0.13843950411153333 -1.0122407323536798e-05 -0.49313012712561977 0.14343350881630981 3.0991578789889722e-06 -0.4658549649070165 0.12626256795058027 2.377663623307722e-06 -0.2886694583442409 0.16704122317012665 3.2164846510964363e-06 -0.30952525166494094 0.13843950411153333 -1.01224073235368e-05 -0.49313012712561977 0.18676613899295771 3.4631385955450872e-06 -0.4899307025560507 0.16704122317012662 3.2164846510964372e-06 -0.30952525166494094 0.22265873990577842 3.3401325031170522e-06 -0.2952726901385393 0.20981745434438714 3.3977392138107701e-05 -0.46793072323966833 0.14016264253215066 2.9191565955707407e-06 -0.15250237239923461 0.16704122317012665 3.2164846510964363e-06 -0.30952525166494094 0.12626256795058027 2.377663623307722e-06 -0.2886694583442409 0.14518033312653927 -1.5072993744425694e-06 -0.19411572102031219 0.14016264253215066 2.9191565955707407e-06 -0.15250237239923461 0.18985789316348006 2.8418034318754936e-06 -0.15855000406287292 0.16704122317012665 3.2164846510964363e-06 -0.30952525166494094 0.14518033312653927 -1.5072993744425694e-06 -0.19411572102031219 0.18985789316348006 2.8418034318754936e-06 -0.15855000406287292 0.16704122317012665 3.2164846510964363e-06 -0.30952525166494094 0.14518033312653927 -1.5072993744425595e-06 -0.19411572102031222 0.21932858081672937 6.1980945655267728e-05 -0.17364871665237352 0.18985789316348006 2.8418034318754936e-06 -0.15855000406287292 0.1451803331265393 -1.5072993744425682e-06 -0.19411572102031219 0.19101949406182761 8.8932510940167462e-05 -1.3745266020964883e-05 0.2193285808167294 6.1980945655267755e-05 -0.17364871665237347 0.18985789316348006 2.8418034318754936e-06 -0.15855000406287292 0.14016264253215066 2.9191565955707407e-06 -0.15250237239923461 0.13936335383943116 8.920873698643765e-06 -1.3750108693507561e-05 0.14518033312653927 -1.5072993744425669e-06 -0.19411572102031213 0.16356788857520038 -1.4379827507792999e-06 -1.0632261804323937e-05 0.19101949406182761 8.8932510940167449e-05 -1.3745266020963133e-05 0.14518033312653927 -1.5072993744425701e-06 -0.19411572102031224 0.2193285808167294 6.1980945655267742e-05 -0.17364871665237358 0.16368904269384599 3.4612413805299654e-06 -1.7436246944386059e-05 0.18985789316348006 2.8418034318754936e-06 -0.15855000406287292 0.14016264253215066 2.9191565955707407e-06 -0.15250237239923461 0.13936335383943116 8.9208736986437617e-06 -1.3750108693576147e-05 0.14016264253215066 2.9191565955707407e-06 -0.15250237239923461 0.11021985782924189 4.0331476525354502e-06 -1.6806461009844114e-05 0.16368904269384599 3.4612413805299654e-06 -1.7436246944386059e-05 0.13936335383943116 8.9208736986437617e-06 -1.3750108693576147e-05 0.13936335383943116 8.9208736986437617e-06 -1.3750108693576147e-05 0.16356788857520038 -1.4379827507792893e-06 -1.0632261804324189e-05 0.19101949406182761 8.8932510940167449e-05 -1.3745266020963133e-05 0.14518033312653927 -1.5072993744425701e-06 -0.19411572102031219 0.18985789316348006 2.8418034318754936e-06 -0.15855000406287292 0.13936335383943116 8.9208736986437362e-06 -1.3750108693510129e-05 0.19101949406182761 8.8932510940167449e-05 -1.3745266020938149e-05 0.14518033312653927 -1.5072993744425948e-06 -0.19411572102031213 0.16368904269384599 3.4612413805299654e-06 -1.7436246944386059e-05 0.21512113723515947 2.8080155998394046e-06 -1.4167969863847972e-05 0.18985789316348006 2.8418034318754936e-06 -0.15855000406287292 0.19101949406182761 8.8932510940167449e-05 -1.3745266020963133e-05 0.13936335383943116 8.9208736986437617e-06 -1.3750108693576147e-05 0.16368904269384599 3.4612413805299654e-06 -1.7436246944386059e-05 0.18985789316348009 2.8418034318754652e-06 -0.15855000406287303 0.19101949406182761 8.8932510940167449e-05 -1.3745266020963133e-05 0.18985789316348006 2.8418034318754936e-06 -0.15855000406287292 0.22265873990577842 3.3401325031170522e-06 -0.2952726901385393 0.16704122317012665 3.2164846510964363e-06 -0.30952525166494094 0.2193285808167294 6.1980945655267728e-05 -0.17364871665237358 0.22265873990577842 3.3401325031170522e-06 -0.2952726901385393 0.18985789316348006 2.8418034318754936e-06 -0.15855000406287292 0.22854827320606827 2.02453194252223e-06 -0.13767654029439202 0.21932858081672937 6.1980945655267728e-05 -0.17364871665237352 0.18985789316348006 2.8418034318754936e-06 -0.15855000406287292 0.2284663058625189 4.229499210747919e-05 -9.635898442047264e-06 0.22854827320606827 2.0245319425222279e-06 -0.13767654029439202 0.2193285808167294 6.1980945655267742e-05 -0.17364871665237347 0.22854827320606827 2.0245319425222279e-06 -0.13767654029439202 0.26413118089139398 -6.4045914382956773e-06 -0.13821196462855592 0.22265873990577842 3.3401325031170522e-06 -0.2952726901385393 0.21932858081672937 6.1980945655267769e-05 -0.17364871665237352 0.2284663058625189 4.2294992107479183e-05 -9.6358984420089646e-06 0.22854827320606827 2.0245319425222279e-06 -0.13767654029439202 0.21512113723515947 2.8080155998394046e-06 -1.4167969863847972e-05 0.18985789316348006 2.8418034318754936e-06 -0.15855000406287292 0.18985789316348006 2.8418034318754936e-06 -0.15855000406287292 0.21512113723515949 2.8080155998393961e-06 -1.4167969863847074e-05 0.2284663058625189 4.2294992107479183e-05 -9.6358984420089646e-06 0.19101949406182761 8.8932510940167449e-05 -1.3745266020963133e-05 0.2284663058625189 4.2294992107479183e-05 -9.6358984420089646e-06 0.19101949406182761 8.8932510940167449e-05 -1.374526602096502e-05 0.22788499970765261 7.8041300283096857e-05 -1.0873379041730104e-05 0.2193285808167294 6.1980945655267755e-05 -0.17364871665237352 0.18985789316348006 2.8418034318754936e-06 -0.15855000406287292 0.19101949406182761 8.8932510940167449e-05 -1.3745266021019552e-05 0.2284663058625189 4.229499210747919e-05 -9.635898442029849e-06 0.2193285808167294 6.1980945655267755e-05 -0.17364871665237347 0.26413118089139398 -6.4045914382956841e-06 -0.13821196462855589 0.26416073830361325 -2.6536871760323279e-05 -0.15003585463397234 0.26486046120525036 -0.00012020848156993521 -0.29342945608983284 0.2193285808167294 6.1980945655267755e-05 -0.17364871665237355 0.22265873990577842 3.3401325031170522e-06 -0.2952726901385393 0.26413118089139398 -6.4045914382957019e-06 -0.13821196462855589 0.26486046120525036 -0.00012020848156993521 -0.29342945608983284 0.2193285808167294 6.1980945655267728e-05 -0.17364871665237358 0.26413118089139398 -6.4045914382956841e-06 -0.13821196462855589 0.2284663058625189 4.2294992107479183e-05 -9.6358984420089646e-06 0.263896578391143 -3.2542405539885298e-05 -1.2561156128510022e-05 0.2193285808167294 6.1980945655267755e-05 -0.17364871665237355 0.263896578391143 -3.2542405539885298e-05 -1.2561156128510022e-05 0.21932858081672943 6.1980945655267715e-05 -0.17364871665237355 0.26416073830361325 -2.6536871760323279e-05 -0.15003585463397234 0.26413118089139398 -6.4045914382956841e-06 -0.13821196462855589 0.2284663058625189 4.2294992107479183e-05 -9.6358984420089646e-06 0.26413118089139398 -6.4045914382956892e-06 -0.13821196462855592 0.22854827320606827 2.0245319425222215e-06 -0.13767654029439202 0.2193285808167294 6.1980945655267742e-05 -0.17364871665237352 0.2284663058625189 4.2294992107479183e-05 -9.6358984420089646e-06 0.22788499970765264 7.8041300283096857e-05 -1.0873379041721288e-05 0.263896578391143 -3.2542405539885298e-05 -1.2561156128505612e-05 0.2193285808167294 6.1980945655267755e-05 -0.17364871665237352 0.26413118089139398 -6.4045914382956841e-06 -0.13821196462855589 0.22854827320606827 2.0245319425222224e-06 -0.13767654029439202 0.26387248323264495 2.917301879390484e-06 -1.4495645450446042e-05 0.2284663058625189 4.2294992107479183e-05 -9.6358984420089646e-06 0.26388310098672968 2.7119500566316881e-06 -0.18861808782047115 0.22854827320606827 2.0245319425222279e-06 -0.13767654029439202 0.26387248323264495 2.917301879390484e-06 -1.4495645450446042e-05 0.26413118089139398 -6.4045914382956841e-06 -0.13821196462855589 0.26387248323264495 2.917301879390484e-06 -1.4495645450446042e-05 0.26413118089139398 -6.4045914382956841e-06 -0.13821196462855589 0.2284663058625189 4.2294992107479183e-05 -9.6358984420089646e-06 0.263896578391143 -3.2542405539885298e-05 -1.2561156128510022e-05 0.21512113723515947 2.8080155998394046e-06 -1.4167969863847972e-05 0.26387248323264495 2.917301879390484e-06 -1.4495645450446042e-05 0.22854827320606827 2.0245319425222279e-06 -0.13767654029439202 0.2284663058625189 4.2294992107479183e-05 -9.6358984420089646e-06 0.22265873990577842 3.3401325031170522e-06 -0.2952726901385393 0.22854827320606827 2.0245319425222279e-06 -0.13767654029439202 0.26388310098672968 2.7119500566316881e-06 -0.18861808782047115 0.26413118089139398 -6.4045914382956841e-06 -0.13821196462855589 0.26388310098672968 2.7119500566316881e-06 -0.18861808782047115 0.26486046120525036 -0.00012020848156993521 -0.29342945608983284 0.22265873990577839 3.3401325031170598e-06 -0.29527269013853924 0.26413118089139398 -6.4045914382956841e-06 -0.13821196462855589 0.26484471243653385 2.534727783781131e-06 -0.37764017516551462 0.26486046120525036 -0.00012020848156993521 -0.29342945608983284 0.22265873990577842 3.3401325031170543e-06 -0.29527269013853924 0.26388310098672968 2.7119500566316881e-06 -0.18861808782047115 0.22265873990577842 3.3401325031170522e-06 -0.2952726901385393 0.20981745434438714 3.3977392138107728e-05 -0.46793072323966833 0.1865135325872587 -2.6933579794431431e-06 -0.29118375193599894 0.21932858081672935 6.1980945655267647e-05 -0.17364871665237355 0.26486046120525036 -0.00012020848156993521 -0.29342945608983284 0.20981745434438714 3.3977392138107688e-05 -0.46793072323966833 0.22265873990577842 3.3401325031170522e-06 -0.2952726901385393 0.21932858081672937 6.1980945655267796e-05 -0.17364871665237347 0.26486046120525036 -0.00012020848156993521 -0.29342945608983284 0.1865135325872587 -2.6933579794434159e-06 -0.29118375193599888 0.20981745434438714 3.3977392138107593e-05 -0.46793072323966839 0.21932858081672937 6.1980945655267701e-05 -0.17364871665237352 0.26486046120525036 -0.00012020848156993521 -0.29342945608983284 0.23362599379487645 2.6937811627869669e-06 -0.47668405614840026 0.22265873990577842 3.3401325031170526e-06 -0.2952726901385393 0.20981745434438714 3.3977392138107701e-05 -0.46793072323966833 0.18676613899295771 3.4631385955450872e-06 -0.4899307025560507 0.22265873990577842 3.3401325031170522e-06 -0.2952726901385393 0.23362599379487642 2.6937811627870135e-06 -0.4766840561484002 0.20981745434438714 3.3977392138107701e-05 -0.46793072323966833 0.23362599379487642 2.6937811627870135e-06 -0.4766840561484002 0.26484471243653385 2.5347277837811445e-06 -0.37764017516551462 0.26486046120525036 -0.00012020848156993521 -0.29342945608983284 0.22265873990577842 3.3401325031170522e-06 -0.2952726901385393 0.26484471243653385 2.534727783781131e-06 -0.37764017516551462 0.26577107815510442 -9.1639822623647472e-05 -0.480247722456415 0.23362599379487642 2.6937811627870135e-06 -0.4766840561484002 0.26486046120525036 -0.00012020848156993521 -0.29342945608983284 0.26486046120525036 -0.00012020848156993521 -0.29342945608983284 0.26577107815510442 -9.1639822623647472e-05 -0.480247722456415 0.23362599379487642 2.6937811627870135e-06 -0.4766840561484002 0.20981745434438714 3.3977392138107701e-05 -0.46793072323966833 0.26486046120525036 -0.00012020848156993521 -0.29342945608983284 0.26559798670109802 5.98052781358291e-05 -0.43291464650245498 0.26577107815510442 -9.1639822623647472e-05 -0.480247722456415 0.20981745434438714 3.3977392138107701e-05 -0.46793072323966833 0.26479740843363497 3.2570578572690688e-05 -0.31094491334214897 0.20432623283427973 -1.2247349825091407e-05 -0.46782600820148501 0.26478326154138965 6.8785135524508175e-06 -0.30633279232313171 0.20975182398283207 5.8815361117788059e-06 -0.20442501832658708 0.26559798670109802 5.9805278135829066e-05 -0.43291464650245493 0.1865135325872587 -2.6933579794431431e-06 -0.29118375193599894 0.26478326154138965 6.8785135524508175e-06 -0.30633279232313171 0.20432623283427973 -1.2247349825091405e-05 -0.46782600820148507 0.26486046120525036 -0.00012020848156993521 -0.29342945608983284 0.1865135325872587 -2.693357979443116e-06 -0.29118375193599888 0.26559798670109802 5.980527813582906e-05 -0.43291464650245493 0.20981745434438714 3.3977392138107701e-05 -0.46793072323966833 0.26559798670109802 5.9805278135829066e-05 -0.43291464650245493 0.1865135325872587 -2.6933579794431431e-06 -0.29118375193599894 0.20432623283427975 -1.2247349825091398e-05 -0.46782600820148512 0.20981745434438709 3.3977392138107688e-05 -0.46793072323966833 0.26559798670109802 5.9805278135829066e-05 -0.43291464650245493 0.26486046120525036 -0.00012020848156993521 -0.29342945608983284 0.26478326154138965 6.8785135524508184e-06 -0.30633279232313171 0.1865135325872587 -2.6933579794431431e-06 -0.29118375193599894 0.1865135325872587 -2.6933579794431431e-06 -0.29118375193599894 0.26478326154138965 6.8785135524508184e-06 -0.30633279232313171 0.20432623283427973 -1.2247349825091405e-05 -0.46782600820148507 0.20975182398283207 5.8815361117788067e-06 -0.20442501832658705 0.26486046120525036 -0.00012020848156993521 -0.29342945608983284 0.26478326154138965 6.8785135524508243e-06 -0.30633279232313171 0.18651353258725867 -2.6933579794432007e-06 -0.29118375193599899 0.2193285808167294 6.1980945655267755e-05 -0.17364871665237355 0.26478326154138965 6.8785135524508184e-06 -0.30633279232313171 0.20975182398283207 5.8815361117788059e-06 -0.20442501832658708 0.1865135325872587 -2.6933579794431719e-06 -0.29118375193599905 0.2193285808167294 6.1980945655267728e-05 -0.17364871665237358 0.26561114303826272 4.6274628151311291e-05 -0.49108861937196374 0.26559798670109802 5.9805278135829066e-05 -0.43291464650245493 0.26478326154138965 6.8785135524508184e-06 -0.30633279232313171 0.20432623283427973 -1.2247349825091405e-05 -0.46782600820148507 0.26479740843363497 3.2570578572690688e-05 -0.31094491334214897 0.26561114303826266 4.6274628151311291e-05 -0.49108861937196374 0.26478326154138965 6.8785135524508184e-06 -0.30633279232313171 0.20432623283427975 -1.2247349825091392e-05 -0.46782600820148507 0.2255436498425247 7.3124532857061413e-05 -1.239183797101769e-05 0.26398037227044813 5.4640082236018647e-06 -0.16245849003238111 0.26416073830361325 -2.6536871760323276e-05 -0.15003585463397234 0.20975182398283207 5.8815361117788059e-06 -0.20442501832658708 0.26416073830361325 -2.6536871760323276e-05 -0.15003585463397234 0.22788499970765264 7.8041300283096843e-05 -1.0873379041776733e-05 0.20975182398283204 5.8815361117788076e-06 -0.2044250183265871 0.2193285808167294 6.1980945655267755e-05 -0.17364871665237355 0.26416073830361325 -2.6536871760323276e-05 -0.15003585463397234 0.20975182398283207 5.8815361117787906e-06 -0.20442501832658708 0.26478326154138965 6.8785135524508184e-06 -0.30633279232313171 0.2193285808167294 6.1980945655267755e-05 -0.17364871665237355 0.26416073830361325 -2.6536871760323276e-05 -0.15003585463397234 0.26398037227044813 5.464008223601852e-06 -0.16245849003238105 0.26478326154138965 6.8785135524508184e-06 -0.30633279232313171 0.20975182398283204 5.8815361117787991e-06 -0.2044250183265871 0.19652209780669214 2.900493230161151e-05 -9.0257186032626637e-06 0.20975182398283207 5.8815361117788076e-06 -0.20442501832658708 0.22788499970765261 7.8041300283096843e-05 -1.0873379041730131e-05 0.2193285808167294 6.1980945655267755e-05 -0.17364871665237355 0.19652209780669214 2.900493230161151e-05 -9.0257186032626637e-06 0.1865135325872587 -2.6933579794431423e-06 -0.29118375193599894 0.20975182398283204 5.8815361117787822e-06 -0.2044250183265871 0.2193285808167294 6.1980945655267755e-05 -0.17364871665237355 0.26486046120525036 -0.00012020848156993521 -0.29342945608983284 0.26416073830361325 -2.6536871760323276e-05 -0.15003585463397234 0.26478326154138965 6.8785135524508184e-06 -0.30633279232313171 0.2193285808167294 6.1980945655267755e-05 -0.17364871665237355 0.19652209780669214 2.900493230161151e-05 -9.0257186032626637e-06 0.18280620794198776 -2.0986259710895441e-05 -1.1112056235383154e-05 0.22554364984252467 7.3124532857061413e-05 -1.2391837971025169e-05 0.20975182398283207 5.8815361117788059e-06 -0.20442501832658708 0.2255436498425247 7.3124532857061413e-05 -1.239183797101769e-05 0.26416073830361325 -2.6536871760323286e-05 -0.15003585463397234 0.22788499970765264 7.8041300283096857e-05 -1.0873379041721288e-05 0.20975182398283207 5.8815361117788059e-06 -0.20442501832658708 0.19652209780669214 2.900493230161151e-05 -9.0257186032626637e-06 0.2255436498425247 7.3124532857061413e-05 -1.2391837971018955e-05 0.22788499970765264 7.8041300283096857e-05 -1.0873379041717547e-05 0.20975182398283207 5.8815361117788059e-06 -0.20442501832658708 0.19101949406182761 8.8932510940167449e-05 -1.3745266020963133e-05 0.19652209780669214 2.900493230161151e-05 -9.0257186032626637e-06 0.22788499970765264 7.8041300283096857e-05 -1.0873379041730106e-05 0.21932858081672937 6.1980945655267742e-05 -0.17364871665237358 0.26416073830361325 -2.6536871760323276e-05 -0.15003585463397234 0.22788499970765264 7.804130028309683e-05 -1.0873379041704269e-05 0.263896578391143 -3.2542405539885298e-05 -1.2561156128511563e-05 0.26369140409944902 -1.5679359376187761e-05 -1.4016783004769828e-05 0.26416073830361325 -2.6536871760323276e-05 -0.15003585463397234 0.2193285808167294 6.1980945655267755e-05 -0.17364871665237355 0.263896578391143 -3.2542405539885298e-05 -1.2561156128510022e-05 0.22788499970765264 7.804130028309683e-05 -1.0873379041746748e-05 0.2255436498425247 7.3124532857061413e-05 -1.239183797101769e-05 0.22788499970765264 7.8041300283096857e-05 -1.0873379041721288e-05 0.26416073830361325 -2.6536871760323276e-05 -0.15003585463397234 0.26369140409944902 -1.5679359376187761e-05 -1.4016783004769828e-05 0.26369140409944902 -1.5679359376187761e-05 -1.4016783004769828e-05 0.26416073830361325 -2.6536871760323276e-05 -0.15003585463397234 0.2255436498425247 7.3124532857061413e-05 -1.239183797101769e-05 0.26398037227044813 5.4640082236018495e-06 -0.16245849003238111 0.26363557727283532 5.3473431077786268e-05 -1.7007203264324997e-05 0.26369140409944902 -1.5679359376187765e-05 -1.4016783004769828e-05 0.2255436498425247 7.3124532857061413e-05 -1.239183797101769e-05 0.26398037227044813 5.4640082236018495e-06 -0.16245849003238111 0.21728271463917595 -1.5175643589445214e-05 -1.5007674918492085e-05 0.22849404899395948 -1.8854990772983122e-05 -1.0583331056243266e-05 0.26426241830183694 8.2572353687316093e-06 -0.15977296293722756 0.18725954969657105 -5.6775245012941941e-06 -0.29386399804564395 0.21728271463917595 -1.5175643589445214e-05 -1.5007674918492085e-05 0.26363557727283526 5.3473431077786221e-05 -1.7007203264369747e-05 0.22554364984252473 7.3124532857061399e-05 -1.2391837971026277e-05 0.26398037227044813 5.4640082236018495e-06 -0.16245849003238111 0.26363557727283532 5.3473431077786268e-05 -1.7007203264324997e-05 0.21728271463917595 -1.5175643589445214e-05 -1.5007674918492085e-05 0.26426241830183694 8.2572353687316144e-06 -0.15977296293722756 0.26398037227044813 5.4640082236018495e-06 -0.16245849003238111 0.21728271463917595 -1.5175643589445214e-05 -1.5007674918492085e-05 0.18725954969657105 -5.6775245012941992e-06 -0.293863998045644 0.26426241830183694 8.2572353687316093e-06 -0.15977296293722754 0.2097518239828321 5.8815361117788093e-06 -0.20442501832658705 0.2255436498425247 7.3124532857061413e-05 -1.239183797101769e-05 0.18280620794198776 -2.0986259710895434e-05 -1.1112056235388184e-05 0.21728271463917595 -1.5175643589445214e-05 -1.5007674918492085e-05 0.20975182398283207 5.8815361117788059e-06 -0.20442501832658708 0.2255436498425247 7.3124532857061413e-05 -1.239183797101769e-05 0.21728271463917595 -1.5175643589445214e-05 -1.5007674918492085e-05 0.26398037227044818 5.4640082236018393e-06 -0.16245849003238111 0.20975182398283207 5.8815361117788059e-06 -0.20442501832658708 0.21728271463917595 -1.5175643589445214e-05 -1.5007674918492085e-05 0.26426241830183694 8.2572353687316059e-06 -0.15977296293722751 0.26398037227044813 5.4640082236018495e-06 -0.16245849003238111 0.20975182398283207 5.8815361117788059e-06 -0.20442501832658708 0.26426241830183694 8.2572353687316144e-06 -0.15977296293722756 0.26479740843363497 3.2570578572690688e-05 -0.31094491334214897 0.26398037227044813 5.464008223601852e-06 -0.16245849003238111 0.20975182398283207 5.8815361117788033e-06 -0.2044250183265871 0.26426241830183694 8.2572353687316144e-06 -0.15977296293722756 0.21728271463917598 -1.5175643589445171e-05 -1.5007674918494158e-05 0.26363557727283532 5.3473431077786268e-05 -1.7007203264324997e-05 0.26385868325830097 0.00011667914930548535 -1.4546538614619386e-05 0.26426241830183694 8.2572353687316144e-06 -0.15977296293722756 0.21728271463917598 -1.5175643589445251e-05 -1.5007674918535536e-05 0.26385868325830097 0.00011667914930548535 -1.4546538614619386e-05 0.22849404899395948 -1.8854990772983122e-05 -1.0583331056243266e-05 0.26385868325830097 0.00011667914930548535 -1.4546538614619386e-05 0.26444816754499995 0.00010542508173858442 -0.1383437709939245 0.26426241830183694 8.2572353687316195e-06 -0.15977296293722756 0.22849404899395948 -1.8854990772983122e-05 -1.0583331056243266e-05 0.22339220747133887 -2.7401596395280211e-06 -0.28220607372603268 0.22878866732469849 -2.0163256558587822e-06 -0.13770393026723585 0.18622803612205444 -3.4585505723512689e-06 -0.16145998124683733 0.18725954969657105 -5.6775245012941975e-06 -0.293863998045644 0.21728271463917595 -1.5175643589445214e-05 -1.5007674918492085e-05 0.18812830403557168 -2.7791010912553981e-05 -1.2910954003198691e-05 0.22849404899395948 -1.8854990772983122e-05 -1.0583331056243266e-05 0.18725954969657105 -5.6775245012941992e-06 -0.29386399804564395 0.26472539681826796 0.0001199955334004934 -0.29853059657601266 0.26426241830183694 8.2572353687316144e-06 -0.15977296293722756 0.26444816754499995 0.00010542508173858442 -0.1383437709939245 0.18725954969657105 -5.6775245012941975e-06 -0.293863998045644 0.26444816754499995 0.00010542508173858442 -0.1383437709939245 0.26426241830183694 8.2572353687316161e-06 -0.15977296293722756 0.2284940489939595 -1.8854990772983105e-05 -1.0583331056262252e-05 0.18725954969657108 -5.6775245012942661e-06 -0.29386399804564389 0.26444816754499995 0.00010542508173858442 -0.1383437709939245 0.22878866732469849 -2.0163256558587716e-06 -0.1377039302672359 0.22339220747133884 -2.7401596395280673e-06 -0.28220607372603262 0.18725954969657108 -5.6775245012941492e-06 -0.29386399804564411 0.26444816754499995 0.00010542508173858442 -0.1383437709939245 0.22849404899395948 -1.8854990772983126e-05 -1.0583331056247132e-05 0.22878866732469849 -2.0163256558587822e-06 -0.13770393026723585 0.18725954969657108 -5.6775245012941882e-06 -0.29386399804564395 0.18812830403557168 -2.7791010912553981e-05 -1.2910954003203871e-05 0.22878866732469849 -2.0163256558587809e-06 -0.13770393026723585 0.22849404899395948 -1.8854990772983122e-05 -1.0583331056243266e-05 0.18725954969657105 -5.6775245012941958e-06 -0.293863998045644 0.22878866732469849 -2.0163256558587822e-06 -0.13770393026723585 0.22339220747133887 -2.7401596395280211e-06 -0.28220607372603268 0.26404802965707719 -2.6317022206749245e-06 -0.18860620461721581 0.26444816754499995 0.00010542508173858442 -0.1383437709939245 0.22339220747133887 -2.7401596395280211e-06 -0.28220607372603268 0.26472539681826796 0.0001199955334004934 -0.29853059657601266 0.26404802965707719 -2.6317022206749245e-06 -0.18860620461721581 0.26444816754499995 0.00010542508173858442 -0.1383437709939245 0.22849404899395948 -1.8854990772983122e-05 -1.0583331056243266e-05 0.26402687890389248 -2.9093396127521008e-06 -1.3831173607617492e-05 0.22878866732469849 -2.0163256558587822e-06 -0.13770393026723585 0.21520573942397081 -2.9108079049778157e-06 -1.3016249233527908e-05 0.22878866732469849 -2.0163256558587822e-06 -0.13770393026723585 0.26404802965707719 -2.6317022206749245e-06 -0.18860620461721581 0.26402687890389243 -2.9093396127520919e-06 -1.3831173607604086e-05 0.26444816754499995 0.00010542508173858442 -0.1383437709939245 0.26402687890389248 -2.9093396127521008e-06 -1.3831173607617492e-05 0.26444816754499995 0.00010542508173858442 -0.1383437709939245 0.26385868325830092 0.00011667914930548533 -1.4546538614608192e-05 0.22849404899395948 -1.8854990772983122e-05 -1.0583331056243266e-05 0.26444816754499995 0.00010542508173858442 -0.1383437709939245 0.26402687890389243 -2.9093396127521195e-06 -1.3831173607606247e-05 0.22878866732469849 -2.0163256558587822e-06 -0.13770393026723585 0.22849404899395948 -1.8854990772983122e-05 -1.0583331056243266e-05 0.18622803612205444 -3.4585505723512689e-06 -0.16145998124683733 0.18812830403557168 -2.7791010912553981e-05 -1.2910954003203871e-05 0.22878866732469849 -2.0163256558587788e-06 -0.13770393026723585 0.21520573942397081 -2.9108079049778157e-06 -1.3016249233527908e-05 0.22849404899395948 -1.8854990772983122e-05 -1.0583331056243266e-05 0.22878866732469849 -2.0163256558587822e-06 -0.13770393026723585 0.18812830403557168 -2.7791010912553981e-05 -1.2910954003209443e-05 0.21520573942397081 -2.9108079049778157e-06 -1.3016249233527908e-05 0.18622803612205444 -3.4585505723512689e-06 -0.16145998124683733 0.18725954969657108 -5.6775245012941967e-06 -0.29386399804564406 0.18812830403557165 -2.7791010912553981e-05 -1.2910954003181737e-05 0.13764301733558754 -5.8869564743287309e-06 -0.21033176365614867 0.18622803612205444 -3.4585505723512689e-06 -0.16145998124683733 0.22878866732469849 -2.0163256558587818e-06 -0.13770393026723585 0.18812830403557168 -2.7791010912553981e-05 -1.291095400319949e-05 0.18725954969657102 -5.6775245012941924e-06 -0.29386399804564406 0.18812830403557168 -2.7791010912553981e-05 -1.2910954003203871e-05 0.18622803612205444 -3.4585505723512655e-06 -0.1614599812468373 0.16370034761297356 -2.8628251241110168e-06 -1.4788574861426605e-05 0.21520573942397081 -2.9108079049778157e-06 -1.3016249233527908e-05 0.13555325113910238 -2.9472966031023951e-06 -0.12323426346751533 0.11021286355616311 -3.2630581081001898e-06 -1.771713571911314e-05 0.13980233680689014 2.1813976616085836e-05 -1.2741121165355946e-05 0.16370034761297356 -2.8628251241110168e-06 -1.4788574861426605e-05 0.13980233680689014 2.1813976616085836e-05 -1.2741121165355946e-05 0.18812830403557168 -2.7791010912553981e-05 -1.2910954003203871e-05 0.18622803612205444 -3.4585505723512689e-06 -0.16145998124683733 0.16370034761297356 -2.8628251241110168e-06 -1.4788574861426605e-05 0.18622803612205444 -3.4585505723512689e-06 -0.16145998124683733 0.13555325113910238 -2.9472966031023951e-06 -0.12323426346751533 0.13980233680689014 2.1813976616085836e-05 -1.2741121165355946e-05 0.16370034761297356 -2.8628251241110168e-06 -1.4788574861426605e-05 0.13123962214262844 -3.6156513092554904e-06 -0.2954170948544243 0.18622803612205444 -3.4585505723512689e-06 -0.16145998124683736 0.13555325113910238 -2.9472966031023951e-06 -0.12323426346751533 0.13764301733558756 -5.8869564743287301e-06 -0.2103317636561487 0.13555325113910238 -2.9472966031023951e-06 -0.12323426346751533 0.18622803612205444 -3.4585505723512684e-06 -0.16145998124683733 0.13980233680689014 2.1813976616085836e-05 -1.2741121165355946e-05 0.13764301733558756 -5.8869564743287301e-06 -0.2103317636561487 0.13980233680689014 2.1813976616085836e-05 -1.2741121165355946e-05 0.18622803612205446 -3.4585505723512634e-06 -0.1614599812468373 0.18812830403557168 -2.7791010912553981e-05 -1.2910954003203871e-05 0.13764301733558756 -5.8869564743287403e-06 -0.21033176365614872 0.16650433796485309 -3.2226189431835784e-05 -1.2027622641289856e-05 0.13980233680689014 2.1813976616085836e-05 -1.2741121165355946e-05 0.18812830403557168 -2.7791010912553981e-05 -1.2910954003203871e-05 0.13764301733558756 -5.8869564743287301e-06 -0.2103317636561487 0.16650433796485309 -3.2226189431835784e-05 -1.2027622641289856e-05 0.18725954969657102 -5.6775245012942001e-06 -0.29386399804564395 0.21728271463917595 -1.5175643589445214e-05 -1.5007674918492085e-05 0.20975182398283207 5.8815361117788059e-06 -0.20442501832658708 0.16650433796485309 -3.2226189431835784e-05 -1.2027622641289856e-05 0.18812830403557168 -2.7791010912553981e-05 -1.2910954003203871e-05 0.18725954969657105 -5.6775245012941984e-06 -0.293863998045644 0.13764301733558756 -5.8869564743287301e-06 -0.2103317636561487 0.21728271463917595 -1.5175643589445214e-05 -1.5007674918492085e-05 0.16650433796485309 -3.2226189431835784e-05 -1.2027622641300218e-05 0.18812830403557168 -2.7791010912553981e-05 -1.2910954003203871e-05 0.18725954969657105 -5.6775245012941992e-06 -0.29386399804564395 0.16650433796485309 -3.2226189431835784e-05 -1.2027622641289856e-05 0.12596823950748995 2.1601143374864781e-05 -1.1071908411190176e-05 0.13980233680689014 2.1813976616085836e-05 -1.2741121165348792e-05 0.13764301733558756 -5.8869564743287301e-06 -0.2103317636561487 0.12596823950748995 2.1601143374864781e-05 -1.1071908411190176e-05 0.16650433796485309 -3.2226189431835784e-05 -1.2027622641289856e-05 0.13760271785606074 -1.1097587058122931e-06 -0.23241271972243099 0.13764301733558756 -5.8869564743287301e-06 -0.2103317636561487 0.20975182398283207 5.8815361117788059e-06 -0.20442501832658708 0.16650433796485309 -3.2226189431835784e-05 -1.2027622641298421e-05 0.13760271785606071 -1.1097587058122929e-06 -0.23241271972243097 0.18280620794198776 -2.0986259710895437e-05 -1.1112056235388375e-05 0.18725954969657105 -5.6775245012941975e-06 -0.293863998045644 0.13760271785606074 -1.1097587058122931e-06 -0.23241271972243099 0.16650433796485306 -3.2226189431835777e-05 -1.2027622641306913e-05 0.13764301733558759 -5.8869564743287343e-06 -0.2103317636561487 0.20975182398283207 5.8815361117788059e-06 -0.20442501832658708 0.13760271785606074 -1.1097587058122931e-06 -0.23241271972243099 0.16650433796485309 -3.2226189431835784e-05 -1.2027622641281399e-05 0.18725954969657105 -5.6775245012941958e-06 -0.293863998045644 0.1425206776777794 -7.1116301559811047e-06 -1.4081265408625531e-05 0.16650433796485309 -3.2226189431835784e-05 -1.2027622641288238e-05 0.18280620794198776 -2.0986259710895437e-05 -1.1112056235389993e-05 0.13760271785606074 -1.1097587058122931e-06 -0.23241271972243099 0.12596823950748995 2.1601143374864781e-05 -1.1071908411190176e-05 0.16650433796485309 -3.2226189431835784e-05 -1.2027622641289856e-05 0.1425206776777794 -7.1116301559811047e-06 -1.4081265408625531e-05 0.13760271785606074 -1.1097587058122931e-06 -0.23241271972243099 0.16650433796485309 -3.2226189431835784e-05 -1.2027622641289856e-05 0.21728271463917595 -1.5175643589445214e-05 -1.5007674918492085e-05 0.18280620794198779 -2.0986259710895437e-05 -1.1112056235406534e-05 0.20975182398283207 5.8815361117788059e-06 -0.20442501832658708 0.18725954969657105 -5.6775245012941975e-06 -0.293863998045644 0.20432623283427973 -1.2247349825091405e-05 -0.46782600820148507 0.13835378341870905 7.3495415128947323e-06 -0.46557763203614283 0.13873609488714286 -8.7671628964845339e-06 -0.49242307865671842 0.20432623283427973 -1.2247349825091405e-05 -0.46782600820148507 0.13873609488714284 -8.7671628964845407e-06 -0.49242307865671847 0.18725954969657102 -5.6775245012941814e-06 -0.29386399804564395 0.21140532012517635 4.9354756272187482e-05 -0.46979398262437572 0.13835378341870905 7.349541512894739e-06 -0.46557763203614277 0.20432623283427973 -1.2247349825091405e-05 -0.46782600820148507 0.18725954969657105 -5.6775245012942026e-06 -0.29386399804564395 0.13760271785606071 -1.1097587058122976e-06 -0.23241271972243091 0.18725954969657105 -5.6775245012941975e-06 -0.293863998045644 0.13760271785606071 -1.1097587058122944e-06 -0.23241271972243099 0.20432623283427973 -1.2247349825091405e-05 -0.46782600820148507 0.20975182398283207 5.8815361117788059e-06 -0.20442501832658708 0.13873609488714284 -8.7671628964845407e-06 -0.49242307865671847 0.13760271785606068 -1.1097587058122929e-06 -0.23241271972243102 0.18725954969657102 -5.6775245012941984e-06 -0.293863998045644 0.13764301733558756 -5.8869564743287318e-06 -0.2103317636561487 0.13835378341870905 7.349541512894739e-06 -0.46557763203614277 0.18725954969657105 -5.6775245012941984e-06 -0.293863998045644 0.13873609488714284 -8.7671628964845407e-06 -0.49242307865671847 0.13760271785606071 -1.1097587058122972e-06 -0.23241271972243091 0.22339220747133887 -2.7401596395280211e-06 -0.28220607372603268 0.18725954969657105 -5.6775245012941967e-06 -0.293863998045644 0.18234374201814282 -3.1256590122107807e-06 -0.36060391827186922 0.21140532012517635 4.9354756272187495e-05 -0.46979398262437577 0.18622803612205444 -3.4585505723512689e-06 -0.16145998124683733 0.18234374201814282 -3.1256590122107807e-06 -0.36060391827186922 0.22339220747133887 -2.7401596395280211e-06 -0.28220607372603268 0.18725954969657105 -5.6775245012941975e-06 -0.293863998045644 0.18234374201814282 -3.1256590122107807e-06 -0.36060391827186922 0.13123962214262844 -3.6156513092554904e-06 -0.2954170948544243 0.13873609488714286 -8.767162896484539e-06 -0.49242307865671847 0.13764301733558756 -5.8869564743287301e-06 -0.21033176365614878 0.18886870387686158 -2.4265520230941811e-06 -0.50753553485026559 0.18234374201814282 -3.1256590122107816e-06 -0.36060391827186922 0.13873609488714284 -8.767162896484539e-06 -0.49242307865671847 0.21140532012517635 4.9354756272187495e-05 -0.46979398262437572 0.18622803612205444 -3.4585505723512689e-06 -0.16145998124683733 0.18234374201814282 -3.1256590122107811e-06 -0.36060391827186922 0.18725954969657105 -5.6775245012941967e-06 -0.293863998045644 0.13764301733558754 -5.8869564743287309e-06 -0.2103317636561487 0.18234374201814282 -3.1256590122107807e-06 -0.36060391827186922 0.13873609488714284 -8.7671628964845407e-06 -0.49242307865671842 0.18725954969657108 -5.6775245012941958e-06 -0.293863998045644 0.13764301733558756 -5.8869564743287309e-06 -0.21033176365614875 0.18725954969657105 -5.6775245012941975e-06 -0.293863998045644 0.13873609488714284 -8.767162896484539e-06 -0.49242307865671847 0.18234374201814282 -3.1256590122107807e-06 -0.36060391827186922 0.21140532012517635 4.9354756272187495e-05 -0.46979398262437577 0.18622803612205444 -3.4585505723512689e-06 -0.16145998124683733 0.13123962214262844 -3.6156513092554904e-06 -0.2954170948544243 0.18234374201814282 -3.1256590122107811e-06 -0.36060391827186922 0.13764301733558759 -5.8869564743287318e-06 -0.21033176365614872 0.13802827334935194 -3.1236755927263509e-06 -0.44728843470862112 0.18234374201814282 -3.1256590122107807e-06 -0.36060391827186922 0.13123962214262844 -3.6156513092554904e-06 -0.2954170948544243 0.13873609488714284 -8.7671628964845407e-06 -0.49242307865671847 0.13802827334935194 -3.1236755927263509e-06 -0.44728843470862112 0.18886870387686158 -2.4265520230941811e-06 -0.50753553485026559 0.18234374201814282 -3.1256590122107807e-06 -0.36060391827186922 0.13873609488714284 -8.7671628964845407e-06 -0.49242307865671847 0.18234374201814282 -3.1256590122107807e-06 -0.36060391827186922 0.18886870387686155 -2.4265520230941845e-06 -0.50753553485026559 0.22555150174512309 -2.716578903450526e-06 -0.4614169915121118 0.21140532012517635 4.9354756272187495e-05 -0.46979398262437577 0.26472539681826796 0.0001199955334004934 -0.29853059657601266 0.18725954969657105 -5.6775245012941975e-06 -0.293863998045644 0.22339220747133887 -2.7401596395280245e-06 -0.28220607372603268 0.21140532012517635 4.9354756272187495e-05 -0.46979398262437577 0.26472539681826796 0.0001199955334004934 -0.29853059657601266 0.26444816754499995 0.00010542508173858442 -0.1383437709939245 0.22339220747133887 -2.7401596395280211e-06 -0.28220607372603268 0.18725954969657105 -5.6775245012941975e-06 -0.293863998045644 0.22555150174512309 -2.7165789034505243e-06 -0.4614169915121118 0.22339220747133887 -2.7401596395280211e-06 -0.28220607372603268 0.18234374201814282 -3.125659012210779e-06 -0.36060391827186922 0.21140532012517632 4.9354756272187488e-05 -0.46979398262437572 0.22555150174512309 -2.7165789034505243e-06 -0.4614169915121118 0.26472539681826796 0.00011999553340049342 -0.29853059657601266 0.22339220747133887 -2.7401596395280211e-06 -0.28220607372603268 0.21140532012517638 4.9354756272187516e-05 -0.46979398262437577 0.22339220747133887 -2.7401596395280211e-06 -0.28220607372603268 0.22555150174512309 -2.7165789034505116e-06 -0.46141699151211185 0.26477524356098803 -3.1058043707036802e-06 -0.37763156711641532 0.26472539681826796 0.0001199955334004934 -0.29853059657601266 0.22555150174512309 -2.7165789034505243e-06 -0.4614169915121118 0.26580760365215339 4.4724124153826536e-05 -0.48180236525682041 0.26654106183403187 -3.4772599740763812e-06 -0.56731387125987387 0.26477524356098803 -3.1058043707036679e-06 -0.37763156711641532 0.26477524356098803 -3.1058043707036679e-06 -0.37763156711641532 0.22555150174512309 -2.7165789034505209e-06 -0.4614169915121118 0.2658076036521535 4.4724124153826543e-05 -0.48180236525682041 0.26472539681826796 0.0001199955334004934 -0.29853059657601266 0.26472539681826796 0.0001199955334004934 -0.29853059657601266 0.26477524356098797 -3.1058043707036586e-06 -0.37763156711641532 0.22339220747133887 -2.7401596395280211e-06 -0.28220607372603268 0.26404802965707719 -2.6317022206749245e-06 -0.18860620461721581 0.26567005380402325 -2.8707453465896633e-05 -0.43295062361781828 0.26472539681826796 0.0001199955334004934 -0.29853059657601266 0.26580760365215345 4.472412415382653e-05 -0.48180236525682041 0.21140532012517635 4.9354756272187495e-05 -0.46979398262437577 0.22555150174512309 -2.7165789034505243e-06 -0.4614169915121118 0.26580760365215345 4.4724124153826516e-05 -0.48180236525682052 0.26472539681826796 0.0001199955334004934 -0.29853059657601266 0.21140532012517632 4.9354756272187502e-05 -0.46979398262437566 0.26479740843363497 3.2570578572690688e-05 -0.31094491334214897 0.18725954969657105 -5.6775245012941975e-06 -0.29386399804564406 0.20432623283427975 -1.2247349825091393e-05 -0.46782600820148501 0.20975182398283207 5.8815361117788059e-06 -0.20442501832658708 0.26479740843363497 3.2570578572690688e-05 -0.31094491334214897 0.26472539681826796 0.0001199955334004934 -0.29853059657601266 0.26567005380402325 -2.8707453465896633e-05 -0.43295062361781828 0.18725954969657105 -5.6775245012941975e-06 -0.293863998045644 0.26567005380402325 -2.8707453465896633e-05 -0.43295062361781828 0.20432623283427973 -1.2247349825091368e-05 -0.46782600820148518 0.18725954969657102 -5.6775245012942136e-06 -0.29386399804564395 0.21140532012517632 4.9354756272187516e-05 -0.46979398262437577 0.26426241830183694 8.2572353687316144e-06 -0.15977296293722756 0.26472539681826796 0.0001199955334004934 -0.29853059657601266 0.26479740843363497 3.2570578572690688e-05 -0.31094491334214897 0.18725954969657105 -5.6775245012941975e-06 -0.293863998045644 0.26567005380402325 -2.8707453465896633e-05 -0.43295062361781828 0.18725954969657105 -5.6775245012942221e-06 -0.293863998045644 0.26472539681826796 0.0001199955334004934 -0.29853059657601266 0.2114053201251764 4.9354756272187522e-05 -0.46979398262437583 0.26426241830183694 8.2572353687316144e-06 -0.15977296293722756 0.18725954969657105 -5.6775245012942009e-06 -0.29386399804564395 0.26479740843363497 3.2570578572690688e-05 -0.31094491334214897 0.20975182398283204 5.8815361117788042e-06 -0.20442501832658702 0.26479740843363497 3.2570578572690688e-05 -0.31094491334214897 0.18725954969657105 -5.6775245012941958e-06 -0.293863998045644 0.26567005380402325 -2.8707453465896633e-05 -0.43295062361781828 0.20432623283427975 -1.2247349825091402e-05 -0.46782600820148501 0.26478326154138965 6.8785135524508184e-06 -0.30633279232313171 0.26398037227044813 5.4640082236018495e-06 -0.16245849003238111 0.26479740843363497 3.2570578572690688e-05 -0.31094491334214897 0.20975182398283207 5.8815361117788059e-06 -0.20442501832658708 0.26479740843363497 3.2570578572690688e-05 -0.31094491334214897 0.26567005380402325 -2.8707453465896633e-05 -0.43295062361781828 0.26561114303826272 4.6274628151311291e-05 -0.49108861937196374 0.20432623283427975 -1.2247349825091378e-05 -0.46782600820148512 0.26712310277180362 3.3237695292354325e-06 -0.56712776293142142 0.20432623283427973 -1.2247349825091405e-05 -0.46782600820148507 0.18983883856683112 1.2705102410044672e-05 -0.6441915058038552 0.21543116457787803 -2.3432964777398317e-05 -0.7338394359135828 0.26712310277180362 3.3237695292354325e-06 -0.56712776293142142 0.26911716257403695 -7.5095387280650053e-05 -0.68837924324289257 0.18983883856683112 1.2705102410044711e-05 -0.6441915058038552 0.22516154674649602 -1.7749243351858174e-05 -0.76846141425216985 0.26712310277180362 3.3237695292354325e-06 -0.56712776293142142 0.2676765520284482 3.219984829081885e-05 -0.63680792718110513 0.26561114303826272 4.6274628151311291e-05 -0.49108861937196374 0.20432623283427973 -1.2247349825091405e-05 -0.46782600820148507 0.26712310277180362 3.3237695292354325e-06 -0.56712776293142142 0.20432623283427973 -1.22473498250914e-05 -0.46782600820148507 0.26567005380402325 -2.8707453465896633e-05 -0.43295062361781828 0.21140532012517632 4.9354756272187495e-05 -0.46979398262437572 0.18983883856683112 1.2705102410044672e-05 -0.6441915058038552 0.21140532012517632 4.9354756272187488e-05 -0.46979398262437577 0.26712310277180357 3.3237695292354364e-06 -0.56712776293142142 0.22516154674649602 -1.7749243351858219e-05 -0.76846141425216996 0.26712310277180362 3.3237695292354325e-06 -0.56712776293142142 0.18983883856683112 1.2705102410044672e-05 -0.6441915058038552 0.20432623283427975 -1.2247349825091397e-05 -0.46782600820148512 0.21140532012517632 4.9354756272187495e-05 -0.46979398262437572 0.2676765520284482 3.219984829081885e-05 -0.63680792718110513 0.2043262328342797 -1.2247349825091414e-05 -0.46782600820148507 0.26712310277180362 3.3237695292354325e-06 -0.56712776293142142 0.215431164577878 -2.343296477739832e-05 -0.7338394359135828 0.26911716257403695 -7.5095387280650053e-05 -0.68837924324289257 0.26712310277180362 3.3237695292354325e-06 -0.56712776293142142 0.18983883856683112 1.2705102410044608e-05 -0.6441915058038552 0.21543116457787803 -2.3432964777398242e-05 -0.73383943591358269 0.26712310277180362 3.3237695292354325e-06 -0.56712776293142142 0.26561114303826272 4.6274628151311291e-05 -0.49108861937196374 0.26567005380402325 -2.8707453465896633e-05 -0.43295062361781828 0.20432623283427973 -1.2247349825091405e-05 -0.46782600820148507 0.26911716257403695 -7.5095387280650053e-05 -0.68837924324289257 0.2676765520284482 3.2199848290818843e-05 -0.63680792718110513 0.26712310277180362 3.3237695292354325e-06 -0.56712776293142142 0.21543116457787803 -2.3432964777398317e-05 -0.7338394359135828 0.26712310277180362 3.3237695292354325e-06 -0.56712776293142142 0.26851920449325017 8.1665820152007897e-05 -0.66777930745807756 0.26911716257403695 -7.5095387280650053e-05 -0.68837924324289257 0.22516154674649602 -1.7749243351858219e-05 -0.76846141425216996 0.26712310277180362 3.3237695292354325e-06 -0.56712776293142142 0.26567005380402325 -2.8707453465896633e-05 -0.43295062361781828 0.26580760365215345 4.472412415382653e-05 -0.48180236525682041 0.21140532012517635 4.9354756272187495e-05 -0.46979398262437577 0.26580760365215345 4.472412415382653e-05 -0.48180236525682041 0.22274863853462443 -2.940359863370632e-06 -0.64877869082818029 0.26851920449325017 8.1665820152007897e-05 -0.66777930745807756 0.21140532012517635 4.9354756272187516e-05 -0.46979398262437577 0.22274863853462443 -2.940359863370624e-06 -0.64877869082818029 0.21140532012517632 4.9354756272187495e-05 -0.46979398262437572 0.18983883856683115 1.2705102410044688e-05 -0.64419150580385509 0.22516154674649602 -1.7749243351858219e-05 -0.76846141425216996 0.22274863853462443 -2.940359863370624e-06 -0.64877869082818029 0.26851920449325017 8.1665820152007897e-05 -0.66777930745807768 0.21140532012517635 4.9354756272187482e-05 -0.46979398262437577 0.22516154674649602 -1.7749243351858219e-05 -0.76846141425216996 0.26851920449325017 8.1665820152007897e-05 -0.66777930745807756 0.26712310277180362 3.3237695292354347e-06 -0.56712776293142142 0.21140532012517635 4.9354756272187495e-05 -0.46979398262437577 0.22516154674649602 -1.7749243351858219e-05 -0.76846141425216996 0.26580760365215345 4.472412415382653e-05 -0.48180236525682041 0.26851920449325017 8.1665820152007897e-05 -0.66777930745807756 0.26712310277180362 3.3237695292354325e-06 -0.56712776293142142 0.21140532012517635 4.9354756272187495e-05 -0.46979398262437577 0.26851920449325017 8.1665820152007897e-05 -0.66777930745807756 0.22274863853462443 -2.940359863370624e-06 -0.64877869082818029 0.26654106183403187 -3.4772599740763812e-06 -0.56731387125987387 0.26980458026631465 -2.8426154380349304e-06 -0.75766706399790573 0.22274863853462443 -2.940359863370624e-06 -0.64877869082818029 0.26654106183403187 -3.4772599740763812e-06 -0.56731387125987387 0.26580760365215345 4.472412415382653e-05 -0.48180236525682041 0.26851920449325017 8.1665820152007897e-05 -0.66777930745807756 0.26580760365215345 4.472412415382653e-05 -0.48180236525682041 0.26654106183403181 -3.4772599740763782e-06 -0.56731387125987376 0.22274863853462443 -2.940359863370624e-06 -0.64877869082818029 0.22555150174512303 -2.7165789034505341e-06 -0.46141699151211168 0.22274863853462443 -2.940359863370624e-06 -0.64877869082818029 0.22555150174512309 -2.7165789034505243e-06 -0.4614169915121118 0.18886870387686158 -2.4265520230941811e-06 -0.50753553485026559 0.21140532012517635 4.9354756272187495e-05 -0.46979398262437577 0.22274863853462443 -2.940359863370624e-06 -0.64877869082818029 0.26580760365215345 4.472412415382653e-05 -0.48180236525682041 0.22555150174512309 -2.7165789034505243e-06 -0.4614169915121118 0.21140532012517635 4.9354756272187495e-05 -0.46979398262437577 0.18886870387686158 -2.4265520230941811e-06 -0.50753553485026559 0.1667482401614637 -3.5560362276633633e-06 -0.63099979326043054 0.18983883856683115 1.2705102410044677e-05 -0.6441915058038552 0.13873609488714286 -8.7671628964845339e-06 -0.49242307865671853 0.1667482401614637 -3.5560362276633642e-06 -0.63099979326043054 0.22274863853462443 -2.940359863370624e-06 -0.64877869082818029 0.18886870387686158 -2.4265520230941811e-06 -0.50753553485026559 0.18983883856683112 1.2705102410044672e-05 -0.6441915058038552 0.22274863853462443 -2.940359863370624e-06 -0.64877869082818029 0.18886870387686158 -2.4265520230941811e-06 -0.50753553485026559 0.18983883856683112 1.2705102410044708e-05 -0.6441915058038552 0.21140532012517632 4.9354756272187488e-05 -0.46979398262437577 0.19418955942961461 -2.811264229380684e-06 -0.78870217376508911 0.18983883856683115 1.2705102410044698e-05 -0.6441915058038552 0.16674824016146372 -3.5560362276633608e-06 -0.63099979326043065 0.14147999550847329 -5.9842303929500491e-05 -0.72703660064346209 0.18983883856683112 1.2705102410044672e-05 -0.6441915058038552 0.18886870387686158 -2.4265520230942052e-06 -0.5075355348502657 0.13873609488714281 -8.7671628964845441e-06 -0.49242307865671842 0.21140532012517635 4.9354756272187495e-05 -0.46979398262437577 0.18983883856683112 1.2705102410044672e-05 -0.6441915058038552 0.13873609488714281 -8.7671628964845458e-06 -0.49242307865671847 0.1667482401614637 -3.5560362276633752e-06 -0.63099979326043054 0.14147999550847329 -5.9842303929500491e-05 -0.72703660064346209 0.1667482401614637 -3.5560362276633642e-06 -0.63099979326043054 0.22274863853462443 -2.940359863370624e-06 -0.64877869082818029 0.18983883856683112 1.2705102410044672e-05 -0.6441915058038552 0.22516154674649602 -1.7749243351858219e-05 -0.76846141425216996 0.18886870387686158 -2.4265520230941811e-06 -0.50753553485026559 0.13802827334935194 -3.1236755927263509e-06 -0.44728843470862112 0.1667482401614637 -3.5560362276633642e-06 -0.63099979326043054 0.13873609488714284 -8.767162896484539e-06 -0.49242307865671847 0.13835378341870905 7.349541512894739e-06 -0.46557763203614277 0.18983883856683112 1.2705102410044669e-05 -0.64419150580385509 0.14013673059862347 9.349707639833637e-06 -0.69885101057905885 0.13873609488714284 -8.7671628964845407e-06 -0.49242307865671847 0.18983883856683112 1.2705102410044672e-05 -0.6441915058038552 0.13835378341870905 7.3495415128947289e-06 -0.46557763203614277 0.20432623283427973 -1.2247349825091419e-05 -0.46782600820148501 0.13873609488714278 -8.7671628964845729e-06 -0.49242307865671825 0.18983883856683112 1.2705102410044672e-05 -0.6441915058038552 0.20432623283427973 -1.2247349825091412e-05 -0.46782600820148507 0.13835378341870905 7.349541512894739e-06 -0.46557763203614277 0.14013673059862353 9.3497076398336387e-06 -0.69885101057905885 0.20432623283427973 -1.2247349825091405e-05 -0.46782600820148507 0.14013673059862353 9.3497076398336387e-06 -0.69885101057905874 0.18983883856683112 1.2705102410044672e-05 -0.6441915058038552 0.21543116457787803 -2.3432964777398317e-05 -0.7338394359135828 0.1401367305986235 9.3497076398336421e-06 -0.69885101057905874 0.13873609488714284 -8.7671628964845407e-06 -0.49242307865671847 0.18983883856683112 1.2705102410044672e-05 -0.6441915058038552 0.14147999550847329 -5.9842303929500491e-05 -0.72703660064346209 0.18983883856683112 1.2705102410044672e-05 -0.6441915058038552 0.13873609488714281 -8.7671628964845492e-06 -0.49242307865671842 0.20432623283427973 -1.2247349825091404e-05 -0.46782600820148507 0.21140532012517635 4.9354756272187495e-05 -0.46979398262437577 0.13368662578793292 8.4534199817258104e-05 -0.9299364785791624 0.1401367305986235 9.3497076398336421e-06 -0.69885101057905874 0.17287594131142059 1.2135559140291799e-06 -0.93486918278163844 0.14147999550847329 -5.9842303929500491e-05 -0.72703660064346209 0.17287594131142059 1.2135559140291799e-06 -0.93486918278163844 0.18983883856683112 1.2705102410044689e-05 -0.6441915058038552 0.20660996090623343 4.9181474884304679e-06 -0.93921521225806248 0.22516154674649602 -1.7749243351858219e-05 -0.76846141425216996 0.17287594131142059 1.2135559140291799e-06 -0.93486918278163844 0.18983883856683112 1.2705102410044672e-05 -0.6441915058038552 0.14013673059862353 9.3497076398336438e-06 -0.69885101057905863 0.21543116457787803 -2.3432964777398317e-05 -0.7338394359135828 0.17287594131142059 1.2135559140291799e-06 -0.93486918278163844 0.14147999550847329 -5.9842303929500491e-05 -0.72703660064346209 0.18983883856683112 1.2705102410044643e-05 -0.6441915058038552 0.22516154674649602 -1.7749243351858219e-05 -0.76846141425216996 0.17287594131142059 1.2135559140291799e-06 -0.93486918278163844 0.14013673059862353 9.3497076398336743e-06 -0.69885101057905874 0.18983883856683115 1.2705102410044689e-05 -0.6441915058038552 0.14147999550847329 -5.9842303929500491e-05 -0.72703660064346209 0.17287594131142059 1.2135559140291799e-06 -0.93486918278163844 0.20660996090623343 4.9181474884304781e-06 -0.93921521225806259 0.18983883856683112 1.2705102410044672e-05 -0.6441915058038552 0.21543116457787803 -2.3432964777398317e-05 -0.7338394359135828 0.17287594131142059 1.2135559140291799e-06 -0.93486918278163844 0.1401367305986235 9.3497076398336353e-06 -0.69885101057905874 0.19273119494506039 6.382426207671343e-06 -0.93712741187614823 0.21543116457787803 -2.3432964777398317e-05 -0.7338394359135828 0.20119901254164652 -0.00013006085663685681 -0.93831644041243112 0.17287594131142059 1.2135559140291799e-06 -0.93486918278163844 0.20660996090623343 4.9181474884304654e-06 -0.93921521225806248 0.22516154674649602 -1.7749243351858195e-05 -0.76846141425216996 0.17287594131142059 1.2135559140291799e-06 -0.93486918278163844 0.19273119494506041 6.3824262076713405e-06 -0.93712741187614834 0.20660996090623343 4.9181474884304654e-06 -0.93921521225806248 0.21543116457787803 -2.3432964777398317e-05 -0.7338394359135828 0.13368662578793292 8.4534199817258104e-05 -0.9299364785791624 0.15133292209823865 2.9628607284902482e-05 -0.93209151605407858 0.17287594131142059 1.2135559140291818e-06 -0.93486918278163844 0.1401367305986235 9.3497076398336421e-06 -0.69885101057905874 0.19273119494506041 6.3824262076713405e-06 -0.93712741187614834 0.17287594131142059 1.2135559140291867e-06 -0.93486918278163844 0.15133292209823865 2.9628607284902471e-05 -0.93209151605407858 0.1401367305986235 9.3497076398336421e-06 -0.69885101057905874 0.17287594131142059 1.2135559140291799e-06 -0.93486918278163844 0.14834307987082937 5.4984590054954401e-05 -0.93176181695507032 0.13368662578793292 8.4534199817258104e-05 -0.9299364785791624 0.14147999550847329 -5.9842303929500491e-05 -0.72703660064346209 0.14834307987082937 5.4984590054954394e-05 -0.93176181695507032 0.20119901254164652 -0.00013006085663685681 -0.93831644041243112 0.19418955942961461 -2.8112642293806937e-06 -0.78870217376508911 0.14147999550847326 -5.9842303929500471e-05 -0.72703660064346198 0.18983883856683112 1.2705102410044672e-05 -0.6441915058038552 0.14147999550847329 -5.9842303929500491e-05 -0.72703660064346209 0.19418955942961461 -2.811264229380684e-06 -0.78870217376508911 0.22516154674649602 -1.7749243351858219e-05 -0.76846141425216996 0.20119901254164652 -0.00013006085663685681 -0.93831644041243112 0.19418955942961461 -2.8112642293806962e-06 -0.78870217376508911 0.14147999550847329 -5.9842303929500484e-05 -0.72703660064346209 0.22516154674649602 -1.7749243351858191e-05 -0.76846141425216996 0.20119901254164652 -0.00013006085663685681 -0.93831644041243112 0.14147999550847329 -5.9842303929500478e-05 -0.72703660064346209 0.17287594131142059 1.2135559140291799e-06 -0.93486918278163844 0.22516154674649602 -1.7749243351858174e-05 -0.76846141425216996 0.20119901254164652 -0.00013006085663685681 -0.93831644041243112 0.14834307987082937 5.4984590054954394e-05 -0.93176181695507032 0.17287594131142059 1.2135559140291799e-06 -0.93486918278163844 0.14147999550847329 -5.9842303929500457e-05 -0.72703660064346221 0.1667482401614637 -3.5560362276633642e-06 -0.63099979326043054 0.18983883856683112 1.2705102410044759e-05 -0.6441915058038552 0.19418955942961461 -2.811264229380684e-06 -0.78870217376508911 0.22516154674649602 -1.7749243351858219e-05 -0.76846141425216996 0.19418955942961461 -2.811264229380684e-06 -0.78870217376508911 0.1667482401614637 -3.5560362276633684e-06 -0.63099979326043054 0.14116362923418191 -3.2234399062628475e-06 -0.77072187952144666 0.14147999550847329 -5.9842303929500491e-05 -0.72703660064346209 0.19418955942961461 -2.811264229380684e-06 -0.78870217376508911 0.14116362923418191 -3.2234399062628475e-06 -0.77072187952144666 0.14834307987082937 5.4984590054954394e-05 -0.93176181695507032 0.14147999550847329 -5.9842303929500491e-05 -0.72703660064346209 0.17329686495994848 -3.4409544888844187e-06 -0.93460400378572062 0.14116362923418191 -3.2234399062628475e-06 -0.77072187952144666 0.14834307987082937 5.4984590054954394e-05 -0.93176181695507032 0.19418955942961461 -2.811264229380684e-06 -0.78870217376508911 0.14834307987082937 5.4984590054954394e-05 -0.93176181695507032 0.11748526251749285 -3.769390820354892e-06 -0.92814798668935239 0.14116362923418191 -3.2234399062628522e-06 -0.77072187952144666 0.17329686495994848 -3.4409544888844187e-06 -0.93460400378572062 0.14834307987082937 5.4984590054954394e-05 -0.93176181695507032 0.20119901254164652 -0.00013006085663685681 -0.93831644041243112 0.17329686495994848 -3.4409544888844085e-06 -0.93460400378572051 0.19418955942961461 -2.811264229380684e-06 -0.78870217376508911 0.20119901254164652 -0.00013006085663685681 -0.93831644041243112 0.17329686495994848 -3.4409544888844229e-06 -0.93460400378572062 0.19418955942961461 -2.811264229380684e-06 -0.78870217376508911 0.22612820830149297 -2.7012942713086346e-06 -0.9423898308694606 0.1667482401614637 -3.5560362276633642e-06 -0.63099979326043054 0.19418955942961461 -2.8112642293806831e-06 -0.78870217376508911 0.22274863853462443 -2.940359863370624e-06 -0.64877869082818029 0.22516154674649602 -1.7749243351858219e-05 -0.76846141425216996 0.20119901254164652 -0.00013006085663685681 -0.93831644041243112 0.23936337122908199 -4.9088310030306286e-05 -0.94401831165384342 0.19418955942961461 -2.8112642293806683e-06 -0.788702173765089 0.22516154674649602 -1.7749243351858215e-05 -0.76846141425216996 0.23936337122908199 -4.9088310030306279e-05 -0.94401831165384342 0.20119901254164652 -0.00013006085663685681 -0.93831644041243112 0.23862448958735047 -6.7972136008518554e-05 -0.94381710192582802 0.22516154674649602 -1.7749243351858219e-05 -0.76846141425216996 0.26851920449325017 8.1665820152007897e-05 -0.66777930745807756 0.2227486385346244 -2.9403598633706303e-06 -0.6487786908281804 0.23530155808083345 -2.1776371174041431e-06 -0.80532776249644489 0.22516154674649599 -1.7749243351858239e-05 -0.76846141425216996 0.19418955942961461 -2.811264229380684e-06 -0.78870217376508911 0.23530155808083345 -2.1776371174041363e-06 -0.80532776249644489 0.22274863853462443 -2.9403598633706235e-06 -0.64877869082818029 0.22516154674649602 -1.7749243351858219e-05 -0.76846141425216996 0.23530155808083347 -2.1776371174041376e-06 -0.80532776249644489 0.19418955942961461 -2.8112642293806844e-06 -0.78870217376508911 0.23936337122908199 -4.9088310030306279e-05 -0.94401831165384342 0.22516154674649602 -1.7749243351858219e-05 -0.76846141425216996 0.22612820830149297 -2.7012942713086346e-06 -0.9423898308694606 0.19418955942961458 -2.8112642293806861e-06 -0.788702173765089 0.20119901254164652 -0.00013006085663685681 -0.93831644041243112 0.23936337122908199 -4.9088310030306279e-05 -0.94401831165384342 0.22612820830149297 -2.7012942713086346e-06 -0.9423898308694606 0.2353015580808335 -2.1776371174041351e-06 -0.805327762496445 0.19418955942961461 -2.8112642293806861e-06 -0.78870217376508911 0.23936337122908199 -4.9088310030306279e-05 -0.94401831165384342 0.27528350651101891 -2.8947341439943949e-06 -0.94903993255482588 0.27133622537250929 6.7454161105773763e-05 -0.80884130711878388 0.23530155808083347 -2.1776371174041406e-06 -0.80532776249644489 0.23936337122908199 -4.9088310030306279e-05 -0.94401831165384342 0.22612820830149297 -2.7012942713086346e-06 -0.9423898308694606 0.27528350651101891 -2.8947341439943954e-06 -0.94903993255482588 0.23530155808083347 -2.1776371174041376e-06 -0.80532776249644489 0.23936337122908199 -4.9088310030306279e-05 -0.94401831165384342 0.23936337122908199 -4.9088310030306279e-05 -0.94401831165384342 0.27528350651101891 -2.8947341439943949e-06 -0.94903993255482588 0.27133622537250934 6.7454161105773763e-05 -0.80884130711878388 0.27517755608016037 1.9857660419680484e-05 -0.94843133964231519 0.23530155808083347 -2.1776371174041376e-06 -0.80532776249644489 0.2713362253725094 6.7454161105773763e-05 -0.80884130711878388 0.27528350651101891 -2.8947341439943949e-06 -0.94903993255482588 0.26980458026631465 -2.8426154380349304e-06 -0.75766706399790573 0.23530155808083347 -2.1776371174041376e-06 -0.80532776249644489 0.22274863853462443 -2.9403598633706252e-06 -0.64877869082818029 0.26851920449325017 8.1665820152007884e-05 -0.66777930745807768 0.26980458026631465 -2.8426154380349304e-06 -0.75766706399790573 0.26851920449325017 8.1665820152007897e-05 -0.66777930745807756 0.27133622537250934 6.7454161105773763e-05 -0.80884130711878388 0.23530155808083347 -2.1776371174041376e-06 -0.80532776249644489 0.26980458026631465 -2.8426154380349304e-06 -0.75766706399790573 0.27133622537250934 6.7454161105773763e-05 -0.80884130711878388 0.27136237423173304 2.9791302106342248e-05 -0.80683726321195026 0.26851920449325017 8.1665820152007897e-05 -0.66777930745807756 0.22516154674649602 -1.7749243351858219e-05 -0.76846141425216996 0.26851920449325017 8.1665820152007897e-05 -0.66777930745807756 0.23530155808083347 -2.1776371174041376e-06 -0.80532776249644489 0.27133622537250934 6.7454161105773763e-05 -0.80884130711878388 0.22516154674649602 -1.7749243351858219e-05 -0.76846141425216996 0.23936337122908199 -4.9088310030306279e-05 -0.94401831165384342 0.23862448958735044 -6.7972136008518554e-05 -0.94381710192582791 0.27517755608016037 1.9857660419680484e-05 -0.94843133964231519 0.22516154674649602 -1.7749243351858219e-05 -0.76846141425216996 0.27133622537250934 6.7454161105773763e-05 -0.80884130711878388 0.23936337122908199 -4.9088310030306293e-05 -0.94401831165384342 0.27517755608016037 1.9857660419680484e-05 -0.94843133964231519 0.22516154674649602 -1.7749243351858219e-05 -0.76846141425216996 0.27133622537250934 6.7454161105773763e-05 -0.80884130711878388 0.27517755608016037 1.9857660419680484e-05 -0.94843133964231519 0.27136237423173304 2.9791302106342248e-05 -0.80683726321195026 0.22516154674649602 -1.7749243351858219e-05 -0.76846141425216996 0.23530155808083347 -2.1776371174041376e-06 -0.80532776249644489 0.23936337122908199 -4.9088310030306279e-05 -0.94401831165384342 0.27133622537250934 6.7454161105773763e-05 -0.80884130711878388 0.22516154674649605 -1.7749243351858208e-05 -0.76846141425217007 0.27517755608016037 1.9857660419680484e-05 -0.94843133964231519 0.27136237423173304 2.9791302106342238e-05 -0.80683726321195037 0.23862448958735047 -6.7972136008518554e-05 -0.94381710192582802 0.27497024930639846 4.8373060883729074e-05 -0.94855809081275422 0.27517755608016037 1.9857660419680484e-05 -0.94843133964231519 0.23862448958735047 -6.7972136008518567e-05 -0.94381710192582802 0.27136237423173304 2.9791302106342248e-05 -0.80683726321195026 0.22516154674649602 -1.7749243351858208e-05 -0.76846141425216996 0.27136237423173304 2.9791302106342248e-05 -0.80683726321195026 0.23862448958735047 -6.7972136008518567e-05 -0.94381710192582802 0.21543116457787803 -2.3432964777398327e-05 -0.7338394359135828 0.22516154674649608 -1.7749243351858205e-05 -0.76846141425217007 0.18983883856683112 1.2705102410044672e-05 -0.6441915058038552 0.21543116457787803 -2.3432964777398313e-05 -0.7338394359135828 0.20660996090623343 4.9181474884304781e-06 -0.93921521225806259 0.22516154674649602 -1.7749243351858219e-05 -0.76846141425216996 0.26911716257403695 -7.5095387280650053e-05 -0.68837924324289257 0.27136237423173304 2.9791302106342248e-05 -0.80683726321195026 0.21543116457787803 -2.343296477739828e-05 -0.7338394359135828 0.22516154674649599 -1.7749243351858235e-05 -0.76846141425216985 0.23862448958735047 -6.7972136008518554e-05 -0.94381710192582802 0.20660996090623343 4.9181474884304654e-06 -0.93921521225806248 0.21543116457787803 -2.3432964777398317e-05 -0.7338394359135828 0.22516154674649602 -1.7749243351858235e-05 -0.76846141425216985 0.26911716257403695 -7.5095387280650053e-05 -0.68837924324289257 0.21543116457787806 -2.3432964777398337e-05 -0.7338394359135828 0.18983883856683112 1.2705102410044671e-05 -0.6441915058038552 0.22516154674649599 -1.7749243351858208e-05 -0.76846141425217007 0.23862448958735047 -6.7972136008518554e-05 -0.94381710192582802 0.27136237423173304 2.9791302106342228e-05 -0.80683726321195037 0.27091909730509534 -9.7746114200784115e-08 -0.79774191583743082 0.27497024930639846 4.8373060883729074e-05 -0.94855809081275422 0.20660996090623343 4.9181474884304654e-06 -0.93921521225806248 0.23862448958735047 -6.7972136008518554e-05 -0.94381710192582813 0.20119901254164652 -0.00013006085663685681 -0.93831644041243112 0.22516154674649602 -1.7749243351858219e-05 -0.76846141425216996 0.26851920449325017 8.1665820152007897e-05 -0.66777930745807756 0.27136237423173304 2.9791302106342248e-05 -0.80683726321195026 0.26911716257403695 -7.5095387280650053e-05 -0.68837924324289257 0.22516154674649602 -1.7749243351858219e-05 -0.76846141425216996 0.23862448958735047 -6.7972136008518554e-05 -0.94381710192582802 0.27091909730509534 -9.7746114200816898e-08 -0.79774191583743093 0.27136237423173304 2.9791302106342248e-05 -0.80683726321195026 0.21543116457787803 -2.3432964777398317e-05 -0.7338394359135828 0.27136237423173304 2.9791302106342248e-05 -0.80683726321195026 0.27091909730509534 -9.7746114200802922e-08 -0.79774191583743082 0.26911716257403695 -7.5095387280650053e-05 -0.68837924324289257 0.21543116457787803 -2.3432964777398317e-05 -0.7338394359135828 0.26911716257403695 -7.5095387280650053e-05 -0.68837924324289257 0.27091909730509534 -9.7746114200788681e-08 -0.79774191583743082 0.2676765520284482 3.219984829081885e-05 -0.63680792718110513 0.21543116457787803 -2.3432964777398317e-05 -0.7338394359135828 0.20660996090623343 4.9181474884304654e-06 -0.93921521225806248 0.19273119494506041 6.3824262076713405e-06 -0.93712741187614834 0.23632125659688061 4.2116600851890686e-06 -0.94370415237767347 0.21543116457787803 -2.3432964777398317e-05 -0.7338394359135828 0.23632125659688064 4.2116600851890694e-06 -0.94370415237767358 0.23862448958735047 -6.7972136008518554e-05 -0.94381710192582802 0.20660996090623343 4.9181474884304654e-06 -0.93921521225806248 0.21543116457787803 -2.3432964777398317e-05 -0.7338394359135828 0.23632125659688064 4.2116600851890694e-06 -0.94370415237767358 0.27091909730509534 -9.7746114200784115e-08 -0.79774191583743082 0.23862448958735047 -6.7972136008518554e-05 -0.94381710192582802 0.21543116457787803 -2.3432964777398317e-05 -0.7338394359135828 0.27497024930639846 4.8373060883729074e-05 -0.94855809081275422 0.27091909730509534 -9.7746114200784115e-08 -0.79774191583743082 0.23632125659688064 4.2116600851890694e-06 -0.94370415237767358 0.27508937618052298 2.2613642238282817e-06 -0.94850569250892958 0.27091909730509534 -9.7746114200784115e-08 -0.79774191583743082 0.23632125659688064 4.211660085189083e-06 -0.94370415237767358 0.2386244895873505 -6.7972136008518567e-05 -0.94381710192582802 0.27497024930639846 4.8373060883729074e-05 -0.94855809081275422 0.22746581740469585 3.8527197266142351e-05 -0.94199103733552381 0.21543116457787806 -2.3432964777398168e-05 -0.7338394359135828 0.18968197718130236 -5.4293829180315877e-05 -0.64315621784848365 0.21506254381435289 4.6304967016413914e-05 -0.76804736774200222 0.22746581740469585 3.8527197266142351e-05 -0.94199103733552381 0.27034748569938349 3.1104321864037673e-05 -0.76562692156469792 0.21543116457787803 -2.3432964777398317e-05 -0.7338394359135828 0.21506254381435289 4.6304967016413914e-05 -0.76804736774200222 0.27508937618052298 2.2613642238282817e-06 -0.94850569250892958 0.27091909730509534 -9.7746114200784115e-08 -0.79774191583743082 0.23632125659688064 4.2116600851890694e-06 -0.94370415237767358 0.27034748569938349 3.1104321864037666e-05 -0.76562692156469792 0.18968197718130239 -5.4293829180315714e-05 -0.64315621784848354 0.21543116457787803 -2.343296477739831e-05 -0.73383943591358292 0.27034748569938349 3.1104321864037686e-05 -0.76562692156469803 0.21506254381435286 4.6304967016413941e-05 -0.76804736774200222 0.23632125659688064 4.2116600851890694e-06 -0.94370415237767358 0.27508937618052298 2.2613642238282745e-06 -0.94850569250892969 0.27034748569938349 3.1104321864037666e-05 -0.76562692156469792 0.22746581740469585 3.8527197266142351e-05 -0.94199103733552381 0.27508937618052298 2.2613642238282817e-06 -0.94850569250892958 0.27034748569938349 3.1104321864037666e-05 -0.76562692156469792 0.22746581740469585 3.8527197266142351e-05 -0.94199103733552381 0.27513630317024934 -1.8165275077920362e-05 -0.94855914382802664 0.23632125659688064 4.2116600851890694e-06 -0.94370415237767358 0.19273119494506041 6.3824262076713405e-06 -0.93712741187614834 0.22746581740469585 3.8527197266142351e-05 -0.94199103733552381 0.21543116457787803 -2.3432964777398317e-05 -0.7338394359135828 0.23632125659688064 4.2116600851890694e-06 -0.94370415237767358 0.22746581740469585 3.8527197266142351e-05 -0.94199103733552381 0.27034748569938349 3.1104321864037666e-05 -0.76562692156469792 0.21543116457787803 -2.3432964777398317e-05 -0.7338394359135828 0.27034748569938349 3.1104321864037666e-05 -0.76562692156469792 0.2676765520284482 3.2199848290818856e-05 -0.63680792718110502 0.27091909730509534 -9.7746114200784115e-08 -0.79774191583743082 0.21543116457787803 -2.3432964777398317e-05 -0.7338394359135828 0.27034748569938349 3.1104321864037666e-05 -0.76562692156469792 0.27091909730509534 -9.7746114200784115e-08 -0.79774191583743082 0.23632125659688064 4.2116600851890719e-06 -0.94370415237767358 0.21543116457787803 -2.3432964777398317e-05 -0.7338394359135828 0.26703488773298389 5.1195605675924508e-05 -0.57726594337863779 0.215431164577878 -2.343296477739832e-05 -0.73383943591358269 0.20432623283427973 -1.2247349825091404e-05 -0.46782600820148507 0.2676765520284482 3.219984829081885e-05 -0.63680792718110513 0.26703488773298389 5.1195605675924508e-05 -0.57726594337863779 0.20432623283427973 -1.2247349825091393e-05 -0.46782600820148501 0.18968197718130236 -5.4293829180315708e-05 -0.64315621784848342 0.20981745434438712 3.3977392138107695e-05 -0.46793072323966828 0.26703488773298389 5.1195605675924508e-05 -0.57726594337863779 0.18968197718130239 -5.4293829180315687e-05 -0.64315621784848354 0.2685187427197816 -0.00014602256476926756 -0.65634112099763675 0.20981745434438712 3.3977392138107701e-05 -0.46793072323966828 0.27034748569938349 3.1104321864037666e-05 -0.76562692156469792 0.26703488773298389 5.1195605675924528e-05 -0.57726594337863768 0.18968197718130239 -5.4293829180315647e-05 -0.64315621784848354 0.21506254381435289 4.6304967016413914e-05 -0.76804736774200222 0.26703488773298389 5.1195605675924508e-05 -0.57726594337863779 0.26559798670109802 5.9805278135829066e-05 -0.43291464650245493 0.20432623283427973 -1.2247349825091405e-05 -0.46782600820148507 0.20981745434438709 3.3977392138107695e-05 -0.46793072323966822 0.20432623283427973 -1.2247349825091405e-05 -0.46782600820148507 0.215431164577878 -2.343296477739832e-05 -0.7338394359135828 0.26703488773298389 5.1195605675924501e-05 -0.57726594337863779 0.18968197718130239 -5.4293829180315714e-05 -0.64315621784848354 0.27034748569938349 3.1104321864037666e-05 -0.76562692156469792 0.18968197718130239 -5.4293829180315714e-05 -0.64315621784848354 0.26703488773298389 5.1195605675924508e-05 -0.5772659433786379 0.21543116457787803 -2.3432964777398317e-05 -0.7338394359135828 0.2676765520284482 3.219984829081885e-05 -0.63680792718110513 0.27034748569938355 3.1104321864037666e-05 -0.76562692156469792 0.26703488773298389 5.1195605675924508e-05 -0.57726594337863779 0.215431164577878 -2.343296477739833e-05 -0.73383943591358269 0.26703488773298389 5.1195605675924508e-05 -0.57726594337863779 0.26561114303826272 4.6274628151311291e-05 -0.49108861937196374 0.2676765520284482 3.219984829081885e-05 -0.63680792718110513 0.20432623283427973 -1.2247349825091405e-05 -0.46782600820148507 0.26703488773298389 5.1195605675924508e-05 -0.57726594337863779 0.26559798670109802 5.9805278135829066e-05 -0.43291464650245493 0.26561114303826272 4.6274628151311291e-05 -0.49108861937196369 0.20432623283427973 -1.2247349825091405e-05 -0.46782600820148507 0.26703488773298389 5.1195605675924508e-05 -0.57726594337863779 0.26577107815510442 -9.1639822623647472e-05 -0.480247722456415 0.26559798670109802 5.9805278135829066e-05 -0.43291464650245493 0.20981745434438714 3.3977392138107722e-05 -0.46793072323966833 0.2685187427197816 -0.00014602256476926756 -0.65634112099763675 0.20981745434438714 3.3977392138107701e-05 -0.46793072323966833 0.18968197718130242 -5.4293829180315999e-05 -0.64315621784848365 0.21506254381435289 4.6304967016413914e-05 -0.76804736774200222 0.18968197718130239 -5.4293829180315714e-05 -0.64315621784848354 0.20981745434438712 3.3977392138107674e-05 -0.46793072323966833 0.22244760395915419 2.8786694323776498e-06 -0.64403186815815672 0.21506254381435294 4.6304967016414117e-05 -0.76804736774200233 0.2685187427197816 -0.00014602256476926756 -0.65634112099763675 0.18968197718130239 -5.4293829180316588e-05 -0.64315621784848342 0.26703488773298389 5.1195605675924508e-05 -0.57726594337863779 0.21506254381435289 4.6304967016413914e-05 -0.76804736774200222 0.27034748569938349 3.1104321864037666e-05 -0.76562692156469792 0.2685187427197816 -0.00014602256476926756 -0.65634112099763675 0.26703488773298389 5.1195605675924508e-05 -0.57726594337863779 0.21506254381435289 4.6304967016413914e-05 -0.76804736774200222 0.2685187427197816 -0.00014602256476926756 -0.65634112099763675 0.22244760395915417 2.8786694323774715e-06 -0.64403186815815661 0.20981745434438714 3.3977392138107701e-05 -0.46793072323966833 0.21506254381435289 4.6304967016413914e-05 -0.76804736774200222 0.26577107815510442 -9.1639822623647472e-05 -0.480247722456415 0.26703488773298389 5.1195605675924508e-05 -0.57726594337863779 0.2685187427197816 -0.00014602256476926756 -0.65634112099763675 0.20981745434438714 3.3977392138107701e-05 -0.46793072323966833 0.2685187427197816 -0.00014602256476926756 -0.65634112099763675 0.23362599379487642 2.6937811627870245e-06 -0.4766840561484002 0.26577107815510442 -9.1639822623647472e-05 -0.480247722456415 0.20981745434438714 3.3977392138107701e-05 -0.46793072323966833 0.26674793975774941 2.7846278879513303e-06 -0.56753014195785689 0.26577107815510442 -9.1639822623647472e-05 -0.480247722456415 0.2685187427197816 -0.00014602256476926756 -0.65634112099763675 0.23362599379487642 2.6937811627870135e-06 -0.4766840561484002 0.23362599379487642 2.6937811627870135e-06 -0.4766840561484002 0.26674793975774941 2.7846278879513315e-06 -0.56753014195785689 0.26577107815510442 -9.1639822623647472e-05 -0.480247722456415 0.26484471243653385 2.534727783781131e-06 -0.37764017516551462 0.2685187427197816 -0.00014602256476926756 -0.65634112099763675 0.22244760395915414 2.8786694323774389e-06 -0.64403186815815661 0.26674793975774941 2.7846278879513303e-06 -0.56753014195785689 0.23362599379487636 2.69378116278698e-06 -0.47668405614840009 0.23362599379487642 2.6937811627870135e-06 -0.4766840561484002 0.22244760395915417 2.8786694323774617e-06 -0.64403186815815661 0.18676613899295771 3.4631385955450872e-06 -0.4899307025560507 0.20981745434438714 3.3977392138107701e-05 -0.46793072323966833 0.22244760395915417 2.8786694323774613e-06 -0.64403186815815661 0.23362599379487642 2.6937811627870135e-06 -0.4766840561484002 0.2685187427197816 -0.00014602256476926753 -0.65634112099763675 0.20981745434438714 3.3977392138107701e-05 -0.46793072323966833 0.2685187427197816 -0.00014602256476926756 -0.65634112099763675 0.22244760395915417 2.8786694323774626e-06 -0.64403186815815672 0.26993902751954951 3.0499912029048883e-06 -0.75759189547816641 0.26674793975774941 2.7846278879513303e-06 -0.56753014195785689 0.26993902751954951 3.0499912029048883e-06 -0.75759189547816641 0.23540865376354728 2.1504565417072155e-06 -0.80523288795889625 0.22244760395915417 2.8786694323774613e-06 -0.64403186815815661 0.2685187427197816 -0.00014602256476926756 -0.65634112099763675 0.2354086537635473 2.1504565417072045e-06 -0.80523288795889625 0.26851874271978154 -0.00014602256476926756 -0.65634112099763675 0.27135046586500461 -0.00010530155534947156 -0.80874449711761953 0.21506254381435289 4.6304967016413948e-05 -0.76804736774200233 0.2354086537635473 2.1504565417072045e-06 -0.80523288795889625 0.26993902751954951 3.0499912029048883e-06 -0.75759189547816641 0.27135046586500455 -0.00010530155534947156 -0.80874449711761942 0.26851874271978166 -0.00014602256476926753 -0.65634112099763697 0.23923533403699249 2.5383257322042134e-05 -0.94409557448834169 0.27518005729628253 2.8173205332882304e-06 -0.94887637308060002 0.27513630317024934 -1.8165275077920362e-05 -0.94855914382802664 0.27135046586500461 -0.00010530155534947156 -0.80874449711761953 0.23923533403699249 2.5383257322042134e-05 -0.94409557448834169 0.22582708766212062 2.8170968898393831e-06 -0.94211255285135809 0.27518005729628248 2.8173205332882444e-06 -0.94887637308060002 0.2354086537635473 2.1504565417072045e-06 -0.80523288795889625 0.26993902751954951 3.0499912029048883e-06 -0.75759189547816641 0.27135046586500461 -0.00010530155534947156 -0.80874449711761953 0.27518005729628248 2.8173205332882444e-06 -0.94887637308060002 0.2354086537635473 2.1504565417072045e-06 -0.80523288795889625 0.27135046586500461 -0.00010530155534947156 -0.80874449711761953 0.23923533403699249 2.5383257322042144e-05 -0.94409557448834169 0.27518005729628248 2.8173205332882444e-06 -0.94887637308060002 0.2354086537635473 2.1504565417072045e-06 -0.80523288795889625 0.23923533403699249 2.5383257322042134e-05 -0.94409557448834169 0.27513630317024934 -1.8165275077920362e-05 -0.94855914382802664 0.27034748569938349 3.1104321864037653e-05 -0.76562692156469792 0.27135046586500461 -0.00010530155534947156 -0.80874449711761953 0.27513630317024934 -1.8165275077920362e-05 -0.94855914382802664 0.27034748569938349 3.1104321864037666e-05 -0.76562692156469792 0.22746581740469585 3.8527197266142358e-05 -0.94199103733552381 0.23923533403699249 2.5383257322042134e-05 -0.94409557448834169 0.23923533403699249 2.5383257322042134e-05 -0.94409557448834169 0.27135046586500461 -0.00010530155534947156 -0.80874449711761953 0.27034748569938349 3.1104321864037673e-05 -0.76562692156469792 0.21506254381435289 4.6304967016413934e-05 -0.76804736774200222 0.27034748569938349 3.1104321864037666e-05 -0.76562692156469792 0.27135046586500461 -0.00010530155534947156 -0.80874449711761953 0.2685187427197816 -0.00014602256476926756 -0.65634112099763675 0.21506254381435289 4.6304967016413914e-05 -0.76804736774200222 0.19812994586680066 9.8505926737172346e-05 -0.9378067453646205 0.23923533403699249 2.5383257322042134e-05 -0.94409557448834169 0.22746581740469585 3.8527197266142351e-05 -0.94199103733552381 0.21506254381435289 4.6304967016413914e-05 -0.76804736774200222 0.22746581740469585 3.8527197266142351e-05 -0.94199103733552381 0.23923533403699249 2.5383257322042134e-05 -0.94409557448834169 0.27034748569938344 3.1104321864037666e-05 -0.76562692156469792 0.21506254381435289 4.6304967016413914e-05 -0.76804736774200222 0.23923533403699249 2.5383257322042134e-05 -0.94409557448834169 0.22582708766212065 2.8170968898393827e-06 -0.94211255285135809 0.2354086537635473 2.1504565417072045e-06 -0.80523288795889625 0.21506254381435289 4.6304967016413914e-05 -0.76804736774200222 0.19548755980845539 2.8264495469770759e-06 -0.77916071795969355 0.2354086537635473 2.1504565417072045e-06 -0.80523288795889625 0.22582708766212065 2.8170968898393827e-06 -0.94211255285135809 0.21506254381435289 4.6304967016413914e-05 -0.76804736774200222 0.23923533403699249 2.5383257322042134e-05 -0.94409557448834169 0.19812994586680066 9.8505926737172346e-05 -0.9378067453646205 0.22582708766212065 2.8170968898393823e-06 -0.94211255285135809 0.21506254381435289 4.6304967016413914e-05 -0.76804736774200222 0.27135046586500461 -0.00010530155534947156 -0.80874449711761953 0.23923533403699249 2.5383257322042147e-05 -0.9440955744883418 0.23540865376354728 2.1504565417072287e-06 -0.80523288795889614 0.21506254381435286 4.6304967016413927e-05 -0.76804736774200222 0.2354086537635473 2.1504565417072045e-06 -0.80523288795889625 0.19548755980845539 2.8264495469770763e-06 -0.77916071795969355 0.22244760395915417 2.8786694323774613e-06 -0.64403186815815661 0.21506254381435291 4.6304967016413927e-05 -0.76804736774200233 0.22244760395915417 2.8786694323774613e-06 -0.64403186815815661 0.26851874271978154 -0.00014602256476926753 -0.65634112099763675 0.2354086537635473 2.1504565417072045e-06 -0.80523288795889625 0.21506254381435289 4.6304967016413914e-05 -0.76804736774200222 0.19812994586680066 9.8505926737172346e-05 -0.9378067453646205 0.14100932808286218 2.6043893303688278e-05 -0.7252035213294119 0.19548755980845542 2.8264495469770734e-06 -0.77916071795969366 0.21506254381435289 4.6304967016413914e-05 -0.76804736774200222 0.19812994586680066 9.8505926737172346e-05 -0.9378067453646205 0.17572544346731486 1.3220633332236407e-05 -0.93522669137497505 0.14100932808286221 2.6043893303688272e-05 -0.72520352132941202 0.21506254381435289 4.6304967016413914e-05 -0.76804736774200222 0.22244760395915417 2.8786694323774613e-06 -0.64403186815815661 0.19548755980845539 2.8264495469770759e-06 -0.77916071795969355 0.1699594322549543 2.6608791084724257e-06 -0.63411419699760108 0.21506254381435289 4.6304967016413914e-05 -0.76804736774200222 0.1699594322549543 2.6608791084724257e-06 -0.63411419699760108 0.19548755980845539 2.8264495469770712e-06 -0.77916071795969355 0.14100932808286221 2.6043893303688272e-05 -0.72520352132941202 0.21506254381435289 4.6304967016413914e-05 -0.76804736774200222 0.19812994586680066 9.8505926737172346e-05 -0.9378067453646205 0.19548755980845539 2.826449546977067e-06 -0.77916071795969344 0.22582708766212065 2.8170968898393823e-06 -0.94211255285135809 0.21506254381435289 4.6304967016413914e-05 -0.76804736774200222 0.14450953288065574 2.9277627935844864e-06 -0.77818357735228716 0.1733901771533447 3.4806293795882001e-06 -0.9348993142947184 0.19812994586680066 9.8505926737172387e-05 -0.9378067453646205 0.19548755980845539 2.8264495469770759e-06 -0.77916071795969355 0.19548755980845539 2.8264495469770759e-06 -0.77916071795969355 0.1733901771533447 3.4806293795882128e-06 -0.93489931429471829 0.19812994586680066 9.8505926737172346e-05 -0.9378067453646205 0.22582708766212065 2.8170968898393823e-06 -0.94211255285135809 0.22746581740469585 3.8527197266142351e-05 -0.94199103733552381 0.17572544346731486 1.3220633332236407e-05 -0.93522669137497505 0.19812994586680066 9.8505926737172346e-05 -0.9378067453646205 0.21506254381435289 4.6304967016413914e-05 -0.76804736774200222 0.14777453294063886 -5.2791178384732594e-05 -0.93148641310074454 0.19812994586680066 9.8505926737172346e-05 -0.9378067453646205 0.17572544346731486 1.3220633332236407e-05 -0.93522669137497505 0.14100932808286221 2.6043893303688272e-05 -0.72520352132941202 0.14777453294063886 -5.2791178384732594e-05 -0.93148641310074454 0.14450953288065571 2.9277627935844944e-06 -0.77818357735228716 0.19812994586680066 9.8505926737172346e-05 -0.9378067453646205 0.14100932808286221 2.6043893303688272e-05 -0.72520352132941202 0.1733901771533447 3.4806293795882001e-06 -0.9348993142947184 0.14777453294063886 -5.2791178384732594e-05 -0.93148641310074454 0.11766990436110653 3.938133649598068e-06 -0.9285476089992476 0.14450953288065574 2.9277627935844864e-06 -0.77818357735228716 0.19812994586680066 9.8505926737172346e-05 -0.9378067453646205 0.14777453294063886 -5.2791178384732594e-05 -0.93148641310074454 0.1733901771533447 3.4806293795882001e-06 -0.9348993142947184 0.14450953288065571 2.9277627935845012e-06 -0.77818357735228705 0.19812994586680066 9.8505926737172346e-05 -0.9378067453646205 0.14450953288065577 2.9277627935845054e-06 -0.77818357735228727 0.19548755980845539 2.8264495469770789e-06 -0.77916071795969355 0.14100932808286218 2.6043893303688272e-05 -0.72520352132941202 0.14450953288065574 2.9277627935844864e-06 -0.77818357735228716 0.1699594322549543 2.6608791084724265e-06 -0.63411419699760108 0.19548755980845539 2.8264495469770763e-06 -0.77916071795969355 0.14100932808286221 2.6043893303688268e-05 -0.72520352132941202 0.1699594322549543 2.6608791084724257e-06 -0.63411419699760108 0.1384395041115333 -1.0122407323536786e-05 -0.49313012712561971 0.18968197718130242 -5.4293829180315735e-05 -0.64315621784848354 0.14100932808286218 2.6043893303688292e-05 -0.72520352132941202 0.1699594322549543 2.6608791084724257e-06 -0.63411419699760108 0.13843950411153327 -1.0122407323536817e-05 -0.49313012712561971 0.18676613899295771 3.4631385955450872e-06 -0.4899307025560507 0.20981745434438714 3.3977392138107701e-05 -0.46793072323966833 0.1699594322549543 2.6608791084724257e-06 -0.63411419699760108 0.1284748726823062 2.5823137001983581e-06 -0.64142243413786515 0.13843950411153333 -1.01224073235368e-05 -0.49313012712561977 0.14100932808286221 2.6043893303688272e-05 -0.72520352132941202 0.1284748726823062 2.5823137001983581e-06 -0.64142243413786515 0.1699594322549543 2.6608791084724257e-06 -0.63411419699760108 0.14450953288065574 2.9277627935844855e-06 -0.77818357735228716 0.14100932808286221 2.6043893303688272e-05 -0.72520352132941202 0.1699594322549543 2.6608791084724257e-06 -0.63411419699760108 0.18968197718130236 -5.4293829180315708e-05 -0.64315621784848342 0.13843950411153333 -1.0122407323536796e-05 -0.49313012712561977 0.20981745434438714 3.3977392138107701e-05 -0.46793072323966833 0.22244760395915417 2.8786694323774613e-06 -0.64403186815815661 0.1699594322549543 2.6608791084724138e-06 -0.63411419699760108 0.18968197718130239 -5.4293829180315748e-05 -0.64315621784848342 0.21506254381435289 4.6304967016413914e-05 -0.76804736774200222 0.1699594322549543 2.6608791084724257e-06 -0.63411419699760108 0.14100932808286221 2.6043893303688272e-05 -0.72520352132941202 0.18968197718130242 -5.4293829180315735e-05 -0.64315621784848342 0.21506254381435289 4.6304967016413914e-05 -0.76804736774200222 0.22244760395915417 2.8786694323774613e-06 -0.64403186815815661 0.18968197718130239 -5.4293829180315714e-05 -0.64315621784848354 0.1699594322549543 2.6608791084724257e-06 -0.63411419699760108 0.20981745434438714 3.3977392138107667e-05 -0.46793072323966839 0.22244760395915417 2.8786694323774613e-06 -0.64403186815815661 0.1699594322549543 2.6608791084724257e-06 -0.63411419699760108 0.18676613899295771 3.4631385955450893e-06 -0.4899307025560507 0.20981745434438714 3.3977392138107701e-05 -0.46793072323966833 0.1699594322549543 2.6608791084724257e-06 -0.63411419699760108 0.1284748726823062 2.5823137001983573e-06 -0.64142243413786515 0.14343350881630981 3.0991578789889722e-06 -0.4658549649070165 0.13843950411153333 -1.01224073235368e-05 -0.49313012712561977 0.1699594322549543 2.6608791084724257e-06 -0.63411419699760108 0.14343350881630981 3.0991578789889722e-06 -0.4658549649070165 0.18676613899295771 3.4631385955450872e-06 -0.4899307025560507 0.13843950411153336 -1.0122407323536805e-05 -0.49313012712561988 0.18968197718130239 -5.4293829180315714e-05 -0.64315621784848354 0.13843950411153333 -1.0122407323536795e-05 -0.49313012712561971 0.1401367305986235 9.3497076398336421e-06 -0.69885101057905874 0.14100932808286221 2.6043893303688272e-05 -0.72520352132941202 0.18968197718130239 -5.4293829180315714e-05 -0.64315621784848354 0.13835378341870905 7.349541512894756e-06 -0.46557763203614277 0.20432623283427973 -1.2247349825091415e-05 -0.46782600820148501 0.1401367305986235 9.3497076398336421e-06 -0.69885101057905874 0.18968197718130239 -5.4293829180315714e-05 -0.64315621784848354 0.1401367305986235 9.3497076398336421e-06 -0.69885101057905874 0.20432623283427973 -1.2247349825091405e-05 -0.46782600820148507 0.21543116457787803 -2.3432964777398317e-05 -0.7338394359135828 0.13835378341870905 7.349541512894739e-06 -0.46557763203614277 0.18968197718130239 -5.4293829180315708e-05 -0.64315621784848354 0.20432623283427973 -1.2247349825091405e-05 -0.46782600820148507 0.13843950411153333 -1.0122407323536798e-05 -0.49313012712561977 0.20432623283427973 -1.2247349825091405e-05 -0.46782600820148507 0.13843950411153333 -1.012240732353681e-05 -0.49313012712561982 0.18968197718130239 -5.4293829180315714e-05 -0.64315621784848354 0.20981745434438717 3.3977392138107722e-05 -0.46793072323966839 0.18968197718130239 -5.4293829180315714e-05 -0.64315621784848354 0.13835378341870902 7.3495415128947458e-06 -0.46557763203614277 0.1401367305986235 9.3497076398336455e-06 -0.69885101057905874 0.13843950411153327 -1.0122407323536779e-05 -0.49313012712561971 0.21543116457787803 -2.3432964777398317e-05 -0.7338394359135828 0.17572544346731483 1.3220633332236416e-05 -0.93522669137497516 0.1401367305986235 9.3497076398336438e-06 -0.69885101057905863 0.19273119494506041 6.3824262076713346e-06 -0.93712741187614834 0.21543116457787803 -2.3432964777398317e-05 -0.7338394359135828 0.1401367305986235 9.3497076398336235e-06 -0.69885101057905874 0.17572544346731486 1.3220633332236407e-05 -0.93522669137497505 0.18968197718130236 -5.4293829180315701e-05 -0.64315621784848354 0.17572544346731486 1.3220633332236407e-05 -0.93522669137497505 0.18968197718130239 -5.4293829180315701e-05 -0.64315621784848354 0.22746581740469585 3.8527197266142351e-05 -0.94199103733552381 0.21543116457787803 -2.3432964777398324e-05 -0.73383943591358292 0.18968197718130239 -5.4293829180315714e-05 -0.64315621784848354 0.14100932808286221 2.6043893303688272e-05 -0.72520352132941202 0.17572544346731486 1.3220633332236399e-05 -0.93522669137497494 0.21506254381435286 4.6304967016413961e-05 -0.76804736774200211 0.18968197718130239 -5.4293829180315714e-05 -0.64315621784848354 0.14013673059862353 9.3497076398336438e-06 -0.69885101057905885 0.17572544346731486 1.3220633332236424e-05 -0.93522669137497494 0.14100932808286221 2.6043893303688278e-05 -0.72520352132941202 0.22746581740469585 3.8527197266142351e-05 -0.94199103733552381 0.18968197718130239 -5.4293829180315762e-05 -0.64315621784848354 0.17572544346731486 1.3220633332236407e-05 -0.93522669137497505 0.21506254381435289 4.6304967016413914e-05 -0.76804736774200222 0.19273119494506041 6.3824262076713405e-06 -0.93712741187614834 0.17572544346731486 1.3220633332236407e-05 -0.93522669137497505 0.22746581740469585 3.8527197266142351e-05 -0.94199103733552381 0.21543116457787803 -2.3432964777398317e-05 -0.7338394359135828 0.13360333392462964 -6.4745392468717943e-05 -0.92991098583578291 0.17572544346731486 1.3220633332236406e-05 -0.93522669137497505 0.1401367305986235 9.3497076398336421e-06 -0.69885101057905874 0.14100932808286221 2.6043893303688272e-05 -0.72520352132941202 0.14777453294063886 -5.2791178384732594e-05 -0.93148641310074454 0.17572544346731486 1.3220633332236426e-05 -0.93522669137497505 0.13360333392462964 -6.4745392468717943e-05 -0.92991098583578291 0.14100932808286221 2.6043893303688272e-05 -0.72520352132941202 0.15133292209823865 2.9628607284902471e-05 -0.93209151605407858 0.13360333392462964 -6.4745392468717943e-05 -0.92991098583578291 0.17572544346731486 1.3220633332236407e-05 -0.93522669137497505 0.1401367305986235 9.3497076398336421e-06 -0.69885101057905874 0.19273119494506041 6.3824262076713405e-06 -0.93712741187614834 0.15133292209823865 2.9628607284902471e-05 -0.93209151605407858 0.17572544346731486 1.3220633332236409e-05 -0.93522669137497505 0.1401367305986235 9.3497076398336421e-06 -0.69885101057905874 0.087802723939917726 4.6561112139628391e-05 -0.63465226264019858 0.062354886870220769 -1.9133164789290491e-05 -0.71773313753190848 0.09557711666049569 2.0735418855577389e-05 -0.92640624195782217 0.052926089377793757 -6.7689502333492425e-05 -0.75398960845908769 0.097050215914735782 -3.3512094994174826e-05 -0.92659146434496098 0.09557711666049569 2.0735418855577389e-05 -0.92640624195782217 0.15133292209823865 2.9628607284902471e-05 -0.93209151605407858 0.1401367305986235 9.349707639833637e-06 -0.69885101057905863 0.13360333392462964 -6.4745392468717943e-05 -0.92991098583578291 0.087802723939917726 4.6561112139628391e-05 -0.63465226264019858 0.091528496030546261 -5.0518837817180012e-06 -0.92629541421400974 0.14100932808286221 2.6043893303688272e-05 -0.72520352132941202 0.097050215914735782 -3.3512094994174826e-05 -0.92659146434496098 0.09557711666049569 2.0735418855577389e-05 -0.92640624195782217 0.1401367305986235 9.3497076398336472e-06 -0.69885101057905863 0.062354886870220796 -1.9133164789290467e-05 -0.71773313753190848 0.13360333392462964 -6.4745392468717943e-05 -0.92991098583578291 0.1401367305986235 9.3497076398336319e-06 -0.69885101057905874 0.087802723939917726 4.6561112139628391e-05 -0.63465226264019858 0.14100932808286221 2.6043893303688272e-05 -0.72520352132941202 0.09557711666049569 2.0735418855577389e-05 -0.92640624195782217 0.08780272393991774 4.6561112139628384e-05 -0.63465226264019858 0.1401367305986235 9.349707639833659e-06 -0.69885101057905863 0.062354886870220776 -1.9133164789290474e-05 -0.71773313753190848 0.13360333392462964 -6.4745392468717943e-05 -0.92991098583578291 0.15133292209823865 2.9628607284902471e-05 -0.93209151605407858 0.09557711666049569 2.0735418855577389e-05 -0.92640624195782217 0.1401367305986235 9.3497076398336421e-06 -0.69885101057905874 0.091528496030546261 -5.0518837817180012e-06 -0.92629541421400974 0.13360333392462964 -6.4745392468717943e-05 -0.92991098583578291 0.09557711666049569 2.0735418855577389e-05 -0.92640624195782217 0.087802723939917726 4.6561112139628391e-05 -0.63465226264019858 0.13360333392462964 -6.4745392468717943e-05 -0.92991098583578291 0.09557711666049569 2.0735418855577383e-05 -0.92640624195782217 0.087802723939917726 4.6561112139628391e-05 -0.63465226264019858 0.1401367305986235 9.3497076398336421e-06 -0.69885101057905874 0.09557711666049569 2.0735418855577389e-05 -0.92640624195782217 0.091528496030546261 -5.0518837817180131e-06 -0.92629541421400974 0.087802723939917726 4.6561112139628431e-05 -0.63465226264019858 0.052926089377793764 -6.7689502333492411e-05 -0.7539896084590878 0.087802723939917726 4.6561112139628391e-05 -0.63465226264019858 0.13835378341870905 7.3495415128947204e-06 -0.46557763203614272 0.069137397305732484 8.3361663623114113e-06 -0.41742202740064105 0.13843950411153333 -1.012240732353681e-05 -0.49313012712561971 0.087802723939917726 4.6561112139628391e-05 -0.63465226264019858 0.1401367305986235 9.3497076398336421e-06 -0.69885101057905874 0.13835378341870908 7.3495415128947204e-06 -0.46557763203614277 0.13843950411153333 -1.012240732353681e-05 -0.49313012712561971 0.087802723939917726 4.6561112139628391e-05 -0.63465226264019858 0.13843950411153336 -1.0122407323536808e-05 -0.49313012712561977 0.06913739730573247 8.3361663623114096e-06 -0.41742202740064105 0.062801836825073135 2.3531137229713506e-05 -0.44585454532691182 0.13835378341870905 7.349541512894739e-06 -0.46557763203614277 0.087802723939917726 4.6561112139628391e-05 -0.63465226264019858 0.06913739730573247 8.3361663623114045e-06 -0.41742202740064105 0.062354886870220776 -1.9133164789290474e-05 -0.71773313753190848 0.087802723939917726 4.6561112139628391e-05 -0.63465226264019858 0.13835378341870905 7.3495415128947306e-06 -0.46557763203614277 0.1401367305986235 9.3497076398336421e-06 -0.69885101057905874 0.062354886870220762 -1.9133164789290488e-05 -0.71773313753190837 0.1401367305986235 9.3497076398336421e-06 -0.69885101057905874 0.13843950411153333 -1.0122407323536795e-05 -0.49313012712561982 0.087802723939917726 4.6561112139628391e-05 -0.63465226264019858 0.14100932808286221 2.6043893303688272e-05 -0.72520352132941202 0.09092822252349464 3.6769035633150677e-06 -0.5563173522686522 0.1284748726823062 2.5823137001983581e-06 -0.64142243413786515 0.087802723939917726 4.6561112139628391e-05 -0.63465226264019858 0.1384395041115333 -1.0122407323536783e-05 -0.49313012712561982 0.1284748726823062 2.5823137001983581e-06 -0.64142243413786515 0.088714559714311317 3.274381352111002e-06 -0.75458347298619 0.09092822252349464 3.6769035633150668e-06 -0.5563173522686522 0.087802723939917726 4.6561112139628391e-05 -0.63465226264019858 0.1284748726823062 2.5823137001983581e-06 -0.64142243413786515 0.087802723939917726 4.6561112139628391e-05 -0.63465226264019858 0.13843950411153333 -1.0122407323536798e-05 -0.49313012712561977 0.14100932808286221 2.6043893303688272e-05 -0.72520352132941202 0.09092822252349464 3.6769035633150677e-06 -0.5563173522686522 0.087802723939917726 4.6561112139628391e-05 -0.63465226264019858 0.088714559714311331 3.2743813521110533e-06 -0.75458347298619011 0.052926089377793764 -6.7689502333492411e-05 -0.7539896084590878 0.09092822252349464 3.6769035633150677e-06 -0.5563173522686522 0.1384395041115333 -1.0122407323536783e-05 -0.49313012712561982 0.087802723939917726 4.6561112139628397e-05 -0.63465226264019869 0.062801836825073148 2.3531137229713499e-05 -0.44585454532691188 0.1284748726823062 2.5823137001983581e-06 -0.64142243413786515 0.088714559714311331 3.2743813521110025e-06 -0.75458347298619011 0.087802723939917698 4.6561112139628397e-05 -0.63465226264019847 0.14100932808286221 2.6043893303688272e-05 -0.72520352132941202 0.091402390511451714 3.5384155423279759e-06 -0.36726863653823694 0.13843950411153336 -1.0122407323536807e-05 -0.49313012712561971 0.09092822252349464 3.6769035633150677e-06 -0.5563173522686522 0.062801836825073135 2.3531137229713509e-05 -0.44585454532691188 0.09092822252349464 3.6769035633150677e-06 -0.5563173522686522 0.087802723939917726 4.6561112139628397e-05 -0.63465226264019869 0.045058743447125738 3.0507649681609935e-06 -0.64143339509646724 0.062801836825073121 2.3531137229713503e-05 -0.44585454532691188 0.091402390511451714 3.5384155423279759e-06 -0.36726863653823694 0.14343350881630981 3.0991578789889722e-06 -0.4658549649070165 0.09092822252349464 3.6769035633150677e-06 -0.5563173522686522 0.13843950411153333 -1.0122407323536798e-05 -0.49313012712561977 0.09092822252349464 3.6769035633150677e-06 -0.5563173522686522 0.14343350881630981 3.0991578789889722e-06 -0.4658549649070165 0.1284748726823062 2.5823137001983581e-06 -0.64142243413786515 0.13843950411153333 -1.0122407323536795e-05 -0.49313012712561982 0.1284748726823062 2.5823137001983581e-06 -0.64142243413786515 0.14450953288065574 2.9277627935844864e-06 -0.77818357735228716 0.088714559714311317 3.2743813521110037e-06 -0.75458347298619 0.14100932808286221 2.6043893303688272e-05 -0.72520352132941202 0.088714559714311317 3.2743813521110037e-06 -0.75458347298619 0.14100932808286223 2.6043893303688278e-05 -0.7252035213294119 0.091528496030546261 -5.0518837817180012e-06 -0.92629541421400974 0.052926089377793764 -6.7689502333492411e-05 -0.7539896084590878 0.088714559714311317 3.2743813521110037e-06 -0.75458347298619 0.087802723939917712 4.6561112139628445e-05 -0.63465226264019858 0.14100932808286221 2.6043893303688065e-05 -0.72520352132941224 0.052926089377793764 -6.7689502333492411e-05 -0.7539896084590878 0.14777453294063886 -5.2791178384732594e-05 -0.93148641310074454 0.088714559714311317 3.2743813521110113e-06 -0.75458347298619 0.14450953288065574 2.9277627935844864e-06 -0.77818357735228716 0.14100932808286221 2.6043893303688272e-05 -0.72520352132941202 0.091528496030546261 -5.0518837817180012e-06 -0.92629541421400974 0.14100932808286221 2.604389330368798e-05 -0.72520352132941202 0.087802723939917712 4.6561112139628696e-05 -0.63465226264019869 0.052926089377793764 -6.7689502333492411e-05 -0.7539896084590878 0.088714559714311317 3.2743813521110037e-06 -0.75458347298619 0.11766990436110653 3.938133649598068e-06 -0.9285476089992476 0.14777453294063886 -5.2791178384732594e-05 -0.93148641310074454 0.14450953288065574 2.9277627935844864e-06 -0.77818357735228716 0.088714559714311317 3.2743813521110037e-06 -0.75458347298619 0.11766990436110653 3.938133649598068e-06 -0.9285476089992476 0.091528496030546261 -5.0518837817180012e-06 -0.92629541421400974 0.14777453294063886 -5.2791178384732594e-05 -0.93148641310074454 0.088714559714311317 3.2743813521110037e-06 -0.75458347298619 0.14777453294063886 -5.2791178384732594e-05 -0.93148641310074454 0.091528496030546261 -5.0518837817180012e-06 -0.92629541421400974 0.14100932808286221 2.6043893303688299e-05 -0.72520352132941202 0.13360333392462964 -6.4745392468717943e-05 -0.92991098583578291 0.091528496030546261 -5.0518837817180012e-06 -0.92629541421400974 0.14777453294063886 -5.2791178384732594e-05 -0.93148641310074454 0.14100932808286221 2.6043893303688272e-05 -0.72520352132941202 0.11766990436110653 3.938133649598068e-06 -0.9285476089992476 0.059623981621315096 3.2746483096736573e-06 -0.92401233351350387 0.088714559714311317 3.2743813521110037e-06 -0.75458347298619 0.091528496030546261 -5.0518837817180012e-06 -0.92629541421400974 0.045058743447125738 3.0507649681609935e-06 -0.64143339509646724 0.088714559714311317 3.2743813521110037e-06 -0.75458347298619 0.042145918503168352 2.4505078658798128e-06 -0.78799402165110566 0.052926089377793764 -6.7689502333492411e-05 -0.7539896084590878 0.088714559714311317 3.2743813521110037e-06 -0.75458347298619 0.091528496030546261 -5.0518837817180021e-06 -0.92629541421400974 0.042145918503168352 2.4505078658798128e-06 -0.78799402165110566 0.052926089377793764 -6.7689502333492411e-05 -0.7539896084590878 0.088714559714311317 3.2743813521110037e-06 -0.75458347298619 0.059623981621315089 3.2746483096736565e-06 -0.92401233351350387 0.042145918503168352 2.4505078658798128e-06 -0.78799402165110566 0.091528496030546261 -5.0518837817180012e-06 -0.92629541421400974 0.043461811831483156 -3.4437520789689662e-05 -0.92329394808639509 0.042145918503168352 2.4505078658798128e-06 -0.78799402165110566 0.059623981621315096 3.2746483096736573e-06 -0.92401233351350387 0.091528496030546261 -5.0518837817180012e-06 -0.92629541421400974 0.091528496030546261 -5.0518837817180012e-06 -0.92629541421400974 0.047218193487112252 -7.4681086992791753e-08 -0.92347123514825336 0.043461811831483156 -3.4437520789689662e-05 -0.92329394808639509 0.052926089377793764 -6.7689502333492411e-05 -0.7539896084590878 0.043461811831483156 -3.4437520789689662e-05 -0.92329394808639509 0.042145918503168352 2.4505078658798179e-06 -0.78799402165110566 0.091528496030546261 -5.0518837817180029e-06 -0.92629541421400963 0.052926089377793764 -6.7689502333492425e-05 -0.7539896084590878 -1.5581724089164685e-08 -1.8581668765500074e-05 -0.78726438749161431 3.5767752320294524e-08 -9.6934280773459987e-05 -0.78568165470318585 1.4495302613406176e-07 8.7006961454740685e-06 -0.65072188888822591 0.052926089377793764 -6.7689502333492411e-05 -0.7539896084590878 0.045058743447125738 3.0507649681609935e-06 -0.64143339509646724 -1.5581724087099159e-08 -1.8581668765500078e-05 -0.78726438749161431 1.4495302613572517e-07 8.7006961454740567e-06 -0.6507218888882258 0.052926089377793757 -6.7689502333492398e-05 -0.7539896084590878 0.052926089377793764 -6.7689502333492411e-05 -0.7539896084590878 3.9733035879412912e-07 -2.9560264780708022e-05 -0.92225094001347807 0.047218193487112217 -7.4681086992821479e-08 -0.92347123514825336 0.043461811831483156 -3.4437520789689648e-05 -0.92329394808639498 0.042145918503168352 2.4505078658798128e-06 -0.78799402165110566 0.043461811831483156 -3.4437520789689662e-05 -0.92329394808639509 -1.5581724089164685e-08 -1.8581668765500074e-05 -0.78726438749161431 0.052926089377793764 -6.7689502333492411e-05 -0.7539896084590878 -1.5581724089164685e-08 -1.8581668765500074e-05 -0.78726438749161431 3.9733035878417987e-07 -2.9560264780708052e-05 -0.92225094001347796 3.5767752320294524e-08 -9.6934280773459987e-05 -0.78568165470318585 0.052926089377793764 -6.7689502333492411e-05 -0.7539896084590878 -1.5581724089164685e-08 -1.8581668765500074e-05 -0.78726438749161431 0.043461811831483156 -3.4437520789689662e-05 -0.92329394808639509 3.9733035878623107e-07 -2.9560264780708049e-05 -0.92225094001347796 0.052926089377793764 -6.7689502333492411e-05 -0.7539896084590878 3.0725079483552841e-07 3.3145639663053426e-06 -0.92207979742061996 -1.5581724091049611e-08 -1.8581668765500074e-05 -0.78726438749161443 0.043461811831483156 -3.4437520789689662e-05 -0.92329394808639509 3.9733035878384286e-07 -2.9560264780708052e-05 -0.92225094001347796 -1.5581724089164685e-08 -1.8581668765500074e-05 -0.78726438749161431 0.042145918503168352 2.4505078658798094e-06 -0.78799402165110566 3.0725079483552841e-07 3.3145639663053426e-06 -0.92207979742061996 0.043461811831483156 -3.4437520789689662e-05 -0.92329394808639509 0.059623981621315096 3.2746483096736573e-06 -0.92401233351350387 3.0725079483683633e-07 3.314563966305346e-06 -0.92207979742061996 0.042145918503168352 2.4505078658798128e-06 -0.78799402165110566 0.043461811831483156 -3.4437520789689662e-05 -0.92329394808639509 0.042145918503168352 2.4505078658798128e-06 -0.78799402165110566 3.0725079483552841e-07 3.3145639663053426e-06 -0.92207979742061996 -1.7137661742290576e-08 2.9931275267926474e-06 -0.73808602912868726 -1.5581724089164685e-08 -1.8581668765500074e-05 -0.78726438749161431 0.042145918503168352 2.4505078658798128e-06 -0.78799402165110566 -1.5581724089159116e-08 -1.8581668765500074e-05 -0.78726438749161431 0.045058743447125738 3.0507649681609935e-06 -0.64143339509646724 0.052926089377793764 -6.7689502333492411e-05 -0.7539896084590878 0.045058743447125738 3.0507649681609935e-06 -0.64143339509646724 -1.713766175307674e-08 2.9931275267926626e-06 -0.73808602912868715 1.4495302613406176e-07 8.7006961454740685e-06 -0.65072188888822591 -1.5581724089164685e-08 -1.8581668765500074e-05 -0.78726438749161431 -1.7137661738879865e-08 2.9931275267926495e-06 -0.73808602912868726 0.045058743447125738 3.0507649681609935e-06 -0.64143339509646724 0.042145918503168352 2.4505078658798128e-06 -0.78799402165110566 -1.5581724089164685e-08 -1.8581668765500074e-05 -0.78726438749161431 1.4495302613406176e-07 8.7006961454740685e-06 -0.65072188888822591 -1.2747921222878387e-08 3.6706925510356258e-06 -0.5538975231896246 -1.7137661738879865e-08 2.9931275267926495e-06 -0.73808602912868726 0.045058743447125738 3.0507649681609935e-06 -0.64143339509646724 0.087802723939917726 4.6561112139628391e-05 -0.63465226264019858 0.062801836825073135 2.3531137229713418e-05 -0.44585454532691188 1.4495302612241469e-07 8.7006961454742532e-06 -0.65072188888822591 0.052926089377793771 -6.7689502333492411e-05 -0.7539896084590878 1.4495302613406176e-07 8.7006961454740685e-06 -0.65072188888822591 -8.4010467881074747e-08 4.2735679625030288e-05 -0.46900288517890387 -1.2747921222878387e-08 3.6706925510356258e-06 -0.5538975231896246 0.045058743447125738 3.0507649681609935e-06 -0.64143339509646724 0.045058743447125738 3.0507649681609935e-06 -0.64143339509646724 0.087802723939917712 4.6561112139628323e-05 -0.63465226264019869 0.09092822252349464 3.6769035633150677e-06 -0.5563173522686522 0.052926089377793764 -6.7689502333492411e-05 -0.7539896084590878 0.045058743447125738 3.0507649681609935e-06 -0.64143339509646724 0.062801836825073176 2.3531137229713655e-05 -0.44585454532691188 0.087802723939917685 4.6561112139628242e-05 -0.63465226264019869 0.052926089377793764 -6.7689502333492411e-05 -0.7539896084590878 0.045058743447125738 3.0507649681609935e-06 -0.64143339509646724 1.4495302614701917e-07 8.7006961454740431e-06 -0.65072188888822591 0.062801836825073135 2.3531137229713509e-05 -0.44585454532691188 0.052926089377793757 -6.7689502333492411e-05 -0.7539896084590878 0.045058743447125738 3.0507649681609935e-06 -0.64143339509646724 0.09092822252349464 3.6769035633150656e-06 -0.5563173522686522 0.088714559714311317 3.2743813521109986e-06 -0.75458347298619 0.052926089377793764 -6.7689502333492411e-05 -0.7539896084590878 0.09092822252349464 3.6769035633150677e-06 -0.5563173522686522 0.045058743447125738 3.0507649681609935e-06 -0.64143339509646724 0.048170587907631471 3.3694521988298489e-06 -0.46065152029668144 0.062801836825073135 2.3531137229713509e-05 -0.44585454532691188 -8.4010467887722474e-08 4.2735679625030281e-05 -0.46900288517890387 0.048170587907631485 3.3694521988298404e-06 -0.46065152029668144 0.045058743447125738 3.0507649681609935e-06 -0.64143339509646724 0.062801836825073135 2.3531137229713509e-05 -0.44585454532691188 -1.2747921222878387e-08 3.6706925510356258e-06 -0.5538975231896246 -5.2333763241006951e-08 3.9606842544906115e-06 -0.36950380707032604 0.048170587907631471 3.3694521988298489e-06 -0.46065152029668144 -8.4010467887722474e-08 4.2735679625030281e-05 -0.46900288517890387 -8.4010467887722474e-08 4.2735679625030281e-05 -0.46900288517890387 0.048170587907631492 3.3694521988298455e-06 -0.46065152029668144 -1.2747921222878387e-08 3.6706925510356258e-06 -0.5538975231896246 0.045058743447125738 3.0507649681609935e-06 -0.64143339509646724 -8.4010467887722474e-08 4.2735679625030281e-05 -0.46900288517890387 0.045058743447125738 3.0507649681609935e-06 -0.64143339509646724 1.4495302613406176e-07 8.7006961454740685e-06 -0.65072188888822591 0.062801836825073135 2.3531137229713509e-05 -0.44585454532691188 -1.2934780963715798e-07 7.8457174595573884e-06 -0.55315402389124746 -8.4010467887722474e-08 4.2735679625030281e-05 -0.46900288517890387 1.4495302613406176e-07 8.7006961454740685e-06 -0.65072188888822591 0.062801836825073135 2.3531137229713509e-05 -0.44585454532691188 -1.2934780963715798e-07 7.8457174595573884e-06 -0.55315402389124746 1.449530261353317e-07 8.7006961454740702e-06 -0.65072188888822591 0.087802723939917726 4.6561112139628397e-05 -0.63465226264019847 0.062801836825073135 2.3531137229713509e-05 -0.44585454532691188 -1.2934780963715798e-07 7.8457174595573884e-06 -0.55315402389124746 0.087802723939917698 4.6561112139627882e-05 -0.63465226264019881 1.4495302613562311e-07 8.7006961454741312e-06 -0.65072188888822591 0.052926089377793764 -6.7689502333492547e-05 -0.7539896084590878 -1.2934780963715798e-07 7.8457174595573884e-06 -0.55315402389124746 1.4495302613406176e-07 8.7006961454740685e-06 -0.65072188888822591 1.0423730319175924e-07 -5.7941957632907027e-05 -0.67097262550711689 0.052926089377793785 -6.7689502333492411e-05 -0.7539896084590878 -1.2934780963715798e-07 7.8457174595573884e-06 -0.55315402389124746 0.06913739730573247 8.3361663623113944e-06 -0.41742202740064099 0.087802723939917726 4.6561112139628391e-05 -0.63465226264019858 0.062354886870220769 -1.9133164789290488e-05 -0.71773313753190848 -1.2934780963715798e-07 7.8457174595573884e-06 -0.55315402389124746 1.0423730319175924e-07 -5.7941957632907027e-05 -0.67097262550711689 0.087802723939917712 4.6561112139628357e-05 -0.63465226264019869 0.052926089377793778 -6.7689502333492425e-05 -0.75398960845908791 -1.2934780963715798e-07 7.8457174595573884e-06 -0.55315402389124746 8.3662783106459316e-08 -2.4623835107816691e-05 -0.62143541551740999 -9.7250019128041395e-08 3.1094769154118594e-05 -0.47947136153663089 0.06235488687022079 -1.9133164789290471e-05 -0.71773313753190837 1.0423730319175924e-07 -5.7941957632907027e-05 -0.67097262550711689 -1.2934780963715798e-07 7.8457174595573884e-06 -0.55315402389124746 0.087802723939917726 4.6561112139628391e-05 -0.63465226264019858 0.062354886870220776 -1.9133164789290474e-05 -0.71773313753190848 -1.2934780963715798e-07 7.8457174595573884e-06 -0.55315402389124746 0.087802723939917726 4.6561112139628391e-05 -0.63465226264019858 0.06913739730573247 8.3361663623113978e-06 -0.41742202740064099 0.062801836825073135 2.3531137229713509e-05 -0.44585454532691188 -1.2934780963715798e-07 7.8457174595573884e-06 -0.55315402389124746 -9.7250019124585606e-08 3.1094769154118601e-05 -0.47947136153663089 0.06913739730573247 8.3361663623114045e-06 -0.41742202740064105 0.06235488687022079 -1.9133164789290488e-05 -0.71773313753190848 1.3521218605470273e-09 3.0307725677809343e-06 -0.42159211815865394 -8.4010467887734504e-08 4.2735679625030281e-05 -0.46900288517890387 -1.2934780963715798e-07 7.8457174595573884e-06 -0.55315402389124746 0.062801836825073135 2.3531137229713509e-05 -0.44585454532691188 -1.2934780963715798e-07 7.8457174595573884e-06 -0.55315402389124746 -9.7250019124585606e-08 3.1094769154118601e-05 -0.47947136153663089 1.3521218605470273e-09 3.0307725677809343e-06 -0.42159211815865394 0.06913739730573247 8.3361663623114045e-06 -0.41742202740064105 1.0423730319175924e-07 -5.7941957632907027e-05 -0.67097262550711689 8.3662783106459316e-08 -2.4623835107816691e-05 -0.62143541551740999 -1.2934780963489105e-07 7.8457174595573918e-06 -0.55315402389124746 0.062354886870220776 -1.9133164789290474e-05 -0.71773313753190848 -1.4066314276337609e-08 -8.2356464035882591e-05 -0.77667010929272484 3.5767752320294524e-08 -9.6934280773459987e-05 -0.78568165470318585 0.047218193487112252 -7.4681086992791753e-08 -0.92347123514825336 0.062354886870220783 -1.9133164789290474e-05 -0.71773313753190837 1.0423730319175924e-07 -5.7941957632907027e-05 -0.67097262550711689 0.062354886870220776 -1.9133164789290457e-05 -0.71773313753190848 0.087802723939917726 4.6561112139628391e-05 -0.63465226264019858 0.052926089377793764 -6.7689502333492425e-05 -0.75398960845908791 0.047218193487112252 -7.4681086992791753e-08 -0.92347123514825336 0.062354886870220776 -1.9133164789290484e-05 -0.71773313753190848 3.5767752307805559e-08 -9.6934280773460001e-05 -0.78568165470318585 0.052926089377793771 -6.7689502333492398e-05 -0.7539896084590878 -1.4066314276337609e-08 -8.2356464035882591e-05 -0.77667010929272484 8.3662783106459316e-08 -2.4623835107816691e-05 -0.62143541551740999 1.0423730319175924e-07 -5.7941957632907027e-05 -0.67097262550711689 0.06235488687022079 -1.9133164789290457e-05 -0.71773313753190837 -1.4066314276337609e-08 -8.2356464035882591e-05 -0.77667010929272484 1.0423730319175924e-07 -5.7941957632907027e-05 -0.67097262550711689 3.5767752320294524e-08 -9.6934280773459987e-05 -0.78568165470318585 0.06235488687022079 -1.9133164789290477e-05 -0.71773313753190859 0.047218193487112252 -7.4681086992791753e-08 -0.92347123514825336 0.09557711666049569 2.0735418855577393e-05 -0.92640624195782217 0.062354886870220776 -1.9133164789290481e-05 -0.71773313753190848 0.052926089377793757 -6.7689502333492398e-05 -0.7539896084590878 1.0423730319175924e-07 -5.7941957632907027e-05 -0.67097262550711689 3.576775232003829e-08 -9.6934280773459987e-05 -0.78568165470318585 0.062354886870220769 -1.9133164789290488e-05 -0.71773313753190848 0.052926089377793771 -6.7689502333492411e-05 -0.7539896084590878 1.4495302613406176e-07 8.7006961454740685e-06 -0.65072188888822591 3.5767752320294524e-08 -9.6934280773459987e-05 -0.78568165470318585 1.0423730319041124e-07 -5.7941957632907027e-05 -0.67097262550711689 0.052926089377793764 -6.7689502333492411e-05 -0.7539896084590878 0.047218193487112252 -7.4681086992791753e-08 -0.92347123514825336 0.09557711666049569 2.0735418855577389e-05 -0.92640624195782217 0.051105196503439199 -1.1848751947575489e-05 -0.92350477239614059 0.062354886870220776 -1.9133164789290474e-05 -0.71773313753190848 0.047218193487112252 -7.4681086992791753e-08 -0.92347123514825336 0.051105196503439206 -1.1848751947575485e-05 -0.92350477239614071 -1.4066314276337609e-08 -8.2356464035882591e-05 -0.77667010929272484 0.062354886870220776 -1.9133164789290474e-05 -0.71773313753190848 0.09557711666049569 2.0735418855577389e-05 -0.92640624195782217 0.047218193487112252 -7.4681086992791753e-08 -0.92347123514825336 0.091528496030546275 -5.0518837817180004e-06 -0.92629541421400974 0.052926089377793764 -6.7689502333492411e-05 -0.7539896084590878 0.052926089377793764 -6.7689502333492411e-05 -0.7539896084590878 0.047218193487112238 -7.4681086992798688e-08 -0.92347123514825336 3.9733035879387353e-07 -2.9560264780708038e-05 -0.92225094001347796 3.5767752320294524e-08 -9.6934280773459987e-05 -0.78568165470318585 3.5767752320294524e-08 -9.6934280773459987e-05 -0.78568165470318585 -1.4066314276438901e-08 -8.2356464035882591e-05 -0.77667010929272484 0.047218193487112252 -7.4681086992791753e-08 -0.92347123514825336 3.3243723210273387e-07 -4.6498350083828471e-05 -0.92267434739650867 0.047218193487112252 -7.4681086992791753e-08 -0.92347123514825336 3.9733035878384286e-07 -2.9560264780708052e-05 -0.92225094001347796 3.5767752316411758e-08 -9.6934280773459987e-05 -0.78568165470318585 3.3243723210273387e-07 -4.6498350083828471e-05 -0.92267434739650867 3.3243723210273387e-07 -4.6498350083828471e-05 -0.92267434739650867 -1.4066314276337609e-08 -8.2356464035882591e-05 -0.77667010929272484 0.047218193487112252 -7.4681086992791753e-08 -0.92347123514825336 0.051105196503439206 -1.1848751947575485e-05 -0.92350477239614071 -1.4066314276337609e-08 -8.2356464035882591e-05 -0.77667010929272484 3.3243723210273387e-07 -4.6498350083828471e-05 -0.92267434739650867 4.2056678602576621e-07 -4.7519818975054619e-05 -0.92266514655459275 0.051105196503439206 -1.1848751947575485e-05 -0.92350477239614071 0.051105196503439206 -1.1848751947575485e-05 -0.92350477239614071 4.2056678602875381e-07 -4.7519818975054613e-05 -0.92266514655459264 -1.4066314267566645e-08 -8.2356464035882564e-05 -0.77667010929272495 2.5041468665982516e-08 1.728710790031186e-05 -0.7456892826207786 4.2056678602875381e-07 -4.7519818975054613e-05 -0.92266514655459264 0.051105196503439206 -1.1848751947575485e-05 -0.92350477239614071 0.050423241610543824 2.5420202397390108e-05 -0.92356736154056818 2.5041468683003895e-08 1.7287107900311894e-05 -0.7456892826207786 1.1720802282227984e-07 -2.6411681758746582e-05 -0.78716383907307175 2.5041468683003895e-08 1.7287107900311894e-05 -0.7456892826207786 0.050423241610543824 2.5420202397390101e-05 -0.92356736154056818 0.088650663904141128 -2.9789490873995842e-05 -0.63684074154042913 0.050423241610543824 2.5420202397390108e-05 -0.92356736154056818 0.088650663904141086 -2.9789490873995811e-05 -0.63684074154042902 2.5041468685592957e-08 1.7287107900311897e-05 -0.74568928262077872 0.062354886870220769 -1.9133164789290474e-05 -0.71773313753190848 -1.4066314276337609e-08 -8.2356464035882591e-05 -0.77667010929272484 2.5041468683896164e-08 1.7287107900311894e-05 -0.7456892826207786 8.3662783106459316e-08 -2.4623835107816691e-05 -0.62143541551740999 0.06235488687022079 -1.9133164789290457e-05 -0.71773313753190837 -1.4066314276337609e-08 -8.2356464035882591e-05 -0.77667010929272484 0.051105196503439199 -1.1848751947575494e-05 -0.92350477239614071 2.504146868403967e-08 1.7287107900311897e-05 -0.7456892826207786 0.062354886870220783 -1.9133164789290477e-05 -0.71773313753190848 2.5041468683003895e-08 1.7287107900311894e-05 -0.7456892826207786 0.050423241610543824 2.5420202397390108e-05 -0.92356736154056818 4.2056678602875381e-07 -4.7519818975054613e-05 -0.92266514655459264 3.7494866508882361e-07 3.2996294659882893e-05 -0.92259335929453956 0.051105196503439206 -1.1848751947575485e-05 -0.92350477239614071 0.097050215914735782 -3.3512094994174826e-05 -0.92659146434496098 0.050423241610543824 2.5420202397390108e-05 -0.92356736154056818 0.062354886870220776 -1.9133164789290474e-05 -0.71773313753190848 0.051105196503439206 -1.1848751947575485e-05 -0.92350477239614071 0.050423241610543824 2.5420202397390108e-05 -0.92356736154056818 2.504146869429799e-08 1.7287107900311894e-05 -0.7456892826207786 0.062354886870220762 -1.9133164789290474e-05 -0.71773313753190837 0.093297365436302945 5.9776120705987453e-05 -0.92626070015367656 0.050423241610543824 2.5420202397390108e-05 -0.92356736154056818 0.097050215914735782 -3.3512094994174826e-05 -0.92659146434496098 0.088650663904141072 -2.9789490873995804e-05 -0.63684074154042902 0.09557711666049569 2.0735418855577389e-05 -0.92640624195782217 0.097050215914735782 -3.3512094994174826e-05 -0.92659146434496098 0.051105196503439206 -1.1848751947575485e-05 -0.92350477239614071 0.062354886870220776 -1.9133164789290474e-05 -0.71773313753190848 0.13368662578793292 8.4534199817258104e-05 -0.9299364785791624 0.088650663904141044 -2.9789490873995747e-05 -0.63684074154042902 0.1401367305986235 9.3497076398336421e-06 -0.69885101057905874 0.14147999550847332 -5.9842303929500471e-05 -0.72703660064346232 0.097050215914735782 -3.3512094994174826e-05 -0.92659146434496098 0.14013673059862353 9.3497076398336472e-06 -0.69885101057905874 0.088650663904141072 -2.9789490873995804e-05 -0.63684074154042902 0.06235488687022079 -1.9133164789290474e-05 -0.71773313753190848 0.093297365436302945 5.9776120705987453e-05 -0.92626070015367656 0.097050215914735782 -3.3512094994174826e-05 -0.92659146434496098 0.13368662578793292 8.4534199817258104e-05 -0.9299364785791624 0.088650663904141058 -2.9789490873995804e-05 -0.63684074154042902 0.13368662578793292 8.4534199817258104e-05 -0.9299364785791624 0.093297365436302959 5.9776120705987447e-05 -0.92626070015367667 0.088650663904141072 -2.9789490873995804e-05 -0.63684074154042902 0.14147999550847329 -5.9842303929500512e-05 -0.72703660064346198 0.097050215914735782 -3.3512094994174826e-05 -0.92659146434496098 0.13368662578793292 8.4534199817258104e-05 -0.9299364785791624 0.088650663904141072 -2.9789490873995804e-05 -0.63684074154042902 0.1401367305986235 9.3497076398336404e-06 -0.69885101057905874 0.097050215914735782 -3.3512094994174826e-05 -0.92659146434496098 0.088650663904141072 -2.9789490873995804e-05 -0.63684074154042902 0.050423241610543824 2.5420202397390108e-05 -0.92356736154056818 0.062354886870220796 -1.9133164789290477e-05 -0.71773313753190859 0.097050215914735782 -3.3512094994174826e-05 -0.92659146434496098 0.15133292209823865 2.9628607284902461e-05 -0.93209151605407858 0.13368662578793292 8.4534199817258104e-05 -0.9299364785791624 0.1401367305986235 9.3497076398336421e-06 -0.69885101057905874 0.088650663904141072 -2.9789490873995804e-05 -0.63684074154042902 0.1401367305986235 9.3497076398336421e-06 -0.69885101057905874 0.13835378341870905 7.3495415128947399e-06 -0.46557763203614277 0.062354886870220769 -1.9133164789290471e-05 -0.71773313753190837 0.06913739730573247 8.3361663623114045e-06 -0.41742202740064105 0.13873609488714281 -8.767162896484539e-06 -0.49242307865671836 0.088650663904141044 -2.9789490873995811e-05 -0.63684074154042891 0.061772617252377003 -2.7856616186470621e-05 -0.46260507631170344 0.088650663904141072 -2.9789490873995804e-05 -0.63684074154042902 0.13873609488714284 -8.7671628964845407e-06 -0.49242307865671847 0.14013673059862347 9.3497076398336353e-06 -0.69885101057905874 0.14147999550847329 -5.9842303929500491e-05 -0.72703660064346209 0.13835378341870905 7.349541512894739e-06 -0.46557763203614277 0.088650663904141072 -2.9789490873995804e-05 -0.63684074154042902 0.06913739730573247 8.3361663623114045e-06 -0.41742202740064105 0.13873609488714284 -8.7671628964845407e-06 -0.49242307865671847 0.13835378341870905 7.349541512894739e-06 -0.46557763203614277 0.14013673059862353 9.3497076398336506e-06 -0.69885101057905874 0.088650663904141086 -2.9789490873995801e-05 -0.63684074154042902 0.13873609488714284 -8.7671628964845407e-06 -0.49242307865671847 0.13835378341870905 7.349541512894739e-06 -0.46557763203614277 0.06913739730573247 8.3361663623114045e-06 -0.41742202740064105 0.088650663904141072 -2.9789490873995804e-05 -0.63684074154042891 0.062354886870220776 -1.9133164789290474e-05 -0.71773313753190848 0.062354886870220776 -1.9133164789290474e-05 -0.71773313753190848 0.088650663904141072 -2.9789490873995804e-05 -0.63684074154042902 -9.7250019123111292e-08 3.1094769154118601e-05 -0.47947136153663089 0.069137397305732443 8.3361663623114113e-06 -0.41742202740064099 -9.2704826910262212e-10 -3.2294982111303085e-06 -0.42299037606511025 0.069137397305732456 8.3361663623114079e-06 -0.41742202740064105 -7.9208873024379617e-09 -5.0295148486182404e-06 -0.56348729104536055 0.061772617252376982 -2.7856616186470628e-05 -0.46260507631170344 -7.9208873031922098e-09 -5.0295148486182396e-06 -0.56348729104536055 -9.7250019124585606e-08 3.1094769154118601e-05 -0.47947136153663089 0.088650663904141058 -2.9789490873995774e-05 -0.63684074154042902 0.06913739730573247 8.3361663623114045e-06 -0.41742202740064105 0.062354886870220776 -1.9133164789290474e-05 -0.71773313753190848 -7.9208872806028486e-09 -5.029514848618226e-06 -0.56348729104536044 -9.7250019124585606e-08 3.1094769154118601e-05 -0.47947136153663089 0.088650663904141072 -2.9789490873995804e-05 -0.63684074154042902 -7.9208873031922098e-09 -5.0295148486182396e-06 -0.56348729104536055 0.06913739730573247 8.3361663623114011e-06 -0.41742202740064105 0.088650663904141072 -2.9789490873995804e-05 -0.63684074154042902 0.061772617252376989 -2.7856616186470631e-05 -0.46260507631170339 0.062354886870220776 -1.9133164789290474e-05 -0.71773313753190848 -9.7250019124585606e-08 3.1094769154118601e-05 -0.47947136153663089 -7.9208873053850557e-09 -5.0295148486182446e-06 -0.56348729104536055 8.3662783106459316e-08 -2.4623835107816691e-05 -0.62143541551740999 -2.7707138595191572e-08 -5.8660993787445908e-05 -0.64014249438074144 -7.9208873031922098e-09 -5.0295148486182396e-06 -0.56348729104536055 0.088650663904141072 -2.9789490873995801e-05 -0.63684074154042891 0.061772617252376982 -2.7856616186470628e-05 -0.46260507631170344 -7.9208873031922098e-09 -5.0295148486182396e-06 -0.56348729104536055 2.5041468683003895e-08 1.7287107900311894e-05 -0.7456892826207786 0.088650663904141072 -2.9789490873995804e-05 -0.63684074154042902 0.062354886870220776 -1.9133164789290467e-05 -0.71773313753190848 -2.7707138595191572e-08 -5.8660993787445908e-05 -0.64014249438074144 -7.9208873031922098e-09 -5.0295148486182396e-06 -0.56348729104536055 2.5041468684560983e-08 1.7287107900311894e-05 -0.7456892826207786 0.088650663904141072 -2.9789490873995804e-05 -0.63684074154042902 -9.2704826910262212e-10 -3.2294982111303085e-06 -0.42299037606511025 -9.7250019124585606e-08 3.1094769154118601e-05 -0.47947136153663089 -7.9208873031922098e-09 -5.0295148486182396e-06 -0.56348729104536055 0.06913739730573247 8.3361663623114045e-06 -0.41742202740064105 -7.9208873031922098e-09 -5.0295148486182396e-06 -0.56348729104536055 8.3662783107488554e-08 -2.4623835107816691e-05 -0.62143541551740999 2.5041468685750717e-08 1.7287107900311897e-05 -0.7456892826207786 0.062354886870220741 -1.9133164789290481e-05 -0.71773313753190837 -7.9208873031922098e-09 -5.0295148486182396e-06 -0.56348729104536055 -6.4076246431837953e-08 -3.1858880223617131e-05 -0.47055589968940215 -9.2704827020075391e-10 -3.2294982111303081e-06 -0.42299037606511025 0.061772617252376996 -2.7856616186470628e-05 -0.46260507631170344 -2.7707138595191572e-08 -5.8660993787445908e-05 -0.64014249438074144 0.042188484146312613 -2.4561828224408769e-06 -0.78817572576511352 0.053221461578632646 -3.2012007343295846e-06 -0.63174656960803977 0.088650663904141072 -2.9789490873995804e-05 -0.63684074154042902 -2.7707138595191572e-08 -5.8660993787445908e-05 -0.64014249438074144 0.088650663904141072 -2.9789490873995804e-05 -0.63684074154042902 0.053221461578632653 -3.2012007343295833e-06 -0.63174656960803954 0.061772617252376982 -2.7856616186470628e-05 -0.46260507631170344 -2.7707138595191572e-08 -5.8660993787445908e-05 -0.64014249438074144 0.053221461578632646 -3.201200734329588e-06 -0.63174656960803965 -6.4076246431837953e-08 -3.1858880223617131e-05 -0.47055589968940215 0.061772617252376982 -2.7856616186470628e-05 -0.46260507631170344 -2.7707138595191572e-08 -5.8660993787445908e-05 -0.64014249438074144 -6.4076246431837953e-08 -3.1858880223617131e-05 -0.47055589968940215 -7.9208873051366021e-09 -5.029514848618237e-06 -0.56348729104536055 0.061772617252376982 -2.7856616186470628e-05 -0.46260507631170344 6.0591245974901311e-08 -3.4875656932479882e-06 -0.73812314775058263 1.1253994093251511e-08 -4.1394854402891021e-06 -0.55396045718926468 -2.7707138595191572e-08 -5.8660993787445908e-05 -0.64014249438074144 0.053221461578632653 -3.2012007343295821e-06 -0.63174656960803965 1.1253994093251511e-08 -4.1394854402891021e-06 -0.55396045718926468 -2.7707138595191572e-08 -5.8660993787445908e-05 -0.64014249438074144 0.053221461578632653 -3.2012007343295821e-06 -0.63174656960803965 -6.4076246431837953e-08 -3.1858880223617131e-05 -0.47055589968940215 0.053221461578632653 -3.2012007343295821e-06 -0.63174656960803965 0.045812721017085528 -3.0541687720628601e-06 -0.45171002892720091 1.1253994093251511e-08 -4.1394854402891021e-06 -0.55396045718926468 -6.4076246431837953e-08 -3.1858880223617131e-05 -0.47055589968940215 0.053221461578632653 -3.2012007343295821e-06 -0.63174656960803965 0.08670734933347872 -2.5630557916957108e-06 -0.50203959763700035 0.045812721017085528 -3.054168772062861e-06 -0.45171002892720091 0.061772617252376982 -2.7856616186470628e-05 -0.46260507631170344 -6.4076246431837953e-08 -3.1858880223617131e-05 -0.47055589968940215 0.053221461578632646 -3.2012007343295812e-06 -0.63174656960803965 0.045812721017085528 -3.0541687720628601e-06 -0.45171002892720091 0.061772617252376989 -2.7856616186470628e-05 -0.46260507631170339 0.086063129537817654 -3.0316289866347108e-06 -0.76916896221820508 0.11123856758844164 -3.4569093515670788e-06 -0.62266681493408671 0.053221461578632653 -3.2012007343295825e-06 -0.63174656960803965 0.088650663904141072 -2.9789490873995804e-05 -0.63684074154042902 0.08670734933347872 -2.5630557916957108e-06 -0.50203959763700035 0.088650663904141086 -2.9789490873995798e-05 -0.63684074154042913 0.13873609488714281 -8.7671628964845458e-06 -0.49242307865671858 0.061772617252376982 -2.7856616186470625e-05 -0.46260507631170339 0.11123856758844164 -3.4569093515670788e-06 -0.62266681493408671 0.08670734933347872 -2.5630557916957104e-06 -0.50203959763700035 0.088650663904141072 -2.9789490873995804e-05 -0.63684074154042891 0.13873609488714284 -8.7671628964845407e-06 -0.49242307865671842 0.11123856758844164 -3.4569093515670788e-06 -0.62266681493408671 0.088650663904141072 -2.9789490873995804e-05 -0.63684074154042902 0.086063129537817654 -3.0316289866347108e-06 -0.76916896221820508 0.14147999550847329 -5.9842303929500491e-05 -0.72703660064346209 0.053221461578632653 -3.2012007343295821e-06 -0.63174656960803965 0.088650663904141072 -2.9789490873995811e-05 -0.63684074154042902 0.08670734933347872 -2.5630557916957108e-06 -0.50203959763700035 0.061772617252376982 -2.7856616186470628e-05 -0.46260507631170344 0.1667482401614637 -3.5560362276633642e-06 -0.63099979326043054 0.13873609488714281 -8.7671628964845323e-06 -0.49242307865671842 0.11123856758844164 -3.4569093515670788e-06 -0.62266681493408671 0.14147999550847329 -5.9842303929500491e-05 -0.72703660064346209 0.08670734933347872 -2.5630557916957108e-06 -0.50203959763700035 0.05322146157863266 -3.2012007343295821e-06 -0.63174656960803965 0.11123856758844164 -3.4569093515670784e-06 -0.62266681493408671 0.088650663904141072 -2.9789490873995804e-05 -0.63684074154042902 0.11123856758844164 -3.4569093515670788e-06 -0.62266681493408671 0.13873609488714284 -8.7671628964845323e-06 -0.49242307865671842 0.088650663904141086 -2.9789490873995791e-05 -0.63684074154042891 0.14147999550847329 -5.9842303929500491e-05 -0.72703660064346209 0.11123856758844164 -3.4569093515670788e-06 -0.62266681493408671 0.1667482401614637 -3.5560362276633642e-06 -0.63099979326043054 0.13802827334935194 -3.1236755927263513e-06 -0.44728843470862106 0.13873609488714284 -8.7671628964845424e-06 -0.49242307865671853 0.11123856758844164 -3.4569093515670788e-06 -0.62266681493408671 0.13802827334935194 -3.1236755927263509e-06 -0.44728843470862112 0.08670734933347872 -2.5630557916957108e-06 -0.50203959763700035 0.13873609488714284 -8.7671628964845424e-06 -0.49242307865671853 0.14116362923418191 -3.2234399062628475e-06 -0.77072187952144666 0.1667482401614637 -3.5560362276633637e-06 -0.63099979326043054 0.11123856758844164 -3.456909351567078e-06 -0.62266681493408671 0.14147999550847329 -5.9842303929500491e-05 -0.72703660064346209 0.086063129537817654 -3.0316289866347108e-06 -0.76916896221820508 0.043847672199327052 3.227691014859275e-05 -0.92328969759880197 0.093297365436302945 5.9776120705987453e-05 -0.92626070015367656 0.088650663904141072 -2.9789490873995804e-05 -0.63684074154042902 0.086063129537817654 -3.0316289866347108e-06 -0.76916896221820508 0.088650663904141072 -2.9789490873995804e-05 -0.63684074154042902 0.093297365436302931 5.977612070598746e-05 -0.92626070015367656 0.14147999550847326 -5.9842303929500478e-05 -0.72703660064346209 0.086063129537817654 -3.0316289866347108e-06 -0.76916896221820508 0.093297365436302945 5.9776120705987481e-05 -0.92626070015367656 0.14116362923418191 -3.2234399062628475e-06 -0.77072187952144666 0.14147999550847329 -5.9842303929500457e-05 -0.72703660064346209 0.11123856758844164 -3.4569093515670788e-06 -0.62266681493408671 0.086063129537817654 -3.0316289866347108e-06 -0.76916896221820508 0.14116362923418191 -3.2234399062628475e-06 -0.77072187952144666 0.14147999550847329 -5.9842303929500491e-05 -0.72703660064346209 0.093297365436302945 5.9776120705987453e-05 -0.92626070015367656 0.11748526251749285 -3.769390820354892e-06 -0.92814798668935239 0.14116362923418191 -3.2234399062628475e-06 -0.77072187952144666 0.14834307987082937 5.4984590054954394e-05 -0.93176181695507032 0.11748526251749285 -3.769390820354892e-06 -0.92814798668935239 0.14116362923418191 -3.2234399062628475e-06 -0.77072187952144666 0.086063129537817654 -3.0316289866347108e-06 -0.76916896221820508 0.093297365436302945 5.9776120705987453e-05 -0.92626070015367656 0.093297365436302945 5.9776120705987453e-05 -0.92626070015367656 0.14834307987082937 5.4984590054954394e-05 -0.93176181695507032 0.14116362923418191 -3.2234399062628475e-06 -0.77072187952144666 0.14147999550847329 -5.9842303929500464e-05 -0.72703660064346209 0.13368662578793292 8.4534199817258104e-05 -0.9299364785791624 0.14834307987082937 5.4984590054954394e-05 -0.93176181695507032 0.093297365436302945 5.9776120705987453e-05 -0.92626070015367656 0.14147999550847329 -5.9842303929500491e-05 -0.72703660064346209 0.11748526251749285 -3.769390820354892e-06 -0.92814798668935239 0.086063129537817654 -3.0316289866347108e-06 -0.76916896221820508 0.05947423071866325 -3.0203871981945366e-06 -0.9239125402367302 0.093297365436302945 5.9776120705987453e-05 -0.92626070015367656 1.1720802282227984e-07 -2.6411681758746582e-05 -0.78716383907307175 -2.7707138592747124e-08 -5.8660993787445901e-05 -0.64014249438074133 2.5041468683003895e-08 1.7287107900311894e-05 -0.7456892826207786 0.088650663904141086 -2.9789490873995804e-05 -0.63684074154042891 0.050423241610543824 2.5420202397390108e-05 -0.92356736154056818 0.093297365436302945 5.9776120705987453e-05 -0.92626070015367645 0.043847672199327052 3.227691014859275e-05 -0.92328969759880197 0.088650663904141072 -2.9789490873995804e-05 -0.63684074154042902 0.043847672199327052 3.227691014859275e-05 -0.92328969759880197 0.059474230718663243 -3.0203871981945409e-06 -0.9239125402367302 0.042188484146312606 -2.4561828224408807e-06 -0.78817572576511352 0.086063129537817654 -3.0316289866347108e-06 -0.76916896221820508 0.043847672199327052 3.227691014859275e-05 -0.92328969759880197 0.086063129537817681 -3.0316289866347096e-06 -0.76916896221820508 0.042188484146312606 -2.4561828224408807e-06 -0.78817572576511352 0.0886506639041411 -2.9789490873995794e-05 -0.63684074154042902 0.043847672199327052 3.227691014859275e-05 -0.92328969759880197 0.05947423071866325 -3.0203871981945366e-06 -0.9239125402367302 0.08606312953781764 -3.0316289866347129e-06 -0.76916896221820508 0.093297365436302945 5.9776120705987453e-05 -0.92626070015367656 0.053221461578632653 -3.2012007343295821e-06 -0.63174656960803965 0.042188484146312606 -2.4561828224408807e-06 -0.78817572576511352 0.086063129537817654 -3.0316289866347108e-06 -0.76916896221820508 0.088650663904141072 -2.9789490873995811e-05 -0.63684074154042902 1.1720802282227984e-07 -2.6411681758746582e-05 -0.78716383907307175 0.050423241610543804 2.5420202397390081e-05 -0.92356736154056818 0.043847672199327066 3.227691014859275e-05 -0.92328969759880197 0.088650663904141086 -2.9789490873995808e-05 -0.63684074154042891 0.043847672199327052 3.227691014859275e-05 -0.92328969759880197 0.042188484146312606 -2.4561828224408807e-06 -0.78817572576511352 1.1720802282227984e-07 -2.6411681758746582e-05 -0.78716383907307175 0.088650663904141072 -2.9789490873995804e-05 -0.63684074154042902 -2.7707138595191572e-08 -5.8660993787445908e-05 -0.64014249438074144 1.1720802282227984e-07 -2.6411681758746582e-05 -0.78716383907307175 0.042188484146312606 -2.4561828224408815e-06 -0.78817572576511352 0.088650663904141072 -2.9789490873995801e-05 -0.63684074154042891 3.7494866508882361e-07 3.2996294659882893e-05 -0.92259335929453956 2.5041468683003895e-08 1.7287107900311894e-05 -0.7456892826207786 0.050423241610543824 2.5420202397390108e-05 -0.92356736154056818 1.1720802282227984e-07 -2.6411681758746582e-05 -0.78716383907307175 0.043847672199327052 3.227691014859275e-05 -0.92328969759880197 3.7494866508694532e-07 3.2996294659882879e-05 -0.92259335929453945 0.050423241610543824 2.5420202397390108e-05 -0.92356736154056818 1.1720802282227984e-07 -2.6411681758746582e-05 -0.78716383907307175 -2.7707138595191572e-08 -5.8660993787445908e-05 -0.64014249438074144 0.042188484146312613 -2.4561828224408671e-06 -0.78817572576511352 6.0591245974901311e-08 -3.4875656932479882e-06 -0.73812314775058263 0.053221461578632653 -3.2012007343296058e-06 -0.63174656960803988 1.1720802282227984e-07 -2.6411681758746582e-05 -0.78716383907307175 0.042188484146312613 -2.4561828224408853e-06 -0.78817572576511363 6.0591245974901311e-08 -3.4875656932479869e-06 -0.73812314775058263 -2.7707138595191572e-08 -5.8660993787445908e-05 -0.64014249438074144 2.567575491589914e-07 -3.2370113456117764e-06 -0.92211831381828413 3.7494866508882372e-07 3.2996294659882906e-05 -0.92259335929453967 0.043847672199327052 3.227691014859275e-05 -0.92328969759880197 1.1720802282227984e-07 -2.6411681758746582e-05 -0.78716383907307175 0.042188484146312606 -2.4561828224408807e-06 -0.78817572576511352 6.0591245974586506e-08 -3.487565693247992e-06 -0.73812314775058263 2.567575491589914e-07 -3.2370113456117764e-06 -0.92211831381828413 1.1720802282227984e-07 -2.6411681758746582e-05 -0.78716383907307175 2.567575491589914e-07 -3.2370113456117764e-06 -0.92211831381828413 0.043847672199327052 3.2276910148592757e-05 -0.92328969759880208 0.05947423071866325 -3.0203871981945366e-06 -0.9239125402367302 0.042188484146312606 -2.4561828224408807e-06 -0.78817572576511352 0.042188484146312606 -2.4561828224408807e-06 -0.78817572576511352 2.567575491589914e-07 -3.2370113456117764e-06 -0.92211831381828413 0.043847672199327052 3.227691014859275e-05 -0.92328969759880197 1.1720802282227984e-07 -2.6411681758746582e-05 -0.78716383907307175 
</DataArray>
</PointData>
<CellData Scalars="" Vectors="" Tensors="stress,">
<DataArray type="Float64" Name="stress" NumberOfComponents="9" format="ascii">
0.048973977254835876 0.00013765249203641551 0.00035541158685737729 0.00013765249203641551 -0.18076791401692122 -7.0035542053289044e-05 0.00035541158685737729 -7.0035542053289044e-05 -0.95301320631407116 0.051828681269645738 3.2084510793395665e-05 8.3635459299234579e-06 3.2084510793395665e-05 -0.17941413105845405 6.1216433208164292e-06 8.3635459299234579e-06 6.1216433208164292e-06 -0.94863223185416756 0.051263265210223952 5.6812909993834867e-05 0.00014195566764299501 5.6812909993834867e-05 -0.17979935507663597 1.5236725396945454e-05 0.00014195566764299501 1.5236725396945454e-05 -0.95038514161417109 0.051826012149133516 2.3207357690374974e-06 -0.00030061274061538024 2.3207357690374974e-06 -0.1795818256321372 0.00035463723175986232 -0.00030061274061538024 0.00035463723175986232 -0.9495114186060577 0.051786768180172194 -2.7471553508038332e-05 -0.0012459663162730505 -2.7471553508038332e-05 -0.17939265073204541 -0.00019393605127904223 -0.0012459663162730505 -0.00019393605127904223 -0.94928376024780992 0.049364079214794243 0.00018012491779020016 -0.00063566926871069795 0.00018012491779020016 -0.18036103492873362 -0.00027671520372002378 -0.00063566926871069795 -0.00027671520372002378 -0.95083923831895545 0.051734229949419008 -2.7668990343627072e-05 -0.00027912602827004362 -2.7668990343627072e-05 -0.17956119356185041 0.00031991680910467557 -0.00027912602827004362 0.00031991680910467557 -0.94947378050823616 0.049290463960385111 0.00022664508427239422 -0.00068592603459365076 0.00022664508427239422 -0.18046355120966726 -0.00021335914816261736 -0.00068592603459365076 -0.00021335914816261736 -0.95139313372673817 0.051307286070973263 -2.3136887109090715e-05 -0.00091539498134601827 -2.3136887109090715e-05 -0.17984507124402899 -0.00011091391328732492 -0.00091539498134601827 -0.00011091391328732492 -0.95109758233011488 0.051342912331335686 -4.3541433063409496e-05 -0.00084269728176339376 -4.3541433063409496e-05 -0.17996919060355548 -0.00025199415620244525 -0.00084269728176339376 -0.00025199415620244525 -0.95097717517149394 0.051255751788436887 -0.00014322501694243305 -0.00066232184993064713 -0.00014322501694243305 -0.17989016176454298 -0.00031202587494161271 -0.00066232184993064713 -0.00031202587494161271 -0.95039533707598767 0.051838063326496153 9.975799251135827e-05 -0.00016914230427300669 9.975799251135827e-05 -0.17976785193053835 0.00021552880428699073 -0.00016914230427300669 0.00021552880428699073 -0.95044399238858146 0.052480344168860771 8.3071412630964456e-06 -0.00063439657887753853 8.3071412630964456e-06 -0.17945131558819516 0.00032590401000190394 -0.00063439657887753853 0.00032590401000190394 -0.94945303389515256 0.051819928330112244 5.3424655243777892e-05 -6.3195087118689264e-05 5.3424655243777892e-05 -0.17930579819926867 -0.0001678847496676128 -6.3195087118689264e-05 -0.0001678847496676128 -0.94878398838418931 0.051724281801018672 3.7176733350164677e-05 9.8728312506132521e-06 3.7176733350164677e-05 -0.17943557543464034 2.9477475001411552e-05 9.8728312506132521e-06 2.9477475001411552e-05 -0.94909370400182869 0.049069221685938247 -0.00011965932195122892 -8.3559904025926415e-05 -0.00011965932195122892 -0.18078102793247319 -1.4528544530383963e-05 -8.3559904025926415e-05 -1.4528544530383963e-05 -0.95327534054640706 0.049449992025192291 -0.0001618234135729128 -0.0010322646257633905 -0.0001618234135729128 -0.18042962086023639 -0.00033590693843138508 -0.0010322646257633905 -0.00033590693843138508 -0.95171494341457186 0.046732375266140769 0.00038601420570442155 0.00046794237596979187 0.00038601420570442155 -0.18130684292189603 6.8646740467076069e-06 0.00046794237596979187 6.8646740467076069e-06 -0.95385419302986718 0.048851539041117303 0.00026889918806471068 0.00028134637914958849 0.00026889918806471068 -0.1808733369789198 3.2025259109613735e-05 0.00028134637914958849 3.2025259109613735e-05 -0.95314970509941577 0.044314772639868147 0.00022289019564175074 -0.0019952694242623137 0.00022289019564175074 -0.18201778998571688 1.6413896587722313e-05 -0.0019952694242623137 1.6413896587722313e-05 -0.95433239877697806 0.04218351898674591 0.00042312881766368583 0.00054304196939224114 0.00042312881766368583 -0.18340980822766501 -0.00017519593182185877 0.00054304196939224114 -0.00017519593182185877 -0.95944953880247097 0.042129588543054097 0.00034800527854975317 0.00057485864600083218 0.00034800527854975317 -0.18347715566891259 -4.5537140381446445e-05 0.00057485864600083218 -4.5537140381446445e-05 -0.95953738812008182 0.042099182485691451 -0.00019660865196730875 -0.00021741215633447715 -0.00019660865196730875 -0.18325743771502168 1.595793147002092e-06 -0.00021741215633447715 1.595793147002092e-06 -0.95904439825232479 0.042544332947495656 -0.00024490245631291206 -0.0015551886267545778 -0.00024490245631291206 -0.18266640561276115 -0.00061084991057343664 -0.0015551886267545778 -0.00061084991057343664 -0.95646405418632408 0.042506313527497647 0.00035602126160732915 -0.0010224749938482769 0.00035602126160732915 -0.18332732855265169 -0.00012314832341187021 -0.0010224749938482769 -0.00012314832341187021 -0.95908125978509606 0.043082699356083609 0.00041941635905044555 -0.00086846417236331741 0.00041941635905044555 -0.18261811343080436 -0.00063277475573453312 -0.00086846417236331741 -0.00063277475573453312 -0.95630753486329934 0.047993937200678564 -0.00039849524547920956 -0.0032457285411618964 -0.00039849524547920956 -0.18106001606195543 -0.00042422841913314357 -0.0032457285411618964 -0.00042422841913314357 -0.95288149312838666 0.04972835487215066 0.0001059976762644524 -0.0015413483420598784 0.0001059976762644524 -0.18032441930306475 0.00029113260276800168 -0.0015413483420598784 0.00029113260276800168 -0.95095843874221497 0.047651889444464968 5.157179509741999e-05 -0.0040546036454977008 5.157179509741999e-05 -0.1814777284729498 -6.6293142252510373e-05 -0.0040546036454977008 -6.6293142252510373e-05 -0.95468927170993056 0.043023146520834693 0.00059984197847175798 -0.0025124181467781614 0.00059984197847175798 -0.18320426379783222 0.00010548091403073112 -0.0025124181467781614 0.00010548091403073112 -0.95897852145965001 0.044456836313214815 0.0002177494068160362 -0.0019223040897892729 0.0002177494068160362 -0.18287678532856602 -0.00031049802563320322 -0.0019223040897892729 -0.00031049802563320322 -0.95850463974162403 0.049279257908229637 7.3597584371649805e-05 -0.0011218127980403558 7.3597584371649805e-05 -0.18087544977991771 0.00011124408615753589 -0.0011218127980403558 0.00011124408615753589 -0.95331578463339639 0.044538065582439723 6.0877206951491541e-05 -0.0015721525359109756 6.0877206951491541e-05 -0.18205229310165194 9.9742889354477102e-05 -0.0015721525359109756 9.9742889354477102e-05 -0.9544654280051299 0.043476473498202599 0.00038872682494043095 -0.0023122542902932475 0.00038872682494043095 -0.18224721195369586 0.00075310949635776225 -0.0023122542902932475 0.00075310949635776225 -0.95466574182389485 0.044388233115000286 0.0006037922567825758 -0.0034228848095630426 0.0006037922567825758 -0.18190229767518717 -0.00036625191948991276 -0.0034228848095630426 -0.00036625191948991276 -0.95378480907617735 0.043125235957848784 0.00059452061168061877 -0.0024399855724971942 0.00059452061168061877 -0.18311818768734045 -1.7063121051208441e-05 -0.0024399855724971942 -1.7063121051208441e-05 -0.95859922701580036 0.051292218997231798 7.8901216862821966e-05 -0.0017511389203914152 7.8901216862821966e-05 -0.18021634284694943 0.00016168146387940396 -0.0017511389203914152 0.00016168146387940396 -0.95180912134228635 0.050383958153144726 0.00027487467108738736 -0.0020399621161207304 0.00027487467108738736 -0.17996461369281791 -4.7167028239369913e-05 -0.0020399621161207304 -4.7167028239369913e-05 -0.94964412242435925 0.051968782715003797 -0.00020352584434304082 -0.0011777872926248545 -0.00020352584434304082 -0.17952536524821985 -0.00021921214874415229 -0.0011777872926248545 -0.00021921214874415229 -0.94924841117784509 0.052838524784814711 2.4785179180064734e-05 -0.00081600023028660651 2.4785179180064734e-05 -0.17932438431710584 -0.00035885503023114218 -0.00081600023028660651 -0.00035885503023114218 -0.94893872229787224 0.051932324191909629 -0.00025461391347546362 -0.00025800884978997157 -0.00025461391347546362 -0.17962291509255046 -0.00021805507996566081 -0.00025800884978997157 -0.00021805507996566081 -0.94970541598343106 0.054716386230043823 2.0285177949283448e-06 -0.0010857726219080099 2.0285177949283448e-06 -0.17863212513079907 0.00024749218171016274 -0.0010857726219080099 0.00024749218171016274 -0.94701931145896934 0.053522094601490711 0.00026217210428043408 -0.00019469843812375265 0.00026217210428043408 -0.17911248596138885 0.00019290043840475279 -0.00019469843812375265 0.00019290043840475279 -0.94871528524830628 0.054615217143294537 2.1600966157514144e-05 -0.00099043324509229258 2.1600966157514144e-05 -0.17868498891832407 0.00033032350720996195 -0.00099043324509229258 0.00033032350720996195 -0.94747322381805588 0.052620699377197044 9.5736565294889189e-07 -0.00076337202119025616 9.5736565294889189e-07 -0.17932606774308885 0.00020339429390275887 -0.00076337202119025616 0.00020339429390275887 -0.94887579251066212 0.054387029525225491 -4.3284541448411688e-05 -0.001676777684801789 -4.3284541448411688e-05 -0.17879213775252895 -0.00034085675682782313 -0.001676777684801789 -0.00034085675682782313 -0.94775065221492549 0.054452897824135649 -1.2596413169873097e-05 -0.0017481804550326663 -1.2596413169873097e-05 -0.17844741724674595 -1.6913960262598948e-05 -0.0017481804550326663 -1.6913960262598948e-05 -0.94757200460641178 0.051885801828653516 -1.7383887496080125e-05 -0.0013357145586755936 -1.7383887496080125e-05 -0.17934432151617977 1.3219249418217061e-05 -0.0013357145586755936 1.3219249418217061e-05 -0.94883673818340675 0.053312883797668187 4.1405475487783703e-05 -0.00025027498651764013 4.1405475487783703e-05 -0.1791505321023551 -9.3176818543705409e-05 -0.00025027498651764013 -9.3176818543705409e-05 -0.94970604236566736 0.0520149082208613 -1.446193695373695e-05 -0.0013281770063286458 -1.446193695373695e-05 -0.17922528965951934 8.0292994374508986e-05 -0.0013281770063286458 8.0292994374508986e-05 -0.94831033258091102 0.051739786409281951 0.00042853680918273539 -0.00072559617350529543 0.00042853680918273539 -0.17971976379874632 0.00024266874377337766 -0.00072559617350529543 0.00024266874377337766 -0.95094300922234165 0.052325805083120347 0.00058093460442994551 -0.0010477297101362526 0.00058093460442994551 -0.17922394404633313 -0.00028566068974600345 -0.0010477297101362526 -0.00028566068974600345 -0.94885466556354148 0.051737922158966443 5.0581651666269594e-05 -0.0012696531117302456 5.0581651666269594e-05 -0.17953556272536861 0.00048534961810753341 -0.0012696531117302456 0.00048534961810753341 -0.94957543550694534 0.052808284564643149 -0.00093419444722969724 -0.00071468339240066125 -0.00093419444722969724 -0.17911793204464133 0.00045335600655915798 -0.00071468339240066125 0.00045335600655915798 -0.9489586482293384 0.054022751849883255 -2.7484903351330517e-05 -0.0021291013314300722 -2.7484903351330517e-05 -0.1784697862286721 0.00055124583686616546 -0.0021291013314300722 0.00055124583686616546 -0.94704946311718685 0.043767257103933227 -0.00010326586179515409 -0.0015237447033198404 -0.00010326586179515409 -0.18300417779629374 -5.9316720852235771e-05 -0.0015237447033198404 -5.9316720852235771e-05 -0.95912457136645513 0.045781363050908602 -0.00046495997255925289 -0.0011806393255392456 -0.00046495997255925289 -0.18114183483346832 -6.5390211065247117e-05 -0.0011806393255392456 -6.5390211065247117e-05 -0.95217246654171006 0.043937312057706762 -0.00015229728393304089 -0.0016702474105060594 -0.00015229728393304089 -0.18294180317512568 9.9772339238746177e-05 -0.0016702474105060594 9.9772339238746177e-05 -0.95874400594079578 0.046529612601635351 -0.00021520122676075898 -0.0035800889382354706 -0.00021520122676075898 -0.18166850112597194 0.00011825331332893096 -0.0035800889382354706 0.00011825331332893096 -0.95525661646407634 0.045108008967314761 -0.00074186216254192245 -0.0024931016884542356 -0.00074186216254192245 -0.18265569381834379 0.001134170867466866 -0.0024931016884542356 0.001134170867466866 -0.95912932364035819 0.047678910328222301 0.00010563844934716554 -0.0040249694340167563 0.00010563844934716554 -0.18126768667017071 -4.1063433813937067e-05 -0.0040249694340167563 -4.1063433813937067e-05 -0.95465219389833678 0.04358458580207128 6.5449643001428764e-06 -0.00078763854498864472 6.5449643001428764e-06 -0.18259454769015401 -0.0017260820442883684 -0.00078763854498864472 -0.0017260820442883684 -0.9556775380461815 0.045490707562416188 -4.3387660624293718e-06 -0.0021315672322695378 -4.3387660624293718e-06 -0.18177681738518425 -2.3351739756699921e-05 -0.0021315672322695378 -2.3351739756699921e-05 -0.95490475242445572 0.043065859700887527 -7.3475092514196374e-05 -0.0025522564643873369 -7.3475092514196374e-05 -0.18293293742727321 1.5069386908317384e-05 -0.0025522564643873369 1.5069386908317384e-05 -0.95787776469931973 0.044105676697593743 0.00010198940863036895 0.00038737161834882122 0.00010198940863036895 -0.18227210859984733 -2.0427213672379387e-05 0.00038737161834882122 -2.0427213672379387e-05 -0.95428977530053161 0.048695958823305054 -0.00021901213487146904 0.00012528371579798026 -0.00021901213487146904 -0.18082292528504085 0.00050166251443728438 0.00012528371579798026 0.00050166251443728438 -0.95280506959641365 0.043634924468020905 2.5086616042505572e-05 -0.0012501504950597764 2.5086616042505572e-05 -0.18255120838243138 0.0018424371431930431 -0.0012501504950597764 0.0018424371431930431 -0.95633147478480995 0.045264300985780007 -0.00079178761153632631 -0.0018777807614684949 -0.00079178761153632631 -0.18171130634314009 -0.00045973791988623836 -0.0018777807614684949 -0.00045973791988623836 -0.95450971414493613 0.048510596048946308 -0.00013522514441764388 0.00043388503467586674 -0.00013522514441764388 -0.18115014016396902 -2.4426421115834921e-05 0.00043388503467586674 -2.4426421115834921e-05 -0.95318566416613415 0.042237143912342512 -1.310744361821666e-05 0.00047155735936908793 -1.310744361821666e-05 -0.18328129616276947 1.5375750303666745e-05 0.00047155735936908793 1.5375750303666745e-05 -0.95917688708214499 0.042455354556555081 -0.0001512866681460879 0.00045940015974067658 -0.0001512866681460879 -0.18357319172285558 -2.723041138268235e-06 0.00045940015974067658 -2.723041138268235e-06 -0.95919300466812907 0.051201978478442878 -3.7586726987480857e-05 -0.00085903957322452928 -3.7586726987480857e-05 -0.17998675017366322 9.0972443730873154e-05 -0.00085903957322452928 9.0972443730873154e-05 -0.9514537252621833 0.051182594277913919 6.1505661473856526e-05 -0.00086908590852738214 6.1505661473856526e-05 -0.18002021329105333 0.0003235696269338062 -0.00086908590852738214 0.0003235696269338062 -0.95148121162625676 0.051513119494598247 3.7450819880118972e-05 -0.00048901065709655578 3.7450819880118972e-05 -0.17990978324167997 1.8582086634359035e-06 -0.00048901065709655578 1.8582086634359035e-06 -0.95082881847598277 0.048642793911037263 -1.8260832506359068e-05 0.00027934650822050732 -1.8260832506359068e-05 -0.18068516655568523 1.024345538411327e-05 0.00027934650822050732 1.024345538411327e-05 -0.95184826281996826 0.051713711001683003 4.2810326512023099e-05 4.4105020589521514e-06 4.2810326512023099e-05 -0.17942485153852714 2.6611143769378631e-05 4.4105020589521514e-06 2.6611143769378631e-05 -0.94909415824201127 0.051654155224852782 2.6868661020074785e-05 -5.7731497592696796e-05 2.6868661020074785e-05 -0.17953884011121465 -9.5349274995271127e-05 -5.7731497592696796e-05 -9.5349274995271127e-05 -0.94927802275048068 0.051569516505124757 -9.9801909637999516e-06 -0.00046146761118909252 -9.9801909637999516e-06 -0.17980657881713952 -0.00012337963630407699 -0.00046146761118909252 -0.00012337963630407699 -0.95053846172450085 0.052126950625481783 -4.4940745898752442e-06 -0.00072538197170135543 -4.4940745898752442e-06 -0.17929070762862409 -0.00015261196466077008 -0.00072538197170135543 -0.00015261196466077008 -0.94851977218781869 0.051781208067581623 -4.486655307494411e-06 4.4572724246641615e-06 -4.486655307494411e-06 -0.17947370995409884 5.4013862909129174e-06 4.4572724246641615e-06 5.4013862909129174e-06 -0.9493984666166112 0.051680346593933918 6.8401685718214088e-05 -2.1086891892246172e-05 6.8401685718214088e-05 -0.17959902877102377 2.3623878707520779e-05 -2.1086891892246172e-05 2.3623878707520779e-05 -0.94943689704437662 0.052396379509105265 0.00011954073401479149 -0.00076372928200713064 0.00011954073401479149 -0.17918264265968711 4.8377568381496872e-05 -0.00076372928200713064 4.8377568381496872e-05 -0.94823739725758471 0.051766209670783409 0.00011095762242001473 -0.00046736417705078859 0.00011095762242001473 -0.17974842507552444 5.9866744532122151e-05 -0.00046736417705078859 5.9866744532122151e-05 -0.95053106359466211 0.051788060283788385 -9.6484947085774436e-05 4.0024347353378558e-05 -9.6484947085774436e-05 -0.17950880612371142 1.0713167958032879e-05 4.0024347353378558e-05 1.0713167958032879e-05 -0.94891093915853841 0.04908377901923891 7.0133085764650103e-05 0.00043415624131568076 7.0133085764650103e-05 -0.18048272099260226 0.00011233209550104428 0.00043415624131568076 0.00011233209550104428 -0.9515697419586866 0.051833539725137184 -1.8703279700611424e-05 0.00010704863143612409 -1.8703279700611424e-05 -0.17946969194763526 0.00016501436710270045 0.00010704863143612409 0.00016501436710270045 -0.94914101519389926 0.05167788524554813 -2.3717957525666033e-05 3.1390894015819067e-06 -2.3717957525666033e-05 -0.17959498142774349 2.7454003502429204e-05 3.1390894015819067e-06 2.7454003502429204e-05 -0.94895450754616895 0.048768809627545651 -0.00016442969612004036 0.00049227235579721578 -0.00016442969612004036 -0.18065454094515304 4.6155571119280131e-05 0.00049227235579721578 4.6155571119280131e-05 -0.95155165659357377 0.048770765808702654 -0.00011362183556794674 0.00027206842412659863 -0.00011362183556794674 -0.18068723320901786 -5.1180911607086619e-06 0.00027206842412659863 -5.1180911607086619e-06 -0.95182235937850346 0.051385206158297669 -9.8622316025805343e-05 -0.00063832834924409942 -9.8622316025805343e-05 -0.17996173109220731 -4.0760446096112235e-05 -0.00063832834924409942 -4.0760446096112235e-05 -0.95076960560709722 0.052499002319097432 -4.6606288866589679e-05 -0.00065751134031249991 -4.6606288866589679e-05 -0.17902128761891314 -0.00022706699700769661 -0.00065751134031249991 -0.00022706699700769661 -0.94863257907603848 0.052218217060882588 1.4420286133031356e-06 -0.00076831667199273035 1.4420286133031356e-06 -0.17920281371210312 0.00013999916915098665 -0.00076831667199273035 0.00013999916915098665 -0.94815121343579944 0.051525171203120501 -8.5540248083610096e-06 -0.0004913493308891792 -8.5540248083610096e-06 -0.17986734228093199 0.00012848870260925849 -0.0004913493308891792 0.00012848870260925849 -0.95082666572550789 0.050179235186336435 0.0010768794001264875 -0.0013796697947173753 0.0010768794001264875 -0.1799543649954391 0.00058920856065203253 -0.0013796697947173753 0.00058920856065203253 -0.95070906033300606 0.052252194200411439 4.6085379826510559e-05 -0.0006681784465137619 4.6085379826510559e-05 -0.17977528244539881 0.00014424541270432849 -0.0006681784465137619 0.00014424541270432849 -0.95084738262146717 0.052487109346974509 2.5932225086106802e-06 -0.00082183722362225153 2.5932225086106802e-06 -0.17936074709151054 -0.0002201871779722378 -0.00082183722362225153 -0.0002201871779722378 -0.95035747844835916 0.05025993814928903 -2.8509900013979407e-06 -0.0023663267341463845 -2.8509900013979407e-06 -0.1804563720000662 -0.0001789884451711965 -0.0023663267341463845 -0.0001789884451711965 -0.95254240659090472 0.052229091864616328 -7.3780274037062704e-07 -0.00077441719383430918 -7.3780274037062704e-07 -0.17922857129005848 0.00010048937844886474 -0.00077441719383430918 0.00010048937844886474 -0.94807105766156585 0.051538247825406613 -0.00028226862270390598 -0.00035849651988614784 -0.00028226862270390598 -0.1795647720743036 0.00010261233090180788 -0.00035849651988614784 0.00010261233090180788 -0.94958999615394935 0.051464639447190513 -0.00079331765504796214 -0.00078943281790423703 -0.00079331765504796214 -0.17994621936745694 -0.00043297984394496947 -0.00078943281790423703 -0.00043297984394496947 -0.95088581496287394 0.054092364349165645 -8.349165397690648e-06 -0.0020482937412729108 -8.349165397690648e-06 -0.17855616047497935 0.00025885486307688707 -0.0020482937412729108 0.00025885486307688707 -0.9466142410417715 0.053873584698655497 -8.5765905912419241e-06 -0.0020804433589085569 -8.5765905912419241e-06 -0.1787914615376478 -0.00036848044080545206 -0.0020804433589085569 -0.00036848044080545206 -0.94747296222240474 0.054068276561308998 -5.8763165136396141e-05 -0.0018552037320314074 -5.8763165136396141e-05 -0.17837088303223622 -0.00010389879069805374 -0.0018552037320314074 -0.00010389879069805374 -0.94623030696839672 0.053596655895460699 3.7781545906046506e-06 -0.0017375911569628144 3.7781545906046506e-06 -0.17865334106824537 -0.00018891791105660194 -0.0017375911569628144 -0.00018891791105660194 -0.94791107705014088 0.05354421202022569 -7.1871386025089136e-05 -0.0017281461394454967 -7.1871386025089136e-05 -0.17889672399808959 4.0529474791717313e-05 -0.0017281461394454967 4.0529474791717313e-05 -0.94826447574902839 0.050256310380576763 -0.00020214697432400375 -0.0019258514641008473 -0.00020214697432400375 -0.18009661052415721 -0.00013603443963119966 -0.0019258514641008473 -0.00013603443963119966 -0.95062318061718765 0.052387046718138625 -8.1059720365603646e-05 -0.00076664101336104684 -8.1059720365603646e-05 -0.17963606848968741 6.1917325190369299e-05 -0.00076664101336104684 6.1917325190369299e-05 -0.95043200921899273 0.053771850353127822 0.00020047400205932571 -0.0017477734157499425 0.00020047400205932571 -0.17889069885467973 0.00041191539282348089 -0.0017477734157499425 0.00041191539282348089 -0.94762143480704952 0.053717511702768284 -2.76230475846787e-06 -0.0018271238070094453 -2.76230475846787e-06 -0.17850541945331122 1.5488294402121738e-05 -0.0018271238070094453 1.5488294402121738e-05 -0.94745591777216265 0.054440749436395208 -2.9272734539293146e-05 -0.0010045223624882693 -2.9272734539293146e-05 -0.17872292479257101 -0.00033553843374278802 -0.0010045223624882693 -0.00033553843374278802 -0.94725823753170268 0.053416681523488552 -0.00024436050169459087 -0.00026714624756651872 -0.00024436050169459087 -0.17912588791763828 -0.00018589773061761239 -0.00026714624756651872 -0.00018589773061761239 -0.94852841692994705 0.052409284325637108 9.9474326973727529e-05 -0.0009540555900686698 9.9474326973727529e-05 -0.17936043454692671 0.00044790566417884925 -0.0009540555900686698 0.00044790566417884925 -0.94875187093672186 0.050350666282059829 -7.2596965677631522e-05 -0.0020950177190124375 -7.2596965677631522e-05 -0.17986186873213358 0.00018073367059601164 -0.0020950177190124375 0.00018073367059601164 -0.94922238734793052 0.052670322403165271 -1.0533227415182867e-06 -0.00073463050140787356 -1.0533227415182867e-06 -0.17928358482546675 -0.00021396067153933718 -0.00073463050140787356 -0.00021396067153933718 -0.94856379935328672 0.052601031598648318 -4.9389427702199948e-05 -0.00064388445368890324 -4.9389427702199948e-05 -0.17925616164656222 -0.00022416655819343378 -0.00064388445368890324 -0.00022416655819343378 -0.94893875899285762 0.052023243865211344 -8.2650968134787144e-05 -0.00020321856539706751 -8.2650968134787144e-05 -0.17950961167791918 -0.00017112913759004256 -0.00020321856539706751 -0.00017112913759004256 -0.9499842388844324 0.050900472932234042 2.0296198994187736e-05 0.00028176664268357273 2.0296198994187736e-05 -0.1798380790716877 -1.3915320415678976e-05 0.00028176664268357273 -1.3915320415678976e-05 -0.95091202199486946 0.051884783838803239 -2.045897977074909e-06 -0.00038282340387502112 -2.045897977074909e-06 -0.1794834787103034 -0.00021636251023271491 -0.00038282340387502112 -0.00021636251023271491 -0.94972526258107015 0.051433320511646008 0.00013338041068444465 -0.00014283032113082683 0.00013338041068444465 -0.1796022434561218 -0.00029000630230727187 -0.00014283032113082683 -0.00029000630230727187 -0.95005316087505398 0.051233134961197857 -1.5871163862369221e-05 7.7692182508991882e-06 -1.5871163862369221e-05 -0.1794976795746463 1.2967953037215412e-05 7.7692182508991882e-06 1.2967953037215412e-05 -0.94934889476571971 0.051904932225904588 1.0137173705521075e-05 -0.00035423713217175301 1.0137173705521075e-05 -0.17974251503441122 -0.00012970613602032374 -0.00035423713217175301 -0.00012970613602032374 -0.95032744999458885 0.051340342387158733 -0.00014851639830372842 6.0943941614935338e-05 -0.00014851639830372842 -0.17963174287544598 4.6871721721757518e-05 6.0943941614935338e-05 4.6871721721757518e-05 -0.94936360967199396 0.051754180226516455 -2.2814051644388468e-05 -0.00018536943179831011 -2.2814051644388468e-05 -0.1797042632578964 -3.6027433313656765e-05 -0.00018536943179831011 -3.6027433313656765e-05 -0.95055264782283588 0.051641322908948628 -7.4219875965518222e-07 -8.6348143844838798e-05 -7.4219875965518222e-07 -0.17956253599832994 -8.4508494663904088e-05 -8.6348143844838798e-05 -8.4508494663904088e-05 -0.94917018419460286 0.051652108706681715 -0.00013764478290449723 -0.00020396770103137118 -0.00013764478290449723 -0.17981012301150462 -1.750788451253954e-06 -0.00020396770103137118 -1.750788451253954e-06 -0.95055930098750663 0.052414595346256809 4.4740539934625773e-05 -0.00070710989259969992 4.4740539934625773e-05 -0.17936927947249226 -0.00015922000791374069 -0.00070710989259969992 -0.00015922000791374069 -0.94895784851952913 0.05237861225438082 -1.5478891081428015e-05 -0.00068465497502279149 -1.5478891081428015e-05 -0.17935499676896063 -4.9404921693585457e-05 -0.00068465497502279149 -4.9404921693585457e-05 -0.94890051324326696 0.048916245867749036 -0.0002232744524191851 0.00050643486241072622 -0.0002232744524191851 -0.18046709720744955 5.5775518421230519e-05 0.00050643486241072622 5.5775518421230519e-05 -0.95148418990786077 0.048890817459328773 -0.0002355187725470593 0.00050412186350724374 -0.0002355187725470593 -0.1805559189442707 4.1331909491915673e-05 0.00050412186350724374 4.1331909491915673e-05 -0.95150973537569805 0.049248555886441503 0.00024649150494085486 4.4350729569503166e-05 0.00024649150494085486 -0.18025291150488904 -9.9418544026917905e-06 4.4350729569503166e-05 -9.9418544026917905e-06 -0.95133506848260385 0.049095594143545002 0.00027140053752402419 -0.00098826358563081085 0.00027140053752402419 -0.18047947210290693 -0.00063455939635095882 -0.00098826358563081085 -0.00063455939635095882 -0.95233032995889844 0.048557626679049309 -0.00021061284831866379 -0.00044890537040087608 -0.00021061284831866379 -0.18088809769705377 -0.00028355344619346301 -0.00044890537040087608 -0.00028355344619346301 -0.95323726007238219 0.04937453403879058 -0.00022456745762392062 -0.00087441423310752331 -0.00022456745762392062 -0.18016499345215362 -0.00016168776718145095 -0.00087441423310752331 -0.00016168776718145095 -0.95035243599115848 0.051943662412142239 -3.3829725504597863e-05 -0.0003304729978007015 -3.3829725504597863e-05 -0.17956672639183388 -4.2208898633266934e-05 -0.0003304729978007015 -4.2208898633266934e-05 -0.94996470376261943 0.045173568538159514 0.00061506210284024108 0.0010536583386230314 0.00061506210284024108 -0.18151744722025998 0.0001096846456432321 0.0010536583386230314 0.0001096846456432321 -0.95291213818016507 0.045447422018089878 -0.0036307513358238798 -0.0024117735064742296 -0.0036307513358238798 -0.18181365017960738 -0.0010620031931277696 -0.0024117735064742296 -0.0010620031931277696 -0.95538113658697021 0.044994559192067962 0.00047807104688509249 -0.0017938966247176003 0.00047807104688509249 -0.18197343882271638 0.0001113141336581136 -0.0017938966247176003 0.0001113141336581136 -0.95503582278828048 0.046874263160919527 -0.00013018884217446506 0.00047870040076223154 -0.00013018884217446506 -0.18136192544352114 -4.8227705108782086e-06 0.00047870040076223154 -4.8227705108782086e-06 -0.95451311200029032 0.042945304498870296 0.00015429666978803149 0.0001414239292312075 0.00015429666978803149 -0.18305514556225599 0.0014748596117771795 0.0001414239292312075 0.0014748596117771795 -0.95914385211744657 0.042815913571727704 -0.00024524893580314374 0.00021284997496027149 -0.00024524893580314374 -0.18333336991838065 -2.6811931287966792e-05 0.00021284997496027149 -2.6811931287966792e-05 -0.9600391884622671 0.041820908857137386 4.4549043701632851e-05 -0.0017044063999973075 4.4549043701632851e-05 -0.18314617193252836 -0.00095046622338092331 -0.0017044063999973075 -0.00095046622338092331 -0.95739545881961252 0.043796064205859186 0.0004935688875366491 -2.4278912663542604e-05 0.0004935688875366491 -0.18221530511934658 2.3432596069090342e-05 -2.4278912663542604e-05 2.3432596069090342e-05 -0.95529238902395286 0.042092861604362181 -0.00022706334967029088 -0.00014821797966868555 -0.00022706334967029088 -0.18323553704390663 0.0001814994380487378 -0.00014821797966868555 0.0001814994380487378 -0.9583710392921897 0.041338835411434377 -0.00047448505657232248 -0.0013143858217955287 -0.00047448505657232248 -0.18372287775469717 3.4202750133438542e-05 -0.0013143858217955287 3.4202750133438542e-05 -0.96000592715340161 0.047758473683388258 2.2309013352537235e-05 -0.0039147061907018887 2.2309013352537235e-05 -0.18158767891340977 0.00012226583361724108 -0.0039147061907018887 0.00012226583361724108 -0.95565321376719337 0.048868510303216872 5.2843582356652737e-05 -0.0017323276959124168 5.2843582356652737e-05 -0.1804472422379399 -0.00020031856436009826 -0.0017323276959124168 -0.00020031856436009826 -0.95100939460256306 0.044527056095128525 -0.00017687144094557977 -0.0021778284303983764 -0.00017687144094557977 -0.18177918013573569 -0.00013589166735616942 -0.0021778284303983764 -0.00013589166735616942 -0.95351605973240883 0.043010983149717491 -8.0117018990762202e-05 -0.00096221105228494475 -8.0117018990762202e-05 -0.18264582096541207 -0.00038353682478059481 -0.00096221105228494475 -0.00038353682478059481 -0.95632878194012172 0.047860321019452243 -1.6719460038051544e-05 -0.00092377853737246607 -1.6719460038051544e-05 -0.18098395301601239 1.974747393825721e-05 -0.00092377853737246607 1.974747393825721e-05 -0.95288889347319516 0.042899699511774914 -0.00017472537763015477 -0.0013621303672589069 -0.00017472537763015477 -0.18321165148969221 -0.00011162652193538736 -0.0013621303672589069 -0.00011162652193538736 -0.95907805233392285 0.044412310861266457 -0.00030807010661553218 -0.002670936774665511 -0.00030807010661553218 -0.18253691227655516 0.00022838128788010836 -0.002670936774665511 0.00022838128788010836 -0.95722274922972683 0.04937353682562913 -0.00033678607926446234 -0.0012455862514683114 -0.00033678607926446234 -0.18058673978873485 0.00017993206707006548 -0.0012455862514683114 0.00017993206707006548 -0.9524640699993383 0.05153863145026899 2.3310874010226293e-05 -0.0017886972598870621 2.3310874010226293e-05 -0.18027302815603657 6.9658832367869294e-05 -0.0017886972598870621 6.9658832367869294e-05 -0.9524658873092855 0.043699988959134795 -0.00052307488792700558 -0.0032160889014819505 -0.00052307488792700558 -0.1829250387169869 -0.00023487507726460688 -0.0032160889014819505 -0.00023487507726460688 -0.95859542143066911 0.04765967716771069 -0.00035495242374800908 -0.0038102635595765877 -0.00035495242374800908 -0.18154606601428558 5.0584410961174164e-05 -0.0038102635595765877 5.0584410961174164e-05 -0.95561847538633549 0.045644148409591495 0.00069391820890429509 -0.0028814729686588783 0.00069391820890429509 -0.18258419198169046 -0.00081395346160201276 -0.0028814729686588783 -0.00081395346160201276 -0.95845551570653931 0.046430037708819705 0.00012600440382016487 -0.003606041195721027 0.00012600440382016487 -0.18197678139326706 8.0722322928217238e-06 -0.003606041195721027 8.0722322928217238e-06 -0.95597331131370544 0.04610795343421567 0.00053927326081324627 -0.001263668793701378 0.00053927326081324627 -0.18121969112926092 -3.2242086853734309e-05 -0.001263668793701378 -3.2242086853734309e-05 -0.95212842263605191 0.045714213447312566 0.00073251982991615462 -0.0017678536123942323 0.00073251982991615462 -0.18176980780866309 0.00023129060895071829 -0.0017678536123942323 0.00023129060895071829 -0.95455531007895811 0.044053297034133854 -0.0002692369089797792 0.00061139993737512554 -0.0002692369089797792 -0.18236206993225612 2.3247301592345098e-05 0.00061139993737512554 2.3247301592345098e-05 -0.95536754699486415 0.048271084031812385 2.4128326299803675e-05 -0.0011164309341173406 2.4128326299803675e-05 -0.18109005140388357 -0.00016163231648433363 -0.0011164309341173406 -0.00016163231648433363 -0.95373669873611067 0.043162095174059778 0.00012109320506248051 -0.00022040552107424616 0.00012109320506248051 -0.182668141347368 0.0011121875909931855 -0.00022040552107424616 0.0011121875909931855 -0.95628364083888329 0.047831963948871334 -0.00020620230918885218 -0.00097559102953581611 -0.00020620230918885218 -0.18132698654147361 -6.3534410657400953e-05 -0.00097559102953581611 -6.3534410657400953e-05 -0.95395147659330548 0.042843933375813138 -0.00065361172607293681 -0.00096800686872616781 -0.00065361172607293681 -0.18279258546121613 -0.0016719949201873252 -0.00096800686872616781 -0.0016719949201873252 -0.95669091706417786 0.041538468643271445 -0.00010070768039142253 -0.0022887354307785657 -0.00010070768039142253 -0.18331859902041633 6.2102132726449266e-05 -0.0022887354307785657 6.2102132726449266e-05 -0.95814666814648519 0.048587860926230797 -3.3455736052293928e-05 0.00029008579841725233 -3.3455736052293928e-05 -0.18054565324320732 -1.8610111862513894e-07 0.00029008579841725233 -1.8610111862513894e-07 -0.95183173648766528 0.042435245450555437 0.00012879365889172532 0.00050563465096073522 0.00012879365889172532 -0.18340615832735591 1.6057428058982228e-05 0.00050563465096073522 1.6057428058982228e-05 -0.95915779770272125 0.027524190844087373 0.0012190781291628505 0.0018642232895574873 0.0012190781291628505 -0.18819471018831857 0.0016643550439586763 0.0018642232895574873 0.0016643550439586763 -0.96927418810683874 0.029937724973397122 0.0015328698093470326 -0.0017489581972734425 0.0015328698093470326 -0.18723706550298766 -0.00054283481950584411 -0.0017489581972734425 -0.00054283481950584411 -0.96598377821494219 0.037276987717769494 0.00010519734725689933 0.00070618889887000269 0.00010519734725689933 -0.18476207239443562 -0.00027179745789557286 0.00070618889887000269 -0.00027179745789557286 -0.96105974436114816 0.032988565730173613 0.00022089397467690573 0.00024438481153476522 0.00022089397467690573 -0.18562940241460216 1.5512234201583609e-05 0.00024438481153476522 1.5512234201583609e-05 -0.96149351212051615 0.034837123256076935 8.6003703465593824e-05 -0.0026245768421493954 8.6003703465593824e-05 -0.18593166726516872 -0.00015818330966943517 -0.0026245768421493954 -0.00015818330966943517 -0.96449095558972187 0.029816818347383506 -1.4989540700088098e-05 -0.0029278853641641622 -1.4989540700088098e-05 -0.18730337636280803 -0.00096596606909828131 -0.0029278853641641622 -0.00096596606909828131 -0.96688236619181134 0.027399524344567605 -0.0029008636951750886 -0.0005829934293125616 -0.0029008636951750886 -0.18770460802936367 0.0010305903329678179 -0.0005829934293125616 0.0010305903329678179 -0.96724899196161362 0.037182415218182552 -0.00047422031098705834 0.00026819450855627443 -0.00047422031098705834 -0.18467100849303936 2.0380829627888914e-05 0.00026819450855627443 2.0380829627888914e-05 -0.96046339311865492 0.024889147621770184 -0.001417562010254974 0.0010276537132925812 -0.001417562010254974 -0.1885731560226469 -0.0014335495561523248 0.0010276537132925812 -0.0014335495561523248 -0.96847763452213209 0.037358203927260913 0.00044614949102244277 0.00056911162900894125 0.00044614949102244277 -0.18468156410287256 -2.264921660867731e-05 0.00056911162900894125 -2.264921660867731e-05 -0.96139924447439673 0.025989353477083921 0.00042380885227997231 -0.00038477066452595959 0.00042380885227997231 -0.18886063334172171 -0.00014172380694372978 -0.00038477066452595959 -0.00014172380694372978 -0.97200616489263703 0.025204865846645275 -0.00041127080610679507 0.00047296449267683486 -0.00041127080610679507 -0.18904044919604154 -2.5290195396760045e-05 0.00047296449267683486 -2.5290195396760045e-05 -0.97154649985878738 0.038070858391890117 -0.00027571630209114481 -0.0049010993816809463 -0.00027571630209114481 -0.18492457581884153 -9.2099322099109537e-05 -0.0049010993816809463 -9.2099322099109537e-05 -0.96267861304471958 0.038561206295222861 -8.4211751241592897e-05 -0.00089417991354673061 -8.4211751241592897e-05 -0.1842405961216903 7.7949829847434593e-05 -0.00089417991354673061 7.7949829847434593e-05 -0.95942513244402172 0.038292038210664625 -0.0010409516449925214 -0.0018501486678568313 -0.0010409516449925214 -0.18444571072775509 -0.00028736187252070833 -0.0018501486678568313 -0.00028736187252070833 -0.96044398473414028 0.033695520856693778 0.00038151959534179944 -0.0052009851595609669 0.00038151959534179944 -0.18568679085855372 0.0025183927290423069 -0.0052009851595609669 0.0025183927290423069 -0.96241808203456247 0.029966343546152907 -0.00089495295135732752 -0.0058491822250883452 -0.00089495295135732752 -0.18745189659923622 0.00031147224078342806 -0.0058491822250883452 0.00031147224078342806 -0.96805727870441605 0.029130041055277417 0.00099603658832202614 -0.00081159116780765705 0.00099603658832202614 -0.18843265751968255 0.00029306422256059061 -0.00081159116780765705 0.00029306422256059061 -0.97126522289661177 0.03884888191430326 0.0029681490443923221 -0.0016150388661938797 0.0029681490443923221 -0.18422460392104661 0.0009334973047905315 -0.0016150388661938797 0.0009334973047905315 -0.95988235951669165 0.032534983056326405 5.4145127958200795e-05 -0.0052448048108985068 5.4145127958200795e-05 -0.18702347258588337 0.00035543361768042292 -0.0052448048108985068 0.00035543361768042292 -0.96734846321597967 0.027724854023339324 -0.00057952341217720662 0.001301511821638901 -0.00057952341217720662 -0.18809210980993646 0.00030506517716584469 0.001301511821638901 0.00030506517716584469 -0.96859928792740235 0.029864302469221948 -0.00022434964616628326 -0.0059817470754268687 -0.00022434964616628326 -0.18739577420802161 -0.00054844784390087331 -0.0059817470754268687 -0.00054844784390087331 -0.96710139512242121 0.030052865492089798 0.001324278299431233 -0.0040276020336652563 0.001324278299431233 -0.18732112894601879 -0.00037146164248491598 -0.0040276020336652563 -0.00037146164248491598 -0.9663250198153629 0.024182507751539573 -0.00082262866574709834 -0.0012689582733928992 -0.00082262866574709834 -0.18992132970720232 -6.4565663760403347e-05 -0.0012689582733928992 -6.4565663760403347e-05 -0.97400472648754066 0.038013411505267464 -0.00066428194963811117 -0.0023649131128602313 -0.00066428194963811117 -0.18447346414324547 -0.00032512230808331988 -0.0023649131128602313 -0.00032512230808331988 -0.96054186698337618 0.024316254231215972 -0.00074745307287322712 -0.002348449813539516 -0.00074745307287322712 -0.18963627795798033 0.00020385995331198559 -0.002348449813539516 0.00020385995331198559 -0.9725503503917472 0.034191192285309591 -6.6119726063939245e-05 -0.00277884198826156 -6.6119726063939245e-05 -0.18544247657373936 -0.00017588830346546014 -0.00277884198826156 -0.00017588830346546014 -0.96153278088187655 0.035571465686821957 -0.00026045639931970111 -0.004897177010671161 -0.00026045639931970111 -0.18579747592052404 -0.00026913469221401254 -0.004897177010671161 -0.00026913469221401254 -0.9648231142472723 0.037852326943084991 -0.0002665109220234459 -0.0018994466788391229 -0.0002665109220234459 -0.18448910497070098 -0.00030963956227791911 -0.0018994466788391229 -0.00030963956227791911 -0.96056189176273388 0.02520759180090959 0.00051368283553211225 -0.00078618543344566305 0.00051368283553211225 -0.18911004357846734 0.00091907230748577984 -0.00078618543344566305 0.00091907230748577984 -0.97003686204927608 0.037963119862808148 -0.00044370682422492164 -0.0027378603137668822 -0.00044370682422492164 -0.18464672243647492 -0.00015668377019634194 -0.0027378603137668822 -0.00015668377019634194 -0.96130348150453659 0.033069026750232045 -0.00038086013559191694 0.00011443179244607915 -0.00038086013559191694 -0.18644333314904582 -0.00023686827702407154 0.00011443179244607915 -0.00023686827702407154 -0.96539375080250811 0.027614777934996754 0.0011186807901729426 -0.0014490076891164883 0.0011186807901729426 -0.18810763406611383 0.00016036539097424862 -0.0014490076891164883 0.00016036539097424862 -0.96745530287995007 0.02709573840022439 0.00098483591571802407 -0.0025187602118052488 0.00098483591571802407 -0.18848504661212173 -5.8543472384459116e-05 -0.0025187602118052488 -5.8543472384459116e-05 -0.96858463940771788 0.034062731136551172 -0.00065123777898342728 -0.0012098968270028397 -0.00065123777898342728 -0.18553569080536989 2.5267391571992537e-05 -0.0012098968270028397 2.5267391571992537e-05 -0.96179665670370895 0.027286531144932208 0.00028507037043770564 -0.0025257691510546243 0.00028507037043770564 -0.18766679761911995 0.0014236255410351173 -0.0025257691510546243 0.0014236255410351173 -0.96791123904284282 0.033536127871135635 0.00021374283243133494 -0.0020495579271707087 0.00021374283243133494 -0.18615132499575637 0.00091896361022474179 -0.0020495579271707087 0.00091896361022474179 -0.96412685289664513 0.038304924368431442 -0.0006661140947053771 0.00045135022913157558 -0.0006661140947053771 -0.18450980021658087 -1.0670326200727384e-05 0.00045135022913157558 -1.0670326200727384e-05 -0.9606951995582198 0.031707680452238929 -0.00055436650552477106 0.0005382753772396004 -0.00055436650552477106 -0.18591612136763536 -2.0941393837575835e-05 0.0005382753772396004 -2.0941393837575835e-05 -0.96277627375521857 0.031653198787460729 0.00016476609828173936 0.00051382616495275479 0.00016476609828173936 -0.18668410195039392 -0.0013309268068405489 0.00051382616495275479 -0.0013309268068405489 -0.96355078132356664 0.025621588196580336 -0.00047963661318961901 0.0011925168667008901 -0.00047963661318961901 -0.18905244772552371 -5.0060530223131899e-06 0.0011925168667008901 -5.0060530223131899e-06 -0.96864197483332859 0.030949178470800757 0.00076442894611513919 1.9720362046820106e-05 0.00076442894611513919 -0.18750321798956052 -0.00010148186363226736 1.9720362046820106e-05 -0.00010148186363226736 -0.96725526053525857 0.024605710084344701 0.00051685086112120214 -0.0034204026833336565 0.00051685086112120214 -0.1893941495501828 -0.00070879962783582107 -0.0034204026833336565 -0.00070879962783582107 -0.97025596092630439 0.018999688967348827 -0.00028653175486828623 -0.00027993170813556123 -0.00028653175486828623 -0.19150237590740637 2.4341181203590967e-05 -0.00027993170813556123 2.4341181203590967e-05 -0.97517955182380456 0.018666862792773325 -0.00044048469004182944 -0.0013047550319952653 -0.00044048469004182944 -0.19152495132663844 3.6995461707600708e-05 -0.0013047550319952653 3.6995461707600708e-05 -0.97494947327176384 0.0093443425578241604 0.00011507291200829962 -0.00041535268864856256 0.00011507291200829962 -0.19384121553225722 -5.5116051179582293e-05 -0.00041535268864856256 -5.5116051179582293e-05 -0.97741756136447255 0.018821594598476682 0.00039963772409741017 -0.0020347208836142827 0.00039963772409741017 -0.19112198801411664 -0.00069722305369138149 -0.0020347208836142827 -0.00069722305369138149 -0.97307241513523524 0.020323105432276788 0.00042199345535942682 1.8355379263312087e-05 0.00042199345535942682 -0.1902687635071374 -5.9333997693147501e-05 1.8355379263312087e-05 -5.9333997693147501e-05 -0.96993484075236125 0.019548203960658261 0.00020545975952483708 0.0010390350347347684 0.00020545975952483708 -0.19106888671506528 -1.3128412292120634e-05 0.0010390350347347684 -1.3128412292120634e-05 -0.97374430881953078 0.020166270221324445 -0.00030743939276237764 0.00055738724384446492 -0.00030743939276237764 -0.19089472064376994 0.00093121487822855897 0.00055738724384446492 0.00093121487822855897 -0.97276385421756817 0.0087616732728061919 -0.00015626935069976703 -5.6894921060701709e-05 -0.00015626935069976703 -0.19461040323109735 -0.00039522514615372012 -5.6894921060701709e-05 -0.00039522514615372012 -0.98217979045525095 0.009179785999173358 -0.00040336417506568972 -0.00050055243422786333 -0.00040336417506568972 -0.19430381722304638 0.00066405242115258334 -0.00050055243422786333 0.00066405242115258334 -0.98143871232434798 0.0080228717432019314 0.00059142199799483452 -0.00041808302699361533 0.00059142199799483452 -0.19403256689112122 -0.002127526005539282 -0.00041808302699361533 -0.002127526005539282 -0.97921469733088284 0.0085434827713353756 -0.00019136896270116897 -0.0011622065919998092 -0.00019136896270116897 -0.19435778731710684 -2.2158481234546556e-05 -0.0011622065919998092 -2.2158481234546556e-05 -0.98101584295189803 0.0090314610336597601 -3.2863604521474796e-05 -0.00139891678886786 -3.2863604521474796e-05 -0.19386081842736172 -4.1803187213085291e-05 -0.00139891678886786 -4.1803187213085291e-05 -0.97719491110383505 0.0082110546358212799 0.00011145194958578635 0.00017408594778642441 0.00011145194958578635 -0.19390055326413719 -4.1870006307561472e-05 0.00017408594778642441 -4.1870006307561472e-05 -0.97658651125850227 0.0076469137118942952 -0.00031950356462697409 -0.00028404659655095619 -0.00031950356462697409 -0.19446802400888824 0.00068439613498361325 -0.00028404659655095619 0.00068439613498361325 -0.97945857714978279 0.0062034451283541677 -0.00071199088557509743 -0.0011315089443398266 -0.00071199088557509743 -0.19484596082117672 0.0003696996728213553 -0.0011315089443398266 0.0003696996728213553 -0.98074646401575272 0.006682782550585571 -0.00023613706481541902 0.00067622576397123612 -0.00023613706481541902 -0.19479377240656229 4.3315156279169728e-05 0.00067622576397123612 4.3315156279169728e-05 -0.98153813726887895 0.0095851471872389626 -0.00080312285951910137 0.0010359376184082829 -0.00080312285951910137 -0.19377004535009043 -1.5460671701798018e-05 0.0010359376184082829 -1.5460671701798018e-05 -0.97708786865085018 0.0059957158387052914 -0.0010523897087966309 -0.0005881272862369169 -0.0010523897087966309 -0.19437846917429424 -9.2876215391779482e-06 -0.0005881272862369169 -9.2876215391779482e-06 -0.97818454636194985 0.0059835207111031963 -0.0014466102496813039 -0.0011145522605398028 -0.0014466102496813039 -0.19499276717648517 0.00035120467334942562 -0.0011145522605398028 0.00035120467334942562 -0.98240101028616422 0.0067457872336345592 -0.0010035052237736932 -0.00080137958642781393 -0.0010035052237736932 -0.19452072953195626 0.00048360366153399337 -0.00080137958642781393 0.00048360366153399337 -0.98266542518763678 0.021117673303535409 6.2808551644548914e-05 -0.0015147683843768078 6.2808551644548914e-05 -0.19083781728852611 -0.00012450502804506325 -0.0015147683843768078 -0.00012450502804506325 -0.9737452537101623 0.011489427032130128 -0.00010583167347823845 -0.0023130703987736256 -0.00010583167347823845 -0.1930492550067601 -0.00017604781484986676 -0.0023130703987736256 -0.00017604781484986676 -0.97621138749271419 0.0099151790718474686 0.0045719898648270349 -0.0026705113677076286 0.0045719898648270349 -0.1912909695580195 0.00016237312475930743 -0.0026705113677076286 0.00016237312475930743 -0.97623150024674832 0.013153728721674376 0.00080326550799299918 -0.0019977197553276982 0.00080326550799299918 -0.19299044951667904 -0.00083658454196722243 -0.0019977197553276982 -0.00083658454196722243 -0.97866324875820121 0.019910044068228494 -2.2799370841819651e-05 -0.004507990990487265 -2.2799370841819651e-05 -0.19136090253142568 -1.6361708478629389e-05 -0.004507990990487265 -1.6361708478629389e-05 -0.97598478748290352 0.0062056396703297212 -0.0013892202239195034 -0.00039166969716519784 -0.0013892202239195034 -0.19426269542239871 0.00010453257504910995 -0.00039166969716519784 0.00010453257504910995 -0.98083940600112962 0.0035588446782728322 -0.00099104651269556394 -0.0023515531877038032 -0.00099104651269556394 -0.195706228308555 0.00085336960256632288 -0.0023515531877038032 0.00085336960256632288 -0.98521914451714609 0.010981255250917747 0.0010098475387744408 -0.0038712337631899851 0.0010098475387744408 -0.1943359899576847 -0.00015074153548022551 -0.0038712337631899851 -0.00015074153548022551 -0.98319194748051553 0.011425050841496254 -0.00030623846136872878 -0.0037044331689414234 -0.00030623846136872878 -0.19550371525355548 -0.00015278175628630208 -0.0037044331689414234 -0.00015278175628630208 -0.98332159924673035 0.011253097334405521 4.3996838660063939e-05 -0.0015444702499368135 4.3996838660063939e-05 -0.19303337274451171 0.00021769153100080832 -0.0015444702499368135 0.00021769153100080832 -0.97578536926442894 0.012946177443448614 -0.0004950934717969464 -0.00085402090369210426 -0.0004950934717969464 -0.19301725604175299 -0.00205494416844898 -0.00085402090369210426 -0.00205494416844898 -0.97965231300969124 0.013809143991558082 0.00036423164140496155 -0.0017908749514258249 0.00036423164140496155 -0.1934383739988208 0.0024322025451587459 -0.0017908749514258249 0.0024322025451587459 -0.97747116191335293 0.0142885374326297 -0.00035951826024181103 -0.0018404095445262447 -0.00035951826024181103 -0.19171108852958485 0.00016114361390107135 -0.0018404095445262447 0.00016114361390107135 -0.97365462208690401 0.012563451362629097 0.00023769427058474785 -0.00086737771643524697 0.00023769427058474785 -0.19462916428921423 1.6460180344846087e-05 -0.00086737771643524697 1.6460180344846087e-05 -0.98299244791420093 0.013181411662093134 -0.0018466400459600902 -0.0012719241430002443 -0.0018466400459600902 -0.19241688706259186 0.00019907478725600392 -0.0012719241430002443 0.00019907478725600392 -0.97527263917716467 0.014489943195781119 6.3455920226907257e-05 -0.0039490121548260478 6.3455920226907257e-05 -0.19295473039794192 -0.00058736784243246243 -0.0039490121548260478 -0.00058736784243246243 -0.97595035190016843 0.014790921457028733 -0.00010835315922423523 -0.0041062529947035464 -0.00010835315922423523 -0.19185760233670721 9.6434364884323553e-05 -0.0041062529947035464 9.6434364884323553e-05 -0.97484780419373551 0.0096259993620690931 0.00074844623677130097 -0.0031581403588872847 0.00074844623677130097 -0.19468928540141506 5.9523201825228966e-06 -0.0031581403588872847 5.9523201825228966e-06 -0.98389254937839077 0.0095079999193448117 9.9265052974448171e-05 -0.0034647172498458723 9.9265052974448171e-05 -0.19494564524483182 0.00022409868233852492 -0.0034647172498458723 0.00022409868233852492 -0.98362298831303629 0.009232929653144456 0.00035044680239537863 -0.0014967572385408134 0.00035044680239537863 -0.19368326484943829 -0.00029218756611560162 -0.0014967572385408134 -0.00029218756611560162 -0.97671809509387675 0.0098070753041276104 8.5566965031046095e-05 -0.0012584780223063863 8.5566965031046095e-05 -0.19317502738099634 -0.00014083349753452046 -0.0012584780223063863 -0.00014083349753452046 -0.97683176926150939 0.0092679088841474688 0.00026891042181912252 -0.00015480640616458152 0.00026891042181912252 -0.19419247222396735 -5.5423059147685638e-05 -0.00015480640616458152 -5.5423059147685638e-05 -0.98167454111704788 0.0088920498842885998 0.00051733887543320336 -2.966195666531668e-05 0.00051733887543320336 -0.19477285506170861 -0.00024363881991502218 -2.966195666531668e-05 -0.00024363881991502218 -0.98197892005195486 0.019291958909388063 -8.9242382080653991e-06 0.0013357923806403549 -8.9242382080653991e-06 -0.19067287650741149 -0.00026720681189978945 0.0013357923806403549 -0.00026720681189978945 -0.97341705715987503 0.020584090942333291 -5.5511467055770176e-05 -0.0012231286965781463 -5.5511467055770176e-05 -0.18995947904444235 0.00017038849922906829 -0.0012231286965781463 0.00017038849922906829 -0.97113202482702043 0.0088165924726213429 -5.9960159954315948e-05 -0.00025372509082438599 -5.9960159954315948e-05 -0.19524476851543329 -0.00030976876233224093 -0.00025372509082438599 -0.00030976876233224093 -0.98203412766432052 0.020663537306966906 0.00032091446792373085 0.0011779715695889638 0.00032091446792373085 -0.19024661142436086 -5.2705759084528583e-05 0.0011779715695889638 -5.2705759084528583e-05 -0.97268381390494307 0.010526793613002072 -0.00024838432581296877 -0.0016072964314424731 -0.00024838432581296877 -0.19315019051790777 -7.1556006072902995e-05 -0.0016072964314424731 -7.1556006072902995e-05 -0.97648269277654909 0.019696703880359157 -0.00014082293776047103 0.0010496113396847107 -0.00014082293776047103 -0.19064695040395965 -7.6411787802195438e-05 0.0010496113396847107 -7.6411787802195438e-05 -0.97296048256697298 0.019051819455402907 4.6436976468957085e-05 0.0011182439802460173 4.6436976468957085e-05 -0.1906204522823795 -8.78527418797368e-05 0.0011182439802460173 -8.78527418797368e-05 -0.97374546931171135 0.0069381253127066972 0.00014038463249198063 0.00096928381512611454 0.00014038463249198063 -0.19496320867230341 -4.5428273132925137e-06 0.00096928381512611454 -4.5428273132925137e-06 -0.9813325925201285 0.0087905638908767902 -0.00050879351348744278 -0.00048248930243842425 -0.00050879351348744278 -0.19415525856082605 0.0014312809544402008 -0.00048248930243842425 0.0014312809544402008 -0.97845241542502825 0.0060947281308471723 -0.00031089535291877282 0.0012615935827533591 -0.00031089535291877282 -0.1950269113182132 -3.8913804080762881e-05 0.0012615935827533591 -3.8913804080762881e-05 -0.98151495820011081 0.0053733957747454375 0.00025189050796636873 0.0010988329227765714 0.00025189050796636873 -0.19535928612608738 -0.00023879883886029907 0.0010988329227765714 -0.00023879883886029907 -0.98136336037481109 0.005916942021444771 -3.7436211806898177e-05 0.00075982195076099732 -3.7436211806898177e-05 -0.19533988313116055 -2.7628915063727096e-05 0.00075982195076099732 -2.7628915063727096e-05 -0.98088753791589567 0.012738781400807947 -0.00018687419100721001 -0.0023603104867587765 -0.00018687419100721001 -0.19231294161805737 -0.0004888873689732065 -0.0023603104867587765 -0.0004888873689732065 -0.97450773918800082 0.0065752981142120914 0.00042539991145009587 0.00062578553335811658 0.00042539991145009587 -0.19437246405839492 -0.00021038991345630445 0.00062578553335811658 -0.00021038991345630445 -0.98056328181431662 0.0074676163751750124 -0.00046135988573567523 0.00107956909076104 -0.00046135988573567523 -0.19466736131874748 0.00011966135248614451 0.00107956909076104 0.00011966135248614451 -0.98075422287145941 0.012920850716816088 0.00090969706417109791 -0.0023162529639668139 0.00090969706417109791 -0.19224876506890931 -0.00038535819850610276 -0.0023162529639668139 -0.00038535819850610276 -0.97444992603681113 0.021140429515362547 -0.00032432725810718917 0.0011920181425922297 -0.00032432725810718917 -0.18990026210404121 -5.6484982909957957e-05 0.0011920181425922297 -5.6484982909957957e-05 -0.97251907150234174 0.0094214474430888151 0.00020152042061323232 -0.0014973129134118746 0.00020152042061323232 -0.19294477638481766 0.00013137994695160832 -0.0014973129134118746 0.00013137994695160832 -0.97647494989504169 0.0096838471301619322 -0.0005959988859116866 -0.00077398379518950344 -0.0005959988859116866 -0.19336097817135253 0.0002577215846540264 -0.00077398379518950344 0.0002577215846540264 -0.97640959196812682 0.0086753596099422847 -0.00060821863142494943 -0.0001724020856538333 -0.00060821863142494943 -0.19481539173614823 0.00031414288954373371 -0.0001724020856538333 0.00031414288954373371 -0.98266950468247238 0.0071210720342817892 -0.00025921616960658945 0.0012681023036576883 -0.00025921616960658945 -0.19514265394475386 -0.00019360817907388431 0.0012681023036576883 -0.00019360817907388431 -0.9812541988023652 0.0069672281968375972 -0.00030565418345072378 0.0013764369077068097 -0.00030565418345072378 -0.19459782551676041 -0.00033930774401294236 0.0013764369077068097 -0.00033930774401294236 -0.98116546649317171 0.006590366644975254 -0.00023647609565236369 0.0012235388107176262 -0.00023647609565236369 -0.19570665342168045 0.00037664937374065621 0.0012235388107176262 0.00037664937374065621 -0.98219186742664477 0.021333901452774438 0.00019134687362946308 -0.00067011475319095348 0.00019134687362946308 -0.19058620244315586 0.00048710537555790578 -0.00067011475319095348 0.00048710537555790578 -0.97423725500792591 0.020621373764135975 0.0005365990425674601 0.00062870436340026973 0.0005365990425674601 -0.18997506080003446 1.2954003885602906e-05 0.00062870436340026973 1.2954003885602906e-05 -0.97068221002411115 0.012507934072181121 -0.0005707161913530974 -0.0021209014165866624 -0.0005707161913530974 -0.19428531009325578 0.00059445573393090978 -0.0021209014165866624 0.00059445573393090978 -0.9806016746110795 0.012373371039118564 -0.0003433590715367481 -0.0023929333045579204 -0.0003433590715367481 -0.19343784881974138 0.00045255364837858136 -0.0023929333045579204 0.00045255364837858136 -0.97599105317399126 0.012779752163604795 -0.0010401178394135366 -0.0014316262521922307 -0.0010401178394135366 -0.19251007778558085 0.00039348174774994638 -0.0014316262521922307 0.00039348174774994638 -0.97643324427046763 0.012140862463004803 -0.00071000676549784502 -0.0022016425965233066 -0.00071000676549784502 -0.19260219377005114 0.00037845337528769063 -0.0022016425965233066 0.00037845337528769063 -0.97591458919713436 0.020142797759399894 4.4327401451285515e-05 0.00096625155677518976 4.4327401451285515e-05 -0.1904135942244492 0.0010577076089091086 0.00096625155677518976 0.0010577076089091086 -0.97206445839369438 0.0062487742652854936 0.0012747176967050433 -0.0010929654919080711 0.0012747176967050433 -0.19355210261577813 -0.00035590058116874435 -0.0010929654919080711 -0.00035590058116874435 -0.97769023651068976 0.0053340075731173608 0.0012522718448789269 -0.0018945732613828703 0.0012522718448789269 -0.19448497776218088 -0.00088272064096403535 -0.0018945732613828703 -0.00088272064096403535 -0.98128920781909024 0.0099635959532494052 0.00058831796445072814 0.0014250674046209521 0.00058831796445072814 -0.19354857144702386 1.0089706462176446e-05 0.0014250674046209521 1.0089706462176446e-05 -0.9771619357815573 0.0058126504274996528 0.0011529124802748009 -0.0010063530805271034 0.0011529124802748009 -0.19422790382295663 -0.0007699183678406829 -0.0010063530805271034 -0.0007699183678406829 -0.98064491789921682 0.0064448648252429458 -5.5885400225651161e-05 0.0015386138150592673 -5.5885400225651161e-05 -0.19460081930242454 5.7674411968269574e-05 0.0015386138150592673 5.7674411968269574e-05 -0.98243867356030912 0.0083835346051813649 0.0003558174152211182 0.00010361644666469119 0.0003558174152211182 -0.19396135286372135 -0.00072772128580717466 0.00010361644666469119 -0.00072772128580717466 -0.97975261801570956 0.02118387277574078 -0.00031654801574464663 -0.0018602966209106705 -0.00031654801574464663 -0.19045370390215927 -0.0011825590328007325 -0.0018602966209106705 -0.0011825590328007325 -0.9727139651595994 0.019253582568603645 -0.000669475496193774 0.00015725238259557797 -0.000669475496193774 -0.19124426008815826 4.1160717363359598e-07 0.00015725238259557797 4.1160717363359598e-07 -0.97485028813061136 0.032489860934676956 0.0003640830012901046 -0.0019273134314294893 0.0003640830012901046 -0.18707955147046337 -0.00015273896354600636 -0.0019273134314294893 -0.00015273896354600636 -0.96764152701249795 0.022123563537015667 0.00045286680327853972 -0.00099525790924318708 0.00045286680327853972 -0.1896571510633259 -0.00017164859165030855 -0.00099525790924318708 -0.00017164859165030855 -0.97015957217715476 0.026101798343068475 0.00069294152699650848 0.00097157180637571269 0.00069294152699650848 -0.18863214068075568 1.3023815392650651e-06 0.00097157180637571269 1.3023815392650651e-06 -0.96849366287544281 0.038634730881734781 0.00066689443021865607 0.00070826489394034363 0.00066689443021865607 -0.18410251114376133 9.0302221275889359e-06 0.00070826489394034363 9.0302221275889359e-06 -0.95991093586801346 0.031598392645262652 -0.00060332489359763049 -5.0901288155311508e-05 -0.00060332489359763049 -0.1870946086106523 5.9511315411181541e-05 -5.0901288155311508e-05 5.9511315411181541e-05 -0.96708198964339875 0.034072173828115906 -9.9887496152700143e-05 -0.0020550351167118678 -9.9887496152700143e-05 -0.18591016687757866 -0.00091296292744408997 -0.0020550351167118678 -0.00091296292744408997 -0.96437509127453835 0.034423638022610226 0.0005710612546013181 -0.001514457526743257 0.0005710612546013181 -0.18535765099595608 -0.0001080052477430149 -0.001514457526743257 -0.0001080052477430149 -0.96115100788599594 0.034307235455737162 0.00058233390891426426 -0.0014735424776873146 0.00058233390891426426 -0.18542806688245153 -7.4666779817988971e-05 -0.0014735424776873146 -7.4666779817988971e-05 -0.96166377503746236 0.032606818710814139 -3.2083951461538474e-05 0.00049326359793299616 -3.2083951461538474e-05 -0.18628230143792557 0.0016716543046605969 0.00049326359793299616 0.0016716543046605969 -0.96288143674543103 0.03287369550033642 0.00054003686274745608 0.00036296560721921385 0.00054003686274745608 -0.18597252915947959 -3.8349592221971748e-05 0.00036296560721921385 -3.8349592221971748e-05 -0.96188611427524051 0.024820076164181141 -0.00030133612163637971 0.0012029701926162531 -0.00030133612163637971 -0.18891791840676853 -0.00091902000110960502 0.0012029701926162531 -0.00091902000110960502 -0.9696778095417482 0.032474471195778995 0.00078941637384702303 -0.0018014334479898864 0.00078941637384702303 -0.18681303935269133 -0.0012066667774435214 -0.0018014334479898864 -0.0012066667774435214 -0.96634862312522629 0.024810435061042857 -0.00060760249307468281 0.0012092877422769136 -0.00060760249307468281 -0.18895044766322533 2.5554170473959438e-05 0.0012092877422769136 2.5554170473959438e-05 -0.96964980323564642 0.036981414835698667 -0.00047286756137742851 0.00063478384470773115 -0.00047286756137742851 -0.18489584285639882 -4.2346045566973952e-05 0.00063478384470773115 -4.2346045566973952e-05 -0.96085029942046074 0.037019437690297557 -0.00028132259995909047 0.00071558196782965308 -0.00028132259995909047 -0.18471111117072156 9.3709564651822674e-05 0.00071558196782965308 9.3709564651822674e-05 -0.96068803505026268 0.029714554795097752 -0.00013399311822289542 -0.0031809614168893533 -0.00013399311822289542 -0.18747336689891031 0.001272982747268107 -0.0031809614168893533 0.001272982747268107 -0.96739509671270585 0.034182961678126865 -0.00012514851171496497 -0.0029061238166174785 -0.00012514851171496497 -0.18620526359660355 0.0002947496417811668 -0.0029061238166174785 0.0002947496417811668 -0.96525691371053546 0.030629895041028476 -0.0015505462770063515 -0.0021310406647957053 -0.0015505462770063515 -0.18706180917219117 0.00081857991962597243 -0.0021310406647957053 0.00081857991962597243 -0.96639790507778567 0.032654948607415135 -0.0004238652432775827 0.00015697989652499106 -0.0004238652432775827 -0.18567870705165415 1.2171890184473012e-05 0.00015697989652499106 1.2171890184473012e-05 -0.96157175444258336 0.036952408490217969 0.00028202489440166999 0.00036928485859947098 0.00028202489440166999 -0.18475325085721961 -8.9720090977659652e-06 0.00036928485859947098 -8.9720090977659652e-06 -0.96053049330831353 0.024315311299544007 0.00061232893883135921 0.00045089194574384254 0.00061232893883135921 -0.1894566568217283 3.7064162343482031e-05 0.00045089194574384254 3.7064162343482031e-05 -0.97179329764256439 0.032792681229952492 -0.00018464589890568417 -0.004825438658193279 -0.00018464589890568417 -0.18672989935069212 -0.00033219067491419008 -0.004825438658193279 -0.00033219067491419008 -0.96672022565677929 0.029719404854181231 0.00084196959127353266 -0.005639193985175428 0.00084196959127353266 -0.18778271721960932 -0.00015285214025217986 -0.005639193985175428 -0.00015285214025217986 -0.96773651641061265 0.034234393332254254 -0.00020214928202345395 -0.0045483069885317098 -0.00020214928202345395 -0.18537568570377427 -0.0022328342159853021 -0.0045483069885317098 -0.0022328342159853021 -0.96090118846372796 0.029729457724848696 -0.00073752140875496725 -0.0005591342443178049 -0.00073752140875496725 -0.18823240331034113 -8.9141347861920739e-05 -0.0005591342443178049 -8.9141347861920739e-05 -0.97099650802495907 0.034162369016673466 -0.0001975266951012258 -0.0025924562987747757 -0.0001975266951012258 -0.18538503008336055 9.9744645294608247e-05 -0.0025924562987747757 9.9744645294608247e-05 -0.9611851520714052 0.034155225464252703 -0.00013690782198723148 -0.0026532064922203391 -0.00013690782198723148 -0.18540806441880509 -6.2797489353658142e-05 -0.0026532064922203391 -6.2797489353658142e-05 -0.96153114123157812 0.022879732108753825 0.00043291402837558526 -0.0023775459638415986 0.00043291402837558526 -0.18991613954957998 -0.00039661261416437665 -0.0023775459638415986 -0.00039661261416437665 -0.97266339242746369 0.022850287535401602 0.00026282591724278596 -0.0023285091812774716 0.00026282591724278596 -0.18936400098912856 -0.0002610995609179656 -0.0023285091812774716 -0.0002610995609179656 -0.96963078866394525 0.036490447019272843 0.00086546478707439983 -0.002992009445508037 0.00086546478707439983 -0.18484166548670117 0.00015335091502532983 -0.002992009445508037 0.00015335091502532983 -0.96062539480617914 0.029570731637739989 -0.0011923090643442436 -0.0037054670741903939 -0.0011923090643442436 -0.18765931075959047 0.00016554809056168462 -0.0037054670741903939 0.00016554809056168462 -0.96856802616300874 0.032302254948695402 0.00011293850785078216 -0.0013955449534812092 0.00011293850785078216 -0.18697473028564462 -0.00028849889245785229 -0.0013955449534812092 -0.00028849889245785229 -0.96713613819322963 0.033732295747731095 0.00011809803835135713 -0.0027199852915940625 0.00011809803835135713 -0.18553508386431877 0.00028337976151913274 -0.0027199852915940625 0.00028337976151913274 -0.9613544707632522 0.029512249797347068 5.2464010181989018e-05 -0.0059632380729357504 5.2464010181989018e-05 -0.18759282303365382 3.3465732087359368e-05 -0.0059632380729357504 3.3465732087359368e-05 -0.96758452605424583 0.034841752161346329 0.00094082745813494251 -0.0020341338055109848 0.00094082745813494251 -0.1863715446120362 -0.00090368228109316551 -0.0020341338055109848 -0.00090368228109316551 -0.96664839601379371 0.036259644413415615 0.0005325155172106916 -0.0026687184843559031 0.0005325155172106916 -0.18479211772133808 -3.2120463475227012e-05 -0.0026687184843559031 -3.2120463475227012e-05 -0.96010392264852484 0.035432329115693162 0.00039760424850097985 -0.0035560852440783552 0.00039760424850097985 -0.18639493702050369 0.00051774226602752105 -0.0035560852440783552 0.00051774226602752105 -0.96728936980372859 0.022469187407351987 -0.00013004779799601375 -0.0030843675736536014 -0.00013004779799601375 -0.1893530846773131 6.5088863370976746e-05 -0.0030843675736536014 6.5088863370976746e-05 -0.97041171807110671 0.013241772550730224 -0.0010857068694715012 -0.00062551927996704754 -0.0010857068694715012 -0.1922627971856079 -5.1686224031392836e-05 -0.00062551927996704754 -5.1686224031392836e-05 -0.97557319652416252 0.012216344315722896 -0.00099215977850607997 -0.0021882431132675961 -0.00099215977850607997 -0.19338204616450161 -4.5529446616177083e-06 -0.0021882431132675961 -4.5529446616177083e-06 -0.98017942251135182 0.022624803626787572 6.8838478395258311e-05 -0.0026623718767760929 6.8838478395258311e-05 -0.19042253593980243 0.00051357660527140414 -0.0026623718767760929 0.00051357660527140414 -0.97591911473263659 0.01170953042951387 -0.00081764147720774264 -0.0018531541445970801 -0.00081764147720774264 -0.19306549245420054 0.00068842457483631048 -0.0018531541445970801 0.00068842457483631048 -0.97867331771049215 0.0063182606884242751 0.00087461253177865733 -0.0011224181321095594 0.00087461253177865733 -0.19408073815303156 8.1710111109911665e-05 -0.0011224181321095594 8.1710111109911665e-05 -0.97999554500492692 0.0067083694980766273 0.00016267177206515205 -0.0010176317737826679 0.00016267177206515205 -0.19560121605335501 -0.00041164952306810276 -0.0010176317737826679 -0.00041164952306810276 -0.98619009002848124 0.0053508740425983747 0.00091175943491110501 -0.0019358244417906345 0.00091175943491110501 -0.19544035799876092 -0.00091628651562547514 -0.0019358244417906345 -0.00091628651562547514 -0.98510731037067689 0.0066644941499058308 0.0005651351433640211 -0.0011587058810877127 0.0005651351433640211 -0.19455448276371751 -0.00041823255816017535 -0.0011587058810877127 -0.00041823255816017535 -0.98270481022151501 0.011285776674016756 0.00037267147020963212 -0.0032377173817859095 0.00037267147020963212 -0.19512042919415934 -5.9161582593336703e-05 -0.0032377173817859095 -5.9161582593336703e-05 -0.98356751448493962 0.010596816858469117 -0.00093358287148813575 -0.0033587331541093945 -0.00093358287148813575 -0.19430603044430625 0.00023450964193116874 -0.0033587331541093945 0.00023450964193116874 -0.98346624829621765 0.013567646609645184 0.0017828273484790476 -0.0017288043552072807 0.0017828273484790476 -0.19234536165958829 5.2303810384901617e-05 -0.0017288043552072807 5.2303810384901617e-05 -0.97516136001268061 0.012524399563867195 7.4256045101948802e-05 -0.00032234186356244754 7.4256045101948802e-05 -0.19447441086284656 -0.00024326797111598464 -0.00032234186356244754 -0.00024326797111598464 -0.98302493942078506 0.014540683021609602 0.00016256868100386233 -0.0016279348771329194 0.00016256868100386233 -0.19196245437117376 6.6234135244092052e-05 -0.0016279348771329194 6.6234135244092052e-05 -0.97326671247749541 0.013054756653714417 0.0001493639874311415 -0.0017843705669804422 0.0001493639874311415 -0.19410046050570476 0.0001931201217363343 -0.0017843705669804422 0.0001931201217363343 -0.981324451241817 0.013630468445308908 -0.00017723351250120521 -0.001226671937470003 -0.00017723351250120521 -0.19375457561353504 -0.0025292671982656278 -0.001226671937470003 -0.0025292671982656278 -0.97748792879444024 0.012908234160697252 0.001234336654537143 -0.0022215316840229621 0.001234336654537143 -0.19328916633061793 -0.0009699318825012182 -0.0022215316840229621 -0.0009699318825012182 -0.97971088514615556 0.013148329097444345 0.00038757227811062045 -0.00056989647439464886 0.00038757227811062045 -0.19312304330015917 0.0016373293034137593 -0.00056989647439464886 0.0016373293034137593 -0.97988755738689814 0.0088582659321804202 2.8908045227937161e-05 0.0002364933556643356 2.8908045227937161e-05 -0.19490438117501085 0.00021420749089207103 0.0002364933556643356 0.00021420749089207103 -0.98276144465604598 0.0092846410800407342 -0.0007313823980685107 -0.0029937404226682007 -0.0007313823980685107 -0.19439643663603917 6.8678014202849802e-05 -0.0029937404226682007 6.8678014202849802e-05 -0.98352525432519333 0.0167019916624076 0.002393553865987808 -0.001937900794316938 0.002393553865987808 -0.19229153306971025 -0.0012369378182751634 -0.001937900794316938 -0.0012369378182751634 -0.97740799605336859 0.017290208972940979 -0.0024042725155045191 -0.0007985219350610806 -0.0024042725155045191 -0.19369857826008452 -0.0011956606693064309 -0.0007985219350610806 -0.0011956606693064309 -0.98359302598075793 0.0076618870015660034 -0.00089974484626540265 0.00069613896102593831 -0.00089974484626540265 -0.19558774271982937 0.00046798480097187678 0.00069613896102593831 0.00046798480097187678 -0.98658998491549976 0.01196515225773806 0.00018433997800912876 -0.0014347174382971506 0.00018433997800912876 -0.19491233121441268 -4.9536321907739378e-05 -0.0014347174382971506 -4.9536321907739378e-05 -0.98543778710242835 0.018156628338833691 -0.0047253157642776003 -0.0018857545338304416 -0.0047253157642776003 -0.19208025604686635 0.0022706751765924071 -0.0018857545338304416 0.0022706751765924071 -0.97821623144030689 0.015911463455950403 0.00029529915109993617 -0.0042893963879773456 0.00029529915109993617 -0.191973669274489 -0.00034659448023433015 -0.0042893963879773456 -0.00034659448023433015 -0.97475863580956146 0.0099747232958050658 -0.00083520962434523605 -0.0015152710266768121 -0.00083520962434523605 -0.19363556169690677 -0.0005618450186757884 -0.0015152710266768121 -0.0005618450186757884 -0.97897695179117372 0.014338100754906824 0.0024735893402565599 -0.00332213352014471 0.0024735893402565599 -0.19409860659421763 0.00070507416946963275 -0.00332213352014471 0.00070507416946963275 -0.98636508274551193 0.0077503883264546936 -0.0015019708471432542 -0.00053355618168005048 -0.0015019708471432542 -0.19544246765515783 0.00056516991181287946 -0.00053355618168005048 0.00056516991181287946 -0.98667150976318529 0.010176514577036944 -0.0016116925871955937 -0.0016802647139051441 -0.0016116925871955937 -0.19491500208449741 0.00035437471384058838 -0.0016802647139051441 0.00035437471384058838 -0.98702581136003786 0.0082319074600063491 0.00067057312266422409 -0.0029349105013858345 0.00067057312266422409 -0.19646111191049775 -0.00035672958967492008 -0.0029349105013858345 -0.00035672958967492008 -0.98676525100911672 0.011014881140524457 0.00098453869461580116 -0.0015739083780916818 0.00098453869461580116 -0.19533336180759325 -3.5196374758239557e-05 -0.0015739083780916818 -3.5196374758239557e-05 -0.98571252057392456 0.010278651329164765 -0.00017013139678120995 -0.00022406958466747451 -0.00017013139678120995 -0.19463615690197628 -0.0013997175897777492 -0.00022406958466747451 -0.0013997175897777492 -0.98527788171546438 0.029769425341247879 0.00070205120493116999 -0.0043620244153710352 0.00070205120493116999 -0.18892843710610524 -0.00019002862687056421 -0.0043620244153710352 -0.00019002862687056421 -0.97468997521614487 0.010158623960229041 0.00042550292107124794 -0.0013093587423458342 0.00042550292107124794 -0.19393477948774107 -7.6150185377432678e-05 -0.0013093587423458342 -7.6150185377432678e-05 -0.98022497825151178 0.010093599407112741 0.00080144000300452973 -0.0010942757046512597 0.00080144000300452973 -0.19479790890471271 0.0013672688800241417 -0.0010942757046512597 0.0013672688800241417 -0.98049342968714237 0.01022945543487086 0.00013511335503711561 7.0799646724628573e-05 0.00013511335503711561 -0.19550166597285512 -5.6183391467179433e-05 7.0799646724628573e-05 -5.6183391467179433e-05 -0.98591438119935804 0.0070577136263068052 0.0005529404298733519 -0.00081144864112847603 0.0005529404298733519 -0.19605825440930358 0.00020896761983679735 -0.00081144864112847603 0.00020896761983679735 -0.98956607184425316 0.0063218026013313056 0.0012488781560721911 -0.0014178468842472869 0.0012488781560721911 -0.19568834018434889 -0.0004317900906839478 -0.0014178468842472869 -0.0004317900906839478 -0.98661769784492703 0.0064063578169936131 0.00066380392214395313 -0.0014162037131464911 0.00066380392214395313 -0.19469967480831041 0.00067282517943756392 -0.0014162037131464911 0.00067282517943756392 -0.98138136005578014 0.022593524505939822 -3.3769158209878637e-05 -0.0019253872131366201 -3.3769158209878637e-05 -0.19077492051828632 -6.6473664707911162e-05 -0.0019253872131366201 -6.6473664707911162e-05 -0.97764392259822563 0.011047742373275916 -0.0010943177579641784 -0.00087651688023682173 -0.0010943177579641784 -0.19357139363575068 0.00030687636329884693 -0.00087651688023682173 0.00030687636329884693 -0.98013785710641377 0.033705033096859238 -8.5943914750222306e-05 -0.0027600897941597591 -8.5943914750222306e-05 -0.18640526455296536 -0.00062786257044827876 -0.0027600897941597591 -0.00062786257044827876 -0.96588469303970115 0.028678943656644029 0.00034951647458228863 -0.0059574943767354005 0.00034951647458228863 -0.1883692276771971 1.6801129529953052e-05 -0.0059574943767354005 1.6801129529953052e-05 -0.97078188539357946 0.024112525223850101 -0.00014629898942252037 -0.0033534745554120171 -0.00014629898942252037 -0.19002486333130297 0.00051297208778261494 -0.0033534745554120171 0.00051297208778261494 -0.97486823384519505 0.035695907967785545 -0.00031553998623147874 -0.0050790513173719631 -0.00031553998623147874 -0.18654993664065367 0.00026905062470578001 -0.0050790513173719631 0.00026905062470578001 -0.96829911454039763 0.030106787754060615 -0.00070508091479215963 -0.00029972315112081205 -0.00070508091479215963 -0.18795704407750535 -4.6618254874730702e-06 -0.00029972315112081205 -4.6618254874730702e-06 -0.97050164091669 0.035523243790921533 -5.0803362717218722e-05 -0.0046533261586827468 -5.0803362717218722e-05 -0.18512819694935001 -0.00034313007450648136 -0.0046533261586827468 -0.00034313007450648136 -0.96104868630439633 0.026938076065856853 0.0003024933288210788 -0.0032538596015449506 0.0003024933288210788 -0.18977875762115359 -3.0126816236007714e-05 -0.0032538596015449506 -3.0126816236007714e-05 -0.97610988516889474 0.034330868803084336 -6.8900737352579406e-05 -0.0016218628962002546 -6.8900737352579406e-05 -0.18593506991588094 0.00022918097434854179 -0.0016218628962002546 0.00022918097434854179 -0.96389738202651687 0.036765888741786545 0.00016127488379987968 -0.0052745569976013762 0.00016127488379987968 -0.18480835065579315 -9.9245213084464545e-05 -0.0052745569976013762 -9.9245213084464545e-05 -0.96112981806549991 0.031852928842804107 0.00021976017684275447 -0.0012838348538678351 0.00021976017684275447 -0.18759067370019966 -0.00036881258374565906 -0.0012838348538678351 -0.00036881258374565906 -0.97024206874831842 0.034038269249032527 -0.00075209824537052965 -0.0026741365667177774 -0.00075209824537052965 -0.18576892176953819 0.0021533699976223897 -0.0026741365667177774 0.0021533699976223897 -0.96248433124644861 0.033744351116453575 -0.00028581023205774558 -0.0056395107415059265 -0.00028581023205774558 -0.18778287561021234 -7.5030447415525003e-05 -0.0056395107415059265 -7.5030447415525003e-05 -0.97209809049761775 0.035866405234207588 -0.00033340037447101331 -0.0046896565714361627 -0.00033340037447101331 -0.18480002540401164 -0.00030685899142068873 -0.0046896565714361627 -0.00030685899142068873 -0.96090787894202423 0.030327971627607364 0.00090995190703692039 -0.001065962737435755 0.00090995190703692039 -0.18815414711160577 -0.00021904112031456702 -0.001065962737435755 -0.00021904112031456702 -0.97019287565148749 0.049070372528770667 -0.00031433489577251881 -0.0067597318592300393 -0.00031433489577251881 -0.18168953912855612 -0.00014713127365006962 -0.0067597318592300393 -0.00014713127365006962 -0.95882433462230621 0.029436593122247945 0.0029385910962777214 -0.0054728924300624371 0.0029385910962777214 -0.18797312439135452 -0.0022241793668908993 -0.0054728924300624371 -0.0022241793668908993 -0.97019844128346755 0.033412985579138216 -0.0018779377507319086 -0.0021209560085304613 -0.0018779377507319086 -0.18695607676627687 -0.00084096945251721511 -0.0021209560085304613 -0.00084096945251721511 -0.96768387811029644 0.032321151868325293 0.0046241183047872596 -0.0032827206390626529 0.0046241183047872596 -0.18677179622447548 0.0011682297425867905 -0.0032827206390626529 0.0011682297425867905 -0.96861046370252568 0.039809761546757971 0.00017455855359422933 -0.0011758829847468011 0.00017455855359422933 -0.18496417439120405 -0.00045991071340578671 -0.0011758829847468011 -0.00045991071340578671 -0.96577932208976147 0.034974992285511652 -0.0024074021509383915 -0.0062773514831593324 -0.0024074021509383915 -0.18749084510997976 0.0021480948816505752 -0.0062773514831593324 0.0021480948816505752 -0.97102867721352726 0.033661342047103693 0.00073279284543539944 -0.00011372054905045559 0.00073279284543539944 -0.18671419209008777 -0.00078488854756114668 -0.00011372054905045559 -0.00078488854756114668 -0.96758427108594169 0.032336205034009469 -0.00075042174192839625 -0.0022365043006646879 -0.00075042174192839625 -0.18772879837919354 -0.0006324240581438989 -0.0022365043006646879 -0.0006324240581438989 -0.97451176494039427 0.030674743309643926 0.0010159852857689264 -0.0042685306848229132 0.0010159852857689264 -0.1885488275451771 0.00069646564907777098 -0.0042685306848229132 0.00069646564907777098 -0.97351190862118875 0.048439593435070205 0.0011703485290252033 -0.0055693698997720809 0.0011703485290252033 -0.18209870951416585 2.5826118002725273e-05 -0.0055693698997720809 2.5826118002725273e-05 -0.95841055729241065 0.040703969691325725 -8.1541875894033001e-05 -0.0046961869871635642 -8.1541875894033001e-05 -0.18383971526727116 0.00040938103493792788 -0.0046961869871635642 0.00040938103493792788 -0.96035576905560527 0.04933131399382007 -0.0012302994719035586 -0.0064235075723546586 -0.0012302994719035586 -0.18198883518725173 0.00029991075584723248 -0.0064235075723546586 0.00029991075584723248 -0.95924923735198275 0.039474812607998566 0.00098009987910315736 -0.0048040772224021977 0.00098009987910315736 -0.18561560741723293 -0.0015086597239049038 -0.0048040772224021977 -0.0015086597239049038 -0.96314695608659173 0.033011846896223718 -0.0018559346282973723 -0.0082919200787540115 -0.0018559346282973723 -0.1878499523639896 -0.00031366776560681764 -0.0082919200787540115 -0.00031366776560681764 -0.97103324570179428 0.030759415491039777 -0.00039504160564641827 0.00012011910636045009 -0.00039504160564641827 -0.18820137204925613 -0.00021342966659487761 0.00012011910636045009 -0.00021342966659487761 -0.97060372222492219 0.031338484098025421 -0.0012461696126559248 -4.7569682442460959e-05 -0.0012461696126559248 -0.18660030374496284 0.0016032546643653944 -4.7569682442460959e-05 0.0016032546643653944 -0.96950271493700768 0.040237243910556719 0.00037599062788080701 -0.0051537763363505018 0.00037599062788080701 -0.18411378598323203 -9.6990525486617685e-06 -0.0051537763363505018 -9.6990525486617685e-06 -0.96177721766198232 0.024208741005799173 0.000570560389307938 -0.0037259675889389499 0.000570560389307938 -0.1889025770031203 0.00073497562537849781 -0.0037259675889389499 0.00073497562537849781 -0.96941393478149429 0.039202077783119016 0.00041767156324139931 -0.0066980204022601963 0.00041767156324139931 -0.18564180138360065 -0.00032457862939971882 -0.0066980204022601963 -0.00032457862939971882 -0.96614163020666233 0.039619860802105222 0.0011996005026954672 -0.0030470848630923808 0.0011996005026954672 -0.18463093242595252 0.00021435672529124261 -0.0030470848630923808 0.00021435672529124261 -0.96201326492136019 0.038820864632662322 -0.0017934556122864128 -0.00015030068115828854 -0.0017934556122864128 -0.18461694973273401 0.00068632329219753263 -0.00015030068115828854 0.00068632329219753263 -0.96370682573700206 0.051188816450783547 0.00065122595326598412 -0.0043280303268140585 0.00065122595326598412 -0.18105961906900336 -0.00018971264009448596 -0.0043280303268140585 -0.00018971264009448596 -0.95828635974040655 0.03976561965351455 -0.0017872083427065077 -0.00173327744920726 -0.0017872083427065077 -0.18550986070073683 -0.00065360699950200996 -0.00173327744920726 -0.00065360699950200996 -0.9665513173895155 0.032003649708894244 -1.5587747294044393e-05 -0.0055711517994030402 -1.5587747294044393e-05 -0.18868034307172399 0.00087220550898980953 -0.0055711517994030402 0.00087220550898980953 -0.97208499193157705 0.027758678094101541 -0.00032341012570534408 -0.0022629888842664592 -0.00032341012570534408 -0.18892277799312956 -0.00082677837712119562 -0.0022629888842664592 -0.00082677837712119562 -0.97203169412122903 0.024522581490468043 0.00057182809516801954 -0.0050883087922168335 0.00057182809516801954 -0.19099394615382692 0.001932874239829685 -0.0050883087922168335 0.001932874239829685 -0.97772788634298502 0.023288392249350309 -0.00049659244214772589 -0.0060065340903769915 -0.00049659244214772589 -0.19136540071715658 0.00021847962735455084 -0.0060065340903769915 0.00021847962735455084 -0.97953182659226457 0.010584372653152457 -0.0001762121632304575 -0.00097788447384306032 -0.0001762121632304575 -0.19469124409025043 0.0008712938645127899 -0.00097788447384306032 0.0008712938645127899 -0.98400064859486858 0.023211189093101048 0.00020900265050619187 -0.0059139694278678157 0.00020900265050619187 -0.19114021868053821 0.00041926416924176202 -0.0059139694278678157 0.00041926416924176202 -0.97856911942318092 0.021517703035815572 0.00087327873082344658 -0.0015918137753853645 0.00087327873082344658 -0.19219320734914369 0.00014257069619505458 -0.0015918137753853645 0.00014257069619505458 -0.98196874437054849 0.023757161279105654 -0.0013425545244002606 -0.0030600794626063355 -0.0013425545244002606 -0.19070107108713796 0.0010075566030587346 -0.0030600794626063355 0.0010075566030587346 -0.9749349238052698 0.021227238423776218 -0.0013640143419442663 0.00060989984846138157 -0.0013640143419442663 -0.19231018601521893 -0.00012761656093296381 0.00060989984846138157 -0.00012761656093296381 -0.98118643623911761 0.0084935227997086082 0.00032778545624913979 -0.00074856945054113666 0.00032778545624913979 -0.19621495851819559 0.0019790530829688624 -0.00074856945054113666 0.0019790530829688624 -0.98996853047983446 0.009574339379979202 0.00018184888973253775 -0.0024771721805365576 0.00018184888973253775 -0.1955031324848171 0.00043494562641788193 -0.0024771721805365576 0.00043494562641788193 -0.98550762585343499 0.0068943456561698646 -4.1867579463801118e-05 -0.0020102769295529122 -4.1867579463801118e-05 -0.19701863133199371 0.0011150977688256791 -0.0020102769295529122 0.0011150977688256791 -0.99255631218023144 0.0073234746070736101 0.00017898433239784284 0.0011194159776011237 0.00017898433239784284 -0.19701562849380205 0.00029575676333792877 0.0011194159776011237 0.00029575676333792877 -0.99480277355942714 0.0066187405854485903 0.001095934526565698 -0.00089270977212518865 0.001095934526565698 -0.19517806589475878 0.001185390540201281 -0.00089270977212518865 0.001185390540201281 -0.98473129642791934 0.0051910602655466098 0.0013142942297504827 -0.0014797086398627979 0.0013142942297504827 -0.19690476099476129 -0.00016949860129100713 -0.0014797086398627979 -0.00016949860129100713 -0.99203400786043039 0.0098460912375686327 0.00033192579611212957 -0.0020487520526268899 0.00033192579611212957 -0.19635524900746271 0.00057427629769056521 -0.0020487520526268899 0.00057427629769056521 -0.99038656503102729 0.0093944610038306231 -8.6430493782118273e-05 -0.0023458224769288272 -8.6430493782118273e-05 -0.19628458304655577 0.00015344449667176185 -0.0023458224769288272 0.00015344449667176185 -0.99079119882859579 0.0093287266428698778 -0.00055707465428210144 -0.0017453094151740345 -0.00055707465428210144 -0.19517918410477431 0.00025753269289881253 -0.0017453094151740345 0.00025753269289881253 -0.98464117722657019 0.0080488710370353322 -0.00026427761069670825 -0.00047731393938188482 -0.00026427761069670825 -0.19619907428112737 -0.0027950573018307168 -0.00047731393938188482 -0.0027950573018307168 -0.9887021700651446 0.0080700194277288917 0.00037182879675058965 0.00089868511854707123 0.00037182879675058965 -0.19698673635266151 0.00054338009942966892 0.00089868511854707123 0.00054338009942966892 -0.9917641108342754 0.0094186253722653435 0.0004294854843478451 0.00085025117287096386 0.0004294854843478451 -0.19527432252888055 0.00037246575115701397 0.00085025117287096386 0.00037246575115701397 -0.98562685318749788 0.0077957635752393672 -0.0001449592416303801 -0.0027153746329875439 -0.0001449592416303801 -0.19695400406596242 -0.00025188162417655313 -0.0027153746329875439 -0.00025188162417655313 -0.99327866891665462 0.0095351202573311644 1.8623740178952917e-05 -0.00049941758845506445 1.8623740178952917e-05 -0.19592602658394165 0.0026399413405588934 -0.00049941758845506445 0.0026399413405588934 -0.98785616572416934 0.010177152123974187 0.00012526518752960564 0.00051282701912691575 0.00012526518752960564 -0.19498280011395486 -0.00041595061262555966 0.00051282701912691575 -0.00041595061262555966 -0.98498985053307742 0.020733067033160295 4.9365621663268232e-05 -0.0019768070720183051 4.9365621663268232e-05 -0.19082622233272434 3.6037620768536449e-05 -0.0019768070720183051 3.6037620768536449e-05 -0.97458306564264574 0.011097869351968215 -0.00032320419558306657 -0.00236696766610478 -0.00032320419558306657 -0.19551528863444989 -7.2809605251356047e-05 -0.00236696766610478 -7.2809605251356047e-05 -0.98918867355312035 0.024214194849645709 0.00019360928538326918 -0.0066282875483281156 0.00019360928538326918 -0.19087183161884513 -0.00090840367620881324 -0.0066282875483281156 -0.00090840367620881324 -0.97797641436618665 0.015527113064840004 6.5416400068430449e-05 0.0015465797653957496 6.5416400068430449e-05 -0.19317514689100168 1.9986842362818003e-05 0.0015465797653957496 1.9986842362818003e-05 -0.98112173446571305 0.0078846360305468988 -6.9105009943570378e-05 -0.0024724852154975885 -6.9105009943570378e-05 -0.19711406456479885 -0.00052538077605399081 -0.0024724852154975885 -0.00052538077605399081 -0.99271890336890944 0.02273929343334169 -0.00030637491892444337 -0.0057188537471342116 -0.00030637491892444337 -0.1905911749832816 -0.00042210232668593584 -0.0057188537471342116 -0.00042210232668593584 -0.97912441121517002 0.009894850628020313 0.00063360410840807002 -0.0020146732239227916 0.00063360410840807002 -0.19664751525413848 -1.4750405903152242e-05 -0.0020146732239227916 -1.4750405903152242e-05 -0.98906829383425521 0.0092497703979916857 -0.00035428884528431657 8.0060488824029719e-05 -0.00035428884528431657 -0.19545088105188335 -0.00066024034647049756 8.0060488824029719e-05 -0.00066024034647049756 -0.98559480886696882 0.010490194022124255 -0.00065993736570728757 -0.0026423234349934877 -0.00065993736570728757 -0.19593973539477516 -0.00025258294010860327 -0.0026423234349934877 -0.00025258294010860327 -0.98959139677768793 0.0098116623416019122 -0.0012672298182685338 -0.0018448475612562465 -0.0012672298182685338 -0.1954617761536378 8.698440755794401e-05 -0.0018448475612562465 8.698440755794401e-05 -0.99096377923618428 0.025088079628376114 0.000268100912644718 -0.0068951607630927114 0.000268100912644718 -0.19034904691948529 -7.7382146889126702e-06 -0.0068951607630927114 -7.7382146889126702e-06 -0.97686379862592165 0.024551469813298143 0.00037756458842294686 -0.0063895762238606046 0.00037756458842294686 -0.19018185674045818 -0.00047802841689448261 -0.0063895762238606046 -0.00047802841689448261 -0.9772969216270071 0.0091340640493686731 0.00026709880036333882 0.00069840541758714458 0.00026709880036333882 -0.19479075809650426 -0.00023392692848318852 0.00069840541758714458 -0.00023392692848318852 -0.98503127237851906 0.0069873430258562408 0.0003110189768125185 -0.0019167324546027764 0.0003110189768125185 -0.19722223006976758 0.00018335978035133316 -0.0019167324546027764 0.00018335978035133316 -0.99194570095819623 0.0069253465895828814 0.00043330981076709549 -0.0022322784253034911 0.00043330981076709549 -0.19672046012401312 -0.00020709030629675884 -0.0022322784253034911 -0.00020709030629675884 -0.99257945746114373 0.013515969084230584 -0.00020759418653875235 0.00067340457163478362 -0.00020759418653875235 -0.19314770081009058 0.00019289825657420323 0.00067340457163478362 0.00019289825657420323 -0.98042042653640671 0.013142543311588706 -0.00052393169800902346 9.8436775394006304e-05 -0.00052393169800902346 -0.19321769103690845 0.00022321894888799321 9.8436775394006304e-05 0.00022321894888799321 -0.9802906361156638 0.0063494029634633131 0.00055088759868947117 -0.0022856902553489711 0.00055088759868947117 -0.19705007414278597 0.00024298789953003386 -0.0022856902553489711 0.00024298789953003386 -0.99232855633454964 0.013381084999361192 -0.00054277605674050663 0.00019185253170472816 -0.00054277605674050663 -0.1930204890661873 0.00038262721973081337 0.00019185253170472816 0.00038262721973081337 -0.97925508214794199 0.010076961956023256 -0.0012671529600700357 -0.0038058607043418569 -0.0012671529600700357 -0.1958828422838389 0.0012963823504321681 -0.0038058607043418569 0.0012963823504321681 -0.99027052282277017 0.011092023181637156 7.0405439106751869e-07 -0.0038609619514911042 7.0405439106751869e-07 -0.19620624654418051 -0.00019227523399556468 -0.0038609619514911042 -0.00019227523399556468 -0.99161258991999723 0.024650241284856378 -0.00042425117906546309 -0.0066379970910260822 -0.00042425117906546309 -0.19028309372565333 0.00096609634476774175 -0.0066379970910260822 0.00096609634476774175 -0.97697964828757788 0.013452949625931909 -0.0010749450665274614 -0.00065590430477335815 -0.0010749450665274614 -0.19374473749157617 0.0018143946223331264 -0.00065590430477335815 0.0018143946223331264 -0.98312758889784391 0.0096030681683094699 0.00022888551476894838 -0.0014748485015467772 0.00022888551476894838 -0.19614663222837769 0.00024944236323110047 -0.0014748485015467772 0.00024944236323110047 -0.99100474234294023 0.0091522086766175903 0.00070019542040849342 0.00075852894518946279 0.00070019542040849342 -0.19498219160821173 0.00078677697418497172 0.00075852894518946279 0.00078677697418497172 -0.9849647631788172 0.0096935747079913426 0.00072775641256533755 -0.0014129519089449705 0.00072775641256533755 -0.19370850829859346 0.00042828372553627148 -0.0014129519089449705 0.00042828372553627148 -0.97876665169605526 0.015373288074016556 -0.00036752493388791452 -0.0045056349793746453 -0.00036752493388791452 -0.19163491123436299 0.00030273652187917666 -0.0045056349793746453 0.00030273652187917666 -0.97431783166506514 0.01533868796615534 0.0016039242672416445 -0.0035263176102945382 0.0016039242672416445 -0.19316882290159498 -0.0016570710359972707 -0.0035263176102945382 -0.0016570710359972707 -0.9772020795132117 0.014979458314397126 0.0019367003413575225 -0.0018374700565454219 0.0019367003413575225 -0.19352377485847308 0.0022376989156840388 -0.0018374700565454219 0.0022376989156840388 -0.98597608494125422 0.011585451525571909 -0.00037764682153602924 -0.0017374432152609254 -0.00037764682153602924 -0.19472150943859501 0.00020560656665324917 -0.0017374432152609254 0.00020560656665324917 -0.98600840703995862 0.01580106071332596 -0.002560232892778771 -0.0027544283950589055 -0.002560232892778771 -0.19224118678053354 0.0015080851009365848 -0.0027544283950589055 0.0015080851009365848 -0.97677826420586533 0.014640900280677731 -0.0014031262008151657 -0.0018494568489610154 -0.0014031262008151657 -0.19435524137145591 -0.00078872896867587805 -0.0018494568489610154 -0.00078872896867587805 -0.98611727151504092 0.0087746291679823285 0.0012255530695777343 -0.0016764248319400821 0.0012255530695777343 -0.19567004895981599 -0.0010399826929365918 -0.0016764248319400821 -0.0010399826929365918 -0.98754581491230464 0.0083630493981845522 0.00063757403014372944 0.00022117076186767282 0.00063757403014372944 -0.19541301873886008 -0.00073553333735298931 0.00022117076186767282 -0.00073553333735298931 -0.98583755525719319 0.0086359978586674699 0.0013777341126541109 -0.0011865627713654181 0.0013777341126541109 -0.19559587675857087 -0.00048831597373655278 -0.0011865627713654181 -0.00048831597373655278 -0.98688614390938167 0.010808445681383838 -0.00097175130069111781 -0.001798618448427991 -0.00097175130069111781 -0.19612073210915548 9.3983575424450017e-05 -0.001798618448427991 9.3983575424450017e-05 -0.98645654793905146 0.011520608495048434 0.004420611075563941 -0.0021332177132615815 0.004420611075563941 -0.19168785312630643 -0.0020273664915322342 -0.0021332177132615815 -0.0020273664915322342 -0.97819720825156375 0.031064576970629365 -0.00017161825529329471 -0.0047518302583311467 -0.00017161825529329471 -0.18914748516600666 0.0003044106186897988 -0.0047518302583311467 0.0003044106186897988 -0.97412544456614647 0.01714903451359584 -0.00060737665494610675 0.0010967595631010685 -0.00060737665494610675 -0.19518653934599817 0.0003687619244332474 0.0010967595631010685 0.0003687619244332474 -0.97968048635325289 0.012027626274169978 -8.6156665694743761e-05 -0.0028161351308488847 -8.6156665694743761e-05 -0.19620326510531416 0.00054328822939209154 -0.0028161351308488847 0.00054328822939209154 -0.98705014484705922 0.01279326167892636 7.0081927963716389e-05 -0.0020705714494416716 7.0081927963716389e-05 -0.19318696577319316 -0.00022273019065488509 -0.0020705714494416716 -0.00022273019065488509 -0.97855564962567643 0.0098261158382779712 0.00052559048265744042 0.00044464844731006981 0.00052559048265744042 -0.19636674280725863 0.00016767141135531904 0.00044464844731006981 0.00016767141135531904 -0.98618570841898956 0.0098776831481401494 0.00093123133717122706 0.00053969774652173896 0.00093123133717122706 -0.19509207110426313 -0.00030962391822808577 0.00053969774652173896 -0.00030962391822808577 -0.98591057078810196 0.0029563077058990528 -0.00089534184809875184 0.00073344494472049604 -0.00089534184809875184 -0.19616616737532699 -0.00017041384538651894 0.00073344494472049604 -0.00017041384538651894 -0.98751262430361875 0.0069345218391047014 0.00025876056644943502 -0.0013078871930956026 0.00025876056644943502 -0.19546829754118533 9.0489342073118983e-05 -0.0013078871930956026 9.0489342073118983e-05 -0.9871565891022609 0.0072898739340790941 -0.0019145564494045901 -0.0021946400825625378 -0.0019145564494045901 -0.19397360286569765 0.0010272042610998122 -0.0021946400825625378 0.0010272042610998122 -0.98175134665581565 0.020299103108902095 -0.00035884998623828028 -0.00027222774913138181 -0.00035884998623828028 -0.19176739972614548 6.2779583746674916e-05 -0.00027222774913138181 6.2779583746674916e-05 -0.9784054704386389 0.013244468676476245 0.00055686395058159564 -0.0019575937471559834 0.00055686395058159564 -0.19335710950148985 0.0003862871407245283 -0.0019575937471559834 0.0003862871407245283 -0.98078540766261602 0.0081581635150691501 -0.00071238704978095061 -0.0012220264045696982 -0.00071238704978095061 -0.19498430053453997 -0.00039115061520855754 -0.0012220264045696982 -0.00039115061520855754 -0.98767399500294051 0.0070611749515780975 -0.0015429400101414994 -0.00088578597147648264 -0.0015429400101414994 -0.19450349515440202 -0.0013791460673475697 -0.00088578597147648264 -0.0013791460673475697 -0.98419471323210317 0.011775117257453227 0.0010576680602581603 -0.0029925519227707031 0.0010576680602581603 -0.19550666363514363 -0.00013559981667410348 -0.0029925519227707031 -0.00013559981667410348 -0.98936173319673304 0.0049470852384350117 -0.0012422326869508586 -0.0022214796309685259 -0.0012422326869508586 -0.19641202238929556 0.00034537053113592453 -0.0022214796309685259 0.00034537053113592453 -0.99102911025983964 0.0071459907158395453 -1.6779401024350818e-05 -0.002137287540871613 -1.6779401024350818e-05 -0.19717346087761323 -0.00039691399395769267 -0.002137287540871613 -0.00039691399395769267 -0.9935378599941842 0.011005865465459008 -0.00052409230482425621 -0.0037250881116162038 -0.00052409230482425621 -0.19475994912032801 0.00048758048197516946 -0.0037250881116162038 0.00048758048197516946 -0.98403496440317451 0.0072421102384290226 -1.7847857641847115e-05 0.00063512003121823923 -1.7847857641847115e-05 -0.19667368972493571 -0.00029053648682941802 0.00063512003121823923 -0.00029053648682941802 -0.9943087039069507 0.0081927990443754206 -0.00018086573460825622 -0.00090518541591255719 -0.00018086573460825622 -0.19614652795043264 -0.0016190784182386064 -0.00090518541591255719 -0.0016190784182386064 -0.99037489548425306 0.0066108025248745594 -0.00062278616985384752 -0.0020322663925020912 -0.00062278616985384752 -0.19818407524909332 0.00019936278392229667 -0.0020322663925020912 0.00019936278392229667 -0.99319291554385192 0.0093927271220055619 0.0014000263784611374 -0.0038167666888737628 0.0014000263784611374 -0.19606154355879757 -0.0017165754111512221 -0.0038167666888737628 -0.0017165754111512221 -0.98970835657981659 0.011371026900816039 -0.00092573055668536256 0.0014548018749682701 -0.00092573055668536256 -0.19587202738024634 -0.00037956512832315603 0.0014548018749682701 -0.00037956512832315603 -0.98633591118295971 0.011900427389013979 0.0002666582391543862 -0.0029220988460412212 0.0002666582391543862 -0.19641154716751386 -2.0299514169319632e-05 -0.0029220988460412212 -2.0299514169319632e-05 -0.98953616663163046 0.023367463872043359 0.00020053658693377528 -0.0062585118287183106 0.00020053658693377528 -0.19064264966097078 -0.00078840919783296215 -0.0062585118287183106 -0.00078840919783296215 -0.97680530980028912 0.01483351262563537 0.0010731358451905604 -0.00029477186073489925 0.0010731358451905604 -0.19377117056567994 -0.0021526600072565016 -0.00029477186073489925 -0.0021526600072565016 -0.98343797110247078 0.016163217127171114 0.00012815759876177036 -0.0025419646177979871 0.00012815759876177036 -0.19341801828640687 0.00065218457445381794 -0.0025419646177979871 0.00065218457445381794 -0.98230440712880607 0.021172686778307304 -0.00065781888380704264 -2.2160318104091914e-05 -0.00065781888380704264 -0.19186554314583315 -0.0002470000724525967 -2.2160318104091914e-05 -0.0002470000724525967 -0.97932826621578695 0.023054082450747249 0.00081574835942308964 -0.006414331976272114 0.00081574835942308964 -0.19113435971658355 -0.00028411196710420583 -0.006414331976272114 -0.00028411196710420583 -0.97717433492351269 0.011012798452659234 0.00044728051500914225 0.001216291806353853 0.00044728051500914225 -0.19503098732400692 -0.00034983058689785906 0.001216291806353853 -0.00034983058689785906 -0.98627269291252517 0.023286251688496851 4.9315427304881038e-05 -0.0052288297743519896 4.9315427304881038e-05 -0.19130705818192872 -0.0002575163891560539 -0.0052288297743519896 -0.0002575163891560539 -0.97865360013603997 0.013540920418625896 0.0010050483050113494 -0.0014421756916058737 0.0010050483050113494 -0.19380406808558945 -0.0012555951746644478 -0.0014421756916058737 -0.0012555951746644478 -0.98278250437508763 0.031414869714175397 0.00067929777494154587 -6.7249485307119272e-05 0.00067929777494154587 -0.18780323845722946 -0.00012112582109113923 -6.7249485307119272e-05 -0.00012112582109113923 -0.96925647144713523 0.031551259798544784 0.001262248934485941 -0.00011470268043667353 0.001262248934485941 -0.18689277545568372 -0.00083547372456993507 -0.00011470268043667353 -0.00083547372456993507 -0.96876168477982549 0.028119287900627343 0.00051794280271395821 -0.001665664155507951 0.00051794280271395821 -0.18911138408327499 0.00064180897179522134 -0.001665664155507951 0.00064180897179522134 -0.97251703482530116 0.033011569096464743 0.0012579614033511569 -0.0045967467297580722 0.0012579614033511569 -0.18725106874935982 -0.0003131086406893413 -0.0045967467297580722 -0.0003131086406893413 -0.96834059126024563 0.027056663913013868 3.1665616042615733e-05 -0.0039106453157642385 3.1665616042615733e-05 -0.18971086808753901 -0.0014536527009134659 -0.0039106453157642385 -0.0014536527009134659 -0.97371634675496566 0.03852515739589224 0.0011005814777859482 -0.00028230022269393196 0.0011005814777859482 -0.18600096833663493 0.00058321918138204421 -0.00028230022269393196 0.00058321918138204421 -0.96559732149073074 0.029909097171905263 -0.00050346438433433868 -0.0050114786561930025 -0.00050346438433433868 -0.18906819340166303 -0.0012046488809522859 -0.0050114786561930025 -0.0012046488809522859 -0.97230908345475831 0.028529501991119588 0.001700356322836852 -0.0035828215592712195 0.001700356322836852 -0.18853937867945447 0.00082245342958442436 -0.0035828215592712195 0.00082245342958442436 -0.97359622521273881 0.042568351387890835 -0.00029091058744269704 -0.0058431444180804017 -0.00029091058744269704 -0.18346648248375808 0.00051761761227497871 -0.0058431444180804017 0.00051761761227497871 -0.96044740134007389 0.042676332044714216 -0.00063107905672705902 -0.0057472933887938206 -0.00063107905672705902 -0.18349500798284779 -0.0002933615584945759 -0.0057472933887938206 -0.0002933615584945759 -0.95991460166511677 0.050099612982738684 -1.7251596560286492e-05 -0.0038111692451370249 -1.7251596560286492e-05 -0.18178065944459387 -0.0012508212592534651 -0.0038111692451370249 -0.0012508212592534651 -0.96072809544786253 0.042209931838329995 0.0020323500576142606 -0.0030946617291571811 0.0020323500576142606 -0.18397122174560532 -0.00090338685665969365 -0.0030946617291571811 -0.00090338685665969365 -0.9614919137978033 0.038299830976205818 -0.0011759167490188846 -0.0024728864421723513 -0.0011759167490188846 -0.18579464142862745 0.00044526166476033247 -0.0024728864421723513 0.00044526166476033247 -0.9662724746285698 0.038139578279952735 -0.00018621214942906732 -0.0063503614990294555 -0.00018621214942906732 -0.18568063925256706 0.00026210799812553809 -0.0063503614990294555 0.00026210799812553809 -0.96601880948690289 0.036176874380739021 -7.5468564286780446e-05 -0.0044412450298734196 -7.5468564286780446e-05 -0.18479577349911569 -0.00011421000345301913 -0.0044412450298734196 -0.00011421000345301913 -0.96071538306861459 0.030507853237344618 0.0012151292472340556 -0.0022387155822601867 0.0012151292472340556 -0.18732168095517565 -0.00030132580949282506 -0.0022387155822601867 -0.00030132580949282506 -0.96673924943086398 0.041373223190589226 -0.00089339310729530982 -0.0040147811646594478 -0.00089339310729530982 -0.18364937951437488 -0.00025817563435404089 -0.0040147811646594478 -0.00025817563435404089 -0.95940326246527574 0.041458292262278151 -0.00034120246781560692 -0.0026971334915639744 -0.00034120246781560692 -0.1838118896650236 -0.00041948661771984419 -0.0026971334915639744 -0.00041948661771984419 -0.95999252609030172 0.03100542678649254 -0.0001636331129827011 -0.00050568026018937839 -0.0001636331129827011 -0.18741878314467236 0.00023174222543431711 -0.00050568026018937839 0.00023174222543431711 -0.96908022976334274 0.027430601015413725 -0.00037812850641874438 -0.0028728548075056953 -0.00037812850641874438 -0.18951840336252435 -7.6004892354424036e-05 -0.0028728548075056953 -7.6004892354424036e-05 -0.9759874833201625 0.03372997617041773 2.5350729200444313e-05 -0.0065366654070192487 2.5350729200444313e-05 -0.1870796552768943 -0.00047939868799162788 -0.0065366654070192487 -0.00047939868799162788 -0.97007496091888079 0.028013195884832087 -0.0003800544410952563 -0.0036111036994934294 -0.0003800544410952563 -0.18899258066176849 -0.00046273057447835525 -0.0036111036994934294 -0.00046273057447835525 -0.97384932301580029 0.028914987314633045 0.0010418239310705469 -0.0052805083626068366 0.0010418239310705469 -0.18845042748012397 -0.0014437257111339363 -0.0052805083626068366 -0.0014437257111339363 -0.97045071653392379 0.040779775846162436 -0.00014868676019335014 -0.0052490719614189663 -0.00014868676019335014 -0.18398772627088633 4.29273745393699e-05 -0.0052490719614189663 4.29273745393699e-05 -0.96098156868935503 0.034182685511637223 0.00015596129752148399 -0.0016609907012230529 0.00015596129752148399 -0.18627903633161069 -0.00030577395581465883 -0.0016609907012230529 -0.00030577395581465883 -0.96583928473965663 0.036666882177851412 0.00037843506922343335 -0.0042703773324060945 0.00037843506922343335 -0.18476347047353869 0.00039633496276514357 -0.0042703773324060945 0.00039633496276514357 -0.96074786031095338 0.033672379617064152 0.0014837675320198166 -0.0023009581253879419 0.0014837675320198166 -0.18581138499740513 -0.00311354666549013 -0.0023009581253879419 -0.00311354666549013 -0.96100038785604536 0.033938250929477887 0.00048328711673356069 -0.0055174653818143016 0.00048328711673356069 -0.18786879736773632 0.00037588073029304336 -0.0055174653818143016 0.00037588073029304336 -0.97196814278235877 0.032315353175578876 -0.00043974421980874537 -0.0011011081838407516 -0.00043974421980874537 -0.187404048610462 0.0003801568975562164 -0.0011011081838407516 0.0003801568975562164 -0.9691119354999147 0.031150936417419617 -0.0009636526599463511 -0.00090702386455598916 -0.0009636526599463511 -0.18742543201695971 0.00016398547018203757 -0.00090702386455598916 0.00016398547018203757 -0.96912824187570523 0.037487920496791019 -0.00035201908678683842 -0.0049252792583517335 -0.00035201908678683842 -0.18478357564326225 0.00015175453948634843 -0.0049252792583517335 0.00015175453948634843 -0.96104727851230654 0.032978063521835965 -0.0010663574602796408 0.00023785864469039186 -0.0010663574602796408 -0.18703633176993195 0.00094031086859303059 0.00023785864469039186 0.00094031086859303059 -0.96812475588944213 0.034439837049339173 0.0022125661221731826 -0.001954714861737511 0.0022125661221731826 -0.18688969311409831 0.0011763033677967272 -0.001954714861737511 0.0011763033677967272 -0.96811928301189987 0.028870151043449827 0.0011518850104679772 -0.00625334196658563 0.0011518850104679772 -0.18858896227529651 -0.0012090673881470781 -0.00625334196658563 -0.0012090673881470781 -0.97192776149650262 0.034081899786444519 -0.0037777698026205267 -0.0028082872057221264 -0.0037777698026205267 -0.18631555115879536 -0.0011745986279914078 -0.0028082872057221264 -0.0011745986279914078 -0.96859797742057674 0.039928057297220154 -0.00012446068673565067 -0.0011028447496015392 -0.00012446068673565067 -0.18525711564617509 0.00070016786997362246 -0.0011028447496015392 0.00070016786997362246 -0.96647926893909686 0.029136235575555482 -0.0021485289246946371 -0.006351413896896807 -0.0021485289246946371 -0.18805473285620697 0.0018273215158828293 -0.006351413896896807 0.0018273215158828293 -0.97163667714727764 0.028641892716462003 -0.001482947772955129 -0.0040818778883020546 -0.001482947772955129 -0.18882042177333014 -0.0006203891259258798 -0.0040818778883020546 -0.0006203891259258798 -0.97324105155176133 0.048948694669564474 0.00037702945963893029 -0.0070279570138898906 0.00037702945963893029 -0.18186137791304924 0.00029519820428580701 -0.0070279570138898906 0.00029519820428580701 -0.95874041136481436 0.049057899734182508 0.0011668712014986245 -0.0066936823043253213 0.0011668712014986245 -0.18201713977407852 0.00032383122920753848 -0.0066936823043253213 0.00032383122920753848 -0.95868880791817856 0.048657940140393929 -0.0013535527970969248 -0.0059749564012485656 -0.0013535527970969248 -0.18228099903079953 6.7749648627990489e-05 -0.0059749564012485656 6.7749648627990489e-05 -0.95836964921625611 0.040613405864143304 -9.8065063437190048e-05 -0.0045423495760982258 -9.8065063437190048e-05 -0.18402983934494743 -0.00039073450049498248 -0.0045423495760982258 -0.00039073450049498248 -0.9606788845451808 0.061758268834489094 -6.0200636617581025e-06 -0.00086001015746384191 -6.0200636617581025e-06 -0.17758011796019002 7.5229861780323759e-05 -0.00086001015746384191 7.5229861780323759e-05 -0.94931391300508317 0.058300159934884799 -0.0001412956387955734 -0.0036472703166747777 -0.0001412956387955734 -0.17934095497950131 0.00013571896262717931 -0.0036472703166747777 0.00013571896262717931 -0.95635576892957541 0.052687518261618826 -0.0029714899421909111 -0.002269719972418871 -0.0029714899421909111 -0.17986844134288432 0.0016387332899623352 -0.002269719972418871 0.0016387332899623352 -0.95369730080074233 0.053945335154170493 -0.00024362064258949778 -0.00078021976245135072 -0.00024362064258949778 -0.17887004694835595 0.0002105039356885309 -0.00078021976245135072 0.0002105039356885309 -0.94963353984872034 0.047129256241332296 0.00019219457030793949 -0.00042860989595694399 0.00019219457030793949 -0.18170861563314056 9.5867124288107064e-05 -0.00042860989595694399 9.5867124288107064e-05 -0.95621724874878078 0.052975328446054765 0.0017606612429271378 -0.0016613606195355901 0.0017606612429271378 -0.17921637307378596 0.001030625486752923 -0.0016613606195355901 0.001030625486752923 -0.95065060128023515 0.057831826793988794 -0.00052849202137910875 -0.0031857653529732133 -0.00052849202137910875 -0.18030579447525652 0.001038132042657236 -0.0031857653529732133 0.001038132042657236 -0.95646614997215496 0.05923282095304705 -0.0004539677222898506 -0.0052417622151816889 -0.0004539677222898506 -0.17829266411243005 -0.00050997928502205525 -0.0052417622151816889 -0.00050997928502205525 -0.94992303270951606 0.053971954980695402 0.0023679526599820872 -0.0035466906104564266 0.0023679526599820872 -0.1799810966217712 -0.001799382325410992 -0.0035466906104564266 -0.001799382325410992 -0.95224065272239944 0.062065329368926128 0.00013500782189482727 -0.0011393850573413467 0.00013500782189482727 -0.17754860728188604 -0.00025665116208731242 -0.0011393850573413467 -0.00025665116208731242 -0.94943615663205794 0.047014903785466189 -6.6825125834757285e-05 -0.0025938177996221723 -6.6825125834757285e-05 -0.1808300336815476 -0.00012706249604133024 -0.0025938177996221723 -0.00012706249604133024 -0.95066781904098541 0.048762233115797068 -0.0003493127993278286 -0.0036815693997991339 -0.0003493127993278286 -0.18196053255485506 0.00015149812767345505 -0.0036815693997991339 0.00015149812767345505 -0.95820636531850445 0.048108285231389908 -0.00063234983515804096 -0.0023114344895441841 -0.00063234983515804096 -0.18042213129407653 -0.00017716627439423593 -0.0023114344895441841 -0.00017716627439423593 -0.95033827063520149 0.04754296649557177 0.00068916100536283212 -0.0031270152091564807 0.00068916100536283212 -0.18030754726869785 -0.00018003689072321194 -0.0031270152091564807 -0.00018003689072321194 -0.95059890781799283 0.051028956836731323 0.00069878916212232349 -0.0040476321818345706 0.00069878916212232349 -0.18098576279450601 -0.00016200147748457461 -0.0040476321818345706 -0.00016200147748457461 -0.95747572831228545 0.04988612619481636 0.0004118757746590032 -0.0028544898068200153 0.0004118757746590032 -0.18145685491054375 0.00039061326604561408 -0.0028544898068200153 0.00039061326604561408 -0.9574312722773104 0.048026527545129705 0.00029649890524431697 -0.0028835617339129094 0.00029649890524431697 -0.18152579027731064 -0.00047532421330281904 -0.0028835617339129094 -0.00047532421330281904 -0.95523634635061061 0.049519349388980838 0.00023908322849546573 -0.0041133866810434405 0.00023908322849546573 -0.18055767548318291 -0.00015986501636477968 -0.0041133866810434405 -0.00015986501636477968 -0.9516196256170022 0.05075835934961892 -0.00033320586603157945 -0.0025988430773096205 -0.00033320586603157945 -0.18134593736014926 5.7543157574446724e-06 -0.0025988430773096205 5.7543157574446724e-06 -0.95712686747614528 0.057034771461538764 0.00052542866036873939 -0.0028184417486616375 0.00052542866036873939 -0.17866452309914441 -0.00016417405354592074 -0.0028184417486616375 -0.00016417405354592074 -0.94956757997118857 0.048134119215278159 0.00013503523924482684 -0.0019985448699658681 0.00013503523924482684 -0.18049744998265199 -2.6450312081427452e-06 -0.0019985448699658681 -2.6450312081427452e-06 -0.95015840974259036 0.051985428583831039 -0.00035411342927809357 -0.0036328892366181975 -0.00035411342927809357 -0.18047732954149498 0.00028054937875598984 -0.0036328892366181975 0.00028054937875598984 -0.95374638703064729 0.047856084812168104 0.00058545426913419833 -0.0027609202798187793 0.00058545426913419833 -0.18114628442816391 0.00048663211449218036 -0.0027609202798187793 0.00048663211449218036 -0.95342993807143539 0.053957101342631153 -0.00017030423418154915 -0.003234555942799866 -0.00017030423418154915 -0.17903632969942151 -1.3006370426033032e-05 -0.003234555942799866 -1.3006370426033032e-05 -0.9485121755506114 0.043839255939923438 -0.00041550493225584378 -0.0034552576276936087 -0.00041550493225584378 -0.18206991912961923 2.9287669496946833e-05 -0.0034552576276936087 2.9287669496946833e-05 -0.95445511111433001 0.046288303800339659 -0.00022540654226248518 -0.0017026020179918833 -0.00022540654226248518 -0.18213200165643395 -7.820946013625818e-05 -0.0017026020179918833 -7.820946013625818e-05 -0.95721260330347668 0.051771133044448858 -0.00018039680468713261 -0.0044529252379221784 -0.00018039680468713261 -0.18116291758009834 -0.00043602922254604159 -0.0044529252379221784 -0.00043602922254604159 -0.95705992916663951 0.056306104453673456 0.0005020280596868418 -0.0006220348617185234 0.0005020280596868418 -0.17852095702334636 0.00066608252540412138 -0.0006220348617185234 0.00066608252540412138 -0.94962954001795197 0.053244471249121572 0.00074917293944628876 -0.0057178549926416578 0.00074917293944628876 -0.18039322329051655 0.00042711169734310772 -0.0057178549926416578 0.00042711169734310772 -0.95620587308999472 0.050526967070905759 -0.0010762004012849912 -0.00076604893718308642 -0.0010762004012849912 -0.18157537603385221 -0.00048764759753394671 -0.00076604893718308642 -0.00048764759753394671 -0.95832412938031508 0.056975879232425086 -0.0073029947827673988 0.00095906468593298655 -0.0073029947827673988 -0.17954085766321848 -0.0029981929110496353 0.00095906468593298655 -0.0029981929110496353 -0.94799349984225412 0.05147456823234986 -0.00011003053581599926 3.4891875108300496e-05 -0.00011003053581599926 -0.18012442424556885 0.0013492409326558708 3.4891875108300496e-05 0.0013492409326558708 -0.95382207660150886 0.058970066096196261 0.0015146786194686322 -0.0029194147721027797 0.0015146786194686322 -0.17802150859870469 0.00028490245667733838 -0.0029194147721027797 0.00028490245667733838 -0.9499494985185839 0.057615145538549628 0.0011186148888272392 -0.0031116268383303697 0.0011186148888272392 -0.17981240276356947 -0.0019294875407374068 -0.0031116268383303697 -0.0019294875407374068 -0.95547551750921045 0.057948666026913509 -0.00026384206045059486 -0.0028751026949604963 -0.00026384206045059486 -0.17943383708087335 -0.00093837096968618638 -0.0028751026949604963 -0.00093837096968618638 -0.95596917508605594 0.064736908188170128 0.00048615448222833759 -0.0025193023698288908 0.00048615448222833759 -0.17708198421105892 -0.00050884384088689671 -0.0025193023698288908 -0.00050884384088689671 -0.95038154334710701 0.059655435642570698 -0.00018661821885194492 -0.0044850070801762953 -0.00018661821885194492 -0.17690122895153149 -5.2732452553883036e-05 -0.0044850070801762953 -5.2732452553883036e-05 -0.94573756733539938 0.061058522179126884 -0.00067230269682801126 -0.0008762047531999384 -0.00067230269682801126 -0.17741767495795324 0.00026096559664345875 -0.0008762047531999384 0.00026096559664345875 -0.94956842117871698 0.061961730512430591 -0.00041247411717495769 -0.00031288826649422674 -0.00041247411717495769 -0.17684485892271462 0.0013485095063607844 -0.00031288826649422674 0.0013485095063607844 -0.94642826515202172 0.069736398836296121 0.0013505570648445053 -0.0024487277523133066 0.0013505570648445053 -0.17456418614521119 0.00065195688693264753 -0.0024487277523133066 0.00065195688693264753 -0.94344141038136442 0.06814938512247859 -0.00016357557366192073 -0.0037285768169397215 -0.00016357557366192073 -0.17577267341739833 -1.6724720080851796e-05 -0.0037285768169397215 -1.6724720080851796e-05 -0.94598424145062143 0.068482179949703847 0.00017571530311016593 -0.003834835713847351 0.00017571530311016593 -0.17511737334268329 -0.00010426588349421451 -0.003834835713847351 -0.00010426588349421451 -0.94578400093846904 0.06275548121667085 -5.03859079364932e-05 -0.0026888852457918055 -5.03859079364932e-05 -0.17581660458547765 0.00019790864709453085 -0.0026888852457918055 0.00019790864709453085 -0.9444084252379632 0.061781120598964734 -0.0010026259969250287 -0.0023760538303285728 -0.0010026259969250287 -0.17644423620233091 0.00035376310741352945 -0.0023760538303285728 0.00035376310741352945 -0.94480989880109623 0.073581824440796417 -5.4306012839687048e-05 0.0011880621662849755 -5.4306012839687048e-05 -0.17402104263741336 0.00033984260497588181 0.0011880621662849755 0.00033984260497588181 -0.94262463968529975 0.064141024869461938 -0.00025486796237450716 0.00088596706163590611 -0.00025486796237450716 -0.17589943230107263 0.0005997867691813763 0.00088596706163590611 0.0005997867691813763 -0.94506036156218487 0.062787762425781324 -1.3179372958978903e-05 -0.0026775614184193497 -1.3179372958978903e-05 -0.17578946415210317 0.00038536889739138047 -0.0026775614184193497 0.00038536889739138047 -0.94427779361435471 0.069008103370967411 0.0048217941211993144 -0.001128551841074632 0.0048217941211993144 -0.17455118401250924 -0.00013040035925260263 -0.001128551841074632 -0.00013040035925260263 -0.9432097592112525 0.073858575706683194 -3.9136578415790619e-05 -0.0030976812158991507 -3.9136578415790619e-05 -0.1733770677757569 0.00035037202972887371 -0.0030976812158991507 0.00035037202972887371 -0.94156578530414325 0.068655300868091684 -0.0018957734759817999 -0.00089299451926727613 -0.0018957734759817999 -0.17480643908211335 0.00066810696024655059 -0.00089299451926727613 0.00066810696024655059 -0.94369125620863326 0.074234883046164102 0.00052940648103876379 0.00024825551829654735 0.00052940648103876379 -0.17398238353502782 -0.00056840631767762773 0.00024825551829654735 -0.00056840631767762773 -0.94543506050045334 0.064340307155567711 -1.5464107886017338e-06 -0.00172680815696169 -1.5464107886017338e-06 -0.17542098719324462 -0.00034830220275106072 -0.00172680815696169 -0.00034830220275106072 -0.94218497746477681 0.063806129711106552 -1.5834281457209357e-05 -0.00073701055150032779 -1.5834281457209357e-05 -0.17574481814564447 0.00051359900549319271 -0.00073701055150032779 0.00051359900549319271 -0.94398672148252416 0.059015947696405169 -5.6961731424990357e-05 -0.0014468946209513778 -5.6961731424990357e-05 -0.17707977036017941 -0.00061674485827145631 -0.0014468946209513778 -0.00061674485827145631 -0.94477461913696015 0.062177557416686957 0.00066180062403539664 0.00030032902919940874 0.00066180062403539664 -0.17626043378570166 -0.00056777367402460754 0.00030032902919940874 -0.00056777367402460754 -0.94420928791852266 0.059049763453261184 -1.1341449799697643e-06 -0.0013858489209654934 -1.1341449799697643e-06 -0.17712990584421173 -0.00057748816945846215 -0.0013858489209654934 -0.00057748816945846215 -0.94455855817107848 0.060181422644951299 0.0030929631385584579 0.00023050050722583926 0.0030929631385584579 -0.17876523805451727 0.0039806630647847285 0.00023050050722583926 0.0039806630647847285 -0.94627397412695258 0.05906261316969813 4.5545393206215003e-05 -0.0014230658755542969 4.5545393206215003e-05 -0.17720253878575526 -0.0006206566800335267 -0.0014230658755542969 -0.0006206566800335267 -0.94441824888286319 0.055266881789536981 -0.00029403105422158576 -0.0022620589558743909 -0.00029403105422158576 -0.17885309242679837 -0.00046119612142936361 -0.0022620589558743909 -0.00046119612142936361 -0.94728015252163544 0.052688435123647515 -4.5833109507177421e-05 -0.0033937829592010083 -4.5833109507177421e-05 -0.1788375769323455 -0.00023873910646132757 -0.0033937829592010083 -0.00023873910646132757 -0.94857655474171676 0.059112443323845243 -0.00011830355846736453 -0.00043267355462162094 -0.00011830355846736453 -0.17729301679336973 0.00018244820697610464 -0.00043267355462162094 0.00018244820697610464 -0.94622079043449014 0.055885423318036365 0.00045360558094478397 -0.0021351784821190822 0.00045360558094478397 -0.17843546010303102 -0.00059000537261955088 -0.0021351784821190822 -0.00059000537261955088 -0.94964266675596898 0.053580454781469999 0.00013756972423616083 -0.0034404006262779285 0.00013756972423616083 -0.17890321664518472 -0.00031973111829441958 -0.0034404006262779285 -0.00031973111829441958 -0.94766107191057181 0.054258685403491935 0.00013303046242203569 -0.0004403071383780599 0.00013303046242203569 -0.17866160415439153 0.0003509341879014416 -0.0004403071383780599 0.0003509341879014416 -0.94699250025165482 0.054539176330253347 -9.5003739131549184e-07 -0.0011075084989020656 -9.5003739131549184e-07 -0.1786897275952728 -0.0002659082414075975 -0.0011075084989020656 -0.0002659082414075975 -0.9467986908496262 0.056601826442361336 -0.00074241434254883267 0.00020005537109824001 -0.00074241434254883267 -0.17818407793003443 -0.00025456960139713658 0.00020005537109824001 -0.00025456960139713658 -0.94633412007997109 0.055185614504729912 0.0012026621846437926 -0.0016259609581524836 0.0012026621846437926 -0.17797258559004892 -0.00029489946669225553 -0.0016259609581524836 -0.00029489946669225553 -0.94524130832821474 0.054209125129907276 -2.8070609913531423e-05 -0.0017312909996043402 -2.8070609913531423e-05 -0.17811612802181931 -6.6816850421314022e-05 -0.0017312909996043402 -6.6816850421314022e-05 -0.94539011480509361 0.055706182218027034 -0.00076121512857568101 -0.0019504649630006643 -0.00076121512857568101 -0.17866086141360582 0.0011352354544391652 -0.0019504649630006643 0.0011352354544391652 -0.94884825930283867 0.055627911739629443 -0.0028701573194083296 0.00057927287943015937 -0.0028701573194083296 -0.17673370727522997 -0.00093872664084715396 0.00057927287943015937 -0.00093872664084715396 -0.94320799312965065 0.062723674931654649 -5.385021726582944e-05 -0.0027186202468376663 -5.385021726582944e-05 -0.17603229167884404 0.00016377264470124331 -0.0027186202468376663 0.00016377264470124331 -0.94434343109567953 0.055393578824681322 -0.00064499224750455824 -0.0011635441619747833 -0.00064499224750455824 -0.17833456959023508 -0.0010191941014221495 -0.0011635441619747833 -0.0010191941014221495 -0.94838571887021694 0.056062830590002499 0.0023848592440814469 -0.0024329794017828865 0.0023848592440814469 -0.17794837127007751 0.00071658838500887612 -0.0024329794017828865 0.00071658838500887612 -0.94542025986718037 0.060461099628701165 7.8472439449179306e-05 -0.0018869188472938614 7.8472439449179306e-05 -0.17739207290919212 8.7661987983489453e-05 -0.0018869188472938614 8.7661987983489453e-05 -0.94758009162920276 0.058087064221854945 -0.0024451701078173102 -0.0041871959493564592 -0.0024451701078173102 -0.17776710564480513 -0.00093824059654545877 -0.0041871959493564592 -0.00093824059654545877 -0.94669241970525597 0.055014002451350241 -0.00015171813773279336 -0.0014078267649910575 -0.00015171813773279336 -0.17901572773631208 4.7915636314566079e-05 -0.0014078267649910575 4.7915636314566079e-05 -0.95038060930935875 0.055105691655752298 -0.00090368002911761307 -0.00048071472602395637 -0.00090368002911761307 -0.17870892467310662 4.6846178145987238e-05 -0.00048071472602395637 4.6846178145987238e-05 -0.94818731396203226 0.054025040655945711 -2.6105969479412231e-06 -0.0018206149590627163 -2.6105969479412231e-06 -0.17819804234066228 -0.000144174176386902 -0.0018206149590627163 -0.000144174176386902 -0.94622557300720977 0.05414158789923007 -3.1601997846046701e-05 -0.0019738826363526751 -3.1601997846046701e-05 -0.17858539255216599 -0.00031606516348603453 -0.0019738826363526751 -0.00031606516348603453 -0.94633781783903403 0.061245478279803311 0.0001163907589132865 -0.0025191047037731451 0.0001163907589132865 -0.17666204501426463 0.00047211099176369675 -0.0025191047037731451 0.00047211099176369675 -0.94438669638791239 0.064159991320822396 -5.3077023286051154e-05 0.0010319341559885675 -5.3077023286051154e-05 -0.17612431390862981 0.00019681602707186802 0.0010319341559885675 0.00019681602707186802 -0.9443258661184224 0.059361525541086646 -0.00015880097060374547 0.00061233895261923049 -0.00015880097060374547 -0.17664241908152767 -0.00016453442714714495 0.00061233895261923049 -0.00016453442714714495 -0.94227038604842717 0.064373726505370987 0.00011289812840406367 0.0010580530063728499 0.00011289812840406367 -0.17625055610621421 0.00045883551296577174 0.0010580530063728499 0.00045883551296577174 -0.94469683156318673 0.061463656962683633 7.9007753284654296e-05 -0.0026708550594065628 7.9007753284654296e-05 -0.1765145029936237 0.0004229337559280566 -0.0026708550594065628 0.0004229337559280566 -0.94344816263701059 0.061208945929638436 8.5915942789413453e-05 -0.0028180943033768724 8.5915942789413453e-05 -0.1767241735954681 -3.4493631779985989e-05 -0.0028180943033768724 -3.4493631779985989e-05 -0.94451188360938376 0.068050660090346216 0.00014398532861827976 -0.003393094158672505 0.00014398532861827976 -0.17579271416703712 -2.0683085670381018e-05 -0.003393094158672505 -2.0683085670381018e-05 -0.94594235202632193 0.061897791064814411 0.00052874314917829334 -0.0030059058819446038 0.00052874314917829334 -0.17669442676453673 0.00020466829436283085 -0.0030059058819446038 0.00020466829436283085 -0.94475473651527775 0.062679607182612562 -2.344037616715475e-05 -0.0026831710473249615 -2.344037616715475e-05 -0.17608913960675665 0.00010433615734783963 -0.0026831710473249615 0.00010433615734783963 -0.94451464070534907 0.068054231670342524 6.3435205772699124e-05 -0.003464663931048495 6.3435205772699124e-05 -0.17538202230805877 -0.00041873606922804285 -0.003464663931048495 -0.00041873606922804285 -0.94532088494234445 0.06428622164109532 1.6365147085207126e-05 0.00099933728038092973 1.6365147085207126e-05 -0.1758152939774833 -7.9258207488608345e-05 0.00099933728038092973 -7.9258207488608345e-05 -0.94377262075572776 0.067759727284574023 -1.0931655477803299e-05 -0.0035639072512918535 -1.0931655477803299e-05 -0.17579892553763288 -0.00013466926172478466 -0.0035639072512918535 -0.00013466926172478466 -0.94617262669896807 0.067676354845284115 -0.0034325136228766295 -0.00043215307372390654 -0.0034325136228766295 -0.17512705935786055 0.00075806227996544351 -0.00043215307372390654 0.00075806227996544351 -0.94356251392855039 0.073400138082734045 0.00014453999550649514 -0.0021640255761843363 0.00014453999550649514 -0.17419929886963925 0.00024409166789612913 -0.0021640255761843363 0.00024409166789612913 -0.94393644405319321 0.073787845651762662 0.00010083910299600715 -0.0026121164209882419 0.00010083910299600715 -0.17366423397281505 0.0010476219384902841 -0.0026121164209882419 0.0010476219384902841 -0.94253246764841858 0.073320909949075475 0.00022820858005978347 -0.0021175973565279449 0.00022820858005978347 -0.17398871959554918 9.0909261680760522e-06 -0.0021175973565279449 9.0909261680760522e-06 -0.94364817838506765 0.073085216073144332 8.4882592942512613e-05 -0.0020189302229063344 8.4882592942512613e-05 -0.17413575497142708 7.4159270446516601e-05 -0.0020189302229063344 7.4159270446516601e-05 -0.94378952765256052 0.072935415154845251 0.00020311138452717945 -0.0020047025907966587 0.00020311138452717945 -0.17469996491321116 -9.7436097579173264e-05 -0.0020047025907966587 -9.7436097579173264e-05 -0.94397478736970042 0.07359813934439341 -0.00028762642211440612 -0.0019440481545167643 -0.00028762642211440612 -0.17426756607781879 5.7345920523754756e-05 -0.0019440481545167643 5.7345920523754756e-05 -0.94396920015049446 0.062086231681264925 0.0011197371120038096 0.0011245568108968484 0.0011197371120038096 -0.17615886600175223 -0.0003527373209595841 0.0011245568108968484 -0.0003527373209595841 -0.94434678542928241 0.061941048726168325 0.00039220652543094618 0.0011110575926941008 0.00039220652543094618 -0.17653877601012838 0.00033895877150946774 0.0011110575926941008 0.00033895877150946774 -0.94435733728113258 0.061508736479692239 8.195382050188267e-05 -0.0026524824815090664 8.195382050188267e-05 -0.17676780405319881 -0.00040402204242018236 -0.0026524824815090664 -0.00040402204242018236 -0.94296951882332802 0.064028368329743013 -0.00054194579124992425 0.0009838201590892659 -0.00054194579124992425 -0.17651740481328104 -0.00016260658737138334 0.0009838201590892659 -0.00016260658737138334 -0.94396835519959987 0.074285968576836447 8.1271792155378756e-05 -0.0023073518866745246 8.1271792155378756e-05 -0.17424655738494943 -0.00021877041219320326 -0.0023073518866745246 -0.00021877041219320326 -0.94350585266071896 0.067777906824358025 -0.00049507592540839313 -0.0038636833289464878 -0.00049507592540839313 -0.17575482216816785 0.00024316068453500428 -0.0038636833289464878 0.00024316068453500428 -0.94562842873289155 0.063387995102487604 -0.00036121921434122508 0.00060762655415902422 -0.00036121921434122508 -0.17635451484449072 0.00019197187700384366 0.00060762655415902422 0.00019197187700384366 -0.9442180072669526 0.066658454899222674 -0.00020806149313461807 -0.0023590447434933548 -0.00020806149313461807 -0.17682216724350241 -0.00012482127844037905 -0.0023590447434933548 -0.00012482127844037905 -0.94856109807301836 0.068309928728894964 -0.00013495377082718308 -0.0038712677732291034 -0.00013495377082718308 -0.17515611524592878 0.00020639475479065222 -0.0038712677732291034 0.00020639475479065222 -0.9454239031359486 0.046434520189373218 -0.00019952528126864361 -0.00049778619292606407 -0.00019952528126864361 -0.18173995331085746 5.4964852100880535e-05 -0.00049778619292606407 5.4964852100880535e-05 -0.9564887170252736 0.053760437144260986 -0.0016748536962648782 -0.0014173281425751139 -0.0016748536962648782 -0.17935843079393088 -0.00099413960142524793 -0.0014173281425751139 -0.00099413960142524793 -0.95116690513941471 0.05848840316680648 0.00027719572760535194 -0.0052895537419437311 0.00027719572760535194 -0.17886350657528927 5.7307237108589204e-05 -0.0052895537419437311 5.7307237108589204e-05 -0.95037752013001331 0.051710149913455072 0.0027844479135049382 -0.0024454586704605319 0.0027844479135049382 -0.18001538077140894 -0.001765880758564764 -0.0024454586704605319 -0.001765880758564764 -0.95387948320938531 0.054471118409823466 -0.0018318477418512152 -0.003821943961337837 -0.0018318477418512152 -0.17995510374098653 0.0012890603521383825 -0.003821943961337837 0.0012890603521383825 -0.95229198108269386 0.065140094095293366 0.0007941560198516846 -0.0021888431534147212 0.0007941560198516846 -0.17677334133475076 -0.00087636826987047556 -0.0021888431534147212 -0.00087636826987047556 -0.94844350427862389 0.057215762804897152 0.00054547993403734202 -0.0029573729903014101 0.00054547993403734202 -0.18048945939578231 -0.0010214761109774706 -0.0029573729903014101 -0.0010214761109774706 -0.95725270324944978 0.051455370456788593 -0.00080722242241618733 -0.0038719253352941241 -0.00080722242241618733 -0.18109204477523555 -5.6306295224795022e-05 -0.0038719253352941241 -5.6306295224795022e-05 -0.95744000400146145 0.048245709509365686 0.00046924321769998699 -0.002197074430574264 0.00046924321769998699 -0.18023259832728139 0.00021188314573084011 -0.002197074430574264 0.00021188314573084011 -0.94990368114223944 0.049615812860482111 -0.00035821903811161007 -0.0032089598810988162 -0.00035821903811161007 -0.18136385839674718 -0.00029395292294653874 -0.0032089598810988162 -0.00029395292294653874 -0.95746910496166526 0.047123098325883128 -2.6833128353237268e-05 -0.0024576302054049037 -2.6833128353237268e-05 -0.18054860468582723 0.00024830278437992792 -0.0024576302054049037 0.00024830278437992792 -0.95011584639467328 0.048454961504460492 0.00019572658419794855 -0.0039549262895013371 0.00019572658419794855 -0.18188147551397549 -9.4329600555220772e-05 -0.0039549262895013371 -9.4329600555220772e-05 -0.95818532539229651 0.047182399083099957 -0.00090532073001116419 -0.0032328097631474373 -0.00090532073001116419 -0.18059970932999392 2.6662121836995567e-06 -0.0032328097631474373 2.6662121836995567e-06 -0.95069523104874198 0.054943836167100857 0.00032762078860737866 -0.00048004877360774412 0.00032762078860737866 -0.17858017608987564 0.0010891995114297726 -0.00048004877360774412 0.0010891995114297726 -0.94803889195337643 0.054396347795357541 -0.00019775594894483962 -0.0017540954623320726 -0.00019775594894483962 -0.17840476161950855 5.9292574963842881e-05 -0.0017540954623320726 5.9292574963842881e-05 -0.94703047790265404 0.054553006557319872 0.0013055133574217713 0.00012833475371770708 0.0013055133574217713 -0.17908063453937295 -0.00028918597902549692 0.00012833475371770708 -0.00028918597902549692 -0.95115959786605675 0.056410585105035937 0.00073902386417631937 -0.0014459808787463668 0.00073902386417631937 -0.17786942443550424 0.00049498452387869429 -0.0014459808787463668 0.00049498452387869429 -0.94634441886730558 0.055412800056022837 -4.6846412342669102e-05 -0.0012050061369958953 -4.6846412342669102e-05 -0.17888608548367729 -0.00011421336420147643 -0.0012050061369958953 -0.00011421336420147643 -0.95044463154777215 0.060439359835400719 7.9989637330016828e-05 -0.0018548107194487073 7.9989637330016828e-05 -0.17742377014848443 -5.0715167580928089e-05 -0.0018548107194487073 -5.0715167580928089e-05 -0.94765614846732582 0.056057770358109993 0.00053219539958348496 -0.0016819613938870992 0.00053219539958348496 -0.17830040701563277 -0.0010787797454256953 -0.0016819613938870992 -0.0010787797454256953 -0.94892824904884554 0.057805360811492103 0.0016012045387602727 -0.0030806545383122094 0.0016012045387602727 -0.1773809074998052 0.00022787513047717312 -0.0030806545383122094 0.00022787513047717312 -0.94445359017736241 0.057832878063528659 -4.0655074989623509e-05 -0.0031077545585758148 -4.0655074989623509e-05 -0.17690577094332416 -0.00011702341354913326 -0.0031077545585758148 -0.00011702341354913326 -0.94436296757125859 0.053998580194732693 -4.8436763819273383e-05 -0.002147066199455816 -4.8436763819273383e-05 -0.17844952398939051 0.00050167927630684339 -0.002147066199455816 0.00050167927630684339 -0.94719025500552956 0.061412716089491504 -7.1571049824340545e-07 -0.002492624541134747 -7.1571049824340545e-07 -0.1766153830256818 -0.00050367393934613869 -0.002492624541134747 -0.00050367393934613869 -0.94359987660861622 0.054605978339275052 -1.315693044203829e-05 -0.0017592588029858858 -1.315693044203829e-05 -0.17828664765937952 7.2992408234773265e-05 -0.0017592588029858858 7.2992408234773265e-05 -0.94696741096949566 0.057689936697667907 -0.00020327933422801454 -0.00094584455509783005 -0.00020327933422801454 -0.17784511812454734 -0.00074926238763706188 -0.00094584455509783005 -0.00074926238763706188 -0.94615308257261721 0.056933511152267635 -0.00018768841043111109 -0.0016216298998110931 -0.00018768841043111109 -0.17855909713938545 -0.00074871494765849089 -0.0016216298998110931 -0.00074871494765849089 -0.94897466476378645 0.055663546072029592 -0.0011352483448281796 -0.0018200720138635829 -0.0011352483448281796 -0.17820384760629085 0.00032163286501785127 -0.0018200720138635829 0.00032163286501785127 -0.945460202754144 0.054980887316717672 -2.3869656980257527e-05 -0.0016464983146396994 -2.3869656980257527e-05 -0.17784774764715761 -0.00031607529553534519 -0.0016464983146396994 -0.00031607529553534519 -0.9455320542842971 0.058354848599300069 1.3140350552146359e-06 -0.0017000980383856668 1.3140350552146359e-06 -0.17760003211578201 0.00051403048693177134 -0.0017000980383856668 0.00051403048693177134 -0.94466248951627207 0.058340926560412121 2.9083283413201083e-05 -0.0016747445642036896 2.9083283413201083e-05 -0.17754163068252848 0.00048464492507094281 -0.0016747445642036896 0.00048464492507094281 -0.94479061379312812 0.056497972063864366 0.00061108192978812168 -0.00020095317814350366 0.00061108192978812168 -0.17834227275920983 7.4664105794264302e-05 -0.00020095317814350366 7.4664105794264302e-05 -0.94735371203556151 0.052494763455100069 7.2761566427153056e-05 -0.00247904092149831 7.2761566427153056e-05 -0.17912709737784727 0.00022706751840217976 -0.00247904092149831 0.00022706751840217976 -0.94756479811103667 0.054580422947638138 -0.00012183742482891824 -0.00047924348143757456 -0.00012183742482891824 -0.17875028653974839 -0.00030652272142039916 -0.00047924348143757456 -0.00030652272142039916 -0.94770712303491389 0.053925126671678036 0.0001955683753072447 -0.001803442618151907 0.0001955683753072447 -0.1791029588877473 0.00039980816067675118 -0.001803442618151907 0.00039980816067675118 -0.9490168868764286 0.048431206005092764 -0.00018029666082552655 -0.0018701145169578437 -0.00018029666082552655 -0.18026552405528506 -0.00023566931066304475 -0.0018701145169578437 -0.00023566931066304475 -0.94933601105922083 0.047809870228687101 -0.00027309414396096813 -0.0026712790418735866 -0.00027309414396096813 -0.1811127724213199 0.00042353974257386406 -0.0026712790418735866 0.00042353974257386406 -0.95303384098695321 0.052066187083489535 5.6174968848030633e-05 -0.0046289247422122148 5.6174968848030633e-05 -0.1803979663303501 -0.00025060957210482071 -0.0046289247422122148 -0.00025060957210482071 -0.95343759525290217 0.053352113991636807 0.00034186939621628674 -0.0027141417520306632 0.00034186939621628674 -0.17916650588315475 -0.00011848445979734112 -0.0027141417520306632 -0.00011848445979734112 -0.94869590137660653 0.043338320633060867 0.0010758870787772698 -0.0033217386447832974 0.0010758870787772698 -0.18327800723005905 0.00016435549383486681 -0.0033217386447832974 0.00016435549383486681 -0.95898944846596201 0.052920911508508306 0.00027454266881139907 -0.0039637839644528494 0.00027454266881139907 -0.17984636688809807 0.00043369368061130231 -0.0039637839644528494 0.00043369368061130231 -0.9517311959910586 0.049939545452624134 -7.6663144620430629e-05 -0.0030452761061352529 -7.6663144620430629e-05 -0.18158675147529768 -9.1138989789518732e-06 -0.0030452761061352529 -9.1138989789518732e-06 -0.95737499967593243 0.043266810836714575 0.00023562585554423384 -0.0047579064636286972 0.00023562585554423384 -0.18331264330640784 8.3084856594806134e-05 -0.0047579064636286972 8.3084856594806134e-05 -0.95971841650735756 0.04587966781504399 0.00017199714416236736 -0.0014219849494041537 0.00017199714416236736 -0.18183345006791984 -0.00024889206772027439 -0.0014219849494041537 -0.00024889206772027439 -0.95493740686700912 0.043344940212433847 0.00053414502812094847 -0.0022108359400661026 0.00053414502812094847 -0.18330779927724727 0.00017906830301317456 -0.0022108359400661026 0.00017906830301317456 -0.95861292442426871 0.065895207233217568 0.00094020099056482372 -0.0014643705645828176 0.00094020099056482372 -0.17646785055962938 0.00014204862975708554 -0.0014643705645828176 0.00014204862975708554 -0.94847130732691753 0.050884631482516263 0.0010757942748856816 -0.0025259080502371134 0.0010757942748856816 -0.18017773678118437 0.00021580092899146919 -0.0025259080502371134 0.00021580092899146919 -0.9521324209838713 0.052460787808653153 0.00067178489770104667 -0.0025565475167906686 0.00067178489770104667 -0.18020749763631305 0.00070915675668548062 -0.0025565475167906686 0.00070915675668548062 -0.95278290486634676 0.05188004846715899 8.6855121112746928e-05 -0.0053271545169450985 8.6855121112746928e-05 -0.18079797159365574 0.00035061958603277432 -0.0053271545169450985 0.00035061958603277432 -0.95459919879473309 0.057387396122794532 -0.0007680584199216509 -0.0016632620623924232 -0.0007680584199216509 -0.17910776929085026 -0.0011658245656249733 -0.0016632620623924232 -0.0011658245656249733 -0.95466182633829666 0.052958643923467497 -0.0017042229960611986 8.1125216478072915e-05 -0.0017042229960611986 -0.17938814387456725 0.00013668374258113403 8.1125216478072915e-05 0.00013668374258113403 -0.95158670919610788 0.057143630820149394 0.0010568112844583401 -0.0032747160950696852 0.0010568112844583401 -0.18025138962876319 0.00021307854909324853 -0.0032747160950696852 0.00021307854909324853 -0.95764077957418614 0.057056880592902148 6.750282495653824e-06 -0.0034221303913626322 6.750282495653824e-06 -0.17976470843699 0.0013079103769541023 -0.0034221303913626322 0.0013079103769541023 -0.95688474332803963 0.064977419065226583 0.00032111179641718275 -0.0023420618315788122 0.00032111179641718275 -0.17645499962360323 0.00024432093200088545 -0.0023420618315788122 0.00024432093200088545 -0.94893370001496757 0.057903348474528896 -2.3045160760502018e-05 -0.0030552374931430704 -2.3045160760502018e-05 -0.17690590996144523 -0.000172177977564969 -0.0030552374931430704 -0.000172177977564969 -0.94401179279877057 0.066696155619316966 -0.00018766086332229443 -0.0020017913419649869 -0.00018766086332229443 -0.17632495376499635 0.00045190431403030473 -0.0020017913419649869 0.00045190431403030473 -0.94796571637126759 0.061973208979166527 -0.00081739251678033067 -0.00012596693529265401 -0.00081739251678033067 -0.17636639387913527 -0.00030143672492344287 -0.00012596693529265401 -0.00030143672492344287 -0.94500313922329915 0.060980446498180574 0.00032728215145594108 -0.0013642366132707306 0.00032728215145594108 -0.17721102530545296 0.00051696256021172005 -0.0013642366132707306 0.00051696256021172005 -0.94711008689287768 0.067159265587316219 1.1941099761575397e-05 -0.00027361004367554287 1.1941099761575397e-05 -0.17545760376886232 -0.00080016498469670516 -0.00027361004367554287 -0.00080016498469670516 -0.94582551012139771 0.060061867614986275 -0.00070560629778565497 -0.0036230640418937199 -0.00070560629778565497 -0.17754176687884698 0.0004273613377991925 -0.0036230640418937199 0.0004273613377991925 -0.94735177835373796 0.064127677042231657 1.29022707687687e-05 0.0013445225688136775 1.29022707687687e-05 -0.1760469276552098 -0.00014567311808920402 0.0013445225688136775 -0.00014567311808920402 -0.9440253763590527 0.064063689603809537 4.1937080432815344e-05 0.0014219566897773483 4.1937080432815344e-05 -0.17605017977585297 -0.00032770194838799283 0.0014219566897773483 -0.00032770194838799283 -0.94419531734384332 0.059985429175204365 -0.0016611083421608189 -0.0032518904663010328 -0.0016611083421608189 -0.17675902684301578 -0.00012378088987496927 -0.0032518904663010328 -0.00012378088987496927 -0.94355125979983112 0.074253286517463657 -0.00010040250761435951 -0.0019652136658121488 -0.00010040250761435951 -0.17366922865889611 -0.00060581297421480329 -0.0019652136658121488 -0.00060581297421480329 -0.9442474697505121 0.075211243564826447 -0.00072195411673448473 -0.0018780005937174549 -0.00072195411673448473 -0.17386975711095554 -0.00025688888527364284 -0.0018780005937174549 -0.00025688888527364284 -0.94435278812189516 0.061875750298503118 0.0014852398898084756 0.00036768449058777186 0.0014852398898084756 -0.17687564056123739 0.00030856949822266611 0.00036768449058777186 0.00030856949822266611 -0.9445691406213963 0.064558406345187835 -2.4520128088897926e-05 -0.0021376312390156693 -2.4520128088897926e-05 -0.17575365865667081 0.00081677264654356208 -0.0021376312390156693 0.00081677264654356208 -0.94221409837161207 0.076105844089193964 2.5828758457279171e-05 -0.0023433035545727954 2.5828758457279171e-05 -0.17331220543753045 -0.0008482395452908964 -0.0023433035545727954 -0.0008482395452908964 -0.94357270392698034 0.064576351911783458 2.7556751070886345e-06 -0.0021374832773519703 2.7556751070886345e-06 -0.17568111956216392 0.00074234446219589856 -0.0021374832773519703 0.00074234446219589856 -0.94219678386858341 0.073862483043832139 0.00088109593086662459 0.00010324414405715743 0.00088109593086662459 -0.17374450723143942 0.00040257585255165651 0.00010324414405715743 0.00040257585255165651 -0.94379242657106577 0.070280338731713465 0.0024453532719893086 -0.00074554090650846838 0.0024453532719893086 -0.17453481807281723 -0.00014455583225481128 -0.00074554090650846838 -0.00014455583225481128 -0.94315179283132267 
</DataArray>
</CellData>
</Piece>
</UnstructuredGrid>
</VTKFile>
