<?xml version="1.0"?>
<VTKFile type="UnstructuredGrid" version="0.1" byte_order="LittleEndian">
<UnstructuredGrid>
<Piece NumberOfPoints="2876" NumberOfCells="719">
<Points>
<DataArray type="Float64" NumberOfComponents="3" format="ascii">
0.31610726166346748 0.18804489794572149 0 0.16929708765618309 0.30074819035915368 0 0.14641016151452901 0.14641016151487049 0 0.312576188949791 0.31458070521983672 0.3125761889497819 0 0.20000000000083221 0 0 0 0 0.14641016151452901 0.14641016151487049 0 0 0.14641016151432179 0.14641016151432179 0 0 0 0.19999999999955789 0 0 0.14641016151452901 0.14641016151487049 0 0.1464101615145241 0 0.14641016151486561 0 0.14641016151432179 0.14641016151432179 0 0 0.20000000000083221 0 0 0 0.1464101615145241 0 0.14641016151486561 0 0.14641016151432179 0.14641016151432179 0 0.30074819035869899 0.1692970876565193 0 0.18804489794560331 0.31610726166461361 0.312576188949791 0.31458070521983672 0.3125761889497819 0.31578456131778371 0 0.1865278143482666 0.1464101615145241 0 0.14641016151486561 0.16938214347656569 0 0.30011357660650623 0.312576188949791 0.31458070521983672 0.3125761889497819 0 0.14641016151432179 0.14641016151432179 0 0 0 0.14641016151452901 0.14641016151487049 0 0.1464101615145241 0 0.14641016151486561 0.14641016151452901 0.14641016151487049 0 0.1464101615145241 0 0.14641016151486561 0.31578456131778371 0 0.1865278143482666 0.312576188949791 0.31458070521983672 0.3125761889497819 0.14641016151452901 0.14641016151487049 0 0 0.30074819035869899 0.1692970876565193 0 0.14641016151432179 0.14641016151432179 0.312576188949791 0.31458070521983672 0.3125761889497819 0.14641016151452901 0.14641016151487049 0 0 0.14641016151432179 0.14641016151432179 0.1464101615145241 0 0.14641016151486561 0.312576188949791 0.31458070521983672 0.3125761889497819 0 0.14641016151432179 0.14641016151432179 0.16938214347656569 0 0.30011357660650623 0.1464101615145241 0 0.14641016151486561 0.312576188949791 0.31458070521983672 0.3125761889497819 0.1464101615145241 0 0.14641016151486561 0 0.14641016151432179 0.14641016151432179 0 0 0.20000000000083221 0.16938214347656569 0 0.30011357660650623 0 0.18804489794560331 0.31610726166461361 0 0 0.20000000000083221 0 0.14641016151432179 0.14641016151432179 0.16938214347656569 0 0.30011357660650623 0 0.14641016151432179 0.14641016151432179 0.14641016151452901 0.14641016151487049 0 0 0.20000000000083221 0 0 0.30074819035869899 0.1692970876565193 0 0.30074819035869899 0.1692970876565193 0.14641016151452901 0.14641016151487049 0 0 0.20000000000083221 0 0.16929708765618309 0.30074819035915368 0 0.19999999999955789 0 0 0.14641016151452901 0.14641016151487049 0 0.31578456131778371 0 0.1865278143482666 0.31610726166346748 0.18804489794572149 0 0.19999999999955789 0 0 0.14641016151452901 0.14641016151487049 0 0.1464101615145241 0 0.14641016151486561 0.31578456131778371 0 0.1865278143482666 0.31578456131778371 0 0.1865278143482666 0.3999999999989749 0 0 0.19999999999955789 0 0 0.31610726166346748 0.18804489794572149 0 0.31578456131778371 0 0.1865278143482666 0.31610726166346748 0.18804489794572149 0 0.14641016151452901 0.14641016151487049 0 0.312576188949791 0.31458070521983672 0.3125761889497819 0.31610726166346748 0.18804489794572149 0 0.312576188949791 0.31458070521983672 0.3125761889497819 0.31578456131778371 0 0.1865278143482666 0.5003997205654479 0.21136633249797621 0.2258422409314382 0.31610726166346748 0.18804489794572149 0 0.49391845158624981 0 0.1323760430705655 0.50966790549376417 0.16275515618023731 0 0.5003997205654479 0.21136633249797621 0.2258422409314382 0.31610726166346748 0.18804489794572149 0 0.50966790549376417 0.16275515618023731 0 0.45812322962036273 0.31024977578535839 0 0.5003997205654479 0.21136633249797621 0.2258422409314382 0.49391845158624981 0 0.1323760430705655 0.3999999999989749 0 0 0.31610726166346748 0.18804489794572149 0 0.50966790549376417 0.16275515618023731 0 0.49391845158624981 0 0.1323760430705655 0.3999999999989749 0 0 0.31578456131778371 0 0.1865278143482666 0.31610726166346748 0.18804489794572149 0 0.31578456131778371 0 0.1865278143482666 0.47688326899416439 0 0.31741132792405607 0.49391845158624981 0 0.1323760430705655 0.5003997205654479 0.21136633249797621 0.2258422409314382 0.31610726166346748 0.18804489794572149 0 0.31578456131778371 0 0.1865278143482666 0.49391845158624981 0 0.1323760430705655 0.5003997205654479 0.21136633249797621 0.2258422409314382 0.31030302876556398 0 0.54179813558513157 0.50073570207385831 0.24848280280289631 0.52886631355986169 0.32146143392436449 0 0.38738071487621961 0.22088738526309029 0.22111069116742441 0.50004796911802929 0.32146143392436449 0 0.38738071487621961 0.312576188949791 0.31458070521983672 0.3125761889497819 0.16938214347656569 0 0.30011357660650623 0.22088738526309029 0.22111069116742441 0.50004796911802929 0.32146143392436449 0 0.38738071487621961 0.50073570207385831 0.24848280280289631 0.52886631355986169 0.312576188949791 0.31458070521983672 0.3125761889497819 0.22088738526309029 0.22111069116742441 0.50004796911802929 0.32146143392436449 0 0.38738071487621961 0.50073570207385831 0.24848280280289631 0.52886631355986169 0.47688326899416439 0 0.31741132792405607 0.5003997205654479 0.21136633249797621 0.2258422409314382 0.32146143392436449 0 0.38738071487621961 0.312576188949791 0.31458070521983672 0.3125761889497819 0.50073570207385831 0.24848280280289631 0.52886631355986169 0.5003997205654479 0.21136633249797621 0.2258422409314382 0.32146143392436449 0 0.38738071487621961 0.31578456131778371 0 0.1865278143482666 0.16938214347656569 0 0.30011357660650623 0.312576188949791 0.31458070521983672 0.3125761889497819 0.31578456131778371 0 0.1865278143482666 0.312576188949791 0.31458070521983672 0.3125761889497819 0.32146143392436449 0 0.38738071487621961 0.5003997205654479 0.21136633249797621 0.2258422409314382 0.31578456131778371 0 0.1865278143482666 0.32146143392436449 0 0.38738071487621961 0.47688326899416439 0 0.31741132792405607 0.5003997205654479 0.21136633249797621 0.2258422409314382 0.31030302876556398 0 0.54179813558513157 0.50000000000250922 0 0.48038475773043671 0.32146143392436449 0 0.38738071487621961 0.50073570207385831 0.24848280280289631 0.52886631355986169 0.32146143392436449 0 0.38738071487621961 0.50000000000250922 0 0.48038475773043671 0.47688326899416439 0 0.31741132792405607 0.50073570207385831 0.24848280280289631 0.52886631355986169 0.16370661204827031 0 0.4886650857430957 0.31030302876556398 0 0.54179813558513157 0.32146143392436449 0 0.38738071487621961 0.22088738526309029 0.22111069116742441 0.50004796911802929 0.16370661204827031 0 0.4886650857430957 0.32146143392436449 0 0.38738071487621961 0.16938214347656569 0 0.30011357660650623 0.22088738526309029 0.22111069116742441 0.50004796911802929 0.16938214347656569 0 0.30011357660650623 0 0.14641016151432179 0.14641016151432179 0 0.18804489794560331 0.31610726166461361 0.312576188949791 0.31458070521983672 0.3125761889497819 0 0.18804489794560331 0.31610726166461361 0.16370661204827031 0 0.4886650857430957 0.16938214347656569 0 0.30011357660650623 0.22088738526309029 0.22111069116742441 0.50004796911802929 0 0.18804489794560331 0.31610726166461361 0.16938214347656569 0 0.30011357660650623 0.312576188949791 0.31458070521983672 0.3125761889497819 0.22088738526309029 0.22111069116742441 0.50004796911802929 0 0 0.40000000000166441 0 0 0.60000000000138687 0.16370661204827031 0 0.4886650857430957 0 0.16275515618034081 0.50966790549591257 0 0 0.40000000000166441 0 0.18804489794560331 0.31610726166461361 0.16370661204827031 0 0.4886650857430957 0.16938214347656569 0 0.30011357660650623 0.16370661204827031 0 0.4886650857430957 0 0.18804489794560331 0.31610726166461361 0 0 0.40000000000166441 0 0.16275515618034081 0.50966790549591257 0 0.18804489794560331 0.31610726166461361 0 0 0.40000000000166441 0 0 0.20000000000083221 0.16938214347656569 0 0.30011357660650623 0 0.18804489794560331 0.31610726166461361 0 0.16275515618034081 0.50966790549591257 0.16370661204827031 0 0.4886650857430957 0.22088738526309029 0.22111069116742441 0.50004796911802929 0 0.18804489794560331 0.31610726166461361 0 0.31024977578556651 0.45812322962166352 0 0.16275515618034081 0.50966790549591257 0.22088738526309029 0.22111069116742441 0.50004796911802929 0 0.30074819035869899 0.1692970876565193 0 0.39615100178029522 0.32925244736138171 0 0.18804489794560331 0.31610726166461361 0.312576188949791 0.31458070521983672 0.3125761889497819 0 0.31024977578556651 0.45812322962166352 0.312576188949791 0.31458070521983672 0.3125761889497819 0.24769234054476261 0.52242103280823293 0.45098450226372488 0.22088738526309029 0.22111069116742441 0.50004796911802929 0 0.18804489794560331 0.31610726166461361 0 0.39615100178029522 0.32925244736138171 0 0.31024977578556651 0.45812322962166352 0.312576188949791 0.31458070521983672 0.3125761889497819 0 0.39615100178029522 0.32925244736138171 0.24769234054476261 0.52242103280823293 0.45098450226372488 0.312576188949791 0.31458070521983672 0.3125761889497819 0.22345881830598399 0.5062398304147856 0.22345881830602041 0 0.31024977578556651 0.45812322962166352 0.312576188949791 0.31458070521983672 0.3125761889497819 0 0.39615100178029522 0.32925244736138171 0.24769234054476261 0.52242103280823293 0.45098450226372488 0 0.30074819035869899 0.1692970876565193 0 0.39615100178029522 0.32925244736138171 0.312576188949791 0.31458070521983672 0.3125761889497819 0.22345881830598399 0.5062398304147856 0.22345881830602041 0 0.18804489794560331 0.31610726166461361 0.312576188949791 0.31458070521983672 0.3125761889497819 0 0.31024977578556651 0.45812322962166352 0.22088738526309029 0.22111069116742441 0.50004796911802929 0 0.31024977578556651 0.45812322962166352 0 0.39615100178029522 0.32925244736138171 0 0.50000000000237477 0.51961524226909872 0.24769234054476261 0.52242103280823293 0.45098450226372488 0.50000000000001332 0.49999999999999561 0.49999999999999561 0.50073570207385831 0.24848280280289631 0.52886631355986169 0.312576188949791 0.31458070521983672 0.3125761889497819 0.5004045312576143 0.47050700646456922 0.24963111222780321 0.24769234054476261 0.52242103280823293 0.45098450226372488 0.5004045312576143 0.47050700646456922 0.24963111222780321 0.312576188949791 0.31458070521983672 0.3125761889497819 0.22345881830598399 0.5062398304147856 0.22345881830602041 0.312576188949791 0.31458070521983672 0.3125761889497819 0.5004045312576143 0.47050700646456922 0.24963111222780321 0.50073570207385831 0.24848280280289631 0.52886631355986169 0.5003997205654479 0.21136633249797621 0.2258422409314382 0.50000000000001332 0.49999999999999561 0.49999999999999561 0.24769234054476261 0.52242103280823293 0.45098450226372488 0.312576188949791 0.31458070521983672 0.3125761889497819 0.50073570207385831 0.24848280280289631 0.52886631355986169 0.312576188949791 0.31458070521983672 0.3125761889497819 0.24769234054476261 0.52242103280823293 0.45098450226372488 0.50000000000001332 0.49999999999999561 0.49999999999999561 0.5004045312576143 0.47050700646456922 0.24963111222780321 0.312576188949791 0.31458070521983672 0.3125761889497819 0.50073570207385831 0.24848280280289631 0.52886631355986169 0.24769234054476261 0.52242103280823293 0.45098450226372488 0.22088738526309029 0.22111069116742441 0.50004796911802929 0.32925244736090059 0.39615100178043078 0 0.312576188949791 0.31458070521983672 0.3125761889497819 0.45812322962036273 0.31024977578535839 0 0.5004045312576143 0.47050700646456922 0.24963111222780321 0.32925244736090059 0.39615100178043078 0 0.5004045312576143 0.47050700646456922 0.24963111222780321 0.32446581821364329 0.60020898676454815 0 0.22345881830598399 0.5062398304147856 0.22345881830602041 0.45812322962036273 0.31024977578535839 0 0.5004045312576143 0.47050700646456922 0.24963111222780321 0.312576188949791 0.31458070521983672 0.3125761889497819 0.5003997205654479 0.21136633249797621 0.2258422409314382 0.45812322962036273 0.31024977578535839 0 0.32925244736090059 0.39615100178043078 0 0.31610726166346748 0.18804489794572149 0 0.312576188949791 0.31458070521983672 0.3125761889497819 0.16929708765618309 0.30074819035915368 0 0.312576188949791 0.31458070521983672 0.3125761889497819 0.32925244736090059 0.39615100178043078 0 0.22345881830598399 0.5062398304147856 0.22345881830602041 0.31610726166346748 0.18804489794572149 0 0.45812322962036273 0.31024977578535839 0 0.312576188949791 0.31458070521983672 0.3125761889497819 0.5003997205654479 0.21136633249797621 0.2258422409314382 0.32925244736090059 0.39615100178043078 0 0.312576188949791 0.31458070521983672 0.3125761889497819 0.5004045312576143 0.47050700646456922 0.24963111222780321 0.22345881830598399 0.5062398304147856 0.22345881830602041 0.32925244736090059 0.39615100178043078 0 0.16929708765618309 0.30074819035915368 0 0.31610726166346748 0.18804489794572149 0 0.312576188949791 0.31458070521983672 0.3125761889497819 0.32446581821364329 0.60020898676454815 0 0.32925244736090059 0.39615100178043078 0 0.51961524226956368 0.5000000000025091 0 0.5004045312576143 0.47050700646456922 0.24963111222780321 0.51961524226956368 0.5000000000025091 0 0.32925244736090059 0.39615100178043078 0 0.45812322962036273 0.31024977578535839 0 0.5004045312576143 0.47050700646456922 0.24963111222780321 0 0.30074819035869899 0.1692970876565193 0.14641016151452901 0.14641016151487049 0 0.16929708765618309 0.30074819035915368 0 0.312576188949791 0.31458070521983672 0.3125761889497819 0 0.30074819035869899 0.1692970876565193 0.312576188949791 0.31458070521983672 0.3125761889497819 0.16929708765618309 0.30074819035915368 0 0.22345881830598399 0.5062398304147856 0.22345881830602041 0.17226134197279269 0.49836539647922029 0 0 0.49836539647891548 0.17226134197271731 0.16929708765618309 0.30074819035915368 0 0.22345881830598399 0.5062398304147856 0.22345881830602041 0.17226134197279269 0.49836539647922029 0 0.16929708765618309 0.30074819035915368 0 0.32925244736090059 0.39615100178043078 0 0.22345881830598399 0.5062398304147856 0.22345881830602041 0 0.30074819035869899 0.1692970876565193 0 0.20000000000083221 0 0 0.40000000000166441 0 0.16929708765618309 0.30074819035915368 0 0 0.30074819035869899 0.1692970876565193 0 0.40000000000166441 0 0 0.49836539647891548 0.17226134197271731 0.16929708765618309 0.30074819035915368 0 0 0.30074819035869899 0.1692970876565193 0.16929708765618309 0.30074819035915368 0 0 0.49836539647891548 0.17226134197271731 0.22345881830598399 0.5062398304147856 0.22345881830602041 0 0.30074819035869899 0.1692970876565193 0 0.49836539647891548 0.17226134197271731 0 0.39615100178029522 0.32925244736138171 0.22345881830598399 0.5062398304147856 0.22345881830602041 0 0.49836539647891548 0.17226134197271731 0 0.40000000000166441 0 0 0.60000000000138687 0 0.17226134197279269 0.49836539647922029 0 0.16929708765618309 0.30074819035915368 0 0 0.40000000000166441 0 0 0.49836539647891548 0.17226134197271731 0.17226134197279269 0.49836539647922029 0 0 0.69449451837103049 0.15896804272139439 0 0.60020898676435996 0.32446581821286191 0.22345881830598399 0.5062398304147856 0.22345881830602041 0.19259015428765269 0.77719169076434647 0.19259015428773721 0.1589680427220837 0.69449451837091269 0 0 0.69449451837103049 0.15896804272139439 0.22345881830598399 0.5062398304147856 0.22345881830602041 0.19259015428765269 0.77719169076434647 0.19259015428773721 0 0.69449451837103049 0.15896804272139439 0.17226134197279269 0.49836539647922029 0 0 0.60000000000138687 0 0.1589680427220837 0.69449451837091269 0 0.32446581821364329 0.60020898676454815 0 0.1589680427220837 0.69449451837091269 0 0.22345881830598399 0.5062398304147856 0.22345881830602041 0.19259015428765269 0.77719169076434647 0.19259015428773721 0 0.60000000000138687 0 0 0.49836539647891548 0.17226134197271731 0.17226134197279269 0.49836539647922029 0 0 0.69449451837103049 0.15896804272139439 0 0.69449451837103049 0.15896804272139439 0 0.60000000000138687 0 0 0.79999999999999982 0 0.1589680427220837 0.69449451837091269 0 0.31067093463127438 0.81480288849489035 0 0.1589680427220837 0.69449451837091269 0 0.32446581821364329 0.60020898676454815 0 0.19259015428765269 0.77719169076434647 0.19259015428773721 0.32446581821364329 0.60020898676454815 0 0.1589680427220837 0.69449451837091269 0 0.17226134197279269 0.49836539647922029 0 0.22345881830598399 0.5062398304147856 0.22345881830602041 0.1589680427220837 0.69449451837091269 0 0 0.69449451837103049 0.15896804272139439 0.17226134197279269 0.49836539647922029 0 0.22345881830598399 0.5062398304147856 0.22345881830602041 0 0.69449451837103049 0.15896804272139439 0 0.81480288849496429 0.31067093462946233 0 0.60020898676435996 0.32446581821286191 0.19259015428765269 0.77719169076434647 0.19259015428773721 0 0.49836539647891548 0.17226134197271731 0 0.69449451837103049 0.15896804272139439 0 0.60020898676435996 0.32446581821286191 0.22345881830598399 0.5062398304147856 0.22345881830602041 0 0.49836539647891548 0.17226134197271731 0.17226134197279269 0.49836539647922029 0 0 0.69449451837103049 0.15896804272139439 0.22345881830598399 0.5062398304147856 0.22345881830602041 0 0.60020898676435996 0.32446581821286191 0.22516916914780419 0.77057994845201627 0.48187244075707292 0.35848654557803328 0.70013656506632282 0.30029870175293161 0.19259015428765269 0.77719169076434647 0.19259015428773721 0 0.60020898676435996 0.32446581821286191 0.24769234054476261 0.52242103280823293 0.45098450226372488 0 0.39615100178029522 0.32925244736138171 0.22345881830598399 0.5062398304147856 0.22345881830602041 0 0.60020898676435996 0.32446581821286191 0 0.81480288849496429 0.31067093462946233 0.22516916914780419 0.77057994845201627 0.48187244075707292 0.19259015428765269 0.77719169076434647 0.19259015428773721 0.35848654557803328 0.70013656506632282 0.30029870175293161 0.22345881830598399 0.5062398304147856 0.22345881830602041 0 0.60020898676435996 0.32446581821286191 0.19259015428765269 0.77719169076434647 0.19259015428773721 0 0.49836539647891548 0.17226134197271731 0 0.60020898676435996 0.32446581821286191 0 0.39615100178029522 0.32925244736138171 0.22345881830598399 0.5062398304147856 0.22345881830602041 0 0.60020898676435996 0.32446581821286191 0.24769234054476261 0.52242103280823293 0.45098450226372488 0.35848654557803328 0.70013656506632282 0.30029870175293161 0.22516916914780419 0.77057994845201627 0.48187244075707292 0.35848654557803328 0.70013656506632282 0.30029870175293161 0.24769234054476261 0.52242103280823293 0.45098450226372488 0 0.60020898676435996 0.32446581821286191 0.22345881830598399 0.5062398304147856 0.22345881830602041 0 0.39615100178029522 0.32925244736138171 0 0.60020898676435996 0.32446581821286191 0 0.50000000000237477 0.51961524226909872 0.24769234054476261 0.52242103280823293 0.45098450226372488 0 0.68801781652248195 0.45664527743358641 0 0.50000000000237477 0.51961524226909872 0 0.60020898676435996 0.32446581821286191 0.24769234054476261 0.52242103280823293 0.45098450226372488 0 0.66416205381430016 0.59944234540882957 0.24769234054476261 0.52242103280823293 0.45098450226372488 0 0.68801781652248195 0.45664527743358641 0.22516916914780419 0.77057994845201627 0.48187244075707292 0 0.60020898676435996 0.32446581821286191 0 0.81480288849496429 0.31067093462946233 0 0.68801781652248195 0.45664527743358641 0.22516916914780419 0.77057994845201627 0.48187244075707292 0 0.68801781652248195 0.45664527743358641 0.24769234054476261 0.52242103280823293 0.45098450226372488 0 0.60020898676435996 0.32446581821286191 0.22516916914780419 0.77057994845201627 0.48187244075707292 0.16929708765615539 1 0.30074819035677097 0.32926555316115258 1 0.39615987727515128 0.22516916914780419 0.77057994845201627 0.48187244075707292 0.19259015428765269 0.77719169076434647 0.19259015428773721 0 0.81480288849496429 0.31067093462946233 0.16929708765615539 1 0.30074819035677097 0.22516916914780419 0.77057994845201627 0.48187244075707292 0.19259015428765269 0.77719169076434647 0.19259015428773721 0.17226134197293 1 0.49836539647645101 0 0.83630110503664845 0.50803330197135654 0 0.81480288849496429 0.31067093462946233 0.22516916914780419 0.77057994845201627 0.48187244075707292 0 0.68801781652248195 0.45664527743358641 0 0.81480288849496429 0.31067093462946233 0 0.83630110503664845 0.50803330197135654 0.22516916914780419 0.77057994845201627 0.48187244075707292 0.17226134197293 1 0.49836539647645101 0 1 0.3999999999989749 0 0.81480288849496429 0.31067093462946233 0 0.83630110503664845 0.50803330197135654 0 0.81480288849496429 0.31067093462946233 0.16929708765615539 1 0.30074819035677097 0 1 0.3999999999989749 0.17226134197293 1 0.49836539647645101 0.17226134197293 1 0.49836539647645101 0 0.81480288849496429 0.31067093462946233 0.16929708765615539 1 0.30074819035677097 0.22516916914780419 0.77057994845201627 0.48187244075707292 0.17226134197293 1 0.49836539647645101 0.16929708765615539 1 0.30074819035677097 0.32926555316115258 1 0.39615987727515128 0.22516916914780419 0.77057994845201627 0.48187244075707292 0 1 0.3999999999989749 0 1 0.19999999999955789 0.16929708765615539 1 0.30074819035677097 0 0.81480288849496429 0.31067093462946233 0.16929708765615539 1 0.30074819035677097 0 1 0.19999999999955789 0 0.85358983848655678 0.14641016151332509 0 0.81480288849496429 0.31067093462946233 0.14641016151352521 1 0.1464101615131837 0 1 0.19999999999955789 0 0.85358983848655678 0.14641016151332509 0.16929708765615539 1 0.30074819035677097 0.20000000000083221 1 0 0 1 0 0.14641016151479211 0.85358983848543113 0 0.14641016151352521 1 0.1464101615131837 0 0.85358983848655678 0.14641016151332509 0 1 0 0 1 0.19999999999955789 0.14641016151352521 1 0.1464101615131837 0 0.85358983848655678 0.14641016151332509 0.14641016151479211 0.85358983848543113 0 0 1 0 0.14641016151352521 1 0.1464101615131837 0.14641016151479211 0.85358983848543113 0 0 1 0 0 0.79999999999999982 0 0 0.85358983848655678 0.14641016151332509 0 0.85358983848655678 0.14641016151332509 0 0.69449451837103049 0.15896804272139439 0.1589680427220837 0.69449451837091269 0 0.19259015428765269 0.77719169076434647 0.19259015428773721 0 0.79999999999999982 0 0.1589680427220837 0.69449451837091269 0 0.14641016151479211 0.85358983848543113 0 0 0.85358983848655678 0.14641016151332509 0.14641016151352521 1 0.1464101615131837 0 0.85358983848655678 0.14641016151332509 0.14641016151479211 0.85358983848543113 0 0.19259015428765269 0.77719169076434647 0.19259015428773721 0.1589680427220837 0.69449451837091269 0 0 0.79999999999999982 0 0 0.69449451837103049 0.15896804272139439 0 0.85358983848655678 0.14641016151332509 0.1589680427220837 0.69449451837091269 0 0.14641016151479211 0.85358983848543113 0 0 0.85358983848655678 0.14641016151332509 0.19259015428765269 0.77719169076434647 0.19259015428773721 0.16929708765615539 1 0.30074819035677097 0 0.81480288849496429 0.31067093462946233 0 0.85358983848655678 0.14641016151332509 0.19259015428765269 0.77719169076434647 0.19259015428773721 0 0.85358983848655678 0.14641016151332509 0 0.81480288849496429 0.31067093462946233 0 0.69449451837103049 0.15896804272139439 0.19259015428765269 0.77719169076434647 0.19259015428773721 0.14641016151352521 1 0.1464101615131837 0.14641016151479211 0.85358983848543113 0 0.31067093463127438 0.81480288849489035 0 0.19259015428765269 0.77719169076434647 0.19259015428773721 0.1589680427220837 0.69449451837091269 0 0.31067093463127438 0.81480288849489035 0 0.14641016151479211 0.85358983848543113 0 0.19259015428765269 0.77719169076434647 0.19259015428773721 0.14641016151479211 0.85358983848543113 0 0.31067093463127438 0.81480288849489035 0 0.20000000000083221 1 0 0.14641016151352521 1 0.1464101615131837 0.31635851157303152 1 0.18818969570840721 0.20000000000083221 1 0 0.31067093463127438 0.81480288849489035 0 0.14641016151352521 1 0.1464101615131837 0.31067093463127438 0.81480288849489035 0 0.31635851157303152 1 0.18818969570840721 0.14641016151352521 1 0.1464101615131837 0.19259015428765269 0.77719169076434647 0.19259015428773721 0.31635851157303152 1 0.18818969570840721 0.16929708765615539 1 0.30074819035677097 0.14641016151352521 1 0.1464101615131837 0.19259015428765269 0.77719169076434647 0.19259015428773721 0.14641016151352521 1 0.1464101615131837 0.16929708765615539 1 0.30074819035677097 0 0.85358983848655678 0.14641016151332509 0.19259015428765269 0.77719169076434647 0.19259015428773721 0.35848654557803328 0.70013656506632282 0.30029870175293161 0.19259015428765269 0.77719169076434647 0.19259015428773721 0.31635851157303152 1 0.18818969570840721 0.52894546611500048 0.79133000140429866 0.2082794184507949 0.31067093463127438 0.81480288849489035 0 0.19259015428765269 0.77719169076434647 0.19259015428773721 0.35848654557803328 0.70013656506632282 0.30029870175293161 0.52894546611500048 0.79133000140429866 0.2082794184507949 0.31067093463127438 0.81480288849489035 0 0.31635851157303152 1 0.18818969570840721 0.19259015428765269 0.77719169076434647 0.19259015428773721 0.52894546611500048 0.79133000140429866 0.2082794184507949 0.31067093463127438 0.81480288849489035 0 0.40000000000166441 1 0 0.20000000000083221 1 0 0.31635851157303152 1 0.18818969570840721 0.31067093463127438 0.81480288849489035 0 0.50803330197353713 0.83630110503668265 0 0.31635851157303152 1 0.18818969570840721 0.52894546611500048 0.79133000140429866 0.2082794184507949 0.45664527743509797 0.68801781652245086 0 0.50803330197353713 0.83630110503668265 0 0.31067093463127438 0.81480288849489035 0 0.52894546611500048 0.79133000140429866 0.2082794184507949 0.51133491425992716 1 0.16370661204795281 0.31635851157303152 1 0.18818969570840721 0.40000000000166441 1 0 0.50803330197353713 0.83630110503668265 0 0.31635851157303152 1 0.18818969570840721 0.31067093463127438 0.81480288849489035 0 0.40000000000166441 1 0 0.50803330197353713 0.83630110503668265 0 0.51133491425992716 1 0.16370661204795281 0.45820186441796368 1 0.31030302876579191 0.31635851157303152 1 0.18818969570840721 0.52894546611500048 0.79133000140429866 0.2082794184507949 0.51133491425992716 1 0.16370661204795281 0.31635851157303152 1 0.18818969570840721 0.50803330197353713 0.83630110503668265 0 0.52894546611500048 0.79133000140429866 0.2082794184507949 0.32926555316115258 1 0.39615987727515128 0.35848654557803328 0.70013656506632282 0.30029870175293161 0.49983993748706529 0.75039103705932653 0.52967335724801234 0.22516916914780419 0.77057994845201627 0.48187244075707292 0.35848654557803328 0.70013656506632282 0.30029870175293161 0.22516916914780419 0.77057994845201627 0.48187244075707292 0.32926555316115258 1 0.39615987727515128 0.19259015428765269 0.77719169076434647 0.19259015428773721 0.31635851157303152 1 0.18818969570840721 0.45820186441796368 1 0.31030302876579191 0.32926555316115258 1 0.39615987727515128 0.35848654557803328 0.70013656506632282 0.30029870175293161 0.45820186441796368 1 0.31030302876579191 0.35848654557803328 0.70013656506632282 0.30029870175293161 0.31635851157303152 1 0.18818969570840721 0.52894546611500048 0.79133000140429866 0.2082794184507949 0.31635851157303152 1 0.18818969570840721 0.35848654557803328 0.70013656506632282 0.30029870175293161 0.32926555316115258 1 0.39615987727515128 0.19259015428765269 0.77719169076434647 0.19259015428773721 0.45820186441796368 1 0.31030302876579191 0.49983993748706529 0.75039103705932653 0.52967335724801234 0.35848654557803328 0.70013656506632282 0.30029870175293161 0.52894546611500048 0.79133000140429866 0.2082794184507949 0.45820186441796368 1 0.31030302876579191 0.32926555316115258 1 0.39615987727515128 0.35848654557803328 0.70013656506632282 0.30029870175293161 0.49983993748706529 0.75039103705932653 0.52967335724801234 0.31635851157303152 1 0.18818969570840721 0.32926555316115258 1 0.39615987727515128 0.16929708765615539 1 0.30074819035677097 0.19259015428765269 0.77719169076434647 0.19259015428773721 0.32926555316115258 1 0.39615987727515128 0.32448110831226962 1 0.6002015905153204 0.17226134197293 1 0.49836539647645101 0.22516916914780419 0.77057994845201627 0.48187244075707292 0.45820186441796368 1 0.31030302876579191 0.51961524227008238 1 0.49999999999872219 0.32926555316115258 1 0.39615987727515128 0.49983993748706529 0.75039103705932653 0.52967335724801234 0.24769234054476261 0.52242103280823293 0.45098450226372488 0.49983993748706529 0.75039103705932653 0.52967335724801234 0.35848654557803328 0.70013656506632282 0.30029870175293161 0.22516916914780419 0.77057994845201627 0.48187244075707292 0.35848654557803328 0.70013656506632282 0.30029870175293161 0.50000000000001332 0.49999999999999561 0.49999999999999561 0.24769234054476261 0.52242103280823293 0.45098450226372488 0.5004045312576143 0.47050700646456922 0.24963111222780321 0.35848654557803328 0.70013656506632282 0.30029870175293161 0.24769234054476261 0.52242103280823293 0.45098450226372488 0.50000000000001332 0.49999999999999561 0.49999999999999561 0.49983993748706529 0.75039103705932653 0.52967335724801234 0.35848654557803328 0.70013656506632282 0.30029870175293161 0.5004045312576143 0.47050700646456922 0.24963111222780321 0.24769234054476261 0.52242103280823293 0.45098450226372488 0.22345881830598399 0.5062398304147856 0.22345881830602041 0.35848654557803328 0.70013656506632282 0.30029870175293161 0.32446581821364329 0.60020898676454815 0 0.5004045312576143 0.47050700646456922 0.24963111222780321 0.22345881830598399 0.5062398304147856 0.22345881830602041 0.31067093463127438 0.81480288849489035 0 0.32446581821364329 0.60020898676454815 0 0.45664527743509797 0.68801781652245086 0 0.35848654557803328 0.70013656506632282 0.30029870175293161 0.32446581821364329 0.60020898676454815 0 0.22345881830598399 0.5062398304147856 0.22345881830602041 0.35848654557803328 0.70013656506632282 0.30029870175293161 0.19259015428765269 0.77719169076434647 0.19259015428773721 0.32446581821364329 0.60020898676454815 0 0.45664527743509797 0.68801781652245086 0 0.35848654557803328 0.70013656506632282 0.30029870175293161 0.5004045312576143 0.47050700646456922 0.24963111222780321 0.31067093463127438 0.81480288849489035 0 0.32446581821364329 0.60020898676454815 0 0.35848654557803328 0.70013656506632282 0.30029870175293161 0.19259015428765269 0.77719169076434647 0.19259015428773721 0.45664527743509797 0.68801781652245086 0 0.31067093463127438 0.81480288849489035 0 0.35848654557803328 0.70013656506632282 0.30029870175293161 0.52894546611500048 0.79133000140429866 0.2082794184507949 0.35848654557803328 0.70013656506632282 0.30029870175293161 0.5004045312576143 0.47050700646456922 0.24963111222780321 0.45664527743509797 0.68801781652245086 0 0.52894546611500048 0.79133000140429866 0.2082794184507949 0.17226134197279269 0.49836539647922029 0 0.32925244736090059 0.39615100178043078 0 0.32446581821364329 0.60020898676454815 0 0.22345881830598399 0.5062398304147856 0.22345881830602041 0.32446581821364329 0.60020898676454815 0 0.51961524226956368 0.5000000000025091 0 0.45664527743509797 0.68801781652245086 0 0.5004045312576143 0.47050700646456922 0.24963111222780321 0.72722573386132172 0.60922248848163563 0 0.68456408135056701 0.68607101396845627 0.31096060989957619 0.59944234541082553 0.66416205381394655 0 0.77713227489941183 0.50036915849493024 0.21774643624003751 0.68456408135056701 0.68607101396845627 0.31096060989957619 0.5004045312576143 0.47050700646456922 0.24963111222780321 0.59944234541082553 0.66416205381394655 0 0.77713227489941183 0.50036915849493024 0.21774643624003751 0.59944234541082553 0.66416205381394655 0 0.45664527743509797 0.68801781652245086 0 0.5004045312576143 0.47050700646456922 0.24963111222780321 0.52894546611500048 0.79133000140429866 0.2082794184507949 0.51961524226956368 0.5000000000025091 0 0.67320508075660079 0.46954769941202479 0 0.59944234541082553 0.66416205381394655 0 0.5004045312576143 0.47050700646456922 0.24963111222780321 0.59944234541082553 0.66416205381394655 0 0.5004045312576143 0.47050700646456922 0.24963111222780321 0.68456408135056701 0.68607101396845627 0.31096060989957619 0.52894546611500048 0.79133000140429866 0.2082794184507949 0.59944234541082553 0.66416205381394655 0 0.5004045312576143 0.47050700646456922 0.24963111222780321 0.67320508075660079 0.46954769941202479 0 0.77713227489941183 0.50036915849493024 0.21774643624003751 0.59944234541082553 0.66416205381394655 0 0.52894546611500048 0.79133000140429866 0.2082794184507949 0.68456408135056701 0.68607101396845627 0.31096060989957619 0.81582077266975173 0.77657922508894406 0.18483084990574741 0.59944234541082553 0.66416205381394655 0 0.45664527743509797 0.68801781652245086 0 0.51961524226956368 0.5000000000025091 0 0.5004045312576143 0.47050700646456922 0.24963111222780321 0.59944234541082553 0.66416205381394655 0 0.68456408135056701 0.68607101396845627 0.31096060989957619 0.72722573386132172 0.60922248848163563 0 0.81582077266975173 0.77657922508894406 0.18483084990574741 0.45664527743509797 0.68801781652245086 0 0.59944234541082553 0.66416205381394655 0 0.50803330197353713 0.83630110503668265 0 0.52894546611500048 0.79133000140429866 0.2082794184507949 0.59944234541082553 0.66416205381394655 0 0.72722573386132172 0.60922248848163563 0 0.7054234997318658 0.80860557108880304 0 0.81582077266975173 0.77657922508894406 0.18483084990574741 0.72722573386132172 0.60922248848163563 0 0.59944234541082553 0.66416205381394655 0 0.67320508075660079 0.46954769941202479 0 0.77713227489941183 0.50036915849493024 0.21774643624003751 0.68456408135056701 0.68607101396845627 0.31096060989957619 0.5004045312576143 0.47050700646456922 0.24963111222780321 0.35848654557803328 0.70013656506632282 0.30029870175293161 0.52894546611500048 0.79133000140429866 0.2082794184507949 0.68456408135056701 0.68607101396845627 0.31096060989957619 0.35848654557803328 0.70013656506632282 0.30029870175293161 0.50000000000001332 0.49999999999999561 0.49999999999999561 0.49983993748706529 0.75039103705932653 0.52967335724801234 0.50000000000001332 0.49999999999999561 0.49999999999999561 0.35848654557803328 0.70013656506632282 0.30029870175293161 0.68456408135056701 0.68607101396845627 0.31096060989957619 0.5004045312576143 0.47050700646456922 0.24963111222780321 0.50000000000001332 0.49999999999999561 0.49999999999999561 0.68456408135056701 0.68607101396845627 0.31096060989957619 0.7504488434426726 0.53051757989633308 0.49836643074154852 0.5004045312576143 0.47050700646456922 0.24963111222780321 0.68456408135056701 0.68607101396845627 0.31096060989957619 0.49983993748706529 0.75039103705932653 0.52967335724801234 0.7504488434426726 0.53051757989633308 0.49836643074154852 0.77374673111774417 0.78860835645735528 0.49829081152968557 0.7504488434426726 0.53051757989633308 0.49836643074154852 0.5004045312576143 0.47050700646456922 0.24963111222780321 0.68456408135056701 0.68607101396845627 0.31096060989957619 0.77713227489941183 0.50036915849493024 0.21774643624003751 0.35848654557803328 0.70013656506632282 0.30029870175293161 0.49983993748706529 0.75039103705932653 0.52967335724801234 0.68456408135056701 0.68607101396845627 0.31096060989957619 0.52894546611500048 0.79133000140429866 0.2082794184507949 0.50000000000001332 0.49999999999999561 0.49999999999999561 0.7504488434426726 0.53051757989633308 0.49836643074154852 0.68456408135056701 0.68607101396845627 0.31096060989957619 0.49983993748706529 0.75039103705932653 0.52967335724801234 0.68456408135056701 0.68607101396845627 0.31096060989957619 0.52894546611500048 0.79133000140429866 0.2082794184507949 0.61068558124908323 1 0.33127740899601937 0.81582077266975173 0.77657922508894406 0.18483084990574741 0.61068558124908323 1 0.33127740899601937 0.49983993748706529 0.75039103705932653 0.52967335724801234 0.68456408135056701 0.68607101396845627 0.31096060989957619 0.77374673111774417 0.78860835645735528 0.49829081152968557 0.61068558124908323 1 0.33127740899601937 0.68240285647621723 1 0.52310058211166854 0.49983993748706529 0.75039103705932653 0.52967335724801234 0.77374673111774417 0.78860835645735528 0.49829081152968557 0.82751535738810444 1 0.31407731390515509 0.68456408135056701 0.68607101396845627 0.31096060989957619 0.61068558124908323 1 0.33127740899601937 0.81582077266975173 0.77657922508894406 0.18483084990574741 0.45820186441796368 1 0.31030302876579191 0.61068558124908323 1 0.33127740899601937 0.49983993748706529 0.75039103705932653 0.52967335724801234 0.52894546611500048 0.79133000140429866 0.2082794184507949 0.61068558124908323 1 0.33127740899601937 0.68456408135056701 0.68607101396845627 0.31096060989957619 0.82751535738810444 1 0.31407731390515509 0.77374673111774417 0.78860835645735528 0.49829081152968557 0.68456408135056701 0.68607101396845627 0.31096060989957619 0.49983993748706529 0.75039103705932653 0.52967335724801234 0.61068558124908323 1 0.33127740899601937 0.52894546611500048 0.79133000140429866 0.2082794184507949 0.61068558124908323 1 0.33127740899601937 0.68240285647621723 1 0.52310058211166854 0.51961524227008238 1 0.49999999999872219 0.49983993748706529 0.75039103705932653 0.52967335724801234 0.51961524227008238 1 0.49999999999872219 0.45820186441796368 1 0.31030302876579191 0.61068558124908323 1 0.33127740899601937 0.49983993748706529 0.75039103705932653 0.52967335724801234 0.68240285647621723 1 0.52310058211166854 0.61068558124908323 1 0.33127740899601937 0.82751535738810444 1 0.31407731390515509 0.77374673111774417 0.78860835645735528 0.49829081152968557 0.51133491425992716 1 0.16370661204795281 0.61068558124908323 1 0.33127740899601937 0.45820186441796368 1 0.31030302876579191 0.52894546611500048 0.79133000140429866 0.2082794184507949 0.51133491425992716 1 0.16370661204795281 0.69988642339594154 1 0.16938214347578889 0.61068558124908323 1 0.33127740899601937 0.52894546611500048 0.79133000140429866 0.2082794184507949 0.69988642339594154 1 0.16938214347578889 0.61068558124908323 1 0.33127740899601937 0.52894546611500048 0.79133000140429866 0.2082794184507949 0.81582077266975173 0.77657922508894406 0.18483084990574741 0.69988642339594154 1 0.16938214347578889 0.52894546611500048 0.79133000140429866 0.2082794184507949 0.7054234997318658 0.80860557108880304 0 0.81582077266975173 0.77657922508894406 0.18483084990574741 0.69988642339594154 1 0.16938214347578889 0.51133491425992716 1 0.16370661204795281 0.50803330197353713 0.83630110503668265 0 0.52894546611500048 0.79133000140429866 0.2082794184507949 0.59944234541082553 0.66416205381394655 0 0.7054234997318658 0.80860557108880304 0 0.52894546611500048 0.79133000140429866 0.2082794184507949 0.81582077266975173 0.77657922508894406 0.18483084990574741 0.60000000000138687 1 0 0.69988642339594154 1 0.16938214347578889 0.51133491425992716 1 0.16370661204795281 0.50803330197353713 0.83630110503668265 0 0.51133491425992716 1 0.16370661204795281 0.40000000000166441 1 0 0.60000000000138687 1 0 0.50803330197353713 0.83630110503668265 0 0.50803330197353713 0.83630110503668265 0 0.59944234541082553 0.66416205381394655 0 0.7054234997318658 0.80860557108880304 0 0.52894546611500048 0.79133000140429866 0.2082794184507949 0.69988642339594154 1 0.16938214347578889 0.50803330197353713 0.83630110503668265 0 0.7054234997318658 0.80860557108880304 0 0.52894546611500048 0.79133000140429866 0.2082794184507949 0.60000000000138687 1 0 0.79999999999999982 1 0 0.69988642339594154 1 0.16938214347578889 0.7054234997318658 0.80860557108880304 0 0.50803330197353713 0.83630110503668265 0 0.60000000000138687 1 0 0.69988642339594154 1 0.16938214347578889 0.7054234997318658 0.80860557108880304 0 0.69988642339594154 1 0.16938214347578889 0.82751535738810444 1 0.31407731390515509 0.61068558124908323 1 0.33127740899601937 0.81582077266975173 0.77657922508894406 0.18483084990574741 0.82751535738810444 1 0.31407731390515509 0.69988642339594154 1 0.16938214347578889 0.85358983848665693 1 0.14641016151322461 0.81582077266975173 0.77657922508894406 0.18483084990574741 0.69988642339594154 1 0.16938214347578889 0.85358983848666903 0.85358983848666903 0 0.85358983848665693 1 0.14641016151322461 0.81582077266975173 0.77657922508894406 0.18483084990574741 0.85358983848665693 1 0.14641016151322461 1 0.85358983848655678 0.14641016151332509 0.82751535738810444 1 0.31407731390515509 0.81582077266975173 0.77657922508894406 0.18483084990574741 0.85358983848666903 0.85358983848666903 0 0.85358983848665693 1 0.14641016151322461 0.79999999999999982 1 0 0.69988642339594154 1 0.16938214347578889 0.69988642339594154 1 0.16938214347578889 0.79999999999999982 1 0 0.85358983848666903 0.85358983848666903 0 0.7054234997318658 0.80860557108880304 0 0.85358983848666903 0.85358983848666903 0 0.7054234997318658 0.80860557108880304 0 0.85173693729186062 0.69992182039541118 0 0.81582077266975173 0.77657922508894406 0.18483084990574741 0.69988642339594154 1 0.16938214347578889 0.7054234997318658 0.80860557108880304 0 0.85358983848666903 0.85358983848666903 0 0.81582077266975173 0.77657922508894406 0.18483084990574741 1 0.85358983848655678 0.14641016151332509 1 0.69449451837101916 0.15896804272136739 1 0.8148028884949543 0.31067093462944562 0.81582077266975173 0.77657922508894406 0.18483084990574741 0.82751535738810444 1 0.31407731390515509 1 0.85358983848655678 0.14641016151332509 1 0.8148028884949543 0.31067093462944562 0.81582077266975173 0.77657922508894406 0.18483084990574741 1 0.85358983848655678 0.14641016151332509 0.85358983848666903 0.85358983848666903 0 1 0.79999999999999982 0 0.81582077266975173 0.77657922508894406 0.18483084990574741 1 0.79999999999999982 0 0.81582077266975173 0.77657922508894406 0.18483084990574741 1 0.69449451837101916 0.15896804272136739 1 0.85358983848655678 0.14641016151332509 0.85358983848666903 0.85358983848666903 0 1 0.85358983848655678 0.14641016151332509 0.85358983848665693 1 0.14641016151322461 0.81582077266975173 0.77657922508894406 0.18483084990574741 0.85358983848666903 0.85358983848666903 0 0.85173693729186062 0.69992182039541118 0 1 0.79999999999999982 0 0.81582077266975173 0.77657922508894406 0.18483084990574741 1 0.85358983848655678 0.14641016151332509 0.85358983848665693 1 0.14641016151322461 1 1 0 0.85358983848666903 0.85358983848666903 0 1 1 0.19999999999955789 0.85358983848665693 1 0.14641016151322461 1 1 0 1 0.85358983848655678 0.14641016151332509 1 1 0 1 0.85358983848655678 0.14641016151332509 0.85358983848666903 0.85358983848666903 0 1 0.79999999999999982 0 0.79999999999999982 1 0 1 1 0 0.85358983848665693 1 0.14641016151322461 0.85358983848666903 0.85358983848666903 0 0.82751535738810444 1 0.31407731390515509 0.85358983848665693 1 0.14641016151322461 1 1 0.19999999999955789 1 0.85358983848655678 0.14641016151332509 1 1 0.19999999999955789 1 0.8148028884949543 0.31067093462944562 0.82751535738810444 1 0.31407731390515509 1 0.85358983848655678 0.14641016151332509 1 1 0.3999999999989749 1 0.8148028884949543 0.31067093462944562 0.82751535738810444 1 0.31407731390515509 1 1 0.19999999999955789 0.82751535738810444 1 0.31407731390515509 0.77374673111774417 0.78860835645735528 0.49829081152968557 0.68456408135056701 0.68607101396845627 0.31096060989957619 0.81582077266975173 0.77657922508894406 0.18483084990574741 1 0.8148028884949543 0.31067093462944562 0.77374673111774417 0.78860835645735528 0.49829081152968557 0.82751535738810444 1 0.31407731390515509 0.81582077266975173 0.77657922508894406 0.18483084990574741 1 0.8148028884949543 0.31067093462944562 0.68456408135056701 0.68607101396845627 0.31096060989957619 0.77374673111774417 0.78860835645735528 0.49829081152968557 0.81582077266975173 0.77657922508894406 0.18483084990574741 1 0.8148028884949543 0.31067093462944562 0.86762395692956074 1 0.5060815484123421 0.82751535738810444 1 0.31407731390515509 0.77374673111774417 0.78860835645735528 0.49829081152968557 0.68240285647621723 1 0.52310058211166854 0.82751535738810444 1 0.31407731390515509 0.86762395692956074 1 0.5060815484123421 0.77374673111774417 0.78860835645735528 0.49829081152968557 0.86762395692956074 1 0.5060815484123421 1 1 0.3999999999989749 1 0.8148028884949543 0.31067093462944562 0.82751535738810444 1 0.31407731390515509 1 1 0.3999999999989749 1 0.83630110503662825 0.50803330197135588 0.86762395692956074 1 0.5060815484123421 1 0.8148028884949543 0.31067093462944562 1 0.8148028884949543 0.31067093462944562 1 0.83630110503662825 0.50803330197135588 0.86762395692956074 1 0.5060815484123421 0.77374673111774417 0.78860835645735528 0.49829081152968557 1 0.8148028884949543 0.31067093462944562 1 0.68975022421527898 0.45812322962078778 1 0.83630110503662825 0.50803330197135588 0.77374673111774417 0.78860835645735528 0.49829081152968557 1 0.39615100178016449 0.32925244736082498 0.7504488434426726 0.53051757989633308 0.49836643074154852 1 0.60020898676431722 0.32446581821274012 0.77713227489941183 0.50036915849493024 0.21774643624003751 1 0.68975022421527898 0.45812322962078778 0.68456408135056701 0.68607101396845627 0.31096060989957619 1 0.60020898676431722 0.32446581821274012 0.7504488434426726 0.53051757989633308 0.49836643074154852 1 0.8148028884949543 0.31067093462944562 0.68456408135056701 0.68607101396845627 0.31096060989957619 1 0.68975022421527898 0.45812322962078778 0.77374673111774417 0.78860835645735528 0.49829081152968557 1 0.68975022421527898 0.45812322962078778 0.68456408135056701 0.68607101396845627 0.31096060989957619 0.7504488434426726 0.53051757989633308 0.49836643074154852 0.77374673111774417 0.78860835645735528 0.49829081152968557 1 0.68975022421527898 0.45812322962078778 1 0.8148028884949543 0.31067093462944562 1 0.60020898676431722 0.32446581821274012 0.68456408135056701 0.68607101396845627 0.31096060989957619 0.68456408135056701 0.68607101396845627 0.31096060989957619 1 0.60020898676431722 0.32446581821274012 0.7504488434426726 0.53051757989633308 0.49836643074154852 0.77713227489941183 0.50036915849493024 0.21774643624003751 1 0.8148028884949543 0.31067093462944562 1 0.60020898676431722 0.32446581821274012 0.68456408135056701 0.68607101396845627 0.31096060989957619 0.81582077266975173 0.77657922508894406 0.18483084990574741 1 0.60020898676431722 0.32446581821274012 0.77713227489941183 0.50036915849493024 0.21774643624003751 0.68456408135056701 0.68607101396845627 0.31096060989957619 0.81582077266975173 0.77657922508894406 0.18483084990574741 1 0.50000000000229983 0.51961524226898759 1 0.68975022421527898 0.45812322962078778 1 0.60020898676431722 0.32446581821274012 0.7504488434426726 0.53051757989633308 0.49836643074154852 1 0.39615100178016449 0.32925244736082498 1 0.50000000000229983 0.51961524226898759 1 0.60020898676431722 0.32446581821274012 0.7504488434426726 0.53051757989633308 0.49836643074154852 0.84191918937744659 0.51186163305076127 0 1 0.49836539647890021 0.17226134197269399 1 0.69449451837101916 0.15896804272136739 0.77713227489941183 0.50036915849493024 0.21774643624003751 1 0.69449451837101916 0.15896804272136739 0.85173693729186062 0.69992182039541118 0 0.77713227489941183 0.50036915849493024 0.21774643624003751 0.81582077266975173 0.77657922508894406 0.18483084990574741 1 0.69449451837101916 0.15896804272136739 0.77713227489941183 0.50036915849493024 0.21774643624003751 1 0.60020898676431722 0.32446581821274012 0.81582077266975173 0.77657922508894406 0.18483084990574741 1 0.69449451837101916 0.15896804272136739 1 0.49836539647890021 0.17226134197269399 1 0.60020898676431722 0.32446581821274012 0.77713227489941183 0.50036915849493024 0.21774643624003751 0.72722573386132172 0.60922248848163563 0 0.77713227489941183 0.50036915849493024 0.21774643624003751 0.85173693729186062 0.69992182039541118 0 0.81582077266975173 0.77657922508894406 0.18483084990574741 0.72722573386132172 0.60922248848163563 0 0.68456408135056701 0.68607101396845627 0.31096060989957619 0.77713227489941183 0.50036915849493024 0.21774643624003751 0.81582077266975173 0.77657922508894406 0.18483084990574741 1 0.8148028884949543 0.31067093462944562 1 0.69449451837101916 0.15896804272136739 1 0.60020898676431722 0.32446581821274012 0.81582077266975173 0.77657922508894406 0.18483084990574741 0.72722573386132172 0.60922248848163563 0 0.67320508075660079 0.46954769941202479 0 0.84191918937744659 0.51186163305076127 0 0.77713227489941183 0.50036915849493024 0.21774643624003751 0.84191918937744659 0.51186163305076127 0 1 0.69449451837101916 0.15896804272136739 0.85173693729186062 0.69992182039541118 0 0.77713227489941183 0.50036915849493024 0.21774643624003751 0.72722573386132172 0.60922248848163563 0 0.84191918937744659 0.51186163305076127 0 0.85173693729186062 0.69992182039541118 0 0.77713227489941183 0.50036915849493024 0.21774643624003751 0.7054234997318658 0.80860557108880304 0 0.72722573386132172 0.60922248848163563 0 0.85173693729186062 0.69992182039541118 0 0.81582077266975173 0.77657922508894406 0.18483084990574741 1 0.69449451837101916 0.15896804272136739 0.85173693729186062 0.69992182039541118 0 1 0.79999999999999982 0 1 0.60000000000138687 0 1 0.69449451837101916 0.15896804272136739 0.81582077266975173 0.77657922508894406 0.18483084990574741 1 0.79999999999999982 0 0.85173693729186062 0.69992182039541118 0 0.84191918937744659 0.51186163305076127 0 0.85173693729186062 0.69992182039541118 0 1 0.69449451837101916 0.15896804272136739 1 0.60000000000138687 0 1 0.60000000000138687 0 1 0.69449451837101916 0.15896804272136739 0.84191918937744659 0.51186163305076127 0 1 0.49836539647890021 0.17226134197269399 1 0.40000000000166441 0 1 0.60000000000138687 0 0.84191918937744659 0.51186163305076127 0 1 0.49836539647890021 0.17226134197269399 0.80839867011859301 0.31807971531731721 0 0.85358983848570813 0.1464101615143738 0 1 0.30074819035868428 0.16929708765640439 0.68777432594363841 0.31447353261427252 0.31366778418247038 0.80839867011859301 0.31807971531731721 0 1 0.40000000000166441 0 0.84191918937744659 0.51186163305076127 0 1 0.49836539647890021 0.17226134197269399 1 0.40000000000166441 0 0.80839867011859301 0.31807971531731721 0 1 0.30074819035868428 0.16929708765640439 1 0.49836539647890021 0.17226134197269399 0.80839867011859301 0.31807971531731721 0 0.68777432594363841 0.31447353261427252 0.31366778418247038 1 0.30074819035868428 0.16929708765640439 0.77713227489941183 0.50036915849493024 0.21774643624003751 0.84191918937744659 0.51186163305076127 0 0.67320508075660079 0.46954769941202479 0 0.80839867011859301 0.31807971531731721 0 0.77713227489941183 0.50036915849493024 0.21774643624003751 0.84191918937744659 0.51186163305076127 0 0.80839867011859301 0.31807971531731721 0 1 0.49836539647890021 0.17226134197269399 0.77713227489941183 0.50036915849493024 0.21774643624003751 0.80839867011859301 0.31807971531731721 0 1 0.30074819035868428 0.16929708765640439 1 0.49836539647890021 0.17226134197269399 0.77713227489941183 0.50036915849493024 0.21774643624003751 1 0.30074819035868428 0.16929708765640439 1 0.39615100178016449 0.32925244736082498 1 0.49836539647890021 0.17226134197269399 0.77713227489941183 0.50036915849493024 0.21774643624003751 1 0.30074819035868428 0.16929708765640439 0.80839867011859301 0.31807971531731721 0 1 0.40000000000166441 0 1 0.20000000000083221 0 1 0.30074819035868428 0.16929708765640439 0.80839867011859301 0.31807971531731721 0 1 0.20000000000083221 0 0.85358983848570813 0.1464101615143738 0 1 0.20000000000083221 0 1 0.14641016151453831 0.14641016151419689 1 0.30074819035868428 0.16929708765640439 0.85358983848570813 0.1464101615143738 0 0.83057691269884504 0 0.30018449338884379 0.85358983848650494 0 0.1464101615132356 0.68592116352011878 0 0.1724872797865501 0.68777432594363841 0.31447353261427252 0.31366778418247038 0.80839867011859301 0.31807971531731721 0 0.69380980079964416 0.1619694349440581 0 0.85358983848570813 0.1464101615143738 0 0.68777432594363841 0.31447353261427252 0.31366778418247038 1 0.18804489794556911 0.3161072616634244 1 0.30074819035868428 0.16929708765640439 1 0.14641016151453831 0.14641016151419689 0.68777432594363841 0.31447353261427252 0.31366778418247038 1 0.14641016151453831 0.14641016151419689 1 0.30074819035868428 0.16929708765640439 0.85358983848570813 0.1464101615143738 0 0.68777432594363841 0.31447353261427252 0.31366778418247038 1 0.14641016151453831 0.14641016151419689 0.85358983848650494 0 0.1464101615132356 0.83057691269884504 0 0.30018449338884379 0.68777432594363841 0.31447353261427252 0.31366778418247038 1 0.14641016151453831 0.14641016151419689 0.85358983848570813 0.1464101615143738 0 0.85358983848650494 0 0.1464101615132356 0.68777432594363841 0.31447353261427252 0.31366778418247038 0.69380980079964416 0.1619694349440581 0 0.85358983848650494 0 0.1464101615132356 0.85358983848570813 0.1464101615143738 0 0.68777432594363841 0.31447353261427252 0.31366778418247038 0.85358983848650494 0 0.1464101615132356 0.83057691269884504 0 0.30018449338884379 1 0 0.19999999999955789 1 0.14641016151453831 0.14641016151419689 0.83057691269884504 0 0.30018449338884379 1 0.18804489794556911 0.3161072616634244 1 0 0.19999999999955789 1 0.14641016151453831 0.14641016151419689 0.85358983848570813 0.1464101615143738 0 1 0 0 0.85358983848650494 0 0.1464101615132356 0.79999999999947335 0 0 0.85358983848650494 0 0.1464101615132356 1 0 0.19999999999955789 1 0 0 1 0.14641016151453831 0.14641016151419689 1 0 0 1 0.14641016151453831 0.14641016151419689 1 0.20000000000083221 0 0.85358983848570813 0.1464101615143738 0 1 0.14641016151453831 0.14641016151419689 1 0 0 0.85358983848650494 0 0.1464101615132356 0.85358983848570813 0.1464101615143738 0 0.68592116352011878 0 0.1724872797865501 0.69380980079964416 0.1619694349440581 0 0.85358983848650494 0 0.1464101615132356 0.79999999999947335 0 0 0.85358983848570813 0.1464101615143738 0 0.85358983848650494 0 0.1464101615132356 0.69380980079964416 0.1619694349440581 0 0.79999999999947335 0 0 0.68592116352011878 0 0.1724872797865501 0.68777432594363841 0.31447353261427252 0.31366778418247038 0.69380980079964416 0.1619694349440581 0 0.5003997205654479 0.21136633249797621 0.2258422409314382 0.68592116352011878 0 0.1724872797865501 0.85358983848650494 0 0.1464101615132356 0.69380980079964416 0.1619694349440581 0 0.68777432594363841 0.31447353261427252 0.31366778418247038 0.69380980079964416 0.1619694349440581 0 0.68592116352011878 0 0.1724872797865501 0.59999999999894682 0 0 0.79999999999947335 0 0 0.49391845158624981 0 0.1323760430705655 0.3999999999989749 0 0 0.50966790549376417 0.16275515618023731 0 0.59999999999894682 0 0 0.50966790549376417 0.16275515618023731 0 0.69380980079964416 0.1619694349440581 0 0.68592116352011878 0 0.1724872797865501 0.59999999999894682 0 0 0.68592116352011878 0 0.1724872797865501 0.49391845158624981 0 0.1323760430705655 0.50966790549376417 0.16275515618023731 0 0.59999999999894682 0 0 0.47688326899416439 0 0.31741132792405607 0.68592116352011878 0 0.1724872797865501 0.49391845158624981 0 0.1323760430705655 0.5003997205654479 0.21136633249797621 0.2258422409314382 0.49391845158624981 0 0.1323760430705655 0.68592116352011878 0 0.1724872797865501 0.50966790549376417 0.16275515618023731 0 0.5003997205654479 0.21136633249797621 0.2258422409314382 0.50966790549376417 0.16275515618023731 0 0.68592116352011878 0 0.1724872797865501 0.69380980079964416 0.1619694349440581 0 0.5003997205654479 0.21136633249797621 0.2258422409314382 0.6104699881764214 0.32043363027358418 0 0.50966790549376417 0.16275515618023731 0 0.69380980079964416 0.1619694349440581 0 0.5003997205654479 0.21136633249797621 0.2258422409314382 0.6104699881764214 0.32043363027358418 0 0.68777432594363841 0.31447353261427252 0.31366778418247038 0.80839867011859301 0.31807971531731721 0 0.77713227489941183 0.50036915849493024 0.21774643624003751 0.6104699881764214 0.32043363027358418 0 0.69380980079964416 0.1619694349440581 0 0.68777432594363841 0.31447353261427252 0.31366778418247038 0.5003997205654479 0.21136633249797621 0.2258422409314382 0.80839867011859301 0.31807971531731721 0 0.6104699881764214 0.32043363027358418 0 0.69380980079964416 0.1619694349440581 0 0.68777432594363841 0.31447353261427252 0.31366778418247038 0.6104699881764214 0.32043363027358418 0 0.45812322962036273 0.31024977578535839 0 0.50966790549376417 0.16275515618023731 0 0.5003997205654479 0.21136633249797621 0.2258422409314382 0.45812322962036273 0.31024977578535839 0 0.6104699881764214 0.32043363027358418 0 0.5004045312576143 0.47050700646456922 0.24963111222780321 0.5003997205654479 0.21136633249797621 0.2258422409314382 0.77713227489941183 0.50036915849493024 0.21774643624003751 0.6104699881764214 0.32043363027358418 0 0.5004045312576143 0.47050700646456922 0.24963111222780321 0.67320508075660079 0.46954769941202479 0 0.68777432594363841 0.31447353261427252 0.31366778418247038 0.5004045312576143 0.47050700646456922 0.24963111222780321 0.6104699881764214 0.32043363027358418 0 0.5003997205654479 0.21136633249797621 0.2258422409314382 0.77713227489941183 0.50036915849493024 0.21774643624003751 0.5004045312576143 0.47050700646456922 0.24963111222780321 0.6104699881764214 0.32043363027358418 0 0.68777432594363841 0.31447353261427252 0.31366778418247038 0.51961524226956368 0.5000000000025091 0 0.6104699881764214 0.32043363027358418 0 0.67320508075660079 0.46954769941202479 0 0.5004045312576143 0.47050700646456922 0.24963111222780321 0.45812322962036273 0.31024977578535839 0 0.6104699881764214 0.32043363027358418 0 0.51961524226956368 0.5000000000025091 0 0.5004045312576143 0.47050700646456922 0.24963111222780321 0.6104699881764214 0.32043363027358418 0 0.80839867011859301 0.31807971531731721 0 0.67320508075660079 0.46954769941202479 0 0.77713227489941183 0.50036915849493024 0.21774643624003751 0.68777432594363841 0.31447353261427252 0.31366778418247038 0.7504488434426726 0.53051757989633308 0.49836643074154852 0.50000000000001332 0.49999999999999561 0.49999999999999561 0.50073570207385831 0.24848280280289631 0.52886631355986169 0.7504488434426726 0.53051757989633308 0.49836643074154852 0.50073570207385831 0.24848280280289631 0.52886631355986169 0.68777432594363841 0.31447353261427252 0.31366778418247038 0.77973766487723961 0.22090161127815711 0.50014622462635805 0.50000000000001332 0.49999999999999561 0.49999999999999561 0.7504488434426726 0.53051757989633308 0.49836643074154852 0.68777432594363841 0.31447353261427252 0.31366778418247038 0.5004045312576143 0.47050700646456922 0.24963111222780321 0.68777432594363841 0.31447353261427252 0.31366778418247038 0.5004045312576143 0.47050700646456922 0.24963111222780321 0.7504488434426726 0.53051757989633308 0.49836643074154852 0.77713227489941183 0.50036915849493024 0.21774643624003751 0.50073570207385831 0.24848280280289631 0.52886631355986169 0.5004045312576143 0.47050700646456922 0.24963111222780321 0.68777432594363841 0.31447353261427252 0.31366778418247038 0.5003997205654479 0.21136633249797621 0.2258422409314382 0.50000000000001332 0.49999999999999561 0.49999999999999561 0.68777432594363841 0.31447353261427252 0.31366778418247038 0.50073570207385831 0.24848280280289631 0.52886631355986169 0.5004045312576143 0.47050700646456922 0.24963111222780321 0.83057691269884504 0 0.30018449338884379 0.68777432594363841 0.31447353261427252 0.31366778418247038 0.66852282575985944 0 0.3853248791658106 0.77973766487723961 0.22090161127815711 0.50014622462635805 0.68592116352011878 0 0.1724872797865501 0.66852282575985944 0 0.3853248791658106 0.83057691269884504 0 0.30018449338884379 0.68777432594363841 0.31447353261427252 0.31366778418247038 0.66852282575985944 0 0.3853248791658106 0.47688326899416439 0 0.31741132792405607 0.50073570207385831 0.24848280280289631 0.52886631355986169 0.5003997205654479 0.21136633249797621 0.2258422409314382 0.68969697123394857 0 0.54179813558228873 0.66852282575985944 0 0.3853248791658106 0.50073570207385831 0.24848280280289631 0.52886631355986169 0.77973766487723961 0.22090161127815711 0.50014622462635805 0.68592116352011878 0 0.1724872797865501 0.66852282575985944 0 0.3853248791658106 0.68777432594363841 0.31447353261427252 0.31366778418247038 0.5003997205654479 0.21136633249797621 0.2258422409314382 0.66852282575985944 0 0.3853248791658106 0.50073570207385831 0.24848280280289631 0.52886631355986169 0.68777432594363841 0.31447353261427252 0.31366778418247038 0.5003997205654479 0.21136633249797621 0.2258422409314382 0.68777432594363841 0.31447353261427252 0.31366778418247038 0.50073570207385831 0.24848280280289631 0.52886631355986169 0.66852282575985944 0 0.3853248791658106 0.77973766487723961 0.22090161127815711 0.50014622462635805 0.68592116352011878 0 0.1724872797865501 0.47688326899416439 0 0.31741132792405607 0.66852282575985944 0 0.3853248791658106 0.5003997205654479 0.21136633249797621 0.2258422409314382 0.50000000000250922 0 0.48038475773043671 0.66852282575985944 0 0.3853248791658106 0.47688326899416439 0 0.31741132792405607 0.50073570207385831 0.24848280280289631 0.52886631355986169 0.50000000000250922 0 0.48038475773043671 0.68969697123394857 0 0.54179813558228873 0.66852282575985944 0 0.3853248791658106 0.50073570207385831 0.24848280280289631 0.52886631355986169 0.66852282575985944 0 0.3853248791658106 0.68969697123394857 0 0.54179813558228873 0.83534964916824084 0 0.4902996892628636 0.77973766487723961 0.22090161127815711 0.50014622462635805 1 0.18804489794556911 0.3161072616634244 0.68777432594363841 0.31447353261427252 0.31366778418247038 0.83057691269884504 0 0.30018449338884379 0.77973766487723961 0.22090161127815711 0.50014622462635805 1 0.18804489794556911 0.3161072616634244 1 0.14641016151453831 0.14641016151419689 0.83057691269884504 0 0.30018449338884379 0.68777432594363841 0.31447353261427252 0.31366778418247038 0.83534964916824084 0 0.4902996892628636 0.83057691269884504 0 0.30018449338884379 0.66852282575985944 0 0.3853248791658106 0.77973766487723961 0.22090161127815711 0.50014622462635805 0.83534964916824084 0 0.4902996892628636 1 0.18804489794556911 0.3161072616634244 0.83057691269884504 0 0.30018449338884379 0.77973766487723961 0.22090161127815711 0.50014622462635805 0.83057691269884504 0 0.30018449338884379 0.83534964916824084 0 0.4902996892628636 1 0 0.3999999999989749 1 0.18804489794556911 0.3161072616634244 0.83534964916824084 0 0.4902996892628636 1 0.162755156180173 0.50966790549372887 1 0 0.59999999999894682 1 0 0.3999999999989749 1 0 0.3999999999989749 0.83534964916824084 0 0.4902996892628636 1 0.162755156180173 0.50966790549372887 1 0.18804489794556911 0.3161072616634244 1 0.18804489794556911 0.3161072616634244 1 0 0.3999999999989749 0.83057691269884504 0 0.30018449338884379 1 0 0.19999999999955789 1 0.31024977578542368 0.45812322962028301 1 0.18804489794556911 0.3161072616634244 1 0.162755156180173 0.50966790549372887 0.77973766487723961 0.22090161127815711 0.50014622462635805 0.83534964916824084 0 0.4902996892628636 1 0.162755156180173 0.50966790549372887 1 0.18804489794556911 0.3161072616634244 0.77973766487723961 0.22090161127815711 0.50014622462635805 1 0.39615100178016449 0.32925244736082498 0.68777432594363841 0.31447353261427252 0.31366778418247038 0.7504488434426726 0.53051757989633308 0.49836643074154852 0.77713227489941183 0.50036915849493024 0.21774643624003751 1 0.39615100178016449 0.32925244736082498 1 0.18804489794556911 0.3161072616634244 1 0.31024977578542368 0.45812322962028301 0.68777432594363841 0.31447353261427252 0.31366778418247038 1 0.31024977578542368 0.45812322962028301 0.7504488434426726 0.53051757989633308 0.49836643074154852 0.68777432594363841 0.31447353261427252 0.31366778418247038 0.77973766487723961 0.22090161127815711 0.50014622462635805 1 0.30074819035868428 0.16929708765640439 1 0.18804489794556911 0.3161072616634244 1 0.39615100178016449 0.32925244736082498 0.68777432594363841 0.31447353261427252 0.31366778418247038 1 0.31024977578542368 0.45812322962028301 0.68777432594363841 0.31447353261427252 0.31366778418247038 1 0.18804489794556911 0.3161072616634244 0.77973766487723961 0.22090161127815711 0.50014622462635805 1 0.30074819035868428 0.16929708765640439 0.68777432594363841 0.31447353261427252 0.31366778418247038 1 0.39615100178016449 0.32925244736082498 0.77713227489941183 0.50036915849493024 0.21774643624003751 1 0.39615100178016449 0.32925244736082498 0.68777432594363841 0.31447353261427252 0.31366778418247038 1 0.31024977578542368 0.45812322962028301 0.7504488434426726 0.53051757989633308 0.49836643074154852 1 0.60020898676431722 0.32446581821274012 1 0.49836539647890021 0.17226134197269399 1 0.39615100178016449 0.32925244736082498 0.77713227489941183 0.50036915849493024 0.21774643624003751 1 0.39615100178016449 0.32925244736082498 1 0.31024977578542368 0.45812322962028301 1 0.50000000000229983 0.51961524226898759 0.7504488434426726 0.53051757989633308 0.49836643074154852 1 0.33579115324550912 0.59952339316293046 0.7504488434426726 0.53051757989633308 0.49836643074154852 0.68742751001967084 0.31250796680084852 0.687427510020161 0.78019141325921404 0.49972466465542442 0.78019141325930785 1 0.33579115324550912 0.59952339316293046 1 0.39076805646076263 0.7272421105028648 0.68742751001967084 0.31250796680084852 0.687427510020161 0.81599560342209843 0.22280203704001911 0.81599560342233202 1 0.33579115324550912 0.59952339316293046 1 0.53045230059030524 0.6732050807565132 1 0.50000000000229983 0.51961524226898759 0.7504488434426726 0.53051757989633308 0.49836643074154852 1 0.33579115324550912 0.59952339316293046 0.7504488434426726 0.53051757989633308 0.49836643074154852 1 0.31024977578542368 0.45812322962028301 0.77973766487723961 0.22090161127815711 0.50014622462635805 0.68742751001967084 0.31250796680084852 0.687427510020161 0.77973766487723961 0.22090161127815711 0.50014622462635805 1 0.33579115324550912 0.59952339316293046 0.81599560342209843 0.22280203704001911 0.81599560342233202 1 0.33579115324550912 0.59952339316293046 0.68742751001967084 0.31250796680084852 0.687427510020161 0.7504488434426726 0.53051757989633308 0.49836643074154852 0.77973766487723961 0.22090161127815711 0.50014622462635805 1 0.53045230059030524 0.6732050807565132 0.7504488434426726 0.53051757989633308 0.49836643074154852 1 0.33579115324550912 0.59952339316293046 0.78019141325921404 0.49972466465542442 0.78019141325930785 1 0.39076805646076263 0.7272421105028648 1 0.33579115324550912 0.59952339316293046 0.68742751001967084 0.31250796680084852 0.687427510020161 0.78019141325921404 0.49972466465542442 0.78019141325930785 1 0.33579115324550912 0.59952339316293046 1 0.50000000000229983 0.51961524226898759 1 0.31024977578542368 0.45812322962028301 0.7504488434426726 0.53051757989633308 0.49836643074154852 1 0.39076805646076263 0.7272421105028648 1 0.53045230059030524 0.6732050807565132 1 0.33579115324550912 0.59952339316293046 0.78019141325921404 0.49972466465542442 0.78019141325930785 1 0.33579115324550912 0.59952339316293046 1 0.1912596090855686 0.70565701451953711 1 0.39076805646076263 0.7272421105028648 0.81599560342209843 0.22280203704001911 0.81599560342233202 1 0.33579115324550912 0.59952339316293046 1 0.31024977578542368 0.45812322962028301 1 0.162755156180173 0.50966790549372887 0.77973766487723961 0.22090161127815711 0.50014622462635805 1 0.162755156180173 0.50966790549372887 0.81469961246449951 0 0.68914937826112133 1 0.1912596090855686 0.70565701451953711 0.77973766487723961 0.22090161127815711 0.50014622462635805 0.81469961246449951 0 0.68914937826112133 0.77973766487723961 0.22090161127815711 0.50014622462635805 0.68742751001967084 0.31250796680084852 0.687427510020161 0.81599560342209843 0.22280203704001911 0.81599560342233202 0.81469961246449951 0 0.68914937826112133 1 0.1912596090855686 0.70565701451953711 0.77973766487723961 0.22090161127815711 0.50014622462635805 0.81599560342209843 0.22280203704001911 0.81599560342233202 1 0.1912596090855686 0.70565701451953711 1 0.33579115324550912 0.59952339316293046 0.77973766487723961 0.22090161127815711 0.50014622462635805 0.81599560342209843 0.22280203704001911 0.81599560342233202 1 0.162755156180173 0.50966790549372887 1 0.1912596090855686 0.70565701451953711 1 0.33579115324550912 0.59952339316293046 0.77973766487723961 0.22090161127815711 0.50014622462635805 1 0.1912596090855686 0.70565701451953711 0.81469961246449951 0 0.68914937826112133 1 0 0.59999999999894682 1 0 0.79999999999947335 0.81469961246449951 0 0.68914937826112133 1 0 0.59999999999894682 1 0.162755156180173 0.50966790549372887 1 0.1912596090855686 0.70565701451953711 1 0.162755156180173 0.50966790549372887 1 0 0.59999999999894682 0.81469961246449951 0 0.68914937826112133 0.83534964916824084 0 0.4902996892628636 0.81469961246449951 0 0.68914937826112133 0.83534964916824084 0 0.4902996892628636 0.68969697123394857 0 0.54179813558228873 0.77973766487723961 0.22090161127815711 0.50014622462635805 0.81469961246449951 0 0.68914937826112133 1 0.162755156180173 0.50966790549372887 0.83534964916824084 0 0.4902996892628636 0.77973766487723961 0.22090161127815711 0.50014622462635805 0.68969697123394857 0 0.54179813558228873 0.6002015905170176 0 0.67551889168744117 0.68742751001967084 0.31250796680084852 0.687427510020161 0.50073570207385831 0.24848280280289631 0.52886631355986169 0.6002015905170176 0 0.67551889168744117 0.81469961246449951 0 0.68914937826112133 0.68969697123394857 0 0.54179813558228873 0.68742751001967084 0.31250796680084852 0.687427510020161 0.81469961246449951 0 0.68914937826112133 0.68969697123394857 0 0.54179813558228873 0.68742751001967084 0.31250796680084852 0.687427510020161 0.77973766487723961 0.22090161127815711 0.50014622462635805 0.69447607299129699 0 0.84099946107689361 0.68742751001967084 0.31250796680084852 0.687427510020161 0.6002015905170176 0 0.67551889168744117 0.50084626324420545 0.22238844715913 0.78084811589659187 0.68742751001967084 0.31250796680084852 0.687427510020161 0.68969697123394857 0 0.54179813558228873 0.50073570207385831 0.24848280280289631 0.52886631355986169 0.77973766487723961 0.22090161127815711 0.50014622462635805 0.68742751001967084 0.31250796680084852 0.687427510020161 0.50073570207385831 0.24848280280289631 0.52886631355986169 0.6002015905170176 0 0.67551889168744117 0.50084626324420545 0.22238844715913 0.78084811589659187 0.6002015905170176 0 0.67551889168744117 0.81469961246449951 0 0.68914937826112133 0.68742751001967084 0.31250796680084852 0.687427510020161 0.81599560342209843 0.22280203704001911 0.81599560342233202 0.68969697123394857 0 0.54179813558228873 0.50000000000250922 0 0.48038475773043671 0.6002015905170176 0 0.67551889168744117 0.50073570207385831 0.24848280280289631 0.52886631355986169 0.50000000000001332 0.49999999999999561 0.49999999999999561 0.68742751001967084 0.31250796680084852 0.687427510020161 0.49816183246753282 0.5307146639261795 0.75045686993209071 0.50073570207385831 0.24848280280289631 0.52886631355986169 0.68742751001967084 0.31250796680084852 0.687427510020161 0.50000000000001332 0.49999999999999561 0.49999999999999561 0.7504488434426726 0.53051757989633308 0.49836643074154852 0.50073570207385831 0.24848280280289631 0.52886631355986169 0.68742751001967084 0.31250796680084852 0.687427510020161 0.7504488434426726 0.53051757989633308 0.49836643074154852 0.50000000000001332 0.49999999999999561 0.49999999999999561 0.49816183246753282 0.5307146639261795 0.75045686993209071 0.7504488434426726 0.53051757989633308 0.49836643074154852 0.49816183246753282 0.5307146639261795 0.75045686993209071 0.68742751001967084 0.31250796680084852 0.687427510020161 0.78019141325921404 0.49972466465542442 0.78019141325930785 0.49816183246753282 0.5307146639261795 0.75045686993209071 0.50073570207385831 0.24848280280289631 0.52886631355986169 0.68742751001967084 0.31250796680084852 0.687427510020161 0.50084626324420545 0.22238844715913 0.78084811589659187 0.68742751001967084 0.31250796680084852 0.687427510020161 0.50073570207385831 0.24848280280289631 0.52886631355986169 0.7504488434426726 0.53051757989633308 0.49836643074154852 0.77973766487723961 0.22090161127815711 0.50014622462635805 0.45812322962173568 0.31024977578554058 1 0.49816183246753282 0.5307146639261795 0.75045686993209071 0.59952339316492498 0.33579115324593939 1 0.50084626324420545 0.22238844715913 0.78084811589659187 0.59952339316492498 0.33579115324593939 1 0.68742751001967084 0.31250796680084852 0.687427510020161 0.72724211050425436 0.39076805646176382 1 0.81599560342209843 0.22280203704001911 0.81599560342233202 0.59952339316492498 0.33579115324593939 1 0.68742751001967084 0.31250796680084852 0.687427510020161 0.49816183246753282 0.5307146639261795 0.75045686993209071 0.78019141325921404 0.49972466465542442 0.78019141325930785 0.59952339316492498 0.33579115324593939 1 0.50084626324420545 0.22238844715913 0.78084811589659187 0.68742751001967084 0.31250796680084852 0.687427510020161 0.81599560342209843 0.22280203704001911 0.81599560342233202 0.59952339316492498 0.33579115324593939 1 0.49816183246753282 0.5307146639261795 0.75045686993209071 0.68742751001967084 0.31250796680084852 0.687427510020161 0.50084626324420545 0.22238844715913 0.78084811589659187 0.59952339316492498 0.33579115324593939 1 0.72724211050425436 0.39076805646176382 1 0.68742751001967084 0.31250796680084852 0.687427510020161 0.78019141325921404 0.49972466465542442 0.78019141325930785 0.59952339316492498 0.33579115324593939 1 0.49816183246753282 0.5307146639261795 0.75045686993209071 0.67320508075671459 0.53045230059073867 1 0.78019141325921404 0.49972466465542442 0.78019141325930785 0.70565701452089868 0.1912596090858541 1 0.59952339316492498 0.33579115324593939 1 0.72724211050425436 0.39076805646176382 1 0.81599560342209843 0.22280203704001911 0.81599560342233202 0.59952339316492498 0.33579115324593939 1 0.67320508075671459 0.53045230059073867 1 0.72724211050425436 0.39076805646176382 1 0.78019141325921404 0.49972466465542442 0.78019141325930785 0.45812322962173568 0.31024977578554058 1 0.51961524226934941 0.50000000000250611 1 0.59952339316492498 0.33579115324593939 1 0.49816183246753282 0.5307146639261795 0.75045686993209071 0.67320508075671459 0.53045230059073867 1 0.59952339316492498 0.33579115324593939 1 0.51961524226934941 0.50000000000250611 1 0.49816183246753282 0.5307146639261795 0.75045686993209071 0.59952339316492498 0.33579115324593939 1 0.50966790549576724 0.1627551561802443 1 0.45812322962173568 0.31024977578554058 1 0.50084626324420545 0.22238844715913 0.78084811589659187 0.50966790549576724 0.1627551561802443 1 0.70565701452089868 0.1912596090858541 1 0.69447607299129699 0 0.84099946107689361 0.50084626324420545 0.22238844715913 0.78084811589659187 0.68742751001967084 0.31250796680084852 0.687427510020161 0.50084626324420545 0.22238844715913 0.78084811589659187 0.69447607299129699 0 0.84099946107689361 0.81599560342209843 0.22280203704001911 0.81599560342233202 0.70565701452089868 0.1912596090858541 1 0.69447607299129699 0 0.84099946107689361 0.50084626324420545 0.22238844715913 0.78084811589659187 0.81599560342209843 0.22280203704001911 0.81599560342233202 0.70565701452089868 0.1912596090858541 1 0.50084626324420545 0.22238844715913 0.78084811589659187 0.59952339316492498 0.33579115324593939 1 0.81599560342209843 0.22280203704001911 0.81599560342233202 0.70565701452089868 0.1912596090858541 1 0.50966790549576724 0.1627551561802443 1 0.59952339316492498 0.33579115324593939 1 0.50084626324420545 0.22238844715913 0.78084811589659187 0.6002015905170176 0 0.67551889168744117 0.68742751001967084 0.31250796680084852 0.687427510020161 0.69447607299129699 0 0.84099946107689361 0.81599560342209843 0.22280203704001911 0.81599560342233202 0.69447607299129699 0 0.84099946107689361 0.6002015905170176 0 0.67551889168744117 0.49836539647917322 0 0.82773865802723501 0.50084626324420545 0.22238844715913 0.78084811589659187 0.69447607299129699 0 0.84099946107689361 0.49836539647917322 0 0.82773865802723501 0.50966790549576724 0.1627551561802443 1 0.50084626324420545 0.22238844715913 0.78084811589659187 0.60000000000138687 0 1 0.49836539647917322 0 0.82773865802723501 0.50966790549576724 0.1627551561802443 1 0.69447607299129699 0 0.84099946107689361 0.50966790549576724 0.1627551561802443 1 0.40000000000166441 0 1 0.49836539647917322 0 0.82773865802723501 0.60000000000138687 0 1 0.50966790549576724 0.1627551561802443 1 0.70565701452089868 0.1912596090858541 1 0.60000000000138687 0 1 0.69447607299129699 0 0.84099946107689361 0.70565701452089868 0.1912596090858541 1 0.60000000000138687 0 1 0.69447607299129699 0 0.84099946107689361 0.79999999999999982 0 1 0.6002015905170176 0 0.67551889168744117 0.69447607299129699 0 0.84099946107689361 0.81469961246449951 0 0.68914937826112133 0.81599560342209843 0.22280203704001911 0.81599560342233202 0.70565701452089868 0.1912596090858541 1 0.85358983848646974 0.14641016151341191 1 0.69447607299129699 0 0.84099946107689361 0.81599560342209843 0.22280203704001911 0.81599560342233202 0.85358983848646974 0.14641016151341191 1 0.70565701452089868 0.1912596090858541 1 0.85173693729199718 0.30007817960516198 1 0.81599560342209843 0.22280203704001911 0.81599560342233202 1 0.1912596090855686 0.70565701451953711 0.81469961246449951 0 0.68914937826112133 0.85358983848570524 0 0.85358983848556425 0.81599560342209843 0.22280203704001911 0.81599560342233202 0.69447607299129699 0 0.84099946107689361 0.85358983848570524 0 0.85358983848556425 0.81469961246449951 0 0.68914937826112133 0.81599560342209843 0.22280203704001911 0.81599560342233202 0.85358983848570524 0 0.85358983848556425 0.69447607299129699 0 0.84099946107689361 0.85358983848646974 0.14641016151341191 1 0.81599560342209843 0.22280203704001911 0.81599560342233202 0.79999999999999982 0 1 0.69447607299129699 0 0.84099946107689361 0.70565701452089868 0.1912596090858541 1 0.85358983848646974 0.14641016151341191 1 0.79999999999999982 0 1 0.85358983848570524 0 0.85358983848556425 0.69447607299129699 0 0.84099946107689361 0.85358983848646974 0.14641016151341191 1 1 0 1 1 0.14641016151333891 0.85358983848640169 0.85358983848570524 0 0.85358983848556425 0.85358983848646974 0.14641016151341191 1 0.79999999999999982 0 1 1 0 1 0.85358983848570524 0 0.85358983848556425 0.85358983848646974 0.14641016151341191 1 0.85358983848646974 0.14641016151341191 1 1 0 1 1 0.14641016151333891 0.85358983848640169 1 0.19999999999955789 1 0.85358983848570524 0 0.85358983848556425 1 0.14641016151333891 0.85358983848640169 1 0 1 1 0 0.79999999999947335 0.85358983848570524 0 0.85358983848556425 0.81469961246449951 0 0.68914937826112133 1 0.1912596090855686 0.70565701451953711 1 0 0.79999999999947335 1 0.1912596090855686 0.70565701451953711 1 0.14641016151333891 0.85358983848640169 0.85358983848570524 0 0.85358983848556425 1 0 0.79999999999947335 1 0.14641016151333891 0.85358983848640169 1 0.30007817960499339 0.85173693729139244 1 0.1912596090855686 0.70565701451953711 0.81599560342209843 0.22280203704001911 0.81599560342233202 1 0.1912596090855686 0.70565701451953711 0.85358983848570524 0 0.85358983848556425 1 0.14641016151333891 0.85358983848640169 0.81599560342209843 0.22280203704001911 0.81599560342233202 0.85358983848646974 0.14641016151341191 1 0.85173693729199718 0.30007817960516198 1 1 0.19999999999955789 1 0.81599560342209843 0.22280203704001911 0.81599560342233202 1 0.14641016151333891 0.85358983848640169 0.85358983848646974 0.14641016151341191 1 1 0.19999999999955789 1 0.81599560342209843 0.22280203704001911 0.81599560342233202 1 0.14641016151333891 0.85358983848640169 1 0.19999999999955789 1 1 0.30007817960499339 0.85173693729139244 0.81599560342209843 0.22280203704001911 0.81599560342233202 0.85358983848570524 0 0.85358983848556425 0.85358983848646974 0.14641016151341191 1 1 0.14641016151333891 0.85358983848640169 0.81599560342209843 0.22280203704001911 0.81599560342233202 1 0.19999999999955789 1 1 0.30007817960499339 0.85173693729139244 0.85173693729199718 0.30007817960516198 1 1 0.3999999999989749 1 1 0.19999999999955789 1 0.85173693729199718 0.30007817960516198 1 1 0.30007817960499339 0.85173693729139244 0.81599560342209843 0.22280203704001911 0.81599560342233202 1 0.30007817960499339 0.85173693729139244 0.85173693729199718 0.30007817960516198 1 0.78019141325921404 0.49972466465542442 0.78019141325930785 0.81599560342209843 0.22280203704001911 0.81599560342233202 0.68742751001967084 0.31250796680084852 0.687427510020161 0.78019141325921404 0.49972466465542442 0.78019141325930785 0.72724211050425436 0.39076805646176382 1 0.81599560342209843 0.22280203704001911 0.81599560342233202 1 0.39076805646076263 0.7272421105028648 1 0.30007817960499339 0.85173693729139244 0.78019141325921404 0.49972466465542442 0.78019141325930785 0.81599560342209843 0.22280203704001911 0.81599560342233202 0.85173693729199718 0.30007817960516198 1 0.72724211050425436 0.39076805646176382 1 0.78019141325921404 0.49972466465542442 0.78019141325930785 0.81599560342209843 0.22280203704001911 0.81599560342233202 1 0.39076805646076263 0.7272421105028648 0.78019141325921404 0.49972466465542442 0.78019141325930785 0.68742751001967084 0.31250796680084852 0.687427510020161 0.81599560342209843 0.22280203704001911 0.81599560342233202 0.85173693729199718 0.30007817960516198 1 1 0.30007817960499339 0.85173693729139244 1 0.48813836695007229 0.84191918937727617 1 0.3999999999989749 1 0.72724211050425436 0.39076805646176382 1 0.85173693729199718 0.30007817960516198 1 0.70565701452089868 0.1912596090858541 1 0.81599560342209843 0.22280203704001911 0.81599560342233202 1 0.1912596090855686 0.70565701451953711 1 0.30007817960499339 0.85173693729139244 1 0.39076805646076263 0.7272421105028648 0.81599560342209843 0.22280203704001911 0.81599560342233202 0.85173693729199718 0.30007817960516198 1 1 0.48813836695007229 0.84191918937727617 1 0.30007817960499339 0.85173693729139244 0.78019141325921404 0.49972466465542442 0.78019141325930785 1 0.30007817960499339 0.85173693729139244 1 0.48813836695007229 0.84191918937727617 1 0.39076805646076263 0.7272421105028648 0.78019141325921404 0.49972466465542442 0.78019141325930785 1 0.39076805646076263 0.7272421105028648 1 0.48813836695007229 0.84191918937727617 1 0.53045230059030524 0.6732050807565132 0.78019141325921404 0.49972466465542442 0.78019141325930785 0.72724211050425436 0.39076805646176382 1 0.67320508075671459 0.53045230059073867 1 0.84191918937756771 0.48813836695034618 1 0.78019141325921404 0.49972466465542442 0.78019141325930785 0.84191918937756771 0.48813836695034618 1 0.85173693729199718 0.30007817960516198 1 0.72724211050425436 0.39076805646176382 1 0.78019141325921404 0.49972466465542442 0.78019141325930785 0.84191918937756771 0.48813836695034618 1 1 0.48813836695007229 0.84191918937727617 0.85173693729199718 0.30007817960516198 1 0.78019141325921404 0.49972466465542442 0.78019141325930785 1 0.3999999999989749 1 1 0.48813836695007229 0.84191918937727617 0.84191918937756771 0.48813836695034618 1 1 0.59999999999894682 1 1 0.48813836695007229 0.84191918937727617 0.84191918937756771 0.48813836695034618 1 0.85173693729199718 0.30007817960516198 1 1 0.3999999999989749 1 0.80839867011861499 0.68192028468377774 1 0.78019141325921404 0.49972466465542442 0.78019141325930785 0.68649174659499257 0.68600703198516766 0.6864917465949647 0.77683220420328725 0.81278569633583353 0.81664766512111064 0.80839867011861499 0.68192028468377774 1 1 0.68192028468364885 0.80839867011854549 0.78019141325921404 0.49972466465542442 0.78019141325930785 0.77683220420328725 0.81278569633583353 0.81664766512111064 1 0.59999999999894682 1 1 0.48813836695007229 0.84191918937727617 0.84191918937756771 0.48813836695034618 1 1 0.68192028468364885 0.80839867011854549 0.68649174659499257 0.68600703198516766 0.6864917465949647 0.78019141325921404 0.49972466465542442 0.78019141325930785 1 0.68192028468364885 0.80839867011854549 0.77683220420328725 0.81278569633583353 0.81664766512111064 0.84191918937756771 0.48813836695034618 1 1 0.59999999999894682 1 1 0.68192028468364885 0.80839867011854549 0.80839867011861499 0.68192028468377774 1 1 0.59999999999894682 1 1 0.68192028468364885 0.80839867011854549 0.80839867011861499 0.68192028468377774 1 1 0.79999999999947335 1 0.84191918937756771 0.48813836695034618 1 0.67320508075671459 0.53045230059073867 1 0.80839867011861499 0.68192028468377774 1 0.78019141325921404 0.49972466465542442 0.78019141325930785 0.84191918937756771 0.48813836695034618 1 0.80839867011861499 0.68192028468377774 1 1 0.68192028468364885 0.80839867011854549 0.78019141325921404 0.49972466465542442 0.78019141325930785 1 0.68192028468364885 0.80839867011854549 1 0.53045230059030524 0.6732050807565132 1 0.48813836695007229 0.84191918937727617 0.78019141325921404 0.49972466465542442 0.78019141325930785 1 0.68192028468364885 0.80839867011854549 1 0.48813836695007229 0.84191918937727617 0.84191918937756771 0.48813836695034618 1 0.78019141325921404 0.49972466465542442 0.78019141325930785 1 0.67939035495490308 0.61016512164639347 0.78019141325921404 0.49972466465542442 0.78019141325930785 0.7504488434426726 0.53051757989633308 0.49836643074154852 1 0.53045230059030524 0.6732050807565132 1 0.67939035495490308 0.61016512164639347 0.7504488434426726 0.53051757989633308 0.49836643074154852 0.68649174659499257 0.68600703198516766 0.6864917465949647 0.77374673111774417 0.78860835645735528 0.49829081152968557 1 0.67939035495490308 0.61016512164639347 0.68649174659499257 0.68600703198516766 0.6864917465949647 1 0.83791821520125753 0.69361520514217179 0.77374673111774417 0.78860835645735528 0.49829081152968557 1 0.68192028468364885 0.80839867011854549 1 0.67939035495490308 0.61016512164639347 0.68649174659499257 0.68600703198516766 0.6864917465949647 0.77683220420328725 0.81278569633583353 0.81664766512111064 1 0.67939035495490308 0.61016512164639347 1 0.68975022421527898 0.45812322962078778 0.7504488434426726 0.53051757989633308 0.49836643074154852 0.77374673111774417 0.78860835645735528 0.49829081152968557 0.7504488434426726 0.53051757989633308 0.49836643074154852 0.78019141325921404 0.49972466465542442 0.78019141325930785 1 0.67939035495490308 0.61016512164639347 0.68649174659499257 0.68600703198516766 0.6864917465949647 1 0.68192028468364885 0.80839867011854549 0.68649174659499257 0.68600703198516766 0.6864917465949647 1 0.67939035495490308 0.61016512164639347 0.78019141325921404 0.49972466465542442 0.78019141325930785 1 0.53045230059030524 0.6732050807565132 1 0.68192028468364885 0.80839867011854549 1 0.67939035495490308 0.61016512164639347 0.78019141325921404 0.49972466465542442 0.78019141325930785 1 0.67939035495490308 0.61016512164639347 1 0.50000000000229983 0.51961524226898759 1 0.53045230059030524 0.6732050807565132 0.7504488434426726 0.53051757989633308 0.49836643074154852 1 0.67939035495490308 0.61016512164639347 1 0.68975022421527898 0.45812322962078778 1 0.50000000000229983 0.51961524226898759 0.7504488434426726 0.53051757989633308 0.49836643074154852 1 0.67939035495490308 0.61016512164639347 1 0.83630110503662825 0.50803330197135588 1 0.68975022421527898 0.45812322962078778 0.77374673111774417 0.78860835645735528 0.49829081152968557 1 0.83791821520125753 0.69361520514217179 0.77374673111774417 0.78860835645735528 0.49829081152968557 0.68649174659499257 0.68600703198516766 0.6864917465949647 0.77683220420328725 0.81278569633583353 0.81664766512111064 0.68649174659499257 0.68600703198516766 0.6864917465949647 0.77374673111774417 0.78860835645735528 0.49829081152968557 0.81346205468287114 1 0.68420958956387889 0.77683220420328725 0.81278569633583353 0.81664766512111064 1 0.83791821520125753 0.69361520514217179 0.68649174659499257 0.68600703198516766 0.6864917465949647 1 0.67939035495490308 0.61016512164639347 0.77683220420328725 0.81278569633583353 0.81664766512111064 1 0.68192028468364885 0.80839867011854549 1 0.83791821520125753 0.69361520514217179 1 0.67939035495490308 0.61016512164639347 0.77683220420328725 0.81278569633583353 0.81664766512111064 1 0.83791821520125753 0.69361520514217179 0.81346205468287114 1 0.68420958956387889 0.77374673111774417 0.78860835645735528 0.49829081152968557 0.77683220420328725 0.81278569633583353 0.81664766512111064 1 0.83630110503662825 0.50803330197135588 1 0.67939035495490308 0.61016512164639347 1 0.83791821520125753 0.69361520514217179 0.77374673111774417 0.78860835645735528 0.49829081152968557 1 0.83791821520125753 0.69361520514217179 0.86762395692956074 1 0.5060815484123421 1 0.83630110503662825 0.50803330197135588 0.77374673111774417 0.78860835645735528 0.49829081152968557 1 1 0.59999999999894682 1 0.83630110503662825 0.50803330197135588 1 0.83791821520125753 0.69361520514217179 0.86762395692956074 1 0.5060815484123421 0.86762395692956074 1 0.5060815484123421 1 1 0.59999999999894682 1 0.83630110503662825 0.50803330197135588 1 1 0.3999999999989749 1 0.83791821520125753 0.69361520514217179 0.81346205468287114 1 0.68420958956387889 1 1 0.59999999999894682 0.86762395692956074 1 0.5060815484123421 0.86762395692956074 1 0.5060815484123421 0.81346205468287114 1 0.68420958956387889 0.68240285647621723 1 0.52310058211166854 0.77374673111774417 0.78860835645735528 0.49829081152968557 0.81346205468287114 1 0.68420958956387889 0.86762395692956074 1 0.5060815484123421 1 0.83791821520125753 0.69361520514217179 0.77374673111774417 0.78860835645735528 0.49829081152968557 1 0.83791821520125753 0.69361520514217179 0.81346205468287114 1 0.68420958956387889 1 1 0.79999999999947335 1 1 0.59999999999894682 1 1 0.79999999999947335 0.85358983848569092 1 0.85358983848569092 0.81346205468287114 1 0.68420958956387889 1 0.83791821520125753 0.69361520514217179 0.85358983848569092 1 0.85358983848569092 1 0.83791821520125753 0.69361520514217179 1 0.85358983848587056 0.85358983848587056 0.77683220420328725 0.81278569633583353 0.81664766512111064 0.85358983848569092 1 0.85358983848569092 1 1 0.79999999999947335 1 0.85358983848587056 0.85358983848587056 1 0.83791821520125753 0.69361520514217179 0.85358983848587056 0.85358983848587056 1 1 1 1 1 0.79999999999947335 1 1 0.85358983848587056 0.85358983848587056 0.85358983848587056 0.85358983848587056 1 0.79999999999947335 1 1 1 1 1 0.85358983848569092 1 0.85358983848569092 1 1 0.79999999999947335 1 0.85358983848587056 0.85358983848587056 1 1 1 0.85358983848569092 1 0.85358983848569092 1 0.85358983848587056 0.85358983848587056 0.85358983848587056 0.85358983848587056 1 1 1 1 0.85358983848569092 1 0.85358983848569092 0.85358983848587056 0.85358983848587056 1 1 0.79999999999947335 1 1 0.68192028468364885 0.80839867011854549 1 0.85358983848587056 0.85358983848587056 1 0.79999999999947335 1 1 0.68192028468364885 0.80839867011854549 0.80839867011861499 0.68192028468377774 1 0.85358983848587056 0.85358983848587056 1 0.85358983848587056 0.85358983848587056 1 1 0.85358983848587056 0.85358983848587056 1 0.68192028468364885 0.80839867011854549 0.77683220420328725 0.81278569633583353 0.81664766512111064 1 0.68192028468364885 0.80839867011854549 1 0.85358983848587056 0.85358983848587056 1 0.83791821520125753 0.69361520514217179 0.77683220420328725 0.81278569633583353 0.81664766512111064 0.69361520514218133 0.83791821520130205 1 0.85358983848587056 0.85358983848587056 1 0.80839867011861499 0.68192028468377774 1 0.77683220420328725 0.81278569633583353 0.81664766512111064 0.80839867011861499 0.68192028468377774 1 0.85358983848587056 0.85358983848587056 1 1 0.68192028468364885 0.80839867011854549 0.77683220420328725 0.81278569633583353 0.81664766512111064 0.85358983848587056 0.85358983848587056 1 0.79999999999947335 1 1 0.85358983848569092 1 0.85358983848569092 0.77683220420328725 0.81278569633583353 0.81664766512111064 0.69981550660938663 1 0.83057691269844081 0.85358983848569092 1 0.85358983848569092 0.79999999999947335 1 1 0.77683220420328725 0.81278569633583353 0.81664766512111064 0.85358983848587056 0.85358983848587056 1 0.69361520514218133 0.83791821520130205 1 0.79999999999947335 1 1 0.77683220420328725 0.81278569633583353 0.81664766512111064 1 0.85358983848587056 0.85358983848587056 0.85358983848587056 0.85358983848587056 1 0.85358983848569092 1 0.85358983848569092 0.77683220420328725 0.81278569633583353 0.81664766512111064 0.85358983848569092 1 0.85358983848569092 0.69981550660938663 1 0.83057691269844081 0.81346205468287114 1 0.68420958956387889 0.77683220420328725 0.81278569633583353 0.81664766512111064 0.81346205468287114 1 0.68420958956387889 1 0.83791821520125753 0.69361520514217179 0.85358983848569092 1 0.85358983848569092 0.77683220420328725 0.81278569633583353 0.81664766512111064 0.69361520514218133 0.83791821520130205 1 0.49911199724958061 0.77872228561593948 0.77895350115271889 0.69981550660938663 1 0.83057691269844081 0.77683220420328725 0.81278569633583353 0.81664766512111064 0.69361520514218133 0.83791821520130205 1 0.61016512164652226 0.67939035495506384 1 0.49911199724958061 0.77872228561593948 0.77895350115271889 0.77683220420328725 0.81278569633583353 0.81664766512111064 0.81346205468287114 1 0.68420958956387889 0.69981550660938663 1 0.83057691269844081 0.6123333432449789 1 0.67837347745467769 0.77683220420328725 0.81278569633583353 0.81664766512111064 0.6123333432449789 1 0.67837347745467769 0.69981550660938663 1 0.83057691269844081 0.49911199724958061 0.77872228561593948 0.77895350115271889 0.77683220420328725 0.81278569633583353 0.81664766512111064 0.69361520514218133 0.83791821520130205 1 0.69981550660938663 1 0.83057691269844081 0.79999999999947335 1 1 0.77683220420328725 0.81278569633583353 0.81664766512111064 0.50970031073508926 1 0.83534964916803001 0.59999999999894682 1 1 0.69361520514218133 0.83791821520130205 1 0.69981550660938663 1 0.83057691269844081 0.69981550660938663 1 0.83057691269844081 0.59999999999894682 1 1 0.69361520514218133 0.83791821520130205 1 0.79999999999947335 1 1 0.80839867011861499 0.68192028468377774 1 0.61016512164652226 0.67939035495506384 1 0.69361520514218133 0.83791821520130205 1 0.77683220420328725 0.81278569633583353 0.81664766512111064 0.50803330197137353 0.83630110503667787 1 0.69361520514218133 0.83791821520130205 1 0.61016512164652226 0.67939035495506384 1 0.49911199724958061 0.77872228561593948 0.77895350115271889 0.50803330197137353 0.83630110503667787 1 0.50970031073508926 1 0.83534964916803001 0.69361520514218133 0.83791821520130205 1 0.49911199724958061 0.77872228561593948 0.77895350115271889 0.59999999999894682 1 1 0.50803330197137353 0.83630110503667787 1 0.3999999999989749 1 1 0.50970031073508926 1 0.83534964916803001 0.69361520514218133 0.83791821520130205 1 0.50803330197137353 0.83630110503667787 1 0.59999999999894682 1 1 0.50970031073508926 1 0.83534964916803001 0.69361520514218133 0.83791821520130205 1 0.50970031073508926 1 0.83534964916803001 0.69981550660938663 1 0.83057691269844081 0.49911199724958061 0.77872228561593948 0.77895350115271889 0.50970031073508926 1 0.83534964916803001 0.6123333432449789 1 0.67837347745467769 0.69981550660938663 1 0.83057691269844081 0.49911199724958061 0.77872228561593948 0.77895350115271889 0.6123333432449789 1 0.67837347745467769 0.49983993748706529 0.75039103705932653 0.52967335724801234 0.68649174659499257 0.68600703198516766 0.6864917465949647 0.49911199724958061 0.77872228561593948 0.77895350115271889 0.6123333432449789 1 0.67837347745467769 0.49983993748706529 0.75039103705932653 0.52967335724801234 0.68240285647621723 1 0.52310058211166854 0.77374673111774417 0.78860835645735528 0.49829081152968557 0.6123333432449789 1 0.67837347745467769 0.45820186441573879 1 0.68969697123405882 0.49983993748706529 0.75039103705932653 0.52967335724801234 0.49911199724958061 0.77872228561593948 0.77895350115271889 0.45820186441573879 1 0.68969697123405882 0.6123333432449789 1 0.67837347745467769 0.50970031073508926 1 0.83534964916803001 0.49911199724958061 0.77872228561593948 0.77895350115271889 0.6123333432449789 1 0.67837347745467769 0.68649174659499257 0.68600703198516766 0.6864917465949647 0.49983993748706529 0.75039103705932653 0.52967335724801234 0.77374673111774417 0.78860835645735528 0.49829081152968557 0.81346205468287114 1 0.68420958956387889 0.6123333432449789 1 0.67837347745467769 0.68649174659499257 0.68600703198516766 0.6864917465949647 0.77683220420328725 0.81278569633583353 0.81664766512111064 0.6123333432449789 1 0.67837347745467769 0.49911199724958061 0.77872228561593948 0.77895350115271889 0.68649174659499257 0.68600703198516766 0.6864917465949647 0.77683220420328725 0.81278569633583353 0.81664766512111064 0.81346205468287114 1 0.68420958956387889 0.68649174659499257 0.68600703198516766 0.6864917465949647 0.6123333432449789 1 0.67837347745467769 0.77374673111774417 0.78860835645735528 0.49829081152968557 0.81346205468287114 1 0.68420958956387889 0.6123333432449789 1 0.67837347745467769 0.68240285647621723 1 0.52310058211166854 0.77374673111774417 0.78860835645735528 0.49829081152968557 0.6123333432449789 1 0.67837347745467769 0.45820186441573879 1 0.68969697123405882 0.51961524227008238 1 0.49999999999872219 0.49983993748706529 0.75039103705932653 0.52967335724801234 0.6123333432449789 1 0.67837347745467769 0.51961524227008238 1 0.49999999999872219 0.68240285647621723 1 0.52310058211166854 0.49983993748706529 0.75039103705932653 0.52967335724801234 0.68649174659499257 0.68600703198516766 0.6864917465949647 0.49983993748706529 0.75039103705932653 0.52967335724801234 0.49816183246753282 0.5307146639261795 0.75045686993209071 0.49911199724958061 0.77872228561593948 0.77895350115271889 0.68649174659499257 0.68600703198516766 0.6864917465949647 0.50000000000001332 0.49999999999999561 0.49999999999999561 0.7504488434426726 0.53051757989633308 0.49836643074154852 0.49816183246753282 0.5307146639261795 0.75045686993209071 0.68649174659499257 0.68600703198516766 0.6864917465949647 0.49816183246753282 0.5307146639261795 0.75045686993209071 0.7504488434426726 0.53051757989633308 0.49836643074154852 0.78019141325921404 0.49972466465542442 0.78019141325930785 0.50000000000001332 0.49999999999999561 0.49999999999999561 0.68649174659499257 0.68600703198516766 0.6864917465949647 0.7504488434426726 0.53051757989633308 0.49836643074154852 0.49983993748706529 0.75039103705932653 0.52967335724801234 0.7504488434426726 0.53051757989633308 0.49836643074154852 0.49983993748706529 0.75039103705932653 0.52967335724801234 0.68649174659499257 0.68600703198516766 0.6864917465949647 0.77374673111774417 0.78860835645735528 0.49829081152968557 0.68649174659499257 0.68600703198516766 0.6864917465949647 0.50000000000001332 0.49999999999999561 0.49999999999999561 0.49816183246753282 0.5307146639261795 0.75045686993209071 0.49983993748706529 0.75039103705932653 0.52967335724801234 0.78019141325921404 0.49972466465542442 0.78019141325930785 0.61016512164652226 0.67939035495506384 1 0.49816183246753282 0.5307146639261795 0.75045686993209071 0.67320508075671459 0.53045230059073867 1 0.78019141325921404 0.49972466465542442 0.78019141325930785 0.49816183246753282 0.5307146639261795 0.75045686993209071 0.61016512164652226 0.67939035495506384 1 0.68649174659499257 0.68600703198516766 0.6864917465949647 0.61016512164652226 0.67939035495506384 1 0.68649174659499257 0.68600703198516766 0.6864917465949647 0.80839867011861499 0.68192028468377774 1 0.78019141325921404 0.49972466465542442 0.78019141325930785 0.68649174659499257 0.68600703198516766 0.6864917465949647 0.49911199724958061 0.77872228561593948 0.77895350115271889 0.61016512164652226 0.67939035495506384 1 0.77683220420328725 0.81278569633583353 0.81664766512111064 0.68649174659499257 0.68600703198516766 0.6864917465949647 0.49816183246753282 0.5307146639261795 0.75045686993209071 0.61016512164652226 0.67939035495506384 1 0.49911199724958061 0.77872228561593948 0.77895350115271889 0.80839867011861499 0.68192028468377774 1 0.68649174659499257 0.68600703198516766 0.6864917465949647 0.61016512164652226 0.67939035495506384 1 0.77683220420328725 0.81278569633583353 0.81664766512111064 0.67320508075671459 0.53045230059073867 1 0.61016512164652226 0.67939035495506384 1 0.80839867011861499 0.68192028468377774 1 0.78019141325921404 0.49972466465542442 0.78019141325930785 0.45812322962090041 0.68975022421538157 1 0.61016512164652226 0.67939035495506384 1 0.49816183246753282 0.5307146639261795 0.75045686993209071 0.49911199724958061 0.77872228561593948 0.77895350115271889 0.50803330197137353 0.83630110503667787 1 0.61016512164652226 0.67939035495506384 1 0.45812322962090041 0.68975022421538157 1 0.49911199724958061 0.77872228561593948 0.77895350115271889 0.51961524226934941 0.50000000000250611 1 0.45812322962090041 0.68975022421538157 1 0.61016512164652226 0.67939035495506384 1 0.49816183246753282 0.5307146639261795 0.75045686993209071 0.67320508075671459 0.53045230059073867 1 0.51961524226934941 0.50000000000250611 1 0.61016512164652226 0.67939035495506384 1 0.49816183246753282 0.5307146639261795 0.75045686993209071 0.3115891413135391 0.68758981780459771 0.68521708032990558 0.2184393375098648 0.50004596894495223 0.77634962490704662 0.32446581821293602 0.60020898676440626 1 0.18453958615733529 0.77655623474864555 0.81613222483915937 0.32925244736146098 0.39615100178034629 1 0.32446581821293602 0.60020898676440626 1 0.51961524226934941 0.50000000000250611 1 0.49816183246753282 0.5307146639261795 0.75045686993209071 0.45812322962090041 0.68975022421538157 1 0.3115891413135391 0.68758981780459771 0.68521708032990558 0.31067093462947892 0.81480288849497895 1 0.49911199724958061 0.77872228561593948 0.77895350115271889 0.32925244736146098 0.39615100178034629 1 0.32446581821293602 0.60020898676440626 1 0.49816183246753282 0.5307146639261795 0.75045686993209071 0.2184393375098648 0.50004596894495223 0.77634962490704662 0.45812322962090041 0.68975022421538157 1 0.49816183246753282 0.5307146639261795 0.75045686993209071 0.3115891413135391 0.68758981780459771 0.68521708032990558 0.49911199724958061 0.77872228561593948 0.77895350115271889 0.32446581821293602 0.60020898676440626 1 0.3115891413135391 0.68758981780459771 0.68521708032990558 0.49816183246753282 0.5307146639261795 0.75045686993209071 0.2184393375098648 0.50004596894495223 0.77634962490704662 0.45812322962090041 0.68975022421538157 1 0.51961524226934941 0.50000000000250611 1 0.32446581821293602 0.60020898676440626 1 0.49816183246753282 0.5307146639261795 0.75045686993209071 0.31067093462947892 0.81480288849497895 1 0.45812322962090041 0.68975022421538157 1 0.32446581821293602 0.60020898676440626 1 0.3115891413135391 0.68758981780459771 0.68521708032990558 0.45812322962090041 0.68975022421538157 1 0.32446581821293602 0.60020898676440626 1 0.3115891413135391 0.68758981780459771 0.68521708032990558 0.49816183246753282 0.5307146639261795 0.75045686993209071 0.32446581821293602 0.60020898676440626 1 0.31067093462947892 0.81480288849497895 1 0.3115891413135391 0.68758981780459771 0.68521708032990558 0.18453958615733529 0.77655623474864555 0.81613222483915937 0.3115891413135391 0.68758981780459771 0.68521708032990558 0.50000000000001332 0.49999999999999561 0.49999999999999561 0.24769234054476261 0.52242103280823293 0.45098450226372488 0.49983993748706529 0.75039103705932653 0.52967335724801234 0.3115891413135391 0.68758981780459771 0.68521708032990558 0.49816183246753282 0.5307146639261795 0.75045686993209071 0.50000000000001332 0.49999999999999561 0.49999999999999561 0.49983993748706529 0.75039103705932653 0.52967335724801234 0.3115891413135391 0.68758981780459771 0.68521708032990558 0.49983993748706529 0.75039103705932653 0.52967335724801234 0.24769234054476261 0.52242103280823293 0.45098450226372488 0.22516916914780419 0.77057994845201627 0.48187244075707292 0.50000000000001332 0.49999999999999561 0.49999999999999561 0.3115891413135391 0.68758981780459771 0.68521708032990558 0.24769234054476261 0.52242103280823293 0.45098450226372488 0.2184393375098648 0.50004596894495223 0.77634962490704662 0.3115891413135391 0.68758981780459771 0.68521708032990558 0.50000000000001332 0.49999999999999561 0.49999999999999561 0.49816183246753282 0.5307146639261795 0.75045686993209071 0.2184393375098648 0.50004596894495223 0.77634962490704662 0.49816183246753282 0.5307146639261795 0.75045686993209071 0.49983993748706529 0.75039103705932653 0.52967335724801234 0.3115891413135391 0.68758981780459771 0.68521708032990558 0.49911199724958061 0.77872228561593948 0.77895350115271889 0.32448110831226962 1 0.6002015905153204 0.45820186441573879 1 0.68969697123405882 0.3115891413135391 0.68758981780459771 0.68521708032990558 0.49983993748706529 0.75039103705932653 0.52967335724801234 0.45820186441573879 1 0.68969697123405882 0.31085062173747541 1 0.81469961246428202 0.32448110831226962 1 0.6002015905153204 0.3115891413135391 0.68758981780459771 0.68521708032990558 0.45820186441573879 1 0.68969697123405882 0.3115891413135391 0.68758981780459771 0.68521708032990558 0.49983993748706529 0.75039103705932653 0.52967335724801234 0.49911199724958061 0.77872228561593948 0.77895350115271889 0.32448110831226962 1 0.6002015905153204 0.3115891413135391 0.68758981780459771 0.68521708032990558 0.31085062173747541 1 0.81469961246428202 0.18453958615733529 0.77655623474864555 0.81613222483915937 0.32448110831226962 1 0.6002015905153204 0.49983993748706529 0.75039103705932653 0.52967335724801234 0.3115891413135391 0.68758981780459771 0.68521708032990558 0.22516916914780419 0.77057994845201627 0.48187244075707292 0.45820186441573879 1 0.68969697123405882 0.31085062173747541 1 0.81469961246428202 0.3115891413135391 0.68758981780459771 0.68521708032990558 0.49911199724958061 0.77872228561593948 0.77895350115271889 0.32926555316115258 1 0.39615987727515128 0.49983993748706529 0.75039103705932653 0.52967335724801234 0.32448110831226962 1 0.6002015905153204 0.22516916914780419 0.77057994845201627 0.48187244075707292 0.32448110831226962 1 0.6002015905153204 0.3115891413135391 0.68758981780459771 0.68521708032990558 0.15900053892265181 1 0.69447607299016312 0.22516916914780419 0.77057994845201627 0.48187244075707292 0.32926555316115258 1 0.39615987727515128 0.51961524227008238 1 0.49999999999872219 0.32448110831226962 1 0.6002015905153204 0.49983993748706529 0.75039103705932653 0.52967335724801234 0.32448110831226962 1 0.6002015905153204 0.51961524227008238 1 0.49999999999872219 0.45820186441573879 1 0.68969697123405882 0.49983993748706529 0.75039103705932653 0.52967335724801234 0.45820186441573879 1 0.68969697123405882 0.50970031073508926 1 0.83534964916803001 0.31085062173747541 1 0.81469961246428202 0.49911199724958061 0.77872228561593948 0.77895350115271889 0.31085062173747541 1 0.81469961246428202 0.49911199724958061 0.77872228561593948 0.77895350115271889 0.31067093462947892 0.81480288849497895 1 0.18453958615733529 0.77655623474864555 0.81613222483915937 0.31085062173747541 1 0.81469961246428202 0.3115891413135391 0.68758981780459771 0.68521708032990558 0.49911199724958061 0.77872228561593948 0.77895350115271889 0.18453958615733529 0.77655623474864555 0.81613222483915937 0.50803330197137353 0.83630110503667787 1 0.31085062173747541 1 0.81469961246428202 0.50970031073508926 1 0.83534964916803001 0.49911199724958061 0.77872228561593948 0.77895350115271889 0.31067093462947892 0.81480288849497895 1 0.49911199724958061 0.77872228561593948 0.77895350115271889 0.3115891413135391 0.68758981780459771 0.68521708032990558 0.18453958615733529 0.77655623474864555 0.81613222483915937 0.31085062173747541 1 0.81469961246428202 0.3999999999989749 1 1 0.50803330197137353 0.83630110503667787 1 0.50970031073508926 1 0.83534964916803001 0.31085062173747541 1 0.81469961246428202 0.3999999999989749 1 1 0.31067093462947892 0.81480288849497895 1 0.50803330197137353 0.83630110503667787 1 0.31085062173747541 1 0.81469961246428202 0.50803330197137353 0.83630110503667787 1 0.31067093462947892 0.81480288849497895 1 0.49911199724958061 0.77872228561593948 0.77895350115271889 0.45812322962090041 0.68975022421538157 1 0.31067093462947892 0.81480288849497895 1 0.50803330197137353 0.83630110503667787 1 0.49911199724958061 0.77872228561593948 0.77895350115271889 0.3999999999989749 1 1 0.19999999999955789 1 1 0.31085062173747541 1 0.81469961246428202 0.31067093462947892 0.81480288849497895 1 0.15900053892265181 1 0.69447607299016312 0.31085062173747541 1 0.81469961246428202 0.1464101615132356 1 0.85358983848650494 0.18453958615733529 0.77655623474864555 0.81613222483915937 0.31085062173747541 1 0.81469961246428202 0.31067093462947892 0.81480288849497895 1 0.1464101615132356 1 0.85358983848650494 0.18453958615733529 0.77655623474864555 0.81613222483915937 0.31085062173747541 1 0.81469961246428202 0.19999999999955789 1 1 0.1464101615132356 1 0.85358983848650494 0.31067093462947892 0.81480288849497895 1 0.14641016151332509 0.85358983848655678 1 0.1464101615132356 1 0.85358983848650494 0.19999999999955789 1 1 0.31067093462947892 0.81480288849497895 1 0.31067093462947892 0.81480288849497895 1 0.15896804272141651 0.69449451837104537 1 0.14641016151332509 0.85358983848655678 1 0.18453958615733529 0.77655623474864555 0.81613222483915937 0.14641016151332509 0.85358983848655678 1 0.1464101615132356 1 0.85358983848650494 0.31067093462947892 0.81480288849497895 1 0.18453958615733529 0.77655623474864555 0.81613222483915937 0 0.85358983848682146 0.85358983848668035 0 0.69992182039579531 0.85173693729137989 0 0.80860557108920617 0.70542349973054763 0.18453958615733529 0.77655623474864555 0.81613222483915937 0.15900053892265181 1 0.69447607299016312 0 0.85358983848682146 0.85358983848668035 0 0.80860557108920617 0.70542349973054763 0.18453958615733529 0.77655623474864555 0.81613222483915937 0.18453958615733529 0.77655623474864555 0.81613222483915937 0 0.79999999999999982 1 0.15896804272141651 0.69449451837104537 1 0.14641016151332509 0.85358983848655678 1 0.1464101615132356 1 0.85358983848650494 0.14641016151332509 0.85358983848655678 1 0 0.85358983848682146 0.85358983848668035 0.18453958615733529 0.77655623474864555 0.81613222483915937 0 0.85358983848682146 0.85358983848668035 0 0.79999999999999982 1 0 0.69992182039579531 0.85173693729137989 0.18453958615733529 0.77655623474864555 0.81613222483915937 0 0.85358983848682146 0.85358983848668035 0.14641016151332509 0.85358983848655678 1 0 0.79999999999999982 1 0.18453958615733529 0.77655623474864555 0.81613222483915937 0 1 1 0 0.85358983848682146 0.85358983848668035 0.14641016151332509 0.85358983848655678 1 0 0.79999999999999982 1 0 0.85358983848682146 0.85358983848668035 0.1464101615132356 1 0.85358983848650494 0 1 1 0.14641016151332509 0.85358983848655678 1 0.19999999999955789 1 1 0 1 1 0.1464101615132356 1 0.85358983848650494 0.14641016151332509 0.85358983848655678 1 0.1464101615132356 1 0.85358983848650494 0 1 1 0 1 0.79999999999947335 0 0.85358983848682146 0.85358983848668035 0.1464101615132356 1 0.85358983848650494 0 0.85358983848682146 0.85358983848668035 0.15900053892265181 1 0.69447607299016312 0.18453958615733529 0.77655623474864555 0.81613222483915937 0.15900053892265181 1 0.69447607299016312 0 1 0.79999999999947335 0 0.80860557108920617 0.70542349973054763 0 0.85358983848682146 0.85358983848668035 0 1 0.79999999999947335 0.15900053892265181 1 0.69447607299016312 0.1464101615132356 1 0.85358983848650494 0 0.85358983848682146 0.85358983848668035 0 0.80860557108920617 0.70542349973054763 0 1 0.59999999999894682 0 1 0.79999999999947335 0.15900053892265181 1 0.69447607299016312 0.3115891413135391 0.68758981780459771 0.68521708032990558 0.22516916914780419 0.77057994845201627 0.48187244075707292 0 0.80860557108920617 0.70542349973054763 0.18453958615733529 0.77655623474864555 0.81613222483915937 0 0.80860557108920617 0.70542349973054763 0 0.83630110503664845 0.50803330197135654 0 1 0.59999999999894682 0.15900053892265181 1 0.69447607299016312 0.15900053892265181 1 0.69447607299016312 0.3115891413135391 0.68758981780459771 0.68521708032990558 0.32448110831226962 1 0.6002015905153204 0.18453958615733529 0.77655623474864555 0.81613222483915937 0.15900053892265181 1 0.69447607299016312 0.22516916914780419 0.77057994845201627 0.48187244075707292 0.3115891413135391 0.68758981780459771 0.68521708032990558 0.18453958615733529 0.77655623474864555 0.81613222483915937 0.15900053892265181 1 0.69447607299016312 0 0.80860557108920617 0.70542349973054763 0.22516916914780419 0.77057994845201627 0.48187244075707292 0.18453958615733529 0.77655623474864555 0.81613222483915937 0.15900053892265181 1 0.69447607299016312 0.32448110831226962 1 0.6002015905153204 0.31085062173747541 1 0.81469961246428202 0.18453958615733529 0.77655623474864555 0.81613222483915937 0.32448110831226962 1 0.6002015905153204 0.15900053892265181 1 0.69447607299016312 0.17226134197293 1 0.49836539647645101 0.22516916914780419 0.77057994845201627 0.48187244075707292 0 0.83630110503664845 0.50803330197135654 0.17226134197293 1 0.49836539647645101 0.15900053892265181 1 0.69447607299016312 0.22516916914780419 0.77057994845201627 0.48187244075707292 0 1 0.59999999999894682 0 1 0.3999999999989749 0.17226134197293 1 0.49836539647645101 0 0.83630110503664845 0.50803330197135654 0 0.83630110503664845 0.50803330197135654 0.17226134197293 1 0.49836539647645101 0 1 0.59999999999894682 0.15900053892265181 1 0.69447607299016312 0 0.83630110503664845 0.50803330197135654 0.15900053892265181 1 0.69447607299016312 0 0.80860557108920617 0.70542349973054763 0.22516916914780419 0.77057994845201627 0.48187244075707292 0 0.66416205381430016 0.59944234540882957 0 0.83630110503664845 0.50803330197135654 0 0.80860557108920617 0.70542349973054763 0.22516916914780419 0.77057994845201627 0.48187244075707292 0 0.66416205381430016 0.59944234540882957 0 0.80860557108920617 0.70542349973054763 0.3115891413135391 0.68758981780459771 0.68521708032990558 0.22516916914780419 0.77057994845201627 0.48187244075707292 0 0.66416205381430016 0.59944234540882957 0.3115891413135391 0.68758981780459771 0.68521708032990558 0 0.80860557108920617 0.70542349973054763 0.18453958615733529 0.77655623474864555 0.81613222483915937 0 0.66416205381430016 0.59944234540882957 0 0.80860557108920617 0.70542349973054763 0 0.60922248848335758 0.72722573386012812 0.18453958615733529 0.77655623474864555 0.81613222483915937 0 0.66416205381430016 0.59944234540882957 0.24769234054476261 0.52242103280823293 0.45098450226372488 0.3115891413135391 0.68758981780459771 0.68521708032990558 0.2184393375098648 0.50004596894495223 0.77634962490704662 0 0.66416205381430016 0.59944234540882957 0 0.60922248848335758 0.72722573386012812 0.3115891413135391 0.68758981780459771 0.68521708032990558 0.18453958615733529 0.77655623474864555 0.81613222483915937 0 0.66416205381430016 0.59944234540882957 0 0.46954769941369501 0.67320508075638175 0 0.50000000000237477 0.51961524226909872 0.2184393375098648 0.50004596894495223 0.77634962490704662 0 0.60922248848335758 0.72722573386012812 0 0.66416205381430016 0.59944234540882957 0.3115891413135391 0.68758981780459771 0.68521708032990558 0.2184393375098648 0.50004596894495223 0.77634962490704662 0 0.66416205381430016 0.59944234540882957 0.3115891413135391 0.68758981780459771 0.68521708032990558 0.24769234054476261 0.52242103280823293 0.45098450226372488 0.22516916914780419 0.77057994845201627 0.48187244075707292 0 0.66416205381430016 0.59944234540882957 0 0.50000000000237477 0.51961524226909872 0.24769234054476261 0.52242103280823293 0.45098450226372488 0.2184393375098648 0.50004596894495223 0.77634962490704662 0 0.68801781652248195 0.45664527743358641 0 0.83630110503664845 0.50803330197135654 0 0.66416205381430016 0.59944234540882957 0.22516916914780419 0.77057994845201627 0.48187244075707292 0 0.66416205381430016 0.59944234540882957 0 0.50000000000237477 0.51961524226909872 0 0.68801781652248195 0.45664527743358641 0.24769234054476261 0.52242103280823293 0.45098450226372488 0 0.60922248848335758 0.72722573386012812 0 0.46954769941369501 0.67320508075638175 0 0.66416205381430016 0.59944234540882957 0.2184393375098648 0.50004596894495223 0.77634962490704662 0 0.5118616330515301 0.84191918937737908 0 0.69992182039579531 0.85173693729137989 0.15896804272141651 0.69449451837104537 1 0.2184393375098648 0.50004596894495223 0.77634962490704662 0 0.60922248848335758 0.72722573386012812 0.2184393375098648 0.50004596894495223 0.77634962490704662 0.3115891413135391 0.68758981780459771 0.68521708032990558 0.18453958615733529 0.77655623474864555 0.81613222483915937 0.15896804272141651 0.69449451837104537 1 0.2184393375098648 0.50004596894495223 0.77634962490704662 0 0.69992182039579531 0.85173693729137989 0.18453958615733529 0.77655623474864555 0.81613222483915937 0 0.5118616330515301 0.84191918937737908 0 0.46954769941369501 0.67320508075638175 0 0.60922248848335758 0.72722573386012812 0.2184393375098648 0.50004596894495223 0.77634962490704662 0 0.5118616330515301 0.84191918937737908 0 0.60922248848335758 0.72722573386012812 0 0.69992182039579531 0.85173693729137989 0.2184393375098648 0.50004596894495223 0.77634962490704662 0.15896804272141651 0.69449451837104537 1 0.32446581821293602 0.60020898676440626 1 0.2184393375098648 0.50004596894495223 0.77634962490704662 0.18453958615733529 0.77655623474864555 0.81613222483915937 0 0.60922248848335758 0.72722573386012812 0 0.69992182039579531 0.85173693729137989 0.2184393375098648 0.50004596894495223 0.77634962490704662 0.18453958615733529 0.77655623474864555 0.81613222483915937 0 0.80860557108920617 0.70542349973054763 0 0.69992182039579531 0.85173693729137989 0 0.60922248848335758 0.72722573386012812 0.18453958615733529 0.77655623474864555 0.81613222483915937 0.15896804272141651 0.69449451837104537 1 0.32446581821293602 0.60020898676440626 1 0.17226134197275911 0.49836539647894412 1 0.2184393375098648 0.50004596894495223 0.77634962490704662 0.15896804272141651 0.69449451837104537 1 0.17226134197275911 0.49836539647894412 1 0 0.5118616330515301 0.84191918937737908 0.2184393375098648 0.50004596894495223 0.77634962490704662 0.32446581821293602 0.60020898676440626 1 0.15896804272141651 0.69449451837104537 1 0.31067093462947892 0.81480288849497895 1 0.18453958615733529 0.77655623474864555 0.81613222483915937 0.18453958615733529 0.77655623474864555 0.81613222483915937 0.15896804272141651 0.69449451837104537 1 0 0.79999999999999982 1 0 0.69992182039579531 0.85173693729137989 0 0.69992182039579531 0.85173693729137989 0 0.5118616330515301 0.84191918937737908 0.15896804272141651 0.69449451837104537 1 0 0.60000000000138687 1 0.15896804272141651 0.69449451837104537 1 0 0.79999999999999982 1 0 0.69992182039579531 0.85173693729137989 0 0.60000000000138687 1 0 0.60000000000138687 1 0 0.5118616330515301 0.84191918937737908 0.15896804272141651 0.69449451837104537 1 0.17226134197275911 0.49836539647894412 1 0 0.5118616330515301 0.84191918937737908 0 0.60000000000138687 1 0 0.40000000000166441 1 0.17226134197275911 0.49836539647894412 1 0.17226134197275911 0.49836539647894412 1 0 0.40000000000166441 1 0 0.5118616330515301 0.84191918937737908 0 0.31807971531776508 0.80839867011913336 0 0.40000000000166441 1 0.17226134197275911 0.49836539647894412 1 0.16929708765653109 0.30074819035870082 1 0 0.31807971531776508 0.80839867011913336 0 0.14641016151490169 0.85358983848532144 0 0.31807971531776508 0.80839867011913336 0.16929708765653109 0.30074819035870082 1 0.31426750628021272 0.31270343261798911 0.68761148188185484 0.16929708765653109 0.30074819035870082 1 0.31426750628021272 0.31270343261798911 0.68761148188185484 0 0.31807971531776508 0.80839867011913336 0.2184393375098648 0.50004596894495223 0.77634962490704662 0 0.5118616330515301 0.84191918937737908 0 0.31807971531776508 0.80839867011913336 0 0.46954769941369501 0.67320508075638175 0.2184393375098648 0.50004596894495223 0.77634962490704662 0 0.5118616330515301 0.84191918937737908 0.17226134197275911 0.49836539647894412 1 0 0.31807971531776508 0.80839867011913336 0.2184393375098648 0.50004596894495223 0.77634962490704662 0 0.31807971531776508 0.80839867011913336 0.16929708765653109 0.30074819035870082 1 0 0.40000000000166441 1 0 0.20000000000083221 1 0.17226134197275911 0.49836539647894412 1 0.32925244736146098 0.39615100178034629 1 0.16929708765653109 0.30074819035870082 1 0.2184393375098648 0.50004596894495223 0.77634962490704662 0.17226134197275911 0.49836539647894412 1 0.16929708765653109 0.30074819035870082 1 0 0.31807971531776508 0.80839867011913336 0.2184393375098648 0.50004596894495223 0.77634962490704662 0.31610726166461628 0.1880448979455934 1 0.16929708765653109 0.30074819035870082 1 0.32925244736146098 0.39615100178034629 1 0.31426750628021272 0.31270343261798911 0.68761148188185484 0.32446581821293602 0.60020898676440626 1 0.32925244736146098 0.39615100178034629 1 0.17226134197275911 0.49836539647894412 1 0.2184393375098648 0.50004596894495223 0.77634962490704662 0.45812322962173568 0.31024977578554058 1 0.31426750628021272 0.31270343261798911 0.68761148188185484 0.49816183246753282 0.5307146639261795 0.75045686993209071 0.50084626324420545 0.22238844715913 0.78084811589659187 0.32925244736146098 0.39615100178034629 1 0.49816183246753282 0.5307146639261795 0.75045686993209071 0.31426750628021272 0.31270343261798911 0.68761148188185484 0.2184393375098648 0.50004596894495223 0.77634962490704662 0.31610726166461628 0.1880448979455934 1 0.32925244736146098 0.39615100178034629 1 0.45812322962173568 0.31024977578554058 1 0.31426750628021272 0.31270343261798911 0.68761148188185484 0.45812322962173568 0.31024977578554058 1 0.31610726166461628 0.1880448979455934 1 0.31426750628021272 0.31270343261798911 0.68761148188185484 0.50084626324420545 0.22238844715913 0.78084811589659187 0.32925244736146098 0.39615100178034629 1 0.45812322962173568 0.31024977578554058 1 0.31426750628021272 0.31270343261798911 0.68761148188185484 0.49816183246753282 0.5307146639261795 0.75045686993209071 0.32925244736146098 0.39615100178034629 1 0.31426750628021272 0.31270343261798911 0.68761148188185484 0.16929708765653109 0.30074819035870082 1 0.2184393375098648 0.50004596894495223 0.77634962490704662 0.32925244736146098 0.39615100178034629 1 0.51961524226934941 0.50000000000250611 1 0.45812322962173568 0.31024977578554058 1 0.49816183246753282 0.5307146639261795 0.75045686993209071 0.31426750628021272 0.31270343261798911 0.68761148188185484 0.49816183246753282 0.5307146639261795 0.75045686993209071 0.50000000000001332 0.49999999999999561 0.49999999999999561 0.2184393375098648 0.50004596894495223 0.77634962490704662 0.24769234054476261 0.52242103280823293 0.45098450226372488 0.50073570207385831 0.24848280280289631 0.52886631355986169 0.31426750628021272 0.31270343261798911 0.68761148188185484 0.22088738526309029 0.22111069116742441 0.50004796911802929 0.31426750628021272 0.31270343261798911 0.68761148188185484 0.50073570207385831 0.24848280280289631 0.52886631355986169 0.49816183246753282 0.5307146639261795 0.75045686993209071 0.50084626324420545 0.22238844715913 0.78084811589659187 0.50000000000001332 0.49999999999999561 0.49999999999999561 0.31426750628021272 0.31270343261798911 0.68761148188185484 0.24769234054476261 0.52242103280823293 0.45098450226372488 0.50073570207385831 0.24848280280289631 0.52886631355986169 0.50000000000001332 0.49999999999999561 0.49999999999999561 0.49816183246753282 0.5307146639261795 0.75045686993209071 0.31426750628021272 0.31270343261798911 0.68761148188185484 0.50073570207385831 0.24848280280289631 0.52886631355986169 0.50000000000001332 0.49999999999999561 0.49999999999999561 0.24769234054476261 0.52242103280823293 0.45098450226372488 0.31426750628021272 0.31270343261798911 0.68761148188185484 0.2184393375098648 0.50004596894495223 0.77634962490704662 0.2184393375098648 0.50004596894495223 0.77634962490704662 0.31426750628021272 0.31270343261798911 0.68761148188185484 0 0.50000000000237477 0.51961524226909872 0.24769234054476261 0.52242103280823293 0.45098450226372488 0 0.31024977578556651 0.45812322962166352 0.24769234054476261 0.52242103280823293 0.45098450226372488 0 0.32043363027398297 0.61046998817722586 0.22088738526309029 0.22111069116742441 0.50004796911802929 0 0.32043363027398297 0.61046998817722586 0 0.50000000000237477 0.51961524226909872 0.31426750628021272 0.31270343261798911 0.68761148188185484 0.24769234054476261 0.52242103280823293 0.45098450226372488 0.2184393375098648 0.50004596894495223 0.77634962490704662 0 0.32043363027398297 0.61046998817722586 0 0.50000000000237477 0.51961524226909872 0.31426750628021272 0.31270343261798911 0.68761148188185484 0 0.32043363027398297 0.61046998817722586 0.24769234054476261 0.52242103280823293 0.45098450226372488 0.31426750628021272 0.31270343261798911 0.68761148188185484 0.22088738526309029 0.22111069116742441 0.50004796911802929 0.2184393375098648 0.50004596894495223 0.77634962490704662 0 0.50000000000237477 0.51961524226909872 0 0.32043363027398297 0.61046998817722586 0 0.46954769941369501 0.67320508075638175 0 0.16196943494415611 0.69380980080116506 0 0.32043363027398297 0.61046998817722586 0.31426750628021272 0.31270343261798911 0.68761148188185484 0.22088738526309029 0.22111069116742441 0.50004796911802929 0 0.32043363027398297 0.61046998817722586 0 0.31807971531776508 0.80839867011913336 0.31426750628021272 0.31270343261798911 0.68761148188185484 0.2184393375098648 0.50004596894495223 0.77634962490704662 0 0.16196943494415611 0.69380980080116506 0 0.32043363027398297 0.61046998817722586 0 0.31807971531776508 0.80839867011913336 0.31426750628021272 0.31270343261798911 0.68761148188185484 0 0.31024977578556651 0.45812322962166352 0 0.50000000000237477 0.51961524226909872 0 0.32043363027398297 0.61046998817722586 0.24769234054476261 0.52242103280823293 0.45098450226372488 0 0.32043363027398297 0.61046998817722586 0 0.46954769941369501 0.67320508075638175 0 0.31807971531776508 0.80839867011913336 0.2184393375098648 0.50004596894495223 0.77634962490704662 0 0.32043363027398297 0.61046998817722586 0 0.16275515618034081 0.50966790549591257 0 0.31024977578556651 0.45812322962166352 0.22088738526309029 0.22111069116742441 0.50004796911802929 0 0.16196943494415611 0.69380980080116506 0.14641016151479661 0 0.85358983848542624 0.18818969570926641 0 0.68364148842842287 0.31426750628021272 0.31270343261798911 0.68761148188185484 0 0.16196943494415611 0.69380980080116506 0.31426750628021272 0.31270343261798911 0.68761148188185484 0.18818969570926641 0 0.68364148842842287 0.22088738526309029 0.22111069116742441 0.50004796911802929 0 0.16196943494415611 0.69380980080116506 0.18818969570926641 0 0.68364148842842287 0 0.16275515618034081 0.50966790549591257 0.22088738526309029 0.22111069116742441 0.50004796911802929 0 0.16196943494415611 0.69380980080116506 0 0.16275515618034081 0.50966790549591257 0 0.32043363027398297 0.61046998817722586 0.22088738526309029 0.22111069116742441 0.50004796911802929 0 0 0.79999999999999982 0 0 0.60000000000138687 0 0.16196943494415611 0.69380980080116506 0.18818969570926641 0 0.68364148842842287 0 0 0.60000000000138687 0 0.16196943494415611 0.69380980080116506 0.18818969570926641 0 0.68364148842842287 0 0.16275515618034081 0.50966790549591257 0.18818969570926641 0 0.68364148842842287 0.16370661204827031 0 0.4886650857430957 0 0 0.60000000000138687 0 0.16275515618034081 0.50966790549591257 0.18818969570926641 0 0.68364148842842287 0.31030302876556398 0 0.54179813558513157 0.16370661204827031 0 0.4886650857430957 0.22088738526309029 0.22111069116742441 0.50004796911802929 0 0.16275515618034081 0.50966790549591257 0.18818969570926641 0 0.68364148842842287 0.16370661204827031 0 0.4886650857430957 0.22088738526309029 0.22111069116742441 0.50004796911802929 0.30074819035913852 0 0.83070291234383831 0.39615987727709562 0 0.67073444684008199 0.18818969570926641 0 0.68364148842842287 0.31426750628021272 0.31270343261798911 0.68761148188185484 0.31030302876556398 0 0.54179813558513157 0.31426750628021272 0.31270343261798911 0.68761148188185484 0.50073570207385831 0.24848280280289631 0.52886631355986169 0.22088738526309029 0.22111069116742441 0.50004796911802929 0.39615987727709562 0 0.67073444684008199 0.31030302876556398 0 0.54179813558513157 0.31426750628021272 0.31270343261798911 0.68761148188185484 0.50073570207385831 0.24848280280289631 0.52886631355986169 0.39615987727709562 0 0.67073444684008199 0.31426750628021272 0.31270343261798911 0.68761148188185484 0.30074819035913852 0 0.83070291234383831 0.50084626324420545 0.22238844715913 0.78084811589659187 0.18818969570926641 0 0.68364148842842287 0.31426750628021272 0.31270343261798911 0.68761148188185484 0.31030302876556398 0 0.54179813558513157 0.22088738526309029 0.22111069116742441 0.50004796911802929 0.6002015905170176 0 0.67551889168744117 0.50073570207385831 0.24848280280289631 0.52886631355986169 0.39615987727709562 0 0.67073444684008199 0.50084626324420545 0.22238844715913 0.78084811589659187 0.31030302876556398 0 0.54179813558513157 0.18818969570926641 0 0.68364148842842287 0.39615987727709562 0 0.67073444684008199 0.31426750628021272 0.31270343261798911 0.68761148188185484 0.39615987727709562 0 0.67073444684008199 0.50073570207385831 0.24848280280289631 0.52886631355986169 0.31426750628021272 0.31270343261798911 0.68761148188185484 0.50084626324420545 0.22238844715913 0.78084811589659187 0.39615987727709562 0 0.67073444684008199 0.6002015905170176 0 0.67551889168744117 0.50000000000250922 0 0.48038475773043671 0.50073570207385831 0.24848280280289631 0.52886631355986169 0.39615987727709562 0 0.67073444684008199 0.50000000000250922 0 0.48038475773043671 0.31030302876556398 0 0.54179813558513157 0.50073570207385831 0.24848280280289631 0.52886631355986169 0.49836539647917322 0 0.82773865802723501 0.6002015905170176 0 0.67551889168744117 0.39615987727709562 0 0.67073444684008199 0.50084626324420545 0.22238844715913 0.78084811589659187 0.30074819035913852 0 0.83070291234383831 0.14641016151432179 0.14641016151432179 1 0.31610726166461628 0.1880448979455934 1 0.31426750628021272 0.31270343261798911 0.68761148188185484 0.30074819035913852 0 0.83070291234383831 0.31426750628021272 0.31270343261798911 0.68761148188185484 0.31610726166461628 0.1880448979455934 1 0.50084626324420545 0.22238844715913 0.78084811589659187 0.30074819035913852 0 0.83070291234383831 0.31610726166461628 0.1880448979455934 1 0.49836539647917322 0 0.82773865802723501 0.50084626324420545 0.22238844715913 0.78084811589659187 0.39615987727709562 0 0.67073444684008199 0.30074819035913852 0 0.83070291234383831 0.49836539647917322 0 0.82773865802723501 0.50084626324420545 0.22238844715913 0.78084811589659187 0.31610726166461628 0.1880448979455934 1 0.40000000000166441 0 1 0.49836539647917322 0 0.82773865802723501 0.50966790549576724 0.1627551561802443 1 0.40000000000166441 0 1 0.49836539647917322 0 0.82773865802723501 0.30074819035913852 0 0.83070291234383831 0.31610726166461628 0.1880448979455934 1 0.31610726166461628 0.1880448979455934 1 0.50966790549576724 0.1627551561802443 1 0.49836539647917322 0 0.82773865802723501 0.50084626324420545 0.22238844715913 0.78084811589659187 0.45812322962173568 0.31024977578554058 1 0.50966790549576724 0.1627551561802443 1 0.31610726166461628 0.1880448979455934 1 0.50084626324420545 0.22238844715913 0.78084811589659187 0.40000000000166441 0 1 0.30074819035913852 0 0.83070291234383831 0.20000000000083221 0 1 0.31610726166461628 0.1880448979455934 1 0 0.14641016151490169 0.85358983848532144 0 0.16196943494415611 0.69380980080116506 0 0.31807971531776508 0.80839867011913336 0.31426750628021272 0.31270343261798911 0.68761148188185484 0.16929708765653109 0.30074819035870082 1 0.31610726166461628 0.1880448979455934 1 0.14641016151432179 0.14641016151432179 1 0.31426750628021272 0.31270343261798911 0.68761148188185484 0.14641016151432179 0.14641016151432179 1 0.20000000000083221 0 1 0.14641016151479661 0 0.85358983848542624 0.30074819035913852 0 0.83070291234383831 0.14641016151432179 0.14641016151432179 1 0.30074819035913852 0 0.83070291234383831 0.14641016151479661 0 0.85358983848542624 0.31426750628021272 0.31270343261798911 0.68761148188185484 0.14641016151432179 0.14641016151432179 1 0.20000000000083221 0 1 0.30074819035913852 0 0.83070291234383831 0.31610726166461628 0.1880448979455934 1 0.18818969570926641 0 0.68364148842842287 0.14641016151479661 0 0.85358983848542624 0.30074819035913852 0 0.83070291234383831 0.31426750628021272 0.31270343261798911 0.68761148188185484 0 0.14641016151490169 0.85358983848532144 0.16929708765653109 0.30074819035870082 1 0.14641016151432179 0.14641016151432179 1 0.31426750628021272 0.31270343261798911 0.68761148188185484 0.14641016151432179 0.14641016151432179 1 0.14641016151479661 0 0.85358983848542624 0 0.14641016151490169 0.85358983848532144 0.31426750628021272 0.31270343261798911 0.68761148188185484 0 0.16196943494415611 0.69380980080116506 0 0.14641016151490169 0.85358983848532144 0.14641016151479661 0 0.85358983848542624 0.31426750628021272 0.31270343261798911 0.68761148188185484 0 0.20000000000083221 1 0 0.31807971531776508 0.80839867011913336 0.16929708765653109 0.30074819035870082 1 0 0.14641016151490169 0.85358983848532144 0.14641016151432179 0.14641016151432179 1 0 0.20000000000083221 1 0.16929708765653109 0.30074819035870082 1 0 0.14641016151490169 0.85358983848532144 0 0.16196943494415611 0.69380980080116506 0.14641016151479661 0 0.85358983848542624 0 0 0.79999999999999982 0.18818969570926641 0 0.68364148842842287 0 0.14641016151490169 0.85358983848532144 0.14641016151479661 0 0.85358983848542624 0 0 0.79999999999999982 0 0.16196943494415611 0.69380980080116506 0 0 1 0 0.20000000000083221 1 0.14641016151432179 0.14641016151432179 1 0 0.14641016151490169 0.85358983848532144 0.14641016151479661 0 0.85358983848542624 0 0 0.79999999999999982 0 0 1 0 0.14641016151490169 0.85358983848532144 0 0 1 0.14641016151432179 0.14641016151432179 1 0.20000000000083221 0 1 0.14641016151479661 0 0.85358983848542624 0.14641016151479661 0 0.85358983848542624 0 0 1 0.14641016151432179 0.14641016151432179 1 0 0.14641016151490169 0.85358983848532144 
</DataArray>
</Points>
<Cells>
<DataArray type="UInt32" Name="connectivity" format="ascii">
0 1 2 3 4 5 6 7 8 9 10 11 12 13 14 15 16 17 18 19 20 21 22 23 24 25 26 27 28 29 30 31 32 33 34 35 36 37 38 39 40 41 42 43 44 45 46 47 48 49 50 51 52 53 54 55 56 57 58 59 60 61 62 63 64 65 66 67 68 69 70 71 72 73 74 75 76 77 78 79 80 81 82 83 84 85 86 87 88 89 90 91 92 93 94 95 96 97 98 99 100 101 102 103 104 105 106 107 108 109 110 111 112 113 114 115 116 117 118 119 120 121 122 123 124 125 126 127 128 129 130 131 132 133 134 135 136 137 138 139 140 141 142 143 144 145 146 147 148 149 150 151 152 153 154 155 156 157 158 159 160 161 162 163 164 165 166 167 168 169 170 171 172 173 174 175 176 177 178 179 180 181 182 183 184 185 186 187 188 189 190 191 192 193 194 195 196 197 198 199 200 201 202 203 204 205 206 207 208 209 210 211 212 213 214 215 216 217 218 219 220 221 222 223 224 225 226 227 228 229 230 231 232 233 234 235 236 237 238 239 240 241 242 243 244 245 246 247 248 249 250 251 252 253 254 255 256 257 258 259 260 261 262 263 264 265 266 267 268 269 270 271 272 273 274 275 276 277 278 279 280 281 282 283 284 285 286 287 288 289 290 291 292 293 294 295 296 297 298 299 300 301 302 303 304 305 306 307 308 309 310 311 312 313 314 315 316 317 318 319 320 321 322 323 324 325 326 327 328 329 330 331 332 333 334 335 336 337 338 339 340 341 342 343 344 345 346 347 348 349 350 351 352 353 354 355 356 357 358 359 360 361 362 363 364 365 366 367 368 369 370 371 372 373 374 375 376 377 378 379 380 381 382 383 384 385 386 387 388 389 390 391 392 393 394 395 396 397 398 399 400 401 402 403 404 405 406 407 408 409 410 411 412 413 414 415 416 417 418 419 420 421 422 423 424 425 426 427 428 429 430 431 432 433 434 435 436 437 438 439 440 441 442 443 444 445 446 447 448 449 450 451 452 453 454 455 456 457 458 459 460 461 462 463 464 465 466 467 468 469 470 471 472 473 474 475 476 477 478 479 480 481 482 483 484 485 486 487 488 489 490 491 492 493 494 495 496 497 498 499 500 501 502 503 504 505 506 507 508 509 510 511 512 513 514 515 516 517 518 519 520 521 522 523 524 525 526 527 528 529 530 531 532 533 534 535 536 537 538 539 540 541 542 543 544 545 546 547 548 549 550 551 552 553 554 555 556 557 558 559 560 561 562 563 564 565 566 567 568 569 570 571 572 573 574 575 576 577 578 579 580 581 582 583 584 585 586 587 588 589 590 591 592 593 594 595 596 597 598 599 600 601 602 603 604 605 606 607 608 609 610 611 612 613 614 615 616 617 618 619 620 621 622 623 624 625 626 627 628 629 630 631 632 633 634 635 636 637 638 639 640 641 642 643 644 645 646 647 648 649 650 651 652 653 654 655 656 657 658 659 660 661 662 663 664 665 666 667 668 669 670 671 672 673 674 675 676 677 678 679 680 681 682 683 684 685 686 687 688 689 690 691 692 693 694 695 696 697 698 699 700 701 702 703 704 705 706 707 708 709 710 711 712 713 714 715 716 717 718 719 720 721 722 723 724 725 726 727 728 729 730 731 732 733 734 735 736 737 738 739 740 741 742 743 744 745 746 747 748 749 750 751 752 753 754 755 756 757 758 759 760 761 762 763 764 765 766 767 768 769 770 771 772 773 774 775 776 777 778 779 780 781 782 783 784 785 786 787 788 789 790 791 792 793 794 795 796 797 798 799 800 801 802 803 804 805 806 807 808 809 810 811 812 813 814 815 816 817 818 819 820 821 822 823 824 825 826 827 828 829 830 831 832 833 834 835 836 837 838 839 840 841 842 843 844 845 846 847 848 849 850 851 852 853 854 855 856 857 858 859 860 861 862 863 864 865 866 867 868 869 870 871 872 873 874 875 876 877 878 879 880 881 882 883 884 885 886 887 888 889 890 891 892 893 894 895 896 897 898 899 900 901 902 903 904 905 906 907 908 909 910 911 912 913 914 915 916 917 918 919 920 921 922 923 924 925 926 927 928 929 930 931 932 933 934 935 936 937 938 939 940 941 942 943 944 945 946 947 948 949 950 951 952 953 954 955 956 957 958 959 960 961 962 963 964 965 966 967 968 969 970 971 972 973 974 975 976 977 978 979 980 981 982 983 984 985 986 987 988 989 990 991 992 993 994 995 996 997 998 999 1000 1001 1002 1003 1004 1005 1006 1007 1008 1009 1010 1011 1012 1013 1014 1015 1016 1017 1018 1019 1020 1021 1022 1023 1024 1025 1026 1027 1028 1029 1030 1031 1032 1033 1034 1035 1036 1037 1038 1039 1040 1041 1042 1043 1044 1045 1046 1047 1048 1049 1050 1051 1052 1053 1054 1055 1056 1057 1058 1059 1060 1061 1062 1063 1064 1065 1066 1067 1068 1069 1070 1071 1072 1073 1074 1075 1076 1077 1078 1079 1080 1081 1082 1083 1084 1085 1086 1087 1088 1089 1090 1091 1092 1093 1094 1095 1096 1097 1098 1099 1100 1101 1102 1103 1104 1105 1106 1107 1108 1109 1110 1111 1112 1113 1114 1115 1116 1117 1118 1119 1120 1121 1122 1123 1124 1125 1126 1127 1128 1129 1130 1131 1132 1133 1134 1135 1136 1137 1138 1139 1140 1141 1142 1143 1144 1145 1146 1147 1148 1149 1150 1151 1152 1153 1154 1155 1156 1157 1158 1159 1160 1161 1162 1163 1164 1165 1166 1167 1168 1169 1170 1171 1172 1173 1174 1175 1176 1177 1178 1179 1180 1181 1182 1183 1184 1185 1186 1187 1188 1189 1190 1191 1192 1193 1194 1195 1196 1197 1198 1199 1200 1201 1202 1203 1204 1205 1206 1207 1208 1209 1210 1211 1212 1213 1214 1215 1216 1217 1218 1219 1220 1221 1222 1223 1224 1225 1226 1227 1228 1229 1230 1231 1232 1233 1234 1235 1236 1237 1238 1239 1240 1241 1242 1243 1244 1245 1246 1247 1248 1249 1250 1251 1252 1253 1254 1255 1256 1257 1258 1259 1260 1261 1262 1263 1264 1265 1266 1267 1268 1269 1270 1271 1272 1273 1274 1275 1276 1277 1278 1279 1280 1281 1282 1283 1284 1285 1286 1287 1288 1289 1290 1291 1292 1293 1294 1295 1296 1297 1298 1299 1300 1301 1302 1303 1304 1305 1306 1307 1308 1309 1310 1311 1312 1313 1314 1315 1316 1317 1318 1319 1320 1321 1322 1323 1324 1325 1326 1327 1328 1329 1330 1331 1332 1333 1334 1335 1336 1337 1338 1339 1340 1341 1342 1343 1344 1345 1346 1347 1348 1349 1350 1351 1352 1353 1354 1355 1356 1357 1358 1359 1360 1361 1362 1363 1364 1365 1366 1367 1368 1369 1370 1371 1372 1373 1374 1375 1376 1377 1378 1379 1380 1381 1382 1383 1384 1385 1386 1387 1388 1389 1390 1391 1392 1393 1394 1395 1396 1397 1398 1399 1400 1401 1402 1403 1404 1405 1406 1407 1408 1409 1410 1411 1412 1413 1414 1415 1416 1417 1418 1419 1420 1421 1422 1423 1424 1425 1426 1427 1428 1429 1430 1431 1432 1433 1434 1435 1436 1437 1438 1439 1440 1441 1442 1443 1444 1445 1446 1447 1448 1449 1450 1451 1452 1453 1454 1455 1456 1457 1458 1459 1460 1461 1462 1463 1464 1465 1466 1467 1468 1469 1470 1471 1472 1473 1474 1475 1476 1477 1478 1479 1480 1481 1482 1483 1484 1485 1486 1487 1488 1489 1490 1491 1492 1493 1494 1495 1496 1497 1498 1499 1500 1501 1502 1503 1504 1505 1506 1507 1508 1509 1510 1511 1512 1513 1514 1515 1516 1517 1518 1519 1520 1521 1522 1523 1524 1525 1526 1527 1528 1529 1530 1531 1532 1533 1534 1535 1536 1537 1538 1539 1540 1541 1542 1543 1544 1545 1546 1547 1548 1549 1550 1551 1552 1553 1554 1555 1556 1557 1558 1559 1560 1561 1562 1563 1564 1565 1566 1567 1568 1569 1570 1571 1572 1573 1574 1575 1576 1577 1578 1579 1580 1581 1582 1583 1584 1585 1586 1587 1588 1589 1590 1591 1592 1593 1594 1595 1596 1597 1598 1599 1600 1601 1602 1603 1604 1605 1606 1607 1608 1609 1610 1611 1612 1613 1614 1615 1616 1617 1618 1619 1620 1621 1622 1623 1624 1625 1626 1627 1628 1629 1630 1631 1632 1633 1634 1635 1636 1637 1638 1639 1640 1641 1642 1643 1644 1645 1646 1647 1648 1649 1650 1651 1652 1653 1654 1655 1656 1657 1658 1659 1660 1661 1662 1663 1664 1665 1666 1667 1668 1669 1670 1671 1672 1673 1674 1675 1676 1677 1678 1679 1680 1681 1682 1683 1684 1685 1686 1687 1688 1689 1690 1691 1692 1693 1694 1695 1696 1697 1698 1699 1700 1701 1702 1703 1704 1705 1706 1707 1708 1709 1710 1711 1712 1713 1714 1715 1716 1717 1718 1719 1720 1721 1722 1723 1724 1725 1726 1727 1728 1729 1730 1731 1732 1733 1734 1735 1736 1737 1738 1739 1740 1741 1742 1743 1744 1745 1746 1747 1748 1749 1750 1751 1752 1753 1754 1755 1756 1757 1758 1759 1760 1761 1762 1763 1764 1765 1766 1767 1768 1769 1770 1771 1772 1773 1774 1775 1776 1777 1778 1779 1780 1781 1782 1783 1784 1785 1786 1787 1788 1789 1790 1791 1792 1793 1794 1795 1796 1797 1798 1799 1800 1801 1802 1803 1804 1805 1806 1807 1808 1809 1810 1811 1812 1813 1814 1815 1816 1817 1818 1819 1820 1821 1822 1823 1824 1825 1826 1827 1828 1829 1830 1831 1832 1833 1834 1835 1836 1837 1838 1839 1840 1841 1842 1843 1844 1845 1846 1847 1848 1849 1850 1851 1852 1853 1854 1855 1856 1857 1858 1859 1860 1861 1862 1863 1864 1865 1866 1867 1868 1869 1870 1871 1872 1873 1874 1875 1876 1877 1878 1879 1880 1881 1882 1883 1884 1885 1886 1887 1888 1889 1890 1891 1892 1893 1894 1895 1896 1897 1898 1899 1900 1901 1902 1903 1904 1905 1906 1907 1908 1909 1910 1911 1912 1913 1914 1915 1916 1917 1918 1919 1920 1921 1922 1923 1924 1925 1926 1927 1928 1929 1930 1931 1932 1933 1934 1935 1936 1937 1938 1939 1940 1941 1942 1943 1944 1945 1946 1947 1948 1949 1950 1951 1952 1953 1954 1955 1956 1957 1958 1959 1960 1961 1962 1963 1964 1965 1966 1967 1968 1969 1970 1971 1972 1973 1974 1975 1976 1977 1978 1979 1980 1981 1982 1983 1984 1985 1986 1987 1988 1989 1990 1991 1992 1993 1994 1995 1996 1997 1998 1999 2000 2001 2002 2003 2004 2005 2006 2007 2008 2009 2010 2011 2012 2013 2014 2015 2016 2017 2018 2019 2020 2021 2022 2023 2024 2025 2026 2027 2028 2029 2030 2031 2032 2033 2034 2035 2036 2037 2038 2039 2040 2041 2042 2043 2044 2045 2046 2047 2048 2049 2050 2051 2052 2053 2054 2055 2056 2057 2058 2059 2060 2061 2062 2063 2064 2065 2066 2067 2068 2069 2070 2071 2072 2073 2074 2075 2076 2077 2078 2079 2080 2081 2082 2083 2084 2085 2086 2087 2088 2089 2090 2091 2092 2093 2094 2095 2096 2097 2098 2099 2100 2101 2102 2103 2104 2105 2106 2107 2108 2109 2110 2111 2112 2113 2114 2115 2116 2117 2118 2119 2120 2121 2122 2123 2124 2125 2126 2127 2128 2129 2130 2131 2132 2133 2134 2135 2136 2137 2138 2139 2140 2141 2142 2143 2144 2145 2146 2147 2148 2149 2150 2151 2152 2153 2154 2155 2156 2157 2158 2159 2160 2161 2162 2163 2164 2165 2166 2167 2168 2169 2170 2171 2172 2173 2174 2175 2176 2177 2178 2179 2180 2181 2182 2183 2184 2185 2186 2187 2188 2189 2190 2191 2192 2193 2194 2195 2196 2197 2198 2199 2200 2201 2202 2203 2204 2205 2206 2207 2208 2209 2210 2211 2212 2213 2214 2215 2216 2217 2218 2219 2220 2221 2222 2223 2224 2225 2226 2227 2228 2229 2230 2231 2232 2233 2234 2235 2236 2237 2238 2239 2240 2241 2242 2243 2244 2245 2246 2247 2248 2249 2250 2251 2252 2253 2254 2255 2256 2257 2258 2259 2260 2261 2262 2263 2264 2265 2266 2267 2268 2269 2270 2271 2272 2273 2274 2275 2276 2277 2278 2279 2280 2281 2282 2283 2284 2285 2286 2287 2288 2289 2290 2291 2292 2293 2294 2295 2296 2297 2298 2299 2300 2301 2302 2303 2304 2305 2306 2307 2308 2309 2310 2311 2312 2313 2314 2315 2316 2317 2318 2319 2320 2321 2322 2323 2324 2325 2326 2327 2328 2329 2330 2331 2332 2333 2334 2335 2336 2337 2338 2339 2340 2341 2342 2343 2344 2345 2346 2347 2348 2349 2350 2351 2352 2353 2354 2355 2356 2357 2358 2359 2360 2361 2362 2363 2364 2365 2366 2367 2368 2369 2370 2371 2372 2373 2374 2375 2376 2377 2378 2379 2380 2381 2382 2383 2384 2385 2386 2387 2388 2389 2390 2391 2392 2393 2394 2395 2396 2397 2398 2399 2400 2401 2402 2403 2404 2405 2406 2407 2408 2409 2410 2411 2412 2413 2414 2415 2416 2417 2418 2419 2420 2421 2422 2423 2424 2425 2426 2427 2428 2429 2430 2431 2432 2433 2434 2435 2436 2437 2438 2439 2440 2441 2442 2443 2444 2445 2446 2447 2448 2449 2450 2451 2452 2453 2454 2455 2456 2457 2458 2459 2460 2461 2462 2463 2464 2465 2466 2467 2468 2469 2470 2471 2472 2473 2474 2475 2476 2477 2478 2479 2480 2481 2482 2483 2484 2485 2486 2487 2488 2489 2490 2491 2492 2493 2494 2495 2496 2497 2498 2499 2500 2501 2502 2503 2504 2505 2506 2507 2508 2509 2510 2511 2512 2513 2514 2515 2516 2517 2518 2519 2520 2521 2522 2523 2524 2525 2526 2527 2528 2529 2530 2531 2532 2533 2534 2535 2536 2537 2538 2539 2540 2541 2542 2543 2544 2545 2546 2547 2548 2549 2550 2551 2552 2553 2554 2555 2556 2557 2558 2559 2560 2561 2562 2563 2564 2565 2566 2567 2568 2569 2570 2571 2572 2573 2574 2575 2576 2577 2578 2579 2580 2581 2582 2583 2584 2585 2586 2587 2588 2589 2590 2591 2592 2593 2594 2595 2596 2597 2598 2599 2600 2601 2602 2603 2604 2605 2606 2607 2608 2609 2610 2611 2612 2613 2614 2615 2616 2617 2618 2619 2620 2621 2622 2623 2624 2625 2626 2627 2628 2629 2630 2631 2632 2633 2634 2635 2636 2637 2638 2639 2640 2641 2642 2643 2644 2645 2646 2647 2648 2649 2650 2651 2652 2653 2654 2655 2656 2657 2658 2659 2660 2661 2662 2663 2664 2665 2666 2667 2668 2669 2670 2671 2672 2673 2674 2675 2676 2677 2678 2679 2680 2681 2682 2683 2684 2685 2686 2687 2688 2689 2690 2691 2692 2693 2694 2695 2696 2697 2698 2699 2700 2701 2702 2703 2704 2705 2706 2707 2708 2709 2710 2711 2712 2713 2714 2715 2716 2717 2718 2719 2720 2721 2722 2723 2724 2725 2726 2727 2728 2729 2730 2731 2732 2733 2734 2735 2736 2737 2738 2739 2740 2741 2742 2743 2744 2745 2746 2747 2748 2749 2750 2751 2752 2753 2754 2755 2756 2757 2758 2759 2760 2761 2762 2763 2764 2765 2766 2767 2768 2769 2770 2771 2772 2773 2774 2775 2776 2777 2778 2779 2780 2781 2782 2783 2784 2785 2786 2787 2788 2789 2790 2791 2792 2793 2794 2795 2796 2797 2798 2799 2800 2801 2802 2803 2804 2805 2806 2807 2808 2809 2810 2811 2812 2813 2814 2815 2816 2817 2818 2819 2820 2821 2822 2823 2824 2825 2826 2827 2828 2829 2830 2831 2832 2833 2834 2835 2836 2837 2838 2839 2840 2841 2842 2843 2844 2845 2846 2847 2848 2849 2850 2851 2852 2853 2854 2855 2856 2857 2858 2859 2860 2861 2862 2863 2864 2865 2866 2867 2868 2869 2870 2871 2872 2873 2874 2875 
</DataArray>
<DataArray type="UInt32" Name="offsets" format="ascii">
4 8 12 16 20 24 28 32 36 40 44 48 52 56 60 64 68 72 76 80 84 88 92 96 100 104 108 112 116 120 124 128 132 136 140 144 148 152 156 160 164 168 172 176 180 184 188 192 196 200 204 208 212 216 220 224 228 232 236 240 244 248 252 256 260 264 268 272 276 280 284 288 292 296 300 304 308 312 316 320 324 328 332 336 340 344 348 352 356 360 364 368 372 376 380 384 388 392 396 400 404 408 412 416 420 424 428 432 436 440 444 448 452 456 460 464 468 472 476 480 484 488 492 496 500 504 508 512 516 520 524 528 532 536 540 544 548 552 556 560 564 568 572 576 580 584 588 592 596 600 604 608 612 616 620 624 628 632 636 640 644 648 652 656 660 664 668 672 676 680 684 688 692 696 700 704 708 712 716 720 724 728 732 736 740 744 748 752 756 760 764 768 772 776 780 784 788 792 796 800 804 808 812 816 820 824 828 832 836 840 844 848 852 856 860 864 868 872 876 880 884 888 892 896 900 904 908 912 916 920 924 928 932 936 940 944 948 952 956 960 964 968 972 976 980 984 988 992 996 1000 1004 1008 1012 1016 1020 1024 1028 1032 1036 1040 1044 1048 1052 1056 1060 1064 1068 1072 1076 1080 1084 1088 1092 1096 1100 1104 1108 1112 1116 1120 1124 1128 1132 1136 1140 1144 1148 1152 1156 1160 1164 1168 1172 1176 1180 1184 1188 1192 1196 1200 1204 1208 1212 1216 1220 1224 1228 1232 1236 1240 1244 1248 1252 1256 1260 1264 1268 1272 1276 1280 1284 1288 1292 1296 1300 1304 1308 1312 1316 1320 1324 1328 1332 1336 1340 1344 1348 1352 1356 1360 1364 1368 1372 1376 1380 1384 1388 1392 1396 1400 1404 1408 1412 1416 1420 1424 1428 1432 1436 1440 1444 1448 1452 1456 1460 1464 1468 1472 1476 1480 1484 1488 1492 1496 1500 1504 1508 1512 1516 1520 1524 1528 1532 1536 1540 1544 1548 1552 1556 1560 1564 1568 1572 1576 1580 1584 1588 1592 1596 1600 1604 1608 1612 1616 1620 1624 1628 1632 1636 1640 1644 1648 1652 1656 1660 1664 1668 1672 1676 1680 1684 1688 1692 1696 1700 1704 1708 1712 1716 1720 1724 1728 1732 1736 1740 1744 1748 1752 1756 1760 1764 1768 1772 1776 1780 1784 1788 1792 1796 1800 1804 1808 1812 1816 1820 1824 1828 1832 1836 1840 1844 1848 1852 1856 1860 1864 1868 1872 1876 1880 1884 1888 1892 1896 1900 1904 1908 1912 1916 1920 1924 1928 1932 1936 1940 1944 1948 1952 1956 1960 1964 1968 1972 1976 1980 1984 1988 1992 1996 2000 2004 2008 2012 2016 2020 2024 2028 2032 2036 2040 2044 2048 2052 2056 2060 2064 2068 2072 2076 2080 2084 2088 2092 2096 2100 2104 2108 2112 2116 2120 2124 2128 2132 2136 2140 2144 2148 2152 2156 2160 2164 2168 2172 2176 2180 2184 2188 2192 2196 2200 2204 2208 2212 2216 2220 2224 2228 2232 2236 2240 2244 2248 2252 2256 2260 2264 2268 2272 2276 2280 2284 2288 2292 2296 2300 2304 2308 2312 2316 2320 2324 2328 2332 2336 2340 2344 2348 2352 2356 2360 2364 2368 2372 2376 2380 2384 2388 2392 2396 2400 2404 2408 2412 2416 2420 2424 2428 2432 2436 2440 2444 2448 2452 2456 2460 2464 2468 2472 2476 2480 2484 2488 2492 2496 2500 2504 2508 2512 2516 2520 2524 2528 2532 2536 2540 2544 2548 2552 2556 2560 2564 2568 2572 2576 2580 2584 2588 2592 2596 2600 2604 2608 2612 2616 2620 2624 2628 2632 2636 2640 2644 2648 2652 2656 2660 2664 2668 2672 2676 2680 2684 2688 2692 2696 2700 2704 2708 2712 2716 2720 2724 2728 2732 2736 2740 2744 2748 2752 2756 2760 2764 2768 2772 2776 2780 2784 2788 2792 2796 2800 2804 2808 2812 2816 2820 2824 2828 2832 2836 2840 2844 2848 2852 2856 2860 2864 2868 2872 2876 
</DataArray>
<DataArray type="UInt32" Name="types" format="ascii">
10 10 10 10 10 10 10 10 10 10 10 10 10 10 10 10 10 10 10 10 10 10 10 10 10 10 10 10 10 10 10 10 10 10 10 10 10 10 10 10 10 10 10 10 10 10 10 10 10 10 10 10 10 10 10 10 10 10 10 10 10 10 10 10 10 10 10 10 10 10 10 10 10 10 10 10 10 10 10 10 10 10 10 10 10 10 10 10 10 10 10 10 10 10 10 10 10 10 10 10 10 10 10 10 10 10 10 10 10 10 10 10 10 10 10 10 10 10 10 10 10 10 10 10 10 10 10 10 10 10 10 10 10 10 10 10 10 10 10 10 10 10 10 10 10 10 10 10 10 10 10 10 10 10 10 10 10 10 10 10 10 10 10 10 10 10 10 10 10 10 10 10 10 10 10 10 10 10 10 10 10 10 10 10 10 10 10 10 10 10 10 10 10 10 10 10 10 10 10 10 10 10 10 10 10 10 10 10 10 10 10 10 10 10 10 10 10 10 10 10 10 10 10 10 10 10 10 10 10 10 10 10 10 10 10 10 10 10 10 10 10 10 10 10 10 10 10 10 10 10 10 10 10 10 10 10 10 10 10 10 10 10 10 10 10 10 10 10 10 10 10 10 10 10 10 10 10 10 10 10 10 10 10 10 10 10 10 10 10 10 10 10 10 10 10 10 10 10 10 10 10 10 10 10 10 10 10 10 10 10 10 10 10 10 10 10 10 10 10 10 10 10 10 10 10 10 10 10 10 10 10 10 10 10 10 10 10 10 10 10 10 10 10 10 10 10 10 10 10 10 10 10 10 10 10 10 10 10 10 10 10 10 10 10 10 10 10 10 10 10 10 10 10 10 10 10 10 10 10 10 10 10 10 10 10 10 10 10 10 10 10 10 10 10 10 10 10 10 10 10 10 10 10 10 10 10 10 10 10 10 10 10 10 10 10 10 10 10 10 10 10 10 10 10 10 10 10 10 10 10 10 10 10 10 10 10 10 10 10 10 10 10 10 10 10 10 10 10 10 10 10 10 10 10 10 10 10 10 10 10 10 10 10 10 10 10 10 10 10 10 10 10 10 10 10 10 10 10 10 10 10 10 10 10 10 10 10 10 10 10 10 10 10 10 10 10 10 10 10 10 10 10 10 10 10 10 10 10 10 10 10 10 10 10 10 10 10 10 10 10 10 10 10 10 10 10 10 10 10 10 10 10 10 10 10 10 10 10 10 10 10 10 10 10 10 10 10 10 10 10 10 10 10 10 10 10 10 10 10 10 10 10 10 10 10 10 10 10 10 10 10 10 10 10 10 10 10 10 10 10 10 10 10 10 10 10 10 10 10 10 10 10 10 10 10 10 10 10 10 10 10 10 10 10 10 10 10 10 10 10 10 10 10 10 10 10 10 10 10 10 10 10 10 10 10 10 10 10 10 10 10 10 10 10 10 10 10 10 10 10 10 10 10 10 10 10 10 10 10 10 10 10 10 10 10 10 10 10 10 10 10 10 10 10 10 10 10 10 10 10 10 10 10 10 10 10 10 10 10 10 10 10 10 10 10 10 10 10 10 10 10 10 10 10 10 10 10 10 10 10 10 10 10 10 10 10 10 10 10 10 10 10 10 10 10 10 10 10 10 
</DataArray>
</Cells>
<PointData Scalars="" Vectors="displacement," Tensors="">
<DataArray type="Float64" Name="displacement" NumberOfComponents="3" format="ascii">
0.077262434002588892 7.7667288905027038e-07 -1.3627575493875153e-05 0.041399243063480362 -1.5909339534309314e-07 -1.3131003554275555e-05 0.035803257077034648 -1.6215960957874719e-06 -1.0491215020806922e-05 0.076438951777407685 -3.7511753354280534e-06 -0.29883739631711004 -9.1649601550259372e-09 -3.6700372134684861e-06 -1.3094698905797465e-05 -1.0122594013088605e-08 -2.870461887481239e-06 -1.4136716597533196e-05 0.035803257077034648 -1.6215960957874719e-06 -1.0491215020801616e-05 -6.9328528346172838e-09 -2.900839830389418e-06 -0.13991797535686692 -1.0122594013088605e-08 -2.870461887481239e-06 -1.4136716597521874e-05 0.048903295442119521 -3.1337800776637858e-06 -1.4881761493172889e-05 0.035803257077034648 -1.6215960957874719e-06 -1.0491215020801616e-05 0.035806829849283142 -2.0996864349163225e-06 -0.13994632735267551 -6.9328528346172838e-09 -2.900839830389418e-06 -0.13991797535686692 -1.0515611317772807e-08 -2.7365812416188383e-06 -0.19114787768012967 -1.0122594013088605e-08 -2.870461887481239e-06 -1.4136716597521874e-05 0.035806829849283142 -2.0996864349163225e-06 -0.13994632735267551 -6.9328528346172838e-09 -2.900839830389418e-06 -0.13991797535686692 -9.3193472210004933e-09 -8.9151272550316931e-08 -0.16179835516221044 -8.4631709464819993e-09 -3.8679392547500936e-06 -0.3020899482718617 0.076438951777407713 -3.7511753354280529e-06 -0.29883739631710993 0.077189524791570305 -2.8224285831669319e-06 -0.17834261988216119 0.035806829849283135 -2.0996864349163225e-06 -0.13994632735267548 0.041438624449041853 -2.6533363908189713e-06 -0.28685600323109983 0.076438951777407685 -3.7511753354280534e-06 -0.29883739631711004 -6.9328528346172838e-09 -2.900839830389418e-06 -0.13991797535686692 -1.0122594015986452e-08 -2.870461887481239e-06 -1.4136716597516209e-05 0.035803257077034648 -1.6215960957874719e-06 -1.0491215020801616e-05 0.035806829849283142 -2.0996864349163225e-06 -0.13994632735267551 0.035803257077034648 -1.6215960957874719e-06 -1.0491215020801616e-05 0.035806829849283135 -2.0996864349163225e-06 -0.13994632735267554 0.077189524791570305 -2.8224285831669319e-06 -0.17834261988216119 0.076438951777407685 -3.7511753354280534e-06 -0.29883739631711004 0.035803257077034648 -1.6215960957874719e-06 -1.0491215020801616e-05 -9.3193472196175962e-09 -8.9151272550315409e-08 -0.16179835516221042 -6.9328528318488104e-09 -2.9008398303894197e-06 -0.13991797535686692 0.076438951777407685 -3.7511753354280534e-06 -0.29883739631711004 0.035803257077034648 -1.6215960957874719e-06 -1.0491215020801616e-05 -6.9328528342900222e-09 -2.9008398303894176e-06 -0.1399179753568669 0.035806829849283142 -2.0996864349163225e-06 -0.13994632735267551 0.076438951777407685 -3.7511753354280534e-06 -0.29883739631711004 -6.9328528346172838e-09 -2.900839830389418e-06 -0.13991797535686692 0.04143862444904186 -2.6533363908189717e-06 -0.28685600323109983 0.035806829849283142 -2.0996864349163225e-06 -0.13994632735267551 0.076438951777407699 -3.7511753354280542e-06 -0.29883739631711009 0.035806829849283142 -2.0996864349163225e-06 -0.13994632735267551 -6.932852834138046e-09 -2.900839830389418e-06 -0.13991797535686692 -1.0515611322791775e-08 -2.7365812416188383e-06 -0.19114787768012967 0.041438624449041853 -2.6533363908189713e-06 -0.28685600323109983 -8.4631709464819993e-09 -3.8679392547500936e-06 -0.3020899482718617 -1.0515611322791775e-08 -2.7365812416188383e-06 -0.19114787768012967 -6.9328528346172838e-09 -2.900839830389418e-06 -0.13991797535686692 0.041438624449041853 -2.6533363908189713e-06 -0.28685600323109983 -6.9328528346172838e-09 -2.900839830389418e-06 -0.13991797535686692 0.035803257077034648 -1.6215960957874719e-06 -1.0491215020801616e-05 -9.1649601550259372e-09 -3.6700372134684861e-06 -1.3094698905796557e-05 -9.3193472210004933e-09 -8.9151272550316931e-08 -0.16179835516221044 -9.3193472210004933e-09 -8.9151272550316931e-08 -0.16179835516221044 0.035803257077034654 -1.6215960957874704e-06 -1.0491215020841904e-05 -9.1649601550259372e-09 -3.6700372134684861e-06 -1.3094698905797465e-05 0.041399243063480362 -1.5909339534309314e-07 -1.3131003554275555e-05 0.048903295442119521 -3.1337800776637858e-06 -1.4881761493172889e-05 0.035803257077034641 -1.6215960957874723e-06 -1.0491215020817195e-05 0.077189524791570305 -2.8224285831669319e-06 -0.17834261988216119 0.077262434002588892 7.7667288905027038e-07 -1.3627575493875153e-05 0.048903295442119521 -3.1337800776637858e-06 -1.4881761493172889e-05 0.035803257077034654 -1.6215960957874719e-06 -1.0491215020801486e-05 0.035806829849283135 -2.0996864349163221e-06 -0.13994632735267551 0.077189524791570305 -2.8224285831669319e-06 -0.17834261988216119 0.077189524791570305 -2.8224285831669319e-06 -0.17834261988216119 0.097714962896990318 -2.8660457633350285e-06 -1.761577279155654e-05 0.048903295442119521 -3.1337800776637858e-06 -1.4881761493181639e-05 0.077262434002588892 7.7667288905027038e-07 -1.3627575493875153e-05 0.077189524791570305 -2.8224285831669319e-06 -0.17834261988216119 0.077262434002588892 7.7667288905027101e-07 -1.3627575493875834e-05 0.035803257077034634 -1.6215960957874725e-06 -1.0491215020810481e-05 0.076438951777407671 -3.7511753354280534e-06 -0.29883739631711004 0.077262434002588892 7.7667288905027038e-07 -1.3627575493875153e-05 0.076438951777407657 -3.7511753354280538e-06 -0.29883739631710998 0.077189524791570291 -2.8224285831669323e-06 -0.17834261988216121 0.12221019022227426 -2.45469933648543e-06 -0.21604702619643606 0.077262434002588892 7.7667288905027038e-07 -1.3627575493875153e-05 0.12058877145761721 -2.6459572862764699e-06 -0.12663489864813804 0.12442350243948062 1.2536057599533555e-06 -1.2741630168683071e-05 0.12221019022227424 -2.45469933648543e-06 -0.21604702619643609 0.077262434002588892 7.7667288905027038e-07 -1.3627575493875153e-05 0.12442350243948062 1.2536057599533548e-06 -1.2741630168712462e-05 0.11187943209096912 1.7211001728109571e-06 -1.1001171137405435e-05 0.12221019022227424 -2.4546993364854309e-06 -0.21604702619643612 0.12058877145761722 -2.6459572862764711e-06 -0.12663489864813812 0.097714962896990318 -2.8660457633350285e-06 -1.761577279155654e-05 0.077262434002588906 7.7667288905026932e-07 -1.3627575493813257e-05 0.12442350243948062 1.2536057599533555e-06 -1.2741630168683071e-05 0.12058877145761722 -2.6459572862764711e-06 -0.12663489864813812 0.097714962896990318 -2.8660457633350285e-06 -1.761577279155654e-05 0.077189524791570305 -2.8224285831669319e-06 -0.17834261988216119 0.077262434002588906 7.7667288905026847e-07 -1.3627575493858004e-05 0.077189524791570305 -2.8224285831669319e-06 -0.17834261988216119 0.11647653694776897 -3.2403208474223192e-06 -0.30361609514854143 0.12058877145761722 -2.6459572862764711e-06 -0.12663489864813812 0.12221019022227424 -2.45469933648543e-06 -0.21604702619643606 0.077262434002588892 7.7667288905027038e-07 -1.3627575493875153e-05 0.077189524791570305 -2.8224285831669315e-06 -0.17834261988216116 0.12058877145761721 -2.6459572862764711e-06 -0.12663489864813818 0.12221019022227424 -2.45469933648543e-06 -0.21604702619643615 0.075958075678536616 -2.2647452983714509e-06 -0.51796587136752026 0.12242043575741758 -2.3007835077827923e-06 -0.50589563864765963 0.078619269634987346 -2.4500927569232892e-06 -0.3703681460588315 0.05407747230645836 -4.6726015029015299e-06 -0.47796153776618233 0.078619269634987346 -2.4500927569232892e-06 -0.3703681460588315 0.076438951777407685 -3.7511753354280534e-06 -0.29883739631711004 0.041438624449041853 -2.6533363908189713e-06 -0.28685600323109983 0.054077472306458353 -4.6726015029015299e-06 -0.47796153776618233 0.078619269634987346 -2.4500927569232892e-06 -0.3703681460588315 0.12242043575741757 -2.3007835077827919e-06 -0.50589563864765963 0.076438951777407699 -3.7511753354280529e-06 -0.29883739631711004 0.05407747230645836 -4.6726015029015299e-06 -0.47796153776618239 0.078619269634987346 -2.4500927569232892e-06 -0.3703681460588315 0.12242043575741758 -2.3007835077827915e-06 -0.50589563864765941 0.11647653694776898 -3.2403208474223192e-06 -0.30361609514854149 0.12221019022227424 -2.45469933648543e-06 -0.21604702619643606 0.078619269634987346 -2.4500927569232892e-06 -0.3703681460588315 0.076438951777407699 -3.7511753354280534e-06 -0.29883739631710998 0.12242043575741758 -2.3007835077827919e-06 -0.50589563864765963 0.12221019022227421 -2.4546993364854305e-06 -0.21604702619643609 0.078619269634987346 -2.4500927569232892e-06 -0.3703681460588315 0.077189524791570291 -2.8224285831669319e-06 -0.17834261988216119 0.041438624449041853 -2.6533363908189713e-06 -0.28685600323109983 0.076438951777407685 -3.7511753354280534e-06 -0.29883739631711004 0.077189524791570305 -2.8224285831669319e-06 -0.17834261988216119 0.076438951777407685 -3.7511753354280534e-06 -0.29883739631711004 0.078619269634987346 -2.4500927569232892e-06 -0.3703681460588315 0.12221019022227424 -2.45469933648543e-06 -0.21604702619643606 0.077189524791570305 -2.8224285831669319e-06 -0.17834261988216119 0.078619269634987346 -2.4500927569232892e-06 -0.3703681460588315 0.11647653694776898 -3.2403208474223197e-06 -0.30361609514854143 0.12221019022227424 -2.45469933648543e-06 -0.21604702619643606 0.075958075678536616 -2.2647452983714509e-06 -0.51796587136752026 0.12217721222838319 -2.8004661067559263e-06 -0.45952198421440549 0.078619269634987346 -2.4500927569232892e-06 -0.3703681460588315 0.12242043575741758 -2.3007835077827919e-06 -0.50589563864765963 0.078619269634987346 -2.4500927569232892e-06 -0.3703681460588315 0.12217721222838319 -2.8004661067559263e-06 -0.45952198421440549 0.11647653694776897 -3.2403208474223192e-06 -0.30361609514854143 0.12242043575741758 -2.3007835077827919e-06 -0.50589563864765963 0.04008296844823963 -2.6460313757864093e-06 -0.46703612120584664 0.075958075678536616 -2.2647452983714509e-06 -0.51796587136752026 0.078619269634987346 -2.4500927569232892e-06 -0.3703681460588315 0.05407747230645836 -4.6726015029015299e-06 -0.47796153776618233 0.04008296844823963 -2.6460313757864093e-06 -0.46703612120584664 0.078619269634987346 -2.4500927569232892e-06 -0.3703681460588315 0.041438624449041853 -2.6533363908189713e-06 -0.28685600323109983 0.05407747230645836 -4.6726015029015299e-06 -0.47796153776618233 0.041438624449041853 -2.6533363908189713e-06 -0.28685600323109983 -6.9328528346172838e-09 -2.900839830389418e-06 -0.13991797535686692 -8.4631709489765676e-09 -3.8679392547500936e-06 -0.3020899482718617 0.076438951777407685 -3.7511753354280529e-06 -0.29883739631710998 -8.4631709464819993e-09 -3.8679392547500936e-06 -0.3020899482718617 0.040082968448239616 -2.6460313757864088e-06 -0.4670361212058467 0.041438624449041853 -2.6533363908189713e-06 -0.28685600323109983 0.054077472306458374 -4.6726015029015299e-06 -0.47796153776618233 -8.4631709464819993e-09 -3.8679392547500936e-06 -0.3020899482718617 0.041438624449041846 -2.6533363908189713e-06 -0.28685600323109983 0.076438951777407685 -3.7511753354280534e-06 -0.29883739631711004 0.054077472306458353 -4.672601502901529e-06 -0.47796153776618239 -7.4953974076303668e-09 -3.1889238860537922e-06 -0.38226965183443085 1.2598384880739213e-09 -3.5894916806814448e-06 -0.57335500134119466 0.04008296844823963 -2.6460313757864093e-06 -0.46703612120584664 -8.0616884287821328e-09 -5.8568865889480474e-06 -0.48703765989284398 -7.4953974076303668e-09 -3.1889238860537922e-06 -0.38226965183443085 -8.4631709464819993e-09 -3.8679392547500936e-06 -0.3020899482718617 0.04008296844823963 -2.6460313757864093e-06 -0.46703612120584664 0.041438624449041853 -2.6533363908189713e-06 -0.28685600323109983 0.04008296844823963 -2.6460313757864093e-06 -0.46703612120584664 -8.4631709431414321e-09 -3.8679392547500927e-06 -0.30208994827186164 -7.4953974075327678e-09 -3.1889238860537922e-06 -0.38226965183443085 -8.0616884287821328e-09 -5.8568865889480474e-06 -0.48703765989284398 -8.4631709464819993e-09 -3.8679392547500936e-06 -0.3020899482718617 -7.4953974001109162e-09 -3.1889238860537918e-06 -0.38226965183443085 -1.0515611322791775e-08 -2.7365812416188383e-06 -0.19114787768012967 0.041438624449041853 -2.6533363908189713e-06 -0.28685600323109983 -8.4631709464819993e-09 -3.8679392547500936e-06 -0.3020899482718617 -8.0616884287821328e-09 -5.8568865889480474e-06 -0.48703765989284398 0.04008296844823963 -2.6460313757864093e-06 -0.46703612120584664 0.054077472306458374 -4.6726015029015299e-06 -0.47796153776618233 -8.4631709464819993e-09 -3.8679392547500936e-06 -0.3020899482718617 3.7393578637315543e-11 -1.2002105879992381e-06 -0.43778712711554407 -8.0616884268594623e-09 -5.8568865889480474e-06 -0.48703765989284398 0.054077472306458374 -4.6726015029015299e-06 -0.47796153776618233 -9.3193472210004933e-09 -8.9151272550316931e-08 -0.16179835516221044 -9.2831673824634996e-09 -1.4693207954981746e-06 -0.31464797026752739 -8.4631709464819993e-09 -3.8679392547500936e-06 -0.3020899482718617 0.076438951777407685 -3.7511753354280534e-06 -0.29883739631711004 3.7393577301742417e-11 -1.2002105879992371e-06 -0.43778712711554413 0.076438951777407699 -3.7511753354280538e-06 -0.29883739631710993 0.060623269623686186 1.2433427724226965e-06 -0.43109270431321406 0.05407747230645836 -4.6726015029015299e-06 -0.47796153776618233 -8.4631709464819993e-09 -3.8679392547500936e-06 -0.3020899482718617 -9.283167379749166e-09 -1.4693207954981746e-06 -0.31464797026752739 3.7393577132096559e-11 -1.2002105879992371e-06 -0.43778712711554413 0.076438951777407685 -3.7511753354280534e-06 -0.29883739631711004 -9.2831673824634996e-09 -1.4693207954981746e-06 -0.31464797026752739 0.060623269623686193 1.2433427724226965e-06 -0.43109270431321411 0.076438951777407685 -3.7511753354280534e-06 -0.29883739631710998 0.054651043577911305 -4.4286507266885624e-07 -0.21360848606968694 3.7393577301742417e-11 -1.2002105879992371e-06 -0.43778712711554413 0.076438951777407685 -3.7511753354280546e-06 -0.29883739631710998 -9.2831673824634996e-09 -1.4693207954981746e-06 -0.31464797026752739 0.060623269623686186 1.2433427724226965e-06 -0.43109270431321406 -9.3193472210004933e-09 -8.9151272550316931e-08 -0.16179835516221044 -9.2831673824634996e-09 -1.4693207954981746e-06 -0.31464797026752739 0.076438951777407671 -3.7511753354280542e-06 -0.29883739631711009 0.054651043577911292 -4.4286507266885661e-07 -0.21360848606968705 -8.4631709464819993e-09 -3.8679392547500936e-06 -0.3020899482718617 0.076438951777407685 -3.7511753354280534e-06 -0.29883739631711009 3.7393576662766429e-11 -1.2002105879992369e-06 -0.43778712711554413 0.054077472306458374 -4.6726015029015316e-06 -0.47796153776618239 3.7393577301742417e-11 -1.2002105879992371e-06 -0.43778712711554413 -9.283167384350919e-09 -1.4693207954981746e-06 -0.31464797026752739 -1.2089246732504028e-08 4.0452543206248998e-06 -0.49650982261458321 0.060623269623686186 1.2433427724226965e-06 -0.43109270431321406 0.12221822505955418 9.1906251713546587e-07 -0.47828831495798829 0.12242043575741758 -2.3007835077827923e-06 -0.50589563864765974 0.076438951777407643 -3.7511753354280542e-06 -0.29883739631710993 0.12220614637243664 -2.9527123004041081e-07 -0.23879404287940093 0.060623269623686186 1.2433427724226965e-06 -0.43109270431321406 0.12220614637243662 -2.9527123004041224e-07 -0.23879404287940098 0.076438951777407685 -3.7511753354280525e-06 -0.29883739631710998 0.054651043577911305 -4.4286507266885561e-07 -0.21360848606968699 0.076438951777407685 -3.7511753354280534e-06 -0.29883739631711004 0.12220614637243664 -2.9527123004041081e-07 -0.23879404287940095 0.12242043575741758 -2.3007835077827915e-06 -0.50589563864765952 0.12221019022227424 -2.45469933648543e-06 -0.21604702619643609 0.12221822505955418 9.1906251713546587e-07 -0.47828831495798829 0.060623269623686186 1.2433427724226965e-06 -0.43109270431321406 0.076438951777407713 -3.7511753354280555e-06 -0.29883739631710993 0.12242043575741758 -2.3007835077827919e-06 -0.50589563864765963 0.076438951777407685 -3.7511753354280534e-06 -0.29883739631711004 0.060623269623686186 1.2433427724226965e-06 -0.43109270431321406 0.12221822505955418 9.1906251713546534e-07 -0.4782883149579884 0.12220614637243664 -2.9527123004041076e-07 -0.23879404287940098 0.076438951777407685 -3.7511753354280534e-06 -0.29883739631711004 0.12242043575741757 -2.3007835077827919e-06 -0.50589563864765963 0.060623269623686186 1.2433427724226969e-06 -0.43109270431321406 0.05407747230645836 -4.6726015029015299e-06 -0.47796153776618233 0.080467688226851852 -3.9978832543175941e-06 -1.5139094365669643e-05 0.076438951777407671 -3.7511753354280542e-06 -0.29883739631711004 0.11187943209096912 1.7211001728109573e-06 -1.1001171137407217e-05 0.12220614637243664 -2.9527123004041076e-07 -0.23879404287940098 0.080467688226851852 -3.9978832543175941e-06 -1.5139094365669643e-05 0.12220614637243664 -2.9527123004041076e-07 -0.23879404287940098 0.079299584468454407 -1.6614459765250601e-07 -1.5877376471486673e-05 0.054651043577911305 -4.4286507266885561e-07 -0.21360848606968699 0.11187943209096912 1.7211001728109571e-06 -1.1001171137405435e-05 0.12220614637243664 -2.9527123004041076e-07 -0.23879404287940098 0.076438951777407685 -3.7511753354280525e-06 -0.29883739631711004 0.12221019022227426 -2.4546993364854292e-06 -0.21604702619643606 0.11187943209096912 1.7211001728109571e-06 -1.1001171137405435e-05 0.080467688226851852 -3.9978832543175941e-06 -1.5139094365669643e-05 0.077262434002588892 7.7667288905027038e-07 -1.3627575493875153e-05 0.076438951777407685 -3.7511753354280534e-06 -0.29883739631711004 0.041399243063480362 -1.5909339534309314e-07 -1.3131003554275555e-05 0.076438951777407671 -3.7511753354280529e-06 -0.29883739631711004 0.080467688226851852 -3.9978832543175941e-06 -1.5139094365669643e-05 0.054651043577911305 -4.4286507266885561e-07 -0.21360848606968699 0.077262434002588892 7.7667288905027038e-07 -1.3627575493875153e-05 0.11187943209096912 1.7211001728109571e-06 -1.1001171137405435e-05 0.076438951777407671 -3.7511753354280538e-06 -0.29883739631711004 0.12221019022227424 -2.4546993364854309e-06 -0.21604702619643606 0.080467688226851852 -3.9978832543175941e-06 -1.5139094365669643e-05 0.076438951777407699 -3.7511753354280568e-06 -0.29883739631711004 0.12220614637243664 -2.9527123004041076e-07 -0.23879404287940098 0.054651043577911319 -4.4286507266885418e-07 -0.21360848606968699 0.080467688226851852 -3.9978832543175941e-06 -1.5139094365669643e-05 0.041399243063480362 -1.5909339534309256e-07 -1.313100355427176e-05 0.077262434002588892 7.7667288905027038e-07 -1.3627575493875153e-05 0.076438951777407671 -3.7511753354280534e-06 -0.29883739631711009 0.079299584468454407 -1.6614459765250601e-07 -1.5877376471486673e-05 0.080467688226851852 -3.9978832543175941e-06 -1.5139094365669643e-05 0.12685112957736705 -6.358777069326479e-07 -1.405409221662965e-05 0.12220614637243664 -2.9527123004041076e-07 -0.23879404287940098 0.12685112957736705 -6.358777069326479e-07 -1.405409221662965e-05 0.080467688226851852 -3.9978832543175941e-06 -1.5139094365669643e-05 0.11187943209096912 1.7211001728109571e-06 -1.1001171137405435e-05 0.12220614637243664 -2.9527123004041076e-07 -0.23879404287940098 -9.3193472210004933e-09 -8.9151272550316931e-08 -0.16179835516221044 0.035803257077034648 -1.6215960957874719e-06 -1.0491215020801616e-05 0.041399243063480362 -1.5909339534309309e-07 -1.3131003554273221e-05 0.076438951777407685 -3.7511753354280534e-06 -0.29883739631711004 -9.3193472210004933e-09 -8.9151272550316931e-08 -0.16179835516221044 0.076438951777407671 -3.7511753354280546e-06 -0.29883739631711004 0.041399243063480362 -1.5909339534309304e-07 -1.31310035542668e-05 0.054651043577911299 -4.4286507266885518e-07 -0.21360848606968699 0.042127026263566465 -1.5724487961035308e-07 -1.4311842535830856e-05 -1.1203532191004984e-08 2.7021489866268381e-07 -0.16463880924350963 0.041399243063480362 -1.5909339534309314e-07 -1.3131003554275555e-05 0.054651043577911305 -4.4286507266885561e-07 -0.21360848606968699 0.042127026263566465 -1.5724487961035308e-07 -1.4311842535830856e-05 0.041399243063480362 -1.5909339534309314e-07 -1.3131003554275555e-05 0.080467688226851852 -3.9978832543175941e-06 -1.5139094365669643e-05 0.054651043577911305 -4.4286507266885561e-07 -0.21360848606968699 -9.3193472210004933e-09 -8.9151272550316931e-08 -0.16179835516221044 -9.1649601550259372e-09 -3.6700372134684861e-06 -1.3094698905797465e-05 -1.1413493087115197e-08 -1.3506321131079655e-06 -1.6714073479012649e-05 0.041399243063480362 -1.5909339534309314e-07 -1.3131003554275555e-05 -9.3193472210004933e-09 -8.9151272550316931e-08 -0.16179835516221044 -1.1413493087115197e-08 -1.3506321131079655e-06 -1.6714073479012649e-05 -1.1203532193510653e-08 2.7021489866268371e-07 -0.16463880924350963 0.041399243063480362 -1.5909339534309314e-07 -1.3131003554275555e-05 -9.3193472210004933e-09 -8.9151272550316931e-08 -0.16179835516221044 0.041399243063480362 -1.5909339534309314e-07 -1.3131003554275555e-05 -1.1203532191004984e-08 2.7021489866268381e-07 -0.16463880924350963 0.054651043577911292 -4.4286507266885534e-07 -0.21360848606968694 -9.3193472210004933e-09 -8.9151272550316931e-08 -0.16179835516221044 -1.1203532191004984e-08 2.7021489866268381e-07 -0.16463880924350963 -9.2831673833029572e-09 -1.4693207954981746e-06 -0.31464797026752739 0.054651043577911292 -4.4286507266885566e-07 -0.21360848606968702 -1.1203532191004984e-08 2.7021489866268381e-07 -0.16463880924350963 -1.1413493089537663e-08 -1.3506321131079653e-06 -1.6714073478998527e-05 -1.0182502170248346e-08 1.5243650405145863e-06 -1.56026582657942e-05 0.042127026263566465 -1.5724487961035308e-07 -1.4311842535830856e-05 0.041399243063480362 -1.5909339534309314e-07 -1.3131003554275555e-05 -1.1413493087115197e-08 -1.3506321131079655e-06 -1.6714073479012649e-05 -1.1203532191004984e-08 2.7021489866268381e-07 -0.16463880924350963 0.042127026263566465 -1.5724487961035308e-07 -1.4311842535830856e-05 -8.2277862101718588e-09 9.6578146109985705e-07 -0.15192395394158953 -7.0322051626726301e-09 -2.235749894600421e-06 -0.31006553418478422 0.054651043577911312 -4.4286507266885492e-07 -0.21360848606968694 0.04711040308375327 6.4580320593190819e-07 -0.18409553366319575 0.038872661754273313 -1.0615831764011687e-06 -1.3060835487714626e-05 -8.2277862107566639e-09 9.6578146109985705e-07 -0.15192395394158953 0.054651043577911305 -4.428650726688555e-07 -0.21360848606968702 0.047110403083753277 6.4580320593190777e-07 -0.18409553366319578 -8.2277862101718588e-09 9.6578146109985705e-07 -0.15192395394158953 0.042127026263566465 -1.5724487961035308e-07 -1.4311842535830856e-05 -1.0182502170046074e-08 1.5243650405145863e-06 -1.560265826579341e-05 0.038872661754273313 -1.0615831764011687e-06 -1.3060835487714626e-05 0.079299584468454407 -1.6614459765250601e-07 -1.5877376471486673e-05 0.038872661754273313 -1.0615831764011687e-06 -1.3060835487714626e-05 0.054651043577911312 -4.428650726688554e-07 -0.21360848606968702 0.047110403083753277 6.4580320593190798e-07 -0.18409553366319578 -1.0182502170248346e-08 1.5243650405145863e-06 -1.56026582657942e-05 -1.1203532191004984e-08 2.7021489866268381e-07 -0.16463880924350963 0.042127026263566465 -1.5724487961035314e-07 -1.4311842535836324e-05 -8.2277862101718588e-09 9.6578146109985705e-07 -0.15192395394158953 -8.2277862101718588e-09 9.6578146109985705e-07 -0.15192395394158953 -1.0182502170248346e-08 1.5243650405145863e-06 -1.56026582657942e-05 -1.0514903919990564e-08 -9.3391015755626715e-07 -1.2694559134207312e-05 0.038872661754273313 -1.0615831764011687e-06 -1.3060835487714626e-05 0.075919387859606266 -1.5741403143787406e-06 -1.4138848051181524e-05 0.03887266175427332 -1.0615831764011689e-06 -1.3060835487710349e-05 0.079299584468454407 -1.6614459765250596e-07 -1.5877376471490979e-05 0.047110403083753277 6.4580320593190798e-07 -0.18409553366319578 0.079299584468454407 -1.6614459765250601e-07 -1.5877376471486673e-05 0.038872661754273313 -1.0615831764011687e-06 -1.3060835487714626e-05 0.042127026263566465 -1.5724487961035308e-07 -1.4311842535830856e-05 0.054651043577911305 -4.4286507266885561e-07 -0.21360848606968699 0.038872661754273313 -1.0615831764011687e-06 -1.3060835487714626e-05 -8.2277862113198565e-09 9.6578146109985705e-07 -0.1519239539415895 0.042127026263566465 -1.5724487961035308e-07 -1.4311842535830856e-05 0.054651043577911305 -4.4286507266885561e-07 -0.21360848606968699 -8.2277862101718588e-09 9.6578146109985705e-07 -0.15192395394158953 -1.0292930102430325e-08 4.4822828160534458e-06 -0.29689698177916879 -7.0322051626726301e-09 -2.235749894600421e-06 -0.31006553418478422 0.047110403083753263 6.4580320593190872e-07 -0.18409553366319581 -1.1203532191004984e-08 2.7021489866268381e-07 -0.16463880924350963 -8.2277862101718588e-09 9.6578146109985705e-07 -0.15192395394158953 -7.0322051626726301e-09 -2.235749894600421e-06 -0.31006553418478422 0.054651043577911305 -4.4286507266885561e-07 -0.21360848606968699 -1.1203532191004984e-08 2.7021489866268381e-07 -0.16463880924350963 0.042127026263566472 -1.5724487961035316e-07 -1.4311842535835345e-05 -8.2277862101718588e-09 9.6578146109985705e-07 -0.15192395394158953 0.054651043577911305 -4.4286507266885561e-07 -0.21360848606968699 -7.0322051626726301e-09 -2.235749894600421e-06 -0.31006553418478422 0.055104561967224859 4.3226218885791576e-06 -0.46059764909694612 0.087639691986020035 5.537173479454528e-07 -0.28713868327969333 0.047110403083753277 6.4580320593190724e-07 -0.18409553366319573 -7.0322051626726301e-09 -2.235749894600421e-06 -0.31006553418478422 0.0606232696236862 1.2433427724226967e-06 -0.431092704313214 -9.2831673824634996e-09 -1.4693207954981746e-06 -0.31464797026752739 0.054651043577911319 -4.4286507266885582e-07 -0.21360848606968696 -7.0322051626726301e-09 -2.235749894600421e-06 -0.31006553418478422 -1.0292930100226999e-08 4.4822828160534458e-06 -0.29689698177916879 0.055104561967224859 4.3226218885791576e-06 -0.46059764909694606 0.04711040308375327 6.4580320593190788e-07 -0.18409553366319575 0.087639691986020035 5.537173479454528e-07 -0.28713868327969333 0.054651043577911319 -4.4286507266885492e-07 -0.21360848606968694 -7.032205160771525e-09 -2.235749894600421e-06 -0.31006553418478427 0.04711040308375327 6.4580320593190819e-07 -0.18409553366319573 -1.1203532191004984e-08 2.7021489866268381e-07 -0.16463880924350963 -7.0322051624309502e-09 -2.235749894600421e-06 -0.31006553418478422 -9.2831673824634996e-09 -1.4693207954981746e-06 -0.31464797026752739 0.054651043577911305 -4.4286507266885561e-07 -0.21360848606968699 -7.0322051626726301e-09 -2.235749894600421e-06 -0.31006553418478422 0.060623269623686186 1.2433427724226976e-06 -0.43109270431321411 0.087639691986020035 5.537173479454528e-07 -0.28713868327969333 0.055104561967224866 4.3226218885791559e-06 -0.46059764909694606 0.087639691986020035 5.537173479454528e-07 -0.28713868327969333 0.06062326962368618 1.2433427724226963e-06 -0.43109270431321406 -7.0322051700864051e-09 -2.2357498946004214e-06 -0.31006553418478427 0.054651043577911326 -4.4286507266885497e-07 -0.21360848606968702 -9.2831673824634996e-09 -1.4693207954981746e-06 -0.31464797026752739 -7.0322051661008967e-09 -2.235749894600421e-06 -0.31006553418478422 -1.2089246732504028e-08 4.0452543206248998e-06 -0.49650982261458321 0.060623269623686186 1.2433427724226965e-06 -0.43109270431321406 1.738428420135663e-10 1.3333821610981997e-06 -0.43637068063933532 -1.2089246732504028e-08 4.0452543206248998e-06 -0.49650982261458321 -7.0322051626726301e-09 -2.235749894600421e-06 -0.31006553418478422 0.060623269623686186 1.2433427724226965e-06 -0.43109270431321406 -1.6228209067471166e-08 1.8958418469012673e-06 -0.57278605546366312 0.060623269623686193 1.2433427724226959e-06 -0.43109270431321406 1.738428420135663e-10 1.3333821610981997e-06 -0.43637068063933532 0.055104561967224866 4.3226218885791568e-06 -0.46059764909694606 -7.0322051626726301e-09 -2.235749894600421e-06 -0.31006553418478422 -1.0292930100226999e-08 4.4822828160534458e-06 -0.29689698177916879 1.7384283740739443e-10 1.3333821610981997e-06 -0.43637068063933532 0.055104561967224866 4.3226218885791568e-06 -0.46059764909694606 1.738428420135663e-10 1.3333821610981997e-06 -0.43637068063933532 0.060623269623686186 1.2433427724226967e-06 -0.43109270431321406 -7.0322051626726301e-09 -2.235749894600421e-06 -0.31006553418478422 0.055104561967224866 4.3226218885791568e-06 -0.46059764909694606 0.041417258014163121 2.6742574606006978e-06 -0.28746371361162004 0.080523664213172932 3.110982971459687e-06 -0.37876144735764894 0.055104561967224866 4.3226218885791568e-06 -0.46059764909694606 0.047110403083753277 6.4580320593190798e-07 -0.18409553366319578 -1.0292930100226999e-08 4.4822828160534458e-06 -0.29689698177916879 0.041417258014163121 2.6742574606006974e-06 -0.28746371361162004 0.055104561967224866 4.3226218885791568e-06 -0.46059764909694606 0.047110403083753277 6.4580320593190798e-07 -0.18409553366319578 0.04217291837154763 2.9162842213283923e-06 -0.47630361253358555 -1.0540773404052881e-08 7.2688792065811461e-06 -0.48547035197633631 -1.0292930099110368e-08 4.482282816053445e-06 -0.29689698177916873 0.055104561967224866 4.3226218885791559e-06 -0.460597649096946 1.738428420135663e-10 1.3333821610981997e-06 -0.43637068063933532 -1.0292930100226999e-08 4.4822828160534458e-06 -0.29689698177916879 -1.0540773391089743e-08 7.2688792065811452e-06 -0.48547035197633631 0.055104561967224866 4.3226218885791568e-06 -0.46059764909694606 0.04217291837154763 2.9162842213283923e-06 -0.47630361253358555 -6.2409338412785259e-09 3.4185877234265614e-06 -0.38226866481606592 -1.0292930096546269e-08 4.4822828160534442e-06 -0.29689698177916873 -1.0540773391089743e-08 7.2688792065811452e-06 -0.48547035197633626 -1.0292930100226999e-08 4.4822828160534458e-06 -0.29689698177916879 0.041417258014163121 2.6742574606006978e-06 -0.28746371361162004 -6.2409338412785259e-09 3.4185877234265614e-06 -0.38226866481606592 0.042172918371547637 2.9162842213283919e-06 -0.47630361253358561 0.04217291837154763 2.9162842213283923e-06 -0.47630361253358555 -1.0292930107269016e-08 4.4822828160534458e-06 -0.29689698177916873 0.041417258014163121 2.6742574606006978e-06 -0.28746371361162004 0.055104561967224852 4.3226218885791568e-06 -0.46059764909694606 0.04217291837154763 2.9162842213283923e-06 -0.47630361253358555 0.041417258014163121 2.6742574606006978e-06 -0.28746371361162004 0.080523664213172932 3.110982971459687e-06 -0.37876144735764894 0.055104561967224866 4.3226218885791568e-06 -0.46059764909694606 -6.2409338412785259e-09 3.4185877234265614e-06 -0.38226866481606592 -9.5862994226931261e-09 2.6775581608443917e-06 -0.19115423249039817 0.041417258014163121 2.6742574606006978e-06 -0.28746371361162004 -1.0292930100226999e-08 4.4822828160534458e-06 -0.29689698177916879 0.041417258014163121 2.6742574606006978e-06 -0.28746371361162004 -9.5862994321238404e-09 2.6775581608443926e-06 -0.1911542324903982 -6.2169973787573049e-09 5.5272123031524634e-07 -0.13992857157344454 -1.029293010482524e-08 4.4822828160534458e-06 -0.29689698177916879 0.035808572299011035 2.1437793346205028e-06 -0.13995474815724157 -9.5862994226931261e-09 2.6775581608443917e-06 -0.19115423249039817 -6.2169973650955303e-09 5.5272123031524507e-07 -0.13992857157344454 0.041417258014163121 2.6742574606006978e-06 -0.28746371361162004 0.04889699291284258 3.0349810089946652e-06 -1.4364949660740657e-05 -1.1261828373053017e-08 2.8882187565004283e-06 -1.4378386853492323e-05 0.035794529247016128 -8.6941796338728256e-07 -1.0468592027454658e-05 0.035808572299011035 2.1437793346205028e-06 -0.13995474815724157 -6.2169973653285041e-09 5.5272123031524507e-07 -0.13992857157344454 -1.1261828371993823e-08 2.8882187565004288e-06 -1.4378386853480999e-05 -9.5862994226931261e-09 2.6775581608443917e-06 -0.19115423249039817 0.035808572299011035 2.1437793346205028e-06 -0.13995474815724157 -6.2169973653285041e-09 5.5272123031524507e-07 -0.13992857157344454 0.035794529247016128 -8.6941796338728256e-07 -1.0468592027454658e-05 -1.1261828371993823e-08 2.8882187565004288e-06 -1.4378386853480999e-05 0.035808572299011035 2.1437793346205028e-06 -0.13995474815724157 0.035794529247016128 -8.6941796338728256e-07 -1.0468592027454658e-05 -1.1261828376082648e-08 2.8882187565004288e-06 -1.4378386853495356e-05 -1.0514903922658989e-08 -9.3391015755626693e-07 -1.2694559134217741e-05 -6.2169973653285041e-09 5.5272123031524507e-07 -0.13992857157344454 -6.2169973653285041e-09 5.5272123031524507e-07 -0.13992857157344454 -8.2277862101718588e-09 9.6578146109985705e-07 -0.15192395394158953 0.03887266175427332 -1.0615831764011687e-06 -1.3060835487720302e-05 0.047110403083753277 6.4580320593190798e-07 -0.18409553366319578 -1.0514903922658989e-08 -9.3391015755626693e-07 -1.2694559134217741e-05 0.038872661754273313 -1.0615831764011687e-06 -1.3060835487714626e-05 0.035794529247016128 -8.6941796338728256e-07 -1.0468592027454658e-05 -6.2169973653285041e-09 5.5272123031524507e-07 -0.13992857157344454 0.035808572299011035 2.1437793346205028e-06 -0.13995474815724157 -6.2169973665133518e-09 5.5272123031524507e-07 -0.13992857157344452 0.035794529247016128 -8.6941796338728287e-07 -1.0468592027450273e-05 0.047110403083753277 6.4580320593190767e-07 -0.18409553366319575 0.038872661754273313 -1.0615831764011687e-06 -1.3060835487714626e-05 -1.0514903922658989e-08 -9.3391015755626693e-07 -1.2694559134217741e-05 -8.2277862101718588e-09 9.6578146109985705e-07 -0.15192395394158953 -6.2169973653285041e-09 5.5272123031524507e-07 -0.13992857157344454 0.038872661754273313 -1.0615831764011687e-06 -1.3060835487714626e-05 0.035794529247016128 -8.6941796338728266e-07 -1.0468592027443346e-05 -6.2169973653285041e-09 5.5272123031524507e-07 -0.13992857157344454 0.047110403083753277 6.4580320593190798e-07 -0.18409553366319578 0.041417258014163121 2.6742574606006978e-06 -0.28746371361162004 -1.0292930110119553e-08 4.482282816053445e-06 -0.29689698177916879 -6.2169973699267449e-09 5.5272123031524613e-07 -0.13992857157344457 0.047110403083753277 6.4580320593190798e-07 -0.18409553366319578 -6.2169973653285041e-09 5.5272123031524507e-07 -0.13992857157344454 -1.0292930100226999e-08 4.4822828160534458e-06 -0.29689698177916879 -8.2277862101718588e-09 9.6578146109985705e-07 -0.15192395394158953 0.047110403083753277 6.4580320593190798e-07 -0.18409553366319578 0.035808572299011035 2.1437793346205028e-06 -0.13995474815724157 0.035794529247016135 -8.6941796338728182e-07 -1.0468592027506211e-05 0.075919387859606266 -1.5741403143787404e-06 -1.4138848051206513e-05 0.047110403083753277 6.4580320593190756e-07 -0.18409553366319575 0.038872661754273313 -1.0615831764011687e-06 -1.3060835487714626e-05 0.075919387859606266 -1.5741403143787406e-06 -1.4138848051181524e-05 0.035794529247016128 -8.6941796338728256e-07 -1.0468592027454658e-05 0.047110403083753277 6.4580320593190798e-07 -0.18409553366319578 0.035794529247016128 -8.6941796338728256e-07 -1.0468592027454658e-05 0.075919387859606266 -1.5741403143787406e-06 -1.4138848051181524e-05 0.04889699291284258 3.0349810089946652e-06 -1.4364949660740657e-05 0.035808572299011035 2.1437793346205028e-06 -0.13995474815724157 0.077328257067366971 2.8002486282443687e-06 -0.17994707652341066 0.048896992912842586 3.0349810089946669e-06 -1.4364949660728965e-05 0.075919387859606266 -1.5741403143787406e-06 -1.4138848051181524e-05 0.035808572299011035 2.1437793346205028e-06 -0.13995474815724157 0.075919387859606266 -1.5741403143787406e-06 -1.4138848051181524e-05 0.077328257067366971 2.8002486282443687e-06 -0.17994707652341066 0.035808572299011028 2.1437793346205024e-06 -0.13995474815724152 0.047110403083753284 6.4580320593190777e-07 -0.18409553366319578 0.077328257067366971 2.8002486282443687e-06 -0.17994707652341066 0.041417258014163121 2.6742574606006978e-06 -0.28746371361162004 0.035808572299011035 2.1437793346205028e-06 -0.13995474815724157 0.047110403083753277 6.4580320593190798e-07 -0.18409553366319578 0.035808572299011035 2.1437793346205028e-06 -0.13995474815724157 0.041417258014163121 2.6742574606006978e-06 -0.28746371361162004 -6.2169973653285041e-09 5.5272123031524507e-07 -0.13992857157344454 0.047110403083753277 6.4580320593190798e-07 -0.18409553366319578 0.087639691986020035 5.537173479454528e-07 -0.28713868327969333 0.047110403083753284 6.4580320593190788e-07 -0.18409553366319573 0.077328257067366971 2.8002486282443687e-06 -0.17994707652341066 0.12914189501003359 1.3764597333471851e-06 -0.19926411368181854 0.075919387859606266 -1.5741403143787406e-06 -1.4138848051181524e-05 0.047110403083753277 6.4580320593190798e-07 -0.18409553366319578 0.087639691986020049 5.5371734794544994e-07 -0.28713868327969333 0.12914189501003359 1.3764597333471853e-06 -0.19926411368181857 0.075919387859606266 -1.5741403143787406e-06 -1.4138848051181524e-05 0.077328257067366971 2.8002486282443683e-06 -0.1799470765234106 0.047110403083753277 6.4580320593190767e-07 -0.18409553366319578 0.12914189501003359 1.3764597333471853e-06 -0.19926411368181857 0.075919387859606266 -1.5741403143787406e-06 -1.4138848051181524e-05 0.097715789667821365 3.5722866894008028e-06 -1.6752060489726378e-05 0.04889699291284258 3.0349810089946652e-06 -1.4364949660740657e-05 0.077328257067366971 2.8002486282443687e-06 -0.17994707652341066 0.075919387859606266 -1.5741403143787406e-06 -1.4138848051181524e-05 0.12402625499402088 2.8088517363479189e-06 -1.3714571733448885e-05 0.077328257067366971 2.8002486282443687e-06 -0.17994707652341066 0.12914189501003359 1.3764597333471834e-06 -0.19926411368181859 0.1115141703082374 -9.9874576610627073e-07 -1.0766781612879762e-05 0.12402625499402088 2.8088517363479206e-06 -1.3714571733420059e-05 0.075919387859606266 -1.5741403143787406e-06 -1.413884805117754e-05 0.12914189501003359 1.3764597333471853e-06 -0.19926411368181851 0.12481933033857004 2.6246960675189168e-06 -0.15661561813447245 0.077328257067366971 2.8002486282443687e-06 -0.17994707652341066 0.097715789667821365 3.5722866894008028e-06 -1.6752060489695712e-05 0.12402625499402088 2.8088517363479206e-06 -1.3714571733420059e-05 0.077328257067366971 2.8002486282443687e-06 -0.17994707652341066 0.075919387859606266 -1.5741403143787411e-06 -1.413884805122248e-05 0.097715789667821365 3.5722866894008028e-06 -1.6752060489726378e-05 0.12402625499402088 2.8088517363479206e-06 -1.3714571733420059e-05 0.12481933033857004 2.6246960675189168e-06 -0.15661561813447245 0.11193468183321485 2.1277259964825388e-06 -0.29680103346599634 0.077328257067366971 2.8002486282443687e-06 -0.17994707652341066 0.12914189501003359 1.3764597333471853e-06 -0.19926411368181854 0.12481933033857004 2.6246960675189168e-06 -0.15661561813447245 0.077328257067366971 2.8002486282443687e-06 -0.17994707652341066 0.12402625499402088 2.8088517363479202e-06 -1.3714571733426642e-05 0.12914189501003359 1.3764597333471855e-06 -0.19926411368181851 0.080523664213172932 3.110982971459687e-06 -0.37876144735764894 0.087639691986020035 5.5371734794545343e-07 -0.28713868327969339 0.12219535144607425 -1.1445628880521191e-07 -0.50666206064570829 0.055104561967224866 4.3226218885791568e-06 -0.46059764909694606 0.087639691986020035 5.537173479454528e-07 -0.28713868327969333 0.055104561967224866 4.3226218885791568e-06 -0.46059764909694606 0.080523664213172932 3.110982971459687e-06 -0.37876144735764894 0.04711040308375327 6.4580320593190788e-07 -0.18409553366319573 0.077328257067366971 2.8002486282443687e-06 -0.17994707652341066 0.11193468183321484 2.1277259964825384e-06 -0.29680103346599634 0.080523664213172932 3.110982971459687e-06 -0.37876144735764894 0.087639691986020021 5.5371734794545195e-07 -0.28713868327969333 0.11193468183321484 2.1277259964825384e-06 -0.29680103346599634 0.087639691986020007 5.5371734794545248e-07 -0.28713868327969339 0.077328257067366971 2.8002486282443687e-06 -0.17994707652341066 0.12914189501003359 1.3764597333471851e-06 -0.19926411368181854 0.077328257067366971 2.8002486282443687e-06 -0.17994707652341066 0.087639691986020063 5.5371734794545248e-07 -0.28713868327969333 0.080523664213172946 3.1109829714596874e-06 -0.37876144735764894 0.047110403083753277 6.4580320593190798e-07 -0.18409553366319578 0.11193468183321484 2.1277259964825384e-06 -0.29680103346599634 0.12219535144607419 -1.144562888052107e-07 -0.50666206064570829 0.087639691986020035 5.5371734794545248e-07 -0.28713868327969339 0.12914189501003359 1.3764597333471851e-06 -0.19926411368181854 0.11193468183321484 2.1277259964825384e-06 -0.29680103346599634 0.080523664213172932 3.110982971459687e-06 -0.37876144735764894 0.087639691986020035 5.5371734794545227e-07 -0.28713868327969333 0.1221953514460742 -1.1445628880521074e-07 -0.50666206064570807 0.077328257067366971 2.8002486282443687e-06 -0.17994707652341066 0.080523664213172932 3.110982971459687e-06 -0.37876144735764894 0.041417258014163121 2.6742574606006978e-06 -0.28746371361162004 0.047110403083753277 6.4580320593190798e-07 -0.18409553366319578 0.080523664213172932 3.110982971459687e-06 -0.37876144735764894 0.07946110110593653 3.2425167583536006e-06 -0.5738182053053843 0.04217291837154763 2.9162842213283923e-06 -0.47630361253358555 0.055104561967224866 4.3226218885791568e-06 -0.46059764909694606 0.11193468183321484 2.1277259964825384e-06 -0.29680103346599634 0.12696895640000871 2.776916154034556e-06 -0.47832198984899449 0.080523664213172932 3.110982971459687e-06 -0.37876144735764894 0.12219535144607421 -1.1445628880521068e-07 -0.50666206064570818 0.060623269623686186 1.2433427724226965e-06 -0.43109270431321406 0.1221953514460742 -1.1445628880521054e-07 -0.50666206064570807 0.087639691986020035 5.5371734794545343e-07 -0.28713868327969333 0.055104561967224873 4.3226218885791559e-06 -0.460597649096946 0.087639691986020035 5.537173479454528e-07 -0.28713868327969333 0.12221822505955419 9.1906251713546619e-07 -0.47828831495798835 0.060623269623686186 1.2433427724226965e-06 -0.43109270431321406 0.12220614637243662 -2.9527123004041103e-07 -0.2387940428794009 0.087639691986020035 5.537173479454528e-07 -0.28713868327969333 0.060623269623686186 1.2433427724226965e-06 -0.43109270431321406 0.12221822505955418 9.1906251713546598e-07 -0.47828831495798824 0.12219535144607421 -1.1445628880521078e-07 -0.50666206064570818 0.087639691986020035 5.537173479454528e-07 -0.28713868327969333 0.12220614637243664 -2.9527123004041076e-07 -0.23879404287940098 0.06062326962368618 1.2433427724226965e-06 -0.431092704313214 0.054651043577911305 -4.4286507266885561e-07 -0.21360848606968699 0.087639691986020035 5.537173479454528e-07 -0.28713868327969333 0.079299584468454407 -1.6614459765250601e-07 -1.5877376471486673e-05 0.12220614637243664 -2.9527123004041076e-07 -0.23879404287940098 0.054651043577911305 -4.4286507266885561e-07 -0.21360848606968699 0.075919387859606266 -1.5741403143787406e-06 -1.4138848051181524e-05 0.079299584468454407 -1.6614459765250601e-07 -1.5877376471486673e-05 0.1115141703082374 -9.9874576610627073e-07 -1.0766781612879762e-05 0.087639691986020035 5.5371734794545301e-07 -0.28713868327969339 0.079299584468454407 -1.6614459765250601e-07 -1.5877376471486673e-05 0.054651043577911319 -4.4286507266885545e-07 -0.21360848606968699 0.087639691986020035 5.5371734794545269e-07 -0.28713868327969339 0.047110403083753277 6.4580320593190798e-07 -0.18409553366319578 0.079299584468454407 -1.6614459765250601e-07 -1.5877376471486673e-05 0.1115141703082374 -9.9874576610627073e-07 -1.0766781612884141e-05 0.087639691986020035 5.5371734794545269e-07 -0.28713868327969333 0.12220614637243664 -2.9527123004041076e-07 -0.23879404287940098 0.075919387859606266 -1.5741403143787406e-06 -1.4138848051181524e-05 0.079299584468454407 -1.6614459765250601e-07 -1.5877376471486673e-05 0.087639691986020035 5.5371734794545259e-07 -0.28713868327969333 0.047110403083753277 6.4580320593190798e-07 -0.18409553366319578 0.1115141703082374 -9.9874576610627073e-07 -1.0766781612879762e-05 0.075919387859606266 -1.5741403143787406e-06 -1.4138848051181992e-05 0.087639691986020035 5.537173479454528e-07 -0.28713868327969333 0.12914189501003359 1.3764597333471848e-06 -0.19926411368181854 0.087639691986020035 5.537173479454528e-07 -0.28713868327969333 0.12220614637243664 -2.9527123004041076e-07 -0.23879404287940098 0.1115141703082374 -9.9874576610627073e-07 -1.0766781612879762e-05 0.12914189501003359 1.3764597333471851e-06 -0.19926411368181854 0.042127026263566465 -1.5724487961035308e-07 -1.4311842535830856e-05 0.080467688226851852 -3.9978832543175941e-06 -1.5139094365669643e-05 0.079299584468454407 -1.6614459765250601e-07 -1.5877376471486673e-05 0.054651043577911305 -4.4286507266885561e-07 -0.21360848606968699 0.079299584468454407 -1.6614459765250601e-07 -1.5877376471486673e-05 0.12685112957736705 -6.358777069326479e-07 -1.405409221662965e-05 0.1115141703082374 -9.9874576610627073e-07 -1.0766781612879762e-05 0.12220614637243664 -2.9527123004041076e-07 -0.23879404287940098 0.17716400795552378 4.1954665481043003e-06 -9.0131197802340847e-06 0.16696082527105149 5.2479288541526337e-07 -0.29766232979026425 0.14623057453920066 6.3367222124664212e-07 -1.0718697127575554e-05 0.18929162748042355 3.5864111206982119e-07 -0.20850253495777279 0.16696082527105152 5.2479288541526676e-07 -0.29766232979026425 0.12220614637243662 -2.9527123004041092e-07 -0.23879404287940101 0.14623057453920066 6.3367222124664212e-07 -1.0718697127567888e-05 0.18929162748042352 3.5864111206981833e-07 -0.20850253495777277 0.14623057453920066 6.3367222124664212e-07 -1.0718697127575554e-05 0.1115141703082374 -9.9874576610627073e-07 -1.0766781612887206e-05 0.12220614637243662 -2.9527123004041055e-07 -0.23879404287940101 0.12914189501003359 1.3764597333471855e-06 -0.19926411368181859 0.12685112957736705 -6.358777069326479e-07 -1.405409221662965e-05 0.16411287851126652 -2.4965686751545e-06 -1.1069510980649224e-05 0.14623057453920066 6.3367222124664212e-07 -1.0718697127575554e-05 0.12220614637243664 -2.9527123004041076e-07 -0.23879404287940098 0.14623057453920066 6.3367222124664212e-07 -1.0718697127575554e-05 0.12220614637243662 -2.9527123004041071e-07 -0.23879404287940098 0.16696082527105152 5.2479288541526654e-07 -0.29766232979026425 0.12914189501003354 1.3764597333471853e-06 -0.19926411368181857 0.14623057453920066 6.3367222124664212e-07 -1.0718697127575554e-05 0.12220614637243661 -2.9527123004041119e-07 -0.23879404287940098 0.16411287851126652 -2.4965686751545e-06 -1.1069510980649224e-05 0.1892916274804235 3.5864111206981754e-07 -0.20850253495777274 0.14623057453920066 6.3367222124664212e-07 -1.0718697127575554e-05 0.12914189501003359 1.3764597333471908e-06 -0.19926411368181851 0.16696082527105149 5.2479288541526644e-07 -0.29766232979026425 0.19860857299272514 8.8514870854414815e-06 -0.17700160456811381 0.14623057453920066 6.3367222124664212e-07 -1.0718697127575554e-05 0.1115141703082374 -9.9874576610627073e-07 -1.076678161288641e-05 0.12685112957736705 -6.358777069326479e-07 -1.405409221662965e-05 0.12220614637243664 -2.9527123004041076e-07 -0.23879404287940098 0.14623057453920066 6.3367222124664212e-07 -1.0718697127575554e-05 0.16696082527105152 5.2479288541526676e-07 -0.29766232979026425 0.17716400795552378 4.1954665481043003e-06 -9.0131197802340847e-06 0.19860857299272514 8.8514870854414799e-06 -0.17700160456811381 0.1115141703082374 -9.9874576610627073e-07 -1.0766781612879762e-05 0.14623057453920066 6.3367222124664222e-07 -1.0718697127574088e-05 0.12402625499402088 2.8088517363479206e-06 -1.3714571733435993e-05 0.12914189501003356 1.3764597333471855e-06 -0.19926411368181851 0.14623057453920066 6.3367222124664212e-07 -1.0718697127575554e-05 0.17716400795552378 4.1954665481043012e-06 -9.0131197802292261e-06 0.17190095087987647 1.1816838694975784e-05 -1.3757230645118604e-05 0.19860857299272514 8.8514870854414799e-06 -0.17700160456811381 0.17716400795552378 4.1954665481043003e-06 -9.0131197802340847e-06 0.14623057453920066 6.3367222124664212e-07 -1.0718697127575298e-05 0.16411287851126652 -2.4965686751545e-06 -1.1069510980641595e-05 0.18929162748042352 3.5864111206981828e-07 -0.20850253495777277 0.16696082527105152 5.2479288541526676e-07 -0.29766232979026425 0.12220614637243664 -2.952712300404105e-07 -0.2387940428794009 0.087639691986020035 5.537173479454528e-07 -0.28713868327969333 0.12914189501003356 1.3764597333471846e-06 -0.19926411368181854 0.16696082527105152 5.2479288541526676e-07 -0.29766232979026425 0.087639691986020021 5.537173479454529e-07 -0.28713868327969327 0.12221822505955418 9.1906251713546587e-07 -0.47828831495798829 0.12219535144607421 -1.1445628880521068e-07 -0.50666206064570818 0.12221822505955418 9.1906251713546587e-07 -0.47828831495798829 0.087639691986020035 5.5371734794545301e-07 -0.28713868327969339 0.16696082527105152 5.2479288541526676e-07 -0.29766232979026425 0.12220614637243667 -2.9527123004041103e-07 -0.23879404287940101 0.12221822505955418 9.1906251713546587e-07 -0.47828831495798829 0.16696082527105152 5.2479288541526676e-07 -0.29766232979026425 0.18301636724011058 -1.3384867633051474e-06 -0.47718835516203839 0.12220614637243667 -2.9527123004041161e-07 -0.23879404287940101 0.16696082527105152 5.2479288541526676e-07 -0.29766232979026425 0.12219535144607421 -1.1445628880521068e-07 -0.50666206064570818 0.18301636724011058 -1.3384867633051474e-06 -0.47718835516203839 0.18859408824151061 5.3741327004024037e-06 -0.47713759591018856 0.18301636724011058 -1.3384867633051474e-06 -0.47718835516203839 0.12220614637243664 -2.952712300404115e-07 -0.23879404287940109 0.16696082527105152 5.2479288541526686e-07 -0.29766232979026419 0.18929162748042355 3.5864111206981844e-07 -0.20850253495777277 0.087639691986020035 5.537173479454528e-07 -0.28713868327969333 0.12219535144607421 -1.1445628880521068e-07 -0.50666206064570818 0.16696082527105152 5.2479288541526676e-07 -0.29766232979026425 0.12914189501003359 1.3764597333471851e-06 -0.19926411368181854 0.12221822505955418 9.1906251713546587e-07 -0.47828831495798829 0.18301636724011056 -1.3384867633051478e-06 -0.47718835516203845 0.16696082527105152 5.2479288541526676e-07 -0.29766232979026425 0.12219535144607421 -1.1445628880521068e-07 -0.50666206064570818 0.16696082527105152 5.2479288541526676e-07 -0.29766232979026425 0.12914189501003359 1.3764597333471848e-06 -0.19926411368181854 0.14902626474841557 2.9386789672660386e-06 -0.31702679085218743 0.19860857299272514 8.8514870854414799e-06 -0.17700160456811381 0.14902626474841557 2.9386789672660386e-06 -0.31702679085218743 0.12219535144607421 -1.1445628880521034e-07 -0.50666206064570807 0.16696082527105152 5.2479288541526676e-07 -0.29766232979026425 0.18859408824151061 5.3741327004024037e-06 -0.47713759591018856 0.14902626474841557 2.9386789672660386e-06 -0.31702679085218743 0.16654320754521457 3.2424131234274805e-06 -0.50073394403682325 0.12219535144607424 -1.1445628880520867e-07 -0.50666206064570818 0.18859408824151061 5.3741327004024037e-06 -0.47713759591018856 0.20148061702534595 3.2161760846672327e-06 -0.30079018696145715 0.16696082527105149 5.2479288541526549e-07 -0.29766232979026425 0.14902626474841557 2.9386789672660365e-06 -0.31702679085218743 0.19860857299272514 8.8514870854414731e-06 -0.17700160456811395 0.11193468183321484 2.1277259964825384e-06 -0.29680103346599634 0.14902626474841557 2.9386789672660386e-06 -0.31702679085218743 0.12219535144607421 -1.1445628880521075e-07 -0.50666206064570818 0.12914189501003359 1.3764597333471851e-06 -0.19926411368181854 0.14902626474841557 2.9386789672660386e-06 -0.31702679085218743 0.16696082527105155 5.2479288541526824e-07 -0.2976623297902643 0.20148061702534595 3.2161760846672327e-06 -0.30079018696145715 0.18859408824151061 5.3741327004024037e-06 -0.47713759591018856 0.16696082527105152 5.2479288541526676e-07 -0.29766232979026425 0.12219535144607423 -1.144562888052107e-07 -0.50666206064570818 0.14902626474841557 2.9386789672660386e-06 -0.31702679085218743 0.12914189501003359 1.3764597333471851e-06 -0.19926411368181857 0.14902626474841557 2.9386789672660386e-06 -0.31702679085218743 0.16654320754521457 3.2424131234274805e-06 -0.50073394403682336 0.12696895640000871 2.776916154034556e-06 -0.47832198984899449 0.12219535144607421 -1.1445628880521068e-07 -0.50666206064570818 0.12696895640000871 2.776916154034556e-06 -0.47832198984899449 0.11193468183321484 2.1277259964825384e-06 -0.29680103346599634 0.14902626474841557 2.9386789672660386e-06 -0.31702679085218743 0.12219535144607421 -1.1445628880521121e-07 -0.50666206064570818 0.16654320754521457 3.2424131234274805e-06 -0.50073394403682336 0.14902626474841554 2.9386789672660382e-06 -0.31702679085218743 0.20148061702534595 3.2161760846672327e-06 -0.30079018696145715 0.18859408824151061 5.3741327004024037e-06 -0.47713759591018856 0.12481933033857004 2.6246960675189168e-06 -0.15661561813447245 0.14902626474841557 2.9386789672660386e-06 -0.31702679085218743 0.11193468183321484 2.1277259964825384e-06 -0.29680103346599634 0.12914189501003359 1.3764597333471853e-06 -0.19926411368181854 0.12481933033857004 2.6246960675189168e-06 -0.15661561813447245 0.17059358677655675 2.6475335264120391e-06 -0.16213840570139876 0.14902626474841557 2.9386789672660386e-06 -0.31702679085218743 0.12914189501003359 1.3764597333471853e-06 -0.19926411368181854 0.17059358677655675 2.6475335264120391e-06 -0.16213840570139876 0.14902626474841557 2.9386789672660386e-06 -0.31702679085218743 0.12914189501003359 1.3764597333471865e-06 -0.19926411368181857 0.19860857299272514 8.8514870854414765e-06 -0.17700160456811379 0.17059358677655675 2.6475335264120391e-06 -0.16213840570139876 0.12914189501003362 1.3764597333471855e-06 -0.19926411368181854 0.17190095087987647 1.1816838694975785e-05 -1.3757230645120143e-05 0.19860857299272514 8.8514870854414799e-06 -0.17700160456811373 0.17059358677655675 2.6475335264120391e-06 -0.16213840570139876 0.12481933033857004 2.6246960675189168e-06 -0.15661561813447245 0.12402625499402091 2.8088517363479215e-06 -1.3714571733349426e-05 0.12914189501003359 1.3764597333471857e-06 -0.19926411368181848 0.14623057453920066 6.3367222124664212e-07 -1.0718697127575554e-05 0.17190095087987647 1.1816838694975784e-05 -1.3757230645118604e-05 0.12914189501003359 1.3764597333471851e-06 -0.19926411368181859 0.19860857299272514 8.8514870854414782e-06 -0.17700160456811384 0.14636335954408519 3.1530017847592984e-06 -1.7430466641778255e-05 0.17059358677655675 2.6475335264120391e-06 -0.16213840570139876 0.12481933033857004 2.6246960675189168e-06 -0.15661561813447245 0.12402625499402088 2.8088517363479206e-06 -1.3714571733420059e-05 0.12481933033857004 2.6246960675189168e-06 -0.15661561813447245 0.097715789667821365 3.5722866894008028e-06 -1.6752060489741205e-05 0.14636335954408519 3.1530017847592984e-06 -1.7430466641778255e-05 0.12402625499402088 2.8088517363479206e-06 -1.3714571733420059e-05 0.12402625499402088 2.8088517363479206e-06 -1.3714571733420059e-05 0.14623057453920066 6.3367222124664328e-07 -1.0718697127575813e-05 0.17190095087987647 1.1816838694975784e-05 -1.3757230645118604e-05 0.12914189501003359 1.3764597333471851e-06 -0.19926411368181854 0.17059358677655675 2.6475335264120391e-06 -0.16213840570139876 0.12402625499402088 2.8088517363479181e-06 -1.3714571733352198e-05 0.17190095087987647 1.1816838694975784e-05 -1.3757230645092898e-05 0.12914189501003359 1.3764597333471823e-06 -0.19926411368181848 0.14636335954408519 3.1530017847592984e-06 -1.7430466641778255e-05 0.19476245600996664 2.6906624130775919e-06 -1.4291750984124616e-05 0.17059358677655675 2.6475335264120391e-06 -0.16213840570139876 0.17190095087987647 1.1816838694975784e-05 -1.3757230645118604e-05 0.12402625499402088 2.8088517363479206e-06 -1.3714571733420059e-05 0.14636335954408519 3.1530017847592984e-06 -1.7430466641778255e-05 0.17059358677655675 2.6475335264120357e-06 -0.16213840570139887 0.17190095087987647 1.1816838694975784e-05 -1.3757230645118604e-05 0.17059358677655675 2.6475335264120391e-06 -0.16213840570139876 0.20148061702534595 3.2161760846672327e-06 -0.30079018696145715 0.14902626474841557 2.9386789672660386e-06 -0.31702679085218743 0.19860857299272516 8.8514870854414782e-06 -0.17700160456811384 0.20148061702534595 3.2161760846672327e-06 -0.30079018696145715 0.17059358677655675 2.6475335264120391e-06 -0.16213840570139876 0.20768985440429122 1.9752734330005002e-06 -0.140226137604885 0.19860857299272514 8.8514870854414765e-06 -0.17700160456811379 0.17059358677655675 2.6475335264120391e-06 -0.16213840570139876 0.20767770199833943 6.8353875178855037e-06 -9.7200030703749616e-06 0.20768985440429122 1.9752734330004998e-06 -0.140226137604885 0.19860857299272514 8.8514870854414782e-06 -0.17700160456811373 0.20768985440429122 1.9752734330004998e-06 -0.140226137604885 0.24287810286464909 1.237793794137455e-06 -0.14029288398037046 0.20148061702534595 3.2161760846672327e-06 -0.30079018696145715 0.19860857299272514 8.8514870854414815e-06 -0.17700160456811379 0.20767770199833943 6.8353875178855037e-06 -9.7200030703359219e-06 0.20768985440429122 1.9752734330004998e-06 -0.140226137604885 0.19476245600996664 2.6906624130775919e-06 -1.4291750984124616e-05 0.17059358677655675 2.6475335264120391e-06 -0.16213840570139876 0.17059358677655675 2.6475335264120391e-06 -0.16213840570139876 0.19476245600996664 2.690662413077591e-06 -1.4291750984123697e-05 0.20767770199833943 6.8353875178855037e-06 -9.7200030703359219e-06 0.17190095087987647 1.1816838694975784e-05 -1.3757230645118604e-05 0.20767770199833943 6.8353875178855037e-06 -9.7200030703359219e-06 0.17190095087987647 1.1816838694975784e-05 -1.3757230645120528e-05 0.20721686054374358 1.0383016581770049e-05 -1.0958147038322431e-05 0.19860857299272514 8.8514870854414799e-06 -0.17700160456811379 0.17059358677655675 2.6475335264120391e-06 -0.16213840570139876 0.1719009508798765 1.1816838694975782e-05 -1.3757230645176175e-05 0.20767770199833943 6.8353875178855045e-06 -9.7200030703571536e-06 0.19860857299272514 8.8514870854414799e-06 -0.17700160456811373 0.24287810286464909 1.2377937941374544e-06 -0.14029288398037043 0.24288176955505145 -2.4100883991673008e-06 -0.15232163192694842 0.24296865998778625 -1.2372512114458295e-05 -0.29769590121034034 0.19860857299272514 8.8514870854414799e-06 -0.17700160456811381 0.20148061702534595 3.2161760846672327e-06 -0.30079018696145715 0.24287810286464909 1.2377937941374525e-06 -0.14029288398037043 0.24296865998778625 -1.2372512114458295e-05 -0.29769590121034034 0.19860857299272516 8.8514870854414765e-06 -0.17700160456811384 0.24287810286464909 1.2377937941374544e-06 -0.14029288398037043 0.20767770199833943 6.8353875178855037e-06 -9.7200030703359219e-06 0.2428478429104792 -2.3222017984804142e-06 -1.2717987279553624e-05 0.19860857299272514 8.8514870854414799e-06 -0.17700160456811381 0.2428478429104792 -2.3222017984804142e-06 -1.2717987279553624e-05 0.19860857299272516 8.8514870854414748e-06 -0.17700160456811379 0.24288176955505145 -2.4100883991673004e-06 -0.15232163192694842 0.24287810286464909 1.2377937941374544e-06 -0.14029288398037043 0.20767770199833943 6.8353875178855037e-06 -9.7200030703359219e-06 0.24287810286464909 1.2377937941374537e-06 -0.14029288398037046 0.20768985440429122 1.9752734330004989e-06 -0.140226137604885 0.19860857299272514 8.8514870854414799e-06 -0.17700160456811379 0.20767770199833943 6.8353875178855037e-06 -9.7200030703359219e-06 0.20721686054374361 1.0383016581770049e-05 -1.0958147038313444e-05 0.2428478429104792 -2.3222017984804146e-06 -1.271798727954913e-05 0.19860857299272514 8.8514870854414799e-06 -0.17700160456811379 0.24287810286464909 1.2377937941374544e-06 -0.14029288398037043 0.20768985440429122 1.9752734330004989e-06 -0.140226137604885 0.24284515923853628 2.930011209167152e-06 -1.4699138659746582e-05 0.20767770199833943 6.8353875178855037e-06 -9.7200030703359219e-06 0.24285111552349423 2.7382388026641232e-06 -0.19161753828158568 0.20768985440429122 1.9752734330004998e-06 -0.140226137604885 0.24284515923853628 2.930011209167152e-06 -1.4699138659746582e-05 0.24287810286464909 1.2377937941374544e-06 -0.14029288398037043 0.24284515923853628 2.930011209167152e-06 -1.4699138659746582e-05 0.24287810286464909 1.2377937941374544e-06 -0.14029288398037043 0.20767770199833943 6.8353875178855037e-06 -9.7200030703359219e-06 0.2428478429104792 -2.3222017984804142e-06 -1.2717987279553624e-05 0.19476245600996664 2.6906624130775919e-06 -1.4291750984124616e-05 0.24284515923853628 2.930011209167152e-06 -1.4699138659746582e-05 0.20768985440429122 1.9752734330004998e-06 -0.140226137604885 0.20767770199833943 6.8353875178855037e-06 -9.7200030703359219e-06 0.20148061702534595 3.2161760846672327e-06 -0.30079018696145715 0.20768985440429122 1.9752734330004998e-06 -0.140226137604885 0.24285111552349423 2.7382388026641232e-06 -0.19161753828158568 0.24287810286464909 1.2377937941374544e-06 -0.14029288398037043 0.24285111552349423 2.7382388026641232e-06 -0.19161753828158568 0.24296865998778625 -1.2372512114458295e-05 -0.29769590121034034 0.20148061702534592 3.2161760846672331e-06 -0.3007901869614571 0.24287810286464909 1.2377937941374544e-06 -0.14029288398037043 0.24297210297416585 2.57456602977089e-06 -0.38327106532968314 0.24296865998778625 -1.2372512114458295e-05 -0.29769590121034034 0.20148061702534595 3.2161760846672327e-06 -0.3007901869614571 0.24285111552349423 2.7382388026641232e-06 -0.19161753828158568 0.20148061702534595 3.2161760846672327e-06 -0.30079018696145715 0.18859408824151061 5.3741327004024063e-06 -0.47713759591018856 0.16696082527105152 5.2479288541526676e-07 -0.29766232979026425 0.19860857299272508 8.851487085441468e-06 -0.17700160456811381 0.24296865998778625 -1.2372512114458295e-05 -0.29769590121034034 0.18859408824151058 5.374132700402402e-06 -0.47713759591018856 0.20148061702534595 3.2161760846672327e-06 -0.30079018696145715 0.19860857299272514 8.8514870854414832e-06 -0.17700160456811373 0.24296865998778625 -1.2372512114458295e-05 -0.29769590121034034 0.16696082527105152 5.2479288541523404e-07 -0.29766232979026419 0.18859408824151064 5.374132700402391e-06 -0.47713759591018862 0.19860857299272514 8.8514870854414731e-06 -0.17700160456811379 0.24296865998778625 -1.2372512114458295e-05 -0.29769590121034034 0.21127438917526589 2.6077928611080527e-06 -0.48477394759153403 0.20148061702534595 3.2161760846672327e-06 -0.30079018696145715 0.18859408824151061 5.3741327004024037e-06 -0.47713759591018856 0.16654320754521457 3.2424131234274805e-06 -0.50073394403682336 0.20148061702534595 3.2161760846672327e-06 -0.30079018696145715 0.21127438917526586 2.607792861108059e-06 -0.48477394759153397 0.18859408824151061 5.3741327004024037e-06 -0.47713759591018856 0.21127438917526586 2.607792861108059e-06 -0.48477394759153397 0.24297210297416585 2.5745660297708912e-06 -0.38327106532968314 0.24296865998778625 -1.2372512114458295e-05 -0.29769590121034034 0.20148061702534595 3.2161760846672327e-06 -0.30079018696145715 0.24297210297416585 2.57456602977089e-06 -0.38327106532968314 0.24308844617832664 -9.1760992258432943e-06 -0.48685607670241704 0.21127438917526586 2.607792861108059e-06 -0.48477394759153397 0.24296865998778625 -1.2372512114458295e-05 -0.29769590121034034 0.24296865998778625 -1.2372512114458295e-05 -0.29769590121034034 0.24308844617832664 -9.1760992258432943e-06 -0.48685607670241704 0.21127438917526586 2.607792861108059e-06 -0.48477394759153397 0.18859408824151061 5.3741327004024037e-06 -0.47713759591018856 0.24296865998778625 -1.2372512114458295e-05 -0.29769590121034034 0.24306330636277065 8.2070222327863038e-06 -0.43900923644539652 0.24308844617832664 -9.1760992258432943e-06 -0.48685607670241704 0.18859408824151061 5.3741327004024037e-06 -0.47713759591018856 0.2429625187703906 3.3458863597601733e-06 -0.31549717428162988 0.18301636724011058 -1.3384867633051474e-06 -0.47718835516203834 0.24296043994349459 1.0449822671294449e-06 -0.31089920009446198 0.18929162748042352 3.5864111206981828e-07 -0.20850253495777277 0.24306330636277063 8.2070222327863004e-06 -0.43900923644539647 0.16696082527105152 5.2479288541526676e-07 -0.29766232979026425 0.24296043994349462 1.0449822671294449e-06 -0.31089920009446198 0.18301636724011058 -1.3384867633051474e-06 -0.47718835516203839 0.24296865998778625 -1.2372512114458295e-05 -0.29769590121034034 0.16696082527105152 5.2479288541526951e-07 -0.29766232979026419 0.24306330636277063 8.2070222327863004e-06 -0.43900923644539647 0.18859408824151061 5.3741327004024037e-06 -0.47713759591018856 0.24306330636277063 8.2070222327863004e-06 -0.43900923644539647 0.16696082527105152 5.2479288541526676e-07 -0.29766232979026425 0.18301636724011061 -1.3384867633051463e-06 -0.47718835516203845 0.18859408824151055 5.374132700402402e-06 -0.47713759591018856 0.24306330636277063 8.2070222327863004e-06 -0.43900923644539647 0.24296865998778625 -1.2372512114458295e-05 -0.29769590121034034 0.24296043994349462 1.0449822671294449e-06 -0.31089920009446198 0.16696082527105152 5.2479288541526676e-07 -0.29766232979026425 0.16696082527105152 5.2479288541526676e-07 -0.29766232979026425 0.24296043994349459 1.0449822671294447e-06 -0.31089920009446198 0.18301636724011058 -1.3384867633051474e-06 -0.47718835516203839 0.18929162748042352 3.5864111206981833e-07 -0.20850253495777274 0.24296865998778625 -1.2372512114458295e-05 -0.29769590121034034 0.24296043994349462 1.0449822671294456e-06 -0.31089920009446198 0.16696082527105149 5.2479288541525987e-07 -0.2976623297902643 0.19860857299272514 8.8514870854414799e-06 -0.17700160456811381 0.24296043994349462 1.0449822671294449e-06 -0.31089920009446198 0.18929162748042352 3.5864111206981828e-07 -0.20850253495777277 0.16696082527105155 5.2479288541526316e-07 -0.29766232979026436 0.19860857299272514 8.8514870854414765e-06 -0.17700160456811387 0.24307114624820556 5.3600364225095679e-06 -0.49794235614186799 0.24306330636277063 8.2070222327863004e-06 -0.43900923644539647 0.24296043994349462 1.0449822671294449e-06 -0.31089920009446198 0.18301636724011058 -1.3384867633051474e-06 -0.47718835516203839 0.2429625187703906 3.3458863597601733e-06 -0.31549717428162988 0.24307114624820556 5.3600364225095679e-06 -0.49794235614186799 0.24296043994349462 1.0449822671294449e-06 -0.31089920009446198 0.18301636724011064 -1.3384867633051461e-06 -0.47718835516203839 0.20486235924611831 9.0044589314395958e-06 -1.2535284215543168e-05 0.24286080021414161 3.2969377634445947e-07 -0.16504418862539824 0.24288176955505145 -2.4100883991673004e-06 -0.15232163192694842 0.18929162748042352 3.5864111206981828e-07 -0.20850253495777277 0.24288176955505145 -2.4100883991673004e-06 -0.15232163192694842 0.20721686054374364 1.0383016581770047e-05 -1.0958147038369901e-05 0.18929162748042352 3.5864111206981817e-07 -0.20850253495777279 0.19860857299272514 8.8514870854414799e-06 -0.17700160456811381 0.24288176955505145 -2.4100883991673004e-06 -0.15232163192694842 0.18929162748042352 3.5864111206981626e-07 -0.20850253495777277 0.24296043994349462 1.0449822671294449e-06 -0.31089920009446198 0.19860857299272514 8.8514870854414799e-06 -0.17700160456811381 0.24288176955505145 -2.4100883991673004e-06 -0.15232163192694842 0.24286080021414161 3.2969377634445815e-07 -0.16504418862539819 0.24296043994349462 1.0449822671294449e-06 -0.31089920009446198 0.1892916274804235 3.586411120698178e-07 -0.20850253495777279 0.17716400795552378 4.1954665481043003e-06 -9.0131197802340847e-06 0.18929162748042352 3.5864111206981844e-07 -0.20850253495777277 0.20721686054374358 1.0383016581770047e-05 -1.0958147038322445e-05 0.19860857299272514 8.8514870854414799e-06 -0.17700160456811381 0.17716400795552378 4.1954665481043003e-06 -9.0131197802340847e-06 0.16696082527105152 5.2479288541526654e-07 -0.29766232979026425 0.18929162748042352 3.5864111206981552e-07 -0.20850253495777277 0.19860857299272514 8.8514870854414799e-06 -0.17700160456811381 0.24296865998778625 -1.2372512114458295e-05 -0.29769590121034034 0.24288176955505145 -2.4100883991673004e-06 -0.15232163192694842 0.24296043994349462 1.0449822671294449e-06 -0.31089920009446198 0.19860857299272514 8.8514870854414799e-06 -0.17700160456811381 0.17716400795552378 4.1954665481043003e-06 -9.0131197802340847e-06 0.16411287851126652 -2.4965686751545e-06 -1.1069510980643899e-05 0.20486235924611831 9.0044589314395958e-06 -1.2535284215550796e-05 0.18929162748042352 3.5864111206981828e-07 -0.20850253495777277 0.20486235924611831 9.0044589314395958e-06 -1.2535284215543168e-05 0.24288176955505145 -2.4100883991673017e-06 -0.15232163192694839 0.20721686054374361 1.0383016581770049e-05 -1.0958147038313444e-05 0.18929162748042352 3.5864111206981828e-07 -0.20850253495777277 0.17716400795552378 4.1954665481043003e-06 -9.0131197802340847e-06 0.20486235924611831 9.0044589314395958e-06 -1.2535284215544458e-05 0.20721686054374361 1.0383016581770049e-05 -1.0958147038309629e-05 0.18929162748042352 3.5864111206981828e-07 -0.20850253495777277 0.17190095087987647 1.1816838694975784e-05 -1.3757230645118604e-05 0.17716400795552378 4.1954665481043003e-06 -9.0131197802340847e-06 0.20721686054374361 1.0383016581770049e-05 -1.0958147038322433e-05 0.19860857299272514 8.8514870854414765e-06 -0.17700160456811384 0.24288176955505145 -2.4100883991673004e-06 -0.15232163192694842 0.20721686054374364 1.0383016581770046e-05 -1.0958147038296165e-05 0.2428478429104792 -2.3222017984804142e-06 -1.271798727955519e-05 0.24282479302767532 -9.9031990317445846e-07 -1.4179061730657555e-05 0.24288176955505145 -2.4100883991673004e-06 -0.15232163192694842 0.19860857299272511 8.8514870854414799e-06 -0.17700160456811381 0.2428478429104792 -2.3222017984804142e-06 -1.2717987279553624e-05 0.20721686054374364 1.0383016581770047e-05 -1.0958147038339396e-05 0.20486235924611831 9.0044589314395958e-06 -1.2535284215543168e-05 0.20721686054374361 1.0383016581770049e-05 -1.0958147038313444e-05 0.24288176955505145 -2.4100883991673004e-06 -0.15232163192694842 0.24282479302767532 -9.9031990317445846e-07 -1.4179061730657555e-05 0.24282479302767532 -9.9031990317445846e-07 -1.4179061730657555e-05 0.24288176955505145 -2.4100883991673004e-06 -0.15232163192694842 0.20486235924611831 9.0044589314395958e-06 -1.2535284215543168e-05 0.24286080021414161 3.2969377634445804e-07 -0.16504418862539824 0.24281793543761152 6.0784545803193834e-06 -1.7220159216088469e-05 0.24282479302767532 -9.9031990317445888e-07 -1.4179061730657555e-05 0.20486235924611831 9.0044589314395958e-06 -1.2535284215543168e-05 0.24286080021414161 3.2969377634445804e-07 -0.16504418862539824 0.1967928574257945 -2.8890110277811377e-06 -1.5109535464916329e-05 0.20767974493673397 -3.4000137376878011e-06 -1.0673803886060242e-05 0.24289304271097889 1.2659070184518639e-07 -0.16221876178835656 0.16772776087233954 -1.4595102506877455e-06 -0.3002717111824531 0.1967928574257945 -2.8890110277811377e-06 -1.5109535464916329e-05 0.24281793543761149 6.0784545803193783e-06 -1.722015921613393e-05 0.20486235924611831 9.0044589314395941e-06 -1.253528421555189e-05 0.24286080021414161 3.2969377634445804e-07 -0.16504418862539824 0.24281793543761152 6.0784545803193834e-06 -1.7220159216088469e-05 0.1967928574257945 -2.8890110277811377e-06 -1.5109535464916329e-05 0.24289304271097892 1.2659070184518713e-07 -0.16221876178835656 0.24286080021414161 3.2969377634445804e-07 -0.16504418862539824 0.1967928574257945 -2.8890110277811377e-06 -1.5109535464916329e-05 0.16772776087233957 -1.4595102506877466e-06 -0.30027171118245316 0.24289304271097889 1.2659070184518657e-07 -0.16221876178835654 0.18929162748042355 3.5864111206981875e-07 -0.20850253495777274 0.20486235924611831 9.0044589314395958e-06 -1.2535284215543168e-05 0.16411287851126652 -2.4965686751544996e-06 -1.1069510980649027e-05 0.1967928574257945 -2.8890110277811377e-06 -1.5109535464916329e-05 0.18929162748042352 3.5864111206981828e-07 -0.20850253495777277 0.20486235924611831 9.0044589314395958e-06 -1.2535284215543168e-05 0.1967928574257945 -2.8890110277811377e-06 -1.5109535464916329e-05 0.24286080021414161 3.2969377634445682e-07 -0.16504418862539824 0.18929162748042352 3.5864111206981828e-07 -0.20850253495777277 0.1967928574257945 -2.8890110277811377e-06 -1.5109535464916329e-05 0.24289304271097892 1.2659070184518623e-07 -0.16221876178835651 0.24286080021414161 3.2969377634445804e-07 -0.16504418862539824 0.18929162748042352 3.5864111206981828e-07 -0.20850253495777277 0.24289304271097892 1.2659070184518713e-07 -0.16221876178835656 0.2429625187703906 3.3458863597601733e-06 -0.31549717428162988 0.24286080021414164 3.2969377634445836e-07 -0.16504418862539824 0.18929162748042352 3.5864111206981785e-07 -0.20850253495777279 0.24289304271097892 1.2659070184518713e-07 -0.16221876178835656 0.19679285742579453 -2.889011027781133e-06 -1.5109535464918435e-05 0.24281793543761152 6.0784545803193834e-06 -1.7220159216088469e-05 0.24284347954129323 1.1563178265480642e-05 -1.4705768882386869e-05 0.24289304271097892 1.2659070184518713e-07 -0.16221876178835656 0.19679285742579447 -2.8890110277811415e-06 -1.5109535464960446e-05 0.24284347954129323 1.1563178265480642e-05 -1.4705768882386869e-05 0.20767974493673397 -3.4000137376878011e-06 -1.0673803886060242e-05 0.24284347954129323 1.1563178265480642e-05 -1.4705768882386869e-05 0.24291422459484954 1.074716225963328e-05 -0.14030997047204699 0.24289304271097892 1.2659070184518774e-07 -0.16221876178835656 0.20767974493673397 -3.4000137376878011e-06 -1.0673803886060242e-05 0.20221471120319359 -2.6346213205255551e-06 -0.28748471177746809 0.20771734248961898 -1.9817560471536964e-06 -0.14022949506539703 0.16721014989081823 -3.1989135331523582e-06 -0.1651098676896301 0.16772776087233957 -1.4595102506877462e-06 -0.30027171118245316 0.1967928574257945 -2.8890110277811377e-06 -1.5109535464916329e-05 0.16910132411563514 -4.9552095176507696e-06 -1.2941056686086525e-05 0.20767974493673397 -3.4000137376878011e-06 -1.0673803886060242e-05 0.16772776087233957 -1.4595102506877462e-06 -0.3002717111824531 0.24295300441191894 1.2386302607061152e-05 -0.30290147733386574 0.24289304271097892 1.2659070184518713e-07 -0.16221876178835656 0.24291422459484954 1.074716225963328e-05 -0.14030997047204699 0.16772776087233957 -1.4595102506877459e-06 -0.30027171118245316 0.24291422459484954 1.074716225963328e-05 -0.14030997047204699 0.24289304271097892 1.2659070184518729e-07 -0.16221876178835656 0.207679744936734 -3.4000137376877995e-06 -1.0673803886079576e-05 0.16772776087233959 -1.4595102506877536e-06 -0.30027171118245305 0.24291422459484954 1.074716225963328e-05 -0.14030997047204699 0.20771734248961898 -1.9817560471536955e-06 -0.14022949506539711 0.20221471120319356 -2.6346213205255602e-06 -0.28748471177746804 0.16772776087233959 -1.4595102506877413e-06 -0.30027171118245327 0.24291422459484954 1.074716225963328e-05 -0.14030997047204699 0.20767974493673397 -3.4000137376878011e-06 -1.0673803886064213e-05 0.20771734248961898 -1.9817560471536964e-06 -0.14022949506539703 0.16772776087233959 -1.4595102506877449e-06 -0.3002717111824531 0.16910132411563514 -4.9552095176507696e-06 -1.2941056686091819e-05 0.20771734248961898 -1.981756047153696e-06 -0.14022949506539703 0.20767974493673397 -3.4000137376878011e-06 -1.0673803886060242e-05 0.16772776087233957 -1.4595102506877457e-06 -0.30027171118245316 0.20771734248961898 -1.9817560471536964e-06 -0.14022949506539703 0.20221471120319359 -2.6346213205255551e-06 -0.28748471177746809 0.24286966698427356 -2.6660851683557536e-06 -0.19161707492592053 0.24291422459484954 1.074716225963328e-05 -0.14030997047204699 0.20221471120319359 -2.6346213205255551e-06 -0.28748471177746809 0.24295300441191894 1.2386302607061152e-05 -0.30290147733386574 0.24286966698427356 -2.6660851683557536e-06 -0.19161707492592053 0.24291422459484954 1.074716225963328e-05 -0.14030997047204699 0.20767974493673397 -3.4000137376878011e-06 -1.0673803886060242e-05 0.24286190869887697 -2.9246490397786596e-06 -1.4030735933053278e-05 0.20771734248961898 -1.9817560471536964e-06 -0.14022949506539703 0.19477145644765018 -2.7685236489091506e-06 -1.3079225553507579e-05 0.20771734248961898 -1.9817560471536964e-06 -0.14022949506539703 0.24286966698427356 -2.6660851683557536e-06 -0.19161707492592053 0.24286190869887697 -2.9246490397786584e-06 -1.4030735933039611e-05 0.24291422459484954 1.074716225963328e-05 -0.14030997047204699 0.24286190869887697 -2.9246490397786596e-06 -1.4030735933053278e-05 0.24291422459484954 1.074716225963328e-05 -0.14030997047204699 0.24284347954129323 1.1563178265480642e-05 -1.4705768882375515e-05 0.20767974493673397 -3.4000137376878011e-06 -1.0673803886060242e-05 0.24291422459484954 1.074716225963328e-05 -0.14030997047204699 0.242861908698877 -2.9246490397786618e-06 -1.403073593304192e-05 0.20771734248961898 -1.9817560471536964e-06 -0.14022949506539703 0.20767974493673397 -3.4000137376878011e-06 -1.0673803886060242e-05 0.16721014989081823 -3.1989135331523582e-06 -0.1651098676896301 0.16910132411563514 -4.9552095176507696e-06 -1.2941056686091819e-05 0.20771734248961898 -1.9817560471536964e-06 -0.14022949506539703 0.19477145644765018 -2.7685236489091506e-06 -1.3079225553507579e-05 0.20767974493673397 -3.4000137376878011e-06 -1.0673803886060242e-05 0.20771734248961898 -1.9817560471536964e-06 -0.14022949506539703 0.16910132411563514 -4.9552095176507696e-06 -1.2941056686097492e-05 0.19477145644765018 -2.7685236489091506e-06 -1.3079225553507579e-05 0.16721014989081823 -3.1989135331523582e-06 -0.1651098676896301 0.16772776087233962 -1.4595102506877453e-06 -0.30027171118245322 0.16910132411563511 -4.9552095176507696e-06 -1.2941056686069274e-05 0.12221019022227422 -2.4546993364854309e-06 -0.21604702619643604 0.16721014989081823 -3.1989135331523582e-06 -0.1651098676896301 0.20771734248961898 -1.9817560471536964e-06 -0.14022949506539703 0.16910132411563514 -4.9552095176507696e-06 -1.2941056686087346e-05 0.16772776087233954 -1.4595102506877449e-06 -0.30027171118245322 0.16910132411563514 -4.9552095176507696e-06 -1.2941056686091819e-05 0.16721014989081823 -3.1989135331523578e-06 -0.16510986768963007 0.14636473066448497 -2.6200933996413937e-06 -1.4776228137852458e-05 0.19477145644765018 -2.7685236489091506e-06 -1.3079225553507579e-05 0.12058877145761722 -2.6459572862764711e-06 -0.12663489864813812 0.097714962896990332 -2.8660457633350289e-06 -1.7615772791535916e-05 0.12442350243948062 1.2536057599533555e-06 -1.2741630168683071e-05 0.14636473066448497 -2.6200933996413937e-06 -1.4776228137852458e-05 0.12442350243948062 1.2536057599533555e-06 -1.2741630168683071e-05 0.16910132411563514 -4.9552095176507696e-06 -1.2941056686091819e-05 0.16721014989081823 -3.1989135331523582e-06 -0.1651098676896301 0.14636473066448497 -2.6200933996413937e-06 -1.4776228137852458e-05 0.16721014989081823 -3.1989135331523582e-06 -0.1651098676896301 0.12058877145761722 -2.6459572862764711e-06 -0.12663489864813812 0.12442350243948062 1.2536057599533555e-06 -1.2741630168683071e-05 0.14636473066448497 -2.6200933996413937e-06 -1.4776228137852458e-05 0.11647653694776897 -3.2403208474223192e-06 -0.30361609514854143 0.16721014989081823 -3.1989135331523582e-06 -0.16510986768963012 0.12058877145761722 -2.6459572862764711e-06 -0.12663489864813812 0.12221019022227424 -2.45469933648543e-06 -0.21604702619643606 0.12058877145761722 -2.6459572862764711e-06 -0.12663489864813812 0.16721014989081823 -3.1989135331523582e-06 -0.1651098676896301 0.12442350243948062 1.2536057599533555e-06 -1.2741630168683071e-05 0.12221019022227424 -2.45469933648543e-06 -0.21604702619643606 0.12442350243948062 1.2536057599533555e-06 -1.2741630168683071e-05 0.16721014989081825 -3.1989135331523574e-06 -0.16510986768963007 0.16910132411563514 -4.9552095176507696e-06 -1.2941056686091819e-05 0.12221019022227424 -2.4546993364854309e-06 -0.21604702619643609 0.1489110522300468 -4.69389501034055e-06 -1.2077964634368599e-05 0.12442350243948062 1.2536057599533555e-06 -1.2741630168683071e-05 0.16910132411563514 -4.9552095176507696e-06 -1.2941056686091819e-05 0.12221019022227424 -2.45469933648543e-06 -0.21604702619643606 0.1489110522300468 -4.69389501034055e-06 -1.2077964634368599e-05 0.16772776087233954 -1.4595102506877464e-06 -0.3002717111824531 0.1967928574257945 -2.8890110277811377e-06 -1.5109535464916329e-05 0.18929162748042352 3.5864111206981828e-07 -0.20850253495777277 0.1489110522300468 -4.69389501034055e-06 -1.2077964634368599e-05 0.16910132411563514 -4.9552095176507696e-06 -1.2941056686091819e-05 0.16772776087233957 -1.4595102506877462e-06 -0.30027171118245316 0.12221019022227424 -2.45469933648543e-06 -0.21604702619643606 0.1967928574257945 -2.8890110277811377e-06 -1.5109535464916329e-05 0.1489110522300468 -4.69389501034055e-06 -1.2077964634379187e-05 0.16910132411563514 -4.9552095176507696e-06 -1.2941056686091819e-05 0.16772776087233954 -1.4595102506877462e-06 -0.3002717111824531 0.1489110522300468 -4.69389501034055e-06 -1.2077964634368599e-05 0.11187943209096912 1.7211001728109571e-06 -1.1001171137405435e-05 0.12442350243948062 1.2536057599533553e-06 -1.2741630168675724e-05 0.12221019022227424 -2.45469933648543e-06 -0.21604702619643606 0.11187943209096912 1.7211001728109571e-06 -1.1001171137405435e-05 0.1489110522300468 -4.69389501034055e-06 -1.2077964634368599e-05 0.12220614637243664 -2.9527123004041076e-07 -0.23879404287940098 0.12221019022227424 -2.45469933648543e-06 -0.21604702619643606 0.18929162748042352 3.5864111206981828e-07 -0.20850253495777277 0.1489110522300468 -4.69389501034055e-06 -1.2077964634377123e-05 0.12220614637243662 -2.9527123004041066e-07 -0.23879404287940095 0.16411287851126652 -2.4965686751545e-06 -1.1069510980649224e-05 0.16772776087233957 -1.4595102506877459e-06 -0.30027171118245316 0.12220614637243664 -2.9527123004041076e-07 -0.23879404287940098 0.14891105223004678 -4.6938950103405491e-06 -1.2077964634386285e-05 0.12221019022227425 -2.45469933648543e-06 -0.21604702619643606 0.18929162748042352 3.5864111206981828e-07 -0.20850253495777277 0.12220614637243664 -2.9527123004041076e-07 -0.23879404287940098 0.1489110522300468 -4.69389501034055e-06 -1.2077964634359923e-05 0.16772776087233957 -1.4595102506877457e-06 -0.30027171118245316 0.12685112957736705 -6.358777069326479e-07 -1.405409221662965e-05 0.1489110522300468 -4.69389501034055e-06 -1.2077964634366937e-05 0.16411287851126652 -2.4965686751545e-06 -1.1069510980650886e-05 0.12220614637243664 -2.9527123004041076e-07 -0.23879404287940098 0.11187943209096912 1.7211001728109571e-06 -1.1001171137405435e-05 0.1489110522300468 -4.69389501034055e-06 -1.2077964634368599e-05 0.12685112957736705 -6.358777069326479e-07 -1.405409221662965e-05 0.12220614637243664 -2.9527123004041076e-07 -0.23879404287940098 0.1489110522300468 -4.69389501034055e-06 -1.2077964634368599e-05 0.1967928574257945 -2.8890110277811377e-06 -1.5109535464916329e-05 0.16411287851126655 -2.4965686751545e-06 -1.1069510980667745e-05 0.18929162748042352 3.5864111206981828e-07 -0.20850253495777277 0.16772776087233957 -1.4595102506877459e-06 -0.30027171118245316 0.18301636724011058 -1.3384867633051476e-06 -0.47718835516203839 0.12221822505955419 9.1906251713546502e-07 -0.47828831495798835 0.12242043575741759 -2.3007835077827911e-06 -0.50589563864765963 0.18301636724011058 -1.3384867633051474e-06 -0.47718835516203839 0.12242043575741758 -2.3007835077827919e-06 -0.50589563864765963 0.16772776087233957 -1.459510250687744e-06 -0.3002717111824531 0.19004996322845419 4.8993770406319829e-06 -0.47892925638768102 0.12221822505955418 9.1906251713546587e-07 -0.47828831495798829 0.18301636724011058 -1.3384867633051474e-06 -0.47718835516203839 0.16772776087233957 -1.4595102506877459e-06 -0.3002717111824531 0.12220614637243662 -2.9527123004041113e-07 -0.2387940428794009 0.16772776087233957 -1.4595102506877459e-06 -0.30027171118245316 0.12220614637243664 -2.9527123004041097e-07 -0.23879404287940098 0.18301636724011058 -1.3384867633051474e-06 -0.47718835516203839 0.18929162748042352 3.5864111206981828e-07 -0.20850253495777277 0.12242043575741758 -2.3007835077827919e-06 -0.50589563864765963 0.1222061463724366 -2.9527123004041103e-07 -0.23879404287940098 0.16772776087233954 -1.4595102506877464e-06 -0.30027171118245316 0.12221019022227425 -2.4546993364854309e-06 -0.21604702619643606 0.12221822505955418 9.1906251713546587e-07 -0.47828831495798829 0.16772776087233954 -1.4595102506877459e-06 -0.30027171118245316 0.12242043575741758 -2.3007835077827919e-06 -0.50589563864765963 0.12220614637243662 -2.9527123004041134e-07 -0.2387940428794009 0.20221471120319359 -2.6346213205255551e-06 -0.28748471177746809 0.16772776087233957 -1.4595102506877459e-06 -0.30027171118245316 0.1630758344117591 -2.9106744952786457e-06 -0.36881780053557744 0.19004996322845419 4.8993770406319838e-06 -0.47892925638768108 0.16721014989081823 -3.1989135331523582e-06 -0.1651098676896301 0.1630758344117591 -2.9106744952786457e-06 -0.36881780053557744 0.20221471120319359 -2.6346213205255551e-06 -0.28748471177746809 0.16772776087233957 -1.4595102506877459e-06 -0.30027171118245316 0.1630758344117591 -2.9106744952786457e-06 -0.36881780053557744 0.11647653694776897 -3.2403208474223192e-06 -0.30361609514854143 0.12242043575741758 -2.3007835077827923e-06 -0.50589563864765952 0.12221019022227424 -2.45469933648543e-06 -0.21604702619643615 0.16833643767660955 -2.2418753818517781e-06 -0.51864292373239729 0.1630758344117591 -2.9106744952786457e-06 -0.36881780053557744 0.12242043575741759 -2.3007835077827919e-06 -0.50589563864765963 0.19004996322845419 4.8993770406319838e-06 -0.47892925638768102 0.16721014989081823 -3.1989135331523582e-06 -0.1651098676896301 0.1630758344117591 -2.9106744952786457e-06 -0.36881780053557744 0.16772776087233957 -1.4595102506877459e-06 -0.3002717111824531 0.12221019022227421 -2.4546993364854305e-06 -0.21604702619643604 0.1630758344117591 -2.9106744952786457e-06 -0.36881780053557744 0.12242043575741758 -2.3007835077827919e-06 -0.50589563864765963 0.16772776087233962 -1.4595102506877455e-06 -0.30027171118245316 0.12221019022227425 -2.4546993364854296e-06 -0.21604702619643612 0.16772776087233957 -1.4595102506877459e-06 -0.30027171118245316 0.12242043575741758 -2.3007835077827915e-06 -0.50589563864765952 0.1630758344117591 -2.9106744952786457e-06 -0.36881780053557744 0.19004996322845419 4.8993770406319838e-06 -0.47892925638768108 0.16721014989081823 -3.1989135331523582e-06 -0.1651098676896301 0.11647653694776897 -3.2403208474223192e-06 -0.30361609514854143 0.1630758344117591 -2.9106744952786457e-06 -0.36881780053557744 0.12221019022227426 -2.45469933648543e-06 -0.21604702619643609 0.12217721222838319 -2.8004661067559263e-06 -0.45952198421440549 0.1630758344117591 -2.9106744952786457e-06 -0.36881780053557744 0.11647653694776897 -3.2403208474223192e-06 -0.30361609514854143 0.12242043575741758 -2.3007835077827919e-06 -0.50589563864765963 0.12217721222838319 -2.8004661067559263e-06 -0.45952198421440549 0.16833643767660955 -2.2418753818517781e-06 -0.51864292373239729 0.1630758344117591 -2.9106744952786457e-06 -0.36881780053557744 0.12242043575741758 -2.3007835077827919e-06 -0.50589563864765963 0.1630758344117591 -2.9106744952786457e-06 -0.36881780053557744 0.16833643767660955 -2.2418753818517785e-06 -0.51864292373239729 0.20348938888284204 -2.6286963782770062e-06 -0.46960736845228668 0.19004996322845419 4.8993770406319838e-06 -0.47892925638768108 0.24295300441191894 1.2386302607061152e-05 -0.30290147733386574 0.16772776087233957 -1.4595102506877459e-06 -0.30027171118245316 0.20221471120319359 -2.6346213205255556e-06 -0.28748471177746809 0.19004996322845419 4.8993770406319838e-06 -0.47892925638768108 0.24295300441191894 1.2386302607061152e-05 -0.30290147733386574 0.24291422459484954 1.074716225963328e-05 -0.14030997047204699 0.20221471120319359 -2.6346213205255551e-06 -0.28748471177746809 0.16772776087233957 -1.4595102506877459e-06 -0.30027171118245316 0.20348938888284204 -2.6286963782770062e-06 -0.46960736845228668 0.20221471120319359 -2.6346213205255551e-06 -0.28748471177746809 0.1630758344117591 -2.9106744952786457e-06 -0.36881780053557744 0.19004996322845416 4.8993770406319829e-06 -0.47892925638768102 0.20348938888284204 -2.6286963782770062e-06 -0.46960736845228668 0.24295300441191894 1.2386302607061153e-05 -0.30290147733386574 0.20221471120319359 -2.6346213205255551e-06 -0.28748471177746809 0.19004996322845422 4.8993770406319846e-06 -0.47892925638768108 0.20221471120319359 -2.6346213205255551e-06 -0.28748471177746809 0.20348938888284204 -2.628696378277004e-06 -0.46960736845228673 0.24296369818236857 -3.1362869703541067e-06 -0.38327063112528187 0.24295300441191894 1.2386302607061152e-05 -0.30290147733386574 0.20348938888284204 -2.6286963782770062e-06 -0.46960736845228668 0.24309240607207921 3.3208406213691352e-06 -0.48842426525091964 0.2431864579943078 -3.4854641463376804e-06 -0.57500254173091281 0.2429636981823686 -3.136286970354105e-06 -0.38327063112528187 0.2429636981823686 -3.136286970354105e-06 -0.38327063112528187 0.20348938888284204 -2.6286963782770057e-06 -0.46960736845228668 0.24309240607207921 3.3208406213691356e-06 -0.48842426525091964 0.24295300441191894 1.2386302607061152e-05 -0.30290147733386574 0.24295300441191894 1.2386302607061152e-05 -0.30290147733386574 0.2429636981823686 -3.1362869703541037e-06 -0.38327063112528187 0.20221471120319359 -2.6346213205255551e-06 -0.28748471177746809 0.24286966698427356 -2.6660851683557536e-06 -0.19161707492592053 0.24307182525353857 -4.5164099096473093e-06 -0.43901405358971451 0.24295300441191894 1.2386302607061152e-05 -0.30290147733386574 0.24309240607207921 3.3208406213691335e-06 -0.48842426525091964 0.19004996322845419 4.8993770406319838e-06 -0.47892925638768108 0.20348938888284204 -2.6286963782770062e-06 -0.46960736845228668 0.24309240607207924 3.3208406213691314e-06 -0.48842426525091975 0.24295300441191894 1.2386302607061152e-05 -0.30290147733386574 0.19004996322845416 4.8993770406319855e-06 -0.47892925638768097 0.2429625187703906 3.3458863597601733e-06 -0.31549717428162988 0.16772776087233954 -1.4595102506877462e-06 -0.30027171118245322 0.18301636724011058 -1.3384867633051463e-06 -0.47718835516203834 0.18929162748042352 3.5864111206981828e-07 -0.20850253495777277 0.2429625187703906 3.3458863597601733e-06 -0.31549717428162988 0.24295300441191894 1.2386302607061152e-05 -0.30290147733386574 0.24307182525353857 -4.5164099096473093e-06 -0.43901405358971451 0.16772776087233957 -1.4595102506877459e-06 -0.30027171118245316 0.24307182525353857 -4.5164099096473093e-06 -0.43901405358971451 0.18301636724011056 -1.3384867633051429e-06 -0.4771883551620385 0.16772776087233954 -1.4595102506877479e-06 -0.3002717111824531 0.19004996322845419 4.8993770406319855e-06 -0.47892925638768108 0.24289304271097892 1.2659070184518713e-07 -0.16221876178835656 0.24295300441191892 1.2386302607061152e-05 -0.30290147733386574 0.2429625187703906 3.3458863597601733e-06 -0.31549717428162988 0.16772776087233957 -1.4595102506877459e-06 -0.30027171118245316 0.24307182525353857 -4.5164099096473093e-06 -0.43901405358971451 0.16772776087233957 -1.4595102506877489e-06 -0.30027171118245316 0.24295300441191894 1.2386302607061152e-05 -0.30290147733386574 0.19004996322845424 4.8993770406319863e-06 -0.47892925638768113 0.24289304271097892 1.2659070184518713e-07 -0.16221876178835656 0.16772776087233957 -1.4595102506877464e-06 -0.3002717111824531 0.2429625187703906 3.3458863597601733e-06 -0.31549717428162988 0.18929162748042352 3.5864111206981833e-07 -0.20850253495777271 0.2429625187703906 3.3458863597601733e-06 -0.31549717428162988 0.16772776087233957 -1.4595102506877455e-06 -0.30027171118245316 0.24307182525353857 -4.5164099096473093e-06 -0.43901405358971451 0.18301636724011061 -1.3384867633051474e-06 -0.47718835516203834 0.24296043994349462 1.0449822671294449e-06 -0.31089920009446198 0.24286080021414161 3.2969377634445804e-07 -0.16504418862539824 0.2429625187703906 3.3458863597601733e-06 -0.31549717428162988 0.18929162748042352 3.5864111206981828e-07 -0.20850253495777277 0.2429625187703906 3.3458863597601733e-06 -0.31549717428162988 0.24307182525353857 -4.5164099096473093e-06 -0.43901405358971451 0.24307114624820556 5.3600364225095679e-06 -0.49794235614186799 0.18301636724011064 -1.3384867633051442e-06 -0.47718835516203845 0.24325365769799731 -3.9005525569136246e-07 -0.57457726248932861 0.18301636724011058 -1.3384867633051474e-06 -0.47718835516203839 0.16798181091234937 6.9086050510304252e-07 -0.65807259456675471 0.19064639453179452 -2.8606206862832669e-06 -0.74720618352839585 0.24325365769799731 -3.9005525569136246e-07 -0.57457726248932861 0.24350215998173985 -9.4427418417612081e-06 -0.69702917816778442 0.16798181091234937 6.9086050510304686e-07 -0.65807259456675471 0.19937679451463108 -3.4384736192784662e-06 -0.78161162959908348 0.24325365769799731 -3.9005525569136246e-07 -0.57457726248932861 0.24332600978520613 4.0823674561055833e-06 -0.64518802772029549 0.24307114624820556 5.3600364225095679e-06 -0.49794235614186799 0.18301636724011058 -1.3384867633051474e-06 -0.47718835516203839 0.24325365769799731 -3.9005525569136246e-07 -0.57457726248932861 0.18301636724011058 -1.3384867633051467e-06 -0.47718835516203839 0.24307182525353857 -4.5164099096473093e-06 -0.43901405358971451 0.19004996322845416 4.8993770406319838e-06 -0.47892925638768102 0.16798181091234937 6.9086050510304252e-07 -0.65807259456675471 0.19004996322845416 4.8993770406319829e-06 -0.47892925638768108 0.24325365769799731 -3.9005525569136193e-07 -0.57457726248932861 0.19937679451463108 -3.4384736192784713e-06 -0.78161162959908359 0.24325365769799731 -3.9005525569136246e-07 -0.57457726248932861 0.16798181091234937 6.9086050510304252e-07 -0.65807259456675471 0.18301636724011058 -1.3384867633051463e-06 -0.47718835516203845 0.19004996322845416 4.8993770406319838e-06 -0.47892925638768102 0.24332600978520613 4.0823674561055833e-06 -0.64518802772029549 0.18301636724011056 -1.3384867633051484e-06 -0.47718835516203839 0.24325365769799731 -3.9005525569136246e-07 -0.57457726248932861 0.19064639453179449 -2.8606206862832674e-06 -0.74720618352839585 0.24350215998173985 -9.4427418417612081e-06 -0.69702917816778442 0.24325365769799731 -3.9005525569136246e-07 -0.57457726248932861 0.16798181091234934 6.9086050510303458e-07 -0.65807259456675471 0.19064639453179452 -2.8606206862832572e-06 -0.74720618352839574 0.24325365769799731 -3.9005525569136246e-07 -0.57457726248932861 0.24307114624820556 5.3600364225095679e-06 -0.49794235614186799 0.24307182525353857 -4.5164099096473093e-06 -0.43901405358971451 0.18301636724011058 -1.3384867633051474e-06 -0.47718835516203839 0.24350215998173985 -9.4427418417612081e-06 -0.69702917816778442 0.24332600978520616 4.0823674561055824e-06 -0.64518802772029549 0.24325365769799731 -3.9005525569136246e-07 -0.57457726248932861 0.19064639453179452 -2.8606206862832669e-06 -0.74720618352839585 0.24325365769799731 -3.9005525569136246e-07 -0.57457726248932861 0.24342899838479437 8.0825767211022895e-06 -0.67632151991797118 0.24350215998173985 -9.4427418417612081e-06 -0.69702917816778442 0.19937679451463108 -3.4384736192784713e-06 -0.78161162959908359 0.24325365769799731 -3.9005525569136246e-07 -0.57457726248932861 0.24307182525353857 -4.5164099096473093e-06 -0.43901405358971451 0.24309240607207921 3.3208406213691335e-06 -0.48842426525091964 0.19004996322845419 4.8993770406319838e-06 -0.47892925638768108 0.24309240607207921 3.3208406213691335e-06 -0.48842426525091964 0.19880457468615767 -2.8404234954864012e-06 -0.66008581053380355 0.24342899838479437 8.0825767211022895e-06 -0.67632151991797118 0.19004996322845419 4.8993770406319863e-06 -0.47892925638768108 0.19880457468615767 -2.8404234954863999e-06 -0.66008581053380355 0.19004996322845413 4.8993770406319838e-06 -0.47892925638768102 0.1679818109123494 6.9086050510304454e-07 -0.6580725945667546 0.19937679451463108 -3.4384736192784713e-06 -0.78161162959908359 0.19880457468615767 -2.8404234954863999e-06 -0.66008581053380355 0.24342899838479437 8.0825767211022895e-06 -0.67632151991797129 0.19004996322845419 4.8993770406319821e-06 -0.47892925638768108 0.19937679451463108 -3.4384736192784713e-06 -0.78161162959908359 0.24342899838479437 8.0825767211022895e-06 -0.67632151991797118 0.24325365769799731 -3.9005525569136219e-07 -0.57457726248932861 0.19004996322845419 4.8993770406319838e-06 -0.47892925638768108 0.19937679451463108 -3.4384736192784713e-06 -0.78161162959908359 0.24309240607207921 3.3208406213691335e-06 -0.48842426525091964 0.24342899838479437 8.0825767211022895e-06 -0.67632151991797118 0.24325365769799731 -3.9005525569136246e-07 -0.57457726248932861 0.19004996322845419 4.8993770406319838e-06 -0.47892925638768108 0.24342899838479437 8.0825767211022895e-06 -0.67632151991797118 0.19880457468615767 -2.8404234954863999e-06 -0.66008581053380355 0.2431864579943078 -3.4854641463376804e-06 -0.57500254173091281 0.24359068770684686 -2.8468419120068571e-06 -0.7668125151976285 0.19880457468615767 -2.8404234954863999e-06 -0.66008581053380355 0.2431864579943078 -3.4854641463376804e-06 -0.57500254173091281 0.24309240607207921 3.3208406213691335e-06 -0.48842426525091964 0.24342899838479437 8.0825767211022895e-06 -0.67632151991797118 0.24309240607207921 3.3208406213691335e-06 -0.48842426525091964 0.24318645799430783 -3.4854641463376799e-06 -0.57500254173091281 0.19880457468615767 -2.8404234954863999e-06 -0.66008581053380355 0.20348938888284199 -2.6286963782770066e-06 -0.46960736845228657 0.19880457468615767 -2.8404234954863999e-06 -0.66008581053380355 0.20348938888284204 -2.6286963782770062e-06 -0.46960736845228668 0.16833643767660955 -2.2418753818517781e-06 -0.51864292373239729 0.19004996322845419 4.8993770406319838e-06 -0.47892925638768108 0.19880457468615767 -2.8404234954863999e-06 -0.66008581053380355 0.24309240607207921 3.3208406213691335e-06 -0.48842426525091964 0.20348938888284204 -2.6286963782770062e-06 -0.46960736845228668 0.19004996322845419 4.8993770406319838e-06 -0.47892925638768108 0.16833643767660955 -2.2418753818517781e-06 -0.51864292373239729 0.14679213058410739 -3.2391726699569902e-06 -0.64642381030546348 0.16798181091234937 6.9086050510304316e-07 -0.65807259456675471 0.12242043575741761 -2.3007835077827911e-06 -0.50589563864765963 0.14679213058410739 -3.2391726699569902e-06 -0.64642381030546348 0.19880457468615767 -2.8404234954863999e-06 -0.66008581053380355 0.16833643767660955 -2.2418753818517781e-06 -0.51864292373239729 0.16798181091234937 6.9086050510304252e-07 -0.65807259456675471 0.19880457468615767 -2.8404234954863999e-06 -0.66008581053380355 0.16833643767660955 -2.2418753818517781e-06 -0.51864292373239729 0.1679818109123494 6.9086050510304686e-07 -0.65807259456675471 0.19004996322845419 4.8993770406319821e-06 -0.47892925638768108 0.17000296032260478 -2.6302363894953576e-06 -0.80515671976103831 0.16798181091234937 6.9086050510304549e-07 -0.6580725945667546 0.14679213058410739 -3.2391726699569898e-06 -0.64642381030546359 0.12278618867875842 -8.8976900492229553e-06 -0.74692351551971581 0.16798181091234937 6.9086050510304252e-07 -0.65807259456675471 0.16833643767660955 -2.241875381851781e-06 -0.5186429237323974 0.12242043575741755 -2.3007835077827923e-06 -0.50589563864765952 0.19004996322845419 4.8993770406319838e-06 -0.47892925638768108 0.16798181091234937 6.9086050510304252e-07 -0.65807259456675471 0.12242043575741757 -2.3007835077827923e-06 -0.50589563864765963 0.14679213058410739 -3.2391726699569919e-06 -0.64642381030546348 0.12278618867875842 -8.8976900492229553e-06 -0.74692351551971581 0.14679213058410739 -3.2391726699569902e-06 -0.64642381030546348 0.19880457468615767 -2.8404234954863999e-06 -0.66008581053380355 0.16798181091234937 6.9086050510304252e-07 -0.65807259456675471 0.19937679451463108 -3.4384736192784713e-06 -0.78161162959908359 0.16833643767660955 -2.2418753818517781e-06 -0.51864292373239729 0.12217721222838319 -2.8004661067559263e-06 -0.45952198421440549 0.14679213058410739 -3.2391726699569902e-06 -0.64642381030546348 0.12242043575741758 -2.3007835077827923e-06 -0.50589563864765963 0.12221822505955418 9.1906251713546587e-07 -0.47828831495798829 0.16798181091234937 6.908605051030421e-07 -0.6580725945667546 0.1220553762155179 1.257426284967612e-06 -0.71786685287206031 0.12242043575741758 -2.3007835077827919e-06 -0.50589563864765963 0.16798181091234937 6.9086050510304252e-07 -0.65807259456675471 0.12221822505955418 9.1906251713546449e-07 -0.47828831495798829 0.18301636724011056 -1.3384867633051488e-06 -0.47718835516203834 0.12242043575741755 -2.3007835077827961e-06 -0.50589563864765941 0.16798181091234937 6.9086050510304252e-07 -0.65807259456675471 0.18301636724011056 -1.3384867633051478e-06 -0.47718835516203839 0.12221822505955418 9.1906251713546587e-07 -0.47828831495798829 0.12205537621551794 1.257426284967612e-06 -0.71786685287206031 0.18301636724011058 -1.3384867633051474e-06 -0.47718835516203839 0.12205537621551793 1.257426284967612e-06 -0.7178668528720602 0.16798181091234937 6.9086050510304252e-07 -0.65807259456675471 0.19064639453179452 -2.8606206862832669e-06 -0.74720618352839585 0.12205537621551792 1.2574262849676124e-06 -0.7178668528720602 0.12242043575741758 -2.3007835077827919e-06 -0.50589563864765963 0.16798181091234937 6.9086050510304252e-07 -0.65807259456675471 0.12278618867875842 -8.8976900492229553e-06 -0.74692351551971581 0.16798181091234937 6.9086050510304252e-07 -0.65807259456675471 0.12242043575741757 -2.3007835077827928e-06 -0.50589563864765963 0.18301636724011061 -1.3384867633051469e-06 -0.47718835516203839 0.19004996322845419 4.8993770406319838e-06 -0.47892925638768108 0.11284481147784416 9.3856168002240643e-06 -0.95640302047662284 0.12205537621551792 1.2574262849676124e-06 -0.7178668528720602 0.14740857020569101 -7.5085015226724069e-07 -0.95701521741080198 0.12278618867875842 -8.8976900492229553e-06 -0.74692351551971581 0.14740857020569101 -7.5085015226724069e-07 -0.95701521741080198 0.16798181091234937 6.9086050510304475e-07 -0.65807259456675471 0.17842389402833952 -2.4230815422198852e-07 -0.95754791494627811 0.19937679451463108 -3.4384736192784713e-06 -0.78161162959908359 0.14740857020569101 -7.5085015226724069e-07 -0.95701521741080198 0.16798181091234937 6.9086050510304252e-07 -0.65807259456675471 0.12205537621551793 1.257426284967612e-06 -0.71786685287206009 0.19064639453179452 -2.8606206862832669e-06 -0.74720618352839585 0.14740857020569101 -7.5085015226724069e-07 -0.95701521741080198 0.12278618867875842 -8.8976900492229553e-06 -0.74692351551971581 0.16798181091234937 6.9086050510303882e-07 -0.65807259456675471 0.19937679451463108 -3.4384736192784713e-06 -0.78161162959908359 0.14740857020569101 -7.5085015226724069e-07 -0.95701521741080198 0.12205537621551794 1.2574262849676164e-06 -0.7178668528720602 0.16798181091234937 6.9086050510304464e-07 -0.65807259456675471 0.1227861886787584 -8.8976900492229553e-06 -0.74692351551971581 0.14740857020569101 -7.5085015226724069e-07 -0.95701521741080198 0.17842389402833952 -2.4230815422198746e-07 -0.95754791494627811 0.16798181091234937 6.9086050510304252e-07 -0.65807259456675471 0.19064639453179452 -2.8606206862832669e-06 -0.74720618352839585 0.14740857020569101 -7.5085015226724069e-07 -0.95701521741080198 0.12205537621551794 1.2574262849676116e-06 -0.7178668528720602 0.1653497644438584 8.1838197005869398e-07 -0.95729330169262961 0.19064639453179452 -2.8606206862832669e-06 -0.74720618352839585 0.17321756283402515 -1.7159165701109077e-05 -0.95743882370506983 0.14740857020569101 -7.5085015226724069e-07 -0.95701521741080198 0.17842389402833952 -2.4230815422198878e-07 -0.95754791494627811 0.19937679451463111 -3.4384736192784683e-06 -0.78161162959908359 0.14740857020569101 -7.5085015226724069e-07 -0.95701521741080198 0.16534976444385843 8.1838197005869367e-07 -0.95729330169262972 0.17842389402833952 -2.4230815422198878e-07 -0.95754791494627811 0.19064639453179452 -2.8606206862832669e-06 -0.74720618352839585 0.11284481147784416 9.3856168002240643e-06 -0.95640302047662284 0.12795145656089832 3.5790147376945936e-06 -0.95667121210039596 0.14740857020569101 -7.5085015226724048e-07 -0.95701521741080198 0.12205537621551792 1.2574262849676124e-06 -0.7178668528720602 0.16534976444385843 8.1838197005869367e-07 -0.95729330169262972 0.14740857020569098 -7.5085015226723974e-07 -0.95701521741080198 0.12795145656089835 3.5790147376945924e-06 -0.95667121210039596 0.12205537621551792 1.2574262849676124e-06 -0.7178668528720602 0.14740857020569101 -7.5085015226724069e-07 -0.95701521741080198 0.12549056021446825 4.9669490498603705e-06 -0.95663111429231329 0.11284481147784416 9.3856168002240643e-06 -0.95640302047662284 0.12278618867875842 -8.8976900492229553e-06 -0.74692351551971581 0.12549056021446825 4.9669490498603697e-06 -0.95663111429231329 0.17321756283402515 -1.7159165701109077e-05 -0.95743882370506983 0.17000296032260478 -2.6302363894953588e-06 -0.80515671976103831 0.1227861886787584 -8.897690049222952e-06 -0.7469235155197157 0.16798181091234937 6.9086050510304252e-07 -0.65807259456675471 0.12278618867875842 -8.8976900492229553e-06 -0.74692351551971581 0.17000296032260478 -2.6302363894953576e-06 -0.80515671976103831 0.19937679451463108 -3.4384736192784713e-06 -0.78161162959908359 0.17321756283402515 -1.7159165701109077e-05 -0.95743882370506983 0.17000296032260478 -2.6302363894953588e-06 -0.80515671976103831 0.12278618867875843 -8.8976900492229553e-06 -0.74692351551971581 0.19937679451463108 -3.4384736192784679e-06 -0.78161162959908359 0.17321756283402515 -1.7159165701109077e-05 -0.95743882370506983 0.12278618867875843 -8.8976900492229536e-06 -0.74692351551971581 0.14740857020569101 -7.5085015226724069e-07 -0.95701521741080198 0.19937679451463108 -3.4384736192784658e-06 -0.78161162959908359 0.17321756283402515 -1.7159165701109077e-05 -0.95743882370506983 0.12549056021446825 4.9669490498603697e-06 -0.95663111429231329 0.14740857020569101 -7.5085015226724069e-07 -0.95701521741080198 0.12278618867875843 -8.8976900492229503e-06 -0.74692351551971603 0.14679213058410739 -3.2391726699569902e-06 -0.64642381030546348 0.16798181091234932 6.908605051030547e-07 -0.65807259456675482 0.17000296032260478 -2.6302363894953576e-06 -0.80515671976103831 0.19937679451463108 -3.4384736192784713e-06 -0.78161162959908359 0.17000296032260478 -2.6302363894953576e-06 -0.80515671976103831 0.14679213058410739 -3.2391726699569906e-06 -0.64642381030546348 0.12222591809438518 -2.8994665942062636e-06 -0.79177858189168415 0.12278618867875842 -8.8976900492229553e-06 -0.74692351551971581 0.17000296032260478 -2.6302363894953576e-06 -0.80515671976103831 0.12222591809438518 -2.8994665942062636e-06 -0.79177858189168415 0.12549056021446825 4.9669490498603705e-06 -0.95663111429231329 0.12278618867875842 -8.8976900492229553e-06 -0.74692351551971581 0.14756125961344932 -3.1592108276020191e-06 -0.95698334320832645 0.12222591809438518 -2.8994665942062636e-06 -0.79177858189168415 0.12549056021446825 4.9669490498603697e-06 -0.95663111429231329 0.17000296032260478 -2.6302363894953576e-06 -0.80515671976103831 0.12549056021446825 4.9669490498603697e-06 -0.95663111429231329 0.098625903340818541 -3.3924248607223487e-06 -0.95617982979905292 0.12222591809438518 -2.8994665942062645e-06 -0.79177858189168415 0.14756125961344932 -3.1592108276020191e-06 -0.95698334320832645 0.12549056021446825 4.9669490498603697e-06 -0.95663111429231329 0.17321756283402515 -1.7159165701109077e-05 -0.95743882370506983 0.14756125961344932 -3.1592108276020174e-06 -0.95698334320832634 0.17000296032260478 -2.6302363894953576e-06 -0.80515671976103831 0.17321756283402515 -1.7159165701109077e-05 -0.95743882370506983 0.14756125961344932 -3.1592108276020195e-06 -0.95698334320832645 0.17000296032260478 -2.6302363894953576e-06 -0.80515671976103831 0.19612819828346523 -2.5547353481776069e-06 -0.95793565208143672 0.14679213058410739 -3.2391726699569902e-06 -0.64642381030546348 0.17000296032260481 -2.6302363894953576e-06 -0.80515671976103831 0.19880457468615767 -2.8404234954863999e-06 -0.66008581053380355 0.19937679451463108 -3.4384736192784713e-06 -0.78161162959908359 0.17321756283402515 -1.7159165701109077e-05 -0.95743882370506983 0.20903187095191167 -7.4362211454613831e-06 -0.95813320263074742 0.17000296032260478 -2.6302363894953555e-06 -0.8051567197610382 0.19937679451463111 -3.4384736192784709e-06 -0.78161162959908359 0.20903187095191167 -7.4362211454613822e-06 -0.95813320263074742 0.17321756283402515 -1.7159165701109077e-05 -0.95743882370506983 0.20855197419667024 -9.0774484114999697e-06 -0.95810867262334476 0.19937679451463108 -3.4384736192784713e-06 -0.78161162959908359 0.24342899838479437 8.0825767211022895e-06 -0.67632151991797118 0.1988045746861577 -2.8404234954864008e-06 -0.66008581053380366 0.20853452692320526 -2.1080729789289345e-06 -0.81779849903018853 0.19937679451463106 -3.4384736192784738e-06 -0.78161162959908359 0.17000296032260478 -2.6302363894953576e-06 -0.80515671976103831 0.20853452692320526 -2.1080729789289336e-06 -0.81779849903018853 0.19880457468615767 -2.8404234954863999e-06 -0.66008581053380355 0.19937679451463108 -3.4384736192784713e-06 -0.78161162959908359 0.20853452692320529 -2.1080729789289341e-06 -0.81779849903018853 0.17000296032260478 -2.6302363894953576e-06 -0.80515671976103831 0.20903187095191167 -7.4362211454613822e-06 -0.95813320263074742 0.19937679451463108 -3.4384736192784713e-06 -0.78161162959908359 0.19612819828346523 -2.5547353481776069e-06 -0.95793565208143672 0.17000296032260476 -2.6302363894953576e-06 -0.8051567197610382 0.17321756283402515 -1.7159165701109077e-05 -0.95743882370506983 0.20903187095191167 -7.4362211454613822e-06 -0.95813320263074742 0.19612819828346523 -2.5547353481776069e-06 -0.95793565208143672 0.20853452692320532 -2.1080729789289336e-06 -0.81779849903018864 0.17000296032260478 -2.630236389495358e-06 -0.80515671976103831 0.20903187095191167 -7.4362211454613822e-06 -0.95813320263074742 0.24425988870193741 -2.8777349132860146e-06 -0.95874199640918778 0.24377763765640351 6.3388624506709978e-06 -0.81822755423830773 0.20853452692320526 -2.1080729789289345e-06 -0.81779849903018853 0.20903187095191167 -7.4362211454613822e-06 -0.95813320263074742 0.19612819828346523 -2.5547353481776069e-06 -0.95793565208143672 0.24425988870193741 -2.8777349132860146e-06 -0.95874199640918778 0.20853452692320529 -2.1080729789289341e-06 -0.81779849903018853 0.20903187095191167 -7.4362211454613822e-06 -0.95813320263074742 0.20903187095191167 -7.4362211454613822e-06 -0.95813320263074742 0.24425988870193741 -2.8777349132860146e-06 -0.95874199640918778 0.24377763765640351 6.3388624506709978e-06 -0.81822755423830773 0.24424763757143 9.1651723633836709e-07 -0.95866899859657451 0.20853452692320529 -2.1080729789289341e-06 -0.81779849903018853 0.24377763765640351 6.3388624506709978e-06 -0.81822755423830773 0.24425988870193741 -2.8777349132860146e-06 -0.95874199640918778 0.24359068770684686 -2.8468419120068571e-06 -0.7668125151976285 0.20853452692320529 -2.1080729789289341e-06 -0.81779849903018853 0.19880457468615767 -2.8404234954863999e-06 -0.66008581053380355 0.24342899838479437 8.0825767211022878e-06 -0.67632151991797129 0.24359068770684686 -2.8468419120068571e-06 -0.7668125151976285 0.24342899838479437 8.0825767211022895e-06 -0.67632151991797118 0.24377763765640351 6.3388624506709978e-06 -0.81822755423830773 0.20853452692320529 -2.1080729789289341e-06 -0.81779849903018853 0.24359068770684686 -2.8468419120068571e-06 -0.7668125151976285 0.24377763765640351 6.3388624506709978e-06 -0.81822755423830773 0.24378040279285096 2.5718735792164617e-06 -0.81642168706636664 0.24342899838479437 8.0825767211022895e-06 -0.67632151991797118 0.19937679451463108 -3.4384736192784713e-06 -0.78161162959908359 0.24342899838479437 8.0825767211022895e-06 -0.67632151991797118 0.20853452692320529 -2.1080729789289341e-06 -0.81779849903018853 0.24377763765640351 6.3388624506709978e-06 -0.81822755423830773 0.19937679451463108 -3.4384736192784713e-06 -0.78161162959908359 0.20903187095191167 -7.4362211454613822e-06 -0.95813320263074742 0.20855197419667024 -9.0774484114999697e-06 -0.95810867262334465 0.24424763757143 9.1651723633836709e-07 -0.95866899859657451 0.19937679451463108 -3.4384736192784713e-06 -0.78161162959908359 0.24377763765640351 6.3388624506709978e-06 -0.81822755423830773 0.20903187095191164 -7.4362211454613848e-06 -0.95813320263074742 0.24424763757143 9.1651723633836709e-07 -0.95866899859657451 0.19937679451463108 -3.4384736192784713e-06 -0.78161162959908359 0.24377763765640351 6.3388624506709978e-06 -0.81822755423830773 0.24424763757143 9.1651723633836709e-07 -0.95866899859657451 0.24378040279285096 2.5718735792164617e-06 -0.81642168706636664 0.19937679451463108 -3.4384736192784713e-06 -0.78161162959908359 0.20853452692320529 -2.1080729789289341e-06 -0.81779849903018853 0.20903187095191167 -7.4362211454613822e-06 -0.95813320263074742 0.24377763765640351 6.3388624506709978e-06 -0.81822755423830773 0.19937679451463111 -3.4384736192784704e-06 -0.7816116295990837 0.24424763757143 9.1651723633836709e-07 -0.95866899859657451 0.24378040279285099 2.5718735792164608e-06 -0.81642168706636675 0.20855197419667024 -9.0774484114999697e-06 -0.95810867262334476 0.24422338277732053 5.2235431626205089e-06 -0.95868394900817067 0.24424763757143 9.1651723633836709e-07 -0.95866899859657451 0.20855197419667024 -9.0774484114999714e-06 -0.95810867262334476 0.24378040279285096 2.5718735792164617e-06 -0.81642168706636664 0.19937679451463106 -3.4384736192784709e-06 -0.78161162959908348 0.24378040279285096 2.5718735792164617e-06 -0.81642168706636664 0.20855197419667024 -9.0774484114999697e-06 -0.95810867262334476 0.19064639453179452 -2.8606206862832678e-06 -0.74720618352839585 0.19937679451463114 -3.43847361927847e-06 -0.7816116295990837 0.16798181091234937 6.9086050510304252e-07 -0.65807259456675471 0.19064639453179452 -2.8606206862832665e-06 -0.74720618352839585 0.17842389402833952 -2.4230815422198757e-07 -0.95754791494627822 0.19937679451463108 -3.4384736192784713e-06 -0.78161162959908359 0.24350215998173985 -9.4427418417612081e-06 -0.69702917816778442 0.24378040279285096 2.5718735792164617e-06 -0.81642168706636664 0.19064639453179452 -2.8606206862832627e-06 -0.74720618352839585 0.19937679451463106 -3.4384736192784738e-06 -0.78161162959908348 0.20855197419667024 -9.0774484114999697e-06 -0.95810867262334476 0.17842389402833952 -2.4230815422198878e-07 -0.95754791494627811 0.19064639453179452 -2.8606206862832669e-06 -0.74720618352839585 0.19937679451463106 -3.438473619278473e-06 -0.78161162959908348 0.24350215998173985 -9.4427418417612081e-06 -0.69702917816778442 0.19064639453179455 -2.860620686283269e-06 -0.74720618352839585 0.1679818109123494 6.9086050510304231e-07 -0.65807259456675471 0.19937679451463106 -3.43847361927847e-06 -0.7816116295990837 0.20855197419667024 -9.0774484114999697e-06 -0.95810867262334476 0.24378040279285096 2.5718735792164596e-06 -0.81642168706636675 0.24372689866066957 -2.4208808567769371e-08 -0.80703569260332497 0.24422338277732053 5.2235431626205089e-06 -0.95868394900817067 0.17842389402833952 -2.4230815422198878e-07 -0.95754791494627811 0.20855197419667021 -9.0774484114999697e-06 -0.95810867262334487 0.17321756283402515 -1.7159165701109077e-05 -0.95743882370506983 0.19937679451463108 -3.4384736192784713e-06 -0.78161162959908359 0.24342899838479437 8.0825767211022895e-06 -0.67632151991797118 0.24378040279285096 2.5718735792164617e-06 -0.81642168706636664 0.24350215998173985 -9.4427418417612081e-06 -0.69702917816778442 0.19937679451463108 -3.4384736192784713e-06 -0.78161162959908359 0.20855197419667024 -9.0774484114999697e-06 -0.95810867262334476 0.24372689866066954 -2.4208808567773166e-08 -0.80703569260332508 0.24378040279285096 2.5718735792164617e-06 -0.81642168706636664 0.19064639453179452 -2.8606206862832669e-06 -0.74720618352839585 0.24378040279285096 2.5718735792164617e-06 -0.81642168706636664 0.24372689866066957 -2.4208808567771734e-08 -0.80703569260332497 0.24350215998173985 -9.4427418417612081e-06 -0.69702917816778442 0.19064639453179452 -2.8606206862832669e-06 -0.74720618352839585 0.24350215998173985 -9.4427418417612081e-06 -0.69702917816778442 0.24372689866066957 -2.4208808567769944e-08 -0.80703569260332497 0.24332600978520613 4.0823674561055833e-06 -0.64518802772029549 0.19064639453179452 -2.8606206862832669e-06 -0.74720618352839585 0.17842389402833952 -2.4230815422198878e-07 -0.95754791494627811 0.16534976444385843 8.1838197005869367e-07 -0.95729330169262972 0.2062022870542467 2.1439831864661778e-07 -0.95809468129895947 0.19064639453179452 -2.8606206862832669e-06 -0.74720618352839585 0.2062022870542467 2.1439831864661791e-07 -0.95809468129895958 0.20855197419667024 -9.0774484114999697e-06 -0.95810867262334476 0.17842389402833952 -2.4230815422198884e-07 -0.95754791494627811 0.19064639453179452 -2.8606206862832669e-06 -0.74720618352839585 0.2062022870542467 2.1439831864661791e-07 -0.95809468129895958 0.24372689866066957 -2.4208808567769371e-08 -0.80703569260332497 0.20855197419667024 -9.0774484114999697e-06 -0.95810867262334476 0.19064639453179452 -2.8606206862832669e-06 -0.74720618352839585 0.24422338277732053 5.2235431626205089e-06 -0.95868394900817067 0.24372689866066957 -2.4208808567769371e-08 -0.80703569260332497 0.2062022870542467 2.1439831864661791e-07 -0.95809468129895958 0.24423727217940261 5.0692453570322076e-07 -0.95867766813444955 0.24372689866066957 -2.4208808567769371e-08 -0.80703569260332497 0.20620228705424673 2.1439831864661969e-07 -0.95809468129895958 0.20855197419667026 -9.0774484114999714e-06 -0.95810867262334476 0.24422338277732053 5.2235431626205089e-06 -0.95868394900817067 0.19806192069806883 5.4593081704451236e-06 -0.95788714516703 0.19064639453179455 -2.8606206862832487e-06 -0.74720618352839585 0.16776525215068469 -5.9318917911996959e-06 -0.65715760313308846 0.18989539416047121 6.8455544132414051e-06 -0.78211000645330642 0.19806192069806883 5.4593081704451236e-06 -0.95788714516703 0.24365483983688499 4.5783102744994221e-06 -0.7748623177004641 0.19064639453179452 -2.8606206862832669e-06 -0.74720618352839585 0.18989539416047121 6.8455544132414051e-06 -0.78211000645330642 0.24423727217940261 5.0692453570322076e-07 -0.95867766813444955 0.24372689866066957 -2.4208808567769371e-08 -0.80703569260332497 0.2062022870542467 2.1439831864661791e-07 -0.95809468129895958 0.24365483983688499 4.5783102744994221e-06 -0.7748623177004641 0.16776525215068472 -5.9318917911996765e-06 -0.65715760313308835 0.19064639453179452 -2.8606206862832661e-06 -0.74720618352839596 0.24365483983688499 4.5783102744994255e-06 -0.77486231770046421 0.18989539416047121 6.8455544132414093e-06 -0.78211000645330642 0.2062022870542467 2.1439831864661791e-07 -0.95809468129895958 0.24423727217940261 5.0692453570321991e-07 -0.95867766813444966 0.24365483983688499 4.5783102744994221e-06 -0.7748623177004641 0.19806192069806883 5.4593081704451236e-06 -0.95788714516703 0.24423727217940261 5.0692453570322076e-07 -0.95867766813444955 0.24365483983688499 4.5783102744994221e-06 -0.7748623177004641 0.19806192069806883 5.4593081704451236e-06 -0.95788714516703 0.2442429345533679 -4.7216189167958432e-07 -0.95868408150861839 0.2062022870542467 2.1439831864661791e-07 -0.95809468129895958 0.16534976444385843 8.1838197005869367e-07 -0.95729330169262972 0.19806192069806883 5.4593081704451236e-06 -0.95788714516703 0.19064639453179452 -2.8606206862832669e-06 -0.74720618352839585 0.2062022870542467 2.1439831864661791e-07 -0.95809468129895958 0.19806192069806883 5.4593081704451236e-06 -0.95788714516703 0.24365483983688499 4.5783102744994221e-06 -0.7748623177004641 0.19064639453179452 -2.8606206862832669e-06 -0.74720618352839585 0.24365483983688499 4.5783102744994221e-06 -0.7748623177004641 0.2433260097852061 4.0823674561055841e-06 -0.64518802772029538 0.24372689866066957 -2.4208808567769371e-08 -0.80703569260332497 0.19064639453179452 -2.8606206862832669e-06 -0.74720618352839585 0.24365483983688499 4.5783102744994221e-06 -0.7748623177004641 0.24372689866066957 -2.4208808567769371e-08 -0.80703569260332497 0.2062022870542467 2.1439831864661826e-07 -0.95809468129895958 0.19064639453179452 -2.8606206862832669e-06 -0.74720618352839585 0.24324363011131342 7.0163476032914175e-06 -0.58478412452593453 0.19064639453179452 -2.8606206862832678e-06 -0.74720618352839574 0.18301636724011058 -1.3384867633051471e-06 -0.47718835516203839 0.24332600978520613 4.0823674561055833e-06 -0.64518802772029549 0.24324363011131342 7.0163476032914175e-06 -0.58478412452593453 0.18301636724011058 -1.3384867633051459e-06 -0.47718835516203834 0.16776525215068469 -5.9318917911996756e-06 -0.65715760313308824 0.18859408824151058 5.3741327004024029e-06 -0.47713759591018851 0.24324363011131342 7.0163476032914175e-06 -0.58478412452593453 0.16776525215068475 -5.9318917911996731e-06 -0.65715760313308835 0.24342720632977785 -1.5575933308673403e-05 -0.66477535675336852 0.18859408824151061 5.3741327004024037e-06 -0.47713759591018851 0.24365483983688499 4.5783102744994221e-06 -0.7748623177004641 0.24324363011131342 7.01634760329142e-06 -0.58478412452593442 0.16776525215068472 -5.931891791199668e-06 -0.65715760313308835 0.18989539416047121 6.8455544132414051e-06 -0.78211000645330642 0.24324363011131342 7.0163476032914175e-06 -0.58478412452593453 0.24306330636277063 8.2070222327863004e-06 -0.43900923644539647 0.18301636724011058 -1.3384867633051474e-06 -0.47718835516203839 0.18859408824151058 5.374132700402402e-06 -0.47713759591018845 0.18301636724011058 -1.3384867633051474e-06 -0.47718835516203839 0.19064639453179449 -2.8606206862832674e-06 -0.74720618352839585 0.24324363011131345 7.0163476032914167e-06 -0.58478412452593453 0.16776525215068472 -5.9318917911996765e-06 -0.65715760313308835 0.24365483983688499 4.5783102744994221e-06 -0.7748623177004641 0.16776525215068472 -5.9318917911996765e-06 -0.65715760313308835 0.24324363011131345 7.0163476032914175e-06 -0.58478412452593465 0.19064639453179452 -2.8606206862832669e-06 -0.74720618352839585 0.24332600978520613 4.0823674561055833e-06 -0.64518802772029549 0.24365483983688499 4.5783102744994221e-06 -0.7748623177004641 0.24324363011131342 7.0163476032914175e-06 -0.58478412452593453 0.19064639453179452 -2.8606206862832682e-06 -0.74720618352839574 0.24324363011131342 7.0163476032914175e-06 -0.58478412452593453 0.24307114624820556 5.3600364225095679e-06 -0.49794235614186799 0.24332600978520613 4.0823674561055833e-06 -0.64518802772029549 0.18301636724011058 -1.3384867633051474e-06 -0.47718835516203839 0.24324363011131342 7.0163476032914175e-06 -0.58478412452593453 0.24306330636277063 8.2070222327863004e-06 -0.43900923644539647 0.24307114624820556 5.3600364225095679e-06 -0.49794235614186794 0.18301636724011058 -1.3384867633051474e-06 -0.47718835516203839 0.24324363011131342 7.0163476032914175e-06 -0.58478412452593453 0.24308844617832664 -9.1760992258432943e-06 -0.48685607670241704 0.24306330636277063 8.2070222327863004e-06 -0.43900923644539647 0.18859408824151061 5.3741327004024054e-06 -0.47713759591018856 0.24342720632977785 -1.5575933308673403e-05 -0.66477535675336852 0.18859408824151061 5.3741327004024037e-06 -0.47713759591018856 0.16776525215068475 -5.931891791199712e-06 -0.65715760313308835 0.18989539416047121 6.8455544132414051e-06 -0.78211000645330642 0.16776525215068472 -5.9318917911996765e-06 -0.65715760313308835 0.18859408824151061 5.3741327004023995e-06 -0.47713759591018856 0.19850689779729799 2.7828203102504647e-06 -0.65534218804203992 0.18989539416047124 6.8455544132414288e-06 -0.78211000645330653 0.24342720632977785 -1.5575933308673403e-05 -0.66477535675336852 0.16776525215068472 -5.9318917911997798e-06 -0.65715760313308813 0.24324363011131342 7.0163476032914175e-06 -0.58478412452593453 0.18989539416047121 6.8455544132414051e-06 -0.78211000645330642 0.24365483983688499 4.5783102744994221e-06 -0.7748623177004641 0.24342720632977785 -1.5575933308673403e-05 -0.66477535675336852 0.24324363011131342 7.0163476032914175e-06 -0.58478412452593453 0.18989539416047121 6.8455544132414051e-06 -0.78211000645330642 0.24342720632977785 -1.5575933308673403e-05 -0.66477535675336852 0.19850689779729799 2.7828203102504431e-06 -0.65534218804203981 0.18859408824151061 5.3741327004024037e-06 -0.47713759591018856 0.18989539416047121 6.8455544132414051e-06 -0.78211000645330642 0.24308844617832664 -9.1760992258432943e-06 -0.48685607670241704 0.24324363011131342 7.0163476032914175e-06 -0.58478412452593453 0.24342720632977785 -1.5575933308673403e-05 -0.66477535675336852 0.18859408824151061 5.3741327004024037e-06 -0.47713759591018856 0.24342720632977785 -1.5575933308673403e-05 -0.66477535675336852 0.21127438917526584 2.6077928611080607e-06 -0.48477394759153397 0.24308844617832664 -9.1760992258432943e-06 -0.48685607670241704 0.18859408824151061 5.3741327004024037e-06 -0.47713759591018856 0.24321058225150596 2.8129291517211822e-06 -0.57502847321052153 0.24308844617832664 -9.1760992258432943e-06 -0.48685607670241704 0.24342720632977785 -1.5575933308673403e-05 -0.66477535675336852 0.21127438917526586 2.607792861108059e-06 -0.48477394759153397 0.21127438917526586 2.607792861108059e-06 -0.48477394759153397 0.24321058225150596 2.8129291517211822e-06 -0.57502847321052153 0.24308844617832664 -9.1760992258432943e-06 -0.48685607670241704 0.24297210297416585 2.57456602977089e-06 -0.38327106532968314 0.24342720632977785 -1.5575933308673403e-05 -0.66477535675336852 0.19850689779729799 2.7828203102504397e-06 -0.65534218804203981 0.24321058225150596 2.8129291517211822e-06 -0.57502847321052153 0.21127438917526584 2.6077928611080544e-06 -0.4847739475915338 0.21127438917526586 2.607792861108059e-06 -0.48477394759153397 0.19850689779729799 2.7828203102504419e-06 -0.65534218804203981 0.16654320754521457 3.2424131234274805e-06 -0.50073394403682336 0.18859408824151061 5.3741327004024037e-06 -0.47713759591018856 0.19850689779729799 2.7828203102504423e-06 -0.65534218804203981 0.21127438917526586 2.607792861108059e-06 -0.48477394759153397 0.24342720632977785 -1.55759333086734e-05 -0.66477535675336852 0.18859408824151061 5.3741327004024037e-06 -0.47713759591018856 0.24342720632977785 -1.5575933308673403e-05 -0.66477535675336852 0.19850689779729799 2.7828203102504427e-06 -0.65534218804203992 0.24360660226514769 3.0645602967236383e-06 -0.76680334088766144 0.24321058225150596 2.8129291517211822e-06 -0.57502847321052153 0.24360660226514769 3.0645602967236383e-06 -0.76680334088766144 0.20854748262277695 2.0634784301548369e-06 -0.8177868276768816 0.19850689779729799 2.7828203102504423e-06 -0.65534218804203981 0.24342720632977785 -1.5575933308673403e-05 -0.66477535675336852 0.20854748262277698 2.0634784301548356e-06 -0.8177868276768816 0.24342720632977785 -1.55759333086734e-05 -0.66477535675336852 0.24377915485943683 -1.0849816366988472e-05 -0.81821576140512398 0.18989539416047121 6.8455544132414085e-06 -0.78211000645330653 0.20854748262277698 2.0634784301548356e-06 -0.8177868276768816 0.24360660226514769 3.0645602967236383e-06 -0.76680334088766144 0.24377915485943683 -1.0849816366988472e-05 -0.81821576140512386 0.24342720632977788 -1.55759333086734e-05 -0.66477535675336874 0.20901635663579207 4.6807621250388617e-06 -0.95814201296563817 0.24424743050936504 2.8120884551193112e-06 -0.95872224579873122 0.2442429345533679 -4.7216189167958432e-07 -0.95868408150861839 0.24377915485943683 -1.0849816366988472e-05 -0.81821576140512398 0.20901635663579207 4.6807621250388617e-06 -0.95814201296563817 0.19609222095892026 2.6838816553242975e-06 -0.95790197572806501 0.24424743050936504 2.8120884551193129e-06 -0.95872224579873122 0.20854748262277698 2.0634784301548356e-06 -0.8177868276768816 0.24360660226514769 3.0645602967236383e-06 -0.76680334088766144 0.24377915485943683 -1.0849816366988472e-05 -0.81821576140512398 0.24424743050936504 2.8120884551193129e-06 -0.95872224579873122 0.20854748262277698 2.0634784301548356e-06 -0.8177868276768816 0.24377915485943683 -1.0849816366988472e-05 -0.81821576140512398 0.20901635663579207 4.6807621250388626e-06 -0.95814201296563817 0.24424743050936504 2.8120884551193129e-06 -0.95872224579873122 0.20854748262277698 2.0634784301548356e-06 -0.8177868276768816 0.20901635663579207 4.6807621250388617e-06 -0.95814201296563817 0.2442429345533679 -4.7216189167958432e-07 -0.95868408150861839 0.24365483983688499 4.5783102744994196e-06 -0.7748623177004641 0.24377915485943683 -1.0849816366988472e-05 -0.81821576140512398 0.2442429345533679 -4.7216189167958432e-07 -0.95868408150861839 0.24365483983688499 4.5783102744994221e-06 -0.7748623177004641 0.1980619206980688 5.4593081704451253e-06 -0.95788714516703 0.20901635663579207 4.6807621250388617e-06 -0.95814201296563817 0.20901635663579207 4.6807621250388617e-06 -0.95814201296563817 0.24377915485943683 -1.0849816366988472e-05 -0.81821576140512398 0.24365483983688499 4.5783102744994221e-06 -0.7748623177004641 0.18989539416047121 6.8455544132414076e-06 -0.78211000645330642 0.24365483983688499 4.5783102744994221e-06 -0.7748623177004641 0.24377915485943683 -1.0849816366988472e-05 -0.81821576140512398 0.24342720632977785 -1.5575933308673403e-05 -0.66477535675336852 0.18989539416047121 6.8455544132414051e-06 -0.78211000645330642 0.17030705514848143 1.3665454694659361e-05 -0.95737658420751748 0.20901635663579207 4.6807621250388617e-06 -0.95814201296563817 0.19806192069806883 5.4593081704451236e-06 -0.95788714516703 0.18989539416047121 6.8455544132414051e-06 -0.78211000645330642 0.19806192069806883 5.4593081704451236e-06 -0.95788714516703 0.20901635663579207 4.6807621250388617e-06 -0.95814201296563817 0.24365483983688499 4.5783102744994221e-06 -0.7748623177004641 0.18989539416047121 6.8455544132414051e-06 -0.78211000645330642 0.20901635663579207 4.6807621250388617e-06 -0.95814201296563817 0.19609222095892026 2.6838816553242975e-06 -0.95790197572806501 0.20854748262277698 2.0634784301548356e-06 -0.8177868276768816 0.18989539416047121 6.8455544132414051e-06 -0.78211000645330642 0.17128513617479671 2.6395849281989414e-06 -0.79520677120912986 0.20854748262277698 2.0634784301548356e-06 -0.8177868276768816 0.19609222095892026 2.6838816553242975e-06 -0.95790197572806501 0.18989539416047121 6.8455544132414051e-06 -0.78211000645330642 0.20901635663579207 4.6807621250388617e-06 -0.95814201296563817 0.17030705514848143 1.3665454694659361e-05 -0.95737658420751748 0.19609222095892026 2.6838816553242975e-06 -0.95790197572806501 0.18989539416047121 6.8455544132414051e-06 -0.78211000645330642 0.24377915485943683 -1.0849816366988472e-05 -0.81821576140512398 0.20901635663579207 4.6807621250388634e-06 -0.95814201296563817 0.20854748262277695 2.0634784301548386e-06 -0.81778682767688149 0.18989539416047119 6.8455544132414059e-06 -0.78211000645330642 0.20854748262277698 2.0634784301548356e-06 -0.8177868276768816 0.17128513617479671 2.6395849281989414e-06 -0.79520677120912986 0.19850689779729799 2.7828203102504423e-06 -0.65534218804203981 0.18989539416047124 6.8455544132414059e-06 -0.78211000645330653 0.19850689779729799 2.7828203102504423e-06 -0.65534218804203981 0.24342720632977785 -1.55759333086734e-05 -0.66477535675336852 0.20854748262277698 2.0634784301548356e-06 -0.8177868276768816 0.18989539416047121 6.8455544132414051e-06 -0.78211000645330642 0.17030705514848143 1.3665454694659361e-05 -0.95737658420751748 0.12236367209651718 4.5265212077052804e-06 -0.74510250388170041 0.17128513617479671 2.6395849281989414e-06 -0.79520677120912997 0.18989539416047121 6.8455544132414051e-06 -0.78211000645330642 0.17030705514848143 1.3665454694659361e-05 -0.95737658420751748 0.14999759528678863 2.4789119576814674e-06 -0.9570591021894238 0.12236367209651718 4.5265212077052796e-06 -0.74510250388170052 0.18989539416047121 6.8455544132414051e-06 -0.78211000645330642 0.19850689779729799 2.7828203102504423e-06 -0.65534218804203981 0.17128513617479671 2.6395849281989414e-06 -0.79520677120912986 0.14973947633373461 2.4131254502953176e-06 -0.6492099844570951 0.18989539416047121 6.8455544132414051e-06 -0.78211000645330642 0.14973947633373461 2.4131254502953176e-06 -0.6492099844570951 0.17128513617479671 2.6395849281989414e-06 -0.79520677120912986 0.12236367209651718 4.5265212077052796e-06 -0.74510250388170052 0.18989539416047121 6.8455544132414051e-06 -0.78211000645330642 0.17030705514848143 1.3665454694659361e-05 -0.95737658420751748 0.17128513617479671 2.6395849281989402e-06 -0.79520677120912975 0.19609222095892026 2.6838816553242975e-06 -0.95790197572806501 0.18989539416047121 6.8455544132414051e-06 -0.78211000645330642 0.12502187423090957 2.6445587238880814e-06 -0.79910502701316244 0.1475721027626902 3.1857645352672095e-06 -0.95702012796532754 0.17030705514848146 1.3665454694659366e-05 -0.95737658420751748 0.17128513617479671 2.6395849281989414e-06 -0.79520677120912986 0.17128513617479671 2.6395849281989414e-06 -0.79520677120912986 0.14757210276269023 3.1857645352672108e-06 -0.95702012796532743 0.17030705514848143 1.3665454694659361e-05 -0.95737658420751748 0.19609222095892026 2.6838816553242975e-06 -0.95790197572806501 0.19806192069806883 5.4593081704451236e-06 -0.95788714516703 0.14999759528678863 2.478911957681467e-06 -0.9570591021894238 0.17030705514848143 1.3665454694659361e-05 -0.95737658420751748 0.18989539416047121 6.8455544132414051e-06 -0.78211000645330642 0.12507706387082923 -4.6185764384644667e-06 -0.95659626474975279 0.17030705514848143 1.3665454694659361e-05 -0.95737658420751748 0.14999759528678863 2.4789119576814674e-06 -0.9570591021894238 0.12236367209651718 4.5265212077052796e-06 -0.74510250388170052 0.12507706387082923 -4.6185764384644667e-06 -0.95659626474975279 0.12502187423090957 2.6445587238880822e-06 -0.79910502701316244 0.17030705514848143 1.3665454694659361e-05 -0.95737658420751748 0.12236367209651718 4.5265212077052796e-06 -0.74510250388170052 0.1475721027626902 3.1857645352672095e-06 -0.95702012796532754 0.12507706387082923 -4.6185764384644667e-06 -0.95659626474975279 0.098648134765112583 3.546510436553143e-06 -0.95623024473774099 0.12502187423090957 2.6445587238880814e-06 -0.79910502701316244 0.17030705514848143 1.3665454694659361e-05 -0.95737658420751748 0.12507706387082923 -4.6185764384644667e-06 -0.95659626474975279 0.1475721027626902 3.1857645352672095e-06 -0.95702012796532754 0.12502187423090955 2.6445587238880831e-06 -0.79910502701316222 0.17030705514848143 1.3665454694659361e-05 -0.95737658420751748 0.12502187423090957 2.6445587238880835e-06 -0.79910502701316255 0.17128513617479671 2.6395849281989418e-06 -0.79520677120912986 0.12236367209651716 4.5265212077052796e-06 -0.74510250388170052 0.12502187423090957 2.6445587238880814e-06 -0.79910502701316244 0.14973947633373461 2.4131254502953176e-06 -0.6492099844570951 0.17128513617479671 2.6395849281989414e-06 -0.79520677120912986 0.12236367209651718 4.5265212077052787e-06 -0.74510250388170052 0.14973947633373461 2.4131254502953176e-06 -0.6492099844570951 0.1221953514460742 -1.1445628880520931e-07 -0.50666206064570818 0.16776525215068472 -5.931891791199679e-06 -0.65715760313308835 0.12236367209651716 4.5265212077052821e-06 -0.74510250388170052 0.14973947633373461 2.4131254502953176e-06 -0.6492099844570951 0.12219535144607419 -1.1445628880521264e-07 -0.50666206064570818 0.16654320754521457 3.2424131234274805e-06 -0.50073394403682336 0.18859408824151061 5.3741327004024037e-06 -0.47713759591018856 0.14973947633373461 2.4131254502953176e-06 -0.6492099844570951 0.11221321380911238 2.3380953699841017e-06 -0.6596424094490706 0.12219535144607423 -1.1445628880521105e-07 -0.50666206064570818 0.12236367209651718 4.5265212077052796e-06 -0.74510250388170052 0.11221321380911238 2.3380953699841017e-06 -0.6596424094490706 0.14973947633373461 2.4131254502953176e-06 -0.6492099844570951 0.12502187423090957 2.6445587238880814e-06 -0.79910502701316244 0.12236367209651718 4.5265212077052796e-06 -0.74510250388170052 0.14973947633373461 2.4131254502953176e-06 -0.6492099844570951 0.16776525215068469 -5.9318917911996756e-06 -0.65715760313308824 0.12219535144607421 -1.1445628880521015e-07 -0.50666206064570829 0.18859408824151061 5.3741327004024037e-06 -0.47713759591018856 0.19850689779729799 2.7828203102504423e-06 -0.65534218804203981 0.14973947633373461 2.4131254502953159e-06 -0.6492099844570951 0.16776525215068469 -5.9318917911996807e-06 -0.65715760313308824 0.18989539416047121 6.8455544132414051e-06 -0.78211000645330642 0.14973947633373461 2.4131254502953176e-06 -0.6492099844570951 0.12236367209651718 4.5265212077052796e-06 -0.74510250388170052 0.16776525215068472 -5.9318917911996799e-06 -0.65715760313308824 0.18989539416047121 6.8455544132414051e-06 -0.78211000645330642 0.19850689779729799 2.7828203102504423e-06 -0.65534218804203981 0.16776525215068472 -5.9318917911996765e-06 -0.65715760313308835 0.14973947633373461 2.4131254502953176e-06 -0.6492099844570951 0.18859408824151061 5.3741327004023986e-06 -0.47713759591018862 0.19850689779729799 2.7828203102504423e-06 -0.65534218804203981 0.14973947633373461 2.4131254502953176e-06 -0.6492099844570951 0.16654320754521457 3.2424131234274801e-06 -0.50073394403682325 0.18859408824151061 5.3741327004024037e-06 -0.47713759591018856 0.14973947633373461 2.4131254502953176e-06 -0.6492099844570951 0.11221321380911238 2.3380953699841017e-06 -0.6596424094490706 0.12696895640000871 2.776916154034556e-06 -0.47832198984899449 0.12219535144607421 -1.1445628880521137e-07 -0.50666206064570818 0.14973947633373461 2.4131254502953176e-06 -0.6492099844570951 0.12696895640000871 2.776916154034556e-06 -0.47832198984899449 0.16654320754521457 3.2424131234274805e-06 -0.50073394403682336 0.12219535144607424 -1.1445628880521152e-07 -0.50666206064570829 0.16776525215068472 -5.9318917911996765e-06 -0.65715760313308835 0.1221953514460742 -1.1445628880521027e-07 -0.50666206064570807 0.12205537621551792 1.2574262849676124e-06 -0.7178668528720602 0.12236367209651718 4.5265212077052796e-06 -0.74510250388170052 0.16776525215068472 -5.9318917911996765e-06 -0.65715760313308835 0.12221822505955418 9.1906251713546778e-07 -0.47828831495798829 0.18301636724011056 -1.3384867633051484e-06 -0.47718835516203828 0.12205537621551792 1.2574262849676124e-06 -0.7178668528720602 0.16776525215068472 -5.9318917911996765e-06 -0.65715760313308835 0.12205537621551792 1.2574262849676124e-06 -0.7178668528720602 0.18301636724011058 -1.3384867633051474e-06 -0.47718835516203839 0.19064639453179452 -2.8606206862832669e-06 -0.74720618352839585 0.12221822505955418 9.1906251713546587e-07 -0.47828831495798829 0.16776525215068472 -5.9318917911996756e-06 -0.65715760313308835 0.18301636724011058 -1.3384867633051474e-06 -0.47718835516203839 0.12219535144607421 -1.1445628880521068e-07 -0.50666206064570818 0.18301636724011058 -1.3384867633051474e-06 -0.47718835516203839 0.12219535144607421 -1.1445628880521227e-07 -0.50666206064570818 0.16776525215068472 -5.9318917911996765e-06 -0.65715760313308835 0.18859408824151067 5.3741327004024071e-06 -0.47713759591018862 0.16776525215068472 -5.9318917911996765e-06 -0.65715760313308835 0.12221822505955418 9.1906251713546672e-07 -0.47828831495798829 0.1220553762155179 1.2574262849676126e-06 -0.7178668528720602 0.12219535144607419 -1.1445628880520814e-07 -0.50666206064570807 0.19064639453179452 -2.8606206862832669e-06 -0.74720618352839585 0.14999759528678863 2.4789119576814678e-06 -0.95705910218942392 0.1220553762155179 1.2574262849676126e-06 -0.71786685287206009 0.16534976444385846 8.1838197005869345e-07 -0.95729330169262972 0.19064639453179452 -2.8606206862832669e-06 -0.74720618352839585 0.12205537621551794 1.2574262849676103e-06 -0.7178668528720602 0.14999759528678863 2.4789119576814674e-06 -0.9570591021894238 0.16776525215068472 -5.9318917911996748e-06 -0.65715760313308835 0.14999759528678863 2.4789119576814674e-06 -0.9570591021894238 0.16776525215068472 -5.9318917911996756e-06 -0.65715760313308835 0.19806192069806883 5.4593081704451236e-06 -0.95788714516703 0.19064639453179452 -2.8606206862832682e-06 -0.74720618352839596 0.16776525215068472 -5.9318917911996765e-06 -0.65715760313308835 0.12236367209651718 4.5265212077052796e-06 -0.74510250388170052 0.14999759528678863 2.4789119576814666e-06 -0.95705910218942369 0.18989539416047119 6.845554413241411e-06 -0.78211000645330631 0.16776525215068472 -5.9318917911996765e-06 -0.65715760313308835 0.12205537621551792 1.2574262849676124e-06 -0.71786685287206031 0.1499975952867886 2.4789119576814695e-06 -0.95705910218942369 0.12236367209651716 4.5265212077052804e-06 -0.74510250388170052 0.19806192069806883 5.4593081704451236e-06 -0.95788714516703 0.16776525215068475 -5.9318917911996815e-06 -0.65715760313308835 0.14999759528678863 2.4789119576814674e-06 -0.9570591021894238 0.18989539416047121 6.8455544132414051e-06 -0.78211000645330642 0.16534976444385843 8.1838197005869367e-07 -0.95729330169262972 0.14999759528678863 2.4789119576814674e-06 -0.9570591021894238 0.19806192069806883 5.4593081704451236e-06 -0.95788714516703 0.19064639453179452 -2.8606206862832669e-06 -0.74720618352839585 0.11283461032794481 -6.9361009233974851e-06 -0.95639956756010069 0.14999759528678863 2.4789119576814674e-06 -0.9570591021894238 0.12205537621551792 1.2574262849676124e-06 -0.7178668528720602 0.12236367209651718 4.5265212077052796e-06 -0.74510250388170052 0.12507706387082923 -4.6185764384644667e-06 -0.95659626474975279 0.14999759528678863 2.4789119576814695e-06 -0.9570591021894238 0.11283461032794481 -6.9361009233974851e-06 -0.95639956756010069 0.12236367209651718 4.5265212077052796e-06 -0.74510250388170052 0.12795145656089835 3.5790147376945924e-06 -0.95667121210039596 0.11283461032794481 -6.9361009233974851e-06 -0.95639956756010069 0.14999759528678863 2.4789119576814674e-06 -0.9570591021894238 0.12205537621551792 1.2574262849676124e-06 -0.7178668528720602 0.16534976444385843 8.1838197005869367e-07 -0.95729330169262972 0.12795145656089835 3.5790147376945924e-06 -0.95667121210039596 0.14999759528678863 2.4789119576814674e-06 -0.9570591021894238 0.12205537621551792 1.2574262849676124e-06 -0.7178668528720602 0.076365310262992009 6.7298269871688239e-06 -0.6550344369637694 0.053636913241398479 -2.4778982793556931e-06 -0.74198313443511732 0.080038148606827134 3.1358105665510336e-06 -0.9559606727794685 0.045344149198350309 -7.2841921922741457e-06 -0.77993713698759692 0.081226556398734925 -4.7390275113873094e-06 -0.95598406234827027 0.080038148606827134 3.1358105665510336e-06 -0.9559606727794685 0.12795145656089835 3.5790147376945924e-06 -0.95667121210039596 0.12205537621551792 1.2574262849676118e-06 -0.71786685287206009 0.11283461032794481 -6.9361009233974851e-06 -0.95639956756010069 0.076365310262992009 6.7298269871688239e-06 -0.6550344369637694 0.076636983914064108 9.3053119523198232e-07 -0.95594677088490976 0.12236367209651718 4.5265212077052796e-06 -0.74510250388170052 0.081226556398734925 -4.7390275113873094e-06 -0.95598406234827027 0.080038148606827134 3.1358105665510336e-06 -0.9559606727794685 0.12205537621551792 1.257426284967613e-06 -0.71786685287206009 0.0536369132413985 -2.4778982793556901e-06 -0.74198313443511743 0.11283461032794481 -6.9361009233974851e-06 -0.95639956756010069 0.12205537621551792 1.2574262849676109e-06 -0.7178668528720602 0.076365310262992009 6.7298269871688239e-06 -0.6550344369637694 0.12236367209651718 4.5265212077052796e-06 -0.74510250388170052 0.080038148606827134 3.1358105665510336e-06 -0.9559606727794685 0.076365310262992009 6.7298269871688222e-06 -0.6550344369637694 0.1220553762155179 1.2574262849676147e-06 -0.71786685287206009 0.053636913241398486 -2.477898279355691e-06 -0.74198313443511732 0.11283461032794481 -6.9361009233974851e-06 -0.95639956756010069 0.12795145656089835 3.5790147376945924e-06 -0.95667121210039596 0.080038148606827134 3.1358105665510336e-06 -0.9559606727794685 0.12205537621551792 1.2574262849676124e-06 -0.7178668528720602 0.076636983914064108 9.3053119523198232e-07 -0.95594677088490976 0.11283461032794481 -6.9361009233974851e-06 -0.95639956756010069 0.080038148606827134 3.1358105665510336e-06 -0.9559606727794685 0.076365310262992009 6.7298269871688239e-06 -0.6550344369637694 0.11283461032794481 -6.9361009233974851e-06 -0.95639956756010069 0.080038148606827134 3.1358105665510332e-06 -0.9559606727794685 0.076365310262992009 6.7298269871688239e-06 -0.6550344369637694 0.12205537621551792 1.2574262849676124e-06 -0.7178668528720602 0.080038148606827134 3.1358105665510336e-06 -0.9559606727794685 0.076636983914064094 9.3053119523198083e-07 -0.95594677088490976 0.076365310262992023 6.729826987168829e-06 -0.6550344369637694 0.045344149198350316 -7.2841921922741449e-06 -0.77993713698759704 0.076365310262992009 6.7298269871688239e-06 -0.6550344369637694 0.12221822505955418 9.1906251713546386e-07 -0.47828831495798824 0.060623269623686193 1.2433427724226971e-06 -0.43109270431321406 0.12219535144607421 -1.1445628880521226e-07 -0.50666206064570807 0.076365310262992009 6.7298269871688239e-06 -0.6550344369637694 0.12205537621551792 1.2574262849676122e-06 -0.7178668528720602 0.12221822505955419 9.1906251713546375e-07 -0.47828831495798829 0.12219535144607421 -1.1445628880521222e-07 -0.50666206064570818 0.076365310262992009 6.7298269871688239e-06 -0.6550344369637694 0.12219535144607423 -1.1445628880521197e-07 -0.50666206064570818 0.060623269623686186 1.2433427724226974e-06 -0.43109270431321406 0.055104561967224859 4.3226218885791559e-06 -0.460597649096946 0.12221822505955418 9.1906251713546587e-07 -0.47828831495798829 0.076365310262992009 6.7298269871688239e-06 -0.6550344369637694 0.060623269623686186 1.2433427724226965e-06 -0.43109270431321406 0.053636913241398486 -2.477898279355691e-06 -0.74198313443511732 0.076365310262992009 6.7298269871688239e-06 -0.6550344369637694 0.12221822505955418 9.190625171354646e-07 -0.47828831495798829 0.12205537621551792 1.2574262849676124e-06 -0.7178668528720602 0.053636913241398472 -2.4778982793556931e-06 -0.74198313443511721 0.12205537621551792 1.2574262849676124e-06 -0.7178668528720602 0.12219535144607423 -1.1445628880521022e-07 -0.50666206064570818 0.076365310262992009 6.7298269871688239e-06 -0.6550344369637694 0.12236367209651718 4.5265212077052796e-06 -0.74510250388170052 0.07946110110593653 3.2425167583536006e-06 -0.5738182053053843 0.11221321380911238 2.3380953699841017e-06 -0.6596424094490706 0.076365310262992009 6.7298269871688239e-06 -0.6550344369637694 0.12219535144607421 -1.1445628880520871e-07 -0.50666206064570818 0.11221321380911238 2.3380953699841017e-06 -0.6596424094490706 0.076323851046925822 2.872217837485211e-06 -0.7788080880352426 0.07946110110593653 3.2425167583536006e-06 -0.5738182053053843 0.076365310262992009 6.7298269871688239e-06 -0.6550344369637694 0.11221321380911238 2.3380953699841017e-06 -0.6596424094490706 0.076365310262992009 6.7298269871688239e-06 -0.6550344369637694 0.12219535144607421 -1.1445628880521068e-07 -0.50666206064570818 0.12236367209651718 4.5265212077052796e-06 -0.74510250388170052 0.07946110110593653 3.2425167583536006e-06 -0.5738182053053843 0.076365310262992009 6.7298269871688239e-06 -0.6550344369637694 0.076323851046925836 2.8722178374852178e-06 -0.77880808803524271 0.045344149198350316 -7.2841921922741449e-06 -0.77993713698759704 0.07946110110593653 3.2425167583536006e-06 -0.5738182053053843 0.12219535144607419 -1.1445628880520869e-07 -0.50666206064570807 0.076365310262992023 6.7298269871688248e-06 -0.6550344369637694 0.055104561967224873 4.3226218885791559e-06 -0.46059764909694606 0.11221321380911238 2.3380953699841017e-06 -0.6596424094490706 0.076323851046925836 2.8722178374852114e-06 -0.77880808803524271 0.076365310262991995 6.7298269871688239e-06 -0.65503443696376928 0.12236367209651718 4.5265212077052796e-06 -0.74510250388170052 0.080523664213172932 3.110982971459687e-06 -0.37876144735764894 0.12219535144607423 -1.1445628880521174e-07 -0.50666206064570818 0.07946110110593653 3.2425167583536006e-06 -0.5738182053053843 0.055104561967224859 4.3226218885791568e-06 -0.46059764909694606 0.07946110110593653 3.2425167583536006e-06 -0.5738182053053843 0.076365310262992023 6.7298269871688248e-06 -0.65503443696376951 0.039001383575578988 2.6647131356216726e-06 -0.66366126493218458 0.055104561967224859 4.3226218885791559e-06 -0.460597649096946 0.080523664213172932 3.110982971459687e-06 -0.37876144735764894 0.12696895640000871 2.776916154034556e-06 -0.47832198984899449 0.07946110110593653 3.2425167583536006e-06 -0.5738182053053843 0.12219535144607421 -1.1445628880521068e-07 -0.50666206064570818 0.07946110110593653 3.2425167583536006e-06 -0.5738182053053843 0.12696895640000871 2.776916154034556e-06 -0.47832198984899449 0.11221321380911238 2.3380953699841017e-06 -0.6596424094490706 0.12219535144607421 -1.1445628880520986e-07 -0.50666206064570818 0.11221321380911238 2.3380953699841017e-06 -0.6596424094490706 0.12502187423090957 2.6445587238880814e-06 -0.79910502701316244 0.076323851046925822 2.8722178374852114e-06 -0.7788080880352426 0.12236367209651718 4.5265212077052796e-06 -0.74510250388170052 0.076323851046925822 2.8722178374852114e-06 -0.7788080880352426 0.12236367209651718 4.5265212077052804e-06 -0.74510250388170041 0.076636983914064108 9.3053119523198232e-07 -0.95594677088490976 0.045344149198350316 -7.2841921922741449e-06 -0.77993713698759704 0.076323851046925822 2.8722178374852114e-06 -0.7788080880352426 0.076365310262991995 6.7298269871688307e-06 -0.65503443696376928 0.12236367209651719 4.5265212077052525e-06 -0.74510250388170063 0.045344149198350316 -7.2841921922741449e-06 -0.77993713698759704 0.12507706387082923 -4.6185764384644667e-06 -0.95659626474975279 0.076323851046925809 2.8722178374852123e-06 -0.77880808803524271 0.12502187423090957 2.6445587238880814e-06 -0.79910502701316244 0.12236367209651718 4.5265212077052796e-06 -0.74510250388170052 0.076636983914064108 9.3053119523198232e-07 -0.95594677088490976 0.12236367209651718 4.526521207705244e-06 -0.74510250388170052 0.076365310262991995 6.729826987168862e-06 -0.65503443696376962 0.045344149198350316 -7.2841921922741449e-06 -0.77993713698759704 0.076323851046925822 2.8722178374852114e-06 -0.7788080880352426 0.098648134765112583 3.546510436553143e-06 -0.95623024473774099 0.12507706387082923 -4.6185764384644667e-06 -0.95659626474975279 0.12502187423090957 2.6445587238880814e-06 -0.79910502701316244 0.076323851046925822 2.8722178374852114e-06 -0.7788080880352426 0.098648134765112583 3.546510436553143e-06 -0.95623024473774099 0.076636983914064108 9.3053119523198232e-07 -0.95594677088490976 0.12507706387082923 -4.6185764384644667e-06 -0.95659626474975279 0.076323851046925822 2.8722178374852114e-06 -0.7788080880352426 0.12507706387082923 -4.6185764384644667e-06 -0.95659626474975279 0.076636983914064108 9.3053119523198232e-07 -0.95594677088490976 0.12236367209651718 4.5265212077052821e-06 -0.74510250388170041 0.11283461032794481 -6.9361009233974851e-06 -0.95639956756010069 0.076636983914064108 9.3053119523198232e-07 -0.95594677088490976 0.12507706387082923 -4.6185764384644667e-06 -0.95659626474975279 0.12236367209651718 4.5265212077052796e-06 -0.74510250388170052 0.098648134765112583 3.546510436553143e-06 -0.95623024473774099 0.049426651361867267 2.9016626367014946e-06 -0.95565831179712835 0.076323851046925822 2.8722178374852114e-06 -0.7788080880352426 0.076636983914064108 9.3053119523198232e-07 -0.95594677088490976 0.039001383575578988 2.6647131356216726e-06 -0.66366126493218458 0.076323851046925822 2.8722178374852114e-06 -0.7788080880352426 0.035994995052779089 2.1432820266655495e-06 -0.81565477066947434 0.045344149198350316 -7.2841921922741449e-06 -0.77993713698759704 0.076323851046925822 2.8722178374852114e-06 -0.7788080880352426 0.076636983914064108 9.3053119523198221e-07 -0.95594677088490976 0.035994995052779089 2.1432820266655495e-06 -0.81565477066947434 0.045344149198350316 -7.2841921922741449e-06 -0.77993713698759704 0.076323851046925822 2.8722178374852114e-06 -0.7788080880352426 0.04942665136186726 2.9016626367014941e-06 -0.95565831179712835 0.035994995052779089 2.1432820266655495e-06 -0.81565477066947434 0.076636983914064108 9.3053119523198232e-07 -0.95594677088490976 0.036159462877591544 -2.7693999021038555e-06 -0.95556671894714817 0.035994995052779089 2.1432820266655495e-06 -0.81565477066947434 0.049426651361867267 2.9016626367014946e-06 -0.95565831179712835 0.076636983914064108 9.3053119523198232e-07 -0.95594677088490976 0.076636983914064108 9.3053119523198232e-07 -0.95594677088490976 0.039264644972876982 7.9543457752925456e-07 -0.95558967055311639 0.036159462877591544 -2.7693999021038555e-06 -0.95556671894714817 0.045344149198350316 -7.2841921922741449e-06 -0.77993713698759704 0.036159462877591544 -2.7693999021038555e-06 -0.95556671894714817 0.035994995052779089 2.1432820266655503e-06 -0.81565477066947434 0.076636983914064108 9.30531195231982e-07 -0.95594677088490965 0.045344149198350309 -7.2841921922741466e-06 -0.77993713698759704 -2.3955181549664758e-09 -7.0060507280633576e-07 -0.81556320646353686 4.0712036656953146e-09 -1.128543630653736e-05 -0.81380890817398432 1.793270643081412e-08 2.7269493816691602e-06 -0.67401952426869716 0.045344149198350316 -7.2841921922741449e-06 -0.77993713698759704 0.039001383575578988 2.6647131356216726e-06 -0.66366126493218458 -2.3955181532608331e-09 -7.0060507280633639e-07 -0.81556320646353686 1.7932706432155185e-08 2.7269493816691581e-06 -0.67401952426869705 0.045344149198350309 -7.284192192274144e-06 -0.77993713698759692 0.045344149198350316 -7.2841921922741449e-06 -0.77993713698759704 4.9278456779130359e-08 -2.3630983192742504e-06 -0.95543477696619805 0.039264644972876961 7.9543457752925118e-07 -0.95558967055311639 0.036159462877591544 -2.7693999021038534e-06 -0.95556671894714806 0.035994995052779089 2.1432820266655495e-06 -0.81565477066947434 0.036159462877591544 -2.7693999021038551e-06 -0.95556671894714817 -2.3955181549664758e-09 -7.0060507280633576e-07 -0.81556320646353686 0.045344149198350316 -7.2841921922741449e-06 -0.77993713698759704 -2.3955181549664758e-09 -7.0060507280633576e-07 -0.81556320646353686 4.9278456771158753e-08 -2.3630983192742538e-06 -0.95543477696619805 4.0712036656953146e-09 -1.128543630653736e-05 -0.81380890817398432 0.045344149198350316 -7.2841921922741449e-06 -0.77993713698759704 -2.3955181549664758e-09 -7.0060507280633576e-07 -0.81556320646353686 0.036159462877591544 -2.7693999021038555e-06 -0.95556671894714817 4.9278456772741924e-08 -2.363098319274253e-06 -0.95543477696619805 0.045344149198350316 -7.2841921922741449e-06 -0.77993713698759704 3.8000338736458756e-08 2.9286135485007665e-06 -0.95541282094113678 -2.395518156534651e-09 -7.0060507280633554e-07 -0.81556320646353697 0.036159462877591544 -2.7693999021038555e-06 -0.95556671894714817 4.9278456770870027e-08 -2.3630983192742538e-06 -0.95543477696619805 -2.3955181549664758e-09 -7.0060507280633576e-07 -0.81556320646353686 0.035994995052779089 2.143282026665549e-06 -0.81565477066947434 3.8000338736458756e-08 2.9286135485007665e-06 -0.95541282094113678 0.036159462877591544 -2.7693999021038555e-06 -0.95556671894714817 0.049426651361867267 2.9016626367014946e-06 -0.95565831179712835 3.8000338737532417e-08 2.9286135485007674e-06 -0.95541282094113678 0.035994995052779089 2.1432820266655495e-06 -0.81565477066947434 0.036159462877591544 -2.7693999021038555e-06 -0.95556671894714817 0.035994995052779089 2.1432820266655495e-06 -0.81565477066947434 3.8000338736458756e-08 2.9286135485007665e-06 -0.95541282094113678 -2.6097066352730859e-09 2.5900065351684112e-06 -0.76439452983759082 -2.3955181549664758e-09 -7.0060507280633576e-07 -0.81556320646353686 0.035994995052779089 2.1432820266655495e-06 -0.81565477066947434 -2.3955181549572672e-09 -7.0060507280633576e-07 -0.81556320646353686 0.039001383575578988 2.6647131356216726e-06 -0.66366126493218458 0.045344149198350316 -7.2841921922741449e-06 -0.77993713698759704 0.039001383575578988 2.6647131356216726e-06 -0.66366126493218458 -2.6097066446485309e-09 2.5900065351684133e-06 -0.76439452983759082 1.793270643081412e-08 2.7269493816691602e-06 -0.67401952426869716 -2.3955181549664758e-09 -7.0060507280633576e-07 -0.81556320646353686 -2.6097066323601553e-09 2.5900065351684116e-06 -0.76439452983759082 0.039001383575578988 2.6647131356216726e-06 -0.66366126493218458 0.035994995052779089 2.1432820266655495e-06 -0.81565477066947434 -2.3955181549664758e-09 -7.0060507280633576e-07 -0.81556320646353686 1.793270643081412e-08 2.7269493816691602e-06 -0.67401952426869716 -1.816600510574852e-09 3.1873433921148452e-06 -0.57334697418357017 -2.6097066323601553e-09 2.5900065351684116e-06 -0.76439452983759082 0.039001383575578988 2.6647131356216726e-06 -0.66366126493218458 0.076365310262992009 6.7298269871688239e-06 -0.6550344369637694 0.055104561967224873 4.3226218885791449e-06 -0.46059764909694612 1.7932706421496986e-08 2.7269493816691831e-06 -0.67401952426869716 0.045344149198350323 -7.2841921922741449e-06 -0.77993713698759704 1.793270643081412e-08 2.7269493816691602e-06 -0.67401952426869716 -1.0540773385335668e-08 7.2688792065811461e-06 -0.48547035197633631 -1.816600510574852e-09 3.1873433921148452e-06 -0.57334697418357017 0.039001383575578988 2.6647131356216726e-06 -0.66366126493218458 0.039001383575578988 2.6647131356216726e-06 -0.66366126493218458 0.076365310262992023 6.7298269871688163e-06 -0.65503443696376951 0.07946110110593653 3.2425167583536006e-06 -0.5738182053053843 0.045344149198350316 -7.2841921922741449e-06 -0.77993713698759704 0.039001383575578988 2.6647131356216726e-06 -0.66366126493218458 0.055104561967224894 4.3226218885791754e-06 -0.46059764909694612 0.076365310262991967 6.7298269871688053e-06 -0.6550344369637694 0.045344149198350316 -7.2841921922741449e-06 -0.77993713698759704 0.039001383575578988 2.6647131356216726e-06 -0.66366126493218458 1.7932706441875448e-08 2.7269493816691569e-06 -0.67401952426869716 0.055104561967224866 4.3226218885791568e-06 -0.46059764909694606 0.045344149198350309 -7.2841921922741449e-06 -0.77993713698759704 0.039001383575578988 2.6647131356216726e-06 -0.66366126493218458 0.07946110110593653 3.2425167583536006e-06 -0.5738182053053843 0.076323851046925822 2.872217837485211e-06 -0.7788080880352426 0.045344149198350316 -7.2841921922741449e-06 -0.77993713698759704 0.07946110110593653 3.2425167583536006e-06 -0.5738182053053843 0.039001383575578988 2.6647131356216726e-06 -0.66366126493218458 0.04217291837154763 2.9162842213283923e-06 -0.47630361253358555 0.055104561967224866 4.3226218885791568e-06 -0.46059764909694606 -1.0540773391089743e-08 7.2688792065811452e-06 -0.48547035197633631 0.042172918371547637 2.9162842213283915e-06 -0.47630361253358555 0.039001383575578988 2.6647131356216726e-06 -0.66366126493218458 0.055104561967224866 4.3226218885791568e-06 -0.46059764909694606 -1.816600510574852e-09 3.1873433921148452e-06 -0.57334697418357017 -6.2409338363477164e-09 3.4185877234265614e-06 -0.38226866481606592 0.04217291837154763 2.9162842213283923e-06 -0.47630361253358555 -1.0540773391089743e-08 7.2688792065811452e-06 -0.48547035197633631 -1.0540773391089743e-08 7.2688792065811452e-06 -0.48547035197633631 0.042172918371547644 2.9162842213283919e-06 -0.47630361253358555 -1.816600510574852e-09 3.1873433921148452e-06 -0.57334697418357017 0.039001383575578988 2.6647131356216726e-06 -0.66366126493218458 -1.0540773391089743e-08 7.2688792065811452e-06 -0.48547035197633631 0.039001383575578988 2.6647131356216726e-06 -0.66366126493218458 1.793270643081412e-08 2.7269493816691602e-06 -0.67401952426869716 0.055104561967224866 4.3226218885791568e-06 -0.46059764909694606 -1.6228209067471166e-08 1.8958418469012673e-06 -0.57278605546366312 -1.0540773391089743e-08 7.2688792065811452e-06 -0.48547035197633631 1.793270643081412e-08 2.7269493816691602e-06 -0.67401952426869716 0.055104561967224866 4.3226218885791568e-06 -0.46059764909694606 -1.6228209067471166e-08 1.8958418469012673e-06 -0.57278605546366312 1.7932706431905059e-08 2.7269493816691607e-06 -0.67401952426869716 0.076365310262992009 6.7298269871688248e-06 -0.65503443696376928 0.055104561967224866 4.3226218885791568e-06 -0.46059764909694606 -1.6228209067471166e-08 1.8958418469012673e-06 -0.57278605546366312 0.076365310262991981 6.7298269871687579e-06 -0.65503443696376962 1.7932706432604033e-08 2.7269493816691683e-06 -0.67401952426869716 0.045344149198350323 -7.2841921922741618e-06 -0.77993713698759704 -1.6228209067471166e-08 1.8958418469012673e-06 -0.57278605546366312 1.793270643081412e-08 2.7269493816691602e-06 -0.67401952426869716 1.2816609225654237e-08 -6.8572045032653865e-06 -0.69486727525808911 0.045344149198350336 -7.2841921922741457e-06 -0.77993713698759704 -1.6228209067471166e-08 1.8958418469012673e-06 -0.57278605546366312 0.060623269623686193 1.243342772422695e-06 -0.431092704313214 0.076365310262992009 6.7298269871688239e-06 -0.6550344369637694 0.053636913241398486 -2.4778982793556927e-06 -0.74198313443511732 -1.6228209067471166e-08 1.8958418469012673e-06 -0.57278605546366312 1.2816609225654237e-08 -6.8572045032653865e-06 -0.69486727525808911 0.076365310262991995 6.7298269871688205e-06 -0.65503443696376951 0.045344149198350323 -7.2841921922741466e-06 -0.77993713698759715 -1.6228209067471166e-08 1.8958418469012673e-06 -0.57278605546366312 1.015240998911137e-08 -3.2981695095675788e-06 -0.64329118451207123 -1.2089246735476664e-08 4.0452543206248989e-06 -0.49650982261458321 0.0536369132413985 -2.4778982793556906e-06 -0.74198313443511721 1.2816609225654237e-08 -6.8572045032653865e-06 -0.69486727525808911 -1.6228209067471166e-08 1.8958418469012673e-06 -0.57278605546366312 0.076365310262992009 6.7298269871688239e-06 -0.6550344369637694 0.053636913241398486 -2.477898279355691e-06 -0.74198313443511732 -1.6228209067471166e-08 1.8958418469012673e-06 -0.57278605546366312 0.076365310262992009 6.7298269871688239e-06 -0.6550344369637694 0.06062326962368618 1.2433427724226954e-06 -0.431092704313214 0.055104561967224866 4.3226218885791568e-06 -0.46059764909694606 -1.6228209067471166e-08 1.8958418469012673e-06 -0.57278605546366312 -1.2089246732504028e-08 4.0452543206248998e-06 -0.49650982261458321 0.060623269623686186 1.2433427724226965e-06 -0.43109270431321406 0.053636913241398493 -2.4778982793556931e-06 -0.74198313443511732 1.738428420135663e-10 1.3333821610981997e-06 -0.43637068063933532 -1.0540773391100305e-08 7.2688792065811452e-06 -0.48547035197633631 -1.6228209067471166e-08 1.8958418469012673e-06 -0.57278605546366312 0.055104561967224866 4.3226218885791568e-06 -0.46059764909694606 -1.6228209067471166e-08 1.8958418469012673e-06 -0.57278605546366312 -1.2089246732504028e-08 4.0452543206248998e-06 -0.49650982261458321 1.738428420135663e-10 1.3333821610981997e-06 -0.43637068063933532 0.060623269623686186 1.2433427724226965e-06 -0.43109270431321406 1.2816609225654237e-08 -6.8572045032653865e-06 -0.69486727525808911 1.015240998911137e-08 -3.2981695095675788e-06 -0.64329118451207123 -1.6228209065521177e-08 1.8958418469012675e-06 -0.57278605546366312 0.053636913241398486 -2.477898279355691e-06 -0.74198313443511732 -2.2637944206811613e-09 -1.0306794063771604e-05 -0.80443406277666474 4.0712036656953146e-09 -1.128543630653736e-05 -0.81380890817398432 0.039264644972876982 7.9543457752925456e-07 -0.95558967055311639 0.053636913241398493 -2.477898279355691e-06 -0.74198313443511721 1.2816609225654237e-08 -6.8572045032653865e-06 -0.69486727525808911 0.053636913241398486 -2.4778982793556893e-06 -0.74198313443511732 0.076365310262992009 6.7298269871688239e-06 -0.6550344369637694 0.045344149198350316 -7.2841921922741466e-06 -0.77993713698759715 0.039264644972876982 7.9543457752925456e-07 -0.95558967055311639 0.053636913241398486 -2.4778982793556918e-06 -0.74198313443511732 4.0712036550958032e-09 -1.128543630653736e-05 -0.81380890817398432 0.045344149198350316 -7.2841921922741432e-06 -0.77993713698759704 -2.2637944206811613e-09 -1.0306794063771604e-05 -0.80443406277666474 1.015240998911137e-08 -3.2981695095675788e-06 -0.64329118451207123 1.2816609225654237e-08 -6.8572045032653865e-06 -0.69486727525808911 0.0536369132413985 -2.4778982793556889e-06 -0.74198313443511721 -2.2637944206811613e-09 -1.0306794063771604e-05 -0.80443406277666474 1.2816609225654237e-08 -6.8572045032653865e-06 -0.69486727525808911 4.0712036656953146e-09 -1.128543630653736e-05 -0.81380890817398432 0.0536369132413985 -2.4778982793556914e-06 -0.74198313443511743 0.039264644972876982 7.9543457752925456e-07 -0.95558967055311639 0.080038148606827134 3.135810566551034e-06 -0.9559606727794685 0.053636913241398486 -2.4778982793556918e-06 -0.74198313443511732 0.045344149198350316 -7.284192192274144e-06 -0.77993713698759704 1.2816609225654237e-08 -6.8572045032653865e-06 -0.69486727525808911 4.0712036654733763e-09 -1.128543630653736e-05 -0.81380890817398432 0.053636913241398479 -2.4778982793556922e-06 -0.74198313443511743 0.045344149198350323 -7.2841921922741449e-06 -0.77993713698759704 1.793270643081412e-08 2.7269493816691602e-06 -0.67401952426869716 4.0712036656953146e-09 -1.128543630653736e-05 -0.81380890817398432 1.2816609224499342e-08 -6.8572045032653865e-06 -0.69486727525808911 0.045344149198350316 -7.2841921922741449e-06 -0.77993713698759704 0.039264644972876982 7.9543457752925456e-07 -0.95558967055311639 0.080038148606827134 3.1358105665510336e-06 -0.95596067277946839 0.042540664590592185 -1.5364069063109211e-06 -0.95559340093966127 0.053636913241398486 -2.477898279355691e-06 -0.74198313443511732 0.039264644972876982 7.9543457752925456e-07 -0.95558967055311639 0.042540664590592185 -1.5364069063109205e-06 -0.95559340093966139 -2.2637944206811613e-09 -1.0306794063771604e-05 -0.80443406277666474 0.053636913241398486 -2.477898279355691e-06 -0.74198313443511732 0.080038148606827134 3.1358105665510336e-06 -0.9559606727794685 0.039264644972876982 7.9543457752925456e-07 -0.95558967055311639 0.076636983914064122 9.3053119523198242e-07 -0.95594677088490976 0.045344149198350316 -7.2841921922741449e-06 -0.77993713698759704 0.045344149198350316 -7.2841921922741449e-06 -0.77993713698759704 0.039264644972876975 7.9543457752925403e-07 -0.95558967055311639 4.9278456779063165e-08 -2.3630983192742521e-06 -0.95543477696619805 4.0712036656953146e-09 -1.128543630653736e-05 -0.81380890817398432 4.0712036656953146e-09 -1.128543630653736e-05 -0.81380890817398432 -2.2637944207653906e-09 -1.0306794063771604e-05 -0.80443406277666474 0.039264644972876982 7.9543457752925456e-07 -0.95558967055311639 4.1167167785471325e-08 -5.2803895173851224e-06 -0.95548741025270423 0.039264644972876982 7.9543457752925456e-07 -0.95558967055311639 4.9278456770870027e-08 -2.3630983192742538e-06 -0.95543477696619805 4.0712036624665516e-09 -1.128543630653736e-05 -0.81380890817398432 4.1167167785471325e-08 -5.2803895173851224e-06 -0.95548741025270423 4.1167167785471325e-08 -5.2803895173851224e-06 -0.95548741025270423 -2.2637944206811613e-09 -1.0306794063771604e-05 -0.80443406277666474 0.039264644972876982 7.9543457752925456e-07 -0.95558967055311639 0.042540664590592185 -1.5364069063109205e-06 -0.95559340093966139 -2.2637944206811613e-09 -1.0306794063771604e-05 -0.80443406277666474 4.1167167785471325e-08 -5.2803895173851224e-06 -0.95548741025270423 5.2083609219481374e-08 -6.4893673644207643e-06 -0.95548612997339089 0.042540664590592185 -1.5364069063109205e-06 -0.95559340093966139 0.042540664590592185 -1.5364069063109205e-06 -0.95559340093966139 5.2083609221968275e-08 -6.4893673644207635e-06 -0.95548612997339089 -2.263794413380057e-09 -1.0306794063771601e-05 -0.80443406277666485 2.6094698182850161e-09 1.341390302024911e-06 -0.77240106023728938 5.2083609221968275e-08 -6.4893673644207635e-06 -0.95548612997339089 0.042540664590592185 -1.5364069063109205e-06 -0.95559340093966139 0.041832754322583293 2.1854076299237342e-06 -0.95560190700621095 2.6094698324538945e-09 1.3413903020249152e-06 -0.77240106023728949 1.4207235241897064e-08 -5.0356616046471636e-06 -0.81555087720704678 2.6094698324538945e-09 1.3413903020249152e-06 -0.77240106023728949 0.041832754322583293 2.1854076299237334e-06 -0.95560190700621095 0.077033461146100074 -4.5708027886746963e-06 -0.65732013186401261 0.041832754322583293 2.1854076299237342e-06 -0.95560190700621095 0.07703346114610006 -4.5708027886746913e-06 -0.6573201318640125 2.6094698344744461e-09 1.3413903020249154e-06 -0.77240106023728961 0.053636913241398479 -2.477898279355691e-06 -0.74198313443511732 -2.2637944206811613e-09 -1.0306794063771604e-05 -0.80443406277666474 2.6094698332214189e-09 1.3413903020249148e-06 -0.77240106023728949 1.015240998911137e-08 -3.2981695095675788e-06 -0.64329118451207123 0.0536369132413985 -2.4778982793556889e-06 -0.74198313443511721 -2.2637944206811613e-09 -1.0306794063771604e-05 -0.80443406277666474 0.042540664590592178 -1.5364069063109215e-06 -0.95559340093966139 2.6094698333560789e-09 1.3413903020249154e-06 -0.77240106023728949 0.053636913241398493 -2.4778982793556914e-06 -0.74198313443511732 2.6094698324538945e-09 1.3413903020249152e-06 -0.77240106023728949 0.041832754322583293 2.1854076299237342e-06 -0.95560190700621095 5.2083609221968275e-08 -6.4893673644207635e-06 -0.95548612997339089 4.6397512212280432e-08 2.4342969840948946e-06 -0.95547777930931954 0.042540664590592185 -1.5364069063109205e-06 -0.95559340093966139 0.081226556398734925 -4.7390275113873094e-06 -0.95598406234827027 0.041832754322583293 2.1854076299237342e-06 -0.95560190700621095 0.053636913241398486 -2.477898279355691e-06 -0.74198313443511732 0.042540664590592185 -1.5364069063109205e-06 -0.95559340093966139 0.041832754322583293 2.1854076299237342e-06 -0.95560190700621095 2.6094698421900998e-09 1.3413903020249152e-06 -0.77240106023728938 0.053636913241398479 -2.477898279355691e-06 -0.74198313443511721 0.077999198445386941 5.7263773615459401e-06 -0.95594279454251907 0.041832754322583293 2.1854076299237342e-06 -0.95560190700621095 0.081226556398734925 -4.7390275113873094e-06 -0.95598406234827027 0.077033461146100046 -4.5708027886746913e-06 -0.6573201318640125 0.080038148606827134 3.1358105665510336e-06 -0.9559606727794685 0.081226556398734925 -4.7390275113873094e-06 -0.95598406234827027 0.042540664590592185 -1.5364069063109205e-06 -0.95559340093966139 0.053636913241398486 -2.477898279355691e-06 -0.74198313443511732 0.11284481147784416 9.3856168002240643e-06 -0.95640302047662284 0.077033461146100032 -4.5708027886746836e-06 -0.6573201318640125 0.12205537621551792 1.2574262849676124e-06 -0.7178668528720602 0.12278618867875844 -8.897690049222952e-06 -0.74692351551971603 0.081226556398734925 -4.7390275113873094e-06 -0.95598406234827027 0.12205537621551793 1.2574262849676132e-06 -0.7178668528720602 0.077033461146100046 -4.5708027886746913e-06 -0.6573201318640125 0.0536369132413985 -2.477898279355691e-06 -0.74198313443511732 0.077999198445386941 5.7263773615459401e-06 -0.95594279454251907 0.081226556398734925 -4.7390275113873094e-06 -0.95598406234827027 0.11284481147784416 9.3856168002240643e-06 -0.95640302047662284 0.077033461146100032 -4.5708027886746913e-06 -0.6573201318640125 0.11284481147784416 9.3856168002240643e-06 -0.95640302047662284 0.077999198445386955 5.7263773615459393e-06 -0.95594279454251918 0.077033461146100046 -4.5708027886746913e-06 -0.6573201318640125 0.12278618867875842 -8.897690049222957e-06 -0.7469235155197157 0.081226556398734925 -4.7390275113873094e-06 -0.95598406234827027 0.11284481147784416 9.3856168002240643e-06 -0.95640302047662284 0.077033461146100046 -4.5708027886746913e-06 -0.6573201318640125 0.12205537621551793 1.2574262849676128e-06 -0.7178668528720602 0.081226556398734925 -4.7390275113873094e-06 -0.95598406234827027 0.077033461146100046 -4.5708027886746913e-06 -0.6573201318640125 0.041832754322583293 2.1854076299237342e-06 -0.95560190700621095 0.053636913241398507 -2.4778982793556918e-06 -0.74198313443511743 0.081226556398734925 -4.7390275113873094e-06 -0.95598406234827027 0.12795145656089835 3.5790147376945911e-06 -0.95667121210039596 0.11284481147784416 9.3856168002240643e-06 -0.95640302047662284 0.12205537621551792 1.2574262849676124e-06 -0.7178668528720602 0.077033461146100046 -4.5708027886746913e-06 -0.6573201318640125 0.12205537621551792 1.2574262849676126e-06 -0.7178668528720602 0.12221822505955417 9.1906251713546608e-07 -0.47828831495798829 0.053636913241398479 -2.4778982793556906e-06 -0.74198313443511721 0.060623269623686186 1.2433427724226965e-06 -0.43109270431321406 0.12242043575741757 -2.3007835077827919e-06 -0.50589563864765952 0.077033461146100018 -4.5708027886746913e-06 -0.65732013186401239 0.054077472306458374 -4.672601502901529e-06 -0.47796153776618233 0.077033461146100046 -4.5708027886746913e-06 -0.6573201318640125 0.12242043575741758 -2.3007835077827919e-06 -0.50589563864765963 0.12205537621551792 1.2574262849676111e-06 -0.7178668528720602 0.12278618867875842 -8.8976900492229553e-06 -0.74692351551971581 0.12221822505955418 9.1906251713546587e-07 -0.47828831495798829 0.077033461146100046 -4.5708027886746913e-06 -0.6573201318640125 0.060623269623686186 1.2433427724226965e-06 -0.43109270431321406 0.12242043575741758 -2.3007835077827919e-06 -0.50589563864765963 0.12221822505955418 9.1906251713546587e-07 -0.47828831495798829 0.12205537621551794 1.2574262849676137e-06 -0.71786685287206031 0.07703346114610006 -4.5708027886746913e-06 -0.6573201318640125 0.12242043575741758 -2.3007835077827919e-06 -0.50589563864765963 0.12221822505955418 9.1906251713546587e-07 -0.47828831495798829 0.060623269623686186 1.2433427724226965e-06 -0.43109270431321406 0.077033461146100046 -4.5708027886746913e-06 -0.65732013186401239 0.053636913241398486 -2.477898279355691e-06 -0.74198313443511732 0.053636913241398486 -2.477898279355691e-06 -0.74198313443511732 0.077033461146100046 -4.5708027886746913e-06 -0.6573201318640125 -1.2089246731222919e-08 4.0452543206248998e-06 -0.49650982261458321 0.060623269623686166 1.2433427724226974e-06 -0.43109270431321406 3.7393577301742417e-11 -1.2002105879992371e-06 -0.43778712711554413 0.06062326962368618 1.2433427724226969e-06 -0.43109270431321406 -1.1458471295830598e-09 -1.552288881570973e-06 -0.58334247347025259 0.05407747230645836 -4.6726015029015299e-06 -0.47796153776618233 -1.1458471302427473e-09 -1.552288881570973e-06 -0.58334247347025259 -1.2089246732504028e-08 4.0452543206248998e-06 -0.49650982261458321 0.077033461146100046 -4.570802788674687e-06 -0.6573201318640125 0.060623269623686186 1.2433427724226965e-06 -0.43109270431321406 0.053636913241398486 -2.477898279355691e-06 -0.74198313443511732 -1.1458471105484512e-09 -1.5522888815709707e-06 -0.58334247347025248 -1.2089246732504028e-08 4.0452543206248998e-06 -0.49650982261458321 0.077033461146100046 -4.5708027886746913e-06 -0.6573201318640125 -1.1458471302427473e-09 -1.552288881570973e-06 -0.58334247347025259 0.060623269623686193 1.2433427724226961e-06 -0.43109270431321406 0.077033461146100046 -4.5708027886746913e-06 -0.6573201318640125 0.054077472306458367 -4.6726015029015316e-06 -0.47796153776618228 0.053636913241398486 -2.477898279355691e-06 -0.74198313443511732 -1.2089246732504028e-08 4.0452543206248998e-06 -0.49650982261458321 -1.1458471321290311e-09 -1.552288881570973e-06 -0.58334247347025259 1.015240998911137e-08 -3.2981695095675788e-06 -0.64329118451207123 -3.6381090580325306e-09 -9.1417436971006128e-06 -0.66294004663938222 -1.1458471302427473e-09 -1.552288881570973e-06 -0.58334247347025259 0.077033461146100046 -4.5708027886746904e-06 -0.65732013186401239 0.05407747230645836 -4.6726015029015299e-06 -0.47796153776618233 -1.1458471302427473e-09 -1.552288881570973e-06 -0.58334247347025259 2.6094698324538945e-09 1.3413903020249152e-06 -0.77240106023728949 0.077033461146100046 -4.5708027886746913e-06 -0.6573201318640125 0.053636913241398486 -2.4778982793556906e-06 -0.74198313443511732 -3.6381090580325306e-09 -9.1417436971006128e-06 -0.66294004663938222 -1.1458471302427473e-09 -1.552288881570973e-06 -0.58334247347025259 2.6094698338069349e-09 1.3413903020249154e-06 -0.77240106023728949 0.077033461146100046 -4.5708027886746913e-06 -0.6573201318640125 3.7393577301742417e-11 -1.2002105879992371e-06 -0.43778712711554413 -1.2089246732504028e-08 4.0452543206248998e-06 -0.49650982261458321 -1.1458471302427473e-09 -1.552288881570973e-06 -0.58334247347025259 0.060623269623686186 1.2433427724226965e-06 -0.43109270431321406 -1.1458471302427473e-09 -1.552288881570973e-06 -0.58334247347025259 1.0152409989996707e-08 -3.2981695095675788e-06 -0.64329118451207123 2.6094698348166892e-09 1.3413903020249154e-06 -0.77240106023728949 0.053636913241398458 -2.4778982793556914e-06 -0.74198313443511721 -1.1458471302427473e-09 -1.552288881570973e-06 -0.58334247347025259 -8.0616884287821328e-09 -5.8568865889480474e-06 -0.48703765989284398 3.7393576340407262e-11 -1.2002105879992371e-06 -0.43778712711554413 0.054077472306458374 -4.6726015029015299e-06 -0.47796153776618233 -3.6381090580325306e-09 -9.1417436971006128e-06 -0.66294004663938222 0.036000231085886923 -2.1424142868361303e-06 -0.81567846742921257 0.046147278823286696 -2.7851014516951355e-06 -0.65334798629957247 0.077033461146100046 -4.5708027886746913e-06 -0.6573201318640125 -3.6381090580325306e-09 -9.1417436971006128e-06 -0.66294004663938222 0.077033461146100046 -4.5708027886746913e-06 -0.6573201318640125 0.046147278823286696 -2.7851014516951355e-06 -0.65334798629957225 0.05407747230645836 -4.6726015029015299e-06 -0.47796153776618233 -3.6381090580325306e-09 -9.1417436971006128e-06 -0.66294004663938222 0.046147278823286689 -2.7851014516951359e-06 -0.65334798629957236 -8.0616884287821328e-09 -5.8568865889480474e-06 -0.48703765989284398 0.05407747230645836 -4.6726015029015299e-06 -0.47796153776618233 -3.6381090580325306e-09 -9.1417436971006128e-06 -0.66294004663938222 -8.0616884287821328e-09 -5.8568865889480474e-06 -0.48703765989284398 -1.1458471319449206e-09 -1.5522888815709726e-06 -0.58334247347025259 0.05407747230645836 -4.6726015029015299e-06 -0.47796153776618233 7.1173484885960592e-09 -3.0403005354024138e-06 -0.76439980455336154 1.2598384880739213e-09 -3.5894916806814448e-06 -0.57335500134119466 -3.6381090580325306e-09 -9.1417436971006128e-06 -0.66294004663938222 0.046147278823286696 -2.7851014516951355e-06 -0.65334798629957236 1.2598384880739213e-09 -3.5894916806814448e-06 -0.57335500134119466 -3.6381090580325306e-09 -9.1417436971006128e-06 -0.66294004663938222 0.046147278823286696 -2.7851014516951355e-06 -0.65334798629957236 -8.0616884287821328e-09 -5.8568865889480474e-06 -0.48703765989284398 0.046147278823286696 -2.7851014516951355e-06 -0.65334798629957236 0.04008296844823963 -2.6460313757864093e-06 -0.46703612120584664 1.2598384880739213e-09 -3.5894916806814448e-06 -0.57335500134119466 -8.0616884287821328e-09 -5.8568865889480474e-06 -0.48703765989284398 0.046147278823286696 -2.7851014516951355e-06 -0.65334798629957236 0.075958075678536616 -2.2647452983714509e-06 -0.51796587136752026 0.04008296844823963 -2.6460313757864093e-06 -0.46703612120584664 0.05407747230645836 -4.6726015029015299e-06 -0.47796153776618233 -8.0616884287821328e-09 -5.8568865889480474e-06 -0.48703765989284398 0.046147278823286689 -2.7851014516951355e-06 -0.65334798629957236 0.04008296844823963 -2.6460313757864088e-06 -0.46703612120584664 0.054077472306458367 -4.672601502901529e-06 -0.47796153776618228 0.07387261443158108 -2.6742479125528189e-06 -0.79407604338143623 0.097040502281617161 -3.077995615407283e-06 -0.6413679886513366 0.046147278823286696 -2.7851014516951355e-06 -0.65334798629957236 0.077033461146100046 -4.5708027886746913e-06 -0.6573201318640125 0.075958075678536616 -2.2647452983714509e-06 -0.51796587136752026 0.07703346114610006 -4.5708027886746904e-06 -0.65732013186401261 0.12242043575741757 -2.3007835077827928e-06 -0.50589563864765974 0.05407747230645836 -4.6726015029015299e-06 -0.47796153776618228 0.097040502281617161 -3.077995615407283e-06 -0.6413679886513366 0.075958075678536616 -2.2647452983714509e-06 -0.51796587136752026 0.077033461146100046 -4.5708027886746904e-06 -0.65732013186401239 0.12242043575741758 -2.3007835077827915e-06 -0.50589563864765952 0.097040502281617161 -3.077995615407283e-06 -0.6413679886513366 0.077033461146100046 -4.5708027886746913e-06 -0.6573201318640125 0.07387261443158108 -2.6742479125528189e-06 -0.79407604338143623 0.12278618867875842 -8.8976900492229553e-06 -0.74692351551971581 0.046147278823286696 -2.7851014516951355e-06 -0.65334798629957236 0.077033461146100046 -4.5708027886746913e-06 -0.6573201318640125 0.075958075678536616 -2.2647452983714509e-06 -0.51796587136752026 0.05407747230645836 -4.6726015029015299e-06 -0.47796153776618233 0.14679213058410739 -3.2391726699569902e-06 -0.64642381030546348 0.12242043575741758 -2.3007835077827906e-06 -0.50589563864765952 0.097040502281617161 -3.077995615407283e-06 -0.6413679886513366 0.12278618867875842 -8.8976900492229553e-06 -0.74692351551971581 0.075958075678536616 -2.2647452983714509e-06 -0.51796587136752026 0.046147278823286703 -2.7851014516951355e-06 -0.65334798629957236 0.097040502281617161 -3.077995615407283e-06 -0.6413679886513366 0.077033461146100046 -4.5708027886746913e-06 -0.6573201318640125 0.097040502281617161 -3.077995615407283e-06 -0.6413679886513366 0.12242043575741758 -2.3007835077827906e-06 -0.50589563864765963 0.077033461146100046 -4.5708027886746896e-06 -0.65732013186401239 0.12278618867875842 -8.8976900492229553e-06 -0.74692351551971581 0.097040502281617161 -3.077995615407283e-06 -0.6413679886513366 0.14679213058410739 -3.2391726699569902e-06 -0.64642381030546348 0.12217721222838319 -2.8004661067559263e-06 -0.45952198421440549 0.12242043575741758 -2.3007835077827919e-06 -0.50589563864765963 0.097040502281617161 -3.077995615407283e-06 -0.6413679886513366 0.12217721222838319 -2.8004661067559263e-06 -0.45952198421440549 0.075958075678536616 -2.2647452983714509e-06 -0.51796587136752026 0.12242043575741759 -2.3007835077827919e-06 -0.50589563864765974 0.12222591809438518 -2.8994665942062636e-06 -0.79177858189168415 0.14679213058410739 -3.2391726699569902e-06 -0.64642381030546348 0.097040502281617161 -3.077995615407283e-06 -0.6413679886513366 0.12278618867875842 -8.8976900492229553e-06 -0.74692351551971581 0.07387261443158108 -2.6742479125528189e-06 -0.79407604338143623 0.036207760301650842 2.2277301762802388e-06 -0.95556758768948713 0.077999198445386941 5.7263773615459401e-06 -0.95594279454251907 0.077033461146100046 -4.5708027886746913e-06 -0.6573201318640125 0.07387261443158108 -2.6742479125528189e-06 -0.79407604338143623 0.077033461146100046 -4.5708027886746913e-06 -0.6573201318640125 0.077999198445386927 5.726377361545941e-06 -0.95594279454251907 0.1227861886787584 -8.8976900492229536e-06 -0.74692351551971581 0.07387261443158108 -2.6742479125528189e-06 -0.79407604338143623 0.077999198445386941 5.7263773615459435e-06 -0.95594279454251907 0.12222591809438518 -2.8994665942062636e-06 -0.79177858189168415 0.12278618867875842 -8.897690049222952e-06 -0.74692351551971581 0.097040502281617161 -3.077995615407283e-06 -0.6413679886513366 0.07387261443158108 -2.6742479125528189e-06 -0.79407604338143623 0.12222591809438518 -2.8994665942062636e-06 -0.79177858189168415 0.12278618867875842 -8.8976900492229553e-06 -0.74692351551971581 0.077999198445386941 5.7263773615459401e-06 -0.95594279454251907 0.098625903340818541 -3.3924248607223487e-06 -0.95617982979905292 0.12222591809438518 -2.8994665942062636e-06 -0.79177858189168415 0.12549056021446825 4.9669490498603697e-06 -0.95663111429231329 0.098625903340818541 -3.3924248607223487e-06 -0.95617982979905292 0.12222591809438518 -2.8994665942062636e-06 -0.79177858189168415 0.07387261443158108 -2.6742479125528189e-06 -0.79407604338143623 0.077999198445386941 5.7263773615459401e-06 -0.95594279454251907 0.077999198445386941 5.7263773615459401e-06 -0.95594279454251907 0.12549056021446825 4.9669490498603697e-06 -0.95663111429231329 0.12222591809438518 -2.8994665942062636e-06 -0.79177858189168415 0.12278618867875842 -8.897690049222952e-06 -0.74692351551971581 0.11284481147784416 9.3856168002240643e-06 -0.95640302047662284 0.12549056021446825 4.9669490498603697e-06 -0.95663111429231329 0.077999198445386941 5.7263773615459401e-06 -0.95594279454251907 0.12278618867875842 -8.8976900492229553e-06 -0.74692351551971581 0.098625903340818541 -3.3924248607223487e-06 -0.95617982979905292 0.07387261443158108 -2.6742479125528189e-06 -0.79407604338143623 0.049408207157330568 -2.6655329923291536e-06 -0.95564561979374929 0.077999198445386941 5.7263773615459401e-06 -0.95594279454251907 1.4207235241897064e-08 -5.0356616046471636e-06 -0.81555087720704678 -3.6381090559084226e-09 -9.1417436971006111e-06 -0.66294004663938211 2.6094698324538945e-09 1.3413903020249152e-06 -0.77240106023728949 0.07703346114610006 -4.5708027886746913e-06 -0.65732013186401239 0.041832754322583293 2.1854076299237342e-06 -0.95560190700621095 0.077999198445386941 5.7263773615459401e-06 -0.95594279454251896 0.036207760301650842 2.2277301762802388e-06 -0.95556758768948713 0.077033461146100046 -4.5708027886746913e-06 -0.6573201318640125 0.036207760301650842 2.2277301762802388e-06 -0.95556758768948713 0.049408207157330561 -2.665532992329154e-06 -0.95564561979374929 0.036000231085886916 -2.1424142868361303e-06 -0.81567846742921257 0.07387261443158108 -2.6742479125528189e-06 -0.79407604338143623 0.036207760301650842 2.2277301762802388e-06 -0.95556758768948713 0.073872614431581093 -2.6742479125528193e-06 -0.79407604338143611 0.036000231085886916 -2.1424142868361303e-06 -0.81567846742921257 0.077033461146100074 -4.5708027886746904e-06 -0.6573201318640125 0.036207760301650842 2.2277301762802388e-06 -0.95556758768948713 0.049408207157330568 -2.6655329923291536e-06 -0.95564561979374929 0.07387261443158108 -2.6742479125528193e-06 -0.79407604338143623 0.077999198445386941 5.7263773615459401e-06 -0.95594279454251907 0.046147278823286696 -2.7851014516951355e-06 -0.65334798629957236 0.036000231085886916 -2.1424142868361303e-06 -0.81567846742921257 0.07387261443158108 -2.6742479125528189e-06 -0.79407604338143623 0.077033461146100046 -4.5708027886746913e-06 -0.6573201318640125 1.4207235241897064e-08 -5.0356616046471636e-06 -0.81555087720704678 0.041832754322583279 2.1854076299237317e-06 -0.95560190700621095 0.036207760301650849 2.2277301762802388e-06 -0.95556758768948713 0.07703346114610006 -4.5708027886746913e-06 -0.65732013186401239 0.036207760301650842 2.2277301762802388e-06 -0.95556758768948713 0.036000231085886916 -2.1424142868361303e-06 -0.81567846742921257 1.4207235241897064e-08 -5.0356616046471636e-06 -0.81555087720704678 0.077033461146100046 -4.5708027886746913e-06 -0.6573201318640125 -3.6381090580325306e-09 -9.1417436971006128e-06 -0.66294004663938222 1.4207235241897064e-08 -5.0356616046471636e-06 -0.81555087720704678 0.036000231085886916 -2.1424142868361307e-06 -0.81567846742921257 0.077033461146100032 -4.5708027886746904e-06 -0.65732013186401239 4.6397512212280432e-08 2.4342969840948946e-06 -0.95547777930931954 2.6094698324538945e-09 1.3413903020249152e-06 -0.77240106023728949 0.041832754322583293 2.1854076299237342e-06 -0.95560190700621095 1.4207235241897064e-08 -5.0356616046471636e-06 -0.81555087720704678 0.036207760301650842 2.2277301762802388e-06 -0.95556758768948713 4.6397512210739838e-08 2.4342969840948929e-06 -0.95547777930931943 0.041832754322583293 2.1854076299237342e-06 -0.95560190700621095 1.4207235241897064e-08 -5.0356616046471636e-06 -0.81555087720704678 -3.6381090580325306e-09 -9.1417436971006128e-06 -0.66294004663938222 0.036000231085886923 -2.1424142868361291e-06 -0.81567846742921257 7.1173484885960592e-09 -3.0403005354024138e-06 -0.76439980455336154 0.046147278823286696 -2.7851014516951376e-06 -0.65334798629957247 1.4207235241897064e-08 -5.0356616046471636e-06 -0.81555087720704678 0.036000231085886923 -2.1424142868361307e-06 -0.81567846742921268 7.11734848859606e-09 -3.0403005354024134e-06 -0.76439980455336154 -3.6381090580325306e-09 -9.1417436971006128e-06 -0.66294004663938222 3.1738251200877913e-08 -2.8737319414392034e-06 -0.95541816225900666 4.6397512212280445e-08 2.4342969840948959e-06 -0.95547777930931954 0.036207760301650842 2.2277301762802388e-06 -0.95556758768948713 1.4207235241897064e-08 -5.0356616046471636e-06 -0.81555087720704678 0.036000231085886916 -2.1424142868361303e-06 -0.81567846742921257 7.117348488327443e-09 -3.0403005354024142e-06 -0.76439980455336154 3.1738251200877913e-08 -2.8737319414392034e-06 -0.95541816225900666 1.4207235241897064e-08 -5.0356616046471636e-06 -0.81555087720704678 3.1738251200877913e-08 -2.8737319414392034e-06 -0.95541816225900666 0.036207760301650842 2.2277301762802396e-06 -0.95556758768948724 0.049408207157330568 -2.6655329923291536e-06 -0.95564561979374929 0.036000231085886916 -2.1424142868361303e-06 -0.81567846742921257 0.036000231085886916 -2.1424142868361303e-06 -0.81567846742921257 3.1738251200877913e-08 -2.8737319414392034e-06 -0.95541816225900666 0.036207760301650842 2.2277301762802388e-06 -0.95556758768948713 1.4207235241897064e-08 -5.0356616046471636e-06 -0.81555087720704678 
</DataArray>
</PointData>
<CellData Scalars="" Vectors="" Tensors="stress,">
<DataArray type="Float64" Name="stress" NumberOfComponents="9" format="ascii">
0.0058979655194912883 1.7479177033749144e-05 4.1038985379620682e-05 1.7479177033749144e-05 -0.19768359634871546 -1.3480462741718932e-05 4.1038985379620682e-05 -1.3480462741718932e-05 -0.99435424166118613 0.006275898665674573 5.2219069941794046e-06 8.2108952191899507e-06 5.2219069941794046e-06 -0.19751148112855585 3.7501999499517946e-06 8.2108952191899507e-06 3.7501999499517946e-06 -0.99381331492530423 0.0062014019306993462 9.5909373152899774e-06 1.875504346008934e-05 9.5909373152899774e-06 -0.19755416583694269 1.4668978537378279e-05 1.875504346008934e-05 1.4668978537378279e-05 -0.99402146363010135 0.0062754129916076208 1.9245176827928283e-06 -3.5805510305686461e-05 1.9245176827928283e-06 -0.19752970701373856 4.5160780268423428e-05 -3.5805510305686461e-05 4.5160780268423428e-05 -0.99391956361811062 0.0062661869485246546 -3.2369240668129756e-06 -0.00015299674421492826 -3.2369240668129756e-06 -0.19750487542069572 -2.7824651723087901e-05 -0.00015299674421492826 -2.7824651723087901e-05 -0.99388947695987895 0.0059529824457491554 2.0989714169034801e-05 -7.849227645614909e-05 2.0989714169034801e-05 -0.19762863716536927 -3.4097711308689327e-05 -7.849227645614909e-05 -3.4097711308689327e-05 -0.99408738289363252 0.0062620775556658514 -2.1622521870886982e-06 -3.0067544923628731e-05 -2.1622521870886982e-06 -0.19753085915209878 4.4807096859778017e-05 -3.0067544923628731e-05 4.4807096859778017e-05 -0.99392401814749487 0.0059416494591386093 2.719330179528729e-05 -8.6082799977182933e-05 2.719330179528729e-05 -0.19764663260586557 -2.1982437865442073e-05 -8.6082799977182933e-05 -2.1982437865442073e-05 -0.99416882734616718 0.0062053275342887348 -2.6465230093311542e-06 -0.00011141411692883185 -2.6465230093311542e-06 -0.19756413441045714 -1.6278967880117845e-05 -0.00011141411692883185 -1.6278967880117845e-05 -0.99412794547131322 0.0062086496085417275 -5.697655516084243e-06 -0.00010347710650782105 -5.697655516084243e-06 -0.19758496399433539 -2.8940912281005815e-05 -0.00010347710650782105 -2.8940912281005815e-05 -0.99411787130624241 0.0061986821539566882 -1.8641464341018327e-05 -7.9441782142752881e-05 -1.8641464341018327e-05 -0.19757052080438708 -4.0217672409081917e-05 -7.9441782142752881e-05 -4.0217672409081917e-05 -0.994031256982566 0.0062780550959128378 1.404536067097517e-05 -1.7814783276282053e-05 1.404536067097517e-05 -0.19755417444417639 2.6119194153295666e-05 -1.7814783276282053e-05 2.6119194153295666e-05 -0.99403593932830381 0.0063609823804122168 1.4385099408418948e-06 -7.7482380196447487e-05 1.4385099408418948e-06 -0.19751300179850351 4.0952911776026557e-05 -7.7482380196447487e-05 4.0952911776026557e-05 -0.99391127368847032 0.0062745898659799376 8.3452795983700749e-06 -2.3002222290791074e-06 8.3452795983700749e-06 -0.19749566773952371 -2.1825334983960332e-05 -2.3002222290791074e-06 -2.1825334983960332e-05 -0.99383563278343823 0.0062625133957994183 4.8452433450240081e-06 5.7760963283510967e-06 4.8452433450240081e-06 -0.19751417883727623 -7.2946933349310277e-07 5.7760963283510967e-06 -7.2946933349310277e-07 -0.99386850845022856 0.0059130916458069805 -1.4769155242303518e-05 -1.5983160964427845e-05 -1.4769155242303518e-05 -0.19767849408901181 6.8217560830767485e-06 -1.5983160964427845e-05 6.8217560830767485e-06 -0.99437668187472938 0.0059657493409460832 -2.0393612650817318e-05 -0.0001298842138335865 -2.0393612650817318e-05 -0.19763669286173857 -3.0027364473772522e-05 -0.0001298842138335865 -3.0027364473772522e-05 -0.99419085192921575 0.0056176344780360628 4.9733387741746445e-05 5.694411298069134e-05 4.9733387741746445e-05 -0.1977476726176747 6.6451428251912608e-06 5.694411298069134e-05 6.6451428251912608e-06 -0.99445584136747234 0.0058818317327716807 3.3095658694862151e-05 3.0298346345825067e-05 3.3095658694862151e-05 -0.19769574697281064 5.7683341888048467e-06 3.0298346345825067e-05 5.7683341888048467e-06 -0.99437803598730812 0.0052957990306737937 2.6688111174313532e-05 -0.00024144620059052269 2.6688111174313532e-05 -0.19784349296164214 3.8990078514433701e-06 -0.00024144620059052269 3.8990078514433701e-06 -0.99453033319779827 0.0050298639013615087 5.2742215348790176e-05 7.2528242189479064e-05 5.2742215348790176e-05 -0.1980179086498472 -1.851825060805723e-05 7.2528242189479064e-05 -1.851825060805723e-05 -0.99516355499018472 0.0050236416179672561 4.5050410932592767e-05 7.6284596668700616e-05 4.5050410932592767e-05 -0.19802602489406929 -1.3185031331263311e-06 7.6284596668700616e-05 -1.3185031331263311e-06 -0.99517488360111939 0.0050233402410804744 -2.6155926765695059e-05 -2.3803339884450011e-05 -2.6155926765695059e-05 -0.1979928748067103 9.4122013084504262e-06 -2.3803339884450011e-05 9.4122013084504262e-06 -0.99509640374337038 0.0050789419687671533 -3.2165381514026115e-05 -0.00019006138266919326 -3.2165381514026115e-05 -0.19791945617236728 -6.6615935635479655e-05 -0.00019006138266919326 -6.6615935635479655e-05 -0.99477582569687784 0.0050755200081288032 4.3682357383123e-05 -0.00012103361348428376 4.3682357383123e-05 -0.19800347628701923 -1.4514873762083713e-05 -0.00012103361348428376 -1.4514873762083713e-05 -0.99510452265245009 0.0051434361584163091 5.22367024773423e-05 -0.0001042173617113451 5.22367024773423e-05 -0.19791887591811325 -7.550366452191426e-05 -0.0001042173617113451 -7.550366452191426e-05 -0.9947707630516911 0.0057773262368242401 -5.1802757153856149e-05 -0.00039759260643712491 -5.1802757153856149e-05 -0.19771592561718798 -5.2373723937626515e-05 -0.00039759260643712491 -5.2373723937626515e-05 -0.99432236988771372 0.0060026059704488821 1.325193513005302e-05 -0.00018888752455015201 1.325193513005302e-05 -0.1976225776328896 3.6230968070261049e-05 -0.00018888752455015201 3.6230968070261049e-05 -0.99408903397358883 0.0057345030452936041 5.1994140865178423e-06 -0.00049999551769841499 5.1994140865178423e-06 -0.19776761368411616 -7.9236661276738118e-06 -0.00049999551769841499 -7.9236661276738118e-06 -0.99455001686885425 0.0051428140930868949 7.2960458041218079e-05 -0.00030265981553048715 7.2960458041218079e-05 -0.19798551862400868 1.5038356712626655e-05 -0.00030265981553048715 1.5038356712626655e-05 -0.99509179991248697 0.005320832727161745 2.6154753864377269e-05 -0.00022763608195552898 2.6154753864377269e-05 -0.1979461567482467 -3.7895304913534988e-05 -0.00022763608195552898 -3.7895304913534988e-05 -0.99503282699013462 0.0059451881064043876 9.027474449519938e-06 -0.00013551198254480035 9.027474449519938e-06 -0.19769158169838413 1.4286178481592859e-05 -0.00013551198254480035 1.4286178481592859e-05 -0.99438465085300098 0.0053269664348120031 6.2967655405594809e-06 -0.00018685683757330152 6.2967655405594809e-06 -0.19784519669133305 1.2975638509993281e-05 -0.00018685683757330152 1.2975638509993281e-05 -0.99453509001586049 0.0051961463594308154 4.611548889255593e-05 -0.00028023621976325241 4.611548889255593e-05 -0.19786759287477709 9.540475294894657e-05 -0.00028023621976325241 9.540475294894657e-05 -0.99455930198732367 0.0053189614670527963 7.5071164857531177e-05 -0.0004196074215647716 7.5071164857531177e-05 -0.19782176134149987 -4.5442661641081905e-05 -0.0004196074215647716 -4.5442661641081905e-05 -0.99443686461089742 0.0051559344322085199 7.2814108073643389e-05 -0.00029309977615532556 7.2814108073643389e-05 -0.19797555823702184 -9.3760305419632317e-07 -0.00029309977615532556 -9.3760305419632317e-07 -0.99504069789297223 0.0062029181537640588 1.088463402853766e-05 -0.00021408952686358118 1.088463402853766e-05 -0.19760629020903253 1.9395022501367265e-05 -0.00021408952686358118 1.9395022501367265e-05 -0.99418546484766379 0.0060865895976692785 3.5212546882269973e-05 -0.00025260733594723028 3.5212546882269973e-05 -0.19757675735720098 -6.5099659506406837e-06 -0.00025260733594723028 -6.5099659506406837e-06 -0.99392285889790366 0.0062904014452816459 -2.7243993986839346e-05 -0.00014521134995432172 -2.7243993986839346e-05 -0.19752356652630626 -2.7565051482825176e-05 -0.00014521134995432172 -2.7565051482825176e-05 -0.99388707964438661 0.0064072827199130201 2.7321308339095643e-06 -0.00010001571638884599 2.7321308339095643e-06 -0.19749335851616678 -4.5320981904684032e-05 -0.00010001571638884599 -4.5320981904684032e-05 -0.99383127588827014 0.0062896183289203877 -3.373844921952482e-05 -2.7764309016707622e-05 -3.373844921952482e-05 -0.19753219695148505 -2.719514095377018e-05 -2.7764309016707622e-05 -2.719514095377018e-05 -0.99392982013544873 0.0066510408676891952 1.8200137677228943e-06 -0.00013608622369298828 1.8200137677228943e-06 -0.1974001485788569 2.8970471257938613e-05 -0.00013608622369298828 2.8970471257938613e-05 -0.99357656907737857 0.0064970854045585669 3.430904411956795e-05 -2.1221954053185499e-05 3.430904411956795e-05 -0.19746451819755834 2.4640492190086682e-05 -2.1221954053185499e-05 2.4640492190086682e-05 -0.99380192591604311 0.0066358309904981372 3.9553932810981643e-06 -0.00012229557960963255 3.9553932810981643e-06 -0.19741009379484775 4.2228721570225503e-05 -0.00012229557960963255 4.2228721570225503e-05 -0.99364278776430814 0.0063804974752139643 7.6243392772931785e-07 -9.5201653879439796e-05 7.6243392772931785e-07 -0.19749486948158107 2.3561108695113742e-05 -9.5201653879439796e-05 2.3561108695113742e-05 -0.99383174516880302 0.006603852581562944 -5.7377798576427443e-06 -0.00020962575768579406 -5.7377798576427443e-06 -0.19742557150220974 -4.3102932490657331e-05 -0.00020962575768579406 -4.3102932490657331e-05 -0.99367900530020536 0.0066119506348237822 -1.0861418268557163e-06 -0.00021792878556237127 -1.0861418268557163e-06 -0.19737963188584018 -4.2913451376858092e-06 -0.00021792878556237127 -4.2913451376858092e-06 -0.99365670795521277 0.0062795807807725645 -2.0376519449957407e-06 -0.00016492080489372007 -2.0376519449957407e-06 -0.19749751064747639 -3.1320056881334324e-08 -0.00016492080489372007 -3.1320056881334324e-08 -0.99382985167638926 0.0064656296237062261 5.9119160006652594e-06 -2.458934470805918e-05 5.9119160006652594e-06 -0.1974722184420698 -1.2262962765574592e-05 -2.458934470805918e-05 -1.2262962765574592e-05 -0.9939296025382125 0.0062985172857622507 -1.6478410358174474e-06 -0.00016382226506722608 -1.6478410358174474e-06 -0.19747991765747586 8.7515679022542869e-06 -0.00016382226506722608 8.7515679022542869e-06 -0.99375277397676554 0.006264581490252108 5.5934772639232742e-05 -8.6633314446922516e-05 5.5934772639232742e-05 -0.19754487489375805 3.0120365715258224e-05 -8.6633314446922516e-05 3.0120365715258224e-05 -0.99408527886015663 0.0063389191834345437 7.5023102327669873e-05 -0.00012705321828271332 7.5023102327669873e-05 -0.19748121421170811 -3.7289609835178261e-05 -0.00012705321828271332 -3.7289609835178261e-05 -0.99382045608151892 0.0062613463989099338 7.4016278500232727e-06 -0.00015750906489038485 7.4016278500232727e-06 -0.19752385020609345 5.9025737755458163e-05 -0.00015750906489038485 5.9025737755458163e-05 -0.99392177035397544 0.0064002815436577931 -0.00011963891427233158 -8.4974484926947369e-05 -0.00011963891427233158 -0.19746688120623018 5.6793129695864586e-05 -8.4974484926947369e-05 5.6793129695864586e-05 -0.99383592605327764 0.0065574413944539112 -3.6320078522077384e-06 -0.00026533702681208471 -3.6320078522077384e-06 -0.19738437824849597 6.9172939146100454e-05 -0.00026533702681208471 6.9172939146100454e-05 -0.99359021677503079 0.0052330037435606713 -1.2859784507096165e-05 -0.00017774613841503584 -1.2859784507096165e-05 -0.19796222567626554 -8.237377805593582e-06 -0.00017774613841503584 -8.237377805593582e-06 -0.99511016400493602 0.0054873137009484041 -6.0669956589246181e-05 -0.00013906774605887406 -6.0669956589246181e-05 -0.19773100289790851 -7.2465875167460059e-06 -0.00013906774605887406 -7.2465875167460059e-06 -0.99424804055525873 0.0052559211519059013 -2.0171359525078491e-05 -0.00019675378309444436 -2.0171359525078491e-05 -0.19795284518351106 1.1970173938113948e-05 -0.00019675378309444436 1.1970173938113948e-05 -0.99506205500890277 0.0055907045926399945 -2.6969185394135027e-05 -0.00043937457605996988 -2.6969185394135027e-05 -0.19779203083250663 1.3701795220311119e-05 -0.00043937457605996988 1.3701795220311119e-05 -0.99462249036207173 0.0054093400810811265 -9.6298194190893135e-05 -0.00029881428588922343 -9.6298194190893135e-05 -0.19791722525985117 0.00014139580965982779 -0.00029881428588922343 0.00014139580965982779 -0.99510883969867581 0.0057369108410933456 1.3810968050869869e-05 -0.00049531746661357623 1.3810968050869869e-05 -0.19774154800079949 -5.9201455261392866e-06 -0.00049531746661357623 -5.9201455261392866e-06 -0.99454685362523709 0.0052036564332123003 8.9307517906318012e-07 -8.8309429912114545e-05 8.9307517906318012e-07 -0.19791605510222954 -0.00021988221994301282 -8.8309429912114545e-05 -0.00021988221994301282 -0.99469476157343406 0.0054528941069441061 -6.3798594528205415e-08 -0.0002625570201296723 -6.3798594528205415e-08 -0.19780882627051918 -4.0317062512656293e-06 -0.0002625570201296723 -4.0317062512656293e-06 -0.99459117615102977 0.0051390171189274608 -1.0266445477265288e-05 -0.00031284238163437061 -1.0266445477265288e-05 -0.19795732854116921 1.5693159402530021e-06 -0.00031284238163437061 1.5693159402530021e-06 -0.99497430508764662 0.0052707661826725261 1.3871426603966303e-05 5.9603220555531492e-05 1.3871426603966303e-05 -0.19787451807639164 -5.4520811413920856e-06 5.9603220555531492e-05 -5.4520811413920856e-06 -0.99451982746048517 0.0058652220292792837 -2.7406316052916167e-05 1.5116683616367421e-05 -2.7406316052916167e-05 -0.19768814635398599 5.9119936428930764e-05 1.5116683616367421e-05 5.9119936428930764e-05 -0.99433103954470947 0.0052122166690727473 3.1038283397226642e-06 -0.0001487904153092412 3.1038283397226642e-06 -0.19790814596600464 0.00023156280001429552 -0.0001487904153092412 0.00023156280001429552 -0.99477921446108586 0.0054220011940323901 -0.0001027524623987956 -0.00022887948103633704 -0.0001027524623987956 -0.19780285910329071 -5.6990766276243665e-05 -0.00022887948103633704 -5.6990766276243665e-05 -0.99454412346512433 0.005840406100923623 -1.5709335326817615e-05 5.3011695823710524e-05 -1.5709335326817615e-05 -0.19772983302073524 -5.1319352199694588e-06 5.3011695823710524e-05 -5.1319352199694588e-06 -0.99437824212177162 0.0050386908053713375 -5.829417666298923e-07 6.273934218999655e-05 -5.829417666298923e-07 -0.19799791938800126 3.0273367447081982e-07 6.273934218999655e-05 3.0273367447081982e-07 -0.99512303516491141 0.0050655983623435485 -1.7855665533655073e-05 6.4884686074373254e-05 -1.7855665533655073e-05 -0.19803418265907358 -8.6430664989830153e-06 6.4884686074373254e-05 -8.6430664989830153e-06 -0.99512630375737055 0.0061925482582684543 -5.7996250297678485e-06 -0.00010491818331115343 -5.7996250297678485e-06 -0.197583847664764 5.4557145813260988e-06 -0.00010491818331115343 5.4557145813260988e-06 -0.99416546056535937 0.0061904180953655848 8.3173702387558897e-06 -0.00010635326111334449 8.3173702387558897e-06 -0.19758607473061704 3.8661113079541121e-05 -0.00010635326111334449 3.8661113079541121e-05 -0.99416874916878928 0.0062339443490466995 4.6896420035826544e-06 -5.8404275072476697e-05 4.6896420035826544e-06 -0.19757055434756135 -1.7774171949319281e-06 -5.8404275072476697e-05 -1.7774171949319281e-06 -0.99408699238708775 0.0058571141743759547 -2.0585315754283977e-06 3.2914531928326537e-05 -2.0585315754283977e-06 -0.19767126487364273 -6.5882104095772939e-07 3.2914531928326537e-05 -6.5882104095772939e-07 -0.99421530191600671 0.0062604272304029604 5.7607339049775606e-06 4.4003041726271749e-06 5.7607339049775606e-06 -0.19751001064105536 -1.6028068193526905e-06 4.4003041726271749e-06 -1.6028068193526905e-06 -0.99386846556318853 0.0062542611136451598 3.3418240582938566e-06 -7.2289212215739514e-07 3.3418240582938566e-06 -0.19752443185653784 -1.2761861128862684e-05 -7.2289212215739514e-07 -1.2761861128862684e-05 -0.99388487964305661 0.0062402550572178139 -1.3062351449764586e-06 -5.5042950884931496e-05 -1.3062351449764586e-06 -0.19756046595564741 -1.6262683445983361e-05 -5.5042950884931496e-05 -1.6262683445983361e-05 -0.99405185081247216 0.0063123492845115203 -4.2687489052361604e-07 -8.8517220177164457e-05 -4.2687489052361604e-07 -0.19749334429570475 -2.0851902535857364e-05 -8.8517220177164457e-05 -2.0851902535857364e-05 -0.99378889830110984 0.0062695158127820203 -5.3105763045146054e-07 4.4873955705198752e-06 -5.3105763045146054e-07 -0.1975127157607757 2.8157681921766987e-06 4.4873955705198752e-06 2.8157681921766987e-06 -0.99390496954550123 0.0062580908020082949 9.0037603607348175e-06 3.8151184362778476e-06 9.0037603607348175e-06 -0.19752924212902701 1.3440423021185945e-06 3.8151184362778476e-06 1.3440423021185945e-06 -0.99390382455025583 0.0063470201597169151 1.6172873507868672e-05 -9.3607384352961676e-05 1.6172873507868672e-05 -0.19748018244340679 6.8256857486681533e-06 -9.3607384352961676e-05 6.8256857486681533e-06 -0.99375802692587578 0.0062659375632024283 1.5140291856567184e-05 -5.5802050531350567e-05 1.5140291856567184e-05 -0.19755323561914262 7.7780354896805903e-06 -5.5802050531350567e-05 7.7780354896805903e-06 -0.99405388566389252 0.0062690912157482214 -1.304710627281213e-05 9.4259106034185582e-06 -1.304710627281213e-05 -0.19752069054960339 2.8850512194504918e-06 9.4259106034185582e-06 2.8850512194504918e-06 -0.99384508289826301 0.005916535113751259 9.375061818483586e-06 4.9883733458239155e-05 9.375061818483586e-06 -0.19764770460380082 1.363075138377523e-05 4.9883733458239155e-05 1.363075138377523e-05 -0.99418287130055638 0.0062750641072301938 -3.2792775582104354e-06 1.7467529401349324e-05 -3.2792775582104354e-06 -0.19751650100494786 2.2059993495526786e-05 1.7467529401349324e-05 2.2059993495526786e-05 -0.9938734700605425 0.0062538935095935132 -3.7343584505092591e-06 3.0664900491159724e-06 -3.7343584505092591e-06 -0.19753248478873961 7.6387423533877565e-06 3.0664900491159724e-06 7.6387423533877565e-06 -0.99385486057333938 0.0058753788965679732 -2.0348851201553035e-05 5.9238338276638137e-05 -2.0348851201553035e-05 -0.19766825206046718 7.7523185426269645e-06 5.9238338276638137e-05 7.7523185426269645e-06 -0.99418439118850532 0.0058767563488525409 -1.4588074352528462e-05 2.9948135747959621e-05 -1.4588074352528462e-05 -0.19767119237923275 1.5203535023525283e-06 2.9948135747959621e-05 1.5203535023525283e-06 -0.99421064483728205 0.0062170067989811284 -1.213913469509762e-05 -7.6838418008207121e-05 -1.213913469509762e-05 -0.19757806902258979 -2.4193125010840699e-06 -7.6838418008207121e-05 -2.4193125010840699e-06 -0.99408048070382504 0.0063620154389221195 -6.1676852453753508e-06 -8.102095085660288e-05 -6.1676852453753508e-06 -0.19745769267490754 -2.718386791245031e-05 -8.102095085660288e-05 -2.718386791245031e-05 -0.99380650410522464 0.0063233229174659566 3.6330744288187742e-07 -9.3809802810762566e-05 3.6330744288187742e-07 -0.19748206823617798 1.9956191028173975e-05 -9.3809802810762566e-05 1.9956191028173975e-05 -0.99374528955656838 0.0062349410105762837 -9.4898071150877749e-07 -5.8826255542987482e-05 -9.4898071150877749e-07 -0.19756700758144913 1.8497358234757094e-05 -5.8826255542987482e-05 1.8497358234757094e-05 -0.99408748160697236 0.0060568989672647455 0.00014225300578185347 -0.00016846869354779359 0.00014225300578185347 -0.19757731738588524 7.5200986106527257e-05 -0.00016846869354779359 7.5200986106527257e-05 -0.9940623642340104 0.0063317095832733372 5.8284259983362717e-06 -7.9277372578290262e-05 5.8284259983362717e-06 -0.19755179696254227 1.7552937399589047e-05 -7.9277372578290262e-05 1.7552937399589047e-05 -0.9940726950622143 0.00636272926732806 4.6403633900818205e-08 -9.9557504161129629e-05 4.6403633900818205e-08 -0.1974980394306006 -2.6036237138819113e-05 -9.9557504161129629e-05 -2.6036237138819113e-05 -0.99401395965687589 0.0060712643437748071 -4.6457202264432236e-07 -0.00029998502358856427 -4.6457202264432236e-07 -0.19763988694817014 -2.0979414757454906e-05 -0.00029998502358856427 -2.0979414757454906e-05 -0.99428996654472979 0.0063257615191188998 4.6305535587109186e-08 -9.4924836282150871e-05 4.6305535587109186e-08 -0.19748496518760278 1.2285977777248824e-05 -9.4924836282150871e-05 1.2285977777248824e-05 -0.99373019676468699 0.0062346391294803571 -3.6463184601420291e-05 -3.5034267443223577e-05 -3.6463184601420291e-05 -0.19752660212548329 1.3587780382295911e-05 -3.5034267443223577e-05 1.3587780382295911e-05 -0.99391924595774561 0.0062279347561009224 -0.00010441660412656613 -9.3288663456272958e-05 -0.00010441660412656613 -0.1975742818525956 -5.3122641304803597e-05 -9.3288663456272958e-05 -5.3122641304803597e-05 -0.99407918439615661 0.0065660055505415427 -1.0586375347000362e-06 -0.00025499578979626403 -1.0586375347000362e-06 -0.19739680947533822 3.2037139593255742e-05 -0.00025499578979626403 3.2037139593255742e-05 -0.99353486522078871 0.0065389774721988925 -1.063983694423042e-06 -0.00025901333649203107 -1.063983694423042e-06 -0.19742497617966204 -4.6110701642121388e-05 -0.00025901333649203107 -4.6110701642121388e-05 -0.99364185385102655 0.0065657787036830229 -7.3245666453950792e-06 -0.00023104316914202006 -7.3245666453950792e-06 -0.1973697754308652 -1.3612792182260414e-05 -0.00023104316914202006 -1.3612792182260414e-05 -0.9934766156598096 0.0065037909847586173 4.0770730308625109e-07 -0.0002165705883825364 4.0770730308625109e-07 -0.19740743616031076 -2.2211598955892975e-05 -0.0002165705883825364 -2.2211598955892975e-05 -0.99369941355819913 0.0064977439649903102 -8.9755446526776523e-06 -0.00021489608662872417 -8.9755446526776523e-06 -0.19743806763694621 5.0785263940866798e-06 -0.00021489608662872417 5.0785263940866798e-06 -0.99374094032938731 0.0060690903104143878 -2.4913133587276193e-05 -0.00023688192070173142 -2.4913133587276193e-05 -0.19759432628684584 -1.7524966958309962e-05 -0.00023688192070173142 -1.7524966958309962e-05 -0.99405111338870722 0.0063501531716638471 -1.0086149363508655e-05 -9.3039396682842446e-05 -1.0086149363508655e-05 -0.19753351955106768 7.276671675215951e-06 -9.3039396682842446e-05 7.276671675215951e-06 -0.99402350641869375 0.0065265848844543659 2.5786728472428227e-05 -0.00021846516549961503 2.5786728472428227e-05 -0.19743762765533027 5.2531625306939667e-05 -0.00021846516549961503 5.2531625306939667e-05 -0.99366199383850973 0.0065193375772060191 -5.5151373345335944e-07 -0.00022795084517657216 -5.5151373345335944e-07 -0.19738789322464573 4.0127774378895253e-06 -0.00022795084517657216 4.0127774378895253e-06 -0.99364137067836955 0.0066137789600340113 -4.9078185141252049e-06 -0.00012395995367409096 -4.9078185141252049e-06 -0.19741346139877647 -4.2539754863568646e-05 -0.00012395995367409096 -4.2539754863568646e-05 -0.99361483552370933 0.006483687121061732 -3.2236051392882545e-05 -3.0275401994628304e-05 -3.2236051392882545e-05 -0.19746506094568722 -2.3164957180132895e-05 -3.0275401994628304e-05 -2.3164957180132895e-05 -0.99377718830967754 0.0063535024123548001 1.2934493032367449e-05 -0.00011745468326740394 1.2934493032367449e-05 -0.19749753139929219 5.7269549436411715e-05 -0.00011745468326740394 5.7269549436411715e-05 -0.99380655438316279 0.0060824462093636757 -8.6643344059005946e-06 -0.00025946176109759023 -8.6643344059005946e-06 -0.19756299965122423 2.3980249760024996e-05 -0.00025946176109759023 2.3980249760024996e-05 -0.99386869178060488 0.006386217224641666 -9.210865090675488e-07 -9.1831293608124476e-05 -9.210865090675488e-07 -0.19748882389450767 -2.391317577110641e-05 -9.1831293608124476e-05 -2.391317577110641e-05 -0.9937926829650976 0.0063745357836488825 -6.2555054579278165e-06 -7.8215037244422358e-05 -6.2555054579278165e-06 -0.19748983629027389 -2.8659696150512559e-05 -7.8215037244422358e-05 -2.8659696150512559e-05 -0.99385021038660815 0.0063019969901601525 -1.1325485716240121e-05 -2.3330439746116483e-05 -1.1325485716240121e-05 -0.19752210643973744 -2.125558486615331e-05 -2.3330439746116483e-05 -2.125558486615331e-05 -0.99397818871532873 0.006154420733384125 1.8735108057500943e-06 3.842516761117338e-05 1.8735108057500943e-06 -0.19756109753743861 -1.3523181828192401e-05 3.842516761117338e-05 -1.3523181828192401e-05 -0.99409190315732798 0.0062845252127567974 -1.6905800095331735e-06 -4.634238044681771e-05 -1.6905800095331735e-06 -0.19751736417825794 -2.8588585599842453e-05 -4.634238044681771e-05 -2.8588585599842453e-05 -0.99394583831293626 0.0062223899444036335 1.6892368124389336e-05 -1.169473126830245e-05 1.6892368124389336e-05 -0.19753672073244438 -4.1846877695067564e-05 -1.169473126830245e-05 -4.1846877695067564e-05 -0.99399732426921195 0.0061955551057709113 -2.7325942248388999e-06 7.6316578739773186e-06 -2.7325942248388999e-06 -0.19752289812629059 -2.191766159287431e-06 7.6316578739773186e-06 -2.191766159287431e-06 -0.99390559896007513 0.0062844144734410246 1.172397309806158e-06 -4.1869690130535986e-05 1.172397309806158e-06 -0.19755078405788373 -1.4490575736700317e-05 -4.1869690130535986e-05 -1.4490575736700317e-05 -0.99402933971229901 0.0062077874291164292 -2.0277509914431452e-05 1.1175864404978677e-05 -2.0277509914431452e-05 -0.19754042744036959 1.1130962726536898e-05 1.1175864404978677e-05 1.1130962726536898e-05 -0.99391596332086829 0.0062616969077259332 -3.1148772069319562e-06 -2.0177130147291944e-05 -3.1148772069319562e-06 -0.1975522704755234 -5.9361256149748076e-06 -2.0177130147291944e-05 -5.9361256149748076e-06 -0.99406985330071362 0.0062479921375184211 -8.109838243322685e-07 -1.0193566807370491e-05 -8.109838243322685e-07 -0.19752960599823277 -9.4306777403962982e-06 -1.0193566807370491e-05 -9.4306777403962982e-06 -0.99388729997658032 0.0062501446300655128 -1.8239115243821091e-05 -2.0608375957409386e-05 -1.8239115243821091e-05 -0.19756171597920741 5.642640052521547e-06 -2.0608375957409386e-05 5.642640052521547e-06 -0.99406431751232616 0.006350575872387583 5.5332431736113507e-06 -8.8041298879792951e-05 5.5332431736113507e-06 -0.19750301366947276 -1.8584939523835775e-05 -8.8041298879792951e-05 -1.8584939523835775e-05 -0.99385147490356474 0.0063461539873244655 -2.2864257353246064e-06 -8.4873177846389591e-05 -2.2864257353246064e-06 -0.19750015321370384 -3.4234276407030251e-06 -8.4873177846389591e-05 -3.4234276407030251e-06 -0.99384331274913396 0.0058929651804910388 -2.7999903480962202e-05 5.7419465555999527e-05 -2.7999903480962202e-05 -0.197649780298149 3.6481603493121462e-06 5.7419465555999527e-05 3.6481603493121462e-06 -0.99418546219959736 0.0058917954364609559 -2.9859745127465229e-05 5.8811381513552476e-05 -2.9859745127465229e-05 -0.1976569635026475 1.0001441826870854e-05 5.8811381513552476e-05 1.0001441826870854e-05 -0.99418104158435927 0.0059381008196521257 3.164513621590314e-05 -1.8900165223005096e-06 3.164513621590314e-05 -0.19761761648818371 -9.324393394428284e-06 -1.8900165223005096e-06 -9.324393394428284e-06 -0.99415614052875056 0.005918536432657634 3.5083144679359092e-05 -0.00012231421112701701 3.5083144679359092e-05 -0.19764287795363047 -8.1610124780806537e-05 -0.00012231421112701701 -8.1610124780806537e-05 -0.9942720553297455 0.0058493430356955645 -2.5858124538112525e-05 -5.4230394868834408e-05 -2.5858124538112525e-05 -0.1976983946427889 -3.5169215053976188e-05 -5.4230394868834408e-05 -3.5169215053976188e-05 -0.99438965469205098 0.0059521579912207856 -2.7995971993962265e-05 -0.000108024758537828 -2.7995971993962265e-05 -0.19760716507171461 -1.861392456264932e-05 -0.000108024758537828 -1.861392456264932e-05 -0.99402792549643082 0.0062914129388157297 -5.0614294921026377e-06 -4.0951415425316551e-05 -5.0614294921026377e-06 -0.19752879817239155 -3.3460114540750929e-06 -4.0951415425316551e-05 -3.3460114540750929e-06 -0.99397515594598129 0.0054081449887039557 8.0249342809873855e-05 0.0001453377466503758 8.0249342809873855e-05 -0.19778061880252734 1.1259203689273356e-05 0.0001453377466503758 1.1259203689273356e-05 -0.994355235677298 0.0054477664670665449 -0.00046539572838034092 -0.00030079189662773897 -0.00046539572838034092 -0.19781589838880295 -0.00013115832619958745 -0.00030079189662773897 -0.00013115832619958745 -0.99465324901613517 0.0053891440973534016 6.2668993606234972e-05 -0.00022094989633014706 6.2668993606234972e-05 -0.19783527198756623 1.1195150136839027e-05 -0.00022094989633014706 1.1195150136839027e-05 -0.99461211117264137 0.0056349068755341958 -1.7522068507769704e-05 5.8906365871419771e-05 -1.7522068507769704e-05 -0.19775466870251018 -4.6924096387921933e-06 5.8906365871419771e-05 -4.6924096387921933e-06 -0.99454071578920988 0.0051275858476444169 1.9014077198018443e-05 2.0329934641398484e-05 1.9014077198018443e-05 -0.19797228128393252 0.00017957705687993153 2.0329934641398484e-05 0.00017957705687993153 -0.99512015675394705 0.0051115765686197689 -3.1576808273746264e-05 2.9452436040390412e-05 -3.1576808273746264e-05 -0.19800567483956882 -1.0958887635541453e-05 2.9452436040390412e-05 -1.0958887635541453e-05 -0.99523338620529633 0.0049884235989834796 5.6277284312927395e-06 -0.00020894031188301349 5.6277284312927395e-06 -0.19797773225365889 -0.00012487918165732451 -0.00020894031188301349 -0.00012487918165732451 -0.99489545617400732 0.0052355770946106708 6.1952327446724269e-05 -9.8898420144026734e-07 6.1952327446724269e-05 -0.19786185758224242 -4.6216859036114387e-06 -9.8898420144026734e-07 -4.6216859036114387e-06 -0.99463498527366656 0.0050218516361158899 -2.8520277781252412e-05 -1.0994851749379642e-05 -2.8520277781252412e-05 -0.197994561591048 1.8902472406934212e-05 -1.0994851749379642e-05 1.8902472406934212e-05 -0.99501982424052615 0.0049261242061274246 -5.9859652270313056e-05 -0.00015957153631604437 -5.9859652270313056e-05 -0.19805563166684861 1.6809820175822665e-06 -0.00015957153631604437 1.6809820175822665e-06 -0.99522740389247111 0.0057476885267865874 4.224689145095416e-06 -0.00048098680022157225 4.224689145095416e-06 -0.19777981569868713 1.4162345388535336e-05 -0.00048098680022157225 1.4162345388535336e-05 -0.99467083082269303 0.0058853794110940161 8.2755404075081151e-06 -0.00021309656987905656 8.2755404075081151e-06 -0.19763983379594849 -2.5031078933430984e-05 -0.00021309656987905656 -2.5031078933430984e-05 -0.9941015065775558 0.0053276978125345043 -2.393651462790105e-05 -0.0002637076142847361 -2.393651462790105e-05 -0.19781077236940497 -1.6428200052431841e-05 -0.0002637076142847361 -1.6428200052431841e-05 -0.99441807758003309 0.0051358253521833763 -9.4584790076666885e-06 -0.0001106986902730811 -9.4584790076666885e-06 -0.19792149628979688 -5.0032769889490902e-05 -0.0001106986902730811 -5.0032769889490902e-05 -0.99477152315819328 0.0057565249968302284 -1.1194370526436808e-06 -0.00011104996356303687 -1.1194370526436808e-06 -0.19770754022634041 2.4369232238113936e-06 -0.00011104996356303687 2.4369232238113936e-06 -0.99433591277260702 0.0051251283259896585 -2.0353579502291683e-05 -0.00015755661559618828 -2.0353579502291683e-05 -0.19799048363541519 -1.5493302065849868e-05 -0.00015755661559618828 -1.5493302065849868e-05 -0.99510484286887657 0.0053171469581957398 -4.0149499316015263e-05 -0.00032206066265244582 -4.0149499316015263e-05 -0.19790302439329821 2.8723243359590755e-05 -0.00032206066265244582 2.8723243359590755e-05 -0.99487111775011094 0.0059564401561076757 -4.2760465549654881e-05 -0.00015054629902555572 -4.2760465549654881e-05 -0.19765616808708619 2.1868667421653942e-05 -0.00015054629902555572 2.1868667421653942e-05 -0.9942804601028028 0.0062340098800057545 3.2513799428933176e-06 -0.00021854807715016022 3.2513799428933176e-06 -0.19761206844425097 1.0167592939591685e-05 -0.00021854807715016022 1.0167592939591685e-05 -0.99426539980140094 0.0052296125833718454 -6.6540665212730789e-05 -0.00038914513909960036 -6.6540665212730789e-05 -0.19794931900886026 -2.7385390908851726e-05 -0.00038914513909960036 -2.7385390908851726e-05 -0.99503874879665677 0.0057337484259314397 -4.5790088896856673e-05 -0.00046691252128461258 -4.5790088896856673e-05 -0.19777657488848471 6.9005675548128309e-06 -0.00046691252128461258 6.9005675548128309e-06 -0.99466829353961583 0.0054780424662199956 8.9050866864512297e-05 -0.00034795097147910514 8.9050866864512297e-05 -0.19790789930098956 -0.000101218357041577 -0.00034795097147910514 -0.000101218357041577 -0.9950244537785784 0.0055775597430142154 1.5315171386697391e-05 -0.0004415376955885647 1.5315171386697391e-05 -0.19783102511004147 2.099369277086538e-06 -0.0004415376955885647 2.099369277086538e-06 -0.99471273483425859 0.005529776208202053 6.9123994205935212e-05 -0.00014998045529435178 6.9123994205935212e-05 -0.19774023631028348 -4.3338711975676736e-06 -0.00014998045529435178 -4.3338711975676736e-06 -0.99424185463647929 0.0054812951175256391 9.4236292905210622e-05 -0.00021597827260738667 9.4236292905210622e-05 -0.19780894347543501 2.8562208850724247e-05 -0.00021597827260738667 2.8562208850724247e-05 -0.994546488876769 0.0052643773217251333 -3.4531335617644108e-05 8.9459679748419118e-05 -3.4531335617644108e-05 -0.19788482903487986 6.24351608567655e-06 8.9459679748419118e-05 6.24351608567655e-06 -0.99465511833581344 0.0058100667380380014 3.2748829295484094e-06 -0.00013622270657681623 3.2748829295484094e-06 -0.19772231378763902 -1.8898748166767954e-05 -0.00013622270657681623 -1.8898748166767954e-05 -0.99444270438590399 0.0051509020852424717 1.5498872625912718e-05 -1.5043353062793585e-05 1.5498872625912718e-05 -0.19792459098065104 0.00014286653852746412 -1.5043353062793585e-05 0.00014286653852746412 -0.99477059876560192 0.0057541656155968221 -2.5446152465897875e-05 -0.00011706511640441342 -2.5446152465897875e-05 -0.19775045916619771 -5.1817161755146612e-06 -0.00011706511640441342 -5.1817161755146612e-06 -0.99447126069171266 0.0051124135246313138 -8.2299290194937761e-05 -0.00011381318658154616 -8.2299290194937761e-05 -0.19793902471299651 -0.00021234747966875078 -0.00011381318658154616 -0.00021234747966875078 -0.99482471874803524 0.0049466606956854314 -1.1904818100724023e-05 -0.00028116593233101783 -1.1904818100724023e-05 -0.19800697716884513 7.5092216187677696e-06 -0.00028116593233101783 7.5092216187677696e-06 -0.99500950600507765 0.0058513178592592419 -3.3208651857748827e-06 3.4606835761218926e-05 -3.3208651857748827e-06 -0.1976539240914249 -1.2007591407768402e-06 3.4606835761218926e-05 -1.2007591407768402e-06 -0.99421336916195535 0.0050635226788835475 1.6398107030215892e-05 7.2229767330094649e-05 1.6398107030215892e-05 -0.19801396185883435 1.0646950036991967e-05 7.2229767330094649e-05 1.0646950036991967e-05 -0.99511680993494911 0.0032161638969127881 0.00014827109310743203 0.00023992019167679013 0.00014827109310743203 -0.19860542405194664 0.0002101491734165517 0.00023992019167679013 0.0002101491734165517 -0.99637923415335039 0.0035165844805021135 0.00018617236224695343 -0.0002106788809021487 0.00018617236224695343 -0.19848815424833244 -6.4720037711851752e-05 -0.0002106788809021487 -6.4720037711851752e-05 -0.99596943043131525 0.0044082959173711023 1.3402531495262357e-05 9.0251187192837146e-05 1.3402531495262357e-05 -0.19818808304040686 -3.3562382355301068e-05 9.0251187192837146e-05 -3.3562382355301068e-05 -0.99537242606029452 0.0038786569591496844 2.5947740042284618e-05 3.9022356957997679e-05 2.5947740042284618e-05 -0.19829417241984126 5.0010796330176534e-06 3.9022356957997679e-05 5.0010796330176534e-06 -0.99541165131124176 0.0041104553316115913 1.0857451854691568e-05 -0.00031469695068842007 1.0857451854691568e-05 -0.19833052628634509 -1.984082455031011e-05 -0.00031469695068842007 -1.984082455031011e-05 -0.99578972698541002 0.003500450721857451 -1.3784887817355311e-06 -0.00035351016617868325 -1.3784887817355311e-06 -0.19849963744380056 -0.00011836532419474965 -0.00035351016617868325 -0.00011836532419474965 -0.99608228522316034 0.0032072410951841171 -0.00035198007297566024 -6.8788770723693382e-05 -0.00035198007297566024 -0.19854506316969694 0.00012209375307692394 -6.8788770723693382e-05 0.00012209375307692394 -0.99612272514250266 0.0043989978747403513 -6.0557977227255703e-05 3.5372417437676601e-05 -6.0557977227255703e-05 -0.19817500931737092 8.8114112936563059e-06 3.5372417437676601e-05 8.8114112936563059e-06 -0.99528410056775929 0.0028998367765245489 -0.00017033938048237256 0.00013041362462720696 -0.00017033938048237256 -0.19865344644333108 -0.00018307889196739202 0.00013041362462720696 -0.00018307889196739202 -0.99627433732327442 0.0044209728989421104 5.6071900317142106e-05 7.1846182599169119e-05 5.6071900317142106e-05 -0.19817614175668394 -9.5162149641455051e-06 7.1846182599169119e-05 -9.5162149641455051e-06 -0.99540432017974778 0.0030313269930199449 5.1749766533451563e-05 -3.9733899118743882e-05 5.1749766533451563e-05 -0.19869134830071056 -2.489411861361111e-05 -3.9733899118743882e-05 -2.489411861361111e-05 -0.99670461258055432 0.0029332359816642284 -4.9272661807438697e-05 6.9068691836458195e-05 -4.9272661807438697e-05 -0.1987138984597846 -1.2639171041965956e-06 6.9068691836458195e-05 -1.2639171041965956e-06 -0.99666191372207025 0.0045194874373645777 -3.41211962031718e-05 -0.00060302698964702015 -3.41211962031718e-05 -0.19820155249947408 -1.1646169471579704e-05 -0.00060302698964702015 -1.1646169471579704e-05 -0.99555071880565049 0.0045787831900854226 -1.1087770877580498e-05 -9.7885821897018138e-05 -1.1087770877580498e-05 -0.19811811465984719 1.073964841280528e-05 -9.7885821897018138e-05 1.073964841280528e-05 -0.99514986720745924 0.0045452874593599757 -0.00013081971449685858 -0.00021751776201559036 -0.00013081971449685858 -0.19814363825094225 -3.4691539988307429e-05 -0.00021751776201559036 -3.4691539988307429e-05 -0.99527657034421335 0.0039828062254125274 4.3136457995388808e-05 -0.00062968994698275882 4.3136457995388808e-05 -0.19829544894434048 0.0003105278490522223 -0.00062968994698275882 0.0003105278490522223 -0.99551867157132268 0.0035302530772781671 -0.00010816287355140436 -0.00070659083737389938 -0.00010816287355140436 -0.19851178200883407 3.8128310685059397e-05 -0.00070659083737389938 3.8128310685059397e-05 -0.99621148502105794 0.0034220516370631615 0.00011798851082958537 -8.9457508881285452e-05 0.00011798851082958537 -0.19863248378020992 3.6859338500977445e-05 -8.9457508881285452e-05 3.6859338500977445e-05 -0.9966078985715936 0.0046161975433829799 0.0003745280414421396 -0.00018909589295190016 0.0003745280414421396 -0.19811327659389449 0.00011563388683966114 -0.00018909589295190016 0.00011563388683966114 -0.99520506429107458 0.0038393516462115196 5.8079113474928797e-06 -0.0006325771318079626 5.8079113474928797e-06 -0.19846002959618098 4.484682530836448e-05 -0.0006325771318079626 4.484682530836448e-05 -0.99612439679329734 0.0032479795414659951 -6.9687220751130536e-05 0.00016068119732887132 -6.9687220751130536e-05 -0.19859142203970495 3.6012922783809631e-05 0.00016068119732887132 3.6012922783809631e-05 -0.99628185182413331 0.0035187236574281688 -2.6154057407485674e-05 -0.00072242545052936258 -2.6154057407485674e-05 -0.19850293804447317 -6.9451175292195577e-05 -0.00072242545052936258 -6.9451175292195577e-05 -0.99609160365176663 0.0035436944515487567 0.00016133414181559305 -0.00048583703794968791 0.00016133414181559305 -0.19849033339946212 -4.5142277141252407e-05 -0.00048583703794968791 -4.5142277141252407e-05 -0.99599046743501185 0.0028210764480889883 -9.8104931644929275e-05 -0.00015161601570526373 -9.8104931644929275e-05 -0.19881374077593261 -8.3098474918733012e-06 -0.00015161601570526373 -8.3098474918733012e-06 -0.99694401302633073 0.0045089344516176244 -8.1167520657692474e-05 -0.00028372568596191083 -8.1167520657692474e-05 -0.19814893369982253 -4.2215119667454726e-05 -0.00028372568596191083 -4.2215119667454726e-05 -0.99528921511390311 0.0028400674067405873 -8.9397641066424864e-05 -0.00027571539676740642 -8.9397641066424864e-05 -0.19877733707211442 2.2853638692664491e-05 -0.00027571539676740642 2.2853638692664491e-05 -0.99676195169242243 0.0040289797002559802 -8.1409244309211858e-06 -0.00033541078032039984 -8.1409244309211858e-06 -0.19826835125621273 -2.3682663972943163e-05 -0.00033541078032039984 -2.3682663972943163e-05 -0.99541316435706739 0.0042164035860229321 -3.0792991251319029e-05 -0.0005919078423182178 -3.0792991251319029e-05 -0.19830686191316804 -3.31344672426237e-05 -0.0005919078423182178 -3.31344672426237e-05 -0.99580785181834175 0.0044902834493446286 -3.0702014363152952e-05 -0.00022482495911191336 -3.0702014363152952e-05 -0.1981477133689212 -3.7680730461731038e-05 -0.00022482495911191336 -3.7680730461731038e-05 -0.99528581646509362 0.0029510246858072686 6.2994408369531333e-05 -8.6706969350314189e-05 6.2994408369531333e-05 -0.19870878551705484 0.00011372814804688769 -8.6706969350314189e-05 0.00011372814804688769 -0.99644685041140635 0.0045032671411536773 -5.3353235732084571e-05 -0.0003307966397495532 -5.3353235732084571e-05 -0.19816975300946527 -2.1761536500242151e-05 -0.0003307966397495532 -2.1761536500242151e-05 -0.99538277877173198 0.0038964216935767348 -4.7490126705947628e-05 2.0299630692739018e-05 -4.7490126705947628e-05 -0.19839147797206735 -3.042913075507192e-05 2.0299630692739018e-05 -3.042913075507192e-05 -0.99588570815924848 0.0032371649673939434 0.00013361992121007355 -0.00016831521931010007 0.00013361992121007355 -0.19859215884473874 1.7176756206715993e-05 -0.00016831521931010007 1.7176756206715993e-05 -0.99613424954489171 0.0031710054439172408 0.00011684922347198998 -0.00030344543985094674 0.00011684922347198998 -0.19864011654848907 -9.1681526908637956e-06 -0.00030344543985094674 -9.1681526908637956e-06 -0.99627969801068994 0.0040169134945149676 -8.1585276251853084e-05 -0.00014657193957557518 -8.1585276251853084e-05 -0.19828209582986164 5.2946493572791908e-07 -0.00014657193957557518 5.2946493572791908e-07 -0.9954511462990947 0.0031935916071124393 3.4007784094644371e-05 -0.00030416920846837447 3.4007784094644371e-05 -0.19854371277115762 0.00016792993889827579 -0.00030416920846837447 0.00016792993889827579 -0.99619952812387091 0.0039567452324365815 2.6115872669318434e-05 -0.00025129559164743798 2.6115872669318434e-05 -0.19835106111616477 0.00010370431489387054 -0.00025129559164743798 0.00010370431489387054 -0.99572195923050721 0.004548491924642733 -8.4047796380839194e-05 5.630058589073814e-05 -8.4047796380839194e-05 -0.19814698246378681 -1.0481878816515087e-05 5.630058589073814e-05 -1.0481878816515087e-05 -0.99529980482128366 0.0037277261632225334 -6.7892156803687933e-05 6.8091302074858883e-05 -6.7892156803687933e-05 -0.19832933911211892 -9.3115597287932586e-06 6.8091302074858883e-05 -9.3115597287932586e-06 -0.99557360972458886 0.0037212841763958615 1.7387971104001393e-05 6.5060034392182275e-05 1.7387971104001393e-05 -0.19841993096005042 -0.00016550800599446358 6.5060034392182275e-05 -0.00016550800599446358 -0.9956657898466017 0.0029985256681069883 -5.6652457464926169e-05 0.00014961788833534463 -5.6652457464926169e-05 -0.19870315981401146 -5.0702584733242908e-06 0.00014961788833534463 -5.0702584733242908e-06 -0.99628162350088112 0.0036396250974623382 9.2417253431064864e-05 2.1931443267168655e-06 9.2417253431064864e-05 -0.19851481532674994 -2.042468111367589e-05 2.1931443267168655e-06 -2.042468111367589e-05 -0.99610462095496699 0.0028763741918140795 6.2387595431294925e-05 -0.00040874048361860815 6.2387595431294925e-05 -0.19874670810979245 -8.9094400946287955e-05 -0.00040874048361860815 -8.9094400946287955e-05 -0.99647583897030034 0.0022084240326343818 -3.4016946934950084e-05 -2.6847135161767177e-05 -3.4016946934950084e-05 -0.19900423892174007 4.2987027233931663e-06 -2.6847135161767177e-05 4.2987027233931663e-06 -0.99708447772491982 0.0021635443230550999 -5.3304505728963186e-05 -0.00015282496319993233 -5.3304505728963186e-05 -0.1990122189901401 1.6669110660116893e-06 -0.00015282496319993233 1.6669110660116893e-06 -0.99707243152998237 0.0010817092965102471 1.5211263180928687e-05 -4.7711037367004216e-05 1.5211263180928687e-05 -0.19927841820260267 -3.8730476744630593e-06 -4.7711037367004216e-05 -3.8730476744630593e-06 -0.9973477944861564 0.00218766368536083 5.0082868779108739e-05 -0.00024161056231614131 5.0082868779108739e-05 -0.19895688802410411 -9.6333261909581358e-05 -0.00024161056231614131 -9.6333261909581358e-05 -0.99682170229593814 0.0023616703103514812 5.3980418295343629e-05 1.4449734232272675e-05 5.3980418295343629e-05 -0.19884983243700763 -1.3622301758325859e-05 1.4449734232272675e-05 -1.3622301758325859e-05 -0.99642806764670266 0.0022622915741811744 2.5429786442395605e-05 0.00013767243720156177 2.5429786442395605e-05 -0.19895399773467728 1.5509187892684156e-06 0.00013767243720156177 1.5509187892684156e-06 -0.99691845892561648 0.0023372607910988052 -3.6713876631112657e-05 7.9407694575706067e-05 -3.6713876631112657e-05 -0.19893213985545946 0.0001158827875555879 7.9407694575706067e-05 0.0001158827875555879 -0.99679966400221121 0.0010089949023847078 -1.8302371112551116e-05 -7.6427303793979995e-06 -1.8302371112551116e-05 -0.19936746751934276 -4.5829050149777395e-05 -7.6427303793979995e-06 -4.5829050149777395e-05 -0.99792983220737908 0.0010582753677612702 -4.7131608896511906e-05 -6.1354696679394305e-05 -4.7131608896511906e-05 -0.1993334230758001 8.2581841550743995e-05 -6.1354696679394305e-05 8.2581841550743995e-05 -0.99784075041828513 0.00092074521626735184 6.9496700793025959e-05 -5.15061268440975e-05 6.9496700793025959e-05 -0.19930078851281671 -0.00025630837585133293 -5.15061268440975e-05 -0.00025630837585133293 -0.99757739552913582 0.0009806312429047892 -2.2813517678178438e-05 -0.00014246424267458369 -2.2813517678178438e-05 -0.19933882240329942 -2.0835206038238852e-06 -0.00014246424267458369 -2.0835206038238852e-06 -0.99779549546850754 0.0010392286435119968 -3.3726679060508831e-06 -0.00016885429134003149 -3.3726679060508831e-06 -0.19928601627070569 -6.4476713843852895e-06 -0.00016885429134003149 -6.4476713843852895e-06 -0.99733644834183677 0.00094574214927095612 1.3049361329084703e-05 2.1788145265824132e-05 1.3049361329084703e-05 -0.19928434104104431 -1.888586602600315e-06 2.1788145265824132e-05 -1.888586602600315e-06 -0.99725627733121347 0.00087753136305441929 -3.6191243835568984e-05 -3.7892234043893731e-05 -3.6191243835568984e-05 -0.19935582012810116 7.8567674380567159e-05 -3.7892234043893731e-05 7.8567674380567159e-05 -0.9976025391619654 0.00071564411399916133 -7.9027336573568618e-05 -0.00013436669093436045 -7.9027336573568618e-05 -0.1993963389147228 4.2777448707120858e-05 -0.00013436669093436045 4.2777448707120858e-05 -0.99775033467689211 0.00076250217402042792 -2.764735041587964e-05 7.8120174783850727e-05 -2.764735041587964e-05 -0.19939196214136717 1.9988534370723553e-06 7.8120174783850727e-05 1.9988534370723553e-06 -0.99785361820604745 0.0011006173441869271 -8.9216464616126179e-05 0.0001234507487240492 -8.9216464616126179e-05 -0.19926720524170782 -1.553976101777564e-05 0.0001234507487240492 -1.553976101777564e-05 -0.99729728875159718 0.00069099782036720347 -0.00012117310912906234 -6.9571246900101968e-05 -0.00012117310912906234 -0.19934201812450186 -2.9814986368670304e-07 -6.9571246900101968e-05 -2.9814986368670304e-07 -0.99743811104838009 0.00068490893874983971 -0.00016964103033733231 -0.00013695945057695669 -0.00016964103033733231 -0.19941683800024501 4.2106527774449232e-05 -0.00013695945057695669 4.2106527774449232e-05 -0.99795584058321829 0.00078198752839458985 -0.00011521258849441148 -9.567703343135725e-05 -0.00011521258849441148 -0.19935911071171852 5.8128498816339969e-05 -9.567703343135725e-05 5.8128498816339969e-05 -0.99798305987994529 0.0024701372053526766 4.5197280212223597e-06 -0.00017414215185496129 4.5197280212223597e-06 -0.19891730556433784 -1.7575917540924024e-05 -0.00017414215185496129 -1.7575917540924024e-05 -0.99690321216003719 0.0013291099800166462 -1.5017622823598338e-05 -0.00027539539058793472 -1.5017622823598338e-05 -0.19918000469859151 -2.2728770793206676e-05 -0.00027539539058793472 -2.2728770793206676e-05 -0.99719782909642884 0.0011419085165432774 0.00053911832767304082 -0.00031921246017635463 0.00053911832767304082 -0.19897366381790726 2.631146550113872e-05 -0.00031921246017635463 2.631146550113872e-05 -0.99720204197550832 0.0015324453059013948 9.481253007169342e-05 -0.00023576665578273204 9.481253007169342e-05 -0.19917417208212163 -0.00010348848442109926 -0.00023576665578273204 -0.00010348848442109926 -0.99749308833053474 0.0023206275719652725 -1.93547516885746e-06 -0.00053949537316744234 -1.93547516885746e-06 -0.19898219700916242 -2.8551610701255115e-06 -0.00053949537316744234 -2.8551610701255115e-06 -0.99717472341711821 0.000715120636916311 -0.00016332920449263122 -4.478346440772718e-05 -0.00016332920449263122 -0.19932505436219966 9.274065698061662e-06 -4.478346440772718e-05 9.274065698061662e-06 -0.99775037523316201 0.00040693115645595856 -0.00011806408226189036 -0.00027772192701747134 -0.00011806408226189036 -0.19949868381448399 0.00010173270242702648 -0.00027772192701747134 0.00010173270242702648 -0.99828504814638075 0.0012806561789174623 0.00011786303319664977 -0.00045938024729264004 0.00011786303319664977 -0.19933619718037818 -1.8761159352953527e-05 -0.00045938024729264004 -1.8761159352953527e-05 -0.99804559185760178 0.0013295601973453142 -3.1228981466311468e-05 -0.00044019379607718179 -3.1228981466311468e-05 -0.19947532656055178 -1.9830102826468021e-05 -0.00044019379607718179 -1.9830102826468021e-05 -0.9980616286824695 0.0012984489953574985 4.9398695784756246e-06 -0.00018367017444997913 4.9398695784756246e-06 -0.19918105026879404 2.787134067816846e-05 -0.00018367017444997913 2.787134067816846e-05 -0.99714686737961811 0.0014982800516120109 -5.760361483954688e-05 -0.00010110082082750993 -5.760361483954688e-05 -0.1991778263685989 -0.00024973149070006695 -0.00010110082082750993 -0.00024973149070006695 -0.99761442862854421 0.0016040194021063603 3.9658801939238355e-05 -0.00021521481127689812 3.9658801939238355e-05 -0.19922760872107614 0.00029643690064107275 -0.00021521481127689812 0.00029643690064107275 -0.99734974502159357 0.0016659086258752343 -4.4261084147035377e-05 -0.00022485977341113461 -4.4261084147035377e-05 -0.19901945542376226 1.9655837021792522e-05 -0.00022485977341113461 1.9655837021792522e-05 -0.99688272785344823 0.0014486183440823863 2.7694954517355241e-05 -9.943261347750143e-05 2.7694954517355241e-05 -0.19937155356121394 2.7027685495228937e-06 -9.943261347750143e-05 2.7027685495228937e-06 -0.99802318054698702 0.0015277252307897837 -0.0002193670289623954 -0.00015032298533214361 -0.0002193670289623954 -0.1991055302486455 2.2758234636433006e-05 -0.00015032298533214361 2.2758234636433006e-05 -0.99708450119960934 0.0016807506223555091 6.9015693546915284e-06 -0.00046719785231981621 6.9015693546915284e-06 -0.19916947230307758 -6.8945852941419694e-05 -0.00046719785231981621 -6.8945852941419694e-05 -0.99717388268726248 0.001716490289282141 -1.3258212984316838e-05 -0.00048547654653766092 -1.3258212984316838e-05 -0.19904040829080435 1.194697970766101e-05 -0.00048547654653766092 1.194697970766101e-05 -0.99704275231595563 0.0011154681300015179 8.2510241115183125e-05 -0.00037555864014249263 8.2510241115183125e-05 -0.19937595598188096 2.8120811507714727e-06 -0.00037555864014249263 2.8120811507714727e-06 -0.99812822390198352 0.0011017451588654359 1.1359048776370561e-05 -0.0004088622784439444 1.1359048776370561e-05 -0.19940992772919727 2.7914746642765387e-05 -0.0004088622784439444 2.7914746642765387e-05 -0.99809694273999428 0.001062939843721411 4.1155534780593393e-05 -0.00017976275643383222 4.1155534780593393e-05 -0.19925697812267515 -3.3836306909333647e-05 -0.00017976275643383222 -3.3836306909333647e-05 -0.99726330597868262 0.0011320335508417378 7.6176152973315876e-06 -0.0001522184156907691 7.6176152973315876e-06 -0.19919647739058724 -1.7507175900932648e-05 -0.0001522184156907691 -1.7507175900932648e-05 -0.99728435466834986 0.00106646607710216 2.9797348518447886e-05 -1.906913194132942e-05 2.9797348518447886e-05 -0.19931976076826929 -7.0432348373561382e-06 -1.906913194132942e-05 -7.0432348373561382e-06 -0.99787103635343932 0.001019263921321456 6.1340951091027839e-05 -5.0456720299685287e-06 6.1340951091027839e-05 -0.19939013770786784 -2.7304394198297832e-05 -5.0456720299685287e-06 -2.7304394198297832e-05 -0.99790465985448895 0.0022381926245018946 -3.0434194069451353e-06 0.00015972628747992768 -3.0434194069451353e-06 -0.19890360469793689 -3.3235551922305984e-05 0.00015972628747992768 -3.3235551922305984e-05 -0.99688040665974975 0.0023788132704644993 -7.1840061088527063e-06 -0.00015204050978073758 -7.1840061088527063e-06 -0.19882073547923543 2.032081569564026e-05 -0.00015204050978073758 2.032081569564026e-05 -0.99660461332296479 0.0010143999805460879 -8.3823889336291439e-06 -2.9986139671367429e-05 -8.3823889336291439e-06 -0.19944300657924557 -3.6122181259257147e-05 -2.9986139671367429e-05 -3.6122181259257147e-05 -0.99791188840616407 0.0023949998850298915 3.7582428977122e-05 0.0001418287962408901 3.7582428977122e-05 -0.19885407365037411 3.3630439161551174e-08 0.0001418287962408901 3.3630439161551174e-08 -0.99678467379624069 0.0012137653395287162 -2.8645048441955651e-05 -0.0001947170917893648 -2.8645048441955651e-05 -0.19919562798938334 -5.798241726587966e-06 -0.0001947170917893648 -5.798241726587966e-06 -0.9972372439145708 0.0022833088167659721 -1.5740622186518264e-05 0.00012389237598288522 -1.5740622186518264e-05 -0.19890238870993804 -6.7340105458524504e-06 0.00012389237598288522 -6.7340105458524504e-06 -0.99681986887939311 0.0022070088668743604 7.0296812194298306e-06 0.00013822564881268184 7.0296812194298306e-06 -0.19890021533838484 -1.8643917931036186e-05 0.00013822564881268184 -1.8643917931036186e-05 -0.99691027442974822 0.00079656180572841258 1.4187828836078915e-05 0.0001137945903465626 1.4187828836078915e-05 -0.19941309206326863 9.7197188607099243e-07 0.0001137945903465626 9.7197188607099243e-07 -0.99782872507468878 0.0010126638469786921 -6.0345721690041724e-05 -5.8493496876457707e-05 -6.0345721690041724e-05 -0.19931398715162404 0.00017546109985438712 -5.8493496876457707e-05 0.00017546109985438712 -0.99748180100445405 0.00070175919873262989 -3.6165413469865086e-05 0.00014719632617748608 -3.6165413469865086e-05 -0.19941868397958226 -2.601303834303592e-06 0.00014719632617748608 -2.601303834303592e-06 -0.99784992834252584 0.00061852980063129004 2.9463688176406264e-05 0.00012944421561339459 2.9463688176406264e-05 -0.19945599602490349 -2.8367200239076684e-05 0.00012944421561339459 -2.8367200239076684e-05 -0.997828459126335 0.00068304943165675702 -3.8465575804242352e-06 8.7658451238687901e-05 -3.8465575804242352e-06 -0.19945192550140883 8.3973882598379775e-07 8.7658451238687901e-05 8.3973882598379775e-07 -0.99776595757661346 0.0014719446516199552 -2.0042814941817759e-05 -0.00028260630356602423 -2.0042814941817759e-05 -0.19909879978894707 -7.052470573833125e-05 -0.00028260630356602423 -7.052470573833125e-05 -0.99699275599854331 0.00075814079011132796 4.9760528559257084e-05 7.3037839925463896e-05 4.9760528559257084e-05 -0.19933654651194646 -2.0759650167923483e-05 7.3037839925463896e-05 -2.0759650167923483e-05 -0.99772854726704907 0.00085973407026654347 -5.0911263646884219e-05 0.00012610386711911503 -5.0911263646884219e-05 -0.19937622973078889 1.6222763695339371e-05 0.00012610386711911503 1.6222763695339371e-05 -0.99774859046498721 0.0014939421698780386 0.0001065655403867989 -0.00027663914477026735 0.0001065655403867989 -0.19908846805420724 -4.3815509968125887e-05 -0.00027663914477026735 -4.3815509968125887e-05 -0.99698408077283152 0.0024507438579265406 -3.703015699300844e-05 0.00014387203377620646 -3.703015699300844e-05 -0.19881098017159496 -2.1241033686776467e-06 0.00014387203377620646 -2.1241033686776467e-06 -0.99676480653585708 0.001086101137932699 2.3358373114355485e-05 -0.00017973392398112908 2.3358373114355485e-05 -0.19916673133596663 2.1388165646382684e-05 -0.00017973392398112908 2.1388165646382684e-05 -0.99723307671384731 0.0011171163326841593 -6.8097770095969153e-05 -9.5647569338386251e-05 -6.8097770095969153e-05 -0.19921919707972557 3.3795357866765394e-05 -9.5647569338386251e-05 3.3795357866765394e-05 -0.99721714177402976 0.00099484511136116449 -6.9711698907586547e-05 -1.9556286604882622e-05 -6.9711698907586547e-05 -0.19939706622967684 4.0311718890462256e-05 -1.9556286604882622e-05 4.0311718890462256e-05 -0.99798383835902249 0.0008184300087870712 -2.8830273411376625e-05 0.00015130173102955087 -2.8830273411376625e-05 -0.19942720217316273 -2.6585667113710841e-05 0.00015130173102955087 -2.6585667113710841e-05 -0.99781732278247226 0.00080319966253982389 -3.5070580817524997e-05 0.00015884918966734858 -3.5070580817524997e-05 -0.19937187047387711 -4.7480249070034067e-05 0.00015884918966734858 -4.7480249070034067e-05 -0.99779882387075014 0.00075896745399728349 -3.0140868089627044e-05 0.00013878405849636498 -3.0140868089627044e-05 -0.19949918750188411 4.481963640218245e-05 0.00013878405849636498 4.481963640218245e-05 -0.99793247012607478 0.0024768975078014663 2.4203835992128406e-05 -7.3774967821516046e-05 2.4203835992128406e-05 -0.19889215320326362 5.9933924853761145e-05 -7.3774967821516046e-05 5.9933924853761145e-05 -0.99697238079095629 0.0023919673537663999 6.5035128066106944e-05 8.6733771153728898e-05 6.5035128066106944e-05 -0.19882101262885693 -5.877590669805061e-06 8.6733771153728898e-05 -5.877590669805061e-06 -0.99652545373042334 0.0014443348650011179 -6.7908729971781739e-05 -0.00025430437232110137 -6.7908729971781739e-05 -0.19933161539562494 6.6973236340917008e-05 -0.00025430437232110137 6.6973236340917008e-05 -0.99773792023302565 0.0014267418392734377 -4.0669676699297346e-05 -0.00028818632933813593 -4.0669676699297346e-05 -0.19923005120370485 4.942195876004446e-05 -0.00028818632933813593 4.942195876004446e-05 -0.99718476519875754 0.0014799108142782257 -0.00012247499083368278 -0.00017004777923285141 -0.00012247499083368278 -0.19912081475908006 4.5094525151390119e-05 -0.00017004777923285141 4.5094525151390119e-05 -0.99723194677976656 0.0013994814710740211 -8.2130822091801292e-05 -0.0002648433122593441 -8.2130822091801292e-05 -0.19913559822958388 4.5637273117959953e-05 -0.0002648433122593441 4.5637273117959953e-05 -0.99718030739473362 0.0023307483131322915 6.9068473313756273e-06 0.00012833868520692807 6.9068473313756273e-06 -0.19887476051296674 0.00013411046483197131 0.00012833868520692807 0.00013411046483197131 -0.99671009211518213 0.0007198168536418359 0.00014687390845134207 -0.00012967709944777805 0.00014687390845134207 -0.19924170139131678 -4.3106083828792219e-05 -0.00012967709944777805 -4.3106083828792219e-05 -0.99737781456979235 0.0006104596285994579 0.00014536168258895291 -0.00022628921408004987 0.00014536168258895291 -0.19935396128315935 -0.00010624525427899156 -0.00022628921408004987 -0.00010624525427899156 -0.99781681131287958 0.0011418968474887401 6.3680555598216197e-05 0.00016902186207964451 6.3680555598216197e-05 -0.19923834372227961 9.9292384698345666e-06 0.00016902186207964451 9.9292384698345666e-06 -0.99731347831778006 0.00066651030075658678 0.00013057730336191642 -0.00011958255589465458 0.00013057730336191642 -0.19932395242690976 -9.2739526058482902e-05 -0.00011958255589465458 -9.2739526058482902e-05 -0.99774670937728582 0.00073964769335784191 -6.8582708855356274e-06 0.0001763194022905085 -6.8582708855356274e-06 -0.19937207094886403 7.3191277002635467e-06 0.0001763194022905085 7.3191277002635467e-06 -0.99796219812030795 0.00096160222329451372 3.9732309211830801e-05 8.6530749575313691e-06 3.9732309211830801e-05 -0.19929428503368113 -8.8262892255732464e-05 8.6530749575313691e-06 -8.8262892255732464e-05 -0.99764226071065365 0.0024577694396502692 -3.7109526807846471e-05 -0.0002224990794524289 -3.7109526807846471e-05 -0.19887410909083367 -0.00014282307128678554 -0.0002224990794524289 -0.00014282307128678554 -0.99678591895858881 0.002222211536580818 -8.0946224433272253e-05 2.865775012530017e-05 -8.0946224433272253e-05 -0.19897351682963157 5.387888849514012e-06 2.865775012530017e-05 5.387888849514012e-06 -0.99705177191474292 0.003823643290163878 4.4937317712652919e-05 -0.00023171007190975201 4.4937317712652919e-05 -0.1984684698339344 -1.7601292818620815e-05 -0.00023171007190975201 -1.7601292818620815e-05 -0.9961693808922012 0.0025724237812218276 5.7472055761998515e-05 -0.00011600847871863496 5.7472055761998515e-05 -0.19877962716485925 -1.9891805999316947e-05 -0.00011600847871863496 -1.9891805999316947e-05 -0.99647310125087052 0.003047979928419309 8.0639519371811697e-05 0.00012337087395098895 8.0639519371811697e-05 -0.19865836681456869 1.4291460126311302e-06 0.00012337087395098895 1.4291460126311302e-06 -0.99626987811927925 0.0045868902410655908 8.2304159544170969e-05 9.4848812058292704e-05 8.2304159544170969e-05 -0.19810007269249472 8.8212820495136909e-06 9.4848812058292704e-05 8.8212820495136909e-06 -0.99520967028971441 0.0037133499555001715 -7.6167563356799745e-05 -3.6486448335500488e-06 -7.6167563356799745e-05 -0.19847115522550915 1.0565547169038324e-05 -3.6486448335500488e-06 1.0565547169038324e-05 -0.99609462102846325 0.0040219104944404496 -1.3747868724812134e-05 -0.00024799948928148441 -1.3747868724812134e-05 -0.19832612197015206 -0.00010693838549483539 -0.00024799948928148441 -0.00010693838549483539 -0.99576477526810703 0.0040655659917679943 6.9766555118593436e-05 -0.00018006562189343267 6.9766555118593436e-05 -0.19825691720150332 -1.287030489266483e-05 -0.00018006562189343267 -1.287030489266483e-05 -0.99536255183390809 0.0040481369006322154 7.1327828318365358e-05 -0.00017453914509969748 7.1327828318365358e-05 -0.19826918815875699 -6.2858597393300464e-06 -0.00017453914509969748 -6.2858597393300464e-06 -0.99543894621310025 0.0038349388459489597 -5.2702923759920595e-06 6.3862188480196111e-05 -5.2702923759920595e-06 -0.19837351190297464 0.00020492729602977766 6.3862188480196111e-05 0.00020492729602977766 -0.99558795261578947 0.0038674903854701848 6.558442915125025e-05 4.7737527506803511e-05 6.558442915125025e-05 -0.19833590724887135 -3.9369616199708441e-06 4.7737527506803511e-05 -3.9369616199708441e-06 -0.99546642694292531 0.0028912618132941933 -3.6012513650839663e-05 0.00014529429547614249 -3.6012513650839663e-05 -0.19869516657978309 -0.00010928142338217928 0.00014529429547614249 -0.00010928142338217928 -0.99641500920257631 0.0038210017010972125 9.7641369902529853e-05 -0.00021669378732658284 9.7641369902529853e-05 -0.19843672306388033 -0.00014613253356260403 -0.00021669378732658284 -0.00014613253356260403 -0.99601187147768067 0.0028904136478264397 -7.3346169822244671e-05 0.0001460219500262667 -7.3346169822244671e-05 -0.19869770834449149 2.3096931088513131e-06 0.0001460219500262667 2.3096931088513131e-06 -0.99641138246074501 0.0043720405543652419 -5.8282645935386208e-05 7.8713176648870218e-05 -5.8282645935386208e-05 -0.19820497662567477 -2.7380967277266041e-06 7.8713176648870218e-05 -2.7380967277266041e-06 -0.99534051255841327 0.0043763350855113015 -3.4694058652860858e-05 8.8925926824034301e-05 -3.4694058652860858e-05 -0.1981806029249531 1.099173497198791e-05 8.8925926824034301e-05 1.099173497198791e-05 -0.99532404004869668 0.0034890145895189778 -1.7317592695968494e-05 -0.00038461197615506648 -1.7317592695968494e-05 -0.19851723579539463 0.00015753513804261476 -0.00038461197615506648 0.00015753513804261476 -0.99614458627802005 0.0040311754795412866 -1.5059565039834697e-05 -0.00035081681249354846 -1.5059565039834697e-05 -0.19836224926976262 3.5703649981622121e-05 -0.00035081681249354846 3.5703649981622121e-05 -0.99587883130692101 0.003600646281692238 -0.00018860552100319423 -0.00025675761514724893 -0.00018860552100319423 -0.19846943219714525 9.9694936579353133e-05 -0.00025675761514724893 9.9694936579353133e-05 -0.99601788453873619 0.0038394072150597092 -5.0104571954636769e-05 2.7885222161616694e-05 -5.0104571954636769e-05 -0.19829817231656188 6.5435677587452387e-07 2.7885222161616694e-05 6.5435677587452387e-07 -0.99542179756534466 0.0043696085239542937 3.7531527231004884e-05 4.4822518858577765e-05 3.7531527231004884e-05 -0.1981841075619733 -6.5994908279161957e-06 4.4822518858577765e-05 -6.5994908279161957e-06 -0.99529640358546378 0.002829284137784549 7.4201699230129272e-05 5.4625876472410125e-05 7.4201699230129272e-05 -0.19875871374041282 8.4603049305071652e-06 5.4625876472410125e-05 8.4603049305071652e-06 -0.9966770785186273 0.0038710526294072345 -2.2092093562031201e-05 -0.00058022377066067887 -2.2092093562031201e-05 -0.19842323282615426 -4.2032010886039473e-05 -0.00058022377066067887 -4.2032010886039473e-05 -0.99604564803623941 0.0035008309574164898 0.00010179756317754991 -0.00067984103992591027 0.00010179756317754991 -0.19855173343076882 -1.8594247956693621e-05 -0.00067984103992591027 -1.8594247956693621e-05 -0.99617112743202463 0.0040463943195941376 -2.0638164054702584e-05 -0.00055024577768123667 -2.0638164054702584e-05 -0.19825836633563709 -0.00027472273287393323 -0.00055024577768123667 -0.00027472273287393323 -0.99533262084496421 0.0034924833807382372 -8.6701664092120605e-05 -5.9398192723492116e-05 -8.6701664092120605e-05 -0.19861080211659141 -1.0138793330255469e-05 -5.9398192723492116e-05 -1.0138793330255469e-05 -0.99657607065487341 0.0040274987077669466 -2.4510194934548982e-05 -0.00031056190629372149 -2.4510194934548982e-05 -0.19825988773119071 1.1965363885868552e-05 -0.00031056190629372149 1.1965363885868552e-05 -0.99536884096015299 0.00402768440424639 -1.6289156495992868e-05 -0.00031739776316869195 -1.6289156495992868e-05 -0.19826365840227067 -8.666790786156231e-06 -0.00031739776316869195 -8.666790786156231e-06 -0.99541193308038212 0.0026727885607692459 5.2775145124354979e-05 -0.00027987028140752379 5.2775145124354979e-05 -0.19880977071648676 -4.8229167532970463e-05 -0.00027987028140752379 -4.8229167532970463e-05 -0.99677413544916105 0.0026627188207038952 3.1266520449695007e-05 -0.00027850165100373747 3.1266520449695007e-05 -0.19874322304814984 -3.0979592980984183e-05 -0.00027850165100373747 -3.0979592980984183e-05 -0.9964029125534275 0.004324089314726498 0.00010834025278893485 -0.00035972024459647589 0.00010834025278893485 -0.19819126719338942 2.073958932719e-05 -0.00035972024459647589 2.073958932719e-05 -0.99529821855144984 0.0034837726231515126 -0.00014405270579799753 -0.00044534834030984793 -0.00014405270579799753 -0.19853592776263057 2.1672990846433038e-05 -0.00044534834030984793 2.1672990846433038e-05 -0.99626857935842827 0.0038004395587098935 1.2920318900806156e-05 -0.00016466470370929409 1.2920318900806156e-05 -0.19845553418958528 -3.4368218698271197e-05 -0.00016466470370929409 -3.4368218698271197e-05 -0.99610231353900391 0.0039750149955018188 1.3905551878397146e-05 -0.00032690143953245654 1.3905551878397146e-05 -0.19827857839066765 3.6002486877184658e-05 -0.00032690143953245654 3.6002486877184658e-05 -0.99539005168926686 0.0034765285416591962 6.6412922664215598e-06 -0.00071883119871751777 6.6412922664215598e-06 -0.19852670154413571 4.9457335113550771e-06 -0.00071883119871751777 4.9457335113550771e-06 -0.99615144855350835 0.0041214411852631416 0.00011737624728645819 -0.00024217264344839062 0.00011737624728645819 -0.19837951472695325 -0.00010938815805577873 -0.00024217264344839062 -0.00010938815805577873 -0.99604007560748009 0.004295928593916809 6.663002248732574e-05 -0.00031987257189353135 6.663002248732574e-05 -0.19818527616463905 -3.0014141837453323e-06 -0.00031987257189353135 -3.0014141837453323e-06 -0.99522983050287261 0.0041981564511993641 4.9800686084041268e-05 -0.00042633454072038557 4.9800686084041268e-05 -0.19838175137788683 6.5197096146163425e-05 -0.00042633454072038557 6.5197096146163425e-05 -0.99611298963604256 0.0026255530982866454 -1.6676163312798605e-05 -0.00036850487648254493 -1.6676163312798605e-05 -0.19873963650323373 8.9007950837549643e-06 -0.00036850487648254493 8.9007950837549643e-06 -0.99649176942323714 0.0015391639421671321 -0.00012717103472480927 -7.316908401799882e-05 -0.00012717103472480927 -0.19908752914663541 -6.9725122226194092e-06 -7.316908401799882e-05 -6.9725122226194092e-06 -0.9971171618689425 0.0014115753020285463 -0.00011580151834903645 -0.0002622527404999575 -0.00011580151834903645 -0.19922632782366936 -2.3013676348493384e-06 -0.0002622527404999575 -2.3013676348493384e-06 -0.99768876382891103 0.0026417069921192381 8.4431185316315047e-06 -0.00031461557628220671 8.4431185316315047e-06 -0.19887126208160005 6.2510042609487115e-05 -0.00031461557628220671 6.2510042609487115e-05 -0.99717055087724016 0.0013590276136169459 -9.7448224105522842e-05 -0.00021970747218069686 -9.7448224105522842e-05 -0.19918294399296388 8.3054606423216271e-05 -0.00021970747218069686 8.3054606423216271e-05 -0.99749441313300125 0.00072719649306093176 0.00010084463852474225 -0.00013416319670733756 0.00010084463852474225 -0.19930183528172016 1.203672104421738e-05 -0.00013416319670733756 1.203672104421738e-05 -0.99764934802854099 0.00078049959252946 1.5110359425166295e-05 -0.00011776221332571168 1.5110359425166295e-05 -0.19948306293125095 -5.0518149676770374e-05 -0.00011776221332571168 -5.0518149676770374e-05 -0.99840006569603323 0.00061330566322392865 0.00010696841103485078 -0.00023072373292110093 0.00010696841103485078 -0.19946662176919738 -0.00010966831782788233 -0.00023072373292110093 -0.00010966831782788233 -0.99827375805938878 0.00076953022992470865 6.3044690900181496e-05 -0.00013841098599520762 6.3044690900181496e-05 -0.19936184432473109 -5.0955274672304096e-05 -0.00013841098599520762 -5.0955274672304096e-05 -0.99798624381856138 0.0013098224799709124 3.8982871698159375e-05 -0.0003864531088489942 3.8982871698159375e-05 -0.19942927060435622 -5.7333151946004079e-06 -0.0003864531088489942 -5.7333151946004079e-06 -0.99809203240829758 0.0012316032894096468 -0.00011054156720867696 -0.00040038228363148409 -0.00011054156720867696 -0.19933254225110864 2.7936067855116598e-05 -0.00040038228363148409 2.7936067855116598e-05 -0.99807964877526789 0.0015748016035708745 0.00021259520278801126 -0.00020501353307435244 0.00021259520278801126 -0.19909966807903626 9.5020131029022181e-06 -0.00020501353307435244 9.5020131029022181e-06 -0.99707271113607077 0.0014465781691092028 9.2072782241064819e-06 -3.5280598110476458e-05 9.2072782241064819e-06 -0.1993539445772986 -2.9485999463271795e-05 -3.5280598110476458e-05 -2.9485999463271795e-05 -0.99802635995453093 0.0016962247420412302 1.9785779681020001e-05 -0.00019830381501961813 1.9785779681020001e-05 -0.19905005530122982 8.4802761406432836e-06 -0.00019830381501961813 8.4802761406432836e-06 -0.99683414380842228 0.0015112409318798203 1.8398452097545712e-05 -0.00021291715333493499 1.8398452097545712e-05 -0.19930803504459316 2.1545032309000511e-05 -0.00021291715333493499 2.1545032309000511e-05 -0.99781910050544464 0.0015837117498952447 -1.9462296577075643e-05 -0.00014744822903295374 -1.9462296577075643e-05 -0.19926613617353794 -0.00030823675426028263 -0.00014744822903295374 -0.00030823675426028263 -0.99735028340406551 0.0014935410387773296 0.00014643513305522975 -0.00026408384909615279 0.00014643513305522975 -0.19921584419539659 -0.00011574988080420567 -0.00026408384909615279 -0.00011574988080420567 -0.99762814120962662 0.0015237638313234103 4.5828733281015202e-05 -6.7066531379805783e-05 4.5828733281015202e-05 -0.19919184581013344 0.00019992408478319845 -6.7066531379805783e-05 0.00019992408478319845 -0.99764255907091415 0.0010150635492157667 3.0501780023124227e-06 2.6859019117808636e-05 3.0501780023124227e-06 -0.19940746114761898 2.7191701291173764e-05 2.6859019117808636e-05 2.7191701291173764e-05 -0.99799740450678853 0.0010793630378606034 -8.0448851925518641e-05 -0.00035688920682985792 -8.0448851925518641e-05 -0.19934137428452381 7.3086603465943867e-06 -0.00035688920682985792 7.3086603465943867e-06 -0.99808154710686603 0.0019528924400394887 0.00028676023322758682 -0.00022938279350437352 0.00028676023322758682 -0.19908997911116744 -0.0001507839561136759 -0.00022938279350437352 -0.0001507839561136759 -0.9973344430952773 0.0020229353676097794 -0.00028373676390597795 -9.0814921181847641e-05 -0.00028373676390597795 -0.1992592045382911 -0.00014264520978368722 -9.0814921181847641e-05 -0.00014264520978368722 -0.99808419110728552 0.00088587242550752787 -0.00010239009942598783 8.3845337576993195e-05 -0.00010239009942598783 -0.19948334188774985 5.7686200660933551e-05 8.3845337576993195e-05 5.7686200660933551e-05 -0.99844380084082252 0.0013858471008177664 2.2617782728632171e-05 -0.00016756756373204063 2.2617782728632171e-05 -0.19940865784096709 -5.5498546670529336e-06 -0.00016756756373204063 -5.5498546670529336e-06 -0.99831646164606191 0.0021270593000448645 -0.0005654053293182587 -0.00022276930131370776 -0.0005654053293182587 -0.19906602456521438 0.00027655330646259024 -0.00022276930131370776 0.00027655330646259024 -0.99743370010495447 0.0018602716385115459 3.6184057255855498e-05 -0.00050945970243312932 3.6184057255855498e-05 -0.19905087827119783 -4.2512610644029891e-05 -0.00050945970243312932 -4.2512610644029891e-05 -0.99701054189311344 0.0011531874232244554 -9.685570157408044e-05 -0.00017760676354106053 -9.685570157408044e-05 -0.1992484712296132 -6.851406423952211e-05 -0.00017760676354106053 -6.851406423952211e-05 -0.99752056181597748 0.0016736515757261872 0.00029180720313144628 -0.00038909432779310471 0.00029180720313144628 -0.19930798260246874 8.4518289205526287e-05 -0.00038909432779310471 8.4518289205526287e-05 -0.99841463439256328 0.00089449336568037108 -0.00017327464296775123 -6.0822452090825152e-05 -0.00017327464296775123 -0.19946798666872956 6.7854925327903715e-05 -6.0822452090825152e-05 6.7854925327903715e-05 -0.99846063172778088 0.0011815197204942951 -0.00019145416329936267 -0.0001947020234442931 -0.00019145416329936267 -0.19940270001166338 4.2832635102962868e-05 -0.0001947020234442931 4.2832635102962868e-05 -0.99849251256985294 0.00095166257784695674 7.9679743850769887e-05 -0.00034484332122697303 7.9679743850769887e-05 -0.19958588701077673 -4.2221822942556386e-05 -0.00034484332122697303 -4.2221822942556386e-05 -0.99846064722269912 0.0012780497923629563 0.00011335660847408381 -0.00018405265335352805 0.00011335660847408381 -0.19945434504133069 -2.6471530645277852e-06 -0.00018405265335352805 -2.6471530645277852e-06 -0.99834783440533426 0.0011949572289511878 -2.0863032217400084e-05 -2.2028401730156411e-05 -2.0863032217400084e-05 -0.19936772092006277 -0.00016965339378249844 -2.2028401730156411e-05 -0.00016965339378249844 -0.99828560191224969 0.0035219521257340847 8.6871296192888916e-05 -0.00052334910135654056 8.6871296192888916e-05 -0.19868474269861686 -2.3116632272834892e-05 -0.00052334910135654056 -2.3116632272834892e-05 -0.99700866416819156 0.0011780324288790389 5.255409142631188e-05 -0.00015303578939085405 5.255409142631188e-05 -0.19928361556266339 -9.03194465706747e-06 -0.00015303578939085405 -9.03194465706747e-06 -0.99767183185270891 0.0011678407992453677 9.1937174286077104e-05 -0.00012682135938990591 9.1937174286077104e-05 -0.1993876534453124 0.00016587420184377422 -0.00012682135938990591 0.00016587420184377422 -0.99770471416421724 0.0011851301559670235 1.0486735322370377e-05 1.4539166327431907e-05 1.0486735322370377e-05 -0.19947251640701089 -6.910668521875607e-06 1.4539166327431907e-05 -6.910668521875607e-06 -0.99836348672344088 0.00081974770856163559 6.2349592896369745e-05 -9.199247751279227e-05 6.2349592896369745e-05 -0.19953595263374946 2.6095169720186107e-05 -9.199247751279227e-05 2.6095169720186107e-05 -0.99879310831609125 0.00072749867158505843 0.00014662941101670568 -0.0001679961923600759 0.00014662941101670568 -0.19949246175930635 -5.0429535869978004e-05 -0.0001679961923600759 -5.0429535869978004e-05 -0.99844567348358471 0.00074098378794273945 7.7141010945990776e-05 -0.00016501356594184058 7.7141010945990776e-05 -0.19937337528924359 8.2150088321242265e-05 -0.00016501356594184058 8.2150088321242265e-05 -0.99781279052933058 0.0026423399286801263 -5.5976999525263967e-06 -0.00022528605166050042 -5.5976999525263967e-06 -0.19891298950407632 -9.2772035473753789e-06 -0.00022528605166050042 -9.2772035473753789e-06 -0.99737402954769427 0.0012887550310488535 -0.00013007669857293869 -9.7973478926371982e-05 -0.00013007669857293869 -0.19924068434076136 3.5557641608230384e-05 -9.7973478926371982e-05 3.5557641608230384e-05 -0.9976652924263103 0.0039880054259260334 -8.4635469242477867e-06 -0.00032927596025444927 -8.4635469242477867e-06 -0.19838075518025855 -7.8090122878793355e-05 -0.00032927596025444927 -7.8090122878793355e-05 -0.99593740767944094 0.003382654072642044 4.3039802827656729e-05 -0.00071781568015336084 4.3039802827656729e-05 -0.19861799539274716 2.0713921478066055e-07 -0.00071781568015336084 2.0713921478066055e-07 -0.99653352266415318 0.002827314554242788 -1.8796912143516501e-05 -0.0004008433477811213 -1.8796912143516501e-05 -0.19882122601015595 6.2158618573060487e-05 -0.0004008433477811213 6.2158618573060487e-05 -0.99703191928813739 0.0042369959727391882 -3.7663647792285113e-05 -0.00061502132021962197 -3.7663647792285113e-05 -0.19839604946864076 3.5134348726040265e-05 -0.00061502132021962197 3.5134348726040265e-05 -0.99622706398171879 0.003549916499100414 -8.4811111679181092e-05 -2.9896216282687682e-05 -8.4811111679181092e-05 -0.19857186580643316 -3.463091118871553e-07 -2.9896216282687682e-05 -3.463091118871553e-07 -0.99650083920160215 0.0042135991272176376 -5.5082634035985378e-06 -0.00056418551247960913 -5.5082634035985378e-06 -0.19822137474551438 -4.1177935435454671e-05 -0.00056418551247960913 -4.1177935435454671e-05 -0.99533683229293413 0.0031700551086035755 3.7153682879143235e-05 -0.00038647886390338893 3.7153682879143235e-05 -0.19879005669368421 -3.651414723818136e-06 -0.00038647886390338893 -3.651414723818136e-06 -0.99718336197833946 0.0040647088197136583 -6.2234421412592919e-06 -0.00019026799173083031 -6.2234421412592919e-06 -0.19832312265593233 2.6581222288379891e-05 -0.00019026799173083031 2.6581222288379891e-05 -0.99569471137978516 0.0043688461124213041 2.0162953707305387e-05 -0.00064145946187099678 2.0162953707305387e-05 -0.19818233202295496 -1.2701458742769844e-05 -0.00064145946187099678 -1.2701458742769844e-05 -0.99534460891973031 0.0037569909410382074 2.7484636826339559e-05 -0.00014603986560944582 2.7484636826339559e-05 -0.19852752032673182 -4.5929959159973777e-05 -0.00014603986560944582 -4.5929959159973777e-05 -0.99647291003610494 0.004027710209183244 -9.4151890610983752e-05 -0.00031961696851602606 -9.4151890610983752e-05 -0.19830230399535465 0.00026598309576586487 -0.00031961696851602606 0.00026598309576586487 -0.99551314513318845 0.0039998676770196528 -3.491482250814073e-05 -0.00068134880737891201 -3.491482250814073e-05 -0.19854790994942706 -8.1177003646848434e-06 -0.00068134880737891201 -8.1177003646848434e-06 -0.99669386739408461 0.004256662644352649 -4.1124513863323069e-05 -0.00056832223191971565 -4.1124513863323069e-05 -0.19818172778709098 -3.7765798125088956e-05 -0.00056832223191971565 -3.7765798125088956e-05 -0.99531973783985483 0.0035768192047451741 0.0001100757467068099 -0.00012237437033957299 0.0001100757467068099 -0.19859514396954159 -2.6657338096702787e-05 -0.00012237437033957299 -2.6657338096702787e-05 -0.99646302044653279 0.0058719049657318667 -3.9214383770266868e-05 -0.00083991552994919227 -3.9214383770266868e-05 -0.19779863909006856 -1.7363310007345589e-05 -0.00083991552994919227 -1.7363310007345589e-05 -0.99505253780256631 0.0034673191752684629 0.00035162477731567361 -0.00066035362054928104 0.00035162477731567361 -0.19857445019738687 -0.00027236255425133749 -0.00066035362054928104 -0.00027236255425133749 -0.99646273359374604 0.0039596697967606842 -0.00022903556263204948 -0.00025233358980969456 -0.00022903556263204948 -0.19844675125570785 -0.00010177528129784452 -0.00025233358980969456 -0.00010177528129784452 -0.99615489240989008 0.0038273308631367464 0.00056261455646609826 -0.00039401826300000664 0.00056261455646609826 -0.19842286268128073 0.00013946692243393954 -0.00039401826300000664 0.00013946692243393954 -0.99626686922344199 0.0047381818410316412 2.1231714004499229e-05 -0.00013889517077148028 2.1231714004499229e-05 -0.19820354479177743 -5.6561618572592565e-05 -0.00013889517077148028 -5.6561618572592565e-05 -0.99592378258704906 0.0041304829125973219 -0.00028961816308157603 -0.0007613832775352769 -0.00028961816308157603 -0.19851517654737327 0.00026219634686830418 -0.0007613832775352769 0.00026219634686830418 -0.99656711117147001 0.0039882588236441752 8.7873732814680605e-05 -8.7718929169255944e-06 8.7873732814680605e-05 -0.1984188250108021 -9.803784730672005e-05 -8.7718929169255944e-06 -9.803784730672005e-05 -0.99614915667765125 0.0038112127371674465 -9.178047298665877e-05 -0.00027414027791605733 -9.178047298665877e-05 -0.19854921960444694 -7.5027738149602285e-05 -0.00027414027791605733 -7.5027738149602285e-05 -0.99699972401626358 0.003609855255172989 0.00012368484943650043 -0.00051652423866999086 0.00012368484943650043 -0.19864474570517354 8.1391329985081029e-05 -0.00051652423866999086 8.1391329985081029e-05 -0.9968727336168608 0.0057911540817623397 0.00014700226273195896 -0.00069001661428247374 0.00014700226273195896 -0.19785111188998172 1.4210942702597151e-06 -0.00069001661428247374 1.4210942702597151e-06 -0.99500757224664627 0.0048311462952407291 -8.5955495238123642e-06 -0.00057441062106855512 -8.5955495238123642e-06 -0.19806760317045935 5.2553465408999855e-05 -0.00057441062106855512 5.2553465408999855e-05 -0.99524951634925651 0.0059034793160220866 -0.00015299001916348328 -0.00079871472409331901 -0.00015299001916348328 -0.19783645550369755 4.1198326999891677e-05 -0.00079871472409331901 4.1198326999891677e-05 -0.99510883055860333 0.004688082125033799 0.00011661231158890951 -0.00058651169363510558 0.00011661231158890951 -0.19828403847133746 -0.00018669720934405554 -0.00058651169363510558 -0.00018669720934405554 -0.99559404610867075 0.0039137082967473091 -0.00022466257267684408 -0.0010031995599890653 -0.00022466257267684408 -0.19855344529389685 -3.5423066446327311e-05 -0.0010031995599890653 -3.5423066446327311e-05 -0.99654940491948274 0.0036356639843098115 -4.7731895044893508e-05 1.7294767666653499e-05 -4.7731895044893508e-05 -0.19860061853532263 -2.3322253193680531e-05 1.7294767666653499e-05 -2.3322253193680531e-05 -0.99651789557972847 0.0037058773672551393 -0.00014725868480181925 -2.4768791737628248e-06 -0.00014725868480181925 -0.1984062301459838 0.00019836649772542181 -2.4768791737628248e-06 0.00019836649772542181 -0.99638380654804948 0.0047794625716869321 4.641563470488075e-05 -0.00062813083546425785 4.641563470488075e-05 -0.19810201248238413 -4.4629338873392044e-06 -0.00062813083546425785 -4.4629338873392044e-06 -0.99542787812231603 0.0028443046487089951 6.7053951993909888e-05 -0.00044590721492809848 6.7053951993909888e-05 -0.19868117804058461 9.1685384856265983e-05 -0.00044590721492809848 9.1685384856265983e-05 -0.99636960442310407 0.0046710176916725521 5.2700366588124874e-05 -0.00081671770317059966 5.2700366588124874e-05 -0.19828377613800496 -3.916082869204196e-05 -0.00081671770317059966 -3.916082869204196e-05 -0.99595815130780796 0.0047223972382878232 0.00014886548665136307 -0.00036806937408924434 0.00014886548665136307 -0.19815996840034722 2.6050450031345207e-05 -0.00036806937408924434 2.6050450031345207e-05 -0.99545020414090857 0.0046212153529285871 -0.00021688155947007228 -1.3590956474240912e-05 -0.00021688155947007228 -0.19815966142739572 8.9421573175707536e-05 -1.3590956474240912e-05 8.9421573175707536e-05 -0.99567342898159517 0.006136795761560121 8.1043316721142805e-05 -0.00054267746661929017 8.1043316721142805e-05 -0.19771837543275295 -2.8272820115748942e-05 -0.00054267746661929017 -2.8272820115748942e-05 -0.99498155257691501 0.0047179578068632377 -0.00021960804276053918 -0.00021472027069574517 -0.00021960804276053918 -0.19827446775306723 -7.6401617712384962e-05 -0.00021472027069574517 -7.6401617712384962e-05 -0.99603140146327984 0.0037648525104123642 -6.697746557143537e-07 -0.0006727456647439567 -6.697746557143537e-07 -0.19865978223623026 0.00010308249884860565 -0.0006727456647439567 0.00010308249884860565 -0.99668942197052601 0.003269274043833259 -3.8197476425869276e-05 -0.00026743897878134248 -3.8197476425869276e-05 -0.19868822004507891 -9.8937729861914292e-05 -0.00026743897878134248 -9.8937729861914292e-05 -0.99668916367115701 0.0028715195958849415 7.1299366849540393e-05 -0.00060825292989774571 7.1299366849540393e-05 -0.19893891717475098 0.00023290352023686012 -0.00060825292989774571 0.00023290352023686012 -0.99737324840397212 0.0027216587364107259 -5.9081852902368108e-05 -0.00071929385767333098 -5.9081852902368108e-05 -0.19898365453057787 2.6979045544273106e-05 -0.00071929385767333098 2.6979045544273106e-05 -0.99759031080131244 0.0012316950745455968 -2.0010514418682066e-05 -0.00011079861280349768 -2.0010514418682066e-05 -0.19937624671389562 0.00010632449402470101 -0.00011079861280349768 0.00010632449402470101 -0.99812387031330052 0.0027246122449866572 2.5919404443697259e-05 -0.0007057702038246183 2.5919404443697259e-05 -0.19895487984335847 5.1282509097916318e-05 -0.0007057702038246183 5.1282509097916318e-05 -0.99747483556608962 0.0025216920081422289 0.00010555718380490145 -0.00018847098011429142 0.00010555718380490145 -0.19908167193738679 1.645025601915151e-05 -0.00018847098011429142 1.645025601915151e-05 -0.99788213617538224 0.0027765459860880082 -0.00015933686844932872 -0.00036277132796458389 -0.00015933686844932872 -0.19890595908325115 0.00012466589695581121 -0.00036277132796458389 0.00012466589695581121 -0.99704801597827597 0.0024845578817079828 -0.00016295057660767532 7.6090924609140131e-05 -0.00016295057660767532 -0.19909728628146295 -1.2573636345880601e-05 7.6090924609140131e-05 -1.2573636345880601e-05 -0.99779801721742745 0.00098586870240668922 3.9982431827405076e-05 -8.2892003388845836e-05 3.9982431827405076e-05 -0.19955588134126434 0.00023506141907736477 -8.2892003388845836e-05 0.00023506141907736477 -0.99883167191354127 0.001102997329177402 1.8750515254488376e-05 -0.000283922910956802 1.8750515254488376e-05 -0.19947300444596117 5.1156377242289608e-05 -0.000283922910956802 5.1156377242289608e-05 -0.99830426936995575 0.00079299809002630894 -4.6455632538777892e-06 -0.00023357063689410928 -4.6455632538777892e-06 -0.19965000936383959 0.00013375408047400228 -0.00023357063689410928 0.00013375408047400228 -0.99913790121296486 0.00085177919108514466 1.9611106528744067e-05 0.0001380922688998254 1.9611106528744067e-05 -0.19964818556200181 3.49697920805081e-05 0.0001380922688998254 3.49697920805081e-05 -0.99940668732945337 0.00076746511246511551 0.00012744453139804996 -0.00010220797752502619 0.00012744453139804996 -0.19942831064330507 0.00014500262463101876 -0.00010220797752502619 0.00014500262463101876 -0.9982075582263692 0.00059799764872875416 0.00015425976452372711 -0.00017031003630196828 0.00015425976452372711 -0.19963673616550909 -1.8940103057474289e-05 -0.00017031003630196828 -1.8940103057474289e-05 -0.99908345967322698 0.0011455757634175612 3.8910579480743065e-05 -0.00023765878372672411 3.8910579480743065e-05 -0.19957346998947667 6.939592138437839e-05 -0.00023765878372672411 6.939592138437839e-05 -0.99888919369456275 0.0010927572520354478 -9.4862257024652559e-06 -0.00027254999869730234 -9.4862257024652559e-06 -0.19956741556192709 1.8808749110199585e-05 -0.00027254999869730234 1.8808749110199585e-05 -0.99893777520080085 0.0010827470156899999 -6.7095663677045673e-05 -0.00020041083681299199 -6.7095663677045673e-05 -0.19943330567890172 3.1974771207067543e-05 -0.00020041083681299199 3.1974771207067543e-05 -0.99819953273772288 0.00093221168779022978 -3.3569033068705682e-05 -5.0719338766880284e-05 -3.3569033068705682e-05 -0.19955392940229211 -0.00032979315635106587 -5.0719338766880284e-05 -0.00032979315635106587 -0.99868052093557225 0.00093734783094479024 4.3741768390083603e-05 0.00011148397155280598 4.3741768390083603e-05 -0.19964581964928241 6.530515392455527e-05 0.00011148397155280598 6.530515392455527e-05 -0.99904219258215265 0.0010972817701379034 5.1997515538268329e-05 0.00010772579233320201 5.1997515538268329e-05 -0.19944553222012751 4.4975596650065341e-05 0.00010772579233320201 4.4975596650065341e-05 -0.99831605703353921 0.00090399805095153773 -1.6387786160650472e-05 -0.0003167487142006209 -1.6387786160650472e-05 -0.1996423202103359 -2.9741979780339989e-05 -0.0003167487142006209 -2.9741979780339989e-05 -0.99922327475078854 0.0011099109411935038 2.6310077722610163e-06 -5.374620271025865e-05 2.6310077722610163e-06 -0.19952043261893915 0.00031381227284565938 -5.374620271025865e-05 0.00031381227284565938 -0.99857923631086409 0.0011858460837281815 1.56395796677915e-05 6.6363624465326509e-05 1.56395796677915e-05 -0.19940849207176758 -4.9150607231762677e-05 6.6363624465326509e-05 -4.9150607231762677e-05 -0.99823887169828751 0.0024230430042831586 5.9143074479303394e-06 -0.000235347021528165 5.9143074479303394e-06 -0.19891638266340808 3.8222098854845399e-06 -0.000235347021528165 3.8222098854845399e-06 -0.99699360243769475 0.0012932856385962088 -3.7665895183336352e-05 -0.00027541228395466799 -3.7665895183336352e-05 -0.19947391373022361 -8.7815701326210416e-06 -0.00027541228395466799 -8.7815701326210416e-06 -0.99874647958700002 0.0028361784434076664 2.383693238579629e-05 -0.00079405167870416626 2.383693238579629e-05 -0.19892260495561898 -0.00010920365659305986 -0.00079405167870416626 -0.00010920365659305986 -0.99740183561888163 0.0018158622108459532 7.693808865288304e-06 0.00018530248567870649 7.693808865288304e-06 -0.19919681566821268 2.0427084680418872e-06 0.00018530248567870649 2.0427084680418872e-06 -0.99778858666828185 0.00091579829253207734 -8.0506921354579837e-06 -0.00028732442514023404 -8.0506921354579837e-06 -0.19966044681568329 -6.2661003201208709e-05 -0.00028732442514023404 -6.2661003201208709e-05 -0.99915586542785917 0.0026576778323672556 -3.7082026542881129e-05 -0.00068431215306863358 -3.7082026542881129e-05 -0.19889093319046225 -5.0049796204598707e-05 -0.00068431215306863358 -5.0049796204598707e-05 -0.99754092024149266 0.0011513644596378159 7.5353901061367591e-05 -0.00023397936426605703 7.5353901061367591e-05 -0.19960710533978443 -1.3981679229946309e-06 -0.00023397936426605703 -1.3981679229946309e-06 -0.99873137351776542 0.0010746447054262864 -4.1712606584404962e-05 1.4288935967332606e-05 -4.1712606584404962e-05 -0.19946390812689929 -7.8431710827588097e-05 1.4288935967332606e-05 -7.8431710827588097e-05 -0.99831160241304362 0.0012201895906591709 -7.8031729067068285e-05 -0.0003086823018290108 -7.8031729067068285e-05 -0.19952405625625436 -3.022520503082049e-05 -0.0003086823018290108 -3.022520503082049e-05 -0.99879490631419632 0.0011389956339016294 -0.00015023024538101098 -0.00021353837694659816 -0.00015023024538101098 -0.19946746361223644 1.1064333992782949e-05 -0.00021353837694659816 1.1064333992782949e-05 -0.998960324930386 0.0029353453257578987 3.3665430572234263e-05 -0.00082685551423233861 3.3665430572234263e-05 -0.19885996920494153 -6.0355226194630518e-07 -0.00082685551423233861 -6.0355226194630518e-07 -0.99726956979148706 0.0028756058223419201 4.5272852315472936e-05 -0.00076594599737722646 4.5272852315472936e-05 -0.19884172183703097 -5.8499738338213536e-05 -0.00076594599737722646 -5.8499738338213536e-05 -0.99732176907418912 0.0010602685142345747 3.2246158883712816e-05 8.7863370856311462e-05 3.2246158883712816e-05 -0.19938713941189257 -2.8708847905185853e-05 8.7863370856311462e-05 -2.8708847905185853e-05 -0.99824609084634686 0.00080769197439212181 3.6660598814500432e-05 -0.00022112824336373293 3.6660598814500432e-05 -0.19967492065211057 2.1438414601782085e-05 -0.00022112824336373293 2.1438414601782085e-05 -0.99906437976927176 0.00080130672913258927 5.1998893116988296e-05 -0.00025850130384386105 5.1998893116988296e-05 -0.19961519480231016 -2.5536484539817605e-05 -0.00025850130384386105 -2.5536484539817605e-05 -0.99914025078055246 0.0015584053987907076 -2.4378129752514874e-05 8.3226135957126246e-05 -2.4378129752514874e-05 -0.19919564347769381 2.3664090635699964e-05 8.3226135957126246e-05 2.3664090635699964e-05 -0.99769778504389439 0.0015334146236222201 -6.2483813304853943e-05 1.8215700881452079e-05 -6.2483813304853943e-05 -0.19919950362917549 2.7503751504287521e-05 1.8215700881452079e-05 2.7503751504287521e-05 -0.99767921368332457 0.00073387164523075477 6.3658764561500041e-05 -0.00026507430480493532 6.3658764561500041e-05 -0.19965392720821828 2.9853809383029173e-05 -0.00026507430480493532 2.9853809383029173e-05 -0.99911190090249047 0.0015601826256121942 -6.4165096368905362e-05 2.4501534486742749e-05 -6.4165096368905362e-05 -0.19917806931701398 4.7267575599030387e-05 2.4501534486742749e-05 4.7267575599030387e-05 -0.99756390531643646 0.0011729865890591773 -0.00015042957782879132 -0.00044536358843316748 -0.00015042957782879132 -0.19951439722879272 0.00015624954221449272 -0.00044536358843316748 0.00015624954221449272 -0.99886697031651339 0.001292857905667133 1.5477685089121204e-07 -0.00045319413097577588 1.5477685089121204e-07 -0.19955216753363769 -2.308716584953352e-05 -0.00045319413097577588 -2.308716584953352e-05 -0.99902921841317083 0.002881105838238307 -5.1851138060226732e-05 -0.0007963588359538587 -5.1851138060226732e-05 -0.19885291563666752 0.00011464377649827995 -0.0007963588359538587 0.00011464377649827995 -0.99728391496225521 0.0015686350737088572 -0.00012780128563738249 -7.3191281871665126e-05 -0.00012780128563738249 -0.19926168454181792 0.00021793481152909688 -7.3191281871665126e-05 0.00021793481152909688 -0.99801974553799111 0.0011140909334317328 2.5135594506553255e-05 -0.00017018206927876811 2.5135594506553255e-05 -0.19954981925746296 3.0421591457718833e-05 -0.00017018206927876811 3.0421591457718833e-05 -0.9989653211956373 0.0010623921484185228 8.1334336654515819e-05 9.4996874848485291e-05 8.1334336654515819e-05 -0.19940920951202123 9.4712563906917957e-05 9.4996874848485291e-05 9.4712563906917957e-05 -0.99823784901861945 0.0011211955324719469 8.2737415161465499e-05 -0.00016652756371082766 8.2737415161465499e-05 -0.19925756021749538 5.3365258014137495e-05 -0.00016652756371082766 5.3365258014137495e-05 -0.99749416356671483 0.0017958043051394812 -4.5132979650927289e-05 -0.00053556466049833884 -4.5132979650927289e-05 -0.19900937141606706 3.6936448593705151e-05 -0.00053556466049833884 3.6936448593705151e-05 -0.99695729232264862 0.0017914677277561797 0.00019301178135780936 -0.00041775841376723299 0.00019301178135780936 -0.1991923239963358 -0.0002011244021621339 -0.00041775841376723299 -0.0002011244021621339 -0.99730838708323821 0.0017474731370472479 0.00022929480412206728 -0.00021406393795958545 0.00022929480412206728 -0.19923761998971878 0.00026784908126620266 -0.00021406393795958545 0.00026784908126620266 -0.99836626772050163 0.0013408764130681816 -4.6617178856930132e-05 -0.00020361558987080919 -4.6617178856930132e-05 -0.19938486954977691 2.4963873055505736e-05 -0.00020361558987080919 2.4963873055505736e-05 -0.99838536524089716 0.0018449519041315865 -0.00030662298780311642 -0.00032720446863154784 -0.00030662298780311642 -0.19908432333660153 0.00018379297450410448 -0.00032720446863154784 0.00018379297450410448 -0.9972575643651358 0.0017067593767914838 -0.0001654520038532148 -0.00021554101809263468 -0.0001654520038532148 -0.19933877609133571 -9.3179294684997416e-05 -0.00021554101809263468 -9.3179294684997416e-05 -0.99838356892083824 0.0010148100317819431 0.00014443346147488225 -0.00019441155314936509 0.00014443346147488225 -0.19949299639992346 -0.00012369165309555896 -0.00019441155314936509 -0.00012369165309555896 -0.99855187117171784 0.00096568578753064571 6.9713607760265022e-05 2.9191324555921661e-05 6.9713607760265022e-05 -0.19946274596503 -8.7635313264278203e-05 2.9191324555921661e-05 -8.7635313264278203e-05 -0.99835404438687991 0.00099637963179550343 0.00015823838515673349 -0.00013842730832536176 0.00015823838515673349 -0.19948553867892566 -5.7371387528926121e-05 -0.00013842730832536176 -5.7371387528926121e-05 -0.99848781048300883 0.001255680052880126 -0.00011118927262372429 -0.00021115616643252455 -0.00011118927262372429 -0.19954960904711982 1.0170606459358744e-05 -0.00021115616643252455 1.0170606459358744e-05 -0.99843713390681277 0.0013351949044213551 0.00052950450243754305 -0.0002510657333987254 0.00052950450243754305 -0.19901652224508598 -0.00024615312534770339 -0.0002510657333987254 -0.00024615312534770339 -0.9974280315566193 0.0036832244240282419 -2.302890181316988e-05 -0.00056955168101247011 -2.302890181316988e-05 -0.19870966777500265 3.6899220575703495e-05 -0.00056955168101247011 3.6899220575703495e-05 -0.99693896416902406 0.0020071134714227945 -7.1143923995876441e-05 0.00013402407561469154 -7.1143923995876441e-05 -0.19943326019393259 4.0831859011714045e-05 0.00013402407561469154 4.0831859011714045e-05 -0.99760691820603853 0.0013982182094166573 -1.0154553850112641e-05 -0.00033206265023499881 -1.0154553850112641e-05 -0.19955601653081556 6.3618306230694976e-05 -0.00033206265023499881 6.3618306230694976e-05 -0.99849350615198107 0.0014883075305166527 6.820517139987536e-06 -0.00024389481028619375 6.820517139987536e-06 -0.19919531270287882 -2.7105797762771999e-05 -0.00024389481028619375 -2.7105797762771999e-05 -0.99747119602225842 0.0011403388855095731 6.7282769215927009e-05 5.592408863819287e-05 6.7282769215927009e-05 -0.19957651597162962 2.099548311262911e-05 5.592408863819287e-05 2.099548311262911e-05 -0.99839825465914966 0.0011501944428116196 0.00010843726323571932 6.7537373567350123e-05 0.00010843726323571932 -0.19942517537518412 -3.6936245954133362e-05 6.7537373567350123e-05 -3.6936245954133362e-05 -0.99836481473892569 0.00033609391336153482 -0.00010591448539473321 8.8156888183643645e-05 -0.00010591448539473321 -0.19955030791918471 -2.2321068193442706e-05 8.8156888183643645e-05 -2.2321068193442706e-05 -0.9985529727189566 0.00080996561135426859 3.2047078580783014e-05 -0.00015387590864690548 3.2047078580783014e-05 -0.19946921604520707 1.0885627492240868e-05 -0.00015387590864690548 1.0885627492240868e-05 -0.99851888949109702 0.00084403776006825026 -0.000224017533405747 -0.00025787542004473973 -0.000224017533405747 -0.19928844590402495 0.00012332552237137584 -0.00025787542004473973 0.00012332552237137584 -0.99785699177010478 0.0023694212091756872 -4.2508069697495666e-05 -2.6849624171099151e-05 -4.2508069697495666e-05 -0.1990297764224527 7.3774367713719258e-06 -2.6849624171099151e-05 7.3774367713719258e-06 -0.99746050326517344 0.0015425147385573074 6.5452217877726816e-05 -0.00022987081509895368 6.5452217877726816e-05 -0.19921795439625528 4.8124361948342909e-05 -0.00022987081509895368 4.8124361948342909e-05 -0.99774394463704641 0.00094791801700810918 -8.0048025631688669e-05 -0.00014147222102289803 -8.0048025631688669e-05 -0.19940956921559472 -4.6608227663891277e-05 -0.00014147222102289803 -4.6608227663891277e-05 -0.99856666862289201 0.00081817356136804076 -0.00017814604654786868 -0.00010184885782482667 -0.00017814604654786868 -0.19934687067109025 -0.00016829331564305328 -0.00010184885782482667 -0.00016829331564305328 -0.99814527786563056 0.0013725090859975642 0.00012488974986847213 -0.00034962606222821435 0.00012488974986847213 -0.19947569450554575 -1.7744265848662621e-05 -0.00034962606222821435 -1.7744265848662621e-05 -0.99876819910890258 0.00056830195147528073 -0.00014432571190973868 -0.00025776737736016297 -0.00014432571190973868 -0.19957689934624678 3.9680250031204345e-05 -0.00025776737736016297 3.9680250031204345e-05 -0.99896373028868357 0.00082528513053881092 -2.7936459462090031e-06 -0.00024847504629876838 -2.7936459462090031e-06 -0.19966955531715525 -4.7470898767665304e-05 -0.00024847504629876838 -4.7470898767665304e-05 -0.9992551679749857 0.0012737027259792644 -5.9457145265857628e-05 -0.00043425811312469698 -5.9457145265857628e-05 -0.19938417399411335 5.9482695964008236e-05 -0.00043425811312469698 5.9482695964008236e-05 -0.99812755113393958 0.00084005555582500335 2.5683689923250032e-07 7.9941058444443769e-05 2.5683689923250032e-07 -0.19960699653406588 -3.4947164421761379e-05 7.9941058444443769e-05 -3.4947164421761379e-05 -0.99934791274847079 0.00094896967053503811 -2.1885337043247645e-05 -0.0001024759505507955 -2.1885337043247645e-05 -0.19954855944126426 -0.0001921256624624057 -0.0001024759505507955 -0.0001921256624624057 -0.99888035728979307 0.00076478639472876697 -7.1461381387160323e-05 -0.00023505999921236143 -7.1461381387160323e-05 -0.1997888486486018 2.2644010526651215e-05 -0.00023505999921236143 2.2644010526651215e-05 -0.99921407076364011 0.001092975699723775 0.00016608931314162915 -0.0004456970398747373 0.00016608931314162915 -0.19953693664082151 -0.00020591651449608506 -0.0004456970398747373 -0.00020591651449608506 -0.99879922948751698 0.0013255586779180595 -0.00010749299556794921 0.00017678785381036732 -0.00010749299556794921 -0.19951546166891543 -4.6384387112630154e-05 0.00017678785381036732 -4.6384387112630154e-05 -0.99840260599792074 0.0013867058932355292 3.390174304283207e-05 -0.00034161803493848453 3.390174304283207e-05 -0.1995806150448356 -3.8464742534438656e-06 -0.00034161803493848453 -3.8464742534438656e-06 -0.99878861642729522 0.0027280045316313561 2.465490845955889e-05 -0.00074811338783062342 2.465490845955889e-05 -0.19889664248989347 -9.2191395492324801e-05 -0.00074811338783062342 -9.2191395492324801e-05 -0.99726382132023161 0.0017331835434575282 0.00012734464380252081 -3.035459289546516e-05 0.00012734464380252081 -0.19926656319972835 -0.00025792852271544486 -3.035459289546516e-05 -0.00025792852271544486 -0.99805822326976568 0.0018771065074021376 1.518062608824751e-05 -0.00029701378397950506 1.518062608824751e-05 -0.19922903057260766 7.7621407127748121e-05 -0.00029701378397950506 7.7621407127748121e-05 -0.99792657653124461 0.0024811967880489227 -7.9954652020711783e-05 1.6383626954552533e-06 -7.9954652020711783e-05 -0.19904265388501496 -2.8259612135705936e-05 1.6383626954552533e-06 -2.8259612135705936e-05 -0.99757258244355196 0.0026914536526037036 9.6296847877384406e-05 -0.00076582068866137831 9.6296847877384406e-05 -0.19895578269048686 -3.760977322020409e-05 -0.00076582068866137831 -3.760977322020409e-05 -0.99730530514750981 0.0012837269445526989 5.2421010270972283e-05 0.0001489855153664621 5.2421010270972283e-05 -0.19941792566821048 -4.2725947027255629e-05 0.0001489855153664621 -4.2725947027255629e-05 -0.99839541327953318 0.0027359923398715402 5.1770264685711878e-06 -0.00062294331605161624 5.1770264685711878e-06 -0.19897370644275547 -3.2031462933179711e-05 -0.00062294331605161624 -3.2031462933179711e-05 -0.99748685585970787 0.0015790613376054918 0.00011940206377101465 -0.00016720080888177336 0.00011940206377101465 -0.19927173524039182 -0.00015303343695283189 -0.00016720080888177336 -0.00015303343695283189 -0.99798093267090837 0.0037134258845533674 8.1189860697841203e-05 -4.632124642522939e-06 8.1189860697841203e-05 -0.19855177835395799 -1.6238468690144003e-05 -4.632124642522939e-06 -1.6238468690144003e-05 -0.99635516346453867 0.0037306475128155991 0.00015077295842318557 -1.0093143594680498e-05 0.00015077295842318557 -0.19844005704926437 -0.00010395666030005302 -1.0093143594680498e-05 -0.00010395666030005302 -0.99629432099584392 0.0033124768298780083 6.2661113565245751e-05 -0.00019541339625006593 6.2661113565245751e-05 -0.19870895579165793 7.7783131096964553e-05 -0.00019541339625006593 7.7783131096964553e-05 -0.99674851686841981 0.0039103885836381247 0.00015162319058093724 -0.00055679329848090653 0.00015162319058093724 -0.19848214480595072 -3.9677848450825337e-05 -0.00055679329848090653 -3.9677848450825337e-05 -0.99623358503212822 0.0031752720624842468 9.4752902775195708e-07 -0.0004674920425911111 9.4752902775195708e-07 -0.19878468497727286 -0.00017603393894960462 -0.0004674920425911111 -0.00017603393894960462 -0.99689355920634837 0.0045818374181422206 0.00013832156644731999 -2.9609067822899959e-05 0.00013832156644731999 -0.19833035483781736 6.955665091123997e-05 -2.9609067822899959e-05 6.955665091123997e-05 -0.99591048812929994 0.0035150288503360549 -6.2352841590492705e-05 -0.00060194317806150366 -6.2352841590492705e-05 -0.19870721879300013 -0.000144044218914674 -0.00060194317806150366 -0.000144044218914674 -0.99672059185787809 0.0033517975932384481 0.00020674877118624253 -0.00043235306001548901 0.00020674877118624253 -0.19864311764911635 9.6876039847870743e-05 -0.00043235306001548901 9.6876039847870743e-05 -0.99688275833520734 0.0050653174702123271 -3.5540102791422586e-05 -0.00071665268011839034 -3.5540102791422586e-05 -0.19802022372891026 6.7265202907673682e-05 -0.00071665268011839034 6.7265202907673682e-05 -0.99526037786480659 0.0050789527458181549 -7.9837581308604011e-05 -0.00070418970146045139 -7.9837581308604011e-05 -0.19802450241916225 -3.6131570915864941e-05 -0.00070418970146045139 -3.6131570915864941e-05 -0.9951925625593443 0.0060001163519267653 -5.4351120011457842e-06 -0.00047863993466523702 -5.4351120011457842e-06 -0.19780917670549525 -0.00015258818347607672 -0.00047863993466523702 -0.00015258818347607672 -0.99528944147448417 0.0050182266519862573 0.00024808605622917047 -0.00037753479636189538 0.00024808605622917047 -0.19808445799612584 -0.00011623273564076442 -0.00037753479636189538 -0.00011623273564076442 -0.99540195045660607 0.0045554864750114721 -0.00014478174333890521 -0.00030189233564188733 -0.00014478174333890521 -0.19830607328369565 5.51456258512939e-05 -0.00030189233564188733 5.51456258512939e-05 -0.995984730802145 0.0045379480618368273 -2.4242020531059047e-05 -0.00077402413916516366 -2.4242020531059047e-05 -0.19829043468937901 3.2487015010129738e-05 -0.00077402413916516366 3.2487015010129738e-05 -0.99594570600894805 0.0042915942620215253 -9.5379309468081643e-06 -0.00053815177829519278 -9.5379309468081643e-06 -0.19818311977998482 -1.4354839325575464e-05 -0.00053815177829519278 -1.4354839325575464e-05 -0.99529631532380458 0.0036005834216743526 0.0001474977813134389 -0.00026491281383034249 0.0001474977813134389 -0.19848929771088752 -3.9485598785082843e-05 -0.00026491281383034249 -3.9485598785082843e-05 -0.99603906627353966 0.0049383984857913621 -0.00011100969443792931 -0.00048724457297062707 -0.00011100969443792931 -0.19804094320843046 -3.119475700719132e-05 -0.00048724457297062707 -3.119475700719132e-05 -0.99513339952657676 0.0049484596660327451 -4.3371433264182698e-05 -0.0003259823070426715 -4.3371433264182698e-05 -0.19806079376860164 -5.0769768811464999e-05 -0.0003259823070426715 -5.0769768811464999e-05 -0.99520735442970398 0.0036592070502657892 -1.9779254761388595e-05 -5.4476195690766893e-05 -1.9779254761388595e-05 -0.19850560028896225 2.8284311143045304e-05 -5.4476195690766893e-05 2.8284311143045304e-05 -0.99632870349029679 0.0032286576015019275 -4.4549220164312599e-05 -0.00033981159477554368 -4.4549220164312599e-05 -0.19875967899162883 -9.8292252237036637e-06 -0.00033981159477554368 -9.8292252237036637e-06 -0.9971688256643283 0.0039979770375724311 3.329831599663507e-06 -0.00079062097126492148 3.329831599663507e-06 -0.19846061965839867 -5.8884913151480145e-05 -0.00079062097126492148 -5.8884913151480145e-05 -0.99643753697705728 0.0032996643454691332 -4.4857314666324424e-05 -0.00043205016178956418 -4.4857314666324424e-05 -0.1986956837040933 -5.5926353636100851e-05 -0.00043205016178956418 -5.5926353636100851e-05 -0.99690892436804157 0.0034114080038288863 0.00012833586086073674 -0.00063536905691750911 0.00012833586086073674 -0.19862453798141999 -0.00017834745234357463 -0.00063536905691750911 -0.00017834745234357463 -0.99649054041422103 0.0048655441755870443 -1.843371235509373e-05 -0.00064071927837784648 -1.843371235509373e-05 -0.19808098399412144 4.8287522573797759e-06 -0.00064071927837784648 4.8287522573797759e-06 -0.99532694107408082 0.0040463215076274039 2.0538406862593542e-05 -0.00019484387531676362 2.0538406862593542e-05 -0.1983660162905389 -3.9122298467697547e-05 -0.00019484387531676362 -3.9122298467697547e-05 -0.9959307116184879 0.0043528585336278791 4.7128727861907261e-05 -0.00051698472591077405 4.7128727861907261e-05 -0.19817807106652563 4.8921325737305565e-05 -0.00051698472591077405 4.8921325737305565e-05 -0.99530003586835725 0.0039817848798823219 0.00018413392231813447 -0.00027362806812306073 0.00018413392231813447 -0.19830822033906992 -0.00038579238990532616 -0.00027362806812306073 -0.00038579238990532616 -0.99532976301502218 0.0040229481521016908 5.8349637184978215e-05 -0.00066677993014774284 5.8349637184978215e-05 -0.19855963602632354 4.4154839908494559e-05 -0.00066677993014774284 4.4154839908494559e-05 -0.9966790176599829 0.0038136918529524388 -5.4745460869718221e-05 -0.00012455170515744685 -5.4745460869718221e-05 -0.19850534995513114 4.7360637575599718e-05 -0.00012455170515744685 4.7360637575599718e-05 -0.99633559482616585 0.0036767046986895258 -0.00011657217261544724 -0.00010302546308771365 -0.00011657217261544724 -0.1985066878679872 1.9892611104577185e-05 -0.00010302546308771365 1.9892611104577185e-05 -0.99633477268080117 0.0044557209373947554 -4.3926277407122521e-05 -0.0005990439542398196 -4.3926277407122521e-05 -0.19818026454815263 1.9136015500964554e-05 -0.0005990439542398196 1.9136015500964554e-05 -0.99533532871245378 0.003906011284528832 -0.00012797091604217452 3.4419223107096109e-05 -0.00012797091604217452 -0.19845712925583725 0.00011742266300318605 3.4419223107096109e-05 0.00011742266300318605 -0.99621566240562398 0.0040845759056234998 0.00026933238522488699 -0.00023209214439398607 0.00026933238522488699 -0.19843943142455001 0.00014237695584551346 -0.00023209214439398607 0.00014237695584551346 -0.99620800172658619 0.0033946192669486938 0.00013711310567442864 -0.00075426005776963595 0.00013711310567442864 -0.19864928667810852 -0.00014659935000693736 -0.00075426005776963595 -0.00014659935000693736 -0.99667319166304014 0.0040385464844744645 -0.00045917653652714454 -0.0003371649856726 -0.00045917653652714454 -0.19836961256046334 -0.00014001734616764239 -0.0003371649856726 -0.00014001734616764239 -0.99626714399819905 0.0047500460972054737 -1.4418670118996785e-05 -0.00013054839650905592 -1.4418670118996785e-05 -0.1982405652282791 8.651666853864981e-05 -0.00013054839650905592 8.651666853864981e-05 -0.99600988212654529 0.003426835967936484 -0.00025706735821530809 -0.00076605390827572811 -0.00025706735821530809 -0.19858395994813138 0.00022239533022627711 -0.00076605390827572811 0.00022239533022627711 -0.99663776082414834 0.0033653132650575124 -0.00018110435901716641 -0.00049206389551459395 -0.00018110435901716641 -0.19867755452281599 -7.2079188839224706e-05 -0.00049206389551459395 -7.2079188839224706e-05 -0.99684017938205782 0.0058570470647683059 4.7000272508293502e-05 -0.00087244043995775289 4.7000272508293502e-05 -0.19782009231238595 3.6029211451626963e-05 -0.00087244043995775289 3.6029211451626963e-05 -0.99504140104525218 0.005870374769112674 0.00014551701855804671 -0.00083093747873830281 0.00014551701855804671 -0.19783855342877987 3.7317834685302032e-05 -0.00083093747873830281 3.7317834685302032e-05 -0.9950373636987111 0.0058195084976843114 -0.00016968570807587101 -0.00074030860951479482 -0.00016968570807587101 -0.19787241032903491 1.0898843894380228e-05 -0.00074030860951479482 1.0898843894380228e-05 -0.99500082920704314 0.0048213158532571798 -1.363025194879889e-05 -0.00055511230124349886 -1.363025194879889e-05 -0.1980905192190987 -4.9833380116215409e-05 -0.00055511230124349886 -4.9833380116215409e-05 -0.99529024792031917 0.0075168974025385527 -5.7864708572286837e-07 -0.00010680908626614638 -5.7864708572286837e-07 -0.19726928466047647 1.031657380268225e-05 -0.00010680908626614638 1.031657380268225e-05 -0.9938437705994182 0.0070384321920137216 -1.7943980263498358e-05 -0.00046296534758161201 -1.7943980263498358e-05 -0.19750192142670819 1.7402690783610564e-05 -0.00046296534758161201 1.7402690783610564e-05 -0.99474361737056549 0.0063591213500586719 -0.00036728945379473391 -0.00028594320466868162 -0.00036728945379473391 -0.19756379050100009 0.00020950842556111127 -0.00028594320466868162 0.00020950842556111127 -0.99440258610418897 0.0065268833856922948 -3.0146782668647671e-05 -9.2897943282599371e-05 -3.0146782668647671e-05 -0.19743358437960434 2.7052656493914418e-05 -9.2897943282599371e-05 2.7052656493914418e-05 -0.99388886370113871 0.005670214289630604 2.3913491371381883e-05 -5.350142742788222e-05 2.3913491371381883e-05 -0.19779163792148241 1.1391413266448325e-05 -5.350142742788222e-05 1.1391413266448325e-05 -0.99471969401800853 0.0064049245625728279 0.00022288420274041716 -0.00020385556735236232 0.00022288420274041716 -0.19747678634892807 0.00012863201910096045 -0.00020385556735236232 0.00012863201910096045 -0.99401528101347969 0.0069831798590574978 -6.38170360163475e-05 -0.00040655197288508305 -6.38170360163475e-05 -0.19762032976574762 0.00012742729322656743 -0.00040655197288508305 0.00012742729322656743 -0.99475685281713 0.0071664484392846006 -5.7539280791749822e-05 -0.00065897317815877265 -5.7539280791749822e-05 -0.19736695628724865 -6.3759737825908047e-05 -0.00065897317815877265 -6.3759737825908047e-05 -0.9939287478799228 0.0065140277953887049 0.00029158930117398959 -0.00044481830836606839 0.00029158930117398959 -0.19757617198852315 -0.00022965548044284745 -0.00044481830836606839 -0.00022965548044284745 -0.99422061521230531 0.007554793333281011 1.693420629204515e-05 -0.00014241035937789803 1.693420629204515e-05 -0.19726542189163365 -3.1833104291278946e-05 -0.00014241035937789803 -3.1833104291278946e-05 -0.99385955150764804 0.0056532542279774112 -8.7793410860425703e-06 -0.00031543847488907373 -8.7793410860425703e-06 -0.19768484900579258 -1.5584928349188232e-05 -0.00031543847488907373 -1.5584928349188232e-05 -0.99403839055258847 0.0058668465601906805 -4.3848951074603564e-05 -0.00045304101039334022 -4.3848951074603564e-05 -0.1978269597456834 1.91042567009303e-05 -0.00045304101039334022 1.91042567009303e-05 -0.99497992975858829 0.0057923641631066891 -8.0595980730098325e-05 -0.00027906846989478318 -8.0595980730098325e-05 -0.19763294239178775 -2.2580152878370896e-05 -0.00027906846989478318 -2.2580152878370896e-05 -0.99399567700343638 0.0057232831834707065 8.8876212148898743e-05 -0.0003853583181572251 8.8876212148898743e-05 -0.19761653998408318 -2.6074215656368693e-05 -0.0003853583181572251 -2.6074215656368693e-05 -0.99402154911687535 0.0061572656130673004 9.0190717757151608e-05 -0.00050229666625556391 9.0190717757151608e-05 -0.1977025751577457 -2.3704570339733166e-05 -0.00050229666625556391 -2.3704570339733166e-05 -0.99488567436628728 0.0060065458364546576 5.1109083001694095e-05 -0.00035027616557870012 5.1109083001694095e-05 -0.19776443905900076 4.8248838248277082e-05 -0.00035027616557870012 4.8248838248277082e-05 -0.99488522886840625 0.0057768983555873676 3.5819997749565819e-05 -0.00035157762621229605 3.5819997749565819e-05 -0.19777121355389671 -6.2014022895823251e-05 -0.00035157762621229605 -6.2014022895823251e-05 -0.99460643154367556 0.0059689823941441178 2.7699844552386596e-05 -0.00050946680478547446 2.7699844552386596e-05 -0.19764629772555176 -2.0660210450995642e-05 -0.00050946680478547446 -2.0660210450995642e-05 -0.99414295388381202 0.0061141873611074704 -4.0906951885514798e-05 -0.00031847814298835431 -4.0906951885514798e-05 -0.19775232098366691 3.376258549403488e-07 -0.00031847814298835431 3.376258549403488e-07 -0.99484784156494932 0.0069277382879310984 6.5331228713195994e-05 -0.00035406291401729462 6.5331228713195994e-05 -0.19740516267297498 -2.0904603223653728e-05 -0.00035406291401729462 -2.0904603223653728e-05 -0.99388274163983348 0.0057956820998699143 1.7593813346333442e-05 -0.00023903844522399353 1.7593813346333442e-05 -0.19764113200363675 -1.6750654262542852e-06 -0.00023903844522399353 -1.6750654262542852e-06 -0.99397404885461071 0.0062731308921528672 -4.4554165577832594e-05 -0.0004518654829845925 -4.4554165577832594e-05 -0.19763976700241326 3.6690485877066692e-05 -0.0004518654829845925 3.6690485877066692e-05 -0.99441399226999572 0.0057607128140892087 7.4909847977683877e-05 -0.00033627935229496586 7.4909847977683877e-05 -0.19772350509342082 6.0528498070810954e-05 -0.00033627935229496586 6.0528498070810954e-05 -0.99438873758502921 0.0065422407165987018 -2.0477719615135016e-05 -0.00040330421840129027 -2.0477719615135016e-05 -0.19745269137768806 -2.387745191623214e-06 -0.00040330421840129027 -2.387745191623214e-06 -0.99375541919897348 0.005250934114330974 -5.2679226012237098e-05 -0.00042189407352311026 -5.2679226012237098e-05 -0.19784177647696688 4.2131299847758541e-06 -0.00042189407352311026 4.2131299847758541e-06 -0.99451891269346993 0.0055576556045353609 -2.9727512135197354e-05 -0.00020227781360970809 -2.9727512135197354e-05 -0.19784884553482862 -1.0620436518227194e-05 -0.00020227781360970809 -1.0620436518227194e-05 -0.99485929945338114 0.0062416539211179733 -2.3954412687919375e-05 -0.00055660609154983831 -2.3954412687919375e-05 -0.19772678947513256 -5.3049946428407324e-05 -0.00055660609154983831 -5.3049946428407324e-05 -0.99483009604075301 0.0068247633750367909 6.5376579706966152e-05 -7.517559234293536e-05 6.5376579706966152e-05 -0.19738871484731357 8.1803339580521772e-05 -7.517559234293536e-05 8.1803339580521772e-05 -0.99388599578660086 0.0064405724104219519 9.6710628620289747e-05 -0.00072120940099906772 9.6710628620289747e-05 -0.1976219007395803 5.076237256274041e-05 -0.00072120940099906772 5.076237256274041e-05 -0.99470307104089617 0.0060877992815399073 -0.00013494416849572276 -9.977756886986322e-05 -0.00013494416849572276 -0.19777749607419082 -5.9723742285466841e-05 -9.977756886986322e-05 -5.9723742285466841e-05 -0.99498555324937099 0.0069080997565182933 -0.00092531058122937966 0.00012520259506043629 -0.00092531058122937966 -0.19752084664288905 -0.00037246803457779976 0.00012520259506043629 -0.00037246803457779976 -0.99368405159226114 0.0062044069744792152 -8.4426475370166809e-06 6.2105401963385987e-06 -8.4426475370166809e-06 -0.19759540754404925 0.00016950486497857575 6.2105401963385987e-06 0.00016950486497857575 -0.994425549129764 0.0071294351807870138 0.00019229005622005914 -0.00036543688819667963 0.00019229005622005914 -0.19733253558028141 3.2715688868645287e-05 -0.00036543688819667963 3.2715688868645287e-05 -0.99393822586297498 0.0069617838260114251 0.00013593641908714958 -0.00039635411341654159 0.00013593641908714958 -0.19755707428974323 -0.00024451600772157356 -0.00039635411341654159 -0.00024451600772157356 -0.99462874418717817 0.0070016007206327169 -3.4579252197094265e-05 -0.00036791588465301395 -3.4579252197094265e-05 -0.19751220226761168 -0.00011539261260073985 -0.00036791588465301395 -0.00011539261260073985 -0.99469444891882031 0.0078705671001437771 6.1201521882275458e-05 -0.00032815292073307134 6.1201521882275458e-05 -0.19720847193083202 -6.2177084649395198e-05 -0.00032815292073307134 -6.2177084649395198e-05 -0.99397577765316836 0.0072592178724739664 -2.2271457198740453e-05 -0.00056578438087506733 -2.2271457198740453e-05 -0.19718156339586601 -5.5507513165853339e-06 -0.00056578438087506733 -5.5507513165853339e-06 -0.99338367341812983 0.0074329417629940275 -8.2639863181689895e-05 -0.00011647891899724261 -8.2639863181689895e-05 -0.19724718809019226 3.4378005410617973e-05 -0.00011647891899724261 3.4378005410617973e-05 -0.99386529858932082 0.0075514631479054461 -4.4812194643899404e-05 -4.0611442928106811e-05 -4.4812194643899404e-05 -0.1971690159158227 0.00017406141029274735 -4.0611442928106811e-05 0.00017406141029274735 -0.99346531827480655 0.0085193274002222097 0.00017312971995939768 -0.00031496641652761781 0.00017312971995939768 -0.1968852466361326 8.2579850713138114e-05 -0.00031496641652761781 8.2579850713138114e-05 -0.99308588006366127 0.008317651564617945 -2.107762512172282e-05 -0.00047865715674721976 -2.107762512172282e-05 -0.19703839056242378 -8.7105176094226522e-07 -0.00047865715674721976 -8.7105176094226522e-07 -0.99340450058552676 0.008359371032935714 2.1684270790489791e-05 -0.00049239597938988133 2.1684270790489791e-05 -0.19695805519324894 -1.2660731738334263e-05 -0.00049239597938988133 -1.2660731738334263e-05 -0.99337877143754261 0.0076654296724441018 -6.5472981038449302e-06 -0.00033989753844299031 -6.5472981038449302e-06 -0.19703922234400806 2.4532407807108247e-05 -0.00033989753844299031 2.4532407807108247e-05 -0.99320861243483272 0.0075435091967999135 -0.00012506736279392118 -0.0003001827312913985 -0.00012506736279392118 -0.19711916667649776 4.643626214195784e-05 -0.0003001827312913985 4.643626214195784e-05 -0.99326078623634473 0.0090243781977153992 -7.2705567210385344e-06 0.00014469845252507163 -7.2705567210385344e-06 -0.19681203493298505 4.4140947066839686e-05 0.00014469845252507163 4.4140947066839686e-05 -0.99297459979144564 0.0078420811509042343 -3.16490788712174e-05 0.00010892562313902232 -3.16490788712174e-05 -0.19704906319222315 7.6665268939013487e-05 0.00010892562313902232 7.6665268939013487e-05 -0.99327843037755281 0.0076739080956782502 -1.7655973564260201e-06 -0.00033716050213494775 -1.7655973564260201e-06 -0.19703140278932274 4.8545748620565377e-05 -0.00033716050213494775 4.8545748620565377e-05 -0.99317449607086417 0.0084524152902223371 0.00060380836437886579 -0.00014430437505774663 0.00060380836437886579 -0.19687709099377226 -1.8461650109546923e-05 -0.00014430437505774663 -1.8461650109546923e-05 -0.99304308842305167 0.0090610227260212728 -5.2149945310633587e-06 -0.00039209604345380455 -5.2149945310633587e-06 -0.19672810218534753 4.5045662554477062e-05 -0.00039209604345380455 4.5045662554477062e-05 -0.99283382644945295 0.0084092793720498271 -0.00023803213969164175 -0.00011519292592221397 -0.00023803213969164175 -0.19690969029311201 8.6871156983470144e-05 -0.00011519292592221397 8.6871156983470144e-05 -0.99310358650195951 0.0091051002999069652 6.6444670857666052e-05 2.3118257709509038e-05 6.6444670857666052e-05 -0.19680680253936367 -7.1284246438985122e-05 2.3118257709509038e-05 -7.1284246438985122e-05 -0.99333303000204598 0.0078702684760227903 -1.4991751553022618e-06 -0.00021917382949632191 -1.4991751553022618e-06 -0.19698576216635533 -4.0617450833391189e-05 -0.00021917382949632191 -4.0617450833391189e-05 -0.99291455425328135 0.0077960989573337552 -1.8888432609518764e-06 -9.5449718491513735e-05 -1.8888432609518764e-06 -0.19703325191648352 6.5283207626665174e-05 -9.5449718491513735e-05 6.5283207626665174e-05 -0.99316021079955186 0.0072004327539119117 -7.2790359047537466e-06 -0.00018067134632304693 -7.2790359047537466e-06 -0.19719808136441253 -7.7398853170818072e-05 -0.00018067134632304693 -7.7398853170818072e-05 -0.99325387451735736 0.0075946683873375775 8.21184699066415e-05 3.6890012889090329e-05 8.21184699066415e-05 -0.19709724582308863 -7.2494077998808137e-05 3.6890012889090329e-05 -7.2494077998808137e-05 -0.99318701587374836 0.0072018316694109075 -6.7403873698297892e-07 -0.00017604058665221523 -6.7403873698297892e-07 -0.19720662052083693 -7.0820614178845886e-05 -0.00017604058665221523 -7.0820614178845886e-05 -0.9932387360378736 0.0073383830958947405 0.00039341474159028183 3.2732416177960744e-05 0.00039341474159028183 -0.19741733059918665 0.00050382645671476212 3.2732416177960744e-05 0.00050382645671476212 -0.99346764157724143 0.0071996186341514168 4.7030456762439444e-06 -0.00017703650352229872 4.7030456762439444e-06 -0.19721866965445378 -7.8835158121570714e-05 -0.00017703650352229872 -7.8835158121570714e-05 -0.99323732246340057 0.0067076916833901379 -3.5742692467302816e-05 -0.00027990789972820451 -3.5742692467302816e-05 -0.19742554729777062 -5.5755469256180135e-05 -0.00027990789972820451 -5.5755469256180135e-05 -0.99358524155445949 0.0063873634282672342 -5.0997260661636196e-06 -0.00042797081163614692 -5.0997260661636196e-06 -0.19742740278872262 -3.2648701615567433e-05 -0.00042797081163614692 -3.2648701615567433e-05 -0.99376023539463554 0.0072025564954091292 -1.4098067616779234e-05 -5.157806287647837e-05 -1.4098067616779234e-05 -0.1972312729349408 2.0937054357017537e-05 -5.157806287647837e-05 2.0937054357017537e-05 -0.99346108710295411 0.006782677184078878 5.7426730886890651e-05 -0.00026581728738106492 5.7426730886890651e-05 -0.19737794194238623 -7.5700760874930495e-05 -0.00026581728738106492 -7.5700760874930495e-05 -0.99389225126954495 0.0064945520506238807 1.8174737094323002e-05 -0.00042947554752525985 1.8174737094323002e-05 -0.19743655352811962 -4.0311885761590283e-05 -0.00042947554752525985 -4.0311885761590283e-05 -0.9936503721899812 0.0065926738944316124 1.721292814499637e-05 -5.3321462829991617e-05 1.721292814499637e-05 -0.19740385867335167 4.3597504236880802e-05 -5.3321462829991617e-05 4.3597504236880802e-05 -0.99356350378957592 0.0066282954495984203 -9.2285087251859398e-07 -0.0001390223188360018 -9.2285087251859398e-07 -0.19740812716734002 -3.2085314608520932e-05 -0.0001390223188360018 -3.2085314608520932e-05 -0.99354751318120327 0.0068899376935885881 -9.4191093558054811e-05 2.7395371372418431e-05 -9.4191093558054811e-05 -0.19734209794158919 -3.271042511565625e-05 2.7395371372418431e-05 -3.271042511565625e-05 -0.9934798258966504 0.0067094415095093826 0.00015147643367228124 -0.00020230624289196975 0.00015147643367228124 -0.19731728679408719 -3.8052120311049542e-05 -0.00020230624289196975 -3.8052120311049542e-05 -0.99334174771558759 0.0065866398291434258 -3.8810772029854433e-06 -0.00021469959467890209 -3.8810772029854433e-06 -0.19733397749434534 -6.2080191177704691e-06 -0.00021469959467890209 -6.2080191177704691e-06 -0.99335914642134249 0.0067717556546788016 -9.4781624297886403e-05 -0.00024311579512567572 -9.4781624297886403e-05 -0.19740320222441177 0.00014455143827363237 -0.00024311579512567572 0.00014455143827363237 -0.99379287719104203 0.0067613676975968318 -0.00036193063566123101 7.757729490009968e-05 -0.00036193063566123101 -0.19715922174992651 -0.00011778204859069774 7.757729490009968e-05 -0.00011778204859069774 -0.99308045990387583 0.0076575293187191029 -6.954250911322313e-06 -0.00033999513741211906 -6.954250911322313e-06 -0.19706931009020345 1.946499549632108e-05 -0.00033999513741211906 1.946499549632108e-05 -0.99321698297463268 0.0067314177878753378 -8.2637139669931926e-05 -0.00014284941704317822 -8.2637139669931926e-05 -0.1973633056477766 -0.00012932552891187221 -0.00014284941704317822 -0.00012932552891187221 -0.99373870202981585 0.00681738907441376 0.0003005425136664715 -0.00030245141438989265 0.0003005425136664715 -0.19731139367212258 8.7758002698112847e-05 -0.00030245141438989265 8.7758002698112847e-05 -0.99335434788128829 0.0073709547676541476 1.0034839790419926e-05 -0.00023485943649315111 1.0034839790419926e-05 -0.19724294309607604 9.1287666251771427e-06 -0.00023485943649315111 9.1287666251771427e-06 -0.99363198614183812 0.0070738877928040456 -0.00030857300799816119 -0.00052483174562684143 -0.00030857300799816119 -0.19728878359592961 -0.00011557030709319349 -0.00052483174562684143 -0.00011557030709319349 -0.99350873759680436 0.0066841889342145189 -1.904893224199128e-05 -0.00017474123607577607 -1.904893224199128e-05 -0.19744907680670776 4.8719446997802507e-06 -0.00017474123607577607 4.8719446997802507e-06 -0.99398935632543273 0.0066981822652987244 -0.00011347362515858448 -5.6486751373041599e-05 -0.00011347362515858448 -0.1974096189001438 5.1627150600142002e-06 -5.6486751373041599e-05 5.1627150600142002e-06 -0.99371287460855817 0.0065608895080551122 -5.3380537055785132e-07 -0.00022706688541251907 -5.3380537055785132e-07 -0.19734631157392202 -1.7623957990209327e-05 -0.00022706688541251907 -1.7623957990209327e-05 -0.99347518313919236 0.0065750960086836674 -3.9909909047610917e-06 -0.00024470706502199846 -3.9909909047610917e-06 -0.1973967331545039 -3.8420499074431902e-05 -0.00024470706502199846 -3.8420499074431902e-05 -0.99348935702297236 0.007471614974858598 1.4893059738278829e-05 -0.00031598558792800269 1.4893059738278829e-05 -0.19714924665548939 5.8478177855869617e-05 -0.00031598558792800269 5.8478177855869617e-05 -0.99322218619881042 0.0078429775485643338 -6.7442023539623879e-06 0.00012791516044940998 -6.7442023539623879e-06 -0.19707637957358681 2.3538885227318562e-05 0.00012791516044940998 2.3538885227318562e-05 -0.9931903247512115 0.0072311016677033546 -2.0163618528652833e-05 8.0493162802810353e-05 -2.0163618528652833e-05 -0.19714978982420539 -1.9980733314994836e-05 8.0493162802810353e-05 -1.9980733314994836e-05 -0.99296580025807391 0.0078700987755723206 1.424359562407723e-05 0.00013104700800126157 1.424359562407723e-05 -0.19709198166477282 5.6292847353534015e-05 0.00013104700800126157 5.6292847353534015e-05 -0.99323662059120954 0.0075025942691328007 9.8517163842423067e-06 -0.0003374223411929389 9.8517163842423067e-06 -0.19712777895492006 5.0930196100473779e-05 -0.0003374223411929389 5.0930196100473779e-05 -0.99308936112206903 0.007471392652688813 1.0739981790504228e-05 -0.0003555089267572864 1.0739981790504228e-05 -0.19715318862819808 -5.1484307364013659e-06 -0.0003555089267572864 -5.1484307364013659e-06 -0.99321993819481191 0.0083031572403686749 1.7668154733073638e-05 -0.00043602109783613674 1.7668154733073638e-05 -0.1970420933391146 -4.4242516996639836e-06 -0.00043602109783613674 -4.4242516996639836e-06 -0.99340299481391714 0.0075579957629254846 6.6431550048968641e-05 -0.00037909944918956828 6.6431550048968641e-05 -0.19714934336183654 2.4906527521739719e-05 -0.00037909944918956828 2.4906527521739719e-05 -0.99325048376231972 0.0076561290816385963 -3.2946925017881716e-06 -0.00033912833541460685 -3.2946925017881716e-06 -0.19707225465618317 1.295018189906294e-05 -0.00033912833541460685 1.295018189906294e-05 -0.99322200525716831 0.0083025276113583013 6.9338712998543657e-06 -0.00044442800014121708 6.9338712998543657e-06 -0.19699131841869288 -5.3940755424086717e-05 -0.00044442800014121708 -5.3940755424086717e-05 -0.99332593885423925 0.0078591547298352271 1.2998731089836178e-06 0.00012445471576905121 1.2998731089836178e-06 -0.19703772783212292 -1.0994802135497195e-05 0.00012445471576905121 -1.0994802135497195e-05 -0.99312094326462397 0.0082675066155479815 -1.5241052257533119e-06 -0.00045654224498559159 -1.5241052257533119e-06 -0.19704218627126546 -1.7308747831235038e-05 -0.00045654224498559159 -1.7308747831235038e-05 -0.99342982013932613 0.0082853592085901928 -0.00043030906491986715 -5.7225364160418124e-05 -0.00043030906491986715 -0.19694979701470017 9.8063011984894644e-05 -5.7225364160418124e-05 9.8063011984894644e-05 -0.99308985286593421 0.0090042770225398083 1.7684449188443042e-05 -0.00027667890298932463 1.7684449188443042e-05 -0.19683230230392113 2.9623021407659822e-05 -0.00027667890298932463 2.9623021407659822e-05 -0.99313044055358812 0.009052926730350519 1.2329341638679742e-05 -0.00033309621037447279 1.2329341638679742e-05 -0.19676559566387242 0.00013062484024772836 -0.00033309621037447279 0.00013062484024772836 -0.99295383732966513 0.0089953552979796791 2.755563542275511e-05 -0.00027047169659488723 2.755563542275511e-05 -0.19680581802169617 1.698703873120877e-07 -0.00027047169659488723 1.698703873120877e-07 -0.99309404064076467 0.0089667416028770264 1.0519264115809042e-05 -0.00025781737575947261 1.0519264115809042e-05 -0.19682317469563293 9.1769517245321452e-06 -0.00025781737575947261 9.1769517245321452e-06 -0.99311283952721707 0.0089477982675091328 2.5576353501256791e-05 -0.00025616838776709727 2.5576353501256791e-05 -0.19689489543006078 -1.2391314725634928e-05 -0.00025616838776709727 -1.2391314725634928e-05 -0.99313589487829157 0.0090285229401056988 -3.4700182234209964e-05 -0.00024999605972597649 -3.4700182234209964e-05 -0.19684118866622913 8.4476618456008623e-06 -0.00024999605972597649 8.4476618456008623e-06 -0.99313731038568243 0.0075778929731510347 0.00014043264332912189 0.00014292260919313016 0.00014043264332912189 -0.19708309911001309 -4.4393343420684461e-05 0.00014292260919313016 -4.4393343420684461e-05 -0.99320288717116023 0.0075594217573365929 5.0433016663625669e-05 0.00014116442730142953 5.0433016663625669e-05 -0.19713189038553974 3.8822241646307987e-05 0.00014116442730142953 3.8822241646307987e-05 -0.993204966087607 0.0075076477475211068 1.022084225508506e-05 -0.00033519434654416536 1.022084225508506e-05 -0.19716014204518117 -4.9183820641340859e-05 -0.00033519434654416536 -4.9183820641340859e-05 -0.99303173759375341 0.0078269357606418621 -6.8135084652529152e-05 0.00012262377680394287 -6.8135084652529152e-05 -0.19712572447823806 -1.9725142869381207e-05 0.00012262377680394287 -1.9725142869381207e-05 -0.99314537329496577 0.0091129848397948354 1.046271940090918e-05 -0.00029504216060449728 1.046271940090918e-05 -0.19683788428936766 -2.6477729743401568e-05 -0.00029504216060449728 -2.6477729743401568e-05 -0.99307931467792088 0.0082668243585891643 -6.0550841307557184e-05 -0.00049474509443725445 -6.0550841307557184e-05 -0.19703793095656685 3.2077230544658164e-05 -0.00049474509443725445 3.2077230544658164e-05 -0.99336473783933332 0.0077433171688975344 -4.4174090197245724e-05 7.451344106179647e-05 -4.4174090197245724e-05 -0.19710570109655901 2.5505992582768033e-05 7.451344106179647e-05 2.5505992582768033e-05 -0.9931777493063163 0.0081252143838240753 -2.6641681245400177e-05 -0.00030787613457916585 -2.6641681245400177e-05 -0.1971741915073556 -1.4966937160743043e-05 -0.00030787613457916585 -1.4966937160743043e-05 -0.99374909156382385 0.0083315380783086646 -1.6418259645968914e-05 -0.00049677316578522479 -1.6418259645968914e-05 -0.19696298780415455 2.6089339460355632e-05 -0.00049677316578522479 2.6089339460355632e-05 -0.99333999589107869 0.0055818714414557768 -2.5033701750557609e-05 -6.1528152859313678e-05 -2.5033701750557609e-05 -0.19779577526115649 7.6006409979179068e-06 -6.1528152859313678e-05 7.6006409979179068e-06 -0.99475401969201438 0.0065042339132514171 -0.00021189698591709963 -0.00017401945248285422 -0.00021189698591709963 -0.19749548573283368 -0.00012288472117316651 -0.00017401945248285422 -0.00012288472117316651 -0.99407956633450822 0.0070707113277435063 3.4658779660671072e-05 -0.00066497429824696752 3.4658779660671072e-05 -0.19743778574577187 7.2457370788869824e-06 -0.00066497429824696752 7.2457370788869824e-06 -0.9939851379695952 0.0062341664894581261 0.00034300865038481741 -0.00030726304994010967 0.00034300865038481741 -0.19758107652992896 -0.00022589475629852807 -0.00030726304994010967 -0.00022589475629852807 -0.99442553043347681 0.006573709240473069 -0.0002256153551562297 -0.00047961430230825108 -0.0002256153551562297 -0.19757395408971634 0.00016566790811523013 -0.00047961430230825108 0.00016566790811523013 -0.99422652427392011 0.0079365951689521208 9.8655419429622744e-05 -0.00028265642830482829 9.8655419429622744e-05 -0.19716860719101781 -0.00011522940936425918 -0.00028265642830482829 -0.00011522940936425918 -0.9937305570949988 0.0069057623861926709 6.6088069431944306e-05 -0.00037830672068839277 6.6088069431944306e-05 -0.19764400130668125 -0.00012484218574160266 -0.00037830672068839277 -0.00012484218574160266 -0.99485389620761522 0.0062115866942693415 -0.00010397701464480136 -0.00048054367377803331 -0.00010397701464480136 -0.19771707117131987 -2.6221268798476416e-06 -0.00048054367377803331 -2.6221268798476416e-06 -0.99488356598015182 0.0058091072645434227 5.9748668611212116e-05 -0.0002643264114977617 5.9748668611212116e-05 -0.19761006521379143 2.6436024202936004e-05 -0.0002643264114977617 2.6436024202936004e-05 -0.99394446378665569 0.0059711894601554016 -4.4579082142986743e-05 -0.00039399621889468772 -4.4579082142986743e-05 -0.19775325412120959 -3.624687844583363e-05 -0.00039399621889468772 -3.624687844583363e-05 -0.99489094243795728 0.0056660489442055262 -3.2889498580972311e-06 -0.00029803025178883058 -3.2889498580972311e-06 -0.19765025410447645 3.0526236097450088e-05 -0.00029803025178883058 3.0526236097450088e-05 -0.99397243514852462 0.0058278230284696531 2.4180302141037682e-05 -0.00048593514171968444 2.4180302141037682e-05 -0.19781704701893871 -1.2123988277545905e-05 -0.00048593514171968444 -1.2123988277545905e-05 -0.99497724934209297 0.005677159288425937 -0.00011645342706912925 -0.00039844714199636921 -0.00011645342706912925 -0.19765402144057093 4.6488508860242916e-06 -0.00039844714199636921 4.6488508860242916e-06 -0.99403255923156664 0.0066774312483940945 4.2807356203649149e-05 -5.6508102340924182e-05 4.2807356203649149e-05 -0.19739430714470657 0.00013885560295567867 -5.6508102340924182e-05 0.00013885560295567867 -0.99369407202760152 0.0066072960078242746 -2.4822191241739127e-05 -0.00021848244514033333 -2.4822191241739127e-05 -0.1973741034187001 7.6526684221756014e-06 -0.00021848244514033333 7.6526684221756014e-06 -0.99357618573064821 0.0066259018088448141 0.00016242299186430549 1.6585563924531588e-05 0.00016242299186430549 -0.19745649700749834 -3.6672620362554476e-05 1.6585563924531588e-05 -3.6672620362554476e-05 -0.99409310410898311 0.0068589186616205833 9.3627496542920526e-05 -0.00017801968638586629 9.3627496542920526e-05 -0.19730408075172545 6.2547700622916924e-05 -0.00017801968638586629 6.2547700622916924e-05 -0.99347872840934226 0.0067337866607706243 -5.9640385118798466e-06 -0.00015009005767219197 -5.9640385118798466e-06 -0.19743356508942089 -1.3638783617153649e-05 -0.00015009005767219197 -1.3638783617153649e-05 -0.99399916846012459 0.0073686133860870751 1.022300102343548e-05 -0.00023150266637372852 1.022300102343548e-05 -0.1972465177370144 -5.3516121703012232e-06 -0.00023150266637372852 -5.3516121703012232e-06 -0.99364000071313452 0.0068158858570536163 6.6259271097036547e-05 -0.00021020021209586237 6.6259271097036547e-05 -0.19735830301607793 -0.00013802538670060205 -0.00021020021209586237 -0.00013802538670060205 -0.99380389076322073 0.0070384916601074054 0.00020226503429738872 -0.00038586095497285949 0.00020226503429738872 -0.19723983637032705 2.612197613460765e-05 -0.00038586095497285949 2.612197613460765e-05 -0.99322509451722674 0.007042402018345717 -4.9813223368342332e-06 -0.000389190853964827 -4.9813223368342332e-06 -0.19717821069761354 -1.3208388457419673e-05 -0.000389190853964827 -1.3208388457419673e-05 -0.99321311816802016 0.0065574892270745533 -6.324885715939751e-06 -0.00026619623348178578 -6.324885715939751e-06 -0.19737861922220656 6.1268621790788735e-05 -0.00026619623348178578 6.1268621790788735e-05 -0.99359569371387391 0.0074940895543518238 -2.0827243225433957e-07 -0.00031373439703097361 -2.0827243225433957e-07 -0.19714236058389312 -6.3691138555643789e-05 -0.00031373439703097361 -6.3691138555643789e-05 -0.99311704112184795 0.0066344362176754546 -1.1323499992696232e-06 -0.00021956736434569635 -1.1323499992696232e-06 -0.1973565285204425 8.2720627145871362e-06 -0.00021956736434569635 8.2720627145871362e-06 -0.99356738849523962 0.0070260817568222611 -2.6879763969013083e-05 -0.00011833254819371142 -2.6879763969013083e-05 -0.19729707139364064 -9.2300074438167456e-05 -0.00011833254819371142 -9.2300074438167456e-05 -0.9934385224685337 0.0069264782663006619 -2.4970981551133693e-05 -0.000203723346988198 -2.4970981551133693e-05 -0.19739123393875568 -9.3832488373850331e-05 -0.000203723346988198 -9.3832488373850331e-05 -0.9938112967737962 0.0067697294817199794 -0.00014260369155802506 -0.000227289400455577 -0.00014260369155802506 -0.19734497301379814 4.1102472350229569e-05 -0.000227289400455577 4.1102472350229569e-05 -0.9933691197386415 0.0066834953829757165 -2.3237787345645549e-06 -0.00020467754323716392 -2.3237787345645549e-06 -0.19730036167646417 -4.2054418458503662e-05 -0.00020467754323716392 -4.2054418458503662e-05 -0.99337829703040692 0.0071131435694928857 1.2527947020365958e-06 -0.00021392634628880636 1.2527947020365958e-06 -0.19726408207657908 6.3731492433882764e-05 -0.00021392634628880636 6.3731492433882764e-05 -0.99325420376887585 0.0071081861336990126 5.0850395851895248e-06 -0.00020840299613755775 5.0850395851895248e-06 -0.19725905710073965 6.2312698286492996e-05 -0.00020840299613755775 6.2312698286492996e-05 -0.99328402804129512 0.0068761628129015984 7.8185806248123478e-05 -2.3207850502915406e-05 7.8185806248123478e-05 -0.1973613897489831 9.3679605972507574e-06 -2.3207850502915406e-05 9.3679605972507574e-06 -0.99360978104505771 0.0063567807127915543 1.0420032893721037e-05 -0.00030711575353903342 1.0420032893721037e-05 -0.19746681280731682 2.6922027047238117e-05 -0.00030711575353903342 2.6922027047238117e-05 -0.99364142446801518 0.0066327420653647037 -1.5594530074660425e-05 -5.9087248512557089e-05 -1.5594530074660425e-05 -0.19741565572974415 -3.9432588655241574e-05 -5.9087248512557089e-05 -3.9432588655241574e-05 -0.99365498102023808 0.0065312199491943668 2.5224554835978791e-05 -0.000221213137573395 2.5224554835978791e-05 -0.19746215148659696 4.9389117807496774e-05 -0.000221213137573395 4.9389117807496774e-05 -0.99381593409959779 0.0058321216373974361 -2.3994858613380763e-05 -0.00022228632131393589 -2.3994858613380763e-05 -0.19761570581523358 -2.876100234638912e-05 -0.00022228632131393589 -2.876100234638912e-05 -0.99387439347372064 0.0057503494796535826 -3.5411767799521834e-05 -0.00032478523522994074 -3.5411767799521834e-05 -0.19772049665409441 5.1810103375071748e-05 -0.00032478523522994074 5.1810103375071748e-05 -0.99433603208172316 0.0062829821794234686 6.3749770055417837e-06 -0.00057681611832260948 6.3749770055417837e-06 -0.19762763390027271 -3.1637455446820173e-05 -0.00057681611832260948 -3.1637455446820173e-05 -0.99437064040381795 0.0064640038234918817 4.3897845944481752e-05 -0.00033620261386524408 4.3897845944481752e-05 -0.19747178903609341 -1.6211074922167779e-05 -0.00033620261386524408 -1.6211074922167779e-05 -0.99378213785581559 0.0051835336526868669 0.00013407785999859596 -0.00040485954499610427 0.00013407785999859596 -0.19799218403003249 1.9261894510624877e-05 -0.00040485954499610427 1.9261894510624877e-05 -0.99508196941355642 0.0064037189518076909 3.5046604391511607e-05 -0.00049414407794778903 3.5046604391511607e-05 -0.19755652525182843 5.1247114689512152e-05 -0.00049414407794778903 5.1247114689512152e-05 -0.9941616041776542 0.0060108556658572398 -1.0114125090446018e-05 -0.00037375674946993342 -1.0114125090446018e-05 -0.19778041747296904 -9.0313978948208806e-07 -0.00037375674946993342 -9.0313978948208806e-07 -0.99487927385118846 0.0051748825603631365 2.9718657805277435e-05 -0.00058326494321887107 2.9718657805277435e-05 -0.19799684639672643 9.0311775271523231e-06 -0.00058326494321887107 9.0311775271523231e-06 -0.99517099972593392 0.0055079602741723299 2.0303685432667058e-05 -0.00016759061862625657 2.0303685432667058e-05 -0.19781078587959389 -3.2787244232501678e-05 -0.00016759061862625657 -3.2787244232501678e-05 -0.9945755563466756 0.0051839495377377087 6.6543898412491282e-05 -0.00026640264029698102 6.6543898412491282e-05 -0.19799701359328692 2.1952095002664151e-05 -0.00026640264029698102 2.1952095002664151e-05 -0.9950359724880542 0.0080326328971173089 0.00011709066295959204 -0.00019432995890608651 0.00011709066295959204 -0.19713093484918676 1.8277988812487322e-05 -0.00019432995890608651 1.8277988812487322e-05 -0.99373737133811169 0.0061360632689574576 0.00013453794700054417 -0.00031379955338772803 0.00013453794700054417 -0.19759992748897512 2.6763822469383358e-05 -0.00031379955338772803 2.6763822469383358e-05 -0.99420099546430574 0.0063335474208986442 8.3597136025311287e-05 -0.00031818789304438946 8.3597136025311287e-05 -0.19760335642896032 8.8810103697545273e-05 -0.00031818789304438946 8.8810103697545273e-05 -0.99428346790703248 0.0062591158075351316 1.0282457936974999e-05 -0.00066559745615757393 1.0282457936974999e-05 -0.1976783998091296 4.4726390850957642e-05 -0.00066559745615757393 4.4726390850957642e-05 -0.99451827948252447 0.0069224861756236322 -0.00010028853833786705 -0.00021507947243737391 -0.00010028853833786705 -0.19747341402739038 -0.00014480636816527337 -0.00021507947243737391 -0.00014480636816527337 -0.99453773398600598 0.006394099118121721 -0.00021374766238329952 1.1846789992331352e-05 -0.00021374766238329952 -0.19750157455777018 1.9433883582831157e-05 1.1846789992331352e-05 1.9433883582831157e-05 -0.99414177457977049 0.0068937034306663092 0.00013058883533119552 -0.00041946687585775466 0.00013058883533119552 -0.1976167517287658 2.6402719076390468e-05 -0.00041946687585775466 2.6402719076390468e-05 -0.9949057551894831 0.0068840837402527333 3.1705024083957548e-06 -0.00043699208060266059 3.1705024083957548e-06 -0.19755553203716858 0.00016235875252201826 -0.00043699208060266059 0.00016235875252201826 -0.99481151776643051 0.0079044278212921926 3.9104580226378686e-05 -0.00030429531226316975 3.9104580226378686e-05 -0.19713024690934999 2.7822525590082137e-05 -0.00030429531226316975 2.7822525590082137e-05 -0.99379001856626825 0.0070525410861692339 -2.7154179021963247e-06 -0.00038183685610138074 -2.7154179021963247e-06 -0.19717715326992871 -2.1487096892425228e-05 -0.00038183685610138074 -2.1487096892425228e-05 -0.9931636449450717 0.008132821781504207 -2.2959058314386829e-05 -0.00026144697287433516 -2.2959058314386829e-05 -0.19711136846011446 5.8730317298305579e-05 -0.00026144697287433516 5.8730317298305579e-05 -0.99367237747084758 0.0075546807749709011 -0.00010681772464220798 -1.4303191200326637e-05 -0.00010681772464220798 -0.1971132839413765 -3.877759058279473e-05 -1.4303191200326637e-05 -3.877759058279473e-05 -0.99328130701936601 0.0074273153277170101 3.991813812168723e-05 -0.00017329211398711686 3.991813812168723e-05 -0.19721998688618736 6.6215820062609509e-05 -0.00017329211398711686 6.6215820062609509e-05 -0.99355326703011615 0.0081955805043648633 -2.6564175665151545e-06 -4.0418580228074319e-05 -2.6564175665151545e-06 -0.19700238036444195 -0.00010280205405055476 -4.0418580228074319e-05 -0.00010280205405055476 -0.9933954426521785 0.0073102573312060493 -8.930108006362201e-05 -0.00045723867115921024 -8.930108006362201e-05 -0.19726110213293779 5.5682589018668516e-05 -0.00045723867115921024 5.5682589018668516e-05 -0.99359305828579658 0.0078341042315481224 1.3664653485292131e-06 0.0001697410150429679 1.3664653485292131e-06 -0.19706896475191066 -1.7229177888669622e-05 0.0001697410150429679 -1.7229177888669622e-05 -0.99316332523764639 0.0078264839192120905 4.3186890441248564e-06 0.00017861074815683775 4.3186890441248564e-06 -0.19707277039933008 -3.9344937558305482e-05 0.00017861074815683775 -3.9344937558305482e-05 -0.99318421694836112 0.0073147074930298914 -0.00020890359688989461 -0.00040778027693766372 -0.00020890359688989461 -0.1971613744587338 -1.3125843756123245e-05 -0.00040778027693766372 -1.3125843756123245e-05 -0.99310564420393044 0.0091087840942929432 -1.2055261641852205e-05 -0.0002524180177168045 -1.2055261641852205e-05 -0.19676647733554131 -7.4815963905905392e-05 -0.0002524180177168045 -7.4815963905905392e-05 -0.99317183622677518 0.009229192897360905 -9.0268241623961301e-05 -0.00024167950596620802 -9.0268241623961301e-05 -0.19679128562945736 -3.0664228313881381e-05 -0.00024167950596620802 -3.0664228313881381e-05 -0.99318531277919764 0.0075552350000377411 0.00018753939158657848 4.5810022231251857e-05 0.00018753939158657848 -0.19717118423906665 3.9612169415503828e-05 4.5810022231251857e-05 3.9612169415503828e-05 -0.99323871193862168 0.0078925600351118508 -1.0306267882273048e-06 -0.00026899542383329589 -1.0306267882273048e-06 -0.19703102605573108 0.00010387018215318733 -0.00026899542383329589 0.00010387018215318733 -0.99293648013437164 0.0093417721200190762 3.4903274681709261e-06 -0.00030096515962529935 3.4903274681709261e-06 -0.196722204307332 -0.00010699118863755075 -0.00030096515962529935 -0.00010699118863755075 -0.99308549437981686 0.0078995854097836382 2.4296670373711491e-06 -0.00027158339833155409 2.4296670373711491e-06 -0.19701707356097153 9.1819585639196788e-05 -0.00027158339833155409 9.1819585639196788e-05 -0.99291528615846314 0.0090611550209866998 0.00010981210588776096 7.3563214606497951e-06 0.00010981210588776096 -0.19677807369140354 4.6974585810932723e-05 7.3563214606497951e-06 4.6974585810932723e-05 -0.99312053667550781 0.008611257823185281 0.00030665334301147691 -9.8850301967656762e-05 0.00030665334301147691 -0.1968780574911515 -2.1775489787989599e-05 -9.8850301967656762e-05 -2.1775489787989599e-05 -0.99303925124786385 
</DataArray>
</CellData>
</Piece>
</UnstructuredGrid>
</VTKFile>
