<?xml version="1.0"?>
<VTKFile type="UnstructuredGrid" version="0.1" byte_order="LittleEndian">
<UnstructuredGrid>
<Piece NumberOfPoints="360" NumberOfCells="124">
<Points>
<DataArray type="Float64" NumberOfComponents="3" format="ascii">
0 0 0 0.084352422163911631 0.086451712656266194 0 0 0.12500000000034689 0 0 0 0 0.084352422163911631 0.086451712656266194 0 0.1249999999997554 0 0 0 0.12500000000034689 0 0.1008171452988615 0.18885703697250469 0 0 0.25 0 0.084352422163911631 0.086451712656266194 0 0 0.12500000000034689 0 0.1008171452988615 0.18885703697250469 0 0.084352422163911631 0.086451712656266194 0 0.1008171452988615 0.18885703697250469 0 0.18402761812864499 0.1117324051466445 0 0.1008171452988615 0.18885703697250469 0 0.2403886547178353 0.24188814792673841 0 0.1249999999997599 0.31249999999987998 0 0.1008171452988615 0.18885703697250469 0 0.2403886547178353 0.24188814792673841 0 0.18402761812864499 0.1117324051466445 0 0.2403886547178353 0.24188814792673841 0 0.18402761812864499 0.1117324051466445 0 0.31250000000020822 0.12500000000041631 0 0.1249999999997554 0 0 0.18402761812864499 0.1117324051466445 0 0.25 -0 0 0.18402761812864499 0.1117324051466445 0 0.25 -0 0 0.31250000000020822 0.12500000000041631 0 0.084352422163911631 0.086451712656266194 0 0.1249999999997554 0 0 0.18402761812864499 0.1117324051466445 0 0.25 -0 0 0.31250000000020822 0.12500000000041631 0 0.25 -0 0 0.31250000000020822 0.12500000000041631 0 0.43749999999913258 0 0 0.2403886547178353 0.24188814792673841 0 0.31250000000020822 0.12500000000041631 0 0.37500000000027761 0.25000000000055511 0 0.31250000000020822 0.12500000000041631 0 0.37500000000027761 0.25000000000055511 0 0.31250000000020822 0.12500000000041631 0 0.4287911518546233 0.15455445427966699 0 0.37500000000027761 0.25000000000055511 0 0.4287911518546233 0.15455445427966699 0 0.49457493289300231 0.26251703776555491 0 0.37500000000027761 0.25000000000055511 0 0.4287911518546233 0.15455445427966699 0 0.49457493289300231 0.26251703776555491 0 0.54475767668582953 0.1431838882066932 0 0.31250000000020822 0.12500000000041631 0 0.4287911518546233 0.15455445427966699 0 0.43749999999913258 0 0 0.4287911518546233 0.15455445427966699 0 0.43749999999913258 0 0 0.54475767668582953 0.1431838882066932 0 0.37499999999973488 0.43749999999986738 0 0.5 0.5 -0 0.43750000000006939 0.37500000000013878 0 0.37499999999973488 0.43749999999986738 0 0.5 0.5 -0 0.43750000000006939 0.37500000000013878 0 0.33819444444448321 0.33819444444456342 0 0.37499999999973488 0.43749999999986738 0 0.43750000000006939 0.37500000000013878 0 0.5 0.5 -0 0.43750000000006939 0.37500000000013878 0 0.49457493289300231 0.26251703776555491 0 0.37500000000027761 0.25000000000055511 0 0.43750000000006939 0.37500000000013878 0 0.37500000000027761 0.25000000000055511 0 0.43750000000006939 0.37500000000013878 0 0.37500000000027761 0.25000000000055511 0 0.33819444444448321 0.33819444444456342 0 0.2403886547178353 0.24188814792673841 0 0.33819444444448321 0.33819444444456342 0 0.24999999999960859 0.37499999999980432 0 0.2403886547178353 0.24188814792673841 0 0.37500000000027761 0.25000000000055511 0 0.33819444444448321 0.33819444444456342 0 0.33819444444448321 0.33819444444456342 0 0.37499999999973488 0.43749999999986738 0 0.24999999999960859 0.37499999999980432 0 0.37499999999973488 0.43749999999986738 0 0.24999999999960859 0.37499999999980432 0 0.37499999999973488 0.43749999999986738 0 0.24999999999960859 0.37499999999980432 0 0.26452443700674649 0.51563531581639865 0 0.14929124186975251 0.44582793568106382 0 0.24999999999960859 0.37499999999980432 0 0.26452443700674649 0.51563531581639865 0 0.14929124186975251 0.44582793568106382 0 0.24999999999960859 0.37499999999980432 0 0.1249999999997599 0.31249999999987998 0 0.2403886547178353 0.24188814792673841 0 0.24999999999960859 0.37499999999980432 0 0.1249999999997599 0.31249999999987998 0 0.24999999999960859 0.37499999999980432 0 0.1249999999997599 0.31249999999987998 0 0.1249999999997599 0.31249999999987998 0 0 0.25 0 0 0.43750000000034689 0 0.1008171452988615 0.18885703697250469 0 0.1249999999997599 0.31249999999987998 0 0 0.25 0 0.1249999999997599 0.31249999999987998 0 0 0.25 0 0.14929124186975251 0.44582793568106382 0 0 0.43750000000034689 0 0.13928587515912139 0.57339806105677438 0 0.14929124186975251 0.44582793568106382 0 0.1249999999997599 0.31249999999987998 0 0 0.43750000000034689 0 0 0.43750000000034689 0 0 0.62500000000069389 0 0.13928587515912139 0.57339806105677438 0 0 0.62500000000069389 0 0.13900789599611679 0.72618316107059999 0 0.13928587515912139 0.57339806105677438 0 0 0.62500000000069389 0 0.13900789599611679 0.72618316107059999 0 0 0.81250000000104083 0 0.13900789599611679 0.72618316107059999 0 0.13928587515912139 0.57339806105677438 0 0.27589467050686478 0.66058853156435704 0 0.13900789599611679 0.72618316107059999 0 0.27987960212930818 0.83442741470570525 0 0.27589467050686478 0.66058853156435704 0 0.13928587515912139 0.57339806105677438 0 0.26452443700674649 0.51563531581639865 0 0.27589467050686478 0.66058853156435704 0 0.14929124186975251 0.44582793568106382 0 0.13928587515912139 0.57339806105677438 0 0.26452443700674649 0.51563531581639865 0 0 1 0 0.12710107136012311 0.87094806618203435 0 0.1875000000005205 1 0 0 1 0 0 0.81250000000104083 0 0.12710107136012311 0.87094806618203435 0 0.13900789599611679 0.72618316107059999 0 0 0.81250000000104083 0 0.12710107136012311 0.87094806618203435 0 0.13900789599611679 0.72618316107059999 0 0.12710107136012311 0.87094806618203435 0 0.27987960212930818 0.83442741470570525 0 0.12710107136012311 0.87094806618203435 0 0.1875000000005205 1 0 0.27987960212930818 0.83442741470570525 0 0.27987960212930818 0.83442741470570525 0 0.44927105396715372 0.85565124085155886 0 0.37500000000069389 1 0 0.1875000000005205 1 0 0.27987960212930818 0.83442741470570525 0 0.37500000000069389 1 0 0.27987960212930818 0.83442741470570525 0 0.44927105396715372 0.85565124085155886 0 0.38136204680495073 0.74038592213831234 0 0.44927105396715372 0.85565124085155886 0 0.38136204680495073 0.74038592213831234 0 0.50145856933078625 0.73674663046504862 0 0.44927105396715372 0.85565124085155886 0 0.37500000000069389 1 0 0.56250000000086742 1 0 0.26452443700674649 0.51563531581639865 0 0.27589467050686478 0.66058853156435704 0 0.4139414069912184 0.60563252640100373 0 0.37499999999973488 0.43749999999986738 0 0.26452443700674649 0.51563531581639865 0 0.4139414069912184 0.60563252640100373 0 0.27987960212930818 0.83442741470570525 0 0.27589467050686478 0.66058853156435704 0 0.38136204680495073 0.74038592213831234 0 0.27589467050686478 0.66058853156435704 0 0.38136204680495073 0.74038592213831234 0 0.4139414069912184 0.60563252640100373 0 0.38136204680495073 0.74038592213831234 0 0.4139414069912184 0.60563252640100373 0 0.50145856933078625 0.73674663046504862 0 0.4139414069912184 0.60563252640100373 0 0.50145856933078625 0.73674663046504862 0 0.5625 0.625 0 0.37499999999973488 0.43749999999986738 0 0.4139414069912184 0.60563252640100373 0 0.5 0.5 -0 0.4139414069912184 0.60563252640100373 0 0.5 0.5 -0 0.5625 0.625 0 0.5 0.5 -0 0.5625 0.625 0 0.63236534182377013 0.50296756406332266 0 0.5 0.5 -0 0.5625 0.625 0 0.50145856933078625 0.73674663046504862 0 0.5625 0.625 0 0.625 0.75 0 0.5625 0.625 0 0.625 0.75 0 0.71259747807844409 0.63846691315701831 0 0.625 0.75 0 0.73857795170433571 0.77736788564284653 0 0.5625 0.625 0 0.71259747807844409 0.63846691315701831 0 0.625 0.75 0 0.71259747807844409 0.63846691315701831 0 0.63236534182377013 0.50296756406332266 0 0.75338430262320943 0.49294443423175599 0 0.5625 0.625 0 0.71259747807844409 0.63846691315701831 0 0.63236534182377013 0.50296756406332266 0 0.56250000000086742 1 0 0.56777512057187585 0.8470224641095303 0 0.6875 0.875 0 0.44927105396715372 0.85565124085155886 0 0.56250000000086742 1 0 0.56777512057187585 0.8470224641095303 0 0.44927105396715372 0.85565124085155886 0 0.50145856933078625 0.73674663046504862 0 0.56777512057187585 0.8470224641095303 0 0.50145856933078625 0.73674663046504862 0 0.56777512057187585 0.8470224641095303 0 0.625 0.75 0 0.625 0.75 0 0.73857795170433571 0.77736788564284653 0 0.6875 0.875 0 0.73857795170433571 0.77736788564284653 0 0.6875 0.875 0 0.80552984491000901 0.88711122872127413 0 0.625 0.75 0 0.6875 0.875 0 0.56777512057187585 0.8470224641095303 0 0.625 0.75 0 0.6875 0.875 0 0.56250000000086742 1 0 0.6875 0.875 0 0.75 1 0 0.6875 0.875 0 0.75 1 0 0.80552984491000901 0.88711122872127413 0 0.6875 0.875 0 0.75 1 0 0.75 1 0 0.80552984491000901 0.88711122872127413 0 0.875 1 0 0.80552984491000901 0.88711122872127413 0 0.90637953422180084 0.90208583328057301 0 0.875 1 0 0.80552984491000901 0.88711122872127413 0 0.85787927391517405 0.753532520882502 0 0.90637953422180084 0.90208583328057301 0 0.73857795170433571 0.77736788564284653 0 0.80552984491000901 0.88711122872127413 0 0.85787927391517405 0.753532520882502 0 0.85787927391517405 0.753532520882502 0 1 0.83333333333356463 0 1 0.66666666666736052 0 0.85787927391517405 0.753532520882502 0 1 0.83333333333356463 0 0.90637953422180084 0.90208583328057301 0 1 0.83333333333356463 0 0.90637953422180084 0.90208583328057301 0 1 1 0 0.90637953422180084 0.90208583328057301 0 1 1 0 0.875 1 0 0.71259747807844409 0.63846691315701831 0 0.86127466977819722 0.57948076978797636 0 0.75338430262320943 0.49294443423175599 0 0.71259747807844409 0.63846691315701831 0 0.85787927391517405 0.753532520882502 0 0.86127466977819722 0.57948076978797636 0 0.71259747807844409 0.63846691315701831 0 0.73857795170433571 0.77736788564284653 0 0.85787927391517405 0.753532520882502 0 0.85787927391517405 0.753532520882502 0 0.86127466977819722 0.57948076978797636 0 1 0.66666666666736052 0 0.86127466977819722 0.57948076978797636 0 1 0.66666666666736052 0 1 0.50000000000138767 0 1 0.50000000000138767 0 0.86569408477091048 0.40983673916766611 0 1 0.33333333333448978 0 0.86127466977819722 0.57948076978797636 0 1 0.50000000000138767 0 0.86569408477091048 0.40983673916766611 0 0.86127466977819722 0.57948076978797636 0 0.75338430262320943 0.49294443423175599 0 0.86569408477091048 0.40983673916766611 0 0.75338430262320943 0.49294443423175599 0 0.86569408477091048 0.40983673916766611 0 0.71826039492840632 0.34564020717216182 0 0.86087286690217635 0.25206523597959418 0 0.71508993406183785 0.15715956854777599 0 0.71826039492840632 0.34564020717216182 0 0.86569408477091048 0.40983673916766611 0 0.86087286690217635 0.25206523597959418 0 0.71826039492840632 0.34564020717216182 0 0.86087286690217635 0.25206523597959418 0 1 0.33333333333448978 0 1 0.16666666666736049 0 0.86569408477091048 0.40983673916766611 0 0.86087286690217635 0.25206523597959418 0 1 0.33333333333448978 0 0.86087286690217635 0.25206523597959418 0 1 0.16666666666736049 0 0.87698901648812122 0.1160638338657984 0 1 0 0 0.87698901648812122 0.1160638338657984 0 0.81249999999947953 0 0 1 0.16666666666736049 0 1 0 0 0.87698901648812122 0.1160638338657984 0 0.87698901648812122 0.1160638338657984 0 0.81249999999947953 0 0 0.71508993406183785 0.15715956854777599 0 0.86087286690217635 0.25206523597959418 0 0.87698901648812122 0.1160638338657984 0 0.71508993406183785 0.15715956854777599 0 0.71508993406183785 0.15715956854777599 0 0.62499999999895905 0 0 0.54475767668582953 0.1431838882066932 0 0.81249999999947953 0 0 0.71508993406183785 0.15715956854777599 0 0.62499999999895905 0 0 0.43749999999913258 0 0 0.62499999999895905 0 0 0.54475767668582953 0.1431838882066932 0 0.71508993406183785 0.15715956854777599 0 0.54475767668582953 0.1431838882066932 0 0.61108462585082757 0.25750599582343231 0 0.49457493289300231 0.26251703776555491 0 0.54475767668582953 0.1431838882066932 0 0.61108462585082757 0.25750599582343231 0 0.49457493289300231 0.26251703776555491 0 0.61108462585082757 0.25750599582343231 0 0.56986707178436635 0.37762093650871992 0 0.43750000000006939 0.37500000000013878 0 0.49457493289300231 0.26251703776555491 0 0.56986707178436635 0.37762093650871992 0 0.43750000000006939 0.37500000000013878 0 0.5 0.5 -0 0.56986707178436635 0.37762093650871992 0 0.5 0.5 -0 0.63236534182377013 0.50296756406332266 0 0.56986707178436635 0.37762093650871992 0 0.63236534182377013 0.50296756406332266 0 0.75338430262320943 0.49294443423175599 0 0.71826039492840632 0.34564020717216182 0 0.63236534182377013 0.50296756406332266 0 0.56986707178436635 0.37762093650871992 0 0.71826039492840632 0.34564020717216182 0 0.71508993406183785 0.15715956854777599 0 0.61108462585082757 0.25750599582343231 0 0.71826039492840632 0.34564020717216182 0 0.61108462585082757 0.25750599582343231 0 0.56986707178436635 0.37762093650871992 0 0.71826039492840632 0.34564020717216182 0 
</DataArray>
</Points>
<Cells>
<DataArray type="UInt32" Name="connectivity" format="ascii">
0 1 2 3 4 5 6 7 8 9 10 11 12 13 14 15 16 17 18 19 20 21 22 23 24 25 26 27 28 29 30 31 32 33 34 35 36 37 38 39 40 41 42 43 44 45 46 47 48 49 50 51 52 53 54 55 56 57 58 59 60 61 62 63 64 65 66 67 68 69 70 71 72 73 74 75 76 77 78 79 80 81 82 83 84 85 86 87 88 89 90 91 92 93 94 95 96 97 98 99 100 101 102 103 104 105 106 107 108 109 110 111 112 113 114 115 116 117 118 119 120 121 122 123 124 125 126 127 128 129 130 131 132 133 134 135 136 137 138 139 140 141 142 143 144 145 146 147 148 149 150 151 152 153 154 155 156 157 158 159 160 161 162 163 164 165 166 167 168 169 170 171 172 173 174 175 176 177 178 179 180 181 182 183 184 185 186 187 188 189 190 191 192 193 194 195 196 197 198 199 200 201 202 203 204 205 206 207 208 209 210 211 212 213 214 215 216 217 218 219 220 221 222 223 224 225 226 227 228 229 230 231 232 233 234 235 236 237 238 239 240 241 242 243 244 245 246 247 248 249 250 251 252 253 254 255 256 257 258 259 260 261 262 263 264 265 266 267 268 269 270 271 272 273 274 275 276 277 278 279 280 281 282 283 284 285 286 287 288 289 290 291 292 293 294 295 296 297 298 299 300 301 302 303 304 305 306 307 308 309 310 311 312 313 314 315 316 317 318 319 320 321 322 323 324 325 326 327 328 329 330 331 332 333 334 335 336 337 338 339 340 341 342 343 344 345 346 347 348 349 350 351 352 353 354 355 356 357 358 359 
</DataArray>
<DataArray type="UInt32" Name="offsets" format="ascii">
3 6 9 12 15 18 21 24 27 30 33 35 38 41 43 46 49 52 55 58 60 63 66 68 71 73 76 79 82 85 87 90 93 96 99 101 104 107 109 112 115 118 121 124 127 130 133 136 139 142 145 148 151 154 157 160 163 166 169 172 175 178 181 184 187 190 193 195 198 200 203 206 209 212 215 218 221 224 227 230 232 235 238 241 243 246 249 252 255 258 261 264 267 270 273 276 279 282 285 288 291 294 297 300 303 306 309 312 315 318 321 324 327 330 333 336 339 342 345 348 351 354 357 360 
</DataArray>
<DataArray type="UInt32" Name="types" format="ascii">
5 5 5 5 5 5 5 5 5 5 5 3 5 5 3 5 5 5 5 5 3 5 5 3 5 3 5 5 5 5 3 5 5 5 5 3 5 5 3 5 5 5 5 5 5 5 5 5 5 5 5 5 5 5 5 5 5 5 5 5 5 5 5 5 5 5 5 3 5 3 5 5 5 5 5 5 5 5 5 5 3 5 5 5 3 5 5 5 5 5 5 5 5 5 5 5 5 5 5 5 5 5 5 5 5 5 5 5 5 5 5 5 5 5 5 5 5 5 5 5 5 5 5 5 
</DataArray>
</Cells>
<PointData Scalars="" Vectors="displacement," Tensors="">
<DataArray type="Float64" Name="displacement" NumberOfComponents="3" format="ascii">
4.8788307810194343e-07 -0.065599424220629463 0 -0.00075504558316518268 -0.064659078784601073 0 -2.0525093524657883e-07 -0.06537244689557796 0 4.8788307810194343e-07 -0.065599424220629463 0 -0.00075504558316518268 -0.064659078784601073 0 0.00054744028801105495 -0.063901582689350742 0 -2.0525093524657883e-07 -0.06537244689557796 0 -0.0024923209973852826 -0.064067130370544928 0 -1.014211377158478e-05 -0.064911770341438593 0 -0.00075504558316518268 -0.064659078784601073 0 -2.0525093524657883e-07 -0.06537244689557796 0 -0.0024923209973852826 -0.064067130370544928 0 -0.00075504558316518268 -0.064659078784601073 0 -0.0024923209973852826 -0.064067130370544928 0 -0.0023382018939596492 -0.062077051711166509 0 -0.0024923209973852826 -0.064067130370544928 0 -0.0076120720566666645 -0.059558623595397216 0 -0.0077949559159027279 -0.062300379498972311 0 -0.0024923209973852826 -0.064067130370544928 0 -0.0076120720566666645 -0.059558623595397216 0 -0.0023382018939596492 -0.062077051711166509 0 -0.0076120720566666645 -0.059558623595397216 0 -0.0023382018939596492 -0.062077051711166509 0 -0.004386656486581225 -0.056635833679790304 0 0.00054744028801105495 -0.063901582689350742 0 -0.0023382018939596492 -0.062077051711166509 0 0.00025211637697759181 -0.059731028978533093 0 -0.0023382018939596492 -0.062077051711166509 0 0.00025211637697759181 -0.059731028978533093 0 -0.004386656486581225 -0.056635833679790304 0 -0.00075504558316518268 -0.064659078784601073 0 0.00054744028801105495 -0.063901582689350742 0 -0.0023382018939596492 -0.062077051711166509 0 0.011910798537797607 -0.047517443859254611 0 0.0065144431879462774 -0.043956697663571791 0 0.023417602656799832 -0.035296215675070554 0 0.017426393704427379 -0.031362792600872498 0 0.020705088032657963 -0.025632957434579488 0 -0.0076120720566666645 -0.059558623595397216 0 -0.004386656486581225 -0.056635833679790304 0 -0.010427363288154993 -0.053793483235580947 0 0.0065144431879462774 -0.043956697663571791 0 0.00160768160928532 -0.040738670557139339 0 0.017426393704427379 -0.031362792600872498 0 0.014894876864857935 -0.025244881238959026 0 0.013743994726526636 -0.02734692879237724 0 0.014894876864857935 -0.025244881238959026 0 0.011015713223299174 -0.020919586864565243 0 0.013743994726526636 -0.02734692879237724 0 0.014894876864857935 -0.025244881238959026 0 0.011015713223299174 -0.020919586864565243 0 0.012969790051523053 -0.019531135378349627 0 0.017426393704427379 -0.031362792600872498 0 0.014894876864857935 -0.025244881238959026 0 0.020705088032657963 -0.025632957434579488 0 0.014894876864857935 -0.025244881238959026 0 0.020705088032657963 -0.025632957434579488 0 0.012969790051523053 -0.019531135378349627 0 -0.012255519237888529 -0.050102061606726145 0 -0.0049546333128103678 -0.037348286005653902 0 -0.014487678036837627 -0.052507425744924292 0 -0.015596790779595004 -0.055274791031648833 0 -0.017585007445107395 -0.050929575809796172 0 -0.014487678036837627 -0.052507425744924292 0 -0.012332260305311831 -0.055843346414729843 0 -0.015596790779595004 -0.055274791031648833 0 -0.0021500907662309683 -0.036815226070252394 0 -0.0049546333128103678 -0.037348286005653902 0 0.0097539269333017098 -0.022377278664919231 0 0.011015713223299174 -0.020919586864565243 0 0.013743994726526636 -0.02734692879237724 0 -0.0021500907662309683 -0.036815226070252394 0 0.00160768160928532 -0.040738670557139339 0 -0.014487678036837627 -0.052507425744924292 0 -0.010427363288154993 -0.053793483235580947 0 -0.012332260305311831 -0.055843346414729843 0 -0.0076120720566666645 -0.059558623595397216 0 -0.012332260305311831 -0.055843346414729843 0 -0.012303350916759777 -0.059599371508026515 0 -0.0076120720566666645 -0.059558623595397216 0 -0.010427363288154993 -0.053793483235580947 0 -0.012332260305311831 -0.055843346414729843 0 -0.012332260305311831 -0.055843346414729843 0 -0.015596790779595004 -0.055274791031648833 0 -0.012303350916759777 -0.059599371508026515 0 -0.012255519237888529 -0.050102061606726145 0 -0.0063428863834925475 -0.051686528236731068 0 -0.0044491994152924359 -0.041246662434824 0 -0.0015925586310118764 -0.044772767270191464 0 -0.0044775508154503291 -0.045211368184795181 0 -0.0019151638055930275 -0.048087909800668981 0 -0.0015925586310118764 -0.044772767270191464 0 -0.0044775508154503291 -0.045211368184795181 0 -0.0019151638055930275 -0.048087909800668981 0 -0.0015925586310118764 -0.044772767270191464 0 0.00018828850490541253 -0.048963007338285194 0 -0.0076120720566666645 -0.059558623595397216 0 -0.012303350916759777 -0.059599371508026515 0 -0.0077949559159027279 -0.062300379498972311 0 -0.0063428863834925475 -0.051686528236731068 0 -0.0039983035084269871 -0.055785873668172781 0 0.00018828850490541253 -0.048963007338285194 0 1.5121836001670556e-06 -0.049469518320947078 0 -2.0926071507943873e-06 -0.049881744287601948 0 -0.0024923209973852826 -0.064067130370544928 0 -0.0077949559159027279 -0.062300379498972311 0 -1.014211377158478e-05 -0.064911770341438593 0 -0.0039983035084269871 -0.055785873668172781 0 0.00013802023004350758 -0.057071064642661803 0 -0.0019151638055930275 -0.048087909800668981 0 -2.0926071507943873e-06 -0.049881744287601948 0 -0.0027805245117994738 -0.048289694886038612 0 -0.0019151638055930275 -0.048087909800668981 0 0.00018828850490541253 -0.048963007338285194 0 -2.0926071507943873e-06 -0.049881744287601948 0 -2.0926071507943873e-06 -0.049881744287601948 0 -4.3520892559485311e-06 -0.04932266471660321 0 -0.0027805245117994738 -0.048289694886038612 0 -4.3520892559485311e-06 -0.04932266471660321 0 -0.0035987292161985263 -0.048330618153665572 0 -0.0027805245117994738 -0.048289694886038612 0 -4.3520892559485311e-06 -0.04932266471660321 0 -0.0035987292161985263 -0.048330618153665572 0 -5.2005726244303711e-06 -0.049321045163751402 0 -0.0035987292161985263 -0.048330618153665572 0 -0.0027805245117994738 -0.048289694886038612 0 -0.0064458993825529717 -0.045298450205574076 0 -0.0035987292161985263 -0.048330618153665572 0 -0.0080170586270821541 -0.045820852403547746 0 -0.0064458993825529717 -0.045298450205574076 0 -0.0027805245117994738 -0.048289694886038612 0 -0.0044775508154503291 -0.045211368184795181 0 -0.0064458993825529717 -0.045298450205574076 0 -0.0019151638055930275 -0.048087909800668981 0 -0.0027805245117994738 -0.048289694886038612 0 -0.0044775508154503291 -0.045211368184795181 0 -8.1018676278072113e-06 -0.049732998680269973 0 -0.003963163829637158 -0.04869706133732616 0 -0.0073229828813339542 -0.048035616889514049 0 -8.1018676278072113e-06 -0.049732998680269973 0 -5.2005726244303711e-06 -0.049321045163751402 0 -0.003963163829637158 -0.04869706133732616 0 -0.0035987292161985263 -0.048330618153665572 0 -5.2005726244303711e-06 -0.049321045163751402 0 -0.003963163829637158 -0.04869706133732616 0 -0.0035987292161985263 -0.048330618153665572 0 -0.003963163829637158 -0.04869706133732616 0 -0.0080170586270821541 -0.045820852403547746 0 -0.003963163829637158 -0.04869706133732616 0 -0.0073229828813339542 -0.048035616889514049 0 -0.0080170586270821541 -0.045820852403547746 0 -0.0080170586270821541 -0.045820852403547746 0 -0.012584675100374259 -0.041304128929545346 0 -0.013501994366921483 -0.044068293708801713 0 -0.0073229828813339542 -0.048035616889514049 0 -0.0080170586270821541 -0.045820852403547746 0 -0.013501994366921483 -0.044068293708801713 0 -0.0080170586270821541 -0.045820852403547746 0 -0.012584675100374259 -0.041304128929545346 0 -0.0095339549456566995 -0.04265094604714928 0 -0.012584675100374259 -0.041304128929545346 0 -0.0095339549456566995 -0.04265094604714928 0 -0.012006705774766752 -0.038892197903176981 0 -0.012584675100374259 -0.041304128929545346 0 -0.013501994366921483 -0.044068293708801713 0 -0.018384506713236402 -0.038762502196463364 0 -0.0044775508154503291 -0.045211368184795181 0 -0.0064458993825529717 -0.045298450205574076 0 -0.0088917076216453051 -0.04088287438763423 0 -0.0044491994152924359 -0.041246662434824 0 -0.0044775508154503291 -0.045211368184795181 0 -0.0088917076216453051 -0.04088287438763423 0 -0.0080170586270821541 -0.045820852403547746 0 -0.0064458993825529717 -0.045298450205574076 0 -0.0095339549456566995 -0.04265094604714928 0 -0.0064458993825529717 -0.045298450205574076 0 -0.0095339549456566995 -0.04265094604714928 0 -0.0088917076216453051 -0.04088287438763423 0 -0.0095339549456566995 -0.04265094604714928 0 -0.0088917076216453051 -0.04088287438763423 0 -0.012006705774766752 -0.038892197903176981 0 -0.0088917076216453051 -0.04088287438763423 0 -0.012006705774766752 -0.038892197903176981 0 -0.012451664805646617 -0.036177199401021799 0 -0.0044491994152924359 -0.041246662434824 0 -0.0088917076216453051 -0.04088287438763423 0 -0.0089822799784830126 -0.037492780507026029 0 -0.0088917076216453051 -0.04088287438763423 0 -0.0089822799784830126 -0.037492780507026029 0 -0.012451664805646617 -0.036177199401021799 0 0.0092900083471971328 -0.01907571103704931 0 0.0085689158745877771 -0.016257754702943279 0 0.0067810943075890702 -0.01400182360052221 0 -0.0049546333128103678 -0.037348286005653902 0 -0.00056944137461275017 -0.023789399599411093 0 -0.012006705774766752 -0.038892197903176981 0 -0.012451664805646617 -0.036177199401021799 0 -0.014251703545909281 -0.035491572816390232 0 -0.00056944137461275017 -0.023789399599411093 0 -0.0044619803615160636 -0.024884006545429438 0 0.0051356814942249774 -0.010107124526969279 0 0.0060750150096489843 -0.012965642828763403 0 0.0041478281826570814 -0.0088523483503444283 0 0.0085689158745877771 -0.016257754702943279 0 0.0051356814942249774 -0.010107124526969279 0 0.0060750150096489843 -0.012965642828763403 0 0.0051356814942249774 -0.010107124526969279 0 0.0067810943075890702 -0.01400182360052221 0 0.0044972713213549216 -0.008954449174859852 0 0.0085689158745877771 -0.016257754702943279 0 0.0051356814942249774 -0.010107124526969279 0 0.0067810943075890702 -0.01400182360052221 0 -0.018384506713236402 -0.038762502196463364 0 -0.014971760709191395 -0.037749878876695578 0 -0.018089742265381511 -0.033968276393984344 0 -0.012584675100374259 -0.041304128929545346 0 -0.018384506713236402 -0.038762502196463364 0 -0.014971760709191395 -0.037749878876695578 0 -0.012584675100374259 -0.041304128929545346 0 -0.012006705774766752 -0.038892197903176981 0 -0.014971760709191395 -0.037749878876695578 0 -0.012006705774766752 -0.038892197903176981 0 -0.014971760709191395 -0.037749878876695578 0 -0.014251703545909281 -0.035491572816390232 0 0.0060750150096489843 -0.012965642828763403 0 0.0041478281826570814 -0.0088523483503444283 0 0.0045873642480316005 -0.010735780004105014 0 0.0041478281826570814 -0.0088523483503444283 0 0.0045873642480316005 -0.010735780004105014 0 0.0022490018264808976 -0.0057879000385898773 0 -0.0044619803615160636 -0.024884006545429438 0 -0.0066222230864683923 -0.022160608851265227 0 -0.014971760709191395 -0.037749878876695578 0 -0.014251703545909281 -0.035491572816390232 0 -0.018089742265381511 -0.033968276393984344 0 -0.018384506713236402 -0.038762502196463364 0 -0.018089742265381511 -0.033968276393984344 0 -0.021530049247005023 -0.03332798640550793 0 0.0045873642480316005 -0.010735780004105014 0 0.00034665223886643935 -0.0077020905560281567 0 0.0022490018264808976 -0.0057879000385898773 0 -0.0066222230864683923 -0.022160608851265227 0 -0.010728607835537899 -0.020628474943760019 0 0.00034665223886643935 -0.0077020905560281567 0 0.0022490018264808976 -0.0057879000385898773 0 -0.00066857769391490975 -0.0030929913176659272 0 0.0022490018264808976 -0.0057879000385898773 0 0.00078521148533180357 -0.0022379072867441999 0 -0.00066857769391490975 -0.0030929913176659272 0 0.0022490018264808976 -0.0057879000385898773 0 0.0022363629091627559 -0.0043032298307169974 0 0.00078521148533180357 -0.0022379072867441999 0 0.0041478281826570814 -0.0088523483503444283 0 0.0022490018264808976 -0.0057879000385898773 0 0.0022363629091627559 -0.0043032298307169974 0 0.0022363629091627559 -0.0043032298307169974 0 2.5748927167004877e-06 -1.0868006494912952e-06 0 2.5671248757049335e-06 -1.806107750462133e-06 0 0.0022363629091627559 -0.0043032298307169974 0 2.5748927167004877e-06 -1.0868006494912952e-06 0 0.00078521148533180357 -0.0022379072867441999 0 2.5748927167004877e-06 -1.0868006494912952e-06 0 0.00078521148533180357 -0.0022379072867441999 0 -2.4655577512946988e-06 -4.9877815576040451e-07 0 0.00078521148533180357 -0.0022379072867441999 0 -2.4655577512946988e-06 -4.9877815576040451e-07 0 -0.00066857769391490975 -0.0030929913176659272 0 0.0051356814942249774 -0.010107124526969279 0 0.0024365413312443206 -0.0046581144245452745 0 0.0044972713213549216 -0.008954449174859852 0 0.0051356814942249774 -0.010107124526969279 0 0.0022363629091627559 -0.0043032298307169974 0 0.0024365413312443206 -0.0046581144245452745 0 0.0051356814942249774 -0.010107124526969279 0 0.0041478281826570814 -0.0088523483503444283 0 0.0022363629091627559 -0.0043032298307169974 0 0.0022363629091627559 -0.0043032298307169974 0 0.0024365413312443206 -0.0046581144245452745 0 2.5671248757049335e-06 -1.806107750462133e-06 0 0.0024365413312443206 -0.0046581144245452745 0 2.5671248757049335e-06 -1.806107750462133e-06 0 2.8591924448701593e-06 -1.8350730963896536e-06 0 2.8591924448701593e-06 -1.8350730963896536e-06 0 0.0025088876813140542 -0.0046570279437877843 0 3.7618271589120158e-06 -1.9189261750130368e-06 0 0.0024365413312443206 -0.0046581144245452745 0 2.8591924448701593e-06 -1.8350730963896536e-06 0 0.0025088876813140542 -0.0046570279437877843 0 0.0024365413312443206 -0.0046581144245452745 0 0.0044972713213549216 -0.008954449174859852 0 0.0025088876813140542 -0.0046570279437877843 0 0.0044972713213549216 -0.008954449174859852 0 0.0025088876813140542 -0.0046570279437877843 0 0.0055246603614744049 -0.010713871494576624 0 0.0032736738942083228 -0.0048295494128971521 0 0.0082678615655680573 -0.011663481227836076 0 0.0055246603614744049 -0.010713871494576624 0 0.0025088876813140542 -0.0046570279437877843 0 0.0032736738942083228 -0.0048295494128971521 0 0.0055246603614744049 -0.010713871494576624 0 0.0032736738942083228 -0.0048295494128971521 0 3.7618271589120158e-06 -1.9189261750130368e-06 0 3.0913714401549849e-06 -7.1908186832847472e-07 0 0.0025088876813140542 -0.0046570279437877843 0 0.0032736738942083228 -0.0048295494128971521 0 3.7618271589120158e-06 -1.9189261750130368e-06 0 0.0032736738942083228 -0.0048295494128971521 0 3.0913714401549849e-06 -7.1908186832847472e-07 0 0.0041010811712988331 -0.0045669700941041464 0 1.270169513252893e-05 -4.7692427648700974e-06 0 0.0041010811712988331 -0.0045669700941041464 0 0.009975831785005846 -0.0090380143687275871 0 3.0913714401549849e-06 -7.1908186832847472e-07 0 1.270169513252893e-05 -4.7692427648700974e-06 0 0.0041010811712988331 -0.0045669700941041464 0 0.0041010811712988331 -0.0045669700941041464 0 0.009975831785005846 -0.0090380143687275871 0 0.0082678615655680573 -0.011663481227836076 0 0.0032736738942083228 -0.0048295494128971521 0 0.0041010811712988331 -0.0045669700941041464 0 0.0082678615655680573 -0.011663481227836076 0 0.0082678615655680573 -0.011663481227836076 0 0.016145859409536421 -0.017057336271410126 0 0.012969790051523053 -0.019531135378349627 0 0.009975831785005846 -0.0090380143687275871 0 0.0082678615655680573 -0.011663481227836076 0 0.016145859409536421 -0.017057336271410126 0 0.020705088032657963 -0.025632957434579488 0 0.016145859409536421 -0.017057336271410126 0 0.012969790051523053 -0.019531135378349627 0 0.0082678615655680573 -0.011663481227836076 0 0.012969790051523053 -0.019531135378349627 0 0.0088935820770589744 -0.015687743708766303 0 0.011015713223299174 -0.020919586864565243 0 0.012969790051523053 -0.019531135378349627 0 0.0088935820770589744 -0.015687743708766303 0 0.011015713223299174 -0.020919586864565243 0 0.0088935820770589744 -0.015687743708766303 0 0.0079229799557651668 -0.016950475334010905 0 0.0097539269333017098 -0.022377278664919231 0 0.011015713223299174 -0.020919586864565243 0 0.0079229799557651668 -0.016950475334010905 0 0.0097539269333017098 -0.022377278664919231 0 0.0092900083471971328 -0.01907571103704931 0 0.0079229799557651668 -0.016950475334010905 0 0.0092900083471971328 -0.01907571103704931 0 0.0067810943075890702 -0.01400182360052221 0 0.0079229799557651668 -0.016950475334010905 0 0.0067810943075890702 -0.01400182360052221 0 0.0044972713213549216 -0.008954449174859852 0 0.0055246603614744049 -0.010713871494576624 0 0.0067810943075890702 -0.01400182360052221 0 0.0079229799557651668 -0.016950475334010905 0 0.0055246603614744049 -0.010713871494576624 0 0.0082678615655680573 -0.011663481227836076 0 0.0088935820770589744 -0.015687743708766303 0 0.0055246603614744049 -0.010713871494576624 0 0.0088935820770589744 -0.015687743708766303 0 0.0079229799557651668 -0.016950475334010905 0 0.0055246603614744049 -0.010713871494576624 0 
</DataArray>
</PointData>
<CellData Scalars="region_id,cross_section_updated,normal_displacement_jump,tangential_displacement_jump," Vectors="" Tensors="stress,">
<DataArray type="Float64" Name="region_id" format="ascii">
11 11 11 11 11 11 11 11 11 11 11 5 11 11 5 11 11 11 11 11 6 11 11 5 11 5 11 11 11 11 6 11 11 11 11 6 11 11 6 11 11 11 11 11 11 11 11 11 11 11 11 11 11 11 11 11 11 11 11 11 11 11 11 11 11 11 11 4 11 4 11 11 11 11 11 11 11 11 11 11 4 11 11 11 4 11 11 11 11 11 11 11 11 11 11 11 11 11 11 11 11 11 11 11 11 11 11 11 11 11 11 11 11 11 11 11 11 11 11 11 11 11 11 11 
</DataArray>
<DataArray type="Float64" Name="stress" NumberOfComponents="9" format="ascii">
-10015093.838230163 3712505.4517842233 0 3712505.4517842233 -1401491.4389759302 0 0 0 -2854146.3193015456 4300427.9457742274 229598.31101870537 0 229598.31101870537 -1100697.7289885283 0 0 0 799932.55419647694 -28128412.209080338 4213420.4642677754 0 4213420.4642677754 -5445030.807693243 0 0 0 -8393360.7541933954 -17022607.457927644 -1649717.9993189871 0 -1649717.9993189871 -1281509.8641827106 0 0 0 -4576029.3305276334 -13813544.692663535 4181435.6531400681 0 4181435.6531400681 -2808017.6202101409 0 0 0 -4155390.5782184452 -22983753.891694248 -3819420.1119312197 0 -3819420.1119312197 1523969.9967529774 0 0 0 -5364945.9737353325 -28006867.427516937 150897.02223066986 0 150897.02223066986 -2490474.0155438185 0 0 0 -7624335.3607652187 -14350236.903648749 2822115.2589947283 0 2822115.2589947283 -3656504.5877186656 0 0 0 -4501685.3728418797 -3353819.7132913619 3514482.4039727449 0 3514482.4039727449 -2501167.0174322724 0 0 0 -1463746.6826809049 -13814038.625981733 4495407.9736504853 0 4495407.9736504853 -572521.65705490112 0 0 0 -3596640.0707591772 -11710771.630882472 1998765.4582812786 0 1998765.4582812786 -646577.75675624609 0 0 0 -3089337.346909672 19680.403467666525 4859.7517955186922 0 4859.7517955186922 -5271.5725676461225 0 0 0 3602.2077250050988 -15080615.213767905 4336431.1980463639 0 4336431.1980463639 1051737.2775982767 0 0 0 -3507219.4840423949 -21727206.113663018 1480293.3971298933 0 1480293.3971298933 -5785400.2928417325 0 0 0 -6878151.6016261876 20041.277967405513 5130.4697674345643 0 5130.4697674345643 -5633.4489571524246 0 0 0 3601.957252563273 -16965080.502592489 11853873.776530363 0 11853873.776530363 1459869.5812791586 0 0 0 -3876302.7303283215 -21300593.491218254 11762125.054814696 0 11762125.054814696 1229471.8916332126 0 0 0 -5017780.399896279 -18996600.396277517 10335755.927391537 0 10335755.927391537 3774694.0267053694 0 0 0 -3805476.5923930258 -12291550.793215133 5185940.5683638304 0 5185940.5683638304 1660710.338367492 0 0 0 -2657710.1137119159 -22352284.223270856 4419679.6340785772 0 4419679.6340785772 -1779704.3651097268 0 0 0 -6032997.1470951363 -314.09607440757463 1118.5017647283776 0 1118.5017647283776 13040.367387671002 0 0 0 3181.5678283158541 -8163897.8556013554 6199761.8293733746 0 6199761.8293733746 -9488319.951987803 0 0 0 -4413054.4518972486 -16362913.865443975 3079591.9159212708 0 3079591.9159212708 -13769983.59587729 0 0 0 -7533224.3653303683 21875.904675526646 6508.1656238398482 0 6508.1656238398482 -7495.7202928801089 0 0 0 3595.0460956616339 -19223689.613345236 12273397.863103777 0 12273397.863103777 8091149.6924174726 0 0 0 -2783134.9802319258 20916.362444317809 5785.963106501109 0 5785.963106501109 -6495.4258627152776 0 0 0 3605.2341454006328 -17432780.610435277 4001160.7988597751 0 4001160.7988597751 -14331561.95288676 0 0 0 -7941085.6408305168 -18827806.972311288 2811592.8659043014 0 2811592.8659043014 -9777035.7991565466 0 0 0 -7151210.6928669512 -25052904.138974011 5424328.2882676423 0 5424328.2882676423 -13937851.576056004 0 0 0 -9747688.9287574887 -18082754.180586293 4235037.967392832 0 4235037.967392832 -15319966.944491565 0 0 0 -8350680.2812694758 -746.90918213766054 1325.7888384660364 0 1325.7888384660364 13520.949324775407 0 0 0 3193.5100356594376 -18482588.034651741 4898727.0618946999 0 4898727.0618946999 -12945386.651451468 0 0 0 -7856993.6715258062 -14987591.239422083 3684354.8580978066 0 3684354.8580978066 -11478003.34464395 0 0 0 -6616398.6460165083 -8194242.5979801565 7507627.8246035129 0 7507627.8246035129 -2196168.1526328325 0 0 0 -2597602.6876532584 -23738253.674353816 -4514082.0899261534 0 -4514082.0899261534 -9978064.9049825817 0 0 0 -8429079.6448341068 9.2296032070807996 832.52157645145235 0 832.52157645145235 13452.069658818036 0 0 0 3365.3248155062829 925172.61940808594 2052852.6220168322 0 2052852.6220168322 -2036716.8482740521 0 0 0 -277886.05721649528 -49790090.048000231 -7519026.47359097 0 -7519026.47359097 -4533691.9002281129 0 0 0 -13580945.487057075 2972.8773201676631 -1145.9612863649472 0 -1145.9612863649472 14724.027712931413 0 0 0 4424.2262582747644 -15112774.014922291 1718664.946409516 0 1718664.946409516 -5716610.0266445875 0 0 0 -5207346.0103917122 -12700491.570514094 -724290.32898506522 0 -724290.32898506522 480375.53745791316 0 0 0 -3055029.0082640164 -22730419.79219738 3403520.5199396908 0 3403520.5199396908 -4396265.0379455509 0 0 0 -6781671.2075357325 -26418105.156608582 770689.59228727221 0 770689.59228727221 -9077530.531770885 0 0 0 -8873908.9220948517 -31021423.556379169 2850323.0838603526 0 2850323.0838603526 -10331261.06256938 0 0 0 -10338171.154737145 -28154330.251726497 6657589.0847932547 0 6657589.0847932547 -9627705.2227898855 0 0 0 -9445508.8686290886 -31218670.901081756 4807069.0049094856 0 4807069.0049094856 -14112564.650498569 0 0 0 -11332808.887895077 -23922101.840560034 4549918.533815898 0 4549918.533815898 -10577249.553635538 0 0 0 -8624837.8485489041 -20622382.828449178 6641857.8004929721 0 6641857.8004929721 -6491169.4639845714 0 0 0 -6778388.0731084235 -46459812.919213086 510724.52503362298 0 510724.52503362298 -14538802.790734291 0 0 0 -15249653.927486822 -38238634.34236224 2361687.4500330687 0 2361687.4500330687 -15089769.230328321 0 0 0 -13332100.893172637 -35487909.971706077 383375.21983383596 0 383375.21983383596 -14015939.779226243 0 0 0 -12375962.437733084 -33617580.047373511 5516886.8732904941 0 5516886.8732904941 -12275282.196045682 0 0 0 -11473215.560854798 -36679988.840464026 2315087.8512893766 0 2315087.8512893766 -15762342.955023855 0 0 0 -13110582.94887197 -31540880.434091896 3319868.2414472513 0 3319868.2414472513 -15954548.367055774 0 0 0 -11873857.200286925 -40174036.522699058 2785704.7802501321 0 2785704.7802501321 -15066980.214167476 0 0 0 -13810254.184216648 -32378522.380293727 6314057.5041550174 0 6314057.5041550174 -15428294.943238378 0 0 0 -11951704.330883026 -27874297.508958995 6804660.189083457 0 6804660.189083457 -16370049.620307982 0 0 0 -11061086.782316774 -33083842.810996905 3417762.6949632466 0 3417762.6949632466 -15923317.722626552 0 0 0 -12251790.133405849 -28113706.351197533 7586103.5434351861 0 7586103.5434351861 -12587878.814257078 0 0 0 -10175396.291363649 -21117437.399814442 3758631.5337890238 0 3758631.5337890238 -12674231.336059123 0 0 0 -8447917.183968395 -28862586.027486905 7737977.2480514646 0 7737977.2480514646 -13507496.684985781 0 0 0 -10592520.678118153 -28428754.483097032 7839826.2937482744 0 7839826.2937482744 -15834939.474315405 0 0 0 -11065923.489353105 -27302550.459520634 8524879.3716872185 0 8524879.3716872185 -15068771.888601437 0 0 0 -10592830.587030482 -30037171.020910352 9609632.0839637965 0 9609632.0839637965 -16976003.190983474 0 0 0 -11753293.552973464 -33454991.607355364 4942738.4486105442 0 4942738.4486105442 -16932397.536258101 0 0 0 -12596847.285903364 -28389717.282168418 6217287.5654945821 0 6217287.5654945821 -15525756.020547777 0 0 0 -10978868.325679049 -21479971.68246194 16802561.107869349 0 16802561.107869349 -3516559.5812284276 0 0 0 -6249132.8159225956 17709.394089009136 3371.9645568454216 0 3371.9645568454216 -3148.0988204802197 0 0 0 3640.3238171322282 -24582430.904144801 9139631.3167677671 0 9139631.3167677671 -17524577.564327687 0 0 0 -10526752.117118113 18375.109957942852 3883.2785824272023 0 3883.2785824272023 -4006.2484643903517 0 0 0 3592.2153733881246 -18222524.358039148 12608538.904277276 0 12608538.904277276 -3550041.8579598367 0 0 0 -5443141.5539997425 -24039150.428712167 12605519.287042577 0 12605519.287042577 -1482084.3082036376 0 0 0 -6380308.6842289492 -21194430.046281792 16441250.68791265 0 16441250.68791265 -2949309.928525798 0 0 0 -6035934.9937019031 -25714914.63060727 16812871.958644867 0 16812871.958644867 -3525323.7048194706 0 0 0 -7310059.5838566795 -26990281.028422851 3938570.1722524911 0 3938570.1722524911 -14848543.622350372 0 0 0 -10459706.162693296 -28426917.659609884 2609448.5859619677 0 2609448.5859619677 -15448170.741609097 0 0 0 -10968772.100304738 -28351267.184019551 6121153.3321204782 0 6121153.3321204782 -17296636.867275566 0 0 0 -11411976.012823761 -22258952.474989995 4470576.3780071586 0 4470576.3780071586 -14482990.975709319 0 0 0 -9185485.8626748174 -19360396.942767933 12961579.061607026 0 12961579.061607026 -6779584.3343883008 0 0 0 -6534995.3192890547 -22086467.128659237 14439727.572115503 0 14439727.572115503 -4689240.5791907087 0 0 0 -6693926.9269624837 18984.192764307423 4337.092835685331 0 4337.092835685331 -4567.3655554811594 0 0 0 3604.2068022065646 -27270309.75597275 5007102.3652074486 0 5007102.3652074486 -13445997.852900654 0 0 0 -10179076.902218349 -23879361.096800409 3939896.7155987024 0 3939896.7155987024 -17954157.380501717 0 0 0 -10458379.619325534 -19261054.856802523 6497505.2462289296 0 6497505.2462289296 -2699617.6529683359 0 0 0 -5490168.1274427101 19528.2086949144 4746.4899582134376 0 4746.4899582134376 -5133.5442748658306 0 0 0 3598.6661050121429 -9273706.8283864576 6410452.7099838946 0 6410452.7099838946 -1831234.2059568409 0 0 0 -2776235.2585858274 -13127950.555595025 6490472.3691111468 0 6490472.3691111468 -1781405.4216603935 0 0 0 -3727338.9943138529 -15462334.460250299 11815460.439330371 0 11815460.439330371 -2452025.4273871481 0 0 0 -4478589.9719093628 -19173531.325476699 12900604.427609345 0 12900604.427609345 -1959863.4274295382 0 0 0 -5283348.6882265639 -18859351.541714899 12107467.685130723 0 12107467.685130723 -6281846.9484587284 0 0 0 -6285299.6225434076 -13066369.056441454 8731716.3598870169 0 8731716.3598870169 894939.76439760998 0 0 0 -3042857.3230109615 -10056849.159682509 9545911.5683678556 0 9545911.5683678556 -3348519.7092676191 0 0 0 -3351342.2172375321 6072940.726673821 4640063.0598179428 0 4640063.0598179428 1166351.4942329042 0 0 0 1809823.0552266818 -21102704.334181249 14764194.872117193 0 14764194.872117193 -4212463.6660254002 0 0 0 -6328792.0000516698 -21396823.894673049 14494022.79055921 0 14494022.79055921 -4171841.009246584 0 0 0 -6392166.2259799074 -19444485.108074307 13812272.76678133 0 13812272.76678133 -4526398.051165482 0 0 0 -5992720.7898099478 -18878000.514358096 12167274.138033552 0 12167274.138033552 -3454141.1025374895 0 0 0 -5583035.4042238966 -21052940.05919572 13425234.033647841 0 13425234.033647841 -7017461.3081846274 0 0 0 -7017600.3418450868 -22386364.624952402 13862144.864913497 0 13862144.864913497 -7461584.8819476161 0 0 0 -7461987.3767250041 -21315962.231923129 13269085.291791862 0 13269085.291791862 -6165431.8955632076 0 0 0 -6870348.5318715833 -21645134.109046977 15242467.239594955 0 15242467.239594955 -6137836.118447423 0 0 0 -6945742.5568736009 -22364452.566825833 15079122.042453095 0 15079122.042453095 -4897697.1995840669 0 0 0 -6815537.4416024759 -28349881.260045793 11978974.077349968 0 11978974.077349968 -4866755.3258493021 0 0 0 -8304159.1464737728 -22375784.208922103 14749585.275054041 0 14749585.275054041 -7633614.8650555331 0 0 0 -7502349.7684944067 -28209360.253350224 13883058.193120638 0 13883058.193120638 -9410799.0880128462 0 0 0 -9405039.8353407662 -25243170.114296913 12190178.493381014 0 12190178.493381014 -8378401.9060577285 0 0 0 -8405393.0050886627 -34313665.602121145 10634933.517353859 0 10634933.517353859 -8927631.91009821 0 0 0 -10810324.37805484 -59062698.621558391 10834126.015077783 0 10834126.015077783 -7150675.6646426022 0 0 0 -16553343.57155025 -39938633.739595778 14821207.447356457 0 14821207.447356457 -13286956.883460836 0 0 0 -13306397.655764155 -35612543.439532898 6062892.9952438213 0 6062892.9952438213 1372951.5430130959 0 0 0 -8559897.9741299469 -32406810.199176937 14108048.020551914 0 14108048.020551914 -7213262.3539122846 0 0 0 -9905018.138272306 -26289122.997206006 3807306.6583621576 0 3807306.6583621576 15688.000339701772 0 0 0 -6568358.7492165752 -35566725.268015355 4602316.27616347 0 4602316.27616347 -1398371.0123499036 0 0 0 -9241274.0700913072 -25837302.714893062 3971168.2969430089 0 3971168.2969430089 298927.02333381772 0 0 0 -6384593.9228897989 -28230331.937297754 9992304.3717053607 0 9992304.3717053607 -1771149.128477633 0 0 0 -7500370.2664438486 -20167519.353346772 8298021.1564368978 0 8298021.1564368978 1151714.2767994106 0 0 0 -4753951.2691368237 -20619850.101896778 12229212.444058521 0 12229212.444058521 -1572191.0378026366 0 0 0 -5548010.2849248424 -13063577.985720366 9115811.6645845324 0 9115811.6645845324 3928784.5555014461 0 0 0 -2283698.3575547338 -14286682.641130578 17646698.335163012 0 17646698.335163012 1608548.8619941771 0 0 0 -3169533.4447841048 -20970169.454156123 15430889.22642448 0 15430889.22642448 -2231488.9029476643 0 0 0 -5800414.5892759487 -22102917.947270021 15777134.280460302 0 15777134.280460302 -5276398.6944728494 0 0 0 -6844829.1604357138 -18711966.765237026 16631208.420625895 0 16631208.420625895 -3763028.2505379468 0 0 0 -5618748.7539437395 -21958878.151354857 11454406.531186439 0 11454406.531186439 -2714496.0926500186 0 0 0 -6168343.5610012114 -21511266.323957056 11288985.899481185 0 11288985.899481185 -2667736.6460034177 0 0 0 -6044750.7424901146 
</DataArray>
<DataArray type="Float64" Name="cross_section_updated" format="ascii">
1 1 1 1 1 1 1 1 1 1 1 0.0099999988739799262 1 1 0.0099999993949787397 1 1 1 1 1 0.0088663818189458898 1 1 0.010000001358889718 1 0.010000000190387114 1 1 1 1 0.0090165456462006702 1 1 1 1 0.0094151994637855022 1 1 0.012082925506494813 1 1 1 1 1 1 1 1 1 1 1 1 1 1 1 1 1 1 1 1 1 1 1 1 1 1 1 1 0.010000000055628386 1 0.010000000042682918 1 1 1 1 1 1 1 1 1 1 0.010000000036993608 1 1 1 0.01000000003671935 1 1 1 1 1 1 1 1 1 1 1 1 1 1 1 1 1 1 1 1 1 1 1 1 1 1 1 1 1 1 1 1 1 1 1 1 1 1 1 
</DataArray>
<DataArray type="Float64" Name="normal_displacement_jump" format="ascii">
0 0 0 0 0 0 0 0 0 0 0 0.0089999988739799253 0 0 0.0089999993949787388 0 0 0 0 0 0.0078663818189458889 0 0 0.0090000013588897188 0 0.0090000001903871134 0 0 0 0 0.0080165456462006693 0 0 0 0 0.0084151994637855013 0 0 0.011082925506494812 0 0 0 0 0 0 0 0 0 0 0 0 0 0 0 0 0 0 0 0 0 0 0 0 0 0 0 0 0.0090000000556283849 0 0.0090000000426829173 0 0 0 0 0 0 0 0 0 0 0.0090000000369936106 0 0 0 0.0090000000367193508 0 0 0 0 0 0 0 0 0 0 0 0 0 0 0 0 0 0 0 0 0 0 0 0 0 0 0 0 0 0 0 0 0 0 0 0 0 0 0 
</DataArray>
<DataArray type="Float64" Name="tangential_displacement_jump" format="ascii">
0 0 0 0 0 0 0 0 0 0 0 0.032287534790655784 0 0 0.033412132536553743 0 0 0 0 0 0.014973954780284673 0 0 0.039150116684671367 0 0.036127337732346214 0 0 0 0 0.01622748075304602 0 0 0 0 0.014657883944326643 0 0 0.010010747005016458 0 0 0 0 0 0 0 0 0 0 0 0 0 0 0 0 0 0 0 0 0 0 0 0 0 0 0 0 0.025930762952853018 0 0.028227685803262931 0 0 0 0 0 0 0 0 0 0 0.0300797379993776 0 0 0 0.03181267159799845 0 0 0 0 0 0 0 0 0 0 0 0 0 0 0 0 0 0 0 0 0 0 0 0 0 0 0 0 0 0 0 0 0 0 0 0 0 0 0 
</DataArray>
</CellData>
</Piece>
</UnstructuredGrid>
</VTKFile>
