<?xml version="1.0"?>
<VTKFile type="UnstructuredGrid" version="0.1" byte_order="LittleEndian">
<UnstructuredGrid>
<Piece NumberOfPoints="360" NumberOfCells="124">
<Points>
<DataArray type="Float64" NumberOfComponents="3" format="ascii">
0 0 0 0.084352422163911631 0.086451712656266194 0 0 0.12500000000034689 0 0 0 0 0.084352422163911631 0.086451712656266194 0 0.1249999999997554 0 0 0 0.12500000000034689 0 0.1008171452988615 0.18885703697250469 0 0 0.25 0 0.084352422163911631 0.086451712656266194 0 0 0.12500000000034689 0 0.1008171452988615 0.18885703697250469 0 0.084352422163911631 0.086451712656266194 0 0.1008171452988615 0.18885703697250469 0 0.18402761812864499 0.1117324051466445 0 0.1008171452988615 0.18885703697250469 0 0.2403886547178353 0.24188814792673841 0 0.1249999999997599 0.31249999999987998 0 0.1008171452988615 0.18885703697250469 0 0.2403886547178353 0.24188814792673841 0 0.18402761812864499 0.1117324051466445 0 0.2403886547178353 0.24188814792673841 0 0.18402761812864499 0.1117324051466445 0 0.31250000000020822 0.12500000000041631 0 0.1249999999997554 0 0 0.18402761812864499 0.1117324051466445 0 0.25 -0 0 0.18402761812864499 0.1117324051466445 0 0.25 -0 0 0.31250000000020822 0.12500000000041631 0 0.084352422163911631 0.086451712656266194 0 0.1249999999997554 0 0 0.18402761812864499 0.1117324051466445 0 0.25 -0 0 0.31250000000020822 0.12500000000041631 0 0.25 -0 0 0.31250000000020822 0.12500000000041631 0 0.43749999999913258 0 0 0.2403886547178353 0.24188814792673841 0 0.31250000000020822 0.12500000000041631 0 0.37500000000027761 0.25000000000055511 0 0.31250000000020822 0.12500000000041631 0 0.37500000000027761 0.25000000000055511 0 0.31250000000020822 0.12500000000041631 0 0.4287911518546233 0.15455445427966699 0 0.37500000000027761 0.25000000000055511 0 0.4287911518546233 0.15455445427966699 0 0.49457493289300231 0.26251703776555491 0 0.37500000000027761 0.25000000000055511 0 0.4287911518546233 0.15455445427966699 0 0.49457493289300231 0.26251703776555491 0 0.54475767668582953 0.1431838882066932 0 0.31250000000020822 0.12500000000041631 0 0.4287911518546233 0.15455445427966699 0 0.43749999999913258 0 0 0.4287911518546233 0.15455445427966699 0 0.43749999999913258 0 0 0.54475767668582953 0.1431838882066932 0 0.37499999999973488 0.43749999999986738 0 0.5 0.5 -0 0.43750000000006939 0.37500000000013878 0 0.37499999999973488 0.43749999999986738 0 0.5 0.5 -0 0.43750000000006939 0.37500000000013878 0 0.33819444444448321 0.33819444444456342 0 0.37499999999973488 0.43749999999986738 0 0.43750000000006939 0.37500000000013878 0 0.5 0.5 -0 0.43750000000006939 0.37500000000013878 0 0.49457493289300231 0.26251703776555491 0 0.37500000000027761 0.25000000000055511 0 0.43750000000006939 0.37500000000013878 0 0.37500000000027761 0.25000000000055511 0 0.43750000000006939 0.37500000000013878 0 0.37500000000027761 0.25000000000055511 0 0.33819444444448321 0.33819444444456342 0 0.2403886547178353 0.24188814792673841 0 0.33819444444448321 0.33819444444456342 0 0.24999999999960859 0.37499999999980432 0 0.2403886547178353 0.24188814792673841 0 0.37500000000027761 0.25000000000055511 0 0.33819444444448321 0.33819444444456342 0 0.33819444444448321 0.33819444444456342 0 0.37499999999973488 0.43749999999986738 0 0.24999999999960859 0.37499999999980432 0 0.37499999999973488 0.43749999999986738 0 0.24999999999960859 0.37499999999980432 0 0.37499999999973488 0.43749999999986738 0 0.24999999999960859 0.37499999999980432 0 0.26452443700674649 0.51563531581639865 0 0.14929124186975251 0.44582793568106382 0 0.24999999999960859 0.37499999999980432 0 0.26452443700674649 0.51563531581639865 0 0.14929124186975251 0.44582793568106382 0 0.24999999999960859 0.37499999999980432 0 0.1249999999997599 0.31249999999987998 0 0.2403886547178353 0.24188814792673841 0 0.24999999999960859 0.37499999999980432 0 0.1249999999997599 0.31249999999987998 0 0.24999999999960859 0.37499999999980432 0 0.1249999999997599 0.31249999999987998 0 0.1249999999997599 0.31249999999987998 0 0 0.25 0 0 0.43750000000034689 0 0.1008171452988615 0.18885703697250469 0 0.1249999999997599 0.31249999999987998 0 0 0.25 0 0.1249999999997599 0.31249999999987998 0 0 0.25 0 0.14929124186975251 0.44582793568106382 0 0 0.43750000000034689 0 0.13928587515912139 0.57339806105677438 0 0.14929124186975251 0.44582793568106382 0 0.1249999999997599 0.31249999999987998 0 0 0.43750000000034689 0 0 0.43750000000034689 0 0 0.62500000000069389 0 0.13928587515912139 0.57339806105677438 0 0 0.62500000000069389 0 0.13900789599611679 0.72618316107059999 0 0.13928587515912139 0.57339806105677438 0 0 0.62500000000069389 0 0.13900789599611679 0.72618316107059999 0 0 0.81250000000104083 0 0.13900789599611679 0.72618316107059999 0 0.13928587515912139 0.57339806105677438 0 0.27589467050686478 0.66058853156435704 0 0.13900789599611679 0.72618316107059999 0 0.27987960212930818 0.83442741470570525 0 0.27589467050686478 0.66058853156435704 0 0.13928587515912139 0.57339806105677438 0 0.26452443700674649 0.51563531581639865 0 0.27589467050686478 0.66058853156435704 0 0.14929124186975251 0.44582793568106382 0 0.13928587515912139 0.57339806105677438 0 0.26452443700674649 0.51563531581639865 0 0 1 0 0.12710107136012311 0.87094806618203435 0 0.1875000000005205 1 0 0 1 0 0 0.81250000000104083 0 0.12710107136012311 0.87094806618203435 0 0.13900789599611679 0.72618316107059999 0 0 0.81250000000104083 0 0.12710107136012311 0.87094806618203435 0 0.13900789599611679 0.72618316107059999 0 0.12710107136012311 0.87094806618203435 0 0.27987960212930818 0.83442741470570525 0 0.12710107136012311 0.87094806618203435 0 0.1875000000005205 1 0 0.27987960212930818 0.83442741470570525 0 0.27987960212930818 0.83442741470570525 0 0.44927105396715372 0.85565124085155886 0 0.37500000000069389 1 0 0.1875000000005205 1 0 0.27987960212930818 0.83442741470570525 0 0.37500000000069389 1 0 0.27987960212930818 0.83442741470570525 0 0.44927105396715372 0.85565124085155886 0 0.38136204680495073 0.74038592213831234 0 0.44927105396715372 0.85565124085155886 0 0.38136204680495073 0.74038592213831234 0 0.50145856933078625 0.73674663046504862 0 0.44927105396715372 0.85565124085155886 0 0.37500000000069389 1 0 0.56250000000086742 1 0 0.26452443700674649 0.51563531581639865 0 0.27589467050686478 0.66058853156435704 0 0.4139414069912184 0.60563252640100373 0 0.37499999999973488 0.43749999999986738 0 0.26452443700674649 0.51563531581639865 0 0.4139414069912184 0.60563252640100373 0 0.27987960212930818 0.83442741470570525 0 0.27589467050686478 0.66058853156435704 0 0.38136204680495073 0.74038592213831234 0 0.27589467050686478 0.66058853156435704 0 0.38136204680495073 0.74038592213831234 0 0.4139414069912184 0.60563252640100373 0 0.38136204680495073 0.74038592213831234 0 0.4139414069912184 0.60563252640100373 0 0.50145856933078625 0.73674663046504862 0 0.4139414069912184 0.60563252640100373 0 0.50145856933078625 0.73674663046504862 0 0.5625 0.625 0 0.37499999999973488 0.43749999999986738 0 0.4139414069912184 0.60563252640100373 0 0.5 0.5 -0 0.4139414069912184 0.60563252640100373 0 0.5 0.5 -0 0.5625 0.625 0 0.5 0.5 -0 0.5625 0.625 0 0.63236534182377013 0.50296756406332266 0 0.5 0.5 -0 0.5625 0.625 0 0.50145856933078625 0.73674663046504862 0 0.5625 0.625 0 0.625 0.75 0 0.5625 0.625 0 0.625 0.75 0 0.71259747807844409 0.63846691315701831 0 0.625 0.75 0 0.73857795170433571 0.77736788564284653 0 0.5625 0.625 0 0.71259747807844409 0.63846691315701831 0 0.625 0.75 0 0.71259747807844409 0.63846691315701831 0 0.63236534182377013 0.50296756406332266 0 0.75338430262320943 0.49294443423175599 0 0.5625 0.625 0 0.71259747807844409 0.63846691315701831 0 0.63236534182377013 0.50296756406332266 0 0.56250000000086742 1 0 0.56777512057187585 0.8470224641095303 0 0.6875 0.875 0 0.44927105396715372 0.85565124085155886 0 0.56250000000086742 1 0 0.56777512057187585 0.8470224641095303 0 0.44927105396715372 0.85565124085155886 0 0.50145856933078625 0.73674663046504862 0 0.56777512057187585 0.8470224641095303 0 0.50145856933078625 0.73674663046504862 0 0.56777512057187585 0.8470224641095303 0 0.625 0.75 0 0.625 0.75 0 0.73857795170433571 0.77736788564284653 0 0.6875 0.875 0 0.73857795170433571 0.77736788564284653 0 0.6875 0.875 0 0.80552984491000901 0.88711122872127413 0 0.625 0.75 0 0.6875 0.875 0 0.56777512057187585 0.8470224641095303 0 0.625 0.75 0 0.6875 0.875 0 0.56250000000086742 1 0 0.6875 0.875 0 0.75 1 0 0.6875 0.875 0 0.75 1 0 0.80552984491000901 0.88711122872127413 0 0.6875 0.875 0 0.75 1 0 0.75 1 0 0.80552984491000901 0.88711122872127413 0 0.875 1 0 0.80552984491000901 0.88711122872127413 0 0.90637953422180084 0.90208583328057301 0 0.875 1 0 0.80552984491000901 0.88711122872127413 0 0.85787927391517405 0.753532520882502 0 0.90637953422180084 0.90208583328057301 0 0.73857795170433571 0.77736788564284653 0 0.80552984491000901 0.88711122872127413 0 0.85787927391517405 0.753532520882502 0 0.85787927391517405 0.753532520882502 0 1 0.83333333333356463 0 1 0.66666666666736052 0 0.85787927391517405 0.753532520882502 0 1 0.83333333333356463 0 0.90637953422180084 0.90208583328057301 0 1 0.83333333333356463 0 0.90637953422180084 0.90208583328057301 0 1 1 0 0.90637953422180084 0.90208583328057301 0 1 1 0 0.875 1 0 0.71259747807844409 0.63846691315701831 0 0.86127466977819722 0.57948076978797636 0 0.75338430262320943 0.49294443423175599 0 0.71259747807844409 0.63846691315701831 0 0.85787927391517405 0.753532520882502 0 0.86127466977819722 0.57948076978797636 0 0.71259747807844409 0.63846691315701831 0 0.73857795170433571 0.77736788564284653 0 0.85787927391517405 0.753532520882502 0 0.85787927391517405 0.753532520882502 0 0.86127466977819722 0.57948076978797636 0 1 0.66666666666736052 0 0.86127466977819722 0.57948076978797636 0 1 0.66666666666736052 0 1 0.50000000000138767 0 1 0.50000000000138767 0 0.86569408477091048 0.40983673916766611 0 1 0.33333333333448978 0 0.86127466977819722 0.57948076978797636 0 1 0.50000000000138767 0 0.86569408477091048 0.40983673916766611 0 0.86127466977819722 0.57948076978797636 0 0.75338430262320943 0.49294443423175599 0 0.86569408477091048 0.40983673916766611 0 0.75338430262320943 0.49294443423175599 0 0.86569408477091048 0.40983673916766611 0 0.71826039492840632 0.34564020717216182 0 0.86087286690217635 0.25206523597959418 0 0.71508993406183785 0.15715956854777599 0 0.71826039492840632 0.34564020717216182 0 0.86569408477091048 0.40983673916766611 0 0.86087286690217635 0.25206523597959418 0 0.71826039492840632 0.34564020717216182 0 0.86087286690217635 0.25206523597959418 0 1 0.33333333333448978 0 1 0.16666666666736049 0 0.86569408477091048 0.40983673916766611 0 0.86087286690217635 0.25206523597959418 0 1 0.33333333333448978 0 0.86087286690217635 0.25206523597959418 0 1 0.16666666666736049 0 0.87698901648812122 0.1160638338657984 0 1 0 0 0.87698901648812122 0.1160638338657984 0 0.81249999999947953 0 0 1 0.16666666666736049 0 1 0 0 0.87698901648812122 0.1160638338657984 0 0.87698901648812122 0.1160638338657984 0 0.81249999999947953 0 0 0.71508993406183785 0.15715956854777599 0 0.86087286690217635 0.25206523597959418 0 0.87698901648812122 0.1160638338657984 0 0.71508993406183785 0.15715956854777599 0 0.71508993406183785 0.15715956854777599 0 0.62499999999895905 0 0 0.54475767668582953 0.1431838882066932 0 0.81249999999947953 0 0 0.71508993406183785 0.15715956854777599 0 0.62499999999895905 0 0 0.43749999999913258 0 0 0.62499999999895905 0 0 0.54475767668582953 0.1431838882066932 0 0.71508993406183785 0.15715956854777599 0 0.54475767668582953 0.1431838882066932 0 0.61108462585082757 0.25750599582343231 0 0.49457493289300231 0.26251703776555491 0 0.54475767668582953 0.1431838882066932 0 0.61108462585082757 0.25750599582343231 0 0.49457493289300231 0.26251703776555491 0 0.61108462585082757 0.25750599582343231 0 0.56986707178436635 0.37762093650871992 0 0.43750000000006939 0.37500000000013878 0 0.49457493289300231 0.26251703776555491 0 0.56986707178436635 0.37762093650871992 0 0.43750000000006939 0.37500000000013878 0 0.5 0.5 -0 0.56986707178436635 0.37762093650871992 0 0.5 0.5 -0 0.63236534182377013 0.50296756406332266 0 0.56986707178436635 0.37762093650871992 0 0.63236534182377013 0.50296756406332266 0 0.75338430262320943 0.49294443423175599 0 0.71826039492840632 0.34564020717216182 0 0.63236534182377013 0.50296756406332266 0 0.56986707178436635 0.37762093650871992 0 0.71826039492840632 0.34564020717216182 0 0.71508993406183785 0.15715956854777599 0 0.61108462585082757 0.25750599582343231 0 0.71826039492840632 0.34564020717216182 0 0.61108462585082757 0.25750599582343231 0 0.56986707178436635 0.37762093650871992 0 0.71826039492840632 0.34564020717216182 0 
</DataArray>
</Points>
<Cells>
<DataArray type="UInt32" Name="connectivity" format="ascii">
0 1 2 3 4 5 6 7 8 9 10 11 12 13 14 15 16 17 18 19 20 21 22 23 24 25 26 27 28 29 30 31 32 33 34 35 36 37 38 39 40 41 42 43 44 45 46 47 48 49 50 51 52 53 54 55 56 57 58 59 60 61 62 63 64 65 66 67 68 69 70 71 72 73 74 75 76 77 78 79 80 81 82 83 84 85 86 87 88 89 90 91 92 93 94 95 96 97 98 99 100 101 102 103 104 105 106 107 108 109 110 111 112 113 114 115 116 117 118 119 120 121 122 123 124 125 126 127 128 129 130 131 132 133 134 135 136 137 138 139 140 141 142 143 144 145 146 147 148 149 150 151 152 153 154 155 156 157 158 159 160 161 162 163 164 165 166 167 168 169 170 171 172 173 174 175 176 177 178 179 180 181 182 183 184 185 186 187 188 189 190 191 192 193 194 195 196 197 198 199 200 201 202 203 204 205 206 207 208 209 210 211 212 213 214 215 216 217 218 219 220 221 222 223 224 225 226 227 228 229 230 231 232 233 234 235 236 237 238 239 240 241 242 243 244 245 246 247 248 249 250 251 252 253 254 255 256 257 258 259 260 261 262 263 264 265 266 267 268 269 270 271 272 273 274 275 276 277 278 279 280 281 282 283 284 285 286 287 288 289 290 291 292 293 294 295 296 297 298 299 300 301 302 303 304 305 306 307 308 309 310 311 312 313 314 315 316 317 318 319 320 321 322 323 324 325 326 327 328 329 330 331 332 333 334 335 336 337 338 339 340 341 342 343 344 345 346 347 348 349 350 351 352 353 354 355 356 357 358 359 
</DataArray>
<DataArray type="UInt32" Name="offsets" format="ascii">
3 6 9 12 15 18 21 24 27 30 33 35 38 41 43 46 49 52 55 58 60 63 66 68 71 73 76 79 82 85 87 90 93 96 99 101 104 107 109 112 115 118 121 124 127 130 133 136 139 142 145 148 151 154 157 160 163 166 169 172 175 178 181 184 187 190 193 195 198 200 203 206 209 212 215 218 221 224 227 230 232 235 238 241 243 246 249 252 255 258 261 264 267 270 273 276 279 282 285 288 291 294 297 300 303 306 309 312 315 318 321 324 327 330 333 336 339 342 345 348 351 354 357 360 
</DataArray>
<DataArray type="UInt32" Name="types" format="ascii">
5 5 5 5 5 5 5 5 5 5 5 3 5 5 3 5 5 5 5 5 3 5 5 3 5 3 5 5 5 5 3 5 5 5 5 3 5 5 3 5 5 5 5 5 5 5 5 5 5 5 5 5 5 5 5 5 5 5 5 5 5 5 5 5 5 5 5 3 5 3 5 5 5 5 5 5 5 5 5 5 3 5 5 5 3 5 5 5 5 5 5 5 5 5 5 5 5 5 5 5 5 5 5 5 5 5 5 5 5 5 5 5 5 5 5 5 5 5 5 5 5 5 5 5 
</DataArray>
</Cells>
<PointData Scalars="" Vectors="displacement," Tensors="">
<DataArray type="Float64" Name="displacement" NumberOfComponents="3" format="ascii">
4.2977130662957443e-07 -0.048282177316183339 0 -0.00064223442519220685 -0.047481524773664401 0 -1.6982500909540011e-07 -0.048085614611882842 0 4.2977130662957443e-07 -0.048282177316183339 0 -0.00064223442519220685 -0.047481524773664401 0 0.00048545890759876261 -0.046835974103629753 0 -1.6982500909540011e-07 -0.048085614611882842 0 -0.0021114127449269058 -0.046970582327088298 0 -8.6192630498908668e-06 -0.047696883042557627 0 -0.00064223442519220685 -0.047481524773664401 0 -1.6982500909540011e-07 -0.048085614611882842 0 -0.0021114127449269058 -0.046970582327088298 0 -0.00064223442519220685 -0.047481524773664401 0 -0.0021114127449269058 -0.046970582327088298 0 -0.0019980979908513934 -0.045282433949291739 0 -0.0021114127449269058 -0.046970582327088298 0 -0.006454668612198327 -0.043085538505026222 0 -0.0066335625227473497 -0.045463145627903268 0 -0.0021114127449269058 -0.046970582327088298 0 -0.006454668612198327 -0.043085538505026222 0 -0.0019980979908513934 -0.045282433949291739 0 -0.006454668612198327 -0.043085538505026222 0 -0.0019980979908513934 -0.045282433949291739 0 -0.0038028855996211043 -0.040676524490838681 0 0.00048545890759876261 -0.046835974103629753 0 -0.0019980979908513934 -0.045282433949291739 0 0.00027103481886114027 -0.043316855884077139 0 -0.0019980979908513934 -0.045282433949291739 0 0.00027103481886114027 -0.043316855884077139 0 -0.0038028855996211043 -0.040676524490838681 0 -0.00064223442519220685 -0.047481524773664401 0 0.00048545890759876261 -0.046835974103629753 0 -0.0019980979908513934 -0.045282433949291739 0 0.009478879383054143 -0.035536769531073216 0 0.0049729099061010902 -0.032678893308409764 0 0.018549444475659732 -0.027807963668518329 0 0.013795482633090838 -0.024681089042381206 0 0.016404424355344956 -0.019965006895977695 0 -0.006454668612198327 -0.043085538505026222 0 -0.0038028855996211043 -0.040676524490838681 0 -0.0086767945260644522 -0.038543117249930245 0 0.0049729099061010902 -0.032678893308409764 0 0.00092763521480312332 -0.029941190612760151 0 0.013795482633090838 -0.024681089042381206 0 0.01164002412578917 -0.01959944475176038 0 0.010475937758772869 -0.02128557768471398 0 0.01164002412578917 -0.01959944475176038 0 0.0084295711236099576 -0.016141040817377404 0 0.010475937758772869 -0.02128557768471398 0 0.01164002412578917 -0.01959944475176038 0 0.0084295711236099576 -0.016141040817377404 0 0.010114430190864561 -0.015007542782304664 0 0.013795482633090838 -0.024681089042381206 0 0.01164002412578917 -0.01959944475176038 0 0.016404424355344956 -0.019965006895977695 0 0.01164002412578917 -0.01959944475176038 0 0.016404424355344956 -0.019965006895977695 0 0.010114430190864561 -0.015007542782304664 0 -0.0096748856196157539 -0.03480323189583126 0 -0.0041230588149192187 -0.026168313400462346 0 -0.012412441298988282 -0.037780055062239901 0 -0.01330788618009472 -0.039932627714166925 0 -0.015355831846273921 -0.037106876103637193 0 -0.012412441298988282 -0.037780055062239901 0 -0.010567725863249488 -0.040211257633208916 0 -0.01330788618009472 -0.039932627714166925 0 -0.0025911160843638086 -0.027472629577856778 0 -0.0041230588149192187 -0.026168313400462346 0 0.0073921284069799606 -0.017372213469124889 0 0.0084295711236099576 -0.016141040817377404 0 0.010475937758772869 -0.02128557768471398 0 -0.0025911160843638086 -0.027472629577856778 0 0.00092763521480312332 -0.029941190612760151 0 -0.012412441298988282 -0.037780055062239901 0 -0.0086767945260644522 -0.038543117249930245 0 -0.010567725863249488 -0.040211257633208916 0 -0.006454668612198327 -0.043085538505026222 0 -0.010567725863249488 -0.040211257633208916 0 -0.010582038185066828 -0.042920853576780722 0 -0.006454668612198327 -0.043085538505026222 0 -0.0086767945260644522 -0.038543117249930245 0 -0.010567725863249488 -0.040211257633208916 0 -0.010567725863249488 -0.040211257633208916 0 -0.01330788618009472 -0.039932627714166925 0 -0.010582038185066828 -0.042920853576780722 0 -0.0096748856196157539 -0.03480323189583126 0 -0.0051674713483877222 -0.036383296971632388 0 -0.002645214720844924 -0.027263077726115949 0 -0.0006741842704461044 -0.030502329140221728 0 -0.0029629384804282836 -0.030702006931131089 0 -0.001148286710222865 -0.032974924132367744 0 -0.0006741842704461044 -0.030502329140221728 0 -0.0029629384804282836 -0.030702006931131089 0 -0.001148286710222865 -0.032974924132367744 0 -0.0006741842704461044 -0.030502329140221728 0 0.00028943191359535631 -0.033533967691739421 0 -0.006454668612198327 -0.043085538505026222 0 -0.010582038185066828 -0.042920853576780722 0 -0.0066335625227473497 -0.045463145627903268 0 -0.0051674713483877222 -0.036383296971632388 0 -0.0033247186450720114 -0.039603225454000829 0 0.00028943191359535631 -0.033533967691739421 0 1.1497367003904372e-06 -0.033909025050514179 0 -1.1893783099208374e-06 -0.034303853400629573 0 -0.0021114127449269058 -0.046970582327088298 0 -0.0066335625227473497 -0.045463145627903268 0 -8.6192630498908668e-06 -0.047696883042557627 0 -0.0033247186450720114 -0.039603225454000829 0 0.00011299480237131985 -0.040712680139181993 0 -0.001148286710222865 -0.032974924132367744 0 -1.1893783099208374e-06 -0.034303853400629573 0 -0.0018926516249121201 -0.03317471713532287 0 -0.001148286710222865 -0.032974924132367744 0 0.00028943191359535631 -0.033533967691739421 0 -1.1893783099208374e-06 -0.034303853400629573 0 -1.1893783099208374e-06 -0.034303853400629573 0 -3.0938672721735156e-06 -0.033994563843067684 0 -0.0018926516249121201 -0.03317471713532287 0 -3.0938672721735156e-06 -0.033994563843067684 0 -0.00261034786986919 -0.033249383744977684 0 -0.0018926516249121201 -0.03317471713532287 0 -3.0938672721735156e-06 -0.033994563843067684 0 -0.00261034786986919 -0.033249383744977684 0 -3.8481662214149106e-06 -0.034038780150503628 0 -0.00261034786986919 -0.033249383744977684 0 -0.0018926516249121201 -0.03317471713532287 0 -0.004565028876308724 -0.030799749986937418 0 -0.00261034786986919 -0.033249383744977684 0 -0.0060341026826094954 -0.031181749017535915 0 -0.004565028876308724 -0.030799749986937418 0 -0.0018926516249121201 -0.03317471713532287 0 -0.0029629384804282836 -0.030702006931131089 0 -0.004565028876308724 -0.030799749986937418 0 -0.001148286710222865 -0.032974924132367744 0 -0.0018926516249121201 -0.03317471713532287 0 -0.0029629384804282836 -0.030702006931131089 0 -6.3212620920591873e-06 -0.034332246549914625 0 -0.0030077421901545695 -0.033524304712210407 0 -0.0056907507161151685 -0.032941655651627426 0 -6.3212620920591873e-06 -0.034332246549914625 0 -3.8481662214149106e-06 -0.034038780150503628 0 -0.0030077421901545695 -0.033524304712210407 0 -0.00261034786986919 -0.033249383744977684 0 -3.8481662214149106e-06 -0.034038780150503628 0 -0.0030077421901545695 -0.033524304712210407 0 -0.00261034786986919 -0.033249383744977684 0 -0.0030077421901545695 -0.033524304712210407 0 -0.0060341026826094954 -0.031181749017535915 0 -0.0030077421901545695 -0.033524304712210407 0 -0.0056907507161151685 -0.032941655651627426 0 -0.0060341026826094954 -0.031181749017535915 0 -0.0060341026826094954 -0.031181749017535915 0 -0.0095356250760578604 -0.027396888336348898 0 -0.010487746813484003 -0.029632700074825009 0 -0.0056907507161151685 -0.032941655651627426 0 -0.0060341026826094954 -0.031181749017535915 0 -0.010487746813484003 -0.029632700074825009 0 -0.0060341026826094954 -0.031181749017535915 0 -0.0095356250760578604 -0.027396888336348898 0 -0.0069912981036249853 -0.02859155399630927 0 -0.0095356250760578604 -0.027396888336348898 0 -0.0069912981036249853 -0.02859155399630927 0 -0.0088171979218374785 -0.025462375224349392 0 -0.0095356250760578604 -0.027396888336348898 0 -0.010487746813484003 -0.029632700074825009 0 -0.014254110783584727 -0.025165990098315747 0 -0.0029629384804282836 -0.030702006931131089 0 -0.004565028876308724 -0.030799749986937418 0 -0.0060707681554722235 -0.027154505684777178 0 -0.002645214720844924 -0.027263077726115949 0 -0.0029629384804282836 -0.030702006931131089 0 -0.0060707681554722235 -0.027154505684777178 0 -0.0060341026826094954 -0.031181749017535915 0 -0.004565028876308724 -0.030799749986937418 0 -0.0069912981036249853 -0.02859155399630927 0 -0.004565028876308724 -0.030799749986937418 0 -0.0069912981036249853 -0.02859155399630927 0 -0.0060707681554722235 -0.027154505684777178 0 -0.0069912981036249853 -0.02859155399630927 0 -0.0060707681554722235 -0.027154505684777178 0 -0.0088171979218374785 -0.025462375224349392 0 -0.0060707681554722235 -0.027154505684777178 0 -0.0088171979218374785 -0.025462375224349392 0 -0.0085415817512482159 -0.023224280062632326 0 -0.002645214720844924 -0.027263077726115949 0 -0.0060707681554722235 -0.027154505684777178 0 -0.0055649999415209117 -0.024221371990723741 0 -0.0060707681554722235 -0.027154505684777178 0 -0.0055649999415209117 -0.024221371990723741 0 -0.0085415817512482159 -0.023224280062632326 0 0.0064987576525470641 -0.014445617410043392 0 0.005978532029864733 -0.012128650352365388 0 0.0047605458411235611 -0.010503810293793854 0 -0.0041230588149192187 -0.026168313400462346 0 -4.8172266648638878e-05 -0.01584354578643301 0 -0.0088171979218374785 -0.025462375224349392 0 -0.0085415817512482159 -0.023224280062632326 0 -0.010691573235119878 -0.022385185567794272 0 -4.8172266648638878e-05 -0.01584354578643301 0 -0.0033409792289758543 -0.016616135287999035 0 0.0036848593954040775 -0.0076871991651723728 0 0.0046784643170790811 -0.009858230152647831 0 0.0031094003873582765 -0.0066817927077271787 0 0.005978532029864733 -0.012128650352365388 0 0.0036848593954040775 -0.0076871991651723728 0 0.0046784643170790811 -0.009858230152647831 0 0.0036848593954040775 -0.0076871991651723728 0 0.0047605458411235611 -0.010503810293793854 0 0.0031958691705279265 -0.0067404873579998015 0 0.005978532029864733 -0.012128650352365388 0 0.0036848593954040775 -0.0076871991651723728 0 0.0047605458411235611 -0.010503810293793854 0 -0.014254110783584727 -0.025165990098315747 0 -0.011322114468778304 -0.024321000847097561 0 -0.013622676065237272 -0.021225605877223275 0 -0.0095356250760578604 -0.027396888336348898 0 -0.014254110783584727 -0.025165990098315747 0 -0.011322114468778304 -0.024321000847097561 0 -0.0095356250760578604 -0.027396888336348898 0 -0.0088171979218374785 -0.025462375224349392 0 -0.011322114468778304 -0.024321000847097561 0 -0.0088171979218374785 -0.025462375224349392 0 -0.011322114468778304 -0.024321000847097561 0 -0.010691573235119878 -0.022385185567794272 0 0.0046784643170790811 -0.009858230152647831 0 0.0031094003873582765 -0.0066817927077271787 0 0.0033318126390486261 -0.0080637199967973864 0 0.0031094003873582765 -0.0066817927077271787 0 0.0033318126390486261 -0.0080637199967973864 0 0.0016509481532460679 -0.0043927264849137415 0 -0.0033409792289758543 -0.016616135287999035 0 -0.0050330348366606536 -0.014495526963316749 0 -0.011322114468778304 -0.024321000847097561 0 -0.010691573235119878 -0.022385185567794272 0 -0.013622676065237272 -0.021225605877223275 0 -0.014254110783584727 -0.025165990098315747 0 -0.013622676065237272 -0.021225605877223275 0 -0.016744327216811985 -0.020438823091157462 0 0.0033318126390486261 -0.0080637199967973864 0 0.00030965707065659876 -0.0058329864505847267 0 0.0016509481532460679 -0.0043927264849137415 0 -0.0050330348366606536 -0.014495526963316749 0 -0.0083271116134755619 -0.013237638876334895 0 0.00030965707065659876 -0.0058329864505847267 0 0.0016509481532460679 -0.0043927264849137415 0 -0.00049796109849591422 -0.002366656244124507 0 0.0016509481532460679 -0.0043927264849137415 0 0.00057440022149658982 -0.0017159337861898508 0 -0.00049796109849591422 -0.002366656244124507 0 0.0016509481532460679 -0.0043927264849137415 0 0.0016477682884285915 -0.0032819946023134499 0 0.00057440022149658982 -0.0017159337861898508 0 0.0031094003873582765 -0.0066817927077271787 0 0.0016509481532460679 -0.0043927264849137415 0 0.0016477682884285915 -0.0032819946023134499 0 0.0016477682884285915 -0.0032819946023134499 0 1.9101782221443898e-06 -8.2783247791874954e-07 0 1.8631742317714723e-06 -1.406160571913668e-06 0 0.0016477682884285915 -0.0032819946023134499 0 1.9101782221443898e-06 -8.2783247791874954e-07 0 0.00057440022149658982 -0.0017159337861898508 0 1.9101782221443898e-06 -8.2783247791874954e-07 0 0.00057440022149658982 -0.0017159337861898508 0 -1.8790450465788988e-06 -4.1629567104312659e-07 0 0.00057440022149658982 -0.0017159337861898508 0 -1.8790450465788988e-06 -4.1629567104312659e-07 0 -0.00049796109849591422 -0.002366656244124507 0 0.0036848593954040775 -0.0076871991651723728 0 0.0017456868175084307 -0.0035212338658539562 0 0.0031958691705279265 -0.0067404873579998015 0 0.0036848593954040775 -0.0076871991651723728 0 0.0016477682884285915 -0.0032819946023134499 0 0.0017456868175084307 -0.0035212338658539562 0 0.0036848593954040775 -0.0076871991651723728 0 0.0031094003873582765 -0.0066817927077271787 0 0.0016477682884285915 -0.0032819946023134499 0 0.0016477682884285915 -0.0032819946023134499 0 0.0017456868175084307 -0.0035212338658539562 0 1.8631742317714723e-06 -1.406160571913668e-06 0 0.0017456868175084307 -0.0035212338658539562 0 1.8631742317714723e-06 -1.406160571913668e-06 0 2.0685570384894802e-06 -1.3599563540874735e-06 0 2.0685570384894802e-06 -1.3599563540874735e-06 0 0.001830947827043367 -0.003466775834361573 0 2.8043171619947261e-06 -1.3969930660138949e-06 0 0.0017456868175084307 -0.0035212338658539562 0 2.0685570384894802e-06 -1.3599563540874735e-06 0 0.001830947827043367 -0.003466775834361573 0 0.0017456868175084307 -0.0035212338658539562 0 0.0031958691705279265 -0.0067404873579998015 0 0.001830947827043367 -0.003466775834361573 0 0.0031958691705279265 -0.0067404873579998015 0 0.001830947827043367 -0.003466775834361573 0 0.0041046519071313327 -0.0080400952443669665 0 0.0024861533301667035 -0.0035822087700970906 0 0.0064034024781910353 -0.0088036424700930534 0 0.0041046519071313327 -0.0080400952443669665 0 0.001830947827043367 -0.003466775834361573 0 0.0024861533301667035 -0.0035822087700970906 0 0.0041046519071313327 -0.0080400952443669665 0 0.0024861533301667035 -0.0035822087700970906 0 2.8043171619947261e-06 -1.3969930660138949e-06 0 2.4019641295552308e-06 -4.8193532145102726e-07 0 0.001830947827043367 -0.003466775834361573 0 0.0024861533301667035 -0.0035822087700970906 0 2.8043171619947261e-06 -1.3969930660138949e-06 0 0.0024861533301667035 -0.0035822087700970906 0 2.4019641295552308e-06 -4.8193532145102726e-07 0 0.0031761055235267678 -0.0034110464684095326 0 9.7461542387772707e-06 -3.6379487461870049e-06 0 0.0031761055235267678 -0.0034110464684095326 0 0.0077424615312891576 -0.0068300983480850831 0 2.4019641295552308e-06 -4.8193532145102726e-07 0 9.7461542387772707e-06 -3.6379487461870049e-06 0 0.0031761055235267678 -0.0034110464684095326 0 0.0031761055235267678 -0.0034110464684095326 0 0.0077424615312891576 -0.0068300983480850831 0 0.0064034024781910353 -0.0088036424700930534 0 0.0024861533301667035 -0.0035822087700970906 0 0.0031761055235267678 -0.0034110464684095326 0 0.0064034024781910353 -0.0088036424700930534 0 0.0064034024781910353 -0.0088036424700930534 0 0.012673261024060974 -0.013054707812373015 0 0.010114430190864561 -0.015007542782304664 0 0.0077424615312891576 -0.0068300983480850831 0 0.0064034024781910353 -0.0088036424700930534 0 0.012673261024060974 -0.013054707812373015 0 0.016404424355344956 -0.019965006895977695 0 0.012673261024060974 -0.013054707812373015 0 0.010114430190864561 -0.015007542782304664 0 0.0064034024781910353 -0.0088036424700930534 0 0.010114430190864561 -0.015007542782304664 0 0.0067854388713109145 -0.01192666160687616 0 0.0084295711236099576 -0.016141040817377404 0 0.010114430190864561 -0.015007542782304664 0 0.0067854388713109145 -0.01192666160687616 0 0.0084295711236099576 -0.016141040817377404 0 0.0067854388713109145 -0.01192666160687616 0 0.0058710538278875634 -0.012854515979635939 0 0.0073921284069799606 -0.017372213469124889 0 0.0084295711236099576 -0.016141040817377404 0 0.0058710538278875634 -0.012854515979635939 0 0.0073921284069799606 -0.017372213469124889 0 0.0064987576525470641 -0.014445617410043392 0 0.0058710538278875634 -0.012854515979635939 0 0.0064987576525470641 -0.014445617410043392 0 0.0047605458411235611 -0.010503810293793854 0 0.0058710538278875634 -0.012854515979635939 0 0.0047605458411235611 -0.010503810293793854 0 0.0031958691705279265 -0.0067404873579998015 0 0.0041046519071313327 -0.0080400952443669665 0 0.0047605458411235611 -0.010503810293793854 0 0.0058710538278875634 -0.012854515979635939 0 0.0041046519071313327 -0.0080400952443669665 0 0.0064034024781910353 -0.0088036424700930534 0 0.0067854388713109145 -0.01192666160687616 0 0.0041046519071313327 -0.0080400952443669665 0 0.0067854388713109145 -0.01192666160687616 0 0.0058710538278875634 -0.012854515979635939 0 0.0041046519071313327 -0.0080400952443669665 0 
</DataArray>
</PointData>
<CellData Scalars="region_id,cross_section_updated,normal_displacement_jump,tangential_displacement_jump," Vectors="" Tensors="stress,">
<DataArray type="Float64" Name="region_id" format="ascii">
11 11 11 11 11 11 11 11 11 11 11 5 11 11 5 11 11 11 11 11 6 11 11 5 11 5 11 11 11 11 6 11 11 11 11 6 11 11 6 11 11 11 11 11 11 11 11 11 11 11 11 11 11 11 11 11 11 11 11 11 11 11 11 11 11 11 11 4 11 4 11 11 11 11 11 11 11 11 11 11 4 11 11 11 4 11 11 11 11 11 11 11 11 11 11 11 11 11 11 11 11 11 11 11 11 11 11 11 11 11 11 11 11 11 11 11 11 11 11 11 11 11 11 11 
</DataArray>
<DataArray type="Float64" Name="stress" NumberOfComponents="9" format="ascii">
-8507659.4348905385 3150128.6949035525 0 3150128.6949035525 -1158551.4016039968 0 0 0 -2416552.7091236413 3845314.1256223321 139928.75068303943 0 139928.75068303943 -880803.51223599911 0 0 0 741127.65334659815 -23834251.363625109 3609035.0575156063 0 3609035.0575156063 -4627574.3962906599 0 0 0 -7115456.4399789572 -14407794.774705231 -1371722.8686818182 0 -1371722.8686818182 -988952.60021549463 0 0 0 -3849186.8437302113 -11863777.643385697 3601864.1954905987 0 3601864.1954905987 -2350853.5975252092 0 0 0 -3553657.8102277406 -19409608.994003296 -3147840.3512514532 0 -3147840.3512514532 1305395.4631670117 0 0 0 -4526053.3827090859 -23699568.934541404 314606.5391753763 0 314606.5391753763 -1739090.0178898573 0 0 0 -6359664.7381078005 -12637816.922558345 2491892.5879697502 0 2491892.5879697502 -2700343.8672064543 0 0 0 -3834540.1974411681 -2446044.3174708039 2732582.3253898025 0 2732582.3253898025 -1848876.2807400525 0 0 0 -1073730.1495527029 -12168274.128893122 3417526.2695804387 0 3417526.2695804387 -460316.83645996451 0 0 0 -3157147.7413382679 -9998506.6689874381 1614132.1701230407 0 1614132.1701230407 -563247.99788028002 0 0 0 -2640438.6667169333 16425.67991255752 2418.8716920931529 0 2418.8716920931529 -2019.4842066320416 0 0 0 3601.5489264813714 -12087950.523887981 3806984.6803406477 0 3806984.6803406477 344491.81521084905 0 0 0 -2935864.6771692745 -17437093.227031961 816112.09394913912 0 816112.09394913912 -5598011.1177326739 0 0 0 -5758776.0861911625 16739.948321939508 2654.5030028081183 0 2654.5030028081183 -2332.6251846500527 0 0 0 3601.8307843223629 -13766301.198624633 8937824.4126220606 0 8937824.4126220606 1906197.6053880751 0 0 0 -2965025.8983091265 -15459801.98192668 8699393.9406880885 0 8699393.9406880885 1475677.2248547673 0 0 0 -3496031.1892679781 -15213961.081417661 7932800.3698728532 0 7932800.3698728532 2886559.6856393367 0 0 0 -3081850.3489445746 -10755757.30618035 4426766.0727267917 0 4426766.0727267917 1491424.1670521796 0 0 0 -2316083.2847820371 -17672697.852268491 3322654.0472560376 0 3322654.0472560376 -960761.57898684591 0 0 0 -4658364.8578138333 -863.13309138238856 1402.3321161149101 0 1402.3321161149101 11932.234960870792 0 0 0 2767.275467372101 -10532044.903465092 2430909.5126209557 0 2430909.5126209557 -11926787.978690743 0 0 0 -5614708.2205389738 -14521047.816789836 1267643.2562568933 0 1267643.2562568933 -12590850.090757608 0 0 0 -6777974.4768868983 18501.889798670083 3976.0741542879769 0 3976.0741542879769 -4096.379105561522 0 0 0 3601.3776732771394 -14266044.233525127 9975183.2700859904 0 9975183.2700859904 6269861.8464030474 0 0 0 -1999045.5967805088 17530.595517664788 3247.4929494191092 0 3247.4929494191092 -3123.3337354167052 0 0 0 3601.8154455620206 -14059916.55138132 796595.84585365653 0 796595.84585365653 -12721181.530875087 0 0 0 -6695274.5205641091 -15265536.867235512 85733.080210268497 0 85733.080210268497 -6104470.819472611 0 0 0 -5342501.9216770083 -19696256.451010406 2557673.7032657582 0 2557673.7032657582 -11593018.150269985 0 0 0 -7822318.6503201127 -14771312.332491659 1468997.5578792989 0 1468997.5578792989 -12850804.206437796 0 0 0 -6905529.1347323582 -1064.3544395288682 1434.0973283155149 0 1434.0973283155149 11618.318307722839 0 0 0 2638.4909670484922 -11383551.058904871 5052097.4481073096 0 5052097.4481073096 -8401656.7596494555 0 0 0 -4946301.9546385705 -9013169.7115000784 2533125.3818647265 0 2533125.3818647265 -6937867.8360854983 0 0 0 -3987759.3868964016 -3158756.5826637894 5623381.4278335944 0 5623381.4278335944 -1317816.1558927894 0 0 0 -1119143.184639141 -20120225.895136289 -3737425.9334687889 0 -3737425.9334687889 -6962744.977627404 0 0 0 -6770742.7181909308 -170.77194800608595 838.95327194053789 0 838.95327194053789 11568.59846150392 0 0 0 2849.4566283744607 1932693.5859853476 1616343.6761818677 0 1616343.6761818677 -1601903.4186572134 0 0 0 82697.541832029819 -42314241.53736943 -6399555.1257442534 0 -6399555.1257442534 -3822704.7591718137 0 0 0 -11534236.574135307 2715.1660661392179 -1061.5912646273891 0 -1061.5912646273891 13176.584270630679 0 0 0 3972.9375841924757 -9136975.3382303417 1016105.4216566077 0 1016105.4216566077 -3967479.2902502418 0 0 0 -3276113.6571201384 -7546730.5745062828 -289237.1467795223 0 -289237.1467795223 255197.44986072183 0 0 0 -1822883.2811613828 -15623945.929798303 2594811.9332681447 0 2594811.9332681447 -3448468.0491395062 0 0 0 -4768103.4947344484 -18571297.19796671 393430.97208833694 0 393430.97208833694 -6700636.8690695465 0 0 0 -6317983.5167590678 -22598203.299163841 2211333.1560114324 0 2211333.1560114324 -7784276.0931341648 0 0 0 -7595619.8480744958 -20036525.636122644 5179613.2095039934 0 5179613.2095039934 -7165820.5684895078 0 0 0 -6800586.5511530489 -22787627.031893522 3449666.0154066607 0 3449666.0154066607 -10347145.971136808 0 0 0 -8283693.250757575 -16658868.913017377 3493947.1335255876 0 3493947.1335255876 -7841407.2353326678 0 0 0 -6125069.0370875001 -13998034.341613296 5194484.0734656453 0 5194484.0734656453 -4685505.0317947976 0 0 0 -4670884.8433520095 -35962838.063290671 326116.48061712086 0 326116.48061712086 -10874251.508146912 0 0 0 -11709272.392859384 -28979463.280095667 1901728.1935609877 0 1901728.1935609877 -11329318.832245946 0 0 0 -10077195.528085411 -26471114.106227323 89454.745425082743 0 89454.745425082743 -10433391.908485293 0 0 0 -9226126.5036781728 -25310827.589597195 4286146.3282912523 0 4286146.3282912523 -9131074.8333068825 0 0 0 -8610475.6057260036 -27699813.55720704 1760279.8089983314 0 1760279.8089983314 -11786379.968912408 0 0 0 -9871548.3815298527 -23871742.095056333 2650237.5674877428 0 2650237.5674877428 -11957972.649370849 0 0 0 -8957428.6861068159 -31013902.470922701 2178862.8933243081 0 2178862.8933243081 -11172974.017748967 0 0 0 -10546719.122167915 -24408124.246776193 4815514.930981664 0 4815514.930981664 -11360164.443652749 0 0 0 -8942072.1726072431 -20672427.03403572 5208300.5015733242 0 5208300.5015733242 -12116167.496349514 0 0 0 -8197148.6325963214 -25397412.583458718 2756426.2552177235 0 2756426.2552177235 -11912959.32738325 0 0 0 -9327592.9777104817 -18877646.002802067 6183140.7746472359 0 6183140.7746472359 -9132508.3154627793 0 0 0 -7002538.579566204 -14148584.685101472 3624267.6701518521 0 3624267.6701518521 -10732243.300665826 0 0 0 -6220206.9964418262 -21374880.221362181 5974175.6984511316 0 5974175.6984511316 -10031236.504889129 0 0 0 -7851529.1815628204 -19988216.393366635 5617529.2161974311 0 5617529.2161974311 -11714424.660528153 0 0 0 -7925660.2634736896 -20388034.143800113 6135097.6320355833 0 6135097.6320355833 -11486192.790458702 0 0 0 -7968556.7335646935 -20353727.477815613 6540319.962234199 0 6540319.962234199 -12337801.085548818 0 0 0 -8172882.1408411115 -20133064.011194851 4092623.7300122827 0 4092623.7300122827 -12731051.498110756 0 0 0 -8216028.8773264103 -19611809.717014387 4244306.8600944206 0 4244306.8600944206 -12529044.972727463 0 0 0 -8035213.672435455 -14348846.815323614 12851400.317220356 0 12851400.317220356 -849943.36963245273 0 0 0 -3799697.5462390184 12441.688047077791 1379.5003968352667 0 1379.5003968352667 -760.40253703075177 0 0 0 2920.3213775117592 -19325350.589444034 6160066.3739640266 0 6160066.3739640266 -12912972.752334639 0 0 0 -8059580.835444659 13913.248003722607 1542.8615816287611 0 1542.8615816287611 -1001.8401985244509 0 0 0 3227.8519512995385 -15264981.989741871 10331191.225087985 0 10331191.225087985 -2846200.628664583 0 0 0 -4527795.6546016093 -16615826.173825925 10553799.960155465 0 10553799.960155465 -1777187.6345327944 0 0 0 -4598253.4520896859 -14636744.618573111 12405831.118765991 0 12405831.118765991 -2465332.9407898858 0 0 0 -4275519.3898407444 -17084049.291306656 12181168.261496857 0 12181168.261496857 -2015775.2581825256 0 0 0 -4774956.1373722889 -19380596.61484094 2903090.6087655425 0 2903090.6087655425 -11361594.585694419 0 0 0 -7685547.8001338253 -21670938.970296696 2353002.7383347154 0 2353002.7383347154 -12173223.45371145 0 0 0 -8461040.6060020477 -21248335.783485584 5005019.5624206811 0 5005019.5624206811 -12457003.721360222 0 0 0 -8426334.8762114495 -18315377.32334289 4364278.5113833398 0 4364278.5113833398 -11383053.104492456 0 0 0 -7424607.6069588363 -15137468.332215006 9387847.5082039218 0 9387847.5082039218 -4593977.6745046824 0 0 0 -4932861.5016799197 -15681016.149979794 10394885.325393574 0 10394885.325393574 -3083663.86406615 0 0 0 -4691170.0035114828 15048.41257976801 1702.5488263091243 0 1702.5488263091243 -1096.5319632585288 0 0 0 3487.9701541273707 -20317059.361417636 4459142.0239248499 0 4459142.0239248499 -11181348.757432312 0 0 0 -7874602.0297124907 -18461991.731643096 2751570.1257332861 0 2751570.1257332861 -12886281.400987431 0 0 0 -7837068.2831576392 -13907831.123665351 5149948.9834644292 0 5149948.9834644292 -2055842.2571447007 0 0 0 -3990918.345202513 15757.812114114402 1918.6081743659292 0 1918.6081743659292 -1361.7970606005665 0 0 0 3599.0037633784596 -7400155.9535573423 5068393.1469905181 0 5068393.1469905181 -1525442.7303677145 0 0 0 -2231399.6709812619 -9654666.475512214 5023393.7369838227 0 5023393.7369838227 -1323873.5431569107 0 0 0 -2744635.0046672812 -11320515.695545001 8927477.4929072708 0 8927477.4929072708 -1670024.6745750988 0 0 0 -3247635.0925300252 -14706505.251074567 9573021.4751388486 0 9573021.4751388486 -1600452.5205957368 0 0 0 -4076739.4429175779 -13895647.25539024 9234205.4121342953 0 9234205.4121342953 -4628181.1186618265 0 0 0 -4630957.0935130166 -9583351.6332712453 6721483.2912285067 0 6721483.2912285067 729717.66119713709 0 0 0 -2213408.493018527 -7357059.2934414912 7319541.5617446527 0 7319541.5617446527 -2449719.2622498223 0 0 0 -2451694.6389228282 4530713.7875977829 3699895.9518302451 0 3699895.9518302451 892440.79449035972 0 0 0 1355788.6455220357 -15203037.080957122 11315803.800700359 0 11315803.800700359 -3450094.3588078544 0 0 0 -4663282.8599412479 -15268961.494373016 11185979.916190211 0 11185979.916190211 -3024446.825297758 0 0 0 -4573352.0799176926 -14394079.846596647 10832148.910232019 0 10832148.910232019 -2836119.5054195123 0 0 0 -4307549.8380040321 -13743811.464269344 9365563.8292460535 0 9365563.8292460535 -2611291.7971857619 0 0 0 -4088775.8153637764 -15083581.528831247 10148632.319722652 0 10148632.319722652 -5028156.2166044973 0 0 0 -5027934.4363589352 -16337073.051730802 10319137.275145344 0 10319137.275145344 -5445453.9822872775 0 0 0 -5445631.7585045211 -15523875.618074307 9891245.5536210127 0 9891245.5536210127 -4806484.6194844283 0 0 0 -5082590.0593896843 -15146760.920750055 11457759.12638369 0 11457759.12638369 -4572157.5381963998 0 0 0 -4929729.614736612 -16416642.024532836 11018268.588711815 0 11018268.588711815 -3774716.2461514026 0 0 0 -5047839.5676710568 -21573535.058464747 8668930.8408721685 0 8668930.8408721685 -3471954.4089860395 0 0 0 -6261372.3668626975 -16644293.102198167 10953469.937757161 0 10953469.937757161 -5781880.0913546178 0 0 0 -5606543.2983881962 -21423281.862110943 10297326.644019533 0 10297326.644019533 -7146950.3236021744 0 0 0 -7142558.0464282781 -18867136.399836585 8838931.4763714932 0 8838931.4763714932 -6348617.7551022153 0 0 0 -6303938.5387346996 -26360125.654225606 7671237.4104457572 0 7671237.4104457572 -6725117.0038405284 0 0 0 -8271310.6645165347 -45797791.285474487 7991714.8429723522 0 7991714.8429723522 -5421698.0884633362 0 0 0 -12804872.343484456 -30930870.066724151 11069534.509171259 0 11069534.509171259 -10290091.536323158 0 0 0 -10305240.400761826 -27627866.794297785 4388448.3189813867 0 4388448.3189813867 1028023.2714812942 0 0 0 -6649960.8807041217 -25147101.470184702 10538437.042179724 0 10538437.042179724 -5425692.7430019751 0 0 0 -7643198.5532966647 -20722776.065894257 2853091.024767071 0 2853091.024767071 -693.32908626645803 0 0 0 -5180867.3487451337 -28349505.056807298 3351143.3186862841 0 3351143.3186862841 -896203.82734987885 0 0 0 -7311427.2210392989 -21073291.285203058 3132799.3450803831 0 3132799.3450803831 458646.99836306274 0 0 0 -5153661.071709998 -21997353.473610625 7447346.3677954935 0 7447346.3677954935 -816673.12281905115 0 0 0 -5703506.6491074264 -15660753.106581282 6399813.8222704157 0 6399813.8222704157 985479.96076063067 0 0 0 -3668818.2864551581 -15683137.952653911 9494002.8149281293 0 9494002.8149281293 -152588.93373307586 0 0 0 -3958931.7215967402 -10911822.247338794 7640385.7329864427 0 7640385.7329864427 3092456.7730241269 0 0 0 -1954841.368578665 -11191492.974914961 13035126.252583437 0 13035126.252583437 3108121.8915466517 0 0 0 -2020842.7708420828 -14115609.89454814 10941279.754786078 0 10941279.754786078 -492402.20403586328 0 0 0 -3652003.0246460065 -15263667.843774613 11273817.65314864 0 11273817.65314864 -3615417.3315774724 0 0 0 -4719771.2938380204 -14036293.886037176 12121819.28047815 0 12121819.28047815 -2196559.2976731062 0 0 0 -4058213.2959275674 -16836836.07078084 8581377.0342200976 0 8581377.0342200976 -1890318.4768897071 0 0 0 -4681788.6369176377 -16078689.117400872 8242171.116348505 0 8242171.116348505 -1433657.7823862992 0 0 0 -4378086.7249467988 
</DataArray>
<DataArray type="Float64" Name="cross_section_updated" format="ascii">
1 1 1 1 1 1 1 1 1 1 1 0.010000001010704643 1 1 0.010000000542565907 1 1 1 1 1 0.0078550252376951464 1 1 0.0099999987763952983 1 0.0099999998274389896 1 1 1 1 0.0076200186607145032 1 1 1 1 0.0081251314170937908 1 1 0.010950795071552291 1 1 1 1 1 1 1 1 1 1 1 1 1 1 1 1 1 1 1 1 1 1 1 1 1 1 1 1 0.008221685294095147 1 0.0090851114333383165 1 1 1 1 1 1 1 1 1 1 0.0097117680699850516 1 1 1 0.0099999999703752722 1 1 1 1 1 1 1 1 1 1 1 1 1 1 1 1 1 1 1 1 1 1 1 1 1 1 1 1 1 1 1 1 1 1 1 1 1 1 1 
</DataArray>
<DataArray type="Float64" Name="normal_displacement_jump" format="ascii">
0 0 0 0 0 0 0 0 0 0 0 0.0090000010107046426 0 0 0.0090000005425659065 0 0 0 0 0 0.0068550252376951455 0 0 0.0089999987763952991 0 0.0089999998274389887 0 0 0 0 0.0066200186607145023 0 0 0 0 0.0071251314170937899 0 0 0.0099507950715522903 0 0 0 0 0 0 0 0 0 0 0 0 0 0 0 0 0 0 0 0 0 0 0 0 0 0 0 0 0.0072216852940951469 0 0.0080851114333383173 0 0 0 0 0 0 0 0 0 0 0.0087117680699850507 0 0 0 0.0089999999703752713 0 0 0 0 0 0 0 0 0 0 0 0 0 0 0 0 0 0 0 0 0 0 0 0 0 0 0 0 0 0 0 0 0 0 0 0 0 0 0 
</DataArray>
<DataArray type="Float64" Name="tangential_displacement_jump" format="ascii">
0 0 0 0 0 0 0 0 0 0 0 0.022111455065894216 0 0 0.023088978417452086 0 0 0 0 0 0.014861368593830311 0 0 0.028576358380906799 0 0.025555588080836612 0 0 0 0 0.014809282597571924 0 0 0 0 0.012971295966483007 0 0 0.008850930114533381 0 0 0 0 0 0 0 0 0 0 0 0 0 0 0 0 0 0 0 0 0 0 0 0 0 0 0 0 0.015278301161817411 0 0.017247982252844084 0 0 0 0 0 0 0 0 0 0 0.018716382885018392 0 0 0 0.020022628769513821 0 0 0 0 0 0 0 0 0 0 0 0 0 0 0 0 0 0 0 0 0 0 0 0 0 0 0 0 0 0 0 0 0 0 0 0 0 0 0 
</DataArray>
</CellData>
</Piece>
</UnstructuredGrid>
</VTKFile>
