<?xml version="1.0"?>
<VTKFile type="UnstructuredGrid" version="0.1" byte_order="LittleEndian">
<UnstructuredGrid>
<Piece NumberOfPoints="360" NumberOfCells="124">
<Points>
<DataArray type="Float64" NumberOfComponents="3" format="ascii">
0 0 0 0.084352422163911631 0.086451712656266194 0 0 0.12500000000034689 0 0 0 0 0.084352422163911631 0.086451712656266194 0 0.1249999999997554 0 0 0 0.12500000000034689 0 0.1008171452988615 0.18885703697250469 0 0 0.25 0 0.084352422163911631 0.086451712656266194 0 0 0.12500000000034689 0 0.1008171452988615 0.18885703697250469 0 0.084352422163911631 0.086451712656266194 0 0.1008171452988615 0.18885703697250469 0 0.18402761812864499 0.1117324051466445 0 0.1008171452988615 0.18885703697250469 0 0.2403886547178353 0.24188814792673841 0 0.1249999999997599 0.31249999999987998 0 0.1008171452988615 0.18885703697250469 0 0.2403886547178353 0.24188814792673841 0 0.18402761812864499 0.1117324051466445 0 0.2403886547178353 0.24188814792673841 0 0.18402761812864499 0.1117324051466445 0 0.31250000000020822 0.12500000000041631 0 0.1249999999997554 0 0 0.18402761812864499 0.1117324051466445 0 0.25 -0 0 0.18402761812864499 0.1117324051466445 0 0.25 -0 0 0.31250000000020822 0.12500000000041631 0 0.084352422163911631 0.086451712656266194 0 0.1249999999997554 0 0 0.18402761812864499 0.1117324051466445 0 0.25 -0 0 0.31250000000020822 0.12500000000041631 0 0.25 -0 0 0.31250000000020822 0.12500000000041631 0 0.43749999999913258 0 0 0.2403886547178353 0.24188814792673841 0 0.31250000000020822 0.12500000000041631 0 0.37500000000027761 0.25000000000055511 0 0.31250000000020822 0.12500000000041631 0 0.37500000000027761 0.25000000000055511 0 0.31250000000020822 0.12500000000041631 0 0.4287911518546233 0.15455445427966699 0 0.37500000000027761 0.25000000000055511 0 0.4287911518546233 0.15455445427966699 0 0.49457493289300231 0.26251703776555491 0 0.37500000000027761 0.25000000000055511 0 0.4287911518546233 0.15455445427966699 0 0.49457493289300231 0.26251703776555491 0 0.54475767668582953 0.1431838882066932 0 0.31250000000020822 0.12500000000041631 0 0.4287911518546233 0.15455445427966699 0 0.43749999999913258 0 0 0.4287911518546233 0.15455445427966699 0 0.43749999999913258 0 0 0.54475767668582953 0.1431838882066932 0 0.37499999999973488 0.43749999999986738 0 0.5 0.5 -0 0.43750000000006939 0.37500000000013878 0 0.37499999999973488 0.43749999999986738 0 0.5 0.5 -0 0.43750000000006939 0.37500000000013878 0 0.33819444444448321 0.33819444444456342 0 0.37499999999973488 0.43749999999986738 0 0.43750000000006939 0.37500000000013878 0 0.5 0.5 -0 0.43750000000006939 0.37500000000013878 0 0.49457493289300231 0.26251703776555491 0 0.37500000000027761 0.25000000000055511 0 0.43750000000006939 0.37500000000013878 0 0.37500000000027761 0.25000000000055511 0 0.43750000000006939 0.37500000000013878 0 0.37500000000027761 0.25000000000055511 0 0.33819444444448321 0.33819444444456342 0 0.2403886547178353 0.24188814792673841 0 0.33819444444448321 0.33819444444456342 0 0.24999999999960859 0.37499999999980432 0 0.2403886547178353 0.24188814792673841 0 0.37500000000027761 0.25000000000055511 0 0.33819444444448321 0.33819444444456342 0 0.33819444444448321 0.33819444444456342 0 0.37499999999973488 0.43749999999986738 0 0.24999999999960859 0.37499999999980432 0 0.37499999999973488 0.43749999999986738 0 0.24999999999960859 0.37499999999980432 0 0.37499999999973488 0.43749999999986738 0 0.24999999999960859 0.37499999999980432 0 0.26452443700674649 0.51563531581639865 0 0.14929124186975251 0.44582793568106382 0 0.24999999999960859 0.37499999999980432 0 0.26452443700674649 0.51563531581639865 0 0.14929124186975251 0.44582793568106382 0 0.24999999999960859 0.37499999999980432 0 0.1249999999997599 0.31249999999987998 0 0.2403886547178353 0.24188814792673841 0 0.24999999999960859 0.37499999999980432 0 0.1249999999997599 0.31249999999987998 0 0.24999999999960859 0.37499999999980432 0 0.1249999999997599 0.31249999999987998 0 0.1249999999997599 0.31249999999987998 0 0 0.25 0 0 0.43750000000034689 0 0.1008171452988615 0.18885703697250469 0 0.1249999999997599 0.31249999999987998 0 0 0.25 0 0.1249999999997599 0.31249999999987998 0 0 0.25 0 0.14929124186975251 0.44582793568106382 0 0 0.43750000000034689 0 0.13928587515912139 0.57339806105677438 0 0.14929124186975251 0.44582793568106382 0 0.1249999999997599 0.31249999999987998 0 0 0.43750000000034689 0 0 0.43750000000034689 0 0 0.62500000000069389 0 0.13928587515912139 0.57339806105677438 0 0 0.62500000000069389 0 0.13900789599611679 0.72618316107059999 0 0.13928587515912139 0.57339806105677438 0 0 0.62500000000069389 0 0.13900789599611679 0.72618316107059999 0 0 0.81250000000104083 0 0.13900789599611679 0.72618316107059999 0 0.13928587515912139 0.57339806105677438 0 0.27589467050686478 0.66058853156435704 0 0.13900789599611679 0.72618316107059999 0 0.27987960212930818 0.83442741470570525 0 0.27589467050686478 0.66058853156435704 0 0.13928587515912139 0.57339806105677438 0 0.26452443700674649 0.51563531581639865 0 0.27589467050686478 0.66058853156435704 0 0.14929124186975251 0.44582793568106382 0 0.13928587515912139 0.57339806105677438 0 0.26452443700674649 0.51563531581639865 0 0 1 0 0.12710107136012311 0.87094806618203435 0 0.1875000000005205 1 0 0 1 0 0 0.81250000000104083 0 0.12710107136012311 0.87094806618203435 0 0.13900789599611679 0.72618316107059999 0 0 0.81250000000104083 0 0.12710107136012311 0.87094806618203435 0 0.13900789599611679 0.72618316107059999 0 0.12710107136012311 0.87094806618203435 0 0.27987960212930818 0.83442741470570525 0 0.12710107136012311 0.87094806618203435 0 0.1875000000005205 1 0 0.27987960212930818 0.83442741470570525 0 0.27987960212930818 0.83442741470570525 0 0.44927105396715372 0.85565124085155886 0 0.37500000000069389 1 0 0.1875000000005205 1 0 0.27987960212930818 0.83442741470570525 0 0.37500000000069389 1 0 0.27987960212930818 0.83442741470570525 0 0.44927105396715372 0.85565124085155886 0 0.38136204680495073 0.74038592213831234 0 0.44927105396715372 0.85565124085155886 0 0.38136204680495073 0.74038592213831234 0 0.50145856933078625 0.73674663046504862 0 0.44927105396715372 0.85565124085155886 0 0.37500000000069389 1 0 0.56250000000086742 1 0 0.26452443700674649 0.51563531581639865 0 0.27589467050686478 0.66058853156435704 0 0.4139414069912184 0.60563252640100373 0 0.37499999999973488 0.43749999999986738 0 0.26452443700674649 0.51563531581639865 0 0.4139414069912184 0.60563252640100373 0 0.27987960212930818 0.83442741470570525 0 0.27589467050686478 0.66058853156435704 0 0.38136204680495073 0.74038592213831234 0 0.27589467050686478 0.66058853156435704 0 0.38136204680495073 0.74038592213831234 0 0.4139414069912184 0.60563252640100373 0 0.38136204680495073 0.74038592213831234 0 0.4139414069912184 0.60563252640100373 0 0.50145856933078625 0.73674663046504862 0 0.4139414069912184 0.60563252640100373 0 0.50145856933078625 0.73674663046504862 0 0.5625 0.625 0 0.37499999999973488 0.43749999999986738 0 0.4139414069912184 0.60563252640100373 0 0.5 0.5 -0 0.4139414069912184 0.60563252640100373 0 0.5 0.5 -0 0.5625 0.625 0 0.5 0.5 -0 0.5625 0.625 0 0.63236534182377013 0.50296756406332266 0 0.5 0.5 -0 0.5625 0.625 0 0.50145856933078625 0.73674663046504862 0 0.5625 0.625 0 0.625 0.75 0 0.5625 0.625 0 0.625 0.75 0 0.71259747807844409 0.63846691315701831 0 0.625 0.75 0 0.73857795170433571 0.77736788564284653 0 0.5625 0.625 0 0.71259747807844409 0.63846691315701831 0 0.625 0.75 0 0.71259747807844409 0.63846691315701831 0 0.63236534182377013 0.50296756406332266 0 0.75338430262320943 0.49294443423175599 0 0.5625 0.625 0 0.71259747807844409 0.63846691315701831 0 0.63236534182377013 0.50296756406332266 0 0.56250000000086742 1 0 0.56777512057187585 0.8470224641095303 0 0.6875 0.875 0 0.44927105396715372 0.85565124085155886 0 0.56250000000086742 1 0 0.56777512057187585 0.8470224641095303 0 0.44927105396715372 0.85565124085155886 0 0.50145856933078625 0.73674663046504862 0 0.56777512057187585 0.8470224641095303 0 0.50145856933078625 0.73674663046504862 0 0.56777512057187585 0.8470224641095303 0 0.625 0.75 0 0.625 0.75 0 0.73857795170433571 0.77736788564284653 0 0.6875 0.875 0 0.73857795170433571 0.77736788564284653 0 0.6875 0.875 0 0.80552984491000901 0.88711122872127413 0 0.625 0.75 0 0.6875 0.875 0 0.56777512057187585 0.8470224641095303 0 0.625 0.75 0 0.6875 0.875 0 0.56250000000086742 1 0 0.6875 0.875 0 0.75 1 0 0.6875 0.875 0 0.75 1 0 0.80552984491000901 0.88711122872127413 0 0.6875 0.875 0 0.75 1 0 0.75 1 0 0.80552984491000901 0.88711122872127413 0 0.875 1 0 0.80552984491000901 0.88711122872127413 0 0.90637953422180084 0.90208583328057301 0 0.875 1 0 0.80552984491000901 0.88711122872127413 0 0.85787927391517405 0.753532520882502 0 0.90637953422180084 0.90208583328057301 0 0.73857795170433571 0.77736788564284653 0 0.80552984491000901 0.88711122872127413 0 0.85787927391517405 0.753532520882502 0 0.85787927391517405 0.753532520882502 0 1 0.83333333333356463 0 1 0.66666666666736052 0 0.85787927391517405 0.753532520882502 0 1 0.83333333333356463 0 0.90637953422180084 0.90208583328057301 0 1 0.83333333333356463 0 0.90637953422180084 0.90208583328057301 0 1 1 0 0.90637953422180084 0.90208583328057301 0 1 1 0 0.875 1 0 0.71259747807844409 0.63846691315701831 0 0.86127466977819722 0.57948076978797636 0 0.75338430262320943 0.49294443423175599 0 0.71259747807844409 0.63846691315701831 0 0.85787927391517405 0.753532520882502 0 0.86127466977819722 0.57948076978797636 0 0.71259747807844409 0.63846691315701831 0 0.73857795170433571 0.77736788564284653 0 0.85787927391517405 0.753532520882502 0 0.85787927391517405 0.753532520882502 0 0.86127466977819722 0.57948076978797636 0 1 0.66666666666736052 0 0.86127466977819722 0.57948076978797636 0 1 0.66666666666736052 0 1 0.50000000000138767 0 1 0.50000000000138767 0 0.86569408477091048 0.40983673916766611 0 1 0.33333333333448978 0 0.86127466977819722 0.57948076978797636 0 1 0.50000000000138767 0 0.86569408477091048 0.40983673916766611 0 0.86127466977819722 0.57948076978797636 0 0.75338430262320943 0.49294443423175599 0 0.86569408477091048 0.40983673916766611 0 0.75338430262320943 0.49294443423175599 0 0.86569408477091048 0.40983673916766611 0 0.71826039492840632 0.34564020717216182 0 0.86087286690217635 0.25206523597959418 0 0.71508993406183785 0.15715956854777599 0 0.71826039492840632 0.34564020717216182 0 0.86569408477091048 0.40983673916766611 0 0.86087286690217635 0.25206523597959418 0 0.71826039492840632 0.34564020717216182 0 0.86087286690217635 0.25206523597959418 0 1 0.33333333333448978 0 1 0.16666666666736049 0 0.86569408477091048 0.40983673916766611 0 0.86087286690217635 0.25206523597959418 0 1 0.33333333333448978 0 0.86087286690217635 0.25206523597959418 0 1 0.16666666666736049 0 0.87698901648812122 0.1160638338657984 0 1 0 0 0.87698901648812122 0.1160638338657984 0 0.81249999999947953 0 0 1 0.16666666666736049 0 1 0 0 0.87698901648812122 0.1160638338657984 0 0.87698901648812122 0.1160638338657984 0 0.81249999999947953 0 0 0.71508993406183785 0.15715956854777599 0 0.86087286690217635 0.25206523597959418 0 0.87698901648812122 0.1160638338657984 0 0.71508993406183785 0.15715956854777599 0 0.71508993406183785 0.15715956854777599 0 0.62499999999895905 0 0 0.54475767668582953 0.1431838882066932 0 0.81249999999947953 0 0 0.71508993406183785 0.15715956854777599 0 0.62499999999895905 0 0 0.43749999999913258 0 0 0.62499999999895905 0 0 0.54475767668582953 0.1431838882066932 0 0.71508993406183785 0.15715956854777599 0 0.54475767668582953 0.1431838882066932 0 0.61108462585082757 0.25750599582343231 0 0.49457493289300231 0.26251703776555491 0 0.54475767668582953 0.1431838882066932 0 0.61108462585082757 0.25750599582343231 0 0.49457493289300231 0.26251703776555491 0 0.61108462585082757 0.25750599582343231 0 0.56986707178436635 0.37762093650871992 0 0.43750000000006939 0.37500000000013878 0 0.49457493289300231 0.26251703776555491 0 0.56986707178436635 0.37762093650871992 0 0.43750000000006939 0.37500000000013878 0 0.5 0.5 -0 0.56986707178436635 0.37762093650871992 0 0.5 0.5 -0 0.63236534182377013 0.50296756406332266 0 0.56986707178436635 0.37762093650871992 0 0.63236534182377013 0.50296756406332266 0 0.75338430262320943 0.49294443423175599 0 0.71826039492840632 0.34564020717216182 0 0.63236534182377013 0.50296756406332266 0 0.56986707178436635 0.37762093650871992 0 0.71826039492840632 0.34564020717216182 0 0.71508993406183785 0.15715956854777599 0 0.61108462585082757 0.25750599582343231 0 0.71826039492840632 0.34564020717216182 0 0.61108462585082757 0.25750599582343231 0 0.56986707178436635 0.37762093650871992 0 0.71826039492840632 0.34564020717216182 0 
</DataArray>
</Points>
<Cells>
<DataArray type="UInt32" Name="connectivity" format="ascii">
0 1 2 3 4 5 6 7 8 9 10 11 12 13 14 15 16 17 18 19 20 21 22 23 24 25 26 27 28 29 30 31 32 33 34 35 36 37 38 39 40 41 42 43 44 45 46 47 48 49 50 51 52 53 54 55 56 57 58 59 60 61 62 63 64 65 66 67 68 69 70 71 72 73 74 75 76 77 78 79 80 81 82 83 84 85 86 87 88 89 90 91 92 93 94 95 96 97 98 99 100 101 102 103 104 105 106 107 108 109 110 111 112 113 114 115 116 117 118 119 120 121 122 123 124 125 126 127 128 129 130 131 132 133 134 135 136 137 138 139 140 141 142 143 144 145 146 147 148 149 150 151 152 153 154 155 156 157 158 159 160 161 162 163 164 165 166 167 168 169 170 171 172 173 174 175 176 177 178 179 180 181 182 183 184 185 186 187 188 189 190 191 192 193 194 195 196 197 198 199 200 201 202 203 204 205 206 207 208 209 210 211 212 213 214 215 216 217 218 219 220 221 222 223 224 225 226 227 228 229 230 231 232 233 234 235 236 237 238 239 240 241 242 243 244 245 246 247 248 249 250 251 252 253 254 255 256 257 258 259 260 261 262 263 264 265 266 267 268 269 270 271 272 273 274 275 276 277 278 279 280 281 282 283 284 285 286 287 288 289 290 291 292 293 294 295 296 297 298 299 300 301 302 303 304 305 306 307 308 309 310 311 312 313 314 315 316 317 318 319 320 321 322 323 324 325 326 327 328 329 330 331 332 333 334 335 336 337 338 339 340 341 342 343 344 345 346 347 348 349 350 351 352 353 354 355 356 357 358 359 
</DataArray>
<DataArray type="UInt32" Name="offsets" format="ascii">
3 6 9 12 15 18 21 24 27 30 33 35 38 41 43 46 49 52 55 58 60 63 66 68 71 73 76 79 82 85 87 90 93 96 99 101 104 107 109 112 115 118 121 124 127 130 133 136 139 142 145 148 151 154 157 160 163 166 169 172 175 178 181 184 187 190 193 195 198 200 203 206 209 212 215 218 221 224 227 230 232 235 238 241 243 246 249 252 255 258 261 264 267 270 273 276 279 282 285 288 291 294 297 300 303 306 309 312 315 318 321 324 327 330 333 336 339 342 345 348 351 354 357 360 
</DataArray>
<DataArray type="UInt32" Name="types" format="ascii">
5 5 5 5 5 5 5 5 5 5 5 3 5 5 3 5 5 5 5 5 3 5 5 3 5 3 5 5 5 5 3 5 5 5 5 3 5 5 3 5 5 5 5 5 5 5 5 5 5 5 5 5 5 5 5 5 5 5 5 5 5 5 5 5 5 5 5 3 5 3 5 5 5 5 5 5 5 5 5 5 3 5 5 5 3 5 5 5 5 5 5 5 5 5 5 5 5 5 5 5 5 5 5 5 5 5 5 5 5 5 5 5 5 5 5 5 5 5 5 5 5 5 5 5 
</DataArray>
</Cells>
<PointData Scalars="" Vectors="displacement," Tensors="">
<DataArray type="Float64" Name="displacement" NumberOfComponents="3" format="ascii">
5.5925390221274423e-09 -0.0097634904591358904 0 -8.1739518014155291e-05 -0.0096608355502208147 0 -2.2270347830967894e-09 -0.0097387902902859383 0 5.5925390221274423e-09 -0.0097634904591358904 0 -8.1739518014155291e-05 -0.0096608355502208147 0 6.2346069697263398e-05 -0.0095766469923839349 0 -2.2270347830967894e-09 -0.0097387902902859383 0 -0.00027098352723226748 -0.009597320960764032 0 -1.1058661149431234e-07 -0.0096886119947082096 0 -8.1739518014155291e-05 -0.0096608355502208147 0 -2.2270347830967894e-09 -0.0097387902902859383 0 -0.00027098352723226748 -0.009597320960764032 0 -8.1739518014155291e-05 -0.0096608355502208147 0 -0.00027098352723226748 -0.009597320960764032 0 -0.00025421372467381736 -0.0093759600465866243 0 -0.00027098352723226748 -0.009597320960764032 0 -0.00082718484909944788 -0.0091006237916437509 0 -0.00084726376542529683 -0.0094083268565582686 0 -0.00027098352723226748 -0.009597320960764032 0 -0.00082718484909944788 -0.0091006237916437509 0 -0.00025421372467381736 -0.0093759600465866243 0 -0.00082718484909944788 -0.0091006237916437509 0 -0.00025421372467381736 -0.0093759600465866243 0 -0.00047844059984750007 -0.0087728394412624148 0 6.2346069697263398e-05 -0.0095766469923839349 0 -0.00025421372467381736 -0.0093759600465866243 0 3.1284098085843573e-05 -0.0091157832624044512 0 -0.00025421372467381736 -0.0093759600465866243 0 3.1284098085843573e-05 -0.0091157832624044512 0 -0.00047844059984750007 -0.0087728394412624148 0 -8.1739518014155291e-05 -0.0096608355502208147 0 6.2346069697263398e-05 -0.0095766469923839349 0 -0.00025421372467381736 -0.0093759600465866243 0 0.0013527752418798446 -0.0066038949008748703 0 0.00076259614874943154 -0.0061722637144604577 0 0.0026586174935373597 -0.0040572332461148008 0 0.0019984159396461434 -0.0036230402862665271 0 0.0023579261892156147 -0.0029911770922892203 0 -0.00082718484909944788 -0.0091006237916437509 0 -0.00047844059984750007 -0.0087728394412624148 0 -0.0011389477391498763 -0.00844809134600321 0 0.00076259614874943154 -0.0061722637144604577 0 0.00021080125411393821 -0.0058963861509122775 0 0.0019984159396461434 -0.0036230402862665271 0 0.0017142869213800781 -0.0029448607289187826 0 0.0015963150444936133 -0.0031736057519995784 0 0.0017142869213800781 -0.0029448607289187826 0 0.0012855404804355921 -0.0024628823494314269 0 0.0015963150444936133 -0.0031736057519995784 0 0.0017142869213800781 -0.0029448607289187826 0 0.0012855404804355921 -0.0024628823494314269 0 0.0014944165452913352 -0.0023123132617951471 0 0.0019984159396461434 -0.0036230402862665271 0 0.0017142869213800781 -0.0029448607289187826 0 0.0023579261892156147 -0.0029911770922892203 0 0.0017142869213800781 -0.0029448607289187826 0 0.0023579261892156147 -0.0029911770922892203 0 0.0014944165452913352 -0.0023123132617951471 0 -0.0014045655492143463 -0.0087188484234776188 0 -0.00061463765195443371 -0.006352895016276114 0 -0.0015709025210692994 -0.0082755791933285354 0 -0.0017143325914518097 -0.0085985078481401658 0 -0.0019474174134676793 -0.0080416102711310129 0 -0.0015709025210692994 -0.0082755791933285354 0 -0.0013374912573825678 -0.0086757489095910575 0 -0.0017143325914518097 -0.0085985078481401658 0 -0.00013356077253765889 -0.0051265463388768043 0 -0.00061463765195443371 -0.006352895016276114 0 0.001163983917928962 -0.0026097602123090796 0 0.0012855404804355921 -0.0024628823494314269 0 0.0015963150444936133 -0.0031736057519995784 0 -0.00013356077253765889 -0.0051265463388768043 0 0.00021080125411393821 -0.0058963861509122775 0 -0.0015709025210692994 -0.0082755791933285354 0 -0.0011389477391498763 -0.00844809134600321 0 -0.0013374912573825678 -0.0086757489095910575 0 -0.00082718484909944788 -0.0091006237916437509 0 -0.0013374912573825678 -0.0086757489095910575 0 -0.0013371647693181006 -0.0091157384739236121 0 -0.00082718484909944788 -0.0091006237916437509 0 -0.0011389477391498763 -0.00844809134600321 0 -0.0013374912573825678 -0.0086757489095910575 0 -0.0013374912573825678 -0.0086757489095910575 0 -0.0017143325914518097 -0.0085985078481401658 0 -0.0013371647693181006 -0.0091157384739236121 0 -0.0014045655492143463 -0.0087188484234776188 0 -0.00070248891107677026 -0.0087088835891665235 0 -0.00057652239520540138 -0.0080715532215626211 0 -0.0002077381167702706 -0.0085090953438395536 0 -0.00058030970764558849 -0.0085540789559912494 0 -0.00024653897362143237 -0.0089123219946368286 0 -0.0002077381167702706 -0.0085090953438395536 0 -0.00058030970764558849 -0.0085540789559912494 0 -0.00024653897362143237 -0.0089123219946368286 0 -0.0002077381167702706 -0.0085090953438395536 0 1.6511947929224663e-05 -0.0090183534517405094 0 -0.00082718484909944788 -0.0091006237916437509 0 -0.0013371647693181006 -0.0091157384739236121 0 -0.00084726376542529683 -0.0094083268565582686 0 -0.00070248891107677026 -0.0087088835891665235 0 -0.00043646042192318948 -0.0092432373906046056 0 1.6511947929224663e-05 -0.0090183534517405094 0 1.8629490778671279e-08 -0.0090851500294389393 0 -2.729181423026518e-08 -0.0091350185464740032 0 -0.00027098352723226748 -0.009597320960764032 0 -0.00084726376542529683 -0.0094083268565582686 0 -1.1058661149431234e-07 -0.0096886119947082096 0 -0.00043646042192318948 -0.0092432373906046056 0 1.1177587359249266e-05 -0.0093703702691327415 0 -0.00024653897362143237 -0.0089123219946368286 0 -2.729181423026518e-08 -0.0091350185464740032 0 -0.00035984102705429258 -0.0089334494077608004 0 -0.00024653897362143237 -0.0089123219946368286 0 1.6511947929224663e-05 -0.0090183534517405094 0 -2.729181423026518e-08 -0.0091350185464740032 0 -2.729181423026518e-08 -0.0091350185464740032 0 -5.6037891431825685e-08 -0.0090599050392105532 0 -0.00035984102705429258 -0.0089334494077608004 0 -5.6037891431825685e-08 -0.0090599050392105532 0 -0.00047235001840775412 -0.0089257573521319584 0 -0.00035984102705429258 -0.0089334494077608004 0 -5.6037891431825685e-08 -0.0090599050392105532 0 -0.00047235001840775412 -0.0089257573521319584 0 -6.7997610305126506e-08 -0.0090464236469203711 0 -0.00047235001840775412 -0.0089257573521319584 0 -0.00035984102705429258 -0.0089334494077608004 0 -0.00085054996227315236 -0.008540466046209361 0 -0.00047235001840775412 -0.0089257573521319584 0 -0.0010524997100072671 -0.008589884828320956 0 -0.00085054996227315236 -0.008540466046209361 0 -0.00035984102705429258 -0.0089334494077608004 0 -0.00058030970764558849 -0.0085540789559912494 0 -0.00085054996227315236 -0.008540466046209361 0 -0.00024653897362143237 -0.0089123219946368286 0 -0.00035984102705429258 -0.0089334494077608004 0 -0.00058030970764558849 -0.0085540789559912494 0 -1.0547386075809648e-07 -0.0090853438996424188 0 -0.00051941816160130103 -0.0089613519280884735 0 -0.00095861920306693563 -0.0088648701698799525 0 -1.0547386075809648e-07 -0.0090853438996424188 0 -6.7997610305126506e-08 -0.0090464236469203711 0 -0.00051941816160130103 -0.0089613519280884735 0 -0.00047235001840775412 -0.0089257573521319584 0 -6.7997610305126506e-08 -0.0090464236469203711 0 -0.00051941816160130103 -0.0089613519280884735 0 -0.00047235001840775412 -0.0089257573521319584 0 -0.00051941816160130103 -0.0089613519280884735 0 -0.0010524997100072671 -0.008589884828320956 0 -0.00051941816160130103 -0.0089613519280884735 0 -0.00095861920306693563 -0.0088648701698799525 0 -0.0010524997100072671 -0.008589884828320956 0 -0.0010524997100072671 -0.008589884828320956 0 -0.0016518276916635854 -0.007995484010139128 0 -0.0017690721082397767 -0.0083462185553718413 0 -0.00095861920306693563 -0.0088648701698799525 0 -0.0010524997100072671 -0.008589884828320956 0 -0.0017690721082397767 -0.0083462185553718413 0 -0.0010524997100072671 -0.008589884828320956 0 -0.0016518276916635854 -0.007995484010139128 0 -0.0012562693192726773 -0.0081833714617719367 0 -0.0016518276916635854 -0.007995484010139128 0 -0.0012562693192726773 -0.0081833714617719367 0 -0.0015829962751118102 -0.0076890931121724104 0 -0.0016518276916635854 -0.007995484010139128 0 -0.0017690721082397767 -0.0083462185553718413 0 -0.0024054170750410888 -0.0076497323620442325 0 -0.00058030970764558849 -0.0085540789559912494 0 -0.00085054996227315236 -0.008540466046209361 0 -0.0011878228103300175 -0.0079687957726369239 0 -0.00057652239520540138 -0.0080715532215626211 0 -0.00058030970764558849 -0.0085540789559912494 0 -0.0011878228103300175 -0.0079687957726369239 0 -0.0010524997100072671 -0.008589884828320956 0 -0.00085054996227315236 -0.008540466046209361 0 -0.0012562693192726773 -0.0081833714617719367 0 -0.00085054996227315236 -0.008540466046209361 0 -0.0012562693192726773 -0.0081833714617719367 0 -0.0011878228103300175 -0.0079687957726369239 0 -0.0012562693192726773 -0.0081833714617719367 0 -0.0011878228103300175 -0.0079687957726369239 0 -0.0015829962751118102 -0.0076890931121724104 0 -0.0011878228103300175 -0.0079687957726369239 0 -0.0015829962751118102 -0.0076890931121724104 0 -0.0016632334623496094 -0.0073399741847032648 0 -0.00057652239520540138 -0.0080715532215626211 0 -0.0011878228103300175 -0.0079687957726369239 0 -0.0012175515033809061 -0.0075274019332389778 0 -0.0011878228103300175 -0.0079687957726369239 0 -0.0012175515033809061 -0.0075274019332389778 0 -0.0016632334623496094 -0.0073399741847032648 0 0.0012389985824431012 -0.0023064030223730299 0 0.0011569320550916015 -0.0020075929005395443 0 0.0009003647767399488 -0.0017246625782576009 0 -0.00061463765195443371 -0.006352895016276114 0 -8.5216060680832882e-05 -0.0042892217112243522 0 -0.0015829962751118102 -0.0076890931121724104 0 -0.0016632334623496094 -0.0073399741847032648 0 -0.0018663962924455085 -0.0072499309635593347 0 -8.5216060680832882e-05 -0.0042892217112243522 0 -0.00057792028575934836 -0.0045304019485678257 0 0.00069203202344221852 -0.0012484638883081746 0 0.00080230608992436778 -0.0016045632446175366 0 0.00055527133213456169 -0.0010991973159287466 0 0.0011569320550916015 -0.0020075929005395443 0 0.00069203202344221852 -0.0012484638883081746 0 0.00080230608992436778 -0.0016045632446175366 0 0.00069203202344221852 -0.0012484638883081746 0 0.0009003647767399488 -0.0017246625782576009 0 0.0005926051627083628 -0.0011110482455363819 0 0.0011569320550916015 -0.0020075929005395443 0 0.00069203202344221852 -0.0012484638883081746 0 0.0009003647767399488 -0.0017246625782576009 0 -0.0024054170750410888 -0.0076497323620442325 0 -0.0019655680779071339 -0.0075347558930663984 0 -0.0023795873560081655 -0.0070341730901663513 0 -0.0016518276916635854 -0.007995484010139128 0 -0.0024054170750410888 -0.0076497323620442325 0 -0.0019655680779071339 -0.0075347558930663984 0 -0.0016518276916635854 -0.007995484010139128 0 -0.0015829962751118102 -0.0076890931121724104 0 -0.0019655680779071339 -0.0075347558930663984 0 -0.0015829962751118102 -0.0076890931121724104 0 -0.0019655680779071339 -0.0075347558930663984 0 -0.0018663962924455085 -0.0072499309635593347 0 0.00080230608992436778 -0.0016045632446175366 0 0.00055527133213456169 -0.0010991973159287466 0 0.00061941601470349322 -0.0013440843659503709 0 0.00055527133213456169 -0.0010991973159287466 0 0.00061941601470349322 -0.0013440843659503709 0 0.00030619996283012249 -0.00071152313677348949 0 -0.00057792028575934836 -0.0045304019485678257 0 -0.00086381597161467401 -0.004161258625791195 0 -0.0019655680779071339 -0.0075347558930663984 0 -0.0018663962924455085 -0.0072499309635593347 0 -0.0023795873560081655 -0.0070341730901663513 0 -0.0024054170750410888 -0.0076497323620442325 0 -0.0023795873560081655 -0.0070341730901663513 0 -0.0027965554897140554 -0.0069598030162371328 0 0.00061941601470349322 -0.0013440843659503709 0 5.285546404490467e-05 -0.00095309137206386386 0 0.00030619996283012249 -0.00071152313677348949 0 -0.00086381597161467401 -0.004161258625791195 0 -0.0013904373256063782 -0.0039651483101183138 0 5.285546404490467e-05 -0.00095309137206386386 0 0.00030619996283012249 -0.00071152313677348949 0 -7.3574384453462782e-05 -0.00037247071500130677 0 0.00030619996283012249 -0.00071152313677348949 0 0.00010879633513915257 -0.00027073164249303059 0 -7.3574384453462782e-05 -0.00037247071500130677 0 0.00030619996283012249 -0.00071152313677348949 0 0.00030121991427923601 -0.00053030478304976706 0 0.00010879633513915257 -0.00027073164249303059 0 0.00055527133213456169 -0.0010991973159287466 0 0.00030619996283012249 -0.00071152313677348949 0 0.00030121991427923601 -0.00053030478304976706 0 0.00030121991427923601 -0.00053030478304976706 0 3.4162288949424703e-08 -1.3048233768418882e-08 0 3.4739345925761693e-08 -2.2281706031788451e-08 0 0.00030121991427923601 -0.00053030478304976706 0 3.4162288949424703e-08 -1.3048233768418882e-08 0 0.00010879633513915257 -0.00027073164249303059 0 3.4162288949424703e-08 -1.3048233768418882e-08 0 0.00010879633513915257 -0.00027073164249303059 0 -2.8910142922972956e-08 -4.8960695893923519e-09 0 0.00010879633513915257 -0.00027073164249303059 0 -2.8910142922972956e-08 -4.8960695893923519e-09 0 -7.3574384453462782e-05 -0.00037247071500130677 0 0.00069203202344221852 -0.0012484638883081746 0 0.00032554386099810227 -0.0005807655682013613 0 0.0005926051627083628 -0.0011110482455363819 0 0.00069203202344221852 -0.0012484638883081746 0 0.00030121991427923601 -0.00053030478304976706 0 0.00032554386099810227 -0.0005807655682013613 0 0.00069203202344221852 -0.0012484638883081746 0 0.00055527133213456169 -0.0010991973159287466 0 0.00030121991427923601 -0.00053030478304976706 0 0.00030121991427923601 -0.00053030478304976706 0 0.00032554386099810227 -0.0005807655682013613 0 3.4739345925761693e-08 -2.2281706031788451e-08 0 0.00032554386099810227 -0.0005807655682013613 0 3.4739345925761693e-08 -2.2281706031788451e-08 0 3.7353226801946425e-08 -2.3712894138430788e-08 0 3.7353226801946425e-08 -2.3712894138430788e-08 0 0.00031818685357485558 -0.00058701529568237429 0 4.6512025632692773e-08 -2.4843144904389432e-08 0 0.00032554386099810227 -0.0005807655682013613 0 3.7353226801946425e-08 -2.3712894138430788e-08 0 0.00031818685357485558 -0.00058701529568237429 0 0.00032554386099810227 -0.0005807655682013613 0 0.0005926051627083628 -0.0011110482455363819 0 0.00031818685357485558 -0.00058701529568237429 0 0.0005926051627083628 -0.0011110482455363819 0 0.00031818685357485558 -0.00058701529568237429 0 0.00067709902257963685 -0.001321101425303415 0 0.00039157120600844393 -0.00060512373049006487 0 0.00096126611461267971 -0.001417524342787909 0 0.00067709902257963685 -0.001321101425303415 0 0.00031818685357485558 -0.00058701529568237429 0 0.00039157120600844393 -0.00060512373049006487 0 0.00067709902257963685 -0.001321101425303415 0 0.00039157120600844393 -0.00060512373049006487 0 4.6512025632692773e-08 -2.4843144904389432e-08 0 3.5690580763803765e-08 -1.0094093070706485e-08 0 0.00031818685357485558 -0.00058701529568237429 0 0.00039157120600844393 -0.00060512373049006487 0 4.6512025632692773e-08 -2.4843144904389432e-08 0 0.00039157120600844393 -0.00060512373049006487 0 3.5690580763803765e-08 -1.0094093070706485e-08 0 0.00047773585874123748 -0.00056391015494365864 0 1.5094235072039816e-07 -5.7143786583090582e-08 0 0.00047773585874123748 -0.00056391015494365864 0 0.0011629059545926416 -0.0010962535433520868 0 3.5690580763803765e-08 -1.0094093070706485e-08 0 1.5094235072039816e-07 -5.7143786583090582e-08 0 0.00047773585874123748 -0.00056391015494365864 0 0.00047773585874123748 -0.00056391015494365864 0 0.0011629059545926416 -0.0010962535433520868 0 0.00096126611461267971 -0.001417524342787909 0 0.00039157120600844393 -0.00060512373049006487 0 0.00047773585874123748 -0.00056391015494365864 0 0.00096126611461267971 -0.001417524342787909 0 0.00096126611461267971 -0.001417524342787909 0 0.0018538719764855111 -0.0020308314404042355 0 0.0014944165452913352 -0.0023123132617951471 0 0.0011629059545926416 -0.0010962535433520868 0 0.00096126611461267971 -0.001417524342787909 0 0.0018538719764855111 -0.0020308314404042355 0 0.0023579261892156147 -0.0029911770922892203 0 0.0018538719764855111 -0.0020308314404042355 0 0.0014944165452913352 -0.0023123132617951471 0 0.00096126611461267971 -0.001417524342787909 0 0.0014944165452913352 -0.0023123132617951471 0 0.0010483971632445925 -0.0018887371403021325 0 0.0012855404804355921 -0.0024628823494314269 0 0.0014944165452913352 -0.0023123132617951471 0 0.0010483971632445925 -0.0018887371403021325 0 0.0012855404804355921 -0.0024628823494314269 0 0.0010483971632445925 -0.0018887371403021325 0 0.00097472341075612132 -0.0020503148721341558 0 0.001163983917928962 -0.0026097602123090796 0 0.0012855404804355921 -0.0024628823494314269 0 0.00097472341075612132 -0.0020503148721341558 0 0.001163983917928962 -0.0026097602123090796 0 0.0012389985824431012 -0.0023064030223730299 0 0.00097472341075612132 -0.0020503148721341558 0 0.0012389985824431012 -0.0023064030223730299 0 0.0009003647767399488 -0.0017246625782576009 0 0.00097472341075612132 -0.0020503148721341558 0 0.0009003647767399488 -0.0017246625782576009 0 0.0005926051627083628 -0.0011110482455363819 0 0.00067709902257963685 -0.001321101425303415 0 0.0009003647767399488 -0.0017246625782576009 0 0.00097472341075612132 -0.0020503148721341558 0 0.00067709902257963685 -0.001321101425303415 0 0.00096126611461267971 -0.001417524342787909 0 0.0010483971632445925 -0.0018887371403021325 0 0.00067709902257963685 -0.001321101425303415 0 0.0010483971632445925 -0.0018887371403021325 0 0.00097472341075612132 -0.0020503148721341558 0 0.00067709902257963685 -0.001321101425303415 0 
</DataArray>
</PointData>
<CellData Scalars="region_id,cross_section_updated," Vectors="" Tensors="stress,">
<DataArray type="Float64" Name="region_id" format="ascii">
11 11 11 11 11 11 11 11 11 11 11 5 11 11 5 11 11 11 11 11 6 11 11 5 11 5 11 11 11 11 6 11 11 11 11 6 11 11 6 11 11 11 11 11 11 11 11 11 11 11 11 11 11 11 11 11 11 11 11 11 11 11 11 11 11 11 11 4 11 4 11 11 11 11 11 11 11 11 11 11 4 11 11 11 4 11 11 11 11 11 11 11 11 11 11 11 11 11 11 11 11 11 11 11 11 11 11 11 11 11 11 11 11 11 11 11 11 11 11 11 11 11 11 11 
</DataArray>
<DataArray type="Float64" Name="stress" NumberOfComponents="9" format="ascii">
-1083790.8330812864 405757.91291022673 0 405757.91291022673 -150488.83684143424 0 0 0 -308569.91748067737 490058.08309800923 25030.523506298661 0 25030.523506298661 -125741.96596008539 0 0 0 91079.029284484684 -3064189.8048516847 459239.4872754626 0 459239.4872754626 -593208.47935275733 0 0 0 -914349.57105110958 -1851517.6103716195 -180572.80484620482 0 -180572.80484620482 -148522.06720808148 0 0 0 -500009.91939493269 -1511331.704076495 471610.4645139724 0 471610.4645139724 -325063.1630015783 0 0 0 -459098.71676951274 -2510540.7878510617 -390400.58588527702 0 -390400.58588527702 122452.27308447659 0 0 0 -597022.12869165465 -3046364.0594417229 37536.436590490863 0 37536.436590490863 -282090.2801002115 0 0 0 -832113.58488548547 -1586783.8963189945 347403.64750903845 0 347403.64750903845 -436735.96352096647 0 0 0 -505879.96495999023 -358848.98850534111 393997.15073243901 0 393997.15073243901 -281360.49226523191 0 0 0 -160052.37019264325 -1508431.0284057576 508703.73410505429 0 508703.73410505429 -57104.365759938955 0 0 0 -391383.8485414274 -1269769.4647551887 223289.79438984394 0 223289.79438984394 -70676.919312186539 0 0 0 -335111.5960168466 1824.9719402235044 1368.6340176597428 0 1368.6340176597428 -1823.5627707647182 0 0 0 0.3522923646964955 -1672133.440244101 482345.54700491484 0 482345.54700491484 115397.93971587345 0 0 0 -389183.87513205502 -2399735.5442372859 232990.36165592447 0 232990.36165592447 -608303.80986094475 0 0 0 -752009.83852456138 1863.3277287541496 1397.5071490622636 0 1397.5071490622636 -1863.3444265763742 0 0 0 -0.0041744555560399021 -1923447.712008059 1339305.984704528 0 1339305.984704528 189289.72816520184 0 0 0 -433539.4959607143 -2438407.6021894673 1319693.2066620849 0 1319693.2066620849 147275.05491859466 0 0 0 -572783.13681771513 -2157261.3011221308 1161150.63610595 0 1161150.63610595 429094.65382986516 0 0 0 -432041.66182306688 -1390635.4765832536 573161.25301600108 0 573161.25301600108 197162.80010413751 0 0 0 -298368.16911977809 -2536373.6076697866 487749.11575996317 0 487749.11575996317 -194360.60709649092 0 0 0 -682683.55369156902 -305.80612829668644 248.04356055959499 0 248.04356055959499 402.80412656229237 0 0 0 24.249499566401028 -763571.17335097119 767746.7072766684 0 767746.7072766684 -760605.75886756182 0 0 0 -381044.23305463418 -1645034.5527718514 379199.32642900571 0 379199.32642900571 -1433331.902833268 0 0 0 -769591.61390127987 2152.978767997266 1507.058899533193 0 1507.058899533193 -2010.0157150296188 0 0 0 35.740763241911623 -2183037.4262306178 1398143.6217251327 0 1398143.6217251327 1004463.1100438796 0 0 0 -294643.57904668432 1957.7079728990307 1467.8999857596802 0 1467.8999857596802 -1951.5901398425212 0 0 0 1.5294582641274701 -1887239.3805025816 607722.15629345179 0 607722.15629345179 -1460148.5710546076 0 0 0 -836846.98788929358 -2050777.7898862064 431216.40021645278 0 431216.40021645278 -1174164.2987724841 0 0 0 -806235.52216466516 -2770102.5832682028 696621.67614179896 0 696621.67614179896 -1504309.1538508087 0 0 0 -1068602.9342797548 -2020742.8010655027 526578.22205395997 0 526578.22205395997 -1663142.3124901801 0 0 0 -920971.27838892303 -410.98405792543917 303.25942340559118 0 303.25942340559118 403.7289845715477 0 0 0 -1.8137683384725278 -2344415.5042112321 554961.34526249021 0 554961.34526249021 -1547835.5709606856 0 0 0 -973062.76879297569 -1926863.3971701451 406453.00604394637 0 406453.00604394637 -1371578.4548041672 0 0 0 -824610.46299358085 -1042816.8931592777 893524.79855073802 0 893524.79855073802 -285397.5472446382 0 0 0 -332053.6101009734 -2611631.8589912308 -477538.54437030479 0 -477538.54437030479 -1183229.5510570789 0 0 0 -948715.35251207929 -357.91125833612796 268.44221512962167 0 268.44221512962167 357.93400303222916 0 0 0 0.0056861740254134929 52096.63551080972 266844.16802200489 0 266844.16802200489 -266330.90729535371 0 0 0 -53558.567946135998 -5431315.6245930595 -823448.46712542325 0 -823448.46712542325 -521760.90713499859 0 0 0 -1488269.1329320138 -57.374026128905371 65.436934635463558 0 65.436934635463558 455.20559551942461 0 0 0 99.457892347629695 -1932994.1003312208 192466.02936486551 0 192466.02936486551 -695967.02441439033 0 0 0 -657240.28118640184 -1656827.3311444232 -90841.240034233779 0 -90841.240034233779 11851.427112445235 0 0 0 -411243.9760079952 -2939508.4896584516 422458.6045884937 0 422458.6045884937 -552523.76634376554 0 0 0 -873008.06400055706 -3408556.7285814844 74230.216762758791 0 74230.216762758791 -1080684.2658699006 0 0 0 -1122310.2486128472 -4048310.4827977251 365054.5847362373 0 365054.5847362373 -1272742.6847930104 0 0 0 -1330263.2918976843 -3719939.2017350225 839685.10505466908 0 839685.10505466908 -1180763.6941836751 0 0 0 -1225175.7239796699 -4078175.9376774393 625162.96929297782 0 625162.96929297782 -1727403.2155307978 0 0 0 -1451394.7883020565 -3089997.5190124176 519700.27155247517 0 519700.27155247517 -1177926.0998926908 0 0 0 -1066980.9047262743 -2671897.7463655579 799552.67346943915 0 799552.67346943915 -810988.17540703528 0 0 0 -870721.48044314934 -6055570.5512345321 66049.989764660597 0 66049.989764660597 -1808077.3419635817 0 0 0 -1965911.9732995257 -4986262.9567294493 305831.1071033217 0 305831.1071033217 -1883500.6455075815 0 0 0 -1717440.9005592577 -4625313.9279616848 46703.918679427356 0 46703.918679427356 -1737901.9541010708 0 0 0 -1590803.9705156945 -4384929.535657607 718327.24767211452 0 718327.24767211452 -1511581.3797511235 0 0 0 -1474127.7288521826 -4784219.364084512 302145.02487492561 0 302145.02487492561 -1969197.7307270914 0 0 0 -1688354.2737029009 -4108479.0388303846 443711.24861599691 0 443711.24861599691 -1995067.4514870048 0 0 0 -1525886.6225793473 -5233887.6506248768 368599.07946889848 0 368599.07946889848 -1869933.3702709228 0 0 0 -1775955.2552239504 -4215915.014566347 845440.5290593463 0 845440.5290593463 -1908957.3933625519 0 0 0 -1531218.1019822247 -3642296.2852962259 918075.42362712324 0 918075.42362712324 -2046934.5865233466 0 0 0 -1422307.7179548983 -4280016.0290632378 462458.89065588266 0 462458.89065588266 -1979760.6537907012 0 0 0 -1564944.1707134861 -3796257.1408178075 971983.55544783175 0 971983.55544783175 -1504276.1963285962 0 0 0 -1325133.334286598 -2753732.1620640252 397386.91957498714 0 397386.91957498714 -1284928.691106908 0 0 0 -1009665.2132927347 -3771670.4354422474 1028800.6950041167 0 1028800.6950041167 -1650055.9350459496 0 0 0 -1355431.5926220501 -3774185.1837152205 1066042.7509036828 0 1066042.7509036828 -1955781.120435372 0 0 0 -1432491.5760376491 -3548032.5398586979 1169261.9409903996 0 1169261.9409903996 -1824510.925112661 0 0 0 -1343135.86624284 -3992973.8515860252 1348027.8703367747 0 1348027.8703367747 -2139574.2103096843 0 0 0 -1533137.0154739283 -4672296.5496155946 723622.79734132811 0 723622.79734132811 -2036462.5733892359 0 0 0 -1677189.7807512088 -3775281.311891865 886576.09748278186 0 886576.09748278186 -1962437.6109779105 0 0 0 -1434429.7307174448 -3008857.4895927147 2008109.7169527235 0 2008109.7169527235 -794751.15322582703 0 0 0 -950902.16070463695 1895.1757110723329 1419.8790703096397 0 1419.8790703096397 -1871.3148074519409 0 0 0 5.9652259050982366 -3134476.7089259662 1267668.78631033 0 1267668.78631033 -2236244.3950602487 0 0 0 -1342680.2759965546 1961.2464923717039 1471.2501376101945 0 1471.2501376101945 -1966.2435474563063 0 0 0 -1.2492637711505949 -2333553.8447087114 1513324.193960119 0 1513324.193960119 -507114.72611039225 0 0 0 -710167.14270477509 -3280313.9849965577 1457355.3261726082 0 1457355.3261726082 -316782.89580973238 0 0 0 -899274.2202015724 -2859421.95948066 2032240.2227335442 0 2032240.2227335442 -432432.20489581395 0 0 0 -822963.54109411873 -3530952.9904137636 2128574.5994903571 0 2128574.5994903571 -591537.17912327312 0 0 0 -1030622.5423842585 -3557730.4813473504 540542.27175631374 0 540542.27175631374 -1828638.7081215293 0 0 0 -1346592.297367221 -3684501.1240622774 347510.53973951191 0 347510.53973951191 -1888518.7389023378 0 0 0 -1393254.9657411538 -3693790.7594316471 809620.08540193364 0 809620.08540193364 -2190323.8491125256 0 0 0 -1471028.6521360427 -2780826.1210282408 562244.84146986902 0 562244.84146986902 -1768633.8503563553 0 0 0 -1137364.9928461537 -2550633.1476507457 1624421.811739129 0 1624421.811739129 -1021119.7101152558 0 0 0 -892938.21444150014 -2986776.5114200572 1854592.9564789641 0 1854592.9564789641 -696384.55406816537 0 0 0 -920790.26637205551 2027.5832026427429 1520.5536899141889 0 1520.5536899141889 -2025.2830380770633 0 0 0 0.57504114141977425 -3560217.3219560608 634665.09126030654 0 634665.09126030654 -1626966.8182806894 0 0 0 -1296796.0350591838 -3001226.2528760508 554765.55218953826 0 554765.55218953826 -2328249.8148452789 0 0 0 -1332369.0169303399 -2579365.4890341358 772740.57797891647 0 772740.57797891647 -355766.57785802148 0 0 0 -733783.01672303886 2090.874664314234 1568.1920503708868 0 1568.1920503708868 -2091.5526780563059 0 0 0 -0.16950343551792457 -1155736.8453507456 761297.62132010353 0 761297.62132010353 -230606.41449403274 0 0 0 -346585.81496119453 -1787288.9726090771 777099.00557363464 0 777099.00557363464 -227492.60666196328 0 0 0 -503695.3948177601 -2091326.2257328522 1452438.3672099549 0 1452438.3672099549 -337990.91936228471 0 0 0 -607329.28627378424 -2540513.3881679415 1605822.5381409083 0 1605822.5381409083 -254142.3507822156 0 0 0 -698663.93473753938 -2543045.137362428 1492496.7985244414 0 1492496.7985244414 -847622.61823165545 0 0 0 -847666.93889852089 -1786049.6108361669 1051438.9314880301 0 1051438.9314880301 95758.96899279533 0 0 0 -422572.66046084277 -1394395.9434681782 1156527.1575036366 0 1156527.1575036366 -464746.47397198004 0 0 0 -464785.60436003946 672388.1386878232 522291.34496939799 0 522291.34496939799 134400.27371364925 0 0 0 201697.10310036805 -2820583.2802768587 1849069.9933340335 0 1849069.9933340335 -562855.31342969649 0 0 0 -845859.64842663845 -2895927.2563266512 1781028.5138903891 0 1781028.5138903891 -559472.47384965327 0 0 0 -863849.93254407588 -2620441.3505570078 1695423.4305787541 0 1695423.4305787541 -685616.49935967568 0 0 0 -826514.46247917088 -2530657.5036145695 1508919.6541860159 0 1508919.6541860159 -451996.7052105185 0 0 0 -745663.55220627226 -2815699.3969567777 1674504.1766240296 0 1674504.1766240296 -938557.30604837555 0 0 0 -938564.17575128819 -2842563.4848649926 1748198.7739982323 0 1748198.7739982323 -947513.92801676237 0 0 0 -947519.3532204387 -2768843.8187557245 1701239.6868432164 0 1701239.6868432164 -764966.23281165864 0 0 0 -883452.51289184578 -2885851.2276426284 1905915.2779874932 0 1905915.2779874932 -789676.14813599084 0 0 0 -918881.84394465457 -2818719.8415881386 1948303.3021242835 0 1948303.3021242835 -655410.03261608817 0 0 0 -868532.46855105693 -3381483.0166073954 1535896.1507523921 0 1535896.1507523921 -676529.00043495093 0 0 0 -1014503.0042605866 -2729509.3462881274 1839831.4013571299 0 1839831.4013571299 -950241.75638051645 0 0 0 -919937.77566716052 -3377061.5339872213 1739747.2339879959 0 1739747.2339879959 -1125781.5719274774 0 0 0 -1125710.7764786747 -3113777.8329945817 1589603.1917305414 0 1589603.1917305414 -1057615.0921257141 0 0 0 -1042848.2312800742 -4053646.286641838 1378812.9922931555 0 1378812.9922931555 -1106928.8835562253 0 0 0 -1290143.7925495161 -6906354.0831911825 1355470.9410041105 0 1355470.9410041105 -874710.04069984984 0 0 0 -1945266.0309727588 -4659619.0376115274 1833334.5405958993 0 1833334.5405958993 -1552905.2278320312 0 0 0 -1553131.0663608897 -4135967.4981624819 768714.96143737482 0 768714.96143737482 170395.4006183343 0 0 0 -991393.02438603691 -3761359.602056873 1735447.5464804403 0 1735447.5464804403 -899939.07410384319 0 0 0 -1165324.6690401789 -2980606.6387016154 439747.06187311746 0 439747.06187311746 3898.1248886026442 0 0 0 -744177.1284532533 -4004106.9757115515 566908.73645527335 0 566908.73645527335 -219834.15352908149 0 0 0 -1055985.282310158 -2864155.4206823939 441936.50186731853 0 441936.50186731853 10058.968554552644 0 0 0 -713524.11303196009 -3264404.6227580393 1202756.61004958 0 1202756.61004958 -351935.25628975034 0 0 0 -904084.9697619481 -2249276.5551015912 923629.00034393091 0 923629.00034393091 130750.81647608243 0 0 0 -529631.43465637602 -2370796.4324015062 1444604.8143591173 0 1444604.8143591173 -415873.43998613954 0 0 0 -696667.46809691004 -1341118.3955132668 968729.44867564272 0 968729.44867564272 438751.33080597967 0 0 0 -225591.76617682306 -1620633.4117040485 2219348.6068237117 0 2219348.6068237117 -202334.91347901896 0 0 0 -455742.08129576826 -2924050.2822926156 2030328.3107017034 0 2030328.3107017034 -535996.9453689307 0 0 0 -865011.80691538565 -2963380.1503432998 2048066.4052322838 0 2048066.4052322838 -760838.02937046997 0 0 0 -931054.54492844176 -2258377.3404543558 2124062.4904349712 0 2124062.4904349712 -610390.6402187543 0 0 0 -717191.99516827706 -2535568.2616346371 1389711.1105632046 0 1389711.1105632046 -388212.24056747463 0 0 0 -730945.12555052759 -2622947.1608091872 1435155.6775639635 0 1435155.6775639635 -481452.95374540379 0 0 0 -776100.02863864903 
</DataArray>
<DataArray type="Float64" Name="cross_section_updated" format="ascii">
1 1 1 1 1 1 1 1 1 1 1 0.0010000068644167096 1 1 0.00099998969111723523 1 1 1 1 1 0.0010479971594705212 1 1 0.0010987399856542792 1 0.00099999862934856349 1 1 1 1 0.00099999075710769086 1 1 1 1 0.0010000068656010443 1 1 0.0012511027889171968 1 1 1 1 1 1 1 1 1 1 1 1 1 1 1 1 1 1 1 1 1 1 1 1 1 1 1 1 0.001000011406518338 1 0.00099999704761137239 1 1 1 1 1 1 1 1 1 1 0.00099998995178251604 1 1 1 0.0010000063237236728 1 1 1 1 1 1 1 1 1 1 1 1 1 1 1 1 1 1 1 1 1 1 1 1 1 1 1 1 1 1 1 1 1 1 1 1 1 1 1 
</DataArray>
</CellData>
</Piece>
</UnstructuredGrid>
</VTKFile>
