<?xml version="1.0"?>
<VTKFile type="UnstructuredGrid" version="0.1" byte_order="LittleEndian">
<UnstructuredGrid>
<Piece NumberOfPoints="360" NumberOfCells="124">
<Points>
<DataArray type="Float64" NumberOfComponents="3" format="ascii">
0 0 0 0.084352422163911631 0.086451712656266194 0 0 0.12500000000034689 0 0 0 0 0.084352422163911631 0.086451712656266194 0 0.1249999999997554 0 0 0 0.12500000000034689 0 0.1008171452988615 0.18885703697250469 0 0 0.25 0 0.084352422163911631 0.086451712656266194 0 0 0.12500000000034689 0 0.1008171452988615 0.18885703697250469 0 0.084352422163911631 0.086451712656266194 0 0.1008171452988615 0.18885703697250469 0 0.18402761812864499 0.1117324051466445 0 0.1008171452988615 0.18885703697250469 0 0.2403886547178353 0.24188814792673841 0 0.1249999999997599 0.31249999999987998 0 0.1008171452988615 0.18885703697250469 0 0.2403886547178353 0.24188814792673841 0 0.18402761812864499 0.1117324051466445 0 0.2403886547178353 0.24188814792673841 0 0.18402761812864499 0.1117324051466445 0 0.31250000000020822 0.12500000000041631 0 0.1249999999997554 0 0 0.18402761812864499 0.1117324051466445 0 0.25 -0 0 0.18402761812864499 0.1117324051466445 0 0.25 -0 0 0.31250000000020822 0.12500000000041631 0 0.084352422163911631 0.086451712656266194 0 0.1249999999997554 0 0 0.18402761812864499 0.1117324051466445 0 0.25 -0 0 0.31250000000020822 0.12500000000041631 0 0.25 -0 0 0.31250000000020822 0.12500000000041631 0 0.43749999999913258 0 0 0.2403886547178353 0.24188814792673841 0 0.31250000000020822 0.12500000000041631 0 0.37500000000027761 0.25000000000055511 0 0.31250000000020822 0.12500000000041631 0 0.37500000000027761 0.25000000000055511 0 0.31250000000020822 0.12500000000041631 0 0.4287911518546233 0.15455445427966699 0 0.37500000000027761 0.25000000000055511 0 0.4287911518546233 0.15455445427966699 0 0.49457493289300231 0.26251703776555491 0 0.37500000000027761 0.25000000000055511 0 0.4287911518546233 0.15455445427966699 0 0.49457493289300231 0.26251703776555491 0 0.54475767668582953 0.1431838882066932 0 0.31250000000020822 0.12500000000041631 0 0.4287911518546233 0.15455445427966699 0 0.43749999999913258 0 0 0.4287911518546233 0.15455445427966699 0 0.43749999999913258 0 0 0.54475767668582953 0.1431838882066932 0 0.37499999999973488 0.43749999999986738 0 0.5 0.5 -0 0.43750000000006939 0.37500000000013878 0 0.37499999999973488 0.43749999999986738 0 0.5 0.5 -0 0.43750000000006939 0.37500000000013878 0 0.33819444444448321 0.33819444444456342 0 0.37499999999973488 0.43749999999986738 0 0.43750000000006939 0.37500000000013878 0 0.5 0.5 -0 0.43750000000006939 0.37500000000013878 0 0.49457493289300231 0.26251703776555491 0 0.37500000000027761 0.25000000000055511 0 0.43750000000006939 0.37500000000013878 0 0.37500000000027761 0.25000000000055511 0 0.43750000000006939 0.37500000000013878 0 0.37500000000027761 0.25000000000055511 0 0.33819444444448321 0.33819444444456342 0 0.2403886547178353 0.24188814792673841 0 0.33819444444448321 0.33819444444456342 0 0.24999999999960859 0.37499999999980432 0 0.2403886547178353 0.24188814792673841 0 0.37500000000027761 0.25000000000055511 0 0.33819444444448321 0.33819444444456342 0 0.33819444444448321 0.33819444444456342 0 0.37499999999973488 0.43749999999986738 0 0.24999999999960859 0.37499999999980432 0 0.37499999999973488 0.43749999999986738 0 0.24999999999960859 0.37499999999980432 0 0.37499999999973488 0.43749999999986738 0 0.24999999999960859 0.37499999999980432 0 0.26452443700674649 0.51563531581639865 0 0.14929124186975251 0.44582793568106382 0 0.24999999999960859 0.37499999999980432 0 0.26452443700674649 0.51563531581639865 0 0.14929124186975251 0.44582793568106382 0 0.24999999999960859 0.37499999999980432 0 0.1249999999997599 0.31249999999987998 0 0.2403886547178353 0.24188814792673841 0 0.24999999999960859 0.37499999999980432 0 0.1249999999997599 0.31249999999987998 0 0.24999999999960859 0.37499999999980432 0 0.1249999999997599 0.31249999999987998 0 0.1249999999997599 0.31249999999987998 0 0 0.25 0 0 0.43750000000034689 0 0.1008171452988615 0.18885703697250469 0 0.1249999999997599 0.31249999999987998 0 0 0.25 0 0.1249999999997599 0.31249999999987998 0 0 0.25 0 0.14929124186975251 0.44582793568106382 0 0 0.43750000000034689 0 0.13928587515912139 0.57339806105677438 0 0.14929124186975251 0.44582793568106382 0 0.1249999999997599 0.31249999999987998 0 0 0.43750000000034689 0 0 0.43750000000034689 0 0 0.62500000000069389 0 0.13928587515912139 0.57339806105677438 0 0 0.62500000000069389 0 0.13900789599611679 0.72618316107059999 0 0.13928587515912139 0.57339806105677438 0 0 0.62500000000069389 0 0.13900789599611679 0.72618316107059999 0 0 0.81250000000104083 0 0.13900789599611679 0.72618316107059999 0 0.13928587515912139 0.57339806105677438 0 0.27589467050686478 0.66058853156435704 0 0.13900789599611679 0.72618316107059999 0 0.27987960212930818 0.83442741470570525 0 0.27589467050686478 0.66058853156435704 0 0.13928587515912139 0.57339806105677438 0 0.26452443700674649 0.51563531581639865 0 0.27589467050686478 0.66058853156435704 0 0.14929124186975251 0.44582793568106382 0 0.13928587515912139 0.57339806105677438 0 0.26452443700674649 0.51563531581639865 0 0 1 0 0.12710107136012311 0.87094806618203435 0 0.1875000000005205 1 0 0 1 0 0 0.81250000000104083 0 0.12710107136012311 0.87094806618203435 0 0.13900789599611679 0.72618316107059999 0 0 0.81250000000104083 0 0.12710107136012311 0.87094806618203435 0 0.13900789599611679 0.72618316107059999 0 0.12710107136012311 0.87094806618203435 0 0.27987960212930818 0.83442741470570525 0 0.12710107136012311 0.87094806618203435 0 0.1875000000005205 1 0 0.27987960212930818 0.83442741470570525 0 0.27987960212930818 0.83442741470570525 0 0.44927105396715372 0.85565124085155886 0 0.37500000000069389 1 0 0.1875000000005205 1 0 0.27987960212930818 0.83442741470570525 0 0.37500000000069389 1 0 0.27987960212930818 0.83442741470570525 0 0.44927105396715372 0.85565124085155886 0 0.38136204680495073 0.74038592213831234 0 0.44927105396715372 0.85565124085155886 0 0.38136204680495073 0.74038592213831234 0 0.50145856933078625 0.73674663046504862 0 0.44927105396715372 0.85565124085155886 0 0.37500000000069389 1 0 0.56250000000086742 1 0 0.26452443700674649 0.51563531581639865 0 0.27589467050686478 0.66058853156435704 0 0.4139414069912184 0.60563252640100373 0 0.37499999999973488 0.43749999999986738 0 0.26452443700674649 0.51563531581639865 0 0.4139414069912184 0.60563252640100373 0 0.27987960212930818 0.83442741470570525 0 0.27589467050686478 0.66058853156435704 0 0.38136204680495073 0.74038592213831234 0 0.27589467050686478 0.66058853156435704 0 0.38136204680495073 0.74038592213831234 0 0.4139414069912184 0.60563252640100373 0 0.38136204680495073 0.74038592213831234 0 0.4139414069912184 0.60563252640100373 0 0.50145856933078625 0.73674663046504862 0 0.4139414069912184 0.60563252640100373 0 0.50145856933078625 0.73674663046504862 0 0.5625 0.625 0 0.37499999999973488 0.43749999999986738 0 0.4139414069912184 0.60563252640100373 0 0.5 0.5 -0 0.4139414069912184 0.60563252640100373 0 0.5 0.5 -0 0.5625 0.625 0 0.5 0.5 -0 0.5625 0.625 0 0.63236534182377013 0.50296756406332266 0 0.5 0.5 -0 0.5625 0.625 0 0.50145856933078625 0.73674663046504862 0 0.5625 0.625 0 0.625 0.75 0 0.5625 0.625 0 0.625 0.75 0 0.71259747807844409 0.63846691315701831 0 0.625 0.75 0 0.73857795170433571 0.77736788564284653 0 0.5625 0.625 0 0.71259747807844409 0.63846691315701831 0 0.625 0.75 0 0.71259747807844409 0.63846691315701831 0 0.63236534182377013 0.50296756406332266 0 0.75338430262320943 0.49294443423175599 0 0.5625 0.625 0 0.71259747807844409 0.63846691315701831 0 0.63236534182377013 0.50296756406332266 0 0.56250000000086742 1 0 0.56777512057187585 0.8470224641095303 0 0.6875 0.875 0 0.44927105396715372 0.85565124085155886 0 0.56250000000086742 1 0 0.56777512057187585 0.8470224641095303 0 0.44927105396715372 0.85565124085155886 0 0.50145856933078625 0.73674663046504862 0 0.56777512057187585 0.8470224641095303 0 0.50145856933078625 0.73674663046504862 0 0.56777512057187585 0.8470224641095303 0 0.625 0.75 0 0.625 0.75 0 0.73857795170433571 0.77736788564284653 0 0.6875 0.875 0 0.73857795170433571 0.77736788564284653 0 0.6875 0.875 0 0.80552984491000901 0.88711122872127413 0 0.625 0.75 0 0.6875 0.875 0 0.56777512057187585 0.8470224641095303 0 0.625 0.75 0 0.6875 0.875 0 0.56250000000086742 1 0 0.6875 0.875 0 0.75 1 0 0.6875 0.875 0 0.75 1 0 0.80552984491000901 0.88711122872127413 0 0.6875 0.875 0 0.75 1 0 0.75 1 0 0.80552984491000901 0.88711122872127413 0 0.875 1 0 0.80552984491000901 0.88711122872127413 0 0.90637953422180084 0.90208583328057301 0 0.875 1 0 0.80552984491000901 0.88711122872127413 0 0.85787927391517405 0.753532520882502 0 0.90637953422180084 0.90208583328057301 0 0.73857795170433571 0.77736788564284653 0 0.80552984491000901 0.88711122872127413 0 0.85787927391517405 0.753532520882502 0 0.85787927391517405 0.753532520882502 0 1 0.83333333333356463 0 1 0.66666666666736052 0 0.85787927391517405 0.753532520882502 0 1 0.83333333333356463 0 0.90637953422180084 0.90208583328057301 0 1 0.83333333333356463 0 0.90637953422180084 0.90208583328057301 0 1 1 0 0.90637953422180084 0.90208583328057301 0 1 1 0 0.875 1 0 0.71259747807844409 0.63846691315701831 0 0.86127466977819722 0.57948076978797636 0 0.75338430262320943 0.49294443423175599 0 0.71259747807844409 0.63846691315701831 0 0.85787927391517405 0.753532520882502 0 0.86127466977819722 0.57948076978797636 0 0.71259747807844409 0.63846691315701831 0 0.73857795170433571 0.77736788564284653 0 0.85787927391517405 0.753532520882502 0 0.85787927391517405 0.753532520882502 0 0.86127466977819722 0.57948076978797636 0 1 0.66666666666736052 0 0.86127466977819722 0.57948076978797636 0 1 0.66666666666736052 0 1 0.50000000000138767 0 1 0.50000000000138767 0 0.86569408477091048 0.40983673916766611 0 1 0.33333333333448978 0 0.86127466977819722 0.57948076978797636 0 1 0.50000000000138767 0 0.86569408477091048 0.40983673916766611 0 0.86127466977819722 0.57948076978797636 0 0.75338430262320943 0.49294443423175599 0 0.86569408477091048 0.40983673916766611 0 0.75338430262320943 0.49294443423175599 0 0.86569408477091048 0.40983673916766611 0 0.71826039492840632 0.34564020717216182 0 0.86087286690217635 0.25206523597959418 0 0.71508993406183785 0.15715956854777599 0 0.71826039492840632 0.34564020717216182 0 0.86569408477091048 0.40983673916766611 0 0.86087286690217635 0.25206523597959418 0 0.71826039492840632 0.34564020717216182 0 0.86087286690217635 0.25206523597959418 0 1 0.33333333333448978 0 1 0.16666666666736049 0 0.86569408477091048 0.40983673916766611 0 0.86087286690217635 0.25206523597959418 0 1 0.33333333333448978 0 0.86087286690217635 0.25206523597959418 0 1 0.16666666666736049 0 0.87698901648812122 0.1160638338657984 0 1 0 0 0.87698901648812122 0.1160638338657984 0 0.81249999999947953 0 0 1 0.16666666666736049 0 1 0 0 0.87698901648812122 0.1160638338657984 0 0.87698901648812122 0.1160638338657984 0 0.81249999999947953 0 0 0.71508993406183785 0.15715956854777599 0 0.86087286690217635 0.25206523597959418 0 0.87698901648812122 0.1160638338657984 0 0.71508993406183785 0.15715956854777599 0 0.71508993406183785 0.15715956854777599 0 0.62499999999895905 0 0 0.54475767668582953 0.1431838882066932 0 0.81249999999947953 0 0 0.71508993406183785 0.15715956854777599 0 0.62499999999895905 0 0 0.43749999999913258 0 0 0.62499999999895905 0 0 0.54475767668582953 0.1431838882066932 0 0.71508993406183785 0.15715956854777599 0 0.54475767668582953 0.1431838882066932 0 0.61108462585082757 0.25750599582343231 0 0.49457493289300231 0.26251703776555491 0 0.54475767668582953 0.1431838882066932 0 0.61108462585082757 0.25750599582343231 0 0.49457493289300231 0.26251703776555491 0 0.61108462585082757 0.25750599582343231 0 0.56986707178436635 0.37762093650871992 0 0.43750000000006939 0.37500000000013878 0 0.49457493289300231 0.26251703776555491 0 0.56986707178436635 0.37762093650871992 0 0.43750000000006939 0.37500000000013878 0 0.5 0.5 -0 0.56986707178436635 0.37762093650871992 0 0.5 0.5 -0 0.63236534182377013 0.50296756406332266 0 0.56986707178436635 0.37762093650871992 0 0.63236534182377013 0.50296756406332266 0 0.75338430262320943 0.49294443423175599 0 0.71826039492840632 0.34564020717216182 0 0.63236534182377013 0.50296756406332266 0 0.56986707178436635 0.37762093650871992 0 0.71826039492840632 0.34564020717216182 0 0.71508993406183785 0.15715956854777599 0 0.61108462585082757 0.25750599582343231 0 0.71826039492840632 0.34564020717216182 0 0.61108462585082757 0.25750599582343231 0 0.56986707178436635 0.37762093650871992 0 0.71826039492840632 0.34564020717216182 0 
</DataArray>
</Points>
<Cells>
<DataArray type="UInt32" Name="connectivity" format="ascii">
0 1 2 3 4 5 6 7 8 9 10 11 12 13 14 15 16 17 18 19 20 21 22 23 24 25 26 27 28 29 30 31 32 33 34 35 36 37 38 39 40 41 42 43 44 45 46 47 48 49 50 51 52 53 54 55 56 57 58 59 60 61 62 63 64 65 66 67 68 69 70 71 72 73 74 75 76 77 78 79 80 81 82 83 84 85 86 87 88 89 90 91 92 93 94 95 96 97 98 99 100 101 102 103 104 105 106 107 108 109 110 111 112 113 114 115 116 117 118 119 120 121 122 123 124 125 126 127 128 129 130 131 132 133 134 135 136 137 138 139 140 141 142 143 144 145 146 147 148 149 150 151 152 153 154 155 156 157 158 159 160 161 162 163 164 165 166 167 168 169 170 171 172 173 174 175 176 177 178 179 180 181 182 183 184 185 186 187 188 189 190 191 192 193 194 195 196 197 198 199 200 201 202 203 204 205 206 207 208 209 210 211 212 213 214 215 216 217 218 219 220 221 222 223 224 225 226 227 228 229 230 231 232 233 234 235 236 237 238 239 240 241 242 243 244 245 246 247 248 249 250 251 252 253 254 255 256 257 258 259 260 261 262 263 264 265 266 267 268 269 270 271 272 273 274 275 276 277 278 279 280 281 282 283 284 285 286 287 288 289 290 291 292 293 294 295 296 297 298 299 300 301 302 303 304 305 306 307 308 309 310 311 312 313 314 315 316 317 318 319 320 321 322 323 324 325 326 327 328 329 330 331 332 333 334 335 336 337 338 339 340 341 342 343 344 345 346 347 348 349 350 351 352 353 354 355 356 357 358 359 
</DataArray>
<DataArray type="UInt32" Name="offsets" format="ascii">
3 6 9 12 15 18 21 24 27 30 33 35 38 41 43 46 49 52 55 58 60 63 66 68 71 73 76 79 82 85 87 90 93 96 99 101 104 107 109 112 115 118 121 124 127 130 133 136 139 142 145 148 151 154 157 160 163 166 169 172 175 178 181 184 187 190 193 195 198 200 203 206 209 212 215 218 221 224 227 230 232 235 238 241 243 246 249 252 255 258 261 264 267 270 273 276 279 282 285 288 291 294 297 300 303 306 309 312 315 318 321 324 327 330 333 336 339 342 345 348 351 354 357 360 
</DataArray>
<DataArray type="UInt32" Name="types" format="ascii">
5 5 5 5 5 5 5 5 5 5 5 3 5 5 3 5 5 5 5 5 3 5 5 3 5 3 5 5 5 5 3 5 5 5 5 3 5 5 3 5 5 5 5 5 5 5 5 5 5 5 5 5 5 5 5 5 5 5 5 5 5 5 5 5 5 5 5 3 5 3 5 5 5 5 5 5 5 5 5 5 3 5 5 5 3 5 5 5 5 5 5 5 5 5 5 5 5 5 5 5 5 5 5 5 5 5 5 5 5 5 5 5 5 5 5 5 5 5 5 5 5 5 5 5 
</DataArray>
</Cells>
<PointData Scalars="" Vectors="displacement," Tensors="">
<DataArray type="Float64" Name="displacement" NumberOfComponents="3" format="ascii">
3.4827079441797688e-08 -0.057266061174934199 0 -0.00053651136158309044 -0.056601409792122304 0 -1.4036379937650971e-08 -0.057100769121068318 0 3.4827079441797688e-08 -0.057266061174934199 0 -0.00053651136158309044 -0.056601409792122304 0 0.00039666158025911656 -0.05606760623611233 0 -1.4036379937650971e-08 -0.057100769121068318 0 -0.0017555324808435984 -0.056176434969292754 0 -7.1740441058417863e-07 -0.056774867099430505 0 -0.00053651136158309044 -0.056601409792122304 0 -1.4036379937650971e-08 -0.057100769121068318 0 -0.0017555324808435984 -0.056176434969292754 0 -0.00053651136158309044 -0.056601409792122304 0 -0.0017555324808435984 -0.056176434969292754 0 -0.0016652881169016982 -0.054778065885452497 0 -0.0017555324808435984 -0.056176434969292754 0 -0.0053699980438477552 -0.052955616164865917 0 -0.0055086594439652291 -0.054921481845712397 0 -0.0017555324808435984 -0.056176434969292754 0 -0.0053699980438477552 -0.052955616164865917 0 -0.0016652881169016982 -0.054778065885452497 0 -0.0053699980438477552 -0.052955616164865917 0 -0.0016652881169016982 -0.054778065885452497 0 -0.0031657975809492611 -0.050957131014561154 0 0.00039666158025911656 -0.05606760623611233 0 -0.0016652881169016982 -0.054778065885452497 0 0.00021365783963997508 -0.053146551168037508 0 -0.0016652881169016982 -0.054778065885452497 0 0.00021365783963997508 -0.053146551168037508 0 -0.0031657975809492611 -0.050957131014561154 0 -0.00053651136158309044 -0.056601409792122304 0 0.00039666158025911656 -0.05606760623611233 0 -0.0016652881169016982 -0.054778065885452497 0 0.0079333877400126641 -0.038288437460189124 0 0.0041959157845072462 -0.035738557240508978 0 0.0155383829510556 -0.023294376663051258 0 0.01157206829574846 -0.020684679382812748 0 0.013746683037365513 -0.01676092725938216 0 -0.0053699980438477552 -0.052955616164865917 0 -0.0031657975809492611 -0.050957131014561154 0 -0.0072289418533279422 -0.049186949452938479 0 0.0041959157845072462 -0.035738557240508978 0 0.00077587132969621578 -0.033786010836929878 0 0.01157206829574846 -0.020684679382812748 0 0.0097810524738254356 -0.016457942576262655 0 0.0088324456462872541 -0.017859414115726276 0 0.0097810524738254356 -0.016457942576262655 0 0.0071221398406281127 -0.013580481969868847 0 0.0088324456462872541 -0.017859414115726276 0 0.0097810524738254356 -0.016457942576262655 0 0.0071221398406281127 -0.013580481969868847 0 0.0085056249524665013 -0.012630854248981388 0 0.01157206829574846 -0.020684679382812748 0 0.0097810524738254356 -0.016457942576262655 0 0.013746683037365513 -0.01676092725938216 0 0.0097810524738254356 -0.016457942576262655 0 0.013746683037365513 -0.01676092725938216 0 0.0085056249524665013 -0.012630854248981388 0 -0.0080719497780740376 -0.045723711386535831 0 -0.0039186538105756182 -0.033774863529582283 0 -0.010303383198973372 -0.04858676565844789 0 -0.011009468585099727 -0.050348499748900787 0 -0.012635550208042887 -0.048079595984061071 0 -0.010303383198973372 -0.04858676565844789 0 -0.0087771074962714243 -0.050572739594057815 0 -0.011009468585099727 -0.050348499748900787 0 -0.0018890212614484784 -0.030630400178997191 0 -0.0039186538105756182 -0.033774863529582283 0 0.0062902826374477798 -0.014605929640044001 0 0.0071221398406281127 -0.013580481969868847 0 0.0088324456462872541 -0.017859414115726276 0 -0.0018890212614484784 -0.030630400178997191 0 0.00077587132969621578 -0.033786010836929878 0 -0.010303383198973372 -0.04858676565844789 0 -0.0072289418533279422 -0.049186949452938479 0 -0.0087771074962714243 -0.050572739594057815 0 -0.0053699980438477552 -0.052955616164865917 0 -0.0087771074962714243 -0.050572739594057815 0 -0.008779429828445949 -0.052821745603620268 0 -0.0053699980438477552 -0.052955616164865917 0 -0.0072289418533279422 -0.049186949452938479 0 -0.0087771074962714243 -0.050572739594057815 0 -0.0087771074962714243 -0.050572739594057815 0 -0.011009468585099727 -0.050348499748900787 0 -0.008779429828445949 -0.052821745603620268 0 -0.0080719497780740376 -0.045723711386535831 0 -0.0043892966888819905 -0.045680538119475159 0 -0.0024879052506627895 -0.037037474799536931 0 -0.00071920241652590974 -0.039640091448500364 0 -0.0026240495557327535 -0.039790439909190317 0 -0.001046166129328404 -0.041650975896617863 0 -0.00071920241652590974 -0.039640091448500364 0 -0.0026240495557327535 -0.039790439909190317 0 -0.001046166129328404 -0.041650975896617863 0 -0.00071920241652590974 -0.039640091448500364 0 0.00018561495600132892 -0.042142397508819561 0 -0.0053699980438477552 -0.052955616164865917 0 -0.008779429828445949 -0.052821745603620268 0 -0.0055086594439652291 -0.054921481845712397 0 -0.0043892966888819905 -0.045680538119475159 0 -0.0027849805083813252 -0.04870057731155563 0 0.00018561495600132892 -0.042142397508819561 0 9.3675085191909264e-08 -0.042449503742113981 0 -1.1061414627774645e-07 -0.042742164148849841 0 -0.0017555324808435984 -0.056176434969292754 0 -0.0055086594439652291 -0.054921481845712397 0 -7.1740441058417863e-07 -0.056774867099430505 0 -0.0027849805083813252 -0.04870057731155563 0 0.00010636001693395916 -0.049488151326586877 0 -0.001046166129328404 -0.041650975896617863 0 -1.1061414627774645e-07 -0.042742164148849841 0 -0.0016388592127208031 -0.041777526074649136 0 -0.001046166129328404 -0.041650975896617863 0 0.00018561495600132892 -0.042142397508819561 0 -1.1061414627774645e-07 -0.042742164148849841 0 -1.1061414627774645e-07 -0.042742164148849841 0 -2.6209229719757462e-07 -0.042429299620602101 0 -0.0016388592127208031 -0.041777526074649136 0 -2.6209229719757462e-07 -0.042429299620602101 0 -0.0021662560191752713 -0.041813947009751988 0 -0.0016388592127208031 -0.041777526074649136 0 -2.6209229719757462e-07 -0.042429299620602101 0 -0.0021662560191752713 -0.041813947009751988 0 -3.1524485378219801e-07 -0.042452807407392143 0 -0.0021662560191752713 -0.041813947009751988 0 -0.0016388592127208031 -0.041777526074649136 0 -0.0038558223842380663 -0.039861382011353176 0 -0.0021662560191752713 -0.041813947009751988 0 -0.0048688013545773977 -0.040208346243360359 0 -0.0038558223842380663 -0.039861382011353176 0 -0.0016388592127208031 -0.041777526074649136 0 -0.0026240495557327535 -0.039790439909190317 0 -0.0038558223842380663 -0.039861382011353176 0 -0.001046166129328404 -0.041650975896617863 0 -0.0016388592127208031 -0.041777526074649136 0 -0.0026240495557327535 -0.039790439909190317 0 -5.0162307719457327e-07 -0.042736315760273848 0 -0.0024138943278064766 -0.042059372779397787 0 -0.0045015302013062227 -0.041648190259013652 0 -5.0162307719457327e-07 -0.042736315760273848 0 -3.1524485378219801e-07 -0.042452807407392143 0 -0.0024138943278064766 -0.042059372779397787 0 -0.0021662560191752713 -0.041813947009751988 0 -3.1524485378219801e-07 -0.042452807407392143 0 -0.0024138943278064766 -0.042059372779397787 0 -0.0021662560191752713 -0.041813947009751988 0 -0.0024138943278064766 -0.042059372779397787 0 -0.0048688013545773977 -0.040208346243360359 0 -0.0024138943278064766 -0.042059372779397787 0 -0.0045015302013062227 -0.041648190259013652 0 -0.0048688013545773977 -0.040208346243360359 0 -0.0048688013545773977 -0.040208346243360359 0 -0.0076297252178014691 -0.037339300029395103 0 -0.0082637357403376691 -0.039115550492599217 0 -0.0045015302013062227 -0.041648190259013652 0 -0.0048688013545773977 -0.040208346243360359 0 -0.0082637357403376691 -0.039115550492599217 0 -0.0048688013545773977 -0.040208346243360359 0 -0.0076297252178014691 -0.037339300029395103 0 -0.0057461914507634425 -0.038160223518217878 0 -0.0076297252178014691 -0.037339300029395103 0 -0.0057461914507634425 -0.038160223518217878 0 -0.007214523768276083 -0.035788973892839672 0 -0.0076297252178014691 -0.037339300029395103 0 -0.0082637357403376691 -0.039115550492599217 0 -0.011191226933681157 -0.035800201425873875 0 -0.0026240495557327535 -0.039790439909190317 0 -0.0038558223842380663 -0.039861382011353176 0 -0.0052413932988350596 -0.036955316750492039 0 -0.0024879052506627895 -0.037037474799536931 0 -0.0026240495557327535 -0.039790439909190317 0 -0.0052413932988350596 -0.036955316750492039 0 -0.0048688013545773977 -0.040208346243360359 0 -0.0038558223842380663 -0.039861382011353176 0 -0.0057461914507634425 -0.038160223518217878 0 -0.0038558223842380663 -0.039861382011353176 0 -0.0057461914507634425 -0.038160223518217878 0 -0.0052413932988350596 -0.036955316750492039 0 -0.0057461914507634425 -0.038160223518217878 0 -0.0052413932988350596 -0.036955316750492039 0 -0.007214523768276083 -0.035788973892839672 0 -0.0052413932988350596 -0.036955316750492039 0 -0.007214523768276083 -0.035788973892839672 0 -0.0072836683995572901 -0.034024999112337098 0 -0.0024879052506627895 -0.037037474799536931 0 -0.0052413932988350596 -0.036955316750492039 0 -0.0050778249185038276 -0.034619278978194466 0 -0.0052413932988350596 -0.036955316750492039 0 -0.0050778249185038276 -0.034619278978194466 0 -0.0072836683995572901 -0.034024999112337098 0 0.0056715900309652484 -0.012257876544688377 0 0.0050354841442725035 -0.010248970070134122 0 0.0041067322787292559 -0.0088456275678501922 0 -0.0039186538105756182 -0.033774863529582283 0 7.5621462993507236e-06 -0.019368624759377166 0 -0.007214523768276083 -0.035788973892839672 0 -0.0072836683995572901 -0.034024999112337098 0 -0.0086225870456291195 -0.033631786101483534 0 7.5621462993507236e-06 -0.019368624759377166 0 -0.0027831092707758308 -0.021651153649783435 0 0.0030403465442485006 -0.0063691078637892343 0 0.0036711094623210544 -0.0081832738740193565 0 0.0024528026705138936 -0.0055388719993459731 0 0.0050354841442725035 -0.010248970070134122 0 0.0030403465442485006 -0.0063691078637892343 0 0.0036711094623210544 -0.0081832738740193565 0 0.0030403465442485006 -0.0063691078637892343 0 0.0041067322787292559 -0.0088456275678501922 0 0.0027306043802220585 -0.0056294334567723427 0 0.0050354841442725035 -0.010248970070134122 0 0.0030403465442485006 -0.0063691078637892343 0 0.0041067322787292559 -0.0088456275678501922 0 -0.011191226933681157 -0.035800201425873875 0 -0.0090439845832281235 -0.035089903699546773 0 -0.010864308523265186 -0.032816101590523637 0 -0.0076297252178014691 -0.037339300029395103 0 -0.011191226933681157 -0.035800201425873875 0 -0.0090439845832281235 -0.035089903699546773 0 -0.0076297252178014691 -0.037339300029395103 0 -0.007214523768276083 -0.035788973892839672 0 -0.0090439845832281235 -0.035089903699546773 0 -0.007214523768276083 -0.035788973892839672 0 -0.0090439845832281235 -0.035089903699546773 0 -0.0086225870456291195 -0.033631786101483534 0 0.0036711094623210544 -0.0081832738740193565 0 0.0024528026705138936 -0.0055388719993459731 0 0.0026368320203824448 -0.0066738766481586349 0 0.0024528026705138936 -0.0055388719993459731 0 0.0026368320203824448 -0.0066738766481586349 0 0.0012871528174425663 -0.0036469489123365237 0 -0.0027831092707758308 -0.021651153649783435 0 -0.0040112170723521677 -0.019540014719567293 0 -0.0090439845832281235 -0.035089903699546773 0 -0.0086225870456291195 -0.033631786101483534 0 -0.010864308523265186 -0.032816101590523637 0 -0.011191226933681157 -0.035800201425873875 0 -0.010864308523265186 -0.032816101590523637 0 -0.013156978555893569 -0.032352017843169524 0 0.0026368320203824448 -0.0066738766481586349 0 0.00017150748606934821 -0.0048354023407568402 0 0.0012871528174425663 -0.0036469489123365237 0 -0.0040112170723521677 -0.019540014719567293 0 -0.0065919400058754001 -0.018672177230109211 0 0.00017150748606934821 -0.0048354023407568402 0 0.0012871528174425663 -0.0036469489123365237 0 -0.00045996534382335467 -0.0019801383497734973 0 0.0012871528174425663 -0.0036469489123365237 0 0.000440407004908102 -0.0014250855532818064 0 -0.00045996534382335467 -0.0019801383497734973 0 0.0012871528174425663 -0.0036469489123365237 0 0.0013131041351320798 -0.002703006814954929 0 0.000440407004908102 -0.0014250855532818064 0 0.0024528026705138936 -0.0055388719993459731 0 0.0012871528174425663 -0.0036469489123365237 0 0.0013131041351320798 -0.002703006814954929 0 0.0013131041351320798 -0.002703006814954929 0 1.5253392988905623e-07 -6.8908303605891083e-08 0 1.5125703493250009e-07 -1.1293014050718721e-07 0 0.0013131041351320798 -0.002703006814954929 0 1.5253392988905623e-07 -6.8908303605891083e-08 0 0.000440407004908102 -0.0014250855532818064 0 1.5253392988905623e-07 -6.8908303605891083e-08 0 0.000440407004908102 -0.0014250855532818064 0 -1.6240177864671624e-07 -3.713718547514159e-08 0 0.000440407004908102 -0.0014250855532818064 0 -1.6240177864671624e-07 -3.713718547514159e-08 0 -0.00045996534382335467 -0.0019801383497734973 0 0.0030403465442485006 -0.0063691078637892343 0 0.0014555651004726832 -0.0029099080525005392 0 0.0027306043802220585 -0.0056294334567723427 0 0.0030403465442485006 -0.0063691078637892343 0 0.0013131041351320798 -0.002703006814954929 0 0.0014555651004726832 -0.0029099080525005392 0 0.0030403465442485006 -0.0063691078637892343 0 0.0024528026705138936 -0.0055388719993459731 0 0.0013131041351320798 -0.002703006814954929 0 0.0013131041351320798 -0.002703006814954929 0 0.0014555651004726832 -0.0029099080525005392 0 1.5125703493250009e-07 -1.1293014050718721e-07 0 0.0014555651004726832 -0.0029099080525005392 0 1.5125703493250009e-07 -1.1293014050718721e-07 0 1.7379633606101557e-07 -1.1207392890267306e-07 0 1.7379633606101557e-07 -1.1207392890267306e-07 0 0.0015571824077577835 -0.002897799442640619 0 2.3781226502276228e-07 -1.1782265719086328e-07 0 0.0014555651004726832 -0.0029099080525005392 0 1.7379633606101557e-07 -1.1207392890267306e-07 0 0.0015571824077577835 -0.002897799442640619 0 0.0014555651004726832 -0.0029099080525005392 0 0.0027306043802220585 -0.0056294334567723427 0 0.0015571824077577835 -0.002897799442640619 0 0.0027306043802220585 -0.0056294334567723427 0 0.0015571824077577835 -0.002897799442640619 0 0.0035028764423724419 -0.0067715666959396372 0 0.0021037932029419749 -0.003017995661570213 0 0.0053963027943313884 -0.0074261836459534316 0 0.0035028764423724419 -0.0067715666959396372 0 0.0015571824077577835 -0.002897799442640619 0 0.0021037932029419749 -0.003017995661570213 0 0.0035028764423724419 -0.0067715666959396372 0 0.0021037932029419749 -0.003017995661570213 0 2.3781226502276228e-07 -1.1782265719086328e-07 0 2.0234062007447709e-07 -4.1079291270505474e-08 0 0.0015571824077577835 -0.002897799442640619 0 0.0021037932029419749 -0.003017995661570213 0 2.3781226502276228e-07 -1.1782265719086328e-07 0 0.0021037932029419749 -0.003017995661570213 0 2.0234062007447709e-07 -4.1079291270505474e-08 0 0.0026722977185492619 -0.002876757994919839 0 8.2142208418521661e-07 -3.0723417157037073e-07 0 0.0026722977185492619 -0.002876757994919839 0 0.0065102632502696415 -0.0057602431237598235 0 2.0234062007447709e-07 -4.1079291270505474e-08 0 8.2142208418521661e-07 -3.0723417157037073e-07 0 0.0026722977185492619 -0.002876757994919839 0 0.0026722977185492619 -0.002876757994919839 0 0.0065102632502696415 -0.0057602431237598235 0 0.0053963027943313884 -0.0074261836459534316 0 0.0021037932029419749 -0.003017995661570213 0 0.0026722977185492619 -0.002876757994919839 0 0.0053963027943313884 -0.0074261836459534316 0 0.0053963027943313884 -0.0074261836459534316 0 0.010640012688797376 -0.010992181527888979 0 0.0085056249524665013 -0.012630854248981388 0 0.0065102632502696415 -0.0057602431237598235 0 0.0053963027943313884 -0.0074261836459534316 0 0.010640012688797376 -0.010992181527888979 0 0.013746683037365513 -0.01676092725938216 0 0.010640012688797376 -0.010992181527888979 0 0.0085056249524665013 -0.012630854248981388 0 0.0053963027943313884 -0.0074261836459534316 0 0.0085056249524665013 -0.012630854248981388 0 0.0057461621209579546 -0.010061300763046914 0 0.0071221398406281127 -0.013580481969868847 0 0.0085056249524665013 -0.012630854248981388 0 0.0057461621209579546 -0.010061300763046914 0 0.0071221398406281127 -0.013580481969868847 0 0.0057461621209579546 -0.010061300763046914 0 0.0050311760858211601 -0.010864450869995311 0 0.0062902826374477798 -0.014605929640044001 0 0.0071221398406281127 -0.013580481969868847 0 0.0050311760858211601 -0.010864450869995311 0 0.0062902826374477798 -0.014605929640044001 0 0.0056715900309652484 -0.012257876544688377 0 0.0050311760858211601 -0.010864450869995311 0 0.0056715900309652484 -0.012257876544688377 0 0.0041067322787292559 -0.0088456275678501922 0 0.0050311760858211601 -0.010864450869995311 0 0.0041067322787292559 -0.0088456275678501922 0 0.0027306043802220585 -0.0056294334567723427 0 0.0035028764423724419 -0.0067715666959396372 0 0.0041067322787292559 -0.0088456275678501922 0 0.0050311760858211601 -0.010864450869995311 0 0.0035028764423724419 -0.0067715666959396372 0 0.0053963027943313884 -0.0074261836459534316 0 0.0057461621209579546 -0.010061300763046914 0 0.0035028764423724419 -0.0067715666959396372 0 0.0057461621209579546 -0.010061300763046914 0 0.0050311760858211601 -0.010864450869995311 0 0.0035028764423724419 -0.0067715666959396372 0 
</DataArray>
</PointData>
<CellData Scalars="region_id,cross_section_updated," Vectors="" Tensors="stress,">
<DataArray type="Float64" Name="region_id" format="ascii">
11 11 11 11 11 11 11 11 11 11 11 5 11 11 5 11 11 11 11 11 6 11 11 5 11 5 11 11 11 11 6 11 11 11 11 6 11 11 6 11 11 11 11 11 11 11 11 11 11 11 11 11 11 11 11 11 11 11 11 11 11 11 11 11 11 11 11 4 11 4 11 11 11 11 11 11 11 11 11 11 4 11 11 11 4 11 11 11 11 11 11 11 11 11 11 11 11 11 11 11 11 11 11 11 11 11 11 11 11 11 11 11 11 11 11 11 11 11 11 11 11 11 11 11 
</DataArray>
<DataArray type="Float64" Name="stress" NumberOfComponents="9" format="ascii">
-7103506.2789247334 2609528.6680552363 0 2609528.6680552363 -957343.23332345486 0 0 0 -2015212.3780620098 3140936.0751654208 114145.79535764456 0 114145.79535764456 -730836.65592330694 0 0 0 602524.85481050611 -19848311.581730217 3004559.4229611307 0 3004559.4229611307 -3835073.2759263515 0 0 0 -5920846.2144141495 -11999288.825907379 -1142046.844149828 0 -1142046.844149828 -821921.39979302883 0 0 0 -3205302.5564251542 -9886049.9860601127 2984580.1880466044 0 2984580.1880466044 -1951143.3438986242 0 0 0 -2959298.3324896693 -16184329.148199618 -2622701.9042319357 0 -2622701.9042319357 1100011.5161118507 0 0 0 -3771079.4080219865 -19742904.854017437 242591.07587207854 0 242591.07587207854 -1462157.7640399933 0 0 0 -5301265.6545143425 -10508796.1949099 2047233.7490106225 0 2047233.7490106225 -2248692.1725310981 0 0 0 -3189372.0918602347 -2078472.3553521186 2275009.0017792881 0 2275009.0017792881 -1550521.3062155843 0 0 0 -907248.4153919071 -10130327.029203385 2841363.8976164162 0 2841363.8976164162 -402149.38267511129 0 0 0 -2633119.1029696465 -8339209.6854720265 1336689.4785714149 0 1336689.4785714149 -467440.93189251423 0 0 0 -2201662.6543411165 10747.745041519858 8060.2361303872913 0 8060.2361303872913 -10740.571261300342 0 0 0 1.7934450548764289 -10084860.848213457 3156965.0722295716 0 3156965.0722295716 323762.6491451934 0 0 0 -2440274.5497670621 -14595615.053569481 636359.57035559416 0 636359.57035559416 -4685796.6377141774 0 0 0 -4820352.9228209257 11010.809026420944 8258.31563942102 0 8258.31563942102 -11008.855157152317 0 0 0 0.48846731715821079 -11485146.706904404 7508330.8980422616 0 7508330.8980422616 1583640.2383176982 0 0 0 -2475376.6171466634 -12957393.634200003 7298186.6221575737 0 7298186.6221575737 1204552.1452669799 0 0 0 -2938210.3722332567 -12718275.445724878 6676440.8804811761 0 6676440.8804811761 2347128.3127679974 0 0 0 -2592786.7832392044 -8925116.7197752669 3676019.3657651059 0 3676019.3657651059 1240235.6948549002 0 0 0 -1921220.2562300935 -14770498.692328313 2781641.2003754079 0 2781641.2003754079 -826243.01365215052 0 0 0 -3899185.4264951064 521.66918798424558 517.75424236457002 0 517.75424236457002 12985.35042831437 0 0 0 3376.7549040746526 -8564380.0031617731 2117088.9814995527 0 2117088.9814995527 -9991870.9013071656 0 0 0 -4639062.7261172384 -12180152.948998511 1102842.042063877 0 1102842.042063877 -10433085.713151574 0 0 0 -5653309.6655375361 12470.563989569753 9355.816953960566 0 9355.816953960566 -12513.492500674092 0 0 0 -10.732127776084781 -11982071.99721235 8388763.0774795189 0 8388763.0774795189 5163253.0019159466 0 0 0 -1704704.7488241009 11681.027438078063 8759.1769219550915 0 8759.1769219550915 -11661.737389317888 0 0 0 4.8225121900431986 -11763476.795656055 642342.12850636244 0 642342.12850636244 -10726684.290298879 0 0 0 -5622540.2714887261 -12745384.795630604 118453.04238441586 0 118453.04238441586 -5113662.6743447185 0 0 0 -4464761.8674938083 -16499038.718631536 2195357.1410536431 0 2195357.1410536431 -9692118.1736017466 0 0 0 -6547789.2230583429 -12214056.399344593 1369534.8812915981 0 1369534.8812915981 -10716281.37251851 0 0 0 -5732584.4429657459 261.45511748657736 591.83932893610654 0 591.83932893610654 12724.749702936264 0 0 0 3246.5512051057121 -10692711.247538954 3910836.3998673931 0 3910836.3998673931 -7185243.5364091992 0 0 0 -4469488.6959870458 -8192489.6602380425 1989705.7330470383 0 1989705.7330470383 -5844646.6351636648 0 0 0 -3509284.073850438 -3441023.9305418134 4513396.6100898087 0 4513396.6100898087 -1101688.8161193132 0 0 0 -1135678.1866652668 -16717858.459519494 -3082865.6925942898 0 -3082865.6925942898 -5801902.3602390587 0 0 0 -5629940.2049396522 944.82245727578265 144.15881889305638 0 144.15881889305638 12709.244102571232 0 0 0 3413.5166399617538 1157315.8213036805 1294475.2300345674 0 1294475.2300345674 -1279140.5956597328 0 0 0 -30456.193589001894 -35206529.851653919 -5313264.6336377263 0 -5313264.6336377263 -3164122.6454678029 0 0 0 -9592663.124280408 3299.2418100819723 -1407.2123662875292 0 -1407.2123662875292 14032.011530524403 0 0 0 4332.8133351515953 -8228667.7327407598 863779.74491531868 0 863779.74491531868 -3187607.8728857636 0 0 0 -2854068.901406616 -6918387.8089057915 -346978.91251550615 0 -346978.91251550615 230746.46424100548 0 0 0 -1671910.3361661993 -13450042.950847469 2118706.0694278926 0 2118706.0694278926 -2703496.1118097831 0 0 0 -4038384.7656643167 -15754299.07426548 447417.60657805204 0 447417.60657805204 -5496789.233366847 0 0 0 -5312772.0769080669 -18748068.315246984 1807088.7996528 0 1807088.7996528 -6383089.2921542525 0 0 0 -6282789.4018503278 -16895991.259997979 4273932.5303457081 0 4273932.5303457081 -5858784.5550328679 0 0 0 -5688693.9537577042 -18883828.35665068 3071658.8342468292 0 3071658.8342468292 -8745419.6952822208 0 0 0 -6907312.0129832327 -14318583.62379545 2995625.7307486534 0 2995625.7307486534 -6557867.4886147976 0 0 0 -5219112.7781025618 -12357272.739662973 4210669.1396595985 0 4210669.1396595985 -3839756.6944921687 0 0 0 -4049257.3585387897 -28618543.120803878 344672.03487123549 0 344672.03487123549 -9038074.9608494639 0 0 0 -9414154.5204133242 -23391605.928280577 1515909.6993958205 0 1515909.6993958205 -9410049.4947184324 0 0 0 -8200413.8557497412 -21602595.956428647 232241.34967765212 0 232241.34967765212 -8681649.0138849616 0 0 0 -7571061.2425784022 -20454468.374817953 3540918.8297875673 0 3540918.8297875673 -7578521.4726427794 0 0 0 -7008247.4618651718 -22409039.808454551 1518517.7143773884 0 1518517.7143773884 -9852906.3642368466 0 0 0 -8065486.5431728363 -19103201.898823604 2142165.0432362277 0 2142165.0432362277 -9965720.2172771692 0 0 0 -7267230.5290252119 -24542044.090806767 1812190.5568392128 0 1812190.5568392128 -9417824.4063429534 0 0 0 -8489967.1242874339 -19698779.068916619 4019437.6609669477 0 4019437.6609669477 -9856250.0391685367 0 0 0 -7388757.2770212889 -16770541.624342278 4253128.3381853551 0 4253128.3381853551 -10317027.03253749 0 0 0 -6771892.1642199457 -20018947.279921494 2102488.5618350208 0 2102488.5618350208 -10094325.473415241 0 0 0 -7528318.1883341894 -16446568.366673538 5099191.6401787996 0 5099191.6401787996 -7696451.4664772153 0 0 0 -6035754.9582876954 -12488017.194527388 2956671.0747610331 0 2956671.0747610331 -9004630.1369867325 0 0 0 -5373161.8328785151 -17467075.987745825 4975728.550903976 0 4975728.550903976 -8390243.7976784371 0 0 0 -6464329.9463560916 -17012109.052657649 5009769.5563874841 0 5009769.5563874841 -10217068.524919093 0 0 0 -6807294.3943941742 -16596507.353099827 5146319.3766086996 0 5146319.3766086996 -10010771.696093485 0 0 0 -6651819.7622983195 -17361441.513854496 5560896.1200754493 0 5560896.1200754493 -10776611.918589056 0 0 0 -7034513.3581108823 -18812488.666325305 3403409.999046281 0 3403409.999046281 -11086667.410949275 0 0 0 -7474789.0193186589 -16879606.478002489 3565228.7069396377 0 3565228.7069396377 -11455290.34138003 0 0 0 -7083724.2048456073 -12921962.650801193 10615394.266889889 0 10615394.266889889 -874988.12048656493 0 0 0 -3449237.6928219385 8305.191731103143 6218.4903430870481 0 6218.4903430870481 -8137.6756955662204 0 0 0 41.879008884231098 -15355717.547942363 5119056.0749167949 0 5119056.0749167949 -11413476.101280302 0 0 0 -6692298.4123056605 8789.3045941233122 6594.0477354212844 0 6594.0477354212844 -8826.5520461408087 0 0 0 -9.3118630043745725 -11519075.144070735 8217913.6303771865 0 8217913.6303771865 -2027556.5043285787 0 0 0 -3386657.9120998271 -13961448.810532533 8416530.0979184359 0 8416530.0979184359 -632238.51008996367 0 0 0 -3648421.8301556222 -12784322.757063974 10277111.274549004 0 10277111.274549004 -1677970.0932286866 0 0 0 -3615573.2125731669 -14695619.079572797 10227219.758909538 0 10227219.758909538 -1551379.4867052734 0 0 0 -4061749.6415695101 -15777195.586137149 2188882.5881454051 0 2188882.5881454051 -9479196.3007922731 0 0 0 -6314097.971732337 -17186169.903370023 1682486.5551638454 0 1682486.5551638454 -9993948.5008894205 0 0 0 -6795029.6010648608 -17054190.129413143 3843780.6959179938 0 3843780.6959179938 -10871652.360561341 0 0 0 -6981460.6224936247 -14116582.899574667 3012521.7925991863 0 3012521.7925991863 -9450447.963537246 0 0 0 -5891757.7157779932 -11717634.327085888 7941674.583390302 0 7941674.583390302 -3379741.5236772448 0 0 0 -3774343.9626907781 -12563134.58362242 8632883.2425436508 0 8632883.2425436508 -2374093.3977296203 0 0 0 -3734306.9953380059 9229.2349566774865 6921.2295629075807 0 6921.2295629075807 -9214.2851402572815 0 0 0 3.7374541050512562 -16309972.977146789 3231738.5485209674 0 3231738.5485209674 -9024348.6805595458 0 0 0 -6333580.414426595 -14773804.878919482 2116382.602428779 0 2116382.602428779 -10772586.950844675 0 0 0 -6386597.9574410617 -11109513.819776446 4271636.0335470308 0 4271636.0335470308 -1583685.2214014307 0 0 0 -3173299.7602944653 9591.2076203013603 7193.5746132892973 0 7193.5746132892973 -9595.3866043275484 0 0 0 -1.0447460065468022 -5778796.5335250124 4189780.4279742744 0 4189780.4279742744 -1170685.1553218514 0 0 0 -1737370.4222117164 -7522171.5950026102 4195107.9699033871 0 4195107.9699033871 -1090173.8869472258 0 0 0 -2153086.3704874571 -8896036.2940613069 7407357.6968784491 0 7407357.6968784491 -1385242.7168193702 0 0 0 -2570319.7527201683 -11512026.991820548 7994184.0725209014 0 7994184.0725209014 -1234471.461705843 0 0 0 -3186624.6133816 -11085840.067869337 7607385.6138544958 0 7607385.6138544958 -3694998.2828669352 0 0 0 -3695209.5876840684 -7555399.0078973547 5549225.4972871337 0 5549225.4972871337 607264.30619980767 0 0 0 -1737033.6754243872 -5644643.1984837996 6087783.61710071 0 6087783.61710071 -1881344.3976718951 0 0 0 -1881496.8990389234 4177265.8404107178 3129657.642741994 0 3129657.642741994 760842.20488762856 0 0 0 1234527.0113245882 -12603950.470381357 9176782.4440423213 0 9176782.4440423213 -2475289.5053025261 0 0 0 -3769809.9939209707 -12621366.517196413 9155537.5355831645 0 9155537.5355831645 -2441331.5338152833 0 0 0 -3765674.512752925 -11438005.800246136 8684154.1560221445 0 8684154.1560221445 -2238380.4207658079 0 0 0 -3419096.5552529832 -11195878.96719203 7588944.7898902893 0 7588944.7898902893 -2048157.7329748115 0 0 0 -3311009.1750417114 -12589501.467500998 8390037.5078529809 0 8390037.5078529809 -4196505.9689212618 0 0 0 -4196501.8591055647 -13911277.99498735 8629948.0332405046 0 8629948.0332405046 -4637055.8731347416 0 0 0 -4637083.4670305224 -13005327.208130855 8146401.2926336881 0 8146401.2926336881 -3820709.7799569927 0 0 0 -4206509.247021962 -13097186.847384226 9543294.9242173657 0 9543294.9242173657 -3754210.6024982557 0 0 0 -4212849.3624706222 -13950082.872104095 9285064.6491271183 0 9285064.6491271183 -2878326.6853004321 0 0 0 -4207102.3893511351 -18268465.832614217 7405563.5230271183 0 7405563.5230271183 -2892357.9813576639 0 0 0 -5290205.9534929711 -14232011.665410154 9276075.669028597 0 9276075.669028597 -4788401.7855967684 0 0 0 -4755103.3627517316 -18143929.175730843 8676797.4092433546 0 8676797.4092433546 -6048467.5494521782 0 0 0 -6048099.1812957553 -15960388.545133285 7430212.2374737896 0 7430212.2374737896 -5212628.6418954935 0 0 0 -5293254.2967571942 -22226822.820494525 6506361.8457875056 0 6506361.8457875056 -5646615.2791017294 0 0 0 -6968359.5248990636 -38550399.149658434 6776761.9538466996 0 6776761.9538466996 -4556723.5815852433 0 0 0 -10776780.682810917 -26064423.108062491 9352593.0821835548 0 9352593.0821835548 -8686437.6447869185 0 0 0 -8687715.1882123537 -23286422.816776641 3746642.8234635983 0 3746642.8234635983 866651.13894291595 0 0 0 -5604942.9194584284 -21184331.175998926 8933859.608571358 0 8933859.608571358 -4541495.6799330497 0 0 0 -6431456.7139829947 -17367274.441136245 2431525.6333477609 0 2431525.6333477609 2709.4522257223725 0 0 0 -4341141.2472276334 -23752460.937129341 2865570.6958681606 0 2865570.6958681606 -776325.72737701982 0 0 0 -6132196.6661265865 -17563674.379296198 2629827.3121536486 0 2629827.3121536486 329484.14438997209 0 0 0 -4308547.5587265603 -18510492.969611008 6369190.1728953123 0 6369190.1728953123 -851840.70334973931 0 0 0 -4840583.4182401896 -13109757.120655121 5419179.003736116 0 5419179.003736116 783813.23088139296 0 0 0 -3081485.9724434298 -13202705.462518405 8084251.2826814111 0 8084251.2826814111 -418522.96968194842 0 0 0 -3405307.1080500782 -9057586.2950182427 6425221.514568232 0 6425221.514568232 2499686.2765661702 0 0 0 -1639475.0046130214 -9530851.1217998751 11191021.080080349 0 11191021.080080349 1834217.0099688172 0 0 0 -1924158.527957771 -12830761.70878192 9683226.1620451659 0 9683226.1620451659 -768460.40400460362 0 0 0 -3399805.5281966254 -13336423.708997093 9683491.7831163034 0 9683491.7831163034 -2963621.1164370477 0 0 0 -4075011.2063585296 -12031705.397226334 10406690.514483266 0 10406690.514483266 -1743481.6067275144 0 0 0 -3443796.7509884601 -14217902.052765317 7359820.0246669576 0 7359820.0246669576 -1541136.8343440965 0 0 0 -3939759.7217773553 -13808132.716558889 7193449.8558862731 0 7193449.8558862731 -1402820.8882287592 0 0 0 -3802738.4011969166 
</DataArray>
<DataArray type="Float64" Name="cross_section_updated" format="ascii">
1 1 1 1 1 1 1 1 1 1 1 0.0010001242894888754 1 1 0.00099966901356538657 1 1 1 1 1 0.0093770698528525334 1 1 0.00099978907016076701 1 0.0010003880285559628 1 1 1 1 0.0091400851469896904 1 1 1 1 0.0095343950980449343 1 1 0.011848017680392932 1 1 1 1 1 1 1 1 1 1 1 1 1 1 1 1 1 1 1 1 1 1 1 1 1 1 1 1 0.00099993370301926232 1 0.0010002586759223038 1 1 1 1 1 1 1 1 1 1 0.00099976229107428746 1 1 1 0.0010000922884383732 1 1 1 1 1 1 1 1 1 1 1 1 1 1 1 1 1 1 1 1 1 1 1 1 1 1 1 1 1 1 1 1 1 1 1 1 1 1 1 
</DataArray>
</CellData>
</Piece>
</UnstructuredGrid>
</VTKFile>
