<?xml version="1.0"?>
<VTKFile type="UnstructuredGrid" version="0.1" byte_order="LittleEndian">
<UnstructuredGrid>
<Piece NumberOfPoints="360" NumberOfCells="124">
<Points>
<DataArray type="Float64" NumberOfComponents="3" format="ascii">
0 0 0 0.084352422163911631 0.086451712656266194 0 0 0.12500000000034689 0 0 0 0 0.084352422163911631 0.086451712656266194 0 0.1249999999997554 0 0 0 0.12500000000034689 0 0.1008171452988615 0.18885703697250469 0 0 0.25 0 0.084352422163911631 0.086451712656266194 0 0 0.12500000000034689 0 0.1008171452988615 0.18885703697250469 0 0.084352422163911631 0.086451712656266194 0 0.1008171452988615 0.18885703697250469 0 0.18402761812864499 0.1117324051466445 0 0.1008171452988615 0.18885703697250469 0 0.2403886547178353 0.24188814792673841 0 0.1249999999997599 0.31249999999987998 0 0.1008171452988615 0.18885703697250469 0 0.2403886547178353 0.24188814792673841 0 0.18402761812864499 0.1117324051466445 0 0.2403886547178353 0.24188814792673841 0 0.18402761812864499 0.1117324051466445 0 0.31250000000020822 0.12500000000041631 0 0.1249999999997554 0 0 0.18402761812864499 0.1117324051466445 0 0.25 -0 0 0.18402761812864499 0.1117324051466445 0 0.25 -0 0 0.31250000000020822 0.12500000000041631 0 0.084352422163911631 0.086451712656266194 0 0.1249999999997554 0 0 0.18402761812864499 0.1117324051466445 0 0.25 -0 0 0.31250000000020822 0.12500000000041631 0 0.25 -0 0 0.31250000000020822 0.12500000000041631 0 0.43749999999913258 0 0 0.2403886547178353 0.24188814792673841 0 0.31250000000020822 0.12500000000041631 0 0.37500000000027761 0.25000000000055511 0 0.31250000000020822 0.12500000000041631 0 0.37500000000027761 0.25000000000055511 0 0.31250000000020822 0.12500000000041631 0 0.4287911518546233 0.15455445427966699 0 0.37500000000027761 0.25000000000055511 0 0.4287911518546233 0.15455445427966699 0 0.49457493289300231 0.26251703776555491 0 0.37500000000027761 0.25000000000055511 0 0.4287911518546233 0.15455445427966699 0 0.49457493289300231 0.26251703776555491 0 0.54475767668582953 0.1431838882066932 0 0.31250000000020822 0.12500000000041631 0 0.4287911518546233 0.15455445427966699 0 0.43749999999913258 0 0 0.4287911518546233 0.15455445427966699 0 0.43749999999913258 0 0 0.54475767668582953 0.1431838882066932 0 0.37499999999973488 0.43749999999986738 0 0.5 0.5 -0 0.43750000000006939 0.37500000000013878 0 0.37499999999973488 0.43749999999986738 0 0.5 0.5 -0 0.43750000000006939 0.37500000000013878 0 0.33819444444448321 0.33819444444456342 0 0.37499999999973488 0.43749999999986738 0 0.43750000000006939 0.37500000000013878 0 0.5 0.5 -0 0.43750000000006939 0.37500000000013878 0 0.49457493289300231 0.26251703776555491 0 0.37500000000027761 0.25000000000055511 0 0.43750000000006939 0.37500000000013878 0 0.37500000000027761 0.25000000000055511 0 0.43750000000006939 0.37500000000013878 0 0.37500000000027761 0.25000000000055511 0 0.33819444444448321 0.33819444444456342 0 0.2403886547178353 0.24188814792673841 0 0.33819444444448321 0.33819444444456342 0 0.24999999999960859 0.37499999999980432 0 0.2403886547178353 0.24188814792673841 0 0.37500000000027761 0.25000000000055511 0 0.33819444444448321 0.33819444444456342 0 0.33819444444448321 0.33819444444456342 0 0.37499999999973488 0.43749999999986738 0 0.24999999999960859 0.37499999999980432 0 0.37499999999973488 0.43749999999986738 0 0.24999999999960859 0.37499999999980432 0 0.37499999999973488 0.43749999999986738 0 0.24999999999960859 0.37499999999980432 0 0.26452443700674649 0.51563531581639865 0 0.14929124186975251 0.44582793568106382 0 0.24999999999960859 0.37499999999980432 0 0.26452443700674649 0.51563531581639865 0 0.14929124186975251 0.44582793568106382 0 0.24999999999960859 0.37499999999980432 0 0.1249999999997599 0.31249999999987998 0 0.2403886547178353 0.24188814792673841 0 0.24999999999960859 0.37499999999980432 0 0.1249999999997599 0.31249999999987998 0 0.24999999999960859 0.37499999999980432 0 0.1249999999997599 0.31249999999987998 0 0.1249999999997599 0.31249999999987998 0 0 0.25 0 0 0.43750000000034689 0 0.1008171452988615 0.18885703697250469 0 0.1249999999997599 0.31249999999987998 0 0 0.25 0 0.1249999999997599 0.31249999999987998 0 0 0.25 0 0.14929124186975251 0.44582793568106382 0 0 0.43750000000034689 0 0.13928587515912139 0.57339806105677438 0 0.14929124186975251 0.44582793568106382 0 0.1249999999997599 0.31249999999987998 0 0 0.43750000000034689 0 0 0.43750000000034689 0 0 0.62500000000069389 0 0.13928587515912139 0.57339806105677438 0 0 0.62500000000069389 0 0.13900789599611679 0.72618316107059999 0 0.13928587515912139 0.57339806105677438 0 0 0.62500000000069389 0 0.13900789599611679 0.72618316107059999 0 0 0.81250000000104083 0 0.13900789599611679 0.72618316107059999 0 0.13928587515912139 0.57339806105677438 0 0.27589467050686478 0.66058853156435704 0 0.13900789599611679 0.72618316107059999 0 0.27987960212930818 0.83442741470570525 0 0.27589467050686478 0.66058853156435704 0 0.13928587515912139 0.57339806105677438 0 0.26452443700674649 0.51563531581639865 0 0.27589467050686478 0.66058853156435704 0 0.14929124186975251 0.44582793568106382 0 0.13928587515912139 0.57339806105677438 0 0.26452443700674649 0.51563531581639865 0 0 1 0 0.12710107136012311 0.87094806618203435 0 0.1875000000005205 1 0 0 1 0 0 0.81250000000104083 0 0.12710107136012311 0.87094806618203435 0 0.13900789599611679 0.72618316107059999 0 0 0.81250000000104083 0 0.12710107136012311 0.87094806618203435 0 0.13900789599611679 0.72618316107059999 0 0.12710107136012311 0.87094806618203435 0 0.27987960212930818 0.83442741470570525 0 0.12710107136012311 0.87094806618203435 0 0.1875000000005205 1 0 0.27987960212930818 0.83442741470570525 0 0.27987960212930818 0.83442741470570525 0 0.44927105396715372 0.85565124085155886 0 0.37500000000069389 1 0 0.1875000000005205 1 0 0.27987960212930818 0.83442741470570525 0 0.37500000000069389 1 0 0.27987960212930818 0.83442741470570525 0 0.44927105396715372 0.85565124085155886 0 0.38136204680495073 0.74038592213831234 0 0.44927105396715372 0.85565124085155886 0 0.38136204680495073 0.74038592213831234 0 0.50145856933078625 0.73674663046504862 0 0.44927105396715372 0.85565124085155886 0 0.37500000000069389 1 0 0.56250000000086742 1 0 0.26452443700674649 0.51563531581639865 0 0.27589467050686478 0.66058853156435704 0 0.4139414069912184 0.60563252640100373 0 0.37499999999973488 0.43749999999986738 0 0.26452443700674649 0.51563531581639865 0 0.4139414069912184 0.60563252640100373 0 0.27987960212930818 0.83442741470570525 0 0.27589467050686478 0.66058853156435704 0 0.38136204680495073 0.74038592213831234 0 0.27589467050686478 0.66058853156435704 0 0.38136204680495073 0.74038592213831234 0 0.4139414069912184 0.60563252640100373 0 0.38136204680495073 0.74038592213831234 0 0.4139414069912184 0.60563252640100373 0 0.50145856933078625 0.73674663046504862 0 0.4139414069912184 0.60563252640100373 0 0.50145856933078625 0.73674663046504862 0 0.5625 0.625 0 0.37499999999973488 0.43749999999986738 0 0.4139414069912184 0.60563252640100373 0 0.5 0.5 -0 0.4139414069912184 0.60563252640100373 0 0.5 0.5 -0 0.5625 0.625 0 0.5 0.5 -0 0.5625 0.625 0 0.63236534182377013 0.50296756406332266 0 0.5 0.5 -0 0.5625 0.625 0 0.50145856933078625 0.73674663046504862 0 0.5625 0.625 0 0.625 0.75 0 0.5625 0.625 0 0.625 0.75 0 0.71259747807844409 0.63846691315701831 0 0.625 0.75 0 0.73857795170433571 0.77736788564284653 0 0.5625 0.625 0 0.71259747807844409 0.63846691315701831 0 0.625 0.75 0 0.71259747807844409 0.63846691315701831 0 0.63236534182377013 0.50296756406332266 0 0.75338430262320943 0.49294443423175599 0 0.5625 0.625 0 0.71259747807844409 0.63846691315701831 0 0.63236534182377013 0.50296756406332266 0 0.56250000000086742 1 0 0.56777512057187585 0.8470224641095303 0 0.6875 0.875 0 0.44927105396715372 0.85565124085155886 0 0.56250000000086742 1 0 0.56777512057187585 0.8470224641095303 0 0.44927105396715372 0.85565124085155886 0 0.50145856933078625 0.73674663046504862 0 0.56777512057187585 0.8470224641095303 0 0.50145856933078625 0.73674663046504862 0 0.56777512057187585 0.8470224641095303 0 0.625 0.75 0 0.625 0.75 0 0.73857795170433571 0.77736788564284653 0 0.6875 0.875 0 0.73857795170433571 0.77736788564284653 0 0.6875 0.875 0 0.80552984491000901 0.88711122872127413 0 0.625 0.75 0 0.6875 0.875 0 0.56777512057187585 0.8470224641095303 0 0.625 0.75 0 0.6875 0.875 0 0.56250000000086742 1 0 0.6875 0.875 0 0.75 1 0 0.6875 0.875 0 0.75 1 0 0.80552984491000901 0.88711122872127413 0 0.6875 0.875 0 0.75 1 0 0.75 1 0 0.80552984491000901 0.88711122872127413 0 0.875 1 0 0.80552984491000901 0.88711122872127413 0 0.90637953422180084 0.90208583328057301 0 0.875 1 0 0.80552984491000901 0.88711122872127413 0 0.85787927391517405 0.753532520882502 0 0.90637953422180084 0.90208583328057301 0 0.73857795170433571 0.77736788564284653 0 0.80552984491000901 0.88711122872127413 0 0.85787927391517405 0.753532520882502 0 0.85787927391517405 0.753532520882502 0 1 0.83333333333356463 0 1 0.66666666666736052 0 0.85787927391517405 0.753532520882502 0 1 0.83333333333356463 0 0.90637953422180084 0.90208583328057301 0 1 0.83333333333356463 0 0.90637953422180084 0.90208583328057301 0 1 1 0 0.90637953422180084 0.90208583328057301 0 1 1 0 0.875 1 0 0.71259747807844409 0.63846691315701831 0 0.86127466977819722 0.57948076978797636 0 0.75338430262320943 0.49294443423175599 0 0.71259747807844409 0.63846691315701831 0 0.85787927391517405 0.753532520882502 0 0.86127466977819722 0.57948076978797636 0 0.71259747807844409 0.63846691315701831 0 0.73857795170433571 0.77736788564284653 0 0.85787927391517405 0.753532520882502 0 0.85787927391517405 0.753532520882502 0 0.86127466977819722 0.57948076978797636 0 1 0.66666666666736052 0 0.86127466977819722 0.57948076978797636 0 1 0.66666666666736052 0 1 0.50000000000138767 0 1 0.50000000000138767 0 0.86569408477091048 0.40983673916766611 0 1 0.33333333333448978 0 0.86127466977819722 0.57948076978797636 0 1 0.50000000000138767 0 0.86569408477091048 0.40983673916766611 0 0.86127466977819722 0.57948076978797636 0 0.75338430262320943 0.49294443423175599 0 0.86569408477091048 0.40983673916766611 0 0.75338430262320943 0.49294443423175599 0 0.86569408477091048 0.40983673916766611 0 0.71826039492840632 0.34564020717216182 0 0.86087286690217635 0.25206523597959418 0 0.71508993406183785 0.15715956854777599 0 0.71826039492840632 0.34564020717216182 0 0.86569408477091048 0.40983673916766611 0 0.86087286690217635 0.25206523597959418 0 0.71826039492840632 0.34564020717216182 0 0.86087286690217635 0.25206523597959418 0 1 0.33333333333448978 0 1 0.16666666666736049 0 0.86569408477091048 0.40983673916766611 0 0.86087286690217635 0.25206523597959418 0 1 0.33333333333448978 0 0.86087286690217635 0.25206523597959418 0 1 0.16666666666736049 0 0.87698901648812122 0.1160638338657984 0 1 0 0 0.87698901648812122 0.1160638338657984 0 0.81249999999947953 0 0 1 0.16666666666736049 0 1 0 0 0.87698901648812122 0.1160638338657984 0 0.87698901648812122 0.1160638338657984 0 0.81249999999947953 0 0 0.71508993406183785 0.15715956854777599 0 0.86087286690217635 0.25206523597959418 0 0.87698901648812122 0.1160638338657984 0 0.71508993406183785 0.15715956854777599 0 0.71508993406183785 0.15715956854777599 0 0.62499999999895905 0 0 0.54475767668582953 0.1431838882066932 0 0.81249999999947953 0 0 0.71508993406183785 0.15715956854777599 0 0.62499999999895905 0 0 0.43749999999913258 0 0 0.62499999999895905 0 0 0.54475767668582953 0.1431838882066932 0 0.71508993406183785 0.15715956854777599 0 0.54475767668582953 0.1431838882066932 0 0.61108462585082757 0.25750599582343231 0 0.49457493289300231 0.26251703776555491 0 0.54475767668582953 0.1431838882066932 0 0.61108462585082757 0.25750599582343231 0 0.49457493289300231 0.26251703776555491 0 0.61108462585082757 0.25750599582343231 0 0.56986707178436635 0.37762093650871992 0 0.43750000000006939 0.37500000000013878 0 0.49457493289300231 0.26251703776555491 0 0.56986707178436635 0.37762093650871992 0 0.43750000000006939 0.37500000000013878 0 0.5 0.5 -0 0.56986707178436635 0.37762093650871992 0 0.5 0.5 -0 0.63236534182377013 0.50296756406332266 0 0.56986707178436635 0.37762093650871992 0 0.63236534182377013 0.50296756406332266 0 0.75338430262320943 0.49294443423175599 0 0.71826039492840632 0.34564020717216182 0 0.63236534182377013 0.50296756406332266 0 0.56986707178436635 0.37762093650871992 0 0.71826039492840632 0.34564020717216182 0 0.71508993406183785 0.15715956854777599 0 0.61108462585082757 0.25750599582343231 0 0.71826039492840632 0.34564020717216182 0 0.61108462585082757 0.25750599582343231 0 0.56986707178436635 0.37762093650871992 0 0.71826039492840632 0.34564020717216182 0 
</DataArray>
</Points>
<Cells>
<DataArray type="UInt32" Name="connectivity" format="ascii">
0 1 2 3 4 5 6 7 8 9 10 11 12 13 14 15 16 17 18 19 20 21 22 23 24 25 26 27 28 29 30 31 32 33 34 35 36 37 38 39 40 41 42 43 44 45 46 47 48 49 50 51 52 53 54 55 56 57 58 59 60 61 62 63 64 65 66 67 68 69 70 71 72 73 74 75 76 77 78 79 80 81 82 83 84 85 86 87 88 89 90 91 92 93 94 95 96 97 98 99 100 101 102 103 104 105 106 107 108 109 110 111 112 113 114 115 116 117 118 119 120 121 122 123 124 125 126 127 128 129 130 131 132 133 134 135 136 137 138 139 140 141 142 143 144 145 146 147 148 149 150 151 152 153 154 155 156 157 158 159 160 161 162 163 164 165 166 167 168 169 170 171 172 173 174 175 176 177 178 179 180 181 182 183 184 185 186 187 188 189 190 191 192 193 194 195 196 197 198 199 200 201 202 203 204 205 206 207 208 209 210 211 212 213 214 215 216 217 218 219 220 221 222 223 224 225 226 227 228 229 230 231 232 233 234 235 236 237 238 239 240 241 242 243 244 245 246 247 248 249 250 251 252 253 254 255 256 257 258 259 260 261 262 263 264 265 266 267 268 269 270 271 272 273 274 275 276 277 278 279 280 281 282 283 284 285 286 287 288 289 290 291 292 293 294 295 296 297 298 299 300 301 302 303 304 305 306 307 308 309 310 311 312 313 314 315 316 317 318 319 320 321 322 323 324 325 326 327 328 329 330 331 332 333 334 335 336 337 338 339 340 341 342 343 344 345 346 347 348 349 350 351 352 353 354 355 356 357 358 359 
</DataArray>
<DataArray type="UInt32" Name="offsets" format="ascii">
3 6 9 12 15 18 21 24 27 30 33 35 38 41 43 46 49 52 55 58 60 63 66 68 71 73 76 79 82 85 87 90 93 96 99 101 104 107 109 112 115 118 121 124 127 130 133 136 139 142 145 148 151 154 157 160 163 166 169 172 175 178 181 184 187 190 193 195 198 200 203 206 209 212 215 218 221 224 227 230 232 235 238 241 243 246 249 252 255 258 261 264 267 270 273 276 279 282 285 288 291 294 297 300 303 306 309 312 315 318 321 324 327 330 333 336 339 342 345 348 351 354 357 360 
</DataArray>
<DataArray type="UInt32" Name="types" format="ascii">
5 5 5 5 5 5 5 5 5 5 5 3 5 5 3 5 5 5 5 5 3 5 5 3 5 3 5 5 5 5 3 5 5 5 5 3 5 5 3 5 5 5 5 5 5 5 5 5 5 5 5 5 5 5 5 5 5 5 5 5 5 5 5 5 5 5 5 3 5 3 5 5 5 5 5 5 5 5 5 5 3 5 5 5 3 5 5 5 5 5 5 5 5 5 5 5 5 5 5 5 5 5 5 5 5 5 5 5 5 5 5 5 5 5 5 5 5 5 5 5 5 5 5 5 
</DataArray>
</Cells>
<PointData Scalars="" Vectors="displacement," Tensors="">
<DataArray type="Float64" Name="displacement" NumberOfComponents="3" format="ascii">
1.9587226642793492e-08 -0.033294110229809278 0 -0.00030480334735975817 -0.032916456188453826 0 -8.040690557448029e-09 -0.033200816404374486 0 1.9587226642793492e-08 -0.033294110229809278 0 -0.00030480334735975817 -0.032916456188453826 0 0.00022254476535227272 -0.032613117750327818 0 -8.040690557448029e-09 -0.033200816404374486 0 -0.00099908849708813105 -0.032676177129241736 0 -4.078835642557898e-07 -0.033015205912305855 0 -0.00030480334735975817 -0.032916456188453826 0 -8.040690557448029e-09 -0.033200816404374486 0 -0.00099908849708813105 -0.032676177129241736 0 -0.00030480334735975817 -0.032916456188453826 0 -0.00099908849708813105 -0.032676177129241736 0 -0.00094475916586817617 -0.031880354476289931 0 -0.00099908849708813105 -0.032676177129241736 0 -0.0030552724718032847 -0.030853300802408622 0 -0.0031305591837414168 -0.031963709040611375 0 -0.00099908849708813105 -0.032676177129241736 0 -0.0030552724718032847 -0.030853300802408622 0 -0.00094475916586817617 -0.031880354476289931 0 -0.0030552724718032847 -0.030853300802408622 0 -0.00094475916586817617 -0.031880354476289931 0 -0.001787387806162815 -0.029704429838669028 0 0.00022254476535227272 -0.032613117750327818 0 -0.00094475916586817617 -0.031880354476289931 0 0.00011274550232175606 -0.030947942506858117 0 -0.00094475916586817617 -0.031880354476289931 0 0.00011274550232175606 -0.030947942506858117 0 -0.001787387806162815 -0.029704429838669028 0 -0.00030480334735975817 -0.032916456188453826 0 0.00022254476535227272 -0.032613117750327818 0 -0.00094475916586817617 -0.031880354476289931 0 0.0046152958892584917 -0.022323614517104951 0 0.0024769805336953771 -0.020844018928975597 0 0.009054008236427569 -0.013612893313959609 0 0.0067440427727525976 -0.012094092486119987 0 0.0080093968093479118 -0.0098383320591370182 0 -0.0030552724718032847 -0.030853300802408622 0 -0.001787387806162815 -0.029704429838669028 0 -0.0041400056726282565 -0.028651143781875891 0 0.0024769805336953771 -0.020844018928975597 0 0.00051345691329104763 -0.019746404271472597 0 0.0067440427727525976 -0.012094092486119987 0 0.0057261521878834865 -0.0096716526385168533 0 0.0052170461133651787 -0.01048451644770337 0 0.0057261521878834865 -0.0096716526385168533 0 0.0041993856101791563 -0.0079996342249631525 0 0.0052170461133651787 -0.01048451644770337 0 0.0057261521878834865 -0.0096716526385168533 0 0.0041993856101791563 -0.0079996342249631525 0 0.0049828106656021071 -0.0074530512208804221 0 0.0067440427727525976 -0.012094092486119987 0 0.0057261521878834865 -0.0096716526385168533 0 0.0080093968093479118 -0.0098383320591370182 0 0.0057261521878834865 -0.0096716526385168533 0 0.0080093968093479118 -0.0098383320591370182 0 0.0049828106656021071 -0.0074530512208804221 0 -0.0046913909355602431 -0.027149413114255422 0 -0.0022279705546100837 -0.020010888175039931 0 -0.0058416162159713719 -0.028254064449989017 0 -0.0062523802538020611 -0.029289676959012224 0 -0.007120420757086846 -0.027853010099189966 0 -0.0058416162159713719 -0.028254064449989017 0 -0.0049759025948379974 -0.029451307665692632 0 -0.0062523802538020611 -0.029289676959012224 0 -0.00095503083532819349 -0.017760525242164822 0 -0.0022279705546100837 -0.020010888175039931 0 0.0037207658685711911 -0.0085818240286855089 0 0.0041993856101791563 -0.0079996342249631525 0 0.0052170461133651787 -0.01048451644770337 0 -0.00095503083532819349 -0.017760525242164822 0 0.00051345691329104763 -0.019746404271472597 0 -0.0058416162159713719 -0.028254064449989017 0 -0.0041400056726282565 -0.028651143781875891 0 -0.0049759025948379974 -0.029451307665692632 0 -0.0030552724718032847 -0.030853300802408622 0 -0.0049759025948379974 -0.029451307665692632 0 -0.0049711952821100431 -0.030810068933281597 0 -0.0030552724718032847 -0.030853300802408622 0 -0.0041400056726282565 -0.028651143781875891 0 -0.0049759025948379974 -0.029451307665692632 0 -0.0049759025948379974 -0.029451307665692632 0 -0.0062523802538020611 -0.029289676959012224 0 -0.0049711952821100431 -0.030810068933281597 0 -0.0046913909355602431 -0.027149413114255422 0 -0.0025195137302123079 -0.02711715607536299 0 -0.0015624616189048345 -0.022601204566063723 0 -0.00049381567094371984 -0.024076223403479143 0 -0.0016180282119202429 -0.024190942808789924 0 -0.00066250807964705481 -0.025294695227624127 0 -0.00049381567094371984 -0.024076223403479143 0 -0.0016180282119202429 -0.024190942808789924 0 -0.00066250807964705481 -0.025294695227624127 0 -0.00049381567094371984 -0.024076223403479143 0 9.574226811503368e-05 -0.025602227710874392 0 -0.0030552724718032847 -0.030853300802408622 0 -0.0049711952821100431 -0.030810068933281597 0 -0.0031305591837414168 -0.031963709040611375 0 -0.0025195137302123079 -0.02711715607536299 0 -0.0015886899945987351 -0.028881718116835604 0 9.574226811503368e-05 -0.025602227710874392 0 5.6386545861651384e-08 -0.02578838763820112 0 -7.0978636510787462e-08 -0.025956033348280588 0 -0.00099908849708813105 -0.032676177129241736 0 -0.0031305591837414168 -0.031963709040611375 0 -4.078835642557898e-07 -0.033015205912305855 0 -0.0015886899945987351 -0.028881718116835604 0 5.7448026732081097e-05 -0.029332451117293823 0 -0.00066250807964705481 -0.025294695227624127 0 -7.0978636510787462e-08 -0.025956033348280588 0 -0.0010079833303194561 -0.025368977756775431 0 -0.00066250807964705481 -0.025294695227624127 0 9.574226811503368e-05 -0.025602227710874392 0 -7.0978636510787462e-08 -0.025956033348280588 0 -7.0978636510787462e-08 -0.025956033348280588 0 -1.5988447660560432e-07 -0.025758066101329552 0 -0.0010079833303194561 -0.025368977756775431 0 -1.5988447660560432e-07 -0.025758066101329552 0 -0.001322976768857242 -0.025385066442954532 0 -0.0010079833303194561 -0.025368977756775431 0 -1.5988447660560432e-07 -0.025758066101329552 0 -0.001322976768857242 -0.025385066442954532 0 -1.9198409717103566e-07 -0.025763240260138858 0 -0.001322976768857242 -0.025385066442954532 0 -0.0010079833303194561 -0.025368977756775431 0 -0.0023618913224167644 -0.024224227758320577 0 -0.001322976768857242 -0.025385066442954532 0 -0.0029637883137568137 -0.024424260323169036 0 -0.0023618913224167644 -0.024224227758320577 0 -0.0010079833303194561 -0.025368977756775431 0 -0.0016180282119202429 -0.024190942808789924 0 -0.0023618913224167644 -0.024224227758320577 0 -0.00066250807964705481 -0.025294695227624127 0 -0.0010079833303194561 -0.025368977756775431 0 -0.0016180282119202429 -0.024190942808789924 0 -3.0304624352251279e-07 -0.025924559709544916 0 -0.0014673140272932223 -0.025526232920391839 0 -0.0027270771408329348 -0.025275676017921543 0 -3.0304624352251279e-07 -0.025924559709544916 0 -1.9198409717103566e-07 -0.025763240260138858 0 -0.0014673140272932223 -0.025526232920391839 0 -0.001322976768857242 -0.025385066442954532 0 -1.9198409717103566e-07 -0.025763240260138858 0 -0.0014673140272932223 -0.025526232920391839 0 -0.001322976768857242 -0.025385066442954532 0 -0.0014673140272932223 -0.025526232920391839 0 -0.0029637883137568137 -0.024424260323169036 0 -0.0014673140272932223 -0.025526232920391839 0 -0.0027270771408329348 -0.025275676017921543 0 -0.0029637883137568137 -0.024424260323169036 0 -0.0029637883137568137 -0.024424260323169036 0 -0.0046474137481305059 -0.022705828259985007 0 -0.0050151342926331756 -0.023762233867993789 0 -0.0027270771408329348 -0.025275676017921543 0 -0.0029637883137568137 -0.024424260323169036 0 -0.0050151342926331756 -0.023762233867993789 0 -0.0029637883137568137 -0.024424260323169036 0 -0.0046474137481305059 -0.022705828259985007 0 -0.0035091411111259668 -0.023207429936857954 0 -0.0046474137481305059 -0.022705828259985007 0 -0.0035091411111259668 -0.023207429936857954 0 -0.0044109690626540181 -0.021783844592940624 0 -0.0046474137481305059 -0.022705828259985007 0 -0.0050151342926331756 -0.023762233867993789 0 -0.0068047096771616166 -0.021764969336324481 0 -0.0016180282119202429 -0.024190942808789924 0 -0.0023618913224167644 -0.024224227758320577 0 -0.0032320397752039587 -0.022507528353383502 0 -0.0015624616189048345 -0.022601204566063723 0 -0.0016180282119202429 -0.024190942808789924 0 -0.0032320397752039587 -0.022507528353383502 0 -0.0029637883137568137 -0.024424260323169036 0 -0.0023618913224167644 -0.024224227758320577 0 -0.0035091411111259668 -0.023207429936857954 0 -0.0023618913224167644 -0.024224227758320577 0 -0.0035091411111259668 -0.023207429936857954 0 -0.0032320397752039587 -0.022507528353383502 0 -0.0035091411111259668 -0.023207429936857954 0 -0.0032320397752039587 -0.022507528353383502 0 -0.0044109690626540181 -0.021783844592940624 0 -0.0032320397752039587 -0.022507528353383502 0 -0.0044109690626540181 -0.021783844592940624 0 -0.00450435639224828 -0.020737995387228054 0 -0.0015624616189048345 -0.022601204566063723 0 -0.0032320397752039587 -0.022507528353383502 0 -0.0031871018618772921 -0.021149714722802582 0 -0.0032320397752039587 -0.022507528353383502 0 -0.0031871018618772921 -0.021149714722802582 0 -0.00450435639224828 -0.020737995387228054 0 0.0034494972112149892 -0.0072606503156607861 0 0.0031110814811335331 -0.0061229858971016569 0 0.0025047259583462454 -0.0052792357617405042 0 -0.0022279705546100837 -0.020010888175039931 0 -6.3279031014925506e-05 -0.01187557330485229 0 -0.0044109690626540181 -0.021783844592940624 0 -0.00450435639224828 -0.020737995387228054 0 -0.0052551304473604623 -0.0204933846582009 0 -6.3279031014925506e-05 -0.01187557330485229 0 -0.001679888916868765 -0.013108124409762592 0 0.001872752441116045 -0.0038056402112579108 0 0.0022397801719286196 -0.0048876971602245132 0 0.0015106324737319374 -0.0033196055317904201 0 0.0031110814811335331 -0.0061229858971016569 0 0.001872752441116045 -0.0038056402112579108 0 0.0022397801719286196 -0.0048876971602245132 0 0.001872752441116045 -0.0038056402112579108 0 0.0025047259583462454 -0.0052792357617405042 0 0.0016626913443379965 -0.0033677053651620884 0 0.0031110814811335331 -0.0061229858971016569 0 0.001872752441116045 -0.0038056402112579108 0 0.0025047259583462454 -0.0052792357617405042 0 -0.0068047096771616166 -0.021764969336324481 0 -0.0055165261074434837 -0.021358550925024686 0 -0.0066425950100248371 -0.019968042396408672 0 -0.0046474137481305059 -0.022705828259985007 0 -0.0068047096771616166 -0.021764969336324481 0 -0.0055165261074434837 -0.021358550925024686 0 -0.0046474137481305059 -0.022705828259985007 0 -0.0044109690626540181 -0.021783844592940624 0 -0.0055165261074434837 -0.021358550925024686 0 -0.0044109690626540181 -0.021783844592940624 0 -0.0055165261074434837 -0.021358550925024686 0 -0.0052551304473604623 -0.0204933846582009 0 0.0022397801719286196 -0.0048876971602245132 0 0.0015106324737319374 -0.0033196055317904201 0 0.0016432794643081372 -0.0040121597055496599 0 0.0015106324737319374 -0.0033196055317904201 0 0.0016432794643081372 -0.0040121597055496599 0 0.00080402459083142954 -0.0021783499405351502 0 -0.001679888916868765 -0.013108124409762592 0 -0.0024415035856627438 -0.011875346626427538 0 -0.0055165261074434837 -0.021358550925024686 0 -0.0052551304473604623 -0.0204933846582009 0 -0.0066425950100248371 -0.019968042396408672 0 -0.0068047096771616166 -0.021764969336324481 0 -0.0066425950100248371 -0.019968042396408672 0 -0.0079831664917285206 -0.019705365579573229 0 0.0016432794643081372 -0.0040121597055496599 0 0.00011473636061009694 -0.002893693616373259 0 0.00080402459083142954 -0.0021783499405351502 0 -0.0024415035856627438 -0.011875346626427538 0 -0.0039925705675731039 -0.0113422396785023 0 0.00011473636061009694 -0.002893693616373259 0 0.00080402459083142954 -0.0021783499405351502 0 -0.000264398494815233 -0.0011740502246445042 0 0.00080402459083142954 -0.0021783499405351502 0 0.00027768365710106549 -0.00084678645493857301 0 -0.000264398494815233 -0.0011740502246445042 0 0.00080402459083142954 -0.0021783499405351502 0 0.00081124750200633436 -0.001616629754179805 0 0.00027768365710106549 -0.00084678645493857301 0 0.0015106324737319374 -0.0033196055317904201 0 0.00080402459083142954 -0.0021783499405351502 0 0.00081124750200633436 -0.001616629754179805 0 0.00081124750200633436 -0.001616629754179805 0 9.3846190940414141e-08 -4.0991199522211793e-08 0 9.338229218472736e-08 -6.7677448167960415e-08 0 0.00081124750200633436 -0.001616629754179805 0 9.3846190940414141e-08 -4.0991199522211793e-08 0 0.00027768365710106549 -0.00084678645493857301 0 9.3846190940414141e-08 -4.0991199522211793e-08 0 0.00027768365710106549 -0.00084678645493857301 0 -9.5209985398634976e-08 -2.0658816285362201e-08 0 0.00027768365710106549 -0.00084678645493857301 0 -9.5209985398634976e-08 -2.0658816285362201e-08 0 -0.000264398494815233 -0.0011740502246445042 0 0.001872752441116045 -0.0038056402112579108 0 0.00089269494638920244 -0.0017454424101872145 0 0.0016626913443379965 -0.0033677053651620884 0 0.001872752441116045 -0.0038056402112579108 0 0.00081124750200633436 -0.001616629754179805 0 0.00089269494638920244 -0.0017454424101872145 0 0.001872752441116045 -0.0038056402112579108 0 0.0015106324737319374 -0.0033196055317904201 0 0.00081124750200633436 -0.001616629754179805 0 0.00081124750200633436 -0.001616629754179805 0 0.00089269494638920244 -0.0017454424101872145 0 9.338229218472736e-08 -6.7677448167960415e-08 0 0.00089269494638920244 -0.0017454424101872145 0 9.338229218472736e-08 -6.7677448167960415e-08 0 1.057241375236691e-07 -6.7978573010808407e-08 0 1.057241375236691e-07 -6.7978573010808407e-08 0 0.00093743042551123535 -0.0017422258254458471 0 1.4197142814778053e-07 -7.1383497348248889e-08 0 0.00089269494638920244 -0.0017454424101872145 0 1.057241375236691e-07 -6.7978573010808407e-08 0 0.00093743042551123535 -0.0017422258254458471 0 0.00089269494638920244 -0.0017454424101872145 0 0.0016626913443379965 -0.0033677053651620884 0 0.00093743042551123535 -0.0017422258254458471 0 0.0016626913443379965 -0.0033677053651620884 0 0.00093743042551123535 -0.0017422258254458471 0 0.0020873885176755382 -0.0040413203444651918 0 0.001244775742394754 -0.0018110288212401164 0 0.0031687515258501209 -0.0044155934860204797 0 0.0020873885176755382 -0.0040413203444651918 0 0.00093743042551123535 -0.0017422258254458471 0 0.001244775742394754 -0.0018110288212401164 0 0.0020873885176755382 -0.0040413203444651918 0 0.001244775742394754 -0.0018110288212401164 0 1.4197142814778053e-07 -7.1383497348248889e-08 0 1.1858463856653348e-07 -2.5736545085927229e-08 0 0.00093743042551123535 -0.0017422258254458471 0 0.001244775742394754 -0.0018110288212401164 0 1.4197142814778053e-07 -7.1383497348248889e-08 0 0.001244775742394754 -0.0018110288212401164 0 1.1858463856653348e-07 -2.5736545085927229e-08 0 0.0015699318486044589 -0.0017191232239845411 0 4.8492444761361286e-07 -1.8180665744417614e-07 0 0.0015699318486044589 -0.0017191232239845411 0 0.0038234820956764733 -0.0034230953420851763 0 1.1858463856653348e-07 -2.5736545085927229e-08 0 4.8492444761361286e-07 -1.8180665744417614e-07 0 0.0015699318486044589 -0.0017191232239845411 0 0.0015699318486044589 -0.0017191232239845411 0 0.0038234820956764733 -0.0034230953420851763 0 0.0031687515258501209 -0.0044155934860204797 0 0.001244775742394754 -0.0018110288212401164 0 0.0015699318486044589 -0.0017191232239845411 0 0.0031687515258501209 -0.0044155934860204797 0 0.0031687515258501209 -0.0044155934860204797 0 0.006220371416681073 -0.0064970696195864562 0 0.0049828106656021071 -0.0074530512208804221 0 0.0038234820956764733 -0.0034230953420851763 0 0.0031687515258501209 -0.0044155934860204797 0 0.006220371416681073 -0.0064970696195864562 0 0.0080093968093479118 -0.0098383320591370182 0 0.006220371416681073 -0.0064970696195864562 0 0.0049828106656021071 -0.0074530512208804221 0 0.0031687515258501209 -0.0044155934860204797 0 0.0049828106656021071 -0.0074530512208804221 0 0.0033908708269541014 -0.0059622350632287536 0 0.0041993856101791563 -0.0079996342249631525 0 0.0049828106656021071 -0.0074530512208804221 0 0.0033908708269541014 -0.0059622350632287536 0 0.0041993856101791563 -0.0079996342249631525 0 0.0033908708269541014 -0.0059622350632287536 0 0.0029980649985902269 -0.0064414934527634816 0 0.0037207658685711911 -0.0085818240286855089 0 0.0041993856101791563 -0.0079996342249631525 0 0.0029980649985902269 -0.0064414934527634816 0 0.0037207658685711911 -0.0085818240286855089 0 0.0034494972112149892 -0.0072606503156607861 0 0.0029980649985902269 -0.0064414934527634816 0 0.0034494972112149892 -0.0072606503156607861 0 0.0025047259583462454 -0.0052792357617405042 0 0.0029980649985902269 -0.0064414934527634816 0 0.0025047259583462454 -0.0052792357617405042 0 0.0016626913443379965 -0.0033677053651620884 0 0.0020873885176755382 -0.0040413203444651918 0 0.0025047259583462454 -0.0052792357617405042 0 0.0029980649985902269 -0.0064414934527634816 0 0.0020873885176755382 -0.0040413203444651918 0 0.0031687515258501209 -0.0044155934860204797 0 0.0033908708269541014 -0.0059622350632287536 0 0.0020873885176755382 -0.0040413203444651918 0 0.0033908708269541014 -0.0059622350632287536 0 0.0029980649985902269 -0.0064414934527634816 0 0.0020873885176755382 -0.0040413203444651918 0 
</DataArray>
</PointData>
<CellData Scalars="region_id,cross_section_updated," Vectors="" Tensors="stress,">
<DataArray type="Float64" Name="region_id" format="ascii">
11 11 11 11 11 11 11 11 11 11 11 5 11 11 5 11 11 11 11 11 6 11 11 5 11 5 11 11 11 11 6 11 11 11 11 6 11 11 6 11 11 11 11 11 11 11 11 11 11 11 11 11 11 11 11 11 11 11 11 11 11 11 11 11 11 11 11 4 11 4 11 11 11 11 11 11 11 11 11 11 4 11 11 11 4 11 11 11 11 11 11 11 11 11 11 11 11 11 11 11 11 11 11 11 11 11 11 11 11 11 11 11 11 11 11 11 11 11 11 11 11 11 11 11 
</DataArray>
<DataArray type="Float64" Name="stress" NumberOfComponents="9" format="ascii">
-4037607.8229490221 1484780.6455661803 0 1484780.6455661803 -549761.96394169331 0 0 0 -1146842.4467226863 1757334.7938295901 74013.5367667377 0 74013.5367667377 -424640.17853862047 0 0 0 333173.65382276475 -11295407.40088141 1704061.3371345177 0 1704061.3371345177 -2181259.6013037562 0 0 0 -3369166.7505462915 -6830380.3960814178 -654122.94332170486 0 -654122.94332170486 -483888.85220223665 0 0 0 -1828567.312070936 -5599323.8914459087 1689774.9445655942 0 1689774.9445655942 -1115742.3506750464 0 0 0 -1678766.5605302341 -9220576.8848282695 -1506525.593348898 0 -1506525.593348898 622870.6171245575 0 0 0 -2149426.566925928 -11240470.506223172 108403.98319666088 0 108403.98319666088 -892831.70245987177 0 0 0 -3033325.5521707535 -5902320.4965529069 1150177.4006650746 0 1150177.4006650746 -1345705.0574231446 0 0 0 -1812006.3884940073 -1245843.0852479339 1335254.0280043632 0 1335254.0280043632 -926668.12216809392 0 0 0 -543127.80185400695 -5688664.8803986162 1682010.2294449061 0 1682010.2294449061 -231996.06576949358 0 0 0 -1480165.2365420386 -4732176.6781969145 774112.68770197034 0 774112.68770197034 -263541.10589846969 0 0 0 -1248929.446023874 6246.7974406163248 4684.8353803758928 0 4684.8353803758928 -6242.5945275798713 0 0 0 1.0507282591124749 -5851549.1560995113 1774760.0488136113 0 1774760.0488136113 273387.55394338816 0 0 0 -1394540.4005390313 -8465327.5651890561 437081.41347536445 0 437081.41347536445 -2550561.1571085453 0 0 0 -2753972.1805744022 6395.2479798342729 4796.3618284531876 0 4796.3618284531876 -6394.0616312593866 0 0 0 0.2965871437199894 -6636909.370610036 4453435.9538956247 0 4453435.9538956247 795133.88547177613 0 0 0 -1460443.8712845594 -7804253.8778113015 4359620.8853302225 0 4359620.8853302225 616933.74567480385 0 0 0 -1796830.0330341272 -7382840.483773984 3930759.7688499913 0 3930759.7688499913 1393943.2834587023 0 0 0 -1497224.3000788204 -5025334.4752175696 2086303.7366576632 0 2086303.7366576632 693347.62444733083 0 0 0 -1082996.7126925588 -8615178.0692949258 1650266.8225962892 0 1650266.8225962892 -558713.50321844965 0 0 0 -2293472.8931283429 109.79118972435026 366.20330336262077 0 366.20330336262077 6449.2092168740783 0 0 0 1639.7501016496062 -4280293.4497433603 1669783.0184279084 0 1669783.0184279084 -5036695.3389006555 0 0 0 -2329247.197160989 -6817041.4715632647 848518.17400570959 0 848518.17400570959 -5785006.6947346926 0 0 0 -3150512.041574508 7192.1016073553164 5395.9238028898744 0 5395.9238028898744 -7221.6628106215103 0 0 0 -7.3903008165484607 -7150992.8375768736 4842521.798871018 0 4842521.798871018 3054073.9595324695 0 0 0 -1024229.7195110992 6768.2672929248711 5075.3994267373728 0 5075.3994267373728 -6755.4505540909722 0 0 0 3.2041847084747133 -6809238.0833689868 797733.69791203737 0 797733.69791203737 -6003137.5894607604 0 0 0 -3203093.9182074219 -7365171.3351503313 447510.59942285717 0 447510.59942285717 -3270634.0347617269 0 0 0 -2658951.3424780071 -9640327.4643840641 1586237.994907409 0 1586237.994907409 -5549973.146679461 0 0 0 -3797575.152765885 -7044577.0263897926 1126348.1848331094 0 1126348.1848331094 -6119504.3143412173 0 0 0 -3291020.3351827711 -75.508328461562996 436.50497137921548 0 436.50497137921548 6377.5397152088444 0 0 0 1575.507846686819 -6618233.6111556292 2149869.6286857724 0 2149869.6286857724 -4494275.0682247281 0 0 0 -2778127.1698450893 -5185787.8772245795 1252416.9475604594 0 1252416.9475604594 -3782376.8347791433 0 0 0 -2242041.178000927 -2436491.9780902117 2740413.7360174954 0 2740413.7360174954 -715479.56175413728 0 0 0 -787992.88496109843 -9514240.7552277464 -1769222.5401597321 0 -1769222.5401597321 -3549445.9722415134 0 0 0 -3265921.6818673182 270.55865269667629 210.12054533596984 0 210.12054533596984 6343.0446790423812 0 0 0 1653.4008329347635 561347.85014720261 774262.14580871165 0 774262.14580871165 -766601.867290169 0 0 0 -51313.504285737872 -20016792.315895282 -3019430.4813136011 0 -3019430.4813136011 -1804749.8679696321 0 0 0 -5455385.5459662303 1552.8514270486139 -639.10624455640118 0 -639.10624455640118 7001.1527883934541 0 0 0 2138.5010538605184 -5214502.4220373333 560030.41914237011 0 560030.41914237011 -1987586.1765027344 0 0 0 -1800522.1496350169 -4388764.4531933088 -233372.22235439718 0 -233372.22235439718 152972.96333151311 0 0 0 -1058947.872465441 -8260657.2543235058 1273653.7231208086 0 1273653.7231208086 -1627338.7465662849 0 0 0 -2471999.0002224385 -9645926.0643995777 272022.74625626206 0 272022.74625626206 -3322282.4209245741 0 0 0 -3242052.1213310286 -11430241.863345616 1081285.5172412395 0 1081285.5172412395 -3839515.8356747627 0 0 0 -3817439.424755089 -10337990.113377843 2543953.4447982311 0 2543953.4447982311 -3541945.5094109797 0 0 0 -3469983.9056972149 -11510068.523573257 1836025.9978792518 0 1836025.9978792518 -5255844.8682688177 0 0 0 -4191478.3479605168 -8755738.3528323546 1756748.5092525147 0 1756748.5092525147 -3914510.2488028407 0 0 0 -3167562.150408797 -7555248.2987585403 2509831.8809835911 0 2509831.8809835911 -2346375.6305250041 0 0 0 -2475405.9823208787 -17322619.850457601 202144.48610871285 0 202144.48610871285 -5430915.0038427114 0 0 0 -5688383.7135750651 -14195368.20151452 903907.53313538432 0 903907.53313538432 -5649517.8237977028 0 0 0 -4961221.5063280612 -13133320.638557971 141331.62295962125 0 141331.62295962125 -5222384.0170176327 0 0 0 -4588926.1638939083 -12437359.787152344 2112368.194895193 0 2112368.194895193 -4561303.6903331559 0 0 0 -4249665.8693713639 -13605750.802516203 899233.51829431951 0 899233.51829431951 -5911184.365387544 0 0 0 -4879233.7919759341 -11633589.405721046 1277730.3425496528 0 1277730.3425496528 -5980902.4780183136 0 0 0 -4403622.9709348455 -14899057.460313436 1077126.0136688054 0 1077126.0136688054 -5647663.6569188982 0 0 0 -5136680.2793080918 -11976447.758388028 2409895.4566127546 0 2409895.4566127546 -5863744.4311648011 0 0 0 -4460048.0473882109 -10240083.714758344 2567905.6613078415 0 2567905.6613078415 -6171506.849482134 0 0 0 -4102897.6410601214 -12188348.246228985 1277519.3308849782 0 1277519.3308849782 -6022958.1760964543 0 0 0 -4552826.6055813655 -10179621.610337101 2989415.1690458059 0 2989415.1690458059 -4639707.6277241483 0 0 0 -3704832.3095153114 -7677006.1103756055 1628232.3041000739 0 1628232.3041000739 -5103031.9860401154 0 0 0 -3195009.5241039321 -10642985.590400424 2970908.8957479149 0 2970908.8957479149 -5036607.9696372878 0 0 0 -3919898.3900094302 -10424601.105795741 3004204.2190709487 0 3004204.2190709487 -6056550.626814276 0 0 0 -4120287.9331524894 -10090969.549769476 3152869.5524945408 0 3152869.5524945408 -5865267.1949275061 0 0 0 -3989059.1861742362 -10781276.283043548 3468549.7116211429 0 3468549.7116211429 -6434205.690326333 0 0 0 -4303870.4933424741 -11865474.983607691 1996615.3335900456 0 1996615.3335900456 -6527498.5770298392 0 0 0 -4598243.3901593909 -10369379.89973592 2236211.0799416602 0 2236211.0799416602 -6493829.9246332198 0 0 0 -4215802.4560922831 -7934562.6195970196 6321548.5419240501 0 6321548.5419240501 -900853.47364522889 0 0 0 -2208854.0233105626 5128.1025699566344 3840.1776257255842 0 3840.1776257255842 -5033.7137266306636 0 0 0 23.597210831493157 -9227752.2790354192 3231728.1510124058 0 3231728.1510124058 -6756990.5149633735 0 0 0 -3996185.698499687 5396.6795098945804 4048.8157809706649 0 4048.8157809706649 -5417.5778768122245 0 0 0 -5.2245917294110313 -6893927.6888869647 4840936.617533857 0 4840936.617533857 -1273933.0503258444 0 0 0 -2041965.1848032009 -8673697.6266871952 4902722.3010524027 0 4902722.3010524027 -475846.80169069767 0 0 0 -2287386.107094476 -7820448.1749127433 6158726.7086307742 0 6158726.7086307742 -1058680.3054787479 0 0 0 -2219782.1200978719 -9193005.0947399754 6203259.2928458937 0 6203259.2928458937 -1111453.4768961444 0 0 0 -2576114.6429090258 -9749168.7109417375 1384825.1750269011 0 1384825.1750269011 -5637127.6807388924 0 0 0 -3846574.0979201556 -10468772.700187393 1003301.5299128443 0 1003301.5299128443 -5911331.5510131121 0 0 0 -4095026.0628001243 -10413000.829861414 2312707.0693716556 0 2312707.0693716556 -6516686.5944877267 0 0 0 -4232421.8560872935 -8422382.6362095028 1759780.0213277489 0 1759780.0213277489 -5572525.2738441825 0 0 0 -3498726.9775134251 -7144195.3613467561 4801000.5443247147 0 4801000.5443247147 -2258727.7220005393 0 0 0 -2350730.7708368227 -7863834.3608743036 5278000.5328291617 0 5278000.5328291617 -1573668.8771803323 0 0 0 -2359375.8095136583 5646.1366238795335 4234.0572072137329 0 4234.0572072137329 -5637.4124470517072 0 0 0 2.1810442069563578 -9982059.9530851841 1918165.8834119886 0 1918165.8834119886 -5265077.4625971466 0 0 0 -3811784.353920579 -8898468.4732678197 1361013.2085150629 0 1361013.2085150629 -6583075.7844352722 0 0 0 -3870386.0644257739 -6909695.6246647853 2506860.964648325 0 2506860.964648325 -977268.22151947767 0 0 0 -1971740.9615460653 5857.0470294173292 4392.9404252265977 0 4392.9404252265977 -5859.5294774740305 0 0 0 -0.62061201417532175 -3467530.2050929172 2463709.3676098511 0 2463709.3676098511 -696738.31639030762 0 0 0 -1041067.1303708069 -4697251.7283406602 2478393.9840850239 0 2478393.9840850239 -660469.8201391343 0 0 0 -1339430.3871199489 -5542985.3004159825 4433387.6714142412 0 4433387.6714142412 -870636.81672417512 0 0 0 -1603405.5292850388 -7043663.2661919268 4809754.8553336849 0 4809754.8553336849 -740384.26403068937 0 0 0 -1946011.8825556552 -6848934.5497165984 4549868.0610096073 0 4549868.0610096073 -2282807.3912475286 0 0 0 -2282935.4852410317 -4703741.8150997609 3299500.8864661781 0 3299500.8864661781 350221.04057139903 0 0 0 -1088380.1936320907 -3559016.5896687205 3617361.4260549699 0 3617361.4260549699 -1186208.7359701903 0 0 0 -1186306.3314097275 2404379.7501735333 1813427.3634255242 0 1813427.3634255242 446975.15887683816 0 0 0 712838.72726259287 -7733141.8336090352 5517018.064418355 0 5517018.064418355 -1528354.2679742575 0 0 0 -2315374.0253958236 -7789126.983560388 5463859.4813471213 0 5463859.4813471213 -1510207.5545404535 0 0 0 -2324833.6345252106 -7064185.2858427595 5191263.8944340488 0 5191263.8944340488 -1502127.06468052 0 0 0 -2141578.0876308186 -6889577.1323369928 4553341.8810296766 0 4553341.8810296766 -1258034.2085496292 0 0 0 -2036902.835221655 -7721113.5666151019 5032575.6649228809 0 5032575.6649228809 -2573702.5950060361 0 0 0 -2573704.0404052837 -8374649.8533154083 5188533.3346740594 0 5188533.3346740594 -2791528.1595893782 0 0 0 -2791544.5032261969 -7896707.4023470003 4929304.2438779138 0 4929304.2438779138 -2297856.6685396004 0 0 0 -2548641.0177216493 -7994258.5100922342 5721176.1861183196 0 5721176.1861183196 -2275291.3513301853 0 0 0 -2567387.4653556044 -8381713.2444257159 5614800.1274884818 0 5614800.1274884818 -1776695.0054931864 0 0 0 -2539602.0624797251 -10799224.068393789 4472194.5959946867 0 4472194.5959946867 -1782281.1257825568 0 0 0 -3145376.2985440865 -8470810.340829378 5551675.4318664875 0 5551675.4318664875 -2867315.9375363654 0 0 0 -2834531.5695914351 -10735428.941671804 5206746.3123446805 0 5206746.3123446805 -3578768.4543850836 0 0 0 -3578549.3490142217 -9524412.4093467277 4515466.8009723295 0 4515466.8009723295 -3133176.3174532303 0 0 0 -3164397.1816999903 -13102831.059942901 3947594.6113290098 0 3947594.6113290098 -3370575.9761919919 0 0 0 -4118351.7590337256 -22652007.075898502 4067226.1912212214 0 4067226.1912212214 -2710202.838904094 0 0 0 -6340552.4787006499 -15312424.261486972 5589028.4587909523 0 5589028.4587909523 -5103142.571776568 0 0 0 -5103891.7083158838 -13666444.519855984 2261985.7739341911 0 2261985.7739341911 517889.44863496535 0 0 0 -3287138.7678052541 -12433589.148024257 5329366.7093242276 0 5329366.7093242276 -2717195.1415717523 0 0 0 -3787696.072399003 -10136255.717783364 1441217.8964949064 0 1441217.8964949064 3860.354162633419 0 0 0 -2533098.8409051821 -13801543.135044042 1722055.6994077973 0 1722055.6994077973 -497718.32676719129 0 0 0 -3574815.3654528074 -10125753.423224613 1531893.0694532469 0 1531893.0694532469 155439.76520179212 0 0 0 -2492578.414505709 -10847688.948279202 3786860.7730610287 0 3786860.7730610287 -598137.0246264413 0 0 0 -2861456.4932264127 -7696018.0748797785 3180199.2214940414 0 3180199.2214940414 447459.543928314 0 0 0 -1812139.6327378619 -7807096.5848306715 4735412.4066954749 0 4735412.4066954749 -425528.6366712749 0 0 0 -2058156.3053754866 -5187037.4424133487 3661902.9120836109 0 3661902.9120836109 1469609.6711552627 0 0 0 -929356.94281451777 -5561460.3548873793 6674133.0079824738 0 6674133.0079824738 822876.77042018622 0 0 0 -1184645.8961168006 -7823244.5481750667 5818821.1476348834 0 5818821.1476348834 -656754.28686171025 0 0 0 -2119999.7087591961 -8152338.4730969667 5864182.1250430653 0 5864182.1250430653 -1873686.378760308 0 0 0 -2506506.2129643168 -7132617.6240574745 6247401.9760281201 0 6247401.9760281201 -1214285.8387227748 0 0 0 -2086725.8656950621 -8375136.3861826146 4363320.3103754828 0 4363320.3103754828 -969977.47431506217 0 0 0 -2336278.4651244199 -8191733.6216938589 4292816.1025088206 0 4292816.1025088206 -933389.17213157378 0 0 0 -2281280.69845636 
</DataArray>
<DataArray type="Float64" Name="cross_section_updated" format="ascii">
1 1 1 1 1 1 1 1 1 1 1 0.001000000018021566 1 1 0.0010000000096365789 1 1 1 1 1 0.0050607660838805288 1 1 0.00099999997783075095 1 0.00099999999677917277 1 1 1 1 0.0049527728533557205 1 1 1 1 0.0051338127557121332 1 1 0.0063553455723863658 1 1 1 1 1 1 1 1 1 1 1 1 1 1 1 1 1 1 1 1 1 1 1 1 1 1 1 1 0.00099999999903402706 1 0.00099999999938263015 1 1 1 1 1 1 1 1 1 1 0.00099999999964418742 1 1 1 0.00099999999983995313 1 1 1 1 1 1 1 1 1 1 1 1 1 1 1 1 1 1 1 1 1 1 1 1 1 1 1 1 1 1 1 1 1 1 1 1 1 1 1 
</DataArray>
</CellData>
</Piece>
</UnstructuredGrid>
</VTKFile>
