<?xml version="1.0"?>
<VTKFile type="UnstructuredGrid" version="0.1" byte_order="LittleEndian">
<UnstructuredGrid>
<Piece NumberOfPoints="360" NumberOfCells="124">
<Points>
<DataArray type="Float64" NumberOfComponents="3" format="ascii">
0 0 0 0.084352422163911631 0.086451712656266194 0 0 0.12500000000034689 0 0 0 0 0.084352422163911631 0.086451712656266194 0 0.1249999999997554 0 0 0 0.12500000000034689 0 0.1008171452988615 0.18885703697250469 0 0 0.25 0 0.084352422163911631 0.086451712656266194 0 0 0.12500000000034689 0 0.1008171452988615 0.18885703697250469 0 0.084352422163911631 0.086451712656266194 0 0.1008171452988615 0.18885703697250469 0 0.18402761812864499 0.1117324051466445 0 0.1008171452988615 0.18885703697250469 0 0.2403886547178353 0.24188814792673841 0 0.1249999999997599 0.31249999999987998 0 0.1008171452988615 0.18885703697250469 0 0.2403886547178353 0.24188814792673841 0 0.18402761812864499 0.1117324051466445 0 0.2403886547178353 0.24188814792673841 0 0.18402761812864499 0.1117324051466445 0 0.31250000000020822 0.12500000000041631 0 0.1249999999997554 0 0 0.18402761812864499 0.1117324051466445 0 0.25 -0 0 0.18402761812864499 0.1117324051466445 0 0.25 -0 0 0.31250000000020822 0.12500000000041631 0 0.084352422163911631 0.086451712656266194 0 0.1249999999997554 0 0 0.18402761812864499 0.1117324051466445 0 0.25 -0 0 0.31250000000020822 0.12500000000041631 0 0.25 -0 0 0.31250000000020822 0.12500000000041631 0 0.43749999999913258 0 0 0.2403886547178353 0.24188814792673841 0 0.31250000000020822 0.12500000000041631 0 0.37500000000027761 0.25000000000055511 0 0.31250000000020822 0.12500000000041631 0 0.37500000000027761 0.25000000000055511 0 0.31250000000020822 0.12500000000041631 0 0.4287911518546233 0.15455445427966699 0 0.37500000000027761 0.25000000000055511 0 0.4287911518546233 0.15455445427966699 0 0.49457493289300231 0.26251703776555491 0 0.37500000000027761 0.25000000000055511 0 0.4287911518546233 0.15455445427966699 0 0.49457493289300231 0.26251703776555491 0 0.54475767668582953 0.1431838882066932 0 0.31250000000020822 0.12500000000041631 0 0.4287911518546233 0.15455445427966699 0 0.43749999999913258 0 0 0.4287911518546233 0.15455445427966699 0 0.43749999999913258 0 0 0.54475767668582953 0.1431838882066932 0 0.37499999999973488 0.43749999999986738 0 0.5 0.5 -0 0.43750000000006939 0.37500000000013878 0 0.37499999999973488 0.43749999999986738 0 0.5 0.5 -0 0.43750000000006939 0.37500000000013878 0 0.33819444444448321 0.33819444444456342 0 0.37499999999973488 0.43749999999986738 0 0.43750000000006939 0.37500000000013878 0 0.5 0.5 -0 0.43750000000006939 0.37500000000013878 0 0.49457493289300231 0.26251703776555491 0 0.37500000000027761 0.25000000000055511 0 0.43750000000006939 0.37500000000013878 0 0.37500000000027761 0.25000000000055511 0 0.43750000000006939 0.37500000000013878 0 0.37500000000027761 0.25000000000055511 0 0.33819444444448321 0.33819444444456342 0 0.2403886547178353 0.24188814792673841 0 0.33819444444448321 0.33819444444456342 0 0.24999999999960859 0.37499999999980432 0 0.2403886547178353 0.24188814792673841 0 0.37500000000027761 0.25000000000055511 0 0.33819444444448321 0.33819444444456342 0 0.33819444444448321 0.33819444444456342 0 0.37499999999973488 0.43749999999986738 0 0.24999999999960859 0.37499999999980432 0 0.37499999999973488 0.43749999999986738 0 0.24999999999960859 0.37499999999980432 0 0.37499999999973488 0.43749999999986738 0 0.24999999999960859 0.37499999999980432 0 0.26452443700674649 0.51563531581639865 0 0.14929124186975251 0.44582793568106382 0 0.24999999999960859 0.37499999999980432 0 0.26452443700674649 0.51563531581639865 0 0.14929124186975251 0.44582793568106382 0 0.24999999999960859 0.37499999999980432 0 0.1249999999997599 0.31249999999987998 0 0.2403886547178353 0.24188814792673841 0 0.24999999999960859 0.37499999999980432 0 0.1249999999997599 0.31249999999987998 0 0.24999999999960859 0.37499999999980432 0 0.1249999999997599 0.31249999999987998 0 0.1249999999997599 0.31249999999987998 0 0 0.25 0 0 0.43750000000034689 0 0.1008171452988615 0.18885703697250469 0 0.1249999999997599 0.31249999999987998 0 0 0.25 0 0.1249999999997599 0.31249999999987998 0 0 0.25 0 0.14929124186975251 0.44582793568106382 0 0 0.43750000000034689 0 0.13928587515912139 0.57339806105677438 0 0.14929124186975251 0.44582793568106382 0 0.1249999999997599 0.31249999999987998 0 0 0.43750000000034689 0 0 0.43750000000034689 0 0 0.62500000000069389 0 0.13928587515912139 0.57339806105677438 0 0 0.62500000000069389 0 0.13900789599611679 0.72618316107059999 0 0.13928587515912139 0.57339806105677438 0 0 0.62500000000069389 0 0.13900789599611679 0.72618316107059999 0 0 0.81250000000104083 0 0.13900789599611679 0.72618316107059999 0 0.13928587515912139 0.57339806105677438 0 0.27589467050686478 0.66058853156435704 0 0.13900789599611679 0.72618316107059999 0 0.27987960212930818 0.83442741470570525 0 0.27589467050686478 0.66058853156435704 0 0.13928587515912139 0.57339806105677438 0 0.26452443700674649 0.51563531581639865 0 0.27589467050686478 0.66058853156435704 0 0.14929124186975251 0.44582793568106382 0 0.13928587515912139 0.57339806105677438 0 0.26452443700674649 0.51563531581639865 0 0 1 0 0.12710107136012311 0.87094806618203435 0 0.1875000000005205 1 0 0 1 0 0 0.81250000000104083 0 0.12710107136012311 0.87094806618203435 0 0.13900789599611679 0.72618316107059999 0 0 0.81250000000104083 0 0.12710107136012311 0.87094806618203435 0 0.13900789599611679 0.72618316107059999 0 0.12710107136012311 0.87094806618203435 0 0.27987960212930818 0.83442741470570525 0 0.12710107136012311 0.87094806618203435 0 0.1875000000005205 1 0 0.27987960212930818 0.83442741470570525 0 0.27987960212930818 0.83442741470570525 0 0.44927105396715372 0.85565124085155886 0 0.37500000000069389 1 0 0.1875000000005205 1 0 0.27987960212930818 0.83442741470570525 0 0.37500000000069389 1 0 0.27987960212930818 0.83442741470570525 0 0.44927105396715372 0.85565124085155886 0 0.38136204680495073 0.74038592213831234 0 0.44927105396715372 0.85565124085155886 0 0.38136204680495073 0.74038592213831234 0 0.50145856933078625 0.73674663046504862 0 0.44927105396715372 0.85565124085155886 0 0.37500000000069389 1 0 0.56250000000086742 1 0 0.26452443700674649 0.51563531581639865 0 0.27589467050686478 0.66058853156435704 0 0.4139414069912184 0.60563252640100373 0 0.37499999999973488 0.43749999999986738 0 0.26452443700674649 0.51563531581639865 0 0.4139414069912184 0.60563252640100373 0 0.27987960212930818 0.83442741470570525 0 0.27589467050686478 0.66058853156435704 0 0.38136204680495073 0.74038592213831234 0 0.27589467050686478 0.66058853156435704 0 0.38136204680495073 0.74038592213831234 0 0.4139414069912184 0.60563252640100373 0 0.38136204680495073 0.74038592213831234 0 0.4139414069912184 0.60563252640100373 0 0.50145856933078625 0.73674663046504862 0 0.4139414069912184 0.60563252640100373 0 0.50145856933078625 0.73674663046504862 0 0.5625 0.625 0 0.37499999999973488 0.43749999999986738 0 0.4139414069912184 0.60563252640100373 0 0.5 0.5 -0 0.4139414069912184 0.60563252640100373 0 0.5 0.5 -0 0.5625 0.625 0 0.5 0.5 -0 0.5625 0.625 0 0.63236534182377013 0.50296756406332266 0 0.5 0.5 -0 0.5625 0.625 0 0.50145856933078625 0.73674663046504862 0 0.5625 0.625 0 0.625 0.75 0 0.5625 0.625 0 0.625 0.75 0 0.71259747807844409 0.63846691315701831 0 0.625 0.75 0 0.73857795170433571 0.77736788564284653 0 0.5625 0.625 0 0.71259747807844409 0.63846691315701831 0 0.625 0.75 0 0.71259747807844409 0.63846691315701831 0 0.63236534182377013 0.50296756406332266 0 0.75338430262320943 0.49294443423175599 0 0.5625 0.625 0 0.71259747807844409 0.63846691315701831 0 0.63236534182377013 0.50296756406332266 0 0.56250000000086742 1 0 0.56777512057187585 0.8470224641095303 0 0.6875 0.875 0 0.44927105396715372 0.85565124085155886 0 0.56250000000086742 1 0 0.56777512057187585 0.8470224641095303 0 0.44927105396715372 0.85565124085155886 0 0.50145856933078625 0.73674663046504862 0 0.56777512057187585 0.8470224641095303 0 0.50145856933078625 0.73674663046504862 0 0.56777512057187585 0.8470224641095303 0 0.625 0.75 0 0.625 0.75 0 0.73857795170433571 0.77736788564284653 0 0.6875 0.875 0 0.73857795170433571 0.77736788564284653 0 0.6875 0.875 0 0.80552984491000901 0.88711122872127413 0 0.625 0.75 0 0.6875 0.875 0 0.56777512057187585 0.8470224641095303 0 0.625 0.75 0 0.6875 0.875 0 0.56250000000086742 1 0 0.6875 0.875 0 0.75 1 0 0.6875 0.875 0 0.75 1 0 0.80552984491000901 0.88711122872127413 0 0.6875 0.875 0 0.75 1 0 0.75 1 0 0.80552984491000901 0.88711122872127413 0 0.875 1 0 0.80552984491000901 0.88711122872127413 0 0.90637953422180084 0.90208583328057301 0 0.875 1 0 0.80552984491000901 0.88711122872127413 0 0.85787927391517405 0.753532520882502 0 0.90637953422180084 0.90208583328057301 0 0.73857795170433571 0.77736788564284653 0 0.80552984491000901 0.88711122872127413 0 0.85787927391517405 0.753532520882502 0 0.85787927391517405 0.753532520882502 0 1 0.83333333333356463 0 1 0.66666666666736052 0 0.85787927391517405 0.753532520882502 0 1 0.83333333333356463 0 0.90637953422180084 0.90208583328057301 0 1 0.83333333333356463 0 0.90637953422180084 0.90208583328057301 0 1 1 0 0.90637953422180084 0.90208583328057301 0 1 1 0 0.875 1 0 0.71259747807844409 0.63846691315701831 0 0.86127466977819722 0.57948076978797636 0 0.75338430262320943 0.49294443423175599 0 0.71259747807844409 0.63846691315701831 0 0.85787927391517405 0.753532520882502 0 0.86127466977819722 0.57948076978797636 0 0.71259747807844409 0.63846691315701831 0 0.73857795170433571 0.77736788564284653 0 0.85787927391517405 0.753532520882502 0 0.85787927391517405 0.753532520882502 0 0.86127466977819722 0.57948076978797636 0 1 0.66666666666736052 0 0.86127466977819722 0.57948076978797636 0 1 0.66666666666736052 0 1 0.50000000000138767 0 1 0.50000000000138767 0 0.86569408477091048 0.40983673916766611 0 1 0.33333333333448978 0 0.86127466977819722 0.57948076978797636 0 1 0.50000000000138767 0 0.86569408477091048 0.40983673916766611 0 0.86127466977819722 0.57948076978797636 0 0.75338430262320943 0.49294443423175599 0 0.86569408477091048 0.40983673916766611 0 0.75338430262320943 0.49294443423175599 0 0.86569408477091048 0.40983673916766611 0 0.71826039492840632 0.34564020717216182 0 0.86087286690217635 0.25206523597959418 0 0.71508993406183785 0.15715956854777599 0 0.71826039492840632 0.34564020717216182 0 0.86569408477091048 0.40983673916766611 0 0.86087286690217635 0.25206523597959418 0 0.71826039492840632 0.34564020717216182 0 0.86087286690217635 0.25206523597959418 0 1 0.33333333333448978 0 1 0.16666666666736049 0 0.86569408477091048 0.40983673916766611 0 0.86087286690217635 0.25206523597959418 0 1 0.33333333333448978 0 0.86087286690217635 0.25206523597959418 0 1 0.16666666666736049 0 0.87698901648812122 0.1160638338657984 0 1 0 0 0.87698901648812122 0.1160638338657984 0 0.81249999999947953 0 0 1 0.16666666666736049 0 1 0 0 0.87698901648812122 0.1160638338657984 0 0.87698901648812122 0.1160638338657984 0 0.81249999999947953 0 0 0.71508993406183785 0.15715956854777599 0 0.86087286690217635 0.25206523597959418 0 0.87698901648812122 0.1160638338657984 0 0.71508993406183785 0.15715956854777599 0 0.71508993406183785 0.15715956854777599 0 0.62499999999895905 0 0 0.54475767668582953 0.1431838882066932 0 0.81249999999947953 0 0 0.71508993406183785 0.15715956854777599 0 0.62499999999895905 0 0 0.43749999999913258 0 0 0.62499999999895905 0 0 0.54475767668582953 0.1431838882066932 0 0.71508993406183785 0.15715956854777599 0 0.54475767668582953 0.1431838882066932 0 0.61108462585082757 0.25750599582343231 0 0.49457493289300231 0.26251703776555491 0 0.54475767668582953 0.1431838882066932 0 0.61108462585082757 0.25750599582343231 0 0.49457493289300231 0.26251703776555491 0 0.61108462585082757 0.25750599582343231 0 0.56986707178436635 0.37762093650871992 0 0.43750000000006939 0.37500000000013878 0 0.49457493289300231 0.26251703776555491 0 0.56986707178436635 0.37762093650871992 0 0.43750000000006939 0.37500000000013878 0 0.5 0.5 -0 0.56986707178436635 0.37762093650871992 0 0.5 0.5 -0 0.63236534182377013 0.50296756406332266 0 0.56986707178436635 0.37762093650871992 0 0.63236534182377013 0.50296756406332266 0 0.75338430262320943 0.49294443423175599 0 0.71826039492840632 0.34564020717216182 0 0.63236534182377013 0.50296756406332266 0 0.56986707178436635 0.37762093650871992 0 0.71826039492840632 0.34564020717216182 0 0.71508993406183785 0.15715956854777599 0 0.61108462585082757 0.25750599582343231 0 0.71826039492840632 0.34564020717216182 0 0.61108462585082757 0.25750599582343231 0 0.56986707178436635 0.37762093650871992 0 0.71826039492840632 0.34564020717216182 0 
</DataArray>
</Points>
<Cells>
<DataArray type="UInt32" Name="connectivity" format="ascii">
0 1 2 3 4 5 6 7 8 9 10 11 12 13 14 15 16 17 18 19 20 21 22 23 24 25 26 27 28 29 30 31 32 33 34 35 36 37 38 39 40 41 42 43 44 45 46 47 48 49 50 51 52 53 54 55 56 57 58 59 60 61 62 63 64 65 66 67 68 69 70 71 72 73 74 75 76 77 78 79 80 81 82 83 84 85 86 87 88 89 90 91 92 93 94 95 96 97 98 99 100 101 102 103 104 105 106 107 108 109 110 111 112 113 114 115 116 117 118 119 120 121 122 123 124 125 126 127 128 129 130 131 132 133 134 135 136 137 138 139 140 141 142 143 144 145 146 147 148 149 150 151 152 153 154 155 156 157 158 159 160 161 162 163 164 165 166 167 168 169 170 171 172 173 174 175 176 177 178 179 180 181 182 183 184 185 186 187 188 189 190 191 192 193 194 195 196 197 198 199 200 201 202 203 204 205 206 207 208 209 210 211 212 213 214 215 216 217 218 219 220 221 222 223 224 225 226 227 228 229 230 231 232 233 234 235 236 237 238 239 240 241 242 243 244 245 246 247 248 249 250 251 252 253 254 255 256 257 258 259 260 261 262 263 264 265 266 267 268 269 270 271 272 273 274 275 276 277 278 279 280 281 282 283 284 285 286 287 288 289 290 291 292 293 294 295 296 297 298 299 300 301 302 303 304 305 306 307 308 309 310 311 312 313 314 315 316 317 318 319 320 321 322 323 324 325 326 327 328 329 330 331 332 333 334 335 336 337 338 339 340 341 342 343 344 345 346 347 348 349 350 351 352 353 354 355 356 357 358 359 
</DataArray>
<DataArray type="UInt32" Name="offsets" format="ascii">
3 6 9 12 15 18 21 24 27 30 33 35 38 41 43 46 49 52 55 58 60 63 66 68 71 73 76 79 82 85 87 90 93 96 99 101 104 107 109 112 115 118 121 124 127 130 133 136 139 142 145 148 151 154 157 160 163 166 169 172 175 178 181 184 187 190 193 195 198 200 203 206 209 212 215 218 221 224 227 230 232 235 238 241 243 246 249 252 255 258 261 264 267 270 273 276 279 282 285 288 291 294 297 300 303 306 309 312 315 318 321 324 327 330 333 336 339 342 345 348 351 354 357 360 
</DataArray>
<DataArray type="UInt32" Name="types" format="ascii">
5 5 5 5 5 5 5 5 5 5 5 3 5 5 3 5 5 5 5 5 3 5 5 3 5 3 5 5 5 5 3 5 5 5 5 3 5 5 3 5 5 5 5 5 5 5 5 5 5 5 5 5 5 5 5 5 5 5 5 5 5 5 5 5 5 5 5 3 5 3 5 5 5 5 5 5 5 5 5 5 3 5 5 5 3 5 5 5 5 5 5 5 5 5 5 5 5 5 5 5 5 5 5 5 5 5 5 5 5 5 5 5 5 5 5 5 5 5 5 5 5 5 5 5 
</DataArray>
</Cells>
<PointData Scalars="" Vectors="displacement," Tensors="">
<DataArray type="Float64" Name="displacement" NumberOfComponents="3" format="ascii">
4.9950709420474062e-08 -0.086853195687240897 0 -0.0007755925294305804 -0.085889210837740051 0 -2.0400764545751904e-08 -0.086618104573538718 0 4.9950709420474062e-08 -0.086853195687240897 0 -0.0007755925294305804 -0.085889210837740051 0 0.00056545398739983252 -0.085112698912760743 0 -2.0400764545751904e-08 -0.086618104573538718 0 -0.0025533246146893528 -0.085280118286901588 0 -1.0422138316011156e-06 -0.086144435334947214 0 -0.0007755925294305804 -0.085889210837740051 0 -2.0400764545751904e-08 -0.086618104573538718 0 -0.0025533246146893528 -0.085280118286901588 0 -0.0007755925294305804 -0.085889210837740051 0 -0.0025533246146893528 -0.085280118286901588 0 -0.0024031947490225363 -0.083241150770615543 0 -0.0025533246146893528 -0.085280118286901588 0 -0.007807980254574084 -0.080641257720812931 0 -0.0079966542382898867 -0.083463813483337576 0 -0.0025533246146893528 -0.085280118286901588 0 -0.007807980254574084 -0.080641257720812931 0 -0.0024031947490225363 -0.083241150770615543 0 -0.007807980254574084 -0.080641257720812931 0 -0.0024031947490225363 -0.083241150770615543 0 -0.004524578913245556 -0.077665053106000748 0 0.00056545398739983252 -0.085112698912760743 0 -0.0024031947490225363 -0.083241150770615543 0 0.00027284672824765086 -0.080842506766794969 0 -0.0024031947490225363 -0.083241150770615543 0 0.00027284672824765086 -0.080842506766794969 0 -0.004524578913245556 -0.077665053106000748 0 -0.0007755925294305804 -0.085889210837740051 0 0.00056545398739983252 -0.085112698912760743 0 -0.0024031947490225363 -0.083241150770615543 0 0.012059207403697673 -0.058378887588239954 0 0.0065550879276214677 -0.054522885585654893 0 0.023684667459240479 -0.035675239084200464 0 0.017630605999093871 -0.031698310413159035 0 0.020946634913453832 -0.025860210668992429 0 -0.007807980254574084 -0.080641257720812931 0 -0.004524578913245556 -0.077665053106000748 0 -0.010652099060605989 -0.074834174331680353 0 0.0065550879276214677 -0.054522885585654893 0 0.0014905742776329086 -0.051724073097911896 0 0.017630605999093871 -0.031698310413159035 0 0.01503144472428191 -0.025451599228923087 0 0.013803390119147727 -0.027579569331119904 0 0.01503144472428191 -0.025451599228923087 0 0.011080092894722858 -0.02107507459654152 0 0.013803390119147727 -0.027579569331119904 0 0.01503144472428191 -0.025451599228923087 0 0.011080092894722858 -0.02107507459654152 0 0.013085193955559703 -0.019659822958192567 0 0.017630605999093871 -0.031698310413159035 0 0.01503144472428191 -0.025451599228923087 0 0.020946634913453832 -0.025860210668992429 0 0.01503144472428191 -0.025451599228923087 0 0.020946634913453832 -0.025860210668992429 0 0.013085193955559703 -0.019659822958192567 0 -0.012237937283294914 -0.07183112578181898 0 -0.0057291414780167478 -0.052823603555286022 0 -0.014890718085233271 -0.073630077999786936 0 -0.015996798485588541 -0.076398850852441288 0 -0.018110839558181158 -0.072236380953207627 0 -0.014890718085233271 -0.073630077999786936 0 -0.012677808275428568 -0.076916391301301637 0 -0.015996798485588541 -0.076398850852441288 0 -0.0021921325069438882 -0.046193911742231808 0 -0.0057291414780167478 -0.052823603555286022 0 0.0098111775979594727 -0.022569913124512286 0 0.011080092894722858 -0.02107507459654152 0 0.013803390119147727 -0.027579569331119904 0 -0.0021921325069438882 -0.046193911742231808 0 0.0014905742776329086 -0.051724073097911896 0 -0.014890718085233271 -0.073630077999786936 0 -0.010652099060605989 -0.074834174331680353 0 -0.012677808275428568 -0.076916391301301637 0 -0.007807980254574084 -0.080641257720812931 0 -0.012677808275428568 -0.076916391301301637 0 -0.012654753301317974 -0.080624696117026898 0 -0.007807980254574084 -0.080641257720812931 0 -0.010652099060605989 -0.074834174331680353 0 -0.012677808275428568 -0.076916391301301637 0 -0.012677808275428568 -0.076916391301301637 0 -0.015996798485588541 -0.076398850852441288 0 -0.012654753301317974 -0.080624696117026898 0 -0.012237937283294914 -0.07183112578181898 0 -0.0065102403076555751 -0.071742917679235407 0 -0.0043400045334547116 -0.06090664055469984 0 -0.0014889060128445641 -0.064580974200411798 0 -0.0044122469823676801 -0.064971916279262326 0 -0.0018578756382163484 -0.067871439885860113 0 -0.0014889060128445641 -0.064580974200411798 0 -0.0044122469823676801 -0.064971916279262326 0 -0.0018578756382163484 -0.067871439885860113 0 -0.0014889060128445641 -0.064580974200411798 0 0.0002134254868826468 -0.068725703452740053 0 -0.007807980254574084 -0.080641257720812931 0 -0.012654753301317974 -0.080624696117026898 0 -0.0079966542382898867 -0.083463813483337576 0 -0.0065102403076555751 -0.071742917679235407 0 -0.0040763422059600625 -0.076353239374992721 0 0.0002134254868826468 -0.068725703452740053 0 1.509276787750959e-07 -0.069227205277131026 0 -2.0176535453551892e-07 -0.069652664360222424 0 -0.0025533246146893528 -0.085280118286901588 0 -0.0079966542382898867 -0.083463813483337576 0 -1.0422138316011156e-06 -0.086144435334947214 0 -0.0040763422059600625 -0.076353239374992721 0 0.00014210453544560676 -0.077509943832806599 0 -0.0018578756382163484 -0.067871439885860113 0 -2.0176535453551892e-07 -0.069652664360222424 0 -0.0027421934170307042 -0.068072570320191955 0 -0.0018578756382163484 -0.067871439885860113 0 0.0002134254868826468 -0.068725703452740053 0 -2.0176535453551892e-07 -0.069652664360222424 0 -2.0176535453551892e-07 -0.069652664360222424 0 -4.3171283989129827e-07 -0.069106591740983631 0 -0.0027421934170307042 -0.068072570320191955 0 -4.3171283989129827e-07 -0.069106591740983631 0 -0.0035668208179658613 -0.068115784733991214 0 -0.0027421934170307042 -0.068072570320191955 0 -4.3171283989129827e-07 -0.069106591740983631 0 -0.0035668208179658613 -0.068115784733991214 0 -5.1662601902336456e-07 -0.069112477799859171 0 -0.0035668208179658613 -0.068115784733991214 0 -0.0027421934170307042 -0.068072570320191955 0 -0.0063831593158965323 -0.065061853840941347 0 -0.0035668208179658613 -0.068115784733991214 0 -0.0079653633032558246 -0.065590055968060834 0 -0.0063831593158965323 -0.065061853840941347 0 -0.0027421934170307042 -0.068072570320191955 0 -0.0044122469823676801 -0.064971916279262326 0 -0.0063831593158965323 -0.065061853840941347 0 -0.0018578756382163484 -0.067871439885860113 0 -0.0027421934170307042 -0.068072570320191955 0 -0.0044122469823676801 -0.064971916279262326 0 -8.0900362868251801e-07 -0.069532661074552346 0 -0.0039380376138036946 -0.068487228559159813 0 -0.0072947210540220252 -0.067825259833155627 0 -8.0900362868251801e-07 -0.069532661074552346 0 -5.1662601902336456e-07 -0.069112477799859171 0 -0.0039380376138036946 -0.068487228559159813 0 -0.0035668208179658613 -0.068115784733991214 0 -5.1662601902336456e-07 -0.069112477799859171 0 -0.0039380376138036946 -0.068487228559159813 0 -0.0035668208179658613 -0.068115784733991214 0 -0.0039380376138036946 -0.068487228559159813 0 -0.0079653633032558246 -0.065590055968060834 0 -0.0039380376138036946 -0.068487228559159813 0 -0.0072947210540220252 -0.067825259833155627 0 -0.0079653633032558246 -0.065590055968060834 0 -0.0079653633032558246 -0.065590055968060834 0 -0.012500563668700641 -0.061052606596593346 0 -0.013440767851397044 -0.06383575770706415 0 -0.0072947210540220252 -0.067825259833155627 0 -0.0079653633032558246 -0.065590055968060834 0 -0.013440767851397044 -0.06383575770706415 0 -0.0079653633032558246 -0.065590055968060834 0 -0.012500563668700641 -0.061052606596593346 0 -0.0094577548273600907 -0.062393875417895324 0 -0.012500563668700641 -0.061052606596593346 0 -0.0094577548273600907 -0.062393875417895324 0 -0.011903199215440176 -0.058623907409233476 0 -0.012500563668700641 -0.061052606596593346 0 -0.013440767851397044 -0.06383575770706415 0 -0.018279327235634329 -0.05852600088804303 0 -0.0044122469823676801 -0.064971916279262326 0 -0.0063831593158965323 -0.065061853840941347 0 -0.0087796215249650415 -0.060589258038047739 0 -0.0043400045334547116 -0.06090664055469984 0 -0.0044122469823676801 -0.064971916279262326 0 -0.0087796215249650415 -0.060589258038047739 0 -0.0079653633032558246 -0.065590055968060834 0 -0.0063831593158965323 -0.065061853840941347 0 -0.0094577548273600907 -0.062393875417895324 0 -0.0063831593158965323 -0.065061853840941347 0 -0.0094577548273600907 -0.062393875417895324 0 -0.0087796215249650415 -0.060589258038047739 0 -0.0094577548273600907 -0.062393875417895324 0 -0.0087796215249650415 -0.060589258038047739 0 -0.011903199215440176 -0.058623907409233476 0 -0.0087796215249650415 -0.060589258038047739 0 -0.011903199215440176 -0.058623907409233476 0 -0.012274227825515117 -0.055882539447713091 0 -0.0043400045334547116 -0.06090664055469984 0 -0.0087796215249650415 -0.060589258038047739 0 -0.0087916190458847323 -0.057115971984687902 0 -0.0087796215249650415 -0.060589258038047739 0 -0.0087916190458847323 -0.057115971984687902 0 -0.012274227825515117 -0.055882539447713091 0 0.0092447375269596489 -0.019181599201724308 0 0.0084570560526960863 -0.016281631285098255 0 0.0067348860189279042 -0.014027913580624841 0 -0.0057291414780167478 -0.052823603555286022 0 -0.00030959773865338872 -0.032151830842815025 0 -0.011903199215440176 -0.058623907409233476 0 -0.012274227825515117 -0.055882539447713091 0 -0.014149136614663698 -0.055209712450327277 0 -0.00030959773865338872 -0.032151830842815025 0 -0.0044946234838328138 -0.035154834627693879 0 0.0050762031372098238 -0.010120829689549053 0 0.0060302167905184915 -0.012989346010005074 0 0.0040980768427428971 -0.0088507257705491959 0 0.0084570560526960863 -0.016281631285098255 0 0.0050762031372098238 -0.010120829689549053 0 0.0060302167905184915 -0.012989346010005074 0 0.0050762031372098238 -0.010120829689549053 0 0.0067348860189279042 -0.014027913580624841 0 0.0044678402133468695 -0.0089619525530006162 0 0.0084570560526960863 -0.016281631285098255 0 0.0050762031372098238 -0.010120829689549053 0 0.0067348860189279042 -0.014027913580624841 0 -0.018279327235634329 -0.05852600088804303 0 -0.014859964903473147 -0.057485880722569292 0 -0.017932490533553214 -0.053733840922041511 0 -0.012500563668700641 -0.061052606596593346 0 -0.018279327235634329 -0.05852600088804303 0 -0.014859964903473147 -0.057485880722569292 0 -0.012500563668700641 -0.061052606596593346 0 -0.011903199215440176 -0.058623907409233476 0 -0.014859964903473147 -0.057485880722569292 0 -0.011903199215440176 -0.058623907409233476 0 -0.014859964903473147 -0.057485880722569292 0 -0.014149136614663698 -0.055209712450327277 0 0.0060302167905184915 -0.012989346010005074 0 0.0040980768427428971 -0.0088507257705491959 0 0.0045052157869400989 -0.010720087875549417 0 0.0040980768427428971 -0.0088507257705491959 0 0.0045052157869400989 -0.010720087875549417 0 0.0022065090217925744 -0.0057949143125371177 0 -0.0044946234838328138 -0.035154834627693879 0 -0.0065652158609335546 -0.031937698315815298 0 -0.014859964903473147 -0.057485880722569292 0 -0.014149136614663698 -0.055209712450327277 0 -0.017932490533553214 -0.053733840922041511 0 -0.018279327235634329 -0.05852600088804303 0 -0.017932490533553214 -0.053733840922041511 0 -0.021422394088181612 -0.053071374486132548 0 0.0045052157869400989 -0.010720087875549417 0 0.00032912852263815881 -0.007706669630403876 0 0.0022065090217925744 -0.0057949143125371177 0 -0.0065652158609335546 -0.031937698315815298 0 -0.010699813165229071 -0.030494098436471138 0 0.00032912852263815881 -0.007706669630403876 0 0.0022065090217925744 -0.0057949143125371177 0 -0.0006832741674556754 -0.0031068948402319537 0 0.0022065090217925744 -0.0057949143125371177 0 0.00076683909032295263 -0.0022447234218257719 0 -0.0006832741674556754 -0.0031068948402319537 0 0.0022065090217925744 -0.0057949143125371177 0 0.0022055221940741015 -0.0043051421902375042 0 0.00076683909032295263 -0.0022447234218257719 0 0.0040980768427428971 -0.0088507257705491959 0 0.0022065090217925744 -0.0057949143125371177 0 0.0022055221940741015 -0.0043051421902375042 0 0.0022055221940741015 -0.0043051421902375042 0 2.5472923546848745e-07 -1.0892498993392089e-07 0 2.5354827084220593e-07 -1.8060190459714395e-07 0 0.0022055221940741015 -0.0043051421902375042 0 2.5472923546848745e-07 -1.0892498993392089e-07 0 0.00076683909032295263 -0.0022447234218257719 0 2.5472923546848745e-07 -1.0892498993392089e-07 0 0.00076683909032295263 -0.0022447234218257719 0 -2.4976526945417947e-07 -5.1981340957100442e-08 0 0.00076683909032295263 -0.0022447234218257719 0 -2.4976526945417947e-07 -5.1981340957100442e-08 0 -0.0006832741674556754 -0.0031068948402319537 0 0.0050762031372098238 -0.010120829689549053 0 0.0024117600325356805 -0.0046551480089650089 0 0.0044678402133468695 -0.0089619525530006162 0 0.0050762031372098238 -0.010120829689549053 0 0.0022055221940741015 -0.0043051421902375042 0 0.0024117600325356805 -0.0046551480089650089 0 0.0050762031372098238 -0.010120829689549053 0 0.0040980768427428971 -0.0088507257705491959 0 0.0022055221940741015 -0.0043051421902375042 0 0.0022055221940741015 -0.0043051421902375042 0 0.0024117600325356805 -0.0046551480089650089 0 2.5354827084220593e-07 -1.8060190459714395e-07 0 0.0024117600325356805 -0.0046551480089650089 0 2.5354827084220593e-07 -1.8060190459714395e-07 0 2.8416597054966904e-07 -1.82579059203084e-07 0 2.8416597054966904e-07 -1.82579059203084e-07 0 0.002501992746636884 -0.004650603573168462 0 3.7704914079824486e-07 -1.913649216832385e-07 0 0.0024117600325356805 -0.0046551480089650089 0 2.8416597054966904e-07 -1.82579059203084e-07 0 0.002501992746636884 -0.004650603573168462 0 0.0024117600325356805 -0.0046551480089650089 0 0.0044678402133468695 -0.0089619525530006162 0 0.002501992746636884 -0.004650603573168462 0 0.0044678402133468695 -0.0089619525530006162 0 0.002501992746636884 -0.004650603573168462 0 0.0055357017016601819 -0.010734837514461899 0 0.0032877447315011916 -0.004826975966011381 0 0.0083323078513139158 -0.01170267938441205 0 0.0055357017016601819 -0.010734837514461899 0 0.002501992746636884 -0.004650603573168462 0 0.0032877447315011916 -0.004826975966011381 0 0.0055357017016601819 -0.010734837514461899 0 0.0032877447315011916 -0.004826975966011381 0 3.7704914079824486e-07 -1.913649216832385e-07 0 3.1136875451501763e-07 -7.0329734933765981e-08 0 0.002501992746636884 -0.004650603573168462 0 0.0032877447315011916 -0.004826975966011381 0 3.7704914079824486e-07 -1.913649216832385e-07 0 0.0032877447315011916 -0.004826975966011381 0 3.1136875451501763e-07 -7.0329734933765981e-08 0 0.004129194570807247 -0.0045704584434062339 0 1.2793915531272118e-06 -4.8041743834019748e-07 0 0.004129194570807247 -0.0045704584434062339 0 0.010054158061328171 -0.0090690545012132827 0 3.1136875451501763e-07 -7.0329734933765981e-08 0 1.2793915531272118e-06 -4.8041743834019748e-07 0 0.004129194570807247 -0.0045704584434062339 0 0.004129194570807247 -0.0045704584434062339 0 0.010054158061328171 -0.0090690545012132827 0 0.0083323078513139158 -0.01170267938441205 0 0.0032877447315011916 -0.004826975966011381 0 0.004129194570807247 -0.0045704584434062339 0 0.0083323078513139158 -0.01170267938441205 0 0.0083323078513139158 -0.01170267938441205 0 0.016308487387081582 -0.01715659047453719 0 0.013085193955559703 -0.019659822958192567 0 0.010054158061328171 -0.0090690545012132827 0 0.0083323078513139158 -0.01170267938441205 0 0.016308487387081582 -0.01715659047453719 0 0.020946634913453832 -0.025860210668992429 0 0.016308487387081582 -0.01715659047453719 0 0.013085193955559703 -0.019659822958192567 0 0.0083323078513139158 -0.01170267938441205 0 0.013085193955559703 -0.019659822958192567 0 0.0089449669125848952 -0.015765403548904128 0 0.011080092894722858 -0.02107507459654152 0 0.013085193955559703 -0.019659822958192567 0 0.0089449669125848952 -0.015765403548904128 0 0.011080092894722858 -0.02107507459654152 0 0.0089449669125848952 -0.015765403548904128 0 0.0079437960773493885 -0.017033746262535687 0 0.0098111775979594727 -0.022569913124512286 0 0.011080092894722858 -0.02107507459654152 0 0.0079437960773493885 -0.017033746262535687 0 0.0098111775979594727 -0.022569913124512286 0 0.0092447375269596489 -0.019181599201724308 0 0.0079437960773493885 -0.017033746262535687 0 0.0092447375269596489 -0.019181599201724308 0 0.0067348860189279042 -0.014027913580624841 0 0.0079437960773493885 -0.017033746262535687 0 0.0067348860189279042 -0.014027913580624841 0 0.0044678402133468695 -0.0089619525530006162 0 0.0055357017016601819 -0.010734837514461899 0 0.0067348860189279042 -0.014027913580624841 0 0.0079437960773493885 -0.017033746262535687 0 0.0055357017016601819 -0.010734837514461899 0 0.0083323078513139158 -0.01170267938441205 0 0.0089449669125848952 -0.015765403548904128 0 0.0055357017016601819 -0.010734837514461899 0 0.0089449669125848952 -0.015765403548904128 0 0.0079437960773493885 -0.017033746262535687 0 0.0055357017016601819 -0.010734837514461899 0 
</DataArray>
</PointData>
<CellData Scalars="region_id,cross_section_updated," Vectors="" Tensors="stress,">
<DataArray type="Float64" Name="region_id" format="ascii">
11 11 11 11 11 11 11 11 11 11 11 5 11 11 5 11 11 11 11 11 6 11 11 5 11 5 11 11 11 11 6 11 11 11 11 6 11 11 6 11 11 11 11 11 11 11 11 11 11 11 11 11 11 11 11 11 11 11 11 11 11 11 11 11 11 11 11 4 11 4 11 11 11 11 11 11 11 11 11 11 4 11 11 11 4 11 11 11 11 11 11 11 11 11 11 11 11 11 11 11 11 11 11 11 11 11 11 11 11 11 11 11 11 11 11 11 11 11 11 11 11 11 11 11 
</DataArray>
<DataArray type="Float64" Name="stress" NumberOfComponents="9" format="ascii">
-10281328.633895308 3799986.386295855 0 3799986.386295855 -1420998.7077121735 0 0 0 -2925581.8354018927 4453757.622189641 215442.05279147625 0 215442.05279147625 -1113070.4727340937 0 0 0 835171.78736391664 -28869354.622898012 4345234.0989335477 0 4345234.0989335477 -5581140.7049739361 0 0 0 -8612623.8319679797 -17447816.467637122 -1685111.3659120798 0 -1685111.3659120798 -1286298.4235095978 0 0 0 -4683528.722786665 -14220633.373380914 4305139.7820250392 0 4305139.7820250392 -2875991.434746474 0 0 0 -4274156.2020318061 -23582014.614046842 -3891663.9781341106 0 -3891663.9781341106 1575881.5680867434 0 0 0 -5501533.2614901066 -28740200.350470424 203012.97718073428 0 203012.97718073428 -2452155.6822595596 0 0 0 -7798089.008182466 -14861122.854218438 2916417.991843015 0 2916417.991843015 -3635548.975204885 0 0 0 -4624167.957355842 -3327862.2621406019 3531570.8096376657 0 3531570.8096376657 -2492840.9521406889 0 0 0 -1455175.8035703003 -14310323.220156401 4493941.9418360591 0 4493941.9418360591 -588212.02444750071 0 0 0 -3724633.8111509979 -12034849.662669152 2021129.6928197145 0 2021129.6928197145 -667379.29652220011 0 0 0 -3175557.2397978604 16291.283171778448 12217.755631652 0 12217.755631652 -16279.978476978595 0 0 0 2.8261736999647837 -15266600.188762415 4486298.6623219848 0 4486298.6623219848 929288.21535430849 0 0 0 -3584327.9933520146 -22042495.255262464 1368809.0272671878 0 1368809.0272671878 -6162771.340541482 0 0 0 -7051316.648950994 16663.658990971107 12497.573526887243 0 12497.573526887243 -16660.929285396338 0 0 0 0.68242639369054814 -17236585.542766646 11867943.931971788 0 11867943.931971788 1698358.6629998684 0 0 0 -3884556.7199416906 -21122686.631466016 11720046.746995211 0 11720046.746995211 1381481.6748493314 0 0 0 -4935301.2391541749 -19253137.010926269 10396886.666571707 0 10396886.666571707 3754128.6102863401 0 0 0 -3874752.1001599729 -12698483.871054366 5328610.714951396 0 5328610.714951396 1730420.1082059741 0 0 0 -2742015.9407120794 -22584172.437815402 4418222.705810681 0 4418222.705810681 -1673820.5688726101 0 0 0 -6064498.2516720034 -77.986316609480127 1071.218148742154 0 1071.218148742154 14641.955068714917 0 0 0 3640.9921880263646 -9384443.3551733494 5557420.5409152508 0 5557420.5409152508 -10950801.259550154 0 0 0 -5083811.1536809206 -17037883.617325246 2781445.8185002953 0 2781445.8185002953 -14401259.886976361 0 0 0 -7859785.8760754466 18594.09343250301 13950.945188135267 0 13950.945188135267 -18680.091352603446 0 0 0 -21.499480025106095 -19169715.006481454 12515562.112714469 0 12515562.112714469 8106255.0602632463 0 0 0 -2765864.9865545481 17587.096269553338 13187.96140194932 0 13187.96140194932 -17549.322929652979 0 0 0 9.4433349750906928 -17706116.231442869 3316975.8225725293 0 3316975.8225725293 -14954141.733449697 0 0 0 -8165064.4912231565 -19136014.019744933 2215806.6078182459 0 2215806.6078182459 -9393511.5787198544 0 0 0 -7132381.399616152 -25299358.878895342 4985165.4386878349 0 4985165.4386878349 -14266408.186992645 0 0 0 -9891441.766471982 -18360104.254921094 3774829.579323411 0 3774829.579323411 -15701724.212562263 0 0 0 -8515457.116870895 -526.73983474457418 1254.4213877305501 0 1254.4213877305501 14867.636446655364 0 0 0 3585.2241529776984 -18162688.422450453 5210476.4551489353 0 5210476.4551489353 -12595343.514649391 0 0 0 -7689507.9842749536 -14551280.488235235 3562439.3207802624 0 3562439.3207802624 -10970403.991711676 0 0 0 -6380421.1199867427 -7563710.89031744 7437542.7707289904 0 7437542.7707289904 -2091527.6090145111 0 0 0 -2413809.6248329878 -24356542.767258972 -4593785.5853329897 0 -4593785.5853329897 -9796004.9058049098 0 0 0 -8538136.9182659686 294.52357927448611 721.54748010024196 0 721.54748010024196 14797.701748414038 0 0 0 3773.0563319221292 1140918.342141062 2057876.4482131153 0 2057876.4482131153 -2040083.3364240527 0 0 0 -224791.24857074022 -51146689.359681755 -7720585.8036445379 0 -7720585.8036445379 -4640123.311388582 0 0 0 -13946703.167767584 3428.4465764130218 -1364.9009950234886 0 -1364.9009950234886 16247.242098248011 0 0 0 4918.9221686652672 -14660121.685625762 1637320.7306191158 0 1637320.7306191158 -5567311.5016887188 0 0 0 -5056858.2968285978 -12323872.268974535 -684773.15621882677 0 -684773.15621882677 454108.85678325593 0 0 0 -2967440.8530478105 -22456894.616690896 3400590.1398961842 0 3400590.1398961842 -4379085.0827886565 0 0 0 -6708994.9248699183 -26146142.057111442 754841.4327198565 0 754841.4327198565 -9002867.891738236 0 0 0 -8787252.4872124195 -30799383.156349018 2860040.2038695514 0 2860040.2038695514 -10299946.187052608 0 0 0 -10274832.335850418 -27913894.147525128 6701696.1361801028 0 6701696.1361801028 -9563260.5993631985 0 0 0 -9369288.6867220663 -31002105.240970403 4836466.0856363475 0 4836466.0856363475 -14079422.660577893 0 0 0 -11270381.975387067 -23695130.960110575 4601883.2554332465 0 4601883.2554332465 -10536267.731194198 0 0 0 -8557849.6728261709 -20431637.880755324 6662166.7477408648 0 6662166.7477408648 -6406434.1984557062 0 0 0 -6709518.019802738 -46333990.393477798 520881.94423654675 0 520881.94423654675 -14519205.520732641 0 0 0 -15213298.97855258 -38070867.690124393 2379309.1186080873 0 2379309.1186080873 -15080665.192753613 0 0 0 -13287883.220719516 -35290029.541472316 380376.54074776173 0 380376.54074776173 -13984641.241741538 0 0 0 -12318667.695803463 -33427905.387875736 5556225.3988614678 0 5556225.3988614678 -12237362.582346387 0 0 0 -11416316.992555531 -36507673.002931595 2344261.1627237201 0 2344261.1627237201 -15762615.603755027 0 0 0 -13067572.151671633 -31328522.515454501 3349464.1707642637 0 3349464.1707642637 -15952480.320701957 0 0 0 -11820250.709039122 -39986042.186291873 2815644.8029102385 0 2815644.8029102385 -15065594.550438851 0 0 0 -13762909.184182703 -32193641.223547876 6350454.9023886248 0 6350454.9023886248 -15505124.092504501 0 0 0 -11924691.329013109 -27644332.697057173 6815131.0080372393 0 6815131.0080372393 -16401518.675055504 0 0 0 -11011462.843028188 -32850803.70606111 3411051.5140646398 0 3411051.5140646398 -15974330.960609972 0 0 0 -12206283.666667774 -27726147.153288268 7725541.2463137507 0 7725541.2463137507 -12512582.446526542 0 0 0 -10059682.399953717 -20862580.689464018 3978704.1325971931 0 3978704.1325971931 -13035491.630328655 0 0 0 -8474518.0799481422 -28663425.215044901 7800221.7325092852 0 7800221.7325092852 -13482156.439393567 0 0 0 -10536395.413609639 -28170725.719845027 7895238.4408015013 0 7895238.4408015013 -15951158.394723415 0 0 0 -11030471.028642088 -27137628.13357091 8474054.3542895615 0 8474054.3542895615 -15280946.87824899 0 0 0 -10604643.75295496 -29534446.481736332 9466427.7074555457 0 9466427.7074555457 -17039581.019812047 0 0 0 -11643506.875387087 -32737853.384600982 5077796.68149665 0 5077796.68149665 -17108545.038996637 0 0 0 -12461599.605899408 -28090032.821272641 6117571.861174196 0 6117571.861174196 -16179750.939174116 0 0 0 -11067445.940111667 -21330599.982337676 16826421.807790115 0 16826421.807790115 -3084175.0660696551 0 0 0 -6103693.7621018365 13943.663482348209 10442.783433920104 0 10442.783433920104 -13704.236481378237 0 0 0 59.856750242492126 -24577091.371231765 8939144.5920525789 0 8939144.5920525789 -17700113.665106535 0 0 0 -10569301.259084597 14612.876363176645 10962.918411935045 0 10962.918411935045 -14665.054466682599 0 0 0 -13.044525876488478 -18269777.686121751 12723553.243718304 0 12723553.243718304 -3489117.9937759712 0 0 0 -5439723.9199744277 -23674785.10731386 12785447.904180227 0 12785447.904180227 -1396919.0571043938 0 0 0 -6267926.0411045626 -21044950.667647623 16434056.435821451 0 16434056.435821451 -2899015.0030438006 0 0 0 -5985991.4176728595 -25239841.897567056 16709369.195384935 0 16709369.195384935 -3309203.113033548 0 0 0 -7137261.2526501417 -26600989.539319441 3845291.0285545886 0 3845291.0285545886 -14917984.125231277 0 0 0 -10379743.41613771 -28220285.070579231 2632304.0006814003 0 2632304.0006814003 -15567621.064179122 0 0 0 -10946976.533689559 -28115575.044504061 6135379.3772152066 0 6135379.3772152066 -17322548.078917861 0 0 0 -11359530.780855492 -22323940.191863224 4553424.6760930717 0 4553424.6760930717 -14624352.942661524 0 0 0 -9237073.2836311907 -19229033.719435919 12902475.132455628 0 12902475.132455628 -6488786.7503345758 0 0 0 -6429455.1174426228 -21648555.67248904 14301841.566386357 0 14301841.566386357 -4499272.9335226044 0 0 0 -6536957.1515029091 15247.427598703056 11434.174330071175 0 11434.174330071175 -15225.085568527868 0 0 0 5.5855075437971209 -27009256.470363811 5047584.4948441684 0 5047584.4948441684 -13668098.594413757 0 0 0 -10169338.766194388 -23814003.423551798 3821449.5920512676 0 3821449.5920512676 -17800335.98693347 0 0 0 -10403584.852621332 -18930997.225090496 6570561.4539114572 0 6570561.4539114572 -2663783.6470027193 0 0 0 -5398695.218023302 15797.437920695826 11848.477617475442 0 11848.477617475442 -15803.824610295082 0 0 0 -1.5966723998139969 -9252614.0196563601 6473538.0108498987 0 6473538.0108498987 -1840333.1925669275 0 0 0 -2773236.8030558228 -12887764.792625029 6538928.3813308813 0 6538928.3813308813 -1774404.4368639141 0 0 0 -3665542.3073722366 -15190569.343489321 11820804.320342848 0 11820804.320342848 -2399160.9144229311 0 0 0 -4397432.5644780602 -19011463.880415633 12873536.772292336 0 12873536.772292336 -1963480.6223817803 0 0 0 -5243736.1256993553 -18620065.214896701 12116459.214989515 0 12116459.214989515 -6206229.6727117086 0 0 0 -6206573.7219021032 -12860166.962533288 8759773.9327290617 0 8759773.9327290617 911887.17919717729 0 0 0 -2987069.9458340276 -9828387.0401511844 9589162.2936343327 0 9589162.2936343327 -3275764.5740302745 0 0 0 -3276037.9035453643 6221061.7795255762 4718345.1342844255 0 4718345.1342844255 1177760.6426094547 0 0 0 1849705.60553376 -20903257.622815315 14743562.799109578 0 14743562.799109578 -4159409.5008190423 0 0 0 -6265666.7809085883 -21141715.046985269 14522543.771455217 0 14522543.771455217 -4114585.7337831743 0 0 0 -6314075.1951921079 -19200252.061012924 13824918.830737961 0 13824918.830737961 -4325821.7432754515 0 0 0 -5881518.4510720903 -18671217.686180715 12157907.495738933 0 12157907.495738933 -3414949.3620485743 0 0 0 -5521541.762057323 -20859837.913580939 13422035.847771417 0 13422035.847771417 -6953266.6507374914 0 0 0 -6953276.1410796065 -22351861.138942808 13849997.2533595 0 13849997.2533595 -7450564.150127735 0 0 0 -7450606.3222676367 -21202927.673928797 13219377.584470738 0 13219377.584470738 -6150092.8245491982 0 0 0 -6838255.1246195007 -21502068.616898917 15246024.238060081 0 15246024.238060081 -6108803.7401826084 0 0 0 -6902718.0892703813 -22346138.741836153 15034595.089204838 0 15034595.089204838 -4835538.123650372 0 0 0 -6795419.2163716294 -28508159.892606393 11957146.12829273 0 11957146.12829273 -4820389.5574473888 0 0 0 -8332137.3625134472 -22445775.949474245 14768226.821823545 0 14768226.821823545 -7636696.179029718 0 0 0 -7520618.032125988 -28354785.848360617 13877662.362337036 0 13877662.362337036 -9452369.9079820793 0 0 0 -9451788.9390856735 -25291607.739526656 12129336.292158497 0 12129336.292158497 -8367837.3743637782 0 0 0 -8414861.2784726042 -34533908.680092737 10590035.407976486 0 10590035.407976486 -8951659.6390372142 0 0 0 -10871392.079782493 -59584012.908767983 10842825.550306687 0 10842825.550306687 -7182909.4292861596 0 0 0 -16691730.584513541 -40274339.270482995 14858995.543317426 0 14858995.543317426 -13422155.195525875 0 0 0 -13424123.61650222 -35923793.935722739 6053388.3602846712 0 6053388.3602846712 1376546.2708135843 0 0 0 -8636811.9162272867 -32687727.905027762 14150128.052643595 0 14150128.052643595 -7229139.7381672077 0 0 0 -9979216.9107987434 -26567310.162044853 3824430.0217863768 0 3824430.0217863768 13584.312319278717 0 0 0 -6638431.4624313898 -36036822.079047933 4601042.4815816768 0 4601042.4815816768 -1369912.41124852 0 0 0 -9351683.6225741096 -26271579.729097098 4017955.6699084789 0 4017955.6699084789 342978.59620168805 0 0 0 -6482150.2832238451 -28489938.342980545 10035286.077989936 0 10035286.077989936 -1699166.0251633823 0 0 0 -7547276.0920359865 -20303354.626453821 8372917.6237199083 0 8372917.6237199083 1167624.6103163064 0 0 0 -4783932.5040343739 -20694930.860570386 12380735.619365735 0 12380735.619365735 -1399625.6983635128 0 0 0 -5523639.1397334635 -13353865.844614759 9365189.3865854219 0 9365189.3865854219 3925995.9304543734 0 0 0 -2356967.4785401076 -14487138.668068171 17699189.243324883 0 17699189.243324883 1844313.4088531882 0 0 0 -3160706.314803753 -20901275.502629213 15455748.943728253 0 15455748.943728253 -2040682.2786252499 0 0 0 -5735489.4453136101 -21945074.201036412 15719607.674993895 0 15719607.674993895 -5166491.9664918482 0 0 0 -6777891.5418820567 -18819054.730189882 16637098.522539638 0 16637098.522539638 -3560978.3013283089 0 0 0 -5595008.2578795496 -22097769.807098251 11524342.394986473 0 11524342.394986473 -2665789.457423456 0 0 0 -6190889.8161304221 -21625641.416158743 11346303.371996962 0 11346303.371996962 -2593715.0691580847 0 0 0 -6054839.1213292032 
</DataArray>
<DataArray type="Float64" Name="cross_section_updated" format="ascii">
1 1 1 1 1 1 1 1 1 1 1 0.0010000002037568387 1 1 0.0010000001097426395 1 1 1 1 1 0.010000000105787429 1 1 0.00099999975624827375 1 0.00099999996647194209 1 1 1 1 0.0099999999090165659 1 1 1 1 0.010433464748229759 1 1 0.013320602026543185 1 1 1 1 1 1 1 1 1 1 1 1 1 1 1 1 1 1 1 1 1 1 1 1 1 1 1 1 0.00099999999028045627 1 0.00099999999191657807 1 1 1 1 1 1 1 1 1 1 0.00099999999207019477 1 1 1 0.00099999999114640682 1 1 1 1 1 1 1 1 1 1 1 1 1 1 1 1 1 1 1 1 1 1 1 1 1 1 1 1 1 1 1 1 1 1 1 1 1 1 1 
</DataArray>
</CellData>
</Piece>
</UnstructuredGrid>
</VTKFile>
