<?xml version="1.0"?>
<VTKFile type="UnstructuredGrid" version="0.1" byte_order="LittleEndian">
<UnstructuredGrid>
<Piece NumberOfPoints="360" NumberOfCells="124">
<Points>
<DataArray type="Float64" NumberOfComponents="3" format="ascii">
0 0 0 0.084352422163911631 0.086451712656266194 0 0 0.12500000000034689 0 0 0 0 0.084352422163911631 0.086451712656266194 0 0.1249999999997554 0 0 0 0.12500000000034689 0 0.1008171452988615 0.18885703697250469 0 0 0.25 0 0.084352422163911631 0.086451712656266194 0 0 0.12500000000034689 0 0.1008171452988615 0.18885703697250469 0 0.084352422163911631 0.086451712656266194 0 0.1008171452988615 0.18885703697250469 0 0.18402761812864499 0.1117324051466445 0 0.1008171452988615 0.18885703697250469 0 0.2403886547178353 0.24188814792673841 0 0.1249999999997599 0.31249999999987998 0 0.1008171452988615 0.18885703697250469 0 0.2403886547178353 0.24188814792673841 0 0.18402761812864499 0.1117324051466445 0 0.2403886547178353 0.24188814792673841 0 0.18402761812864499 0.1117324051466445 0 0.31250000000020822 0.12500000000041631 0 0.1249999999997554 0 0 0.18402761812864499 0.1117324051466445 0 0.25 -0 0 0.18402761812864499 0.1117324051466445 0 0.25 -0 0 0.31250000000020822 0.12500000000041631 0 0.084352422163911631 0.086451712656266194 0 0.1249999999997554 0 0 0.18402761812864499 0.1117324051466445 0 0.25 -0 0 0.31250000000020822 0.12500000000041631 0 0.25 -0 0 0.31250000000020822 0.12500000000041631 0 0.43749999999913258 0 0 0.2403886547178353 0.24188814792673841 0 0.31250000000020822 0.12500000000041631 0 0.37500000000027761 0.25000000000055511 0 0.31250000000020822 0.12500000000041631 0 0.37500000000027761 0.25000000000055511 0 0.31250000000020822 0.12500000000041631 0 0.4287911518546233 0.15455445427966699 0 0.37500000000027761 0.25000000000055511 0 0.4287911518546233 0.15455445427966699 0 0.49457493289300231 0.26251703776555491 0 0.37500000000027761 0.25000000000055511 0 0.4287911518546233 0.15455445427966699 0 0.49457493289300231 0.26251703776555491 0 0.54475767668582953 0.1431838882066932 0 0.31250000000020822 0.12500000000041631 0 0.4287911518546233 0.15455445427966699 0 0.43749999999913258 0 0 0.4287911518546233 0.15455445427966699 0 0.43749999999913258 0 0 0.54475767668582953 0.1431838882066932 0 0.37499999999973488 0.43749999999986738 0 0.5 0.5 -0 0.43750000000006939 0.37500000000013878 0 0.37499999999973488 0.43749999999986738 0 0.5 0.5 -0 0.43750000000006939 0.37500000000013878 0 0.33819444444448321 0.33819444444456342 0 0.37499999999973488 0.43749999999986738 0 0.43750000000006939 0.37500000000013878 0 0.5 0.5 -0 0.43750000000006939 0.37500000000013878 0 0.49457493289300231 0.26251703776555491 0 0.37500000000027761 0.25000000000055511 0 0.43750000000006939 0.37500000000013878 0 0.37500000000027761 0.25000000000055511 0 0.43750000000006939 0.37500000000013878 0 0.37500000000027761 0.25000000000055511 0 0.33819444444448321 0.33819444444456342 0 0.2403886547178353 0.24188814792673841 0 0.33819444444448321 0.33819444444456342 0 0.24999999999960859 0.37499999999980432 0 0.2403886547178353 0.24188814792673841 0 0.37500000000027761 0.25000000000055511 0 0.33819444444448321 0.33819444444456342 0 0.33819444444448321 0.33819444444456342 0 0.37499999999973488 0.43749999999986738 0 0.24999999999960859 0.37499999999980432 0 0.37499999999973488 0.43749999999986738 0 0.24999999999960859 0.37499999999980432 0 0.37499999999973488 0.43749999999986738 0 0.24999999999960859 0.37499999999980432 0 0.26452443700674649 0.51563531581639865 0 0.14929124186975251 0.44582793568106382 0 0.24999999999960859 0.37499999999980432 0 0.26452443700674649 0.51563531581639865 0 0.14929124186975251 0.44582793568106382 0 0.24999999999960859 0.37499999999980432 0 0.1249999999997599 0.31249999999987998 0 0.2403886547178353 0.24188814792673841 0 0.24999999999960859 0.37499999999980432 0 0.1249999999997599 0.31249999999987998 0 0.24999999999960859 0.37499999999980432 0 0.1249999999997599 0.31249999999987998 0 0.1249999999997599 0.31249999999987998 0 0 0.25 0 0 0.43750000000034689 0 0.1008171452988615 0.18885703697250469 0 0.1249999999997599 0.31249999999987998 0 0 0.25 0 0.1249999999997599 0.31249999999987998 0 0 0.25 0 0.14929124186975251 0.44582793568106382 0 0 0.43750000000034689 0 0.13928587515912139 0.57339806105677438 0 0.14929124186975251 0.44582793568106382 0 0.1249999999997599 0.31249999999987998 0 0 0.43750000000034689 0 0 0.43750000000034689 0 0 0.62500000000069389 0 0.13928587515912139 0.57339806105677438 0 0 0.62500000000069389 0 0.13900789599611679 0.72618316107059999 0 0.13928587515912139 0.57339806105677438 0 0 0.62500000000069389 0 0.13900789599611679 0.72618316107059999 0 0 0.81250000000104083 0 0.13900789599611679 0.72618316107059999 0 0.13928587515912139 0.57339806105677438 0 0.27589467050686478 0.66058853156435704 0 0.13900789599611679 0.72618316107059999 0 0.27987960212930818 0.83442741470570525 0 0.27589467050686478 0.66058853156435704 0 0.13928587515912139 0.57339806105677438 0 0.26452443700674649 0.51563531581639865 0 0.27589467050686478 0.66058853156435704 0 0.14929124186975251 0.44582793568106382 0 0.13928587515912139 0.57339806105677438 0 0.26452443700674649 0.51563531581639865 0 0 1 0 0.12710107136012311 0.87094806618203435 0 0.1875000000005205 1 0 0 1 0 0 0.81250000000104083 0 0.12710107136012311 0.87094806618203435 0 0.13900789599611679 0.72618316107059999 0 0 0.81250000000104083 0 0.12710107136012311 0.87094806618203435 0 0.13900789599611679 0.72618316107059999 0 0.12710107136012311 0.87094806618203435 0 0.27987960212930818 0.83442741470570525 0 0.12710107136012311 0.87094806618203435 0 0.1875000000005205 1 0 0.27987960212930818 0.83442741470570525 0 0.27987960212930818 0.83442741470570525 0 0.44927105396715372 0.85565124085155886 0 0.37500000000069389 1 0 0.1875000000005205 1 0 0.27987960212930818 0.83442741470570525 0 0.37500000000069389 1 0 0.27987960212930818 0.83442741470570525 0 0.44927105396715372 0.85565124085155886 0 0.38136204680495073 0.74038592213831234 0 0.44927105396715372 0.85565124085155886 0 0.38136204680495073 0.74038592213831234 0 0.50145856933078625 0.73674663046504862 0 0.44927105396715372 0.85565124085155886 0 0.37500000000069389 1 0 0.56250000000086742 1 0 0.26452443700674649 0.51563531581639865 0 0.27589467050686478 0.66058853156435704 0 0.4139414069912184 0.60563252640100373 0 0.37499999999973488 0.43749999999986738 0 0.26452443700674649 0.51563531581639865 0 0.4139414069912184 0.60563252640100373 0 0.27987960212930818 0.83442741470570525 0 0.27589467050686478 0.66058853156435704 0 0.38136204680495073 0.74038592213831234 0 0.27589467050686478 0.66058853156435704 0 0.38136204680495073 0.74038592213831234 0 0.4139414069912184 0.60563252640100373 0 0.38136204680495073 0.74038592213831234 0 0.4139414069912184 0.60563252640100373 0 0.50145856933078625 0.73674663046504862 0 0.4139414069912184 0.60563252640100373 0 0.50145856933078625 0.73674663046504862 0 0.5625 0.625 0 0.37499999999973488 0.43749999999986738 0 0.4139414069912184 0.60563252640100373 0 0.5 0.5 -0 0.4139414069912184 0.60563252640100373 0 0.5 0.5 -0 0.5625 0.625 0 0.5 0.5 -0 0.5625 0.625 0 0.63236534182377013 0.50296756406332266 0 0.5 0.5 -0 0.5625 0.625 0 0.50145856933078625 0.73674663046504862 0 0.5625 0.625 0 0.625 0.75 0 0.5625 0.625 0 0.625 0.75 0 0.71259747807844409 0.63846691315701831 0 0.625 0.75 0 0.73857795170433571 0.77736788564284653 0 0.5625 0.625 0 0.71259747807844409 0.63846691315701831 0 0.625 0.75 0 0.71259747807844409 0.63846691315701831 0 0.63236534182377013 0.50296756406332266 0 0.75338430262320943 0.49294443423175599 0 0.5625 0.625 0 0.71259747807844409 0.63846691315701831 0 0.63236534182377013 0.50296756406332266 0 0.56250000000086742 1 0 0.56777512057187585 0.8470224641095303 0 0.6875 0.875 0 0.44927105396715372 0.85565124085155886 0 0.56250000000086742 1 0 0.56777512057187585 0.8470224641095303 0 0.44927105396715372 0.85565124085155886 0 0.50145856933078625 0.73674663046504862 0 0.56777512057187585 0.8470224641095303 0 0.50145856933078625 0.73674663046504862 0 0.56777512057187585 0.8470224641095303 0 0.625 0.75 0 0.625 0.75 0 0.73857795170433571 0.77736788564284653 0 0.6875 0.875 0 0.73857795170433571 0.77736788564284653 0 0.6875 0.875 0 0.80552984491000901 0.88711122872127413 0 0.625 0.75 0 0.6875 0.875 0 0.56777512057187585 0.8470224641095303 0 0.625 0.75 0 0.6875 0.875 0 0.56250000000086742 1 0 0.6875 0.875 0 0.75 1 0 0.6875 0.875 0 0.75 1 0 0.80552984491000901 0.88711122872127413 0 0.6875 0.875 0 0.75 1 0 0.75 1 0 0.80552984491000901 0.88711122872127413 0 0.875 1 0 0.80552984491000901 0.88711122872127413 0 0.90637953422180084 0.90208583328057301 0 0.875 1 0 0.80552984491000901 0.88711122872127413 0 0.85787927391517405 0.753532520882502 0 0.90637953422180084 0.90208583328057301 0 0.73857795170433571 0.77736788564284653 0 0.80552984491000901 0.88711122872127413 0 0.85787927391517405 0.753532520882502 0 0.85787927391517405 0.753532520882502 0 1 0.83333333333356463 0 1 0.66666666666736052 0 0.85787927391517405 0.753532520882502 0 1 0.83333333333356463 0 0.90637953422180084 0.90208583328057301 0 1 0.83333333333356463 0 0.90637953422180084 0.90208583328057301 0 1 1 0 0.90637953422180084 0.90208583328057301 0 1 1 0 0.875 1 0 0.71259747807844409 0.63846691315701831 0 0.86127466977819722 0.57948076978797636 0 0.75338430262320943 0.49294443423175599 0 0.71259747807844409 0.63846691315701831 0 0.85787927391517405 0.753532520882502 0 0.86127466977819722 0.57948076978797636 0 0.71259747807844409 0.63846691315701831 0 0.73857795170433571 0.77736788564284653 0 0.85787927391517405 0.753532520882502 0 0.85787927391517405 0.753532520882502 0 0.86127466977819722 0.57948076978797636 0 1 0.66666666666736052 0 0.86127466977819722 0.57948076978797636 0 1 0.66666666666736052 0 1 0.50000000000138767 0 1 0.50000000000138767 0 0.86569408477091048 0.40983673916766611 0 1 0.33333333333448978 0 0.86127466977819722 0.57948076978797636 0 1 0.50000000000138767 0 0.86569408477091048 0.40983673916766611 0 0.86127466977819722 0.57948076978797636 0 0.75338430262320943 0.49294443423175599 0 0.86569408477091048 0.40983673916766611 0 0.75338430262320943 0.49294443423175599 0 0.86569408477091048 0.40983673916766611 0 0.71826039492840632 0.34564020717216182 0 0.86087286690217635 0.25206523597959418 0 0.71508993406183785 0.15715956854777599 0 0.71826039492840632 0.34564020717216182 0 0.86569408477091048 0.40983673916766611 0 0.86087286690217635 0.25206523597959418 0 0.71826039492840632 0.34564020717216182 0 0.86087286690217635 0.25206523597959418 0 1 0.33333333333448978 0 1 0.16666666666736049 0 0.86569408477091048 0.40983673916766611 0 0.86087286690217635 0.25206523597959418 0 1 0.33333333333448978 0 0.86087286690217635 0.25206523597959418 0 1 0.16666666666736049 0 0.87698901648812122 0.1160638338657984 0 1 0 0 0.87698901648812122 0.1160638338657984 0 0.81249999999947953 0 0 1 0.16666666666736049 0 1 0 0 0.87698901648812122 0.1160638338657984 0 0.87698901648812122 0.1160638338657984 0 0.81249999999947953 0 0 0.71508993406183785 0.15715956854777599 0 0.86087286690217635 0.25206523597959418 0 0.87698901648812122 0.1160638338657984 0 0.71508993406183785 0.15715956854777599 0 0.71508993406183785 0.15715956854777599 0 0.62499999999895905 0 0 0.54475767668582953 0.1431838882066932 0 0.81249999999947953 0 0 0.71508993406183785 0.15715956854777599 0 0.62499999999895905 0 0 0.43749999999913258 0 0 0.62499999999895905 0 0 0.54475767668582953 0.1431838882066932 0 0.71508993406183785 0.15715956854777599 0 0.54475767668582953 0.1431838882066932 0 0.61108462585082757 0.25750599582343231 0 0.49457493289300231 0.26251703776555491 0 0.54475767668582953 0.1431838882066932 0 0.61108462585082757 0.25750599582343231 0 0.49457493289300231 0.26251703776555491 0 0.61108462585082757 0.25750599582343231 0 0.56986707178436635 0.37762093650871992 0 0.43750000000006939 0.37500000000013878 0 0.49457493289300231 0.26251703776555491 0 0.56986707178436635 0.37762093650871992 0 0.43750000000006939 0.37500000000013878 0 0.5 0.5 -0 0.56986707178436635 0.37762093650871992 0 0.5 0.5 -0 0.63236534182377013 0.50296756406332266 0 0.56986707178436635 0.37762093650871992 0 0.63236534182377013 0.50296756406332266 0 0.75338430262320943 0.49294443423175599 0 0.71826039492840632 0.34564020717216182 0 0.63236534182377013 0.50296756406332266 0 0.56986707178436635 0.37762093650871992 0 0.71826039492840632 0.34564020717216182 0 0.71508993406183785 0.15715956854777599 0 0.61108462585082757 0.25750599582343231 0 0.71826039492840632 0.34564020717216182 0 0.61108462585082757 0.25750599582343231 0 0.56986707178436635 0.37762093650871992 0 0.71826039492840632 0.34564020717216182 0 
</DataArray>
</Points>
<Cells>
<DataArray type="UInt32" Name="connectivity" format="ascii">
0 1 2 3 4 5 6 7 8 9 10 11 12 13 14 15 16 17 18 19 20 21 22 23 24 25 26 27 28 29 30 31 32 33 34 35 36 37 38 39 40 41 42 43 44 45 46 47 48 49 50 51 52 53 54 55 56 57 58 59 60 61 62 63 64 65 66 67 68 69 70 71 72 73 74 75 76 77 78 79 80 81 82 83 84 85 86 87 88 89 90 91 92 93 94 95 96 97 98 99 100 101 102 103 104 105 106 107 108 109 110 111 112 113 114 115 116 117 118 119 120 121 122 123 124 125 126 127 128 129 130 131 132 133 134 135 136 137 138 139 140 141 142 143 144 145 146 147 148 149 150 151 152 153 154 155 156 157 158 159 160 161 162 163 164 165 166 167 168 169 170 171 172 173 174 175 176 177 178 179 180 181 182 183 184 185 186 187 188 189 190 191 192 193 194 195 196 197 198 199 200 201 202 203 204 205 206 207 208 209 210 211 212 213 214 215 216 217 218 219 220 221 222 223 224 225 226 227 228 229 230 231 232 233 234 235 236 237 238 239 240 241 242 243 244 245 246 247 248 249 250 251 252 253 254 255 256 257 258 259 260 261 262 263 264 265 266 267 268 269 270 271 272 273 274 275 276 277 278 279 280 281 282 283 284 285 286 287 288 289 290 291 292 293 294 295 296 297 298 299 300 301 302 303 304 305 306 307 308 309 310 311 312 313 314 315 316 317 318 319 320 321 322 323 324 325 326 327 328 329 330 331 332 333 334 335 336 337 338 339 340 341 342 343 344 345 346 347 348 349 350 351 352 353 354 355 356 357 358 359 
</DataArray>
<DataArray type="UInt32" Name="offsets" format="ascii">
3 6 9 12 15 18 21 24 27 30 33 35 38 41 43 46 49 52 55 58 60 63 66 68 71 73 76 79 82 85 87 90 93 96 99 101 104 107 109 112 115 118 121 124 127 130 133 136 139 142 145 148 151 154 157 160 163 166 169 172 175 178 181 184 187 190 193 195 198 200 203 206 209 212 215 218 221 224 227 230 232 235 238 241 243 246 249 252 255 258 261 264 267 270 273 276 279 282 285 288 291 294 297 300 303 306 309 312 315 318 321 324 327 330 333 336 339 342 345 348 351 354 357 360 
</DataArray>
<DataArray type="UInt32" Name="types" format="ascii">
5 5 5 5 5 5 5 5 5 5 5 3 5 5 3 5 5 5 5 5 3 5 5 3 5 3 5 5 5 5 3 5 5 5 5 3 5 5 3 5 5 5 5 5 5 5 5 5 5 5 5 5 5 5 5 5 5 5 5 5 5 5 5 5 5 5 5 3 5 3 5 5 5 5 5 5 5 5 5 5 3 5 5 5 3 5 5 5 5 5 5 5 5 5 5 5 5 5 5 5 5 5 5 5 5 5 5 5 5 5 5 5 5 5 5 5 5 5 5 5 5 5 5 5 
</DataArray>
</Cells>
<PointData Scalars="" Vectors="displacement," Tensors="">
<DataArray type="Float64" Name="displacement" NumberOfComponents="3" format="ascii">
4.0594420515692684e-08 -0.067653755720691752 0 -0.00061988413657788032 -0.066882572848089378 0 -1.6081640618600042e-08 -0.067464583814107817 0 4.0594420515692684e-08 -0.067653755720691752 0 -0.00061988413657788032 -0.066882572848089378 0 0.00046067273508134917 -0.066260813631383031 0 -1.6081640618600042e-08 -0.067464583814107817 0 -0.0020385168962233865 -0.066392734000036119 0 -8.3326041850107295e-07 -0.067087011488490569 0 -0.00061988413657788032 -0.066882572848089378 0 -1.6081640618600042e-08 -0.067464583814107817 0 -0.0020385168962233865 -0.066392734000036119 0 -0.00061988413657788032 -0.066882572848089378 0 -0.0020385168962233865 -0.066392734000036119 0 -0.0019247266500388067 -0.064763416262044404 0 -0.0020385168962233865 -0.066392734000036119 0 -0.0062362681664645024 -0.062663188629867375 0 -0.0063971121866904946 -0.064938455781554993 0 -0.0020385168962233865 -0.066392734000036119 0 -0.0062362681664645024 -0.062663188629867375 0 -0.0019247266500388067 -0.064763416262044404 0 -0.0062362681664645024 -0.062663188629867375 0 -0.0019247266500388067 -0.064763416262044404 0 -0.0036447492237299535 -0.060311191790040491 0 0.00046067273508134917 -0.066260813631383031 0 -0.0019247266500388067 -0.064763416262044404 0 0.00024156058068027682 -0.062855969153101141 0 -0.0019247266500388067 -0.064763416262044404 0 0.00024156058068027682 -0.062855969153101141 0 -0.0036447492237299535 -0.060311191790040491 0 -0.00061988413657788032 -0.066882572848089378 0 0.00046067273508134917 -0.066260813631383031 0 -0.0019247266500388067 -0.064763416262044404 0 0.0093906166214532665 -0.045325158205249419 0 0.0050203119720746703 -0.042314183718014632 0 0.018407287861407651 -0.027625385667169277 0 0.013696166372791734 -0.02452849117581387 0 0.016280203889862552 -0.019917444191705366 0 -0.0062362681664645024 -0.062663188629867375 0 -0.0036447492237299535 -0.060311191790040491 0 -0.0084439675135790041 -0.05815428186240882 0 0.0050203119720746703 -0.042314183718014632 0 0.0010171468057811447 -0.040038975498006266 0 0.013696166372791734 -0.02452849117581387 0 0.011617090539217797 -0.019578114480041767 0 0.01056153583174849 -0.021244145511141052 0 0.011617090539217797 -0.019578114480041767 0 0.0084899644104428108 -0.016161248073578823 0 0.01056153583174849 -0.021244145511141052 0 0.011617090539217797 -0.019578114480041767 0 0.0084899644104428108 -0.016161248073578823 0 0.010104173067838534 -0.015045357389969673 0 0.013696166372791734 -0.02452849117581387 0 0.011617090539217797 -0.019578114480041767 0 0.016280203889862552 -0.019917444191705366 0 0.011617090539217797 -0.019578114480041767 0 0.016280203889862552 -0.019917444191705366 0 0.010104173067838534 -0.015045357389969673 0 -0.0095375168651862206 -0.054527272671506755 0 -0.0045918386564582029 -0.040188770831585355 0 -0.01194542331455929 -0.057310870179160762 0 -0.012818027186711984 -0.059454571578037838 0 -0.01465717264349288 -0.056439806338728304 0 -0.01194542331455929 -0.057310870179160762 0 -0.010169937490000565 -0.059791661714374972 0 -0.012818027186711984 -0.059454571578037838 0 -0.0020536019767024918 -0.03608593520992958 0 -0.0045918386564582029 -0.040188770831585355 0 0.0074790198004071849 -0.017361113403744521 0 0.0084899644104428108 -0.016161248073578823 0 0.01056153583174849 -0.021244145511141052 0 -0.0020536019767024918 -0.03608593520992958 0 0.0010171468057811447 -0.040038975498006266 0 -0.01194542331455929 -0.057310870179160762 0 -0.0084439675135790041 -0.05815428186240882 0 -0.010169937490000565 -0.059791661714374972 0 -0.0062362681664645024 -0.062663188629867375 0 -0.010169937490000565 -0.059791661714374972 0 -0.010167295829254795 -0.062574558358836116 0 -0.0062362681664645024 -0.062663188629867375 0 -0.0084439675135790041 -0.05815428186240882 0 -0.010169937490000565 -0.059791661714374972 0 -0.010169937490000565 -0.059791661714374972 0 -0.012818027186711984 -0.059454571578037838 0 -0.010167295829254795 -0.062574558358836116 0 -0.0095375168651862206 -0.054527272671506755 0 -0.0051509573596000566 -0.054479139057305642 0 -0.003107354086959523 -0.044768522860609172 0 -0.0009906903209174736 -0.047692356164006196 0 -0.0032129159896510761 -0.047942038085952696 0 -0.0013212458512001019 -0.050138910751189682 0 -0.0009906903209174736 -0.047692356164006196 0 -0.0032129159896510761 -0.047942038085952696 0 -0.0013212458512001019 -0.050138910751189682 0 -0.0009906903209174736 -0.047692356164006196 0 0.00019211715216407811 -0.050753661428077114 0 -0.0062362681664645024 -0.062663188629867375 0 -0.010167295829254795 -0.062574558358836116 0 -0.0063971121866904946 -0.064938455781554993 0 -0.0051509573596000566 -0.054479139057305642 0 -0.0032475420739862255 -0.058045498533552453 0 0.00019211715216407811 -0.050753661428077114 0 1.1284871581821852e-07 -0.051125892734345264 0 -1.4191190593981099e-07 -0.051461189018116082 0 -0.0020385168962233865 -0.066392734000036119 0 -0.0063971121866904946 -0.064938455781554993 0 -8.3326041850107295e-07 -0.067087011488490569 0 -0.0032475420739862255 -0.058045498533552453 0 0.00012176871482380349 -0.058962519430131692 0 -0.0013212458512001019 -0.050138910751189682 0 -1.4191190593981099e-07 -0.051461189018116082 0 -0.0020018318559814618 -0.050295761664116354 0 -0.0013212458512001019 -0.050138910751189682 0 0.00019211715216407811 -0.050753661428077114 0 -1.4191190593981099e-07 -0.051461189018116082 0 -1.4191190593981099e-07 -0.051461189018116082 0 -3.1779142089731309e-07 -0.051075948656086147 0 -0.0020018318559814618 -0.050295761664116354 0 -3.1779142089731309e-07 -0.051075948656086147 0 -0.0026191814730605273 -0.050345582004964341 0 -0.0020018318559814618 -0.050295761664116354 0 -3.1779142089731309e-07 -0.051075948656086147 0 -0.0026191814730605273 -0.050345582004964341 0 -3.8060613199823565e-07 -0.051104366409091641 0 -0.0026191814730605273 -0.050345582004964341 0 -0.0020018318559814618 -0.050295761664116354 0 -0.0046721300113053092 -0.048037764044914139 0 -0.0026191814730605273 -0.050345582004964341 0 -0.0058683441465897943 -0.048456543384267012 0 -0.0046721300113053092 -0.048037764044914139 0 -0.0020018318559814618 -0.050295761664116354 0 -0.0032129159896510761 -0.047942038085952696 0 -0.0046721300113053092 -0.048037764044914139 0 -0.0013212458512001019 -0.050138910751189682 0 -0.0020018318559814618 -0.050295761664116354 0 -0.0032129159896510761 -0.047942038085952696 0 -6.0084069103119807e-07 -0.051442338367575197 0 -0.0029054791290239728 -0.050640675534175852 0 -0.0054004661090655721 -0.050157949752841546 0 -6.0084069103119807e-07 -0.051442338367575197 0 -3.8060613199823565e-07 -0.051104366409091641 0 -0.0029054791290239728 -0.050640675534175852 0 -0.0026191814730605273 -0.050345582004964341 0 -3.8060613199823565e-07 -0.051104366409091641 0 -0.0029054791290239728 -0.050640675534175852 0 -0.0026191814730605273 -0.050345582004964341 0 -0.0029054791290239728 -0.050640675534175852 0 -0.0058683441465897943 -0.048456543384267012 0 -0.0029054791290239728 -0.050640675534175852 0 -0.0054004661090655721 -0.050157949752841546 0 -0.0058683441465897943 -0.048456543384267012 0 -0.0058683441465897943 -0.048456543384267012 0 -0.0092046213477621121 -0.045060459655515847 0 -0.0099335109834470942 -0.047163837379536389 0 -0.0054004661090655721 -0.050157949752841546 0 -0.0058683441465897943 -0.048456543384267012 0 -0.0099335109834470942 -0.047163837379536389 0 -0.0058683441465897943 -0.048456543384267012 0 -0.0092046213477621121 -0.045060459655515847 0 -0.0069443198776977999 -0.046040514910321566 0 -0.0092046213477621121 -0.045060459655515847 0 -0.0069443198776977999 -0.046040514910321566 0 -0.0087301807027996333 -0.043225041960817875 0 -0.0092046213477621121 -0.045060459655515847 0 -0.0099335109834470942 -0.047163837379536389 0 -0.013486595720353439 -0.043211320074264786 0 -0.0032129159896510761 -0.047942038085952696 0 -0.0046721300113053092 -0.048037764044914139 0 -0.0063799461325922202 -0.044639700658335224 0 -0.003107354086959523 -0.044768522860609172 0 -0.0032129159896510761 -0.047942038085952696 0 -0.0063799461325922202 -0.044639700658335224 0 -0.0058683441465897943 -0.048456543384267012 0 -0.0046721300113053092 -0.048037764044914139 0 -0.0069443198776977999 -0.046040514910321566 0 -0.0046721300113053092 -0.048037764044914139 0 -0.0069443198776977999 -0.046040514910321566 0 -0.0063799461325922202 -0.044639700658335224 0 -0.0069443198776977999 -0.046040514910321566 0 -0.0063799461325922202 -0.044639700658335224 0 -0.0087301807027996333 -0.043225041960817875 0 -0.0063799461325922202 -0.044639700658335224 0 -0.0087301807027996333 -0.043225041960817875 0 -0.0088956325337364323 -0.041148354222083107 0 -0.003107354086959523 -0.044768522860609172 0 -0.0063799461325922202 -0.044639700658335224 0 -0.0062763595326461611 -0.041955499567409599 0 -0.0063799461325922202 -0.044639700658335224 0 -0.0062763595326461611 -0.041955499567409599 0 -0.0088956325337364323 -0.041148354222083107 0 0.0068106489374098293 -0.01460503186426039 0 0.0061298313223539245 -0.012273877430251079 0 0.004948813002910466 -0.010587617585565841 0 -0.0045918386564582029 -0.040188770831585355 0 -7.8477044152663297e-05 -0.023521691587408147 0 -0.0087301807027996333 -0.043225041960817875 0 -0.0088956325337364323 -0.041148354222083107 0 -0.010414883268595994 -0.040662323061082924 0 -7.8477044152663297e-05 -0.023521691587408147 0 -0.0033461776654826556 -0.026084287181014548 0 0.0036904088971103266 -0.0076283768264203636 0 0.0044315467216181634 -0.0097930123362508469 0 0.0029814407294707322 -0.0066487950452809074 0 0.0061298313223539245 -0.012273877430251079 0 0.0036904088971103266 -0.0076283768264203636 0 0.0044315467216181634 -0.0097930123362508469 0 0.0036904088971103266 -0.0076283768264203636 0 0.004948813002910466 -0.010587617585565841 0 0.0032899172817439427 -0.0067447538517212535 0 0.0061298313223539245 -0.012273877430251079 0 0.0036904088971103266 -0.0076283768264203636 0 0.004948813002910466 -0.010587617585565841 0 -0.013486595720353439 -0.043211320074264786 0 -0.010927424660767935 -0.042387596617151566 0 -0.01315512410969176 -0.03963670647173876 0 -0.0092046213477621121 -0.045060459655515847 0 -0.013486595720353439 -0.043211320074264786 0 -0.010927424660767935 -0.042387596617151566 0 -0.0092046213477621121 -0.045060459655515847 0 -0.0087301807027996333 -0.043225041960817875 0 -0.010927424660767935 -0.042387596617151566 0 -0.0087301807027996333 -0.043225041960817875 0 -0.010927424660767935 -0.042387596617151566 0 -0.010414883268595994 -0.040662323061082924 0 0.0044315467216181634 -0.0097930123362508469 0 0.0029814407294707322 -0.0066487950452809074 0 0.0032393169507986238 -0.0080242752794989856 0 0.0029814407294707322 -0.0066487950452809074 0 0.0032393169507986238 -0.0080242752794989856 0 0.0015818684251254725 -0.0043706877257851046 0 -0.0033461776654826556 -0.026084287181014548 0 -0.0048388597580741963 -0.023594783606649846 0 -0.010927424660767935 -0.042387596617151566 0 -0.010414883268595994 -0.040662323061082924 0 -0.01315512410969176 -0.03963670647173876 0 -0.013486595720353439 -0.043211320074264786 0 -0.01315512410969176 -0.03963670647173876 0 -0.015846398123994191 -0.039106760871603599 0 0.0032393169507986238 -0.0080242752794989856 0 0.00021916228801213911 -0.0057991893039645269 0 0.0015818684251254725 -0.0043706877257851046 0 -0.0048388597580741963 -0.023594783606649846 0 -0.0079311462647137006 -0.022541768696113618 0 0.00021916228801213911 -0.0057991893039645269 0 0.0015818684251254725 -0.0043706877257851046 0 -0.00053961456204980546 -0.0023637938025645191 0 0.0015818684251254725 -0.0043706877257851046 0 0.00054415121249525955 -0.0017035905722382907 0 -0.00053961456204980546 -0.0023637938025645191 0 0.0015818684251254725 -0.0043706877257851046 0 0.0015989346657673551 -0.0032423649856063159 0 0.00054415121249525955 -0.0017035905722382907 0 0.0029814407294707322 -0.0066487950452809074 0 0.0015818684251254725 -0.0043706877257851046 0 0.0015989346657673551 -0.0032423649856063159 0 0.0015989346657673551 -0.0032423649856063159 0 1.8565524871952387e-07 -8.2618750351115763e-08 0 1.8388017022935927e-07 -1.3574515571597875e-07 0 0.0015989346657673551 -0.0032423649856063159 0 1.8565524871952387e-07 -8.2618750351115763e-08 0 0.00054415121249525955 -0.0017035905722382907 0 1.8565524871952387e-07 -8.2618750351115763e-08 0 0.00054415121249525955 -0.0017035905722382907 0 -1.9256832493244576e-07 -4.2750431655262435e-08 0 0.00054415121249525955 -0.0017035905722382907 0 -1.9256832493244576e-07 -4.2750431655262435e-08 0 -0.00053961456204980546 -0.0023637938025645191 0 0.0036904088971103266 -0.0076283768264203636 0 0.0017617550147918362 -0.0034930934605348547 0 0.0032899172817439427 -0.0067447538517212535 0 0.0036904088971103266 -0.0076283768264203636 0 0.0015989346657673551 -0.0032423649856063159 0 0.0017617550147918362 -0.0034930934605348547 0 0.0036904088971103266 -0.0076283768264203636 0 0.0029814407294707322 -0.0066487950452809074 0 0.0015989346657673551 -0.0032423649856063159 0 0.0015989346657673551 -0.0032423649856063159 0 0.0017617550147918362 -0.0034930934605348547 0 1.8388017022935927e-07 -1.3574515571597875e-07 0 0.0017617550147918362 -0.0034930934605348547 0 1.8388017022935927e-07 -1.3574515571597875e-07 0 2.0957028430323162e-07 -1.351886792038734e-07 0 2.0957028430323162e-07 -1.351886792038734e-07 0 0.0018678981547607632 -0.0034789687080900339 0 2.8439089802977617e-07 -1.4181176906947738e-07 0 0.0017617550147918362 -0.0034930934605348547 0 2.0957028430323162e-07 -1.351886792038734e-07 0 0.0018678981547607632 -0.0034789687080900339 0 0.0017617550147918362 -0.0034930934605348547 0 0.0032899172817439427 -0.0067447538517212535 0 0.0018678981547607632 -0.0034789687080900339 0 0.0032899172817439427 -0.0067447538517212535 0 0.0018678981547607632 -0.0034789687080900339 0 0.0041839285965485362 -0.0081011498922890623 0 0.0025071191119483468 -0.0036186794154644789 0 0.0064147533526645534 -0.0088718622857474009 0 0.0041839285965485362 -0.0081011498922890623 0 0.0018678981547607632 -0.0034789687080900339 0 0.0025071191119483468 -0.0036186794154644789 0 0.0041839285965485362 -0.0081011498922890623 0 0.0025071191119483468 -0.0036186794154644789 0 2.8439089802977617e-07 -1.4181176906947738e-07 0 2.4026904368650569e-07 -5.0079927824017205e-08 0 0.0018678981547607632 -0.0034789687080900339 0 0.0025071191119483468 -0.0036186794154644789 0 2.8439089802977617e-07 -1.4181176906947738e-07 0 0.0025071191119483468 -0.0036186794154644789 0 2.4026904368650569e-07 -5.0079927824017205e-08 0 0.0031769996953208554 -0.0034437450972774159 0 9.7847720705728467e-07 -3.6636100401551542e-07 0 0.0031769996953208554 -0.0034437450972774159 0 0.0077385554920180134 -0.0068800428851076281 0 2.4026904368650569e-07 -5.0079927824017205e-08 0 9.7847720705728467e-07 -3.6636100401551542e-07 0 0.0031769996953208554 -0.0034437450972774159 0 0.0031769996953208554 -0.0034437450972774159 0 0.0077385554920180134 -0.0068800428851076281 0 0.0064147533526645534 -0.0088718622857474009 0 0.0025071191119483468 -0.0036186794154644789 0 0.0031769996953208554 -0.0034437450972774159 0 0.0064147533526645534 -0.0088718622857474009 0 0.0064147533526645534 -0.0088718622857474009 0 0.012623634649841054 -0.013102527203440356 0 0.010104173067838534 -0.015045357389969673 0 0.0077385554920180134 -0.0068800428851076281 0 0.0064147533526645534 -0.0088718622857474009 0 0.012623634649841054 -0.013102527203440356 0 0.016280203889862552 -0.019917444191705366 0 0.012623634649841054 -0.013102527203440356 0 0.010104173067838534 -0.015045357389969673 0 0.0064147533526645534 -0.0088718622857474009 0 0.010104173067838534 -0.015045357389969673 0 0.0068448010960741575 -0.012000421735656679 0 0.0084899644104428108 -0.016161248073578823 0 0.010104173067838534 -0.015045357389969673 0 0.0068448010960741575 -0.012000421735656679 0 0.0084899644104428108 -0.016161248073578823 0 0.0068448010960741575 -0.012000421735656679 0 0.0060016967838417267 -0.012956196167509948 0 0.0074790198004071849 -0.017361113403744521 0 0.0084899644104428108 -0.016161248073578823 0 0.0060016967838417267 -0.012956196167509948 0 0.0074790198004071849 -0.017361113403744521 0 0.0068106489374098293 -0.01460503186426039 0 0.0060016967838417267 -0.012956196167509948 0 0.0068106489374098293 -0.01460503186426039 0 0.004948813002910466 -0.010587617585565841 0 0.0060016967838417267 -0.012956196167509948 0 0.004948813002910466 -0.010587617585565841 0 0.0032899172817439427 -0.0067447538517212535 0 0.0041839285965485362 -0.0081011498922890623 0 0.004948813002910466 -0.010587617585565841 0 0.0060016967838417267 -0.012956196167509948 0 0.0041839285965485362 -0.0081011498922890623 0 0.0064147533526645534 -0.0088718622857474009 0 0.0068448010960741575 -0.012000421735656679 0 0.0041839285965485362 -0.0081011498922890623 0 0.0068448010960741575 -0.012000421735656679 0 0.0060016967838417267 -0.012956196167509948 0 0.0041839285965485362 -0.0081011498922890623 0 
</DataArray>
</PointData>
<CellData Scalars="region_id,cross_section_updated," Vectors="" Tensors="stress,">
<DataArray type="Float64" Name="region_id" format="ascii">
11 11 11 11 11 11 11 11 11 11 11 5 11 11 5 11 11 11 11 11 6 11 11 5 11 5 11 11 11 11 6 11 11 11 11 6 11 11 6 11 11 11 11 11 11 11 11 11 11 11 11 11 11 11 11 11 11 11 11 11 11 11 11 11 11 11 11 4 11 4 11 11 11 11 11 11 11 11 11 11 4 11 11 11 4 11 11 11 11 11 11 11 11 11 11 11 11 11 11 11 11 11 11 11 11 11 11 11 11 11 11 11 11 11 11 11 11 11 11 11 11 11 11 11 
</DataArray>
<DataArray type="Float64" Name="stress" NumberOfComponents="9" format="ascii">
-8213159.4400595427 3036359.7278529406 0 3036359.7278529406 -1123452.8771748543 0 0 0 -2334153.0793085992 3641047.8600691259 150880.10490256548 0 150880.10490256548 -869039.22073304653 0 0 0 693002.15983405709 -23050539.396465242 3484746.6738400906 0 3484746.6738400906 -4461562.6202121973 0 0 0 -6878025.5041693747 -13922598.446163416 -1336191.9969344139 0 -1336191.9969344139 -990176.0554497242 0 0 0 -3728193.625403285 -11412197.355075844 3460751.9123027921 0 3460751.9123027921 -2286109.8554935008 0 0 0 -3424576.8026423529 -18801332.597706079 -3075185.119342342 0 -3075185.119342342 1263832.0732402802 0 0 0 -4384375.1311164498 -22934903.528503239 233656.56200328469 0 233656.56200328469 -1816491.9576638937 0 0 0 -6187848.8715417981 -12047642.036939085 2370050.7532348335 0 2370050.7532348335 -2754518.8125983477 0 0 0 -3700540.2123843729 -2498855.2932463884 2726233.8590598106 0 2726233.8590598106 -1887294.7270827293 0 0 0 -1096537.5050822645 -11599686.535435423 3440169.1226583123 0 3440169.1226583123 -457841.13696068525 0 0 0 -3014381.9180990458 -9634371.4108902961 1583454.2321631908 0 1583454.2321631908 -538941.61823630333 0 0 0 -2543328.2572816461 12694.16901301639 9520.0978266645106 0 9520.0978266645106 -12685.712002197415 0 0 0 2.1142527047413751 -11925079.286180187 3636909.2872036248 0 3636909.2872036248 526995.25599706918 0 0 0 -2849521.0075457878 -17220156.495596901 933091.33001217246 0 933091.33001217246 -5182001.6024138331 0 0 0 -5600539.5245026797 12994.142619757033 9745.4316185618773 0 9745.4316185618773 -12991.340364728967 0 0 0 0.70056375701460638 -13529091.913705193 9051526.2756274939 0 9051526.2756274939 1588218.1851947308 0 0 0 -2985218.4321275949 -15863717.525295217 8880990.9977200478 0 8880990.9977200478 1260552.6626054049 0 0 0 -3650791.2156724706 -15032412.595464502 7992235.8972527534 0 7992235.8972527534 2872616.1257585138 0 0 0 -3039949.1174264923 -10267753.624812469 4271670.9192121346 0 4271670.9192121346 1408716.1226817369 0 0 0 -2214759.3755326793 -17543086.699316949 3376892.9730147645 0 3376892.9730147645 -1130433.0366635006 0 0 0 -4668379.9339951146 420.03275734387717 670.2645592623312 0 670.2645592623312 14104.024536205048 0 0 0 3631.0143233872332 -8900826.2662153691 3358108.6657634974 0 3358108.6657634974 -10206835.75450933 0 0 0 -4776915.5051811785 -13842129.594319522 1708125.2042420208 0 1708125.2042420208 -11865466.27242732 0 0 0 -6426898.9666867256 14609.81112398119 10960.796850564708 0 10960.796850564708 -14664.820597337795 0 0 0 -13.752368339152781 -14527961.617991365 9817174.3803965226 0 9817174.3803965226 6199537.7535629719 0 0 0 -2082105.9661071077 13747.443714482109 10309.035530380532 0 10309.035530380532 -13722.686889433571 0 0 0 6.1892062621345758 -13862846.087359473 1673536.8733254075 0 1673536.8733254075 -12140783.336951435 0 0 0 -6500907.3560777009 -15017569.314068943 894009.30772677064 0 894009.30772677064 -6675577.1460212469 0 0 0 -5423286.6150225401 -19607195.451467305 3199595.641672723 0 3199595.641672723 -11308534.581900716 0 0 0 -7728932.5083419979 -14471762.652669832 2187882.9574098289 0 2187882.9574098289 -12491694.03417933 0 0 0 -6740864.1717122644 187.59046789743115 728.25633137060322 0 728.25633137060322 14167.244583219828 0 0 0 3588.7087627793153 -13197096.031276092 4313061.2623884678 0 4313061.2623884678 -9112971.6371097565 0 0 0 -5577516.9170964658 -10358216.512644529 2574754.1522699147 0 2574754.1522699147 -7713241.443664372 0 0 0 -4517864.4890772253 -4934511.3194904923 5526801.9984779507 0 5526801.9984779507 -1470136.8156710267 0 0 0 -1601162.0337903798 -19457011.946758542 -3641752.5546042621 0 -3641752.5546042621 -7259915.3323139921 0 0 0 -6679231.8197681345 959.19171259478389 227.14057657138255 0 227.14057657138255 14197.670183747709 0 0 0 3789.2154740856204 1128757.8083866835 1548246.0600888357 0 1548246.0600888357 -1531210.7004305124 0 0 0 -100613.22301095724 -40892351.8677729 -6178531.8054562509 0 -6178531.8054562509 -3699469.5766049623 0 0 0 -11147955.361094497 3599.6327218429033 -1519.411159584075 0 -1519.411159584075 15583.447341796738 0 0 0 4795.7700159099077 -10430197.065973043 1153587.607400639 0 1153587.607400639 -4044771.4743449092 0 0 0 -3618742.1350794733 -8749260.2823136896 -460117.80182021856 0 -460117.80182021856 313351.94250111282 0 0 0 -2108977.0849530995 -16422364.47464459 2544632.6667851508 0 2544632.6667851508 -3282531.8764486699 0 0 0 -4926224.087773311 -19179424.96417664 565879.9355905503 0 565879.9355905503 -6730318.2672375441 0 0 0 -6477435.8078535348 -22667942.767140791 2145649.4479499906 0 2145649.4479499906 -7717646.361700058 0 0 0 -7596397.2822102159 -20456378.503050577 5058465.7854260206 0 5058465.7854260206 -7134168.6838429058 0 0 0 -6897636.7967233788 -22821269.216578737 3627186.0316284299 0 3627186.0316284299 -10556533.537863612 0 0 0 -8344450.6886105984 -17400214.878548801 3544207.3075539991 0 3544207.3075539991 -7997479.8831288815 0 0 0 -6349423.6904194206 -15001879.839522298 5035514.5302175879 0 5035514.5302175879 -4730053.5282322317 0 0 0 -4932983.3419386409 -34345305.247344419 398208.3106444329 0 398208.3106444329 -10878215.16203028 0 0 0 -11305880.102343664 -28148280.333086342 1790371.1348871291 0 1790371.1348871291 -11305445.030412555 0 0 0 -9863431.3408747315 -26046776.363881961 280577.72955386341 0 280577.72955386341 -10468942.839095771 0 0 0 -9128929.8007444441 -24669202.990653031 4176532.1639968902 0 4176532.1639968902 -9161616.6426872388 0 0 0 -8457704.9083350524 -26979353.409726687 1774812.4706864953 0 1774812.4706864953 -11823450.656683385 0 0 0 -9700701.0166025236 -23089444.888773233 2514326.0307933297 0 2514326.0307933297 -11961199.249652326 0 0 0 -8762661.0346064121 -29558035.445029624 2122208.6720107794 0 2122208.6720107794 -11310140.479049027 0 0 0 -10217043.981019668 -23764337.157359809 4741021.4236569703 0 4741021.4236569703 -11732571.178379476 0 0 0 -8874227.0839348435 -20318256.081927195 5050772.513222307 0 5050772.513222307 -12336542.816341668 0 0 0 -8163699.7245672196 -24229847.405410849 2512179.5606412888 0 2512179.5606412888 -12050229.373087049 0 0 0 -9070019.1946244761 -20064558.037648499 5917622.600691393 0 5917622.600691393 -9368472.2888501547 0 0 0 -7358257.58162467 -15232647.969474718 3293381.805513151 0 3293381.805513151 -10473216.596051693 0 0 0 -6426466.1413815916 -21108544.962026 5850465.9072731137 0 5850465.9072731137 -10122354.822264448 0 0 0 -7807724.9460726231 -20607395.870165095 5885566.0770184547 0 5885566.0770184547 -12114395.889066875 0 0 0 -8180447.9398079962 -20034320.521439768 6183314.8989666998 0 6183314.8989666998 -11757958.932789668 0 0 0 -7948069.8635573462 -21331769.051074296 6779108.3199293315 0 6779108.3199293315 -12832445.299805343 0 0 0 -8541053.5877199173 -23210111.762258358 3858224.7321681976 0 3858224.7321681976 -13100268.644039929 0 0 0 -9077595.1015745774 -20496083.406949729 4352714.8247330189 0 4352714.8247330189 -12872237.717915177 0 0 0 -8342080.281216234 -15516971.666847633 12750631.031242508 0 12750631.031242508 -1424974.1831851378 0 0 0 -4235486.4625081997 10117.8229074219 7576.2559354407067 0 7576.2559354407067 -9924.0435482250323 0 0 0 48.444839799216425 -18378734.460766703 6336290.5647277087 0 6336290.5647277087 -13434130.021345526 0 0 0 -7953216.1205280572 10668.185441750589 8003.8247634149411 0 8003.8247634149411 -10711.156984862337 0 0 0 -10.742885777936408 -13713426.235703271 9746449.3575651832 0 9746449.3575651832 -2477421.9535640627 0 0 0 -4047712.0473168287 -17056299.43014529 9929043.9427678399 0 9929043.9427678399 -802962.58604346216 0 0 0 -4464815.5040471815 -15402111.122014418 12351289.527587108 0 12351289.527587108 -2045863.4369791076 0 0 0 -4361993.6397483833 -18056714.072839692 12388797.937082125 0 12388797.937082125 -2060999.4532398582 0 0 0 -5029428.3815198839 -19318301.419247281 2723797.1653954238 0 2723797.1653954238 -11298727.415463543 0 0 0 -7654257.2086776914 -20802213.599299848 1977998.9643479586 0 1977998.9643479586 -11860402.525389493 0 0 0 -8165654.03117235 -20669348.772683881 4570151.9975039661 0 4570151.9975039661 -12990450.741560072 0 0 0 -8414949.8785609975 -16837558.207282573 3508277.0941772461 0 3508277.0941772461 -11177511.683157563 0 0 0 -7003767.4726100266 -14143867.135516062 9605098.2164455727 0 9605098.2164455727 -4340811.6593831927 0 0 0 -4621169.69872481 -15501746.08808006 10513625.177780613 0 10513625.177780613 -3035161.9543007538 0 0 0 -4634227.0105952015 11177.715061711358 8382.1706269245879 0 8382.1706269245879 -11159.865011473406 0 0 0 4.4625125594870951 -19808726.803079426 3823049.7481408119 0 3823049.7481408119 -10568610.462599337 0 0 0 -7594334.3164196759 -17785105.945797034 2661438.6838450432 0 2661438.6838450432 -13081356.815069288 0 0 0 -7716615.6902165711 -13646926.085875442 5054650.5801959559 0 5054650.5801959559 -1936768.200813666 0 0 0 -3895923.5716722775 11604.064529301982 8703.3639535837065 0 8703.3639535837065 -11609.114097303454 0 0 0 -1.2623920003670719 -6938309.2454574145 4970401.844687745 0 4970401.844687745 -1390240.3747864701 0 0 0 -2082137.4050609712 -9242537.1402238496 4994817.950578359 0 4994817.950578359 -1316459.7250700928 0 0 0 -2639749.2163234865 -10922380.767869031 8898274.2924173344 0 8898274.2924173344 -1708035.3293320378 0 0 0 -3157604.0243002675 -13930120.984150577 9632753.6894771867 0 9632753.6894771867 -1468846.7240585126 0 0 0 -3849741.9270522716 -13498957.995084051 9125364.1397570502 0 9125364.1397570502 -4499312.6560336724 0 0 0 -4499567.6627794309 -9245728.2722635455 6646261.2195107378 0 6646261.2195107378 719022.1567161642 0 0 0 -2131676.5288868449 -6974297.0489191161 7277519.6269585406 0 7277519.6269585406 -2324510.5257333838 0 0 0 -2324701.8936631246 4905493.8086305009 3689788.5559452949 0 3689788.5559452949 907278.38653475046 0 0 0 1453193.0487913126 -15264191.543493826 11035570.136340186 0 11035570.136340186 -3019603.3933803067 0 0 0 -4570948.7342185341 -15337325.927834412 10963584.630798511 0 10963584.630798511 -2980602.4248205349 0 0 0 -4579482.0881637391 -13924696.904509209 10420803.386103312 0 10420803.386103312 -2881522.124487495 0 0 0 -4201554.7572491737 -13593063.500837684 9124297.0976566803 0 9124297.0976566803 -2495465.9016980855 0 0 0 -4022132.3506339444 -15237804.204663195 10071517.920133214 0 10071517.920133214 -5079271.6296707354 0 0 0 -5079268.9585834825 -16687095.210906256 10360733.962952234 0 10360733.962952234 -5562322.6825269489 0 0 0 -5562354.4733583014 -15672721.427643463 9816423.0054424871 0 9816423.0054424871 -4604127.8955751061 0 0 0 -5069212.3308046404 -15784060.73716943 11445123.301189199 0 11445123.301189199 -4528003.0226480104 0 0 0 -5078015.9399543582 -16722726.00820338 11166580.771965208 0 11166580.771965208 -3511944.1082642302 0 0 0 -5058667.5291169025 -21764275.252897203 8892301.8380412906 0 8892301.8380412906 -3498486.6093290076 0 0 0 -6315690.4655565526 -16988819.55352376 11105289.84965013 0 11105289.84965013 -5741319.1561666485 0 0 0 -5682534.6774226027 -21622368.297566518 10403776.98767619 0 10403776.98767619 -7208043.1829728177 0 0 0 -7207602.8701348333 -19086398.830569781 8956122.7470382247 0 8956122.7470382247 -6263583.4354944089 0 0 0 -6337495.5665160473 -26456423.530972768 7833480.1013014251 0 7833480.1013014251 -6752964.4863237217 0 0 0 -8302347.0043241233 -45832549.697887018 8127548.679094132 0 8127548.679094132 -5443001.3745872974 0 0 0 -12818887.768118577 -30987062.042299811 11195924.280804832 0 11195924.280804832 -10326996.481878987 0 0 0 -10328514.631044701 -27675397.74380973 4505662.8906606995 0 4505662.8906606995 1037122.4270680957 0 0 0 -6659568.8291854076 -25181377.745770954 10683724.535075221 0 10683724.535075221 -5439027.1847428214 0 0 0 -7655101.2326284461 -20614655.433911026 2914969.9287603796 0 2914969.9287603796 4587.1071382537484 0 0 0 -5152517.0816931948 -28106218.88465067 3445896.1726557985 0 3445896.1726557985 -946639.02733694017 0 0 0 -7263214.4779969081 -20681973.781805169 3128480.9226845354 0 3128480.9226845354 359527.01767581701 0 0 0 -5080611.6910323426 -21989030.606431108 7608064.4266214482 0 7608064.4266214482 -1050056.632507965 0 0 0 -5759771.8097347617 -15659083.787091706 6454818.6319051757 0 6454818.6319051757 936343.81851764768 0 0 0 -3680684.9921435155 -15821235.935794521 9543030.6095611509 0 9543030.6095611509 -621038.86152619123 0 0 0 -4110568.6993301809 -10585656.911611367 7460493.8905386776 0 7460493.8905386776 3038549.0648532659 0 0 0 -1886776.9616895355 -11213078.44917741 13362251.597454712 0 13362251.597454712 2090277.9499575794 0 0 0 -2280700.1248049624 -15319070.352994502 11545392.449761566 0 11545392.449761566 -1046966.4339006543 0 0 0 -4091509.196723789 -16080312.725093886 11656306.968120648 0 11656306.968120648 -3648309.2960374057 0 0 0 -4932155.5052828193 -14301816.530331036 12460183.722212572 0 12460183.722212572 -2279205.5594901927 0 0 0 -4145255.5224553104 -16956741.734995667 8761690.1703553274 0 8761690.1703553274 -1891325.3818960264 0 0 0 -4712016.7792229224 -16421336.121898435 8543810.6896687746 0 8543810.6896687746 -1707405.052655682 0 0 0 -4532185.2936385283 
</DataArray>
<DataArray type="Float64" Name="cross_section_updated" format="ascii">
1 1 1 1 1 1 1 1 1 1 1 0.0010000003699215838 1 1 0.0010000002053166292 1 1 1 1 1 0.010000000262044645 1 1 0.00099999958450597108 1 0.00099999995391554172 1 1 1 1 0.0099999999153494445 1 1 1 1 0.010473808192717995 1 1 0.01300805416195415 1 1 1 1 1 1 1 1 1 1 1 1 1 1 1 1 1 1 1 1 1 1 1 1 1 1 1 1 0.0010000000351759325 1 0.0010000000393424954 1 1 1 1 1 1 1 1 1 1 0.0010000000412190777 1 1 1 0.0010000000413928978 1 1 1 1 1 1 1 1 1 1 1 1 1 1 1 1 1 1 1 1 1 1 1 1 1 1 1 1 1 1 1 1 1 1 1 1 1 1 1 
</DataArray>
</CellData>
</Piece>
</UnstructuredGrid>
</VTKFile>
