<?xml version="1.0"?>
<VTKFile type="UnstructuredGrid" version="0.1" byte_order="LittleEndian">
<UnstructuredGrid>
<Piece NumberOfPoints="360" NumberOfCells="124">
<Points>
<DataArray type="Float64" NumberOfComponents="3" format="ascii">
0 0 0 0.084352422163911631 0.086451712656266194 0 0 0.12500000000034689 0 0 0 0 0.084352422163911631 0.086451712656266194 0 0.1249999999997554 0 0 0 0.12500000000034689 0 0.1008171452988615 0.18885703697250469 0 0 0.25 0 0.084352422163911631 0.086451712656266194 0 0 0.12500000000034689 0 0.1008171452988615 0.18885703697250469 0 0.084352422163911631 0.086451712656266194 0 0.1008171452988615 0.18885703697250469 0 0.18402761812864499 0.1117324051466445 0 0.1008171452988615 0.18885703697250469 0 0.2403886547178353 0.24188814792673841 0 0.1249999999997599 0.31249999999987998 0 0.1008171452988615 0.18885703697250469 0 0.2403886547178353 0.24188814792673841 0 0.18402761812864499 0.1117324051466445 0 0.2403886547178353 0.24188814792673841 0 0.18402761812864499 0.1117324051466445 0 0.31250000000020822 0.12500000000041631 0 0.1249999999997554 0 0 0.18402761812864499 0.1117324051466445 0 0.25 -0 0 0.18402761812864499 0.1117324051466445 0 0.25 -0 0 0.31250000000020822 0.12500000000041631 0 0.084352422163911631 0.086451712656266194 0 0.1249999999997554 0 0 0.18402761812864499 0.1117324051466445 0 0.25 -0 0 0.31250000000020822 0.12500000000041631 0 0.25 -0 0 0.31250000000020822 0.12500000000041631 0 0.43749999999913258 0 0 0.2403886547178353 0.24188814792673841 0 0.31250000000020822 0.12500000000041631 0 0.37500000000027761 0.25000000000055511 0 0.31250000000020822 0.12500000000041631 0 0.37500000000027761 0.25000000000055511 0 0.31250000000020822 0.12500000000041631 0 0.4287911518546233 0.15455445427966699 0 0.37500000000027761 0.25000000000055511 0 0.4287911518546233 0.15455445427966699 0 0.49457493289300231 0.26251703776555491 0 0.37500000000027761 0.25000000000055511 0 0.4287911518546233 0.15455445427966699 0 0.49457493289300231 0.26251703776555491 0 0.54475767668582953 0.1431838882066932 0 0.31250000000020822 0.12500000000041631 0 0.4287911518546233 0.15455445427966699 0 0.43749999999913258 0 0 0.4287911518546233 0.15455445427966699 0 0.43749999999913258 0 0 0.54475767668582953 0.1431838882066932 0 0.37499999999973488 0.43749999999986738 0 0.5 0.5 -0 0.43750000000006939 0.37500000000013878 0 0.37499999999973488 0.43749999999986738 0 0.5 0.5 -0 0.43750000000006939 0.37500000000013878 0 0.33819444444448321 0.33819444444456342 0 0.37499999999973488 0.43749999999986738 0 0.43750000000006939 0.37500000000013878 0 0.5 0.5 -0 0.43750000000006939 0.37500000000013878 0 0.49457493289300231 0.26251703776555491 0 0.37500000000027761 0.25000000000055511 0 0.43750000000006939 0.37500000000013878 0 0.37500000000027761 0.25000000000055511 0 0.43750000000006939 0.37500000000013878 0 0.37500000000027761 0.25000000000055511 0 0.33819444444448321 0.33819444444456342 0 0.2403886547178353 0.24188814792673841 0 0.33819444444448321 0.33819444444456342 0 0.24999999999960859 0.37499999999980432 0 0.2403886547178353 0.24188814792673841 0 0.37500000000027761 0.25000000000055511 0 0.33819444444448321 0.33819444444456342 0 0.33819444444448321 0.33819444444456342 0 0.37499999999973488 0.43749999999986738 0 0.24999999999960859 0.37499999999980432 0 0.37499999999973488 0.43749999999986738 0 0.24999999999960859 0.37499999999980432 0 0.37499999999973488 0.43749999999986738 0 0.24999999999960859 0.37499999999980432 0 0.26452443700674649 0.51563531581639865 0 0.14929124186975251 0.44582793568106382 0 0.24999999999960859 0.37499999999980432 0 0.26452443700674649 0.51563531581639865 0 0.14929124186975251 0.44582793568106382 0 0.24999999999960859 0.37499999999980432 0 0.1249999999997599 0.31249999999987998 0 0.2403886547178353 0.24188814792673841 0 0.24999999999960859 0.37499999999980432 0 0.1249999999997599 0.31249999999987998 0 0.24999999999960859 0.37499999999980432 0 0.1249999999997599 0.31249999999987998 0 0.1249999999997599 0.31249999999987998 0 0 0.25 0 0 0.43750000000034689 0 0.1008171452988615 0.18885703697250469 0 0.1249999999997599 0.31249999999987998 0 0 0.25 0 0.1249999999997599 0.31249999999987998 0 0 0.25 0 0.14929124186975251 0.44582793568106382 0 0 0.43750000000034689 0 0.13928587515912139 0.57339806105677438 0 0.14929124186975251 0.44582793568106382 0 0.1249999999997599 0.31249999999987998 0 0 0.43750000000034689 0 0 0.43750000000034689 0 0 0.62500000000069389 0 0.13928587515912139 0.57339806105677438 0 0 0.62500000000069389 0 0.13900789599611679 0.72618316107059999 0 0.13928587515912139 0.57339806105677438 0 0 0.62500000000069389 0 0.13900789599611679 0.72618316107059999 0 0 0.81250000000104083 0 0.13900789599611679 0.72618316107059999 0 0.13928587515912139 0.57339806105677438 0 0.27589467050686478 0.66058853156435704 0 0.13900789599611679 0.72618316107059999 0 0.27987960212930818 0.83442741470570525 0 0.27589467050686478 0.66058853156435704 0 0.13928587515912139 0.57339806105677438 0 0.26452443700674649 0.51563531581639865 0 0.27589467050686478 0.66058853156435704 0 0.14929124186975251 0.44582793568106382 0 0.13928587515912139 0.57339806105677438 0 0.26452443700674649 0.51563531581639865 0 0 1 0 0.12710107136012311 0.87094806618203435 0 0.1875000000005205 1 0 0 1 0 0 0.81250000000104083 0 0.12710107136012311 0.87094806618203435 0 0.13900789599611679 0.72618316107059999 0 0 0.81250000000104083 0 0.12710107136012311 0.87094806618203435 0 0.13900789599611679 0.72618316107059999 0 0.12710107136012311 0.87094806618203435 0 0.27987960212930818 0.83442741470570525 0 0.12710107136012311 0.87094806618203435 0 0.1875000000005205 1 0 0.27987960212930818 0.83442741470570525 0 0.27987960212930818 0.83442741470570525 0 0.44927105396715372 0.85565124085155886 0 0.37500000000069389 1 0 0.1875000000005205 1 0 0.27987960212930818 0.83442741470570525 0 0.37500000000069389 1 0 0.27987960212930818 0.83442741470570525 0 0.44927105396715372 0.85565124085155886 0 0.38136204680495073 0.74038592213831234 0 0.44927105396715372 0.85565124085155886 0 0.38136204680495073 0.74038592213831234 0 0.50145856933078625 0.73674663046504862 0 0.44927105396715372 0.85565124085155886 0 0.37500000000069389 1 0 0.56250000000086742 1 0 0.26452443700674649 0.51563531581639865 0 0.27589467050686478 0.66058853156435704 0 0.4139414069912184 0.60563252640100373 0 0.37499999999973488 0.43749999999986738 0 0.26452443700674649 0.51563531581639865 0 0.4139414069912184 0.60563252640100373 0 0.27987960212930818 0.83442741470570525 0 0.27589467050686478 0.66058853156435704 0 0.38136204680495073 0.74038592213831234 0 0.27589467050686478 0.66058853156435704 0 0.38136204680495073 0.74038592213831234 0 0.4139414069912184 0.60563252640100373 0 0.38136204680495073 0.74038592213831234 0 0.4139414069912184 0.60563252640100373 0 0.50145856933078625 0.73674663046504862 0 0.4139414069912184 0.60563252640100373 0 0.50145856933078625 0.73674663046504862 0 0.5625 0.625 0 0.37499999999973488 0.43749999999986738 0 0.4139414069912184 0.60563252640100373 0 0.5 0.5 -0 0.4139414069912184 0.60563252640100373 0 0.5 0.5 -0 0.5625 0.625 0 0.5 0.5 -0 0.5625 0.625 0 0.63236534182377013 0.50296756406332266 0 0.5 0.5 -0 0.5625 0.625 0 0.50145856933078625 0.73674663046504862 0 0.5625 0.625 0 0.625 0.75 0 0.5625 0.625 0 0.625 0.75 0 0.71259747807844409 0.63846691315701831 0 0.625 0.75 0 0.73857795170433571 0.77736788564284653 0 0.5625 0.625 0 0.71259747807844409 0.63846691315701831 0 0.625 0.75 0 0.71259747807844409 0.63846691315701831 0 0.63236534182377013 0.50296756406332266 0 0.75338430262320943 0.49294443423175599 0 0.5625 0.625 0 0.71259747807844409 0.63846691315701831 0 0.63236534182377013 0.50296756406332266 0 0.56250000000086742 1 0 0.56777512057187585 0.8470224641095303 0 0.6875 0.875 0 0.44927105396715372 0.85565124085155886 0 0.56250000000086742 1 0 0.56777512057187585 0.8470224641095303 0 0.44927105396715372 0.85565124085155886 0 0.50145856933078625 0.73674663046504862 0 0.56777512057187585 0.8470224641095303 0 0.50145856933078625 0.73674663046504862 0 0.56777512057187585 0.8470224641095303 0 0.625 0.75 0 0.625 0.75 0 0.73857795170433571 0.77736788564284653 0 0.6875 0.875 0 0.73857795170433571 0.77736788564284653 0 0.6875 0.875 0 0.80552984491000901 0.88711122872127413 0 0.625 0.75 0 0.6875 0.875 0 0.56777512057187585 0.8470224641095303 0 0.625 0.75 0 0.6875 0.875 0 0.56250000000086742 1 0 0.6875 0.875 0 0.75 1 0 0.6875 0.875 0 0.75 1 0 0.80552984491000901 0.88711122872127413 0 0.6875 0.875 0 0.75 1 0 0.75 1 0 0.80552984491000901 0.88711122872127413 0 0.875 1 0 0.80552984491000901 0.88711122872127413 0 0.90637953422180084 0.90208583328057301 0 0.875 1 0 0.80552984491000901 0.88711122872127413 0 0.85787927391517405 0.753532520882502 0 0.90637953422180084 0.90208583328057301 0 0.73857795170433571 0.77736788564284653 0 0.80552984491000901 0.88711122872127413 0 0.85787927391517405 0.753532520882502 0 0.85787927391517405 0.753532520882502 0 1 0.83333333333356463 0 1 0.66666666666736052 0 0.85787927391517405 0.753532520882502 0 1 0.83333333333356463 0 0.90637953422180084 0.90208583328057301 0 1 0.83333333333356463 0 0.90637953422180084 0.90208583328057301 0 1 1 0 0.90637953422180084 0.90208583328057301 0 1 1 0 0.875 1 0 0.71259747807844409 0.63846691315701831 0 0.86127466977819722 0.57948076978797636 0 0.75338430262320943 0.49294443423175599 0 0.71259747807844409 0.63846691315701831 0 0.85787927391517405 0.753532520882502 0 0.86127466977819722 0.57948076978797636 0 0.71259747807844409 0.63846691315701831 0 0.73857795170433571 0.77736788564284653 0 0.85787927391517405 0.753532520882502 0 0.85787927391517405 0.753532520882502 0 0.86127466977819722 0.57948076978797636 0 1 0.66666666666736052 0 0.86127466977819722 0.57948076978797636 0 1 0.66666666666736052 0 1 0.50000000000138767 0 1 0.50000000000138767 0 0.86569408477091048 0.40983673916766611 0 1 0.33333333333448978 0 0.86127466977819722 0.57948076978797636 0 1 0.50000000000138767 0 0.86569408477091048 0.40983673916766611 0 0.86127466977819722 0.57948076978797636 0 0.75338430262320943 0.49294443423175599 0 0.86569408477091048 0.40983673916766611 0 0.75338430262320943 0.49294443423175599 0 0.86569408477091048 0.40983673916766611 0 0.71826039492840632 0.34564020717216182 0 0.86087286690217635 0.25206523597959418 0 0.71508993406183785 0.15715956854777599 0 0.71826039492840632 0.34564020717216182 0 0.86569408477091048 0.40983673916766611 0 0.86087286690217635 0.25206523597959418 0 0.71826039492840632 0.34564020717216182 0 0.86087286690217635 0.25206523597959418 0 1 0.33333333333448978 0 1 0.16666666666736049 0 0.86569408477091048 0.40983673916766611 0 0.86087286690217635 0.25206523597959418 0 1 0.33333333333448978 0 0.86087286690217635 0.25206523597959418 0 1 0.16666666666736049 0 0.87698901648812122 0.1160638338657984 0 1 0 0 0.87698901648812122 0.1160638338657984 0 0.81249999999947953 0 0 1 0.16666666666736049 0 1 0 0 0.87698901648812122 0.1160638338657984 0 0.87698901648812122 0.1160638338657984 0 0.81249999999947953 0 0 0.71508993406183785 0.15715956854777599 0 0.86087286690217635 0.25206523597959418 0 0.87698901648812122 0.1160638338657984 0 0.71508993406183785 0.15715956854777599 0 0.71508993406183785 0.15715956854777599 0 0.62499999999895905 0 0 0.54475767668582953 0.1431838882066932 0 0.81249999999947953 0 0 0.71508993406183785 0.15715956854777599 0 0.62499999999895905 0 0 0.43749999999913258 0 0 0.62499999999895905 0 0 0.54475767668582953 0.1431838882066932 0 0.71508993406183785 0.15715956854777599 0 0.54475767668582953 0.1431838882066932 0 0.61108462585082757 0.25750599582343231 0 0.49457493289300231 0.26251703776555491 0 0.54475767668582953 0.1431838882066932 0 0.61108462585082757 0.25750599582343231 0 0.49457493289300231 0.26251703776555491 0 0.61108462585082757 0.25750599582343231 0 0.56986707178436635 0.37762093650871992 0 0.43750000000006939 0.37500000000013878 0 0.49457493289300231 0.26251703776555491 0 0.56986707178436635 0.37762093650871992 0 0.43750000000006939 0.37500000000013878 0 0.5 0.5 -0 0.56986707178436635 0.37762093650871992 0 0.5 0.5 -0 0.63236534182377013 0.50296756406332266 0 0.56986707178436635 0.37762093650871992 0 0.63236534182377013 0.50296756406332266 0 0.75338430262320943 0.49294443423175599 0 0.71826039492840632 0.34564020717216182 0 0.63236534182377013 0.50296756406332266 0 0.56986707178436635 0.37762093650871992 0 0.71826039492840632 0.34564020717216182 0 0.71508993406183785 0.15715956854777599 0 0.61108462585082757 0.25750599582343231 0 0.71826039492840632 0.34564020717216182 0 0.61108462585082757 0.25750599582343231 0 0.56986707178436635 0.37762093650871992 0 0.71826039492840632 0.34564020717216182 0 
</DataArray>
</Points>
<Cells>
<DataArray type="UInt32" Name="connectivity" format="ascii">
0 1 2 3 4 5 6 7 8 9 10 11 12 13 14 15 16 17 18 19 20 21 22 23 24 25 26 27 28 29 30 31 32 33 34 35 36 37 38 39 40 41 42 43 44 45 46 47 48 49 50 51 52 53 54 55 56 57 58 59 60 61 62 63 64 65 66 67 68 69 70 71 72 73 74 75 76 77 78 79 80 81 82 83 84 85 86 87 88 89 90 91 92 93 94 95 96 97 98 99 100 101 102 103 104 105 106 107 108 109 110 111 112 113 114 115 116 117 118 119 120 121 122 123 124 125 126 127 128 129 130 131 132 133 134 135 136 137 138 139 140 141 142 143 144 145 146 147 148 149 150 151 152 153 154 155 156 157 158 159 160 161 162 163 164 165 166 167 168 169 170 171 172 173 174 175 176 177 178 179 180 181 182 183 184 185 186 187 188 189 190 191 192 193 194 195 196 197 198 199 200 201 202 203 204 205 206 207 208 209 210 211 212 213 214 215 216 217 218 219 220 221 222 223 224 225 226 227 228 229 230 231 232 233 234 235 236 237 238 239 240 241 242 243 244 245 246 247 248 249 250 251 252 253 254 255 256 257 258 259 260 261 262 263 264 265 266 267 268 269 270 271 272 273 274 275 276 277 278 279 280 281 282 283 284 285 286 287 288 289 290 291 292 293 294 295 296 297 298 299 300 301 302 303 304 305 306 307 308 309 310 311 312 313 314 315 316 317 318 319 320 321 322 323 324 325 326 327 328 329 330 331 332 333 334 335 336 337 338 339 340 341 342 343 344 345 346 347 348 349 350 351 352 353 354 355 356 357 358 359 
</DataArray>
<DataArray type="UInt32" Name="offsets" format="ascii">
3 6 9 12 15 18 21 24 27 30 33 35 38 41 43 46 49 52 55 58 60 63 66 68 71 73 76 79 82 85 87 90 93 96 99 101 104 107 109 112 115 118 121 124 127 130 133 136 139 142 145 148 151 154 157 160 163 166 169 172 175 178 181 184 187 190 193 195 198 200 203 206 209 212 215 218 221 224 227 230 232 235 238 241 243 246 249 252 255 258 261 264 267 270 273 276 279 282 285 288 291 294 297 300 303 306 309 312 315 318 321 324 327 330 333 336 339 342 345 348 351 354 357 360 
</DataArray>
<DataArray type="UInt32" Name="types" format="ascii">
5 5 5 5 5 5 5 5 5 5 5 3 5 5 3 5 5 5 5 5 3 5 5 3 5 3 5 5 5 5 3 5 5 5 5 3 5 5 3 5 5 5 5 5 5 5 5 5 5 5 5 5 5 5 5 5 5 5 5 5 5 5 5 5 5 5 5 3 5 3 5 5 5 5 5 5 5 5 5 5 3 5 5 5 3 5 5 5 5 5 5 5 5 5 5 5 5 5 5 5 5 5 5 5 5 5 5 5 5 5 5 5 5 5 5 5 5 5 5 5 5 5 5 5 
</DataArray>
</Cells>
<PointData Scalars="" Vectors="displacement," Tensors="">
<DataArray type="Float64" Name="displacement" NumberOfComponents="3" format="ascii">
4.5272571063349339e-08 -0.077253476291776785 0 -0.00069773831170405888 -0.076385892423627449 0 -1.8241199277693887e-08 -0.077041344796120917 0 4.5272571063349339e-08 -0.077253476291776785 0 -0.00069773831170405888 -0.076385892423627449 0 0.00051306342310295774 -0.075686756823503551 0 -1.8241199277693887e-08 -0.077041344796120917 0 -0.0022959207624351041 -0.075836426729978063 0 -9.3773713738367741e-07 -0.076615724024660201 0 -0.00069773831170405888 -0.076385892423627449 0 -1.8241199277693887e-08 -0.077041344796120917 0 -0.0022959207624351041 -0.075836426729978063 0 -0.00069773831170405888 -0.076385892423627449 0 -0.0022959207624351041 -0.075836426729978063 0 -0.0021639606655146212 -0.074002284044059494 0 -0.0022959207624351041 -0.075836426729978063 0 -0.0070221242663231695 -0.071652223655729846 0 -0.0071968833234413608 -0.074201135203949858 0 -0.0022959207624351041 -0.075836426729978063 0 -0.0070221242663231695 -0.071652223655729846 0 -0.0021639606655146212 -0.074002284044059494 0 -0.0070221242663231695 -0.071652223655729846 0 -0.0021639606655146212 -0.074002284044059494 0 -0.0040846640244135406 -0.068988122860494189 0 0.00051306342310295774 -0.075686756823503551 0 -0.0021639606655146212 -0.074002284044059494 0 0.00025720375422201179 -0.071849238436949819 0 -0.0021639606655146212 -0.074002284044059494 0 0.00025720375422201179 -0.071849238436949819 0 -0.0040846640244135406 -0.068988122860494189 0 -0.00069773831170405888 -0.076385892423627449 0 0.00051306342310295774 -0.075686756823503551 0 -0.0021639606655146212 -0.074002284044059494 0 0.01072491200916373 -0.051852023065932611 0 0.005787699942675883 -0.04841853480263613 0 0.021045977551604513 -0.031650312230949565 0 0.015663386132731074 -0.028113400686898073 0 0.018613419320933897 -0.022888827370585552 0 -0.0070221242663231695 -0.071652223655729846 0 -0.0040846640244135406 -0.068988122860494189 0 -0.0095480333543195087 -0.06649422838571209 0 0.005787699942675883 -0.04841853480263613 0 0.0012538605133003504 -0.045881524409037658 0 0.015663386132731074 -0.028113400686898073 0 0.013324267597342655 -0.022514856797513749 0 0.012182462965836355 -0.024411857351205657 0 0.013324267597342655 -0.022514856797513749 0 0.0097850286493759205 -0.01861816130477344 0 0.012182462965836355 -0.024411857351205657 0 0.013324267597342655 -0.022514856797513749 0 0.0097850286493759205 -0.01861816130477344 0 0.011594683483290914 -0.01735259014934051 0 0.015663386132731074 -0.028113400686898073 0 0.013324267597342655 -0.022514856797513749 0 0.018613419320933897 -0.022888827370585552 0 0.013324267597342655 -0.022514856797513749 0 0.018613419320933897 -0.022888827370585552 0 0.011594683483290914 -0.01735259014934051 0 -0.010887727340088653 -0.063179199372960224 0 -0.0051604902593480216 -0.046506187142846801 0 -0.013418070990253382 -0.065470474179126895 0 -0.014407413285313796 -0.067926711467169165 0 -0.016384006783979787 -0.064338093507702948 0 -0.013418070990253382 -0.065470474179126895 0 -0.011423873087545843 -0.068354026840570487 0 -0.014407413285313796 -0.067926711467169165 0 -0.0021228674129503879 -0.041139923495764848 0 -0.0051604902593480216 -0.046506187142846801 0 0.0086450987201329623 -0.019965513229701561 0 0.0097850286493759205 -0.01861816130477344 0 0.012182462965836355 -0.024411857351205657 0 -0.0021228674129503879 -0.041139923495764848 0 0.0012538605133003504 -0.045881524409037658 0 -0.013418070990253382 -0.065470474179126895 0 -0.0095480333543195087 -0.06649422838571209 0 -0.011423873087545843 -0.068354026840570487 0 -0.0070221242663231695 -0.071652223655729846 0 -0.011423873087545843 -0.068354026840570487 0 -0.011411024810096856 -0.071599627703787347 0 -0.0070221242663231695 -0.071652223655729846 0 -0.0095480333543195087 -0.06649422838571209 0 -0.011423873087545843 -0.068354026840570487 0 -0.011423873087545843 -0.068354026840570487 0 -0.014407413285313796 -0.067926711467169165 0 -0.011411024810096856 -0.071599627703787347 0 -0.010887727340088653 -0.063179199372960224 0 -0.0058305989466510156 -0.063111028617451492 0 -0.0037236793111035892 -0.052837581746044998 0 -0.0012397981693889498 -0.056136665215190264 0 -0.0038125814861228965 -0.056456977218150239 0 -0.0015895607458225281 -0.059005175353104053 0 -0.0012397981693889498 -0.056136665215190264 0 -0.0038125814861228965 -0.056456977218150239 0 -0.0015895607458225281 -0.059005175353104053 0 -0.0012397981693889498 -0.056136665215190264 0 0.00020277131910005641 -0.059739682475571217 0 -0.0070221242663231695 -0.071652223655729846 0 -0.011411024810096856 -0.071599627703787347 0 -0.0071968833234413608 -0.074201135203949858 0 -0.0058305989466510156 -0.063111028617451492 0 -0.0036619421996382595 -0.067199369258226768 0 0.00020277131910005641 -0.059739682475571217 0 1.3188819733579559e-07 -0.060176549041079254 0 -1.7183863041058126e-07 -0.060556926724243253 0 -0.0022959207624351041 -0.075836426729978063 0 -0.0071968833234413608 -0.074201135203949858 0 -9.3773713738367741e-07 -0.076615724024660201 0 -0.0036619421996382595 -0.067199369258226768 0 0.00013193662914596789 -0.068236231953687915 0 -0.0015895607458225281 -0.059005175353104053 0 -1.7183863041058126e-07 -0.060556926724243253 0 -0.0023720126366897328 -0.059184166027326714 0 -0.0015895607458225281 -0.059005175353104053 0 0.00020277131910005641 -0.059739682475571217 0 -1.7183863041058126e-07 -0.060556926724243253 0 -1.7183863041058126e-07 -0.060556926724243253 0 -3.7475213040424943e-07 -0.06009127023391863 0 -0.0023720126366897328 -0.059184166027326714 0 -3.7475213040424943e-07 -0.06009127023391863 0 -0.0030930011453862679 -0.059230683405427392 0 -0.0023720126366897328 -0.059184166027326714 0 -3.7475213040424943e-07 -0.06009127023391863 0 -0.0030930011453862679 -0.059230683405427392 0 -4.4861607551915444e-07 -0.060108422140400221 0 -0.0030930011453862679 -0.059230683405427392 0 -0.0023720126366897328 -0.059184166027326714 0 -0.0055276446631242473 -0.056549808979607867 0 -0.0030930011453862679 -0.059230683405427392 0 -0.006916853725076136 -0.057023299713193407 0 -0.0055276446631242473 -0.056549808979607867 0 -0.0023720126366897328 -0.059184166027326714 0 -0.0038125814861228965 -0.056456977218150239 0 -0.0055276446631242473 -0.056549808979607867 0 -0.0015895607458225281 -0.059005175353104053 0 -0.0023720126366897328 -0.059184166027326714 0 -0.0038125814861228965 -0.056456977218150239 0 -7.0492215985338076e-07 -0.060487499757071579 0 -0.0034217583714639898 -0.059563952082854928 0 -0.0063475935816281106 -0.058991604829466852 0 -7.0492215985338076e-07 -0.060487499757071579 0 -4.4861607551915444e-07 -0.060108422140400221 0 -0.0034217583714639898 -0.059563952082854928 0 -0.0030930011453862679 -0.059230683405427392 0 -4.4861607551915444e-07 -0.060108422140400221 0 -0.0034217583714639898 -0.059563952082854928 0 -0.0030930011453862679 -0.059230683405427392 0 -0.0034217583714639898 -0.059563952082854928 0 -0.006916853725076136 -0.057023299713193407 0 -0.0034217583714639898 -0.059563952082854928 0 -0.0063475935816281106 -0.058991604829466852 0 -0.006916853725076136 -0.057023299713193407 0 -0.006916853725076136 -0.057023299713193407 0 -0.010852592509177772 -0.053056533163550933 0 -0.011687139418367692 -0.055499797580367174 0 -0.0063475935816281106 -0.058991604829466852 0 -0.006916853725076136 -0.057023299713193407 0 -0.011687139418367692 -0.055499797580367174 0 -0.006916853725076136 -0.057023299713193407 0 -0.010852592509177772 -0.053056533163550933 0 -0.0082010373524530143 -0.054217195202012916 0 -0.010852592509177772 -0.053056533163550933 0 -0.0082010373524530143 -0.054217195202012916 0 -0.010316689959637883 -0.050924474722882501 0 -0.010852592509177772 -0.053056533163550933 0 -0.011687139418367692 -0.055499797580367174 0 -0.01588296148065978 -0.050868660517593825 0 -0.0038125814861228965 -0.056456977218150239 0 -0.0055276446631242473 -0.056549808979607867 0 -0.0075797838278027765 -0.052614479387396294 0 -0.0037236793111035892 -0.052837581746044998 0 -0.0038125814861228965 -0.056456977218150239 0 -0.0075797838278027765 -0.052614479387396294 0 -0.006916853725076136 -0.057023299713193407 0 -0.0055276446631242473 -0.056549808979607867 0 -0.0082010373524530143 -0.054217195202012916 0 -0.0055276446631242473 -0.056549808979607867 0 -0.0082010373524530143 -0.054217195202012916 0 -0.0075797838278027765 -0.052614479387396294 0 -0.0082010373524530143 -0.054217195202012916 0 -0.0075797838278027765 -0.052614479387396294 0 -0.010316689959637883 -0.050924474722882501 0 -0.0075797838278027765 -0.052614479387396294 0 -0.010316689959637883 -0.050924474722882501 0 -0.010584930180101332 -0.04851544687347243 0 -0.0037236793111035892 -0.052837581746044998 0 -0.0075797838278027765 -0.052614479387396294 0 -0.0075339892883584773 -0.049535735818611898 0 -0.0075797838278027765 -0.052614479387396294 0 -0.0075339892883584773 -0.049535735818611898 0 -0.010584930180101332 -0.04851544687347243 0 0.008027693256356978 -0.016893315517946258 0 0.007293443699456603 -0.014277754347899546 0 0.0058418495268590257 -0.012307765573161938 0 -0.0051604902593480216 -0.046506187142846801 0 -0.0001940373308351953 -0.02783676124676765 0 -0.010316689959637883 -0.050924474722882501 0 -0.010584930180101332 -0.04851544687347243 0 -0.012282009942895803 -0.047936017792217386 0 -0.0001940373308351953 -0.02783676124676765 0 -0.0039204005867629066 -0.030619560914550023 0 0.0043833060257742976 -0.0088746032509462759 0 0.0052308817626668322 -0.011391179166310694 0 0.0035397587909164591 -0.0077497604020678752 0 0.007293443699456603 -0.014277754347899546 0 0.0043833060257742976 -0.0088746032509462759 0 0.0052308817626668322 -0.011391179166310694 0 0.0043833060257742976 -0.0088746032509462759 0 0.0058418495268590257 -0.012307765573161938 0 0.0038788787568877683 -0.0078533531982433683 0 0.007293443699456603 -0.014277754347899546 0 0.0043833060257742976 -0.0088746032509462759 0 0.0058418495268590257 -0.012307765573161938 0 -0.01588296148065978 -0.050868660517593825 0 -0.01289369478366768 -0.049936738706597178 0 -0.015543807323960329 -0.046685273731958674 0 -0.010852592509177772 -0.053056533163550933 0 -0.01588296148065978 -0.050868660517593825 0 -0.01289369478366768 -0.049936738706597178 0 -0.010852592509177772 -0.053056533163550933 0 -0.010316689959637883 -0.050924474722882501 0 -0.01289369478366768 -0.049936738706597178 0 -0.010316689959637883 -0.050924474722882501 0 -0.01289369478366768 -0.049936738706597178 0 -0.012282009942895803 -0.047936017792217386 0 0.0052308817626668322 -0.011391179166310694 0 0.0035397587909164591 -0.0077497604020678752 0 0.003872266372752889 -0.0093721815719991879 0 0.0035397587909164591 -0.0077497604020678752 0 0.003872266372752889 -0.0093721815719991879 0 0.001894188726406917 -0.0050828010145302907 0 -0.0039204005867629066 -0.030619560914550023 0 -0.0057020378045018099 -0.02776624097735467 0 -0.01289369478366768 -0.049936738706597178 0 -0.012282009942895803 -0.047936017792217386 0 -0.015543807323960329 -0.046685273731958674 0 -0.01588296148065978 -0.050868660517593825 0 -0.015543807323960329 -0.046685273731958674 0 -0.01863439611011938 -0.046089067712626129 0 0.003872266372752889 -0.0093721815719991879 0 0.00027414540896528904 -0.0067529294621494623 0 0.001894188726406917 -0.0050828010145302907 0 -0.0057020378045018099 -0.02776624097735467 0 -0.009315479717315606 -0.026517933579892534 0 0.00027414540896528904 -0.0067529294621494623 0 0.001894188726406917 -0.0050828010145302907 0 -0.00061144436202765497 -0.0027353443176370514 0 0.001894188726406917 -0.0050828010145302907 0 0.00065549515286719598 -0.0019741569945139806 0 -0.00061144436202765497 -0.0027353443176370514 0 0.001894188726406917 -0.0050828010145302907 0 0.0019022284329873313 -0.0037737535842424482 0 0.00065549515286719598 -0.0019741569945139806 0 0.0035397587909164591 -0.0077497604020678752 0 0.001894188726406917 -0.0050828010145302907 0 0.0019022284329873313 -0.0037737535842424482 0 0.0019022284329873313 -0.0037737535842424482 0 2.2019224230567497e-07 -9.5771869995822523e-08 0 2.1871422098517824e-07 -1.5817352994504777e-07 0 0.0019022284329873313 -0.0037737535842424482 0 2.2019224230567497e-07 -9.5771869995822523e-08 0 0.00065549515286719598 -0.0019741569945139806 0 2.2019224230567497e-07 -9.5771869995822523e-08 0 0.00065549515286719598 -0.0019741569945139806 0 -2.2116679666964197e-07 -4.7365886076228861e-08 0 0.00065549515286719598 -0.0019741569945139806 0 -2.2116679666964197e-07 -4.7365886076228861e-08 0 -0.00061144436202765497 -0.0027353443176370514 0 0.0043833060257742976 -0.0088746032509462759 0 0.00208675752811841 -0.0040741207322358758 0 0.0038788787568877683 -0.0078533531982433683 0 0.0043833060257742976 -0.0088746032509462759 0 0.0019022284329873313 -0.0037737535842424482 0 0.00208675752811841 -0.0040741207322358758 0 0.0043833060257742976 -0.0088746032509462759 0 0.0035397587909164591 -0.0077497604020678752 0 0.0019022284329873313 -0.0037737535842424482 0 0.0019022284329873313 -0.0037737535842424482 0 0.00208675752811841 -0.0040741207322358758 0 2.1871422098517824e-07 -1.5817352994504777e-07 0 0.00208675752811841 -0.0040741207322358758 0 2.1871422098517824e-07 -1.5817352994504777e-07 0 2.4686812788176481e-07 -1.5888386917232592e-07 0 2.4686812788176481e-07 -1.5888386917232592e-07 0 0.0021849454541344139 -0.0040647861409723795 0 3.3072001948506374e-07 -1.6658834562825579e-07 0 0.00208675752811841 -0.0040741207322358758 0 2.4686812788176481e-07 -1.5888386917232592e-07 0 0.0021849454541344139 -0.0040647861409723795 0 0.00208675752811841 -0.0040741207322358758 0 0.0038788787568877683 -0.0078533531982433683 0 0.0021849454541344139 -0.0040647861409723795 0 0.0038788787568877683 -0.0078533531982433683 0 0.0021849454541344139 -0.0040647861409723795 0 0.004859815154622661 -0.0094179937003267371 0 0.0028974319196800836 -0.004222827693492491 0 0.0073735305876308273 -0.010287270831988767 0 0.004859815154622661 -0.0094179937003267371 0 0.0021849454541344139 -0.0040647861409723795 0 0.0028974319196800836 -0.004222827693492491 0 0.004859815154622661 -0.0094179937003267371 0 0.0028974319196800836 -0.004222827693492491 0 3.3072001948506374e-07 -1.6658834562825579e-07 0 2.7581889849135721e-07 -6.0204831849056732e-08 0 0.0021849454541344139 -0.0040647861409723795 0 0.0028974319196800836 -0.004222827693492491 0 3.3072001948506374e-07 -1.6658834562825579e-07 0 0.0028974319196800836 -0.004222827693492491 0 2.7581889849135721e-07 -6.0204831849056732e-08 0 0.0036530971255602633 -0.0040071017718165342 0 1.1289343783806846e-06 -4.2338922074240803e-07 0 0.0036530971255602633 -0.0040071017718165342 0 0.008896356756018596 -0.0079745486900336983 0 2.7581889849135721e-07 -6.0204831849056732e-08 0 1.1289343783806846e-06 -4.2338922074240803e-07 0 0.0036530971255602633 -0.0040071017718165342 0 0.0036530971255602633 -0.0040071017718165342 0 0.008896356756018596 -0.0079745486900336983 0 0.0073735305876308273 -0.010287270831988767 0 0.0028974319196800836 -0.004222827693492491 0 0.0036530971255602633 -0.0040071017718165342 0 0.0073735305876308273 -0.010287270831988767 0 0.0073735305876308273 -0.010287270831988767 0 0.014466060971852115 -0.01512955882108224 0 0.011594683483290914 -0.01735259014934051 0 0.008896356756018596 -0.0079745486900336983 0 0.0073735305876308273 -0.010287270831988767 0 0.014466060971852115 -0.01512955882108224 0 0.018613419320933897 -0.022888827370585552 0 0.014466060971852115 -0.01512955882108224 0 0.011594683483290914 -0.01735259014934051 0 0.0073735305876308273 -0.010287270831988767 0 0.011594683483290914 -0.01735259014934051 0 0.0078948840006539886 -0.013882912630583643 0 0.0097850286493759205 -0.01861816130477344 0 0.011594683483290914 -0.01735259014934051 0 0.0078948840006539886 -0.013882912630583643 0 0.0097850286493759205 -0.01861816130477344 0 0.0078948840006539886 -0.013882912630583643 0 0.0069727464452438298 -0.014994971200892826 0 0.0086450987201329623 -0.019965513229701561 0 0.0097850286493759205 -0.01861816130477344 0 0.0069727464452438298 -0.014994971200892826 0 0.0086450987201329623 -0.019965513229701561 0 0.008027693256356978 -0.016893315517946258 0 0.0069727464452438298 -0.014994971200892826 0 0.008027693256356978 -0.016893315517946258 0 0.0058418495268590257 -0.012307765573161938 0 0.0069727464452438298 -0.014994971200892826 0 0.0058418495268590257 -0.012307765573161938 0 0.0038788787568877683 -0.0078533531982433683 0 0.004859815154622661 -0.0094179937003267371 0 0.0058418495268590257 -0.012307765573161938 0 0.0069727464452438298 -0.014994971200892826 0 0.004859815154622661 -0.0094179937003267371 0 0.0073735305876308273 -0.010287270831988767 0 0.0078948840006539886 -0.013882912630583643 0 0.004859815154622661 -0.0094179937003267371 0 0.0078948840006539886 -0.013882912630583643 0 0.0069727464452438298 -0.014994971200892826 0 0.004859815154622661 -0.0094179937003267371 0 
</DataArray>
</PointData>
<CellData Scalars="region_id,cross_section_updated," Vectors="" Tensors="stress,">
<DataArray type="Float64" Name="region_id" format="ascii">
11 11 11 11 11 11 11 11 11 11 11 5 11 11 5 11 11 11 11 11 6 11 11 5 11 5 11 11 11 11 6 11 11 11 11 6 11 11 6 11 11 11 11 11 11 11 11 11 11 11 11 11 11 11 11 11 11 11 11 11 11 11 11 11 11 11 11 4 11 4 11 11 11 11 11 11 11 11 11 11 4 11 11 11 4 11 11 11 11 11 11 11 11 11 11 11 11 11 11 11 11 11 11 11 11 11 11 11 11 11 11 11 11 11 11 11 11 11 11 11 11 11 11 11 
</DataArray>
<DataArray type="Float64" Name="stress" NumberOfComponents="9" format="ascii">
-9247243.7803788483 3418173.1382356584 0 3418173.1382356584 -1272225.8305346966 0 0 0 -2629867.4027283788 4047403.254204452 183161.10065039992 0 183161.10065039992 -991054.89102900028 0 0 0 764087.09079390764 -25959947.126751661 3914990.4705518782 0 3914990.4705518782 -5021351.7924423218 0 0 0 -7745324.7297985256 -15685207.352160156 -1510651.7137360275 0 -1510651.7137360275 -1138237.3016914129 0 0 0 -4205861.1634628773 -12816415.176255003 3882945.9511052966 0 3882945.9511052966 -2581050.7404429018 0 0 0 -3849366.4791744798 -21191673.6569888 -3483424.5739205182 0 -3483424.5739205182 1419856.7721152306 0 0 0 -4942954.2212184668 -25837552.04882443 218334.80957616866 0 218334.80957616866 -2134323.8123915195 0 0 0 -6992968.9653040171 -13454382.268076807 2643234.4293041825 0 2643234.4293041825 -3195033.862385571 0 0 0 -4162354.0326155722 -2913358.4548686445 3128902.4087708294 0 3128902.4087708294 -2190067.8412664533 0 0 0 -1275856.5740337968 -12955004.69198215 3967055.6837496758 0 3967055.6837496758 -523026.44266337156 0 0 0 -3369507.7836613804 -10834610.304142177 1802292.0369183123 0 1802292.0369183123 -603160.46443480253 0 0 0 -2859442.6921442449 14492.725826214501 10868.926960771703 0 10868.926960771703 -14482.845600525081 0 0 0 2.4700564223530819 -13595839.586535078 4061603.9412527233 0 4061603.9412527233 728141.71069867909 0 0 0 -3216924.4689591043 -19631325.799251392 1150950.3916990161 0 1150950.3916990161 -5672386.1399914622 0 0 0 -6325927.9848107249 14828.900705505474 11121.502733447753 0 11121.502733447753 -14826.135067648953 0 0 0 0.6914094641306292 -15382838.666143268 10459735.06221075 0 10459735.06221075 1643288.342559576 0 0 0 -3434887.5808959305 -18493202.067793511 10300518.851308361 0 10300518.851308361 1321017.1208083034 0 0 0 -4293046.2367462888 -17142774.741900265 9194561.265051797 0 9194561.265051797 3313372.3101404011 0 0 0 -3457350.6079399586 -11483118.663537145 4800140.7690118235 0 4800140.7690118235 1569568.098767519 0 0 0 -2478387.6411924064 -20063629.48425993 3897557.8486296386 0 3897557.8486296386 -1402126.8108570818 0 0 0 -5366439.0737792505 171.02292320454762 870.74155422988497 0 870.74155422988497 14372.989719681857 0 0 0 3636.0031607215969 -9142635.1517651379 4457764.6052147448 0 4457764.6052147448 -10578818.247292697 0 0 0 -4930363.3497644961 -15440006.578726053 2244785.5136939585 0 2244785.5136939585 -13133363.186342239 0 0 0 -7143342.4412670732 16601.952824914209 12455.870928431936 0 12455.870928431936 -16672.45579247221 0 0 0 -17.625741889499295 -16848838.326725736 11166368.211076558 0 11166368.211076558 7152896.2689970881 0 0 0 -2423985.514432162 15667.270146516454 11748.498519262193 0 11748.498519262193 -15636.004972543824 0 0 0 7.8162934931560812 -15784481.272687107 2495256.5950549245 0 2495256.5950549245 -13547462.090851665 0 0 0 -7332985.8408846855 -17076791.829045802 1554907.9975188076 0 1554907.9975188076 -8034544.416213274 0 0 0 -6277834.0613147616 -22453277.117487729 4092380.4850552641 0 4092380.4850552641 -12787471.269964457 0 0 0 -8810187.0968630314 -16415933.96171321 2981355.9983614683 0 2981355.9983614683 -14096709.057817876 0 0 0 -7628160.7548827082 -169.57475413085194 991.3389253341893 0 991.3389253341893 14517.440800077005 0 0 0 3586.9665114865384 -15679892.227119625 4761768.850977242 0 4761768.850977242 -10854157.591423929 0 0 0 -6633512.4546358883 -12454748.509928524 3068596.7445471585 0 3068596.7445471585 -9341822.7405925989 0 0 0 -5449142.8126302958 -6249111.1229741275 6482172.3903768212 0 6482172.3903768212 -1780832.2169616818 0 0 0 -2007485.8349839151 -21906777.786349956 -4117769.2990370989 0 -4117769.2990370989 -8527960.2088796645 0 0 0 -7608684.4988074042 626.8577242991596 474.3440048346838 0 474.3440048346838 14497.686454732095 0 0 0 3781.1360447578154 1134838.0717702806 1803061.2544367388 0 1803061.2544367388 -1785647.0180722475 0 0 0 -162702.23657548428 -46019521.209884852 -6949558.9803430438 0 -6949558.9803430438 -4169796.5758868754 0 0 0 -12547329.446442902 3514.0398182690951 -1442.1561571984166 0 -1442.1561571984166 15915.345307846044 0 0 0 4857.3462815287858 -12545159.38695094 1395454.1731055658 0 1395454.1731055658 -4806041.4963979721 0 0 0 -4337800.2208372056 -10536566.282816503 -572445.47932365537 0 -572445.47932365537 383730.40131658316 0 0 0 -2538208.9703749754 -19439629.547910258 2972611.4037026465 0 2972611.4037026465 -3830808.4821282276 0 0 0 -5817609.507509632 -22662783.51335758 660360.6848205775 0 660360.6848205775 -7866593.0858181119 0 0 0 -7632344.1497939229 -26733662.961803406 2502844.825121671 0 2502844.825121671 -9008796.2774739861 0 0 0 -8935614.8098193407 -24185136.323089298 5880080.9585065544 0 5880080.9585065544 -8348714.6463102885 0 0 0 -8133462.7423498891 -26911687.228549883 4231826.0546829104 0 4231826.0546829104 -12317978.101137161 0 0 0 -9807416.3324217647 -20547672.919445932 4073045.280510366 0 4073045.280510366 -9266873.8150391579 0 0 0 -7453636.6836212575 -17716758.857279085 5848840.6399080157 0 5848840.6399080157 -5568243.8677952662 0 0 0 -5821250.6812685374 -40339647.821362466 459545.12643648684 0 459545.12643648684 -12698710.342796564 0 0 0 -13259589.541039735 -33109574.012255922 2084840.126003623 0 2084840.126003623 -13193055.112272143 0 0 0 -11575657.281131998 -30668402.953180611 330477.13416224718 0 330477.13416224718 -12226792.042446971 0 0 0 -10723798.74890691 -29048554.191303261 4866378.7784976363 0 4866378.7784976363 -10699489.615474805 0 0 0 -9937010.9516944941 -31743513.206981659 2059536.814552635 0 2059536.814552635 -13793033.130051225 0 0 0 -11384136.584258214 -27208983.706807554 2931895.0986998528 0 2931895.0986998528 -13956839.785181642 0 0 0 -10291455.872997284 -34772038.820529841 2468926.735324949 0 2468926.735324949 -13187867.514651597 0 0 0 -11989976.583795346 -27978989.192849576 5545738.1590017155 0 5545738.1590017155 -13618847.630292654 0 0 0 -10399459.205785513 -23981294.394339651 5932951.758487314 0 5932951.758487314 -14369030.743848622 0 0 0 -9587581.2845470905 -28540325.564867526 2961615.5368044227 0 2961615.5368044227 -14012280.164883882 0 0 0 -10638151.432437837 -23895352.591861542 6821581.9166662693 0 6821581.9166662693 -10940527.373118527 0 0 0 -8708969.9912450127 -18047614.328268528 3636042.9634097815 0 3636042.9634097815 -11754354.111756921 0 0 0 -7450492.1100063622 -24885985.090536822 6825343.8143449426 0 6825343.8143449426 -11802255.63338875 0 0 0 -9172060.1809813865 -24389060.791419819 6890402.2499468476 0 6890402.2499468476 -14032777.134529531 0 0 0 -9605459.4814873189 -23585974.329801045 7328684.6237330437 0 7328684.6237330437 -13519452.895812422 0 0 0 -9276356.8064033464 -25433107.774031177 8122768.0128300488 0 8122768.0128300488 -14936013.153648555 0 0 0 -10092280.231919959 -27973982.560099229 4468010.6963527501 0 4468010.6963527501 -15104406.833590597 0 0 0 -10769597.348422468 -24293058.112055436 5235143.340347141 0 5235143.340347141 -14525994.293869317 0 0 0 -9704763.1014811844 -18423785.906653427 14788526.377239168 0 14788526.377239168 -2254574.6766359881 0 0 0 -5169590.1458223574 12030.74320531139 9009.5197009858166 0 9009.5197009858166 -11814.140037160272 0 0 0 54.150792037779865 -21477912.918143749 7637717.5808490813 0 7637717.5808490813 -15567121.831480861 0 0 0 -9261258.6874061674 12640.530904918363 9483.3716021033124 0 9483.3716021033124 -12688.105746674439 0 0 0 -11.893710439017923 -15991601.975333974 11235001.287690308 0 11235001.287690308 -2983269.986272499 0 0 0 -4743717.9904016107 -20365542.297779605 11357245.903487969 0 11357245.903487969 -1099940.8475022465 0 0 0 -5366370.7863204628 -18223530.959610485 14392672.954399168 0 14392672.954399168 -2472439.2343949452 0 0 0 -5173992.5485013574 -21648278.011530675 14549083.542030565 0 14549083.542030565 -2685101.303818807 0 0 0 -6083344.8288373575 -22959645.484150242 3284544.0993317366 0 3284544.0993317366 -13108355.769408079 0 0 0 -9017000.3133895807 -24511249.340811998 2305151.4821389318 0 2305151.4821389318 -13714011.794430554 0 0 0 -9556315.2838106453 -24392461.912788078 5352765.6876912415 0 5352765.6876912415 -15156499.405196518 0 0 0 -9887240.3294961452 -19580749.204510555 4030850.8868891299 0 4030850.8868891299 -12900932.310436785 0 0 0 -8120420.3787368536 -16686450.444583848 11253786.665402526 0 11253786.665402526 -5414799.2179199755 0 0 0 -5525312.4156259559 -18575150.8909612 12407733.364160659 0 12407733.364160659 -3767217.45482333 0 0 0 -5585592.0864461325 13212.571330310664 9908.1724922868361 0 9908.1724922868361 -13192.475310023436 0 0 0 5.0240050718080056 -23408991.640896797 4435317.1241926849 0 4435317.1241926849 -12118354.524362803 0 0 0 -8881836.5413149148 -20799554.692081258 3241444.1397064328 0 3241444.1397064328 -15440846.399915934 0 0 0 -9060100.2729993165 -16288961.665313791 5812606.0148793124 0 5812606.0148793124 -2300275.9273360185 0 0 0 -4647309.3981624506 13700.751225332384 10275.920798472429 0 10275.920798472429 -13706.469372605639 0 0 0 -1.4295368183143182 -8095461.6419148715 5721969.9247059301 0 5721969.9247059301 -1615286.7883252557 0 0 0 -2427687.107560032 -11065150.983262938 5766873.160368707 0 5766873.160368707 -1545432.0804886743 0 0 0 -3152645.765937903 -13056475.072693029 10359539.295536969 0 10359539.295536969 -2053598.1286455747 0 0 0 -3777518.3003346496 -16470792.451535601 11253145.220746279 0 11253145.220746279 -1716163.6796362065 0 0 0 -4546739.0327929528 -16059511.630880725 10620911.667017335 0 10620911.667017335 -5352771.17300322 0 0 0 -5353070.7009709859 -11052947.639857309 7703017.5637368653 0 7703017.5637368653 815454.66129855439 0 0 0 -2559373.2446396886 -8401342.0632199608 8433340.9495394118 0 8433340.9495394118 -2800137.5561095662 0 0 0 -2800369.9048323813 5563277.7691437155 4204066.8354616119 0 4204066.8354616119 1042519.5095179155 0 0 0 1651449.3196654078 -18083724.618413053 12889566.451832617 0 12889566.451832617 -3589506.4450002015 0 0 0 -5418307.7658533119 -18239520.522610836 12743064.186495584 0 12743064.186495584 -3547594.0844758414 0 0 0 -5446778.6517716683 -16562474.50798877 12122861.091245906 0 12122861.091245906 -3603671.9476146493 0 0 0 -5041536.6139008477 -16132140.623124415 10641102.284475483 0 10641102.284475483 -2955207.6350619532 0 0 0 -4771837.0645465944 -18048821.097651288 11746776.876703622 0 11746776.876703622 -6016269.1530460333 0 0 0 -6016272.5626743305 -19519478.205618042 12105365.609178366 0 12105365.609178366 -6506443.4265567008 0 0 0 -6506480.4080436872 -18437824.579059713 11517900.293615729 0 11517900.293615729 -5377110.3517606109 0 0 0 -5953733.7327050809 -18643064.729500681 13345573.760399673 0 13345573.760399673 -5318403.3817113116 0 0 0 -5990367.0278029963 -19534432.403384365 13100587.931996869 0 13100587.931996869 -4173741.1102465764 0 0 0 -5927043.3784077391 -25136217.553384438 10424724.009084882 0 10424724.009084882 -4159438.0764465407 0 0 0 -7323913.9074577484 -19717297.78059262 12936758.337968895 0 12936758.337968895 -6689007.6600129269 0 0 0 -6601576.360151385 -24988577.055329457 12140719.682926768 0 12140719.682926768 -8330206.5395980161 0 0 0 -8329695.8987318696 -22189003.285903301 10542729.537988819 0 10542729.537988819 -7315710.389271575 0 0 0 -7376178.4187937174 -30495166.057681151 9211757.7787530217 0 9211757.7787530217 -7852312.0548568591 0 0 0 -9586869.5281345043 -52708281.183302283 9485187.1288724244 0 9485187.1288724244 -6312955.3943352699 0 0 0 -14755309.144409385 -35630700.583201639 13027459.916858515 0 13027459.916858515 -11874575.814311638 0 0 0 -11876319.099378319 -31799595.773397669 5279525.6435322352 0 5279525.6435322352 1206834.3486497775 0 0 0 -7648190.3561869692 -28934552.765670322 12416926.29986722 0 12416926.29986722 -6334083.4555696938 0 0 0 -8817159.0553100053 -23590982.72430025 3369699.9914584309 0 3369699.9914584309 9085.710322573781 0 0 0 -5895474.2534944192 -32071520.33537323 4023469.345932506 0 4023469.345932506 -1158275.7228248194 0 0 0 -8307449.0145495087 -23476776.568064764 3573218.2986348011 0 3573218.2986348011 351252.78686702251 0 0 0 -5781380.9452994391 -25239484.410091512 8821675.2736184355 0 8821675.2736184355 -1374611.3524950147 0 0 0 -6653523.9406466335 -17981219.208988756 7413868.1489689872 0 7413868.1489689872 1051984.191276215 0 0 0 -4232308.7544281408 -18258083.40909455 10961883.111412842 0 10961883.111412842 -1010332.3209277391 0 0 0 -4817103.9325055704 -11969761.455959324 8412841.6530309319 0 8412841.6530309319 3482272.4284084141 0 0 0 -2121872.2568877302 -12850108.648603313 15530720.379713424 0 15530720.379713424 1967295.564973563 0 0 0 -2720703.2709074467 -18110173.009322055 13500570.698136212 0 13500570.698136212 -1543824.398773551 0 0 0 -4913499.352023907 -19012693.517346371 13687957.318224322 0 13687957.318224322 -4407400.6297824383 0 0 0 -5855023.5367821977 -16560435.693165453 14548641.107600108 0 14548641.107600108 -2920091.947762534 0 0 0 -4870131.9102319945 -19527255.771729205 10143016.292206295 0 10143016.292206295 -2278557.4186613187 0 0 0 -5451453.2975976299 -19023488.808470488 9945057.0572378933 0 9945057.0572378933 -2150560.080236394 0 0 0 -5293512.2221767213 
</DataArray>
<DataArray type="Float64" Name="cross_section_updated" format="ascii">
1 1 1 1 1 1 1 1 1 1 1 0.00099999989478357504 1 1 0.00099999994331529882 1 1 1 1 1 0.0099999999453510777 1 1 0.0010000001257260936 1 0.0010000000172518848 1 1 1 1 0.010000000046851941 1 1 1 1 0.010453636825024953 1 1 0.013164328567700757 1 1 1 1 1 1 1 1 1 1 1 1 1 1 1 1 1 1 1 1 1 1 1 1 1 1 1 1 0.0010000000049882989 1 0.0010000000041952336 1 1 1 1 1 1 1 1 1 1 0.0010000000041782333 1 1 1 0.00100000000473146 1 1 1 1 1 1 1 1 1 1 1 1 1 1 1 1 1 1 1 1 1 1 1 1 1 1 1 1 1 1 1 1 1 1 1 1 1 1 1 
</DataArray>
</CellData>
</Piece>
</UnstructuredGrid>
</VTKFile>
