<?xml version="1.0"?>
<VTKFile type="UnstructuredGrid" version="0.1" byte_order="LittleEndian">
<UnstructuredGrid>
<Piece NumberOfPoints="360" NumberOfCells="124">
<Points>
<DataArray type="Float64" NumberOfComponents="3" format="ascii">
0 0 0 0.084352422163911631 0.086451712656266194 0 0 0.12500000000034689 0 0 0 0 0.084352422163911631 0.086451712656266194 0 0.1249999999997554 0 0 0 0.12500000000034689 0 0.1008171452988615 0.18885703697250469 0 0 0.25 0 0.084352422163911631 0.086451712656266194 0 0 0.12500000000034689 0 0.1008171452988615 0.18885703697250469 0 0.084352422163911631 0.086451712656266194 0 0.1008171452988615 0.18885703697250469 0 0.18402761812864499 0.1117324051466445 0 0.1008171452988615 0.18885703697250469 0 0.2403886547178353 0.24188814792673841 0 0.1249999999997599 0.31249999999987998 0 0.1008171452988615 0.18885703697250469 0 0.2403886547178353 0.24188814792673841 0 0.18402761812864499 0.1117324051466445 0 0.2403886547178353 0.24188814792673841 0 0.18402761812864499 0.1117324051466445 0 0.31250000000020822 0.12500000000041631 0 0.1249999999997554 0 0 0.18402761812864499 0.1117324051466445 0 0.25 -0 0 0.18402761812864499 0.1117324051466445 0 0.25 -0 0 0.31250000000020822 0.12500000000041631 0 0.084352422163911631 0.086451712656266194 0 0.1249999999997554 0 0 0.18402761812864499 0.1117324051466445 0 0.25 -0 0 0.31250000000020822 0.12500000000041631 0 0.25 -0 0 0.31250000000020822 0.12500000000041631 0 0.43749999999913258 0 0 0.2403886547178353 0.24188814792673841 0 0.31250000000020822 0.12500000000041631 0 0.37500000000027761 0.25000000000055511 0 0.31250000000020822 0.12500000000041631 0 0.37500000000027761 0.25000000000055511 0 0.31250000000020822 0.12500000000041631 0 0.4287911518546233 0.15455445427966699 0 0.37500000000027761 0.25000000000055511 0 0.4287911518546233 0.15455445427966699 0 0.49457493289300231 0.26251703776555491 0 0.37500000000027761 0.25000000000055511 0 0.4287911518546233 0.15455445427966699 0 0.49457493289300231 0.26251703776555491 0 0.54475767668582953 0.1431838882066932 0 0.31250000000020822 0.12500000000041631 0 0.4287911518546233 0.15455445427966699 0 0.43749999999913258 0 0 0.4287911518546233 0.15455445427966699 0 0.43749999999913258 0 0 0.54475767668582953 0.1431838882066932 0 0.37499999999973488 0.43749999999986738 0 0.5 0.5 -0 0.43750000000006939 0.37500000000013878 0 0.37499999999973488 0.43749999999986738 0 0.5 0.5 -0 0.43750000000006939 0.37500000000013878 0 0.33819444444448321 0.33819444444456342 0 0.37499999999973488 0.43749999999986738 0 0.43750000000006939 0.37500000000013878 0 0.5 0.5 -0 0.43750000000006939 0.37500000000013878 0 0.49457493289300231 0.26251703776555491 0 0.37500000000027761 0.25000000000055511 0 0.43750000000006939 0.37500000000013878 0 0.37500000000027761 0.25000000000055511 0 0.43750000000006939 0.37500000000013878 0 0.37500000000027761 0.25000000000055511 0 0.33819444444448321 0.33819444444456342 0 0.2403886547178353 0.24188814792673841 0 0.33819444444448321 0.33819444444456342 0 0.24999999999960859 0.37499999999980432 0 0.2403886547178353 0.24188814792673841 0 0.37500000000027761 0.25000000000055511 0 0.33819444444448321 0.33819444444456342 0 0.33819444444448321 0.33819444444456342 0 0.37499999999973488 0.43749999999986738 0 0.24999999999960859 0.37499999999980432 0 0.37499999999973488 0.43749999999986738 0 0.24999999999960859 0.37499999999980432 0 0.37499999999973488 0.43749999999986738 0 0.24999999999960859 0.37499999999980432 0 0.26452443700674649 0.51563531581639865 0 0.14929124186975251 0.44582793568106382 0 0.24999999999960859 0.37499999999980432 0 0.26452443700674649 0.51563531581639865 0 0.14929124186975251 0.44582793568106382 0 0.24999999999960859 0.37499999999980432 0 0.1249999999997599 0.31249999999987998 0 0.2403886547178353 0.24188814792673841 0 0.24999999999960859 0.37499999999980432 0 0.1249999999997599 0.31249999999987998 0 0.24999999999960859 0.37499999999980432 0 0.1249999999997599 0.31249999999987998 0 0.1249999999997599 0.31249999999987998 0 0 0.25 0 0 0.43750000000034689 0 0.1008171452988615 0.18885703697250469 0 0.1249999999997599 0.31249999999987998 0 0 0.25 0 0.1249999999997599 0.31249999999987998 0 0 0.25 0 0.14929124186975251 0.44582793568106382 0 0 0.43750000000034689 0 0.13928587515912139 0.57339806105677438 0 0.14929124186975251 0.44582793568106382 0 0.1249999999997599 0.31249999999987998 0 0 0.43750000000034689 0 0 0.43750000000034689 0 0 0.62500000000069389 0 0.13928587515912139 0.57339806105677438 0 0 0.62500000000069389 0 0.13900789599611679 0.72618316107059999 0 0.13928587515912139 0.57339806105677438 0 0 0.62500000000069389 0 0.13900789599611679 0.72618316107059999 0 0 0.81250000000104083 0 0.13900789599611679 0.72618316107059999 0 0.13928587515912139 0.57339806105677438 0 0.27589467050686478 0.66058853156435704 0 0.13900789599611679 0.72618316107059999 0 0.27987960212930818 0.83442741470570525 0 0.27589467050686478 0.66058853156435704 0 0.13928587515912139 0.57339806105677438 0 0.26452443700674649 0.51563531581639865 0 0.27589467050686478 0.66058853156435704 0 0.14929124186975251 0.44582793568106382 0 0.13928587515912139 0.57339806105677438 0 0.26452443700674649 0.51563531581639865 0 0 1 0 0.12710107136012311 0.87094806618203435 0 0.1875000000005205 1 0 0 1 0 0 0.81250000000104083 0 0.12710107136012311 0.87094806618203435 0 0.13900789599611679 0.72618316107059999 0 0 0.81250000000104083 0 0.12710107136012311 0.87094806618203435 0 0.13900789599611679 0.72618316107059999 0 0.12710107136012311 0.87094806618203435 0 0.27987960212930818 0.83442741470570525 0 0.12710107136012311 0.87094806618203435 0 0.1875000000005205 1 0 0.27987960212930818 0.83442741470570525 0 0.27987960212930818 0.83442741470570525 0 0.44927105396715372 0.85565124085155886 0 0.37500000000069389 1 0 0.1875000000005205 1 0 0.27987960212930818 0.83442741470570525 0 0.37500000000069389 1 0 0.27987960212930818 0.83442741470570525 0 0.44927105396715372 0.85565124085155886 0 0.38136204680495073 0.74038592213831234 0 0.44927105396715372 0.85565124085155886 0 0.38136204680495073 0.74038592213831234 0 0.50145856933078625 0.73674663046504862 0 0.44927105396715372 0.85565124085155886 0 0.37500000000069389 1 0 0.56250000000086742 1 0 0.26452443700674649 0.51563531581639865 0 0.27589467050686478 0.66058853156435704 0 0.4139414069912184 0.60563252640100373 0 0.37499999999973488 0.43749999999986738 0 0.26452443700674649 0.51563531581639865 0 0.4139414069912184 0.60563252640100373 0 0.27987960212930818 0.83442741470570525 0 0.27589467050686478 0.66058853156435704 0 0.38136204680495073 0.74038592213831234 0 0.27589467050686478 0.66058853156435704 0 0.38136204680495073 0.74038592213831234 0 0.4139414069912184 0.60563252640100373 0 0.38136204680495073 0.74038592213831234 0 0.4139414069912184 0.60563252640100373 0 0.50145856933078625 0.73674663046504862 0 0.4139414069912184 0.60563252640100373 0 0.50145856933078625 0.73674663046504862 0 0.5625 0.625 0 0.37499999999973488 0.43749999999986738 0 0.4139414069912184 0.60563252640100373 0 0.5 0.5 -0 0.4139414069912184 0.60563252640100373 0 0.5 0.5 -0 0.5625 0.625 0 0.5 0.5 -0 0.5625 0.625 0 0.63236534182377013 0.50296756406332266 0 0.5 0.5 -0 0.5625 0.625 0 0.50145856933078625 0.73674663046504862 0 0.5625 0.625 0 0.625 0.75 0 0.5625 0.625 0 0.625 0.75 0 0.71259747807844409 0.63846691315701831 0 0.625 0.75 0 0.73857795170433571 0.77736788564284653 0 0.5625 0.625 0 0.71259747807844409 0.63846691315701831 0 0.625 0.75 0 0.71259747807844409 0.63846691315701831 0 0.63236534182377013 0.50296756406332266 0 0.75338430262320943 0.49294443423175599 0 0.5625 0.625 0 0.71259747807844409 0.63846691315701831 0 0.63236534182377013 0.50296756406332266 0 0.56250000000086742 1 0 0.56777512057187585 0.8470224641095303 0 0.6875 0.875 0 0.44927105396715372 0.85565124085155886 0 0.56250000000086742 1 0 0.56777512057187585 0.8470224641095303 0 0.44927105396715372 0.85565124085155886 0 0.50145856933078625 0.73674663046504862 0 0.56777512057187585 0.8470224641095303 0 0.50145856933078625 0.73674663046504862 0 0.56777512057187585 0.8470224641095303 0 0.625 0.75 0 0.625 0.75 0 0.73857795170433571 0.77736788564284653 0 0.6875 0.875 0 0.73857795170433571 0.77736788564284653 0 0.6875 0.875 0 0.80552984491000901 0.88711122872127413 0 0.625 0.75 0 0.6875 0.875 0 0.56777512057187585 0.8470224641095303 0 0.625 0.75 0 0.6875 0.875 0 0.56250000000086742 1 0 0.6875 0.875 0 0.75 1 0 0.6875 0.875 0 0.75 1 0 0.80552984491000901 0.88711122872127413 0 0.6875 0.875 0 0.75 1 0 0.75 1 0 0.80552984491000901 0.88711122872127413 0 0.875 1 0 0.80552984491000901 0.88711122872127413 0 0.90637953422180084 0.90208583328057301 0 0.875 1 0 0.80552984491000901 0.88711122872127413 0 0.85787927391517405 0.753532520882502 0 0.90637953422180084 0.90208583328057301 0 0.73857795170433571 0.77736788564284653 0 0.80552984491000901 0.88711122872127413 0 0.85787927391517405 0.753532520882502 0 0.85787927391517405 0.753532520882502 0 1 0.83333333333356463 0 1 0.66666666666736052 0 0.85787927391517405 0.753532520882502 0 1 0.83333333333356463 0 0.90637953422180084 0.90208583328057301 0 1 0.83333333333356463 0 0.90637953422180084 0.90208583328057301 0 1 1 0 0.90637953422180084 0.90208583328057301 0 1 1 0 0.875 1 0 0.71259747807844409 0.63846691315701831 0 0.86127466977819722 0.57948076978797636 0 0.75338430262320943 0.49294443423175599 0 0.71259747807844409 0.63846691315701831 0 0.85787927391517405 0.753532520882502 0 0.86127466977819722 0.57948076978797636 0 0.71259747807844409 0.63846691315701831 0 0.73857795170433571 0.77736788564284653 0 0.85787927391517405 0.753532520882502 0 0.85787927391517405 0.753532520882502 0 0.86127466977819722 0.57948076978797636 0 1 0.66666666666736052 0 0.86127466977819722 0.57948076978797636 0 1 0.66666666666736052 0 1 0.50000000000138767 0 1 0.50000000000138767 0 0.86569408477091048 0.40983673916766611 0 1 0.33333333333448978 0 0.86127466977819722 0.57948076978797636 0 1 0.50000000000138767 0 0.86569408477091048 0.40983673916766611 0 0.86127466977819722 0.57948076978797636 0 0.75338430262320943 0.49294443423175599 0 0.86569408477091048 0.40983673916766611 0 0.75338430262320943 0.49294443423175599 0 0.86569408477091048 0.40983673916766611 0 0.71826039492840632 0.34564020717216182 0 0.86087286690217635 0.25206523597959418 0 0.71508993406183785 0.15715956854777599 0 0.71826039492840632 0.34564020717216182 0 0.86569408477091048 0.40983673916766611 0 0.86087286690217635 0.25206523597959418 0 0.71826039492840632 0.34564020717216182 0 0.86087286690217635 0.25206523597959418 0 1 0.33333333333448978 0 1 0.16666666666736049 0 0.86569408477091048 0.40983673916766611 0 0.86087286690217635 0.25206523597959418 0 1 0.33333333333448978 0 0.86087286690217635 0.25206523597959418 0 1 0.16666666666736049 0 0.87698901648812122 0.1160638338657984 0 1 0 0 0.87698901648812122 0.1160638338657984 0 0.81249999999947953 0 0 1 0.16666666666736049 0 1 0 0 0.87698901648812122 0.1160638338657984 0 0.87698901648812122 0.1160638338657984 0 0.81249999999947953 0 0 0.71508993406183785 0.15715956854777599 0 0.86087286690217635 0.25206523597959418 0 0.87698901648812122 0.1160638338657984 0 0.71508993406183785 0.15715956854777599 0 0.71508993406183785 0.15715956854777599 0 0.62499999999895905 0 0 0.54475767668582953 0.1431838882066932 0 0.81249999999947953 0 0 0.71508993406183785 0.15715956854777599 0 0.62499999999895905 0 0 0.43749999999913258 0 0 0.62499999999895905 0 0 0.54475767668582953 0.1431838882066932 0 0.71508993406183785 0.15715956854777599 0 0.54475767668582953 0.1431838882066932 0 0.61108462585082757 0.25750599582343231 0 0.49457493289300231 0.26251703776555491 0 0.54475767668582953 0.1431838882066932 0 0.61108462585082757 0.25750599582343231 0 0.49457493289300231 0.26251703776555491 0 0.61108462585082757 0.25750599582343231 0 0.56986707178436635 0.37762093650871992 0 0.43750000000006939 0.37500000000013878 0 0.49457493289300231 0.26251703776555491 0 0.56986707178436635 0.37762093650871992 0 0.43750000000006939 0.37500000000013878 0 0.5 0.5 -0 0.56986707178436635 0.37762093650871992 0 0.5 0.5 -0 0.63236534182377013 0.50296756406332266 0 0.56986707178436635 0.37762093650871992 0 0.63236534182377013 0.50296756406332266 0 0.75338430262320943 0.49294443423175599 0 0.71826039492840632 0.34564020717216182 0 0.63236534182377013 0.50296756406332266 0 0.56986707178436635 0.37762093650871992 0 0.71826039492840632 0.34564020717216182 0 0.71508993406183785 0.15715956854777599 0 0.61108462585082757 0.25750599582343231 0 0.71826039492840632 0.34564020717216182 0 0.61108462585082757 0.25750599582343231 0 0.56986707178436635 0.37762093650871992 0 0.71826039492840632 0.34564020717216182 0 
</DataArray>
</Points>
<Cells>
<DataArray type="UInt32" Name="connectivity" format="ascii">
0 1 2 3 4 5 6 7 8 9 10 11 12 13 14 15 16 17 18 19 20 21 22 23 24 25 26 27 28 29 30 31 32 33 34 35 36 37 38 39 40 41 42 43 44 45 46 47 48 49 50 51 52 53 54 55 56 57 58 59 60 61 62 63 64 65 66 67 68 69 70 71 72 73 74 75 76 77 78 79 80 81 82 83 84 85 86 87 88 89 90 91 92 93 94 95 96 97 98 99 100 101 102 103 104 105 106 107 108 109 110 111 112 113 114 115 116 117 118 119 120 121 122 123 124 125 126 127 128 129 130 131 132 133 134 135 136 137 138 139 140 141 142 143 144 145 146 147 148 149 150 151 152 153 154 155 156 157 158 159 160 161 162 163 164 165 166 167 168 169 170 171 172 173 174 175 176 177 178 179 180 181 182 183 184 185 186 187 188 189 190 191 192 193 194 195 196 197 198 199 200 201 202 203 204 205 206 207 208 209 210 211 212 213 214 215 216 217 218 219 220 221 222 223 224 225 226 227 228 229 230 231 232 233 234 235 236 237 238 239 240 241 242 243 244 245 246 247 248 249 250 251 252 253 254 255 256 257 258 259 260 261 262 263 264 265 266 267 268 269 270 271 272 273 274 275 276 277 278 279 280 281 282 283 284 285 286 287 288 289 290 291 292 293 294 295 296 297 298 299 300 301 302 303 304 305 306 307 308 309 310 311 312 313 314 315 316 317 318 319 320 321 322 323 324 325 326 327 328 329 330 331 332 333 334 335 336 337 338 339 340 341 342 343 344 345 346 347 348 349 350 351 352 353 354 355 356 357 358 359 
</DataArray>
<DataArray type="UInt32" Name="offsets" format="ascii">
3 6 9 12 15 18 21 24 27 30 33 35 38 41 43 46 49 52 55 58 60 63 66 68 71 73 76 79 82 85 87 90 93 96 99 101 104 107 109 112 115 118 121 124 127 130 133 136 139 142 145 148 151 154 157 160 163 166 169 172 175 178 181 184 187 190 193 195 198 200 203 206 209 212 215 218 221 224 227 230 232 235 238 241 243 246 249 252 255 258 261 264 267 270 273 276 279 282 285 288 291 294 297 300 303 306 309 312 315 318 321 324 327 330 333 336 339 342 345 348 351 354 357 360 
</DataArray>
<DataArray type="UInt32" Name="types" format="ascii">
5 5 5 5 5 5 5 5 5 5 5 3 5 5 3 5 5 5 5 5 3 5 5 3 5 3 5 5 5 5 3 5 5 5 5 3 5 5 3 5 5 5 5 5 5 5 5 5 5 5 5 5 5 5 5 5 5 5 5 5 5 5 5 5 5 5 5 3 5 3 5 5 5 5 5 5 5 5 5 5 3 5 5 5 3 5 5 5 5 5 5 5 5 5 5 5 5 5 5 5 5 5 5 5 5 5 5 5 5 5 5 5 5 5 5 5 5 5 5 5 5 5 5 5 
</DataArray>
</Cells>
<PointData Scalars="" Vectors="displacement," Tensors="">
<DataArray type="Float64" Name="displacement" NumberOfComponents="3" format="ascii">
3.4125289370257405e-07 -0.030037810883623259 0 -0.00037503424349092355 -0.029524363398614473 0 -6.0732098313902154e-08 -0.029936689163951508 0 3.4125289370257405e-07 -0.030037810883623259 0 -0.00037503424349092355 -0.029524363398614473 0 0.00037593948192388626 -0.029078273547111864 0 -6.0732098313902154e-08 -0.029936689163951508 0 -0.0013403282081753244 -0.029216869646677919 0 -5.6038203460352615e-06 -0.029708929601901315 0 -0.00037503424349092355 -0.029524363398614473 0 -6.0732098313902154e-08 -0.029936689163951508 0 -0.0013403282081753244 -0.029216869646677919 0 -0.00037503424349092355 -0.029524363398614473 0 -0.0013403282081753244 -0.029216869646677919 0 -0.0012047557847710531 -0.028067586608381101 0 -0.0013403282081753244 -0.029216869646677919 0 -0.0041436068710103508 -0.026637797761661954 0 -0.0043342522732552138 -0.028253217425720619 0 -0.0013403282081753244 -0.029216869646677919 0 -0.0041436068710103508 -0.026637797761661954 0 -0.0012047557847710531 -0.028067586608381101 0 -0.0041436068710103508 -0.026637797761661954 0 -0.0012047557847710531 -0.028067586608381101 0 -0.0022970826602674039 -0.025025215822054723 0 0.00037593948192388626 -0.029078273547111864 0 -0.0012047557847710531 -0.028067586608381101 0 0.00026476885451850063 -0.02675707943540169 0 -0.0012047557847710531 -0.028067586608381101 0 0.00026476885451850063 -0.02675707943540169 0 -0.0022970826602674039 -0.025025215822054723 0 -0.00037503424349092355 -0.029524363398614473 0 0.00037593948192388626 -0.029078273547111864 0 -0.0012047557847710531 -0.028067586608381101 0 0.0061033957331873695 -0.022281359085468491 0 0.0032299306883325006 -0.020419538771800839 0 0.011855964120355328 -0.017839567592407499 0 0.0087863743408240005 -0.015820974924711993 0 0.010457918132595558 -0.012874034280710267 0 -0.0041436068710103508 -0.026637797761661954 0 -0.0022970826602674039 -0.025025215822054723 0 -0.0055936546988427146 -0.023441255765798266 0 0.0032299306883325006 -0.020419538771800839 0 0.00062893118530426716 -0.018607519118787198 0 0.0087863743408240005 -0.015820974924711993 0 0.0074704047537957263 -0.012664133931203731 0 0.006814569323217729 -0.013713217651484191 0 0.0074704047537957263 -0.012664133931203731 0 0.0055076989831992253 -0.010508067431036328 0 0.006814569323217729 -0.013713217651484191 0 0.0074704047537957263 -0.012664133931203731 0 0.0055076989831992253 -0.010508067431036328 0 0.0065127487788233206 -0.009782971999691541 0 0.0087863743408240005 -0.015820974924711993 0 0.0074704047537957263 -0.012664133931203731 0 0.010457918132595558 -0.012874034280710267 0 0.0074704047537957263 -0.012664133931203731 0 0.010457918132595558 -0.012874034280710267 0 0.0065127487788233206 -0.009782971999691541 0 -0.0066421176173108573 -0.021706891179290637 0 -0.0027607827835770425 -0.016173369342386491 0 -0.0082763541358678323 -0.02264882274649405 0 -0.0090141114670835611 -0.024224112703842879 0 -0.010443119084805864 -0.021939443743557458 0 -0.0082763541358678323 -0.02264882274649405 0 -0.0069633112824607889 -0.024560753956990724 0 -0.0090141114670835611 -0.024224112703842879 0 -0.001717913920552473 -0.016842628606089618 0 -0.0027607827835770425 -0.016173369342386491 0 0.0049450707247093387 -0.01127601860566739 0 0.0055076989831992253 -0.010508067431036328 0 0.006814569323217729 -0.013713217651484191 0 -0.001717913920552473 -0.016842628606089618 0 0.00062893118530426716 -0.018607519118787198 0 -0.0082763541358678323 -0.02264882274649405 0 -0.0055936546988427146 -0.023441255765798266 0 -0.0069633112824607889 -0.024560753956990724 0 -0.0041436068710103508 -0.026637797761661954 0 -0.0069633112824607889 -0.024560753956990724 0 -0.0070156283932797528 -0.026529130698102792 0 -0.0041436068710103508 -0.026637797761661954 0 -0.0055936546988427146 -0.023441255765798266 0 -0.0069633112824607889 -0.024560753956990724 0 -0.0069633112824607889 -0.024560753956990724 0 -0.0090141114670835611 -0.024224112703842879 0 -0.0070156283932797528 -0.026529130698102792 0 -0.0066421176173108573 -0.021706891179290637 0 -0.0034484220548060625 -0.023003440028776859 0 -0.0018836207037973036 -0.017771854864674901 0 -0.00052619935821944508 -0.019863195082945099 0 -0.0020552617582433818 -0.019999874036657379 0 -0.00081280497749474333 -0.021508117492211425 0 -0.00052619935821944508 -0.019863195082945099 0 -0.0020552617582433818 -0.019999874036657379 0 -0.00081280497749474333 -0.021508117492211425 0 -0.00052619935821944508 -0.019863195082945099 0 0.00017033768796731333 -0.021896210190659789 0 -0.0041436068710103508 -0.026637797761661954 0 -0.0070156283932797528 -0.026529130698102792 0 -0.0043342522732552138 -0.028253217425720619 0 -0.0034484220548060625 -0.023003440028776859 0 -0.002186248323303362 -0.02513569962135339 0 0.00017033768796731333 -0.021896210190659789 0 7.6435025316973386e-07 -0.022147428011172223 0 -8.5128354088447584e-07 -0.022398124195728304 0 -0.0013403282081753244 -0.029216869646677919 0 -0.0043342522732552138 -0.028253217425720619 0 -5.6038203460352615e-06 -0.029708929601901315 0 -0.002186248323303362 -0.02513569962135339 0 7.0474834560591332e-05 -0.025877028170796314 0 -0.00081280497749474333 -0.021508117492211425 0 -8.5128354088447584e-07 -0.022398124195728304 0 -0.001303338387698268 -0.021627742541658262 0 -0.00081280497749474333 -0.021508117492211425 0 0.00017033768796731333 -0.021896210190659789 0 -8.5128354088447584e-07 -0.022398124195728304 0 -8.5128354088447584e-07 -0.022398124195728304 0 -2.1067688990682398e-06 -0.022167109505869923 0 -0.001303338387698268 -0.021627742541658262 0 -2.1067688990682398e-06 -0.022167109505869923 0 -0.0017783845290144423 -0.021656973567750936 0 -0.001303338387698268 -0.021627742541658262 0 -2.1067688990682398e-06 -0.022167109505869923 0 -0.0017783845290144423 -0.021656973567750936 0 -2.6052581358230493e-06 -0.022174948808820514 0 -0.0017783845290144423 -0.021656973567750936 0 -0.001303338387698268 -0.021627742541658262 0 -0.0031298407710522395 -0.02003466784772949 0 -0.0017783845290144423 -0.021656973567750936 0 -0.0040744984067395415 -0.020278790251904603 0 -0.0031298407710522395 -0.02003466784772949 0 -0.001303338387698268 -0.021627742541658262 0 -0.0020552617582433818 -0.019999874036657379 0 -0.0031298407710522395 -0.02003466784772949 0 -0.00081280497749474333 -0.021508117492211425 0 -0.001303338387698268 -0.021627742541658262 0 -0.0020552617582433818 -0.019999874036657379 0 -4.2311805346434996e-06 -0.022359242622274005 0 -0.0020277932777801439 -0.021830265289675528 0 -0.0038196738552576963 -0.021437659037827895 0 -4.2311805346434996e-06 -0.022359242622274005 0 -2.6052581358230493e-06 -0.022174948808820514 0 -0.0020277932777801439 -0.021830265289675528 0 -0.0017783845290144423 -0.021656973567750936 0 -2.6052581358230493e-06 -0.022174948808820514 0 -0.0020277932777801439 -0.021830265289675528 0 -0.0017783845290144423 -0.021656973567750936 0 -0.0020277932777801439 -0.021830265289675528 0 -0.0040744984067395415 -0.020278790251904603 0 -0.0020277932777801439 -0.021830265289675528 0 -0.0038196738552576963 -0.021437659037827895 0 -0.0040744984067395415 -0.020278790251904603 0 -0.0040744984067395415 -0.020278790251904603 0 -0.0064252244144223265 -0.017777556870906989 0 -0.0070440649217360981 -0.019252523632153098 0 -0.0038196738552576963 -0.021437659037827895 0 -0.0040744984067395415 -0.020278790251904603 0 -0.0070440649217360981 -0.019252523632153098 0 -0.0040744984067395415 -0.020278790251904603 0 -0.0064252244144223265 -0.017777556870906989 0 -0.0047468138465839088 -0.018563614839004313 0 -0.0064252244144223265 -0.017777556870906989 0 -0.0047468138465839088 -0.018563614839004313 0 -0.0059743397081172102 -0.016484848265785133 0 -0.0064252244144223265 -0.017777556870906989 0 -0.0070440649217360981 -0.019252523632153098 0 -0.0095972753787021744 -0.016299754199480217 0 -0.0020552617582433818 -0.019999874036657379 0 -0.0031298407710522395 -0.02003466784772949 0 -0.004214312964208029 -0.017617867661000028 0 -0.0018836207037973036 -0.017771854864674901 0 -0.0020552617582433818 -0.019999874036657379 0 -0.004214312964208029 -0.017617867661000028 0 -0.0040744984067395415 -0.020278790251904603 0 -0.0031298407710522395 -0.02003466784772949 0 -0.0047468138465839088 -0.018563614839004313 0 -0.0031298407710522395 -0.02003466784772949 0 -0.0047468138465839088 -0.018563614839004313 0 -0.004214312964208029 -0.017617867661000028 0 -0.0047468138465839088 -0.018563614839004313 0 -0.004214312964208029 -0.017617867661000028 0 -0.0059743397081172102 -0.016484848265785133 0 -0.004214312964208029 -0.017617867661000028 0 -0.0059743397081172102 -0.016484848265785133 0 -0.0059243848664786974 -0.01500561773823323 0 -0.0018836207037973036 -0.017771854864674901 0 -0.004214312964208029 -0.017617867661000028 0 -0.0039797015682696696 -0.01569241500160266 0 -0.004214312964208029 -0.017617867661000028 0 -0.0039797015682696696 -0.01569241500160266 0 -0.0059243848664786974 -0.01500561773823323 0 0.0045237528198461092 -0.0095140200093016374 0 0.0041631815896664443 -0.0080618497499899758 0 0.0033076394372598822 -0.0069610287518477127 0 -0.0027607827835770425 -0.016173369342386491 0 -6.5859832090927066e-05 -0.010576381133474685 0 -0.0059743397081172102 -0.016484848265785133 0 -0.0059243848664786974 -0.01500561773823323 0 -0.0071744487745932098 -0.014493583936901078 0 -6.5859832090927066e-05 -0.010576381133474685 0 -0.002250191533381244 -0.010758123210121704 0 0.0025368209813724698 -0.0050679567179834732 0 0.0031164523468055188 -0.00650486241642006 0 0.0020951823273303257 -0.0044193194154529538 0 0.0041631815896664443 -0.0080618497499899758 0 0.0025368209813724698 -0.0050679567179834732 0 0.0031164523468055188 -0.00650486241642006 0 0.0025368209813724698 -0.0050679567179834732 0 0.0033076394372598822 -0.0069610287518477127 0 0.002205078151559518 -0.0044688024362431857 0 0.0041631815896664443 -0.0080618497499899758 0 0.0025368209813724698 -0.0050679567179834732 0 0.0033076394372598822 -0.0069610287518477127 0 -0.0095972753787021744 -0.016299754199480217 0 -0.0076198264594240306 -0.015754261796218146 0 -0.0091876693025698796 -0.013643446953800662 0 -0.0064252244144223265 -0.017777556870906989 0 -0.0095972753787021744 -0.016299754199480217 0 -0.0076198264594240306 -0.015754261796218146 0 -0.0064252244144223265 -0.017777556870906989 0 -0.0059743397081172102 -0.016484848265785133 0 -0.0076198264594240306 -0.015754261796218146 0 -0.0059743397081172102 -0.016484848265785133 0 -0.0076198264594240306 -0.015754261796218146 0 -0.0071744487745932098 -0.014493583936901078 0 0.0031164523468055188 -0.00650486241642006 0 0.0020951823273303257 -0.0044193194154529538 0 0.0022736247262117068 -0.005342757945836228 0 0.0020951823273303257 -0.0044193194154529538 0 0.0022736247262117068 -0.005342757945836228 0 0.0011342862809968282 -0.0029058996531120531 0 -0.002250191533381244 -0.010758123210121704 0 -0.0033823783968889155 -0.0094129569350734632 0 -0.0076198264594240306 -0.015754261796218146 0 -0.0071744487745932098 -0.014493583936901078 0 -0.0091876693025698796 -0.013643446953800662 0 -0.0095972753787021744 -0.016299754199480217 0 -0.0091876693025698796 -0.013643446953800662 0 -0.0113133081219373 -0.01307787016604243 0 0.0022736247262117068 -0.005342757945836228 0 0.00026013166134290154 -0.0038618105411171453 0 0.0011342862809968282 -0.0029058996531120531 0 -0.0033823783968889155 -0.0094129569350734632 0 -0.0055999706525265017 -0.008530164329418527 0 0.00026013166134290154 -0.0038618105411171453 0 0.0011342862809968282 -0.0029058996531120531 0 -0.00030230789193177066 -0.0015545185960034226 0 0.0011342862809968282 -0.0029058996531120531 0 0.00039990513542237485 -0.0011295804338728747 0 -0.00030230789193177066 -0.0015545185960034226 0 0.0011342862809968282 -0.0029058996531120531 0 0.0011208761757733022 -0.0021637068299818888 0 0.00039990513542237485 -0.0011295804338728747 0 0.0020951823273303257 -0.0044193194154529538 0 0.0011342862809968282 -0.0029058996531120531 0 0.0011208761757733022 -0.0021637068299818888 0 0.0011208761757733022 -0.0021637068299818888 0 1.2955731766910434e-06 -5.5091426287539654e-07 0 1.2771750628685114e-06 -9.1649070521000105e-07 0 0.0011208761757733022 -0.0021637068299818888 0 1.2955731766910434e-06 -5.5091426287539654e-07 0 0.00039990513542237485 -0.0011295804338728747 0 1.2955731766910434e-06 -5.5091426287539654e-07 0 0.00039990513542237485 -0.0011295804338728747 0 -1.2025798813365648e-06 -2.5557513256288408e-07 0 0.00039990513542237485 -0.0011295804338728747 0 -1.2025798813365648e-06 -2.5557513256288408e-07 0 -0.00030230789193177066 -0.0015545185960034226 0 0.0025368209813724698 -0.0050679567179834732 0 0.0012017483555117007 -0.0023326576927974077 0 0.002205078151559518 -0.0044688024362431857 0 0.0025368209813724698 -0.0050679567179834732 0 0.0011208761757733022 -0.0021637068299818888 0 0.0012017483555117007 -0.0023326576927974077 0 0.0025368209813724698 -0.0050679567179834732 0 0.0020951823273303257 -0.0044193194154529538 0 0.0011208761757733022 -0.0021637068299818888 0 0.0011208761757733022 -0.0021637068299818888 0 0.0012017483555117007 -0.0023326576927974077 0 1.2771750628685114e-06 -9.1649070521000105e-07 0 0.0012017483555117007 -0.0023326576927974077 0 1.2771750628685114e-06 -9.1649070521000105e-07 0 1.4137879278587502e-06 -9.1305807520167426e-07 0 1.4137879278587502e-06 -9.1305807520167426e-07 0 0.0012411587347683339 -0.0023174634749353541 0 1.8704949845034001e-06 -9.4923770029810299e-07 0 0.0012017483555117007 -0.0023326576927974077 0 1.4137879278587502e-06 -9.1305807520167426e-07 0 0.0012411587347683339 -0.0023174634749353541 0 0.0012017483555117007 -0.0023326576927974077 0 0.002205078151559518 -0.0044688024362431857 0 0.0012411587347683339 -0.0023174634749353541 0 0.002205078151559518 -0.0044688024362431857 0 0.0012411587347683339 -0.0023174634749353541 0 0.0027487601775809207 -0.0053368369577086964 0 0.0016355690111839432 -0.0024008312327587263 0 0.004147574210291217 -0.005818337679086091 0 0.0027487601775809207 -0.0053368369577086964 0 0.0012411587347683339 -0.0023174634749353541 0 0.0016355690111839432 -0.0024008312327587263 0 0.0027487601775809207 -0.0053368369577086964 0 0.0016355690111839432 -0.0024008312327587263 0 1.8704949845034001e-06 -9.4923770029810299e-07 0 1.5528530664545132e-06 -3.5026826182060167e-07 0 0.0012411587347683339 -0.0023174634749353541 0 0.0016355690111839432 -0.0024008312327587263 0 1.8704949845034001e-06 -9.4923770029810299e-07 0 0.0016355690111839432 -0.0024008312327587263 0 1.5528530664545132e-06 -3.5026826182060167e-07 0 0.0020577096845447009 -0.0022730654470489442 0 6.3602945265503331e-06 -2.3844868566254008e-06 0 0.0020577096845447009 -0.0022730654470489442 0 0.0050088485208373088 -0.0045098607311641684 0 1.5528530664545132e-06 -3.5026826182060167e-07 0 6.3602945265503331e-06 -2.3844868566254008e-06 0 0.0020577096845447009 -0.0022730654470489442 0 0.0020577096845447009 -0.0022730654470489442 0 0.0050088485208373088 -0.0045098607311641684 0 0.004147574210291217 -0.005818337679086091 0 0.0016355690111839432 -0.0024008312327587263 0 0.0020577096845447009 -0.0022730654470489442 0 0.004147574210291217 -0.005818337679086091 0 0.004147574210291217 -0.005818337679086091 0 0.0081295620827200685 -0.008534982673082071 0 0.0065127487788233206 -0.009782971999691541 0 0.0050088485208373088 -0.0045098607311641684 0 0.004147574210291217 -0.005818337679086091 0 0.0081295620827200685 -0.008534982673082071 0 0.010457918132595558 -0.012874034280710267 0 0.0081295620827200685 -0.008534982673082071 0 0.0065127487788233206 -0.009782971999691541 0 0.004147574210291217 -0.005818337679086091 0 0.0065127487788233206 -0.009782971999691541 0 0.0044474010689854624 -0.0078411213568149382 0 0.0055076989831992253 -0.010508067431036328 0 0.0065127487788233206 -0.009782971999691541 0 0.0044474010689854624 -0.0078411213568149382 0 0.0055076989831992253 -0.010508067431036328 0 0.0044474010689854624 -0.0078411213568149382 0 0.0039553058196929551 -0.0084636409023769697 0 0.0049450707247093387 -0.01127601860566739 0 0.0055076989831992253 -0.010508067431036328 0 0.0039553058196929551 -0.0084636409023769697 0 0.0049450707247093387 -0.01127601860566739 0 0.0045237528198461092 -0.0095140200093016374 0 0.0039553058196929551 -0.0084636409023769697 0 0.0045237528198461092 -0.0095140200093016374 0 0.0033076394372598822 -0.0069610287518477127 0 0.0039553058196929551 -0.0084636409023769697 0 0.0033076394372598822 -0.0069610287518477127 0 0.002205078151559518 -0.0044688024362431857 0 0.0027487601775809207 -0.0053368369577086964 0 0.0033076394372598822 -0.0069610287518477127 0 0.0039553058196929551 -0.0084636409023769697 0 0.0027487601775809207 -0.0053368369577086964 0 0.004147574210291217 -0.005818337679086091 0 0.0044474010689854624 -0.0078411213568149382 0 0.0027487601775809207 -0.0053368369577086964 0 0.0044474010689854624 -0.0078411213568149382 0 0.0039553058196929551 -0.0084636409023769697 0 0.0027487601775809207 -0.0053368369577086964 0 
</DataArray>
</PointData>
<CellData Scalars="region_id,cross_section_updated,normal_displacement_jump,tangential_displacement_jump," Vectors="" Tensors="stress,">
<DataArray type="Float64" Name="region_id" format="ascii">
11 11 11 11 11 11 11 11 11 11 11 5 11 11 5 11 11 11 11 11 6 11 11 5 11 5 11 11 11 11 6 11 11 11 11 6 11 11 6 11 11 11 11 11 11 11 11 11 11 11 11 11 11 11 11 11 11 11 11 11 11 11 11 11 11 11 11 4 11 4 11 11 11 11 11 11 11 11 11 11 4 11 11 11 4 11 11 11 11 11 11 11 11 11 11 11 11 11 11 11 11 11 11 11 11 11 11 11 11 11 11 11 11 11 11 11 11 11 11 11 11 11 11 11 
</DataArray>
<DataArray type="Float64" Name="stress" NumberOfComponents="9" format="ascii">
-5012558.0802598149 2101843.8572716862 0 2101843.8572716862 -807947.35222345591 0 0 0 -1455126.3581207991 2985434.1636036783 160981.00688174367 0 160981.00688174367 -659012.17238050699 0 0 0 581605.49780580401 -15190315.898786664 2376565.6233752072 0 2376565.6233752072 -3119890.3700951934 0 0 0 -4577551.5672204643 -8958657.0686884522 -913350.13722760975 0 -913350.13722760975 -783479.70318937302 0 0 0 -2435534.1929694563 -7150615.0676116087 2404376.5783819109 0 2404376.5783819109 -1657532.5956200883 0 0 0 -2202036.9158079214 -12303904.316024706 -2060639.3414906785 0 -2060639.3414906785 714951.93234437704 0 0 0 -2897238.0959200859 -15097390.437242821 202239.22430654615 0 202239.22430654615 -1223323.8973763585 0 0 0 -4080178.5836547762 -7445419.5680060536 1527908.1112208217 0 1527908.1112208217 -1665982.0989413261 0 0 0 -2277850.4167368412 -1373074.2330500484 1956899.2133496255 0 1956899.2133496255 -1273254.6375778615 0 0 0 -661582.21765697747 -7230688.9987714887 2533501.4540546685 0 2533501.4540546685 -144606.89219173789 0 0 0 -1843823.9727408066 -5950913.0119782686 1187749.2679219842 0 1187749.2679219842 -352303.63485732675 0 0 0 -1575804.1617089063 10541.368634682403 1208.6621859927482 0 1208.6621859927482 -795.79066830715783 0 0 0 2436.3944915938118 -7784566.6509347055 2261699.4908195585 0 2261699.4908195585 506284.90507299453 0 0 0 -1819570.4364654217 -11032468.009087458 823335.06654731929 0 823335.06654731929 -2799346.1534755975 0 0 0 -3457953.5406407714 10908.255380300045 1281.2100266123098 0 1281.2100266123098 -867.15685523486536 0 0 0 2510.2746312662944 -8537966.3335622996 5839786.2151186299 0 5839786.2151186299 1173034.7364997864 0 0 0 -1841232.8992656246 -10015154.00786759 5637146.015526481 0 5637146.015526481 806472.9414935708 0 0 0 -2302170.2665934935 -9545534.8811294027 5154141.4811280705 0 5154141.4811280705 1681795.7611692399 0 0 0 -1965934.7799900435 -6437095.3795943372 2694759.724069478 0 2694759.724069478 891054.5667553097 0 0 0 -1386510.2032097466 -11142343.579172526 2084624.1861307472 0 2084624.1861307472 -755844.78418377414 0 0 0 -2974547.0908390768 -1339.019354864085 1315.0274415303722 0 1315.0274415303722 5630.4611559587283 0 0 0 1072.8604502736598 -6271278.5363202989 2038264.8265859559 0 2038264.8265859559 -7016497.3860598505 0 0 0 -3321943.9805950373 -9482801.949737817 1041339.4779552966 0 1041339.4779552966 -7792675.3671176434 0 0 0 -4318869.3292138726 12996.55793325002 1734.1054199057889 0 1734.1054199057889 -1339.4537747660233 0 0 0 2914.2760396210006 -9284264.155464638 6446275.0634859055 0 6446275.0634859055 3766017.1706621796 0 0 0 -1379561.74620061 11862.502441753239 1478.4990639436537 0 1478.4990639436537 -1066.628751114953 0 0 0 2698.9684226595705 -9373385.546021834 1007972.6743828803 0 1007972.6743828803 -7428183.485024482 0 0 0 -4200392.2577615827 -10106667.724105835 404007.71697124839 0 404007.71697124839 -4192245.9341227412 0 0 0 -3574728.4145571291 -12600064.563064694 1750369.1409202395 0 1750369.1409202395 -7096341.7380866408 0 0 0 -4924101.5752878189 -10031346.73137518 991462.45694790781 0 991462.45694790781 -7853669.2826458812 0 0 0 -4471254.0035052672 -1330.8221969872448 1262.3096638759359 0 1262.3096638759359 5818.5615796616912 0 0 0 1121.9348456686112 -8000782.2646666095 3148861.8955422379 0 3148861.8955422379 -5703487.9709502757 0 0 0 -3426067.5589042231 -6362233.191275239 1671958.0889403224 0 1671958.0889403224 -4764695.8573688567 0 0 0 -2781732.2621610314 -2512238.9003900066 3718795.5906634703 0 3718795.5906634703 -898878.43918249011 0 0 0 -852779.33489311486 -13349372.911762303 -2756565.5360274464 0 -2756565.5360274464 -4648476.3691187352 0 0 0 -4499462.3202202823 -627.35422215826384 805.70548870233324 0 805.70548870233324 6010.4662744623893 0 0 0 1345.7780130760311 1098255.5431478843 1067859.6037400141 0 1067859.6037400141 -1060097.5577560067 0 0 0 9539.4963479712605 -27510348.246314891 -4297239.0164026916 0 -4297239.0164026916 -2648516.8137509748 0 0 0 -7539716.2650164589 1263.0187339135609 -438.95535763866883 0 -438.95535763866883 7063.0527804646517 0 0 0 2081.5178785945545 -6429004.2967874408 693800.0892907558 0 693800.0892907558 -2642314.3614720404 0 0 0 -2267829.6645648554 -5357443.7180273626 -235920.13274459541 0 -235920.13274459541 180482.75739375129 0 0 0 -1294240.2401583884 -10720743.389432911 1728852.8295072839 0 1728852.8295072839 -2259364.2275079442 0 0 0 -3245026.9042352173 -12675128.528863616 270283.32343277335 0 270283.32343277335 -4421736.2094959021 0 0 0 -4274216.1845898777 -15348302.596403014 1479043.4625002667 0 1479043.4625002667 -5160697.7889198363 0 0 0 -5127250.0963307023 -13715123.551985467 3456035.8254585639 0 3456035.8254585639 -4752941.6098597394 0 0 0 -4617016.2904613037 -15472547.892598845 2362344.013030082 0 2362344.013030082 -6925798.7215840518 0 0 0 -5599586.6535457149 -11399156.254215546 2295010.888570644 0 2295010.888570644 -5096399.4736036956 0 0 0 -4123888.9319548085 -9649264.0878350846 3423666.2311566249 0 3423666.2311566249 -3125972.3785217237 0 0 0 -3193809.1165892007 -24122088.318245284 221565.54460307211 0 221565.54460307211 -7249376.6396431923 0 0 0 -7842866.2394721135 -19508793.014351293 1262082.1240793914 0 1262082.1240793914 -7551358.0324361026 0 0 0 -6765037.7616968527 -17882922.601172082 88249.480274811387 0 88249.480274811387 -6962049.679952085 0 0 0 -6211243.0702810511 -17050008.988899462 2874189.7256944701 0 2874189.7256944701 -6077005.6719851196 0 0 0 -5781753.6652211472 -18655838.971659891 1175376.2711147368 0 1175376.2711147368 -7859599.884425886 0 0 0 -6628859.7140214369 -16023631.778761834 1735641.8675185787 0 1735641.8675185787 -7967228.0326029658 0 0 0 -5997714.9528411999 -20834859.825666238 1439338.5421675965 0 1439338.5421675965 -7474971.9424848557 0 0 0 -7077457.9420377761 -16428289.405219495 3250432.3678391594 0 3250432.3678391594 -7641130.368424505 0 0 0 -6017354.9434110075 -13898045.878109723 3527558.6386825517 0 3527558.6386825517 -8172879.6127948612 0 0 0 -5517731.3727261499 -17186660.206494555 1781853.0081975088 0 1781853.0081975088 -7985188.8206362724 0 0 0 -6292962.2567827106 -13201525.290345263 4117228.8510280102 0 4117228.8510280102 -6069257.4548591953 0 0 0 -4817695.6863011234 -9797796.6597851664 2266077.9561571181 0 2266077.9561571181 -6707649.2010829896 0 0 0 -4126361.4652170539 -14403449.255519569 4041208.5861244798 0 4041208.5861244798 -6672576.1583238756 0 0 0 -5269006.3534608558 -13752711.762237437 3922382.6728422344 0 3922382.6728422344 -7872048.575326696 0 0 0 -5406190.0843910426 -13642448.662113337 4300955.4478601962 0 4300955.4478601962 -7592213.3349162117 0 0 0 -5308665.4992573764 -14185992.742874801 4695517.7266206816 0 4695517.7266206816 -8345389.2542439699 0 0 0 -5632845.4992796928 -14679894.870319216 2804433.9643869177 0 2804433.9643869177 -8436540.6108785793 0 0 0 -5779108.8702994566 -13583962.590277016 3023379.0697259977 0 3023379.0697259977 -8290706.618651405 0 0 0 -5468667.302232109 -10273163.74390802 8388517.4162885062 0 8388517.4162885062 -1295314.0760189891 0 0 0 -2892119.4549817536 8827.9835874273012 698.59556741415417 0 698.59556741415417 -148.94853122640052 0 0 0 2169.7587640502252 -12632380.336473677 4452995.2061208859 0 4452995.2061208859 -8677392.2248598635 0 0 0 -5327443.140333388 9591.7777493176891 842.67485894484025 0 842.67485894484025 -365.58801505039901 0 0 0 2306.5474335668223 -9819240.3547984138 6592866.6421774179 0 6592866.6421774179 -1893286.6260758415 0 0 0 -2928131.745218562 -11629473.661312411 6647245.100661152 0 6647245.100661152 -1103857.2317100838 0 0 0 -3183332.7232556194 -10283031.605358139 8181451.5160937421 0 8181451.5160937421 -1620713.0430694669 0 0 0 -2975936.1621069042 -12172460.053406097 8203816.8139389362 0 8203816.8139389362 -1623741.6498171613 0 0 0 -3449050.4258058071 -13166711.581677578 2018077.0733351037 0 2018077.0733351037 -7518755.0955012683 0 0 0 -5171366.6692947159 -14453414.946163788 1419555.5910095796 0 1419555.5910095796 -8001354.3155303001 0 0 0 -5613692.3154235259 -14234319.694981396 3332744.5713637099 0 3332744.5713637099 -8467096.4804056436 0 0 0 -5675354.0438467637 -11719379.923027843 2705651.6615534723 0 2705651.6615534723 -7404575.5201737285 0 0 0 -4780988.8608003929 -9998886.5593092274 6310409.2507048044 0 6310409.2507048044 -3192610.0870186165 0 0 0 -3297874.1615819614 -10697147.077112408 6982835.158809986 0 6982835.158809986 -2206135.5579973087 0 0 0 -3225820.6587774288 10215.57974166273 967.18627423609132 0 967.18627423609132 -470.87487154193423 0 0 0 2436.1762175301992 -13591862.71566065 2936357.956269674 0 2936357.956269674 -6963313.9980816394 0 0 0 -5138794.1784355678 -12609440.138278812 1901743.3088492714 0 1901743.3088492714 -8541361.5968214571 0 0 0 -5287700.4337750711 -9476521.6178922206 3435864.0386456978 0 3435864.0386456978 -1444743.3558429312 0 0 0 -2730316.2434337875 10788.734122664042 1068.6549674989224 0 1068.6549674989224 -575.71710163528678 0 0 0 2553.254255257189 -5154656.2253729319 3400610.145649353 0 3400610.145649353 -1065516.1122871926 0 0 0 -1555043.0844150307 -6623327.2818132136 3341969.7260751659 0 3341969.7260751659 -879128.83324364573 0 0 0 -1875614.0287642158 -7765713.2938293321 5929042.2686400497 0 5929042.2686400497 -1231272.6794770705 0 0 0 -2249246.4933265997 -9802199.7411150858 6378030.7721329462 0 6378030.7721329462 -1122538.2910199892 0 0 0 -2731184.5080337683 -9452404.5624943264 6087772.344098812 0 6087772.344098812 -3148461.8316004882 0 0 0 -3150216.5985237039 -6595300.9119238975 4422996.7674420839 0 4422996.7674420839 403387.77267449349 0 0 0 -1547978.2848123508 -5121762.0201943591 4818382.7010037797 0 4818382.7010037797 -1705363.8362974494 0 0 0 -1706781.464122952 2748601.8622953938 2413747.862659642 0 2413747.862659642 537509.5983950682 0 0 0 821527.86517261527 -10434956.642722219 7437849.5254714834 0 7437849.5254714834 -2231180.4963913262 0 0 0 -3166534.2847783864 -10546608.966472208 7313750.5192651395 0 7313750.5192651395 -2086242.2241918221 0 0 0 -3158212.7976660077 -9744893.0664051343 7013065.0906113246 0 7013065.0906113246 -2082903.8032791284 0 0 0 -2956949.2174210642 -9399203.6136886459 6150517.5055521252 0 6150517.5055521252 -1764682.4705496887 0 0 0 -2790971.5210595834 -10383689.841998391 6723009.5153839523 0 6723009.5153839523 -3461251.9161648457 0 0 0 -3461235.439540809 -11074611.186851313 6898170.6716823438 0 6898170.6716823438 -3691305.5126831573 0 0 0 -3691479.1748836185 -10561145.450035984 6618512.6629683878 0 6618512.6629683878 -3143220.7348305937 0 0 0 -3426091.5462166443 -10545010.080868289 7599794.2208641702 0 7599794.2208641702 -3069667.3309150338 0 0 0 -3403669.3529458297 -11089794.172876652 7436504.2264639791 0 7436504.2264639791 -2494969.3667885959 0 0 0 -3396190.884916313 -14170656.847765625 5923936.3853686713 0 5923936.3853686713 -2393703.656508442 0 0 0 -4141090.1260685166 -11151879.733420463 7322247.482272475 0 7322247.482272475 -3822598.5746416086 0 0 0 -3743619.5770155182 -14093757.534223188 6901426.515177059 0 6901426.515177059 -4701752.5824806467 0 0 0 -4698877.5291759586 -12562402.375744302 6027530.8841540385 0 6027530.8841540385 -4186064.110476248 0 0 0 -4187116.6215551374 -17188193.736101996 5254830.6068196213 0 5254830.6068196213 -4458116.2169559002 0 0 0 -5411577.4882644778 -29650028.312002916 5374917.8651013449 0 5374917.8651013449 -3574285.8738754801 0 0 0 -8306078.546469599 -20039154.450445168 7376737.5304803485 0 7376737.5304803485 -6666699.1511416929 0 0 0 -6676463.4003967158 -17872550.050164219 2992180.9664764926 0 2992180.9664764926 684208.75578572229 0 0 0 -4297085.3235946251 -16262578.550058888 7021598.5560899433 0 7021598.5560899433 -3600262.0238374313 0 0 0 -4965710.1434740825 -13212210.59135988 1880507.9993035011 0 1880507.9993035011 9675.5404268950224 0 0 0 -3300633.7627332471 -17980563.824558735 2268384.3481202628 0 2268384.3481202628 -681513.35102496296 0 0 0 -4665519.2938959245 -13200317.734692277 1956228.8434426188 0 1956228.8434426188 136323.38050162792 0 0 0 -3265998.5885476619 -14165673.442896258 4986280.7173865922 0 4986280.7173865922 -822483.43458423018 0 0 0 -3747039.219370123 -10118402.095720762 4228387.9636331834 0 4228387.9636331834 483358.89965668321 0 0 0 -2408760.7990160156 -10213949.943817034 6271646.571777232 0 6271646.571777232 -511668.6110278219 0 0 0 -2681404.6387112141 -7200294.2827879358 4984313.1788175739 0 4984313.1788175739 1775092.1537795812 0 0 0 -1356300.5322520975 -7578822.593631817 8619684.7752150521 0 8619684.7752150521 1214854.5947235897 0 0 0 -1590991.999727061 -10050051.823980127 7456409.2693456318 0 7456409.2693456318 -792511.43146798015 0 0 0 -2710640.8138620295 -10695446.192421181 7673753.691087272 0 7673753.691087272 -2537604.7103263214 0 0 0 -3308262.7256868724 -9481662.4312625267 8141747.3029214796 0 8141747.3029214796 -1733568.9148782566 0 0 0 -2803807.8365351958 -10982652.77514145 5723348.4676728379 0 5723348.4676728379 -1322839.0294090286 0 0 0 -3076372.9511376172 -10795621.818245253 5644286.761567004 0 5644286.761567004 -1239720.1387586258 0 0 0 -3008835.489250971 
</DataArray>
<DataArray type="Float64" Name="cross_section_updated" format="ascii">
1 1 1 1 1 1 1 1 1 1 1 0.0070882656671206017 1 1 0.0072724128507961451 1 1 1 1 1 0.0036396033128702522 1 1 0.0082847440201264787 1 0.0077436356617063941 1 1 1 1 0.0038211278094531925 1 1 1 1 0.0043656997138754559 1 1 0.0062158654733385256 1 1 1 1 1 1 1 1 1 1 1 1 1 1 1 1 1 1 1 1 1 1 1 1 1 1 1 1 0.0063799524321437734 1 0.0067745215946517267 1 1 1 1 1 1 1 1 1 1 0.007085454477628414 1 1 1 0.0073845820606848198 1 1 1 1 1 1 1 1 1 1 1 1 1 1 1 1 1 1 1 1 1 1 1 1 1 1 1 1 1 1 1 1 1 1 1 1 1 1 1 
</DataArray>
<DataArray type="Float64" Name="normal_displacement_jump" format="ascii">
0 0 0 0 0 0 0 0 0 0 0 0.0060882656671206008 0 0 0.0062724128507961451 0 0 0 0 0 0.0026396033128702513 0 0 0.0072847440201264787 0 0.0067436356617063932 0 0 0 0 0.0028211278094531916 0 0 0 0 0.0033656997138754551 0 0 0.0052158654733385247 0 0 0 0 0 0 0 0 0 0 0 0 0 0 0 0 0 0 0 0 0 0 0 0 0 0 0 0 0.0053799524321437725 0 0.0057745215946517266 0 0 0 0 0 0 0 0 0 0 0.0060854544776284131 0 0 0 0.0063845820606848198 0 0 0 0 0 0 0 0 0 0 0 0 0 0 0 0 0 0 0 0 0 0 0 0 0 0 0 0 0 0 0 0 0 0 0 0 0 0 0 
</DataArray>
<DataArray type="Float64" Name="tangential_displacement_jump" format="ascii">
0 0 0 0 0 0 0 0 0 0 0 0.013174500583269414 0 0 0.013719672135162368 0 0 0 0 0 0.0089190274048301914 0 0 0.016945985828241941 0 0.015167547247101848 0 0 0 0 0.0090243305340261225 0 0 0 0 0.0078286933123408314 0 0 0.0051296349932714765 0 0 0 0 0 0 0 0 0 0 0 0 0 0 0 0 0 0 0 0 0 0 0 0 0 0 0 0 0.010025488325153946 0 0.011234776201028336 0 0 0 0 0 0 0 0 0 0 0.012148784552565404 0 0 0 0.012984451202321889 0 0 0 0 0 0 0 0 0 0 0 0 0 0 0 0 0 0 0 0 0 0 0 0 0 0 0 0 0 0 0 0 0 0 0 0 0 0 0 
</DataArray>
</CellData>
</Piece>
</UnstructuredGrid>
</VTKFile>
