<?xml version="1.0"?>
<VTKFile type="UnstructuredGrid" version="0.1" byte_order="LittleEndian">
<UnstructuredGrid>
<Piece NumberOfPoints="360" NumberOfCells="124">
<Points>
<DataArray type="Float64" NumberOfComponents="3" format="ascii">
0 0 0 0.084352422163911631 0.086451712656266194 0 0 0.12500000000034689 0 0 0 0 0.084352422163911631 0.086451712656266194 0 0.1249999999997554 0 0 0 0.12500000000034689 0 0.1008171452988615 0.18885703697250469 0 0 0.25 0 0.084352422163911631 0.086451712656266194 0 0 0.12500000000034689 0 0.1008171452988615 0.18885703697250469 0 0.084352422163911631 0.086451712656266194 0 0.1008171452988615 0.18885703697250469 0 0.18402761812864499 0.1117324051466445 0 0.1008171452988615 0.18885703697250469 0 0.2403886547178353 0.24188814792673841 0 0.1249999999997599 0.31249999999987998 0 0.1008171452988615 0.18885703697250469 0 0.2403886547178353 0.24188814792673841 0 0.18402761812864499 0.1117324051466445 0 0.2403886547178353 0.24188814792673841 0 0.18402761812864499 0.1117324051466445 0 0.31250000000020822 0.12500000000041631 0 0.1249999999997554 0 0 0.18402761812864499 0.1117324051466445 0 0.25 -0 0 0.18402761812864499 0.1117324051466445 0 0.25 -0 0 0.31250000000020822 0.12500000000041631 0 0.084352422163911631 0.086451712656266194 0 0.1249999999997554 0 0 0.18402761812864499 0.1117324051466445 0 0.25 -0 0 0.31250000000020822 0.12500000000041631 0 0.25 -0 0 0.31250000000020822 0.12500000000041631 0 0.43749999999913258 0 0 0.2403886547178353 0.24188814792673841 0 0.31250000000020822 0.12500000000041631 0 0.37500000000027761 0.25000000000055511 0 0.31250000000020822 0.12500000000041631 0 0.37500000000027761 0.25000000000055511 0 0.31250000000020822 0.12500000000041631 0 0.4287911518546233 0.15455445427966699 0 0.37500000000027761 0.25000000000055511 0 0.4287911518546233 0.15455445427966699 0 0.49457493289300231 0.26251703776555491 0 0.37500000000027761 0.25000000000055511 0 0.4287911518546233 0.15455445427966699 0 0.49457493289300231 0.26251703776555491 0 0.54475767668582953 0.1431838882066932 0 0.31250000000020822 0.12500000000041631 0 0.4287911518546233 0.15455445427966699 0 0.43749999999913258 0 0 0.4287911518546233 0.15455445427966699 0 0.43749999999913258 0 0 0.54475767668582953 0.1431838882066932 0 0.37499999999973488 0.43749999999986738 0 0.5 0.5 -0 0.43750000000006939 0.37500000000013878 0 0.37499999999973488 0.43749999999986738 0 0.5 0.5 -0 0.43750000000006939 0.37500000000013878 0 0.33819444444448321 0.33819444444456342 0 0.37499999999973488 0.43749999999986738 0 0.43750000000006939 0.37500000000013878 0 0.5 0.5 -0 0.43750000000006939 0.37500000000013878 0 0.49457493289300231 0.26251703776555491 0 0.37500000000027761 0.25000000000055511 0 0.43750000000006939 0.37500000000013878 0 0.37500000000027761 0.25000000000055511 0 0.43750000000006939 0.37500000000013878 0 0.37500000000027761 0.25000000000055511 0 0.33819444444448321 0.33819444444456342 0 0.2403886547178353 0.24188814792673841 0 0.33819444444448321 0.33819444444456342 0 0.24999999999960859 0.37499999999980432 0 0.2403886547178353 0.24188814792673841 0 0.37500000000027761 0.25000000000055511 0 0.33819444444448321 0.33819444444456342 0 0.33819444444448321 0.33819444444456342 0 0.37499999999973488 0.43749999999986738 0 0.24999999999960859 0.37499999999980432 0 0.37499999999973488 0.43749999999986738 0 0.24999999999960859 0.37499999999980432 0 0.37499999999973488 0.43749999999986738 0 0.24999999999960859 0.37499999999980432 0 0.26452443700674649 0.51563531581639865 0 0.14929124186975251 0.44582793568106382 0 0.24999999999960859 0.37499999999980432 0 0.26452443700674649 0.51563531581639865 0 0.14929124186975251 0.44582793568106382 0 0.24999999999960859 0.37499999999980432 0 0.1249999999997599 0.31249999999987998 0 0.2403886547178353 0.24188814792673841 0 0.24999999999960859 0.37499999999980432 0 0.1249999999997599 0.31249999999987998 0 0.24999999999960859 0.37499999999980432 0 0.1249999999997599 0.31249999999987998 0 0.1249999999997599 0.31249999999987998 0 0 0.25 0 0 0.43750000000034689 0 0.1008171452988615 0.18885703697250469 0 0.1249999999997599 0.31249999999987998 0 0 0.25 0 0.1249999999997599 0.31249999999987998 0 0 0.25 0 0.14929124186975251 0.44582793568106382 0 0 0.43750000000034689 0 0.13928587515912139 0.57339806105677438 0 0.14929124186975251 0.44582793568106382 0 0.1249999999997599 0.31249999999987998 0 0 0.43750000000034689 0 0 0.43750000000034689 0 0 0.62500000000069389 0 0.13928587515912139 0.57339806105677438 0 0 0.62500000000069389 0 0.13900789599611679 0.72618316107059999 0 0.13928587515912139 0.57339806105677438 0 0 0.62500000000069389 0 0.13900789599611679 0.72618316107059999 0 0 0.81250000000104083 0 0.13900789599611679 0.72618316107059999 0 0.13928587515912139 0.57339806105677438 0 0.27589467050686478 0.66058853156435704 0 0.13900789599611679 0.72618316107059999 0 0.27987960212930818 0.83442741470570525 0 0.27589467050686478 0.66058853156435704 0 0.13928587515912139 0.57339806105677438 0 0.26452443700674649 0.51563531581639865 0 0.27589467050686478 0.66058853156435704 0 0.14929124186975251 0.44582793568106382 0 0.13928587515912139 0.57339806105677438 0 0.26452443700674649 0.51563531581639865 0 0 1 0 0.12710107136012311 0.87094806618203435 0 0.1875000000005205 1 0 0 1 0 0 0.81250000000104083 0 0.12710107136012311 0.87094806618203435 0 0.13900789599611679 0.72618316107059999 0 0 0.81250000000104083 0 0.12710107136012311 0.87094806618203435 0 0.13900789599611679 0.72618316107059999 0 0.12710107136012311 0.87094806618203435 0 0.27987960212930818 0.83442741470570525 0 0.12710107136012311 0.87094806618203435 0 0.1875000000005205 1 0 0.27987960212930818 0.83442741470570525 0 0.27987960212930818 0.83442741470570525 0 0.44927105396715372 0.85565124085155886 0 0.37500000000069389 1 0 0.1875000000005205 1 0 0.27987960212930818 0.83442741470570525 0 0.37500000000069389 1 0 0.27987960212930818 0.83442741470570525 0 0.44927105396715372 0.85565124085155886 0 0.38136204680495073 0.74038592213831234 0 0.44927105396715372 0.85565124085155886 0 0.38136204680495073 0.74038592213831234 0 0.50145856933078625 0.73674663046504862 0 0.44927105396715372 0.85565124085155886 0 0.37500000000069389 1 0 0.56250000000086742 1 0 0.26452443700674649 0.51563531581639865 0 0.27589467050686478 0.66058853156435704 0 0.4139414069912184 0.60563252640100373 0 0.37499999999973488 0.43749999999986738 0 0.26452443700674649 0.51563531581639865 0 0.4139414069912184 0.60563252640100373 0 0.27987960212930818 0.83442741470570525 0 0.27589467050686478 0.66058853156435704 0 0.38136204680495073 0.74038592213831234 0 0.27589467050686478 0.66058853156435704 0 0.38136204680495073 0.74038592213831234 0 0.4139414069912184 0.60563252640100373 0 0.38136204680495073 0.74038592213831234 0 0.4139414069912184 0.60563252640100373 0 0.50145856933078625 0.73674663046504862 0 0.4139414069912184 0.60563252640100373 0 0.50145856933078625 0.73674663046504862 0 0.5625 0.625 0 0.37499999999973488 0.43749999999986738 0 0.4139414069912184 0.60563252640100373 0 0.5 0.5 -0 0.4139414069912184 0.60563252640100373 0 0.5 0.5 -0 0.5625 0.625 0 0.5 0.5 -0 0.5625 0.625 0 0.63236534182377013 0.50296756406332266 0 0.5 0.5 -0 0.5625 0.625 0 0.50145856933078625 0.73674663046504862 0 0.5625 0.625 0 0.625 0.75 0 0.5625 0.625 0 0.625 0.75 0 0.71259747807844409 0.63846691315701831 0 0.625 0.75 0 0.73857795170433571 0.77736788564284653 0 0.5625 0.625 0 0.71259747807844409 0.63846691315701831 0 0.625 0.75 0 0.71259747807844409 0.63846691315701831 0 0.63236534182377013 0.50296756406332266 0 0.75338430262320943 0.49294443423175599 0 0.5625 0.625 0 0.71259747807844409 0.63846691315701831 0 0.63236534182377013 0.50296756406332266 0 0.56250000000086742 1 0 0.56777512057187585 0.8470224641095303 0 0.6875 0.875 0 0.44927105396715372 0.85565124085155886 0 0.56250000000086742 1 0 0.56777512057187585 0.8470224641095303 0 0.44927105396715372 0.85565124085155886 0 0.50145856933078625 0.73674663046504862 0 0.56777512057187585 0.8470224641095303 0 0.50145856933078625 0.73674663046504862 0 0.56777512057187585 0.8470224641095303 0 0.625 0.75 0 0.625 0.75 0 0.73857795170433571 0.77736788564284653 0 0.6875 0.875 0 0.73857795170433571 0.77736788564284653 0 0.6875 0.875 0 0.80552984491000901 0.88711122872127413 0 0.625 0.75 0 0.6875 0.875 0 0.56777512057187585 0.8470224641095303 0 0.625 0.75 0 0.6875 0.875 0 0.56250000000086742 1 0 0.6875 0.875 0 0.75 1 0 0.6875 0.875 0 0.75 1 0 0.80552984491000901 0.88711122872127413 0 0.6875 0.875 0 0.75 1 0 0.75 1 0 0.80552984491000901 0.88711122872127413 0 0.875 1 0 0.80552984491000901 0.88711122872127413 0 0.90637953422180084 0.90208583328057301 0 0.875 1 0 0.80552984491000901 0.88711122872127413 0 0.85787927391517405 0.753532520882502 0 0.90637953422180084 0.90208583328057301 0 0.73857795170433571 0.77736788564284653 0 0.80552984491000901 0.88711122872127413 0 0.85787927391517405 0.753532520882502 0 0.85787927391517405 0.753532520882502 0 1 0.83333333333356463 0 1 0.66666666666736052 0 0.85787927391517405 0.753532520882502 0 1 0.83333333333356463 0 0.90637953422180084 0.90208583328057301 0 1 0.83333333333356463 0 0.90637953422180084 0.90208583328057301 0 1 1 0 0.90637953422180084 0.90208583328057301 0 1 1 0 0.875 1 0 0.71259747807844409 0.63846691315701831 0 0.86127466977819722 0.57948076978797636 0 0.75338430262320943 0.49294443423175599 0 0.71259747807844409 0.63846691315701831 0 0.85787927391517405 0.753532520882502 0 0.86127466977819722 0.57948076978797636 0 0.71259747807844409 0.63846691315701831 0 0.73857795170433571 0.77736788564284653 0 0.85787927391517405 0.753532520882502 0 0.85787927391517405 0.753532520882502 0 0.86127466977819722 0.57948076978797636 0 1 0.66666666666736052 0 0.86127466977819722 0.57948076978797636 0 1 0.66666666666736052 0 1 0.50000000000138767 0 1 0.50000000000138767 0 0.86569408477091048 0.40983673916766611 0 1 0.33333333333448978 0 0.86127466977819722 0.57948076978797636 0 1 0.50000000000138767 0 0.86569408477091048 0.40983673916766611 0 0.86127466977819722 0.57948076978797636 0 0.75338430262320943 0.49294443423175599 0 0.86569408477091048 0.40983673916766611 0 0.75338430262320943 0.49294443423175599 0 0.86569408477091048 0.40983673916766611 0 0.71826039492840632 0.34564020717216182 0 0.86087286690217635 0.25206523597959418 0 0.71508993406183785 0.15715956854777599 0 0.71826039492840632 0.34564020717216182 0 0.86569408477091048 0.40983673916766611 0 0.86087286690217635 0.25206523597959418 0 0.71826039492840632 0.34564020717216182 0 0.86087286690217635 0.25206523597959418 0 1 0.33333333333448978 0 1 0.16666666666736049 0 0.86569408477091048 0.40983673916766611 0 0.86087286690217635 0.25206523597959418 0 1 0.33333333333448978 0 0.86087286690217635 0.25206523597959418 0 1 0.16666666666736049 0 0.87698901648812122 0.1160638338657984 0 1 0 0 0.87698901648812122 0.1160638338657984 0 0.81249999999947953 0 0 1 0.16666666666736049 0 1 0 0 0.87698901648812122 0.1160638338657984 0 0.87698901648812122 0.1160638338657984 0 0.81249999999947953 0 0 0.71508993406183785 0.15715956854777599 0 0.86087286690217635 0.25206523597959418 0 0.87698901648812122 0.1160638338657984 0 0.71508993406183785 0.15715956854777599 0 0.71508993406183785 0.15715956854777599 0 0.62499999999895905 0 0 0.54475767668582953 0.1431838882066932 0 0.81249999999947953 0 0 0.71508993406183785 0.15715956854777599 0 0.62499999999895905 0 0 0.43749999999913258 0 0 0.62499999999895905 0 0 0.54475767668582953 0.1431838882066932 0 0.71508993406183785 0.15715956854777599 0 0.54475767668582953 0.1431838882066932 0 0.61108462585082757 0.25750599582343231 0 0.49457493289300231 0.26251703776555491 0 0.54475767668582953 0.1431838882066932 0 0.61108462585082757 0.25750599582343231 0 0.49457493289300231 0.26251703776555491 0 0.61108462585082757 0.25750599582343231 0 0.56986707178436635 0.37762093650871992 0 0.43750000000006939 0.37500000000013878 0 0.49457493289300231 0.26251703776555491 0 0.56986707178436635 0.37762093650871992 0 0.43750000000006939 0.37500000000013878 0 0.5 0.5 -0 0.56986707178436635 0.37762093650871992 0 0.5 0.5 -0 0.63236534182377013 0.50296756406332266 0 0.56986707178436635 0.37762093650871992 0 0.63236534182377013 0.50296756406332266 0 0.75338430262320943 0.49294443423175599 0 0.71826039492840632 0.34564020717216182 0 0.63236534182377013 0.50296756406332266 0 0.56986707178436635 0.37762093650871992 0 0.71826039492840632 0.34564020717216182 0 0.71508993406183785 0.15715956854777599 0 0.61108462585082757 0.25750599582343231 0 0.71826039492840632 0.34564020717216182 0 0.61108462585082757 0.25750599582343231 0 0.56986707178436635 0.37762093650871992 0 0.71826039492840632 0.34564020717216182 0 
</DataArray>
</Points>
<Cells>
<DataArray type="UInt32" Name="connectivity" format="ascii">
0 1 2 3 4 5 6 7 8 9 10 11 12 13 14 15 16 17 18 19 20 21 22 23 24 25 26 27 28 29 30 31 32 33 34 35 36 37 38 39 40 41 42 43 44 45 46 47 48 49 50 51 52 53 54 55 56 57 58 59 60 61 62 63 64 65 66 67 68 69 70 71 72 73 74 75 76 77 78 79 80 81 82 83 84 85 86 87 88 89 90 91 92 93 94 95 96 97 98 99 100 101 102 103 104 105 106 107 108 109 110 111 112 113 114 115 116 117 118 119 120 121 122 123 124 125 126 127 128 129 130 131 132 133 134 135 136 137 138 139 140 141 142 143 144 145 146 147 148 149 150 151 152 153 154 155 156 157 158 159 160 161 162 163 164 165 166 167 168 169 170 171 172 173 174 175 176 177 178 179 180 181 182 183 184 185 186 187 188 189 190 191 192 193 194 195 196 197 198 199 200 201 202 203 204 205 206 207 208 209 210 211 212 213 214 215 216 217 218 219 220 221 222 223 224 225 226 227 228 229 230 231 232 233 234 235 236 237 238 239 240 241 242 243 244 245 246 247 248 249 250 251 252 253 254 255 256 257 258 259 260 261 262 263 264 265 266 267 268 269 270 271 272 273 274 275 276 277 278 279 280 281 282 283 284 285 286 287 288 289 290 291 292 293 294 295 296 297 298 299 300 301 302 303 304 305 306 307 308 309 310 311 312 313 314 315 316 317 318 319 320 321 322 323 324 325 326 327 328 329 330 331 332 333 334 335 336 337 338 339 340 341 342 343 344 345 346 347 348 349 350 351 352 353 354 355 356 357 358 359 
</DataArray>
<DataArray type="UInt32" Name="offsets" format="ascii">
3 6 9 12 15 18 21 24 27 30 33 35 38 41 43 46 49 52 55 58 60 63 66 68 71 73 76 79 82 85 87 90 93 96 99 101 104 107 109 112 115 118 121 124 127 130 133 136 139 142 145 148 151 154 157 160 163 166 169 172 175 178 181 184 187 190 193 195 198 200 203 206 209 212 215 218 221 224 227 230 232 235 238 241 243 246 249 252 255 258 261 264 267 270 273 276 279 282 285 288 291 294 297 300 303 306 309 312 315 318 321 324 327 330 333 336 339 342 345 348 351 354 357 360 
</DataArray>
<DataArray type="UInt32" Name="types" format="ascii">
5 5 5 5 5 5 5 5 5 5 5 3 5 5 3 5 5 5 5 5 3 5 5 3 5 3 5 5 5 5 3 5 5 5 5 3 5 5 3 5 5 5 5 5 5 5 5 5 5 5 5 5 5 5 5 5 5 5 5 5 5 5 5 5 5 5 5 3 5 3 5 5 5 5 5 5 5 5 5 5 3 5 5 5 3 5 5 5 5 5 5 5 5 5 5 5 5 5 5 5 5 5 5 5 5 5 5 5 5 5 5 5 5 5 5 5 5 5 5 5 5 5 5 5 
</DataArray>
</Cells>
<PointData Scalars="" Vectors="displacement," Tensors="">
<DataArray type="Float64" Name="displacement" NumberOfComponents="3" format="ascii">
4.7848752821659662e-07 -0.057871651412672864 0 -0.00071519600464802261 -0.056977948810630938 0 -1.8901681400833736e-07 -0.057654599215162257 0 4.7848752821659662e-07 -0.057871651412672864 0 -0.00071519600464802261 -0.056977948810630938 0 0.00053882182798668701 -0.056255827999072347 0 -1.8901681400833736e-07 -0.057654599215162257 0 -0.0023597275020986381 -0.056411063776805749 0 -9.6297253151292944e-06 -0.057220469291217949 0 -0.00071519600464802261 -0.056977948810630938 0 -1.8901681400833736e-07 -0.057654599215162257 0 -0.0023597275020986381 -0.056411063776805749 0 -0.00071519600464802261 -0.056977948810630938 0 -0.0023597275020986381 -0.056411063776805749 0 -0.0022239495397812395 -0.054520936181469665 0 -0.0023597275020986381 -0.056411063776805749 0 -0.0072130860649156419 -0.05208774827333891 0 -0.0074088752316940742 -0.054730308433487307 0 -0.0023597275020986381 -0.056411063776805749 0 -0.0072130860649156419 -0.05208774827333891 0 -0.0022239495397812395 -0.054520936181469665 0 -0.0072130860649156419 -0.05208774827333891 0 -0.0022239495397812395 -0.054520936181469665 0 -0.004213579297910097 -0.049362086724989665 0 0.00053882182798668701 -0.056255827999072347 0 -0.0022239495397812395 -0.054520936181469665 0 0.00028840733098930369 -0.052311413608039585 0 -0.0022239495397812395 -0.054520936181469665 0 0.00028840733098930369 -0.052311413608039585 0 -0.004213579297910097 -0.049362086724989665 0 -0.00071519600464802261 -0.056977948810630938 0 0.00053882182798668701 -0.056255827999072347 0 -0.0022239495397812395 -0.054520936181469665 0 0.010822031657497356 -0.04207423953477691 0 0.0057548783865757026 -0.03879938120296126 0 0.021203929822455312 -0.031857045617892751 0 0.015763125422601217 -0.028281225473519082 0 0.018747954261908509 -0.022949754926801059 0 -0.0072130860649156419 -0.05208774827333891 0 -0.004213579297910097 -0.049362086724989665 0 -0.0097580683997584988 -0.046860835632518853 0 0.0057548783865757026 -0.03879938120296126 0 0.0011881082213509042 -0.035771982124142863 0 0.015763125422601217 -0.028281225473519082 0 0.013356227305036342 -0.022555592719282192 0 0.012119940537663831 -0.024481494014040987 0 0.013356227305036342 -0.022555592719282192 0 0.0097277446334423177 -0.018603122753952327 0 0.012119940537663831 -0.024481494014040987 0 0.013356227305036342 -0.022555592719282192 0 0.0097277446334423177 -0.018603122753952327 0 0.01161096261921723 -0.017321674147232166 0 0.015763125422601217 -0.028281225473519082 0 0.013356227305036342 -0.022555592719282192 0 0.018747954261908509 -0.022949754926801059 0 0.013356227305036342 -0.022555592719282192 0 0.018747954261908509 -0.022949754926801059 0 0.01161096261921723 -0.017321674147232166 0 -0.01103536467603069 -0.043044460972194526 0 -0.0047061792383065112 -0.032156294618160754 0 -0.013835680948640855 -0.045850170504615241 0 -0.014881169236478919 -0.048357408248652804 0 -0.017075709044276001 -0.044787937633671608 0 -0.013835680948640855 -0.045850170504615241 0 -0.011774774177573838 -0.04875655190536117 0 -0.014881169236478919 -0.048357408248652804 0 -0.0026504972922903641 -0.032538939066347888 0 -0.0047061792383065112 -0.032156294618160754 0 0.0085350136080764114 -0.019981328454421375 0 0.0097277446334423177 -0.018603122753952327 0 0.012119940537663831 -0.024481494014040987 0 -0.0026504972922903641 -0.032538939066347888 0 0.0011881082213509042 -0.035771982124142863 0 -0.013835680948640855 -0.045850170504615241 0 -0.0097580683997584988 -0.046860835632518853 0 -0.011774774177573838 -0.04875655190536117 0 -0.0072130860649156419 -0.05208774827333891 0 -0.011774774177573838 -0.04875655190536117 0 -0.011780489184448614 -0.05198417290186453 0 -0.0072130860649156419 -0.05208774827333891 0 -0.0097580683997584988 -0.046860835632518853 0 -0.011774774177573838 -0.04875655190536117 0 -0.011774774177573838 -0.04875655190536117 0 -0.014881169236478919 -0.048357408248652804 0 -0.011780489184448614 -0.05198417290186453 0 -0.01103536467603069 -0.043044460972194526 0 -0.0058519883295451783 -0.044634866904529641 0 -0.0033026687452013775 -0.034610343877739688 0 -0.00097728881110403288 -0.038133817933729407 0 -0.0035898362209988255 -0.038438040944918442 0 -0.0014453640887632626 -0.041038779227096006 0 -0.00097728881110403288 -0.038133817933729407 0 -0.0035898362209988255 -0.038438040944918442 0 -0.0014453640887632626 -0.041038779227096006 0 -0.00097728881110403288 -0.038133817933729407 0 0.00028589760010720093 -0.041727538079341785 0 -0.0072130860649156419 -0.05208774827333891 0 -0.011780489184448614 -0.05198417290186453 0 -0.0074088752316940742 -0.054730308433487307 0 -0.0058519883295451783 -0.044634866904529641 0 -0.0037345883635712578 -0.048361725989161088 0 0.00028589760010720093 -0.041727538079341785 0 1.3408329521122554e-06 -0.042167891700486598 0 -1.529387500971917e-06 -0.042599312608660796 0 -0.0023597275020986381 -0.056411063776805749 0 -0.0074088752316940742 -0.054730308433487307 0 -9.6297253151292944e-06 -0.057220469291217949 0 -0.0037345883635712578 -0.048361725989161088 0 0.00012626785182173362 -0.049586368523075207 0 -0.0014453640887632626 -0.041038779227096006 0 -1.529387500971917e-06 -0.042599312608660796 0 -0.0022778875594018149 -0.041260709067886522 0 -0.0014453640887632626 -0.041038779227096006 0 0.00028589760010720093 -0.041727538079341785 0 -1.529387500971917e-06 -0.042599312608660796 0 -1.529387500971917e-06 -0.042599312608660796 0 -3.6719837384885257e-06 -0.042201591794966659 0 -0.0022778875594018149 -0.041260709067886522 0 -3.6719837384885257e-06 -0.042201591794966659 0 -0.0030854791019536264 -0.041330701176937212 0 -0.0022778875594018149 -0.041260709067886522 0 -3.6719837384885257e-06 -0.042201591794966659 0 -0.0030854791019536264 -0.041330701176937212 0 -4.5238341533541228e-06 -0.042233044912845442 0 -0.0030854791019536264 -0.041330701176937212 0 -0.0022778875594018149 -0.041260709067886522 0 -0.0054356433738783081 -0.038539469416044261 0 -0.0030854791019536264 -0.041330701176937212 0 -0.0070681855397676354 -0.038967699241901931 0 -0.0054356433738783081 -0.038539469416044261 0 -0.0022778875594018149 -0.041260709067886522 0 -0.0035898362209988255 -0.038438040944918442 0 -0.0054356433738783081 -0.038539469416044261 0 -0.0014453640887632626 -0.041038779227096006 0 -0.0022778875594018149 -0.041260709067886522 0 -0.0035898362209988255 -0.038438040944918442 0 -7.3147153280863992e-06 -0.042571749802469451 0 -0.0035127466742727164 -0.041643364310355292 0 -0.0065943007192373381 -0.040984806677910442 0 -7.3147153280863992e-06 -0.042571749802469451 0 -4.5238341533541228e-06 -0.042233044912845442 0 -0.0035127466742727164 -0.041643364310355292 0 -0.0030854791019536264 -0.041330701176937212 0 -4.5238341533541228e-06 -0.042233044912845442 0 -0.0035127466742727164 -0.041643364310355292 0 -0.0030854791019536264 -0.041330701176937212 0 -0.0035127466742727164 -0.041643364310355292 0 -0.0070681855397676354 -0.038967699241901931 0 -0.0035127466742727164 -0.041643364310355292 0 -0.0065943007192373381 -0.040984806677910442 0 -0.0070681855397676354 -0.038967699241901931 0 -0.0070681855397676354 -0.038967699241901931 0 -0.011157431691410671 -0.034659505203387161 0 -0.012150366408000624 -0.037216223515026035 0 -0.0065943007192373381 -0.040984806677910442 0 -0.0070681855397676354 -0.038967699241901931 0 -0.012150366408000624 -0.037216223515026035 0 -0.0070681855397676354 -0.038967699241901931 0 -0.011157431691410671 -0.034659505203387161 0 -0.0082671288488915026 -0.036026460650593478 0 -0.011157431691410671 -0.034659505203387161 0 -0.0082671288488915026 -0.036026460650593478 0 -0.010459368031922435 -0.032454202054511883 0 -0.011157431691410671 -0.034659505203387161 0 -0.012150366408000624 -0.037216223515026035 0 -0.016475849436591233 -0.03217393634023747 0 -0.0035898362209988255 -0.038438040944918442 0 -0.0054356433738783081 -0.038539469416044261 0 -0.0073036447694059476 -0.034427659907917164 0 -0.0033026687452013775 -0.034610343877739688 0 -0.0035898362209988255 -0.038438040944918442 0 -0.0073036447694059476 -0.034427659907917164 0 -0.0070681855397676354 -0.038967699241901931 0 -0.0054356433738783081 -0.038539469416044261 0 -0.0082671288488915026 -0.036026460650593478 0 -0.0054356433738783081 -0.038539469416044261 0 -0.0082671288488915026 -0.036026460650593478 0 -0.0073036447694059476 -0.034427659907917164 0 -0.0082671288488915026 -0.036026460650593478 0 -0.0073036447694059476 -0.034427659907917164 0 -0.010459368031922435 -0.032454202054511883 0 -0.0073036447694059476 -0.034427659907917164 0 -0.010459368031922435 -0.032454202054511883 0 -0.010326251451689746 -0.0299021192176392 0 -0.0033026687452013775 -0.034610343877739688 0 -0.0073036447694059476 -0.034427659907917164 0 -0.0068377641523355752 -0.031162505785121541 0 -0.0073036447694059476 -0.034427659907917164 0 -0.0068377641523355752 -0.031162505785121541 0 -0.010326251451689746 -0.0299021192176392 0 0.0076561947524326065 -0.01670080464005505 0 0.0072074147925302069 -0.014160919648319338 0 0.0056436001481968917 -0.012244088109002384 0 -0.0047061792383065112 -0.032156294618160754 0 -0.00018476044787355707 -0.019826041937626895 0 -0.010459368031922435 -0.032454202054511883 0 -0.010326251451689746 -0.0299021192176392 0 -0.01264753129108509 -0.029021805882793024 0 -0.00018476044787355707 -0.019826041937626895 0 -0.0039202199089275495 -0.020860675300312586 0 0.0044211393143045227 -0.0089630087449216259 0 0.0055534518062950239 -0.011510306845840153 0 0.0036931747299764591 -0.0077884856461345612 0 0.0072074147925302069 -0.014160919648319338 0 0.0044211393143045227 -0.0089630087449216259 0 0.0055534518062950239 -0.011510306845840153 0 0.0044211393143045227 -0.0089630087449216259 0 0.0056436001481968917 -0.012244088109002384 0 0.0037856448569108182 -0.007867221600439258 0 0.0072074147925302069 -0.014160919648319338 0 0.0044211393143045227 -0.0089630087449216259 0 0.0056436001481968917 -0.012244088109002384 0 -0.016475849436591233 -0.03217393634023747 0 -0.013262817527323464 -0.031206936281943709 0 -0.015925979053323384 -0.027775357460837351 0 -0.011157431691410671 -0.034659505203387161 0 -0.016475849436591233 -0.03217393634023747 0 -0.013262817527323464 -0.031206936281943709 0 -0.011157431691410671 -0.034659505203387161 0 -0.010459368031922435 -0.032454202054511883 0 -0.013262817527323464 -0.031206936281943709 0 -0.010459368031922435 -0.032454202054511883 0 -0.013262817527323464 -0.031206936281943709 0 -0.01264753129108509 -0.029021805882793024 0 0.0055534518062950239 -0.011510306845840153 0 0.0036931747299764591 -0.0077884856461345612 0 0.0039292653094951634 -0.0094236251295462745 0 0.0036931747299764591 -0.0077884856461345612 0 0.0039292653094951634 -0.0094236251295462745 0 0.0019425236874337768 -0.005094657096451672 0 -0.0039202199089275495 -0.020860675300312586 0 -0.0058723123020895437 -0.018424024610412721 0 -0.013262817527323464 -0.031206936281943709 0 -0.01264753129108509 -0.029021805882793024 0 -0.015925979053323384 -0.027775357460837351 0 -0.016475849436591233 -0.03217393634023747 0 -0.015925979053323384 -0.027775357460837351 0 -0.019268636599427656 -0.027041276464066684 0 0.0039292653094951634 -0.0094236251295462745 0 0.00030551270373254763 -0.0067834450234502738 0 0.0019425236874337768 -0.005094657096451672 0 -0.0058723123020895437 -0.018424024610412721 0 -0.0096078507679374248 -0.017022407117831862 0 0.00030551270373254763 -0.0067834450234502738 0 0.0019425236874337768 -0.005094657096451672 0 -0.00059366447522360844 -0.0027346870658356221 0 0.0019425236874337768 -0.005094657096451672 0 0.00067456053120285269 -0.0019800156098727867 0 -0.00059366447522360844 -0.0027346870658356221 0 0.0019425236874337768 -0.005094657096451672 0 0.0019613717220011884 -0.0038086190266460531 0 0.00067456053120285269 -0.0019800156098727867 0 0.0036931747299764591 -0.0077884856461345612 0 0.0019425236874337768 -0.005094657096451672 0 0.0019613717220011884 -0.0038086190266460531 0 0.0019613717220011884 -0.0038086190266460531 0 2.2508769607026106e-06 -9.4010500221387597e-07 0 2.2223473901324625e-06 -1.6328756807487802e-06 0 0.0019613717220011884 -0.0038086190266460531 0 2.2508769607026106e-06 -9.4010500221387597e-07 0 0.00067456053120285269 -0.0019800156098727867 0 2.2508769607026106e-06 -9.4010500221387597e-07 0 0.00067456053120285269 -0.0019800156098727867 0 -2.1958906112833126e-06 -4.7153131282583683e-07 0 0.00067456053120285269 -0.0019800156098727867 0 -2.1958906112833126e-06 -4.7153131282583683e-07 0 -0.00059366447522360844 -0.0027346870658356221 0 0.0044211393143045227 -0.0089630087449216259 0 0.0020835524848059873 -0.004113102018180147 0 0.0037856448569108182 -0.007867221600439258 0 0.0044211393143045227 -0.0089630087449216259 0 0.0019613717220011884 -0.0038086190266460531 0 0.0020835524848059873 -0.004113102018180147 0 0.0044211393143045227 -0.0089630087449216259 0 0.0036931747299764591 -0.0077884856461345612 0 0.0019613717220011884 -0.0038086190266460531 0 0.0019613717220011884 -0.0038086190266460531 0 0.0020835524848059873 -0.004113102018180147 0 2.2223473901324625e-06 -1.6328756807487802e-06 0 0.0020835524848059873 -0.004113102018180147 0 2.2223473901324625e-06 -1.6328756807487802e-06 0 2.4518289801207052e-06 -1.6083147371598435e-06 0 2.4518289801207052e-06 -1.6083147371598435e-06 0 0.00214754623779928 -0.0040608040188948816 0 3.2655369483321878e-06 -1.6455660289681665e-06 0 0.0020835524848059873 -0.004113102018180147 0 2.4518289801207052e-06 -1.6083147371598435e-06 0 0.00214754623779928 -0.0040608040188948816 0 0.0020835524848059873 -0.004113102018180147 0 0.0037856448569108182 -0.007867221600439258 0 0.00214754623779928 -0.0040608040188948816 0 0.0037856448569108182 -0.007867221600439258 0 0.00214754623779928 -0.0040608040188948816 0 0.0047722779302160597 -0.0093637869296530583 0 0.0028753237378943393 -0.0041892428774228828 0 0.0073625896935369936 -0.010221282359250489 0 0.0047722779302160597 -0.0093637869296530583 0 0.00214754623779928 -0.0040608040188948816 0 0.0028753237378943393 -0.0041892428774228828 0 0.0047722779302160597 -0.0093637869296530583 0 0.0028753237378943393 -0.0041892428774228828 0 3.2655369483321878e-06 -1.6455660289681665e-06 0 2.757759380966809e-06 -5.8329977711058748e-07 0 0.00214754623779928 -0.0040608040188948816 0 0.0028753237378943393 -0.0041892428774228828 0 3.2655369483321878e-06 -1.6455660289681665e-06 0 0.0028753237378943393 -0.0041892428774228828 0 2.757759380966809e-06 -5.8329977711058748e-07 0 0.0036532362961795989 -0.0039760197946381148 0 1.1252755867269044e-05 -4.2081462347713813e-06 0 0.0036532362961795989 -0.0039760197946381148 0 0.0089035554168422106 -0.0079265728574730542 0 2.757759380966809e-06 -5.8329977711058748e-07 0 1.1252755867269044e-05 -4.2081462347713813e-06 0 0.0036532362961795989 -0.0039760197946381148 0 0.0036532362961795989 -0.0039760197946381148 0 0.0089035554168422106 -0.0079265728574730542 0 0.0073625896935369936 -0.010221282359250489 0 0.0028753237378943393 -0.0041892428774228828 0 0.0036532362961795989 -0.0039760197946381148 0 0.0073625896935369936 -0.010221282359250489 0 0.0073625896935369936 -0.010221282359250489 0 0.014522828939141424 -0.015087855173697845 0 0.01161096261921723 -0.017321674147232166 0 0.0089035554168422106 -0.0079265728574730542 0 0.0073625896935369936 -0.010221282359250489 0 0.014522828939141424 -0.015087855173697845 0 0.018747954261908509 -0.022949754926801059 0 0.014522828939141424 -0.015087855173697845 0 0.01161096261921723 -0.017321674147232166 0 0.0073625896935369936 -0.010221282359250489 0 0.01161096261921723 -0.017321674147232166 0 0.007831162445957664 -0.013807612232328884 0 0.0097277446334423177 -0.018603122753952327 0 0.01161096261921723 -0.017321674147232166 0 0.007831162445957664 -0.013807612232328884 0 0.0097277446334423177 -0.018603122753952327 0 0.007831162445957664 -0.013807612232328884 0 0.0068165081418242804 -0.014883445470788988 0 0.0085350136080764114 -0.019981328454421375 0 0.0097277446334423177 -0.018603122753952327 0 0.0068165081418242804 -0.014883445470788988 0 0.0085350136080764114 -0.019981328454421375 0 0.0076561947524326065 -0.01670080464005505 0 0.0068165081418242804 -0.014883445470788988 0 0.0076561947524326065 -0.01670080464005505 0 0.0056436001481968917 -0.012244088109002384 0 0.0068165081418242804 -0.014883445470788988 0 0.0056436001481968917 -0.012244088109002384 0 0.0037856448569108182 -0.007867221600439258 0 0.0047722779302160597 -0.0093637869296530583 0 0.0056436001481968917 -0.012244088109002384 0 0.0068165081418242804 -0.014883445470788988 0 0.0047722779302160597 -0.0093637869296530583 0 0.0073625896935369936 -0.010221282359250489 0 0.007831162445957664 -0.013807612232328884 0 0.0047722779302160597 -0.0093637869296530583 0 0.007831162445957664 -0.013807612232328884 0 0.0068165081418242804 -0.014883445470788988 0 0.0047722779302160597 -0.0093637869296530583 0 
</DataArray>
</PointData>
<CellData Scalars="region_id,cross_section_updated,normal_displacement_jump,tangential_displacement_jump," Vectors="" Tensors="stress,">
<DataArray type="Float64" Name="region_id" format="ascii">
11 11 11 11 11 11 11 11 11 11 11 5 11 11 5 11 11 11 11 11 6 11 11 5 11 5 11 11 11 11 6 11 11 11 11 6 11 11 6 11 11 11 11 11 11 11 11 11 11 11 11 11 11 11 11 11 11 11 11 11 11 11 11 11 11 11 11 4 11 4 11 11 11 11 11 11 11 11 11 11 4 11 11 11 4 11 11 11 11 11 11 11 11 11 11 11 11 11 11 11 11 11 11 11 11 11 11 11 11 11 11 11 11 11 11 11 11 11 11 11 11 11 11 11 
</DataArray>
<DataArray type="Float64" Name="stress" NumberOfComponents="9" format="ascii">
-9480071.4954222143 3523957.5316471159 0 3523957.5316471159 -1307845.0797221661 0 0 0 -2696979.1437860727 4258055.8078874946 178442.279507339 0 178442.279507339 -1007422.0921013951 0 0 0 812658.42894655466 -26638346.018863112 4023693.1854075044 0 4023693.1854075044 -5174873.3219525814 0 0 0 -7953304.8352039456 -16097185.511312902 -1544417.175894171 0 -1544417.175894171 -1146688.5490171909 0 0 0 -4310968.5150825083 -13185052.742863864 4011922.2258307338 0 4011922.2258307338 -2646441.0714502633 0 0 0 -3957873.4535785317 -21707715.514578283 -3553991.1149400175 0 -3553991.1149400175 1446913.4815092087 0 0 0 -5065200.5082673132 -26497788.253406137 286448.77964089811 0 286448.77964089811 -2090025.1876529455 0 0 0 -7146953.3602647483 -13934563.368508816 2763118.5952867866 0 2763118.5952867866 -3186495.8655707538 0 0 0 -4280264.80851987 -2861297.7925812155 3154790.61219877 0 3154790.61219877 -2173282.2546231747 0 0 0 -1258645.0118010938 -13406343.461666003 3984199.2082817852 0 3984199.2082817852 -513106.66997733712 0 0 0 -3479862.5329108536 -11127431.827039123 1839230.1905935407 0 1839230.1905935407 -624163.1959220767 0 0 0 -2937898.7557402849 18218.973878320921 3763.7555980207526 0 3763.7555980207526 -3811.3825858458913 0 0 0 3601.8978231187557 -13776729.19615636 4211353.3262037858 0 4211353.3262037858 585128.64505681396 0 0 0 -3297900.1377748922 -19839554.28807804 1122209.9679751992 0 1122209.9679751992 -5958603.9928433895 0 0 0 -6449539.5702303499 18564.611407184711 4022.9821771316747 0 4022.9821771316747 -4156.9923994282653 0 0 0 3601.9047519391106 -15621003.203140795 10407748.767081052 0 10407748.767081052 1856041.0786454082 0 0 0 -3441240.5311238468 -18289769.010975488 10215387.344127506 0 10215387.344127506 1485817.9229233861 0 0 0 -4200987.772013016 -17334771.771151178 9165986.0501626208 0 9165986.0501626208 3390418.9369621873 0 0 0 -3486088.2085472494 -11897306.534123644 4943339.2862884905 0 4943339.2862884905 1633649.8233827949 0 0 0 -2565914.1776852012 -20238762.132072825 3881217.3209966719 0 3881217.3209966719 -1283033.4027332999 0 0 0 -5380448.8837015368 -894.88061057362484 1490.3489651464488 0 1490.3489651464488 12796.314019886617 0 0 0 2975.3583523282487 -10436606.790234327 3821209.5477703959 0 3821209.5477703959 -11699341.096955895 0 0 0 -5533986.9717975855 -15907685.281598151 1941926.2675013244 0 1941926.2675013244 -13745395.726602077 0 0 0 -7413270.252050072 20445.02347193614 5434.1810049260639 0 5434.1810049260639 -6051.6309755475086 0 0 0 3598.3481240971578 -16710636.132853985 11276389.659080684 0 11276389.659080684 7285074.8939045817 0 0 0 -2356390.3097373396 19424.433749084616 4667.484585757511 0 4667.484585757511 -5010.9811469286451 0 0 0 3603.3631505389922 -15975237.050715923 1976759.9041066766 0 1976759.9041066766 -13898640.811110973 0 0 0 -7468469.4654566944 -17329085.451655149 1011197.9798646271 0 1011197.9798646271 -7706835.7260097861 0 0 0 -6258980.294416219 -22582008.144330055 3655434.0070134662 0 3655434.0070134662 -13031821.465534806 0 0 0 -8903457.4024662077 -16805843.634639755 2414128.0262856781 0 2414128.0262856781 -14418944.477136552 0 0 0 -7806197.0279440731 -1106.6367093365407 1532.8088584649895 0 1532.8088584649895 12801.286886881746 0 0 0 2923.6625443863049 -13926486.82493636 5320298.919297561 0 5320298.919297561 -10349538.780702293 0 0 0 -6069006.4014096558 -11334194.706660837 3082889.8994079679 0 3082889.8994079679 -8891711.939872086 0 0 0 -5056476.6616332233 -4801852.1440455168 6611460.194609344 0 6611460.194609344 -1685193.4181408882 0 0 0 -1621761.390546605 -22516139.287060507 -4235832.0975877345 0 -4235832.0975877345 -8399716.1757192239 0 0 0 -7728963.8656949475 -171.38522571622343 914.03198475666431 0 914.03198475666431 12765.280844610781 0 0 0 3148.473904723638 1820565.0660406947 1863190.7527511567 0 1863190.7527511567 -1847450.5889284611 0 0 0 -6721.3807219415903 -47275110.624980472 -7153355.3434590697 0 -7153355.3434590697 -4293398.4315258712 0 0 0 -12892127.264126562 2922.9414531978855 -1132.7081335660059 0 -1132.7081335660059 14361.675826841194 0 0 0 4321.1543200097658 -11486347.584809989 1300495.8484772118 0 1300495.8484772118 -4805672.654889822 0 0 0 -4073005.0599249154 -9528558.7307391241 -427621.35942134261 0 -427621.35942134261 338424.75900813937 0 0 0 -2297533.4929327443 -18749828.365291856 3011785.5436450839 0 3011785.5436450839 -3987353.2705303365 0 0 0 -5684295.4089555666 -22136375.888551503 508271.72986319661 0 508271.72986319661 -7854651.9066809416 0 0 0 -7497756.9488081038 -26667149.432991497 2553042.1624397561 0 2553042.1624397561 -9067983.1038183272 0 0 0 -8933783.1342024803 -23831064.682878934 5946884.3548572958 0 5946884.3548572958 -8393156.2723332737 0 0 0 -8056055.2388030374 -26879611.721018896 4040743.9333816618 0 4040743.9333816618 -12052083.415474832 0 0 0 -9732923.7841234207 -19886062.405573219 3977499.4289137498 0 3977499.4289137498 -9168949.9550290704 0 0 0 -7263753.0901505649 -16778368.308964401 5971344.6054508239 0 5971344.6054508239 -5561780.4955253452 0 0 0 -5585037.201122418 -41699965.865639061 410850.09250336885 0 410850.09250336885 -12682003.130511373 0 0 0 -13595492.249037594 -33836559.045266762 2182108.5999126434 0 2182108.5999126434 -13205707.498293996 0 0 0 -11760566.635890201 -31031110.160085037 158394.81134296954 0 158394.81134296954 -12171330.838671386 0 0 0 -10800610.249689117 -29643407.284928389 4949928.9460816234 0 4949928.9460816234 -10663816.22917698 0 0 0 -10076805.878526369 -32389557.333989412 2067315.1994637996 0 2067315.1994637996 -13764294.777006954 0 0 0 -11538463.027749091 -27981250.628054529 3138779.8175987639 0 3138779.8175987639 -13962630.898016632 0 0 0 -10485970.381517783 -35946226.649531454 2571251.0856788754 0 2571251.0856788754 -13015158.86045523 0 0 0 -12240346.377496675 -28556802.646388233 5655431.1247411706 0 5655431.1247411706 -13117885.657385886 0 0 0 -10418672.07594353 -24642694.18391788 6202643.5394915342 0 6202643.5394915342 -14151026.783337533 0 0 0 -9698430.2418138683 -29233243.684322849 3257509.8320509791 0 3257509.8320509791 -13878154.031757191 0 0 0 -10777849.429019988 -22822908.013580672 6917852.8801725805 0 6917852.8801725805 -10748116.19973908 0 0 0 -8392756.0533299372 -17058237.209442064 3786639.0755906105 0 3786639.0755906105 -12045143.191616178 0 0 0 -7275845.1002645791 -25333163.329576459 6885605.6703588068 0 6885605.6703588068 -11711255.239985613 0 0 0 -9261104.6423905138 -23810735.76673615 6480017.6410898641 0 6480017.6410898641 -13440914.02254945 0 0 0 -9312912.4473214 -24211438.665738266 7181459.2672851831 0 7181459.2672851831 -13092027.746528834 0 0 0 -9325866.6030667685 -24932655.691973202 7892002.4769815952 0 7892002.4769815952 -14482325.031313777 0 0 0 -9853745.180821754 -24632308.876771051 4430255.202816993 0 4430255.202816993 -14606855.051310256 0 0 0 -9809790.9820203371 -23650483.951166138 4883826.863328442 0 4883826.863328442 -13758061.725560248 0 0 0 -9352136.4191816002 -16945511.124087911 15059393.751775645 0 15059393.751775645 -1889920.1768876389 0 0 0 -4708857.8252438903 14535.325408260274 2565.5788050974097 0 2565.5788050974097 -2274.5291778855662 0 0 0 3065.1990575936766 -22827887.973103285 7317971.6813198626 0 7317971.6813198626 -15329170.651183158 0 0 0 -9539264.6560716033 16186.020612688157 2741.3322513930998 0 2741.3322513930998 -2542.9543082132986 0 0 0 3410.7665761187145 -18020750.033602197 11960672.009312071 0 11960672.009312071 -3408037.2882792577 0 0 0 -5357196.8304703608 -20201467.042829689 12051667.171095982 0 12051667.171095982 -2389845.0637943745 0 0 0 -5647828.026656013 -17349124.927151613 14581325.952567849 0 14581325.952567849 -2936425.8065302521 0 0 0 -5071387.6834204625 -20932688.097199373 14543597.089023124 0 14543597.089023124 -2798869.9332368076 0 0 0 -5932889.5076090395 -22752895.152173419 3320847.956352368 0 3320847.956352368 -13227181.773433059 0 0 0 -8995019.2314016279 -25345090.905571923 2830467.4117380679 0 2830467.4117380679 -14133616.728173077 0 0 0 -9869676.9084362686 -24933260.174735457 5832660.6156854182 0 5832660.6156854182 -14657458.046861649 0 0 0 -9897679.5553992838 -21529699.936875045 5045201.4216894805 0 5045201.4216894805 -13331121.533447534 0 0 0 -8715205.3675806373 -17934690.538345143 10888825.192457307 0 10888825.192457307 -5603457.6823019534 0 0 0 -5884537.0551617742 -18526182.674824104 12150658.699553944 0 12150658.699553944 -3705133.8684233315 0 0 0 -5557829.1358118579 17214.151638056173 3009.6789522043473 0 3009.6789522043473 -2799.1950633724837 0 0 0 3603.7391436709217 -23871040.632791482 5084677.3810995966 0 5084677.3810995966 -13222371.431702226 0 0 0 -9273353.0161234215 -20999615.853843845 3232143.2287206426 0 3232143.2287206426 -15335279.982236028 0 0 0 -9083723.9590199664 -16355313.729981156 5875796.8529358618 0 5875796.8529358618 -2322704.9025245979 0 0 0 -4669504.658126438 17695.932397742985 3372.2476440166802 0 3372.2476440166802 -3300.7058040667962 0 0 0 3598.8066484190458 -8242948.716308712 5740213.5993388388 0 5740213.5993388388 -1709910.3676485475 0 0 0 -2488214.7709893128 -11362686.614040367 5745279.3712622244 0 5745279.3712622244 -1557445.9673514999 0 0 0 -3230033.1453479677 -13298052.230462018 10298770.675973251 0 10298770.675973251 -1936998.2753206547 0 0 0 -3808762.6264456674 -17440383.050671108 11112610.883034464 0 11112610.883034464 -1825341.9859524295 0 0 0 -4816431.2591558853 -16540339.850150088 10715879.808419064 0 10715879.808419064 -5509012.8843740486 0 0 0 -5512338.1836310336 -11363480.045409191 7698685.2608236242 0 7698685.2608236242 864898.61043066159 0 0 0 -2624645.3587446329 -8639858.0155138206 8445892.3864847422 0 8445892.3864847422 -2876953.8002258511 0 0 0 -2879202.9539349177 5399143.1649715519 4175095.7308994299 0 4175095.7308994299 1055833.7288391292 0 0 0 1613744.2234526714 -18162531.92474591 13318241.205792038 0 13318241.205792038 -4118662.0886312872 0 0 0 -5570298.5033442974 -18389311.842005264 13023087.713748083 0 13023087.713748083 -3565132.8110902272 0 0 0 -5488611.1632738709 -17148669.038351662 12540740.090751918 0 12540740.090751918 -3437524.7114596488 0 0 0 -5146548.4374528294 -16343087.908701893 10883906.888083627 0 10883906.888083627 -2995047.4139277916 0 0 0 -4834533.8306574235 -18002914.707981743 11854478.125018038 0 11854478.125018038 -6001128.7593662115 0 0 0 -6001010.8668369893 -19162023.054373585 12087389.688792039 0 12087389.688792039 -6387102.6098569604 0 0 0 -6387281.4160576379 -18349613.529115759 11651099.771877088 0 11651099.771877088 -5614307.8934194483 0 0 0 -5990980.3556338008 -17953860.482873823 13421456.373675231 0 13421456.373675231 -5359615.17301571 0 0 0 -5828368.9139723834 -19226536.826899767 12984899.632238146 0 12984899.632238146 -4524486.9564084709 0 0 0 -5937755.9458270632 -24931937.280354291 10187453.96224411 0 10187453.96224411 -4154726.6492604092 0 0 0 -7271665.982403677 -19324228.602894656 12788274.251993584 0 12788274.251993584 -6749568.7010627761 0 0 0 -6518449.3259893572 -24776774.857367057 12042335.846639149 0 12042335.846639149 -8265723.4564675661 0 0 0 -8260624.5784586556 -21973185.776253533 10443011.06142755 0 10443011.06142755 -7439183.225440274 0 0 0 -7353092.25042345 -30400969.940189674 9049345.2311699912 0 9049345.2311699912 -7833162.1249645501 0 0 0 -9558533.0162885599 -52686428.239333428 9346967.509705808 0 9346967.509705808 -6297319.3044492155 0 0 0 -14745936.885945663 -35577384.218895033 12903127.66988395 0 12903127.66988395 -11835929.055636082 0 0 0 -11853328.318632782 -31752888.19896527 5156338.1013661698 0 5156338.1013661698 1198324.1923507452 0 0 0 -7638641.0016536303 -28904200.018229291 12265818.230961468 0 12265818.230961468 -6331824.9993196465 0 0 0 -8809006.2543872334 -23732384.875672258 3308419.9785793498 0 3308419.9785793498 2795.3337948024273 0 0 0 -5932397.3854693621 -32334624.862845603 3925137.2590005957 0 3925137.2590005957 -1101606.4748964757 0 0 0 -8359057.8344355188 -23881920.852309737 3586080.4721468017 0 3586080.4721468017 463042.95169577003 0 0 0 -5854719.4751534909 -25255607.043243945 8639811.3505520783 0 8639811.3505520783 -1078959.2466121912 0 0 0 -6583641.5724640414 -18046741.958542015 7361650.1585061252 0 7361650.1585061252 1121888.7818316147 0 0 0 -4231213.2941775955 -18171228.289778799 10856731.978367236 0 10856731.978367236 -462711.82602110505 0 0 0 -4658485.0289499685 -12288280.508913249 8540013.7899306044 0 8540013.7899306044 3601932.2163986117 0 0 0 -2171587.073128663 -12743535.987167977 15131592.907976776 0 15131592.907976776 3280099.1516068578 0 0 0 -2365859.2088902816 -16470756.419260196 12710731.346924165 0 12710731.346924165 -885626.90750598907 0 0 0 -4339095.8316915482 -18116660.203482445 13325265.599577285 0 13325265.599577285 -4432306.6091614813 0 0 0 -5637241.7031609826 -16205362.544565339 14174982.151982818 0 14174982.151982818 -2983903.2730103433 0 0 0 -4797316.4543939196 -19415012.003405273 9920717.0030015633 0 9920717.0030015633 -2305173.273492232 0 0 0 -5430046.3192243725 -18565648.789095379 9542211.0657560229 0 9542211.0657560229 -1803235.5456734337 0 0 0 -5092221.0836922023 
</DataArray>
<DataArray type="Float64" Name="cross_section_updated" format="ascii">
1 1 1 1 1 1 1 1 1 1 1 0.010000000354940242 1 1 0.010000000190272067 1 1 1 1 1 0.0083630469616864378 1 1 0.0099999995680017523 1 0.0099999999384212217 1 1 1 1 0.0083372406705997659 1 1 1 1 0.0088728101725205205 1 1 0.01182367642369446 1 1 1 1 1 1 1 1 1 1 1 1 1 1 1 1 1 1 1 1 1 1 1 1 1 1 1 1 0.0085696154866993918 1 0.0095454915640933446 1 1 1 1 1 1 1 1 1 1 0.0099999999904200644 1 1 1 0.0099999999921858117 1 1 1 1 1 1 1 1 1 1 1 1 1 1 1 1 1 1 1 1 1 1 1 1 1 1 1 1 1 1 1 1 1 1 1 1 1 1 1 
</DataArray>
<DataArray type="Float64" Name="normal_displacement_jump" format="ascii">
0 0 0 0 0 0 0 0 0 0 0 0.0090000003549402414 0 0 0.0090000001902720665 0 0 0 0 0 0.0073630469616864369 0 0 0.0089999995680017531 0 0.0089999999384212208 0 0 0 0 0.007337240670599765 0 0 0 0 0.0078728101725205196 0 0 0.010823676423694459 0 0 0 0 0 0 0 0 0 0 0 0 0 0 0 0 0 0 0 0 0 0 0 0 0 0 0 0 0.0075696154866993918 0 0.0085454915640933455 0 0 0 0 0 0 0 0 0 0 0.0089999999904200635 0 0 0 0.0089999999921858108 0 0 0 0 0 0 0 0 0 0 0 0 0 0 0 0 0 0 0 0 0 0 0 0 0 0 0 0 0 0 0 0 0 0 0 0 0 0 0 
</DataArray>
<DataArray type="Float64" Name="tangential_displacement_jump" format="ascii">
0 0 0 0 0 0 0 0 0 0 0 0.027718899188793521 0 0 0.028794992078420088 0 0 0 0 0 0.01587728720691494 0 0 0.034662306781561458 0 0.031471554587721891 0 0 0 0 0.016180371481640081 0 0 0 0 0.014277086469429203 0 0 0.0097194797211879562 0 0 0 0 0 0 0 0 0 0 0 0 0 0 0 0 0 0 0 0 0 0 0 0 0 0 0 0 0.020668742522110897 0 0.02286156941178125 0 0 0 0 0 0 0 0 0 0 0.02454815580325909 0 0 0 0.026083402289992483 0 0 0 0 0 0 0 0 0 0 0 0 0 0 0 0 0 0 0 0 0 0 0 0 0 0 0 0 0 0 0 0 0 0 0 0 0 0 0 
</DataArray>
</CellData>
</Piece>
</UnstructuredGrid>
</VTKFile>
