<?xml version="1.0"?>
<VTKFile type="UnstructuredGrid" version="0.1" byte_order="LittleEndian">
<UnstructuredGrid>
<Piece NumberOfPoints="360" NumberOfCells="124">
<Points>
<DataArray type="Float64" NumberOfComponents="3" format="ascii">
0 0 0 0.084352422163911631 0.086451712656266194 0 0 0.12500000000034689 0 0 0 0 0.084352422163911631 0.086451712656266194 0 0.1249999999997554 0 0 0 0.12500000000034689 0 0.1008171452988615 0.18885703697250469 0 0 0.25 0 0.084352422163911631 0.086451712656266194 0 0 0.12500000000034689 0 0.1008171452988615 0.18885703697250469 0 0.084352422163911631 0.086451712656266194 0 0.1008171452988615 0.18885703697250469 0 0.18402761812864499 0.1117324051466445 0 0.1008171452988615 0.18885703697250469 0 0.2403886547178353 0.24188814792673841 0 0.1249999999997599 0.31249999999987998 0 0.1008171452988615 0.18885703697250469 0 0.2403886547178353 0.24188814792673841 0 0.18402761812864499 0.1117324051466445 0 0.2403886547178353 0.24188814792673841 0 0.18402761812864499 0.1117324051466445 0 0.31250000000020822 0.12500000000041631 0 0.1249999999997554 0 0 0.18402761812864499 0.1117324051466445 0 0.25 -0 0 0.18402761812864499 0.1117324051466445 0 0.25 -0 0 0.31250000000020822 0.12500000000041631 0 0.084352422163911631 0.086451712656266194 0 0.1249999999997554 0 0 0.18402761812864499 0.1117324051466445 0 0.25 -0 0 0.31250000000020822 0.12500000000041631 0 0.25 -0 0 0.31250000000020822 0.12500000000041631 0 0.43749999999913258 0 0 0.2403886547178353 0.24188814792673841 0 0.31250000000020822 0.12500000000041631 0 0.37500000000027761 0.25000000000055511 0 0.31250000000020822 0.12500000000041631 0 0.37500000000027761 0.25000000000055511 0 0.31250000000020822 0.12500000000041631 0 0.4287911518546233 0.15455445427966699 0 0.37500000000027761 0.25000000000055511 0 0.4287911518546233 0.15455445427966699 0 0.49457493289300231 0.26251703776555491 0 0.37500000000027761 0.25000000000055511 0 0.4287911518546233 0.15455445427966699 0 0.49457493289300231 0.26251703776555491 0 0.54475767668582953 0.1431838882066932 0 0.31250000000020822 0.12500000000041631 0 0.4287911518546233 0.15455445427966699 0 0.43749999999913258 0 0 0.4287911518546233 0.15455445427966699 0 0.43749999999913258 0 0 0.54475767668582953 0.1431838882066932 0 0.37499999999973488 0.43749999999986738 0 0.5 0.5 -0 0.43750000000006939 0.37500000000013878 0 0.37499999999973488 0.43749999999986738 0 0.5 0.5 -0 0.43750000000006939 0.37500000000013878 0 0.33819444444448321 0.33819444444456342 0 0.37499999999973488 0.43749999999986738 0 0.43750000000006939 0.37500000000013878 0 0.5 0.5 -0 0.43750000000006939 0.37500000000013878 0 0.49457493289300231 0.26251703776555491 0 0.37500000000027761 0.25000000000055511 0 0.43750000000006939 0.37500000000013878 0 0.37500000000027761 0.25000000000055511 0 0.43750000000006939 0.37500000000013878 0 0.37500000000027761 0.25000000000055511 0 0.33819444444448321 0.33819444444456342 0 0.2403886547178353 0.24188814792673841 0 0.33819444444448321 0.33819444444456342 0 0.24999999999960859 0.37499999999980432 0 0.2403886547178353 0.24188814792673841 0 0.37500000000027761 0.25000000000055511 0 0.33819444444448321 0.33819444444456342 0 0.33819444444448321 0.33819444444456342 0 0.37499999999973488 0.43749999999986738 0 0.24999999999960859 0.37499999999980432 0 0.37499999999973488 0.43749999999986738 0 0.24999999999960859 0.37499999999980432 0 0.37499999999973488 0.43749999999986738 0 0.24999999999960859 0.37499999999980432 0 0.26452443700674649 0.51563531581639865 0 0.14929124186975251 0.44582793568106382 0 0.24999999999960859 0.37499999999980432 0 0.26452443700674649 0.51563531581639865 0 0.14929124186975251 0.44582793568106382 0 0.24999999999960859 0.37499999999980432 0 0.1249999999997599 0.31249999999987998 0 0.2403886547178353 0.24188814792673841 0 0.24999999999960859 0.37499999999980432 0 0.1249999999997599 0.31249999999987998 0 0.24999999999960859 0.37499999999980432 0 0.1249999999997599 0.31249999999987998 0 0.1249999999997599 0.31249999999987998 0 0 0.25 0 0 0.43750000000034689 0 0.1008171452988615 0.18885703697250469 0 0.1249999999997599 0.31249999999987998 0 0 0.25 0 0.1249999999997599 0.31249999999987998 0 0 0.25 0 0.14929124186975251 0.44582793568106382 0 0 0.43750000000034689 0 0.13928587515912139 0.57339806105677438 0 0.14929124186975251 0.44582793568106382 0 0.1249999999997599 0.31249999999987998 0 0 0.43750000000034689 0 0 0.43750000000034689 0 0 0.62500000000069389 0 0.13928587515912139 0.57339806105677438 0 0 0.62500000000069389 0 0.13900789599611679 0.72618316107059999 0 0.13928587515912139 0.57339806105677438 0 0 0.62500000000069389 0 0.13900789599611679 0.72618316107059999 0 0 0.81250000000104083 0 0.13900789599611679 0.72618316107059999 0 0.13928587515912139 0.57339806105677438 0 0.27589467050686478 0.66058853156435704 0 0.13900789599611679 0.72618316107059999 0 0.27987960212930818 0.83442741470570525 0 0.27589467050686478 0.66058853156435704 0 0.13928587515912139 0.57339806105677438 0 0.26452443700674649 0.51563531581639865 0 0.27589467050686478 0.66058853156435704 0 0.14929124186975251 0.44582793568106382 0 0.13928587515912139 0.57339806105677438 0 0.26452443700674649 0.51563531581639865 0 0 1 0 0.12710107136012311 0.87094806618203435 0 0.1875000000005205 1 0 0 1 0 0 0.81250000000104083 0 0.12710107136012311 0.87094806618203435 0 0.13900789599611679 0.72618316107059999 0 0 0.81250000000104083 0 0.12710107136012311 0.87094806618203435 0 0.13900789599611679 0.72618316107059999 0 0.12710107136012311 0.87094806618203435 0 0.27987960212930818 0.83442741470570525 0 0.12710107136012311 0.87094806618203435 0 0.1875000000005205 1 0 0.27987960212930818 0.83442741470570525 0 0.27987960212930818 0.83442741470570525 0 0.44927105396715372 0.85565124085155886 0 0.37500000000069389 1 0 0.1875000000005205 1 0 0.27987960212930818 0.83442741470570525 0 0.37500000000069389 1 0 0.27987960212930818 0.83442741470570525 0 0.44927105396715372 0.85565124085155886 0 0.38136204680495073 0.74038592213831234 0 0.44927105396715372 0.85565124085155886 0 0.38136204680495073 0.74038592213831234 0 0.50145856933078625 0.73674663046504862 0 0.44927105396715372 0.85565124085155886 0 0.37500000000069389 1 0 0.56250000000086742 1 0 0.26452443700674649 0.51563531581639865 0 0.27589467050686478 0.66058853156435704 0 0.4139414069912184 0.60563252640100373 0 0.37499999999973488 0.43749999999986738 0 0.26452443700674649 0.51563531581639865 0 0.4139414069912184 0.60563252640100373 0 0.27987960212930818 0.83442741470570525 0 0.27589467050686478 0.66058853156435704 0 0.38136204680495073 0.74038592213831234 0 0.27589467050686478 0.66058853156435704 0 0.38136204680495073 0.74038592213831234 0 0.4139414069912184 0.60563252640100373 0 0.38136204680495073 0.74038592213831234 0 0.4139414069912184 0.60563252640100373 0 0.50145856933078625 0.73674663046504862 0 0.4139414069912184 0.60563252640100373 0 0.50145856933078625 0.73674663046504862 0 0.5625 0.625 0 0.37499999999973488 0.43749999999986738 0 0.4139414069912184 0.60563252640100373 0 0.5 0.5 -0 0.4139414069912184 0.60563252640100373 0 0.5 0.5 -0 0.5625 0.625 0 0.5 0.5 -0 0.5625 0.625 0 0.63236534182377013 0.50296756406332266 0 0.5 0.5 -0 0.5625 0.625 0 0.50145856933078625 0.73674663046504862 0 0.5625 0.625 0 0.625 0.75 0 0.5625 0.625 0 0.625 0.75 0 0.71259747807844409 0.63846691315701831 0 0.625 0.75 0 0.73857795170433571 0.77736788564284653 0 0.5625 0.625 0 0.71259747807844409 0.63846691315701831 0 0.625 0.75 0 0.71259747807844409 0.63846691315701831 0 0.63236534182377013 0.50296756406332266 0 0.75338430262320943 0.49294443423175599 0 0.5625 0.625 0 0.71259747807844409 0.63846691315701831 0 0.63236534182377013 0.50296756406332266 0 0.56250000000086742 1 0 0.56777512057187585 0.8470224641095303 0 0.6875 0.875 0 0.44927105396715372 0.85565124085155886 0 0.56250000000086742 1 0 0.56777512057187585 0.8470224641095303 0 0.44927105396715372 0.85565124085155886 0 0.50145856933078625 0.73674663046504862 0 0.56777512057187585 0.8470224641095303 0 0.50145856933078625 0.73674663046504862 0 0.56777512057187585 0.8470224641095303 0 0.625 0.75 0 0.625 0.75 0 0.73857795170433571 0.77736788564284653 0 0.6875 0.875 0 0.73857795170433571 0.77736788564284653 0 0.6875 0.875 0 0.80552984491000901 0.88711122872127413 0 0.625 0.75 0 0.6875 0.875 0 0.56777512057187585 0.8470224641095303 0 0.625 0.75 0 0.6875 0.875 0 0.56250000000086742 1 0 0.6875 0.875 0 0.75 1 0 0.6875 0.875 0 0.75 1 0 0.80552984491000901 0.88711122872127413 0 0.6875 0.875 0 0.75 1 0 0.75 1 0 0.80552984491000901 0.88711122872127413 0 0.875 1 0 0.80552984491000901 0.88711122872127413 0 0.90637953422180084 0.90208583328057301 0 0.875 1 0 0.80552984491000901 0.88711122872127413 0 0.85787927391517405 0.753532520882502 0 0.90637953422180084 0.90208583328057301 0 0.73857795170433571 0.77736788564284653 0 0.80552984491000901 0.88711122872127413 0 0.85787927391517405 0.753532520882502 0 0.85787927391517405 0.753532520882502 0 1 0.83333333333356463 0 1 0.66666666666736052 0 0.85787927391517405 0.753532520882502 0 1 0.83333333333356463 0 0.90637953422180084 0.90208583328057301 0 1 0.83333333333356463 0 0.90637953422180084 0.90208583328057301 0 1 1 0 0.90637953422180084 0.90208583328057301 0 1 1 0 0.875 1 0 0.71259747807844409 0.63846691315701831 0 0.86127466977819722 0.57948076978797636 0 0.75338430262320943 0.49294443423175599 0 0.71259747807844409 0.63846691315701831 0 0.85787927391517405 0.753532520882502 0 0.86127466977819722 0.57948076978797636 0 0.71259747807844409 0.63846691315701831 0 0.73857795170433571 0.77736788564284653 0 0.85787927391517405 0.753532520882502 0 0.85787927391517405 0.753532520882502 0 0.86127466977819722 0.57948076978797636 0 1 0.66666666666736052 0 0.86127466977819722 0.57948076978797636 0 1 0.66666666666736052 0 1 0.50000000000138767 0 1 0.50000000000138767 0 0.86569408477091048 0.40983673916766611 0 1 0.33333333333448978 0 0.86127466977819722 0.57948076978797636 0 1 0.50000000000138767 0 0.86569408477091048 0.40983673916766611 0 0.86127466977819722 0.57948076978797636 0 0.75338430262320943 0.49294443423175599 0 0.86569408477091048 0.40983673916766611 0 0.75338430262320943 0.49294443423175599 0 0.86569408477091048 0.40983673916766611 0 0.71826039492840632 0.34564020717216182 0 0.86087286690217635 0.25206523597959418 0 0.71508993406183785 0.15715956854777599 0 0.71826039492840632 0.34564020717216182 0 0.86569408477091048 0.40983673916766611 0 0.86087286690217635 0.25206523597959418 0 0.71826039492840632 0.34564020717216182 0 0.86087286690217635 0.25206523597959418 0 1 0.33333333333448978 0 1 0.16666666666736049 0 0.86569408477091048 0.40983673916766611 0 0.86087286690217635 0.25206523597959418 0 1 0.33333333333448978 0 0.86087286690217635 0.25206523597959418 0 1 0.16666666666736049 0 0.87698901648812122 0.1160638338657984 0 1 0 0 0.87698901648812122 0.1160638338657984 0 0.81249999999947953 0 0 1 0.16666666666736049 0 1 0 0 0.87698901648812122 0.1160638338657984 0 0.87698901648812122 0.1160638338657984 0 0.81249999999947953 0 0 0.71508993406183785 0.15715956854777599 0 0.86087286690217635 0.25206523597959418 0 0.87698901648812122 0.1160638338657984 0 0.71508993406183785 0.15715956854777599 0 0.71508993406183785 0.15715956854777599 0 0.62499999999895905 0 0 0.54475767668582953 0.1431838882066932 0 0.81249999999947953 0 0 0.71508993406183785 0.15715956854777599 0 0.62499999999895905 0 0 0.43749999999913258 0 0 0.62499999999895905 0 0 0.54475767668582953 0.1431838882066932 0 0.71508993406183785 0.15715956854777599 0 0.54475767668582953 0.1431838882066932 0 0.61108462585082757 0.25750599582343231 0 0.49457493289300231 0.26251703776555491 0 0.54475767668582953 0.1431838882066932 0 0.61108462585082757 0.25750599582343231 0 0.49457493289300231 0.26251703776555491 0 0.61108462585082757 0.25750599582343231 0 0.56986707178436635 0.37762093650871992 0 0.43750000000006939 0.37500000000013878 0 0.49457493289300231 0.26251703776555491 0 0.56986707178436635 0.37762093650871992 0 0.43750000000006939 0.37500000000013878 0 0.5 0.5 -0 0.56986707178436635 0.37762093650871992 0 0.5 0.5 -0 0.63236534182377013 0.50296756406332266 0 0.56986707178436635 0.37762093650871992 0 0.63236534182377013 0.50296756406332266 0 0.75338430262320943 0.49294443423175599 0 0.71826039492840632 0.34564020717216182 0 0.63236534182377013 0.50296756406332266 0 0.56986707178436635 0.37762093650871992 0 0.71826039492840632 0.34564020717216182 0 0.71508993406183785 0.15715956854777599 0 0.61108462585082757 0.25750599582343231 0 0.71826039492840632 0.34564020717216182 0 0.61108462585082757 0.25750599582343231 0 0.56986707178436635 0.37762093650871992 0 0.71826039492840632 0.34564020717216182 0 
</DataArray>
</Points>
<Cells>
<DataArray type="UInt32" Name="connectivity" format="ascii">
0 1 2 3 4 5 6 7 8 9 10 11 12 13 14 15 16 17 18 19 20 21 22 23 24 25 26 27 28 29 30 31 32 33 34 35 36 37 38 39 40 41 42 43 44 45 46 47 48 49 50 51 52 53 54 55 56 57 58 59 60 61 62 63 64 65 66 67 68 69 70 71 72 73 74 75 76 77 78 79 80 81 82 83 84 85 86 87 88 89 90 91 92 93 94 95 96 97 98 99 100 101 102 103 104 105 106 107 108 109 110 111 112 113 114 115 116 117 118 119 120 121 122 123 124 125 126 127 128 129 130 131 132 133 134 135 136 137 138 139 140 141 142 143 144 145 146 147 148 149 150 151 152 153 154 155 156 157 158 159 160 161 162 163 164 165 166 167 168 169 170 171 172 173 174 175 176 177 178 179 180 181 182 183 184 185 186 187 188 189 190 191 192 193 194 195 196 197 198 199 200 201 202 203 204 205 206 207 208 209 210 211 212 213 214 215 216 217 218 219 220 221 222 223 224 225 226 227 228 229 230 231 232 233 234 235 236 237 238 239 240 241 242 243 244 245 246 247 248 249 250 251 252 253 254 255 256 257 258 259 260 261 262 263 264 265 266 267 268 269 270 271 272 273 274 275 276 277 278 279 280 281 282 283 284 285 286 287 288 289 290 291 292 293 294 295 296 297 298 299 300 301 302 303 304 305 306 307 308 309 310 311 312 313 314 315 316 317 318 319 320 321 322 323 324 325 326 327 328 329 330 331 332 333 334 335 336 337 338 339 340 341 342 343 344 345 346 347 348 349 350 351 352 353 354 355 356 357 358 359 
</DataArray>
<DataArray type="UInt32" Name="offsets" format="ascii">
3 6 9 12 15 18 21 24 27 30 33 35 38 41 43 46 49 52 55 58 60 63 66 68 71 73 76 79 82 85 87 90 93 96 99 101 104 107 109 112 115 118 121 124 127 130 133 136 139 142 145 148 151 154 157 160 163 166 169 172 175 178 181 184 187 190 193 195 198 200 203 206 209 212 215 218 221 224 227 230 232 235 238 241 243 246 249 252 255 258 261 264 267 270 273 276 279 282 285 288 291 294 297 300 303 306 309 312 315 318 321 324 327 330 333 336 339 342 345 348 351 354 357 360 
</DataArray>
<DataArray type="UInt32" Name="types" format="ascii">
5 5 5 5 5 5 5 5 5 5 5 3 5 5 3 5 5 5 5 5 3 5 5 3 5 3 5 5 5 5 3 5 5 5 5 3 5 5 3 5 5 5 5 5 5 5 5 5 5 5 5 5 5 5 5 5 5 5 5 5 5 5 5 5 5 5 5 3 5 3 5 5 5 5 5 5 5 5 5 5 3 5 5 5 3 5 5 5 5 5 5 5 5 5 5 5 5 5 5 5 5 5 5 5 5 5 5 5 5 5 5 5 5 5 5 5 5 5 5 5 5 5 5 5 
</DataArray>
</Cells>
<PointData Scalars="" Vectors="displacement," Tensors="">
<DataArray type="Float64" Name="displacement" NumberOfComponents="3" format="ascii">
6.001712974294123e-07 -0.085153352999080931 0 -0.00090360653282198558 -0.08401980721577941 0 -2.4125571669060497e-07 -0.084884257210058267 0 6.001712974294123e-07 -0.085153352999080931 0 -0.00090360653282198558 -0.08401980721577941 0 0.00067057571695003739 -0.083100232905700178 0 -2.4125571669060497e-07 -0.084884257210058267 0 -0.0030030795516283577 -0.083311164275748195 0 -1.2236019119894234e-05 -0.084331547853338448 0 -0.00090360653282198558 -0.08401980721577941 0 -2.4125571669060497e-07 -0.084884257210058267 0 -0.0030030795516283577 -0.083311164275748195 0 -0.00090360653282198558 -0.08401980721577941 0 -0.0030030795516283577 -0.083311164275748195 0 -0.0028042102952722738 -0.080897585871277378 0 -0.0030030795516283577 -0.083311164275748195 0 -0.009171497461463736 -0.077881579916543098 0 -0.0094041208385133943 -0.081187737135174534 0 -0.0030030795516283577 -0.083311164275748195 0 -0.009171497461463736 -0.077881579916543098 0 -0.0028042102952722738 -0.080897585871277378 0 -0.009171497461463736 -0.077881579916543098 0 -0.0028042102952722738 -0.080897585871277378 0 -0.005247220166635513 -0.07428887909999983 0 0.00067057571695003739 -0.083100232905700178 0 -0.0028042102952722738 -0.080897585871277378 0 0.00031575272298783137 -0.078040726308175726 0 -0.0028042102952722738 -0.080897585871277378 0 0.00031575272298783137 -0.078040726308175726 0 -0.005247220166635513 -0.07428887909999983 0 -0.00090360653282198558 -0.08401980721577941 0 0.00067057571695003739 -0.083100232905700178 0 -0.0028042102952722738 -0.080897585871277378 0 0.014655366395570885 -0.06081184474848924 0 0.0081042438349856784 -0.05638620895120932 0 0.028811658713475699 -0.043503049255608051 0 0.021456322433251303 -0.038676882566788716 0 0.025484792036549433 -0.031680486731111519 0 -0.009171497461463736 -0.077881579916543098 0 -0.005247220166635513 -0.07428887909999983 0 -0.0126197600896672 -0.070700457371632455 0 0.0081042438349856784 -0.05638620895120932 0 0.002129947276306944 -0.052604542053442803 0 0.021456322433251303 -0.038676882566788716 0 0.018385947993196341 -0.031220267051898898 0 0.017052131662040511 -0.033810808796638933 0 0.018385947993196341 -0.031220267051898898 0 0.013633191583667872 -0.02588362213643812 0 0.017052131662040511 -0.033810808796638933 0 0.018385947993196341 -0.031220267051898898 0 0.013633191583667872 -0.02588362213643812 0 0.01600852139829367 -0.024195476588401602 0 0.021456322433251303 -0.038676882566788716 0 0.018385947993196341 -0.031220267051898898 0 0.025484792036549433 -0.031680486731111519 0 0.018385947993196341 -0.031220267051898898 0 0.025484792036549433 -0.031680486731111519 0 0.01600852139829367 -0.024195476588401602 0 -0.015112001723975494 -0.067404117921920928 0 -0.0062620868045833054 -0.049787729546917313 0 -0.017439714579704328 -0.06881447898641388 0 -0.018978705723249688 -0.072408786464422559 0 -0.021541905889358538 -0.066241768644650575 0 -0.017439714579704328 -0.06881447898641388 0 -0.014831251148661208 -0.073227585808668616 0 -0.018978705723249688 -0.072408786464422559 0 -0.0023422649069604106 -0.046933580112531348 0 -0.0062620868045833054 -0.049787729546917313 0 0.012044257457000166 -0.027641623579587622 0 0.013633191583667872 -0.02588362213643812 0 0.017052131662040511 -0.033810808796638933 0 -0.0023422649069604106 -0.046933580112531348 0 0.002129947276306944 -0.052604542053442803 0 -0.017439714579704328 -0.06881447898641388 0 -0.0126197600896672 -0.070700457371632455 0 -0.014831251148661208 -0.073227585808668616 0 -0.009171497461463736 -0.077881579916543098 0 -0.014831251148661208 -0.073227585808668616 0 -0.014806145683370272 -0.078052250908297968 0 -0.009171497461463736 -0.077881579916543098 0 -0.0126197600896672 -0.070700457371632455 0 -0.014831251148661208 -0.073227585808668616 0 -0.014831251148661208 -0.073227585808668616 0 -0.018978705723249688 -0.072408786464422559 0 -0.014806145683370272 -0.078052250908297968 0 -0.015112001723975494 -0.067404117921920928 0 -0.0077434152905992539 -0.069001364335887258 0 -0.0057386689748661485 -0.057222236307922475 0 -0.0021714440503498829 -0.061352321461799801 0 -0.0056947196007083355 -0.061993912805720718 0 -0.0024888801626128817 -0.065541773663300607 0 -0.0021714440503498829 -0.061352321461799801 0 -0.0056947196007083355 -0.061993912805720718 0 -0.0024888801626128817 -0.065541773663300607 0 -0.0021714440503498829 -0.061352321461799801 0 0.00019170412900841379 -0.066671430071077384 0 -0.009171497461463736 -0.077881579916543098 0 -0.014806145683370272 -0.078052250908297968 0 -0.0094041208385133943 -0.081187737135174534 0 -0.0077434152905992539 -0.069001364335887258 0 -0.0048433416927148466 -0.074142044235014623 0 0.00019170412900841379 -0.066671430071077384 0 1.8964322740847051e-06 -0.067310012626152604 0 -2.7463960584811871e-06 -0.067802814855659782 0 -0.0030030795516283577 -0.083311164275748195 0 -0.0094041208385133943 -0.081187737135174534 0 -1.2236019119894234e-05 -0.084331547853338448 0 -0.0048433416927148466 -0.074142044235014623 0 0.0001612909503989405 -0.075667851767330263 0 -0.0024888801626128817 -0.065541773663300607 0 -2.7463960584811871e-06 -0.067802814855659782 0 -0.0035301897180972587 -0.065798932383738143 0 -0.0024888801626128817 -0.065541773663300607 0 0.00019170412900841379 -0.066671430071077384 0 -2.7463960584811871e-06 -0.067802814855659782 0 -2.7463960584811871e-06 -0.067802814855659782 0 -5.4932136881537414e-06 -0.067086969796983351 0 -0.0035301897180972587 -0.065798932383738143 0 -5.4932136881537414e-06 -0.067086969796983351 0 -0.0045356578175964821 -0.06585321943500895 0 -0.0035301897180972587 -0.065798932383738143 0 -5.4932136881537414e-06 -0.067086969796983351 0 -0.0045356578175964821 -0.06585321943500895 0 -6.5456521169648859e-06 -0.06707934731320811 0 -0.0045356578175964821 -0.06585321943500895 0 -0.0035301897180972587 -0.065798932383738143 0 -0.0081388874804766507 -0.062108191366040268 0 -0.0045356578175964821 -0.06585321943500895 0 -0.010079769514012958 -0.062757885028890126 0 -0.0081388874804766507 -0.062108191366040268 0 -0.0035301897180972587 -0.065798932383738143 0 -0.0056947196007083355 -0.061993912805720718 0 -0.0081388874804766507 -0.062108191366040268 0 -0.0024888801626128817 -0.065541773663300607 0 -0.0035301897180972587 -0.065798932383738143 0 -0.0056947196007083355 -0.061993912805720718 0 -1.0131651473402587e-05 -0.06758553591046676 0 -0.0049772833239821058 -0.066307647406772433 0 -0.0091721637885609913 -0.065489244694761709 0 -1.0131651473402587e-05 -0.06758553591046676 0 -6.5456521169648859e-06 -0.06707934731320811 0 -0.0049772833239821058 -0.066307647406772433 0 -0.0045356578175964821 -0.06585321943500895 0 -6.5456521169648859e-06 -0.06707934731320811 0 -0.0049772833239821058 -0.066307647406772433 0 -0.0045356578175964821 -0.06585321943500895 0 -0.0049772833239821058 -0.066307647406772433 0 -0.010079769514012958 -0.062757885028890126 0 -0.0049772833239821058 -0.066307647406772433 0 -0.0091721637885609913 -0.065489244694761709 0 -0.010079769514012958 -0.062757885028890126 0 -0.010079769514012958 -0.062757885028890126 0 -0.015834474904967956 -0.057162166414547529 0 -0.016939072074347045 -0.060581227370122552 0 -0.0091721637885609913 -0.065489244694761709 0 -0.010079769514012958 -0.062757885028890126 0 -0.016939072074347045 -0.060581227370122552 0 -0.010079769514012958 -0.062757885028890126 0 -0.015834474904967956 -0.057162166414547529 0 -0.012013405511076729 -0.058848383204958894 0 -0.015834474904967956 -0.057162166414547529 0 -0.012013405511076729 -0.058848383204958894 0 -0.015145585178438094 -0.054179170312446984 0 -0.015834474904967956 -0.057162166414547529 0 -0.016939072074347045 -0.060581227370122552 0 -0.023110114356763689 -0.053968277503813659 0 -0.0056947196007083355 -0.061993912805720718 0 -0.0081388874804766507 -0.062108191366040268 0 -0.01127055895121736 -0.056704032501454692 0 -0.0057386689748661485 -0.057222236307922475 0 -0.0056947196007083355 -0.061993912805720718 0 -0.01127055895121736 -0.056704032501454692 0 -0.010079769514012958 -0.062757885028890126 0 -0.0081388874804766507 -0.062108191366040268 0 -0.012013405511076729 -0.058848383204958894 0 -0.0081388874804766507 -0.062108191366040268 0 -0.012013405511076729 -0.058848383204958894 0 -0.01127055895121736 -0.056704032501454692 0 -0.012013405511076729 -0.058848383204958894 0 -0.01127055895121736 -0.056704032501454692 0 -0.015145585178438094 -0.054179170312446984 0 -0.01127055895121736 -0.056704032501454692 0 -0.015145585178438094 -0.054179170312446984 0 -0.015825234248653473 -0.050836419536092192 0 -0.0057386689748661485 -0.057222236307922475 0 -0.01127055895121736 -0.056704032501454692 0 -0.011517459944265949 -0.05262596642294471 0 -0.01127055895121736 -0.056704032501454692 0 -0.011517459944265949 -0.05262596642294471 0 -0.015825234248653473 -0.050836419536092192 0 0.011665979206652228 -0.023667892777429853 0 0.010873934879365374 -0.020278500218730938 0 0.0085327434429488293 -0.017455530666387994 0 -0.0062620868045833054 -0.049787729546917313 0 -0.00077402358081752644 -0.032439338010901306 0 -0.015145585178438094 -0.054179170312446984 0 -0.015825234248653473 -0.050836419536092192 0 -0.017947466765799364 -0.049955406900027331 0 -0.00077402358081752644 -0.032439338010901306 0 -0.0056114271178996349 -0.033900664827905005 0 0.0065026191671021293 -0.012608437132720396 0 0.0076520964231580457 -0.016165085178451114 0 0.0052551408170759487 -0.011065839004209401 0 0.010873934879365374 -0.020278500218730938 0 0.0065026191671021293 -0.012608437132720396 0 0.0076520964231580457 -0.016165085178451114 0 0.0065026191671021293 -0.012608437132720396 0 0.0085327434429488293 -0.017455530666387994 0 0.0056553122147844212 -0.011176185075071964 0 0.010873934879365374 -0.020278500218730938 0 0.0065026191671021293 -0.012608437132720396 0 0.0085327434429488293 -0.017455530666387994 0 -0.023110114356763689 -0.053968277503813659 0 -0.018860640423632811 -0.052746617768941018 0 -0.022828154080348981 -0.047974945549871147 0 -0.015834474904967956 -0.057162166414547529 0 -0.023110114356763689 -0.053968277503813659 0 -0.018860640423632811 -0.052746617768941018 0 -0.015834474904967956 -0.057162166414547529 0 -0.015145585178438094 -0.054179170312446984 0 -0.018860640423632811 -0.052746617768941018 0 -0.015145585178438094 -0.054179170312446984 0 -0.018860640423632811 -0.052746617768941018 0 -0.017947466765799364 -0.049955406900027331 0 0.0076520964231580457 -0.016165085178451114 0 0.0052551408170759487 -0.011065839004209401 0 0.0058579115399900938 -0.013443233247883574 0 0.0052551408170759487 -0.011065839004209401 0 0.0058579115399900938 -0.013443233247883574 0 0.0028740163171983644 -0.0072223096847678307 0 -0.0056114271178996349 -0.033900664827905005 0 -0.0083241287138551747 -0.030467989203815927 0 -0.018860640423632811 -0.052746617768941018 0 -0.017947466765799364 -0.049955406900027331 0 -0.022828154080348981 -0.047974945549871147 0 -0.023110114356763689 -0.053968277503813659 0 -0.022828154080348981 -0.047974945549871147 0 -0.027043963647962698 -0.047211704142213873 0 0.0058579115399900938 -0.013443233247883574 0 0.00045637169729283221 -0.0096198381080267042 0 0.0028740163171983644 -0.0072223096847678307 0 -0.0083241287138551747 -0.030467989203815927 0 -0.013467509192788782 -0.028543638179527597 0 0.00045637169729283221 -0.0096198381080267042 0 0.0028740163171983644 -0.0072223096847678307 0 -0.00081419866090437119 -0.0038431698020657081 0 0.0028740163171983644 -0.0072223096847678307 0 0.0010079816314710925 -0.0027845841145287954 0 -0.00081419866090437119 -0.0038431698020657081 0 0.0028740163171983644 -0.0072223096847678307 0 0.0028380436757098498 -0.0053741957511199206 0 0.0010079816314710925 -0.0027845841145287954 0 0.0052551408170759487 -0.011065839004209401 0 0.0028740163171983644 -0.0072223096847678307 0 0.0028380436757098498 -0.0053741957511199206 0 0.0028380436757098498 -0.0053741957511199206 0 3.2637374580536963e-06 -1.3549588745938553e-06 0 3.2547790006929189e-06 -2.2591673850304852e-06 0 0.0028380436757098498 -0.0053741957511199206 0 3.2637374580536963e-06 -1.3549588745938553e-06 0 0.0010079816314710925 -0.0027845841145287954 0 3.2637374580536963e-06 -1.3549588745938553e-06 0 0.0010079816314710925 -0.0027845841145287954 0 -3.0414649088549034e-06 -5.9262746063875753e-07 0 0.0010079816314710925 -0.0027845841145287954 0 -3.0414649088549034e-06 -5.9262746063875753e-07 0 -0.00081419866090437119 -0.0038431698020657081 0 0.0065026191671021293 -0.012608437132720396 0 0.0030771698396095098 -0.0058244088780036408 0 0.0056553122147844212 -0.011176185075071964 0 0.0065026191671021293 -0.012608437132720396 0 0.0028380436757098498 -0.0053741957511199206 0 0.0030771698396095098 -0.0058244088780036408 0 0.0065026191671021293 -0.012608437132720396 0 0.0052551408170759487 -0.011065839004209401 0 0.0028380436757098498 -0.0053741957511199206 0 0.0028380436757098498 -0.0053741957511199206 0 0.0030771698396095098 -0.0058244088780036408 0 3.2547790006929189e-06 -2.2591673850304852e-06 0 0.0030771698396095098 -0.0058244088780036408 0 3.2547790006929189e-06 -2.2591673850304852e-06 0 3.5953598250233063e-06 -2.3084332362201719e-06 0 3.5953598250233063e-06 -2.3084332362201719e-06 0 0.0031365685928212085 -0.0058269073631871064 0 4.6853420845533552e-06 -2.4087129472845573e-06 0 0.0030771698396095098 -0.0058244088780036408 0 3.5953598250233063e-06 -2.3084332362201719e-06 0 0.0031365685928212085 -0.0058269073631871064 0 0.0030771698396095098 -0.0058244088780036408 0 0.0056553122147844212 -0.011176185075071964 0 0.0031365685928212085 -0.0058269073631871064 0 0.0056553122147844212 -0.011176185075071964 0 0.0031365685928212085 -0.0058269073631871064 0 0.0068675389815630872 -0.013350184006443232 0 0.0040584710531085142 -0.0060328965816461629 0 0.010214289327365868 -0.014502565321463339 0 0.0068675389815630872 -0.013350184006443232 0 0.0031365685928212085 -0.0058269073631871064 0 0.0040584710531085142 -0.0060328965816461629 0 0.0068675389815630872 -0.013350184006443232 0 0.0040584710531085142 -0.0060328965816461629 0 4.6853420845533552e-06 -2.4087129472845573e-06 0 3.8145091945710215e-06 -9.1433385044248826e-07 0 0.0031365685928212085 -0.0058269073631871064 0 0.0040584710531085142 -0.0060328965816461629 0 4.6853420845533552e-06 -2.4087129472845573e-06 0 0.0040584710531085142 -0.0060328965816461629 0 3.8145091945710215e-06 -9.1433385044248826e-07 0 0.0050682041604838933 -0.005692628732710126 0 1.5738111965371586e-05 -5.9161599522177686e-06 0 0.0050682041604838933 -0.005692628732710126 0 0.01232803516108011 -0.011234763208659687 0 3.8145091945710215e-06 -9.1433385044248826e-07 0 1.5738111965371586e-05 -5.9161599522177686e-06 0 0.0050682041604838933 -0.005692628732710126 0 0.0050682041604838933 -0.005692628732710126 0 0.01232803516108011 -0.011234763208659687 0 0.010214289327365868 -0.014502565321463339 0 0.0040584710531085142 -0.0060328965816461629 0 0.0050682041604838933 -0.005692628732710126 0 0.010214289327365868 -0.014502565321463339 0 0.010214289327365868 -0.014502565321463339 0 0.019907616809723059 -0.021148741247582627 0 0.01600852139829367 -0.024195476588401602 0 0.01232803516108011 -0.011234763208659687 0 0.010214289327365868 -0.014502565321463339 0 0.019907616809723059 -0.021148741247582627 0 0.025484792036549433 -0.031680486731111519 0 0.019907616809723059 -0.021148741247582627 0 0.01600852139829367 -0.024195476588401602 0 0.010214289327365868 -0.014502565321463339 0 0.01600852139829367 -0.024195476588401602 0 0.0110088437689062 -0.019472446992493474 0 0.013633191583667872 -0.02588362213643812 0 0.01600852139829367 -0.024195476588401602 0 0.0110088437689062 -0.019472446992493474 0 0.013633191583667872 -0.02588362213643812 0 0.0110088437689062 -0.019472446992493474 0 0.009836985810161087 -0.02104515993998813 0 0.012044257457000166 -0.027641623579587622 0 0.013633191583667872 -0.02588362213643812 0 0.009836985810161087 -0.02104515993998813 0 0.012044257457000166 -0.027641623579587622 0 0.011665979206652228 -0.023667892777429853 0 0.009836985810161087 -0.02104515993998813 0 0.011665979206652228 -0.023667892777429853 0 0.0085327434429488293 -0.017455530666387994 0 0.009836985810161087 -0.02104515993998813 0 0.0085327434429488293 -0.017455530666387994 0 0.0056553122147844212 -0.011176185075071964 0 0.0068675389815630872 -0.013350184006443232 0 0.0085327434429488293 -0.017455530666387994 0 0.009836985810161087 -0.02104515993998813 0 0.0068675389815630872 -0.013350184006443232 0 0.010214289327365868 -0.014502565321463339 0 0.0110088437689062 -0.019472446992493474 0 0.0068675389815630872 -0.013350184006443232 0 0.0110088437689062 -0.019472446992493474 0 0.009836985810161087 -0.02104515993998813 0 0.0068675389815630872 -0.013350184006443232 0 
</DataArray>
</PointData>
<CellData Scalars="region_id,cross_section_updated,normal_displacement_jump,tangential_displacement_jump," Vectors="" Tensors="stress,">
<DataArray type="Float64" Name="region_id" format="ascii">
11 11 11 11 11 11 11 11 11 11 11 5 11 11 5 11 11 11 11 11 6 11 11 5 11 5 11 11 11 11 6 11 11 11 11 6 11 11 6 11 11 11 11 11 11 11 11 11 11 11 11 11 11 11 11 11 11 11 11 11 11 11 11 11 11 11 11 4 11 4 11 11 11 11 11 11 11 11 11 11 4 11 11 11 4 11 11 11 11 11 11 11 11 11 11 11 11 11 11 11 11 11 11 11 11 11 11 11 11 11 11 11 11 11 11 11 11 11 11 11 11 11 11 11 
</DataArray>
<DataArray type="Float64" Name="stress" NumberOfComponents="9" format="ascii">
-11993885.497698426 4490055.4749765396 0 4490055.4749765396 -1701677.7662459612 0 0 0 -3423890.8159860671 5266076.6386154294 294484.86462506652 0 294484.86462506652 -1353144.0528941154 0 0 0 978233.14643034339 -33900390.355257809 5082721.4099649787 0 5082721.4099649787 -6583676.9410636425 0 0 0 -10121016.824080408 -20480435.739124835 -2000716.1311719716 0 -2000716.1311719716 -1587954.1079331636 0 0 0 -5517097.4617645741 -16563723.183825329 5059513.4742267728 0 5059513.4742267728 -3426522.4875024259 0 0 0 -4997561.4178319722 -27659282.328672796 -4645147.7480280995 0 -4645147.7480280995 1802214.6841871738 0 0 0 -6464266.9111213684 -33751818.255000353 150647.19020684063 0 150647.19020684063 -3173092.1603057384 0 0 0 -9231227.6038265228 -17165267.411422849 3501167.8915125728 0 3501167.8915125728 -4720112.1367797852 0 0 0 -5471344.8870506883 -4074174.8550126404 4350593.0573137403 0 4350593.0573137403 -3139055.9196233749 0 0 0 -1803307.6936589628 -16434657.552775756 5628695.6575159431 0 5628695.6575159431 -648076.90044236183 0 0 0 -4270683.6133045405 -14030107.851714373 2447232.3048211932 0 2447232.3048211932 -777964.89753895998 0 0 0 -3702018.1873133183 23334.928415979375 7600.4602642999598 0 7600.4602642999598 -8923.1516529346482 0 0 0 3602.9441907611817 -18458946.687777475 5233048.4111406952 0 5233048.4111406952 1401684.5564717501 0 0 0 -4264315.5328264385 -26458318.216958061 2245678.5197973847 0 2245678.5197973847 -6582621.2371006608 0 0 0 -8260234.8635146916 23756.228323870648 7916.6627509901009 0 7916.6627509901009 -9348.092453222227 0 0 0 3602.0339676621043 -20838353.310547516 14752427.965726536 0 14752427.965726536 1446744.1649881005 0 0 0 -4847902.2863898128 -26881330.106531054 14748748.826950356 0 14748748.826950356 1334373.5568864644 0 0 0 -6386739.1374111474 -23376136.843895853 12792560.909985051 0 12792560.909985051 4810053.6549513936 0 0 0 -4641520.7972360998 -14826742.049255803 6287842.2172527723 0 6287842.2172527723 1988655.1424710453 0 0 0 -3209521.7266961783 -27601507.034621954 5543336.0047384351 0 5543336.0047384351 -2345496.4099101257 0 0 0 -7486750.8611330232 -999.67802161117106 1641.9423132722568 0 1641.9423132722568 13466.428402091347 0 0 0 3116.6875951200454 -8734344.9682575762 8789638.068346709 0 8789638.068346709 -8723200.9199526906 0 0 0 -4364386.4720525444 -18820959.670395613 4337647.9351429194 0 4337647.9351429194 -16444546.750583887 0 0 0 -8816376.605244875 26131.086904743541 9360.0524990619306 0 9360.0524990619306 -11283.882987589757 0 0 0 3711.8009792884459 -24054994.485796414 14925878.357694775 0 14925878.357694775 10222941.701847792 0 0 0 -3458013.1959871724 24761.589599563016 8668.9938919266424 0 8668.9938919266424 -10326.41667566324 0 0 0 3608.7932309749431 -21141485.150486678 6589818.7894903421 0 6589818.7894903421 -16385097.184184551 0 0 0 -9381645.5836677849 -22941569.227469325 4605295.7980310619 0 4605295.7980310619 -13064876.802321553 0 0 0 -9001611.5074476898 -30710563.940842986 7533861.5859509967 0 7533861.5859509967 -16886791.605552793 0 0 0 -11899338.886598945 -22576762.383447438 5711308.7224053144 0 5711308.7224053144 -18638678.102345407 0 0 0 -10303860.121448249 -1293.4402624622635 1771.2576356338277 0 1771.2576356338277 14785.04351743804 0 0 0 3372.9008137439487 -23623482.584205747 5574444.2272512615 0 5574444.2272512615 -16843728.39845109 0 0 0 -10116802.745664209 -19488595.420777619 4852757.7048582435 0 4852757.7048582435 -15305309.613615274 0 0 0 -8698476.2585982382 -11370957.008718103 9530447.1014683843 0 9530447.1014683843 -2945360.701164484 0 0 0 -3579079.4274705946 -28736116.669602245 -5595939.0123161674 0 -5595939.0123161674 -13001858.264944017 0 0 0 -10434493.733636618 -396.63858634028293 1194.1004651147814 0 1194.1004651147814 14776.347717681361 0 0 0 3594.9272828352696 785699.5163705349 2559215.1872752011 0 2559215.1872752011 -2541597.2890677452 0 0 0 -438974.44317427278 -60072656.425523117 -9093890.3709567785 0 -9093890.3709567785 -5535569.8786240816 0 0 0 -16402056.576036766 3026.5560271514005 -1104.2487876135965 0 -1104.2487876135965 16058.48873384911 0 0 0 4771.2611902501194 -19682169.062502295 2305465.8045437932 0 2305465.8045437932 -7440056.4581099749 0 0 0 -6780556.3801530302 -16520177.327361304 -969308.0888838768 0 -969308.0888838768 650186.44979597628 0 0 0 -3967497.719391305 -28845957.654779833 4258880.8917590082 0 4258880.8917590082 -5542956.2177971741 0 0 0 -8597228.4681442324 -33450209.020260453 996203.52977094054 0 996203.52977094054 -11511370.798125267 0 0 0 -11240394.95459643 -39085949.088958904 3536077.3634925187 0 3536077.3634925187 -12985286.233065009 0 0 0 -13017808.830505952 -35524640.164317854 8230974.6289916933 0 8230974.6289916933 -12167740.276891721 0 0 0 -11923095.110302363 -39321185.356565177 5937285.8134821206 0 5937285.8134821206 -17711921.386781573 0 0 0 -14258276.685836673 -30246674.277346432 5602313.7277727127 0 5602313.7277727127 -13347125.736316502 0 0 0 -10898450.003415704 -26053272.077940248 8272966.6990958452 0 8272966.6990958452 -8278197.2181011215 0 0 0 -8582867.3240103666 -58193372.144986242 617711.39337995648 0 617711.39337995648 -18214767.962431252 0 0 0 -19102035.026854366 -47999566.34886086 2917551.1571575999 0 2917551.1571575999 -18879506.136263251 0 0 0 -16719768.121281028 -44615234.110151082 480919.08905476332 0 480919.08905476332 -17584803.544259787 0 0 0 -15550009.41360274 -42274982.397108763 6808552.4302659333 0 6808552.4302659333 -15427836.859314926 0 0 0 -14425704.814105932 -46061563.438295543 2833465.9044694602 0 2833465.9044694602 -19702205.913265109 0 0 0 -16440942.337890148 -39731148.768833488 4084611.5435300767 0 4084611.5435300767 -19946703.879205823 0 0 0 -14919463.162009835 -50464914.784402817 3418347.4574427903 0 3418347.4574427903 -18839509.609248906 0 0 0 -17326106.098412961 -40722477.842089921 7802490.1104209535 0 7802490.1104209535 -19140520.914270639 0 0 0 -14965749.689090163 -35184575.063097984 8463840.9631586373 0 8463840.9631586373 -20401727.583006442 0 0 0 -13896575.661526129 -41710388.316413395 4273048.3302245736 0 4273048.3302245736 -19812043.329426974 0 0 0 -15380607.911460079 -35706495.435345151 9212777.9176590443 0 9212777.9176590443 -15893915.247867666 0 0 0 -12900102.670803195 -26783126.18703413 4317607.4565018266 0 4317607.4565018266 -15271631.56664747 0 0 0 -10513689.438420415 -36355995.799968533 9530573.5357174873 0 9530573.5357174873 -16944600.338969871 0 0 0 -13325149.034734631 -35889914.676810324 9655303.2560561299 0 9655303.2560561299 -19574233.94167906 0 0 0 -13866037.154622346 -34354135.225699343 10709859.571408033 0 10709859.571408033 -18450284.583061606 0 0 0 -13201104.952190198 -38346994.360393375 12222147.794842392 0 12222147.794842392 -21085438.52458936 0 0 0 -14858108.221245706 -42873975.450884573 5896717.3368233442 0 5896717.3368233442 -20847075.41563499 0 0 0 -15930262.7166299 -35913412.266569257 7915107.3279485404 0 7915107.3279485404 -18169415.69860816 0 0 0 -13520706.991294339 -27079056.542647291 20964910.083262712 0 20964910.083262712 -5090589.947378993 0 0 0 -8042411.6225065701 21512.030526183142 6221.1637438222733 0 6221.1637438222733 -6906.284113148 0 0 0 3651.436603258785 -30695024.290350378 11748129.66601494 0 11748129.66601494 -21555246.35376516 0 0 0 -13062567.661028892 22288.646669419599 6818.96822035482 0 6818.96822035482 -7928.3781621288217 0 0 0 3590.0671268226952 -22666267.690318849 15576724.26404494 0 15576724.26404494 -4530369.8836684078 0 0 0 -6799159.3934968077 -30602812.409014266 15467876.089711856 0 15467876.089711856 -1984841.6979604661 0 0 0 -8146913.5267436877 -26692679.499251727 20569715.07976941 0 20569715.07976941 -3764258.7431967035 0 0 0 -7614234.5606121086 -32875524.097185448 21186751.626703449 0 21186751.626703449 -4746544.6928804815 0 0 0 -9405517.1975164711 -34344600.250896335 5079203.495269686 0 5079203.495269686 -18444143.241133809 0 0 0 -13197185.873007536 -35841256.132848114 3216179.9820011258 0 3216179.9820011258 -19112827.519653141 0 0 0 -13738520.913125306 -35786976.039251477 7616370.4375190735 0 7616370.4375190735 -21552245.891166031 0 0 0 -14334805.482604384 -27693179.858314052 5449811.8363365531 0 5449811.8363365531 -17862157.202612221 0 0 0 -11388834.26523158 -24381353.458989739 16303498.525129946 0 16303498.525129946 -8943814.3808319867 0 0 0 -8331291.9599554315 -28289106.569165129 18279798.313969374 0 18279798.313969374 -6166258.092769891 0 0 0 -8613841.1654837504 23020.187870497422 7363.8120549762434 0 7363.8120549762434 -8598.9263042662096 0 0 0 3605.3153915578032 -34479431.757695973 6194455.2125008106 0 6194455.2125008106 -16425696.673332304 0 0 0 -12726282.107757077 -29941274.545026615 5119538.4657473713 0 5119538.4657473713 -22686129.064972878 0 0 0 -13156850.902499884 -24583823.279715121 8009270.6330597214 0 8009270.6330597214 -3434121.0030388385 0 0 0 -7004486.0706884861 23687.033672805424 7865.6895516972872 0 7865.6895516972872 -9293.6624263622689 0 0 0 3598.342811610788 -11599748.894793566 7918898.0531304218 0 7918898.0531304218 -2272645.5145322904 0 0 0 -3468098.6023314642 -16773291.614714008 8044711.6257973704 0 8044711.6257973704 -2240323.9676757604 0 0 0 -4753403.8955974411 -19739288.006618619 14770731.536672529 0 14770731.536672529 -3142950.6032803264 0 0 0 -5720559.6524747387 -24198064.830052458 16175809.029305141 0 16175809.029305141 -2440023.121085614 0 0 0 -6659521.9877845179 -23933403.315485176 15120709.385317925 0 15120709.385317925 -7972014.1706948997 0 0 0 -7976354.3715450186 -16651599.889408231 10877950.920360357 0 10877950.920360357 1096949.7571181208 0 0 0 -3888662.5330725284 -12909691.955271445 11877752.710561927 0 11877752.710561927 -4298351.7307078252 0 0 0 -4302010.9214948164 7403265.006357057 5684127.5211663377 0 5684127.5211663377 1444170.8015859574 0 0 0 2211858.9519857503 -26661356.229169495 18492082.383304555 0 18492082.383304555 -5350660.9419364482 0 0 0 -8003004.2927764878 -27120680.857644439 18072733.330805901 0 18072733.330805901 -5302717.4723697752 0 0 0 -8105849.5825035516 -24670886.766752146 17249580.523301691 0 17249580.523301691 -5979736.5561618842 0 0 0 -7662655.8307285067 -23898632.806520708 15228136.598262493 0 15228136.598262493 -4377789.7765856273 0 0 0 -7069105.6457765875 -26588279.649724785 16786668.869951356 0 16786668.869951356 -8862444.5817939676 0 0 0 -8862681.0578796882 -27987061.923888009 17344482.0337306 0 17344482.0337306 -9328378.8511451967 0 0 0 -9328860.1937583014 -26784270.744522266 16668655.26048182 0 16668655.26048182 -7728256.7032710314 0 0 0 -8628131.8619483262 -27246039.821827993 19049705.048043739 0 19049705.048043739 -7716453.0462832376 0 0 0 -8740623.2170278057 -27930800.580973137 18927836.632243745 0 18927836.632243745 -6226153.5044764429 0 0 0 -8539238.5213623978 -35129585.985167444 14992714.935528833 0 14992714.935528833 -6169959.1052164435 0 0 0 -10324886.272595972 -27785322.145731684 18400733.008006953 0 18400733.008006953 -9536052.0861706752 0 0 0 -9330343.5579755884 -34971980.493190177 17342249.050538775 0 17342249.050538775 -11666890.857283168 0 0 0 -11659717.837618332 -31437596.266718071 15325405.182567803 0 15325405.182567803 -10499762.052983422 0 0 0 -10484339.579925375 -42476245.074877694 13347771.404989947 0 13347771.404989947 -11126770.365862116 0 0 0 -13400753.860184956 -73008546.483462706 13529155.532578629 0 13529155.532578629 -8895769.8127465844 0 0 0 -20476079.074052323 -49356947.543534458 18474432.746140786 0 18474432.746140786 -16420304.160793593 0 0 0 -16444312.926082015 -43986033.357284881 7588860.8079073951 0 7588860.8079073951 1711584.2209067494 0 0 0 -10568612.284094527 -40029942.450450055 17564367.298531331 0 17564367.298531331 -9003305.3588889949 0 0 0 -12258311.952334765 -32404511.654074401 4725382.9256788194 0 4725382.9256788194 20777.015487253666 0 0 0 -8095933.6596467867 -43717476.246730559 5747658.0180393159 0 5747658.0180393159 -1794235.2703778297 0 0 0 -11377927.879277103 -31614075.457237951 4907373.4529680535 0 4907373.4529680535 341564.16621094942 0 0 0 -7818127.8227567449 -34854761.696830973 12397729.324193221 0 12397729.324193221 -2324750.0103380084 0 0 0 -9294877.9267922565 -24910009.199645583 10201008.287529826 0 10201008.287529826 1466760.9172193408 0 0 0 -5860812.0706065632 -25595283.238680482 15012896.244556874 0 15012896.244556874 -2264159.4791908562 0 0 0 -6964860.6794678271 -15654528.444983002 10913093.515562192 0 10913093.515562192 4980711.4023282081 0 0 0 -2668454.2606637068 -17361424.257092532 22024705.12748532 0 22024705.12748532 1616861.9478830844 0 0 0 -3936140.5773023628 -26325109.116413966 19291175.874108966 0 19291175.874108966 -3126358.962025255 0 0 0 -7362867.0196098089 -27845498.226476505 19828278.377197441 0 19828278.377197441 -6785722.3382565975 0 0 0 -8657805.141183272 -23107688.011867903 20804210.741740786 0 20804210.741740786 -5022641.1729182824 0 0 0 -7032582.2961965408 -27160721.450142417 14192027.747879904 0 14192027.747879904 -3479756.0513291955 0 0 0 -7660119.3753679022 -26624538.417839225 13999582.382748224 0 13999582.382748224 -3460246.8143443838 0 0 0 -7521196.3080458902 
</DataArray>
<DataArray type="Float64" Name="cross_section_updated" format="ascii">
1 1 1 1 1 1 1 1 1 1 1 0.0099999999999942635 1 1 0.0099999999999973374 1 1 1 1 1 0.0086787070895162285 1 1 0.010310312434673608 1 0.010000000000001907 1 1 1 1 0.0094742997990087396 1 1 1 1 0.0099894285024374335 1 1 0.012955300040437892 1 1 1 1 1 1 1 1 1 1 1 1 1 1 1 1 1 1 1 1 1 1 1 1 1 1 1 1 0.010000000000000411 1 0.010000000000004228 1 1 1 1 1 1 1 1 1 1 0.010000000000007401 1 1 1 0.010000000000004113 1 1 1 1 1 1 1 1 1 1 1 1 1 1 1 1 1 1 1 1 1 1 1 1 1 1 1 1 1 1 1 1 1 1 1 1 1 1 1 
</DataArray>
<DataArray type="Float64" Name="normal_displacement_jump" format="ascii">
0 0 0 0 0 0 0 0 0 0 0 0.0089999999999942626 0 0 0.0089999999999973365 0 0 0 0 0 0.0076787070895162277 0 0 0.009310312434673609 0 0.0090000000000019058 0 0 0 0 0.0084742997990087388 0 0 0 0 0.0089894285024374326 0 0 0.011955300040437891 0 0 0 0 0 0 0 0 0 0 0 0 0 0 0 0 0 0 0 0 0 0 0 0 0 0 0 0 0.0090000000000004104 0 0.0090000000000042268 0 0 0 0 0 0 0 0 0 0 0.0090000000000073997 0 0 0 0.0090000000000041123 0 0 0 0 0 0 0 0 0 0 0 0 0 0 0 0 0 0 0 0 0 0 0 0 0 0 0 0 0 0 0 0 0 0 0 0 0 0 0 
</DataArray>
<DataArray type="Float64" Name="tangential_displacement_jump" format="ascii">
0 0 0 0 0 0 0 0 0 0 0 0.043714859684302838 0 0 0.045029651735626348 0 0 0 0 0 0.01684459473575314 0 0 0.051471002222880965 0 0.048138266349300192 0 0 0 0 0.018701568379714852 0 0 0 0 0.016921956414826123 0 0 0.011349779532612478 0 0 0 0 0 0 0 0 0 0 0 0 0 0 0 0 0 0 0 0 0 0 0 0 0 0 0 0 0.037770451503347721 0 0.040471760298903571 0 0 0 0 0 0 0 0 0 0 0.042693178109439206 0 0 0 0.044818305985056532 0 0 0 0 0 0 0 0 0 0 0 0 0 0 0 0 0 0 0 0 0 0 0 0 0 0 0 0 0 0 0 0 0 0 0 0 0 0 0 
</DataArray>
</CellData>
</Piece>
</UnstructuredGrid>
</VTKFile>
