<?xml version="1.0"?>
<VTKFile type="UnstructuredGrid" version="0.1" byte_order="LittleEndian">
<UnstructuredGrid>
<Piece NumberOfPoints="360" NumberOfCells="124">
<Points>
<DataArray type="Float64" NumberOfComponents="3" format="ascii">
0 0 0 0.084352422163911631 0.086451712656266194 0 0 0.12500000000034689 0 0 0 0 0.084352422163911631 0.086451712656266194 0 0.1249999999997554 0 0 0 0.12500000000034689 0 0.1008171452988615 0.18885703697250469 0 0 0.25 0 0.084352422163911631 0.086451712656266194 0 0 0.12500000000034689 0 0.1008171452988615 0.18885703697250469 0 0.084352422163911631 0.086451712656266194 0 0.1008171452988615 0.18885703697250469 0 0.18402761812864499 0.1117324051466445 0 0.1008171452988615 0.18885703697250469 0 0.2403886547178353 0.24188814792673841 0 0.1249999999997599 0.31249999999987998 0 0.1008171452988615 0.18885703697250469 0 0.2403886547178353 0.24188814792673841 0 0.18402761812864499 0.1117324051466445 0 0.2403886547178353 0.24188814792673841 0 0.18402761812864499 0.1117324051466445 0 0.31250000000020822 0.12500000000041631 0 0.1249999999997554 0 0 0.18402761812864499 0.1117324051466445 0 0.25 -0 0 0.18402761812864499 0.1117324051466445 0 0.25 -0 0 0.31250000000020822 0.12500000000041631 0 0.084352422163911631 0.086451712656266194 0 0.1249999999997554 0 0 0.18402761812864499 0.1117324051466445 0 0.25 -0 0 0.31250000000020822 0.12500000000041631 0 0.25 -0 0 0.31250000000020822 0.12500000000041631 0 0.43749999999913258 0 0 0.2403886547178353 0.24188814792673841 0 0.31250000000020822 0.12500000000041631 0 0.37500000000027761 0.25000000000055511 0 0.31250000000020822 0.12500000000041631 0 0.37500000000027761 0.25000000000055511 0 0.31250000000020822 0.12500000000041631 0 0.4287911518546233 0.15455445427966699 0 0.37500000000027761 0.25000000000055511 0 0.4287911518546233 0.15455445427966699 0 0.49457493289300231 0.26251703776555491 0 0.37500000000027761 0.25000000000055511 0 0.4287911518546233 0.15455445427966699 0 0.49457493289300231 0.26251703776555491 0 0.54475767668582953 0.1431838882066932 0 0.31250000000020822 0.12500000000041631 0 0.4287911518546233 0.15455445427966699 0 0.43749999999913258 0 0 0.4287911518546233 0.15455445427966699 0 0.43749999999913258 0 0 0.54475767668582953 0.1431838882066932 0 0.37499999999973488 0.43749999999986738 0 0.5 0.5 -0 0.43750000000006939 0.37500000000013878 0 0.37499999999973488 0.43749999999986738 0 0.5 0.5 -0 0.43750000000006939 0.37500000000013878 0 0.33819444444448321 0.33819444444456342 0 0.37499999999973488 0.43749999999986738 0 0.43750000000006939 0.37500000000013878 0 0.5 0.5 -0 0.43750000000006939 0.37500000000013878 0 0.49457493289300231 0.26251703776555491 0 0.37500000000027761 0.25000000000055511 0 0.43750000000006939 0.37500000000013878 0 0.37500000000027761 0.25000000000055511 0 0.43750000000006939 0.37500000000013878 0 0.37500000000027761 0.25000000000055511 0 0.33819444444448321 0.33819444444456342 0 0.2403886547178353 0.24188814792673841 0 0.33819444444448321 0.33819444444456342 0 0.24999999999960859 0.37499999999980432 0 0.2403886547178353 0.24188814792673841 0 0.37500000000027761 0.25000000000055511 0 0.33819444444448321 0.33819444444456342 0 0.33819444444448321 0.33819444444456342 0 0.37499999999973488 0.43749999999986738 0 0.24999999999960859 0.37499999999980432 0 0.37499999999973488 0.43749999999986738 0 0.24999999999960859 0.37499999999980432 0 0.37499999999973488 0.43749999999986738 0 0.24999999999960859 0.37499999999980432 0 0.26452443700674649 0.51563531581639865 0 0.14929124186975251 0.44582793568106382 0 0.24999999999960859 0.37499999999980432 0 0.26452443700674649 0.51563531581639865 0 0.14929124186975251 0.44582793568106382 0 0.24999999999960859 0.37499999999980432 0 0.1249999999997599 0.31249999999987998 0 0.2403886547178353 0.24188814792673841 0 0.24999999999960859 0.37499999999980432 0 0.1249999999997599 0.31249999999987998 0 0.24999999999960859 0.37499999999980432 0 0.1249999999997599 0.31249999999987998 0 0.1249999999997599 0.31249999999987998 0 0 0.25 0 0 0.43750000000034689 0 0.1008171452988615 0.18885703697250469 0 0.1249999999997599 0.31249999999987998 0 0 0.25 0 0.1249999999997599 0.31249999999987998 0 0 0.25 0 0.14929124186975251 0.44582793568106382 0 0 0.43750000000034689 0 0.13928587515912139 0.57339806105677438 0 0.14929124186975251 0.44582793568106382 0 0.1249999999997599 0.31249999999987998 0 0 0.43750000000034689 0 0 0.43750000000034689 0 0 0.62500000000069389 0 0.13928587515912139 0.57339806105677438 0 0 0.62500000000069389 0 0.13900789599611679 0.72618316107059999 0 0.13928587515912139 0.57339806105677438 0 0 0.62500000000069389 0 0.13900789599611679 0.72618316107059999 0 0 0.81250000000104083 0 0.13900789599611679 0.72618316107059999 0 0.13928587515912139 0.57339806105677438 0 0.27589467050686478 0.66058853156435704 0 0.13900789599611679 0.72618316107059999 0 0.27987960212930818 0.83442741470570525 0 0.27589467050686478 0.66058853156435704 0 0.13928587515912139 0.57339806105677438 0 0.26452443700674649 0.51563531581639865 0 0.27589467050686478 0.66058853156435704 0 0.14929124186975251 0.44582793568106382 0 0.13928587515912139 0.57339806105677438 0 0.26452443700674649 0.51563531581639865 0 0 1 0 0.12710107136012311 0.87094806618203435 0 0.1875000000005205 1 0 0 1 0 0 0.81250000000104083 0 0.12710107136012311 0.87094806618203435 0 0.13900789599611679 0.72618316107059999 0 0 0.81250000000104083 0 0.12710107136012311 0.87094806618203435 0 0.13900789599611679 0.72618316107059999 0 0.12710107136012311 0.87094806618203435 0 0.27987960212930818 0.83442741470570525 0 0.12710107136012311 0.87094806618203435 0 0.1875000000005205 1 0 0.27987960212930818 0.83442741470570525 0 0.27987960212930818 0.83442741470570525 0 0.44927105396715372 0.85565124085155886 0 0.37500000000069389 1 0 0.1875000000005205 1 0 0.27987960212930818 0.83442741470570525 0 0.37500000000069389 1 0 0.27987960212930818 0.83442741470570525 0 0.44927105396715372 0.85565124085155886 0 0.38136204680495073 0.74038592213831234 0 0.44927105396715372 0.85565124085155886 0 0.38136204680495073 0.74038592213831234 0 0.50145856933078625 0.73674663046504862 0 0.44927105396715372 0.85565124085155886 0 0.37500000000069389 1 0 0.56250000000086742 1 0 0.26452443700674649 0.51563531581639865 0 0.27589467050686478 0.66058853156435704 0 0.4139414069912184 0.60563252640100373 0 0.37499999999973488 0.43749999999986738 0 0.26452443700674649 0.51563531581639865 0 0.4139414069912184 0.60563252640100373 0 0.27987960212930818 0.83442741470570525 0 0.27589467050686478 0.66058853156435704 0 0.38136204680495073 0.74038592213831234 0 0.27589467050686478 0.66058853156435704 0 0.38136204680495073 0.74038592213831234 0 0.4139414069912184 0.60563252640100373 0 0.38136204680495073 0.74038592213831234 0 0.4139414069912184 0.60563252640100373 0 0.50145856933078625 0.73674663046504862 0 0.4139414069912184 0.60563252640100373 0 0.50145856933078625 0.73674663046504862 0 0.5625 0.625 0 0.37499999999973488 0.43749999999986738 0 0.4139414069912184 0.60563252640100373 0 0.5 0.5 -0 0.4139414069912184 0.60563252640100373 0 0.5 0.5 -0 0.5625 0.625 0 0.5 0.5 -0 0.5625 0.625 0 0.63236534182377013 0.50296756406332266 0 0.5 0.5 -0 0.5625 0.625 0 0.50145856933078625 0.73674663046504862 0 0.5625 0.625 0 0.625 0.75 0 0.5625 0.625 0 0.625 0.75 0 0.71259747807844409 0.63846691315701831 0 0.625 0.75 0 0.73857795170433571 0.77736788564284653 0 0.5625 0.625 0 0.71259747807844409 0.63846691315701831 0 0.625 0.75 0 0.71259747807844409 0.63846691315701831 0 0.63236534182377013 0.50296756406332266 0 0.75338430262320943 0.49294443423175599 0 0.5625 0.625 0 0.71259747807844409 0.63846691315701831 0 0.63236534182377013 0.50296756406332266 0 0.56250000000086742 1 0 0.56777512057187585 0.8470224641095303 0 0.6875 0.875 0 0.44927105396715372 0.85565124085155886 0 0.56250000000086742 1 0 0.56777512057187585 0.8470224641095303 0 0.44927105396715372 0.85565124085155886 0 0.50145856933078625 0.73674663046504862 0 0.56777512057187585 0.8470224641095303 0 0.50145856933078625 0.73674663046504862 0 0.56777512057187585 0.8470224641095303 0 0.625 0.75 0 0.625 0.75 0 0.73857795170433571 0.77736788564284653 0 0.6875 0.875 0 0.73857795170433571 0.77736788564284653 0 0.6875 0.875 0 0.80552984491000901 0.88711122872127413 0 0.625 0.75 0 0.6875 0.875 0 0.56777512057187585 0.8470224641095303 0 0.625 0.75 0 0.6875 0.875 0 0.56250000000086742 1 0 0.6875 0.875 0 0.75 1 0 0.6875 0.875 0 0.75 1 0 0.80552984491000901 0.88711122872127413 0 0.6875 0.875 0 0.75 1 0 0.75 1 0 0.80552984491000901 0.88711122872127413 0 0.875 1 0 0.80552984491000901 0.88711122872127413 0 0.90637953422180084 0.90208583328057301 0 0.875 1 0 0.80552984491000901 0.88711122872127413 0 0.85787927391517405 0.753532520882502 0 0.90637953422180084 0.90208583328057301 0 0.73857795170433571 0.77736788564284653 0 0.80552984491000901 0.88711122872127413 0 0.85787927391517405 0.753532520882502 0 0.85787927391517405 0.753532520882502 0 1 0.83333333333356463 0 1 0.66666666666736052 0 0.85787927391517405 0.753532520882502 0 1 0.83333333333356463 0 0.90637953422180084 0.90208583328057301 0 1 0.83333333333356463 0 0.90637953422180084 0.90208583328057301 0 1 1 0 0.90637953422180084 0.90208583328057301 0 1 1 0 0.875 1 0 0.71259747807844409 0.63846691315701831 0 0.86127466977819722 0.57948076978797636 0 0.75338430262320943 0.49294443423175599 0 0.71259747807844409 0.63846691315701831 0 0.85787927391517405 0.753532520882502 0 0.86127466977819722 0.57948076978797636 0 0.71259747807844409 0.63846691315701831 0 0.73857795170433571 0.77736788564284653 0 0.85787927391517405 0.753532520882502 0 0.85787927391517405 0.753532520882502 0 0.86127466977819722 0.57948076978797636 0 1 0.66666666666736052 0 0.86127466977819722 0.57948076978797636 0 1 0.66666666666736052 0 1 0.50000000000138767 0 1 0.50000000000138767 0 0.86569408477091048 0.40983673916766611 0 1 0.33333333333448978 0 0.86127466977819722 0.57948076978797636 0 1 0.50000000000138767 0 0.86569408477091048 0.40983673916766611 0 0.86127466977819722 0.57948076978797636 0 0.75338430262320943 0.49294443423175599 0 0.86569408477091048 0.40983673916766611 0 0.75338430262320943 0.49294443423175599 0 0.86569408477091048 0.40983673916766611 0 0.71826039492840632 0.34564020717216182 0 0.86087286690217635 0.25206523597959418 0 0.71508993406183785 0.15715956854777599 0 0.71826039492840632 0.34564020717216182 0 0.86569408477091048 0.40983673916766611 0 0.86087286690217635 0.25206523597959418 0 0.71826039492840632 0.34564020717216182 0 0.86087286690217635 0.25206523597959418 0 1 0.33333333333448978 0 1 0.16666666666736049 0 0.86569408477091048 0.40983673916766611 0 0.86087286690217635 0.25206523597959418 0 1 0.33333333333448978 0 0.86087286690217635 0.25206523597959418 0 1 0.16666666666736049 0 0.87698901648812122 0.1160638338657984 0 1 0 0 0.87698901648812122 0.1160638338657984 0 0.81249999999947953 0 0 1 0.16666666666736049 0 1 0 0 0.87698901648812122 0.1160638338657984 0 0.87698901648812122 0.1160638338657984 0 0.81249999999947953 0 0 0.71508993406183785 0.15715956854777599 0 0.86087286690217635 0.25206523597959418 0 0.87698901648812122 0.1160638338657984 0 0.71508993406183785 0.15715956854777599 0 0.71508993406183785 0.15715956854777599 0 0.62499999999895905 0 0 0.54475767668582953 0.1431838882066932 0 0.81249999999947953 0 0 0.71508993406183785 0.15715956854777599 0 0.62499999999895905 0 0 0.43749999999913258 0 0 0.62499999999895905 0 0 0.54475767668582953 0.1431838882066932 0 0.71508993406183785 0.15715956854777599 0 0.54475767668582953 0.1431838882066932 0 0.61108462585082757 0.25750599582343231 0 0.49457493289300231 0.26251703776555491 0 0.54475767668582953 0.1431838882066932 0 0.61108462585082757 0.25750599582343231 0 0.49457493289300231 0.26251703776555491 0 0.61108462585082757 0.25750599582343231 0 0.56986707178436635 0.37762093650871992 0 0.43750000000006939 0.37500000000013878 0 0.49457493289300231 0.26251703776555491 0 0.56986707178436635 0.37762093650871992 0 0.43750000000006939 0.37500000000013878 0 0.5 0.5 -0 0.56986707178436635 0.37762093650871992 0 0.5 0.5 -0 0.63236534182377013 0.50296756406332266 0 0.56986707178436635 0.37762093650871992 0 0.63236534182377013 0.50296756406332266 0 0.75338430262320943 0.49294443423175599 0 0.71826039492840632 0.34564020717216182 0 0.63236534182377013 0.50296756406332266 0 0.56986707178436635 0.37762093650871992 0 0.71826039492840632 0.34564020717216182 0 0.71508993406183785 0.15715956854777599 0 0.61108462585082757 0.25750599582343231 0 0.71826039492840632 0.34564020717216182 0 0.61108462585082757 0.25750599582343231 0 0.56986707178436635 0.37762093650871992 0 0.71826039492840632 0.34564020717216182 0 
</DataArray>
</Points>
<Cells>
<DataArray type="UInt32" Name="connectivity" format="ascii">
0 1 2 3 4 5 6 7 8 9 10 11 12 13 14 15 16 17 18 19 20 21 22 23 24 25 26 27 28 29 30 31 32 33 34 35 36 37 38 39 40 41 42 43 44 45 46 47 48 49 50 51 52 53 54 55 56 57 58 59 60 61 62 63 64 65 66 67 68 69 70 71 72 73 74 75 76 77 78 79 80 81 82 83 84 85 86 87 88 89 90 91 92 93 94 95 96 97 98 99 100 101 102 103 104 105 106 107 108 109 110 111 112 113 114 115 116 117 118 119 120 121 122 123 124 125 126 127 128 129 130 131 132 133 134 135 136 137 138 139 140 141 142 143 144 145 146 147 148 149 150 151 152 153 154 155 156 157 158 159 160 161 162 163 164 165 166 167 168 169 170 171 172 173 174 175 176 177 178 179 180 181 182 183 184 185 186 187 188 189 190 191 192 193 194 195 196 197 198 199 200 201 202 203 204 205 206 207 208 209 210 211 212 213 214 215 216 217 218 219 220 221 222 223 224 225 226 227 228 229 230 231 232 233 234 235 236 237 238 239 240 241 242 243 244 245 246 247 248 249 250 251 252 253 254 255 256 257 258 259 260 261 262 263 264 265 266 267 268 269 270 271 272 273 274 275 276 277 278 279 280 281 282 283 284 285 286 287 288 289 290 291 292 293 294 295 296 297 298 299 300 301 302 303 304 305 306 307 308 309 310 311 312 313 314 315 316 317 318 319 320 321 322 323 324 325 326 327 328 329 330 331 332 333 334 335 336 337 338 339 340 341 342 343 344 345 346 347 348 349 350 351 352 353 354 355 356 357 358 359 
</DataArray>
<DataArray type="UInt32" Name="offsets" format="ascii">
3 6 9 12 15 18 21 24 27 30 33 35 38 41 43 46 49 52 55 58 60 63 66 68 71 73 76 79 82 85 87 90 93 96 99 101 104 107 109 112 115 118 121 124 127 130 133 136 139 142 145 148 151 154 157 160 163 166 169 172 175 178 181 184 187 190 193 195 198 200 203 206 209 212 215 218 221 224 227 230 232 235 238 241 243 246 249 252 255 258 261 264 267 270 273 276 279 282 285 288 291 294 297 300 303 306 309 312 315 318 321 324 327 330 333 336 339 342 345 348 351 354 357 360 
</DataArray>
<DataArray type="UInt32" Name="types" format="ascii">
5 5 5 5 5 5 5 5 5 5 5 3 5 5 3 5 5 5 5 5 3 5 5 3 5 3 5 5 5 5 3 5 5 5 5 3 5 5 3 5 5 5 5 5 5 5 5 5 5 5 5 5 5 5 5 5 5 5 5 5 5 5 5 5 5 5 5 3 5 3 5 5 5 5 5 5 5 5 5 5 3 5 5 5 3 5 5 5 5 5 5 5 5 5 5 5 5 5 5 5 5 5 5 5 5 5 5 5 5 5 5 5 5 5 5 5 5 5 5 5 5 5 5 5 
</DataArray>
</Cells>
<PointData Scalars="" Vectors="displacement," Tensors="">
<DataArray type="Float64" Name="displacement" NumberOfComponents="3" format="ascii">
1.3292799164219463e-07 -0.013580021179870999 0 -0.00016190835290872597 -0.013364195072855403 0 -3.2536904854986102e-08 -0.013535497644944572 0 1.3292799164219463e-07 -0.013580021179870999 0 -0.00016190835290872597 -0.013364195072855403 0 0.00014623482960045064 -0.013180305973209355 0 -3.2536904854986102e-08 -0.013535497644944572 0 -0.00056760905162640991 -0.013234457817691694 0 -2.3498974233413609e-06 -0.013436319695771325 0 -0.00016190835290872597 -0.013364195072855403 0 -3.2536904854986102e-08 -0.013535497644944572 0 -0.00056760905162640991 -0.013234457817691694 0 -0.00016190835290872597 -0.013364195072855403 0 -0.00056760905162640991 -0.013234457817691694 0 -0.00051320265415935769 -0.012757011825203576 0 -0.00056760905162640991 -0.013234457817691694 0 -0.0017467039182143013 -0.012174383318015279 0 -0.0018123232911650823 -0.012830605243037472 0 -0.00056760905162640991 -0.013234457817691694 0 -0.0017467039182143013 -0.012174383318015279 0 -0.00051320265415935769 -0.012757011825203576 0 -0.0017467039182143013 -0.012174383318015279 0 -0.00051320265415935769 -0.012757011825203576 0 -0.0009632451391393983 -0.011476069739054552 0 0.00014623482960045064 -0.013180305973209355 0 -0.00051320265415935769 -0.012757011825203576 0 8.7557608437598673e-05 -0.012201074646246346 0 -0.00051320265415935769 -0.012757011825203576 0 8.7557608437598673e-05 -0.012201074646246346 0 -0.0009632451391393983 -0.011476069739054552 0 -0.00016190835290872597 -0.013364195072855403 0 0.00014623482960045064 -0.013180305973209355 0 -0.00051320265415935769 -0.012757011825203576 0 0.0027774832974004435 -0.010224239024189591 0 0.0015426342674493545 -0.0094042898796888735 0 0.0054338927686640465 -0.0082570193904954407 0 0.0040504961912932657 -0.0073487267488811219 0 0.0048030737258673035 -0.006054701003530785 0 -0.0017467039182143013 -0.012174383318015279 0 -0.0009632451391393983 -0.011476069739054552 0 -0.0024034256052853308 -0.010746605510557665 0 0.0015426342674493545 -0.0094042898796888735 0 0.00041487936984458394 -0.0086321809693933049 0 0.0040504961912932657 -0.0073487267488811219 0 0.0034851008805151175 -0.0059706787189031801 0 0.0032567109907084952 -0.0064436886206909296 0 0.0034851008805151175 -0.0059706787189031801 0 0.0026188613975458631 -0.0049876373977997424 0 0.0032567109907084952 -0.0064436886206909296 0 0.0034851008805151175 -0.0059706787189031801 0 0.0026188613975458631 -0.0049876373977997424 0 0.0030416083716368783 -0.0046713445054947589 0 0.0040504961912932657 -0.0073487267488811219 0 0.0034851008805151175 -0.0059706787189031801 0 0.0048030737258673035 -0.006054701003530785 0 0.0034851008805151175 -0.0059706787189031801 0 0.0048030737258673035 -0.006054701003530785 0 0.0030416083716368783 -0.0046713445054947589 0 -0.00299945725156442 -0.010455765374239936 0 -0.0011275106652207565 -0.0077275633578011002 0 -0.0034097550195846403 -0.010323984454156911 0 -0.0037406643081885466 -0.011047949633269183 0 -0.0042662243930992908 -0.0097968676145292685 0 -0.0034097550195846403 -0.010323984454156911 0 -0.0028778658267686538 -0.011237362958693903 0 -0.0037406643081885466 -0.011047949633269183 0 -0.00047000617912927584 -0.0076743363051346644 0 -0.0011275106652207565 -0.0077275633578011002 0 0.0023685765745207498 -0.0053057712410890887 0 0.0026188613975458631 -0.0049876373977997424 0 0.0032567109907084952 -0.0064436886206909296 0 -0.00047000617912927584 -0.0076743363051346644 0 0.00041487936984458394 -0.0086321809693933049 0 -0.0034097550195846403 -0.010323984454156911 0 -0.0024034256052853308 -0.010746605510557665 0 -0.0028778658267686538 -0.011237362958693903 0 -0.0017467039182143013 -0.012174383318015279 0 -0.0028778658267686538 -0.011237362958693903 0 -0.0028860625694694885 -0.012196324039761538 0 -0.0017467039182143013 -0.012174383318015279 0 -0.0024034256052853308 -0.010746605510557665 0 -0.0028778658267686538 -0.011237362958693903 0 -0.0028778658267686538 -0.011237362958693903 0 -0.0037406643081885466 -0.011047949633269183 0 -0.0028860625694694885 -0.012196324039761538 0 -0.00299945725156442 -0.010455765374239936 0 -0.0014826483547881308 -0.011046900819172679 0 -0.0011015664821761807 -0.0091936052134639814 0 -0.00039153411430107671 -0.010078968232571286 0 -0.00112678939244078 -0.010185608355061906 0 -0.00047927207412838517 -0.01091528013381333 0 -0.00039153411430107671 -0.010078968232571286 0 -0.00112678939244078 -0.010185608355061906 0 -0.00047927207412838517 -0.01091528013381333 0 -0.00039153411430107671 -0.010078968232571286 0 5.0852921789947595e-05 -0.011134929086244364 0 -0.0017467039182143013 -0.012174383318015279 0 -0.0028860625694694885 -0.012196324039761538 0 -0.0018123232911650823 -0.012830605243037472 0 -0.0014826483547881308 -0.011046900819172679 0 -0.00092880256406507346 -0.012010132397174782 0 5.0852921789947595e-05 -0.011134929086244364 0 3.827637702002193e-07 -0.011263465510740334 0 -5.2078588460644541e-07 -0.011370292947308706 0 -0.00056760905162640991 -0.013234457817691694 0 -0.0018123232911650823 -0.012830605243037472 0 -2.3498974233413609e-06 -0.013436319695771325 0 -0.00092880256406507346 -0.012010132397174782 0 2.7914609270568432e-05 -0.012330368542775685 0 -0.00047927207412838517 -0.01091528013381333 0 -5.2078588460644541e-07 -0.011370292947308706 0 -0.00070503198754252666 -0.010966141710353322 0 -0.00047927207412838517 -0.01091528013381333 0 5.0852921789947595e-05 -0.011134929086244364 0 -5.2078588460644541e-07 -0.011370292947308706 0 -5.2078588460644541e-07 -0.011370292947308706 0 -1.1078298928921847e-06 -0.011228334568886786 0 -0.00070503198754252666 -0.010966141710353322 0 -1.1078298928921847e-06 -0.011228334568886786 0 -0.00093350751418907476 -0.010964764586029916 0 -0.00070503198754252666 -0.010966141710353322 0 -1.1078298928921847e-06 -0.011228334568886786 0 -0.00093350751418907476 -0.010964764586029916 0 -1.3513858973859998e-06 -0.011212048961783785 0 -0.00093350751418907476 -0.010964764586029916 0 -0.00070503198754252666 -0.010966141710353322 0 -0.0016646321408173368 -0.010181183290283504 0 -0.00093350751418907476 -0.010964764586029916 0 -0.0021029748943667474 -0.010288861417538946 0 -0.0016646321408173368 -0.010181183290283504 0 -0.00070503198754252666 -0.010966141710353322 0 -0.00112678939244078 -0.010185608355061906 0 -0.0016646321408173368 -0.010181183290283504 0 -0.00047927207412838517 -0.01091528013381333 0 -0.00070503198754252666 -0.010966141710353322 0 -0.00112678939244078 -0.010185608355061906 0 -2.1298523491814399e-06 -0.011290893643921095 0 -0.0010412822284419818 -0.011040461013119998 0 -0.0019356621681781137 -0.010843358542162788 0 -2.1298523491814399e-06 -0.011290893643921095 0 -1.3513858973859998e-06 -0.011212048961783785 0 -0.0010412822284419818 -0.011040461013119998 0 -0.00093350751418907476 -0.010964764586029916 0 -1.3513858973859998e-06 -0.011212048961783785 0 -0.0010412822284419818 -0.011040461013119998 0 -0.00093350751418907476 -0.010964764586029916 0 -0.0010412822284419818 -0.011040461013119998 0 -0.0021029748943667474 -0.010288861417538946 0 -0.0010412822284419818 -0.011040461013119998 0 -0.0019356621681781137 -0.010843358542162788 0 -0.0021029748943667474 -0.010288861417538946 0 -0.0021029748943667474 -0.010288861417538946 0 -0.0033127871225830082 -0.0090708924064304697 0 -0.0035797618956609073 -0.0097829818711307661 0 -0.0019356621681781137 -0.010843358542162788 0 -0.0021029748943667474 -0.010288861417538946 0 -0.0035797618956609073 -0.0097829818711307661 0 -0.0021029748943667474 -0.010288861417538946 0 -0.0033127871225830082 -0.0090708924064304697 0 -0.0024847388743572782 -0.0094634799741740838 0 -0.0033127871225830082 -0.0090708924064304697 0 -0.0024847388743572782 -0.0094634799741740838 0 -0.0031330763611980518 -0.0084473012813250526 0 -0.0033127871225830082 -0.0090708924064304697 0 -0.0035797618956609073 -0.0097829818711307661 0 -0.00488982851440385 -0.0083343969486649426 0 -0.00112678939244078 -0.010185608355061906 0 -0.0016646321408173368 -0.010181183290283504 0 -0.0022951128151010602 -0.0090312760896218824 0 -0.0011015664821761807 -0.0091936052134639814 0 -0.00112678939244078 -0.010185608355061906 0 -0.0022951128151010602 -0.0090312760896218824 0 -0.0021029748943667474 -0.010288861417538946 0 -0.0016646321408173368 -0.010181183290283504 0 -0.0024847388743572782 -0.0094634799741740838 0 -0.0016646321408173368 -0.010181183290283504 0 -0.0024847388743572782 -0.0094634799741740838 0 -0.0022951128151010602 -0.0090312760896218824 0 -0.0024847388743572782 -0.0094634799741740838 0 -0.0022951128151010602 -0.0090312760896218824 0 -0.0031330763611980518 -0.0084473012813250526 0 -0.0022951128151010602 -0.0090312760896218824 0 -0.0031330763611980518 -0.0084473012813250526 0 -0.0032339042181745944 -0.0077403160602725896 0 -0.0011015664821761807 -0.0091936052134639814 0 -0.0022951128151010602 -0.0090312760896218824 0 -0.0023041760546842417 -0.0081544122734200329 0 -0.0022951128151010602 -0.0090312760896218824 0 -0.0023041760546842417 -0.0081544122734200329 0 -0.0032339042181745944 -0.0077403160602725896 0 0.0023861639519938086 -0.0046104009872577154 0 0.002256408345120189 -0.0039990765675602634 0 0.0017480090687359217 -0.003441078011633068 0 -0.0011275106652207565 -0.0077275633578011002 0 -0.00017477304707063033 -0.0055090124164607623 0 -0.0031330763611980518 -0.0084473012813250526 0 -0.0032339042181745944 -0.0077403160602725896 0 -0.0037181795911667803 -0.0075030677700761361 0 -0.00017477304707063033 -0.0055090124164607623 0 -0.0011404365008838276 -0.0054552882078116437 0 0.0013581933182524972 -0.0025036894794149712 0 0.0016085291658454177 -0.0032119485375276917 0 0.00110870729400914 -0.0022021370469387813 0 0.002256408345120189 -0.0039990765675602634 0 0.0013581933182524972 -0.0025036894794149712 0 0.0016085291658454177 -0.0032119485375276917 0 0.0013581933182524972 -0.0025036894794149712 0 0.0017480090687359217 -0.003441078011633068 0 0.0011569972254114544 -0.0022195732104903251 0 0.002256408345120189 -0.0039990765675602634 0 0.0013581933182524972 -0.0025036894794149712 0 0.0017480090687359217 -0.003441078011633068 0 -0.00488982851440385 -0.0083343969486649426 0 -0.0039420475373751398 -0.0080986767682685659 0 -0.0047782736034729708 -0.0070356897253211811 0 -0.0033127871225830082 -0.0090708924064304697 0 -0.00488982851440385 -0.0083343969486649426 0 -0.0039420475373751398 -0.0080986767682685659 0 -0.0033127871225830082 -0.0090708924064304697 0 -0.0031330763611980518 -0.0084473012813250526 0 -0.0039420475373751398 -0.0080986767682685659 0 -0.0031330763611980518 -0.0084473012813250526 0 -0.0039420475373751398 -0.0080986767682685659 0 -0.0037181795911667803 -0.0075030677700761361 0 0.0016085291658454177 -0.0032119485375276917 0 0.00110870729400914 -0.0022021370469387813 0 0.0012379480231709103 -0.002685563314236146 0 0.00110870729400914 -0.0022021370469387813 0 0.0012379480231709103 -0.002685563314236146 0 0.00061668985969705391 -0.0014328309661884547 0 -0.0011404365008838276 -0.0054552882078116437 0 -0.0017398982256908691 -0.0048297249043914581 0 -0.0039420475373751398 -0.0080986767682685659 0 -0.0037181795911667803 -0.0075030677700761361 0 -0.0047782736034729708 -0.0070356897253211811 0 -0.00488982851440385 -0.0083343969486649426 0 -0.0047782736034729708 -0.0070356897253211811 0 -0.0057214631633792593 -0.0068174266950625359 0 0.0012379480231709103 -0.002685563314236146 0 0.00013490981565809104 -0.0019145954119260046 0 0.00061668985969705391 -0.0014328309661884547 0 -0.0017398982256908691 -0.0048297249043914581 0 -0.0028270366162714586 -0.0043915792551957626 0 0.00013490981565809104 -0.0019145954119260046 0 0.00061668985969705391 -0.0014328309661884547 0 -0.00013730601468396242 -0.00075166162427628912 0 0.00061668985969705391 -0.0014328309661884547 0 0.00022050334554825867 -0.00054838737580006371 0 -0.00013730601468396242 -0.00075166162427628912 0 0.00061668985969705391 -0.0014328309661884547 0 0.00059909236869465496 -0.0010693271741074415 0 0.00022050334554825867 -0.00054838737580006371 0 0.00110870729400914 -0.0022021370469387813 0 0.00061668985969705391 -0.0014328309661884547 0 0.00059909236869465496 -0.0010693271741074415 0 0.00059909236869465496 -0.0010693271741074415 0 6.8417171488561237e-07 -2.674249757384629e-07 0 6.8495652837614422e-07 -4.5277869431766137e-07 0 0.00059909236869465496 -0.0010693271741074415 0 6.8417171488561237e-07 -2.674249757384629e-07 0 0.00022050334554825867 -0.00054838737580006371 0 6.8417171488561237e-07 -2.674249757384629e-07 0 0.00022050334554825867 -0.00054838737580006371 0 -5.6900798696044191e-07 -1.0004450420926529e-07 0 0.00022050334554825867 -0.00054838737580006371 0 -5.6900798696044191e-07 -1.0004450420926529e-07 0 -0.00013730601468396242 -0.00075166162427628912 0 0.0013581933182524972 -0.0025036894794149712 0 0.0006383536954682954 -0.0011639695474818478 0 0.0011569972254114544 -0.0022195732104903251 0 0.0013581933182524972 -0.0025036894794149712 0 0.00059909236869465496 -0.0010693271741074415 0 0.0006383536954682954 -0.0011639695474818478 0 0.0013581933182524972 -0.0025036894794149712 0 0.00110870729400914 -0.0022021370469387813 0 0.00059909236869465496 -0.0010693271741074415 0 0.00059909236869465496 -0.0010693271741074415 0 0.0006383536954682954 -0.0011639695474818478 0 6.8495652837614422e-07 -4.5277869431766137e-07 0 0.0006383536954682954 -0.0011639695474818478 0 6.8495652837614422e-07 -4.5277869431766137e-07 0 7.3581007064754124e-07 -4.699496704556121e-07 0 7.3581007064754124e-07 -4.699496704556121e-07 0 0.00062987116061534443 -0.001167708368975324 0 9.2637127560831103e-07 -4.8932468510942394e-07 0 0.0006383536954682954 -0.0011639695474818478 0 7.3581007064754124e-07 -4.699496704556121e-07 0 0.00062987116061534443 -0.001167708368975324 0 0.0006383536954682954 -0.0011639695474818478 0 0.0011569972254114544 -0.0022195732104903251 0 0.00062987116061534443 -0.001167708368975324 0 0.0011569972254114544 -0.0022195732104903251 0 0.00062987116061534443 -0.001167708368975324 0 0.0013540183956604114 -0.0026373690280149849 0 0.00078843904972818429 -0.0012044766376375208 0 0.0019517179321020331 -0.0028433797912419956 0 0.0013540183956604114 -0.0026373690280149849 0 0.00062987116061534443 -0.001167708368975324 0 0.00078843904972818429 -0.0012044766376375208 0 0.0013540183956604114 -0.0026373690280149849 0 0.00078843904972818429 -0.0012044766376375208 0 9.2637127560831103e-07 -4.8932468510942394e-07 0 7.2650872862461507e-07 -1.9608154848416199e-07 0 0.00062987116061534443 -0.001167708368975324 0 0.00078843904972818429 -0.0012044766376375208 0 9.2637127560831103e-07 -4.8932468510942394e-07 0 0.00078843904972818429 -0.0012044766376375208 0 7.2650872862461507e-07 -1.9608154848416199e-07 0 0.00096977772601900252 -0.0011270862265001587 0 3.0425065208259554e-06 -1.1488363475800113e-06 0 0.00096977772601900252 -0.0011270862265001587 0 0.0023582879125694889 -0.0022003204809793188 0 7.2650872862461507e-07 -1.9608154848416199e-07 0 3.0425065208259554e-06 -1.1488363475800113e-06 0 0.00096977772601900252 -0.0011270862265001587 0 0.00096977772601900252 -0.0011270862265001587 0 0.0023582879125694889 -0.0022003204809793188 0 0.0019517179321020331 -0.0028433797912419956 0 0.00078843904972818429 -0.0012044766376375208 0 0.00096977772601900252 -0.0011270862265001587 0 0.0019517179321020331 -0.0028433797912419956 0 0.0019517179321020331 -0.0028433797912419956 0 0.0037729090038634869 -0.0040965908237005667 0 0.0030416083716368783 -0.0046713445054947589 0 0.0023582879125694889 -0.0022003204809793188 0 0.0019517179321020331 -0.0028433797912419956 0 0.0037729090038634869 -0.0040965908237005667 0 0.0048030737258673035 -0.006054701003530785 0 0.0037729090038634869 -0.0040965908237005667 0 0.0030416083716368783 -0.0046713445054947589 0 0.0019517179321020331 -0.0028433797912419956 0 0.0030416083716368783 -0.0046713445054947589 0 0.0021237676172777293 -0.0037950415257368723 0 0.0026188613975458631 -0.0049876373977997424 0 0.0030416083716368783 -0.0046713445054947589 0 0.0021237676172777293 -0.0037950415257368723 0 0.0026188613975458631 -0.0049876373977997424 0 0.0021237676172777293 -0.0037950415257368723 0 0.0019482322800444835 -0.004107083177087194 0 0.0023685765745207498 -0.0053057712410890887 0 0.0026188613975458631 -0.0049876373977997424 0 0.0019482322800444835 -0.004107083177087194 0 0.0023685765745207498 -0.0053057712410890887 0 0.0023861639519938086 -0.0046104009872577154 0 0.0019482322800444835 -0.004107083177087194 0 0.0023861639519938086 -0.0046104009872577154 0 0.0017480090687359217 -0.003441078011633068 0 0.0019482322800444835 -0.004107083177087194 0 0.0017480090687359217 -0.003441078011633068 0 0.0011569972254114544 -0.0022195732104903251 0 0.0013540183956604114 -0.0026373690280149849 0 0.0017480090687359217 -0.003441078011633068 0 0.0019482322800444835 -0.004107083177087194 0 0.0013540183956604114 -0.0026373690280149849 0 0.0019517179321020331 -0.0028433797912419956 0 0.0021237676172777293 -0.0037950415257368723 0 0.0013540183956604114 -0.0026373690280149849 0 0.0021237676172777293 -0.0037950415257368723 0 0.0019482322800444835 -0.004107083177087194 0 0.0013540183956604114 -0.0026373690280149849 0 
</DataArray>
</PointData>
<CellData Scalars="region_id,cross_section_updated,normal_displacement_jump,tangential_displacement_jump," Vectors="" Tensors="stress,">
<DataArray type="Float64" Name="region_id" format="ascii">
11 11 11 11 11 11 11 11 11 11 11 5 11 11 5 11 11 11 11 11 6 11 11 5 11 5 11 11 11 11 6 11 11 11 11 6 11 11 6 11 11 11 11 11 11 11 11 11 11 11 11 11 11 11 11 11 11 11 11 11 11 11 11 11 11 11 11 4 11 4 11 11 11 11 11 11 11 11 11 11 4 11 11 11 4 11 11 11 11 11 11 11 11 11 11 11 11 11 11 11 11 11 11 11 11 11 11 11 11 11 11 11 11 11 11 11 11 11 11 11 11 11 11 11 
</DataArray>
<DataArray type="Float64" Name="stress" NumberOfComponents="9" format="ascii">
-2161100.6466768011 876898.88005690277 0 876898.88005690277 -340432.71752116084 0 0 0 -625383.34104949236 1153146.7141172066 73173.048267662525 0 73173.048267662525 -280768.53884121776 0 0 0 218094.54381900281 -6424253.8232370093 985963.6846562922 0 985963.6846562922 -1295099.4414649308 0 0 0 -1929838.3161754906 -3818678.542204611 -388798.56445689499 0 -388798.56445689499 -338468.86925649643 0 0 0 -1039286.8528652787 -3032144.54934448 990482.66078250855 0 990482.66078250855 -691022.84129592776 0 0 0 -930791.8476601094 -5223393.1258533597 -890383.06311208755 0 -890383.06311208755 310839.96282443404 0 0 0 -1228138.2907572389 -6393419.402453579 36125.964739970863 0 36125.964739970863 -615074.78729471564 0 0 0 -1752123.5474370793 -3104454.2375112511 648215.44849129021 0 648215.44849129021 -857429.31130696833 0 0 0 -990470.88720455393 -703348.05200346559 871962.25517642498 0 871962.25517642498 -607907.29424434155 0 0 0 -327813.83656194806 -2990365.1319647133 1145836.3682130054 0 1145836.3682130054 -80395.018449433148 0 0 0 -767690.03760353476 -2545998.4534075297 503795.58006308973 0 503795.58006308973 -146231.01433931291 0 0 0 -673057.36693670973 4835.2299119312402 515.1105220885911 0 515.1105220885911 -307.79999267481344 0 0 0 1131.8574798141067 -3479845.0335348584 944283.82362755202 0 944283.82362755202 326443.22984295338 0 0 0 -788350.45092297159 -4957649.230046574 483727.64488963783 0 483727.64488963783 -1067035.8560792878 0 0 0 -1506171.2715314664 4971.8246440989842 551.4513145670694 0 551.4513145670694 -348.1884988470274 0 0 0 1155.909036312989 -3862284.772640571 2790871.7394406935 0 2790871.7394406935 319806.3139078021 0 0 0 -885619.6146831885 -5040487.8328295685 2755999.8059932739 0 2755999.8059932739 240489.0711325109 0 0 0 -1199999.6904242635 -4361333.6709278114 2417147.3554305527 0 2417147.3554305527 839432.66753089055 0 0 0 -880475.25084923208 -2710261.7463129554 1147683.9413301889 0 1147683.9413301889 370460.41344891489 0 0 0 -584950.33321600594 -5150999.0635413164 1011443.7197886053 0 1011443.7197886053 -456716.21764300251 0 0 0 -1401928.8202960803 -591.22186587575834 519.6950578739644 0 519.6950578739644 1480.3091276675732 0 0 0 222.27181544795349 -1665708.22056913 1680359.5428794064 0 1680359.5428794064 -1675084.4047916159 0 0 0 -835198.15634018555 -3667541.5633016303 828870.6702664271 0 828870.6702664271 -3079206.5524993837 0 0 0 -1686687.0289502665 5755.6289594481286 711.87989108544025 0 711.87989108544025 -515.77854343635272 0 0 0 1309.9626040029441 -4540347.5182984155 2864334.464949511 0 2864334.464949511 1880050.7822874486 0 0 0 -665074.18400273658 5303.8730839085911 643.28747988614487 0 643.28747988614487 -448.72267643244231 0 0 0 1213.787601869037 -4092238.0522351749 1262808.8840634152 0 1262808.8840634152 -2958622.7303604484 0 0 0 -1762715.1956489012 -4421652.8379659057 869151.54911674559 0 869151.54911674559 -2457507.0868359953 0 0 0 -1719789.981200479 -5775365.6735846028 1376011.2485561152 0 1376011.2485561152 -3109303.497749269 0 0 0 -2221167.2928334698 -4406880.711226359 1020717.770595856 0 1020717.770595856 -3429755.0615621731 0 0 0 -1959158.9431971386 -677.9095837486193 562.66311046260239 0 562.66311046260239 1670.6594424159757 0 0 0 248.18746466683888 -4508157.8275213353 1189666.6321283281 0 1189666.6321283281 -3178342.0965922475 0 0 0 -1921624.9810284004 -3741436.3399593122 914718.96985920891 0 914718.96985920891 -2854071.0813503563 0 0 0 -1648876.8553274199 -2000125.4012561515 1889160.8705775775 0 1889160.8705775775 -539568.69692774117 0 0 0 -634923.52454596758 -5586422.395211244 -1154690.7399897873 0 -1154690.7399897873 -2449993.6964232754 0 0 0 -2009104.0229086298 -490.21956916026966 440.23891245708364 0 440.23891245708364 1658.8036907267106 0 0 0 292.14603039160966 259506.34454043955 523338.2514636945 0 523338.2514636945 -521227.30207437277 0 0 0 -65430.239383481443 -11536302.552901525 -1783352.591689676 0 -1783352.591689676 -1104274.0094741248 0 0 0 -3160144.1405939125 184.41016987231524 -12.632739549395637 0 -12.632739549395637 1907.9597837001165 0 0 0 523.09248839310749 -3777066.7945393734 417714.51656381111 0 417714.51656381111 -1428577.5456777066 0 0 0 -1301411.0850542597 -3177468.8567113671 -176158.43959532678 0 -176158.43959532678 117761.13489523157 0 0 0 -764926.93045402877 -5763117.7180125583 863907.21697942913 0 863907.21697942913 -1113453.7976498876 0 0 0 -1719142.8789156096 -6728942.6735018604 152561.99043142051 0 152561.99043142051 -2229704.3688299209 0 0 0 -2239661.7605829462 -8013159.2049570251 732623.11368954368 0 732623.11368954368 -2578406.0590220988 0 0 0 -2647891.3159947805 -7267770.9755594414 1690873.9490771331 0 1690873.9490771331 -2401848.6773158 0 0 0 -2417404.913218813 -8070863.23293202 1198188.4184931405 0 1198188.4184931405 -3482262.7413311601 0 0 0 -2888281.4935657941 -6058906.0616692603 1080954.3501514886 0 1080954.3501514886 -2491465.6834657788 0 0 0 -2137592.9362837635 -5171656.9351723483 1666137.863363415 0 1666137.863363415 -1624158.7162647704 0 0 0 -1698953.9128592787 -12210520.774802029 113108.9774075076 0 113108.9774075076 -3632610.8010172471 0 0 0 -3960782.8939548172 -9984215.3282348812 615692.52898108959 0 615692.52898108959 -3776610.4122397006 0 0 0 -3440206.4351186454 -9223368.6740458868 66688.6505786255 0 66688.6505786255 -3497757.231448248 0 0 0 -3180281.4763735384 -8772408.7445420288 1419302.0680307448 0 1419302.0680307448 -3052813.6426694645 0 0 0 -2956305.5968028726 -9566812.050198352 577985.37117357925 0 577985.37117357925 -3932551.4371638224 0 0 0 -3374840.8718405422 -8253772.0016045719 858288.2402686798 0 858288.2402686798 -3987353.9323177636 0 0 0 -3060281.4834805876 -10599687.932770925 709414.24429465458 0 709414.24429465458 -3739761.7826323658 0 0 0 -3584862.428850824 -8445966.8421547264 1635734.8994877255 0 1635734.8994877255 -3771475.5440475494 0 0 0 -3054360.5965505689 -7241743.0419885609 1792496.0294874981 0 1792496.0294874981 -4068733.1511178762 0 0 0 -2827619.0482766125 -8767629.3130601011 912510.51246795803 0 912510.51246795803 -3944417.645988103 0 0 0 -3178011.7397620529 -7275100.0929544307 1935475.2801625468 0 1935475.2801625468 -3069310.2817984745 0 0 0 -2586102.5936882272 -5324429.0597944986 862861.76405906305 0 862861.76405906305 -2796048.9988711104 0 0 0 -2030119.5146664027 -7481651.6567369634 2006941.8480995521 0 2006941.8480995521 -3335580.5670276461 0 0 0 -2704308.0559411505 -7336322.3448463343 2010102.6550409533 0 2010102.6550409533 -3854041.7965711802 0 0 0 -2797591.0353543758 -7045620.8914189851 2277388.7502582669 0 2277388.7502582669 -3596796.5414469428 0 0 0 -2660604.3582164785 -7800767.323922947 2600814.5237010717 0 2600814.5237010717 -4173382.1921816096 0 0 0 -2993537.379026141 -8674289.7465421557 1339191.5728322007 0 1339191.5728322007 -4049580.3522215188 0 0 0 -3180967.5246909223 -7308905.9630842078 1702951.5764907598 0 1702951.5764907598 -3614069.1755767614 0 0 0 -2730743.7846652381 -5631165.8279792592 4084566.5417986438 0 4084566.5417986438 -1366190.635606166 0 0 0 -1749339.1158963563 4821.2368522997758 397.91878341245229 0 397.91878341245229 -115.40944544153308 0 0 0 1176.4568517145608 -6291448.5401867349 2507830.2215828113 0 2507830.2215828113 -4265218.7515086234 0 0 0 -2639166.8229238391 5083.0161778426609 466.96487944220394 0 466.96487944220394 -221.12386391837481 0 0 0 1215.4730784810711 -4773408.7353248876 3097510.7628551144 0 3097510.7628551144 -1023689.6639191192 0 0 0 -1449274.5998110003 -6383115.5388453174 3018143.2256181436 0 3018143.2256181436 -658446.44111532345 0 0 0 -1760390.4949901607 -5499977.4881600281 4072782.520987289 0 4072782.520987289 -876060.64058444649 0 0 0 -1594009.5321861217 -6826431.5487548131 4228050.5341211148 0 4228050.5341211148 -1127724.8675004877 0 0 0 -1988539.104063822 -7080959.1541243959 1111940.6910231933 0 1111940.6910231933 -3666827.6808304605 0 0 0 -2686946.7087387196 -7435248.8604404069 687008.80262934044 0 687008.80262934044 -3823639.5681063458 0 0 0 -2814722.1071366929 -7397998.5966177154 1644650.9347385094 0 1644650.9347385094 -4277138.9384096116 0 0 0 -2918784.3837568332 -5679285.1062334962 1204146.3605303206 0 1204146.3605303206 -3529223.0881383121 0 0 0 -2302127.0485929549 -5136150.9879416293 3234449.2078239978 0 3234449.2078239978 -1996295.0866369158 0 0 0 -1783111.5186446365 -5920935.0657583252 3679207.9817355126 0 3679207.9817355126 -1365006.6642730106 0 0 0 -1821485.4325078339 5313.658218712626 530.51657649183312 0 530.51657649183312 -285.56743301786764 0 0 0 1257.0226964236897 -7114715.3581064772 1366172.2955857553 0 1366172.2955857553 -3217343.0667861998 0 0 0 -2583014.6062231641 -6242121.6604896337 1105073.5749111921 0 1105073.5749111921 -4533133.638889581 0 0 0 -2693813.8248448037 -5149553.8906870596 1597264.1214942345 0 1597264.1214942345 -748565.71479024645 0 0 0 -1474529.9013693263 5540.8402113778802 591.07999962379483 0 591.07999962379483 -357.02137761116842 0 0 0 1295.9547084416781 -2489766.9784734882 1585803.2968001976 0 1585803.2968001976 -500575.67866390012 0 0 0 -747585.66428434686 -3598019.756218276 1590269.6177675046 0 1590269.6177675046 -451422.83450185508 0 0 0 -1012360.6476800325 -4206606.6288100686 2935633.613684345 0 2935633.613684345 -680813.71472813562 0 0 0 -1221855.0858845506 -5093215.5347261177 3215511.5413824422 0 3215511.5413824422 -540506.22020037472 0 0 0 -1408430.4387316233 -5052226.9550464591 3008626.1478852825 0 3008626.1478852825 -1682889.3878832399 0 0 0 -1683779.0857324246 -3569503.9865195351 2144943.2698892904 0 2144943.2698892904 182719.5132816853 0 0 0 -846696.11830946233 -2823802.9403212387 2339168.2731945137 0 2339168.2731945137 -940196.41175595729 0 0 0 -940999.83801929874 1253010.6397835659 1083499.166161794 0 1083499.166161794 258564.54790744465 0 0 0 377893.7969227531 -5538297.6537588211 3718223.4297183035 0 3718223.4297183035 -1158212.7907632813 0 0 0 -1674127.6111305254 -5673437.8171395697 3590444.2416284615 0 3590444.2416284615 -1117644.7904873146 0 0 0 -1697770.6519067199 -5204163.3149804305 3444077.7731654127 0 3444077.7731654127 -1328621.8297496748 0 0 0 -1633196.2861825253 -5001560.7836164664 3054634.1952757379 0 3054634.1952757379 -921790.13075181015 0 0 0 -1480837.7285920691 -5515682.2900469573 3354731.1265474348 0 3354731.1265474348 -1838450.8691017004 0 0 0 -1838533.2897871644 -5620247.3768560067 3475868.8769438639 0 3475868.8769438639 -1873291.7921915527 0 0 0 -1873384.7922618901 -5466514.6247727443 3382471.5944205737 0 3382471.5944205737 -1561716.8543813545 0 0 0 -1757057.8697885252 -5589133.5761915734 3797112.8279080321 0 3797112.8279080321 -1573704.3637246713 0 0 0 -1790709.4849790623 -5591981.5685933484 3823782.1636337079 0 3823782.1636337079 -1317202.087298315 0 0 0 -1727295.913972917 -6811133.6430953993 3030628.3930113646 0 3030628.3930113646 -1295539.6574261244 0 0 0 -2026668.3251303802 -5470280.7833237918 3653351.7509552781 0 3653351.7509552781 -1900792.8555706756 0 0 0 -1842768.4097236162 -6794002.3927273881 3462436.4401884107 0 3462436.4401884107 -2266544.2203168622 0 0 0 -2265136.6532610627 -6211398.5354175391 3130135.9014096679 0 3130135.9014096679 -2104567.3411334301 0 0 0 -2078991.4691377424 -8189298.1595120551 2718712.0093892999 0 2718712.0093892999 -2204417.2811795343 0 0 0 -2598428.8601728976 -13981592.08012354 2698029.6362685841 0 2698029.6362685841 -1748587.9772516936 0 0 0 -3932545.0143438075 -9444167.8108476568 3657857.1483248989 0 3657857.1483248989 -3141958.3062350317 0 0 0 -3146531.5292706727 -8395472.7624729183 1526633.2777217571 0 1526633.2777217571 339372.33768782206 0 0 0 -2014025.1061962745 -7639222.6890711542 3466052.5585600697 0 3466052.5585600697 -1790687.1382352114 0 0 0 -2357477.4568265923 -6095142.8048591325 905489.85960081778 0 905489.85960081778 7978.0190667249262 0 0 0 -1521791.1964481017 -8182888.641190704 1140063.5189863192 0 1140063.5189863192 -405799.29888823815 0 0 0 -2147171.985019736 -5857671.7448334862 902718.32471905649 0 902718.32471905649 8462.6877142861485 0 0 0 -1462302.2642798014 -6627794.6483928189 2430333.5473440243 0 2430333.5473440243 -597723.02842598408 0 0 0 -1806379.4192047026 -4705594.9111715406 1952299.3356211577 0 1952299.3356211577 228248.83084366098 0 0 0 -1119336.5200819671 -4880857.8792117815 2925057.0995936887 0 2925057.0995936887 -636719.82585501671 0 0 0 -1379394.4262667 -3020811.7608150635 2089158.4065534193 0 2089158.4065534193 858806.83575705439 0 0 0 -540501.23126450367 -3434028.290897524 4312347.2458565403 0 4312347.2458565403 -29563.318688079715 0 0 0 -865897.90239640232 -5439783.3484320249 3851626.3653051439 0 3851626.3653051439 -833114.77470999211 0 0 0 -1568224.5307855047 -5708733.1712271739 3983480.204120737 0 3983480.204120737 -1453610.878936626 0 0 0 -1790586.0125409495 -4576492.4816409824 4135056.0837998083 0 4135056.0837998083 -1164262.51617245 0 0 0 -1435188.7494533593 -5196615.2293372732 2779436.6799558541 0 2779436.6799558541 -746504.34399508312 0 0 0 -1485779.8933330886 -5251153.8535054512 2811447.3873196477 0 2811447.3873196477 -828017.87251584139 0 0 0 -1519792.931505322 
</DataArray>
<DataArray type="Float64" Name="cross_section_updated" format="ascii">
1 1 1 1 1 1 1 1 1 1 1 0.0038283475419063091 1 1 0.0038884399094289189 1 1 1 1 1 0.001534968834014723 1 1 0.0042773511774999197 1 0.0040311704325780425 1 1 1 1 0.0016282846051826755 1 1 1 1 0.0017308273479900473 1 1 0.0023128294552262046 1 1 1 1 1 1 1 1 1 1 1 1 1 1 1 1 1 1 1 1 1 1 1 1 1 1 1 1 0.0039238946428837435 1 0.0040414289843195257 1 1 1 1 1 1 1 1 1 1 0.0041404714134367178 1 1 1 0.0042405614817991998 1 1 1 1 1 1 1 1 1 1 1 1 1 1 1 1 1 1 1 1 1 1 1 1 1 1 1 1 1 1 1 1 1 1 1 1 1 1 1 
</DataArray>
<DataArray type="Float64" Name="normal_displacement_jump" format="ascii">
0 0 0 0 0 0 0 0 0 0 0 0.002828347541906309 0 0 0.0028884399094289189 0 0 0 0 0 0.00053496883401472385 0 0 0.0032773511774999201 0 0.0030311704325780425 0 0 0 0 0.00062828460518267459 0 0 0 0 0.00073082734799004637 0 0 0.0013128294552262037 0 0 0 0 0 0 0 0 0 0 0 0 0 0 0 0 0 0 0 0 0 0 0 0 0 0 0 0 0.0029238946428837439 0 0.0030414289843195257 0 0 0 0 0 0 0 0 0 0 0.0031404714134367177 0 0 0 0.0032405614817991998 0 0 0 0 0 0 0 0 0 0 0 0 0 0 0 0 0 0 0 0 0 0 0 0 0 0 0 0 0 0 0 0 0 0 0 0 0 0 0 
</DataArray>
<DataArray type="Float64" Name="tangential_displacement_jump" format="ascii">
0 0 0 0 0 0 0 0 0 0 0 0.0059262225587929989 0 0 0.0061568784946542197 0 0 0 0 0 0.0028396033165253957 0 0 0.0073432650416550985 0 0.006726255350609338 0 0 0 0 0.0031839266365412495 0 0 0 0 0.0028014446399430679 0 0 0.0016994894982171802 0 0 0 0 0 0 0 0 0 0 0 0 0 0 0 0 0 0 0 0 0 0 0 0 0 0 0 0 0.0055345263151161178 0 0.006010939524496421 0 0 0 0 0 0 0 0 0 0 0.0064008388740779522 0 0 0 0.0067928413402018814 0 0 0 0 0 0 0 0 0 0 0 0 0 0 0 0 0 0 0 0 0 0 0 0 0 0 0 0 0 0 0 0 0 0 0 0 0 0 0 
</DataArray>
</CellData>
</Piece>
</UnstructuredGrid>
</VTKFile>
