<?xml version="1.0"?>
<VTKFile type="UnstructuredGrid" version="0.1" byte_order="LittleEndian">
<UnstructuredGrid>
<Piece NumberOfPoints="360" NumberOfCells="124">
<Points>
<DataArray type="Float64" NumberOfComponents="3" format="ascii">
0 0 0 0.084352422163911631 0.086451712656266194 0 0 0.12500000000034689 0 0 0 0 0.084352422163911631 0.086451712656266194 0 0.1249999999997554 0 0 0 0.12500000000034689 0 0.1008171452988615 0.18885703697250469 0 0 0.25 0 0.084352422163911631 0.086451712656266194 0 0 0.12500000000034689 0 0.1008171452988615 0.18885703697250469 0 0.084352422163911631 0.086451712656266194 0 0.1008171452988615 0.18885703697250469 0 0.18402761812864499 0.1117324051466445 0 0.1008171452988615 0.18885703697250469 0 0.2403886547178353 0.24188814792673841 0 0.1249999999997599 0.31249999999987998 0 0.1008171452988615 0.18885703697250469 0 0.2403886547178353 0.24188814792673841 0 0.18402761812864499 0.1117324051466445 0 0.2403886547178353 0.24188814792673841 0 0.18402761812864499 0.1117324051466445 0 0.31250000000020822 0.12500000000041631 0 0.1249999999997554 0 0 0.18402761812864499 0.1117324051466445 0 0.25 -0 0 0.18402761812864499 0.1117324051466445 0 0.25 -0 0 0.31250000000020822 0.12500000000041631 0 0.084352422163911631 0.086451712656266194 0 0.1249999999997554 0 0 0.18402761812864499 0.1117324051466445 0 0.25 -0 0 0.31250000000020822 0.12500000000041631 0 0.25 -0 0 0.31250000000020822 0.12500000000041631 0 0.43749999999913258 0 0 0.2403886547178353 0.24188814792673841 0 0.31250000000020822 0.12500000000041631 0 0.37500000000027761 0.25000000000055511 0 0.31250000000020822 0.12500000000041631 0 0.37500000000027761 0.25000000000055511 0 0.31250000000020822 0.12500000000041631 0 0.4287911518546233 0.15455445427966699 0 0.37500000000027761 0.25000000000055511 0 0.4287911518546233 0.15455445427966699 0 0.49457493289300231 0.26251703776555491 0 0.37500000000027761 0.25000000000055511 0 0.4287911518546233 0.15455445427966699 0 0.49457493289300231 0.26251703776555491 0 0.54475767668582953 0.1431838882066932 0 0.31250000000020822 0.12500000000041631 0 0.4287911518546233 0.15455445427966699 0 0.43749999999913258 0 0 0.4287911518546233 0.15455445427966699 0 0.43749999999913258 0 0 0.54475767668582953 0.1431838882066932 0 0.37499999999973488 0.43749999999986738 0 0.5 0.5 -0 0.43750000000006939 0.37500000000013878 0 0.37499999999973488 0.43749999999986738 0 0.5 0.5 -0 0.43750000000006939 0.37500000000013878 0 0.33819444444448321 0.33819444444456342 0 0.37499999999973488 0.43749999999986738 0 0.43750000000006939 0.37500000000013878 0 0.5 0.5 -0 0.43750000000006939 0.37500000000013878 0 0.49457493289300231 0.26251703776555491 0 0.37500000000027761 0.25000000000055511 0 0.43750000000006939 0.37500000000013878 0 0.37500000000027761 0.25000000000055511 0 0.43750000000006939 0.37500000000013878 0 0.37500000000027761 0.25000000000055511 0 0.33819444444448321 0.33819444444456342 0 0.2403886547178353 0.24188814792673841 0 0.33819444444448321 0.33819444444456342 0 0.24999999999960859 0.37499999999980432 0 0.2403886547178353 0.24188814792673841 0 0.37500000000027761 0.25000000000055511 0 0.33819444444448321 0.33819444444456342 0 0.33819444444448321 0.33819444444456342 0 0.37499999999973488 0.43749999999986738 0 0.24999999999960859 0.37499999999980432 0 0.37499999999973488 0.43749999999986738 0 0.24999999999960859 0.37499999999980432 0 0.37499999999973488 0.43749999999986738 0 0.24999999999960859 0.37499999999980432 0 0.26452443700674649 0.51563531581639865 0 0.14929124186975251 0.44582793568106382 0 0.24999999999960859 0.37499999999980432 0 0.26452443700674649 0.51563531581639865 0 0.14929124186975251 0.44582793568106382 0 0.24999999999960859 0.37499999999980432 0 0.1249999999997599 0.31249999999987998 0 0.2403886547178353 0.24188814792673841 0 0.24999999999960859 0.37499999999980432 0 0.1249999999997599 0.31249999999987998 0 0.24999999999960859 0.37499999999980432 0 0.1249999999997599 0.31249999999987998 0 0.1249999999997599 0.31249999999987998 0 0 0.25 0 0 0.43750000000034689 0 0.1008171452988615 0.18885703697250469 0 0.1249999999997599 0.31249999999987998 0 0 0.25 0 0.1249999999997599 0.31249999999987998 0 0 0.25 0 0.14929124186975251 0.44582793568106382 0 0 0.43750000000034689 0 0.13928587515912139 0.57339806105677438 0 0.14929124186975251 0.44582793568106382 0 0.1249999999997599 0.31249999999987998 0 0 0.43750000000034689 0 0 0.43750000000034689 0 0 0.62500000000069389 0 0.13928587515912139 0.57339806105677438 0 0 0.62500000000069389 0 0.13900789599611679 0.72618316107059999 0 0.13928587515912139 0.57339806105677438 0 0 0.62500000000069389 0 0.13900789599611679 0.72618316107059999 0 0 0.81250000000104083 0 0.13900789599611679 0.72618316107059999 0 0.13928587515912139 0.57339806105677438 0 0.27589467050686478 0.66058853156435704 0 0.13900789599611679 0.72618316107059999 0 0.27987960212930818 0.83442741470570525 0 0.27589467050686478 0.66058853156435704 0 0.13928587515912139 0.57339806105677438 0 0.26452443700674649 0.51563531581639865 0 0.27589467050686478 0.66058853156435704 0 0.14929124186975251 0.44582793568106382 0 0.13928587515912139 0.57339806105677438 0 0.26452443700674649 0.51563531581639865 0 0 1 0 0.12710107136012311 0.87094806618203435 0 0.1875000000005205 1 0 0 1 0 0 0.81250000000104083 0 0.12710107136012311 0.87094806618203435 0 0.13900789599611679 0.72618316107059999 0 0 0.81250000000104083 0 0.12710107136012311 0.87094806618203435 0 0.13900789599611679 0.72618316107059999 0 0.12710107136012311 0.87094806618203435 0 0.27987960212930818 0.83442741470570525 0 0.12710107136012311 0.87094806618203435 0 0.1875000000005205 1 0 0.27987960212930818 0.83442741470570525 0 0.27987960212930818 0.83442741470570525 0 0.44927105396715372 0.85565124085155886 0 0.37500000000069389 1 0 0.1875000000005205 1 0 0.27987960212930818 0.83442741470570525 0 0.37500000000069389 1 0 0.27987960212930818 0.83442741470570525 0 0.44927105396715372 0.85565124085155886 0 0.38136204680495073 0.74038592213831234 0 0.44927105396715372 0.85565124085155886 0 0.38136204680495073 0.74038592213831234 0 0.50145856933078625 0.73674663046504862 0 0.44927105396715372 0.85565124085155886 0 0.37500000000069389 1 0 0.56250000000086742 1 0 0.26452443700674649 0.51563531581639865 0 0.27589467050686478 0.66058853156435704 0 0.4139414069912184 0.60563252640100373 0 0.37499999999973488 0.43749999999986738 0 0.26452443700674649 0.51563531581639865 0 0.4139414069912184 0.60563252640100373 0 0.27987960212930818 0.83442741470570525 0 0.27589467050686478 0.66058853156435704 0 0.38136204680495073 0.74038592213831234 0 0.27589467050686478 0.66058853156435704 0 0.38136204680495073 0.74038592213831234 0 0.4139414069912184 0.60563252640100373 0 0.38136204680495073 0.74038592213831234 0 0.4139414069912184 0.60563252640100373 0 0.50145856933078625 0.73674663046504862 0 0.4139414069912184 0.60563252640100373 0 0.50145856933078625 0.73674663046504862 0 0.5625 0.625 0 0.37499999999973488 0.43749999999986738 0 0.4139414069912184 0.60563252640100373 0 0.5 0.5 -0 0.4139414069912184 0.60563252640100373 0 0.5 0.5 -0 0.5625 0.625 0 0.5 0.5 -0 0.5625 0.625 0 0.63236534182377013 0.50296756406332266 0 0.5 0.5 -0 0.5625 0.625 0 0.50145856933078625 0.73674663046504862 0 0.5625 0.625 0 0.625 0.75 0 0.5625 0.625 0 0.625 0.75 0 0.71259747807844409 0.63846691315701831 0 0.625 0.75 0 0.73857795170433571 0.77736788564284653 0 0.5625 0.625 0 0.71259747807844409 0.63846691315701831 0 0.625 0.75 0 0.71259747807844409 0.63846691315701831 0 0.63236534182377013 0.50296756406332266 0 0.75338430262320943 0.49294443423175599 0 0.5625 0.625 0 0.71259747807844409 0.63846691315701831 0 0.63236534182377013 0.50296756406332266 0 0.56250000000086742 1 0 0.56777512057187585 0.8470224641095303 0 0.6875 0.875 0 0.44927105396715372 0.85565124085155886 0 0.56250000000086742 1 0 0.56777512057187585 0.8470224641095303 0 0.44927105396715372 0.85565124085155886 0 0.50145856933078625 0.73674663046504862 0 0.56777512057187585 0.8470224641095303 0 0.50145856933078625 0.73674663046504862 0 0.56777512057187585 0.8470224641095303 0 0.625 0.75 0 0.625 0.75 0 0.73857795170433571 0.77736788564284653 0 0.6875 0.875 0 0.73857795170433571 0.77736788564284653 0 0.6875 0.875 0 0.80552984491000901 0.88711122872127413 0 0.625 0.75 0 0.6875 0.875 0 0.56777512057187585 0.8470224641095303 0 0.625 0.75 0 0.6875 0.875 0 0.56250000000086742 1 0 0.6875 0.875 0 0.75 1 0 0.6875 0.875 0 0.75 1 0 0.80552984491000901 0.88711122872127413 0 0.6875 0.875 0 0.75 1 0 0.75 1 0 0.80552984491000901 0.88711122872127413 0 0.875 1 0 0.80552984491000901 0.88711122872127413 0 0.90637953422180084 0.90208583328057301 0 0.875 1 0 0.80552984491000901 0.88711122872127413 0 0.85787927391517405 0.753532520882502 0 0.90637953422180084 0.90208583328057301 0 0.73857795170433571 0.77736788564284653 0 0.80552984491000901 0.88711122872127413 0 0.85787927391517405 0.753532520882502 0 0.85787927391517405 0.753532520882502 0 1 0.83333333333356463 0 1 0.66666666666736052 0 0.85787927391517405 0.753532520882502 0 1 0.83333333333356463 0 0.90637953422180084 0.90208583328057301 0 1 0.83333333333356463 0 0.90637953422180084 0.90208583328057301 0 1 1 0 0.90637953422180084 0.90208583328057301 0 1 1 0 0.875 1 0 0.71259747807844409 0.63846691315701831 0 0.86127466977819722 0.57948076978797636 0 0.75338430262320943 0.49294443423175599 0 0.71259747807844409 0.63846691315701831 0 0.85787927391517405 0.753532520882502 0 0.86127466977819722 0.57948076978797636 0 0.71259747807844409 0.63846691315701831 0 0.73857795170433571 0.77736788564284653 0 0.85787927391517405 0.753532520882502 0 0.85787927391517405 0.753532520882502 0 0.86127466977819722 0.57948076978797636 0 1 0.66666666666736052 0 0.86127466977819722 0.57948076978797636 0 1 0.66666666666736052 0 1 0.50000000000138767 0 1 0.50000000000138767 0 0.86569408477091048 0.40983673916766611 0 1 0.33333333333448978 0 0.86127466977819722 0.57948076978797636 0 1 0.50000000000138767 0 0.86569408477091048 0.40983673916766611 0 0.86127466977819722 0.57948076978797636 0 0.75338430262320943 0.49294443423175599 0 0.86569408477091048 0.40983673916766611 0 0.75338430262320943 0.49294443423175599 0 0.86569408477091048 0.40983673916766611 0 0.71826039492840632 0.34564020717216182 0 0.86087286690217635 0.25206523597959418 0 0.71508993406183785 0.15715956854777599 0 0.71826039492840632 0.34564020717216182 0 0.86569408477091048 0.40983673916766611 0 0.86087286690217635 0.25206523597959418 0 0.71826039492840632 0.34564020717216182 0 0.86087286690217635 0.25206523597959418 0 1 0.33333333333448978 0 1 0.16666666666736049 0 0.86569408477091048 0.40983673916766611 0 0.86087286690217635 0.25206523597959418 0 1 0.33333333333448978 0 0.86087286690217635 0.25206523597959418 0 1 0.16666666666736049 0 0.87698901648812122 0.1160638338657984 0 1 0 0 0.87698901648812122 0.1160638338657984 0 0.81249999999947953 0 0 1 0.16666666666736049 0 1 0 0 0.87698901648812122 0.1160638338657984 0 0.87698901648812122 0.1160638338657984 0 0.81249999999947953 0 0 0.71508993406183785 0.15715956854777599 0 0.86087286690217635 0.25206523597959418 0 0.87698901648812122 0.1160638338657984 0 0.71508993406183785 0.15715956854777599 0 0.71508993406183785 0.15715956854777599 0 0.62499999999895905 0 0 0.54475767668582953 0.1431838882066932 0 0.81249999999947953 0 0 0.71508993406183785 0.15715956854777599 0 0.62499999999895905 0 0 0.43749999999913258 0 0 0.62499999999895905 0 0 0.54475767668582953 0.1431838882066932 0 0.71508993406183785 0.15715956854777599 0 0.54475767668582953 0.1431838882066932 0 0.61108462585082757 0.25750599582343231 0 0.49457493289300231 0.26251703776555491 0 0.54475767668582953 0.1431838882066932 0 0.61108462585082757 0.25750599582343231 0 0.49457493289300231 0.26251703776555491 0 0.61108462585082757 0.25750599582343231 0 0.56986707178436635 0.37762093650871992 0 0.43750000000006939 0.37500000000013878 0 0.49457493289300231 0.26251703776555491 0 0.56986707178436635 0.37762093650871992 0 0.43750000000006939 0.37500000000013878 0 0.5 0.5 -0 0.56986707178436635 0.37762093650871992 0 0.5 0.5 -0 0.63236534182377013 0.50296756406332266 0 0.56986707178436635 0.37762093650871992 0 0.63236534182377013 0.50296756406332266 0 0.75338430262320943 0.49294443423175599 0 0.71826039492840632 0.34564020717216182 0 0.63236534182377013 0.50296756406332266 0 0.56986707178436635 0.37762093650871992 0 0.71826039492840632 0.34564020717216182 0 0.71508993406183785 0.15715956854777599 0 0.61108462585082757 0.25750599582343231 0 0.71826039492840632 0.34564020717216182 0 0.61108462585082757 0.25750599582343231 0 0.56986707178436635 0.37762093650871992 0 0.71826039492840632 0.34564020717216182 0 
</DataArray>
</Points>
<Cells>
<DataArray type="UInt32" Name="connectivity" format="ascii">
0 1 2 3 4 5 6 7 8 9 10 11 12 13 14 15 16 17 18 19 20 21 22 23 24 25 26 27 28 29 30 31 32 33 34 35 36 37 38 39 40 41 42 43 44 45 46 47 48 49 50 51 52 53 54 55 56 57 58 59 60 61 62 63 64 65 66 67 68 69 70 71 72 73 74 75 76 77 78 79 80 81 82 83 84 85 86 87 88 89 90 91 92 93 94 95 96 97 98 99 100 101 102 103 104 105 106 107 108 109 110 111 112 113 114 115 116 117 118 119 120 121 122 123 124 125 126 127 128 129 130 131 132 133 134 135 136 137 138 139 140 141 142 143 144 145 146 147 148 149 150 151 152 153 154 155 156 157 158 159 160 161 162 163 164 165 166 167 168 169 170 171 172 173 174 175 176 177 178 179 180 181 182 183 184 185 186 187 188 189 190 191 192 193 194 195 196 197 198 199 200 201 202 203 204 205 206 207 208 209 210 211 212 213 214 215 216 217 218 219 220 221 222 223 224 225 226 227 228 229 230 231 232 233 234 235 236 237 238 239 240 241 242 243 244 245 246 247 248 249 250 251 252 253 254 255 256 257 258 259 260 261 262 263 264 265 266 267 268 269 270 271 272 273 274 275 276 277 278 279 280 281 282 283 284 285 286 287 288 289 290 291 292 293 294 295 296 297 298 299 300 301 302 303 304 305 306 307 308 309 310 311 312 313 314 315 316 317 318 319 320 321 322 323 324 325 326 327 328 329 330 331 332 333 334 335 336 337 338 339 340 341 342 343 344 345 346 347 348 349 350 351 352 353 354 355 356 357 358 359 
</DataArray>
<DataArray type="UInt32" Name="offsets" format="ascii">
3 6 9 12 15 18 21 24 27 30 33 35 38 41 43 46 49 52 55 58 60 63 66 68 71 73 76 79 82 85 87 90 93 96 99 101 104 107 109 112 115 118 121 124 127 130 133 136 139 142 145 148 151 154 157 160 163 166 169 172 175 178 181 184 187 190 193 195 198 200 203 206 209 212 215 218 221 224 227 230 232 235 238 241 243 246 249 252 255 258 261 264 267 270 273 276 279 282 285 288 291 294 297 300 303 306 309 312 315 318 321 324 327 330 333 336 339 342 345 348 351 354 357 360 
</DataArray>
<DataArray type="UInt32" Name="types" format="ascii">
5 5 5 5 5 5 5 5 5 5 5 3 5 5 3 5 5 5 5 5 3 5 5 3 5 3 5 5 5 5 3 5 5 5 5 3 5 5 3 5 5 5 5 5 5 5 5 5 5 5 5 5 5 5 5 5 5 5 5 5 5 5 5 5 5 5 5 3 5 3 5 5 5 5 5 5 5 5 5 5 3 5 5 5 3 5 5 5 5 5 5 5 5 5 5 5 5 5 5 5 5 5 5 5 5 5 5 5 5 5 5 5 5 5 5 5 5 5 5 5 5 5 5 5 
</DataArray>
</Cells>
<PointData Scalars="" Vectors="displacement," Tensors="">
<DataArray type="Float64" Name="displacement" NumberOfComponents="3" format="ascii">
5.4628849287788001e-08 -0.096452915221400273 0 -0.00085344674179055173 -0.095392529388882444 0 -2.2560328992019084e-08 -0.096194864493269625 0 5.4628849287788001e-08 -0.096452915221400273 0 -0.00085344674179055173 -0.095392529388882444 0 0.00061784456701612317 -0.094538641131858947 0 -2.2560328992019084e-08 -0.096194864493269625 0 -0.0028107284684334259 -0.094723809982341617 0 -1.1466905287760845e-06 -0.095673146790223484 0 -0.00085344674179055173 -0.095392529388882444 0 -2.2560328992019084e-08 -0.096194864493269625 0 -0.0028107284684334259 -0.094723809982341617 0 -0.00085344674179055173 -0.095392529388882444 0 -0.0028107284684334259 -0.094723809982341617 0 -0.0026424288238502416 -0.09248001762132238 0 -0.0028107284684334259 -0.094723809982341617 0 -0.0085938362559645019 -0.089630291898520884 0 -0.0087964251798800363 -0.092726491897658012 0 -0.0028107284684334259 -0.094723809982341617 0 -0.0085938362559645019 -0.089630291898520884 0 -0.0026424288238502416 -0.09248001762132238 0 -0.0085938362559645019 -0.089630291898520884 0 -0.0026424288238502416 -0.09248001762132238 0 -0.0049644937907131204 -0.086341983447608878 0 0.00061784456701612317 -0.094538641131858947 0 -0.0026424288238502416 -0.09248001762132238 0 0.00028848972707264841 -0.089835775208452248 0 -0.0026424288238502416 -0.09248001762132238 0 0.00028848972707264841 -0.089835775208452248 0 -0.0049644937907131204 -0.086341983447608878 0 -0.00085344674179055173 -0.095392529388882444 0 0.00061784456701612317 -0.094538641131858947 0 -0.0026424288238502416 -0.09248001762132238 0 0.013393502796141607 -0.06490575214751311 0 0.0073224759102127742 -0.060627236401669948 0 0.026323357337387693 -0.03970016589814597 0 0.019597825850664326 -0.035283220109945487 0 0.023279850483880659 -0.028831593950606738 0 -0.0085938362559645019 -0.089630291898520884 0 -0.0049644937907131204 -0.086341983447608878 0 -0.011756164782696183 -0.08317412034334716 0 0.0073224759102127742 -0.060627236401669948 0 0.0017272880348713473 -0.057566621809981025 0 0.019597825850664326 -0.035283220109945487 0 0.016738621841423464 -0.028388341644276609 0 0.015424317269126029 -0.030747281291516698 0 0.016738621841423464 -0.028388341644276609 0 0.012375157138499368 -0.023531987879347592 0 0.015424317269126029 -0.030747281291516698 0 0.016738621841423464 -0.028388341644276609 0 0.012375157138499368 -0.023531987879347592 0 0.014575704419678672 -0.021967055759641415 0 0.019597825850664326 -0.035283220109945487 0 0.016738621841423464 -0.028388341644276609 0 0.023279850483880659 -0.028831593950606738 0 0.016738621841423464 -0.028388341644276609 0 0.023279850483880659 -0.028831593950606738 0 0.014575704419678672 -0.021967055759641415 0 -0.013588147290802328 -0.080483052216808473 0 -0.0062977927430148788 -0.059141019947852209 0 -0.01636336525061682 -0.081789681837318343 0 -0.01758618379516963 -0.084870990294208207 0 -0.019837672498745275 -0.080134668359807884 0 -0.01636336525061682 -0.081789681837318343 0 -0.013931743512837765 -0.085478755838432591 0 -0.01758618379516963 -0.084870990294208207 0 -0.0022613976428247037 -0.051247899991254592 0 -0.0062977927430148788 -0.059141019947852209 0 0.010977256480421867 -0.02517431300912339 0 0.012375157138499368 -0.023531987879347592 0 0.015424317269126029 -0.030747281291516698 0 -0.0022613976428247037 -0.051247899991254592 0 0.0017272880348713473 -0.057566621809981025 0 -0.01636336525061682 -0.081789681837318343 0 -0.011756164782696183 -0.08317412034334716 0 -0.013931743512837765 -0.085478755838432591 0 -0.0085938362559645019 -0.089630291898520884 0 -0.013931743512837765 -0.085478755838432591 0 -0.013898481851927689 -0.089649764639252574 0 -0.0085938362559645019 -0.089630291898520884 0 -0.011756164782696183 -0.08317412034334716 0 -0.013931743512837765 -0.085478755838432591 0 -0.013931743512837765 -0.085478755838432591 0 -0.01758618379516963 -0.084870990294208207 0 -0.013898481851927689 -0.089649764639252574 0 -0.013588147290802328 -0.080483052216808473 0 -0.007189881695789946 -0.080374806793348144 0 -0.0049563297551901125 -0.068975699359676498 0 -0.0017380138563636825 -0.073025283181125764 0 -0.0050119124782248481 -0.073486855336431983 0 -0.0021261905305932846 -0.076737704414638397 0 -0.0017380138563636825 -0.073025283181125764 0 -0.0050119124782248481 -0.073486855336431983 0 -0.0021261905305932846 -0.076737704414638397 0 -0.0017380138563636825 -0.073025283181125764 0 0.00022407965475268289 -0.077711724425994763 0 -0.0085938362559645019 -0.089630291898520884 0 -0.013898481851927689 -0.089649764639252574 0 -0.0087964251798800363 -0.092726491897658012 0 -0.007189881695789946 -0.080374806793348144 0 -0.0044907422265890564 -0.085507109557383873 0 0.00022407965475268289 -0.077711724425994763 0 1.6996716023182646e-07 -0.078277861509333899 0 -2.3169207866312671e-07 -0.078748401992413244 0 -0.0028107284684334259 -0.094723809982341617 0 -0.0087964251798800363 -0.092726491897658012 0 -1.1466905287760845e-06 -0.095673146790223484 0 -0.0044907422265890564 -0.085507109557383873 0 0.00015227244276024915 -0.086783655782021504 0 -0.0021261905305932846 -0.076737704414638397 0 -2.3169207866312671e-07 -0.078748401992413244 0 -0.0031123741972686868 -0.076960974609325605 0 -0.0021261905305932846 -0.076737704414638397 0 0.00022407965475268289 -0.077711724425994763 0 -2.3169207866312671e-07 -0.078748401992413244 0 -2.3169207866312671e-07 -0.078748401992413244 0 -4.8867354937767161e-07 -0.07812191324448356 0 -0.0031123741972686868 -0.076960974609325605 0 -4.8867354937767161e-07 -0.07812191324448356 0 -0.004040640490683734 -0.077000886059034823 0 -0.0031123741972686868 -0.076960974609325605 0 -4.8867354937767161e-07 -0.07812191324448356 0 -0.004040640490683734 -0.077000886059034823 0 -5.8463596256764579e-07 -0.078116533455855244 0 -0.004040640490683734 -0.077000886059034823 0 -0.0031123741972686868 -0.076960974609325605 0 -0.0072386739686196352 -0.073573898698502796 0 -0.004040640490683734 -0.077000886059034823 0 -0.0090138728823438916 -0.074156812219115228 0 -0.0072386739686196352 -0.073573898698502796 0 -0.0031123741972686868 -0.076960974609325605 0 -0.0050119124782248481 -0.073486855336431983 0 -0.0072386739686196352 -0.073573898698502796 0 -0.0021261905305932846 -0.076737704414638397 0 -0.0031123741972686868 -0.076960974609325605 0 -0.0050119124782248481 -0.073486855336431983 0 -9.1308509763481396e-07 -0.078577822388376323 0 -0.0044543168566386565 -0.077410505031899252 0 -0.0082418485276353724 -0.076658914832984884 0 -9.1308509763481396e-07 -0.078577822388376323 0 -5.8463596256764579e-07 -0.078116533455855244 0 -0.0044543168566386565 -0.077410505031899252 0 -0.004040640490683734 -0.077000886059034823 0 -5.8463596256764579e-07 -0.078116533455855244 0 -0.0044543168566386565 -0.077410505031899252 0 -0.004040640490683734 -0.077000886059034823 0 -0.0044543168566386565 -0.077410505031899252 0 -0.0090138728823438916 -0.074156812219115228 0 -0.0044543168566386565 -0.077410505031899252 0 -0.0082418485276353724 -0.076658914832984884 0 -0.0090138728823438916 -0.074156812219115228 0 -0.0090138728823438916 -0.074156812219115228 0 -0.014148534830043646 -0.069048680024713788 0 -0.015194396287057207 -0.07217171782909293 0 -0.0082418485276353724 -0.076658914832984884 0 -0.0090138728823438916 -0.074156812219115228 0 -0.015194396287057207 -0.07217171782909293 0 -0.0090138728823438916 -0.074156812219115228 0 -0.014148534830043646 -0.069048680024713788 0 -0.010714472302817199 -0.07057055562963592 0 -0.014148534830043646 -0.069048680024713788 0 -0.010714472302817199 -0.07057055562963592 0 -0.013489708472052534 -0.066323340090383071 0 -0.014148534830043646 -0.069048680024713788 0 -0.015194396287057207 -0.07217171782909293 0 -0.020675692994954493 -0.066183341251795549 0 -0.0050119124782248481 -0.073486855336431983 0 -0.0072386739686196352 -0.073573898698502796 0 -0.0099794592216861482 -0.068564036684799351 0 -0.0049563297551901125 -0.068975699359676498 0 -0.0050119124782248481 -0.073486855336431983 0 -0.0099794592216861482 -0.068564036684799351 0 -0.0090138728823438916 -0.074156812219115228 0 -0.0072386739686196352 -0.073573898698502796 0 -0.010714472302817199 -0.07057055562963592 0 -0.0072386739686196352 -0.073573898698502796 0 -0.010714472302817199 -0.07057055562963592 0 -0.0099794592216861482 -0.068564036684799351 0 -0.010714472302817199 -0.07057055562963592 0 -0.0099794592216861482 -0.068564036684799351 0 -0.013489708472052534 -0.066323340090383071 0 -0.0099794592216861482 -0.068564036684799351 0 -0.013489708472052534 -0.066323340090383071 0 -0.013963525470939219 -0.063249632016494486 0 -0.0049563297551901125 -0.068975699359676498 0 -0.0099794592216861482 -0.068564036684799351 0 -0.010049248802396063 -0.06469620814711835 0 -0.0099794592216861482 -0.068564036684799351 0 -0.010049248802396063 -0.06469620814711835 0 -0.013963525470939219 -0.063249632016494486 0 0.010461781803354235 -0.021469882880573842 0 0.0096206684090989758 -0.018285508219141926 0 0.0076279225148667895 -0.015748061585046918 0 -0.0062977927430148788 -0.059141019947852209 0 -0.00042515813156685347 -0.036466900438729855 0 -0.013489708472052534 -0.066323340090383071 0 -0.013963525470939219 -0.063249632016494486 0 -0.016016263287707749 -0.062483407101286095 0 -0.00042515813156685347 -0.036466900438729855 0 -0.0050688463840239369 -0.039690108335133797 0 0.0057691002510177076 -0.011367056126235195 0 0.0068295518205820751 -0.0145875128516909 0 0.0046563948962618593 -0.0099516911375368243 0 0.0096206684090989758 -0.018285508219141926 0 0.0057691002510177076 -0.011367056126235195 0 0.0068295518205820751 -0.0145875128516909 0 0.0057691002510177076 -0.011367056126235195 0 0.0076279225148667895 -0.015748061585046918 0 0.0050568016720890247 -0.010070551906528785 0 0.0096206684090989758 -0.018285508219141926 0 0.0057691002510177076 -0.011367056126235195 0 0.0076279225148667895 -0.015748061585046918 0 -0.020675692994954493 -0.066183341251795549 0 -0.016826235025531752 -0.065035022732040246 0 -0.020321173746293317 -0.060782408103229997 0 -0.014148534830043646 -0.069048680024713788 0 -0.020675692994954493 -0.066183341251795549 0 -0.016826235025531752 -0.065035022732040246 0 -0.014148534830043646 -0.069048680024713788 0 -0.013489708472052534 -0.066323340090383071 0 -0.016826235025531752 -0.065035022732040246 0 -0.013489708472052534 -0.066323340090383071 0 -0.016826235025531752 -0.065035022732040246 0 -0.016016263287707749 -0.062483407101286095 0 0.0068295518205820751 -0.0145875128516909 0 0.0046563948962618593 -0.0099516911375368243 0 0.0051381652029104281 -0.012067994177722693 0 0.0046563948962618593 -0.0099516911375368243 0 0.0051381652029104281 -0.012067994177722693 0 0.0025188293184357918 -0.0065070276094084476 0 -0.0050688463840239369 -0.039690108335133797 0 -0.0074283939170150665 -0.036109155649439804 0 -0.016826235025531752 -0.065035022732040246 0 -0.016016263287707749 -0.062483407101286095 0 -0.020321173746293317 -0.060782408103229997 0 -0.020675692994954493 -0.066183341251795549 0 -0.020321173746293317 -0.060782408103229997 0 -0.024210392071940302 -0.060053681249014987 0 0.0051381652029104281 -0.012067994177722693 0 0.0003841116379884865 -0.0086604097974259525 0 0.0025188293184357918 -0.0065070276094084476 0 -0.0074283939170150665 -0.036109155649439804 0 -0.01208414661568271 -0.034470263287020228 0 0.0003841116379884865 -0.0086604097974259525 0 0.0025188293184357918 -0.0065070276094084476 0 -0.00075510397183104372 -0.0034784453617972833 0 0.0025188293184357918 -0.0065070276094084476 0 0.00087818302838553952 -0.0025152898485063437 0 -0.00075510397183104372 -0.0034784453617972833 0 0.0025188293184357918 -0.0065070276094084476 0 0.0025088159561831823 -0.0048365307953718416 0 0.00087818302838553952 -0.0025152898485063437 0 0.0046563948962618593 -0.0099516911375368243 0 0.0025188293184357918 -0.0065070276094084476 0 0.0025088159561831823 -0.0048365307953718416 0 0.0025088159561831823 -0.0048365307953718416 0 2.8926622871898907e-07 -1.220781098430464e-07 0 2.8838232083346898e-07 -2.0303027920484599e-07 0 0.0025088159561831823 -0.0048365307953718416 0 2.8926622871898907e-07 -1.220781098430464e-07 0 0.00087818302838553952 -0.0025152898485063437 0 2.8926622871898907e-07 -1.220781098430464e-07 0 0.00087818302838553952 -0.0025152898485063437 0 -2.7836374205749615e-07 -5.659679576122864e-08 0 0.00087818302838553952 -0.0025152898485063437 0 -2.7836374205749615e-07 -5.659679576122864e-08 0 -0.00075510397183104372 -0.0034784453617972833 0 0.0057691002510177076 -0.011367056126235195 0 0.0027367625381298317 -0.0052361752850723572 0 0.0050568016720890247 -0.010070551906528785 0 0.0057691002510177076 -0.011367056126235195 0 0.0025088159561831823 -0.0048365307953718416 0 0.0027367625381298317 -0.0052361752850723572 0 0.0057691002510177076 -0.011367056126235195 0 0.0046563948962618593 -0.0099516911375368243 0 0.0025088159561831823 -0.0048365307953718416 0 0.0025088159561831823 -0.0048365307953718416 0 0.0027367625381298317 -0.0052361752850723572 0 2.8838232083346898e-07 -2.0303027920484599e-07 0 0.0027367625381298317 -0.0052361752850723572 0 2.8838232083346898e-07 -2.0303027920484599e-07 0 3.2146381333230795e-07 -2.0627424922962167e-07 0 3.2146381333230795e-07 -2.0627424922962167e-07 0 0.0028190400399221286 -0.0052364210054003189 0 4.2337826211293238e-07 -2.1614149780098303e-07 0 0.0027367625381298317 -0.0052361752850723572 0 3.2146381333230795e-07 -2.0627424922962167e-07 0 0.0028190400399221286 -0.0052364210054003189 0 0.0027367625381298317 -0.0052361752850723572 0 0.0050568016720890247 -0.010070551906528785 0 0.0028190400399221286 -0.0052364210054003189 0 0.0050568016720890247 -0.010070551906528785 0 0.0028190400399221286 -0.0052364210054003189 0 0.0062115882497745384 -0.012051681327439069 0 0.0036780575426011513 -0.0054311242391041209 0 0.0092910851107671881 -0.01311808793551956 0 0.0062115882497745384 -0.012051681327439069 0 0.0028190400399221286 -0.0052364210054003189 0 0.0036780575426011513 -0.0054311242391041209 0 0.0062115882497745384 -0.012051681327439069 0 0.0036780575426011513 -0.0054311242391041209 0 4.2337826211293238e-07 -2.1614149780098303e-07 0 3.4691861036038867e-07 -8.045463813984036e-08 0 0.0028190400399221286 -0.0052364210054003189 0 0.0036780575426011513 -0.0054311242391041209 0 4.2337826211293238e-07 -2.1614149780098303e-07 0 0.0036780575426011513 -0.0054311242391041209 0 3.4691861036038867e-07 -8.045463813984036e-08 0 0.004605292013869125 -0.0051338151152051951 0 1.4298487273663838e-06 -5.3744565580165236e-07 0 0.004605292013869125 -0.0051338151152051951 0 0.011211959360729022 -0.010163560311177868 0 3.4691861036038867e-07 -8.045463813984036e-08 0 1.4298487273663838e-06 -5.3744565580165236e-07 0 0.004605292013869125 -0.0051338151152051951 0 0.004605292013869125 -0.0051338151152051951 0 0.011211959360729022 -0.010163560311177868 0 0.0092910851107671881 -0.01311808793551956 0 0.0036780575426011513 -0.0054311242391041209 0 0.004605292013869125 -0.0051338151152051951 0 0.0092910851107671881 -0.01311808793551956 0 0.0092910851107671881 -0.01311808793551956 0 0.018150913789293604 -0.019183622122510062 0 0.014575704419678672 -0.021967055759641415 0 0.011211959360729022 -0.010163560311177868 0 0.0092910851107671881 -0.01311808793551956 0 0.018150913789293604 -0.019183622122510062 0 0.023279850483880659 -0.028831593950606738 0 0.018150913789293604 -0.019183622122510062 0 0.014575704419678672 -0.021967055759641415 0 0.0092910851107671881 -0.01311808793551956 0 0.014575704419678672 -0.021967055759641415 0 0.0099950498229743074 -0.017647894463445394 0 0.012375157138499368 -0.023531987879347592 0 0.014575704419678672 -0.021967055759641415 0 0.0099950498229743074 -0.017647894463445394 0 0.012375157138499368 -0.023531987879347592 0 0.0099950498229743074 -0.017647894463445394 0 0.0089148457126839494 -0.019072521319705511 0 0.010977256480421867 -0.02517431300912339 0 0.012375157138499368 -0.023531987879347592 0 0.0089148457126839494 -0.019072521319705511 0 0.010977256480421867 -0.02517431300912339 0 0.010461781803354235 -0.021469882880573842 0 0.0089148457126839494 -0.019072521319705511 0 0.010461781803354235 -0.021469882880573842 0 0.0076279225148667895 -0.015748061585046918 0 0.0089148457126839494 -0.019072521319705511 0 0.0076279225148667895 -0.015748061585046918 0 0.0050568016720890247 -0.010070551906528785 0 0.0062115882497745384 -0.012051681327439069 0 0.0076279225148667895 -0.015748061585046918 0 0.0089148457126839494 -0.019072521319705511 0 0.0062115882497745384 -0.012051681327439069 0 0.0092910851107671881 -0.01311808793551956 0 0.0099950498229743074 -0.017647894463445394 0 0.0062115882497745384 -0.012051681327439069 0 0.0099950498229743074 -0.017647894463445394 0 0.0089148457126839494 -0.019072521319705511 0 0.0062115882497745384 -0.012051681327439069 0 
</DataArray>
</PointData>
<CellData Scalars="region_id,cross_section_updated," Vectors="" Tensors="stress,">
<DataArray type="Float64" Name="region_id" format="ascii">
11 11 11 11 11 11 11 11 11 11 11 5 11 11 5 11 11 11 11 11 6 11 11 5 11 5 11 11 11 11 6 11 11 11 11 6 11 11 6 11 11 11 11 11 11 11 11 11 11 11 11 11 11 11 11 11 11 11 11 11 11 11 11 11 11 11 11 4 11 4 11 11 11 11 11 11 11 11 11 11 4 11 11 11 4 11 11 11 11 11 11 11 11 11 11 11 11 11 11 11 11 11 11 11 11 11 11 11 11 11 11 11 11 11 11 11 11 11 11 11 11 11 11 11 
</DataArray>
<DataArray type="Float64" Name="stress" NumberOfComponents="9" format="ascii">
-11315413.42265898 4181799.6541165709 0 4181799.6541165709 -1569771.5941778421 0 0 0 -3221296.2542091608 4860112.1172870398 247723.01026254892 0 247723.01026254892 -1235086.0652409792 0 0 0 906256.51301151514 -31778762.145327866 4775477.7477906048 0 4775477.7477906048 -6140929.6491031647 0 0 0 -9479922.9486077428 -19210425.555371284 -1859571.0259808302 0 -1859571.0259808302 -1434359.5605120659 0 0 0 -5161196.2789708972 -15624851.522390522 4727333.638212502 0 4727333.638212502 -3170932.1522567272 0 0 0 -4698945.9186618105 -25972355.581865668 -4299903.3881429583 0 -4299903.3881429583 1731906.3520619869 0 0 0 -6060112.3074509501 -31642848.676575303 187691.15453387797 0 187691.15453387797 -2769987.5497797728 0 0 0 -8603209.056588769 -16267863.394873351 3189601.567987442 0 3189601.567987442 -4076064.0795477629 0 0 0 -5085981.8686052263 -3742365.9885128736 3934239.2284023762 0 3934239.2284023762 -2795614.0630021095 0 0 0 -1634495.0128787458 -15665641.700880766 5020828.2367956042 0 5020828.2367956042 -653397.571834445 0 0 0 -4079759.8181787729 -13235088.962253124 2239967.3668777347 0 2239967.3668777347 -731598.13031184673 0 0 0 -3491671.7731412649 18089.840449432049 13566.584359228364 0 13566.584359228364 -18077.111442037058 0 0 0 3.1822518487460911 -16937360.751102801 4910993.3745037094 0 4910993.3745037094 1130434.7134518772 0 0 0 -3951731.5094127171 -24453664.691131413 1586667.7150072157 0 1586667.7150072157 -6653156.4585775733 0 0 0 -7776705.2874272466 18498.41725024506 13873.644359258902 0 13873.644359258902 -18495.723562084218 0 0 0 0.67342204021042562 -19090332.40243946 13276152.790302221 0 13276152.790302221 1753428.9622539878 0 0 0 -4334225.8600463718 -23752171.191561237 13139574.636626303 0 13139574.636626303 1441946.2165035009 0 0 0 -5577556.2437644303 -21363499.263041578 11599212.062992632 0 11599212.062992632 4194884.8956939727 0 0 0 -4292153.5918368921 -13913849.056122825 5857080.6481915228 0 5857080.6481915228 1891272.1132770181 0 0 0 -3005644.2357114404 -25104715.36842021 4938887.5651131272 0 4938887.5651131272 -1945514.3288603742 0 0 0 -6762557.4243201567 -326.99562617716947 1271.6947907716958 0 1271.6947907716958 14910.920406538527 0 0 0 3645.9811950903422 -9626251.6403070986 6657076.4769589305 0 6657076.4769589305 -11322784.207160532 0 0 0 -5237258.9618668854 -18635760.648084581 3318106.1238150895 0 3318106.1238150895 -15669156.611867666 0 0 0 -8576229.3149881363 20586.234173408109 15446.019424511025 0 15446.019424511025 -20687.726866495883 0 0 0 -25.373173271942505 -21490591.688855395 13864756.004184008 0 13864756.004184008 9059613.8164330721 0 0 0 -3107744.468105562 19506.922429429102 14627.424296833156 0 14627.424296833156 -19462.640901123617 0 0 0 11.07038207637197 -19627751.216775477 4138695.1104764342 0 4138695.1104764342 -16360821.265899777 0 0 0 -8997143.1206687987 -21195236.248833477 2876705.2279692888 0 2876705.2279692888 -10752478.753342032 0 0 0 -7986928.7505438328 -28145440.627077878 5877950.378776975 0 5877950.378776975 -15745345.074490786 0 0 0 -10972696.425392151 -20304274.671000406 4568303.0943645835 0 4568303.0943645835 -17306739.349602818 0 0 0 -9402753.5051508397 -883.90492995757813 1517.5038648890295 0 1517.5038648890295 15217.832171300572 0 0 0 3583.4818103357502 -20645484.614340991 5659184.0584857315 0 5659184.0584857315 -14336529.440477133 0 0 0 -8745503.5137045383 -16647812.466612309 4056281.899148196 0 4056281.899148196 -12598985.247390628 0 0 0 -7311699.4285007417 -8878310.6590763032 8392913.1529293656 0 8392913.1529293656 -2402223.0019940138 0 0 0 -2820133.4152675569 -26806307.851918094 -5069801.9275195599 0 -5069801.9275195599 -11064049.623648681 0 0 0 -9467589.3688917086 -37.810543809180672 968.75094822512619 0 968.75094822512619 15097.717169828466 0 0 0 3764.9766565048158 1146998.6132220328 2312691.6422627866 0 2312691.6422627866 -2294519.6548836231 0 0 0 -286880.26041537523 -56273857.652297676 -8491612.6697009206 0 -8491612.6697009206 -5110450.0788321495 0 0 0 -15346076.932782412 3342.8533787078522 -1287.645853788199 0 -1287.645853788199 16579.139040616006 0 0 0 4980.4981048309673 -16775083.984939277 1879187.2889531758 0 1879187.2889531758 -6328581.5091359615 0 0 0 -5775916.3735187948 -14111178.254860155 -797100.83283424377 0 -797100.83283424377 524487.31260597706 0 0 0 -3396672.735563539 -25474159.68506055 3828568.8763914406 0 3828568.8763914406 -4927361.6845824085 0 0 0 -7600380.3424107321 -29629500.601232857 849322.18026095629 0 849322.18026095629 -10139142.699255347 0 0 0 -9942160.8251220584 -34865103.352306187 3217235.5826469809 0 3217235.5826469809 -11591096.097683191 0 0 0 -11614049.86249736 -31642651.971777629 7523311.3136935234 0 7523311.3136935234 -10777806.553828366 0 0 0 -10605114.631401522 -35092523.254821777 5441106.1151706427 0 5441106.1151706427 -15840867.220291257 0 0 0 -12733347.618778259 -26842588.999895096 5130721.2298266292 0 5130721.2298266292 -11805661.648401976 0 0 0 -9662062.6620742381 -23146516.901760522 7475492.856257081 0 7475492.856257081 -7244624.5302821472 0 0 0 -7597785.3580106534 -52328332.972687617 582218.76144185662 0 582218.76144185662 -16339700.699142575 0 0 0 -17167008.417957544 -43032161.372254431 2673778.1113449931 0 2673778.1113449931 -16968275.273552656 0 0 0 -15000109.161451757 -39911656.132811904 430275.94651502371 0 430275.94651502371 -15742490.441662788 0 0 0 -13913536.643618673 -37807256.58829774 6246072.0188200772 0 6246072.0188200772 -13775235.550016217 0 0 0 -12895623.034578459 -41271832.802700683 2628985.5101103187 0 2628985.5101103187 -17732198.077273428 0 0 0 -14751007.719993517 -35448061.328770906 3767033.2422204018 0 3767033.2422204018 -17948120.856165171 0 0 0 -13349045.546234012 -45200045.560011879 3162362.8697892725 0 3162362.8697892725 -16943321.586012602 0 0 0 -15535841.786506131 -36408293.258173853 7155171.6448473334 0 7155171.6448473334 -17391400.552672744 0 0 0 -13449923.452711612 -31307371.002103969 7697310.2573059499 0 7697310.2573059499 -18434006.605392873 0 0 0 -12435344.401874229 -37161281.856706038 3860487.4915235937 0 3860487.4915235937 -17936381.755424261 0 0 0 -13774415.903032586 -31556941.712976538 8629500.5751467347 0 8629500.5751467347 -14084637.520646252 0 0 0 -11410394.808405688 -23677547.048644245 4321365.3007617295 0 4321365.3007617295 -14316629.146512508 0 0 0 -9498544.0487892032 -32440865.341338374 8775099.649838984 0 8775099.649838984 -15162057.245824769 0 0 0 -11900730.646790808 -31952390.647494256 8900074.6294305921 0 8900074.6294305921 -17869539.652274966 0 0 0 -12455482.574942321 -30689281.938644528 9619424.0852482617 0 9619424.0852482617 -17042440.856898576 0 0 0 -11932930.698885769 -33635785.19052133 10810087.402820796 0 10810087.402820796 -19143148.882923543 0 0 0 -13194733.518361241 -37501724.20344016 5687582.665419966 0 5687582.665419966 -19112683.24085182 0 0 0 -14153601.861073002 -31887007.529055655 7000000.3828240633 0 7000000.3828240633 -17833507.57343334 0 0 0 -12430128.775622264 -24237414.077925865 18864317.227130868 0 18864317.227130868 -3913775.4697509855 0 0 0 -7037797.386919219 15856.583763927771 11876.047166092061 0 11876.047166092061 -15594.332923973136 0 0 0 65.562709988658753 -27676269.825340763 10240571.605829835 0 10240571.605829835 -19833105.492711544 0 0 0 -11877343.829513088 16585.221825621124 12442.465219799808 0 12442.465219799808 -16642.003183481182 0 0 0 -14.195339465013603 -20547953.402094468 14212105.196462944 0 14212105.196462944 -3994966.0054619312 0 0 0 -6135729.8518890925 -26984027.924724825 14213649.899677638 0 14213649.899677638 -1693897.2749679387 0 0 0 -7169481.299923189 -23866370.391515639 18475439.910019569 0 18475439.910019569 -3325590.7763922364 0 0 0 -6797990.2919769734 -28831405.790466845 18869654.842217457 0 18869654.842217457 -3933304.92837888 0 0 0 -8191177.6797114164 -30242333.598792683 4406037.9600608051 0 4406037.9600608051 -16727612.480407387 0 0 0 -11742486.519800019 -31929320.805243522 2959456.5190693438 0 2959456.5190693438 -17421230.333701909 0 0 0 -12337637.784736365 -31838688.180070475 6917993.0680021644 0 6917993.0680021644 -19488596.750067294 0 0 0 -12831821.232534453 -25067131.181272954 5075998.4668790102 0 5075998.4668790102 -16347773.572953999 0 0 0 -10353726.188556761 -21771617.000666764 14551163.597480595 0 14551163.597480595 -7562774.2882545441 0 0 0 -7333597.8222303241 -24721960.460056625 16195949.767349955 0 16195949.767349955 -5231328.4165289886 0 0 0 -7488322.219146397 17282.283872756685 12960.176164845649 0 12960.176164845649 -17257.695822131573 0 0 0 6.1470126562790028 -30609521.303435192 5659851.8679847121 0 5659851.8679847121 -15217842.660893321 0 0 0 -11456840.991082117 -26828452.162322 4401455.0460576713 0 4401455.0460576713 -20159825.572795689 0 0 0 -11747069.433779433 -21573032.790446304 7328516.8927134238 0 7328516.8927134238 -3027291.3686798513 0 0 0 -6150081.0397815369 17894.124624166761 13421.034432347276 0 13421.034432347276 -17901.179841240832 0 0 0 -1.7638042685171058 -10409766.40337201 7225106.0968493558 0 7225106.0968493558 -2065379.5987360794 0 0 0 -3118786.5005270224 -14710378.609211251 7310983.6011020932 0 7310983.6011020932 -2003376.7931363881 0 0 0 -4178438.8505869098 -17324663.62186249 13282069.342852993 0 13282069.342852993 -2744723.7026276886 0 0 0 -5017346.8311225437 -21552135.316161286 14493928.321523046 0 14493928.321523046 -2210797.5674416162 0 0 0 -5940733.2209007237 -21180618.807543691 13612006.760539185 0 13612006.760539185 -7059688.1752972985 0 0 0 -7060076.7457102463 -14667386.293258606 9816530.2989602461 0 9816530.2989602461 1008319.694977317 0 0 0 -3414766.6495703217 -11255432.024858849 10744983.635032758 0 10744983.635032758 -3751391.5945428233 0 0 0 -3751705.9048504173 6878845.7803752869 5232623.430554783 0 5232623.430554783 1313001.7740478069 0 0 0 2047961.8886057734 -23722790.636717156 16597559.142572593 0 16597559.142572593 -4729312.5570636094 0 0 0 -7113025.798445195 -24043909.581025057 16302023.35270234 0 16302023.35270234 -4681577.3850192055 0 0 0 -7181371.7415110637 -21838029.622458197 15526976.566467557 0 15526976.566467557 -5047971.5438537952 0 0 0 -6721500.2915779948 -21210294.758123245 13674712.704474134 0 13674712.704474134 -3874691.090642856 0 0 0 -6271246.4621915258 -23670854.739689656 15097294.817046475 0 15097294.817046475 -7890264.1518217167 0 0 0 -7890279.7228778433 -25184244.079260889 15594628.897647355 0 15594628.897647355 -8394684.8760294449 0 0 0 -8394732.2388225831 -23968030.775983434 14920854.875261109 0 14920854.875261109 -6923075.2956622317 0 0 0 -7722776.5179114155 -24361072.517077625 17146474.713102512 0 17146474.713102512 -6899204.0990173742 0 0 0 -7815069.1540237516 -25157845.086655881 16968602.246572196 0 16968602.246572196 -5497335.1363044083 0 0 0 -7663795.055740077 -31880102.225115988 13489568.253701728 0 13489568.253701728 -5481341.0368784517 0 0 0 -9340360.8154986091 -25174254.124346588 16599695.30568275 0 16599695.30568275 -8584384.6960890405 0 0 0 -8439659.7051089052 -31720994.635172326 15614605.043397332 0 15614605.043397332 -10574533.274292618 0 0 0 -10573881.977366235 -28394212.192282375 13715943.051014192 0 13715943.051014192 -9419964.355599694 0 0 0 -9453544.1369705126 -38572651.288192913 11968313.043177389 0 11968313.043177389 -10051007.220968746 0 0 0 -12155914.627290418 -66459744.599889591 12200463.974978929 0 12200463.974978929 -8052863.4620383531 0 0 0 -18628152.015481997 -44917977.936451495 16690531.170457453 0 16690531.170457453 -14969734.569637476 0 0 0 -14971928.126522241 -40047992.078668222 6827251.0814297721 0 6827251.0814297721 1546258.1928584948 0 0 0 -9625433.4714524318 -36440903.026945166 15883329.806311075 0 15883329.806311075 -8124196.0191270988 0 0 0 -11141274.761518061 -29543637.579115134 4279160.0559588969 0 4279160.0559588969 18082.914465501904 0 0 0 -7381388.6661624052 -40002123.782612577 5178615.6218005493 0 5178615.6218005493 -1581549.100664258 0 0 0 -10395918.220819201 -29066382.840200581 4462693.0415017754 0 4462693.0415017754 334704.4004316628 0 0 0 -7182919.6099422276 -31740392.257453721 11248896.887113536 0 11248896.887113536 -2023720.7039738894 0 0 0 -8441028.2403569147 -22625490.043016586 9331967.1030810475 0 9331967.1030810475 1283265.023525998 0 0 0 -5335556.2548726387 -23131778.313515432 13799588.125518447 0 13799588.125518447 -1788919.0865615308 0 0 0 -6230174.3500192314 -14737970.251531821 10317537.122635514 0 10317537.122635514 4369719.4148499817 0 0 0 -2592062.709170457 -16124168.708933979 19867658.095678754 0 19867658.095678754 1721331.223473534 0 0 0 -3600709.371365115 -23692378.015441783 17410927.188652176 0 17410927.188652176 -2537540.1696337461 0 0 0 -6557479.5462688729 -24877454.897770002 17751258.030345317 0 17751258.030345317 -5925583.3033103794 0 0 0 -7700759.550270088 -21077673.781838976 18725555.932979885 0 18725555.932979885 -4201864.6600457728 0 0 0 -6319884.6104711946 -24668283.841085419 12905668.499378975 0 12905668.499378975 -3053021.4961854368 0 0 0 -6930326.3343177103 -24227794.032365359 12747549.692649744 0 12747549.692649744 -3036870.0630957112 0 0 0 -6816166.0238652658 
</DataArray>
<DataArray type="Float64" Name="cross_section_updated" format="ascii">
1 1 1 1 1 1 1 1 1 1 1 0.0010000004148834618 1 1 0.0010000002229148125 1 1 1 1 1 0.010000000215359614 1 1 0.00099999949886304257 1 0.00099999992971961174 1 1 1 1 0.0099999998110024829 1 1 1 1 0.010413292765020024 1 1 0.013476875608042477 1 1 1 1 1 1 1 1 1 1 1 1 1 1 1 1 1 1 1 1 1 1 1 1 1 1 1 1 0.00099999997935663193 1 0.00099999998428231505 1 1 1 1 1 1 1 1 1 1 0.0009999999865578247 1 1 1 0.0009999999868449596 1 1 1 1 1 1 1 1 1 1 1 1 1 1 1 1 1 1 1 1 1 1 1 1 1 1 1 1 1 1 1 1 1 1 1 1 1 1 1 
</DataArray>
</CellData>
</Piece>
</UnstructuredGrid>
</VTKFile>
