<?xml version="1.0"?>
<VTKFile type="UnstructuredGrid" version="0.1" byte_order="LittleEndian">
<UnstructuredGrid>
<Piece NumberOfPoints="360" NumberOfCells="124">
<Points>
<DataArray type="Float64" NumberOfComponents="3" format="ascii">
0 0 0 0.084352422163911631 0.086451712656266194 0 0 0.12500000000034689 0 0 0 0 0.084352422163911631 0.086451712656266194 0 0.1249999999997554 0 0 0 0.12500000000034689 0 0.1008171452988615 0.18885703697250469 0 0 0.25 0 0.084352422163911631 0.086451712656266194 0 0 0.12500000000034689 0 0.1008171452988615 0.18885703697250469 0 0.084352422163911631 0.086451712656266194 0 0.1008171452988615 0.18885703697250469 0 0.18402761812864499 0.1117324051466445 0 0.1008171452988615 0.18885703697250469 0 0.2403886547178353 0.24188814792673841 0 0.1249999999997599 0.31249999999987998 0 0.1008171452988615 0.18885703697250469 0 0.2403886547178353 0.24188814792673841 0 0.18402761812864499 0.1117324051466445 0 0.2403886547178353 0.24188814792673841 0 0.18402761812864499 0.1117324051466445 0 0.31250000000020822 0.12500000000041631 0 0.1249999999997554 0 0 0.18402761812864499 0.1117324051466445 0 0.25 -0 0 0.18402761812864499 0.1117324051466445 0 0.25 -0 0 0.31250000000020822 0.12500000000041631 0 0.084352422163911631 0.086451712656266194 0 0.1249999999997554 0 0 0.18402761812864499 0.1117324051466445 0 0.25 -0 0 0.31250000000020822 0.12500000000041631 0 0.25 -0 0 0.31250000000020822 0.12500000000041631 0 0.43749999999913258 0 0 0.2403886547178353 0.24188814792673841 0 0.31250000000020822 0.12500000000041631 0 0.37500000000027761 0.25000000000055511 0 0.31250000000020822 0.12500000000041631 0 0.37500000000027761 0.25000000000055511 0 0.31250000000020822 0.12500000000041631 0 0.4287911518546233 0.15455445427966699 0 0.37500000000027761 0.25000000000055511 0 0.4287911518546233 0.15455445427966699 0 0.49457493289300231 0.26251703776555491 0 0.37500000000027761 0.25000000000055511 0 0.4287911518546233 0.15455445427966699 0 0.49457493289300231 0.26251703776555491 0 0.54475767668582953 0.1431838882066932 0 0.31250000000020822 0.12500000000041631 0 0.4287911518546233 0.15455445427966699 0 0.43749999999913258 0 0 0.4287911518546233 0.15455445427966699 0 0.43749999999913258 0 0 0.54475767668582953 0.1431838882066932 0 0.37499999999973488 0.43749999999986738 0 0.5 0.5 -0 0.43750000000006939 0.37500000000013878 0 0.37499999999973488 0.43749999999986738 0 0.5 0.5 -0 0.43750000000006939 0.37500000000013878 0 0.33819444444448321 0.33819444444456342 0 0.37499999999973488 0.43749999999986738 0 0.43750000000006939 0.37500000000013878 0 0.5 0.5 -0 0.43750000000006939 0.37500000000013878 0 0.49457493289300231 0.26251703776555491 0 0.37500000000027761 0.25000000000055511 0 0.43750000000006939 0.37500000000013878 0 0.37500000000027761 0.25000000000055511 0 0.43750000000006939 0.37500000000013878 0 0.37500000000027761 0.25000000000055511 0 0.33819444444448321 0.33819444444456342 0 0.2403886547178353 0.24188814792673841 0 0.33819444444448321 0.33819444444456342 0 0.24999999999960859 0.37499999999980432 0 0.2403886547178353 0.24188814792673841 0 0.37500000000027761 0.25000000000055511 0 0.33819444444448321 0.33819444444456342 0 0.33819444444448321 0.33819444444456342 0 0.37499999999973488 0.43749999999986738 0 0.24999999999960859 0.37499999999980432 0 0.37499999999973488 0.43749999999986738 0 0.24999999999960859 0.37499999999980432 0 0.37499999999973488 0.43749999999986738 0 0.24999999999960859 0.37499999999980432 0 0.26452443700674649 0.51563531581639865 0 0.14929124186975251 0.44582793568106382 0 0.24999999999960859 0.37499999999980432 0 0.26452443700674649 0.51563531581639865 0 0.14929124186975251 0.44582793568106382 0 0.24999999999960859 0.37499999999980432 0 0.1249999999997599 0.31249999999987998 0 0.2403886547178353 0.24188814792673841 0 0.24999999999960859 0.37499999999980432 0 0.1249999999997599 0.31249999999987998 0 0.24999999999960859 0.37499999999980432 0 0.1249999999997599 0.31249999999987998 0 0.1249999999997599 0.31249999999987998 0 0 0.25 0 0 0.43750000000034689 0 0.1008171452988615 0.18885703697250469 0 0.1249999999997599 0.31249999999987998 0 0 0.25 0 0.1249999999997599 0.31249999999987998 0 0 0.25 0 0.14929124186975251 0.44582793568106382 0 0 0.43750000000034689 0 0.13928587515912139 0.57339806105677438 0 0.14929124186975251 0.44582793568106382 0 0.1249999999997599 0.31249999999987998 0 0 0.43750000000034689 0 0 0.43750000000034689 0 0 0.62500000000069389 0 0.13928587515912139 0.57339806105677438 0 0 0.62500000000069389 0 0.13900789599611679 0.72618316107059999 0 0.13928587515912139 0.57339806105677438 0 0 0.62500000000069389 0 0.13900789599611679 0.72618316107059999 0 0 0.81250000000104083 0 0.13900789599611679 0.72618316107059999 0 0.13928587515912139 0.57339806105677438 0 0.27589467050686478 0.66058853156435704 0 0.13900789599611679 0.72618316107059999 0 0.27987960212930818 0.83442741470570525 0 0.27589467050686478 0.66058853156435704 0 0.13928587515912139 0.57339806105677438 0 0.26452443700674649 0.51563531581639865 0 0.27589467050686478 0.66058853156435704 0 0.14929124186975251 0.44582793568106382 0 0.13928587515912139 0.57339806105677438 0 0.26452443700674649 0.51563531581639865 0 0 1 0 0.12710107136012311 0.87094806618203435 0 0.1875000000005205 1 0 0 1 0 0 0.81250000000104083 0 0.12710107136012311 0.87094806618203435 0 0.13900789599611679 0.72618316107059999 0 0 0.81250000000104083 0 0.12710107136012311 0.87094806618203435 0 0.13900789599611679 0.72618316107059999 0 0.12710107136012311 0.87094806618203435 0 0.27987960212930818 0.83442741470570525 0 0.12710107136012311 0.87094806618203435 0 0.1875000000005205 1 0 0.27987960212930818 0.83442741470570525 0 0.27987960212930818 0.83442741470570525 0 0.44927105396715372 0.85565124085155886 0 0.37500000000069389 1 0 0.1875000000005205 1 0 0.27987960212930818 0.83442741470570525 0 0.37500000000069389 1 0 0.27987960212930818 0.83442741470570525 0 0.44927105396715372 0.85565124085155886 0 0.38136204680495073 0.74038592213831234 0 0.44927105396715372 0.85565124085155886 0 0.38136204680495073 0.74038592213831234 0 0.50145856933078625 0.73674663046504862 0 0.44927105396715372 0.85565124085155886 0 0.37500000000069389 1 0 0.56250000000086742 1 0 0.26452443700674649 0.51563531581639865 0 0.27589467050686478 0.66058853156435704 0 0.4139414069912184 0.60563252640100373 0 0.37499999999973488 0.43749999999986738 0 0.26452443700674649 0.51563531581639865 0 0.4139414069912184 0.60563252640100373 0 0.27987960212930818 0.83442741470570525 0 0.27589467050686478 0.66058853156435704 0 0.38136204680495073 0.74038592213831234 0 0.27589467050686478 0.66058853156435704 0 0.38136204680495073 0.74038592213831234 0 0.4139414069912184 0.60563252640100373 0 0.38136204680495073 0.74038592213831234 0 0.4139414069912184 0.60563252640100373 0 0.50145856933078625 0.73674663046504862 0 0.4139414069912184 0.60563252640100373 0 0.50145856933078625 0.73674663046504862 0 0.5625 0.625 0 0.37499999999973488 0.43749999999986738 0 0.4139414069912184 0.60563252640100373 0 0.5 0.5 -0 0.4139414069912184 0.60563252640100373 0 0.5 0.5 -0 0.5625 0.625 0 0.5 0.5 -0 0.5625 0.625 0 0.63236534182377013 0.50296756406332266 0 0.5 0.5 -0 0.5625 0.625 0 0.50145856933078625 0.73674663046504862 0 0.5625 0.625 0 0.625 0.75 0 0.5625 0.625 0 0.625 0.75 0 0.71259747807844409 0.63846691315701831 0 0.625 0.75 0 0.73857795170433571 0.77736788564284653 0 0.5625 0.625 0 0.71259747807844409 0.63846691315701831 0 0.625 0.75 0 0.71259747807844409 0.63846691315701831 0 0.63236534182377013 0.50296756406332266 0 0.75338430262320943 0.49294443423175599 0 0.5625 0.625 0 0.71259747807844409 0.63846691315701831 0 0.63236534182377013 0.50296756406332266 0 0.56250000000086742 1 0 0.56777512057187585 0.8470224641095303 0 0.6875 0.875 0 0.44927105396715372 0.85565124085155886 0 0.56250000000086742 1 0 0.56777512057187585 0.8470224641095303 0 0.44927105396715372 0.85565124085155886 0 0.50145856933078625 0.73674663046504862 0 0.56777512057187585 0.8470224641095303 0 0.50145856933078625 0.73674663046504862 0 0.56777512057187585 0.8470224641095303 0 0.625 0.75 0 0.625 0.75 0 0.73857795170433571 0.77736788564284653 0 0.6875 0.875 0 0.73857795170433571 0.77736788564284653 0 0.6875 0.875 0 0.80552984491000901 0.88711122872127413 0 0.625 0.75 0 0.6875 0.875 0 0.56777512057187585 0.8470224641095303 0 0.625 0.75 0 0.6875 0.875 0 0.56250000000086742 1 0 0.6875 0.875 0 0.75 1 0 0.6875 0.875 0 0.75 1 0 0.80552984491000901 0.88711122872127413 0 0.6875 0.875 0 0.75 1 0 0.75 1 0 0.80552984491000901 0.88711122872127413 0 0.875 1 0 0.80552984491000901 0.88711122872127413 0 0.90637953422180084 0.90208583328057301 0 0.875 1 0 0.80552984491000901 0.88711122872127413 0 0.85787927391517405 0.753532520882502 0 0.90637953422180084 0.90208583328057301 0 0.73857795170433571 0.77736788564284653 0 0.80552984491000901 0.88711122872127413 0 0.85787927391517405 0.753532520882502 0 0.85787927391517405 0.753532520882502 0 1 0.83333333333356463 0 1 0.66666666666736052 0 0.85787927391517405 0.753532520882502 0 1 0.83333333333356463 0 0.90637953422180084 0.90208583328057301 0 1 0.83333333333356463 0 0.90637953422180084 0.90208583328057301 0 1 1 0 0.90637953422180084 0.90208583328057301 0 1 1 0 0.875 1 0 0.71259747807844409 0.63846691315701831 0 0.86127466977819722 0.57948076978797636 0 0.75338430262320943 0.49294443423175599 0 0.71259747807844409 0.63846691315701831 0 0.85787927391517405 0.753532520882502 0 0.86127466977819722 0.57948076978797636 0 0.71259747807844409 0.63846691315701831 0 0.73857795170433571 0.77736788564284653 0 0.85787927391517405 0.753532520882502 0 0.85787927391517405 0.753532520882502 0 0.86127466977819722 0.57948076978797636 0 1 0.66666666666736052 0 0.86127466977819722 0.57948076978797636 0 1 0.66666666666736052 0 1 0.50000000000138767 0 1 0.50000000000138767 0 0.86569408477091048 0.40983673916766611 0 1 0.33333333333448978 0 0.86127466977819722 0.57948076978797636 0 1 0.50000000000138767 0 0.86569408477091048 0.40983673916766611 0 0.86127466977819722 0.57948076978797636 0 0.75338430262320943 0.49294443423175599 0 0.86569408477091048 0.40983673916766611 0 0.75338430262320943 0.49294443423175599 0 0.86569408477091048 0.40983673916766611 0 0.71826039492840632 0.34564020717216182 0 0.86087286690217635 0.25206523597959418 0 0.71508993406183785 0.15715956854777599 0 0.71826039492840632 0.34564020717216182 0 0.86569408477091048 0.40983673916766611 0 0.86087286690217635 0.25206523597959418 0 0.71826039492840632 0.34564020717216182 0 0.86087286690217635 0.25206523597959418 0 1 0.33333333333448978 0 1 0.16666666666736049 0 0.86569408477091048 0.40983673916766611 0 0.86087286690217635 0.25206523597959418 0 1 0.33333333333448978 0 0.86087286690217635 0.25206523597959418 0 1 0.16666666666736049 0 0.87698901648812122 0.1160638338657984 0 1 0 0 0.87698901648812122 0.1160638338657984 0 0.81249999999947953 0 0 1 0.16666666666736049 0 1 0 0 0.87698901648812122 0.1160638338657984 0 0.87698901648812122 0.1160638338657984 0 0.81249999999947953 0 0 0.71508993406183785 0.15715956854777599 0 0.86087286690217635 0.25206523597959418 0 0.87698901648812122 0.1160638338657984 0 0.71508993406183785 0.15715956854777599 0 0.71508993406183785 0.15715956854777599 0 0.62499999999895905 0 0 0.54475767668582953 0.1431838882066932 0 0.81249999999947953 0 0 0.71508993406183785 0.15715956854777599 0 0.62499999999895905 0 0 0.43749999999913258 0 0 0.62499999999895905 0 0 0.54475767668582953 0.1431838882066932 0 0.71508993406183785 0.15715956854777599 0 0.54475767668582953 0.1431838882066932 0 0.61108462585082757 0.25750599582343231 0 0.49457493289300231 0.26251703776555491 0 0.54475767668582953 0.1431838882066932 0 0.61108462585082757 0.25750599582343231 0 0.49457493289300231 0.26251703776555491 0 0.61108462585082757 0.25750599582343231 0 0.56986707178436635 0.37762093650871992 0 0.43750000000006939 0.37500000000013878 0 0.49457493289300231 0.26251703776555491 0 0.56986707178436635 0.37762093650871992 0 0.43750000000006939 0.37500000000013878 0 0.5 0.5 -0 0.56986707178436635 0.37762093650871992 0 0.5 0.5 -0 0.63236534182377013 0.50296756406332266 0 0.56986707178436635 0.37762093650871992 0 0.63236534182377013 0.50296756406332266 0 0.75338430262320943 0.49294443423175599 0 0.71826039492840632 0.34564020717216182 0 0.63236534182377013 0.50296756406332266 0 0.56986707178436635 0.37762093650871992 0 0.71826039492840632 0.34564020717216182 0 0.71508993406183785 0.15715956854777599 0 0.61108462585082757 0.25750599582343231 0 0.71826039492840632 0.34564020717216182 0 0.61108462585082757 0.25750599582343231 0 0.56986707178436635 0.37762093650871992 0 0.71826039492840632 0.34564020717216182 0 
</DataArray>
</Points>
<Cells>
<DataArray type="UInt32" Name="connectivity" format="ascii">
0 1 2 3 4 5 6 7 8 9 10 11 12 13 14 15 16 17 18 19 20 21 22 23 24 25 26 27 28 29 30 31 32 33 34 35 36 37 38 39 40 41 42 43 44 45 46 47 48 49 50 51 52 53 54 55 56 57 58 59 60 61 62 63 64 65 66 67 68 69 70 71 72 73 74 75 76 77 78 79 80 81 82 83 84 85 86 87 88 89 90 91 92 93 94 95 96 97 98 99 100 101 102 103 104 105 106 107 108 109 110 111 112 113 114 115 116 117 118 119 120 121 122 123 124 125 126 127 128 129 130 131 132 133 134 135 136 137 138 139 140 141 142 143 144 145 146 147 148 149 150 151 152 153 154 155 156 157 158 159 160 161 162 163 164 165 166 167 168 169 170 171 172 173 174 175 176 177 178 179 180 181 182 183 184 185 186 187 188 189 190 191 192 193 194 195 196 197 198 199 200 201 202 203 204 205 206 207 208 209 210 211 212 213 214 215 216 217 218 219 220 221 222 223 224 225 226 227 228 229 230 231 232 233 234 235 236 237 238 239 240 241 242 243 244 245 246 247 248 249 250 251 252 253 254 255 256 257 258 259 260 261 262 263 264 265 266 267 268 269 270 271 272 273 274 275 276 277 278 279 280 281 282 283 284 285 286 287 288 289 290 291 292 293 294 295 296 297 298 299 300 301 302 303 304 305 306 307 308 309 310 311 312 313 314 315 316 317 318 319 320 321 322 323 324 325 326 327 328 329 330 331 332 333 334 335 336 337 338 339 340 341 342 343 344 345 346 347 348 349 350 351 352 353 354 355 356 357 358 359 
</DataArray>
<DataArray type="UInt32" Name="offsets" format="ascii">
3 6 9 12 15 18 21 24 27 30 33 35 38 41 43 46 49 52 55 58 60 63 66 68 71 73 76 79 82 85 87 90 93 96 99 101 104 107 109 112 115 118 121 124 127 130 133 136 139 142 145 148 151 154 157 160 163 166 169 172 175 178 181 184 187 190 193 195 198 200 203 206 209 212 215 218 221 224 227 230 232 235 238 241 243 246 249 252 255 258 261 264 267 270 273 276 279 282 285 288 291 294 297 300 303 306 309 312 315 318 321 324 327 330 333 336 339 342 345 348 351 354 357 360 
</DataArray>
<DataArray type="UInt32" Name="types" format="ascii">
5 5 5 5 5 5 5 5 5 5 5 3 5 5 3 5 5 5 5 5 3 5 5 3 5 3 5 5 5 5 3 5 5 5 5 3 5 5 3 5 5 5 5 5 5 5 5 5 5 5 5 5 5 5 5 5 5 5 5 5 5 5 5 5 5 5 5 3 5 3 5 5 5 5 5 5 5 5 5 5 3 5 5 5 3 5 5 5 5 5 5 5 5 5 5 5 5 5 5 5 5 5 5 5 5 5 5 5 5 5 5 5 5 5 5 5 5 5 5 5 5 5 5 5 
</DataArray>
</Cells>
<PointData Scalars="" Vectors="displacement," Tensors="">
<DataArray type="Float64" Name="displacement" NumberOfComponents="3" format="ascii">
2.2451142740916358e-07 -0.024671202063916202 0 -0.00025884511267287229 -0.024320485295474464 0 -4.6376085305463091e-08 -0.024601433368862773 0 2.2451142740916358e-07 -0.024671202063916202 0 -0.00025884511267287229 -0.024320485295474464 0 0.00024670052381840579 -0.024018147244147723 0 -4.6376085305463091e-08 -0.024601433368862773 0 -0.00091982179424881746 -0.024111077569243296 0 -3.8272813096778809e-06 -0.024443210625522672 0 -0.00025884511267287229 -0.024320485295474464 0 -4.6376085305463091e-08 -0.024601433368862773 0 -0.00091982179424881746 -0.024111077569243296 0 -0.00025884511267287229 -0.024320485295474464 0 -0.00091982179424881746 -0.024111077569243296 0 -0.0008259312630962823 -0.023328839071298138 0 -0.00091982179424881746 -0.024111077569243296 0 -0.002838703459348529 -0.022369627108439951 0 -0.002955865270067476 -0.023453274188886181 0 -0.00091982179424881746 -0.024111077569243296 0 -0.002838703459348529 -0.022369627108439951 0 -0.0008259312630962823 -0.023328839071298138 0 -0.002838703459348529 -0.022369627108439951 0 -0.0008259312630962823 -0.023328839071298138 0 -0.001558040370744785 -0.021248197431491034 0 0.00024670052381840579 -0.024018147244147723 0 -0.0008259312630962823 -0.023328839071298138 0 0.0001580894841312916 -0.022427213660684148 0 -0.0008259312630962823 -0.023328839071298138 0 0.0001580894841312916 -0.022427213660684148 0 -0.001558040370744785 -0.021248197431491034 0 -0.00025884511267287229 -0.024320485295474464 0 0.00024670052381840579 -0.024018147244147723 0 -0.0008259312630962823 -0.023328839071298138 0 0.0043689732616553397 -0.017664578243871566 0 0.0023776052866156861 -0.016314595767300304 0 0.0085227361096674396 -0.012882671244924654 0 0.0063207041143415084 -0.011436773536534809 0 0.0075200714815364051 -0.0093672409992737894 0 -0.002838703459348529 -0.022369627108439951 0 -0.001558040370744785 -0.021248197431491034 0 -0.0038826412698303617 -0.020092744744571185 0 0.0023776052866156861 -0.016314595767300304 0 0.00055619589478968614 -0.015140581091638692 0 0.0063207041143415084 -0.011436773536534809 0 0.0054172200930043277 -0.0092332230592982924 0 0.0050188717004862257 -0.0099855372326591064 0 0.0054172200930043277 -0.0092332230592982924 0 0.0040380130377648555 -0.0076841280054562762 0 0.0050188717004862257 -0.0099855372326591064 0 0.0054172200930043277 -0.0092332230592982924 0 0.0040380130377648555 -0.0076841280054562762 0 0.0047264057677721691 -0.0071745776819654725 0 0.0063207041143415084 -0.011436773536534809 0 0.0054172200930043277 -0.0092332230592982924 0 0.0075200714815364051 -0.0093672409992737894 0 0.0054172200930043277 -0.0092332230592982924 0 0.0075200714815364051 -0.0093672409992737894 0 0.0047264057677721691 -0.0071745776819654725 0 -0.0046763296974745372 -0.019439439528546747 0 -0.0019553422352469852 -0.014324716084718785 0 -0.0056047404407561794 -0.019473099173008164 0 -0.0061095078899447057 -0.020596020136169436 0 -0.0069611961296343772 -0.018803931832725506 0 -0.0056047404407561794 -0.019473099173008164 0 -0.0047213688849957218 -0.020877837699939408 0 -0.0061095078899447057 -0.020596020136169436 0 -0.00093184127204092222 -0.013463671611076812 0 -0.0019553422352469852 -0.014324716084718785 0 0.0036293281896063938 -0.0082126033256810418 0 0.0040380130377648555 -0.0076841280054562762 0 0.0050188717004862257 -0.0099855372326591064 0 -0.00093184127204092222 -0.013463671611076812 0 0.00055619589478968614 -0.015140581091638692 0 -0.0056047404407561794 -0.019473099173008164 0 -0.0038826412698303617 -0.020092744744571185 0 -0.0047213688849957218 -0.020877837699939408 0 -0.002838703459348529 -0.022369627108439951 0 -0.0047213688849957218 -0.020877837699939408 0 -0.0047415576673832949 -0.022357518177173127 0 -0.002838703459348529 -0.022369627108439951 0 -0.0038826412698303617 -0.020092744744571185 0 -0.0047213688849957218 -0.020877837699939408 0 -0.0047213688849957218 -0.020877837699939408 0 -0.0061095078899447057 -0.020596020136169436 0 -0.0047415576673832949 -0.022357518177173127 0 -0.0046763296974745372 -0.019439439528546747 0 -0.0024029149721571069 -0.020090084441899067 0 -0.0015561032104319933 -0.016820140668737243 0 -0.00052000472049491841 -0.018218583037628265 0 -0.0016252381936590248 -0.018369307946686828 0 -0.00067810172139685921 -0.019472062897070715 0 -0.00052000472049491841 -0.018218583037628265 0 -0.0016252381936590248 -0.018369307946686828 0 -0.00067810172139685921 -0.019472062897070715 0 -0.00052000472049491841 -0.018218583037628265 0 9.533135695939615e-05 -0.019787832638934272 0 -0.002838703459348529 -0.022369627108439951 0 -0.0047415576673832949 -0.022357518177173127 0 -0.002955865270067476 -0.023453274188886181 0 -0.0024029149721571069 -0.020090084441899067 0 -0.0015024097007334857 -0.021680380423684528 0 9.533135695939615e-05 -0.019787832638934272 0 5.7479563995457992e-07 -0.019979261816376246 0 -7.3005689618411503e-07 -0.020149868348505358 0 -0.00091982179424881746 -0.024111077569243296 0 -0.002955865270067476 -0.023453274188886181 0 -3.8272813096778809e-06 -0.024443210625522672 0 -0.0015024097007334857 -0.021680380423684528 0 4.5942199198389657e-05 -0.022169189430425739 0 -0.00067810172139685921 -0.019472062897070715 0 -7.3005689618411503e-07 -0.020149868348505358 0 -0.0010224068321383201 -0.019557905377677143 0 -0.00067810172139685921 -0.019472062897070715 0 9.533135695939615e-05 -0.019787832638934272 0 -7.3005689618411503e-07 -0.020149868348505358 0 -7.3005689618411503e-07 -0.020149868348505358 0 -1.6241458129328382e-06 -0.019956859581212166 0 -0.0010224068321383201 -0.019557905377677143 0 -1.6241458129328382e-06 -0.019956859581212166 0 -0.001365980448417182 -0.019572850361084831 0 -0.0010224068321383201 -0.019557905377677143 0 -1.6241458129328382e-06 -0.019956859581212166 0 -0.001365980448417182 -0.019572850361084831 0 -1.9889017267042378e-06 -0.019951369339723718 0 -0.001365980448417182 -0.019572850361084831 0 -0.0010224068321383201 -0.019557905377677143 0 -0.0024216365317805779 -0.018387187393282739 0 -0.001365980448417182 -0.019572850361084831 0 -0.0030989558697406476 -0.018564059575623154 0 -0.0024216365317805779 -0.018387187393282739 0 -0.0010224068321383201 -0.019557905377677143 0 -0.0016252381936590248 -0.018369307946686828 0 -0.0024216365317805779 -0.018387187393282739 0 -0.00067810172139685921 -0.019472062897070715 0 -0.0010224068321383201 -0.019557905377677143 0 -0.0016252381936590248 -0.018369307946686828 0 -3.1714375441664437e-06 -0.020082226782095425 0 -0.0015375251753998612 -0.01969740158550197 0 -0.0028734098778794158 -0.019408371836398097 0 -3.1714375441664437e-06 -0.020082226782095425 0 -1.9889017267042378e-06 -0.019951369339723718 0 -0.0015375251753998612 -0.01969740158550197 0 -0.001365980448417182 -0.019572850361084831 0 -1.9889017267042378e-06 -0.019951369339723718 0 -0.0015375251753998612 -0.01969740158550197 0 -0.001365980448417182 -0.019572850361084831 0 -0.0015375251753998612 -0.01969740158550197 0 -0.0030989558697406476 -0.018564059575623154 0 -0.0015375251753998612 -0.01969740158550197 0 -0.0028734098778794158 -0.019408371836398097 0 -0.0030989558697406476 -0.018564059575623154 0 -0.0030989558697406476 -0.018564059575623154 0 -0.004886732806819595 -0.016730922472407643 0 -0.0053116975129753321 -0.017810104771286771 0 -0.0028734098778794158 -0.019408371836398097 0 -0.0030989558697406476 -0.018564059575623154 0 -0.0053116975129753321 -0.017810104771286771 0 -0.0030989558697406476 -0.018564059575623154 0 -0.004886732806819595 -0.016730922472407643 0 -0.003639097625335598 -0.017314281048260903 0 -0.004886732806819595 -0.016730922472407643 0 -0.003639097625335598 -0.017314281048260903 0 -0.0045866831870922577 -0.015785157712071146 0 -0.004886732806819595 -0.016730922472407643 0 -0.0053116975129753321 -0.017810104771286771 0 -0.0072570399297341888 -0.015629310403423417 0 -0.0016252381936590248 -0.018369307946686828 0 -0.0024216365317805779 -0.018387187393282739 0 -0.0033047793553643255 -0.016644921035698621 0 -0.0015561032104319933 -0.016820140668737243 0 -0.0016252381936590248 -0.018369307946686828 0 -0.0033047793553643255 -0.016644921035698621 0 -0.0030989558697406476 -0.018564059575623154 0 -0.0024216365317805779 -0.018387187393282739 0 -0.003639097625335598 -0.017314281048260903 0 -0.0024216365317805779 -0.018387187393282739 0 -0.003639097625335598 -0.017314281048260903 0 -0.0033047793553643255 -0.016644921035698621 0 -0.003639097625335598 -0.017314281048260903 0 -0.0033047793553643255 -0.016644921035698621 0 -0.0045866831870922577 -0.015785157712071146 0 -0.0033047793553643255 -0.016644921035698621 0 -0.0045866831870922577 -0.015785157712071146 0 -0.0046584131199543652 -0.014711984337234795 0 -0.0015561032104319933 -0.016820140668737243 0 -0.0033047793553643255 -0.016644921035698621 0 -0.0032424697689161486 -0.01529787097822303 0 -0.0033047793553643255 -0.016644921035698621 0 -0.0032424697689161486 -0.01529787097822303 0 -0.0046584131199543652 -0.014711984337234795 0 0.0034640213132942732 -0.0070164324300592959 0 0.0032526252699794948 -0.0060212927837583249 0 0.0025416364259233156 -0.0051894251979650056 0 -0.0019553422352469852 -0.014324716084718785 0 -0.00014784926293003809 -0.0095176160120357713 0 -0.0045866831870922577 -0.015785157712071146 0 -0.0046584131199543652 -0.014711984337234795 0 -0.0054723753945447075 -0.014339053548676017 0 -0.00014784926293003809 -0.0095176160120357713 0 -0.0017028771036765721 -0.0098203608256576726 0 0.0019667586399169678 -0.0037773590218897258 0 0.0023686644372079078 -0.0048441130391134917 0 0.0016165134549923495 -0.003310824971572519 0 0.0032526252699794948 -0.0060212927837583249 0 0.0019667586399169678 -0.0037773590218897258 0 0.0023686644372079078 -0.0048441130391134917 0 0.0019667586399169678 -0.0037773590218897258 0 0.0025416364259233156 -0.0051894251979650056 0 0.0016892578196491292 -0.0033390363990977827 0 0.0032526252699794948 -0.0060212927837583249 0 0.0019667586399169678 -0.0037773590218897258 0 0.0025416364259233156 -0.0051894251979650056 0 -0.0072570399297341888 -0.015629310403423417 0 -0.0058089214423203478 -0.015252284604042061 0 -0.0070296324269693141 -0.013661108448008476 0 -0.004886732806819595 -0.016730922472407643 0 -0.0072570399297341888 -0.015629310403423417 0 -0.0058089214423203478 -0.015252284604042061 0 -0.004886732806819595 -0.016730922472407643 0 -0.0045866831870922577 -0.015785157712071146 0 -0.0058089214423203478 -0.015252284604042061 0 -0.0045866831870922577 -0.015785157712071146 0 -0.0058089214423203478 -0.015252284604042061 0 -0.0054723753945447075 -0.014339053548676017 0 0.0023686644372079078 -0.0048441130391134917 0 0.0016165134549923495 -0.003310824971572519 0 0.0017882912432055946 -0.0040205518780672437 0 0.0016165134549923495 -0.003310824971572519 0 0.0017882912432055946 -0.0040205518780672437 0 0.00089102537462060758 -0.0021661302100528528 0 -0.0017028771036765721 -0.0098203608256576726 0 -0.0025685368252610155 -0.0087735801010513474 0 -0.0058089214423203478 -0.015252284604042061 0 -0.0054723753945447075 -0.014339053548676017 0 -0.0070296324269693141 -0.013661108448008476 0 -0.0072570399297341888 -0.015629310403423417 0 -0.0070296324269693141 -0.013661108448008476 0 -0.0085274910783466554 -0.013287146718827861 0 0.0017882912432055946 -0.0040205518780672437 0 0.00020098604992854248 -0.002885897064619624 0 0.00089102537462060758 -0.0021661302100528528 0 -0.0025685368252610155 -0.0087735801010513474 0 -0.004217986581341867 -0.0081259859546150264 0 0.00020098604992854248 -0.002885897064619624 0 0.00089102537462060758 -0.0021661302100528528 0 -0.0002152875510622295 -0.0011472594034238088 0 0.00089102537462060758 -0.0021661302100528528 0 0.00031669298303627953 -0.00083563321761466838 0 -0.0002152875510622295 -0.0011472594034238088 0 0.00089102537462060758 -0.0021661302100528528 0 0.00086957124412724747 -0.0016149518935034434 0 0.00031669298303627953 -0.00083563321761466838 0 0.0016165134549923495 -0.003310824971572519 0 0.00089102537462060758 -0.0021661302100528528 0 0.00086957124412724747 -0.0016149518935034434 0 0.00086957124412724747 -0.0016149518935034434 0 1.0005837050202243e-06 -4.0870564321293623e-07 0 9.9140096029266263e-07 -6.8456297252700846e-07 0 0.00086957124412724747 -0.0016149518935034434 0 1.0005837050202243e-06 -4.0870564321293623e-07 0 0.00031669298303627953 -0.00083563321761466838 0 1.0005837050202243e-06 -4.0870564321293623e-07 0 0.00031669298303627953 -0.00083563321761466838 0 -8.7632306822201444e-07 -1.6967201140682984e-07 0 0.00031669298303627953 -0.00083563321761466838 0 -8.7632306822201444e-07 -1.6967201140682984e-07 0 -0.0002152875510622295 -0.0011472594034238088 0 0.0019667586399169678 -0.0037773590218897258 0 0.00092733286009006417 -0.0017480811717627287 0 0.0016892578196491292 -0.0033390363990977827 0 0.0019667586399169678 -0.0037773590218897258 0 0.00086957124412724747 -0.0016149518935034434 0 0.00092733286009006417 -0.0017480811717627287 0 0.0019667586399169678 -0.0037773590218897258 0 0.0016165134549923495 -0.003310824971572519 0 0.00086957124412724747 -0.0016149518935034434 0 0.00086957124412724747 -0.0016149518935034434 0 0.00092733286009006417 -0.0017480811717627287 0 9.9140096029266263e-07 -6.8456297252700846e-07 0 0.00092733286009006417 -0.0017480811717627287 0 9.9140096029266263e-07 -6.8456297252700846e-07 0 1.0800465519897735e-06 -6.9441235309613421e-07 0 1.0800465519897735e-06 -6.9441235309613421e-07 0 0.00093606079486555614 -0.0017435663894003097 0 1.3944786077563644e-06 -7.2183446674179641e-07 0 0.00092733286009006417 -0.0017480811717627287 0 1.0800465519897735e-06 -6.9441235309613421e-07 0 0.00093606079486555614 -0.0017435663894003097 0 0.00092733286009006417 -0.0017480811717627287 0 0.0016892578196491292 -0.0033390363990977827 0 0.00093606079486555614 -0.0017435663894003097 0 0.0016892578196491292 -0.0033390363990977827 0 0.00093606079486555614 -0.0017435663894003097 0 0.0020443338650902405 -0.0039767537746757233 0 0.0012041004655371434 -0.0018023596738745993 0 0.0030202678618498706 -0.00431395842783146 0 0.0020443338650902405 -0.0039767537746757233 0 0.00093606079486555614 -0.0017435663894003097 0 0.0012041004655371434 -0.0018023596738745993 0 0.0020443338650902405 -0.0039767537746757233 0 0.0012041004655371434 -0.0018023596738745993 0 1.3944786077563644e-06 -7.2183446674179641e-07 0 1.1273532145356261e-06 -2.7771569039437119e-07 0 0.00093606079486555614 -0.0017435663894003097 0 0.0012041004655371434 -0.0018023596738745993 0 1.3944786077563644e-06 -7.2183446674179641e-07 0 0.0012041004655371434 -0.0018023596738745993 0 1.1273532145356261e-06 -2.7771569039437119e-07 0 0.0014992990957946345 -0.0016970920472520027 0 4.6669698177493832e-06 -1.7558657366485649e-06 0 0.0014992990957946345 -0.0016970920472520027 0 0.0036474662380903693 -0.003341025411461362 0 1.1273532145356261e-06 -2.7771569039437119e-07 0 4.6669698177493832e-06 -1.7558657366485649e-06 0 0.0014992990957946345 -0.0016970920472520027 0 0.0014992990957946345 -0.0016970920472520027 0 0.0036474662380903693 -0.003341025411461362 0 0.0030202678618498706 -0.00431395842783146 0 0.0012041004655371434 -0.0018023596738745993 0 0.0014992990957946345 -0.0016970920472520027 0 0.0030202678618498706 -0.00431395842783146 0 0.0030202678618498706 -0.00431395842783146 0 0.0058788985224937709 -0.0062747293269797364 0 0.0047264057677721691 -0.0071745776819654725 0 0.0036474662380903693 -0.003341025411461362 0 0.0030202678618498706 -0.00431395842783146 0 0.0058788985224937709 -0.0062747293269797364 0 0.0075200714815364051 -0.0093672409992737894 0 0.0058788985224937709 -0.0062747293269797364 0 0.0047264057677721691 -0.0071745776819654725 0 0.0030202678618498706 -0.00431395842783146 0 0.0047264057677721691 -0.0071745776819654725 0 0.0032629619298464225 -0.0057851901820046873 0 0.0040380130377648555 -0.0076841280054562762 0 0.0047264057677721691 -0.0071745776819654725 0 0.0032629619298464225 -0.0057851901820046873 0 0.0040380130377648555 -0.0076841280054562762 0 0.0032629619298464225 -0.0057851901820046873 0 0.0029391933697848799 -0.0062491044337306297 0 0.0036293281896063938 -0.0082126033256810418 0 0.0040380130377648555 -0.0076841280054562762 0 0.0029391933697848799 -0.0062491044337306297 0 0.0036293281896063938 -0.0082126033256810418 0 0.0034640213132942732 -0.0070164324300592959 0 0.0029391933697848799 -0.0062491044337306297 0 0.0034640213132942732 -0.0070164324300592959 0 0.0025416364259233156 -0.0051894251979650056 0 0.0029391933697848799 -0.0062491044337306297 0 0.0025416364259233156 -0.0051894251979650056 0 0.0016892578196491292 -0.0033390363990977827 0 0.0020443338650902405 -0.0039767537746757233 0 0.0025416364259233156 -0.0051894251979650056 0 0.0029391933697848799 -0.0062491044337306297 0 0.0020443338650902405 -0.0039767537746757233 0 0.0030202678618498706 -0.00431395842783146 0 0.0032629619298464225 -0.0057851901820046873 0 0.0020443338650902405 -0.0039767537746757233 0 0.0032629619298464225 -0.0057851901820046873 0 0.0029391933697848799 -0.0062491044337306297 0 0.0020443338650902405 -0.0039767537746757233 0 
</DataArray>
</PointData>
<CellData Scalars="region_id,cross_section_updated,normal_displacement_jump,tangential_displacement_jump," Vectors="" Tensors="stress,">
<DataArray type="Float64" Name="region_id" format="ascii">
11 11 11 11 11 11 11 11 11 11 11 5 11 11 5 11 11 11 11 11 6 11 11 5 11 5 11 11 11 11 6 11 11 11 11 6 11 11 6 11 11 11 11 11 11 11 11 11 11 11 11 11 11 11 11 11 11 11 11 11 11 11 11 11 11 11 11 4 11 4 11 11 11 11 11 11 11 11 11 11 4 11 11 11 4 11 11 11 11 11 11 11 11 11 11 11 11 11 11 11 11 11 11 11 11 11 11 11 11 11 11 11 11 11 11 11 11 11 11 11 11 11 11 11 
</DataArray>
<DataArray type="Float64" Name="stress" NumberOfComponents="9" format="ascii">
-3459606.9096185863 1433419.3381882459 0 1433419.3381882459 -557842.77208527923 0 0 0 -1004362.4204259664 1949857.4187349379 121525.63278952241 0 121525.63278952241 -460213.66101711988 0 0 0 372410.93942946196 -10418542.308667287 1612730.7444499135 0 1612730.7444499135 -2122680.0263831615 0 0 0 -3135305.5837626159 -6164566.2941982299 -631999.34442240745 0 -631999.34442240745 -555038.57349771261 0 0 0 -1679901.2169239819 -4883755.3922274988 1622293.5616294593 0 1622293.5616294593 -1132708.724476777 0 0 0 -1504116.0291760694 -8467204.6431125253 -1435669.247519657 0 -1435669.247519657 496026.07040330768 0 0 0 -1992794.6431773156 -10365930.02098608 79493.432536777109 0 79493.432536777109 -944256.57611477375 0 0 0 -2827546.6492752284 -5002880.0914832354 1020626.6072776169 0 1020626.6072776169 -1269295.451859951 0 0 0 -1568043.8858357817 -1072495.941004999 1400785.6973696649 0 1400785.6973696649 -949045.20702932775 0 0 0 -505385.28700858355 -4853720.1531453654 1831118.4375147149 0 1831118.4375147149 -116927.44125191867 0 0 0 -1242661.8985993266 -4087748.1662639156 826643.0648984015 0 826643.0648984015 -237551.94853270054 0 0 0 -1081325.0286991447 6981.6772545098547 2006.2775224917068 0 2006.2775224917068 -2280.2257218253453 0 0 0 1175.362883171128 -5539973.2152811494 1522591.0757484138 0 1522591.0757484138 492223.34100534022 0 0 0 -1261937.4685689453 -7884451.3893154338 675658.34041901678 0 675658.34041901678 -1763290.5207825303 0 0 0 -2411935.4775244966 7219.6658357791284 2059.1211842942203 0 2059.1211842942203 -2336.3009246365691 0 0 0 1220.8412277856396 -6063014.7382102981 4338462.0883917026 0 4338462.0883917026 588579.07044659555 0 0 0 -1368608.9169409201 -7680157.4483596869 4258807.5170664936 0 4258807.5170664936 426276.58545232564 0 0 0 -1813470.2157268338 -6830718.7314836811 3779706.6679370478 0 3779706.6679370478 1277915.9980703145 0 0 0 -1388200.6833533403 -4337542.0261654742 1847354.0911207115 0 1847354.0911207115 588844.21340529621 0 0 0 -937174.45319003984 -8046784.5146862082 1566868.1322642975 0 1566868.1322642975 -679281.11246401537 0 0 0 -2181516.4067875557 -889.56856381573652 845.02379922950263 0 845.02379922950263 3194.6236292440735 0 0 0 576.26376635708493 -3188300.7879709974 2248077.0741873309 0 2248077.0741873309 -3644120.8727808446 0 0 0 -1708105.4151879475 -6282564.1123641282 1118566.3091604933 0 1118566.3091604933 -5067900.6084625721 0 0 0 -2837616.1802066863 8482.6701292442449 2360.8484285743525 0 2360.8484285743525 -2675.5889937602387 0 0 0 1451.7702838710015 -6988790.6319933254 4536207.5668041557 0 4536207.5668041557 2803244.7833649293 0 0 0 -1046386.4621570949 7819.9677211243634 2198.6123169082639 0 2198.6123169082639 -2478.3910292308738 0 0 0 1335.3941729733724 -6620402.3381232321 1462797.6825351715 0 1462797.6825351715 -4976812.3892833591 0 0 0 -2899303.6818516403 -7117837.3001231849 972209.20887462795 0 972209.20887462795 -3532799.734080255 0 0 0 -2662659.2585508674 -9126243.4469505996 1835645.6411495078 0 1835645.6411495078 -4959761.8680672646 0 0 0 -3521501.3287544698 -6995649.0667011663 1350509.3226482719 0 1350509.3226482719 -5454587.4804911613 0 0 0 -3112559.1367980763 -955.35013063817314 860.54528069446337 0 860.54528069446337 3459.3577024001024 0 0 0 626.00189294048232 -6455443.7673528939 1991052.3076777682 0 1991052.3076777682 -4656808.4357360005 0 0 0 -2778063.0507722199 -5306169.1157907322 1369279.4454788938 0 1369279.4454788938 -4112801.0419691801 0 0 0 -2354742.5394399837 -2634141.9544769302 2845493.5910907462 0 2845493.5910907462 -782829.29736107588 0 0 0 -854242.81295949221 -9111289.9420908466 -1885304.4479921609 0 -1885304.4479921609 -3636866.8452888057 0 0 0 -3187039.1968449196 -560.27444932234448 605.8628334253408 0 605.8628334253408 3541.5749777860256 0 0 0 745.32513211591868 549877.91490925103 791769.98334245011 0 791769.98334245011 -787268.96669630706 0 0 0 -59347.762946762145 -18788147.235461604 -2921147.1492362916 0 -2921147.1492362916 -1804029.4843652099 0 0 0 -5148044.1799567007 623.06071993694786 -181.24320459353157 0 -181.24320459353157 4087.3008592180558 0 0 0 1177.5903947887537 -5367277.8693839535 606501.06520457519 0 606501.06520457519 -2125560.1487122178 0 0 0 -1873209.5045240298 -4485494.2561670281 -228843.10348003358 0 -228843.10348003358 165650.85702225938 0 0 0 -1079960.8497861885 -8384793.1778303506 1296349.7715279832 0 1296349.7715279832 -1696925.6275664256 0 0 0 -2520429.7013492035 -9837820.1392308399 226541.85856950283 0 226541.85856950283 -3378119.4283531308 0 0 0 -3303984.8918959945 -11764534.766274296 1095696.1057411283 0 1095696.1057411283 -3890278.2149571925 0 0 0 -3913703.2453078777 -10589410.728287455 2543013.5379059911 0 2543013.5379059911 -3617408.4189940933 0 0 0 -3551704.7868203851 -11850940.981720433 1762486.1724364571 0 1762486.1724364571 -5233288.1824634522 0 0 0 -4271057.2910459712 -8844148.5741396546 1666574.9593869485 0 1666574.9593869485 -3841384.3272125125 0 0 0 -3171383.2253380492 -7513130.8783806302 2533169.9475141019 0 2533169.9475141019 -2425301.2081462704 0 0 0 -2484608.0216317214 -18146476.405472234 162716.57194207609 0 162716.57194207609 -5454026.5014977604 0 0 0 -5900125.7267424911 -14773148.788935468 925113.91063509136 0 925113.91063509136 -5668816.3795861006 0 0 0 -5110491.2921303958 -13607301.680000111 82919.509817838669 0 82919.509817838669 -5251133.3553546667 0 0 0 -4714608.7588386983 -12959064.457460588 2116387.1420795619 0 2116387.1420795619 -4591949.2219023332 0 0 0 -4387753.4198407214 -14144112.288065299 858122.44270612299 0 858122.44270612299 -5896830.3480583727 0 0 0 -5010235.6590309106 -12199085.784593061 1271718.6876307447 0 1271718.6876307447 -5978381.1331802309 0 0 0 -4544366.7294433266 -15742406.90088727 1052297.1275295094 0 1052297.1275295094 -5613778.3970633075 0 0 0 -5339046.3244876452 -12485027.669880062 2410648.9262969848 0 2410648.9262969848 -5675856.056047678 0 0 0 -4540220.9314819425 -10647889.46390941 2637052.0637097731 0 2637052.0637097731 -6106696.8485141695 0 0 0 -4188646.5781058893 -13046920.815882549 1339444.0516013131 0 1339444.0516013131 -5940251.8683272153 0 0 0 -4746793.171052441 -10421463.521922663 2939947.5962909982 0 2939947.5962909982 -4625416.8982382976 0 0 0 -3761720.1050402382 -7697521.7791893035 1448437.8929323815 0 1448437.8929323815 -4587401.2121298909 0 0 0 -3071230.7478298023 -11005806.575011196 2976035.2459370047 0 2976035.2459370047 -5026166.7817615531 0 0 0 -4007993.3391931886 -10653897.43127048 2928108.2335381433 0 2928108.2335381433 -5812629.4195600897 0 0 0 -4116631.7127076387 -10390166.165046537 3301528.1364594176 0 3301528.1364594176 -5493158.6684146821 0 0 0 -3970831.2083653007 -11233103.047063526 3707155.6925771087 0 3707155.6925771087 -6230012.1901738942 0 0 0 -4365778.8093093596 -12056341.913535586 1981986.5181607008 0 1981986.5181607008 -6164249.3240713999 0 0 0 -4555147.8094017524 -10579031.774709161 2408418.7306159213 0 2408418.7306159213 -5601385.3636841327 0 0 0 -4045104.2845983207 -7982259.1830905508 6236852.548316231 0 6236852.548316231 -1517552.5084224902 0 0 0 -2374952.9228782617 6345.8029790673463 1739.4156180083501 0 1739.4156180083501 -1900.0051110400709 0 0 0 1111.4494670068191 -9417609.8320103176 3575066.7081001997 0 3575066.7081001997 -6373221.170201838 0 0 0 -3947707.750553038 6820.1335318388574 1839.8676682832511 0 1839.8676682832511 -2066.2152413685626 0 0 0 1188.4795726175735 -7209124.0243491177 4778428.8491521198 0 4778428.8491521198 -1471796.2675382942 0 0 0 -2170230.0729718488 -9152454.5112854987 4739266.9548318386 0 4739266.9548318386 -881483.14316992462 0 0 0 -2508484.4136138596 -7937379.4585414166 6131712.0445189178 0 6131712.0445189178 -1255200.3342067301 0 0 0 -2298144.9481870392 -9711782.4095322601 6271083.0128519395 0 6271083.0128519395 -1469679.070684284 0 0 0 -2795365.3700541332 -10300179.55076669 1606413.8425801545 0 1606413.8425801545 -5556334.0730741704 0 0 0 -3964128.4059602153 -11006793.004234865 1027985.8116629869 0 1027985.8116629869 -5844334.944165349 0 0 0 -4212781.9871000573 -10898099.75549873 2462462.850472115 0 2462462.850472115 -6362678.2850613147 0 0 0 -4315194.5101400092 -8614824.7741248049 1887745.9673316628 0 1887745.9673316628 -5388205.3940746486 0 0 0 -3500757.5420498662 -7582371.7178096296 4811939.2219526656 0 4811939.2219526656 -2723258.537348628 0 0 0 -2576407.5637895633 -8502505.5493367799 5405684.5192087125 0 5405684.5192087125 -1872130.815679146 0 0 0 -2593659.0912539805 7227.9626932028423 1932.1625776818544 0 1932.1625776818544 -2147.6154528411043 0 0 0 1270.0868100904345 -10451485.992283735 2111878.2973129377 0 2111878.2973129377 -4959229.1364613026 0 0 0 -3852678.7821862586 -9432517.7480262555 1558616.0679457039 0 1558616.0679457039 -6615186.9743256718 0 0 0 -4011926.1805879846 -7452579.7100127395 2480295.6926027173 0 2480295.6926027173 -1110789.4354913682 0 0 0 -2140842.2863760269 7619.1170965783131 2012.3958200263619 0 2012.3958200263619 -2236.1231100690547 0 0 0 1345.748496627315 -3809836.4359857803 2463370.4613074027 0 2463370.4613074027 -772905.12259358261 0 0 0 -1145685.3896448396 -5200218.2424410377 2446462.2233030726 0 2446462.2233030726 -668960.24039654061 0 0 0 -1467294.6207093946 -6090512.2382523715 4435616.2968621459 0 4435616.2968621459 -977772.45975642931 0 0 0 -1767071.1745021997 -7482691.0689499173 4816130.3727884442 0 4816130.3727884442 -822397.47427491471 0 0 0 -2076272.135806208 -7333173.7404064769 4543795.9145036731 0 4543795.9145036731 -2442625.7598945396 0 0 0 -2443949.8750752541 -5156555.1431596857 3275831.9304222907 0 3275831.9304222907 288729.73077051062 0 0 0 -1216956.353097294 -4055804.1494643139 3564471.9717097362 0 3564471.9717097362 -1350404.901244543 0 0 0 -1351552.2626772143 1961671.0575058246 1717321.0265531412 0 1717321.0265531412 396085.73587087728 0 0 0 589439.19834417524 -8051456.9636248965 5581144.5530431643 0 5581144.5530431643 -1707610.5162174068 0 0 0 -2439766.8699605744 -8198380.5135421418 5435708.6865730267 0 5435708.6865730267 -1624326.1076929253 0 0 0 -2455676.6553087663 -7555392.7964157537 5219206.5994422985 0 5219206.5994422985 -1798769.8787997426 0 0 0 -2338540.6688038744 -7269374.8148749545 4604841.7841291633 0 4604841.7841291633 -1358200.0571255868 0 0 0 -2156893.7180001359 -8012601.7625687886 5038208.0022447901 0 5038208.0022447901 -2670804.2181539503 0 0 0 -2670851.4951806846 -8352304.7767314138 5189953.8713884046 0 5189953.8713884046 -2783926.0907164742 0 0 0 -2784057.7168619717 -8047129.4394603986 5017035.0135117341 0 5017035.0135117341 -2355874.4782824516 0 0 0 -2600750.979435713 -8112393.4094595518 5693811.7229644954 0 5693811.7229644954 -2330563.6950336993 0 0 0 -2610739.2761233128 -8339884.9836641941 5643500.276444518 0 5643500.276444518 -1925941.064713303 0 0 0 -2566456.5120943766 -10419000.441483818 4487261.858834032 0 4487261.858834032 -1856075.2693141475 0 0 0 -3068768.9276994905 -8279061.0791352373 5479144.9939813409 0 5479144.9939813409 -2857218.4949479918 0 0 0 -2784069.8935208078 -10375774.652059104 5181095.4247416621 0 5181095.4247416621 -3461433.9108549883 0 0 0 -3459302.140728523 -9359012.0601649452 4600991.2131400444 0 4600991.2131400444 -3144723.6488071536 0 0 0 -3125933.927243026 -12585778.835222011 4004255.1612439626 0 4004255.1612439626 -3319985.9469454288 0 0 0 -3976441.1955418605 -21606509.19684441 4038377.7809519945 0 4038377.7809519945 -2649086.745519761 0 0 0 -6063898.9855910428 -14600973.227312269 5507648.2486703638 0 5507648.2486703638 -4857530.9154747697 0 0 0 -4864626.0356967598 -13003919.143779488 2268224.9085080829 0 2268224.9085080829 510549.10428191721 0 0 0 -3123342.5098743923 -11834031.76383917 5230648.4392757239 0 5230648.4392757239 -2689468.6229980132 0 0 0 -3630875.096709297 -9537869.9011619557 1394879.7513600439 0 1394879.7513600439 9784.4734438098967 0 0 0 -2382021.356929535 -12878297.221614059 1711666.4294948447 0 1711666.4294948447 -551780.67779651657 0 0 0 -3357519.4748526467 -9320077.6249071267 1415636.7124094106 0 1415636.7124094106 49118.959632158279 0 0 0 -2317739.6663187407 -10285221.830730021 3699076.1450268072 0 3699076.1450268072 -729709.43754282594 0 0 0 -2753732.8170682155 -7380316.1709650233 3075131.2763105668 0 3075131.2763105668 346915.33290248737 0 0 0 -1758350.2095156349 -7540864.9866866786 4528520.113437457 0 4528520.113437457 -639988.98765428364 0 0 0 -2045213.4935852401 -4988698.4988874737 3424765.5764187239 0 3424765.5764187239 1324169.510883525 0 0 0 -916132.24700098671 -5417770.7503967248 6435192.2573838197 0 6435192.2573838197 513030.97964319959 0 0 0 -1226184.942688385 -7734550.4644110315 5629357.0620915759 0 5629357.0620915759 -882551.27408863604 0 0 0 -2154275.4346249178 -8255193.9408872034 5851476.58380605 0 5851476.58380605 -2036870.4730298109 0 0 0 -2573016.1034792531 -6979135.4101106152 6129383.5156826451 0 6129383.5156826451 -1537675.6071749125 0 0 0 -2129202.7543213814 -8044066.7832308197 4224722.2851036917 0 4224722.2851036917 -1053250.4071936645 0 0 0 -2274329.297606119 -7965596.6696564676 4196704.5947974101 0 4196704.5947974101 -1051332.7103849407 0 0 0 -2254232.3450103523 
</DataArray>
<DataArray type="Float64" Name="cross_section_updated" format="ascii">
1 1 1 1 1 1 1 1 1 1 1 0.0039361396975978978 1 1 0.0040504178855937109 1 1 1 1 1 0.0024068779811142749 1 1 0.0046382115973910816 1 0.004332514930691673 1 1 1 1 0.0025774725228704977 1 1 1 1 0.0028639871168851978 1 1 0.0039523212503098856 1 1 1 1 1 1 1 1 1 1 1 1 1 1 1 1 1 1 1 1 1 1 1 1 1 1 1 1 0.0037420742495404623 1 0.0039781125874415041 1 1 1 1 1 1 1 1 1 1 0.0041712877396976756 1 1 1 0.0043655048782505531 1 1 1 1 1 1 1 1 1 1 1 1 1 1 1 1 1 1 1 1 1 1 1 1 1 1 1 1 1 1 1 1 1 1 1 1 1 1 1 
</DataArray>
<DataArray type="Float64" Name="normal_displacement_jump" format="ascii">
0 0 0 0 0 0 0 0 0 0 0 0.0029361396975978987 0 0 0.0030504178855937109 0 0 0 0 0 0.001406877981114274 0 0 0.0036382115973910816 0 0.0033325149306916721 0 0 0 0 0.0015774725228704968 0 0 0 0 0.0018639871168851969 0 0 0.0029523212503098847 0 0 0 0 0 0 0 0 0 0 0 0 0 0 0 0 0 0 0 0 0 0 0 0 0 0 0 0 0.0027420742495404622 0 0.0029781125874415036 0 0 0 0 0 0 0 0 0 0 0.0031712877396976756 0 0 0 0.0033655048782505535 0 0 0 0 0 0 0 0 0 0 0 0 0 0 0 0 0 0 0 0 0 0 0 0 0 0 0 0 0 0 0 0 0 0 0 0 0 0 0 
</DataArray>
<DataArray type="Float64" Name="tangential_displacement_jump" format="ascii">
0 0 0 0 0 0 0 0 0 0 0 0.012288383959037991 0 0 0.012660062403926807 0 0 0 0 0 0.0053277008217427497 0 0 0.014703326829714883 0 0.013611166773923194 0 0 0 0 0.0056940866995135011 0 0 0 0 0.0049975841660943781 0 0 0.003184292228667875 0 0 0 0 0 0 0 0 0 0 0 0 0 0 0 0 0 0 0 0 0 0 0 0 0 0 0 0 0.010858746282329707 0 0.011655133670409481 0 0 0 0 0 0 0 0 0 0 0.012282711933103608 0 0 0 0.012886462716394424 0 0 0 0 0 0 0 0 0 0 0 0 0 0 0 0 0 0 0 0 0 0 0 0 0 0 0 0 0 0 0 0 0 0 0 0 0 0 0 
</DataArray>
</CellData>
</Piece>
</UnstructuredGrid>
</VTKFile>
