<?xml version="1.0"?>
<VTKFile type="UnstructuredGrid" version="0.1" byte_order="LittleEndian">
<UnstructuredGrid>
<Piece NumberOfPoints="360" NumberOfCells="124">
<Points>
<DataArray type="Float64" NumberOfComponents="3" format="ascii">
0 0 0 0.084352422163911631 0.086451712656266194 0 0 0.12500000000034689 0 0 0 0 0.084352422163911631 0.086451712656266194 0 0.1249999999997554 0 0 0 0.12500000000034689 0 0.1008171452988615 0.18885703697250469 0 0 0.25 0 0.084352422163911631 0.086451712656266194 0 0 0.12500000000034689 0 0.1008171452988615 0.18885703697250469 0 0.084352422163911631 0.086451712656266194 0 0.1008171452988615 0.18885703697250469 0 0.18402761812864499 0.1117324051466445 0 0.1008171452988615 0.18885703697250469 0 0.2403886547178353 0.24188814792673841 0 0.1249999999997599 0.31249999999987998 0 0.1008171452988615 0.18885703697250469 0 0.2403886547178353 0.24188814792673841 0 0.18402761812864499 0.1117324051466445 0 0.2403886547178353 0.24188814792673841 0 0.18402761812864499 0.1117324051466445 0 0.31250000000020822 0.12500000000041631 0 0.1249999999997554 0 0 0.18402761812864499 0.1117324051466445 0 0.25 -0 0 0.18402761812864499 0.1117324051466445 0 0.25 -0 0 0.31250000000020822 0.12500000000041631 0 0.084352422163911631 0.086451712656266194 0 0.1249999999997554 0 0 0.18402761812864499 0.1117324051466445 0 0.25 -0 0 0.31250000000020822 0.12500000000041631 0 0.25 -0 0 0.31250000000020822 0.12500000000041631 0 0.43749999999913258 0 0 0.2403886547178353 0.24188814792673841 0 0.31250000000020822 0.12500000000041631 0 0.37500000000027761 0.25000000000055511 0 0.31250000000020822 0.12500000000041631 0 0.37500000000027761 0.25000000000055511 0 0.31250000000020822 0.12500000000041631 0 0.4287911518546233 0.15455445427966699 0 0.37500000000027761 0.25000000000055511 0 0.4287911518546233 0.15455445427966699 0 0.49457493289300231 0.26251703776555491 0 0.37500000000027761 0.25000000000055511 0 0.4287911518546233 0.15455445427966699 0 0.49457493289300231 0.26251703776555491 0 0.54475767668582953 0.1431838882066932 0 0.31250000000020822 0.12500000000041631 0 0.4287911518546233 0.15455445427966699 0 0.43749999999913258 0 0 0.4287911518546233 0.15455445427966699 0 0.43749999999913258 0 0 0.54475767668582953 0.1431838882066932 0 0.37499999999973488 0.43749999999986738 0 0.5 0.5 -0 0.43750000000006939 0.37500000000013878 0 0.37499999999973488 0.43749999999986738 0 0.5 0.5 -0 0.43750000000006939 0.37500000000013878 0 0.33819444444448321 0.33819444444456342 0 0.37499999999973488 0.43749999999986738 0 0.43750000000006939 0.37500000000013878 0 0.5 0.5 -0 0.43750000000006939 0.37500000000013878 0 0.49457493289300231 0.26251703776555491 0 0.37500000000027761 0.25000000000055511 0 0.43750000000006939 0.37500000000013878 0 0.37500000000027761 0.25000000000055511 0 0.43750000000006939 0.37500000000013878 0 0.37500000000027761 0.25000000000055511 0 0.33819444444448321 0.33819444444456342 0 0.2403886547178353 0.24188814792673841 0 0.33819444444448321 0.33819444444456342 0 0.24999999999960859 0.37499999999980432 0 0.2403886547178353 0.24188814792673841 0 0.37500000000027761 0.25000000000055511 0 0.33819444444448321 0.33819444444456342 0 0.33819444444448321 0.33819444444456342 0 0.37499999999973488 0.43749999999986738 0 0.24999999999960859 0.37499999999980432 0 0.37499999999973488 0.43749999999986738 0 0.24999999999960859 0.37499999999980432 0 0.37499999999973488 0.43749999999986738 0 0.24999999999960859 0.37499999999980432 0 0.26452443700674649 0.51563531581639865 0 0.14929124186975251 0.44582793568106382 0 0.24999999999960859 0.37499999999980432 0 0.26452443700674649 0.51563531581639865 0 0.14929124186975251 0.44582793568106382 0 0.24999999999960859 0.37499999999980432 0 0.1249999999997599 0.31249999999987998 0 0.2403886547178353 0.24188814792673841 0 0.24999999999960859 0.37499999999980432 0 0.1249999999997599 0.31249999999987998 0 0.24999999999960859 0.37499999999980432 0 0.1249999999997599 0.31249999999987998 0 0.1249999999997599 0.31249999999987998 0 0 0.25 0 0 0.43750000000034689 0 0.1008171452988615 0.18885703697250469 0 0.1249999999997599 0.31249999999987998 0 0 0.25 0 0.1249999999997599 0.31249999999987998 0 0 0.25 0 0.14929124186975251 0.44582793568106382 0 0 0.43750000000034689 0 0.13928587515912139 0.57339806105677438 0 0.14929124186975251 0.44582793568106382 0 0.1249999999997599 0.31249999999987998 0 0 0.43750000000034689 0 0 0.43750000000034689 0 0 0.62500000000069389 0 0.13928587515912139 0.57339806105677438 0 0 0.62500000000069389 0 0.13900789599611679 0.72618316107059999 0 0.13928587515912139 0.57339806105677438 0 0 0.62500000000069389 0 0.13900789599611679 0.72618316107059999 0 0 0.81250000000104083 0 0.13900789599611679 0.72618316107059999 0 0.13928587515912139 0.57339806105677438 0 0.27589467050686478 0.66058853156435704 0 0.13900789599611679 0.72618316107059999 0 0.27987960212930818 0.83442741470570525 0 0.27589467050686478 0.66058853156435704 0 0.13928587515912139 0.57339806105677438 0 0.26452443700674649 0.51563531581639865 0 0.27589467050686478 0.66058853156435704 0 0.14929124186975251 0.44582793568106382 0 0.13928587515912139 0.57339806105677438 0 0.26452443700674649 0.51563531581639865 0 0 1 0 0.12710107136012311 0.87094806618203435 0 0.1875000000005205 1 0 0 1 0 0 0.81250000000104083 0 0.12710107136012311 0.87094806618203435 0 0.13900789599611679 0.72618316107059999 0 0 0.81250000000104083 0 0.12710107136012311 0.87094806618203435 0 0.13900789599611679 0.72618316107059999 0 0.12710107136012311 0.87094806618203435 0 0.27987960212930818 0.83442741470570525 0 0.12710107136012311 0.87094806618203435 0 0.1875000000005205 1 0 0.27987960212930818 0.83442741470570525 0 0.27987960212930818 0.83442741470570525 0 0.44927105396715372 0.85565124085155886 0 0.37500000000069389 1 0 0.1875000000005205 1 0 0.27987960212930818 0.83442741470570525 0 0.37500000000069389 1 0 0.27987960212930818 0.83442741470570525 0 0.44927105396715372 0.85565124085155886 0 0.38136204680495073 0.74038592213831234 0 0.44927105396715372 0.85565124085155886 0 0.38136204680495073 0.74038592213831234 0 0.50145856933078625 0.73674663046504862 0 0.44927105396715372 0.85565124085155886 0 0.37500000000069389 1 0 0.56250000000086742 1 0 0.26452443700674649 0.51563531581639865 0 0.27589467050686478 0.66058853156435704 0 0.4139414069912184 0.60563252640100373 0 0.37499999999973488 0.43749999999986738 0 0.26452443700674649 0.51563531581639865 0 0.4139414069912184 0.60563252640100373 0 0.27987960212930818 0.83442741470570525 0 0.27589467050686478 0.66058853156435704 0 0.38136204680495073 0.74038592213831234 0 0.27589467050686478 0.66058853156435704 0 0.38136204680495073 0.74038592213831234 0 0.4139414069912184 0.60563252640100373 0 0.38136204680495073 0.74038592213831234 0 0.4139414069912184 0.60563252640100373 0 0.50145856933078625 0.73674663046504862 0 0.4139414069912184 0.60563252640100373 0 0.50145856933078625 0.73674663046504862 0 0.5625 0.625 0 0.37499999999973488 0.43749999999986738 0 0.4139414069912184 0.60563252640100373 0 0.5 0.5 -0 0.4139414069912184 0.60563252640100373 0 0.5 0.5 -0 0.5625 0.625 0 0.5 0.5 -0 0.5625 0.625 0 0.63236534182377013 0.50296756406332266 0 0.5 0.5 -0 0.5625 0.625 0 0.50145856933078625 0.73674663046504862 0 0.5625 0.625 0 0.625 0.75 0 0.5625 0.625 0 0.625 0.75 0 0.71259747807844409 0.63846691315701831 0 0.625 0.75 0 0.73857795170433571 0.77736788564284653 0 0.5625 0.625 0 0.71259747807844409 0.63846691315701831 0 0.625 0.75 0 0.71259747807844409 0.63846691315701831 0 0.63236534182377013 0.50296756406332266 0 0.75338430262320943 0.49294443423175599 0 0.5625 0.625 0 0.71259747807844409 0.63846691315701831 0 0.63236534182377013 0.50296756406332266 0 0.56250000000086742 1 0 0.56777512057187585 0.8470224641095303 0 0.6875 0.875 0 0.44927105396715372 0.85565124085155886 0 0.56250000000086742 1 0 0.56777512057187585 0.8470224641095303 0 0.44927105396715372 0.85565124085155886 0 0.50145856933078625 0.73674663046504862 0 0.56777512057187585 0.8470224641095303 0 0.50145856933078625 0.73674663046504862 0 0.56777512057187585 0.8470224641095303 0 0.625 0.75 0 0.625 0.75 0 0.73857795170433571 0.77736788564284653 0 0.6875 0.875 0 0.73857795170433571 0.77736788564284653 0 0.6875 0.875 0 0.80552984491000901 0.88711122872127413 0 0.625 0.75 0 0.6875 0.875 0 0.56777512057187585 0.8470224641095303 0 0.625 0.75 0 0.6875 0.875 0 0.56250000000086742 1 0 0.6875 0.875 0 0.75 1 0 0.6875 0.875 0 0.75 1 0 0.80552984491000901 0.88711122872127413 0 0.6875 0.875 0 0.75 1 0 0.75 1 0 0.80552984491000901 0.88711122872127413 0 0.875 1 0 0.80552984491000901 0.88711122872127413 0 0.90637953422180084 0.90208583328057301 0 0.875 1 0 0.80552984491000901 0.88711122872127413 0 0.85787927391517405 0.753532520882502 0 0.90637953422180084 0.90208583328057301 0 0.73857795170433571 0.77736788564284653 0 0.80552984491000901 0.88711122872127413 0 0.85787927391517405 0.753532520882502 0 0.85787927391517405 0.753532520882502 0 1 0.83333333333356463 0 1 0.66666666666736052 0 0.85787927391517405 0.753532520882502 0 1 0.83333333333356463 0 0.90637953422180084 0.90208583328057301 0 1 0.83333333333356463 0 0.90637953422180084 0.90208583328057301 0 1 1 0 0.90637953422180084 0.90208583328057301 0 1 1 0 0.875 1 0 0.71259747807844409 0.63846691315701831 0 0.86127466977819722 0.57948076978797636 0 0.75338430262320943 0.49294443423175599 0 0.71259747807844409 0.63846691315701831 0 0.85787927391517405 0.753532520882502 0 0.86127466977819722 0.57948076978797636 0 0.71259747807844409 0.63846691315701831 0 0.73857795170433571 0.77736788564284653 0 0.85787927391517405 0.753532520882502 0 0.85787927391517405 0.753532520882502 0 0.86127466977819722 0.57948076978797636 0 1 0.66666666666736052 0 0.86127466977819722 0.57948076978797636 0 1 0.66666666666736052 0 1 0.50000000000138767 0 1 0.50000000000138767 0 0.86569408477091048 0.40983673916766611 0 1 0.33333333333448978 0 0.86127466977819722 0.57948076978797636 0 1 0.50000000000138767 0 0.86569408477091048 0.40983673916766611 0 0.86127466977819722 0.57948076978797636 0 0.75338430262320943 0.49294443423175599 0 0.86569408477091048 0.40983673916766611 0 0.75338430262320943 0.49294443423175599 0 0.86569408477091048 0.40983673916766611 0 0.71826039492840632 0.34564020717216182 0 0.86087286690217635 0.25206523597959418 0 0.71508993406183785 0.15715956854777599 0 0.71826039492840632 0.34564020717216182 0 0.86569408477091048 0.40983673916766611 0 0.86087286690217635 0.25206523597959418 0 0.71826039492840632 0.34564020717216182 0 0.86087286690217635 0.25206523597959418 0 1 0.33333333333448978 0 1 0.16666666666736049 0 0.86569408477091048 0.40983673916766611 0 0.86087286690217635 0.25206523597959418 0 1 0.33333333333448978 0 0.86087286690217635 0.25206523597959418 0 1 0.16666666666736049 0 0.87698901648812122 0.1160638338657984 0 1 0 0 0.87698901648812122 0.1160638338657984 0 0.81249999999947953 0 0 1 0.16666666666736049 0 1 0 0 0.87698901648812122 0.1160638338657984 0 0.87698901648812122 0.1160638338657984 0 0.81249999999947953 0 0 0.71508993406183785 0.15715956854777599 0 0.86087286690217635 0.25206523597959418 0 0.87698901648812122 0.1160638338657984 0 0.71508993406183785 0.15715956854777599 0 0.71508993406183785 0.15715956854777599 0 0.62499999999895905 0 0 0.54475767668582953 0.1431838882066932 0 0.81249999999947953 0 0 0.71508993406183785 0.15715956854777599 0 0.62499999999895905 0 0 0.43749999999913258 0 0 0.62499999999895905 0 0 0.54475767668582953 0.1431838882066932 0 0.71508993406183785 0.15715956854777599 0 0.54475767668582953 0.1431838882066932 0 0.61108462585082757 0.25750599582343231 0 0.49457493289300231 0.26251703776555491 0 0.54475767668582953 0.1431838882066932 0 0.61108462585082757 0.25750599582343231 0 0.49457493289300231 0.26251703776555491 0 0.61108462585082757 0.25750599582343231 0 0.56986707178436635 0.37762093650871992 0 0.43750000000006939 0.37500000000013878 0 0.49457493289300231 0.26251703776555491 0 0.56986707178436635 0.37762093650871992 0 0.43750000000006939 0.37500000000013878 0 0.5 0.5 -0 0.56986707178436635 0.37762093650871992 0 0.5 0.5 -0 0.63236534182377013 0.50296756406332266 0 0.56986707178436635 0.37762093650871992 0 0.63236534182377013 0.50296756406332266 0 0.75338430262320943 0.49294443423175599 0 0.71826039492840632 0.34564020717216182 0 0.63236534182377013 0.50296756406332266 0 0.56986707178436635 0.37762093650871992 0 0.71826039492840632 0.34564020717216182 0 0.71508993406183785 0.15715956854777599 0 0.61108462585082757 0.25750599582343231 0 0.71826039492840632 0.34564020717216182 0 0.61108462585082757 0.25750599582343231 0 0.56986707178436635 0.37762093650871992 0 0.71826039492840632 0.34564020717216182 0 
</DataArray>
</Points>
<Cells>
<DataArray type="UInt32" Name="connectivity" format="ascii">
0 1 2 3 4 5 6 7 8 9 10 11 12 13 14 15 16 17 18 19 20 21 22 23 24 25 26 27 28 29 30 31 32 33 34 35 36 37 38 39 40 41 42 43 44 45 46 47 48 49 50 51 52 53 54 55 56 57 58 59 60 61 62 63 64 65 66 67 68 69 70 71 72 73 74 75 76 77 78 79 80 81 82 83 84 85 86 87 88 89 90 91 92 93 94 95 96 97 98 99 100 101 102 103 104 105 106 107 108 109 110 111 112 113 114 115 116 117 118 119 120 121 122 123 124 125 126 127 128 129 130 131 132 133 134 135 136 137 138 139 140 141 142 143 144 145 146 147 148 149 150 151 152 153 154 155 156 157 158 159 160 161 162 163 164 165 166 167 168 169 170 171 172 173 174 175 176 177 178 179 180 181 182 183 184 185 186 187 188 189 190 191 192 193 194 195 196 197 198 199 200 201 202 203 204 205 206 207 208 209 210 211 212 213 214 215 216 217 218 219 220 221 222 223 224 225 226 227 228 229 230 231 232 233 234 235 236 237 238 239 240 241 242 243 244 245 246 247 248 249 250 251 252 253 254 255 256 257 258 259 260 261 262 263 264 265 266 267 268 269 270 271 272 273 274 275 276 277 278 279 280 281 282 283 284 285 286 287 288 289 290 291 292 293 294 295 296 297 298 299 300 301 302 303 304 305 306 307 308 309 310 311 312 313 314 315 316 317 318 319 320 321 322 323 324 325 326 327 328 329 330 331 332 333 334 335 336 337 338 339 340 341 342 343 344 345 346 347 348 349 350 351 352 353 354 355 356 357 358 359 
</DataArray>
<DataArray type="UInt32" Name="offsets" format="ascii">
3 6 9 12 15 18 21 24 27 30 33 35 38 41 43 46 49 52 55 58 60 63 66 68 71 73 76 79 82 85 87 90 93 96 99 101 104 107 109 112 115 118 121 124 127 130 133 136 139 142 145 148 151 154 157 160 163 166 169 172 175 178 181 184 187 190 193 195 198 200 203 206 209 212 215 218 221 224 227 230 232 235 238 241 243 246 249 252 255 258 261 264 267 270 273 276 279 282 285 288 291 294 297 300 303 306 309 312 315 318 321 324 327 330 333 336 339 342 345 348 351 354 357 360 
</DataArray>
<DataArray type="UInt32" Name="types" format="ascii">
5 5 5 5 5 5 5 5 5 5 5 3 5 5 3 5 5 5 5 5 3 5 5 3 5 3 5 5 5 5 3 5 5 5 5 3 5 5 3 5 5 5 5 5 5 5 5 5 5 5 5 5 5 5 5 5 5 5 5 5 5 5 5 5 5 5 5 3 5 3 5 5 5 5 5 5 5 5 5 5 3 5 5 5 3 5 5 5 5 5 5 5 5 5 5 5 5 5 5 5 5 5 5 5 5 5 5 5 5 5 5 5 5 5 5 5 5 5 5 5 5 5 5 5 
</DataArray>
</Cells>
<PointData Scalars="" Vectors="displacement," Tensors="">
<DataArray type="Float64" Name="displacement" NumberOfComponents="3" format="ascii">
4.8656749173278255e-07 -0.042887641461732906 0 -0.00051560720492340351 -0.042177067918874878 0 -7.6666235449658119e-08 -0.042747624722227734 0 4.8656749173278255e-07 -0.042887641461732906 0 -0.00051560720492340351 -0.042177067918874878 0 0.00053781842828063147 -0.04155666879704141 0 -7.6666235449658119e-08 -0.042747624722227734 0 -0.0018466464476651018 -0.041748879350177966 0 -7.7514111683777444e-06 -0.042436697153882187 0 -0.00051560720492340351 -0.042177067918874878 0 -7.6666235449658119e-08 -0.042747624722227734 0 -0.0018466464476651018 -0.041748879350177966 0 -0.00051560720492340351 -0.042177067918874878 0 -0.0018466464476651018 -0.041748879350177966 0 -0.0016656599704803774 -0.040156626242114538 0 -0.0018466464476651018 -0.041748879350177966 0 -0.0057165707970041517 -0.038141934195838931 0 -0.0060031748710750732 -0.040414017507560018 0 -0.0018466464476651018 -0.041748879350177966 0 -0.0057165707970041517 -0.038141934195838931 0 -0.0016656599704803774 -0.040156626242114538 0 -0.0057165707970041517 -0.038141934195838931 0 -0.0016656599704803774 -0.040156626242114538 0 -0.0032113313868189016 -0.03595775342221913 0 0.00053781842828063147 -0.04155666879704141 0 -0.0016656599704803774 -0.040156626242114538 0 0.00040948210203701428 -0.038359896636366124 0 -0.0016656599704803774 -0.040156626242114538 0 0.00040948210203701428 -0.038359896636366124 0 -0.0032113313868189016 -0.03595775342221913 0 -0.00051560720492340351 -0.042177067918874878 0 0.00053781842828063147 -0.04155666879704141 0 -0.0016656599704803774 -0.040156626242114538 0 0.0080272290759189104 -0.03079828715485592 0 0.0041178154509217257 -0.028267764579190547 0 0.015521278202688497 -0.023253396736771528 0 0.011501940320452791 -0.020605049090562287 0 0.013690512254801923 -0.016646439952427816 0 -0.0057165707970041517 -0.038141934195838931 0 -0.0032113313868189016 -0.03595775342221913 0 -0.0076068595407770851 -0.033939225604296686 0 0.0041178154509217257 -0.028267764579190547 0 0.0005843809224091031 -0.025884521874634889 0 0.011501940320452791 -0.020605049090562287 0 0.0096869619153968668 -0.016333556579582499 0 0.0086718954412685952 -0.017706751094028989 0 0.0096869619153968668 -0.016333556579582499 0 0.0070536872985395961 -0.013513965806025105 0 0.0086718954412685952 -0.017706751094028989 0 0.0096869619153968668 -0.016333556579582499 0 0.0070536872985395961 -0.013513965806025105 0 0.0084386392095297576 -0.01254066316119201 0 0.011501940320452791 -0.020605049090562287 0 0.0096869619153968668 -0.016333556579582499 0 0.013690512254801923 -0.016646439952427816 0 0.0096869619153968668 -0.016333556579582499 0 0.013690512254801923 -0.016646439952427816 0 0.0084386392095297576 -0.01254066316119201 0 -0.0088098360491768359 -0.031179273009601004 0 -0.0039764907158331792 -0.023187179777764837 0 -0.011538326163507273 -0.033036997609457323 0 -0.012541443816860834 -0.035099301056843543 0 -0.014770431364862469 -0.032483081424338631 0 -0.011538326163507273 -0.033036997609457323 0 -0.0097005793342839642 -0.035441428087147502 0 -0.012541443816860834 -0.035099301056843543 0 -0.0027696355324681003 -0.023564980614280837 0 -0.0039764907158331792 -0.023187179777764837 0 0.0063386254581609298 -0.014565009100376747 0 0.0070536872985395961 -0.013513965806025105 0 0.0086718954412685952 -0.017706751094028989 0 -0.0027696355324681003 -0.023564980614280837 0 0.0005843809224091031 -0.025884521874634889 0 -0.011538326163507273 -0.033036997609457323 0 -0.0076068595407770851 -0.033939225604296686 0 -0.0097005793342839642 -0.035441428087147502 0 -0.0057165707970041517 -0.038141934195838931 0 -0.0097005793342839642 -0.035441428087147502 0 -0.0098028788731934612 -0.03785710490557518 0 -0.0057165707970041517 -0.038141934195838931 0 -0.0076068595407770851 -0.033939225604296686 0 -0.0097005793342839642 -0.035441428087147502 0 -0.0097005793342839642 -0.035441428087147502 0 -0.012541443816860834 -0.035099301056843543 0 -0.0098028788731934612 -0.03785710490557518 0 -0.0088098360491768359 -0.031179273009601004 0 -0.0046856041361249155 -0.032622817952823777 0 -0.0020553561662243498 -0.025006068505349432 0 -0.00038596575184631599 -0.028001168772434158 0 -0.0023984073591185365 -0.028057212578926426 0 -0.00086953710935660643 -0.030007408640595777 0 -0.00038596575184631599 -0.028001168772434158 0 -0.0023984073591185365 -0.028057212578926426 0 -0.00086953710935660643 -0.030007408640595777 0 -0.00038596575184631599 -0.028001168772434158 0 0.0002819679804061271 -0.030438996417956159 0 -0.0057165707970041517 -0.038141934195838931 0 -0.0098028788731934612 -0.03785710490557518 0 -0.0060031748710750732 -0.040414017507560018 0 -0.0046856041361249155 -0.032622817952823777 0 -0.00299657938665679 -0.035523649451490967 0 0.0002819679804061271 -0.030438996417956159 0 9.5063006455331882e-07 -0.03074611619372207 0 -8.6639726298506014e-07 -0.0310963588937897 0 -0.0018466464476651018 -0.041748879350177966 0 -0.0060031748710750732 -0.040414017507560018 0 -7.7514111683777444e-06 -0.042436697153882187 0 -0.00299657938665679 -0.035523649451490967 0 9.7960149204995666e-05 -0.036510798166531862 0 -0.00086953710935660643 -0.030007408640595777 0 -8.6639726298506014e-07 -0.0310963588937897 0 -0.001537442425822752 -0.03016069107948928 0 -0.00086953710935660643 -0.030007408640595777 0 0.0002819679804061271 -0.030438996417956159 0 -8.6639726298506014e-07 -0.0310963588937897 0 -8.6639726298506014e-07 -0.0310963588937897 0 -2.5444217473812402e-06 -0.030844982554392619 0 -0.001537442425822752 -0.03016069107948928 0 -2.5444217473812402e-06 -0.030844982554392619 0 -0.0021608091743024207 -0.030204944723490217 0 -0.001537442425822752 -0.03016069107948928 0 -2.5444217473812402e-06 -0.030844982554392619 0 -0.0021608091743024207 -0.030204944723490217 0 -3.1884928910946434e-06 -0.030872740334271603 0 -0.0021608091743024207 -0.030204944723490217 0 -0.001537442425822752 -0.03016069107948928 0 -0.0037686919188381347 -0.028107509121143511 0 -0.0021608091743024207 -0.030204944723490217 0 -0.0050115157175479545 -0.028420351871996343 0 -0.0037686919188381347 -0.028107509121143511 0 -0.001537442425822752 -0.03016069107948928 0 -0.0023984073591185365 -0.028057212578926426 0 -0.0037686919188381347 -0.028107509121143511 0 -0.00086953710935660643 -0.030007408640595777 0 -0.001537442425822752 -0.03016069107948928 0 -0.0023984073591185365 -0.028057212578926426 0 -5.3000946627873127e-06 -0.03111569852686805 0 -0.0025039909085570653 -0.030429568421537469 0 -0.0047632669020098795 -0.029923542683702467 0 -5.3000946627873127e-06 -0.03111569852686805 0 -3.1884928910946434e-06 -0.030872740334271603 0 -0.0025039909085570653 -0.030429568421537469 0 -0.0021608091743024207 -0.030204944723490217 0 -3.1884928910946434e-06 -0.030872740334271603 0 -0.0025039909085570653 -0.030429568421537469 0 -0.0021608091743024207 -0.030204944723490217 0 -0.0025039909085570653 -0.030429568421537469 0 -0.0050115157175479545 -0.028420351871996343 0 -0.0025039909085570653 -0.030429568421537469 0 -0.0047632669020098795 -0.029923542683702467 0 -0.0050115157175479545 -0.028420351871996343 0 -0.0050115157175479545 -0.028420351871996343 0 -0.00789896098283859 -0.025196712534229691 0 -0.0087529449542968277 -0.027100106861675185 0 -0.0047632669020098795 -0.029923542683702467 0 -0.0050115157175479545 -0.028420351871996343 0 -0.0087529449542968277 -0.027100106861675185 0 -0.0050115157175479545 -0.028420351871996343 0 -0.00789896098283859 -0.025196712534229691 0 -0.0057818975330882951 -0.026194163936721932 0 -0.00789896098283859 -0.025196712534229691 0 -0.0057818975330882951 -0.026194163936721932 0 -0.007261684974322836 -0.023528892186638107 0 -0.00789896098283859 -0.025196712534229691 0 -0.0087529449542968277 -0.027100106861675185 0 -0.011872846771079831 -0.023338172665815036 0 -0.0023984073591185365 -0.028057212578926426 0 -0.0037686919188381347 -0.028107509121143511 0 -0.0049873179520063884 -0.024924398095083313 0 -0.0020553561662243498 -0.025006068505349432 0 -0.0023984073591185365 -0.028057212578926426 0 -0.0049873179520063884 -0.024924398095083313 0 -0.0050115157175479545 -0.028420351871996343 0 -0.0037686919188381347 -0.028107509121143511 0 -0.0057818975330882951 -0.026194163936721932 0 -0.0037686919188381347 -0.028107509121143511 0 -0.0057818975330882951 -0.026194163936721932 0 -0.0049873179520063884 -0.024924398095083313 0 -0.0057818975330882951 -0.026194163936721932 0 -0.0049873179520063884 -0.024924398095083313 0 -0.007261684974322836 -0.023528892186638107 0 -0.0049873179520063884 -0.024924398095083313 0 -0.007261684974322836 -0.023528892186638107 0 -0.0069771963693606434 -0.021598648079333836 0 -0.0020553561662243498 -0.025006068505349432 0 -0.0049873179520063884 -0.024924398095083313 0 -0.004458349386946836 -0.022296220394403387 0 -0.0049873179520063884 -0.024924398095083313 0 -0.004458349386946836 -0.022296220394403387 0 -0.0069771963693606434 -0.021598648079333836 0 0.0055369200529482299 -0.012133923006089013 0 0.0049501953116479142 -0.010129240483372794 0 0.0040253307901127588 -0.0087645179276979821 0 -0.0039764907158331792 -0.023187179777764837 0 0.00019941034787368845 -0.014262870968311137 0 -0.007261684974322836 -0.023528892186638107 0 -0.0069771963693606434 -0.021598648079333836 0 -0.0087898651559682826 -0.020946830819171751 0 0.00019941034787368845 -0.014262870968311137 0 -0.002805662061596105 -0.015006535398284648 0 0.0030478451764428325 -0.0063814228600268218 0 0.0038359107573741466 -0.0082029568986682708 0 0.0025284210033187154 -0.0055292858512865925 0 0.0049501953116479142 -0.010129240483372794 0 0.0030478451764428325 -0.0063814228600268218 0 0.0038359107573741466 -0.0082029568986682708 0 0.0030478451764428325 -0.0063814228600268218 0 0.0040253307901127588 -0.0087645179276979821 0 0.0026922801144275005 -0.0056119150508643929 0 0.0049501953116479142 -0.010129240483372794 0 0.0030478451764428325 -0.0063814228600268218 0 0.0040253307901127588 -0.0087645179276979821 0 -0.011872846771079831 -0.023338172665815036 0 -0.0093368965034439973 -0.022589043999440724 0 -0.011200491632291873 -0.019976934627194323 0 -0.00789896098283859 -0.025196712534229691 0 -0.011872846771079831 -0.023338172665815036 0 -0.0093368965034439973 -0.022589043999440724 0 -0.00789896098283859 -0.025196712534229691 0 -0.007261684974322836 -0.023528892186638107 0 -0.0093368965034439973 -0.022589043999440724 0 -0.007261684974322836 -0.023528892186638107 0 -0.0093368965034439973 -0.022589043999440724 0 -0.0087898651559682826 -0.020946830819171751 0 0.0038359107573741466 -0.0082029568986682708 0 0.0025284210033187154 -0.0055292858512865925 0 0.0026682676161005388 -0.0066499732430203174 0 0.0025284210033187154 -0.0055292858512865925 0 0.0026682676161005388 -0.0066499732430203174 0 0.0013329910145202164 -0.0036563116951439513 0 -0.002805662061596105 -0.015006535398284648 0 -0.0041577421757603844 -0.013185016145803523 0 -0.0093368965034439973 -0.022589043999440724 0 -0.0087898651559682826 -0.020946830819171751 0 -0.011200491632291873 -0.019976934627194323 0 -0.011872846771079831 -0.023338172665815036 0 -0.011200491632291873 -0.019976934627194323 0 -0.014039999118357072 -0.01917795996788775 0 0.0026682676161005388 -0.0066499732430203174 0 0.00030550478214037933 -0.0048462285815036752 0 0.0013329910145202164 -0.0036563116951439513 0 -0.0041577421757603844 -0.013185016145803523 0 -0.0069667080660732062 -0.012092238052131042 0 0.00030550478214037933 -0.0048462285815036752 0 0.0013329910145202164 -0.0036563116951439513 0 -0.00040396820541141297 -0.0019793436716113205 0 0.0013329910145202164 -0.0036563116951439513 0 0.00046434683622556045 -0.0014336001140251434 0 -0.00040396820541141297 -0.0019793436716113205 0 0.0013329910145202164 -0.0036563116951439513 0 0.0013433045335378511 -0.0027177582654016146 0 0.00046434683622556045 -0.0014336001140251434 0 0.0025284210033187154 -0.0055292858512865925 0 0.0013329910145202164 -0.0036563116951439513 0 0.0013433045335378511 -0.0027177582654016146 0 0.0013433045335378511 -0.0027177582654016146 0 1.5594814155514302e-06 -6.9524645923149231e-07 0 1.5311050794714856e-06 -1.1492087680095458e-06 0 0.0013433045335378511 -0.0027177582654016146 0 1.5594814155514302e-06 -6.9524645923149231e-07 0 0.00046434683622556045 -0.0014336001140251434 0 1.5594814155514302e-06 -6.9524645923149231e-07 0 0.00046434683622556045 -0.0014336001140251434 0 -1.5580405334253326e-06 -3.6458238311895028e-07 0 0.00046434683622556045 -0.0014336001140251434 0 -1.5580405334253326e-06 -3.6458238311895028e-07 0 -0.00040396820541141297 -0.0019793436716113205 0 0.0030478451764428325 -0.0063814228600268218 0 0.0014530436231324458 -0.002917910927428768 0 0.0026922801144275005 -0.0056119150508643929 0 0.0030478451764428325 -0.0063814228600268218 0 0.0013433045335378511 -0.0027177582654016146 0 0.0014530436231324458 -0.002917910927428768 0 0.0030478451764428325 -0.0063814228600268218 0 0.0025284210033187154 -0.0055292858512865925 0 0.0013433045335378511 -0.0027177582654016146 0 0.0013433045335378511 -0.0027177582654016146 0 0.0014530436231324458 -0.002917910927428768 0 1.5311050794714856e-06 -1.1492087680095458e-06 0 0.0014530436231324458 -0.002917910927428768 0 1.5311050794714856e-06 -1.1492087680095458e-06 0 1.7303341912039147e-06 -1.1229455618141417e-06 0 1.7303341912039147e-06 -1.1229455618141417e-06 0 0.0015427875605556409 -0.0028876392682456835 0 2.3553089070326539e-06 -1.1687662896696229e-06 0 0.0014530436231324458 -0.002917910927428768 0 1.7303341912039147e-06 -1.1229455618141417e-06 0 0.0015427875605556409 -0.0028876392682456835 0 0.0014530436231324458 -0.002917910927428768 0 0.0026922801144275005 -0.0056119150508643929 0 0.0015427875605556409 -0.0028876392682456835 0 0.0026922801144275005 -0.0056119150508643929 0 0.0015427875605556409 -0.0028876392682456835 0 0.0034708512664831065 -0.0067244356778965895 0 0.0020879558846146249 -0.0029996256905718754 0 0.0053556186933988092 -0.0073706148568857691 0 0.0034708512664831065 -0.0067244356778965895 0 0.0015427875605556409 -0.0028876392682456835 0 0.0020879558846146249 -0.0029996256905718754 0 0.0034708512664831065 -0.0067244356778965895 0 0.0020879558846146249 -0.0029996256905718754 0 2.3553089070326539e-06 -1.1687662896696229e-06 0 2.0118253120627675e-06 -4.1018707223522059e-07 0 0.0015427875605556409 -0.0028876392682456835 0 0.0020879558846146249 -0.0029996256905718754 0 2.3553089070326539e-06 -1.1687662896696229e-06 0 0.0020879558846146249 -0.0029996256905718754 0 2.0118253120627675e-06 -4.1018707223522059e-07 0 0.0026557250832144733 -0.0028572881210618922 0 8.1481952714536061e-06 -3.0427093149608032e-06 0 0.0026557250832144733 -0.0028572881210618922 0 0.0064692718076462116 -0.0057179056128531108 0 2.0118253120627675e-06 -4.1018707223522059e-07 0 8.1481952714536061e-06 -3.0427093149608032e-06 0 0.0026557250832144733 -0.0028572881210618922 0 0.0026557250832144733 -0.0028572881210618922 0 0.0064692718076462116 -0.0057179056128531108 0 0.0053556186933988092 -0.0073706148568857691 0 0.0020879558846146249 -0.0029996256905718754 0 0.0026557250832144733 -0.0028572881210618922 0 0.0053556186933988092 -0.0073706148568857691 0 0.0053556186933988092 -0.0073706148568857691 0 0.010577318119073767 -0.010911406466030593 0 0.0084386392095297576 -0.01254066316119201 0 0.0064692718076462116 -0.0057179056128531108 0 0.0053556186933988092 -0.0073706148568857691 0 0.010577318119073767 -0.010911406466030593 0 0.013690512254801923 -0.016646439952427816 0 0.010577318119073767 -0.010911406466030593 0 0.0084386392095297576 -0.01254066316119201 0 0.0053556186933988092 -0.0073706148568857691 0 0.0084386392095297576 -0.01254066316119201 0 0.0056956604278198819 -0.0099888976974737784 0 0.0070536872985395961 -0.013513965806025105 0 0.0084386392095297576 -0.01254066316119201 0 0.0056956604278198819 -0.0099888976974737784 0 0.0070536872985395961 -0.013513965806025105 0 0.0056956604278198819 -0.0099888976974737784 0 0.0050023414239197678 -0.010776496671533275 0 0.0063386254581609298 -0.014565009100376747 0 0.0070536872985395961 -0.013513965806025105 0 0.0050023414239197678 -0.010776496671533275 0 0.0063386254581609298 -0.014565009100376747 0 0.0055369200529482299 -0.012133923006089013 0 0.0050023414239197678 -0.010776496671533275 0 0.0055369200529482299 -0.012133923006089013 0 0.0040253307901127588 -0.0087645179276979821 0 0.0050023414239197678 -0.010776496671533275 0 0.0040253307901127588 -0.0087645179276979821 0 0.0026922801144275005 -0.0056119150508643929 0 0.0034708512664831065 -0.0067244356778965895 0 0.0040253307901127588 -0.0087645179276979821 0 0.0050023414239197678 -0.010776496671533275 0 0.0034708512664831065 -0.0067244356778965895 0 0.0053556186933988092 -0.0073706148568857691 0 0.0056956604278198819 -0.0099888976974737784 0 0.0034708512664831065 -0.0067244356778965895 0 0.0056956604278198819 -0.0099888976974737784 0 0.0050023414239197678 -0.010776496671533275 0 0.0034708512664831065 -0.0067244356778965895 0 
</DataArray>
</PointData>
<CellData Scalars="region_id,cross_section_updated,normal_displacement_jump,tangential_displacement_jump," Vectors="" Tensors="stress,">
<DataArray type="Float64" Name="region_id" format="ascii">
11 11 11 11 11 11 11 11 11 11 11 5 11 11 5 11 11 11 11 11 6 11 11 5 11 5 11 11 11 11 6 11 11 11 11 6 11 11 6 11 11 11 11 11 11 11 11 11 11 11 11 11 11 11 11 11 11 11 11 11 11 11 11 11 11 11 11 4 11 4 11 11 11 11 11 11 11 11 11 11 4 11 11 11 4 11 11 11 11 11 11 11 11 11 11 11 11 11 11 11 11 11 11 11 11 11 11 11 11 11 11 11 11 11 11 11 11 11 11 11 11 11 11 11 
</DataArray>
<DataArray type="Float64" Name="stress" NumberOfComponents="9" format="ascii">
-6888369.7730398327 2908539.9121662378 0 2908539.9121662378 -1101313.7472392321 0 0 0 -1997420.8800697625 4290421.0948804468 193510.13639342785 0 193510.13639342785 -884432.35158133507 0 0 0 851497.18582476676 -20937599.907871619 3307834.5821339786 0 3307834.5821339786 -4325951.3860678077 0 0 0 -6315887.8234848827 -12319111.488367587 -1244683.4309627414 0 -1244683.4309627414 -1032190.6593930125 0 0 0 -3337825.5369401574 -9925493.1227896251 3364008.6832700968 0 3364008.6832700968 -2282931.4571316093 0 0 0 -3052106.1449803151 -16904553.342142522 -2788501.9552187473 0 -2788501.9552187473 981152.15427559614 0 0 0 -3980850.2969667315 -20786604.675550342 404410.11694263667 0 404410.11694263667 -1453797.800781846 0 0 0 -5560100.6190830171 -10520256.263581045 2165136.0081123412 0 2165136.0081123412 -2025681.5391872823 0 0 0 -3136484.45069208 -1624180.733639501 2558215.9063010216 0 2558215.9063010216 -1587132.2490883768 0 0 0 -802828.24568196386 -10225432.334945992 3267756.1488036066 0 3267756.1488036066 -174156.0197069943 0 0 0 -2599897.0886632502 -8215523.4612934291 1601191.7731013298 0 1601191.7731013298 -494768.93587633967 0 0 0 -2177573.0992924422 13272.92291390229 2774.3039040647946 0 2774.3039040647946 -2823.3614560896785 0 0 0 2612.390364453152 -10289610.168686155 3185776.9279750809 0 3185776.9279750809 376241.67135024071 0 0 0 -2478342.1243339889 -14530980.372649714 868159.46299386024 0 868159.46299386024 -4252302.246175617 0 0 0 -4695820.6547063291 13799.535258925256 2872.1223785192979 0 2872.1223785192979 -2917.3900538451962 0 0 0 2720.5363012700172 -11336138.609596267 7332382.678849088 0 7332382.678849088 2112105.0508570969 0 0 0 -2306008.3896847814 -12043496.724016957 6915298.8234738484 0 6915298.8234738484 1398626.1562902778 0 0 0 -2661217.6419316679 -12561749.561127879 6581183.766587846 0 6581183.766587846 2040627.8514959216 0 0 0 -2630280.42740798 -9061317.2190836519 3720037.9082385972 0 3720037.9082385972 1284992.6428093463 0 0 0 -1944081.1440685764 -14498415.214469915 2572176.8227033541 0 2572176.8227033541 -684674.03086538985 0 0 0 -3795772.3113338188 -1905.5711330943141 1933.2294149359172 0 1933.2294149359172 9066.2584393349207 0 0 0 1790.1718265601485 -11063460.151820436 945707.1470053494 0 945707.1470053494 -12268867.587023556 0 0 0 -5833081.9347110093 -13557766.105745107 550458.33933520317 0 550458.33933520317 -11355556.863713205 0 0 0 -6228330.7423646152 17015.911251211059 3526.6240245336503 0 3526.6240245336503 -3584.8343019142194 0 0 0 3357.7692373242098 -11453568.530885801 8666995.4821311012 0 8666995.4821311012 4738678.2518697381 0 0 0 -1678722.5697540082 15218.872693590401 3147.5265339822708 0 3147.5265339822708 -3188.7051334140906 0 0 0 3007.5418900440777 -12488521.462484285 -324754.95731642842 0 -324754.95731642842 -10563216.959819943 0 0 0 -5762934.6055760533 -13509505.166994795 -970255.01734577119 0 -970255.01734577119 -4335368.2156945467 0 0 0 -4461218.3456723541 -16325250.220112562 1032974.5006141849 0 1032974.5006141849 -9607481.0573883057 0 0 0 -6483182.8193752468 -13524921.931281045 -72436.661588162184 0 -72436.661588162184 -10703634.653163552 0 0 0 -6057139.1461111456 -1801.7461035748784 1774.4655818586771 0 1774.4655818586771 8920.6540172181449 0 0 0 1779.7269784108157 -9057312.376269266 4736460.2031726688 0 4736460.2031726688 -6250628.130643934 0 0 0 -3826985.1267282963 -6802901.0885584354 1803182.3712777719 0 1803182.3712777719 -4709882.964009881 0 0 0 -2878196.013142094 -1492623.3860997111 4498163.8231701627 0 4498163.8231701627 -868597.34451881051 0 0 0 -590305.18265463412 -18459490.789576732 -3783816.5342071205 0 -3783816.5342071205 -5419698.637046013 0 0 0 -5969797.3566556945 -675.09291805188514 1040.3986039394185 0 1040.3986039394185 9244.7891260737379 0 0 0 2142.4240520054627 1956396.6239228398 1352499.170892179 0 1352499.170892179 -1340359.5968512297 0 0 0 154009.2567678988 -38054751.681651063 -5964406.8962295353 0 -5964406.8962295353 -3662614.4341035932 0 0 0 -10429341.528938659 2164.3424008644324 -813.38706656875092 0 -813.38706656875092 11059.912178671439 0 0 0 3306.0636448839687 -6853691.9452113509 664775.29574632552 0 664775.29574632552 -2953077.1143081784 0 0 0 -2451692.2648798823 -5698898.737739047 -187089.52700702846 0 -187089.52700702846 156580.97311033309 0 0 0 -1385579.4411571827 -12691430.516710876 2160237.1618038714 0 2160237.1618038714 -2800424.774780672 0 0 0 -3872963.8228728832 -15160079.165727943 282381.05151166022 0 282381.05151166022 -5352983.3569481075 0 0 0 -5128265.6306690276 -18687659.261591226 1883460.3139071986 0 1883460.3139071986 -6387130.6793971956 0 0 0 -6268697.4852471128 -16560561.755546015 4436757.3042231202 0 4436757.3042231202 -5799650.676498563 0 0 0 -5590053.1080111368 -18859501.957028866 2999068.3058336526 0 2999068.3058336526 -8555814.2987160087 0 0 0 -6853829.0639362186 -13653415.490450889 2980836.2430078164 0 2980836.2430078164 -6264569.9068839848 0 0 0 -4979496.3493337184 -11517579.339460978 4343861.7955533266 0 4343861.7955533266 -3711099.5872306339 0 0 0 -3807169.7316728923 -30072847.044759177 291138.4541888535 0 291138.4541888535 -9015907.6224459112 0 0 0 -9772188.6668012664 -24122934.948479548 1628550.1675717831 0 1628550.1675717831 -9423140.4784939587 0 0 0 -8386518.8567433804 -21977370.660201073 81467.087459340692 0 81467.087459340692 -8625804.2662840486 0 0 0 -7650793.7316212952 -20975780.730289537 3696559.8989562839 0 3696559.8989562839 -7503280.9554012939 0 0 0 -7119765.4214227078 -23033813.757062782 1533727.8044787198 0 1533727.8044787198 -9821017.8341895193 0 0 0 -8213707.8978130706 -19656221.654312834 2253201.205068402 0 2253201.205068402 -9953391.3096786141 0 0 0 -7402403.2409978658 -25804778.565541957 1874260.04166051 0 1874260.04166051 -9323830.2709915787 0 0 0 -8782152.2091333829 -20208833.842526928 4155686.6022564843 0 4155686.6022564843 -9682842.2929062843 0 0 0 -7472919.0338582993 -16920353.01326067 4459366.5159363896 0 4459366.5159363896 -10273573.761247575 0 0 0 -6798481.6936270669 -21112503.650501419 2234442.2784094661 0 2234442.2784094661 -10091186.611790314 0 0 0 -7800922.5655729212 -15487789.954953186 5492189.9345662892 0 5492189.9345662892 -7392367.3412580471 0 0 0 -5720039.3240528097 -11546867.263827242 3369697.9787197337 0 3369697.9787197337 -9266522.3906983137 0 0 0 -5203347.4136313945 -17606618.141716376 5206893.2456087619 0 5206893.2456087619 -8273756.0073437057 0 0 0 -6470093.5372650158 -16541348.540722147 4990831.4421475306 0 4990831.4421475306 -10055555.381139725 0 0 0 -6649225.9804654717 -16746024.964544401 5251131.970900178 0 5251131.970900178 -9941778.9641320705 0 0 0 -6671950.9821691066 -16516834.198984325 5517519.4187989309 0 5517519.4187989309 -10528844.711919829 0 0 0 -6761419.7277260423 -16308426.4270868 3822687.8960869014 0 3822687.8960869014 -10907401.839246966 0 0 0 -6803957.0665834323 -16223695.669997387 3511180.1829152927 0 3511180.1829152927 -11812376.275737017 0 0 0 -7009017.9864335954 -12392514.261066647 10563172.86342565 0 10563172.86342565 -560372.40948294848 0 0 0 -3238221.6676373985 9869.0177014421442 1930.8880265627704 0 1930.8880265627704 -1808.8668515465606 0 0 0 2015.0377124738959 -15925397.383758552 5082416.8837577403 0 5082416.8837577403 -11209692.905235976 0 0 0 -6783772.5722486228 10997.467436780064 2126.6565263371499 0 2126.6565263371499 -2114.4589026916692 0 0 0 2220.7521335220977 -12608446.822964963 8576891.0952140819 0 8576891.0952140819 -2268397.5911988765 0 0 0 -3719211.103540957 -13693180.035341982 8798451.6513464395 0 8798451.6513464395 -1297121.5056325942 0 0 0 -3747575.3852436431 -12459250.060229545 10224779.369768277 0 10224779.369768277 -1954313.9292109199 0 0 0 -3603390.9973601233 -14057997.375936359 10004250.153508155 0 10004250.153508155 -1528745.7401846051 0 0 0 -3896685.7790302411 -15562660.617334455 2320466.8686442673 0 2320466.8686442673 -9573173.0263294261 0 0 0 -6283958.4109159783 -17709086.495661438 1865734.8778207153 0 1865734.8778207153 -10328210.020390719 0 0 0 -7009324.1290130466 -17330444.106181309 4255325.3172025979 0 4255325.3172025979 -10590429.767025024 0 0 0 -6980218.4683015868 -15007838.272087514 3680014.4621239752 0 3680014.4621239752 -9616139.9677502811 0 0 0 -6155994.5599594489 -12338217.373054227 7713987.1860134397 0 7713987.1860134397 -3319983.1676479578 0 0 0 -3914550.135175541 -12371586.95177117 8372616.5338060558 0 8372616.5338060558 -2311061.6266732663 0 0 0 -3670662.1446111007 11886.084299724951 2292.8197511118433 0 2292.8197511118433 -2243.7940589505024 0 0 0 2410.5725601936124 -16453160.776564591 3850827.3642113432 0 3850827.3642113432 -9288464.0121113807 0 0 0 -6435406.1971689835 -15750616.324000448 2100325.637317054 0 2100325.637317054 -10265782.244965315 0 0 0 -6504099.6422414482 -11119386.579750398 4485042.9692324307 0 4485042.9692324307 -1740916.1679023057 0 0 0 -3215075.6869131755 12659.504875387413 2418.3847661412947 0 2418.3847661412947 -2369.6881781513675 0 0 0 2572.4541743090113 -6514491.3239777759 4416564.2792303953 0 4416564.2792303953 -1380965.4906074405 0 0 0 -1973864.2036463055 -7789256.9157618564 4291370.0401346684 0 4291370.0401346684 -1079650.5745213032 0 0 0 -2217226.8725707904 -9145491.2153899744 7420358.1102196313 0 7420358.1102196313 -1424407.9032728476 0 0 0 -2642474.7796657048 -11994411.869810717 7895206.6573466528 0 7895206.6573466528 -1441102.9660852887 0 0 0 -3358878.7089740019 -11328084.010578725 7646653.4660042292 0 7646653.4660042292 -3773122.6447500461 0 0 0 -3775301.6638321932 -7813649.3171820045 5598114.007290463 0 5598114.007290463 533635.29400051758 0 0 0 -1820003.5057953713 -5947564.4988838714 6115287.1924669975 0 6115287.1924669975 -1980405.2495408338 0 0 0 -1981992.4371061765 3663174.6038692817 3198169.3384240922 0 3198169.3384240922 687823.59073135629 0 0 0 1087749.5486501586 -12614878.680920687 9286441.938469436 0 9286441.938469436 -2715211.1212305203 0 0 0 -3832522.4505378045 -12628070.647323323 9236285.0507711004 0 9236285.0507711004 -2484638.892198246 0 0 0 -3778177.3848803919 -11689535.076597279 8834197.9959985055 0 8834197.9959985055 -2120861.3755720332 0 0 0 -3452599.1130423308 -11317543.020286694 7692924.4958821628 0 7692924.4958821628 -2128537.4516898659 0 0 0 -3361520.1179941404 -12555015.722047461 8409739.2276918199 0 8409739.2276918199 -4185173.3252021326 0 0 0 -4185047.2618123987 -13765947.543235935 8595266.7174085565 0 8595266.7174085565 -4588355.9284203723 0 0 0 -4588575.867914076 -12963610.312964465 8170690.096970317 0 8170690.096970317 -3921316.1196534485 0 0 0 -4221231.6081544785 -12817474.358198531 9515069.2542562746 0 9515069.2542562746 -3779277.6678355634 0 0 0 -4149188.0065085245 -13828068.009568216 9180395.520251466 0 9180395.520251466 -3005761.9066055492 0 0 0 -4208457.4790434409 -18114333.028673112 7331573.9831889942 0 7331573.9831889942 -2884631.8626855239 0 0 0 -5249741.2228396572 -14109409.105738336 9185828.4187509045 0 9185828.4187509045 -4795503.8844808377 0 0 0 -4726228.2475547912 -17991997.04081133 8622656.0544121172 0 8622656.0544121172 -6002187.2539286846 0 0 0 -5998546.0736850034 -15828690.597918779 7387857.6940768659 0 7387857.6940768659 -5220610.4223331418 0 0 0 -5262325.2550629787 -22068754.9473859 6454934.1855354831 0 6454934.1855354831 -5621589.6020201556 0 0 0 -6922586.1373515129 -38266545.738819107 6707488.6001306875 0 6707488.6001306875 -4529794.2322342619 0 0 0 -10699084.992763344 -25863080.687857091 9272504.0599112306 0 9272504.0599112306 -8604178.7535989918 0 0 0 -8616814.8603640217 -23099272.266901586 3695691.8055257741 0 3695691.8055257741 860665.93288754672 0 0 0 -5559651.5835035089 -21012607.985874489 8850566.2540113814 0 8850566.2540113814 -4522206.3810426919 0 0 0 -6383703.5917292973 -17205715.866361532 2373362.858739309 0 2373362.858739309 7460.1844777539372 0 0 0 -4299563.9204709418 -23630709.893716704 2813050.3268302642 0 2813050.3268302642 -781472.63298110664 0 0 0 -6103045.6316744499 -17619426.613279153 2538120.4703504182 0 2538120.4703504182 273566.74330560863 0 0 0 -4336464.9674933814 -18346661.238025319 6312115.4759479072 0 6312115.4759479072 -839416.61996416748 0 0 0 -4796519.4644973725 -12994274.964563834 5457672.7906519249 0 5457672.7906519249 629871.52960705012 0 0 0 -3091100.8587391879 -12945997.820912782 8201725.5490172226 0 8201725.5490172226 -174013.64362066984 0 0 0 -3280002.8661333583 -9793434.4401065577 6861764.741726961 0 6861764.741726961 2204500.0868665949 0 0 0 -1897233.5883099977 -10005792.896242773 10855539.961785585 0 10855539.961785585 2200133.3657811359 0 0 0 -1951414.8826154079 -12287774.039146364 9301971.4216103256 0 9301971.4216103256 -472275.53940574825 0 0 0 -3190012.3946380317 -12951426.130002521 9420778.8873281255 0 9420778.8873281255 -2914509.1093954444 0 0 0 -3966483.8098494895 -12123115.021454547 10155476.550209519 0 10155476.550209519 -1694430.9434598051 0 0 0 -3454386.4912285851 -14070646.276199006 7296566.8402086888 0 7296566.8402086888 -1536182.9679555297 0 0 0 -3901707.3110386338 -13770470.252790151 7161403.5041062273 0 7161403.5041062273 -1349874.1931720115 0 0 0 -3780086.1114905383 
</DataArray>
<DataArray type="Float64" Name="cross_section_updated" format="ascii">
1 1 1 1 1 1 1 1 1 1 1 0.0075272906902486281 1 1 0.0077973949903571323 1 1 1 1 1 0.0054189214579252187 1 1 0.0093958671045435913 1 0.0085147425136995244 1 1 1 1 0.0054710931864522354 1 1 1 1 0.0063575872276145293 1 1 0.0092818052893513456 1 1 1 1 1 1 1 1 1 1 1 1 1 1 1 1 1 1 1 1 1 1 1 1 1 1 1 1 0.0059671158214003742 1 0.0065662560178673781 1 1 1 1 1 1 1 1 1 1 0.007019100333633478 1 1 1 0.0074331303468220256 1 1 1 1 1 1 1 1 1 1 1 1 1 1 1 1 1 1 1 1 1 1 1 1 1 1 1 1 1 1 1 1 1 1 1 1 1 1 1 
</DataArray>
<DataArray type="Float64" Name="normal_displacement_jump" format="ascii">
0 0 0 0 0 0 0 0 0 0 0 0.0065272906902486272 0 0 0.0067973949903571314 0 0 0 0 0 0.0044189214579252178 0 0 0.0083958671045435904 0 0.0075147425136995235 0 0 0 0 0.0044710931864522345 0 0 0 0 0.0053575872276145284 0 0 0.0082818052893513447 0 0 0 0 0 0 0 0 0 0 0 0 0 0 0 0 0 0 0 0 0 0 0 0 0 0 0 0 0.0049671158214003742 0 0.005566256017867378 0 0 0 0 0 0 0 0 0 0 0.0060191003336334779 0 0 0 0.0064331303468220255 0 0 0 0 0 0 0 0 0 0 0 0 0 0 0 0 0 0 0 0 0 0 0 0 0 0 0 0 0 0 0 0 0 0 0 0 0 0 0 
</DataArray>
<DataArray type="Float64" Name="tangential_displacement_jump" format="ascii">
0 0 0 0 0 0 0 0 0 0 0 0.020290858145531172 0 0 0.021055349238186413 0 0 0 0 0 0.01383599100321614 0 0 0.025899614425776155 0 0.023157755865322337 0 0 0 0 0.013361662263822651 0 0 0 0 0.011456509749244951 0 0 0.0076592688996628419 0 0 0 0 0 0 0 0 0 0 0 0 0 0 0 0 0 0 0 0 0 0 0 0 0 0 0 0 0.014576048614215393 0 0.01631876386622215 0 0 0 0 0 0 0 0 0 0 0.017583590159681806 0 0 0 0.018678244474348477 0 0 0 0 0 0 0 0 0 0 0 0 0 0 0 0 0 0 0 0 0 0 0 0 0 0 0 0 0 0 0 0 0 0 0 0 0 0 0 
</DataArray>
</CellData>
</Piece>
</UnstructuredGrid>
</VTKFile>
