<?xml version="1.0"?>
<VTKFile type="UnstructuredGrid" version="0.1" byte_order="LittleEndian">
<UnstructuredGrid>
<Piece NumberOfPoints="360" NumberOfCells="124">
<Points>
<DataArray type="Float64" NumberOfComponents="3" format="ascii">
0 0 0 0.084352422163911631 0.086451712656266194 0 0 0.12500000000034689 0 0 0 0 0.084352422163911631 0.086451712656266194 0 0.1249999999997554 0 0 0 0.12500000000034689 0 0.1008171452988615 0.18885703697250469 0 0 0.25 0 0.084352422163911631 0.086451712656266194 0 0 0.12500000000034689 0 0.1008171452988615 0.18885703697250469 0 0.084352422163911631 0.086451712656266194 0 0.1008171452988615 0.18885703697250469 0 0.18402761812864499 0.1117324051466445 0 0.1008171452988615 0.18885703697250469 0 0.2403886547178353 0.24188814792673841 0 0.1249999999997599 0.31249999999987998 0 0.1008171452988615 0.18885703697250469 0 0.2403886547178353 0.24188814792673841 0 0.18402761812864499 0.1117324051466445 0 0.2403886547178353 0.24188814792673841 0 0.18402761812864499 0.1117324051466445 0 0.31250000000020822 0.12500000000041631 0 0.1249999999997554 0 0 0.18402761812864499 0.1117324051466445 0 0.25 -0 0 0.18402761812864499 0.1117324051466445 0 0.25 -0 0 0.31250000000020822 0.12500000000041631 0 0.084352422163911631 0.086451712656266194 0 0.1249999999997554 0 0 0.18402761812864499 0.1117324051466445 0 0.25 -0 0 0.31250000000020822 0.12500000000041631 0 0.25 -0 0 0.31250000000020822 0.12500000000041631 0 0.43749999999913258 0 0 0.2403886547178353 0.24188814792673841 0 0.31250000000020822 0.12500000000041631 0 0.37500000000027761 0.25000000000055511 0 0.31250000000020822 0.12500000000041631 0 0.37500000000027761 0.25000000000055511 0 0.31250000000020822 0.12500000000041631 0 0.4287911518546233 0.15455445427966699 0 0.37500000000027761 0.25000000000055511 0 0.4287911518546233 0.15455445427966699 0 0.49457493289300231 0.26251703776555491 0 0.37500000000027761 0.25000000000055511 0 0.4287911518546233 0.15455445427966699 0 0.49457493289300231 0.26251703776555491 0 0.54475767668582953 0.1431838882066932 0 0.31250000000020822 0.12500000000041631 0 0.4287911518546233 0.15455445427966699 0 0.43749999999913258 0 0 0.4287911518546233 0.15455445427966699 0 0.43749999999913258 0 0 0.54475767668582953 0.1431838882066932 0 0.37499999999973488 0.43749999999986738 0 0.5 0.5 -0 0.43750000000006939 0.37500000000013878 0 0.37499999999973488 0.43749999999986738 0 0.5 0.5 -0 0.43750000000006939 0.37500000000013878 0 0.33819444444448321 0.33819444444456342 0 0.37499999999973488 0.43749999999986738 0 0.43750000000006939 0.37500000000013878 0 0.5 0.5 -0 0.43750000000006939 0.37500000000013878 0 0.49457493289300231 0.26251703776555491 0 0.37500000000027761 0.25000000000055511 0 0.43750000000006939 0.37500000000013878 0 0.37500000000027761 0.25000000000055511 0 0.43750000000006939 0.37500000000013878 0 0.37500000000027761 0.25000000000055511 0 0.33819444444448321 0.33819444444456342 0 0.2403886547178353 0.24188814792673841 0 0.33819444444448321 0.33819444444456342 0 0.24999999999960859 0.37499999999980432 0 0.2403886547178353 0.24188814792673841 0 0.37500000000027761 0.25000000000055511 0 0.33819444444448321 0.33819444444456342 0 0.33819444444448321 0.33819444444456342 0 0.37499999999973488 0.43749999999986738 0 0.24999999999960859 0.37499999999980432 0 0.37499999999973488 0.43749999999986738 0 0.24999999999960859 0.37499999999980432 0 0.37499999999973488 0.43749999999986738 0 0.24999999999960859 0.37499999999980432 0 0.26452443700674649 0.51563531581639865 0 0.14929124186975251 0.44582793568106382 0 0.24999999999960859 0.37499999999980432 0 0.26452443700674649 0.51563531581639865 0 0.14929124186975251 0.44582793568106382 0 0.24999999999960859 0.37499999999980432 0 0.1249999999997599 0.31249999999987998 0 0.2403886547178353 0.24188814792673841 0 0.24999999999960859 0.37499999999980432 0 0.1249999999997599 0.31249999999987998 0 0.24999999999960859 0.37499999999980432 0 0.1249999999997599 0.31249999999987998 0 0.1249999999997599 0.31249999999987998 0 0 0.25 0 0 0.43750000000034689 0 0.1008171452988615 0.18885703697250469 0 0.1249999999997599 0.31249999999987998 0 0 0.25 0 0.1249999999997599 0.31249999999987998 0 0 0.25 0 0.14929124186975251 0.44582793568106382 0 0 0.43750000000034689 0 0.13928587515912139 0.57339806105677438 0 0.14929124186975251 0.44582793568106382 0 0.1249999999997599 0.31249999999987998 0 0 0.43750000000034689 0 0 0.43750000000034689 0 0 0.62500000000069389 0 0.13928587515912139 0.57339806105677438 0 0 0.62500000000069389 0 0.13900789599611679 0.72618316107059999 0 0.13928587515912139 0.57339806105677438 0 0 0.62500000000069389 0 0.13900789599611679 0.72618316107059999 0 0 0.81250000000104083 0 0.13900789599611679 0.72618316107059999 0 0.13928587515912139 0.57339806105677438 0 0.27589467050686478 0.66058853156435704 0 0.13900789599611679 0.72618316107059999 0 0.27987960212930818 0.83442741470570525 0 0.27589467050686478 0.66058853156435704 0 0.13928587515912139 0.57339806105677438 0 0.26452443700674649 0.51563531581639865 0 0.27589467050686478 0.66058853156435704 0 0.14929124186975251 0.44582793568106382 0 0.13928587515912139 0.57339806105677438 0 0.26452443700674649 0.51563531581639865 0 0 1 0 0.12710107136012311 0.87094806618203435 0 0.1875000000005205 1 0 0 1 0 0 0.81250000000104083 0 0.12710107136012311 0.87094806618203435 0 0.13900789599611679 0.72618316107059999 0 0 0.81250000000104083 0 0.12710107136012311 0.87094806618203435 0 0.13900789599611679 0.72618316107059999 0 0.12710107136012311 0.87094806618203435 0 0.27987960212930818 0.83442741470570525 0 0.12710107136012311 0.87094806618203435 0 0.1875000000005205 1 0 0.27987960212930818 0.83442741470570525 0 0.27987960212930818 0.83442741470570525 0 0.44927105396715372 0.85565124085155886 0 0.37500000000069389 1 0 0.1875000000005205 1 0 0.27987960212930818 0.83442741470570525 0 0.37500000000069389 1 0 0.27987960212930818 0.83442741470570525 0 0.44927105396715372 0.85565124085155886 0 0.38136204680495073 0.74038592213831234 0 0.44927105396715372 0.85565124085155886 0 0.38136204680495073 0.74038592213831234 0 0.50145856933078625 0.73674663046504862 0 0.44927105396715372 0.85565124085155886 0 0.37500000000069389 1 0 0.56250000000086742 1 0 0.26452443700674649 0.51563531581639865 0 0.27589467050686478 0.66058853156435704 0 0.4139414069912184 0.60563252640100373 0 0.37499999999973488 0.43749999999986738 0 0.26452443700674649 0.51563531581639865 0 0.4139414069912184 0.60563252640100373 0 0.27987960212930818 0.83442741470570525 0 0.27589467050686478 0.66058853156435704 0 0.38136204680495073 0.74038592213831234 0 0.27589467050686478 0.66058853156435704 0 0.38136204680495073 0.74038592213831234 0 0.4139414069912184 0.60563252640100373 0 0.38136204680495073 0.74038592213831234 0 0.4139414069912184 0.60563252640100373 0 0.50145856933078625 0.73674663046504862 0 0.4139414069912184 0.60563252640100373 0 0.50145856933078625 0.73674663046504862 0 0.5625 0.625 0 0.37499999999973488 0.43749999999986738 0 0.4139414069912184 0.60563252640100373 0 0.5 0.5 -0 0.4139414069912184 0.60563252640100373 0 0.5 0.5 -0 0.5625 0.625 0 0.5 0.5 -0 0.5625 0.625 0 0.63236534182377013 0.50296756406332266 0 0.5 0.5 -0 0.5625 0.625 0 0.50145856933078625 0.73674663046504862 0 0.5625 0.625 0 0.625 0.75 0 0.5625 0.625 0 0.625 0.75 0 0.71259747807844409 0.63846691315701831 0 0.625 0.75 0 0.73857795170433571 0.77736788564284653 0 0.5625 0.625 0 0.71259747807844409 0.63846691315701831 0 0.625 0.75 0 0.71259747807844409 0.63846691315701831 0 0.63236534182377013 0.50296756406332266 0 0.75338430262320943 0.49294443423175599 0 0.5625 0.625 0 0.71259747807844409 0.63846691315701831 0 0.63236534182377013 0.50296756406332266 0 0.56250000000086742 1 0 0.56777512057187585 0.8470224641095303 0 0.6875 0.875 0 0.44927105396715372 0.85565124085155886 0 0.56250000000086742 1 0 0.56777512057187585 0.8470224641095303 0 0.44927105396715372 0.85565124085155886 0 0.50145856933078625 0.73674663046504862 0 0.56777512057187585 0.8470224641095303 0 0.50145856933078625 0.73674663046504862 0 0.56777512057187585 0.8470224641095303 0 0.625 0.75 0 0.625 0.75 0 0.73857795170433571 0.77736788564284653 0 0.6875 0.875 0 0.73857795170433571 0.77736788564284653 0 0.6875 0.875 0 0.80552984491000901 0.88711122872127413 0 0.625 0.75 0 0.6875 0.875 0 0.56777512057187585 0.8470224641095303 0 0.625 0.75 0 0.6875 0.875 0 0.56250000000086742 1 0 0.6875 0.875 0 0.75 1 0 0.6875 0.875 0 0.75 1 0 0.80552984491000901 0.88711122872127413 0 0.6875 0.875 0 0.75 1 0 0.75 1 0 0.80552984491000901 0.88711122872127413 0 0.875 1 0 0.80552984491000901 0.88711122872127413 0 0.90637953422180084 0.90208583328057301 0 0.875 1 0 0.80552984491000901 0.88711122872127413 0 0.85787927391517405 0.753532520882502 0 0.90637953422180084 0.90208583328057301 0 0.73857795170433571 0.77736788564284653 0 0.80552984491000901 0.88711122872127413 0 0.85787927391517405 0.753532520882502 0 0.85787927391517405 0.753532520882502 0 1 0.83333333333356463 0 1 0.66666666666736052 0 0.85787927391517405 0.753532520882502 0 1 0.83333333333356463 0 0.90637953422180084 0.90208583328057301 0 1 0.83333333333356463 0 0.90637953422180084 0.90208583328057301 0 1 1 0 0.90637953422180084 0.90208583328057301 0 1 1 0 0.875 1 0 0.71259747807844409 0.63846691315701831 0 0.86127466977819722 0.57948076978797636 0 0.75338430262320943 0.49294443423175599 0 0.71259747807844409 0.63846691315701831 0 0.85787927391517405 0.753532520882502 0 0.86127466977819722 0.57948076978797636 0 0.71259747807844409 0.63846691315701831 0 0.73857795170433571 0.77736788564284653 0 0.85787927391517405 0.753532520882502 0 0.85787927391517405 0.753532520882502 0 0.86127466977819722 0.57948076978797636 0 1 0.66666666666736052 0 0.86127466977819722 0.57948076978797636 0 1 0.66666666666736052 0 1 0.50000000000138767 0 1 0.50000000000138767 0 0.86569408477091048 0.40983673916766611 0 1 0.33333333333448978 0 0.86127466977819722 0.57948076978797636 0 1 0.50000000000138767 0 0.86569408477091048 0.40983673916766611 0 0.86127466977819722 0.57948076978797636 0 0.75338430262320943 0.49294443423175599 0 0.86569408477091048 0.40983673916766611 0 0.75338430262320943 0.49294443423175599 0 0.86569408477091048 0.40983673916766611 0 0.71826039492840632 0.34564020717216182 0 0.86087286690217635 0.25206523597959418 0 0.71508993406183785 0.15715956854777599 0 0.71826039492840632 0.34564020717216182 0 0.86569408477091048 0.40983673916766611 0 0.86087286690217635 0.25206523597959418 0 0.71826039492840632 0.34564020717216182 0 0.86087286690217635 0.25206523597959418 0 1 0.33333333333448978 0 1 0.16666666666736049 0 0.86569408477091048 0.40983673916766611 0 0.86087286690217635 0.25206523597959418 0 1 0.33333333333448978 0 0.86087286690217635 0.25206523597959418 0 1 0.16666666666736049 0 0.87698901648812122 0.1160638338657984 0 1 0 0 0.87698901648812122 0.1160638338657984 0 0.81249999999947953 0 0 1 0.16666666666736049 0 1 0 0 0.87698901648812122 0.1160638338657984 0 0.87698901648812122 0.1160638338657984 0 0.81249999999947953 0 0 0.71508993406183785 0.15715956854777599 0 0.86087286690217635 0.25206523597959418 0 0.87698901648812122 0.1160638338657984 0 0.71508993406183785 0.15715956854777599 0 0.71508993406183785 0.15715956854777599 0 0.62499999999895905 0 0 0.54475767668582953 0.1431838882066932 0 0.81249999999947953 0 0 0.71508993406183785 0.15715956854777599 0 0.62499999999895905 0 0 0.43749999999913258 0 0 0.62499999999895905 0 0 0.54475767668582953 0.1431838882066932 0 0.71508993406183785 0.15715956854777599 0 0.54475767668582953 0.1431838882066932 0 0.61108462585082757 0.25750599582343231 0 0.49457493289300231 0.26251703776555491 0 0.54475767668582953 0.1431838882066932 0 0.61108462585082757 0.25750599582343231 0 0.49457493289300231 0.26251703776555491 0 0.61108462585082757 0.25750599582343231 0 0.56986707178436635 0.37762093650871992 0 0.43750000000006939 0.37500000000013878 0 0.49457493289300231 0.26251703776555491 0 0.56986707178436635 0.37762093650871992 0 0.43750000000006939 0.37500000000013878 0 0.5 0.5 -0 0.56986707178436635 0.37762093650871992 0 0.5 0.5 -0 0.63236534182377013 0.50296756406332266 0 0.56986707178436635 0.37762093650871992 0 0.63236534182377013 0.50296756406332266 0 0.75338430262320943 0.49294443423175599 0 0.71826039492840632 0.34564020717216182 0 0.63236534182377013 0.50296756406332266 0 0.56986707178436635 0.37762093650871992 0 0.71826039492840632 0.34564020717216182 0 0.71508993406183785 0.15715956854777599 0 0.61108462585082757 0.25750599582343231 0 0.71826039492840632 0.34564020717216182 0 0.61108462585082757 0.25750599582343231 0 0.56986707178436635 0.37762093650871992 0 0.71826039492840632 0.34564020717216182 0 
</DataArray>
</Points>
<Cells>
<DataArray type="UInt32" Name="connectivity" format="ascii">
0 1 2 3 4 5 6 7 8 9 10 11 12 13 14 15 16 17 18 19 20 21 22 23 24 25 26 27 28 29 30 31 32 33 34 35 36 37 38 39 40 41 42 43 44 45 46 47 48 49 50 51 52 53 54 55 56 57 58 59 60 61 62 63 64 65 66 67 68 69 70 71 72 73 74 75 76 77 78 79 80 81 82 83 84 85 86 87 88 89 90 91 92 93 94 95 96 97 98 99 100 101 102 103 104 105 106 107 108 109 110 111 112 113 114 115 116 117 118 119 120 121 122 123 124 125 126 127 128 129 130 131 132 133 134 135 136 137 138 139 140 141 142 143 144 145 146 147 148 149 150 151 152 153 154 155 156 157 158 159 160 161 162 163 164 165 166 167 168 169 170 171 172 173 174 175 176 177 178 179 180 181 182 183 184 185 186 187 188 189 190 191 192 193 194 195 196 197 198 199 200 201 202 203 204 205 206 207 208 209 210 211 212 213 214 215 216 217 218 219 220 221 222 223 224 225 226 227 228 229 230 231 232 233 234 235 236 237 238 239 240 241 242 243 244 245 246 247 248 249 250 251 252 253 254 255 256 257 258 259 260 261 262 263 264 265 266 267 268 269 270 271 272 273 274 275 276 277 278 279 280 281 282 283 284 285 286 287 288 289 290 291 292 293 294 295 296 297 298 299 300 301 302 303 304 305 306 307 308 309 310 311 312 313 314 315 316 317 318 319 320 321 322 323 324 325 326 327 328 329 330 331 332 333 334 335 336 337 338 339 340 341 342 343 344 345 346 347 348 349 350 351 352 353 354 355 356 357 358 359 
</DataArray>
<DataArray type="UInt32" Name="offsets" format="ascii">
3 6 9 12 15 18 21 24 27 30 33 35 38 41 43 46 49 52 55 58 60 63 66 68 71 73 76 79 82 85 87 90 93 96 99 101 104 107 109 112 115 118 121 124 127 130 133 136 139 142 145 148 151 154 157 160 163 166 169 172 175 178 181 184 187 190 193 195 198 200 203 206 209 212 215 218 221 224 227 230 232 235 238 241 243 246 249 252 255 258 261 264 267 270 273 276 279 282 285 288 291 294 297 300 303 306 309 312 315 318 321 324 327 330 333 336 339 342 345 348 351 354 357 360 
</DataArray>
<DataArray type="UInt32" Name="types" format="ascii">
5 5 5 5 5 5 5 5 5 5 5 3 5 5 3 5 5 5 5 5 3 5 5 3 5 3 5 5 5 5 3 5 5 5 5 3 5 5 3 5 5 5 5 5 5 5 5 5 5 5 5 5 5 5 5 5 5 5 5 5 5 5 5 5 5 5 5 3 5 3 5 5 5 5 5 5 5 5 5 5 3 5 5 5 3 5 5 5 5 5 5 5 5 5 5 5 5 5 5 5 5 5 5 5 5 5 5 5 5 5 5 5 5 5 5 5 5 5 5 5 5 5 5 5 
</DataArray>
</Cells>
<PointData Scalars="" Vectors="displacement," Tensors="">
<DataArray type="Float64" Name="displacement" NumberOfComponents="3" format="ascii">
5.9306999819487634e-08 -0.1060526357603543 0 -0.00093130091699747224 -0.10489584893228271 0 -2.4719887660347835e-08 -0.1057716254431048 0 5.9306999819487634e-08 -0.1060526357603543 0 -0.00093130091699747224 -0.10489584893228271 0 0.0006702352548802555 -0.10396458429190067 0 -2.4719887660347835e-08 -0.1057716254431048 0 -0.0030681323346990219 -0.10416750268011474 0 -1.2511672476560627e-06 -0.10520185929416913 0 -0.00093130091699747224 -0.10489584893228271 0 -2.4719887660347835e-08 -0.1057716254431048 0 -0.0030681323346990219 -0.10416750268011474 0 -0.00093130091699747224 -0.10489584893228271 0 -0.0030681323346990219 -0.10416750268011474 0 -0.0028816628394861986 -0.10171888537127158 0 -0.0030681323346990219 -0.10416750268011474 0 -0.009379692355885939 -0.098619326892384257 0 -0.0095961963165692356 -0.10198917128787886 0 -0.0030681323346990219 -0.10416750268011474 0 -0.009379692355885939 -0.098619326892384257 0 -0.0028816628394861986 -0.10171888537127158 0 -0.009379692355885939 -0.098619326892384257 0 -0.0028816628394861986 -0.10171888537127158 0 -0.0054044085916357546 -0.095018914486151185 0 0.0006702352548802555 -0.10396458429190067 0 -0.0028816628394861986 -0.10171888537127158 0 0.00030413290033915022 -0.098829044460302828 0 -0.0028816628394861986 -0.10171888537127158 0 0.00030413290033915022 -0.098829044460302828 0 -0.0054044085916357546 -0.095018914486151185 0 -0.00093130091699747224 -0.10489584893228271 0 0.0006702352548802555 -0.10396458429190067 0 -0.0028816628394861986 -0.10171888537127158 0 0.014727798184186108 -0.071432616992266162 0 0.0080898638809384065 -0.066731587471692971 0 0.028962047028506414 -0.043725092463133136 0 0.021565045611170394 -0.038868129621999425 0 0.025613065915693359 -0.031802977130145973 0 -0.009379692355885939 -0.098619326892384257 0 -0.0054044085916357546 -0.095018914486151185 0 -0.012860230623516799 -0.091514066834977231 0 0.0080898638809384065 -0.066731587471692971 0 0.0019640017426496479 -0.063409170702589807 0 0.021565045611170394 -0.038868129621999425 0 0.018445798899984676 -0.031325083962387687 0 0.017045244403521266 -0.033914993132310139 0 0.018445798899984676 -0.031325083962387687 0 0.013670221377676305 -0.025988901111000651 0 0.017045244403521266 -0.033914993132310139 0 0.018445798899984676 -0.031325083962387687 0 0.013670221377676305 -0.025988901111000651 0 0.016066214835507363 -0.024274288519412348 0 0.021565045611170394 -0.038868129621999425 0 0.018445798899984676 -0.031325083962387687 0 0.025613065915693359 -0.031802977130145973 0 0.018445798899984676 -0.031325083962387687 0 0.025613065915693359 -0.031802977130145973 0 0.016066214835507363 -0.024274288519412348 0 -0.014938357766168158 -0.089134978838391443 0 -0.006866444343437088 -0.065458436202990258 0 -0.017836012926040964 -0.089949285805963231 0 -0.019175569893240541 -0.093343130151797113 0 -0.021564506638430861 -0.088032955497805168 0 -0.017836012926040964 -0.089949285805963231 0 -0.015185679110229541 -0.094041120932908895 0 -0.019175569893240541 -0.093343130151797113 0 -0.0023306630794096578 -0.056301888272629268 0 -0.006866444343437088 -0.065458436202990258 0 0.012143335400296112 -0.027778712835601592 0 0.013670221377676305 -0.025988901111000651 0 0.017045244403521266 -0.033914993132310139 0 -0.0023306630794096578 -0.056301888272629268 0 0.0019640017426496479 -0.063409170702589807 0 -0.017836012926040964 -0.089949285805963231 0 -0.012860230623516799 -0.091514066834977231 0 -0.015185679110229541 -0.094041120932908895 0 -0.009379692355885939 -0.098619326892384257 0 -0.015185679110229541 -0.094041120932908895 0 -0.015142210832522622 -0.098674833952254612 0 -0.009379692355885939 -0.098619326892384257 0 -0.012860230623516799 -0.091514066834977231 0 -0.015185679110229541 -0.094041120932908895 0 -0.015185679110229541 -0.094041120932908895 0 -0.019175569893240541 -0.093343130151797113 0 -0.015142210832522622 -0.098674833952254612 0 -0.014938357766168158 -0.089134978838391443 0 -0.0078695232826092761 -0.089006696279605113 0 -0.0055726549795982825 -0.077044758126768753 0 -0.0019871217049946825 -0.081469592113866618 0 -0.0056115779748416783 -0.082001794350191434 0 -0.0023945054253071453 -0.085603968898084137 0 -0.0019871217049946825 -0.081469592113866618 0 -0.0056115779748416783 -0.082001794350191434 0 -0.0023945054253071453 -0.085603968898084137 0 -0.0019871217049946825 -0.081469592113866618 0 0.000234733821638654 -0.086697745355058531 0 -0.009379692355885939 -0.098619326892384257 0 -0.015142210832522622 -0.098674833952254612 0 -0.0095961963165692356 -0.10198917128787886 0 -0.0078695232826092761 -0.089006696279605113 0 -0.0049051423523852541 -0.09466098020645286 0 0.000234733821638654 -0.086697745355058531 0 1.8900664174910836e-07 -0.087328517697639191 0 -2.6161880314558028e-07 -0.087844139580063957 0 -0.0030681323346990219 -0.10416750268011474 0 -0.0095961963165692356 -0.10198917128787886 0 -1.2511672476560627e-06 -0.10520185929416913 0 -0.0049051423523852541 -0.09466098020645286 0 0.00016244035749688422 -0.096057368230156176 0 -0.0023945054253071453 -0.085603968898084137 0 -2.6161880314558028e-07 -0.087844139580063957 0 -0.003482554978035035 -0.085849378854028421 0 -0.0023945054253071453 -0.085603968898084137 0 0.000234733821638654 -0.086697745355058531 0 -2.6161880314558028e-07 -0.087844139580063957 0 -2.6161880314558028e-07 -0.087844139580063957 0 -5.4563425888750088e-07 -0.087137234703777655 0 -0.003482554978035035 -0.085849378854028421 0 -5.4563425888750088e-07 -0.087137234703777655 0 -0.0045144601629795601 -0.08588598734097265 0 -0.003482554978035035 -0.085849378854028421 0 -5.4563425888750088e-07 -0.087137234703777655 0 -0.0045144601629795601 -0.08588598734097265 0 -6.5264590607979133e-07 -0.087120589068619719 0 -0.0045144601629795601 -0.08588598734097265 0 -0.003482554978035035 -0.085849378854028421 0 -0.0080941886204526931 -0.082085943514781878 0 -0.0045144601629795601 -0.08588598734097265 0 -0.010062382460619657 -0.082723568429655531 0 -0.0080941886204526931 -0.082085943514781878 0 -0.003482554978035035 -0.085849378854028421 0 -0.0056115779748416783 -0.082001794350191434 0 -0.0080941886204526931 -0.082085943514781878 0 -0.0023945054253071453 -0.085603968898084137 0 -0.003482554978035035 -0.085849378854028421 0 -0.0056115779748416783 -0.082001794350191434 0 -1.0171665664249099e-06 -0.087622983659379469 0 -0.004970596098959423 -0.086333781462074599 0 -0.0091889759998887936 -0.085492569791198722 0 -1.0171665664249099e-06 -0.087622983659379469 0 -6.5264590607979133e-07 -0.087120589068619719 0 -0.004970596098959423 -0.086333781462074599 0 -0.0045144601629795601 -0.08588598734097265 0 -6.5264590607979133e-07 -0.087120589068619719 0 -0.004970596098959423 -0.086333781462074599 0 -0.0045144601629795601 -0.08588598734097265 0 -0.004970596098959423 -0.086333781462074599 0 -0.010062382460619657 -0.082723568429655531 0 -0.004970596098959423 -0.086333781462074599 0 -0.0091889759998887936 -0.085492569791198722 0 -0.010062382460619657 -0.082723568429655531 0 -0.010062382460619657 -0.082723568429655531 0 -0.015796505991063543 -0.077044753414694106 0 -0.016948024721351877 -0.08050767791176873 0 -0.0091889759998887936 -0.085492569791198722 0 -0.010062382460619657 -0.082723568429655531 0 -0.016948024721351877 -0.08050767791176873 0 -0.010062382460619657 -0.082723568429655531 0 -0.015796505991063543 -0.077044753414694106 0 -0.011971189777456358 -0.078747235803087109 0 -0.015796505991063543 -0.077044753414694106 0 -0.011971189777456358 -0.078747235803087109 0 -0.01507621772875185 -0.074022772734495465 0 -0.015796505991063543 -0.077044753414694106 0 -0.016948024721351877 -0.08050767791176873 0 -0.023072058754286012 -0.073840681577488687 0 -0.0056115779748416783 -0.082001794350191434 0 -0.0080941886204526931 -0.082085943514781878 0 -0.01117929691699851 -0.076538815295636622 0 -0.0055726549795982825 -0.077044758126768753 0 -0.0056115779748416783 -0.082001794350191434 0 -0.01117929691699851 -0.076538815295636622 0 -0.010062382460619657 -0.082723568429655531 0 -0.0080941886204526931 -0.082085943514781878 0 -0.011971189777456358 -0.078747235803087109 0 -0.0080941886204526931 -0.082085943514781878 0 -0.011971189777456358 -0.078747235803087109 0 -0.01117929691699851 -0.076538815295636622 0 -0.011971189777456358 -0.078747235803087109 0 -0.01117929691699851 -0.076538815295636622 0 -0.01507621772875185 -0.074022772734495465 0 -0.01117929691699851 -0.076538815295636622 0 -0.01507621772875185 -0.074022772734495465 0 -0.015652823117389345 -0.070616724550051496 0 -0.0055726549795982825 -0.077044758126768753 0 -0.01117929691699851 -0.076538815295636622 0 -0.011306878558378121 -0.072276444280244961 0 -0.01117929691699851 -0.076538815295636622 0 -0.011306878558378121 -0.072276444280244961 0 -0.015652823117389345 -0.070616724550051496 0 0.011678826122350673 -0.023758166534615089 0 0.010784280786158345 -0.020289385137003579 0 0.0085209590388348466 -0.017468209572819613 0 -0.006866444343437088 -0.065458436202990258 0 -0.00054071841900590867 -0.040781970038540637 0 -0.01507621772875185 -0.074022772734495465 0 -0.015652823117389345 -0.070616724550051496 0 -0.01788338996179982 -0.069757101714922554 0 -0.00054071841900590867 -0.040781970038540637 0 -0.0056430693050810278 -0.044225382010191064 0 0.0064619973796222543 -0.012613282550817097 0 0.0076288868614903717 -0.016185679681841352 0 0.0052147129575813083 -0.011052656494338576 0 0.010784280786158345 -0.020289385137003579 0 0.0064619973796222543 -0.012613282550817097 0 0.0076288868614903717 -0.016185679681841352 0 0.0064619973796222543 -0.012613282550817097 0 0.0085209590388348466 -0.017468209572819613 0 0.005645763147241311 -0.011179151253115872 0 0.010784280786158345 -0.020289385137003579 0 0.0064619973796222543 -0.012613282550817097 0 0.0085209590388348466 -0.017468209572819613 0 -0.023072058754286012 -0.073840681577488687 0 -0.018792505147965311 -0.072584164703819273 0 -0.022709856959909753 -0.067830975246340311 0 -0.015796505991063543 -0.077044753414694106 0 -0.023072058754286012 -0.073840681577488687 0 -0.018792505147965311 -0.072584164703819273 0 -0.015796505991063543 -0.077044753414694106 0 -0.01507621772875185 -0.074022772734495465 0 -0.018792505147965311 -0.072584164703819273 0 -0.01507621772875185 -0.074022772734495465 0 -0.018792505147965311 -0.072584164703819273 0 -0.01788338996179982 -0.069757101714922554 0 0.0076288868614903717 -0.016185679681841352 0 0.0052147129575813083 -0.011052656494338576 0 0.0057711146246564697 -0.013415900470221863 0 0.0052147129575813083 -0.011052656494338576 0 0.0057711146246564697 -0.013415900470221863 0 0.0028311496195820508 -0.0072191408981496013 0 -0.0056430693050810278 -0.044225382010191064 0 -0.0082915719632885802 -0.040280612961432614 0 -0.018792505147965311 -0.072584164703819273 0 -0.01788338996179982 -0.069757101714922554 0 -0.022709856959909753 -0.067830975246340311 0 -0.023072058754286012 -0.073840681577488687 0 -0.022709856959909753 -0.067830975246340311 0 -0.02699839005682007 -0.06703598797332086 0 0.0057711146246564697 -0.013415900470221863 0 0.00043909475874429461 -0.0096141499556007155 0 0.0028311496195820508 -0.0072191408981496013 0 -0.0082915719632885802 -0.040280612961432614 0 -0.013468480067681513 -0.038446428112844114 0 0.00043909475874429461 -0.0096141499556007155 0 0.0028311496195820508 -0.0072191408981496013 0 -0.00082693377190487354 -0.003849995876894633 0 0.0028311496195820508 -0.0072191408981496013 0 0.00098952696869442948 -0.0027858562707842606 0 -0.00082693377190487354 -0.003849995876894633 0 0.0028311496195820508 -0.0072191408981496013 0 0.0028121097233354698 -0.0053679193939965945 0 0.00098952696869442948 -0.0027858562707842606 0 0.0052147129575813083 -0.011052656494338576 0 0.0028311496195820508 -0.0072191408981496013 0 0.0028121097233354698 -0.0053679193939965945 0 0.0028121097233354698 -0.0053679193939965945 0 3.2380322229603242e-07 -1.352312294858724e-07 0 3.2321637158327395e-07 -2.254586534319819e-07 0 0.0028121097233354698 -0.0053679193939965945 0 3.2380322229603242e-07 -1.352312294858724e-07 0 0.00098952696869442948 -0.0027858562707842606 0 3.2380322229603242e-07 -1.352312294858724e-07 0 0.00098952696869442948 -0.0027858562707842606 0 -3.069622138078208e-07 -6.1212250187315962e-08 0 0.00098952696869442948 -0.0027858562707842606 0 -3.069622138078208e-07 -6.1212250187315962e-08 0 -0.00082693377190487354 -0.003849995876894633 0 0.0064619973796222543 -0.012613282550817097 0 0.003061765051437685 -0.0058172025567767779 0 0.005645763147241311 -0.011179151253115872 0 0.0064619973796222543 -0.012613282550817097 0 0.0028121097233354698 -0.0053679193939965945 0 0.003061765051437685 -0.0058172025567767779 0 0.0064619973796222543 -0.012613282550817097 0 0.0052147129575813083 -0.011052656494338576 0 0.0028121097233354698 -0.0053679193939965945 0 0.0028121097233354698 -0.0053679193939965945 0 0.003061765051437685 -0.0058172025567767779 0 3.2321637158327395e-07 -2.254586534319819e-07 0 0.003061765051437685 -0.0058172025567767779 0 3.2321637158327395e-07 -2.254586534319819e-07 0 3.5876165691046443e-07 -2.2996943919724908e-07 0 3.5876165691046443e-07 -2.2996943919724908e-07 0 0.0031360873393161135 -0.0058222384382970831 0 4.6970738357337044e-07 -2.4091807435937323e-07 0 0.003061765051437685 -0.0058172025567767779 0 3.5876165691046443e-07 -2.2996943919724908e-07 0 0.0031360873393161135 -0.0058222384382970831 0 0.003061765051437685 -0.0058172025567767779 0 0.005645763147241311 -0.011179151253115872 0 0.0031360873393161135 -0.0058222384382970831 0 0.005645763147241311 -0.011179151253115872 0 0.0031360873393161135 -0.0058222384382970831 0 0.0068874748079340957 -0.013368525135596198 0 0.0040683703504021439 -0.0060352725171600565 0 0.010249862345956822 -0.014533496481923546 0 0.0068874748079340957 -0.013368525135596198 0 0.0031360873393161135 -0.0058222384382970831 0 0.0040683703504021439 -0.0060352725171600565 0 0.0068874748079340957 -0.013368525135596198 0 0.0040683703504021439 -0.0060352725171600565 0 4.6970738357337044e-07 -2.4091807435937323e-07 0 3.8246846517442161e-07 -9.0579542162769597e-08 0 0.0031360873393161135 -0.0058222384382970831 0 0.0040683703504021439 -0.0060352725171600565 0 4.6970738357337044e-07 -2.4091807435937323e-07 0 0.0040683703504021439 -0.0060352725171600565 0 3.8246846517442161e-07 -9.0579542162769597e-08 0 0.0050813894442168911 -0.005697171789788096 0 1.5803058987168609e-06 -5.9447387253769966e-07 0 0.0050813894442168911 -0.005697171789788096 0 0.01236976062499333 -0.011258066116237373 0 3.8246846517442161e-07 -9.0579542162769597e-08 0 1.5803058987168609e-06 -5.9447387253769966e-07 0 0.0050813894442168911 -0.005697171789788096 0 0.0050813894442168911 -0.005697171789788096 0 0.01236976062499333 -0.011258066116237373 0 0.010249862345956822 -0.014533496481923546 0 0.0040683703504021439 -0.0060352725171600565 0 0.0050813894442168911 -0.005697171789788096 0 0.010249862345956822 -0.014533496481923546 0 0.010249862345956822 -0.014533496481923546 0 0.019993340111807822 -0.02121065374047934 0 0.016066214835507363 -0.024274288519412348 0 0.01236976062499333 -0.011258066116237373 0 0.010249862345956822 -0.014533496481923546 0 0.019993340111807822 -0.02121065374047934 0 0.025613065915693359 -0.031802977130145973 0 0.019993340111807822 -0.02121065374047934 0 0.016066214835507363 -0.024274288519412348 0 0.010249862345956822 -0.014533496481923546 0 0.016066214835507363 -0.024274288519412348 0 0.011045132727753461 -0.019530385358640205 0 0.013670221377676305 -0.025988901111000651 0 0.016066214835507363 -0.024274288519412348 0 0.011045132727753461 -0.019530385358640205 0 0.013670221377676305 -0.025988901111000651 0 0.011045132727753461 -0.019530385358640205 0 0.0098858953741957634 -0.021111296353383418 0 0.012143335400296112 -0.027778712835601592 0 0.013670221377676305 -0.025988901111000651 0 0.0098858953741957634 -0.021111296353383418 0 0.012143335400296112 -0.027778712835601592 0 0.011678826122350673 -0.023758166534615089 0 0.0098858953741957634 -0.021111296353383418 0 0.011678826122350673 -0.023758166534615089 0 0.0085209590388348466 -0.017468209572819613 0 0.0098858953741957634 -0.021111296353383418 0 0.0085209590388348466 -0.017468209572819613 0 0.005645763147241311 -0.011179151253115872 0 0.0068874748079340957 -0.013368525135596198 0 0.0085209590388348466 -0.017468209572819613 0 0.0098858953741957634 -0.021111296353383418 0 0.0068874748079340957 -0.013368525135596198 0 0.010249862345956822 -0.014533496481923546 0 0.011045132727753461 -0.019530385358640205 0 0.0068874748079340957 -0.013368525135596198 0 0.011045132727753461 -0.019530385358640205 0 0.0098858953741957634 -0.021111296353383418 0 0.0068874748079340957 -0.013368525135596198 0 
</DataArray>
</PointData>
<CellData Scalars="region_id,cross_section_updated," Vectors="" Tensors="stress,">
<DataArray type="Float64" Name="region_id" format="ascii">
11 11 11 11 11 11 11 11 11 11 11 5 11 11 5 11 11 11 11 11 6 11 11 5 11 5 11 11 11 11 6 11 11 11 11 6 11 11 6 11 11 11 11 11 11 11 11 11 11 11 11 11 11 11 11 11 11 11 11 11 11 11 11 11 11 11 11 4 11 4 11 11 11 11 11 11 11 11 11 11 4 11 11 11 4 11 11 11 11 11 11 11 11 11 11 11 11 11 11 11 11 11 11 11 11 11 11 11 11 11 11 11 11 11 11 11 11 11 11 11 11 11 11 11 
</DataArray>
<DataArray type="Float64" Name="stress" NumberOfComponents="9" format="ascii">
-12349497.763976634 4563613.0643776655 0 4563613.0643776655 -1718544.5474699736 0 0 0 -3517010.5778616071 5266467.5101052523 280004.00596141815 0 280004.00596141815 -1357101.7354574203 0 0 0 977341.44366204739 -34688169.87610817 5205721.5443729162 0 5205721.5443729162 -6700718.8211048841 0 0 0 -10347222.174303234 -20973034.462162614 -2034030.7427529693 0 -2034030.7427529693 -1582420.8066418171 0 0 0 -5638863.8172011375 -17029069.344474792 5149527.6768448949 0 5149527.6768448949 -3465873.0370419621 0 0 0 -5123735.5953791738 -28362696.64157033 -4708142.8428443372 0 -4708142.8428443372 1887931.0511186123 0 0 0 -6618691.3976129889 -34545497.197389841 172369.40198934078 0 172369.40198934078 -3087819.4046547413 0 0 0 -9408329.1505111456 -17674603.626876459 3462785.2440000772 0 3462785.2440000772 -4516579.1296150088 0 0 0 -5547795.6891228408 -4156869.1511753201 4336907.7780447006 0 4336907.7780447006 -3098387.1772919893 0 0 0 -1813814.0821168423 -17020959.858281463 5547714.7976616025 0 5547714.7976616025 -718582.87792551517 0 0 0 -4434885.6840517521 -14435327.856477767 2458805.1714964509 0 2458805.1714964509 -795816.97650748491 0 0 0 -3807786.2082462907 19888.397269611716 14915.413481332325 0 14915.413481332325 -19874.245022284184 0 0 0 3.5380618318813504 -18608121.052438386 5335688.0287776142 0 5335688.0287776142 1331581.1682919413 0 0 0 -4319134.9710366055 -26864833.995326728 1804526.7762939036 0 1804526.7762939036 -7143540.9970998764 0 0 0 -8502093.7481066585 20333.175342483268 15249.715462365086 0 15249.715462365086 -20330.518247243897 0 0 0 0.66427380984168849 -20944079.155462146 14684361.577270005 0 14684361.577270005 1808499.120041728 0 0 0 -4783895.0088551044 -26381655.734375201 14559102.490482375 0 14559102.490482375 1502410.6749378741 0 0 0 -6219811.2648593187 -23473861.410104007 12801537.431077495 0 12801537.431077495 4635641.0802872181 0 0 0 -4709555.0824541897 -15129214.09546642 6385550.4982963763 0 6385550.4982963763 2052124.0894607008 0 0 0 -3269272.5015014112 -27625258.1541228 5459552.4407565743 0 5459552.4407565743 -2217208.103044102 0 0 0 -7460616.5642917287 -576.00542871557627 1472.1717697943532 0 1472.1717697943532 15179.885683422792 0 0 0 3650.9700636768066 -9868060.5260580778 7756732.4164231122 0 7756732.4164231122 -11694766.700708985 0 0 0 -5390706.8066917658 -20233637.632956088 3854766.4332753718 0 3854766.4332753718 -16937053.526302576 0 0 0 -9292672.789814651 22578.375879665931 16941.093491228577 0 16941.093491228577 -22695.362044434514 0 0 0 -29.246541192145742 -23811468.397870153 15213949.835320696 0 15213949.835320696 10012972.332371116 0 0 0 -3449624.0163747445 21426.748867314363 16066.887274179231 0 16066.887274179231 -21375.958967055689 0 0 0 12.697475064667742 -21549386.402303427 4960414.8318377733 0 4960414.8318377733 -17767500.020929694 0 0 0 -9829221.6058082581 -23254458.76398766 3537603.9176217914 0 3537603.9176217914 -12111446.023786426 0 0 0 -8841476.1969434619 -30991522.293626666 6770735.2222152054 0 6770735.2222152054 -17224281.763238668 0 0 0 -12053951.014216423 -22248445.979780644 5361776.1356083155 0 5361776.1356083155 -18911754.37390554 0 0 0 -10290050.088421494 -1241.0701206611229 1780.5864431520877 0 1780.5864431520877 15568.028481286354 0 0 0 3581.7395901563104 -23128280.811289132 6107891.6468259692 0 6107891.6468259692 -16077715.395107746 0 0 0 -9801499.0515992641 -18744344.46457535 4550124.4913862944 0 4550124.4913862944 -14227566.544555545 0 0 0 -8242977.7522827387 -10192910.46339345 9348283.5447438061 0 9348283.5447438061 -2712918.4032472372 0 0 0 -3226457.2166602015 -29256073.691213198 -5545818.6716992855 0 -5545818.6716992855 -12332094.500386745 0 0 0 -10397042.047899969 -370.14450106251388 1215.9543609405318 0 1215.9543609405318 15397.733533561157 0 0 0 3756.8972581246635 1153078.8762274683 2567506.8365649283 0 2567506.8365649283 -2548955.9723796844 0 0 0 -348969.2740380466 -61401026.994321764 -9262639.8444026709 0 -9262639.8444026709 -5580777.0779425502 0 0 0 -16745451.018066049 3257.2605060107308 -1210.3908668481472 0 -1210.3908668481472 16911.037099226902 0 0 0 5042.0744013094045 -18890046.30654645 2121053.8547154479 0 2121053.8547154479 -7089851.5310791731 0 0 0 -6494974.4594063759 -15898484.255964406 -909428.5104458034 0 -909428.5104458034 594865.77154064178 0 0 0 -3825904.621105887 -28491424.758694455 4256547.6132693589 0 4256547.6132693589 -5475638.2900323691 0 0 0 -8491765.7621817421 -33112859.150612026 943802.92964974046 0 943802.92964974046 -11275417.517778873 0 0 0 -11097069.167097718 -38930823.546698362 3574430.9597719163 0 3574430.9597719163 -12882246.013334513 0 0 0 -12953267.390008181 -35371409.791825503 8344926.4867031574 0 8344926.4867031574 -11992352.516176879 0 0 0 -11840940.577000588 -39182941.266497225 6045746.1383886337 0 6045746.1383886337 -17602311.78362 0 0 0 -14196313.262529284 -29990047.041159421 5659559.2029096782 0 5659559.2029096782 -13075055.580556273 0 0 0 -10766275.655428916 -25861395.92012284 8288818.9658616781 0 8288818.9658616781 -8082814.8697574958 0 0 0 -8486052.6974700764 -58322675.544931859 643555.57733941078 0 643555.57733941078 -18160195.879862487 0 0 0 -19120717.856198549 -47993455.050406784 2968247.1023843288 0 2968247.1023843288 -18855885.355362535 0 0 0 -16712335.101442307 -44533282.721421182 480175.35129487514 0 480175.35129487514 -17500339.644963741 0 0 0 -15508405.591596246 -42186607.788122118 6935918.6332640052 0 6935918.6332640052 -15313108.522758819 0 0 0 -14374929.077720258 -46035992.599058494 2913709.8540666103 0 2913709.8540666103 -19701780.550682247 0 0 0 -16434443.287435189 -39567600.145915329 4184602.3101698086 0 4184602.3101698086 -19943761.39171052 0 0 0 -14877840.384406477 -50414048.933728501 3509080.9331714809 0 3509080.9331714809 -18821048.6216712 0 0 0 -17308774.388849944 -40622945.292838097 7959888.3802042305 0 7959888.3802042305 -19277677.004835844 0 0 0 -14975155.574418426 -34970409.31428206 8579489.5025191307 0 8579489.5025191307 -20466494.533027232 0 0 0 -13859225.961827278 -41471760.014221802 4309923.4676000774 0 4309923.4676000774 -19898432.54735294 0 0 0 -15342548.140393689 -35387736.267531075 9533459.8909299374 0 9533459.8909299374 -15656692.605083697 0 0 0 -12761107.218153663 -26492513.408022344 4664026.4586087316 0 4664026.4586087316 -15597766.662883818 0 0 0 -10522570.017726541 -36218305.469587624 9749977.5568026304 0 9749977.5568026304 -16841958.056999058 0 0 0 -13265065.881646663 -35734055.56883198 9904910.8024160862 0 9904910.8024160862 -19787920.898016453 0 0 0 -13880494.116712093 -34240935.746900968 10764793.80972001 0 10764793.80972001 -18803934.82037887 0 0 0 -13261217.641819917 -37737123.913782924 12153747.095457047 0 12153747.095457047 -21246716.737233222 0 0 0 -14745960.162754059 -42265595.002094992 6297368.6292375624 0 6297368.6292375624 -21116821.430934459 0 0 0 -15845604.108257376 -35683982.234534442 7882428.8980269432 0 7882428.8980269432 -19487264.15023005 0 0 0 -13792811.596191108 -27144228.317797665 20902212.573409446 0 20902212.573409446 -4743375.9627252221 0 0 0 -7971901.0701307245 17769.504083158463 13309.3108892988 0 13309.3108892988 -17484.429349368311 0 0 0 71.268683447538024 -30775448.282683775 11541998.621391356 0 11541998.621391356 -21966097.303777993 0 0 0 -13185386.396615431 18557.567309701357 13922.012016365185 0 13922.012016365185 -18618.951882127763 0 0 0 -15.346143106599811 -22826129.14135154 15700657.126626432 0 15700657.126626432 -4500814.0378538817 0 0 0 -6831735.7948013507 -30293270.792215116 15641851.860496808 0 15641851.860496808 -1990875.5358683765 0 0 0 -8071036.5820208788 -26687790.229140073 20516823.337009951 0 20516823.337009951 -3752166.573467806 0 0 0 -7609989.2006519772 -32422969.729113623 21029940.447355371 0 21029940.447355371 -4557406.7786389291 0 0 0 -9245094.1269381195 -33883677.662914947 4966784.893510282 0 4966784.893510282 -18537240.834473647 0 0 0 -13105229.624347193 -35638356.545875192 3286609.0368824303 0 3286609.0368824303 -19274839.602784634 0 0 0 -13728299.037164986 -35561801.319480792 7700606.7578620911 0 7700606.7578620911 -21654645.414106369 0 0 0 -14304111.683396801 -27810322.178357005 5598572.2592632771 0 5598572.2592632771 -18071194.200617611 0 0 0 -11470379.094743669 -24314200.309205178 16199852.046385722 0 16199852.046385722 -8636761.8461306095 0 0 0 -8237740.5388339385 -27795365.262068391 18090057.953537606 0 18090057.953537606 -5963383.9165843278 0 0 0 -8439687.2946631704 19317.140161699757 14486.177988332201 0 14486.177988332201 -19290.306057920221 0 0 0 6.7085259448840588 -34209786.140624866 6272119.2435168922 0 6272119.2435168922 -16767586.723390937 0 0 0 -12744343.216003969 -29842900.907151267 4981460.5015679002 0 4981460.5015679002 -22519315.157895863 0 0 0 -13090554.016261786 -24215068.369087748 8086472.3273105808 0 8086472.3273105808 -3390799.0948686525 0 0 0 -6901466.8659891002 19990.811339874017 14993.591235616072 0 14993.591235616072 -19998.535054221094 0 0 0 -1.9309285867693688 -11566918.798889723 7976674.1766948812 0 7976674.1766948812 -2290426.0120504722 0 0 0 -3464336.2027350478 -16532992.451469434 8083038.8108409261 0 8083038.8108409261 -2232349.1485498399 0 0 0 -4691335.400004819 -19458757.925820224 14743334.345867217 0 14743334.345867217 -3090286.5017324239 0 0 0 -5637261.106888162 -24092806.783024922 16114319.852746779 0 16114319.852746779 -2458114.5228097141 0 0 0 -6637730.3264586609 -23741172.44276889 15107554.287767444 0 15107554.287767444 -7913146.6920763599 0 0 0 -7913579.7837113142 -16474605.660210479 10873286.643111508 0 10873286.643111508 1104752.1996881776 0 0 0 -3842463.3651305763 -12682477.038351737 11900804.95762313 0 11900804.95762313 -4227018.6246497314 0 0 0 -4227373.9157503666 7536629.7417429462 5746901.7101143738 0 5746901.7101143738 1448242.897137545 0 0 0 2246218.1597201247 -26542323.711444221 18451555.458059829 0 18451555.458059829 -5299215.6084263921 0 0 0 -7960384.8299676552 -26946104.175568365 18081502.908444319 0 18081502.908444319 -5248569.0444981232 0 0 0 -8048668.3050166164 -24475807.225382332 17229034.27149656 0 17229034.27149656 -5770121.3665329386 0 0 0 -7561482.1479788199 -23749371.880006686 15191517.891171407 0 15191517.891171407 -4334432.823782308 0 0 0 -7020951.1759472499 -26481871.632515837 16772553.773626674 0 16772553.773626674 -8827261.6751430351 0 0 0 -8827283.3269147165 -28016627.07415434 17339260.543916419 0 17339260.543916419 -9338805.6201197468 0 0 0 -9338858.1735685226 -26733133.927369334 16622332.163367365 0 16622332.163367365 -7696057.7517666072 0 0 0 -8607297.9197839852 -27220076.50945669 19046925.172423404 0 19046925.172423404 -7689604.4580132142 0 0 0 -8727420.2418674789 -27969551.482034188 18902609.406663727 0 18902609.406663727 -6159132.138114512 0 0 0 -8532170.9050371759 -35252044.526221424 15021990.424769938 0 15021990.424769938 -6142292.50397183 0 0 0 -10348584.257548314 -27902732.351762366 18431163.794154987 0 18431163.794154987 -9532073.1999819577 0 0 0 -9358701.3879360817 -35087203.393532552 17351547.738728181 0 17351547.738728181 -11696696.631116923 0 0 0 -11695975.00616237 -31496816.647970371 15302549.841906074 0 15302549.841906074 -10472091.309408719 0 0 0 -10492226.989344774 -42611393.815713227 13346590.72059698 0 13346590.72059698 -11150354.789611042 0 0 0 -13440437.151331075 -73335476.086841732 13558102.42481897 0 13558102.42481897 -8922817.4818964452 0 0 0 -20564573.392184544 -49561616.478410214 18522066.806653455 0 18522066.806653455 -16517313.90242235 0 0 0 -16519732.595208138 -44172190.109232724 7601113.8342964575 0 7601113.8342964575 1715970.1144554541 0 0 0 -10614054.998694316 -40194078.047729671 17616531.571264707 0 17616531.571264707 -9019252.2900251113 0 0 0 -12303332.584438702 -32519964.870346524 4733890.1186748222 0 4733890.1186748222 22581.517648056149 0 0 0 -8124345.8381746262 -43967425.234685257 5756188.7950717062 0 5756188.7950717062 -1793185.7961163819 0 0 0 -11440152.757700413 -31861185.627791226 4907430.4175204337 0 4907430.4175204337 326430.16969496012 0 0 0 -7883688.8645240664 -34990846.061939359 12462507.734224793 0 12462507.734224793 -2348275.4238463938 0 0 0 -9334780.3714464381 -24947625.465357725 10291016.620285019 0 10291016.620285019 1398905.3963527083 0 0 0 -5887180.0172512569 -25568625.787183776 15218440.627674237 0 15218440.627674237 -2178212.5457231104 0 0 0 -6936709.5832267106 -16122074.796085227 11269884.885414131 0 11269884.885414131 4813442.7786632329 0 0 0 -2827158.0043555014 -17761198.908504996 22036126.878355637 0 22036126.878355637 1598348.8389497399 0 0 0 -4040712.5173888244 -26483480.671913102 19366105.437318895 0 19366105.437318895 -3034398.1342618167 0 0 0 -7379469.7015437335 -27809835.690121911 19782908.380626373 0 19782908.380626373 -6684674.6369317323 0 0 0 -8623627.5817634091 -23336292.944890559 20814013.318637837 0 20814013.318637837 -4842751.04804869 0 0 0 -7044760.9982348215 -27238797.878296301 14286994.621425584 0 14286994.621425584 -3440253.5328873247 0 0 0 -7669762.8527959026 -26829946.719280101 14148796.060362354 0 14148796.060362354 -3480025.0905836672 0 0 0 -7577492.952465944 
</DataArray>
<DataArray type="Float64" Name="cross_section_updated" format="ascii">
1 1 1 1 1 1 1 1 1 1 1 0.00099999995541846798 1 1 0.00099999997604487828 1 1 1 1 1 0.0099999999768535242 1 1 0.001000000053818912 1 0.0010000000075404067 1 1 1 1 0.010000000020273625 1 1 1 1 0.010393121474699174 1 1 0.013633150090940946 1 1 1 1 1 1 1 1 1 1 1 1 1 1 1 1 1 1 1 1 1 1 1 1 1 1 1 1 0.0010000000022081929 1 0.0010000000016875052 1 1 1 1 1 1 1 1 1 1 0.0010000000014564209 1 1 1 0.0010000000014361689 1 1 1 1 1 1 1 1 1 1 1 1 1 1 1 1 1 1 1 1 1 1 1 1 1 1 1 1 1 1 1 1 1 1 1 1 1 1 1 
</DataArray>
</CellData>
</Piece>
</UnstructuredGrid>
</VTKFile>
