<?xml version="1.0"?>
<VTKFile type="UnstructuredGrid" version="0.1" byte_order="LittleEndian">
<UnstructuredGrid>
<Piece NumberOfPoints="360" NumberOfCells="124">
<Points>
<DataArray type="Float64" NumberOfComponents="3" format="ascii">
0 0 0 0.084352422163911631 0.086451712656266194 0 0 0.12500000000034689 0 0 0 0 0.084352422163911631 0.086451712656266194 0 0.1249999999997554 0 0 0 0.12500000000034689 0 0.1008171452988615 0.18885703697250469 0 0 0.25 0 0.084352422163911631 0.086451712656266194 0 0 0.12500000000034689 0 0.1008171452988615 0.18885703697250469 0 0.084352422163911631 0.086451712656266194 0 0.1008171452988615 0.18885703697250469 0 0.18402761812864499 0.1117324051466445 0 0.1008171452988615 0.18885703697250469 0 0.2403886547178353 0.24188814792673841 0 0.1249999999997599 0.31249999999987998 0 0.1008171452988615 0.18885703697250469 0 0.2403886547178353 0.24188814792673841 0 0.18402761812864499 0.1117324051466445 0 0.2403886547178353 0.24188814792673841 0 0.18402761812864499 0.1117324051466445 0 0.31250000000020822 0.12500000000041631 0 0.1249999999997554 0 0 0.18402761812864499 0.1117324051466445 0 0.25 -0 0 0.18402761812864499 0.1117324051466445 0 0.25 -0 0 0.31250000000020822 0.12500000000041631 0 0.084352422163911631 0.086451712656266194 0 0.1249999999997554 0 0 0.18402761812864499 0.1117324051466445 0 0.25 -0 0 0.31250000000020822 0.12500000000041631 0 0.25 -0 0 0.31250000000020822 0.12500000000041631 0 0.43749999999913258 0 0 0.2403886547178353 0.24188814792673841 0 0.31250000000020822 0.12500000000041631 0 0.37500000000027761 0.25000000000055511 0 0.31250000000020822 0.12500000000041631 0 0.37500000000027761 0.25000000000055511 0 0.31250000000020822 0.12500000000041631 0 0.4287911518546233 0.15455445427966699 0 0.37500000000027761 0.25000000000055511 0 0.4287911518546233 0.15455445427966699 0 0.49457493289300231 0.26251703776555491 0 0.37500000000027761 0.25000000000055511 0 0.4287911518546233 0.15455445427966699 0 0.49457493289300231 0.26251703776555491 0 0.54475767668582953 0.1431838882066932 0 0.31250000000020822 0.12500000000041631 0 0.4287911518546233 0.15455445427966699 0 0.43749999999913258 0 0 0.4287911518546233 0.15455445427966699 0 0.43749999999913258 0 0 0.54475767668582953 0.1431838882066932 0 0.37499999999973488 0.43749999999986738 0 0.5 0.5 -0 0.43750000000006939 0.37500000000013878 0 0.37499999999973488 0.43749999999986738 0 0.5 0.5 -0 0.43750000000006939 0.37500000000013878 0 0.33819444444448321 0.33819444444456342 0 0.37499999999973488 0.43749999999986738 0 0.43750000000006939 0.37500000000013878 0 0.5 0.5 -0 0.43750000000006939 0.37500000000013878 0 0.49457493289300231 0.26251703776555491 0 0.37500000000027761 0.25000000000055511 0 0.43750000000006939 0.37500000000013878 0 0.37500000000027761 0.25000000000055511 0 0.43750000000006939 0.37500000000013878 0 0.37500000000027761 0.25000000000055511 0 0.33819444444448321 0.33819444444456342 0 0.2403886547178353 0.24188814792673841 0 0.33819444444448321 0.33819444444456342 0 0.24999999999960859 0.37499999999980432 0 0.2403886547178353 0.24188814792673841 0 0.37500000000027761 0.25000000000055511 0 0.33819444444448321 0.33819444444456342 0 0.33819444444448321 0.33819444444456342 0 0.37499999999973488 0.43749999999986738 0 0.24999999999960859 0.37499999999980432 0 0.37499999999973488 0.43749999999986738 0 0.24999999999960859 0.37499999999980432 0 0.37499999999973488 0.43749999999986738 0 0.24999999999960859 0.37499999999980432 0 0.26452443700674649 0.51563531581639865 0 0.14929124186975251 0.44582793568106382 0 0.24999999999960859 0.37499999999980432 0 0.26452443700674649 0.51563531581639865 0 0.14929124186975251 0.44582793568106382 0 0.24999999999960859 0.37499999999980432 0 0.1249999999997599 0.31249999999987998 0 0.2403886547178353 0.24188814792673841 0 0.24999999999960859 0.37499999999980432 0 0.1249999999997599 0.31249999999987998 0 0.24999999999960859 0.37499999999980432 0 0.1249999999997599 0.31249999999987998 0 0.1249999999997599 0.31249999999987998 0 0 0.25 0 0 0.43750000000034689 0 0.1008171452988615 0.18885703697250469 0 0.1249999999997599 0.31249999999987998 0 0 0.25 0 0.1249999999997599 0.31249999999987998 0 0 0.25 0 0.14929124186975251 0.44582793568106382 0 0 0.43750000000034689 0 0.13928587515912139 0.57339806105677438 0 0.14929124186975251 0.44582793568106382 0 0.1249999999997599 0.31249999999987998 0 0 0.43750000000034689 0 0 0.43750000000034689 0 0 0.62500000000069389 0 0.13928587515912139 0.57339806105677438 0 0 0.62500000000069389 0 0.13900789599611679 0.72618316107059999 0 0.13928587515912139 0.57339806105677438 0 0 0.62500000000069389 0 0.13900789599611679 0.72618316107059999 0 0 0.81250000000104083 0 0.13900789599611679 0.72618316107059999 0 0.13928587515912139 0.57339806105677438 0 0.27589467050686478 0.66058853156435704 0 0.13900789599611679 0.72618316107059999 0 0.27987960212930818 0.83442741470570525 0 0.27589467050686478 0.66058853156435704 0 0.13928587515912139 0.57339806105677438 0 0.26452443700674649 0.51563531581639865 0 0.27589467050686478 0.66058853156435704 0 0.14929124186975251 0.44582793568106382 0 0.13928587515912139 0.57339806105677438 0 0.26452443700674649 0.51563531581639865 0 0 1 0 0.12710107136012311 0.87094806618203435 0 0.1875000000005205 1 0 0 1 0 0 0.81250000000104083 0 0.12710107136012311 0.87094806618203435 0 0.13900789599611679 0.72618316107059999 0 0 0.81250000000104083 0 0.12710107136012311 0.87094806618203435 0 0.13900789599611679 0.72618316107059999 0 0.12710107136012311 0.87094806618203435 0 0.27987960212930818 0.83442741470570525 0 0.12710107136012311 0.87094806618203435 0 0.1875000000005205 1 0 0.27987960212930818 0.83442741470570525 0 0.27987960212930818 0.83442741470570525 0 0.44927105396715372 0.85565124085155886 0 0.37500000000069389 1 0 0.1875000000005205 1 0 0.27987960212930818 0.83442741470570525 0 0.37500000000069389 1 0 0.27987960212930818 0.83442741470570525 0 0.44927105396715372 0.85565124085155886 0 0.38136204680495073 0.74038592213831234 0 0.44927105396715372 0.85565124085155886 0 0.38136204680495073 0.74038592213831234 0 0.50145856933078625 0.73674663046504862 0 0.44927105396715372 0.85565124085155886 0 0.37500000000069389 1 0 0.56250000000086742 1 0 0.26452443700674649 0.51563531581639865 0 0.27589467050686478 0.66058853156435704 0 0.4139414069912184 0.60563252640100373 0 0.37499999999973488 0.43749999999986738 0 0.26452443700674649 0.51563531581639865 0 0.4139414069912184 0.60563252640100373 0 0.27987960212930818 0.83442741470570525 0 0.27589467050686478 0.66058853156435704 0 0.38136204680495073 0.74038592213831234 0 0.27589467050686478 0.66058853156435704 0 0.38136204680495073 0.74038592213831234 0 0.4139414069912184 0.60563252640100373 0 0.38136204680495073 0.74038592213831234 0 0.4139414069912184 0.60563252640100373 0 0.50145856933078625 0.73674663046504862 0 0.4139414069912184 0.60563252640100373 0 0.50145856933078625 0.73674663046504862 0 0.5625 0.625 0 0.37499999999973488 0.43749999999986738 0 0.4139414069912184 0.60563252640100373 0 0.5 0.5 -0 0.4139414069912184 0.60563252640100373 0 0.5 0.5 -0 0.5625 0.625 0 0.5 0.5 -0 0.5625 0.625 0 0.63236534182377013 0.50296756406332266 0 0.5 0.5 -0 0.5625 0.625 0 0.50145856933078625 0.73674663046504862 0 0.5625 0.625 0 0.625 0.75 0 0.5625 0.625 0 0.625 0.75 0 0.71259747807844409 0.63846691315701831 0 0.625 0.75 0 0.73857795170433571 0.77736788564284653 0 0.5625 0.625 0 0.71259747807844409 0.63846691315701831 0 0.625 0.75 0 0.71259747807844409 0.63846691315701831 0 0.63236534182377013 0.50296756406332266 0 0.75338430262320943 0.49294443423175599 0 0.5625 0.625 0 0.71259747807844409 0.63846691315701831 0 0.63236534182377013 0.50296756406332266 0 0.56250000000086742 1 0 0.56777512057187585 0.8470224641095303 0 0.6875 0.875 0 0.44927105396715372 0.85565124085155886 0 0.56250000000086742 1 0 0.56777512057187585 0.8470224641095303 0 0.44927105396715372 0.85565124085155886 0 0.50145856933078625 0.73674663046504862 0 0.56777512057187585 0.8470224641095303 0 0.50145856933078625 0.73674663046504862 0 0.56777512057187585 0.8470224641095303 0 0.625 0.75 0 0.625 0.75 0 0.73857795170433571 0.77736788564284653 0 0.6875 0.875 0 0.73857795170433571 0.77736788564284653 0 0.6875 0.875 0 0.80552984491000901 0.88711122872127413 0 0.625 0.75 0 0.6875 0.875 0 0.56777512057187585 0.8470224641095303 0 0.625 0.75 0 0.6875 0.875 0 0.56250000000086742 1 0 0.6875 0.875 0 0.75 1 0 0.6875 0.875 0 0.75 1 0 0.80552984491000901 0.88711122872127413 0 0.6875 0.875 0 0.75 1 0 0.75 1 0 0.80552984491000901 0.88711122872127413 0 0.875 1 0 0.80552984491000901 0.88711122872127413 0 0.90637953422180084 0.90208583328057301 0 0.875 1 0 0.80552984491000901 0.88711122872127413 0 0.85787927391517405 0.753532520882502 0 0.90637953422180084 0.90208583328057301 0 0.73857795170433571 0.77736788564284653 0 0.80552984491000901 0.88711122872127413 0 0.85787927391517405 0.753532520882502 0 0.85787927391517405 0.753532520882502 0 1 0.83333333333356463 0 1 0.66666666666736052 0 0.85787927391517405 0.753532520882502 0 1 0.83333333333356463 0 0.90637953422180084 0.90208583328057301 0 1 0.83333333333356463 0 0.90637953422180084 0.90208583328057301 0 1 1 0 0.90637953422180084 0.90208583328057301 0 1 1 0 0.875 1 0 0.71259747807844409 0.63846691315701831 0 0.86127466977819722 0.57948076978797636 0 0.75338430262320943 0.49294443423175599 0 0.71259747807844409 0.63846691315701831 0 0.85787927391517405 0.753532520882502 0 0.86127466977819722 0.57948076978797636 0 0.71259747807844409 0.63846691315701831 0 0.73857795170433571 0.77736788564284653 0 0.85787927391517405 0.753532520882502 0 0.85787927391517405 0.753532520882502 0 0.86127466977819722 0.57948076978797636 0 1 0.66666666666736052 0 0.86127466977819722 0.57948076978797636 0 1 0.66666666666736052 0 1 0.50000000000138767 0 1 0.50000000000138767 0 0.86569408477091048 0.40983673916766611 0 1 0.33333333333448978 0 0.86127466977819722 0.57948076978797636 0 1 0.50000000000138767 0 0.86569408477091048 0.40983673916766611 0 0.86127466977819722 0.57948076978797636 0 0.75338430262320943 0.49294443423175599 0 0.86569408477091048 0.40983673916766611 0 0.75338430262320943 0.49294443423175599 0 0.86569408477091048 0.40983673916766611 0 0.71826039492840632 0.34564020717216182 0 0.86087286690217635 0.25206523597959418 0 0.71508993406183785 0.15715956854777599 0 0.71826039492840632 0.34564020717216182 0 0.86569408477091048 0.40983673916766611 0 0.86087286690217635 0.25206523597959418 0 0.71826039492840632 0.34564020717216182 0 0.86087286690217635 0.25206523597959418 0 1 0.33333333333448978 0 1 0.16666666666736049 0 0.86569408477091048 0.40983673916766611 0 0.86087286690217635 0.25206523597959418 0 1 0.33333333333448978 0 0.86087286690217635 0.25206523597959418 0 1 0.16666666666736049 0 0.87698901648812122 0.1160638338657984 0 1 0 0 0.87698901648812122 0.1160638338657984 0 0.81249999999947953 0 0 1 0.16666666666736049 0 1 0 0 0.87698901648812122 0.1160638338657984 0 0.87698901648812122 0.1160638338657984 0 0.81249999999947953 0 0 0.71508993406183785 0.15715956854777599 0 0.86087286690217635 0.25206523597959418 0 0.87698901648812122 0.1160638338657984 0 0.71508993406183785 0.15715956854777599 0 0.71508993406183785 0.15715956854777599 0 0.62499999999895905 0 0 0.54475767668582953 0.1431838882066932 0 0.81249999999947953 0 0 0.71508993406183785 0.15715956854777599 0 0.62499999999895905 0 0 0.43749999999913258 0 0 0.62499999999895905 0 0 0.54475767668582953 0.1431838882066932 0 0.71508993406183785 0.15715956854777599 0 0.54475767668582953 0.1431838882066932 0 0.61108462585082757 0.25750599582343231 0 0.49457493289300231 0.26251703776555491 0 0.54475767668582953 0.1431838882066932 0 0.61108462585082757 0.25750599582343231 0 0.49457493289300231 0.26251703776555491 0 0.61108462585082757 0.25750599582343231 0 0.56986707178436635 0.37762093650871992 0 0.43750000000006939 0.37500000000013878 0 0.49457493289300231 0.26251703776555491 0 0.56986707178436635 0.37762093650871992 0 0.43750000000006939 0.37500000000013878 0 0.5 0.5 -0 0.56986707178436635 0.37762093650871992 0 0.5 0.5 -0 0.63236534182377013 0.50296756406332266 0 0.56986707178436635 0.37762093650871992 0 0.63236534182377013 0.50296756406332266 0 0.75338430262320943 0.49294443423175599 0 0.71826039492840632 0.34564020717216182 0 0.63236534182377013 0.50296756406332266 0 0.56986707178436635 0.37762093650871992 0 0.71826039492840632 0.34564020717216182 0 0.71508993406183785 0.15715956854777599 0 0.61108462585082757 0.25750599582343231 0 0.71826039492840632 0.34564020717216182 0 0.61108462585082757 0.25750599582343231 0 0.56986707178436635 0.37762093650871992 0 0.71826039492840632 0.34564020717216182 0 
</DataArray>
</Points>
<Cells>
<DataArray type="UInt32" Name="connectivity" format="ascii">
0 1 2 3 4 5 6 7 8 9 10 11 12 13 14 15 16 17 18 19 20 21 22 23 24 25 26 27 28 29 30 31 32 33 34 35 36 37 38 39 40 41 42 43 44 45 46 47 48 49 50 51 52 53 54 55 56 57 58 59 60 61 62 63 64 65 66 67 68 69 70 71 72 73 74 75 76 77 78 79 80 81 82 83 84 85 86 87 88 89 90 91 92 93 94 95 96 97 98 99 100 101 102 103 104 105 106 107 108 109 110 111 112 113 114 115 116 117 118 119 120 121 122 123 124 125 126 127 128 129 130 131 132 133 134 135 136 137 138 139 140 141 142 143 144 145 146 147 148 149 150 151 152 153 154 155 156 157 158 159 160 161 162 163 164 165 166 167 168 169 170 171 172 173 174 175 176 177 178 179 180 181 182 183 184 185 186 187 188 189 190 191 192 193 194 195 196 197 198 199 200 201 202 203 204 205 206 207 208 209 210 211 212 213 214 215 216 217 218 219 220 221 222 223 224 225 226 227 228 229 230 231 232 233 234 235 236 237 238 239 240 241 242 243 244 245 246 247 248 249 250 251 252 253 254 255 256 257 258 259 260 261 262 263 264 265 266 267 268 269 270 271 272 273 274 275 276 277 278 279 280 281 282 283 284 285 286 287 288 289 290 291 292 293 294 295 296 297 298 299 300 301 302 303 304 305 306 307 308 309 310 311 312 313 314 315 316 317 318 319 320 321 322 323 324 325 326 327 328 329 330 331 332 333 334 335 336 337 338 339 340 341 342 343 344 345 346 347 348 349 350 351 352 353 354 355 356 357 358 359 
</DataArray>
<DataArray type="UInt32" Name="offsets" format="ascii">
3 6 9 12 15 18 21 24 27 30 33 35 38 41 43 46 49 52 55 58 60 63 66 68 71 73 76 79 82 85 87 90 93 96 99 101 104 107 109 112 115 118 121 124 127 130 133 136 139 142 145 148 151 154 157 160 163 166 169 172 175 178 181 184 187 190 193 195 198 200 203 206 209 212 215 218 221 224 227 230 232 235 238 241 243 246 249 252 255 258 261 264 267 270 273 276 279 282 285 288 291 294 297 300 303 306 309 312 315 318 321 324 327 330 333 336 339 342 345 348 351 354 357 360 
</DataArray>
<DataArray type="UInt32" Name="types" format="ascii">
5 5 5 5 5 5 5 5 5 5 5 3 5 5 3 5 5 5 5 5 3 5 5 3 5 3 5 5 5 5 3 5 5 5 5 3 5 5 3 5 5 5 5 5 5 5 5 5 5 5 5 5 5 5 5 5 5 5 5 5 5 5 5 5 5 5 5 3 5 3 5 5 5 5 5 5 5 5 5 5 3 5 5 5 3 5 5 5 5 5 5 5 5 5 5 5 5 5 5 5 5 5 5 5 5 5 5 5 5 5 5 5 5 5 5 5 5 5 5 5 5 5 5 5 
</DataArray>
</Cells>
<PointData Scalars="" Vectors="displacement," Tensors="">
<DataArray type="Float64" Name="displacement" NumberOfComponents="3" format="ascii">
5.3843789447193376e-07 -0.074997158278657702 0 -0.00081880640808716274 -0.073971570868361342 0 -2.1969160176735443e-07 -0.074753439624499596 0 5.3843789447193376e-07 -0.074997158278657702 0 -0.00081880640808716274 -0.073971570868361342 0 0.00060179042189807957 -0.073140966651494319 0 -2.1969160176735443e-07 -0.074753439624499596 0 -0.0027188893754285614 -0.07333041341939088 0 -1.1072376437092804e-05 -0.074252548656300751 0 -0.00081880640808716274 -0.073971570868361342 0 -2.1969160176735443e-07 -0.074753439624499596 0 -0.0027188893754285614 -0.07333041341939088 0 -0.00081880640808716274 -0.073971570868361342 0 -0.0027188893754285614 -0.07333041341939088 0 -0.0025386019195620417 -0.071148840324611051 0 -0.0027188893754285614 -0.07333041341939088 0 -0.0083046025463911627 -0.068420373050243122 0 -0.008509133661765143 -0.071407312828698874 0 -0.0027188893754285614 -0.07333041341939088 0 -0.0083046025463911627 -0.068420373050243122 0 -0.0025386019195620417 -0.071148840324611051 0 -0.0083046025463911627 -0.068420373050243122 0 -0.0025386019195620417 -0.071148840324611051 0 -0.0047464948174920961 -0.065180857180398441 0 0.00060179042189807957 -0.073140966651494319 0 -0.0025386019195620417 -0.071148840324611051 0 0.00027513311299165487 -0.068568020385923981 0 -0.0025386019195620417 -0.071148840324611051 0 0.00027513311299165487 -0.068568020385923981 0 -0.0047464948174920961 -0.065180857180398441 0 -0.00081880640808716274 -0.073971570868361342 0 0.00060179042189807957 -0.073140966651494319 0 -0.0025386019195620417 -0.071148840324611051 0 0.013241677776352035 -0.053956029018815382 0 0.0073125341244017353 -0.049979734245826538 0 0.026042843383752606 -0.039298016257352915 0 0.019374286006062297 -0.034923102715821684 0 0.023026015720865135 -0.028594926921853701 0 -0.0083046025463911627 -0.068420373050243122 0 -0.0047464948174920961 -0.065180857180398441 0 -0.011434212415304087 -0.06194035691038257 0 0.0073125341244017353 -0.049979734245826538 0 0.0019115006610996531 -0.046502738930105772 0 0.019374286006062297 -0.034923102715821684 0 0.01660576648412217 -0.028184205699203956 0 0.015404052273741777 -0.030529243944982989 0 0.01660576648412217 -0.028184205699203956 0 0.012313451221234995 -0.023360704223045453 0 0.015404052273741777 -0.030529243944982989 0 0.01660576648412217 -0.028184205699203956 0 0.012313451221234995 -0.023360704223045453 0 0.014460113155782751 -0.021830020243765298 0 0.019374286006062297 -0.034923102715821684 0 0.01660576648412217 -0.028184205699203956 0 0.023026015720865135 -0.028594926921853701 0 0.01660576648412217 -0.028184205699203956 0 0.023026015720865135 -0.028594926921853701 0 0.014460113155782751 -0.021830020243765298 0 -0.013618060323512109 -0.05861449771937724 0 -0.0055582064068442055 -0.043437723074366254 0 -0.015786743224938983 -0.060297552091589018 0 -0.017114291215879325 -0.063490187531367898 0 -0.019310883919259555 -0.058107478114483004 0 -0.015786743224938983 -0.060297552091589018 0 -0.01342769982618448 -0.064219876870629952 0 -0.017114291215879325 -0.063490187531367898 0 -0.0021520107432026719 -0.041633311013900609 0 -0.0055582064068442055 -0.043437723074366254 0 0.010874063520713398 -0.02495974578250695 0 0.012313451221234995 -0.023360704223045453 0 0.015404052273741777 -0.030529243944982989 0 -0.0021520107432026719 -0.041633311013900609 0 0.0019115006610996531 -0.046502738930105772 0 -0.015786743224938983 -0.060297552091589018 0 -0.011434212415304087 -0.06194035691038257 0 -0.01342769982618448 -0.064219876870629952 0 -0.0083046025463911627 -0.068420373050243122 0 -0.01342769982618448 -0.064219876870629952 0 -0.013396100452259595 -0.068561197676343763 0 -0.0083046025463911627 -0.068420373050243122 0 -0.011434212415304087 -0.06194035691038257 0 -0.01342769982618448 -0.064219876870629952 0 -0.01342769982618448 -0.064219876870629952 0 -0.017114291215879325 -0.063490187531367898 0 -0.013396100452259595 -0.068561197676343763 0 -0.013618060323512109 -0.05861449771937724 0 -0.007000280126495847 -0.060205327162694416 0 -0.0051549767901445422 -0.049325628403117043 0 -0.0019494215009266496 -0.05304502990861075 0 -0.0051158407554425236 -0.053624745959488525 0 -0.0022359079486226289 -0.056816394096755103 0 -0.0019494215009266496 -0.05304502990861075 0 -0.0051158407554425236 -0.053624745959488525 0 -0.0022359079486226289 -0.056816394096755103 0 -0.0019494215009266496 -0.05304502990861075 0 0.00017401791577507307 -0.057831822612702539 0 -0.0083046025463911627 -0.068420373050243122 0 -0.013396100452259595 -0.068561197676343763 0 -0.008509133661765143 -0.071407312828698874 0 -0.007000280126495847 -0.060205327162694416 0 -0.0043821175187744484 -0.06480179406233573 0 0.00017401791577507307 -0.057831822612702539 0 1.7066615988656149e-06 -0.058406299937614023 0 -2.4674518303128322e-06 -0.058850452851767592 0 -0.0027188893754285614 -0.07333041341939088 0 -0.008509133661765143 -0.071407312828698874 0 -1.1072376437092804e-05 -0.074252548656300751 0 -0.0043821175187744484 -0.06480179406233573 0 0.00014767468506869289 -0.066194789766877205 0 -0.0022359079486226289 -0.056816394096755103 0 -2.4674518303128322e-06 -0.058850452851767592 0 -0.0031714114218297919 -0.057049845047826397 0 -0.0022359079486226289 -0.056816394096755103 0 0.00017401791577507307 -0.057831822612702539 0 -2.4674518303128322e-06 -0.058850452851767592 0 -2.4674518303128322e-06 -0.058850452851767592 0 -4.9364536648657589e-06 -0.058209631113675046 0 -0.0031714114218297919 -0.057049845047826397 0 -4.9364536648657589e-06 -0.058209631113675046 0 -0.0040728550055996165 -0.057103647102027366 0 -0.0031714114218297919 -0.057049845047826397 0 -4.9364536648657589e-06 -0.058209631113675046 0 -0.0040728550055996165 -0.057103647102027366 0 -5.8793091432751794e-06 -0.058208214492945595 0 -0.0040728550055996165 -0.057103647102027366 0 -0.0031714114218297919 -0.057049845047826397 0 -0.0073071528856520681 -0.053735966888862605 0 -0.0040728550055996165 -0.057103647102027366 0 -0.0090514505287905486 -0.054326561267358124 0 -0.0073071528856520681 -0.053735966888862605 0 -0.0031714114218297919 -0.057049845047826397 0 -0.0051158407554425236 -0.053624745959488525 0 -0.0073071528856520681 -0.053735966888862605 0 -0.0022359079486226289 -0.056816394096755103 0 -0.0031714114218297919 -0.057049845047826397 0 -0.0051158407554425236 -0.053624745959488525 0 -9.1015993760227179e-06 -0.058668813999126733 0 -0.0044696753305243234 -0.057516612792526241 0 -0.0082372803094040749 -0.056785547458398894 0 -9.1015993760227179e-06 -0.058668813999126733 0 -5.8793091432751794e-06 -0.058208214492945595 0 -0.0044696753305243234 -0.057516612792526241 0 -0.0040728550055996165 -0.057103647102027366 0 -5.8793091432751794e-06 -0.058208214492945595 0 -0.0044696753305243234 -0.057516612792526241 0 -0.0040728550055996165 -0.057103647102027366 0 -0.0044696753305243234 -0.057516612792526241 0 -0.0090514505287905486 -0.054326561267358124 0 -0.0044696753305243234 -0.057516612792526241 0 -0.0082372803094040749 -0.056785547458398894 0 -0.0090514505287905486 -0.054326561267358124 0 -0.0090514505287905486 -0.054326561267358124 0 -0.014219143109683365 -0.049302199819677477 0 -0.015212122284107911 -0.052377378204019484 0 -0.0082372803094040749 -0.056785547458398894 0 -0.0090514505287905486 -0.054326561267358124 0 -0.015212122284107911 -0.052377378204019484 0 -0.0090514505287905486 -0.054326561267358124 0 -0.014219143109683365 -0.049302199819677477 0 -0.010786340166932059 -0.05081182155744246 0 -0.014219143109683365 -0.049302199819677477 0 -0.010786340166932059 -0.05081182155744246 0 -0.013598080694925156 -0.046619308194137961 0 -0.014219143109683365 -0.049302199819677477 0 -0.015212122284107911 -0.052377378204019484 0 -0.020755137028002593 -0.046439315472799482 0 -0.0051158407554425236 -0.053624745959488525 0 -0.0073071528856520681 -0.053735966888862605 0 -0.010114054008153451 -0.048878929660369573 0 -0.0051549767901445422 -0.049325628403117043 0 -0.0051158407554425236 -0.053624745959488525 0 -0.010114054008153451 -0.048878929660369573 0 -0.0090514505287905486 -0.054326561267358124 0 -0.0073071528856520681 -0.053735966888862605 0 -0.010786340166932059 -0.05081182155744246 0 -0.0073071528856520681 -0.053735966888862605 0 -0.010786340166932059 -0.05081182155744246 0 -0.010114054008153451 -0.048878929660369573 0 -0.010786340166932059 -0.05081182155744246 0 -0.010114054008153451 -0.048878929660369573 0 -0.013598080694925156 -0.046619308194137961 0 -0.010114054008153451 -0.048878929660369573 0 -0.013598080694925156 -0.046619308194137961 0 -0.014200247299517892 -0.043614089209216562 0 -0.0051549767901445422 -0.049325628403117043 0 -0.010114054008153451 -0.048878929660369573 0 -0.010329243717826819 -0.045212557404490282 0 -0.010114054008153451 -0.048878929660369573 0 -0.010329243717826819 -0.045212557404490282 0 -0.014200247299517892 -0.043614089209216562 0 0.010462629970806412 -0.021331111486907691 0 0.0097503952272012251 -0.018259726291039117 0 0.0076563660083001951 -0.015719163093582161 0 -0.0055582064068442055 -0.043437723074366254 0 -0.00071430794116582254 -0.028213770951771966 0 -0.013598080694925156 -0.046619308194137961 0 -0.014200247299517892 -0.043614089209216562 0 -0.016118008510625146 -0.042824351310896042 0 -0.00071430794116582254 -0.028213770951771966 0 -0.005036519725412119 -0.029423616589106413 0 0.0058310830645657181 -0.011352912983268787 0 0.0068683251815208702 -0.014553985386218396 0 0.0047141285551462308 -0.0099617204024498567 0 0.0097503952272012251 -0.018259726291039117 0 0.0058310830645657181 -0.011352912983268787 0 0.0068683251815208702 -0.014553985386218396 0 0.0058310830645657181 -0.011352912983268787 0 0.0076563660083001951 -0.015719163093582161 0 0.0050766310157456694 -0.010061167733512195 0 0.0097503952272012251 -0.018259726291039117 0 0.0058310830645657181 -0.011352912983268787 0 0.0076563660083001951 -0.015719163093582161 0 -0.020755137028002593 -0.046439315472799482 0 -0.01693639932072297 -0.045335243244260144 0 -0.020497454764671894 -0.041052408081105683 0 -0.014219143109683365 -0.049302199819677477 0 -0.020755137028002593 -0.046439315472799482 0 -0.01693639932072297 -0.045335243244260144 0 -0.014219143109683365 -0.049302199819677477 0 -0.013598080694925156 -0.046619308194137961 0 -0.01693639932072297 -0.045335243244260144 0 -0.013598080694925156 -0.046619308194137961 0 -0.01693639932072297 -0.045335243244260144 0 -0.016118008510625146 -0.042824351310896042 0 0.0068683251815208702 -0.014553985386218396 0 0.0047141285551462308 -0.0099617204024498567 0 0.0052535025438654095 -0.012097415599212388 0 0.0047141285551462308 -0.0099617204024498567 0 0.0052535025438654095 -0.012097415599212388 0 0.0025763403899081898 -0.0065045335564206394 0 -0.005036519725412119 -0.029423616589106413 0 -0.007478965966635818 -0.026362513098308674 0 -0.01693639932072297 -0.045335243244260144 0 -0.016118008510625146 -0.042824351310896042 0 -0.020497454764671894 -0.041052408081105683 0 -0.020755137028002593 -0.046439315472799482 0 -0.020497454764671894 -0.041052408081105683 0 -0.02429581893826736 -0.040363998877232028 0 0.0052535025438654095 -0.012097415599212388 0 0.00040674318230266596 -0.0086611760956444087 0 0.0025763403899081898 -0.0065045335564206394 0 -0.007478965966635818 -0.026362513098308674 0 -0.012099014107149059 -0.024631234607230826 0 0.00040674318230266596 -0.0086611760956444087 0 0.0025763403899081898 -0.0065045335564206394 0 -0.00073680294634387604 -0.0034643447769824318 0 0.0025763403899081898 -0.0065045335564206394 0 0.00090280139148116319 -0.0025095863584018367 0 -0.00073680294634387604 -0.0034643447769824318 0 0.0025763403899081898 -0.0065045335564206394 0 0.0025450677293100063 -0.0048395956642586519 0 0.00090280139148116319 -0.0025095863584018367 0 0.0047141285551462308 -0.0099617204024498567 0 0.0025763403899081898 -0.0065045335564206394 0 0.0025450677293100063 -0.0048395956642586519 0 0.0025450677293100063 -0.0048395956642586519 0 2.9293205313690469e-06 -1.2216399469063987e-06 0 2.918055417231232e-06 -2.0345367194797494e-06 0 0.0025450677293100063 -0.0048395956642586519 0 2.9293205313690469e-06 -1.2216399469063987e-06 0 0.00090280139148116319 -0.0025095863584018367 0 2.9293205313690469e-06 -1.2216399469063987e-06 0 0.00090280139148116319 -0.0025095863584018367 0 -2.7451428292900779e-06 -5.3875174015763536e-07 0 0.00090280139148116319 -0.0025095863584018367 0 -2.7451428292900779e-06 -5.3875174015763536e-07 0 -0.00073680294634387604 -0.0034643447769824318 0 0.0058310830645657181 -0.011352912983268787 0 0.0027604102660052044 -0.0052421565519854482 0 0.0050766310157456694 -0.010061167733512195 0 0.0058310830645657181 -0.011352912983268787 0 0.0025450677293100063 -0.0048395956642586519 0 0.0027604102660052044 -0.0052421565519854482 0 0.0058310830645657181 -0.011352912983268787 0 0.0047141285551462308 -0.0099617204024498567 0 0.0025450677293100063 -0.0048395956642586519 0 0.0025450677293100063 -0.0048395956642586519 0 0.0027604102660052044 -0.0052421565519854482 0 2.918055417231232e-06 -2.0345367194797494e-06 0 0.0027604102660052044 -0.0052421565519854482 0 2.918055417231232e-06 -2.0345367194797494e-06 0 3.2292605849538386e-06 -2.073845043100569e-06 0 3.2292605849538386e-06 -2.073845043100569e-06 0 0.0028212148276322976 -0.0052416584065356122 0 4.2192966836738295e-06 -2.1643070606708429e-06 0 0.0027604102660052044 -0.0052421565519854482 0 3.2292605849538386e-06 -2.073845043100569e-06 0 0.0028212148276322976 -0.0052416584065356122 0 0.0027604102660052044 -0.0052421565519854482 0 0.0050766310157456694 -0.010061167733512195 0 0.0028212148276322976 -0.0052416584065356122 0 0.0050766310157456694 -0.010061167733512195 0 0.0028212148276322976 -0.0052416584065356122 0 0.0061882925866097657 -0.012022258365894423 0 0.0036602317547229988 -0.0054292341252387653 0 0.0092232192025405967 -0.013070044449817278 0 0.0061882925866097657 -0.012022258365894423 0 0.0028212148276322976 -0.0052416584065356122 0 0.0036602317547229988 -0.0054292341252387653 0 0.0061882925866097657 -0.012022258365894423 0 0.0036602317547229988 -0.0054292341252387653 0 4.2192966836738295e-06 -2.1643070606708429e-06 0 3.4452333568146525e-06 -8.1849639760294149e-07 0 0.0028212148276322976 -0.0052416584065356122 0 0.0036602317547229988 -0.0054292341252387653 0 4.2192966836738295e-06 -2.1643070606708429e-06 0 0.0036602317547229988 -0.0054292341252387653 0 3.4452333568146525e-06 -8.1849639760294149e-07 0 0.004575704890836807 -0.0051266255509841386 0 1.4197498481374372e-05 -5.3355979243210194e-06 0 0.004575704890836807 -0.0051266255509841386 0 0.011129468236913012 -0.010125893151711694 0 3.4452333568146525e-06 -8.1849639760294149e-07 0 1.4197498481374372e-05 -5.3355979243210194e-06 0 0.004575704890836807 -0.0051266255509841386 0 0.004575704890836807 -0.0051266255509841386 0 0.011129468236913012 -0.010125893151711694 0 0.0092232192025405967 -0.013070044449817278 0 0.0036602317547229988 -0.0054292341252387653 0 0.004575704890836807 -0.0051266255509841386 0 0.0092232192025405967 -0.013070044449817278 0 0.0092232192025405967 -0.013070044449817278 0 0.017982874428689097 -0.019076645119660462 0 0.014460113155782751 -0.021830020243765298 0 0.011129468236913012 -0.010125893151711694 0 0.0092232192025405967 -0.013070044449817278 0 0.017982874428689097 -0.019076645119660462 0 0.023026015720865135 -0.028594926921853701 0 0.017982874428689097 -0.019076645119660462 0 0.014460113155782751 -0.021830020243765298 0 0.0092232192025405967 -0.013070044449817278 0 0.014460113155782751 -0.021830020243765298 0 0.0099372228304997045 -0.017555600733043322 0 0.012313451221234995 -0.023360704223045453 0 0.014460113155782751 -0.021830020243765298 0 0.0099372228304997045 -0.017555600733043322 0 0.012313451221234995 -0.023360704223045453 0 0.0099372228304997045 -0.017555600733043322 0 0.0088639106891358239 -0.018967994659577939 0 0.010874063520713398 -0.02495974578250695 0 0.012313451221234995 -0.023360704223045453 0 0.0088639106891358239 -0.018967994659577939 0 0.010874063520713398 -0.02495974578250695 0 0.010462629970806412 -0.021331111486907691 0 0.0088639106891358239 -0.018967994659577939 0 0.010462629970806412 -0.021331111486907691 0 0.0076563660083001951 -0.015719163093582161 0 0.0088639106891358239 -0.018967994659577939 0 0.0076563660083001951 -0.015719163093582161 0 0.0050766310157456694 -0.010061167733512195 0 0.0061882925866097657 -0.012022258365894423 0 0.0076563660083001951 -0.015719163093582161 0 0.0088639106891358239 -0.018967994659577939 0 0.0061882925866097657 -0.012022258365894423 0 0.0092232192025405967 -0.013070044449817278 0 0.0099372228304997045 -0.017555600733043322 0 0.0061882925866097657 -0.012022258365894423 0 0.0099372228304997045 -0.017555600733043322 0 0.0088639106891358239 -0.018967994659577939 0 0.0061882925866097657 -0.012022258365894423 0 
</DataArray>
</PointData>
<CellData Scalars="region_id,cross_section_updated,normal_displacement_jump,tangential_displacement_jump," Vectors="" Tensors="stress,">
<DataArray type="Float64" Name="region_id" format="ascii">
11 11 11 11 11 11 11 11 11 11 11 5 11 11 5 11 11 11 11 11 6 11 11 5 11 5 11 11 11 11 6 11 11 11 11 6 11 11 6 11 11 11 11 11 11 11 11 11 11 11 11 11 11 11 11 11 11 11 11 11 11 11 11 11 11 11 11 4 11 4 11 11 11 11 11 11 11 11 11 11 4 11 11 11 4 11 11 11 11 11 11 11 11 11 11 11 11 11 11 11 11 11 11 11 11 11 11 11 11 11 11 11 11 11 11 11 11 11 11 11 11 11 11 11 
</DataArray>
<DataArray type="Float64" Name="stress" NumberOfComponents="9" format="ascii">
-10868664.63567692 4061610.2176266611 0 4061610.2176266611 -1543155.696415782 0 0 0 -3102955.0830231607 4721690.9002748132 271532.97144219279 0 271532.97144219279 -1226978.0896980762 0 0 0 873678.20264419913 -30690769.357801348 4596003.2033849657 0 4596003.2033849657 -5955986.8572916985 0 0 0 -9161689.053773284 -18549163.218988031 -1812425.2855711132 0 -1812425.2855711132 -1442615.0503321886 0 0 0 -4997944.5673300922 -14985567.42380745 4566568.9510997534 0 4566568.9510997534 -3096088.6619066298 0 0 0 -4520414.0214285329 -25065852.132291347 -4205850.7153493017 0 -4205850.7153493017 1638670.7348645926 0 0 0 -5856795.3493567407 -30562384.294385523 116582.50995646417 0 116582.50995646417 -2872509.5290145874 0 0 0 -8358723.455850035 -15486410.22226885 3110984.251329571 0 3110984.251329571 -4215846.3488040566 0 0 0 -4925564.1427682042 -3734893.7101424634 3943108.0323292911 0 3943108.0323292911 -2842254.0224392414 0 0 0 -1644286.9331454337 -14863654.862121016 5092933.4694236815 0 5092933.4694236815 -601129.83346837759 0 0 0 -3866196.1738973707 -12705447.489767104 2219847.3388807774 0 2219847.3388807774 -701983.41325038671 0 0 0 -3351857.7257543206 21436.060584124039 6176.3979352872338 0 6176.3979352872338 -7025.700540972568 0 0 0 3602.5900107878715 -16724602.334301114 4711823.147727564 0 4711823.147727564 1313385.1106142402 0 0 0 -3852804.3059217185 -24011805.240493536 1938144.2933962047 0 1938144.2933962047 -5964184.2993789911 0 0 0 -7493997.3849681467 21819.823513078321 6464.3706884588755 0 6464.3706884588755 -7411.8723722959367 0 0 0 3601.9877851955989 -18800012.768671185 13360403.790904608 0 13360403.790904608 1280790.6923321486 0 0 0 -4379805.5190847814 -24313029.77427841 13357919.323080242 0 13357919.323080242 1179740.5295900404 0 0 0 -5783322.3111720756 -21103535.9860643 11584058.998143911 0 11584058.998143911 4330125.5664189309 0 0 0 -4193352.6049113274 -13339452.322085604 5675242.3843424693 0 5675242.3843424693 1781912.0449279845 0 0 0 -2889385.0692893863 -24930240.396356504 5016071.6252609193 0 5016071.6252609193 -2148089.4114079103 0 0 0 -6769582.4519411149 -697.17490925698985 1374.9275467473717 0 1374.9275467473717 12727.536843243346 0 0 0 3007.5904834965913 -7700683.9465313107 7943799.8322455734 0 7943799.8322455734 -8270355.4141790271 0 0 0 -3992759.8401775807 -17286505.302040279 3920510.6882323027 0 3920510.6882323027 -14777690.634662986 0 0 0 -8016048.9841758609 23818.047729991624 7841.5068296475838 0 7841.5068296475838 -9273.2027779400196 0 0 0 3636.2112380129029 -21770703.399054594 13494060.932743222 0 13494060.932743222 9155046.3055157661 0 0 0 -3153914.2733846828 22737.271525442084 7151.1375338845774 0 7151.1375338845774 -8308.2137619991481 0 0 0 3607.2644408607321 -19225247.797232002 5736701.9382322431 0 5736701.9382322431 -15058076.619816184 0 0 0 -8570831.1042620242 -20802979.219752491 4100061.8828106225 0 4100061.8828106225 -11710091.858406305 0 0 0 -8128267.7695397139 -27866604.312930644 6785552.695791658 0 6785552.695791658 -15279174.787540913 0 0 0 -10786444.775117934 -20247721.723181307 5300190.7782476842 0 5300190.7782476842 -16814871.731258571 0 0 0 -9265648.3636099696 -1019.8255259874713 1527.8682280443372 0 1527.8682280443372 13824.021087522982 0 0 0 3201.0488903838741 -21239088.679598302 5040127.3862116933 0 5040127.3862116933 -15172432.761698306 0 0 0 -9102880.3603241444 -17511963.22128576 4378101.9318408817 0 4378101.9318408817 -13782544.386950374 0 0 0 -7823626.9020590484 -10214793.682227939 8584464.6390321106 0 8584464.6390321106 -2654886.4592706561 0 0 0 -3217420.0353746116 -25983891.281885885 -5033303.0729505718 0 -5033303.0729505718 -11651349.721474357 0 0 0 -9408810.2508400604 -211.55035738562219 1007.3122689823522 0 1007.3122689823522 13822.703118244826 0 0 0 3402.7881902148001 720018.98620891571 2303185.7728343233 0 2303185.7728343233 -2286730.2495549321 0 0 0 -391677.8158364892 -54358343.845574521 -8223601.4464417696 0 -8223601.4464417696 -4994004.1986210644 0 0 0 -14838087.011048906 2896.7518542265279 -1078.217037261451 0 -1078.217037261451 15005.327141910449 0 0 0 4475.5197490342471 -17688628.874265403 2079009.0278126393 0 2079009.0278126393 -6704817.1995313764 0 0 0 -6098361.5184491575 -14839740.19521736 -868672.98203837872 0 -868672.98203837872 585593.91217204928 0 0 0 -3563536.5707613118 -25919135.945223048 3831867.9927586019 0 3831867.9927586019 -4994148.3161546271 0 0 0 -7728321.0653444221 -30058422.628690541 902513.39379222691 0 902513.39379222691 -10379175.216601551 0 0 0 -10109399.461323053 -35109312.037230343 3178295.8043573052 0 3178295.8043573052 -11695045.014482558 0 0 0 -11701089.262928233 -31896511.346992806 7402507.4027280509 0 7402507.4027280509 -10960329.553680195 0 0 0 -10714210.225168213 -35319423.209658712 5334042.8048472255 0 5334042.8048472255 -15952639.21811372 0 0 0 -12818015.606943101 -27179612.17658855 5055185.8455302566 0 5055185.8455302566 -12058099.879383385 0 0 0 -9809428.0139929801 -23410524.588020798 7450981.3675532341 0 7450981.3675532341 -7454921.8245785087 0 0 0 -7716361.6031498276 -52274721.729829118 555211.0492759198 0 555211.0492759198 -16396581.872065127 0 0 0 -17167825.90047355 -43117189.22637251 2621525.8734262884 0 2621525.8734262884 -16992695.821747005 0 0 0 -15027471.262029886 -40077628.788163349 432993.18310450017 0 432993.18310450017 -15831170.73196578 0 0 0 -13977199.880032271 -37974619.535970166 6116480.1446712017 0 6116480.1446712017 -13893456.060477026 0 0 0 -12967018.899111791 -41376037.204468124 2545485.9830345511 0 2545485.9830345511 -17732478.536700577 0 0 0 -14777128.935292177 -35690658.459893674 3665551.190645095 0 3665551.190645095 -17951726.088266134 0 0 0 -13410596.137039959 -45332629.896948881 3069052.6088675261 0 3069052.6088675261 -16960586.656011134 0 0 0 -15573304.138240017 -36582792.589054465 7001677.4205553457 0 7001677.4205553457 -17236448.737510324 0 0 0 -13454810.331641197 -31601653.672143385 7591715.2240861952 0 7591715.2240861952 -18362289.087584138 0 0 0 -12490985.689931914 -37478882.822396323 3831946.5884871781 0 3831946.5884871781 -17835863.504807264 0 0 0 -13828686.581800893 -32031987.486112334 8283766.2638514936 0 8283766.2638514936 -14325691.766445037 0 0 0 -11589419.813139327 -24059353.152973041 3911538.3910498768 0 3911538.3910498768 -13845476.378021061 0 0 0 -9476207.3827485293 -32655323.881690145 8555695.4624905586 0 8555695.4624905586 -15262819.502044229 0 0 0 -11979535.845933586 -32218900.771931037 8661143.5161582381 0 8661143.5161582381 -17629399.228600323 0 0 0 -12462075.000132844 -30863879.880960733 9600516.7902640402 0 9600516.7902640402 -16631860.77940762 0 0 0 -11873935.165092066 -34412820.255892128 10944335.033564508 0 10944335.033564508 -18973339.608269989 0 0 0 -13346539.966040522 -38409692.616287433 5278685.254624337 0 5278685.254624337 -18791956.440875098 0 0 0 -14300412.264290653 -32236082.137863487 7084663.3419032693 0 7084663.3419032693 -16372994.16317001 0 0 0 -12152269.075258374 -24210224.977944072 18911640.611202911 0 18911640.611202911 -4432095.4157122076 0 0 0 -7160580.0984140746 19665.143126243758 4837.5639678280168 0 4837.5639678280168 -5084.4490963825301 0 0 0 3645.1735074653075 -27598694.675344199 10523235.720642149 0 10523235.720642149 -19390061.766026199 0 0 0 -11747189.110342592 20372.988619293857 5381.8988734790146 0 5381.8988734790146 -6007.5071629987833 0 0 0 3591.3703640737681 -20371761.453302801 14043138.50259015 0 14043138.50259015 -4050500.877275154 0 0 0 -6105565.5826444812 -27426859.366015937 13968633.538904816 0 13968633.538904816 -1729010.3339713812 0 0 0 -7288967.4249968305 -23929458.479983851 18520967.965234902 0 18520967.965234902 -3360261.9230214357 0 0 0 -6822430.1007513255 -29458144.444357529 19058485.432687506 0 19058485.432687506 -4213167.9579266906 0 0 0 -8417828.1005710438 -30837362.526177965 4551505.9492046535 0 4551505.9492046535 -16610695.320727017 0 0 0 -11862014.461726243 -32202756.329349622 2885783.6401072145 0 2885783.6401072145 -17217614.418966234 0 0 0 -12355092.687078953 -32147756.296265855 6836593.4032838941 0 6836593.4032838941 -19388840.699724913 0 0 0 -12884149.248997688 -24918961.281123951 4901360.0184504688 0 4901360.0184504688 -16092719.370615333 0 0 0 -10252920.16293481 -21887047.539196167 14672544.988396933 0 14672544.988396933 -7979449.1101901382 0 0 0 -7466624.1623465717 -25370569.863502249 16433013.618355568 0 16433013.618355568 -5505395.2444769479 0 0 0 -7718991.2769947946 21035.240746026888 5875.2530361325598 0 5875.2530361325598 -6616.4003711078876 0 0 0 3604.7100937297496 -30970655.259462029 5569096.968680948 0 5569096.968680948 -14805169.839547068 0 0 0 -11443956.274752274 -26937792.47537224 4582637.4193982631 0 4582637.4193982631 -20385739.490651816 0 0 0 -11830882.99150601 -22056831.680286132 7223191.9905443303 0 7223191.9905443303 -3082823.4250588045 0 0 0 -6284913.7763362322 21637.490951668584 6328.4886109866702 0 6328.4886109866702 -7243.4173064932447 0 0 0 3598.518411293835 -10439490.218144029 7142274.552357642 0 7142274.552357642 -2043689.7610806264 0 0 0 -3120794.994806163 -15036373.091114577 7253726.0490423143 0 7253726.0490423143 -2014335.1628224403 0 0 0 -4262677.0634842552 -17700881.120696858 13303606.591252638 0 13303606.591252638 -2815609.1926605813 0 0 0 -5129122.5783393569 -21717181.216397032 14561314.84527196 0 14561314.84527196 -2191176.3763161898 0 0 0 -5977089.3981783055 -21462705.520605944 13616576.680093821 0 13616576.680093821 -7149032.6341908155 0 0 0 -7152934.5386991892 -14923583.709469071 9806532.9144978393 0 9806532.9144978393 994116.50423419848 0 0 0 -3482366.8013087176 -11562664.211234441 10704748.897968207 0 10704748.897968207 -3849850.9192216136 0 0 0 -3853128.7826140132 6698823.6318975259 5138852.8755944706 0 5138852.8755944706 1304591.125719171 0 0 0 2000853.6894041747 -23918104.020019762 16640322.547036018 0 16640322.547036018 -4800699.4459250718 0 0 0 -7179700.8664862067 -24315297.00257688 16277302.780189024 0 16277302.780189024 -4756865.996680811 0 0 0 -7268040.7498144191 -22124705.862805989 15537270.334642949 0 15537270.334642949 -5333698.5783168525 0 0 0 -6864601.1102807093 -21437003.449651331 13709819.34331049 0 13709819.34331049 -3931989.2270309716 0 0 0 -6342248.1691705752 -23851319.759836916 15108538.323495863 0 15108538.323495863 -7950188.3466744535 0 0 0 -7950377.0266278423 -25173208.555487048 15602403.835237311 0 15602403.835237311 -8390490.5615832433 0 0 0 -8390924.7792675756 -24063277.320202526 14981692.112357384 0 14981692.112357384 -6958735.7052027434 0 0 0 -7755503.2563513182 -24441979.177205 17142007.367321823 0 17142007.367321823 -6934630.9109326899 0 0 0 -7844152.5220344216 -25132909.226503704 17002395.168846443 0 17002395.168846443 -5584219.4941420555 0 0 0 -7679282.1801614426 -31688220.087615989 13480841.657432109 0 13480841.657432109 -5518182.7035581023 0 0 0 -9301600.6977935247 -25046681.548682466 16561616.540429052 0 16561616.540429052 -8582932.0272507649 0 0 0 -8407403.3939833101 -31540341.218268264 15606940.459161798 0 15606940.459161798 -10522060.260999713 0 0 0 -10515600.369816992 -28312861.105732806 13765149.628647109 0 13765149.628647109 -9440995.4479455017 0 0 0 -9438464.1384195797 -38327098.564825431 11994839.710449582 0 11994839.710449582 -10016555.628957562 0 0 0 -12085913.54844575 -65904789.435711235 12179283.329667687 0 12179283.329667687 -8013747.7050936818 0 0 0 -18479634.285201229 -44560740.679453589 16637537.753024951 0 16637537.753024951 -14824670.776713654 0 0 0 -14846352.864041811 -39720559.777408801 6829161.193058718 0 6829161.193058718 1540995.6198101267 0 0 0 -9544891.039399663 -36149623.764217786 15822402.86542625 0 15822402.86542625 -8102840.9627633002 0 0 0 -11063116.181745272 -29288359.75121291 4272901.9199413806 0 4272901.9199413806 18671.312893822789 0 0 0 -7317422.1095797718 -39519852.069812119 5181096.7651480436 0 5181096.7651480436 -1594757.2034492195 0 0 0 -10278652.318315338 -28588371.514165673 4435113.3035220876 0 4435113.3035220876 304496.84405365586 0 0 0 -7070968.6675280035 -31476657.729206216 11186892.090410851 0 11186892.090410851 -2034643.5157620907 0 0 0 -8377825.3112420812 -22560297.335228957 9250464.6907174811 0 9250464.6907174811 1307051.5261023343 0 0 0 -5313311.4522816464 -23141327.43072807 13554049.912033131 0 13554049.912033131 -1933714.3539647162 0 0 0 -6268760.4461731985 -14274913.484454498 9918563.7483729273 0 9918563.7483729273 4484973.1810390502 0 0 0 -2447485.0758538693 -15742694.859789293 19793164.08131811 0 19793164.08131811 1643039.4503306448 0 0 0 -3524913.8523646705 -23533252.180957265 17294739.495877758 0 17294739.495877758 -2688889.5581989288 0 0 0 -6555535.4347890392 -24970962.660895646 17805081.880499281 0 17805081.880499281 -6058830.0267989635 0 0 0 -7757448.1719236523 -20854746.546262398 18690976.002427954 0 18690976.002427954 -4465630.5232279152 0 0 0 -6330094.2673725784 -24548920.517306764 12794400.774735425 0 12794400.774735425 -3109417.8002927452 0 0 0 -6914584.5793998763 -24001438.146070831 12590809.721935615 0 12590809.721935615 -3044154.8096187636 0 0 0 -6761398.2389224041 
</DataArray>
<DataArray type="Float64" Name="cross_section_updated" format="ascii">
1 1 1 1 1 1 1 1 1 1 1 0.010000000000108811 1 1 0.010000000000050954 1 1 1 1 1 0.0084188274648109782 1 1 0.010112976158342918 1 0.009999999999981829 1 1 1 1 0.0090398853650019359 1 1 1 1 0.0095090180221475695 1 1 0.01221333245643573 1 1 1 1 1 1 1 1 1 1 1 1 1 1 1 1 1 1 1 1 1 1 1 1 1 1 1 1 0.0099999999999884938 1 0.0099999999999729507 1 1 1 1 1 1 1 1 1 1 0.0099999999999551871 1 1 1 0.0099999999999413301 1 1 1 1 1 1 1 1 1 1 1 1 1 1 1 1 1 1 1 1 1 1 1 1 1 1 1 1 1 1 1 1 1 1 1 1 1 1 1 
</DataArray>
<DataArray type="Float64" Name="normal_displacement_jump" format="ascii">
0 0 0 0 0 0 0 0 0 0 0 0.0090000000001088099 0 0 0.0090000000000509534 0 0 0 0 0 0.0074188274648109773 0 0 0.009112976158342917 0 0.0089999999999818281 0 0 0 0 0.008039885365001935 0 0 0 0 0.0085090180221475686 0 0 0.011213332456435729 0 0 0 0 0 0 0 0 0 0 0 0 0 0 0 0 0 0 0 0 0 0 0 0 0 0 0 0 0.0089999999999884929 0 0.0089999999999729515 0 0 0 0 0 0 0 0 0 0 0.0089999999999551862 0 0 0 0.008999999999941331 0 0 0 0 0 0 0 0 0 0 0 0 0 0 0 0 0 0 0 0 0 0 0 0 0 0 0 0 0 0 0 0 0 0 0 0 0 0 0 
</DataArray>
<DataArray type="Float64" Name="tangential_displacement_jump" format="ascii">
0 0 0 0 0 0 0 0 0 0 0 0.037777028690673363 0 0 0.038973944917237949 0 0 0 0 0 0.015415763247426837 0 0 0.044869536286056853 0 0.041813780230587627 0 0 0 0 0.017104290750509274 0 0 0 0 0.015507426370601514 0 0 0.010467839224230349 0 0 0 0 0 0 0 0 0 0 0 0 0 0 0 0 0 0 0 0 0 0 0 0 0 0 0 0 0.032023653870980294 0 0.034477134741890868 0 0 0 0 0 0 0 0 0 0 0.036489947858448002 0 0 0 0.038408749573912569 0 0 0 0 0 0 0 0 0 0 0 0 0 0 0 0 0 0 0 0 0 0 0 0 0 0 0 0 0 0 0 0 0 0 0 0 0 0 0 
</DataArray>
</CellData>
</Piece>
</UnstructuredGrid>
</VTKFile>
