<?xml version="1.0"?>
<VTKFile type="UnstructuredGrid" version="0.1" byte_order="LittleEndian">
<UnstructuredGrid>
<Piece NumberOfPoints="360" NumberOfCells="124">
<Points>
<DataArray type="Float64" NumberOfComponents="3" format="ascii">
0 0 0 0.084352422163911631 0.086451712656266194 0 0 0.12500000000034689 0 0 0 0 0.084352422163911631 0.086451712656266194 0 0.1249999999997554 0 0 0 0.12500000000034689 0 0.1008171452988615 0.18885703697250469 0 0 0.25 0 0.084352422163911631 0.086451712656266194 0 0 0.12500000000034689 0 0.1008171452988615 0.18885703697250469 0 0.084352422163911631 0.086451712656266194 0 0.1008171452988615 0.18885703697250469 0 0.18402761812864499 0.1117324051466445 0 0.1008171452988615 0.18885703697250469 0 0.2403886547178353 0.24188814792673841 0 0.1249999999997599 0.31249999999987998 0 0.1008171452988615 0.18885703697250469 0 0.2403886547178353 0.24188814792673841 0 0.18402761812864499 0.1117324051466445 0 0.2403886547178353 0.24188814792673841 0 0.18402761812864499 0.1117324051466445 0 0.31250000000020822 0.12500000000041631 0 0.1249999999997554 0 0 0.18402761812864499 0.1117324051466445 0 0.25 -0 0 0.18402761812864499 0.1117324051466445 0 0.25 -0 0 0.31250000000020822 0.12500000000041631 0 0.084352422163911631 0.086451712656266194 0 0.1249999999997554 0 0 0.18402761812864499 0.1117324051466445 0 0.25 -0 0 0.31250000000020822 0.12500000000041631 0 0.25 -0 0 0.31250000000020822 0.12500000000041631 0 0.43749999999913258 0 0 0.2403886547178353 0.24188814792673841 0 0.31250000000020822 0.12500000000041631 0 0.37500000000027761 0.25000000000055511 0 0.31250000000020822 0.12500000000041631 0 0.37500000000027761 0.25000000000055511 0 0.31250000000020822 0.12500000000041631 0 0.4287911518546233 0.15455445427966699 0 0.37500000000027761 0.25000000000055511 0 0.4287911518546233 0.15455445427966699 0 0.49457493289300231 0.26251703776555491 0 0.37500000000027761 0.25000000000055511 0 0.4287911518546233 0.15455445427966699 0 0.49457493289300231 0.26251703776555491 0 0.54475767668582953 0.1431838882066932 0 0.31250000000020822 0.12500000000041631 0 0.4287911518546233 0.15455445427966699 0 0.43749999999913258 0 0 0.4287911518546233 0.15455445427966699 0 0.43749999999913258 0 0 0.54475767668582953 0.1431838882066932 0 0.37499999999973488 0.43749999999986738 0 0.5 0.5 -0 0.43750000000006939 0.37500000000013878 0 0.37499999999973488 0.43749999999986738 0 0.5 0.5 -0 0.43750000000006939 0.37500000000013878 0 0.33819444444448321 0.33819444444456342 0 0.37499999999973488 0.43749999999986738 0 0.43750000000006939 0.37500000000013878 0 0.5 0.5 -0 0.43750000000006939 0.37500000000013878 0 0.49457493289300231 0.26251703776555491 0 0.37500000000027761 0.25000000000055511 0 0.43750000000006939 0.37500000000013878 0 0.37500000000027761 0.25000000000055511 0 0.43750000000006939 0.37500000000013878 0 0.37500000000027761 0.25000000000055511 0 0.33819444444448321 0.33819444444456342 0 0.2403886547178353 0.24188814792673841 0 0.33819444444448321 0.33819444444456342 0 0.24999999999960859 0.37499999999980432 0 0.2403886547178353 0.24188814792673841 0 0.37500000000027761 0.25000000000055511 0 0.33819444444448321 0.33819444444456342 0 0.33819444444448321 0.33819444444456342 0 0.37499999999973488 0.43749999999986738 0 0.24999999999960859 0.37499999999980432 0 0.37499999999973488 0.43749999999986738 0 0.24999999999960859 0.37499999999980432 0 0.37499999999973488 0.43749999999986738 0 0.24999999999960859 0.37499999999980432 0 0.26452443700674649 0.51563531581639865 0 0.14929124186975251 0.44582793568106382 0 0.24999999999960859 0.37499999999980432 0 0.26452443700674649 0.51563531581639865 0 0.14929124186975251 0.44582793568106382 0 0.24999999999960859 0.37499999999980432 0 0.1249999999997599 0.31249999999987998 0 0.2403886547178353 0.24188814792673841 0 0.24999999999960859 0.37499999999980432 0 0.1249999999997599 0.31249999999987998 0 0.24999999999960859 0.37499999999980432 0 0.1249999999997599 0.31249999999987998 0 0.1249999999997599 0.31249999999987998 0 0 0.25 0 0 0.43750000000034689 0 0.1008171452988615 0.18885703697250469 0 0.1249999999997599 0.31249999999987998 0 0 0.25 0 0.1249999999997599 0.31249999999987998 0 0 0.25 0 0.14929124186975251 0.44582793568106382 0 0 0.43750000000034689 0 0.13928587515912139 0.57339806105677438 0 0.14929124186975251 0.44582793568106382 0 0.1249999999997599 0.31249999999987998 0 0 0.43750000000034689 0 0 0.43750000000034689 0 0 0.62500000000069389 0 0.13928587515912139 0.57339806105677438 0 0 0.62500000000069389 0 0.13900789599611679 0.72618316107059999 0 0.13928587515912139 0.57339806105677438 0 0 0.62500000000069389 0 0.13900789599611679 0.72618316107059999 0 0 0.81250000000104083 0 0.13900789599611679 0.72618316107059999 0 0.13928587515912139 0.57339806105677438 0 0.27589467050686478 0.66058853156435704 0 0.13900789599611679 0.72618316107059999 0 0.27987960212930818 0.83442741470570525 0 0.27589467050686478 0.66058853156435704 0 0.13928587515912139 0.57339806105677438 0 0.26452443700674649 0.51563531581639865 0 0.27589467050686478 0.66058853156435704 0 0.14929124186975251 0.44582793568106382 0 0.13928587515912139 0.57339806105677438 0 0.26452443700674649 0.51563531581639865 0 0 1 0 0.12710107136012311 0.87094806618203435 0 0.1875000000005205 1 0 0 1 0 0 0.81250000000104083 0 0.12710107136012311 0.87094806618203435 0 0.13900789599611679 0.72618316107059999 0 0 0.81250000000104083 0 0.12710107136012311 0.87094806618203435 0 0.13900789599611679 0.72618316107059999 0 0.12710107136012311 0.87094806618203435 0 0.27987960212930818 0.83442741470570525 0 0.12710107136012311 0.87094806618203435 0 0.1875000000005205 1 0 0.27987960212930818 0.83442741470570525 0 0.27987960212930818 0.83442741470570525 0 0.44927105396715372 0.85565124085155886 0 0.37500000000069389 1 0 0.1875000000005205 1 0 0.27987960212930818 0.83442741470570525 0 0.37500000000069389 1 0 0.27987960212930818 0.83442741470570525 0 0.44927105396715372 0.85565124085155886 0 0.38136204680495073 0.74038592213831234 0 0.44927105396715372 0.85565124085155886 0 0.38136204680495073 0.74038592213831234 0 0.50145856933078625 0.73674663046504862 0 0.44927105396715372 0.85565124085155886 0 0.37500000000069389 1 0 0.56250000000086742 1 0 0.26452443700674649 0.51563531581639865 0 0.27589467050686478 0.66058853156435704 0 0.4139414069912184 0.60563252640100373 0 0.37499999999973488 0.43749999999986738 0 0.26452443700674649 0.51563531581639865 0 0.4139414069912184 0.60563252640100373 0 0.27987960212930818 0.83442741470570525 0 0.27589467050686478 0.66058853156435704 0 0.38136204680495073 0.74038592213831234 0 0.27589467050686478 0.66058853156435704 0 0.38136204680495073 0.74038592213831234 0 0.4139414069912184 0.60563252640100373 0 0.38136204680495073 0.74038592213831234 0 0.4139414069912184 0.60563252640100373 0 0.50145856933078625 0.73674663046504862 0 0.4139414069912184 0.60563252640100373 0 0.50145856933078625 0.73674663046504862 0 0.5625 0.625 0 0.37499999999973488 0.43749999999986738 0 0.4139414069912184 0.60563252640100373 0 0.5 0.5 -0 0.4139414069912184 0.60563252640100373 0 0.5 0.5 -0 0.5625 0.625 0 0.5 0.5 -0 0.5625 0.625 0 0.63236534182377013 0.50296756406332266 0 0.5 0.5 -0 0.5625 0.625 0 0.50145856933078625 0.73674663046504862 0 0.5625 0.625 0 0.625 0.75 0 0.5625 0.625 0 0.625 0.75 0 0.71259747807844409 0.63846691315701831 0 0.625 0.75 0 0.73857795170433571 0.77736788564284653 0 0.5625 0.625 0 0.71259747807844409 0.63846691315701831 0 0.625 0.75 0 0.71259747807844409 0.63846691315701831 0 0.63236534182377013 0.50296756406332266 0 0.75338430262320943 0.49294443423175599 0 0.5625 0.625 0 0.71259747807844409 0.63846691315701831 0 0.63236534182377013 0.50296756406332266 0 0.56250000000086742 1 0 0.56777512057187585 0.8470224641095303 0 0.6875 0.875 0 0.44927105396715372 0.85565124085155886 0 0.56250000000086742 1 0 0.56777512057187585 0.8470224641095303 0 0.44927105396715372 0.85565124085155886 0 0.50145856933078625 0.73674663046504862 0 0.56777512057187585 0.8470224641095303 0 0.50145856933078625 0.73674663046504862 0 0.56777512057187585 0.8470224641095303 0 0.625 0.75 0 0.625 0.75 0 0.73857795170433571 0.77736788564284653 0 0.6875 0.875 0 0.73857795170433571 0.77736788564284653 0 0.6875 0.875 0 0.80552984491000901 0.88711122872127413 0 0.625 0.75 0 0.6875 0.875 0 0.56777512057187585 0.8470224641095303 0 0.625 0.75 0 0.6875 0.875 0 0.56250000000086742 1 0 0.6875 0.875 0 0.75 1 0 0.6875 0.875 0 0.75 1 0 0.80552984491000901 0.88711122872127413 0 0.6875 0.875 0 0.75 1 0 0.75 1 0 0.80552984491000901 0.88711122872127413 0 0.875 1 0 0.80552984491000901 0.88711122872127413 0 0.90637953422180084 0.90208583328057301 0 0.875 1 0 0.80552984491000901 0.88711122872127413 0 0.85787927391517405 0.753532520882502 0 0.90637953422180084 0.90208583328057301 0 0.73857795170433571 0.77736788564284653 0 0.80552984491000901 0.88711122872127413 0 0.85787927391517405 0.753532520882502 0 0.85787927391517405 0.753532520882502 0 1 0.83333333333356463 0 1 0.66666666666736052 0 0.85787927391517405 0.753532520882502 0 1 0.83333333333356463 0 0.90637953422180084 0.90208583328057301 0 1 0.83333333333356463 0 0.90637953422180084 0.90208583328057301 0 1 1 0 0.90637953422180084 0.90208583328057301 0 1 1 0 0.875 1 0 0.71259747807844409 0.63846691315701831 0 0.86127466977819722 0.57948076978797636 0 0.75338430262320943 0.49294443423175599 0 0.71259747807844409 0.63846691315701831 0 0.85787927391517405 0.753532520882502 0 0.86127466977819722 0.57948076978797636 0 0.71259747807844409 0.63846691315701831 0 0.73857795170433571 0.77736788564284653 0 0.85787927391517405 0.753532520882502 0 0.85787927391517405 0.753532520882502 0 0.86127466977819722 0.57948076978797636 0 1 0.66666666666736052 0 0.86127466977819722 0.57948076978797636 0 1 0.66666666666736052 0 1 0.50000000000138767 0 1 0.50000000000138767 0 0.86569408477091048 0.40983673916766611 0 1 0.33333333333448978 0 0.86127466977819722 0.57948076978797636 0 1 0.50000000000138767 0 0.86569408477091048 0.40983673916766611 0 0.86127466977819722 0.57948076978797636 0 0.75338430262320943 0.49294443423175599 0 0.86569408477091048 0.40983673916766611 0 0.75338430262320943 0.49294443423175599 0 0.86569408477091048 0.40983673916766611 0 0.71826039492840632 0.34564020717216182 0 0.86087286690217635 0.25206523597959418 0 0.71508993406183785 0.15715956854777599 0 0.71826039492840632 0.34564020717216182 0 0.86569408477091048 0.40983673916766611 0 0.86087286690217635 0.25206523597959418 0 0.71826039492840632 0.34564020717216182 0 0.86087286690217635 0.25206523597959418 0 1 0.33333333333448978 0 1 0.16666666666736049 0 0.86569408477091048 0.40983673916766611 0 0.86087286690217635 0.25206523597959418 0 1 0.33333333333448978 0 0.86087286690217635 0.25206523597959418 0 1 0.16666666666736049 0 0.87698901648812122 0.1160638338657984 0 1 0 0 0.87698901648812122 0.1160638338657984 0 0.81249999999947953 0 0 1 0.16666666666736049 0 1 0 0 0.87698901648812122 0.1160638338657984 0 0.87698901648812122 0.1160638338657984 0 0.81249999999947953 0 0 0.71508993406183785 0.15715956854777599 0 0.86087286690217635 0.25206523597959418 0 0.87698901648812122 0.1160638338657984 0 0.71508993406183785 0.15715956854777599 0 0.71508993406183785 0.15715956854777599 0 0.62499999999895905 0 0 0.54475767668582953 0.1431838882066932 0 0.81249999999947953 0 0 0.71508993406183785 0.15715956854777599 0 0.62499999999895905 0 0 0.43749999999913258 0 0 0.62499999999895905 0 0 0.54475767668582953 0.1431838882066932 0 0.71508993406183785 0.15715956854777599 0 0.54475767668582953 0.1431838882066932 0 0.61108462585082757 0.25750599582343231 0 0.49457493289300231 0.26251703776555491 0 0.54475767668582953 0.1431838882066932 0 0.61108462585082757 0.25750599582343231 0 0.49457493289300231 0.26251703776555491 0 0.61108462585082757 0.25750599582343231 0 0.56986707178436635 0.37762093650871992 0 0.43750000000006939 0.37500000000013878 0 0.49457493289300231 0.26251703776555491 0 0.56986707178436635 0.37762093650871992 0 0.43750000000006939 0.37500000000013878 0 0.5 0.5 -0 0.56986707178436635 0.37762093650871992 0 0.5 0.5 -0 0.63236534182377013 0.50296756406332266 0 0.56986707178436635 0.37762093650871992 0 0.63236534182377013 0.50296756406332266 0 0.75338430262320943 0.49294443423175599 0 0.71826039492840632 0.34564020717216182 0 0.63236534182377013 0.50296756406332266 0 0.56986707178436635 0.37762093650871992 0 0.71826039492840632 0.34564020717216182 0 0.71508993406183785 0.15715956854777599 0 0.61108462585082757 0.25750599582343231 0 0.71826039492840632 0.34564020717216182 0 0.61108462585082757 0.25750599582343231 0 0.56986707178436635 0.37762093650871992 0 0.71826039492840632 0.34564020717216182 0 
</DataArray>
</Points>
<Cells>
<DataArray type="UInt32" Name="connectivity" format="ascii">
0 1 2 3 4 5 6 7 8 9 10 11 12 13 14 15 16 17 18 19 20 21 22 23 24 25 26 27 28 29 30 31 32 33 34 35 36 37 38 39 40 41 42 43 44 45 46 47 48 49 50 51 52 53 54 55 56 57 58 59 60 61 62 63 64 65 66 67 68 69 70 71 72 73 74 75 76 77 78 79 80 81 82 83 84 85 86 87 88 89 90 91 92 93 94 95 96 97 98 99 100 101 102 103 104 105 106 107 108 109 110 111 112 113 114 115 116 117 118 119 120 121 122 123 124 125 126 127 128 129 130 131 132 133 134 135 136 137 138 139 140 141 142 143 144 145 146 147 148 149 150 151 152 153 154 155 156 157 158 159 160 161 162 163 164 165 166 167 168 169 170 171 172 173 174 175 176 177 178 179 180 181 182 183 184 185 186 187 188 189 190 191 192 193 194 195 196 197 198 199 200 201 202 203 204 205 206 207 208 209 210 211 212 213 214 215 216 217 218 219 220 221 222 223 224 225 226 227 228 229 230 231 232 233 234 235 236 237 238 239 240 241 242 243 244 245 246 247 248 249 250 251 252 253 254 255 256 257 258 259 260 261 262 263 264 265 266 267 268 269 270 271 272 273 274 275 276 277 278 279 280 281 282 283 284 285 286 287 288 289 290 291 292 293 294 295 296 297 298 299 300 301 302 303 304 305 306 307 308 309 310 311 312 313 314 315 316 317 318 319 320 321 322 323 324 325 326 327 328 329 330 331 332 333 334 335 336 337 338 339 340 341 342 343 344 345 346 347 348 349 350 351 352 353 354 355 356 357 358 359 
</DataArray>
<DataArray type="UInt32" Name="offsets" format="ascii">
3 6 9 12 15 18 21 24 27 30 33 35 38 41 43 46 49 52 55 58 60 63 66 68 71 73 76 79 82 85 87 90 93 96 99 101 104 107 109 112 115 118 121 124 127 130 133 136 139 142 145 148 151 154 157 160 163 166 169 172 175 178 181 184 187 190 193 195 198 200 203 206 209 212 215 218 221 224 227 230 232 235 238 241 243 246 249 252 255 258 261 264 267 270 273 276 279 282 285 288 291 294 297 300 303 306 309 312 315 318 321 324 327 330 333 336 339 342 345 348 351 354 357 360 
</DataArray>
<DataArray type="UInt32" Name="types" format="ascii">
5 5 5 5 5 5 5 5 5 5 5 3 5 5 3 5 5 5 5 5 3 5 5 3 5 3 5 5 5 5 3 5 5 5 5 3 5 5 3 5 5 5 5 5 5 5 5 5 5 5 5 5 5 5 5 5 5 5 5 5 5 5 5 5 5 5 5 3 5 3 5 5 5 5 5 5 5 5 5 5 3 5 5 5 3 5 5 5 5 5 5 5 5 5 5 5 5 5 5 5 5 5 5 5 5 5 5 5 5 5 5 5 5 5 5 5 5 5 5 5 5 5 5 5 
</DataArray>
</Cells>
<PointData Scalars="" Vectors="displacement," Tensors="">
<DataArray type="Float64" Name="displacement" NumberOfComponents="3" format="ascii">
5.6404545134881723e-08 -0.0097673333058173831 0 -8.1796911115093745e-05 -0.0096644701266186978 0 -2.2964613471673099e-08 -0.0097426872982548582 0 5.6404545134881723e-08 -0.0097673333058173831 0 -8.1796911115093745e-05 -0.0096644701266186978 0 6.2464562096033961e-05 -0.0095801679584345285 0 -2.2964613471673099e-08 -0.0097426872982548582 0 -0.00027146671026844171 -0.0096008003649699601 0 -1.1048532354813022e-06 -0.0096925775663080655 0 -8.1796911115093745e-05 -0.0096644701266186978 0 -2.2964613471673099e-08 -0.0097426872982548582 0 -0.00027146671026844171 -0.0096008003649699601 0 -8.1796911115093745e-05 -0.0096644701266186978 0 -0.00027146671026844171 -0.0096008003649699601 0 -0.000254445951031837 -0.0093792431862819749 0 -0.00027146671026844171 -0.0096008003649699601 0 -0.0008277704463405971 -0.0091037679860269012 0 -0.0008481224926329212 -0.0094117824523406307 0 -0.00027146671026844171 -0.0096008003649699601 0 -0.0008277704463405971 -0.0091037679860269012 0 -0.000254445951031837 -0.0093792431862819749 0 -0.0008277704463405971 -0.0091037679860269012 0 -0.000254445951031837 -0.0093792431862819749 0 -0.00047873557942501805 -0.0087758179432072068 0 6.2464562096033961e-05 -0.0095801679584345285 0 -0.000254445951031837 -0.0093792431862819749 0 3.1338477414583944e-05 -0.0091188985262743247 0 -0.000254445951031837 -0.0093792431862819749 0 3.1338477414583944e-05 -0.0091188985262743247 0 -0.00047873557942501805 -0.0087758179432072068 0 -8.1796911115093745e-05 -0.0096644701266186978 0 6.2464562096033961e-05 -0.0095801679584345285 0 -0.000254445951031837 -0.0093792431862819749 0 0.0013532972561779413 -0.0066060452913813258 0 0.0007628098604463004 -0.0061742534275063526 0 0.0026595999814581941 -0.0040584070860144256 0 0.0019991387485448118 -0.0036240575512071164 0 0.0023588258677150063 -0.0029919816680082172 0 -0.0008277704463405971 -0.0091037679860269012 0 -0.00047873557942501805 -0.0087758179432072068 0 -0.0011394822427503795 -0.0084510401688803125 0 0.0007628098604463004 -0.0061742534275063526 0 0.00021077477820928949 -0.0058983120513335921 0 0.0019991387485448118 -0.0036240575512071164 0 0.0017149436102001478 -0.0029456617998598451 0 0.0015968014959645419 -0.0031744548430778915 0 0.0017149436102001478 -0.0029456617998598451 0 0.0012860503414981377 -0.0024636008846263525 0 0.0015968014959645419 -0.0031744548430778915 0 0.0017149436102001478 -0.0029456617998598451 0 0.0012860503414981377 -0.0024636008846263525 0 0.0014950925568398693 -0.0023129974183793878 0 0.0019991387485448118 -0.0036240575512071164 0 0.0017149436102001478 -0.0029456617998598451 0 0.0023588258677150063 -0.0029919816680082172 0 0.0017149436102001478 -0.0029456617998598451 0 0.0023588258677150063 -0.0029919816680082172 0 0.0014950925568398693 -0.0023129974183793878 0 -0.0014052094086782416 -0.0087218124608043953 0 -0.00061491663204235375 -0.0063550321733450953 0 -0.0015716189933951046 -0.0082784886546660441 0 -0.0017151555999226421 -0.0086014952972760603 0 -0.0019483325529719348 -0.0080444272190769751 0 -0.0015716189933951046 -0.0082784886546660441 0 -0.0013381986535431745 -0.0086787680286926523 0 -0.0017151555999226421 -0.0086014952972760603 0 -0.00013370995773381985 -0.0051282726107555101 0 -0.00061491663204235375 -0.0063550321733450953 0 0.0011643812799182248 -0.0026105021472935912 0 0.0012860503414981377 -0.0024636008846263525 0 0.0015968014959645419 -0.0031744548430778915 0 -0.00013370995773381985 -0.0051282726107555101 0 0.00021077477820928949 -0.0058983120513335921 0 -0.0015716189933951046 -0.0082784886546660441 0 -0.0011394822427503795 -0.0084510401688803125 0 -0.0013381986535431745 -0.0086787680286926523 0 -0.0008277704463405971 -0.0091037679860269012 0 -0.0013381986535431745 -0.0086787680286926523 0 -0.0013379885028483368 -0.0091188976028781128 0 -0.0008277704463405971 -0.0091037679860269012 0 -0.0011394822427503795 -0.0084510401688803125 0 -0.0013381986535431745 -0.0086787680286926523 0 -0.0013381986535431745 -0.0086787680286926523 0 -0.0017151555999226421 -0.0086014952972760603 0 -0.0013379885028483368 -0.0091188976028781128 0 -0.0014052094086782416 -0.0087218124608043953 0 -0.00070294173417420375 -0.0087118491385953633 0 -0.00057678321991653267 -0.0080742226908428732 0 -0.00020787500917914401 -0.0085119405599593228 0 -0.00058067038976396842 -0.0085568929082353688 0 -0.00024678686962941772 -0.0089152942442256786 0 -0.00020787500917914401 -0.0085119405599593228 0 -0.00058067038976396842 -0.0085568929082353688 0 -0.00024678686962941772 -0.0089152942442256786 0 -0.00020787500917914401 -0.0085119405599593228 0 1.6506395612525179e-05 -0.0090213584818737268 0 -0.0008277704463405971 -0.0091037679860269012 0 -0.0013379885028483368 -0.0091188976028781128 0 -0.0008481224926329212 -0.0094117824523406307 0 -0.00070294173417420375 -0.0087118491385953633 0 -0.00043690032346843514 -0.0092464791343417167 0 1.6506395612525179e-05 -0.0090213584818737268 0 1.8621955669229547e-07 -0.0090883950842435904 0 -2.7289505711120116e-07 -0.0091382210260466425 0 -0.00027146671026844171 -0.0096008003649699601 0 -0.0008481224926329212 -0.0094117824523406307 0 -1.1048532354813022e-06 -0.0096925775663080655 0 -0.00043690032346843514 -0.0092464791343417167 0 1.076756242279863e-05 -0.0093739678199512514 0 -0.00024678686962941772 -0.0089152942442256786 0 -2.7289505711120116e-07 -0.0091382210260466425 0 -0.00036027728151366394 -0.0089364299688284889 0 -0.00024678686962941772 -0.0089152942442256786 0 1.6506395612525179e-05 -0.0090213584818737268 0 -2.7289505711120116e-07 -0.0091382210260466425 0 -2.7289505711120116e-07 -0.0091382210260466425 0 -5.6031011461295921e-07 -0.0090630596516755018 0 -0.00036027728151366394 -0.0089364299688284889 0 -5.6031011461295921e-07 -0.0090630596516755018 0 -0.00047293914081754395 -0.0089287318971967237 0 -0.00036027728151366394 -0.0089364299688284889 0 -5.6031011461295921e-07 -0.0090630596516755018 0 -0.00047293914081754395 -0.0089287318971967237 0 -6.8013452403448477e-07 -0.0090495611669742168 0 -0.00047293914081754395 -0.0089287318971967237 0 -0.00036027728151366394 -0.0089364299688284889 0 -0.0008510928231468582 -0.008543254867066372 0 -0.00047293914081754395 -0.0089287318971967237 0 -0.0010532288801513047 -0.0085926536425815631 0 -0.0008510928231468582 -0.008543254867066372 0 -0.00036027728151366394 -0.0089364299688284889 0 -0.00058067038976396842 -0.0085568929082353688 0 -0.0008510928231468582 -0.008543254867066372 0 -0.00024678686962941772 -0.0089152942442256786 0 -0.00036027728151366394 -0.0089364299688284889 0 -0.00058067038976396842 -0.0085568929082353688 0 -1.0546300056742189e-06 -0.0090884875624208279 0 -0.00052015930149110494 -0.0089643119928617416 0 -0.00095954816944409478 -0.0088677450828696797 0 -1.0546300056742189e-06 -0.0090884875624208279 0 -6.8013452403448477e-07 -0.0090495611669742168 0 -0.00052015930149110494 -0.0089643119928617416 0 -0.00047293914081754395 -0.0089287318971967237 0 -6.8013452403448477e-07 -0.0090495611669742168 0 -0.00052015930149110494 -0.0089643119928617416 0 -0.00047293914081754395 -0.0089287318971967237 0 -0.00052015930149110494 -0.0089643119928617416 0 -0.0010532288801513047 -0.0085926536425815631 0 -0.00052015930149110494 -0.0089643119928617416 0 -0.00095954816944409478 -0.0088677450828696797 0 -0.0010532288801513047 -0.0085926536425815631 0 -0.0010532288801513047 -0.0085926536425815631 0 -0.0016525918709474725 -0.0079980402004692832 0 -0.0017700052029688946 -0.0083488651031834796 0 -0.00095954816944409478 -0.0088677450828696797 0 -0.0010532288801513047 -0.0085926536425815631 0 -0.0017700052029688946 -0.0083488651031834796 0 -0.0010532288801513047 -0.0085926536425815631 0 -0.0016525918709474725 -0.0079980402004692832 0 -0.0012569086738588461 -0.0081860117398368931 0 -0.0016525918709474725 -0.0079980402004692832 0 -0.0012569086738588461 -0.0081860117398368931 0 -0.0015836372175898367 -0.0076915814302992184 0 -0.0016525918709474725 -0.0079980402004692832 0 -0.0017700052029688946 -0.0083488651031834796 0 -0.0024063448185432205 -0.0076521615131934072 0 -0.00058067038976396842 -0.0085568929082353688 0 -0.0008510928231468582 -0.008543254867066372 0 -0.001188330960226395 -0.0079713897314872707 0 -0.00057678321991653267 -0.0080742226908428732 0 -0.00058067038976396842 -0.0085568929082353688 0 -0.001188330960226395 -0.0079713897314872707 0 -0.0010532288801513047 -0.0085926536425815631 0 -0.0008510928231468582 -0.008543254867066372 0 -0.0012569086738588461 -0.0081860117398368931 0 -0.0008510928231468582 -0.008543254867066372 0 -0.0012569086738588461 -0.0081860117398368931 0 -0.001188330960226395 -0.0079713897314872707 0 -0.0012569086738588461 -0.0081860117398368931 0 -0.001188330960226395 -0.0079713897314872707 0 -0.0015836372175898367 -0.0076915814302992184 0 -0.001188330960226395 -0.0079713897314872707 0 -0.0015836372175898367 -0.0076915814302992184 0 -0.0016637848253589285 -0.0073423830377553354 0 -0.00057678321991653267 -0.0080742226908428732 0 -0.001188330960226395 -0.0079713897314872707 0 -0.0012179565124737163 -0.0075298709474215164 0 -0.001188330960226395 -0.0079713897314872707 0 -0.0012179565124737163 -0.0075298709474215164 0 -0.0016637848253589285 -0.0073423830377553354 0 0.0012394320479610409 -0.0023071212172433996 0 0.0011572853241844619 -0.0020082483185811066 0 0.00090076651628245136 -0.0017252580985267628 0 -0.00061491663204235375 -0.0063550321733450953 0 -8.5236458448171917e-05 -0.0042906082423773799 0 -0.0015836372175898367 -0.0076915814302992184 0 -0.0016637848253589285 -0.0073423830377553354 0 -0.0018670391034955728 -0.0072522977575973915 0 -8.5236458448171917e-05 -0.0042906082423773799 0 -0.00057815121418257765 -0.0045319156701988895 0 0.00069235360526505795 -0.0012489589550932574 0 0.0008025298426080021 -0.001605145784023182 0 0.00055549211930719703 -0.0010996863035950921 0 0.0011572853241844619 -0.0020082483185811066 0 0.00069235360526505795 -0.0012489589550932574 0 0.0008025298426080021 -0.001605145784023182 0 0.00069235360526505795 -0.0012489589550932574 0 0.00090076651628245136 -0.0017252580985267628 0 0.00059299231514053094 -0.0011115159111486311 0 0.0011572853241844619 -0.0020082483185811066 0 0.00069235360526505795 -0.0012489589550932574 0 0.00090076651628245136 -0.0017252580985267628 0 -0.0024063448185432205 -0.0076521615131934072 0 -0.0019663220505952705 -0.0075371816168614504 0 -0.0023803770535290032 -0.0070364631358932122 0 -0.0016525918709474725 -0.0079980402004692832 0 -0.0024063448185432205 -0.0076521615131934072 0 -0.0019663220505952705 -0.0075371816168614504 0 -0.0016525918709474725 -0.0079980402004692832 0 -0.0015836372175898367 -0.0076915814302992184 0 -0.0019663220505952705 -0.0075371816168614504 0 -0.0015836372175898367 -0.0076915814302992184 0 -0.0019663220505952705 -0.0075371816168614504 0 -0.0018670391034955728 -0.0072522977575973915 0 0.0008025298426080021 -0.001605145784023182 0 0.00055549211930719703 -0.0010996863035950921 0 0.00061952443167102812 -0.0013446453684514 0 0.00055549211930719703 -0.0010996863035950921 0 0.00061952443167102812 -0.0013446453684514 0 0.00030629314987277512 -0.00071195031381585442 0 -0.00057815121418257765 -0.0045319156701988895 0 -0.000864149665808462 -0.0041626734388383454 0 -0.0019663220505952705 -0.0075371816168614504 0 -0.0018670391034955728 -0.0072522977575973915 0 -0.0023803770535290032 -0.0070364631358932122 0 -0.0024063448185432205 -0.0076521615131934072 0 -0.0023803770535290032 -0.0070364631358932122 0 -0.0027974784789779397 -0.0069620276994516121 0 0.00061952443167102812 -0.0013446453684514 0 5.275398780208793e-05 -0.00095359586242917138 0 0.00030629314987277512 -0.00071195031381585442 0 -0.000864149665808462 -0.0041626734388383454 0 -0.001390956105091812 -0.0039665166968926796 0 5.275398780208793e-05 -0.00095359586242917138 0 0.00030629314987277512 -0.00071195031381585442 0 -7.3709413288546583e-05 -0.00037281044969290282 0 0.00030629314987277512 -0.00071195031381585442 0 0.00010888500801234488 -0.00027103382465770351 0 -7.3709413288546583e-05 -0.00037281044969290282 0 0.00030629314987277512 -0.00071195031381585442 0 0.00030150321736174986 -0.00053063593305384806 0 0.00010888500801234488 -0.00027103382465770351 0 0.00055549211930719703 -0.0010996863035950921 0 0.00030629314987277512 -0.00071195031381585442 0 0.00030150321736174986 -0.00053063593305384806 0 0.00030150321736174986 -0.00053063593305384806 0 3.4132984295690446e-07 -1.3052405456081286e-07 0 3.474365128514067e-07 -2.2279473924544705e-07 0 0.00030150321736174986 -0.00053063593305384806 0 3.4132984295690446e-07 -1.3052405456081286e-07 0 0.00010888500801234488 -0.00027103382465770351 0 3.4132984295690446e-07 -1.3052405456081286e-07 0 0.00010888500801234488 -0.00027103382465770351 0 -2.8876922689098544e-07 -4.8946238186370678e-08 0 0.00010888500801234488 -0.00027103382465770351 0 -2.8876922689098544e-07 -4.8946238186370678e-08 0 -7.3709413288546583e-05 -0.00037281044969290282 0 0.00069235360526505795 -0.0012489589550932574 0 0.00032588096692389514 -0.00058110761978728701 0 0.00059299231514053094 -0.0011115159111486311 0 0.00069235360526505795 -0.0012489589550932574 0 0.00030150321736174986 -0.00053063593305384806 0 0.00032588096692389514 -0.00058110761978728701 0 0.00069235360526505795 -0.0012489589550932574 0 0.00055549211930719703 -0.0010996863035950921 0 0.00030150321736174986 -0.00053063593305384806 0 0.00030150321736174986 -0.00053063593305384806 0 0.00032588096692389514 -0.00058110761978728701 0 3.474365128514067e-07 -2.2279473924544705e-07 0 0.00032588096692389514 -0.00058110761978728701 0 3.474365128514067e-07 -2.2279473924544705e-07 0 3.7361143937598771e-07 -2.3723474983370264e-07 0 3.7361143937598771e-07 -2.3723474983370264e-07 0 0.00031858485009333937 -0.00058738412757503413 0 4.6490798441152851e-07 -2.4825159621228973e-07 0 0.00032588096692389514 -0.00058110761978728701 0 3.7361143937598771e-07 -2.3723474983370264e-07 0 0.00031858485009333937 -0.00058738412757503413 0 0.00032588096692389514 -0.00058110761978728701 0 0.00059299231514053094 -0.0011115159111486311 0 0.00031858485009333937 -0.00058738412757503413 0 0.00059299231514053094 -0.0011115159111486311 0 0.00031858485009333937 -0.00058738412757503413 0 0.00067754211279173141 -0.0013216224525253834 0 0.00039202177676263912 -0.00060552413171156773 0 0.0009619337478874489 -0.0014181097982186191 0 0.00067754211279173141 -0.0013216224525253834 0 0.00031858485009333937 -0.00058738412757503413 0 0.00039202177676263912 -0.00060552413171156773 0 0.00067754211279173141 -0.0013216224525253834 0 0.00039202177676263912 -0.00060552413171156773 0 4.6490798441152851e-07 -2.4825159621228973e-07 0 3.5767642656691054e-07 -1.0152301188525335e-07 0 0.00031858485009333937 -0.00058738412757503413 0 0.00039202177676263912 -0.00060552413171156773 0 4.6490798441152851e-07 -2.4825159621228973e-07 0 0.00039202177676263912 -0.00060552413171156773 0 3.5767642656691054e-07 -1.0152301188525335e-07 0 0.00047847122397917419 -0.0005644351945271991 0 1.5083125723469266e-06 -5.7039745833858794e-07 0 0.00047847122397917419 -0.0005644351945271991 0 0.0011638294473585355 -0.0010967839475368186 0 3.5767642656691054e-07 -1.0152301188525335e-07 0 1.5083125723469266e-06 -5.7039745833858794e-07 0 0.00047847122397917419 -0.0005644351945271991 0 0.00047847122397917419 -0.0005644351945271991 0 0.0011638294473585355 -0.0010967839475368186 0 0.0009619337478874489 -0.0014181097982186191 0 0.00039202177676263912 -0.00060552413171156773 0 0.00047847122397917419 -0.0005644351945271991 0 0.0009619337478874489 -0.0014181097982186191 0 0.0009619337478874489 -0.0014181097982186191 0 0.001854727887799704 -0.0020314655925118361 0 0.0014950925568398693 -0.0023129974183793878 0 0.0011638294473585355 -0.0010967839475368186 0 0.0009619337478874489 -0.0014181097982186191 0 0.001854727887799704 -0.0020314655925118361 0 0.0023588258677150063 -0.0029919816680082172 0 0.001854727887799704 -0.0020314655925118361 0 0.0014950925568398693 -0.0023129974183793878 0 0.0009619337478874489 -0.0014181097982186191 0 0.0014950925568398693 -0.0023129974183793878 0 0.0010489433963248159 -0.0018893755871024649 0 0.0012860503414981377 -0.0024636008846263525 0 0.0014950925568398693 -0.0023129974183793878 0 0.0010489433963248159 -0.0018893755871024649 0 0.0012860503414981377 -0.0024636008846263525 0 0.0010489433963248159 -0.0018893755871024649 0 0.00097515929561389758 -0.0020509812319163176 0 0.0011643812799182248 -0.0026105021472935912 0 0.0012860503414981377 -0.0024636008846263525 0 0.00097515929561389758 -0.0020509812319163176 0 0.0011643812799182248 -0.0026105021472935912 0 0.0012394320479610409 -0.0023071212172433996 0 0.00097515929561389758 -0.0020509812319163176 0 0.0012394320479610409 -0.0023071212172433996 0 0.00090076651628245136 -0.0017252580985267628 0 0.00097515929561389758 -0.0020509812319163176 0 0.00090076651628245136 -0.0017252580985267628 0 0.00059299231514053094 -0.0011115159111486311 0 0.00067754211279173141 -0.0013216224525253834 0 0.00090076651628245136 -0.0017252580985267628 0 0.00097515929561389758 -0.0020509812319163176 0 0.00067754211279173141 -0.0013216224525253834 0 0.0009619337478874489 -0.0014181097982186191 0 0.0010489433963248159 -0.0018893755871024649 0 0.00067754211279173141 -0.0013216224525253834 0 0.0010489433963248159 -0.0018893755871024649 0 0.00097515929561389758 -0.0020509812319163176 0 0.00067754211279173141 -0.0013216224525253834 0 
</DataArray>
</PointData>
<CellData Scalars="region_id,cross_section_updated,normal_displacement_jump,tangential_displacement_jump," Vectors="" Tensors="stress,">
<DataArray type="Float64" Name="region_id" format="ascii">
11 11 11 11 11 11 11 11 11 11 11 5 11 11 5 11 11 11 11 11 6 11 11 5 11 5 11 11 11 11 6 11 11 11 11 6 11 11 6 11 11 11 11 11 11 11 11 11 11 11 11 11 11 11 11 11 11 11 11 11 11 11 11 11 11 11 11 4 11 4 11 11 11 11 11 11 11 11 11 11 4 11 11 11 4 11 11 11 11 11 11 11 11 11 11 11 11 11 11 11 11 11 11 11 11 11 11 11 11 11 11 11 11 11 11 11 11 11 11 11 11 11 11 11 
</DataArray>
<DataArray type="Float64" Name="stress" NumberOfComponents="9" format="ascii">
-1084799.50779365 406694.20339599252 0 406694.20339599252 -151287.23806492984 0 0 0 -309021.68646464497 490666.44609400257 25348.573455359787 0 25348.573455359787 -125649.49502412975 0 0 0 91254.237767469138 -3063993.9459556565 457920.0393692553 0 457920.0393692553 -593728.26937139034 0 0 0 -914430.55383176357 -1853749.2193404213 -180678.78666798957 0 -180678.78666798957 -148257.30782856047 0 0 0 -500501.6317922473 -1511811.2558249952 471304.22567547858 0 471304.22567547858 -324168.38738264516 0 0 0 -458994.9108019108 -2510115.7420161478 -390644.84504038095 0 -390644.84504038095 122274.55762465298 0 0 0 -596960.29609787837 -3045923.1439853832 37344.377345066518 0 37344.377345066518 -281908.16534437239 0 0 0 -831957.82733243704 -1587028.2236729991 347302.11325104162 0 347302.11325104162 -436771.93534749001 0 0 0 -505950.03975512274 -359298.91667846963 394148.21674080938 0 394148.21674080938 -281068.98219183087 0 0 0 -160091.97471757978 -1508722.4757623449 508580.40561797097 0 508580.40561797097 -57304.45179951936 0 0 0 -391506.73189046979 -1270974.001708623 223647.15093396604 0 223647.15093396604 -70750.965277023613 0 0 0 -335431.24174640328 1825.6663810157886 1369.1575169659186 0 1369.1575169659186 -1824.2610325672399 0 0 0 0.35133711213688912 -1672556.2624650975 482390.66776887048 0 482390.66776887048 115542.75384551845 0 0 0 -389253.37715489464 -2399324.4149677698 232714.48635287583 0 232714.48635287583 -608703.75161796808 0 0 0 -752007.04164643399 1864.0578503008387 1398.050713279556 0 1398.050713279556 -1864.0692146784136 0 0 0 -0.0028410943937160482 -1923378.1657788604 1339265.0111133251 0 1339265.0111133251 189821.05788204074 0 0 0 -433389.27697420493 -2437931.8075917568 1319493.4799326919 0 1319493.4799326919 147546.6853117384 0 0 0 -572596.28057000414 -2157166.9340549428 1161007.8155785687 0 1161007.8155785687 429277.27494194172 0 0 0 -431972.41477825027 -1390785.1757221585 573259.47819017363 0 573259.47819017363 197246.90879257023 0 0 0 -298384.56673239544 -2536326.5909950938 487526.92459604144 0 487526.92459604144 -194259.67952560843 0 0 0 -682646.5676301755 -305.97087745238946 248.17840468427494 0 248.17840468427494 403.06969192713586 0 0 0 24.274703618686999 -763447.99270461127 767625.71669499949 0 767625.71669499949 -760482.06416657567 0 0 0 -380982.51421779767 -1644603.3486557975 379132.42123637162 0 379132.42123637162 -1433299.8900458664 0 0 0 -769475.80967541784 2153.9171137059225 1507.6009693203498 0 1507.6009693203498 -2010.7233051230551 0 0 0 35.798452145716965 -2182563.6393749742 1398224.4499880578 0 1398224.4499880578 1004971.4679705091 0 0 0 -294398.04285111558 1958.4719857768291 1468.4723361253893 0 1468.4723361253893 -1952.35190654493 0 0 0 1.5300198079745542 -1886695.754078269 607514.70738252252 0 607514.70738252252 -1460277.9681529552 0 0 0 -836743.43055780604 -2050198.9454707243 431083.00067226961 0 431083.00067226961 -1174206.2170229405 0 0 0 -806101.29062341526 -2769594.6663666442 696503.62524100626 0 696503.62524100626 -1504338.9662963599 0 0 0 -1068483.4081657529 -2019970.1881848797 526601.60466431826 0 526601.60466431826 -1663133.7018330768 0 0 0 -920775.97250448912 -411.20763529318765 303.42609691278881 0 303.42609691278881 403.95589434577414 0 0 0 -1.8129352368528089 -2344630.7642778121 554879.49495141767 0 554879.49495141767 -1547820.6071022451 0 0 0 -973112.84284501895 -1926847.9983330779 406345.84133295529 0 406345.84133295529 -1371481.8027231246 0 0 0 -824582.45026405528 -1042998.5429201052 893317.67502125911 0 893317.67502125911 -285442.92313532531 0 0 0 -332110.3665138483 -2610287.3623791304 -477281.82627705857 0 -477281.82627705857 -1183095.0529831322 0 0 0 -948345.60384056764 -358.18747963514124 268.65001505236569 0 268.65001505236569 358.20754952534844 0 0 0 0.0050174725520264474 51847.51438748464 266685.35433101654 0 266685.35433101654 -266171.74190546572 0 0 0 -53581.056879490614 -5428121.8821217325 -823122.98834003508 0 -823122.98834003508 -521412.07747555524 0 0 0 -1487383.4898993243 -57.705000262955764 65.693522268742754 0 65.693522268742754 455.65512421951462 0 0 0 99.487530989139486 -1932891.8200808614 192493.14039313933 0 192493.14039313933 -695873.67095446587 0 0 0 -657191.37275883183 -1656737.2126676077 -90956.982342302799 0 -90956.982342302799 11843.63843385689 0 0 0 -411223.39355843235 -2939433.6891936464 422444.44837548584 0 422444.44837548584 -552226.52219841687 0 0 0 -872915.05284801393 -3408398.7750589736 74336.101019196212 0 74336.101019196212 -1080587.1590007246 0 0 0 -1122246.4835149199 -4048504.0062511433 365316.08170388266 0 365316.08170388266 -1272709.9557832032 0 0 0 -1330303.4905085899 -3720092.3904977376 839835.52156690881 0 839835.52156690881 -1180770.0844336436 0 0 0 -1225215.6187328442 -4078351.1496065333 625294.49993236363 0 625294.49993236363 -1727373.0082919374 0 0 0 -1451431.039474614 -3089943.3585617542 519741.24997074716 0 519741.24997074716 -1177836.9917956218 0 0 0 -1066945.0875893459 -2671978.0624335757 799499.17831295729 0 799499.17831295729 -810971.58015210927 0 0 0 -870737.41064642137 -6055445.7378826924 66020.990970529616 0 66020.990970529616 -1808047.4739444405 0 0 0 -1965873.3029567841 -4986502.1457574405 305676.62872230634 0 305676.62872230634 -1883615.3204610944 0 0 0 -1717529.3665546365 -4625846.3311918229 46787.400307245553 0 46787.400307245553 -1737858.5895328522 0 0 0 -1590926.2301811725 -4385058.0741853938 718421.937773332 0 718421.937773332 -1511403.3637338448 0 0 0 -1474115.3594798069 -4784483.68901572 302115.32403310761 0 302115.32403310761 -1969214.8953009993 0 0 0 -1688424.6460791789 -4108539.2739462033 443732.71390822344 0 443732.71390822344 -1995067.6119085178 0 0 0 -1525901.7214636765 -5233898.5748570468 368598.66514853016 0 368598.66514853016 -1869895.6857606694 0 0 0 -1775948.5651544295 -4216011.3132115006 845528.04891884839 0 845528.04891884839 -1909001.0148510933 0 0 0 -1531253.0820156485 -3642356.8302270081 918158.84530811012 0 918158.84530811012 -2046971.4837459773 0 0 0 -1422332.0784932468 -4279993.5415946841 462460.46807630919 0 462460.46807630919 -1979784.5189922675 0 0 0 -1564944.5151467398 -3796522.4618159439 972062.70455902442 0 972062.70455902442 -1504299.8318946864 0 0 0 -1325205.5734276567 -2753822.663418483 397368.05203691311 0 397368.05203691311 -1284824.8571269736 0 0 0 -1009661.8801363632 -3771763.7726136958 1028910.8396566138 0 1028910.8396566138 -1649997.1669511907 0 0 0 -1355440.2348912198 -3774367.0776616186 1066202.9066579249 0 1066202.9066579249 -1955844.6536374614 0 0 0 -1432552.9328247681 -3548099.4291771492 1169373.9766335525 0 1169373.9766335525 -1824573.858120501 0 0 0 -1343168.3218244081 -3993194.0167981796 1348169.0916672871 0 1348169.0916672871 -2139677.955373235 0 0 0 -1533217.9930428565 -4672828.6562219309 723702.06911885738 0 723702.06911885738 -2036546.2179375775 0 0 0 -1677343.7185398759 -3775519.4096507039 886643.65167421848 0 886643.65167421848 -1962678.6823949292 0 0 0 -1434549.5230114069 -3009115.211774881 2008269.0225635981 0 2008269.0225635981 -794795.18246676866 0 0 0 -950977.59856041335 1895.8006448202657 1420.3516449475428 0 1420.3516449475428 -1871.9371853564785 0 0 0 5.9658648659467417 -3134462.0371825751 1267763.275712952 0 1267763.275712952 -2236414.6182738617 0 0 0 -1342719.1638641078 1961.8794611750841 1471.7238564382747 0 1471.7238564382747 -1966.8772143581621 0 0 0 -1.2494382957696644 -2333413.1268197852 1513362.8808466555 0 1513362.8808466555 -507191.02372453827 0 0 0 -710151.03763608029 -3280441.9551037494 1457391.1025078753 0 1457391.1025078753 -316770.9739284534 0 0 0 -899303.2322580507 -2859571.7359910728 2032468.1203440907 0 2032468.1203440907 -432364.39491080679 0 0 0 -822984.0327254713 -3531107.316588779 2128800.70327478 0 2128800.70327478 -591466.07287309133 0 0 0 -1030643.3473654659 -3557763.0847294764 540539.20489604026 0 540539.20489604026 -1828631.9330255641 0 0 0 -1346598.7544387565 -3684490.7734849527 347497.05007835478 0 347497.05007835478 -1888498.6500428542 0 0 0 -1393247.3558819555 -3693813.7418827638 809645.18773987144 0 809645.18773987144 -2190428.0397226289 0 0 0 -1471060.4454013519 -2780714.7069139667 562205.03164820746 0 562205.03164820746 -1768624.0022810772 0 0 0 -1137334.6772987619 -2550474.369720317 1624363.8398273122 0 1624363.8398273122 -1021357.2993072625 0 0 0 -892957.91725689452 -2986843.7924213787 1854589.560016762 0 1854589.560016762 -696553.19337812485 0 0 0 -920849.24644987565 2028.2158480258204 1521.0241936451844 0 1521.0241936451844 -2025.9094515026363 0 0 0 0.57659913079612579 -3560228.2001982648 634648.72952931747 0 634648.72952931747 -1626913.241079174 0 0 0 -1296785.3603193592 -3001204.764841985 554770.1456850078 0 554770.1456850078 -2328266.4897425398 0 0 0 -1332367.8136461303 -2579359.1733052647 772518.29706902057 0 772518.29706902057 -355893.56689301273 0 0 0 -733813.185049569 2091.488412346308 1568.6548459246183 0 1568.6548459246183 -2092.1704692512353 0 0 0 -0.17051422623200096 -1156073.5574177981 761082.27262879163 0 761082.27262879163 -230757.6043331523 0 0 0 -346707.79043773725 -1786946.4275754842 776716.1629897136 0 776716.1629897136 -227364.49214418279 0 0 0 -503577.72992991668 -2091225.4670110566 1452402.5955860121 0 1452402.5955860121 -338192.35328166583 0 0 0 -607354.45507318038 -2540288.3257889249 1605805.8307147671 0 1605805.8307147671 -254299.23741999455 0 0 0 -698646.89080222999 -2542621.9926487408 1492973.0142890045 0 1492973.0142890045 -846950.13183426193 0 0 0 -847393.03112075059 -1784866.8330816501 1051453.1276534181 0 1051453.1276534181 95766.806201210245 0 0 0 -422275.00672010978 -1394417.2724590767 1156084.8770253125 0 1156084.8770253125 -464283.65946156165 0 0 0 -464675.23298015958 671339.59345733281 522195.64891173912 0 522195.64891173912 134450.29239361454 0 0 0 201447.47146273684 -2820638.5871387292 1849309.9346088883 0 1849309.9346088883 -562753.54393471964 0 0 0 -845848.0327683622 -2895915.9546625256 1781329.6219106279 0 1781329.6219106279 -559379.79308904754 0 0 0 -863823.93693789328 -2620081.4345905758 1695619.3448601754 0 1695619.3448601754 -685705.97545306257 0 0 0 -826446.85251090978 -2530603.1648552604 1509183.7611970289 0 1509183.7611970289 -451891.61839460192 0 0 0 -745623.69581246574 -2815772.7012949563 1674836.1199089878 0 1674836.1199089878 -938498.48436388571 0 0 0 -938567.79641471035 -2842694.3604750037 1748448.2703202802 0 1748448.2703202802 -947494.2790081792 0 0 0 -947547.15987079602 -2769027.8733255435 1701506.8175888469 0 1701506.8175888469 -764830.51142770331 0 0 0 -883464.5961883117 -2885984.337992901 1906176.4769465178 0 1906176.4769465178 -789523.88825696846 0 0 0 -918877.05656246748 -2818856.1600132338 1948556.7118251729 0 1948556.7118251729 -655317.27434714325 0 0 0 -868543.35859009437 -3382218.9383194321 1535847.8466536005 0 1535847.8466536005 -676428.68083908409 0 0 0 -1014661.9047896289 -2729636.530779059 1840083.2671582284 0 1840083.2671582284 -950101.93997114175 0 0 0 -919934.61768755049 -3378061.2733722217 1740672.5077048375 0 1740672.5077048375 -1126959.4873970994 0 0 0 -1126255.1901923304 -3113756.9065467832 1589940.8676761135 0 1589940.8676761135 -1057433.023107985 0 0 0 -1042797.4824136918 -4055996.9318406717 1379063.0818300932 0 1379063.0818300932 -1106355.4774532681 0 0 0 -1290588.1023234851 -6903579.1084290855 1354344.8721631407 0 1354344.8721631407 -873789.95832470618 0 0 0 -1944342.2666884479 -4659572.6119225277 1831843.1472612836 0 1831843.1472612836 -1550190.0741835542 0 0 0 -1552440.6715265207 -4136016.7062359871 768200.1855295375 0 768200.1855295375 170228.37532597408 0 0 0 -991447.08272750303 -3761103.4531292901 1734854.2265768368 0 1734854.2265768368 -898797.19805403263 0 0 0 -1164975.1627958314 -2980554.1673303796 439488.59718459751 0 439488.59718459751 3890.6375727821141 0 0 0 -744165.8824393996 -4003677.3866980071 566568.2171578561 0 566568.2171578561 -219698.77659748029 0 0 0 -1055844.0408238717 -2864371.4735959237 441745.17648436595 0 441745.17648436595 10157.76977468282 0 0 0 -713553.42595530953 -3264322.5110101607 1202521.4113900398 0 1202521.4113900398 -351836.60670549423 0 0 0 -904039.77942891419 -2248967.823354661 923390.26708032005 0 923390.26708032005 130854.79075685143 0 0 0 -529528.25814945204 -2370462.9106626287 1444550.3458172646 0 1444550.3458172646 -415758.48193243891 0 0 0 -696555.34814876597 -1340716.7593073179 968619.59210630786 0 968619.59210630786 438971.46477176249 0 0 0 -225436.32363388827 -1620326.2183984304 2219635.6502595423 0 2219635.6502595423 -202335.46014368348 0 0 0 -455665.41963552963 -2924292.0585095547 2030636.2401471022 0 2030636.2401471022 -535966.37567131594 0 0 0 -865064.60854521766 -2963515.7210379597 2048354.901941814 0 2048354.901941814 -760767.80152692832 0 0 0 -931070.880641222 -2258360.5903766095 2124353.0858525047 0 2124353.0858525047 -610311.05697652139 0 0 0 -717167.9118382833 -2535416.0344386622 1389564.8221394499 0 1389564.8221394499 -387811.69909847807 0 0 0 -730806.93338428531 -2623096.0146223176 1435167.4546000841 0 1435167.4546000841 -481383.13922153134 0 0 0 -776119.78846096271 
</DataArray>
<DataArray type="Float64" Name="cross_section_updated" format="ascii">
1 1 1 1 1 1 1 1 1 1 1 0.001000004434517887 1 1 0.00099999338471966868 1 1 1 1 1 0.0010480551883564043 1 1 0.0010988872529226635 1 0.0009999991482552424 1 1 1 1 0.00099999405765575835 1 1 1 1 0.0010000043927235105 1 1 0.0012511759381486067 1 1 1 1 1 1 1 1 1 1 1 1 1 1 1 1 1 1 1 1 1 1 1 1 1 1 1 1 0.0010000073724511726 1 0.00099999809901698405 1 1 1 1 1 1 1 1 1 1 0.00099999354259148565 1 1 1 0.0010000040918916745 1 1 1 1 1 1 1 1 1 1 1 1 1 1 1 1 1 1 1 1 1 1 1 1 1 1 1 1 1 1 1 1 1 1 1 1 1 1 1 
</DataArray>
<DataArray type="Float64" Name="normal_displacement_jump" format="ascii">
0 0 0 0 0 0 0 0 0 0 0 4.4345178870121293e-09 0 0 -6.6152803313360153e-09 0 0 0 0 0 4.8055188356404231e-05 0 0 9.8887252922663475e-05 0 -8.517447576232573e-10 0 0 0 0 -5.9423442416717265e-09 0 0 0 0 4.3927235104587736e-09 0 0 0.00025117593814860673 0 0 0 0 0 0 0 0 0 0 0 0 0 0 0 0 0 0 0 0 0 0 0 0 0 0 0 0 7.3724511725527242e-09 0 -1.9009830159663621e-09 0 0 0 0 0 0 0 0 0 0 -6.4574085143712795e-09 0 0 0 4.0918916744542289e-09 0 0 0 0 0 0 0 0 0 0 0 0 0 0 0 0 0 0 0 0 0 0 0 0 0 0 0 0 0 0 0 0 0 0 0 0 0 0 0 
</DataArray>
<DataArray type="Float64" Name="tangential_displacement_jump" format="ascii">
0 0 0 0 0 0 0 0 0 0 0 0.0057088245423289729 0 0 0.0058296191718286506 0 0 0 0 0 0.0010686897194514642 0 0 0.0064251959649247892 0 0.0061182012250297459 0 0 0 0 0.0012681191837118706 0 0 0 0 0.0011150970872519997 0 0 0.00060965194306282619 0 0 0 0 0 0 0 0 0 0 0 0 0 0 0 0 0 0 0 0 0 0 0 0 0 0 0 0 0.0059014815010661548 0 0.0061387249308583287 0 0 0 0 0 0 0 0 0 0 0.0063386735552269941 0 0 0 0.0065406404132701112 0 0 0 0 0 0 0 0 0 0 0 0 0 0 0 0 0 0 0 0 0 0 0 0 0 0 0 0 0 0 0 0 0 0 0 0 0 0 0 
</DataArray>
</CellData>
</Piece>
</UnstructuredGrid>
</VTKFile>
