<?xml version="1.0"?>
<VTKFile type="UnstructuredGrid" version="0.1" byte_order="LittleEndian">
<UnstructuredGrid>
<Piece NumberOfPoints="360" NumberOfCells="124">
<Points>
<DataArray type="Float64" NumberOfComponents="3" format="ascii">
0 0 0 0.084352422163911631 0.086451712656266194 0 0 0.12500000000034689 0 0 0 0 0.084352422163911631 0.086451712656266194 0 0.1249999999997554 0 0 0 0.12500000000034689 0 0.1008171452988615 0.18885703697250469 0 0 0.25 0 0.084352422163911631 0.086451712656266194 0 0 0.12500000000034689 0 0.1008171452988615 0.18885703697250469 0 0.084352422163911631 0.086451712656266194 0 0.1008171452988615 0.18885703697250469 0 0.18402761812864499 0.1117324051466445 0 0.1008171452988615 0.18885703697250469 0 0.2403886547178353 0.24188814792673841 0 0.1249999999997599 0.31249999999987998 0 0.1008171452988615 0.18885703697250469 0 0.2403886547178353 0.24188814792673841 0 0.18402761812864499 0.1117324051466445 0 0.2403886547178353 0.24188814792673841 0 0.18402761812864499 0.1117324051466445 0 0.31250000000020822 0.12500000000041631 0 0.1249999999997554 0 0 0.18402761812864499 0.1117324051466445 0 0.25 -0 0 0.18402761812864499 0.1117324051466445 0 0.25 -0 0 0.31250000000020822 0.12500000000041631 0 0.084352422163911631 0.086451712656266194 0 0.1249999999997554 0 0 0.18402761812864499 0.1117324051466445 0 0.25 -0 0 0.31250000000020822 0.12500000000041631 0 0.25 -0 0 0.31250000000020822 0.12500000000041631 0 0.43749999999913258 0 0 0.2403886547178353 0.24188814792673841 0 0.31250000000020822 0.12500000000041631 0 0.37500000000027761 0.25000000000055511 0 0.31250000000020822 0.12500000000041631 0 0.37500000000027761 0.25000000000055511 0 0.31250000000020822 0.12500000000041631 0 0.4287911518546233 0.15455445427966699 0 0.37500000000027761 0.25000000000055511 0 0.4287911518546233 0.15455445427966699 0 0.49457493289300231 0.26251703776555491 0 0.37500000000027761 0.25000000000055511 0 0.4287911518546233 0.15455445427966699 0 0.49457493289300231 0.26251703776555491 0 0.54475767668582953 0.1431838882066932 0 0.31250000000020822 0.12500000000041631 0 0.4287911518546233 0.15455445427966699 0 0.43749999999913258 0 0 0.4287911518546233 0.15455445427966699 0 0.43749999999913258 0 0 0.54475767668582953 0.1431838882066932 0 0.37499999999973488 0.43749999999986738 0 0.5 0.5 -0 0.43750000000006939 0.37500000000013878 0 0.37499999999973488 0.43749999999986738 0 0.5 0.5 -0 0.43750000000006939 0.37500000000013878 0 0.33819444444448321 0.33819444444456342 0 0.37499999999973488 0.43749999999986738 0 0.43750000000006939 0.37500000000013878 0 0.5 0.5 -0 0.43750000000006939 0.37500000000013878 0 0.49457493289300231 0.26251703776555491 0 0.37500000000027761 0.25000000000055511 0 0.43750000000006939 0.37500000000013878 0 0.37500000000027761 0.25000000000055511 0 0.43750000000006939 0.37500000000013878 0 0.37500000000027761 0.25000000000055511 0 0.33819444444448321 0.33819444444456342 0 0.2403886547178353 0.24188814792673841 0 0.33819444444448321 0.33819444444456342 0 0.24999999999960859 0.37499999999980432 0 0.2403886547178353 0.24188814792673841 0 0.37500000000027761 0.25000000000055511 0 0.33819444444448321 0.33819444444456342 0 0.33819444444448321 0.33819444444456342 0 0.37499999999973488 0.43749999999986738 0 0.24999999999960859 0.37499999999980432 0 0.37499999999973488 0.43749999999986738 0 0.24999999999960859 0.37499999999980432 0 0.37499999999973488 0.43749999999986738 0 0.24999999999960859 0.37499999999980432 0 0.26452443700674649 0.51563531581639865 0 0.14929124186975251 0.44582793568106382 0 0.24999999999960859 0.37499999999980432 0 0.26452443700674649 0.51563531581639865 0 0.14929124186975251 0.44582793568106382 0 0.24999999999960859 0.37499999999980432 0 0.1249999999997599 0.31249999999987998 0 0.2403886547178353 0.24188814792673841 0 0.24999999999960859 0.37499999999980432 0 0.1249999999997599 0.31249999999987998 0 0.24999999999960859 0.37499999999980432 0 0.1249999999997599 0.31249999999987998 0 0.1249999999997599 0.31249999999987998 0 0 0.25 0 0 0.43750000000034689 0 0.1008171452988615 0.18885703697250469 0 0.1249999999997599 0.31249999999987998 0 0 0.25 0 0.1249999999997599 0.31249999999987998 0 0 0.25 0 0.14929124186975251 0.44582793568106382 0 0 0.43750000000034689 0 0.13928587515912139 0.57339806105677438 0 0.14929124186975251 0.44582793568106382 0 0.1249999999997599 0.31249999999987998 0 0 0.43750000000034689 0 0 0.43750000000034689 0 0 0.62500000000069389 0 0.13928587515912139 0.57339806105677438 0 0 0.62500000000069389 0 0.13900789599611679 0.72618316107059999 0 0.13928587515912139 0.57339806105677438 0 0 0.62500000000069389 0 0.13900789599611679 0.72618316107059999 0 0 0.81250000000104083 0 0.13900789599611679 0.72618316107059999 0 0.13928587515912139 0.57339806105677438 0 0.27589467050686478 0.66058853156435704 0 0.13900789599611679 0.72618316107059999 0 0.27987960212930818 0.83442741470570525 0 0.27589467050686478 0.66058853156435704 0 0.13928587515912139 0.57339806105677438 0 0.26452443700674649 0.51563531581639865 0 0.27589467050686478 0.66058853156435704 0 0.14929124186975251 0.44582793568106382 0 0.13928587515912139 0.57339806105677438 0 0.26452443700674649 0.51563531581639865 0 0 1 0 0.12710107136012311 0.87094806618203435 0 0.1875000000005205 1 0 0 1 0 0 0.81250000000104083 0 0.12710107136012311 0.87094806618203435 0 0.13900789599611679 0.72618316107059999 0 0 0.81250000000104083 0 0.12710107136012311 0.87094806618203435 0 0.13900789599611679 0.72618316107059999 0 0.12710107136012311 0.87094806618203435 0 0.27987960212930818 0.83442741470570525 0 0.12710107136012311 0.87094806618203435 0 0.1875000000005205 1 0 0.27987960212930818 0.83442741470570525 0 0.27987960212930818 0.83442741470570525 0 0.44927105396715372 0.85565124085155886 0 0.37500000000069389 1 0 0.1875000000005205 1 0 0.27987960212930818 0.83442741470570525 0 0.37500000000069389 1 0 0.27987960212930818 0.83442741470570525 0 0.44927105396715372 0.85565124085155886 0 0.38136204680495073 0.74038592213831234 0 0.44927105396715372 0.85565124085155886 0 0.38136204680495073 0.74038592213831234 0 0.50145856933078625 0.73674663046504862 0 0.44927105396715372 0.85565124085155886 0 0.37500000000069389 1 0 0.56250000000086742 1 0 0.26452443700674649 0.51563531581639865 0 0.27589467050686478 0.66058853156435704 0 0.4139414069912184 0.60563252640100373 0 0.37499999999973488 0.43749999999986738 0 0.26452443700674649 0.51563531581639865 0 0.4139414069912184 0.60563252640100373 0 0.27987960212930818 0.83442741470570525 0 0.27589467050686478 0.66058853156435704 0 0.38136204680495073 0.74038592213831234 0 0.27589467050686478 0.66058853156435704 0 0.38136204680495073 0.74038592213831234 0 0.4139414069912184 0.60563252640100373 0 0.38136204680495073 0.74038592213831234 0 0.4139414069912184 0.60563252640100373 0 0.50145856933078625 0.73674663046504862 0 0.4139414069912184 0.60563252640100373 0 0.50145856933078625 0.73674663046504862 0 0.5625 0.625 0 0.37499999999973488 0.43749999999986738 0 0.4139414069912184 0.60563252640100373 0 0.5 0.5 -0 0.4139414069912184 0.60563252640100373 0 0.5 0.5 -0 0.5625 0.625 0 0.5 0.5 -0 0.5625 0.625 0 0.63236534182377013 0.50296756406332266 0 0.5 0.5 -0 0.5625 0.625 0 0.50145856933078625 0.73674663046504862 0 0.5625 0.625 0 0.625 0.75 0 0.5625 0.625 0 0.625 0.75 0 0.71259747807844409 0.63846691315701831 0 0.625 0.75 0 0.73857795170433571 0.77736788564284653 0 0.5625 0.625 0 0.71259747807844409 0.63846691315701831 0 0.625 0.75 0 0.71259747807844409 0.63846691315701831 0 0.63236534182377013 0.50296756406332266 0 0.75338430262320943 0.49294443423175599 0 0.5625 0.625 0 0.71259747807844409 0.63846691315701831 0 0.63236534182377013 0.50296756406332266 0 0.56250000000086742 1 0 0.56777512057187585 0.8470224641095303 0 0.6875 0.875 0 0.44927105396715372 0.85565124085155886 0 0.56250000000086742 1 0 0.56777512057187585 0.8470224641095303 0 0.44927105396715372 0.85565124085155886 0 0.50145856933078625 0.73674663046504862 0 0.56777512057187585 0.8470224641095303 0 0.50145856933078625 0.73674663046504862 0 0.56777512057187585 0.8470224641095303 0 0.625 0.75 0 0.625 0.75 0 0.73857795170433571 0.77736788564284653 0 0.6875 0.875 0 0.73857795170433571 0.77736788564284653 0 0.6875 0.875 0 0.80552984491000901 0.88711122872127413 0 0.625 0.75 0 0.6875 0.875 0 0.56777512057187585 0.8470224641095303 0 0.625 0.75 0 0.6875 0.875 0 0.56250000000086742 1 0 0.6875 0.875 0 0.75 1 0 0.6875 0.875 0 0.75 1 0 0.80552984491000901 0.88711122872127413 0 0.6875 0.875 0 0.75 1 0 0.75 1 0 0.80552984491000901 0.88711122872127413 0 0.875 1 0 0.80552984491000901 0.88711122872127413 0 0.90637953422180084 0.90208583328057301 0 0.875 1 0 0.80552984491000901 0.88711122872127413 0 0.85787927391517405 0.753532520882502 0 0.90637953422180084 0.90208583328057301 0 0.73857795170433571 0.77736788564284653 0 0.80552984491000901 0.88711122872127413 0 0.85787927391517405 0.753532520882502 0 0.85787927391517405 0.753532520882502 0 1 0.83333333333356463 0 1 0.66666666666736052 0 0.85787927391517405 0.753532520882502 0 1 0.83333333333356463 0 0.90637953422180084 0.90208583328057301 0 1 0.83333333333356463 0 0.90637953422180084 0.90208583328057301 0 1 1 0 0.90637953422180084 0.90208583328057301 0 1 1 0 0.875 1 0 0.71259747807844409 0.63846691315701831 0 0.86127466977819722 0.57948076978797636 0 0.75338430262320943 0.49294443423175599 0 0.71259747807844409 0.63846691315701831 0 0.85787927391517405 0.753532520882502 0 0.86127466977819722 0.57948076978797636 0 0.71259747807844409 0.63846691315701831 0 0.73857795170433571 0.77736788564284653 0 0.85787927391517405 0.753532520882502 0 0.85787927391517405 0.753532520882502 0 0.86127466977819722 0.57948076978797636 0 1 0.66666666666736052 0 0.86127466977819722 0.57948076978797636 0 1 0.66666666666736052 0 1 0.50000000000138767 0 1 0.50000000000138767 0 0.86569408477091048 0.40983673916766611 0 1 0.33333333333448978 0 0.86127466977819722 0.57948076978797636 0 1 0.50000000000138767 0 0.86569408477091048 0.40983673916766611 0 0.86127466977819722 0.57948076978797636 0 0.75338430262320943 0.49294443423175599 0 0.86569408477091048 0.40983673916766611 0 0.75338430262320943 0.49294443423175599 0 0.86569408477091048 0.40983673916766611 0 0.71826039492840632 0.34564020717216182 0 0.86087286690217635 0.25206523597959418 0 0.71508993406183785 0.15715956854777599 0 0.71826039492840632 0.34564020717216182 0 0.86569408477091048 0.40983673916766611 0 0.86087286690217635 0.25206523597959418 0 0.71826039492840632 0.34564020717216182 0 0.86087286690217635 0.25206523597959418 0 1 0.33333333333448978 0 1 0.16666666666736049 0 0.86569408477091048 0.40983673916766611 0 0.86087286690217635 0.25206523597959418 0 1 0.33333333333448978 0 0.86087286690217635 0.25206523597959418 0 1 0.16666666666736049 0 0.87698901648812122 0.1160638338657984 0 1 0 0 0.87698901648812122 0.1160638338657984 0 0.81249999999947953 0 0 1 0.16666666666736049 0 1 0 0 0.87698901648812122 0.1160638338657984 0 0.87698901648812122 0.1160638338657984 0 0.81249999999947953 0 0 0.71508993406183785 0.15715956854777599 0 0.86087286690217635 0.25206523597959418 0 0.87698901648812122 0.1160638338657984 0 0.71508993406183785 0.15715956854777599 0 0.71508993406183785 0.15715956854777599 0 0.62499999999895905 0 0 0.54475767668582953 0.1431838882066932 0 0.81249999999947953 0 0 0.71508993406183785 0.15715956854777599 0 0.62499999999895905 0 0 0.43749999999913258 0 0 0.62499999999895905 0 0 0.54475767668582953 0.1431838882066932 0 0.71508993406183785 0.15715956854777599 0 0.54475767668582953 0.1431838882066932 0 0.61108462585082757 0.25750599582343231 0 0.49457493289300231 0.26251703776555491 0 0.54475767668582953 0.1431838882066932 0 0.61108462585082757 0.25750599582343231 0 0.49457493289300231 0.26251703776555491 0 0.61108462585082757 0.25750599582343231 0 0.56986707178436635 0.37762093650871992 0 0.43750000000006939 0.37500000000013878 0 0.49457493289300231 0.26251703776555491 0 0.56986707178436635 0.37762093650871992 0 0.43750000000006939 0.37500000000013878 0 0.5 0.5 -0 0.56986707178436635 0.37762093650871992 0 0.5 0.5 -0 0.63236534182377013 0.50296756406332266 0 0.56986707178436635 0.37762093650871992 0 0.63236534182377013 0.50296756406332266 0 0.75338430262320943 0.49294443423175599 0 0.71826039492840632 0.34564020717216182 0 0.63236534182377013 0.50296756406332266 0 0.56986707178436635 0.37762093650871992 0 0.71826039492840632 0.34564020717216182 0 0.71508993406183785 0.15715956854777599 0 0.61108462585082757 0.25750599582343231 0 0.71826039492840632 0.34564020717216182 0 0.61108462585082757 0.25750599582343231 0 0.56986707178436635 0.37762093650871992 0 0.71826039492840632 0.34564020717216182 0 
</DataArray>
</Points>
<Cells>
<DataArray type="UInt32" Name="connectivity" format="ascii">
0 1 2 3 4 5 6 7 8 9 10 11 12 13 14 15 16 17 18 19 20 21 22 23 24 25 26 27 28 29 30 31 32 33 34 35 36 37 38 39 40 41 42 43 44 45 46 47 48 49 50 51 52 53 54 55 56 57 58 59 60 61 62 63 64 65 66 67 68 69 70 71 72 73 74 75 76 77 78 79 80 81 82 83 84 85 86 87 88 89 90 91 92 93 94 95 96 97 98 99 100 101 102 103 104 105 106 107 108 109 110 111 112 113 114 115 116 117 118 119 120 121 122 123 124 125 126 127 128 129 130 131 132 133 134 135 136 137 138 139 140 141 142 143 144 145 146 147 148 149 150 151 152 153 154 155 156 157 158 159 160 161 162 163 164 165 166 167 168 169 170 171 172 173 174 175 176 177 178 179 180 181 182 183 184 185 186 187 188 189 190 191 192 193 194 195 196 197 198 199 200 201 202 203 204 205 206 207 208 209 210 211 212 213 214 215 216 217 218 219 220 221 222 223 224 225 226 227 228 229 230 231 232 233 234 235 236 237 238 239 240 241 242 243 244 245 246 247 248 249 250 251 252 253 254 255 256 257 258 259 260 261 262 263 264 265 266 267 268 269 270 271 272 273 274 275 276 277 278 279 280 281 282 283 284 285 286 287 288 289 290 291 292 293 294 295 296 297 298 299 300 301 302 303 304 305 306 307 308 309 310 311 312 313 314 315 316 317 318 319 320 321 322 323 324 325 326 327 328 329 330 331 332 333 334 335 336 337 338 339 340 341 342 343 344 345 346 347 348 349 350 351 352 353 354 355 356 357 358 359 
</DataArray>
<DataArray type="UInt32" Name="offsets" format="ascii">
3 6 9 12 15 18 21 24 27 30 33 35 38 41 43 46 49 52 55 58 60 63 66 68 71 73 76 79 82 85 87 90 93 96 99 101 104 107 109 112 115 118 121 124 127 130 133 136 139 142 145 148 151 154 157 160 163 166 169 172 175 178 181 184 187 190 193 195 198 200 203 206 209 212 215 218 221 224 227 230 232 235 238 241 243 246 249 252 255 258 261 264 267 270 273 276 279 282 285 288 291 294 297 300 303 306 309 312 315 318 321 324 327 330 333 336 339 342 345 348 351 354 357 360 
</DataArray>
<DataArray type="UInt32" Name="types" format="ascii">
5 5 5 5 5 5 5 5 5 5 5 3 5 5 3 5 5 5 5 5 3 5 5 3 5 3 5 5 5 5 3 5 5 5 5 3 5 5 3 5 5 5 5 5 5 5 5 5 5 5 5 5 5 5 5 5 5 5 5 5 5 5 5 5 5 5 5 3 5 3 5 5 5 5 5 5 5 5 5 5 3 5 5 5 3 5 5 5 5 5 5 5 5 5 5 5 5 5 5 5 5 5 5 5 5 5 5 5 5 5 5 5 5 5 5 5 5 5 5 5 5 5 5 5 
</DataArray>
</Cells>
<PointData Scalars="" Vectors="displacement," Tensors="">
<DataArray type="Float64" Name="displacement" NumberOfComponents="3" format="ascii">
1.202932058141938e-08 -0.021363828028244245 0 -0.00019005793687864204 -0.02112840004760334 0 -5.0738300925856998e-09 -0.021306130312415118 0 1.202932058141938e-08 -0.021363828028244245 0 -0.00019005793687864204 -0.02112840004760334 0 0.00013625867965596611 -0.020939346421662321 0 -5.0738300925856998e-09 -0.021306130312415118 0 -0.00062414601702041948 -0.020979545306551231 0 -2.5446828648059639e-07 -0.021190043089507941 0 -0.00019005793687864204 -0.02112840004760334 0 -5.0738300925856998e-09 -0.021306130312415118 0 -0.00062414601702041948 -0.020979545306551231 0 -0.00019005793687864204 -0.02112840004760334 0 -0.00062414601702041948 -0.020979545306551231 0 -0.00058792914674001451 -0.020482536689196442 0 -0.00062414601702041948 -0.020979545306551231 0 -0.00190794359424168 -0.019849087070127901 0 -0.0019519082699417688 -0.020535861108212254 0 -0.00062414601702041948 -0.020979545306551231 0 -0.00190794359424168 -0.019849087070127901 0 -0.00058792914674001451 -0.020482536689196442 0 -0.00190794359424168 -0.019849087070127901 0 -0.00058792914674001451 -0.020482536689196442 0 -0.0011052917126754419 -0.01912255563884915 0 0.00013625867965596611 -0.020939346421662321 0 -0.00058792914674001451 -0.020482536689196442 0 6.297440368842493e-05 -0.019897121292968774 0 -0.00058792914674001451 -0.020482536689196442 0 6.297440368842493e-05 -0.019897121292968774 0 -0.0011052917126754419 -0.01912255563884915 0 -0.00019005793687864204 -0.02112840004760334 0 0.00013625867965596611 -0.020939346421662321 0 -0.00058792914674001451 -0.020482536689196442 0 0.0029633722135899653 -0.014374343523896192 0 0.0016187795119735557 -0.013427219118849837 0 0.00582510943194736 -0.008790235395736333 0 0.0043400019041646412 -0.0078145849538185652 0 0.0051524880700612547 -0.0063876236349407201 0 -0.00190794359424168 -0.019849087070127901 0 -0.0011052917126754419 -0.01912255563884915 0 -0.002606958710587783 -0.018428483433307091 0 0.0016187795119735557 -0.013427219118849837 0 0.00037846444864613843 -0.012753323289932622 0 0.0043400019041646412 -0.0078145849538185652 0 0.0037053392174200036 -0.0062880615415742769 0 0.0034121357612460438 -0.0068076783218529342 0 0.0037053392174200036 -0.0062880615415742769 0 0.0027413009281888586 -0.0052165592095817139 0 0.0034121357612460438 -0.0068076783218529342 0 0.0037053392174200036 -0.0062880615415742769 0 0.0027413009281888586 -0.0052165592095817139 0 0.0032270890844383155 -0.0048702277027605429 0 0.0043400019041646412 -0.0078145849538185652 0 0.0037053392174200036 -0.0062880615415742769 0 0.0051524880700612547 -0.0063876236349407201 0 0.0037053392174200036 -0.0062880615415742769 0 0.0051524880700612547 -0.0063876236349407201 0 0.0032270890844383155 -0.0048702277027605429 0 -0.0030089365464575639 -0.017878985392477571 0 -0.001388577117146619 -0.013145168181711183 0 -0.0036313397691851786 -0.018137692135783621 0 -0.0038937160619073258 -0.018809611898430709 0 -0.0043880712921483388 -0.017800540676735629 0 -0.0036313397691851786 -0.018137692135783621 0 -0.0030929618121387646 -0.018937279299125056 0 -0.0038937160619073258 -0.018809611898430709 0 -0.00049856949758177681 -0.011359579397082207 0 -0.001388577117146619 -0.013145168181711183 0 0.0024394152552500645 -0.0055787981366328251 0 0.0027413009281888586 -0.0052165592095817139 0 0.0034121357612460438 -0.0068076783218529342 0 -0.00049856949758177681 -0.011359579397082207 0 0.00037846444864613843 -0.012753323289932622 0 -0.0036313397691851786 -0.018137692135783621 0 -0.002606958710587783 -0.018428483433307091 0 -0.0030929618121387646 -0.018937279299125056 0 -0.00190794359424168 -0.019849087070127901 0 -0.0030929618121387646 -0.018937279299125056 0 -0.0030850214389631665 -0.019848051078275118 0 -0.00190794359424168 -0.019849087070127901 0 -0.002606958710587783 -0.018428483433307091 0 -0.0030929618121387646 -0.018937279299125056 0 -0.0030929618121387646 -0.018937279299125056 0 -0.0038937160619073258 -0.018809611898430709 0 -0.0030850214389631665 -0.019848051078275118 0 -0.0030089365464575639 -0.017878985392477571 0 -0.0015907079861912589 -0.017852255277152757 0 -0.0010943390918675738 -0.015365187370460599 0 -0.00037570822193066865 -0.016284624377403099 0 -0.0011120544554207455 -0.016378794094054228 0 -0.00046783561494168622 -0.017105569061381089 0 -0.00037570822193066865 -0.016284624377403099 0 -0.0011120544554207455 -0.016378794094054228 0 -0.00046783561494168622 -0.017105569061381089 0 -0.00037570822193066865 -0.016284624377403099 0 5.2120096287653234e-05 -0.017320086691627178 0 -0.00190794359424168 -0.019849087070127901 0 -0.0030850214389631665 -0.019848051078275118 0 -0.0019519082699417688 -0.020535861108212254 0 -0.0015907079861912589 -0.017852255277152757 0 -0.0009952404822039379 -0.018991923993351437 0 5.2120096287653234e-05 -0.017320086691627178 0 3.7724808733718435e-08 -0.017445615300742099 0 -5.076951601922176e-08 -0.017551433349153558 0 -0.00062414601702041948 -0.020979545306551231 0 -0.0019519082699417688 -0.020535861108212254 0 -2.5446828648059639e-07 -0.021190043089507941 0 -0.0009952404822039379 -0.018991923993351437 0 3.3306536964398085e-05 -0.019275567663700425 0 -0.00046783561494168622 -0.017105569061381089 0 -5.076951601922176e-08 -0.017551433349153558 0 -0.00069090698134809038 -0.017153590167379537 0 -0.00046783561494168622 -0.017105569061381089 0 5.2120096287653234e-05 -0.017320086691627178 0 -5.076951601922176e-08 -0.017551433349153558 0 -5.076951601922176e-08 -0.017551433349153558 0 -1.0862149819194228e-07 -0.017411438610124459 0 -0.00069090698134809038 -0.017153590167379537 0 -1.0862149819194228e-07 -0.017411438610124459 0 -0.00090024245989784289 -0.01715942258441893 0 -0.00069090698134809038 -0.017153590167379537 0 -1.0862149819194228e-07 -0.017411438610124459 0 -0.00090024245989784289 -0.01715942258441893 0 -1.3022320487569926e-07 -0.017407610937282093 0 -0.00090024245989784289 -0.01715942258441893 0 -0.00069090698134809038 -0.017153590167379537 0 -0.0016125077309263993 -0.01639308005255782 0 -0.00090024245989784289 -0.01715942258441893 0 -0.0020096207163064106 -0.016519717454867914 0 -0.0016125077309263993 -0.01639308005255782 0 -0.00069090698134809038 -0.017153590167379537 0 -0.0011120544554207455 -0.016378794094054228 0 -0.0016125077309263993 -0.01639308005255782 0 -0.00046783561494168622 -0.017105569061381089 0 -0.00069090698134809038 -0.017153590167379537 0 -0.0011120544554207455 -0.016378794094054228 0 -2.0375525340305169e-07 -0.017508077022077857 0 -0.00099337192129532741 -0.017248556097941944 0 -0.0018394002365614496 -0.017078030742112719 0 -2.0375525340305169e-07 -0.017508077022077857 0 -1.3022320487569926e-07 -0.017407610937282093 0 -0.00099337192129532741 -0.017248556097941944 0 -0.00090024245989784289 -0.01715942258441893 0 -1.3022320487569926e-07 -0.017407610937282093 0 -0.00099337192129532741 -0.017248556097941944 0 -0.00090024245989784289 -0.01715942258441893 0 -0.00099337192129532741 -0.017248556097941944 0 -0.0020096207163064106 -0.016519717454867914 0 -0.00099337192129532741 -0.017248556097941944 0 -0.0018394002365614496 -0.017078030742112719 0 -0.0020096207163064106 -0.016519717454867914 0 -0.0020096207163064106 -0.016519717454867914 0 -0.0031533117240070815 -0.015374983681898553 0 -0.0033891918813509772 -0.016072576878460764 0 -0.0018394002365614496 -0.017078030742112719 0 -0.0020096207163064106 -0.016519717454867914 0 -0.0033891918813509772 -0.016072576878460764 0 -0.0020096207163064106 -0.016519717454867914 0 -0.0031533117240070815 -0.015374983681898553 0 -0.0023878380797700419 -0.015716926075991483 0 -0.0031533117240070815 -0.015374983681898553 0 -0.0023878380797700419 -0.015716926075991483 0 -0.0030052456269195386 -0.014766151724298161 0 -0.0031533117240070815 -0.015374983681898553 0 -0.0033891918813509772 -0.016072576878460764 0 -0.0046078635505328461 -0.014733692633678257 0 -0.0011120544554207455 -0.016378794094054228 0 -0.0016125077309263993 -0.01639308005255782 0 -0.0022227105706878227 -0.015267617323177466 0 -0.0010943390918675738 -0.015365187370460599 0 -0.0011120544554207455 -0.016378794094054228 0 -0.0022227105706878227 -0.015267617323177466 0 -0.0020096207163064106 -0.016519717454867914 0 -0.0016125077309263993 -0.01639308005255782 0 -0.0023878380797700419 -0.015716926075991483 0 -0.0016125077309263993 -0.01639308005255782 0 -0.0023878380797700419 -0.015716926075991483 0 -0.0022227105706878227 -0.015267617323177466 0 -0.0023878380797700419 -0.015716926075991483 0 -0.0022227105706878227 -0.015267617323177466 0 -0.0030052456269195386 -0.014766151724298161 0 -0.0022227105706878227 -0.015267617323177466 0 -0.0030052456269195386 -0.014766151724298161 0 -0.0031071009827878032 -0.014077774627805297 0 -0.0010943390918675738 -0.015365187370460599 0 -0.0022227105706878227 -0.015267617323177466 0 -0.0022329083322466018 -0.014394152954667063 0 -0.0022227105706878227 -0.015267617323177466 0 -0.0022329083322466018 -0.014394152954667063 0 -0.0031071009827878032 -0.014077774627805297 0 0.0023372800452167854 -0.0047672211016452489 0 0.0021443825743535515 -0.0040613625771883013 0 0.0017022389317847102 -0.003497489217808136 0 -0.001388577117146619 -0.013145168181711183 0 -9.4525337112455064e-05 -0.0081149253547619614 0 -0.0030052456269195386 -0.014766151724298161 0 -0.0031071009827878032 -0.014077774627805297 0 -0.0035676213470227812 -0.013908149070417399 0 -9.4525337112455064e-05 -0.0081149253547619614 0 -0.0011278707418352406 -0.008830996022658251 0 0.0012866751367278241 -0.0025246870752739107 0 0.001522555418024551 -0.0032412404491469443 0 0.0010375187274029923 -0.002209937453748396 0 0.0021443825743535515 -0.0040613625771883013 0 0.0012866751367278241 -0.0025246870752739107 0 0.001522555418024551 -0.0032412404491469443 0 0.0012866751367278241 -0.0025246870752739107 0 0.0017022389317847102 -0.003497489217808136 0 0.0011278272779984921 -0.0022373818387872047 0 0.0021443825743535515 -0.0040613625771883013 0 0.0012866751367278241 -0.0025246870752739107 0 0.0017022389317847102 -0.003497489217808136 0 -0.0046078635505328461 -0.014733692633678257 0 -0.0037485688684797121 -0.01447783749173733 0 -0.0045253565090026338 -0.013530213858874691 0 -0.0031533117240070815 -0.015374983681898553 0 -0.0046078635505328461 -0.014733692633678257 0 -0.0037485688684797121 -0.01447783749173733 0 -0.0031533117240070815 -0.015374983681898553 0 -0.0030052456269195386 -0.014766151724298161 0 -0.0037485688684797121 -0.01447783749173733 0 -0.0030052456269195386 -0.014766151724298161 0 -0.0037485688684797121 -0.01447783749173733 0 -0.0035676213470227812 -0.013908149070417399 0 0.001522555418024551 -0.0032412404491469443 0 0.0010375187274029923 -0.002209937453748396 0 0.0011427456512393668 -0.0026805646041249353 0 0.0010375187274029923 -0.002209937453748396 0 0.0011427456512393668 -0.0026805646041249353 0 0.00056059259425142764 -0.0014444270450804659 0 -0.0011278707418352406 -0.008830996022658251 0 -0.0016551401137482817 -0.0080352448404583075 0 -0.0037485688684797121 -0.01447783749173733 0 -0.0035676213470227812 -0.013908149070417399 0 -0.0045253565090026338 -0.013530213858874691 0 -0.0046078635505328461 -0.014733692633678257 0 -0.0045253565090026338 -0.013530213858874691 0 -0.0053928280318362026 -0.013366852866803848 0 0.0011427456512393668 -0.0026805646041249353 0 8.5776814439725743e-05 -0.0019230880815628805 0 0.00056059259425142764 -0.0014444270450804659 0 -0.0016551401137482817 -0.0080352448404583075 0 -0.0026915285687061567 -0.0076700648912024858 0 8.5776814439725743e-05 -0.0019230880815628805 0 0.00056059259425142764 -0.0014444270450804659 0 -0.00016721549458235881 -0.00077169119689377973 0 0.00056059259425142764 -0.0014444270450804659 0 0.00019554046148948136 -0.0005580160412712394 0 -0.00016721549458235881 -0.00077169119689377973 0 0.00056059259425142764 -0.0014444270450804659 0 0.00055909507102003004 -0.0010735676378103561 0 0.00019554046148948136 -0.0005580160412712394 0 0.0010375187274029923 -0.002209937453748396 0 0.00056059259425142764 -0.0014444270450804659 0 0.00055909507102003004 -0.0010735676378103561 0 0.00055909507102003004 -0.0010735676378103561 0 6.4370156983236041e-08 -2.704194305475971e-08 0 6.4315444621373378e-08 -4.5043590830707259e-08 0 0.00055909507102003004 -0.0010735676378103561 0 6.4370156983236041e-08 -2.704194305475971e-08 0 0.00019554046148948136 -0.0005580160412712394 0 6.4370156983236041e-08 -2.704194305475971e-08 0 0.00019554046148948136 -0.0005580160412712394 0 -6.173078604667226e-08 -1.2512478287266185e-08 0 0.00019554046148948136 -0.0005580160412712394 0 -6.173078604667226e-08 -1.2512478287266185e-08 0 -0.00016721549458235881 -0.00077169119689377973 0 0.0012866751367278241 -0.0025246870752739107 0 0.00061039891936752531 -0.0011631797332065951 0 0.0011278272779984921 -0.0022373818387872047 0 0.0012866751367278241 -0.0025246870752739107 0 0.00055909507102003004 -0.0010735676378103561 0 0.00061039891936752531 -0.0011631797332065951 0 0.0012866751367278241 -0.0025246870752739107 0 0.0010375187274029923 -0.002209937453748396 0 0.00055909507102003004 -0.0010735676378103561 0 0.00055909507102003004 -0.0010735676378103561 0 0.00061039891936752531 -0.0011631797332065951 0 6.4315444621373378e-08 -4.5043590830707259e-08 0 0.00061039891936752531 -0.0011631797332065951 0 6.4315444621373378e-08 -4.5043590830707259e-08 0 7.1627919752730382e-08 -4.5894535050771369e-08 0 7.1627919752730382e-08 -4.5894535050771369e-08 0 0.000627518143069514 -0.00116431611995194 0 9.4096920636222805e-08 -4.813628345986536e-08 0 0.00061039891936752531 -0.0011631797332065951 0 7.1627919752730382e-08 -4.5894535050771369e-08 0 0.000627518143069514 -0.00116431611995194 0 0.00061039891936752531 -0.0011631797332065951 0 0.0011278272779984921 -0.0022373818387872047 0 0.000627518143069514 -0.00116431611995194 0 0.0011278272779984921 -0.0022373818387872047 0 0.000627518143069514 -0.00116431611995194 0 0.001380568322164045 -0.0026774248583350071 0 0.00081617898539565567 -0.0012076358945854215 0 0.0020583039716477003 -0.002912366680924274 0 0.001380568322164045 -0.0026774248583350071 0 0.000627518143069514 -0.00116431611995194 0 0.00081617898539565567 -0.0012076358945854215 0 0.001380568322164045 -0.0026774248583350071 0 0.00081617898539565567 -0.0012076358945854215 0 9.4096920636222805e-08 -4.813628345986536e-08 0 7.6844751072245195e-08 -1.8018501870717111e-08 0 0.000627518143069514 -0.00116431611995194 0 0.00081617898539565567 -0.0012076358945854215 0 9.4096920636222805e-08 -4.813628345986536e-08 0 0.00081617898539565567 -0.0012076358945854215 0 7.6844751072245195e-08 -1.8018501870717111e-08 0 0.0010203717395630598 -0.0011407125771225445 0 3.1706590882752107e-07 -1.1921781317899366e-07 0 0.0010203717395630598 -0.0011407125771225445 0 0.0024841108078665582 -0.0022562152285767658 0 7.6844751072245195e-08 -1.8018501870717111e-08 0 3.1706590882752107e-07 -1.1921781317899366e-07 0 0.0010203717395630598 -0.0011407125771225445 0 0.0010203717395630598 -0.0011407125771225445 0 0.0024841108078665582 -0.0022562152285767658 0 0.0020583039716477003 -0.002912366680924274 0 0.00081617898539565567 -0.0012076358945854215 0 0.0010203717395630598 -0.0011407125771225445 0 0.0020583039716477003 -0.002912366680924274 0 0.0020583039716477003 -0.002912366680924274 0 0.0040184580782437404 -0.0042542934998443501 0 0.0032270890844383155 -0.0048702277027605429 0 0.0024841108078665582 -0.0022562152285767658 0 0.0020583039716477003 -0.002912366680924274 0 0.0040184580782437404 -0.0042542934998443501 0 0.0051524880700612547 -0.0063876236349407201 0 0.0040184580782437404 -0.0042542934998443501 0 0.0032270890844383155 -0.0048702277027605429 0 0.0020583039716477003 -0.002912366680924274 0 0.0032270890844383155 -0.0048702277027605429 0 0.0022159872057897177 -0.0039165354729203961 0 0.0027413009281888586 -0.0052165592095817139 0 0.0032270890844383155 -0.0048702277027605429 0 0.0022159872057897177 -0.0039165354729203961 0 0.0027413009281888586 -0.0052165592095817139 0 0.0022159872057897177 -0.0039165354729203961 0 0.001983089030791977 -0.0042341506414416809 0 0.0024394152552500645 -0.0055787981366328251 0 0.0027413009281888586 -0.0052165592095817139 0 0.001983089030791977 -0.0042341506414416809 0 0.0024394152552500645 -0.0055787981366328251 0 0.0023372800452167854 -0.0047672211016452489 0 0.001983089030791977 -0.0042341506414416809 0 0.0023372800452167854 -0.0047672211016452489 0 0.0017022389317847102 -0.003497489217808136 0 0.001983089030791977 -0.0042341506414416809 0 0.0017022389317847102 -0.003497489217808136 0 0.0011278272779984921 -0.0022373818387872047 0 0.001380568322164045 -0.0026774248583350071 0 0.0017022389317847102 -0.003497489217808136 0 0.001983089030791977 -0.0042341506414416809 0 0.001380568322164045 -0.0026774248583350071 0 0.0020583039716477003 -0.002912366680924274 0 0.0022159872057897177 -0.0039165354729203961 0 0.001380568322164045 -0.0026774248583350071 0 0.0022159872057897177 -0.0039165354729203961 0 0.001983089030791977 -0.0042341506414416809 0 0.001380568322164045 -0.0026774248583350071 0 
</DataArray>
</PointData>
<CellData Scalars="region_id,cross_section_updated," Vectors="" Tensors="stress,">
<DataArray type="Float64" Name="region_id" format="ascii">
11 11 11 11 11 11 11 11 11 11 11 5 11 11 5 11 11 11 11 11 6 11 11 5 11 5 11 11 11 11 6 11 11 11 11 6 11 11 6 11 11 11 11 11 11 11 11 11 11 11 11 11 11 11 11 11 11 11 11 11 11 11 11 11 11 11 11 4 11 4 11 11 11 11 11 11 11 11 11 11 4 11 11 11 4 11 11 11 11 11 11 11 11 11 11 11 11 11 11 11 11 11 11 11 11 11 11 11 11 11 11 11 11 11 11 11 11 11 11 11 11 11 11 11 
</DataArray>
<DataArray type="Float64" Name="stress" NumberOfComponents="9" format="ascii">
-2519139.8752124533 927119.35610029101 0 927119.35610029101 -347359.44999700785 0 0 0 -716624.8313023597 1071903.4265635386 53511.717681325972 0 53511.717681325972 -272203.96890208125 0 0 0 199924.86441536993 -7055990.1324755028 1059660.915783301 0 1059660.915783301 -1361385.7420144975 0 0 0 -2104343.9686224908 -4268704.0205798 -411895.7700079307 0 -411895.7700079307 -315150.68272131681 0 0 0 -1145963.675825268 -3476940.6200163346 1048294.9209558368 0 1048294.9209558368 -701073.88714607805 0 0 0 -1044503.6267906111 -5768448.5653162301 -952205.93139415979 0 -952205.93139415979 386715.84481757879 0 0 0 -1345433.1801246703 -7025765.6690754145 43825.046955246478 0 43825.046955246478 -606138.50962513685 0 0 0 -1907976.0446751416 -3624521.6666661315 705629.42706409842 0 705629.42706409842 -892264.17682753503 0 0 0 -1129196.4608734138 -830084.28702170402 866431.20589198917 0 866431.20589198917 -614175.39629971981 0 0 0 -361064.92083035409 -3493126.3048033491 1102212.0899535492 0 1102212.0899535492 -148020.17455504835 0 0 0 -910286.61983960867 -2945976.953879647 494250.24530304968 0 494250.24530304968 -162604.11013807356 0 0 0 -777145.26600442827 4006.9530343695151 3005.0387116934335 0 3005.0387116934335 -4004.1385418155987 0 0 0 0.70362313847863334 -3745481.1801583702 1090690.4535139762 0 1090690.4535139762 242961.03576750308 0 0 0 -875630.03609771747 -5415496.4012870714 330704.582309708 0 330704.582309708 -1501738.7421673238 0 0 0 -1729308.7858636007 4098.5865714184802 3073.9054423736898 0 3073.9054423736898 -4098.0361549928984 0 0 0 0.13760410639588372 -4225442.9747877866 2925963.7802288178 0 2925963.7802288178 414511.73975796998 0 0 0 -952732.80875745416 -5216510.6637491658 2886747.8119859472 0 2886747.8119859472 331181.21389887482 0 0 0 -1221332.362462569 -4727039.0916605927 2560182.0800260846 0 2560182.0800260846 915553.51993587986 0 0 0 -952871.39293117449 -3095619.910675304 1298264.99606454 0 1298264.99606454 423397.93649786711 0 0 0 -668055.4935443569 -5547947.8847184079 1083448.3991787471 0 1083448.3991787471 -419429.01868276019 0 0 0 -1491844.2258502925 -85.428371849518953 287.73240288895431 0 287.73240288895431 3255.7101091268196 0 0 0 792.57043431932561 -2198837.5811071917 1412017.4264522046 0 1412017.4264522046 -2637405.5430496931 0 0 0 -1209060.7810392305 -4171947.7295241803 705331.13884229586 0 705331.13884229586 -3491040.545050621 0 0 0 -1915747.0686437041 4570.0853749371199 3428.9918196931494 0 3428.9918196931494 -4592.9269474382945 0 0 0 -5.7103931252938764 -4731191.1099975146 3081555.6778853945 0 3081555.6778853945 1999814.4639667533 0 0 0 -682844.16150768474 4325.5962132758459 3243.5858437688466 0 3243.5858437688466 -4315.8147318585679 0 0 0 2.4453703543194933 -4346154.7850198373 837253.91620568931 0 837253.91620568931 -3673954.434379071 0 0 0 -2005027.3048497215 -4690206.5191438571 580056.17567897588 0 580056.17567897588 -2327439.2705176175 0 0 0 -1754411.4474153593 -6222378.8398160636 1257708.3044308368 0 1257708.3044308368 -3494263.5697571635 0 0 0 -2429160.6023933142 -4471306.1688793749 981473.96977384388 0 981473.96977384388 -3838540.9598733634 0 0 0 -2077461.7821881771 -235.46035901228333 356.73942741414157 0 356.73942741414157 3264.3620759668374 0 0 0 757.22542923863875 -4564764.3807365969 1285664.9943461716 0 1285664.9943461716 -3129141.9525073469 0 0 0 -1923476.5833109841 -3659835.2780821174 876500.20958128572 0 876500.20958128572 -2723020.6500224471 0 0 0 -1595713.9820261449 -1900492.9032768384 1849688.2048354559 0 1849688.2048354559 -516461.36140567064 0 0 0 -604238.56617062539 -5942574.2637706976 -1116156.903027162 0 -1116156.903027162 -2411912.3748045713 0 0 0 -2088621.659643827 -55.136313693779812 238.95334674531523 0 238.95334674531523 3219.3789314323803 0 0 0 791.06065443465013 274528.77809377015 514375.34624773264 0 514375.34624773264 -510477.52715283632 0 0 0 -58987.187264762819 -12487969.854424579 -1882365.4132453948 0 -1882365.4132453948 -1130283.1631149426 0 0 0 -3404563.2543848809 699.72700193347282 -264.58606157276472 0 -264.58606157276472 3554.4206949451218 0 0 0 1063.5369242196484 -3683753.8534560353 403502.49497028627 0 403502.49497028627 -1378930.607927084 0 0 0 -1265671.1153457686 -3104614.7840614226 -174640.33199827373 0 -174640.33199827373 112603.32197307423 0 0 0 -748002.86552208476 -5652968.41399852 851007.94741661847 0 851007.94741661847 -1087908.289302113 0 0 0 -1685219.1758251621 -6578962.3938532025 183292.04277693853 0 183292.04277693853 -2230138.7595217824 0 0 0 -2202275.2883437425 -7762231.8690524623 719194.92075384781 0 719194.92075384781 -2565635.4175142795 0 0 0 -2581966.821641691 -7049182.8856082205 1681657.4308271483 0 1681657.4308271483 -2379607.8114654622 0 0 0 -2357197.6742684115 -7814441.6203903109 1220273.0947570615 0 1220273.0947570615 -3508812.242459476 0 0 0 -2830813.4657124504 -5963931.8559926376 1139713.6603647247 0 1139713.6603647247 -2588989.7303247452 0 0 0 -2138230.3965793476 -5145741.7795107346 1660292.716404058 0 1660292.716404058 -1594854.9230190907 0 0 0 -1685149.1756324526 -11671686.331238192 131477.68538767844 0 131477.68538767844 -3626105.7128110379 0 0 0 -3824448.0110123083 -9591609.1999209151 598964.53517507017 0 598964.53517507017 -3768743.4601482749 0 0 0 -3340088.1650172919 -8891319.3337513134 95770.878001954406 0 95770.878001954406 -3490809.7005335689 0 0 0 -3095532.258571215 -8421581.7487840224 1400721.8617625237 0 1400721.8617625237 -3050197.5732590146 0 0 0 -2867944.8305107593 -9198131.7879380099 591384.96496058255 0 591384.96496058255 -3940334.8647796884 0 0 0 -3284616.6631794199 -7890006.6652723476 847514.71021832246 0 847514.71021832246 -3988377.0527515858 0 0 0 -2969595.929505989 -10070708.617647287 711522.62217572331 0 711522.62217572331 -3762348.4485583678 0 0 0 -3458264.2665514126 -8108099.4661362842 1607925.8966905884 0 1607925.8966905884 -3871525.3751963377 0 0 0 -2994906.2103331611 -6965297.5601569116 1726958.0081161186 0 1726958.0081161186 -4100795.9224509895 0 0 0 -2766523.370651979 -8262944.842518365 864967.62848338485 0 864967.62848338485 -3990171.373537086 0 0 0 -3063279.0540138688 -7029358.9228036273 1942440.9216839746 0 1942440.9216839746 -3106548.7373640668 0 0 0 -2533976.9150419175 -5259758.1474244744 975084.75933221728 0 975084.75933221728 -3169020.1634051949 0 0 0 -2107194.5777074173 -7223052.40230079 1972750.1056982055 0 1972750.1056982055 -3357964.5174932168 0 0 0 -2645254.2299485053 -7120310.4213346615 2005548.5545381978 0 2005548.5545381978 -3982382.8113367856 0 0 0 -2775673.3081678599 -6831833.6634745393 2154739.890830569 0 2154739.890830569 -3803412.3365782872 0 0 0 -2658811.5000131968 -7468548.5640053637 2416672.5694784001 0 2416672.5694784001 -4267057.9388058186 0 0 0 -2933901.6257028021 -8359141.0186852142 1301324.4420167357 0 1301324.4420167357 -4256832.0072280467 0 0 0 -3153993.2564783096 -7102063.6120873429 1567073.2158909664 0 1567073.2158909664 -4048796.1912188679 0 0 0 -2787714.950826548 -5436369.1619505156 4175474.3212213963 0 4175474.3212213963 -894581.4459362682 0 0 0 -1582737.6519716959 3531.7547531493624 2645.1826213516565 0 2645.1826213516565 -3473.6195338054272 0 0 0 14.533804835983801 -6165174.4045654126 2278784.8360408992 0 2278784.8360408992 -4439519.7594118118 0 0 0 -2651173.5409943052 3694.143687175681 2771.3967279053086 0 2771.3967279053086 -3706.7669891294158 0 0 0 -3.1558254884337202 -4585569.6680986863 3157977.1171963224 0 3157977.1171963224 -894481.90150052123 0 0 0 -1370012.8923998005 -6014607.3490040321 3154196.1431111908 0 3154196.1431111908 -394435.46649026126 0 0 0 -1602260.7038735747 -5333434.1111846548 4099237.5388624379 0 4099237.5388624379 -746846.8780995179 0 0 0 -1520070.2473210441 -6421203.4798868503 4186569.0920691397 0 4186569.0920691397 -881713.16843901202 0 0 0 -1825729.1620814633 -6716287.8653074857 978112.08218093961 0 978112.08218093961 -3719701.9920161599 0 0 0 -2608997.4643309098 -7100928.9353999421 665058.34556256235 0 665058.34556256235 -3876307.1177891493 0 0 0 -2744309.0132972673 -7081879.9560971521 1548636.4307476133 0 1548636.4307476133 -4341354.2106763124 0 0 0 -2855808.5416933671 -5579591.0560219474 1138022.1573582962 0 1138022.1573582962 -3640975.0297787189 0 0 0 -2305141.5214501657 -4852535.6201526988 3227265.088899408 0 3227265.088899408 -1683802.7792446278 0 0 0 -1634084.5998493321 -5493026.1790455999 3593155.979859612 0 3593155.979859612 -1164122.4449462667 0 0 0 -1664287.1559979655 3849.0112860187801 2886.4179162142814 0 2886.4179162142814 -3843.5624221994808 0 0 0 1.3622159548248192 -6806027.0228262804 1263939.316624485 0 1263939.316624485 -3396775.5200193375 0 0 0 -2550700.6357114054 -5958979.9237441458 977311.40967226401 0 977311.40967226401 -4480212.6235931665 0 0 0 -2609798.1368343271 -4794176.8746043108 1628200.9563052878 0 1628200.9563052878 -672418.24629783351 0 0 0 -1366648.7802255354 3984.9222612877093 2988.7896317338646 0 2988.7896317338646 -3986.4891371403687 0 0 0 -0.39171896316474886 -2312384.792248535 1603821.0429944051 0 1603821.0429944051 -460551.26578024309 0 0 0 -693234.01450719428 -3273963.0451510884 1622228.8656045096 0 1622228.8656045096 -445197.4986230135 0 0 0 -929790.13594352547 -3854144.3294840846 2946272.2606148659 0 2946272.2606148659 -611126.55546080228 0 0 0 -1116317.721236221 -4802997.7858531754 3215846.6778966994 0 3215846.6778966994 -493959.94218417723 0 0 0 -1324239.4320093393 -4720147.0944759548 3021465.067957534 0 3021465.067957534 -1573267.1542795489 0 0 0 -1573353.5621888759 -3268692.2204643665 2175624.1512715761 0 2175624.1512715761 222171.84299289342 0 0 0 -761630.09436786827 -2506187.779270607 2383770.0636867792 0 2383770.0636867792 -835302.93784902326 0 0 0 -835372.67927990761 1523152.4273287794 1158859.4963150038 0 1158859.4963150038 290320.92880074773 0 0 0 453368.33903238131 -5289956.7321475958 3686253.6068735928 0 3686253.6068735928 -1052439.9545164704 0 0 0 -1585599.1716660159 -5362782.6025700364 3619308.5058331909 0 3619308.5058331909 -1042088.1944265394 0 0 0 -1601217.6992491442 -4866694.0374197885 3444961.9666375006 0 3444961.9666375006 -1124176.2707756362 0 0 0 -1497717.5770488544 -4727872.0388064915 3034901.7090438926 0 3034901.7090438926 -861071.56905814307 0 0 0 -1397235.901966159 -5279473.1135300258 3353758.5560211912 0 3353758.5560211912 -1759818.9251336644 0 0 0 -1759823.0096659223 -5606011.5295657236 3467459.8043505247 0 3467459.8043505247 -1868656.1626654239 0 0 0 -1868666.9230577869 -5338455.553734269 3318632.5799527392 0 3318632.5799527392 -1535716.0705876965 0 0 0 -1718542.9060804914 -5437864.5721962471 3810460.302471383 0 3810460.302471383 -1534617.610760889 0 0 0 -1743120.5457392833 -5597892.1085413275 3777994.0371296206 0 3777994.0371296206 -1223047.7922386453 0 0 0 -1705234.9751949925 -7072924.3384551927 3004776.3997867568 0 3004776.3997867568 -1225452.7438137904 0 0 0 -2074594.2705672462 -5594511.5486843586 3690594.3358796863 0 3690594.3358796863 -1907047.4399663445 0 0 0 -1875389.7471626764 -7039044.0427609943 3471980.8237866652 0 3471980.8237866652 -2346540.7680558376 0 0 0 -2346396.202704208 -6309600.5478701834 3055671.0385285439 0 3055671.0385285439 -2093061.5671147138 0 0 0 -2100665.5287462249 -8552432.4910611324 2666517.6821895754 0 2666517.6821895754 -2233658.4927175809 0 0 0 -2696522.7459446788 -14726103.945582835 2712576.1252264483 0 2712576.1252264483 -1788231.9741209168 0 0 0 -4128583.9799259398 -9952253.3667087033 3708568.1332978127 0 3708568.1332978127 -3316770.1133105312 0 0 0 -3317255.870004809 -8871156.0696922373 1519055.0525768576 0 1519055.0525768576 343643.96911984868 0 0 0 -2131878.0251430967 -8071430.458697103 3528925.8070490719 0 3528925.8070490719 -1805554.2868388095 0 0 0 -2469246.1863839775 -6533586.3438361958 946450.80700178631 0 946450.80700178631 4363.4961522072554 0 0 0 -1632305.7119209971 -8847840.0355849676 1149981.5192045746 0 1149981.5192045746 -357326.69239034876 0 0 0 -2301291.6819938282 -6427967.4328281432 984537.08162387647 0 984537.08162387647 70209.561885729432 0 0 0 -1589439.4677356035 -7028571.422536904 2497538.4350549737 0 2497538.4350549737 -468685.31817438453 0 0 0 -1874314.1851778235 -4994935.4570117546 2063865.4671043269 0 2063865.4671043269 279569.1581668742 0 0 0 -1178841.5747112194 -5112171.7888257522 3068568.5428394033 0 3068568.5428394033 -421509.0759799853 0 0 0 -1383420.2162014339 -3266679.1181179872 2292624.4432818033 0 2292624.4432818033 953644.73812470213 0 0 0 -578258.59499832336 -3587668.9201436061 4418363.1315272618 0 4418363.1315272618 326789.69132097065 0 0 0 -815219.80720566027 -5318712.2764771786 3888428.0906364927 0 3888428.0906364927 -592698.16895895451 0 0 0 -1477852.6113590356 -5554776.1003515059 3952302.6456970489 0 3952302.6456970489 -1323872.5697623305 0 0 0 -1719662.1675284589 -4689357.7690112107 4168473.1478023315 0 4168473.1478023315 -940550.87541266717 0 0 0 -1407477.1611059718 -5460216.8892939948 2868386.7144633373 0 2868386.7144633373 -682170.7207739614 0 0 0 -1535596.9025169872 -5390193.54249602 2845822.656339569 0 2845822.656339569 -696049.03837688826 0 0 0 -1521560.6452182266 
</DataArray>
<DataArray type="Float64" Name="cross_section_updated" format="ascii">
1 1 1 1 1 1 1 1 1 1 1 0.0010000001582990787 1 1 0.0010000000851635672 1 1 1 1 1 0.0029559075703763267 1 1 0.00099999980979101431 1 0.00099999997359946548 1 1 1 1 0.0029022257722513337 1 1 1 1 0.0029778156882203088 1 1 0.003664517351726692 1 1 1 1 1 1 1 1 1 1 1 1 1 1 1 1 1 1 1 1 1 1 1 1 1 1 1 1 0.0009999999923013753 1 0.00099999999384856519 1 1 1 1 1 1 1 1 1 1 0.00099999999431110449 1 1 1 0.00099999999397271631 1 1 1 1 1 1 1 1 1 1 1 1 1 1 1 1 1 1 1 1 1 1 1 1 1 1 1 1 1 1 1 1 1 1 1 1 1 1 1 
</DataArray>
</CellData>
</Piece>
</UnstructuredGrid>
</VTKFile>
