<?xml version="1.0"?>
<VTKFile type="UnstructuredGrid" version="0.1" byte_order="LittleEndian">
<UnstructuredGrid>
<Piece NumberOfPoints="360" NumberOfCells="124">
<Points>
<DataArray type="Float64" NumberOfComponents="3" format="ascii">
0 0 0 0.084352422163911631 0.086451712656266194 0 0 0.12500000000034689 0 0 0 0 0.084352422163911631 0.086451712656266194 0 0.1249999999997554 0 0 0 0.12500000000034689 0 0.1008171452988615 0.18885703697250469 0 0 0.25 0 0.084352422163911631 0.086451712656266194 0 0 0.12500000000034689 0 0.1008171452988615 0.18885703697250469 0 0.084352422163911631 0.086451712656266194 0 0.1008171452988615 0.18885703697250469 0 0.18402761812864499 0.1117324051466445 0 0.1008171452988615 0.18885703697250469 0 0.2403886547178353 0.24188814792673841 0 0.1249999999997599 0.31249999999987998 0 0.1008171452988615 0.18885703697250469 0 0.2403886547178353 0.24188814792673841 0 0.18402761812864499 0.1117324051466445 0 0.2403886547178353 0.24188814792673841 0 0.18402761812864499 0.1117324051466445 0 0.31250000000020822 0.12500000000041631 0 0.1249999999997554 0 0 0.18402761812864499 0.1117324051466445 0 0.25 -0 0 0.18402761812864499 0.1117324051466445 0 0.25 -0 0 0.31250000000020822 0.12500000000041631 0 0.084352422163911631 0.086451712656266194 0 0.1249999999997554 0 0 0.18402761812864499 0.1117324051466445 0 0.25 -0 0 0.31250000000020822 0.12500000000041631 0 0.25 -0 0 0.31250000000020822 0.12500000000041631 0 0.43749999999913258 0 0 0.2403886547178353 0.24188814792673841 0 0.31250000000020822 0.12500000000041631 0 0.37500000000027761 0.25000000000055511 0 0.31250000000020822 0.12500000000041631 0 0.37500000000027761 0.25000000000055511 0 0.31250000000020822 0.12500000000041631 0 0.4287911518546233 0.15455445427966699 0 0.37500000000027761 0.25000000000055511 0 0.4287911518546233 0.15455445427966699 0 0.49457493289300231 0.26251703776555491 0 0.37500000000027761 0.25000000000055511 0 0.4287911518546233 0.15455445427966699 0 0.49457493289300231 0.26251703776555491 0 0.54475767668582953 0.1431838882066932 0 0.31250000000020822 0.12500000000041631 0 0.4287911518546233 0.15455445427966699 0 0.43749999999913258 0 0 0.4287911518546233 0.15455445427966699 0 0.43749999999913258 0 0 0.54475767668582953 0.1431838882066932 0 0.37499999999973488 0.43749999999986738 0 0.5 0.5 -0 0.43750000000006939 0.37500000000013878 0 0.37499999999973488 0.43749999999986738 0 0.5 0.5 -0 0.43750000000006939 0.37500000000013878 0 0.33819444444448321 0.33819444444456342 0 0.37499999999973488 0.43749999999986738 0 0.43750000000006939 0.37500000000013878 0 0.5 0.5 -0 0.43750000000006939 0.37500000000013878 0 0.49457493289300231 0.26251703776555491 0 0.37500000000027761 0.25000000000055511 0 0.43750000000006939 0.37500000000013878 0 0.37500000000027761 0.25000000000055511 0 0.43750000000006939 0.37500000000013878 0 0.37500000000027761 0.25000000000055511 0 0.33819444444448321 0.33819444444456342 0 0.2403886547178353 0.24188814792673841 0 0.33819444444448321 0.33819444444456342 0 0.24999999999960859 0.37499999999980432 0 0.2403886547178353 0.24188814792673841 0 0.37500000000027761 0.25000000000055511 0 0.33819444444448321 0.33819444444456342 0 0.33819444444448321 0.33819444444456342 0 0.37499999999973488 0.43749999999986738 0 0.24999999999960859 0.37499999999980432 0 0.37499999999973488 0.43749999999986738 0 0.24999999999960859 0.37499999999980432 0 0.37499999999973488 0.43749999999986738 0 0.24999999999960859 0.37499999999980432 0 0.26452443700674649 0.51563531581639865 0 0.14929124186975251 0.44582793568106382 0 0.24999999999960859 0.37499999999980432 0 0.26452443700674649 0.51563531581639865 0 0.14929124186975251 0.44582793568106382 0 0.24999999999960859 0.37499999999980432 0 0.1249999999997599 0.31249999999987998 0 0.2403886547178353 0.24188814792673841 0 0.24999999999960859 0.37499999999980432 0 0.1249999999997599 0.31249999999987998 0 0.24999999999960859 0.37499999999980432 0 0.1249999999997599 0.31249999999987998 0 0.1249999999997599 0.31249999999987998 0 0 0.25 0 0 0.43750000000034689 0 0.1008171452988615 0.18885703697250469 0 0.1249999999997599 0.31249999999987998 0 0 0.25 0 0.1249999999997599 0.31249999999987998 0 0 0.25 0 0.14929124186975251 0.44582793568106382 0 0 0.43750000000034689 0 0.13928587515912139 0.57339806105677438 0 0.14929124186975251 0.44582793568106382 0 0.1249999999997599 0.31249999999987998 0 0 0.43750000000034689 0 0 0.43750000000034689 0 0 0.62500000000069389 0 0.13928587515912139 0.57339806105677438 0 0 0.62500000000069389 0 0.13900789599611679 0.72618316107059999 0 0.13928587515912139 0.57339806105677438 0 0 0.62500000000069389 0 0.13900789599611679 0.72618316107059999 0 0 0.81250000000104083 0 0.13900789599611679 0.72618316107059999 0 0.13928587515912139 0.57339806105677438 0 0.27589467050686478 0.66058853156435704 0 0.13900789599611679 0.72618316107059999 0 0.27987960212930818 0.83442741470570525 0 0.27589467050686478 0.66058853156435704 0 0.13928587515912139 0.57339806105677438 0 0.26452443700674649 0.51563531581639865 0 0.27589467050686478 0.66058853156435704 0 0.14929124186975251 0.44582793568106382 0 0.13928587515912139 0.57339806105677438 0 0.26452443700674649 0.51563531581639865 0 0 1 0 0.12710107136012311 0.87094806618203435 0 0.1875000000005205 1 0 0 1 0 0 0.81250000000104083 0 0.12710107136012311 0.87094806618203435 0 0.13900789599611679 0.72618316107059999 0 0 0.81250000000104083 0 0.12710107136012311 0.87094806618203435 0 0.13900789599611679 0.72618316107059999 0 0.12710107136012311 0.87094806618203435 0 0.27987960212930818 0.83442741470570525 0 0.12710107136012311 0.87094806618203435 0 0.1875000000005205 1 0 0.27987960212930818 0.83442741470570525 0 0.27987960212930818 0.83442741470570525 0 0.44927105396715372 0.85565124085155886 0 0.37500000000069389 1 0 0.1875000000005205 1 0 0.27987960212930818 0.83442741470570525 0 0.37500000000069389 1 0 0.27987960212930818 0.83442741470570525 0 0.44927105396715372 0.85565124085155886 0 0.38136204680495073 0.74038592213831234 0 0.44927105396715372 0.85565124085155886 0 0.38136204680495073 0.74038592213831234 0 0.50145856933078625 0.73674663046504862 0 0.44927105396715372 0.85565124085155886 0 0.37500000000069389 1 0 0.56250000000086742 1 0 0.26452443700674649 0.51563531581639865 0 0.27589467050686478 0.66058853156435704 0 0.4139414069912184 0.60563252640100373 0 0.37499999999973488 0.43749999999986738 0 0.26452443700674649 0.51563531581639865 0 0.4139414069912184 0.60563252640100373 0 0.27987960212930818 0.83442741470570525 0 0.27589467050686478 0.66058853156435704 0 0.38136204680495073 0.74038592213831234 0 0.27589467050686478 0.66058853156435704 0 0.38136204680495073 0.74038592213831234 0 0.4139414069912184 0.60563252640100373 0 0.38136204680495073 0.74038592213831234 0 0.4139414069912184 0.60563252640100373 0 0.50145856933078625 0.73674663046504862 0 0.4139414069912184 0.60563252640100373 0 0.50145856933078625 0.73674663046504862 0 0.5625 0.625 0 0.37499999999973488 0.43749999999986738 0 0.4139414069912184 0.60563252640100373 0 0.5 0.5 -0 0.4139414069912184 0.60563252640100373 0 0.5 0.5 -0 0.5625 0.625 0 0.5 0.5 -0 0.5625 0.625 0 0.63236534182377013 0.50296756406332266 0 0.5 0.5 -0 0.5625 0.625 0 0.50145856933078625 0.73674663046504862 0 0.5625 0.625 0 0.625 0.75 0 0.5625 0.625 0 0.625 0.75 0 0.71259747807844409 0.63846691315701831 0 0.625 0.75 0 0.73857795170433571 0.77736788564284653 0 0.5625 0.625 0 0.71259747807844409 0.63846691315701831 0 0.625 0.75 0 0.71259747807844409 0.63846691315701831 0 0.63236534182377013 0.50296756406332266 0 0.75338430262320943 0.49294443423175599 0 0.5625 0.625 0 0.71259747807844409 0.63846691315701831 0 0.63236534182377013 0.50296756406332266 0 0.56250000000086742 1 0 0.56777512057187585 0.8470224641095303 0 0.6875 0.875 0 0.44927105396715372 0.85565124085155886 0 0.56250000000086742 1 0 0.56777512057187585 0.8470224641095303 0 0.44927105396715372 0.85565124085155886 0 0.50145856933078625 0.73674663046504862 0 0.56777512057187585 0.8470224641095303 0 0.50145856933078625 0.73674663046504862 0 0.56777512057187585 0.8470224641095303 0 0.625 0.75 0 0.625 0.75 0 0.73857795170433571 0.77736788564284653 0 0.6875 0.875 0 0.73857795170433571 0.77736788564284653 0 0.6875 0.875 0 0.80552984491000901 0.88711122872127413 0 0.625 0.75 0 0.6875 0.875 0 0.56777512057187585 0.8470224641095303 0 0.625 0.75 0 0.6875 0.875 0 0.56250000000086742 1 0 0.6875 0.875 0 0.75 1 0 0.6875 0.875 0 0.75 1 0 0.80552984491000901 0.88711122872127413 0 0.6875 0.875 0 0.75 1 0 0.75 1 0 0.80552984491000901 0.88711122872127413 0 0.875 1 0 0.80552984491000901 0.88711122872127413 0 0.90637953422180084 0.90208583328057301 0 0.875 1 0 0.80552984491000901 0.88711122872127413 0 0.85787927391517405 0.753532520882502 0 0.90637953422180084 0.90208583328057301 0 0.73857795170433571 0.77736788564284653 0 0.80552984491000901 0.88711122872127413 0 0.85787927391517405 0.753532520882502 0 0.85787927391517405 0.753532520882502 0 1 0.83333333333356463 0 1 0.66666666666736052 0 0.85787927391517405 0.753532520882502 0 1 0.83333333333356463 0 0.90637953422180084 0.90208583328057301 0 1 0.83333333333356463 0 0.90637953422180084 0.90208583328057301 0 1 1 0 0.90637953422180084 0.90208583328057301 0 1 1 0 0.875 1 0 0.71259747807844409 0.63846691315701831 0 0.86127466977819722 0.57948076978797636 0 0.75338430262320943 0.49294443423175599 0 0.71259747807844409 0.63846691315701831 0 0.85787927391517405 0.753532520882502 0 0.86127466977819722 0.57948076978797636 0 0.71259747807844409 0.63846691315701831 0 0.73857795170433571 0.77736788564284653 0 0.85787927391517405 0.753532520882502 0 0.85787927391517405 0.753532520882502 0 0.86127466977819722 0.57948076978797636 0 1 0.66666666666736052 0 0.86127466977819722 0.57948076978797636 0 1 0.66666666666736052 0 1 0.50000000000138767 0 1 0.50000000000138767 0 0.86569408477091048 0.40983673916766611 0 1 0.33333333333448978 0 0.86127466977819722 0.57948076978797636 0 1 0.50000000000138767 0 0.86569408477091048 0.40983673916766611 0 0.86127466977819722 0.57948076978797636 0 0.75338430262320943 0.49294443423175599 0 0.86569408477091048 0.40983673916766611 0 0.75338430262320943 0.49294443423175599 0 0.86569408477091048 0.40983673916766611 0 0.71826039492840632 0.34564020717216182 0 0.86087286690217635 0.25206523597959418 0 0.71508993406183785 0.15715956854777599 0 0.71826039492840632 0.34564020717216182 0 0.86569408477091048 0.40983673916766611 0 0.86087286690217635 0.25206523597959418 0 0.71826039492840632 0.34564020717216182 0 0.86087286690217635 0.25206523597959418 0 1 0.33333333333448978 0 1 0.16666666666736049 0 0.86569408477091048 0.40983673916766611 0 0.86087286690217635 0.25206523597959418 0 1 0.33333333333448978 0 0.86087286690217635 0.25206523597959418 0 1 0.16666666666736049 0 0.87698901648812122 0.1160638338657984 0 1 0 0 0.87698901648812122 0.1160638338657984 0 0.81249999999947953 0 0 1 0.16666666666736049 0 1 0 0 0.87698901648812122 0.1160638338657984 0 0.87698901648812122 0.1160638338657984 0 0.81249999999947953 0 0 0.71508993406183785 0.15715956854777599 0 0.86087286690217635 0.25206523597959418 0 0.87698901648812122 0.1160638338657984 0 0.71508993406183785 0.15715956854777599 0 0.71508993406183785 0.15715956854777599 0 0.62499999999895905 0 0 0.54475767668582953 0.1431838882066932 0 0.81249999999947953 0 0 0.71508993406183785 0.15715956854777599 0 0.62499999999895905 0 0 0.43749999999913258 0 0 0.62499999999895905 0 0 0.54475767668582953 0.1431838882066932 0 0.71508993406183785 0.15715956854777599 0 0.54475767668582953 0.1431838882066932 0 0.61108462585082757 0.25750599582343231 0 0.49457493289300231 0.26251703776555491 0 0.54475767668582953 0.1431838882066932 0 0.61108462585082757 0.25750599582343231 0 0.49457493289300231 0.26251703776555491 0 0.61108462585082757 0.25750599582343231 0 0.56986707178436635 0.37762093650871992 0 0.43750000000006939 0.37500000000013878 0 0.49457493289300231 0.26251703776555491 0 0.56986707178436635 0.37762093650871992 0 0.43750000000006939 0.37500000000013878 0 0.5 0.5 -0 0.56986707178436635 0.37762093650871992 0 0.5 0.5 -0 0.63236534182377013 0.50296756406332266 0 0.56986707178436635 0.37762093650871992 0 0.63236534182377013 0.50296756406332266 0 0.75338430262320943 0.49294443423175599 0 0.71826039492840632 0.34564020717216182 0 0.63236534182377013 0.50296756406332266 0 0.56986707178436635 0.37762093650871992 0 0.71826039492840632 0.34564020717216182 0 0.71508993406183785 0.15715956854777599 0 0.61108462585082757 0.25750599582343231 0 0.71826039492840632 0.34564020717216182 0 0.61108462585082757 0.25750599582343231 0 0.56986707178436635 0.37762093650871992 0 0.71826039492840632 0.34564020717216182 0 
</DataArray>
</Points>
<Cells>
<DataArray type="UInt32" Name="connectivity" format="ascii">
0 1 2 3 4 5 6 7 8 9 10 11 12 13 14 15 16 17 18 19 20 21 22 23 24 25 26 27 28 29 30 31 32 33 34 35 36 37 38 39 40 41 42 43 44 45 46 47 48 49 50 51 52 53 54 55 56 57 58 59 60 61 62 63 64 65 66 67 68 69 70 71 72 73 74 75 76 77 78 79 80 81 82 83 84 85 86 87 88 89 90 91 92 93 94 95 96 97 98 99 100 101 102 103 104 105 106 107 108 109 110 111 112 113 114 115 116 117 118 119 120 121 122 123 124 125 126 127 128 129 130 131 132 133 134 135 136 137 138 139 140 141 142 143 144 145 146 147 148 149 150 151 152 153 154 155 156 157 158 159 160 161 162 163 164 165 166 167 168 169 170 171 172 173 174 175 176 177 178 179 180 181 182 183 184 185 186 187 188 189 190 191 192 193 194 195 196 197 198 199 200 201 202 203 204 205 206 207 208 209 210 211 212 213 214 215 216 217 218 219 220 221 222 223 224 225 226 227 228 229 230 231 232 233 234 235 236 237 238 239 240 241 242 243 244 245 246 247 248 249 250 251 252 253 254 255 256 257 258 259 260 261 262 263 264 265 266 267 268 269 270 271 272 273 274 275 276 277 278 279 280 281 282 283 284 285 286 287 288 289 290 291 292 293 294 295 296 297 298 299 300 301 302 303 304 305 306 307 308 309 310 311 312 313 314 315 316 317 318 319 320 321 322 323 324 325 326 327 328 329 330 331 332 333 334 335 336 337 338 339 340 341 342 343 344 345 346 347 348 349 350 351 352 353 354 355 356 357 358 359 
</DataArray>
<DataArray type="UInt32" Name="offsets" format="ascii">
3 6 9 12 15 18 21 24 27 30 33 35 38 41 43 46 49 52 55 58 60 63 66 68 71 73 76 79 82 85 87 90 93 96 99 101 104 107 109 112 115 118 121 124 127 130 133 136 139 142 145 148 151 154 157 160 163 166 169 172 175 178 181 184 187 190 193 195 198 200 203 206 209 212 215 218 221 224 227 230 232 235 238 241 243 246 249 252 255 258 261 264 267 270 273 276 279 282 285 288 291 294 297 300 303 306 309 312 315 318 321 324 327 330 333 336 339 342 345 348 351 354 357 360 
</DataArray>
<DataArray type="UInt32" Name="types" format="ascii">
5 5 5 5 5 5 5 5 5 5 5 3 5 5 3 5 5 5 5 5 3 5 5 3 5 3 5 5 5 5 3 5 5 5 5 3 5 5 3 5 5 5 5 5 5 5 5 5 5 5 5 5 5 5 5 5 5 5 5 5 5 5 5 5 5 5 5 3 5 3 5 5 5 5 5 5 5 5 5 5 3 5 5 5 3 5 5 5 5 5 5 5 5 5 5 5 5 5 5 5 5 5 5 5 5 5 5 5 5 5 5 5 5 5 5 5 5 5 5 5 5 5 5 5 
</DataArray>
</Cells>
<PointData Scalars="" Vectors="displacement," Tensors="">
<DataArray type="Float64" Name="displacement" NumberOfComponents="3" format="ascii">
2.7206264400960628e-08 -0.045276912131847917 0 -0.000420620359969911 -0.044755814245127278 0 -1.1039190602335303e-08 -0.045147621006527659 0 2.7206264400960628e-08 -0.045276912131847917 0 -0.000420620359969911 -0.044755814245127278 0 0.00030959158786193812 -0.044337293887871269 0 -1.1039190602335303e-08 -0.045147621006527659 0 -0.0013771682990711214 -0.044423202618606751 0 -5.6257968249023346e-07 -0.044891876896865045 0 -0.000420620359969911 -0.044755814245127278 0 -1.1039190602335303e-08 -0.045147621006527659 0 -0.0013771682990711214 -0.044423202618606751 0 -0.000420620359969911 -0.044755814245127278 0 -0.0013771682990711214 -0.044423202618606751 0 -0.0013049158454832089 -0.043326254597262658 0 -0.0013771682990711214 -0.044423202618606751 0 -0.0042121890803095792 -0.041901641802705447 0 -0.0043191058279455109 -0.043439579384540988 0 -0.0013771682990711214 -0.044423202618606751 0 -0.0042121890803095792 -0.041901641802705447 0 -0.0013049158454832089 -0.043326254597262658 0 -0.0042121890803095792 -0.041901641802705447 0 -0.0013049158454832089 -0.043326254597262658 0 -0.0024764274176924559 -0.040328087664165763 0 0.00030959158786193812 -0.044337293887871269 0 -0.0013049158454832089 -0.043326254597262658 0 0.00016326874679660863 -0.042044424771502588 0 -0.0013049158454832089 -0.043326254597262658 0 0.00016326874679660863 -0.042044424771502588 0 -0.0024764274176924559 -0.040328087664165763 0 -0.000420620359969911 -0.044755814245127278 0 0.00030959158786193812 -0.044337293887871269 0 -0.0013049158454832089 -0.043326254597262658 0 0.0062738374894114792 -0.030303933065257912 0 0.003336322585666979 -0.028289443469972676 0 0.012295134325167071 -0.018452256350254489 0 0.0091576223423697721 -0.016388423727459529 0 0.010877305573541135 -0.013299053269397282 0 -0.0042121890803095792 -0.041901641802705447 0 -0.0024764274176924559 -0.040328087664165763 0 -0.0056838930089668825 -0.03891655165442575 0 0.003336322585666979 -0.028289443469972676 0 0.00064481737256269912 -0.026764678129173183 0 0.0091576223423697721 -0.016388423727459529 0 0.0077532529162669464 -0.013064200958356122 0 0.007024522679022289 -0.014171283841820618 0 0.0077532529162669464 -0.013064200958356122 0 0.0056605364713373726 -0.010789590434368229 0 0.007024522679022289 -0.014171283841820618 0 0.0077532529162669464 -0.013064200958356122 0 0.0056605364713373726 -0.010789590434368229 0 0.0067438780596482204 -0.010041601859852242 0 0.0091576223423697721 -0.016388423727459529 0 0.0077532529162669464 -0.013064200958356122 0 0.010877305573541135 -0.013299053269397282 0 0.0077532529162669464 -0.013064200958356122 0 0.010877305573541135 -0.013299053269397282 0 0.0067438780596482204 -0.010041601859852242 0 -0.0063812293627343933 -0.036435760023799023 0 -0.0030730235839216817 -0.026892015832246124 0 -0.0080712521462140471 -0.03841788352243275 0 -0.0086297824722506092 -0.039816551792792136 0 -0.009877012297643822 -0.037963180399912422 0 -0.0080712521462140471 -0.03841788352243275 0 -0.0068755506066609171 -0.040009435781730864 0 -0.0086297824722506092 -0.039816551792792136 0 -0.00142143881802316 -0.02419368252535533 0 -0.0030730235839216817 -0.026892015832246124 0 0.0050052689259823665 -0.011593278226509476 0 0.0056605364713373726 -0.010789590434368229 0 0.007024522679022289 -0.014171283841820618 0 -0.00142143881802316 -0.02419368252535533 0 0.00064481737256269912 -0.026764678129173183 0 -0.0080712521462140471 -0.03841788352243275 0 -0.0056838930089668825 -0.03891655165442575 0 -0.0068755506066609171 -0.040009435781730864 0 -0.0042121890803095792 -0.041901641802705447 0 -0.0068755506066609171 -0.040009435781730864 0 -0.0068743563359549729 -0.041813225917033056 0 -0.0042121890803095792 -0.041901641802705447 0 -0.0056838930089668825 -0.03891655165442575 0 -0.0068755506066609171 -0.040009435781730864 0 -0.0068755506066609171 -0.040009435781730864 0 -0.0086297824722506092 -0.039816551792792136 0 -0.0068743563359549729 -0.041813225917033056 0 -0.0063812293627343933 -0.036435760023799023 0 -0.0034540069836999782 -0.036397947738027604 0 -0.0020254142863824326 -0.029820382357620887 0 -0.00060667551716238365 -0.031859008705686399 0 -0.0021211724413687503 -0.031991576180469335 0 -0.00085443076697100167 -0.033473699465608547 0 -0.00060667551716238365 -0.031859008705686399 0 -0.0021211724413687503 -0.031991576180469335 0 -0.00085443076697100167 -0.033473699465608547 0 -0.00060667551716238365 -0.031859008705686399 0 0.00014063393058381593 -0.033873209819379621 0 -0.0042121890803095792 -0.041901641802705447 0 -0.0068743563359549729 -0.041813225917033056 0 -0.0043191058279455109 -0.043439579384540988 0 -0.0034540069836999782 -0.036397947738027604 0 -0.0021866010494968387 -0.038790080211379717 0 0.00014063393058381593 -0.033873209819379621 0 7.5030715428826223e-08 -0.034119847313500345 0 -9.0808418551284229e-08 -0.034349977069306703 0 -0.0013771682990711214 -0.044423202618606751 0 -0.0043191058279455109 -0.043439579384540988 0 -5.6257968249023346e-07 -0.044891876896865045 0 -0.0021866010494968387 -0.038790080211379717 0 8.1886768806223079e-05 -0.039409187769722472 0 -0.00085443076697100167 -0.033473699465608547 0 -9.0808418551284229e-08 -0.034349977069306703 0 -0.0013234930550193476 -0.033574102878124179 0 -0.00085443076697100167 -0.033473699465608547 0 0.00014063393058381593 -0.033873209819379621 0 -9.0808418551284229e-08 -0.034349977069306703 0 -9.0808418551284229e-08 -0.034349977069306703 0 -2.1099617600836106e-07 -0.034094527298010997 0 -0.0013234930550193476 -0.033574102878124179 0 -2.1099617600836106e-07 -0.034094527298010997 0 -0.0017446844194109682 -0.033600336109214264 0 -0.0013234930550193476 -0.033574102878124179 0 -2.1099617600836106e-07 -0.034094527298010997 0 -0.0017446844194109682 -0.033600336109214264 0 -2.5362258069600026e-07 -0.03410883902784826 0 -0.0017446844194109682 -0.033600336109214264 0 -0.0013234930550193476 -0.033574102878124179 0 -0.0031089973548705345 -0.032043655328055712 0 -0.0017446844194109682 -0.033600336109214264 0 -0.003916416952076382 -0.032317133184169199 0 -0.0031089973548705345 -0.032043655328055712 0 -0.0013234930550193476 -0.033574102878124179 0 -0.0021211724413687503 -0.031991576180469335 0 -0.0031089973548705345 -0.032043655328055712 0 -0.00085443076697100167 -0.033473699465608547 0 -0.0013234930550193476 -0.033574102878124179 0 -0.0021211724413687503 -0.031991576180469335 0 -4.0234091762538299e-07 -0.03433122697418324 0 -0.001940659131786296 -0.033793613564386919 0 -0.0036143808865164379 -0.033462730600807372 0 -4.0234091762538299e-07 -0.03433122697418324 0 -2.5362258069600026e-07 -0.03410883902784826 0 -0.001940659131786296 -0.033793613564386919 0 -0.0017446844194109682 -0.033600336109214264 0 -2.5362258069600026e-07 -0.03410883902784826 0 -0.001940659131786296 -0.033793613564386919 0 -0.0017446844194109682 -0.033600336109214264 0 -0.001940659131786296 -0.033793613564386919 0 -0.003916416952076382 -0.032317133184169199 0 -0.001940659131786296 -0.033793613564386919 0 -0.0036143808865164379 -0.033462730600807372 0 -0.003916416952076382 -0.032317133184169199 0 -0.003916416952076382 -0.032317133184169199 0 -0.0061387723895966681 -0.030023397587313389 0 -0.0066395987604390026 -0.031439701600071521 0 -0.0036143808865164379 -0.033462730600807372 0 -0.003916416952076382 -0.032317133184169199 0 -0.0066395987604390026 -0.031439701600071521 0 -0.003916416952076382 -0.032317133184169199 0 -0.0061387723895966681 -0.030023397587313389 0 -0.004627831988134665 -0.030684681342990034 0 -0.0061387723895966681 -0.030023397587313389 0 -0.004627831988134665 -0.030684681342990034 0 -0.0058129503739752968 -0.028787303120345782 0 -0.0061387723895966681 -0.030023397587313389 0 -0.0066395987604390026 -0.031439701600071521 0 -0.0089982119921285589 -0.028783318381348698 0 -0.0021211724413687503 -0.031991576180469335 0 -0.0031089973548705345 -0.032043655328055712 0 -0.0042369676612934162 -0.029732314785746162 0 -0.0020254142863824326 -0.029820382357620887 0 -0.0021211724413687503 -0.031991576180469335 0 -0.0042369676612934162 -0.029732314785746162 0 -0.003916416952076382 -0.032317133184169199 0 -0.0031089973548705345 -0.032043655328055712 0 -0.004627831988134665 -0.030684681342990034 0 -0.0031089973548705345 -0.032043655328055712 0 -0.004627831988134665 -0.030684681342990034 0 -0.0042369676612934162 -0.029732314785746162 0 -0.004627831988134665 -0.030684681342990034 0 -0.0042369676612934162 -0.029732314785746162 0 -0.0058129503739752968 -0.028787303120345782 0 -0.0042369676612934162 -0.029732314785746162 0 -0.0058129503739752968 -0.028787303120345782 0 -0.0058942852243276528 -0.027382449119439545 0 -0.0020254142863824326 -0.029820382357620887 0 -0.0042369676612934162 -0.029732314785746162 0 -0.004132966527055108 -0.027885484963859456 0 -0.0042369676612934162 -0.029732314785746162 0 -0.004132966527055108 -0.027885484963859456 0 -0.0058942852243276528 -0.027382449119439545 0 0.0045608259283881469 -0.0097590693706614186 0 0.0040734269024318417 -0.0081858556898446646 0 0.0033058740122152153 -0.0070623345766241564 0 -0.0030730235839216817 -0.026892015832246124 0 -2.8030143304271977e-05 -0.015622851196486917 0 -0.0058129503739752968 -0.028787303120345782 0 -0.0058942852243276528 -0.027382449119439545 0 -0.0069390752337685543 -0.027063458785826042 0 -2.8030143304271977e-05 -0.015622851196486917 0 -0.002231532448277214 -0.017379943661068212 0 0.0024566507475368865 -0.0050873314494500671 0 0.0029555364479480692 -0.0065354047176086096 0 0.001981857816092883 -0.0044292653376211324 0 0.0040734269024318417 -0.0081858556898446646 0 0.0024566507475368865 -0.0050873314494500671 0 0.0029555364479480692 -0.0065354047176086096 0 0.0024566507475368865 -0.0050873314494500671 0 0.0033058740122152153 -0.0070623345766241564 0 0.0021967276622729772 -0.0044985399288074391 0 0.0040734269024318417 -0.0081858556898446646 0 0.0024566507475368865 -0.0050873314494500671 0 0.0033058740122152153 -0.0070623345766241564 0 -0.0089982119921285589 -0.028783318381348698 0 -0.0072805598089420763 -0.028225072693236198 0 -0.0087539338549588452 -0.026392842537990145 0 -0.0061387723895966681 -0.030023397587313389 0 -0.0089982119921285589 -0.028783318381348698 0 -0.0072805598089420763 -0.028225072693236198 0 -0.0061387723895966681 -0.030023397587313389 0 -0.0058129503739752968 -0.028787303120345782 0 -0.0072805598089420763 -0.028225072693236198 0 -0.0058129503739752968 -0.028787303120345782 0 -0.0072805598089420763 -0.028225072693236198 0 -0.0069390752337685543 -0.027063458785826042 0 0.0029555364479480692 -0.0065354047176086096 0 0.001981857816092883 -0.0044292653376211324 0 0.0021403443662838637 -0.0053431169080596251 0 0.001981857816092883 -0.0044292653376211324 0 0.0021403443662838637 -0.0053431169080596251 0 0.0010457103790921145 -0.0029126178564984661 0 -0.002231532448277214 -0.017379943661068212 0 -0.0032264652194947782 -0.015708142209947793 0 -0.0072805598089420763 -0.028225072693236198 0 -0.0069390752337685543 -0.027063458785826042 0 -0.0087539338549588452 -0.026392842537990145 0 -0.0089982119921285589 -0.028783318381348698 0 -0.0087539338549588452 -0.026392842537990145 0 -0.010570128731879227 -0.02602972135285209 0 0.0021403443662838637 -0.0053431169080596251 0 0.00014305157674473123 -0.0038645300277988909 0 0.0010457103790921145 -0.0029126178564984661 0 -0.0032264652194947782 -0.015708142209947793 0 -0.005292315875453024 -0.015007699877231315 0 0.00014305157674473123 -0.0038645300277988909 0 0.0010457103790921145 -0.0029126178564984661 0 -0.00036218105004810552 -0.0015770448991331556 0 0.0010457103790921145 -0.0029126178564984661 0 0.00035909098028448098 -0.0011359052962255217 0 -0.00036218105004810552 -0.0015770448991331556 0 0.0010457103790921145 -0.0029126178564984661 0 0.0010622539697462453 -0.0021598175224755078 0 0.00035909098028448098 -0.0011359052962255217 0 0.001981857816092883 -0.0044292653376211324 0 0.0010457103790921145 -0.0029126178564984661 0 0.0010622539697462453 -0.0021598175224755078 0 0.0010622539697462453 -0.0021598175224755078 0 1.2319808484674634e-07 -5.4948465631692776e-08 0 1.2232820587515768e-07 -9.0305131167888838e-08 0 0.0010622539697462453 -0.0021598175224755078 0 1.2319808484674634e-07 -5.4948465631692776e-08 0 0.00035909098028448098 -0.0011359052962255217 0 1.2319808484674634e-07 -5.4948465631692776e-08 0 0.00035909098028448098 -0.0011359052962255217 0 -1.2880220275909381e-07 -2.8891341913368495e-08 0 0.00035909098028448098 -0.0011359052962255217 0 -1.2880220275909381e-07 -2.8891341913368495e-08 0 -0.00036218105004810552 -0.0015770448991331556 0 0.0024566507475368865 -0.0050873314494500671 0 0.0011741784299883705 -0.0023276729852138118 0 0.0021967276622729772 -0.0044985399288074391 0 0.0024566507475368865 -0.0050873314494500671 0 0.0010622539697462453 -0.0021598175224755078 0 0.0011741784299883705 -0.0023276729852138118 0 0.0024566507475368865 -0.0050873314494500671 0 0.001981857816092883 -0.0044292653376211324 0 0.0010622539697462453 -0.0021598175224755078 0 0.0010622539697462453 -0.0021598175224755078 0 0.0011741784299883705 -0.0023276729852138118 0 1.2232820587515768e-07 -9.0305131167888838e-08 0 0.0011741784299883705 -0.0023276729852138118 0 1.2232820587515768e-07 -9.0305131167888838e-08 0 1.3976331037314815e-07 -9.0027464795410344e-08 0 1.3976331037314815e-07 -9.0027464795410344e-08 0 0.0012473168599338559 -0.0023200254275782201 0 1.8989018742520946e-07 -9.4605581925693187e-08 0 0.0011741784299883705 -0.0023276729852138118 0 1.3976331037314815e-07 -9.0027464795410344e-08 0 0.0012473168599338559 -0.0023200254275782201 0 0.0011741784299883705 -0.0023276729852138118 0 0.0021967276622729772 -0.0044985399288074391 0 0.0012473168599338559 -0.0023200254275782201 0 0.0021967276622729772 -0.0044985399288074391 0 0.0012473168599338559 -0.0023200254275782201 0 0.0027950878128852764 -0.0054063856378506704 0 0.0016742328892843539 -0.0024145153192204607 0 0.0042823286671567311 -0.005920780145483885 0 0.0027950878128852764 -0.0054063856378506704 0 0.0012473168599338559 -0.0023200254275782201 0 0.0016742328892843539 -0.0024145153192204607 0 0.0027950878128852764 -0.0054063856378506704 0 0.0016742328892843539 -0.0024145153192204607 0 1.8989018742520946e-07 -9.4605581925693187e-08 0 1.6045418484785181e-07 -3.3411024498810683e-08 0 0.0012473168599338559 -0.0023200254275782201 0 0.0016742328892843539 -0.0024145153192204607 0 1.8989018742520946e-07 -9.4605581925693187e-08 0 0.0016742328892843539 -0.0024145153192204607 0 1.6045418484785181e-07 -3.3411024498810683e-08 0 0.0021210180349146113 -0.0022979235819751802 0 6.5315060799483832e-07 -2.4451332204744156e-07 0 0.0021210180349146113 -0.0022979235819751802 0 0.0051666322966550295 -0.0045915786055867316 0 1.6045418484785181e-07 -3.3411024498810683e-08 0 6.5315060799483832e-07 -2.4451332204744156e-07 0 0.0021210180349146113 -0.0022979235819751802 0 0.0021210180349146113 -0.0022979235819751802 0 0.0051666322966550295 -0.0045915786055867316 0 0.0042823286671567311 -0.005920780145483885 0 0.0016742328892843539 -0.0024145153192204607 0 0.0021210180349146113 -0.0022979235819751802 0 0.0042823286671567311 -0.005920780145483885 0 0.0042823286671567311 -0.005920780145483885 0 0.0084297099582597585 -0.0087443520405448751 0 0.0067438780596482204 -0.010041601859852242 0 0.0051666322966550295 -0.0045915786055867316 0 0.0042823286671567311 -0.005920780145483885 0 0.0084297099582597585 -0.0087443520405448751 0 0.010877305573541135 -0.013299053269397282 0 0.0084297099582597585 -0.0087443520405448751 0 0.0067438780596482204 -0.010041601859852242 0 0.0042823286671567311 -0.005920780145483885 0 0.0067438780596482204 -0.010041601859852242 0 0.00456834803725472 -0.0080115639772397364 0 0.0056605364713373726 -0.010789590434368229 0 0.0067438780596482204 -0.010041601859852242 0 0.00456834803725472 -0.0080115639772397364 0 0.0056605364713373726 -0.010789590434368229 0 0.00456834803725472 -0.0080115639772397364 0 0.0040145601848782537 -0.0086527756938800018 0 0.0050052689259823665 -0.011593278226509476 0 0.0056605364713373726 -0.010789590434368229 0 0.0040145601848782537 -0.0086527756938800018 0 0.0050052689259823665 -0.011593278226509476 0 0.0045608259283881469 -0.0097590693706614186 0 0.0040145601848782537 -0.0086527756938800018 0 0.0045608259283881469 -0.0097590693706614186 0 0.0033058740122152153 -0.0070623345766241564 0 0.0040145601848782537 -0.0086527756938800018 0 0.0033058740122152153 -0.0070623345766241564 0 0.0021967276622729772 -0.0044985399288074391 0 0.0027950878128852764 -0.0054063856378506704 0 0.0033058740122152153 -0.0070623345766241564 0 0.0040145601848782537 -0.0086527756938800018 0 0.0027950878128852764 -0.0054063856378506704 0 0.0042823286671567311 -0.005920780145483885 0 0.00456834803725472 -0.0080115639772397364 0 0.0027950878128852764 -0.0054063856378506704 0 0.00456834803725472 -0.0080115639772397364 0 0.0040145601848782537 -0.0086527756938800018 0 0.0027950878128852764 -0.0054063856378506704 0 
</DataArray>
</PointData>
<CellData Scalars="region_id,cross_section_updated," Vectors="" Tensors="stress,">
<DataArray type="Float64" Name="region_id" format="ascii">
11 11 11 11 11 11 11 11 11 11 11 5 11 11 5 11 11 11 11 11 6 11 11 5 11 5 11 11 11 11 6 11 11 11 11 6 11 11 6 11 11 11 11 11 11 11 11 11 11 11 11 11 11 11 11 11 11 11 11 11 11 11 11 11 11 11 11 4 11 4 11 11 11 11 11 11 11 11 11 11 4 11 11 11 4 11 11 11 11 11 11 11 11 11 11 11 11 11 11 11 11 11 11 11 11 11 11 11 11 11 11 11 11 11 11 11 11 11 11 11 11 11 11 11 
</DataArray>
<DataArray type="Float64" Name="stress" NumberOfComponents="9" format="ascii">
-5570036.5615969002 2046900.6255039573 0 2046900.6255039573 -753394.58446931839 0 0 0 -1580857.7865165174 2449099.8516604602 93949.518842816353 0 93949.518842816353 -577548.61393111944 0 0 0 467887.80943235755 -15570206.30054225 2354064.1216504872 0 2354064.1216504872 -3007719.0310537219 0 0 0 -4644481.3328990042 -9413837.6415030062 -897988.0338614583 0 -897988.0338614583 -652621.00139337778 0 0 0 -2516614.6607240736 -7742076.8694926053 2336891.5165776312 0 2336891.5165776312 -1533113.1239012927 0 0 0 -2318797.4983484596 -12701200.583013594 -2064306.9067212492 0 -2064306.9067212492 861507.30530756712 0 0 0 -2959923.3194265366 -15490063.195398688 175501.20386303961 0 175501.20386303961 -1177179.9191339016 0 0 0 -4166810.7786331475 -8205409.5199141428 1598902.6064860672 0 1598902.6064860672 -1797351.4922474027 0 0 0 -2500690.2530403659 -1661389.462749213 1804638.5907232165 0 1804638.5907232165 -1238303.6569825411 0 0 0 -724923.27993293107 -7909037.3612997383 2261106.2661833465 0 2261106.2661833465 -316932.85917440057 0 0 0 -2056492.555118531 -6535150.1368333697 1055083.1575739086 0 1055083.1575739086 -365485.25347837806 0 0 0 -1725158.8475779444 8496.6292448508666 6372.1230785595744 0 6372.1230785595744 -8491.0415491470121 0 0 0 1.3969239259631649 -7966589.5704658832 2465812.2293696404 0 2465812.2293696404 297841.98313026875 0 0 0 -1917186.8968339097 -11529641.951522619 536938.80392946303 0 536938.80392946303 -3618328.5172950327 0 0 0 -3786992.6172044128 8702.5931400260815 6526.830496731206 0 6526.830496731206 -8700.760354880591 0 0 0 0.45819628637218557 -9060933.6402846947 5980309.3079402708 0 5980309.3079402708 1188594.4507794082 0 0 0 -1968084.7973763198 -10381054.570321288 5828687.3875860348 0 5828687.3875860348 910545.94172355533 0 0 0 -2367627.1571494378 -10050300.457671497 5303167.5751157254 0 5303167.5751157254 1870718.9007703811 0 0 0 -2044895.389225278 -6975140.308768101 2880906.9653417189 0 2880906.9653417189 966771.66532847285 0 0 0 -1502092.1608599052 -11692438.446938913 2216110.3989614695 0 2216110.3989614695 -692332.44108488224 0 0 0 -3096192.7220059452 315.1179642892057 442.15687327467276 0 442.15687327467276 9713.4076052200107 0 0 0 2507.1313923773032 -6421469.111215353 1893864.929616496 0 1893864.929616496 -7510602.5447503328 0 0 0 -3483017.9139914215 -9495606.633872062 975874.17083185911 0 975874.17083185911 -8108428.0571841002 0 0 0 -4401008.6727640629 9830.586824093707 7375.1949998501595 0 7375.1949998501595 -9866.6730585589848 0 0 0 -9.021558616319453 -9566433.0758965015 6614814.0051504523 0 6614814.0051504523 4108956.8813134432 0 0 0 -1364369.0486457571 9223.7467844195726 6916.8257518092905 0 6916.8257518092905 -9207.998873786848 0 0 0 3.9369776581816041 -9284639.0110601038 721600.75838947296 0 721600.75838947296 -8363583.8415001035 0 0 0 -4412055.7131400406 -10053803.898469359 283893.8065918982 0 283893.8065918982 -4192630.4154734612 0 0 0 -3561608.5784857273 -13068789.942299962 1891656.3037023619 0 1891656.3037023619 -7620689.8897449374 0 0 0 -5172369.9580112398 -9628561.561110802 1248156.29672575 0 1248156.29672575 -8417755.2291471958 0 0 0 -4511579.1975644901 92.370999829108769 514.36165387294295 0 514.36165387294295 9547.5510207314583 0 0 0 2409.9805051401454 -8656306.0866013914 3029878.6515073404 0 3029878.6515073404 -5840127.5813599825 0 0 0 -3624108.4169903398 -6689857.2174756229 1621160.6590357274 0 1621160.6590357274 -4814001.2665346265 0 0 0 -2875964.6210025847 -2939721.3505246788 3626928.3567423448 0 3626928.3567423448 -908690.71980828047 0 0 0 -962103.0175832212 -13114267.357847068 -2425462.7957206964 0 -2425462.7957206964 -4675991.1838703714 0 0 0 -4447564.6354293711 606.80797533301666 177.5065505475377 0 177.5065505475377 9522.2977224505594 0 0 0 2532.2764244458922 858952.64491519332 1034357.9305616692 0 1034357.9305616692 -1022865.0625020266 0 0 0 -40978.104396700859 -27608461.398438636 -4165753.763035357 0 -4165753.763035357 -2483939.5995431244 0 0 0 -7523100.2494954504 2424.7690749335707 -1022.5439108653618 0 -1022.5439108653618 10512.352096031012 0 0 0 3234.2802927411449 -6722302.5725252777 711989.99799396191 0 711989.99799396191 -2587720.4115226865 0 0 0 -2327505.7460119724 -5654217.9381505102 -290244.44631563127 0 -290244.44631563127 191896.01296703517 0 0 0 -1365580.4812958539 -10855896.181952532 1696187.9456911683 0 1696187.9456911683 -2165406.6950601996 0 0 0 -3255325.7192531945 -12700663.917983711 359731.83922369778 0 359731.83922369778 -4409568.9421116412 0 0 0 -4277558.2150238454 -15089679.871833183 1444185.0669815615 0 1444185.0669815615 -5111311.131462872 0 0 0 -5050247.7508240193 -13617556.003597993 3408917.9508819878 0 3408917.9508819878 -4700402.9812906934 0 0 0 -4579489.7462221719 -15197468.591341272 2453850.590520218 0 2453850.590520218 -7000677.2674016654 0 0 0 -5549536.4646857381 -11537658.069681659 2376121.4233303145 0 2376121.4233303145 -5236088.585242033 0 0 0 -4193436.6637309194 -9956742.850137759 3360212.8482575566 0 3360212.8482575566 -3093138.1393168531 0 0 0 -3262470.2473636465 -22971026.338769712 273398.80772204697 0 273398.80772204697 -7234511.8382606506 0 0 0 -7551384.5442575812 -18793950.463269114 1209897.2556435764 0 1209897.2556435764 -7529790.4713579714 0 0 0 -6580935.233656764 -17368455.344516039 186798.31058410555 0 186798.31058410555 -6952046.6779030561 0 0 0 -6080125.5056047738 -16446377.375987098 2826626.9373624176 0 2826626.9373624176 -6069937.9396180511 0 0 0 -5629078.828901276 -18007856.1777559 1208851.230294928 0 1208851.230294928 -7882044.0902382135 0 0 0 -6472475.0669985041 -15368913.139452107 1709941.7370949332 0 1709941.7370949332 -7973327.85739851 0 0 0 -5835560.2492126524 -19721040.423614129 1444638.2615747228 0 1444638.2615747228 -7532736.2226116955 0 0 0 -6813444.1615564525 -15838094.308472723 3214629.5620711241 0 3214629.5620711241 -7859931.7969216108 0 0 0 -5924506.5263485759 -13505551.823599204 3410337.6282599419 0 3410337.6282599419 -8243952.3187862635 0 0 0 -5437376.0355963632 -16104008.945633147 1690187.7476205006 0 1690187.7476205006 -8058361.0161015838 0 0 0 -6040592.4904336818 -13313948.467424508 4044228.4030144066 0 4044228.4030144066 -6168094.159211386 0 0 0 -4870510.6566589577 -10083086.376017109 2292206.7664684728 0 2292206.7664684728 -7052899.2318206429 0 0 0 -4283996.4019594491 -14055371.876980029 3973311.5031473935 0 3973311.5031473935 -6713410.3239486432 0 0 0 -5192195.5502321795 -13718992.873734012 4007096.8926777616 0 4007096.8926777616 -8136779.0703323781 0 0 0 -5463942.9860165864 -13344019.617113452 4149690.5328611583 0 4149690.5328611583 -7937898.1254531294 0 0 0 -5320479.4356416278 -14071500.664716996 4514748.0879517198 0 4514748.0879517198 -8605157.6509570777 0 0 0 -5669164.5789184943 -15341497.246312916 2700181.4268961996 0 2700181.4268961996 -8806963.9950539768 0 0 0 -6037115.3103417233 -13624779.12066415 2901351.5845130682 0 2901351.5845130682 -8974095.5731480718 0 0 0 -5649718.6734530479 -10429576.511644894 8467942.9189492241 0 8467942.9189492241 -888582.94801451638 0 0 0 -2829539.8649148531 6717.0846982623989 5029.6268255968243 0 5029.6268255968243 -6586.0980353113864 0 0 0 32.746665737753119 -12291694.524924912 4175645.632124573 0 4175645.632124573 -9084605.7236608863 0 0 0 -5344075.0621464476 7093.2014013941971 5321.7306816560213 0 5321.7306816560213 -7122.475917408161 0 0 0 -7.3186290034905142 -9206183.048230648 6529163.4339519534 0 6529163.4339519534 -1650997.3124530017 0 0 0 -2714295.0901709134 -11317912.277776875 6659300.2893718742 0 6659300.2893718742 -554229.87457489967 0 0 0 -2968035.5380879417 -10303058.497891221 8217691.9190025907 0 8217691.9190025907 -1368622.1772977188 0 0 0 -2917920.1687972341 -11944674.221425809 8214965.7753652437 0 8214965.7753652437 -1331636.0835389793 0 0 0 -3319077.5762411952 -12764758.710908398 1787171.1394381076 0 1787171.1394381076 -7557887.3708408885 0 0 0 -5080661.5204373142 -13828174.283015624 1343022.5613697171 0 1343022.5613697171 -7952092.4983217716 0 0 0 -5445066.69533436 -13734465.274713956 3078065.7819128036 0 3078065.7819128036 -8693948.0843622833 0 0 0 -5607103.3397690579 -11269342.004800767 2385837.9643428326 0 2385837.9643428326 -7511051.8784748912 0 0 0 -4695098.4708189145 -9431287.2047590725 6371684.4173559891 0 6371684.4173559891 -2820527.3423496559 0 0 0 -3062953.6367771812 -10215334.276260097 6956185.7895590756 0 6956185.7895590756 -1974661.2615238596 0 0 0 -3047498.8844459886 7438.1186394768774 5577.8373786576376 0 5577.8373786576376 -7426.0934098487951 0 0 0 3.0063074070205857 -13147126.51549197 2574521.8384176493 0 2574521.8384176493 -7144466.6869746447 0 0 0 -5072898.3006166667 -11835449.505752362 1739227.9104165286 0 1739227.9104165286 -8678969.4920548499 0 0 0 -5128604.7494518161 -9010860.297180213 3388760.9456584472 0 3388760.9456584472 -1280466.3375836257 0 0 0 -2572831.6586909592 7724.3796502282994 5793.4975010231938 0 5793.4975010231938 -7727.7842386234024 0 0 0 -0.85114709877620953 -4622478.4692356139 3326277.2043395536 0 3326277.2043395536 -933480.16181021929 0 0 0 -1388989.6577614583 -6110425.6034064451 3336470.022698408 0 3336470.022698408 -875368.36732843891 0 0 0 -1746448.4926837198 -7220334.6224665213 5920367.99736802 0 5920367.99736802 -1127985.2702320358 0 0 0 -2087079.973174639 -9278298.9381168187 6402141.7773196483 0 6402141.7773196483 -987208.31032472104 0 0 0 -2566376.8121103873 -8968047.1041201837 6078624.691359899 0 6078624.691359899 -2989122.7520472896 0 0 0 -2989292.4640418682 -6130098.2210656339 4424285.8940944634 0 4424285.8940944634 478832.30736257695 0 0 0 -1412816.4784257645 -4602414.9205421843 4852441.3245247034 0 4852441.3245247034 -1533971.5412555966 0 0 0 -1534096.6154494453 3290840.155702143 2471200.6590840016 0 2471200.6590840016 603982.92226555757 0 0 0 973705.7694919249 -10168940.787055461 7346815.735154557 0 7346815.735154557 -2001936.6173515767 0 0 0 -3042719.3511017617 -10205600.200679949 7309653.8585340548 0 7309653.8585340548 -1975902.2169318143 0 0 0 -3045375.6044029398 -9251841.2494697757 6937904.7850232851 0 6937904.7850232851 -1871058.3482845281 0 0 0 -2780724.8994385749 -9043272.4489080142 6071203.891905928 0 6071203.891905928 -1653286.7548673139 0 0 0 -2674139.8009438328 -10155726.193963883 6711300.1193623627 0 6711300.1193623627 -3385243.8417194076 0 0 0 -3385242.5089208228 -11143057.225531308 6909278.7922911728 0 6909278.7922911728 -3714323.1085608047 0 0 0 -3714345.083523029 -10451250.334330596 6537953.9933037665 0 6537953.9933037665 -3059265.3602362536 0 0 0 -3377628.9236417133 -10546243.523186315 7632193.4949824391 0 7632193.4949824391 -3014838.8339126687 0 0 0 -3390270.5892747426 -11165925.224074254 7450093.2552438295 0 7450093.2552438295 -2327613.3293156773 0 0 0 -3373384.6383474842 -14533370.157078881 5938963.5518588172 0 5938963.5518588172 -2337436.591008991 0 0 0 -4217701.6870219661 -11351183.614190934 7413846.8322503055 0 7413846.8322503055 -3827833.8012835663 0 0 0 -3794754.3538686251 -14439234.182859715 6941780.717963201 0 6941780.717963201 -4813469.7061207769 0 0 0 -4813175.9722451232 -12742253.426833799 5973018.6724800942 0 5973018.6724800942 -4172921.0766239902 0 0 0 -4228793.625864448 -17664146.040095001 5227110.8257421823 0 5227110.8257421823 -4508535.7047449127 0 0 0 -5543170.4362099795 -30599811.08544486 5422010.8408962348 0 5422010.8408962348 -3633389.1640432738 0 0 0 -8558300.0623720326 -20687480.028618656 7470755.4356029285 0 7470755.4356029285 -6894475.6215019142 0 0 0 -6895488.9125301437 -18475554.747268606 3004371.380990969 0 3004371.380990969 692263.68219684064 0 0 0 -4445822.7662679376 -16808166.903562624 7131532.5476217736 0 7131532.5476217736 -3629317.1347868014 0 0 0 -5109371.0095873568 -13751005.737848796 1936368.381385345 0 1936368.381385345 3275.3756953775883 0 0 0 -3436932.5905383565 -18775651.604780722 2293849.2172290105 0 2293849.2172290105 -637096.05644271523 0 0 0 -4853186.9153058603 -13843245.484568968 2080913.3373975344 0 2080913.3373975344 242562.04713393748 0 0 0 -3400170.8593587615 -14678393.951545637 5077899.2258909103 0 5077899.2258909103 -725271.12997335196 0 0 0 -3850916.2703797445 -10402220.233239556 4299256.6068353541 0 4299256.6068353541 615887.93715264648 0 0 0 -2446583.074021725 -10504590.068620302 6409346.2167267147 0 6409346.2167267147 -422830.40552537143 0 0 0 -2731855.1185364164 -7120705.298178155 5042543.5685058348 0 5042543.5685058348 1984784.9253899828 0 0 0 -1283980.0931970514 -7545167.5555206779 8932815.6517987698 0 8932815.6517987698 1327026.1252635866 0 0 0 -1554535.3575642761 -10328480.486142427 7751606.2709072782 0 7751606.2709072782 -713561.0147690326 0 0 0 -2760510.3752278611 -10744955.070739513 7773993.3114570295 0 7773993.3114570295 -2418907.4109701812 0 0 0 -3290965.6204274241 -9581782.7321425341 8327219.6073831841 0 8327219.6073831841 -1479072.6006196328 0 0 0 -2765213.8331905417 -11296030.107795598 5861430.0121434666 0 5861430.0121434666 -1255659.3447808996 0 0 0 -3137922.3631441221 -10999710.152050883 5743128.1319441851 0 5743128.1319441851 -1168471.4433697127 0 0 0 -3042045.398855147 
</DataArray>
<DataArray type="Float64" Name="cross_section_updated" format="ascii">
1 1 1 1 1 1 1 1 1 1 1 0.00099999962409707752 1 1 0.00099999980921675058 1 1 1 1 1 0.0072161159825459981 1 1 0.0010000005078742037 1 0.0010000000920908567 1 1 1 1 0.0070438064853906301 1 1 1 1 0.0073311476351789057 1 1 0.0090982379097033252 1 1 1 1 1 1 1 1 1 1 1 1 1 1 1 1 1 1 1 1 1 1 1 1 1 1 1 1 0.0010000000316655469 1 0.0010000000266405067 1 1 1 1 1 1 1 1 1 1 0.0010000000240982763 1 1 1 0.0010000000234227403 1 1 1 1 1 1 1 1 1 1 1 1 1 1 1 1 1 1 1 1 1 1 1 1 1 1 1 1 1 1 1 1 1 1 1 1 1 1 1 
</DataArray>
</CellData>
</Piece>
</UnstructuredGrid>
</VTKFile>
