<?xml version="1.0"?>
<VTKFile type="UnstructuredGrid" version="0.1" byte_order="LittleEndian">
<UnstructuredGrid>
<Piece NumberOfPoints="3142" NumberOfCells="1054">
<Points>
<DataArray type="Float64" NumberOfComponents="3" format="ascii">
0.5 0.29999999999999999 0 0.54999999999999993 0.29999999999999999 0 0.54999999999999993 0.29999999999999999 0 0.59999999999999976 0.29999999999999999 0 0.59999999999999976 0.29999999999999999 0 0.6499999999999998 0.29999999999999999 0 0.6499999999999998 0.29999999999999999 0 0.69999999999999984 0.29999999999999999 0 0.69999999999999984 0.29999999999999999 0 0.74999999999999989 0.29999999999999999 0 0.74999999999999989 0.29999999999999999 0 0.79999999999999982 0.29999999999999999 0 0.79999999999999982 0.29999999999999999 0 0.84999999999999987 0.29999999999999999 0 0.84999999999999987 0.29999999999999999 0 0.89999999999999991 0.29999999999999999 0 0.89999999999999991 0.29999999999999999 0 0.94999999999999996 0.29999999999999999 0 0.94999999999999996 0.29999999999999999 0 1 0.29999999999999999 0 0.5 0.69999999999999996 0 0.54999999999999993 0.69999999999999996 0 0.54999999999999993 0.69999999999999996 0 0.59999999999999976 0.69999999999999996 0 0.59999999999999976 0.69999999999999996 0 0.6499999999999998 0.69999999999999996 0 0.6499999999999998 0.69999999999999996 0 0.69999999999999984 0.69999999999999996 0 0.69999999999999984 0.69999999999999996 0 0.74999999999999989 0.69999999999999996 0 0.74999999999999989 0.69999999999999996 0 0.79999999999999982 0.69999999999999996 0 0.79999999999999982 0.69999999999999996 0 0.84999999999999987 0.69999999999999996 0 0.84999999999999987 0.69999999999999996 0 0.89999999999999991 0.69999999999999996 0 0.89999999999999991 0.69999999999999996 0 0.94999999999999996 0.69999999999999996 0 0.94999999999999996 0.69999999999999996 0 1 0.69999999999999996 0 0.40076539126862748 0.34589349467022118 0 0.33277555741076909 0.36432196682010132 0 0.36575549820117997 0.31677992835137742 0 0.38083244760691543 0.38531983672244652 0 0.33277555741076909 0.36432196682010132 0 0.40076539126862748 0.34589349467022118 0 0.56836770495988642 0.3523062350852913 0 0.52289427570932567 0.3932284363388488 0 0.52752007115234678 0.33170632466418198 0 0.52752007115234678 0.33170632466418198 0 0.52289427570932567 0.3932284363388488 0 0.49077833859261139 0.35229981449445641 0 0.10000000000041601 1 0 0.053064897599294662 0.95186845269532028 0 0.10266856499240549 0.95548163909968886 0 0.099999999999814668 0 0 0.10266856499169109 0.044518360900210059 0 0.053064897599215843 0.048131547304697528 0 0.050000000000207989 1 0 0.053064897599294662 0.95186845269532028 0 0.10000000000041601 1 0 0.049999999999899652 0 0 0.099999999999814668 0 0 0.053064897599215843 0.048131547304697528 0 0.24999999999941211 0 0 0.29999999999926641 0 0 0.27499999999933927 0.060310814194988557 0 0.30000000000124832 1 0 0.25000000000104028 1 0 0.27609987656793722 0.94991445621608572 0 0.15720202157091859 0.60665697304410315 0 0.19914261668318661 0.62286739485272158 0 0.16500388252850301 0.66612077714085194 0 0.2236846579037573 0.67380363126050236 0 0.16500388252850301 0.66612077714085194 0 0.19914261668318661 0.62286739485272158 0 0.1247745017231483 0.27198077544791172 0 0.168349569971391 0.28054490850913671 0 0.14223753364722069 0.3341983344262433 0 0 0.75000000000034661 0 0 0.7000000000006934 0 0.049706944316475897 0.72477277076253799 0 0 0.30000000000124832 0 0 0.25000000000104028 0 0.049706944316556423 0.27522722923869108 0 0.59999999999999976 0.29999999999999999 0 0.61959173890754571 0.33832250091341232 0 0.56836770495988642 0.3523062350852913 0 0.5 0.69999999999999996 0 0.43323420005758778 0.6913544522562407 0 0.47913475093885149 0.66010775372412711 0 1 0.14999999999961891 0 0.95391631417672862 0.19584263333809451 0 0.93677536231883773 0.14999999999999089 0 1 0.84999999999982645 0 0.95391631417670719 0.89584263333814784 0 0.93677536231884972 0.85000000000000286 0 1 0.84999999999982645 0 0.93677536231884972 0.85000000000000286 0 0.95386563387742829 0.80414874155775029 0 1 0.14999999999961891 0 0.93677536231883773 0.14999999999999089 0 0.95386563387744361 0.1041487415577465 0 0.90416666666660628 0.9041666666666166 0 0.88088768115933802 0.84674609810493673 0 0.93677536231884972 0.85000000000000286 0 0.90416666666668166 0.20416666666667119 0 0.88088768115941807 0.14674609810479519 0 0.93677536231883773 0.14999999999999089 0 0.1247745017231483 0.27198077544791172 0 0.14223753364722069 0.3341983344262433 0 0.093851963071650835 0.30582068233324772 0 0.5 0.69999999999999996 0 0.45582236402875981 0.73896743678908217 0 0.43323420005758778 0.6913544522562407 0 0.55000000000173355 1 0 0.50000000000205869 1 0 0.52122150208832174 0.94089974453840242 0 0.49999999999869432 0 0 0.5499999999988151 0 0 0.52375890611712683 0.059318771819432882 0 0.54999999999999993 0.29999999999999999 0 0.59999999999999976 0.29999999999999999 0 0.56836770495988642 0.3523062350852913 0 0.50202631463681879 0.87892870825713787 0 0.44003836461056539 0.88093474584252718 0 0.45677673713123867 0.84253684404072415 0 0.33403534827021109 0.84402799729020661 0 0.35864759629805099 0.87963482415279515 0 0.30864387279288652 0.89906554525974958 0 0.53245488764484505 0.55078124999999989 0 0.47793794143994173 0.52940715638744962 0 0.53330375813596242 0.50827942741749099 0 0.82709327591102189 0.14937141670914489 0 0.81283102246527783 0.1881007222486438 0 0.77144070960558853 0.14311854477243749 0 0.82709327591091286 0.84937141670920724 0 0.81159157511211755 0.88795995483179491 0 0.76901770135486491 0.84293557325473656 0 0.77144070960558853 0.14311854477243749 0 0.81283102246527783 0.1881007222486438 0 0.76587607630038135 0.18880039518954719 0 0.76901770135486491 0.84293557325473656 0 0.81159157511211755 0.88795995483179491 0 0.76891166905518427 0.88835469571185499 0 0.33403534827021109 0.84402799729020661 0 0.30864387279288652 0.89906554525974958 0 0.29209212897034281 0.84715728365233667 0 0.57412547362576272 0.58273804879550706 0 0.5166924242153631 0.59825134841919447 0 0.53245488764484505 0.55078124999999989 0 0.50202631463681879 0.87892870825713787 0 0.47401147028110507 0.91529957330468115 0 0.44003836461056539 0.88093474584252718 0 0.5 0.69999999999999996 0 0.54999999999999993 0.69999999999999996 0 0.55363780716230748 0.74348740161571747 0 1 0.34999999999993492 0 0.95871855522754235 0.40006508612975411 0 0.95780851984364423 0.34215720972155339 0 1 0.64999999999986979 0 0.9578014258160763 0.65787212321113708 0 0.95867599106212187 0.60011091146651041 0 0.46666084890304671 0.57634471035397938 0 0.47793794143994173 0.52940715638744962 0 0.53245488764484505 0.55078124999999989 0 0.94999999999999996 0.29999999999999999 0 0.89898474358614167 0.25391965591104898 0 0.94399509803921056 0.24399509803922639 0 0.94999999999979179 1 0 0.89898474358632463 0.95391965591118966 0 0.94399509803919068 0.9439950980391687 0 0 0.65000000000104008 0 0.050069554451969707 0.61308520079857043 0 0.046634677244967337 0.671418230738282 0 0 0.35000000000145642 0 0.046389130980076937 0.32668781832131749 0 0.050583896093752537 0.38543522283434112 0 0.50202631463681879 0.87892870825713787 0 0.50627822638148745 0.8263979829520941 0 0.55899371797446828 0.85003102233514438 0 0.54782696902220018 0.79245182748204157 0 0.55899371797446828 0.85003102233514438 0 0.50627822638148745 0.8263979829520941 0 0.50945740445113552 0.75476055527778108 0 0.5 0.69999999999999996 0 0.55363780716230748 0.74348740161571747 0 0.84999999999965292 1 0 0.85170973911348691 0.93569607295217616 0 0.89898474358632463 0.95391965591118966 0 0.84999999999999987 0.29999999999999999 0 0.8517097391133297 0.2356960729520409 0 0.89898474358614167 0.25391965591104898 0 0.86956835336234861 0.571283299838105 0 0.82862096804812391 0.55037090955459045 0 0.86907294890112186 0.52008116128001669 0 0.49102375406324739 0.49123754822244059 0 0.53330375813596242 0.50827942741749099 0 0.47793794143994173 0.52940715638744962 0 0.57611405284611883 0.50165903596042916 0 0.61547661924074692 0.48539576058873962 0 0.62042975506801734 0.54295974692364424 0 0.71406021706547751 0.63292083137662503 0 0.67529834988829951 0.61613270668143583 0 0.71809016091162536 0.58185040402320831 0 0.65000000000104008 1 0 0.62065498684670595 0.95224934003983619 0 0.68015064798562208 0.95924320340003011 0 0.84999999999960507 0 0 0.899991664607802 0.045289349238254978 0 0.85491058998398861 0.060047533455626502 0 0.84999999999999987 0.69999999999999996 0 0.89999166460796554 0.74528934923809909 0 0.85491058998424563 0.76004753345552634 0 0.89999999999999991 0.29999999999999999 0 0.89898474358614167 0.25391965591104898 0 0.94999999999999996 0.29999999999999999 0 0.94999999999979179 1 0 0.89999999999958358 1 0 0.89898474358632463 0.95391965591118966 0 0.86411095495256451 0.42388805655111889 0 0.81308179852519835 0.39754945808726527 0 0.86844634540301924 0.38530937474099819 0 0.5 0.29999999999999999 0 0.49695729691142171 0.25014895411178018 0 0.54248833945060504 0.2520322959927106 0 0.86411095495256451 0.42388805655111889 0 0.81973119833356312 0.43505687159469048 0 0.81308179852519835 0.39754945808726527 0 0.67323294229744413 0.57556450033612505 0 0.71809016091162536 0.58185040402320831 0 0.67529834988829951 0.61613270668143583 0 0.6236733212988993 0.14864538214901801 0 0.68391457121233579 0.14440470121196541 0 0.64011864159029941 0.18789607982138171 0 0 0.050000000000207989 0 0.053064897599215843 0.048131547304697528 0 0.044310582753132287 0.101412518374475 0 0 0.94999999999979179 0 0.0443105827531413 0.89858748162559932 0 0.053064897599294662 0.95186845269532028 0 1 0.34999999999993492 0 1 0.39999999999978308 0 0.95871855522754235 0.40006508612975411 0 1 0.59999999999973963 0 1 0.64999999999986979 0 0.95867599106212187 0.60011091146651041 0 0 0.84999999999965292 0 0.065374659239661639 0.8551091961254178 0 0.0443105827531413 0.89858748162559932 0 0 0.15000000000062411 0 0.044310582753132287 0.101412518374475 0 0.065374659239632718 0.1448908038746782 0 0.16500388252850301 0.66612077714085194 0 0.1020579365089687 0.69352219419301997 0 0.1241190223511371 0.64391885572885044 0 0.14999999999970359 0 0 0.14618258501891079 0.062070108745602003 0 0.10266856499169109 0.044518360900210059 0 0.15000000000062411 1 0 0.10266856499240549 0.95548163909968886 0 0.14617343800780541 0.93808063414349496 0 0.7152569930854884 0.5237994455134295 0 0.67569444444444449 0.53500863336860327 0 0.69385896817107129 0.48377516041410151 0 0.6541250972820879 0.49999999999999989 0 0.62042975506801734 0.54295974692364424 0 0.61547661924074692 0.48539576058873962 0 0.94999999999999996 0.69999999999999996 0 0.94399509803918602 0.75600490196082126 0 0.89999166460796554 0.74528934923809909 0 0.94999999999986839 0 0 0.94399509803922566 0.056004901960802607 0 0.899991664607802 0.045289349238254978 0 0.6541250972820879 0.49999999999999989 0 0.69385896817107129 0.48377516041410151 0 0.67569444444444449 0.53500863336860327 0 0.82862096804812391 0.55037090955459045 0 0.81723410853263523 0.59419663659258926 0 0.77151014687832564 0.54436834383023036 0 0.7250000000005199 0.89375000000045834 0 0.66412543161245952 0.88015090885499059 0 0.68697391633157634 0.84450604838764298 0 0 0.94999999999979179 0 0 0.89999999999958358 0 0.0443105827531413 0.89858748162559932 0 0 0.10000000000041601 0 0 0.050000000000207989 0 0.044310582753132287 0.101412518374475 0 0.16500388252850301 0.66612077714085194 0 0.15332765547575641 0.71200081858233666 0 0.1020579365089687 0.69352219419301997 0 0.90299850604011456 0.79563452813489832 0 0.93677536231884972 0.85000000000000286 0 0.88088768115933802 0.84674609810493673 0 0.90299850604006393 0.09563452813493091 0 0.93677536231883773 0.14999999999999089 0 0.88088768115941807 0.14674609810479519 0 0.68391457121233579 0.14440470121196541 0 0.6865991819015953 0.189116534044597 0 0.64011864159029941 0.18789607982138171 0 0.085622222639554768 0.53333248912060549 0 0.1216098864341134 0.50637075089503902 0 0.1154888278694548 0.56733818459978413 0 0.21858834311891909 0.81980263716112767 0 0.22556077506376701 0.77837424984191617 0 0.26104540868854792 0.81401944968719064 0 0.81723410853263523 0.59419663659258926 0 0.77293540622714185 0.59448302402785813 0 0.77151014687832564 0.54436834383023036 0 0.1154888278694548 0.56733818459978413 0 0.1216098864341134 0.50637075089503902 0 0.14934928745814749 0.55042914607228977 0 0.1216098864341134 0.50637075089503902 0 0.068743045408989428 0.48853989837882689 0 0.113541300460994 0.46208784312094731 0 0.078358742472063481 0.43365249433908948 0 0.113541300460994 0.46208784312094731 0 0.068743045408989428 0.48853989837882689 0 0.83573492347052902 0.36590755630746369 0 0.81308179852519835 0.39754945808726527 0 0.78145581580700685 0.34881365920033602 0 0.57611405284611883 0.50165903596042916 0 0.62042975506801734 0.54295974692364424 0 0.57435499076887508 0.54267261987897775 0 0.86956835336234861 0.571283299838105 0 0.81723410853263523 0.59419663659258926 0 0.82862096804812391 0.55037090955459045 0 0.46666084890304671 0.57634471035397938 0 0.53245488764484505 0.55078124999999989 0 0.5166924242153631 0.59825134841919447 0 0.89999999999999991 0.69999999999999996 0 0.94999999999999996 0.69999999999999996 0 0.89999166460796554 0.74528934923809909 0 0.89999999999973679 0 0 0.94999999999986839 0 0 0.899991664607802 0.045289349238254978 0 0.84999999999960507 0 0 0.89999999999973679 0 0 0.899991664607802 0.045289349238254978 0 0.84999999999999987 0.69999999999999996 0 0.89999999999999991 0.69999999999999996 0 0.89999166460796554 0.74528934923809909 0 0.43545892161006339 0.61093128915313821 0 0.4089290844030305 0.58728915500154233 0 0.46666084890304671 0.57634471035397938 0 0.1650278706801647 0.38791388161335733 0 0.1117088112799664 0.38831403004970022 0 0.14223753364722069 0.3341983344262433 0 0.087545339447545459 0.35122518864182262 0 0.14223753364722069 0.3341983344262433 0 0.1117088112799664 0.38831403004970022 0 0.6916490518212759 0.75387992374886192 0 0.72501250972655151 0.74067302935308721 0 0.72500000000000064 0.7952620967744265 0 0.72501250972655151 0.74067302935308721 0 0.75841349681148107 0.75422312624214749 0 0.72500000000000064 0.7952620967744265 0 0.57412547362576272 0.58273804879550706 0 0.53245488764484505 0.55078124999999989 0 0.57435499076887508 0.54267261987897775 0 1 0.54999999999963112 0 0.95867599106212187 0.60011091146651041 0 0.93732437411268477 0.55911392101136159 0 1 0.44999999999963131 0 0.93814194660195893 0.44426664081746747 0 0.95871855522754235 0.40006508612975411 0 0.4089290844030305 0.58728915500154233 0 0.42644501560315817 0.54603747078095544 0 0.46666084890304671 0.57634471035397938 0 0.89999999999958358 1 0 0.84999999999965292 1 0 0.89898474358632463 0.95391965591118966 0 0.84999999999999987 0.29999999999999999 0 0.89898474358614167 0.25391965591104898 0 0.89999999999999991 0.29999999999999999 0 0.29999999999926641 0 0 0.32541448401678508 0.046215317981507749 0 0.27499999999933927 0.060310814194988557 0 0.30000000000124832 1 0 0.27609987656793722 0.94991445621608572 0 0.32544832635163229 0.95485394099568932 0 0.57412547362576272 0.58273804879550706 0 0.62042975506801734 0.54295974692364424 0 0.63065402604362242 0.59661356661633302 0 0.5 0.29999999999999999 0 0.54248833945060504 0.2520322959927106 0 0.54999999999999993 0.29999999999999999 0 0.67323294229744413 0.57556450033612505 0 0.62042975506801734 0.54295974692364424 0 0.67569444444444449 0.53500863336860327 0 0.6541250972820879 0.49999999999999989 0 0.67569444444444449 0.53500863336860327 0 0.62042975506801734 0.54295974692364424 0 1 0.14999999999961891 0 1 0.19999999999974799 0 0.95391631417672862 0.19584263333809451 0 1 0.84999999999982645 0 1 0.8999999999998336 0 0.95391631417670719 0.89584263333814784 0 1 0.7999999999998193 0 1 0.84999999999982645 0 0.95386563387742829 0.80414874155775029 0 1 0.099999999999753911 0 1 0.14999999999961891 0 0.95386563387744361 0.1041487415577465 0 0.4656888918609538 0.78493261229743638 0 0.50627822638148745 0.8263979829520941 0 0.45677673713123867 0.84253684404072415 0 0.6879972333610942 0.43038561374960838 0 0.72622533758026719 0.40265885511101601 0 0.73483647259922602 0.44789725365921768 0 0.67323294229744413 0.57556450033612505 0 0.67569444444444449 0.53500863336860327 0 0.71809016091162536 0.58185040402320831 0 0.7152569930854884 0.5237994455134295 0 0.71809016091162536 0.58185040402320831 0 0.67569444444444449 0.53500863336860327 0 0.65394964615507722 0.22666784374016369 0 0.59814117807200873 0.23398510860739519 0 0.64011864159029941 0.18789607982138171 0 0.55000000000173355 1 0 0.52122150208832174 0.94089974453840242 0 0.57382506491224949 0.9629411906298494 0 0.39801143831225599 0.16651381068160659 0 0.44288491854585582 0.14116182884956319 0 0.42905200079338551 0.19982395548231649 0 0.47357141910802508 0.1873585799078378 0 0.42905200079338551 0.19982395548231649 0 0.44288491854585582 0.14116182884956319 0 0.90594285160987287 0.4141265964174129 0 0.88594198078881503 0.46167788676578442 0 0.86411095495256451 0.42388805655111889 0 0.65507451745379841 0.92229208810758578 0 0.68015064798562208 0.95924320340003011 0 0.62065498684670595 0.95224934003983619 0 0.35312867752657662 0.084946736076730367 0 0.39591832466117061 0.056982757562006353 0 0.39823268594401579 0.1116623613130045 0 0.43698630808430822 0.080423614171545449 0 0.39823268594401579 0.1116623613130045 0 0.39591832466117061 0.056982757562006353 0 0.4367309254023824 0.92065556789053882 0 0.39641108128798319 0.94356127926187128 0 0.39767323751400468 0.89584229130535065 0 0.35752321586431363 0.9185439911803448 0 0.39767323751400468 0.89584229130535065 0 0.39641108128798319 0.94356127926187128 0 0.77354604466818633 0.40378688774472771 0 0.77972660463949339 0.45529290596363098 0 0.73483647259922602 0.44789725365921768 0 0.5499999999988151 0 0 0.57396793757665954 0.037011367187645222 0 0.52375890611712683 0.059318771819432882 0 0.64753070846764316 0.77332939069435502 0 0.60294066490120068 0.80851322453934582 0 0.59636844454254345 0.75937156204589151 0 0.49102375406324739 0.49123754822244059 0 0.48858720058566618 0.43964267759203868 0 0.53823865529665704 0.45873898050322898 0 0.28307294598219601 0.50789252727458634 0 0.29110487519241501 0.56588143995431495 0 0.25115337790845271 0.54719303014923271 0 0.79680861578988083 0.92656778056766709 0 0.81159157511211755 0.88795995483179491 0 0.85170973911348691 0.93569607295217616 0 0.79680861578956375 0.22656778056752541 0 0.81283102246527783 0.1881007222486438 0 0.8517097391133297 0.2356960729520409 0 0.57412547362576272 0.58273804879550706 0 0.57435499076887508 0.54267261987897775 0 0.62042975506801734 0.54295974692364424 0 0.93814194660195893 0.44426664081746747 0 0.88594198078881503 0.46167788676578442 0 0.90594285160987287 0.4141265964174129 0 0.7152569930854884 0.5237994455134295 0 0.73947346780852752 0.49062440112282169 0 0.77151014687832564 0.54436834383023036 0 0 0.7000000000006934 0 0.046634677244967337 0.671418230738282 0 0.049706944316475897 0.72477277076253799 0 0 0.30000000000124832 0 0.049706944316556423 0.27522722923869108 0 0.046389130980076937 0.32668781832131749 0 0.59814117807200873 0.23398510860739519 0 0.59443395090188023 0.18455690917515069 0 0.64011864159029941 0.18789607982138171 0 0.21858834311891909 0.81980263716112767 0 0.26104540868854792 0.81401944968719064 0 0.2401283238295133 0.85648409884788523 0 0.39536230704883951 0.84069429572832477 0 0.45677673713123867 0.84253684404072415 0 0.44003836461056539 0.88093474584252718 0 0.086179601630648681 0.64647209519980475 0 0.050069554451969707 0.61308520079857043 0 0.1024350934457823 0.60772393977513839 0 0.077693244765132896 0.56932317963405099 0 0.1024350934457823 0.60772393977513839 0 0.050069554451969707 0.61308520079857043 0 0.078358742472063481 0.43365249433908948 0 0.050583896093752537 0.38543522283434112 0 0.1117088112799664 0.38831403004970022 0 0.087545339447545459 0.35122518864182262 0 0.1117088112799664 0.38831403004970022 0 0.050583896093752537 0.38543522283434112 0 0.33403534827021109 0.84402799729020661 0 0.35642984951668422 0.80994399665655703 0 0.39536230704883951 0.84069429572832477 0 0.28307294598219601 0.50789252727458634 0 0.33190227185843768 0.52715113583864037 0 0.29110487519241501 0.56588143995431495 0 0.2236846579037573 0.67380363126050236 0 0.19068556247388771 0.71028988922845504 0 0.16500388252850301 0.66612077714085194 0 0.26104540868854792 0.81401944968719064 0 0.22556077506376701 0.77837424984191617 0 0.2792923945214143 0.77665808831789485 0 0.38244435121258652 0.51653317813019495 0 0.37272913873093971 0.56192925302619479 0 0.33190227185843768 0.52715113583864037 0 0.25195515620380449 0.25883339815888678 0 0.29132859388405002 0.27203693976649962 0 0.24432083401701241 0.3006253385567515 0 0.29348325746214782 0.31350119524708198 0 0.24432083401701241 0.3006253385567515 0 0.29132859388405002 0.27203693976649962 0 0 0.89999999999958358 0 0 0.84999999999965292 0 0.0443105827531413 0.89858748162559932 0 0 0.15000000000062411 0 0 0.10000000000041601 0 0.044310582753132287 0.101412518374475 0 0.59999999999999976 0.69999999999999996 0 0.59636844454254345 0.75937156204589151 0 0.55363780716230748 0.74348740161571747 0 0.1650278706801647 0.38791388161335733 0 0.22033343844674469 0.36963382230740238 0 0.191953871957803 0.42546416763755879 0 0.52289427570932567 0.3932284363388488 0 0.46655310992796922 0.39650496622958609 0 0.49077833859261139 0.35229981449445641 0 0.91696753777131557 0.497780560203536 0 0.88594198078881503 0.46167788676578442 0 0.93814194660195893 0.44426664081746747 0 0.24999999999941211 0 0 0.27499999999933927 0.060310814194988557 0 0.22668068146512929 0.045875643423131329 0 0.25000000000104028 1 0 0.22850979588452081 0.95594428570238643 0 0.27609987656793722 0.94991445621608572 0 0.77846603114747959 0.49850927265137401 0 0.77151014687832564 0.54436834383023036 0 0.73947346780852752 0.49062440112282169 0 0.27499999999933927 0.060310814194988557 0 0.27474541102162192 0.11822029332053539 0 0.24218496799700481 0.089025544070598317 0 0.27270076654418179 0.87751467830216623 0 0.29209212897034281 0.84715728365233667 0 0.30864387279288652 0.89906554525974958 0 0.3096713403101819 0.085471541595262421 0 0.27474541102162192 0.11822029332053539 0 0.27499999999933927 0.060310814194988557 0 0.17933913398461551 0.2350063570234002 0 0.18124454140915969 0.18790916706335251 0 0.224700362040408 0.22206622194729711 0 0.18269480424590959 0.75905448272264375 0 0.22556077506376701 0.77837424984191617 0 0.17777405986036951 0.81832336108265358 0 0.35864759629805099 0.87963482415279515 0 0.33403534827021109 0.84402799729020661 0 0.39536230704883951 0.84069429572832477 0 0.77354604466818633 0.40378688774472771 0 0.73483647259922602 0.44789725365921768 0 0.72622533758026719 0.40265885511101601 0 0.80185942888539485 0.77452061303608133 0 0.85491058998424563 0.76004753345552634 0 0.84725310900444062 0.80779732082917555 0 0.80185942888501827 0.074520613036224564 0 0.85491058998398861 0.060047533455626502 0 0.84725310900442086 0.10779732082922661 0 0.086179601630648681 0.64647209519980475 0 0.046634677244967337 0.671418230738282 0 0.050069554451969707 0.61308520079857043 0 0.087545339447545459 0.35122518864182262 0 0.050583896093752537 0.38543522283434112 0 0.046389130980076937 0.32668781832131749 0 0 0.75000000000034661 0 0.049706944316475897 0.72477277076253799 0 0.04408157711937423 0.7728941757575627 0 0 0.25000000000104028 0 0.044081577119474857 0.2271058242433576 0 0.049706944316556423 0.27522722923869108 0 0.52289427570932567 0.3932284363388488 0 0.56836770495988642 0.3523062350852913 0 0.57744073070774993 0.41535148636609359 0 0.6084546825910605 0.37989672713932537 0 0.57744073070774993 0.41535148636609359 0 0.56836770495988642 0.3523062350852913 0 0.61343887413683884 0.856862479058357 0 0.55899371797446828 0.85003102233514438 0 0.60294066490120068 0.80851322453934582 0 0.54782696902220018 0.79245182748204157 0 0.60294066490120068 0.80851322453934582 0 0.55899371797446828 0.85003102233514438 0 0.40326160981139969 0.73346192995102844 0 0.36622285152418499 0.69092437780804039 0 0.43323420005758778 0.6913544522562407 0 0.52289427570932567 0.3932284363388488 0 0.48858720058566618 0.43964267759203868 0 0.46655310992796922 0.39650496622958609 0 0.15720202157091859 0.60665697304410315 0 0.1154888278694548 0.56733818459978413 0 0.14934928745814749 0.55042914607228977 0 0.6879972333610942 0.43038561374960838 0 0.73483647259922602 0.44789725365921768 0 0.69385896817107129 0.48377516041410151 0 0.7250000000005199 0.89375000000045834 0 0.68987011941058407 0.92105047536677087 0 0.66412543161245952 0.88015090885499059 0 0.83573492347052902 0.36590755630746369 0 0.78145581580700685 0.34881365920033602 0 0.82500000000000062 0.33010209762754811 0 0.82862096804812391 0.55037090955459045 0 0.81441713509985358 0.51161854125224959 0 0.86907294890112186 0.52008116128001669 0 0.19670163708476801 0.31472518408333222 0 0.14223753364722069 0.3341983344262433 0 0.168349569971391 0.28054490850913671 0 0.50202631463681879 0.87892870825713787 0 0.45677673713123867 0.84253684404072415 0 0.50627822638148745 0.8263979829520941 0 0.099999999999814668 0 0 0.14999999999970359 0 0 0.10266856499169109 0.044518360900210059 0 0.15000000000062411 1 0 0.10000000000041601 1 0 0.10266856499240549 0.95548163909968886 0 0.67323294229744413 0.57556450033612505 0 0.63065402604362242 0.59661356661633302 0 0.62042975506801734 0.54295974692364424 0 0.083105206071467416 0.20007701332709979 0 0.13737030665753211 0.20313708640667491 0 0.095326043202144745 0.24554465089224409 0 0.083105206071452636 0.79992298667296435 0 0.090953281884486245 0.7564451946902494 0 0.1382744753146134 0.79650574229207483 0 0.50000000000205869 1 0 0.47135117303824892 0.95556877749289892 0 0.52122150208832174 0.94089974453840242 0 0.49999999999869432 0 0 0.52375890611712683 0.059318771819432882 0 0.47040171442036788 0.044141676406503738 0 0.4656888918609538 0.78493261229743638 0 0.45582236402875981 0.73896743678908217 0 0.50945740445113552 0.75476055527778108 0 0.5 0.69999999999999996 0 0.50945740445113552 0.75476055527778108 0 0.45582236402875981 0.73896743678908217 0 0.55306006949600994 0.20198184231352201 0 0.56202748619534593 0.15054058349222879 0 0.59443395090188023 0.18455690917515069 0 0.6236733212988993 0.14864538214901801 0 0.59443395090188023 0.18455690917515069 0 0.56202748619534593 0.15054058349222879 0 0.57412547362576272 0.58273804879550706 0 0.5498280205245758 0.6290146943450976 0 0.5166924242153631 0.59825134841919447 0 0.91696753777131557 0.497780560203536 0 0.93814194660195893 0.44426664081746747 0 0.96228564064454991 0.48206450662049471 0 0.15720202157091859 0.60665697304410315 0 0.16500388252850301 0.66612077714085194 0 0.1241190223511371 0.64391885572885044 0 0.44288491854585582 0.14116182884956319 0 0.47881186583059909 0.093591717165689425 0 0.48466639505193998 0.1421439844745814 0 1 0.54999999999963112 0 0.93732437411268477 0.55911392101136159 0 0.95631871884947484 0.51827533208233789 0 0.57724883562309992 0.92155686857100794 0 0.57382506491224949 0.9629411906298494 0 0.52122150208832174 0.94089974453840242 0 0.85170973911348691 0.93569607295217616 0 0.81159157511211755 0.88795995483179491 0 0.85600844944837662 0.88483418979512773 0 0.8517097391133297 0.2356960729520409 0 0.81283102246527783 0.1881007222486438 0 0.85600844944842547 0.1848341897950983 0 0.27866744612395528 0.38416094670951489 0 0.29124338931648802 0.43334555462578611 0 0.24049127783545701 0.41270748208749802 0 0.6084546825910605 0.37989672713932537 0 0.56836770495988642 0.3523062350852913 0 0.61959173890754571 0.33832250091341232 0 0.20050006573841939 0.53248514016039872 0 0.25115337790845271 0.54719303014923271 0 0.22549374774072969 0.58452645269293457 0 0.26573297623774761 0.59828298563722948 0 0.22549374774072969 0.58452645269293457 0 0.25115337790845271 0.54719303014923271 0 0.26104540868854792 0.81401944968719064 0 0.29209212897034281 0.84715728365233667 0 0.2401283238295133 0.85648409884788523 0 0.6236733212988993 0.14864538214901801 0 0.65290632656860115 0.11434202593454081 0 0.68391457121233579 0.14440470121196541 0 0.19901705110390991 0.9175543425573498 0 0.19741632902693801 0.86755867406447229 0 0.24536017905392571 0.90704567837671446 0 0.72500000000000064 0.7952620967744265 0 0.76901770135486491 0.84293557325473656 0 0.72863726579783861 0.85390518901155588 0 0.72500000000000064 0.7952620967744265 0 0.72863726579783861 0.85390518901155588 0 0.68697391633157634 0.84450604838764298 0 0.7250000000005199 0.89375000000045834 0 0.68697391633157634 0.84450604838764298 0 0.72863726579783861 0.85390518901155588 0 0.72525833953073282 0.1032114801687094 0 0.77144070960558853 0.14311854477243749 0 0.72634814642510737 0.16106886917518889 0 0.72525833953073282 0.1032114801687094 0 0.72634814642510737 0.16106886917518889 0 0.68391457121233579 0.14440470121196541 0 0.36622285152418499 0.69092437780804039 0 0.3977710372045391 0.65868194622830212 0 0.43323420005758778 0.6913544522562407 0 0 0.65000000000104008 0 0 0.60000000000138687 0 0.050069554451969707 0.61308520079857043 0 0 0.40000000000166441 0 0 0.35000000000145642 0 0.050583896093752537 0.38543522283434112 0 0.22033343844674469 0.36963382230740238 0 0.24049127783545701 0.41270748208749802 0 0.191953871957803 0.42546416763755879 0 0.5 0.29999999999999999 0 0.4604742573284204 0.27846934318264788 0 0.49695729691142171 0.25014895411178018 0 0.19741632902693801 0.86755867406447229 0 0.2401283238295133 0.85648409884788523 0 0.24536017905392571 0.90704567837671446 0 0 0.50000000000205869 0 0.068743045408989428 0.48853989837882689 0 0.044576108720083309 0.53509043209532614 0 0.15000000000062411 1 0 0.14617343800780541 0.93808063414349496 0 0.18474005699953849 0.96231585248064622 0 0.14999999999970359 0 0 0.184418230509967 0.038773194583122873 0 0.14618258501891079 0.062070108745602003 0 0.57667858002728545 0.078486105337742612 0 0.52375890611712683 0.059318771819432882 0 0.57396793757665954 0.037011367187645222 0 0.113541300460994 0.46208784312094731 0 0.078358742472063481 0.43365249433908948 0 0.13773355295499351 0.42497777642586831 0 0.77354604466818633 0.40378688774472771 0 0.78145581580700685 0.34881365920033602 0 0.81308179852519835 0.39754945808726527 0 0.38244435121258652 0.51653317813019495 0 0.33190227185843768 0.52715113583864037 0 0.35024835142131061 0.48654922671676981 0 0.64753070846764316 0.77332939069435502 0 0.65005442820240822 0.82644988530054031 0 0.60294066490120068 0.80851322453934582 0 0.15720202157091859 0.60665697304410315 0 0.1024350934457823 0.60772393977513839 0 0.1154888278694548 0.56733818459978413 0 0.90416666666660628 0.9041666666666166 0 0.85600844944837662 0.88483418979512773 0 0.88088768115933802 0.84674609810493673 0 0.90416666666668166 0.20416666666667119 0 0.85600844944842547 0.1848341897950983 0 0.88088768115941807 0.14674609810479519 0 0.078358742472063481 0.43365249433908948 0 0.1117088112799664 0.38831403004970022 0 0.13773355295499351 0.42497777642586831 0 0.38244435121258652 0.51653317813019495 0 0.3908716102680424 0.47010282357248828 0 0.43507373378304309 0.49699695397193322 0 0.90299850604011456 0.79563452813489832 0 0.95386563387742829 0.80414874155775029 0 0.93677536231884972 0.85000000000000286 0 0.90416666666660628 0.9041666666666166 0 0.93677536231884972 0.85000000000000286 0 0.95391631417670719 0.89584263333814784 0 0.90299850604006393 0.09563452813493091 0 0.95386563387744361 0.1041487415577465 0 0.93677536231883773 0.14999999999999089 0 0.90416666666668166 0.20416666666667119 0 0.93677536231883773 0.14999999999999089 0 0.95391631417672862 0.19584263333809451 0 0.39536230704883951 0.84069429572832477 0 0.44003836461056539 0.88093474584252718 0 0.39767323751400468 0.89584229130535065 0 0.51076801031701946 0.1202837388510348 0 0.52375890611712683 0.059318771819432882 0 0.54979595918804436 0.1060565713905809 0 0.57667858002728545 0.078486105337742612 0 0.54979595918804436 0.1060565713905809 0 0.52375890611712683 0.059318771819432882 0 0.57724883562309992 0.92155686857100794 0 0.52122150208832174 0.94089974453840242 0 0.54783390826260769 0.89287767010860219 0 0.50202631463681879 0.87892870825713787 0 0.54783390826260769 0.89287767010860219 0 0.52122150208832174 0.94089974453840242 0 0.087545339447545459 0.35122518864182262 0 0.093851963071650835 0.30582068233324772 0 0.14223753364722069 0.3341983344262433 0 0.54999999999999993 0.69999999999999996 0 0.59999999999999976 0.69999999999999996 0 0.55363780716230748 0.74348740161571747 0 0.083105206071452636 0.79992298667296435 0 0.1074251789111534 0.83564394292147814 0 0.065374659239661639 0.8551091961254178 0 0.083105206071467416 0.20007701332709979 0 0.065374659239632718 0.1448908038746782 0 0.106902708054812 0.16453234188234539 0 0.52289427570932567 0.3932284363388488 0 0.53823865529665704 0.45873898050322898 0 0.48858720058566618 0.43964267759203868 0 0.13737030665753211 0.20313708640667491 0 0.14377654328998779 0.2442024734791064 0 0.095326043202144745 0.24554465089224409 0 0.1382744753146134 0.79650574229207483 0 0.090953281884486245 0.7564451946902494 0 0.14335651144331049 0.75565258250209677 0 0.27270076654418179 0.87751467830216623 0 0.30864387279288652 0.89906554525974958 0 0.24536017905392571 0.90704567837671446 0 0.27609987656793722 0.94991445621608572 0 0.24536017905392571 0.90704567837671446 0 0.30864387279288652 0.89906554525974958 0 0.90299850604011456 0.79563452813489832 0 0.84725310900444062 0.80779732082917555 0 0.85491058998424563 0.76004753345552634 0 0.90299850604006393 0.09563452813493091 0 0.84725310900442086 0.10779732082922661 0 0.85491058998398861 0.060047533455626502 0 1 0.54999999999963112 0 1 0.59999999999973963 0 0.95867599106212187 0.60011091146651041 0 1 0.39999999999978308 0 1 0.44999999999963131 0 0.95871855522754235 0.40006508612975411 0 0.28040350263641872 0.23054717217092141 0 0.25195515620380449 0.25883339815888678 0 0.224700362040408 0.22206622194729711 0 0.84999999999999987 0.29999999999999999 0 0.87430060258887643 0.34056085888204451 0 0.82500000000000062 0.33010209762754811 0 0.84999999999999987 0.69999999999999996 0 0.82457059160610424 0.66831947184359608 0 0.87712158428786946 0.65709029563313581 0 0.86956835336234861 0.571283299838105 0 0.87159648282691515 0.61285406320581504 0 0.81723410853263523 0.59419663659258926 0 0.43698630808430822 0.080423614171545449 0 0.47881186583059909 0.093591717165689425 0 0.44288491854585582 0.14116182884956319 0 1 0.44999999999963131 0 0.96228564064454991 0.48206450662049471 0 0.93814194660195893 0.44426664081746747 0 0.35752321586431363 0.9185439911803448 0 0.30864387279288652 0.89906554525974958 0 0.35864759629805099 0.87963482415279515 0 0.29124338931648802 0.43334555462578611 0 0.25982634974572738 0.46097799597715272 0 0.24049127783545701 0.41270748208749802 0 0.51076801031701946 0.1202837388510348 0 0.56202748619534593 0.15054058349222879 0 0.51729576145820033 0.1683240575987815 0 0.55306006949600994 0.20198184231352201 0 0.51729576145820033 0.1683240575987815 0 0.56202748619534593 0.15054058349222879 0 0.26429849586623999 0.19346700179430079 0 0.28040350263641872 0.23054717217092141 0 0.224700362040408 0.22206622194729711 0 0.51076801031701946 0.1202837388510348 0 0.48466639505193998 0.1421439844745814 0 0.47881186583059909 0.093591717165689425 0 0.2185883431182947 0.18019736283949719 0 0.26429849586623999 0.19346700179430079 0 0.224700362040408 0.22206622194729711 0 0.18269480424590959 0.75905448272264375 0 0.2248999640082178 0.72584299459689172 0 0.22556077506376701 0.77837424984191617 0 0.51076801031701946 0.1202837388510348 0 0.47881186583059909 0.093591717165689425 0 0.52375890611712683 0.059318771819432882 0 0.50202631463681879 0.87892870825713787 0 0.52122150208832174 0.94089974453840242 0 0.47401147028110507 0.91529957330468115 0 0 0.84999999999965292 0 0.038512288486097702 0.8155852717111195 0 0.065374659239661639 0.8551091961254178 0 0 0.15000000000062411 0 0.065374659239632718 0.1448908038746782 0 0.038512288486115001 0.1844147282893184 0 0.2185883431182947 0.18019736283949719 0 0.224700362040408 0.22206622194729711 0 0.18124454140915969 0.18790916706335251 0 0.21858834311891909 0.81980263716112767 0 0.17777405986036951 0.81832336108265358 0 0.22556077506376701 0.77837424984191617 0 0.1215415378367805 0.72939333680004137 0 0.1020579365089687 0.69352219419301997 0 0.15332765547575641 0.71200081858233666 0 0.49695729691142171 0.25014895411178018 0 0.50760557329222289 0.20700468884612061 0 0.54248833945060504 0.2520322959927106 0 0.15720202157091859 0.60665697304410315 0 0.14934928745814749 0.55042914607228977 0 0.18381867841758909 0.57774125163628387 0 0.90416666666660628 0.9041666666666166 0 0.85170973911348691 0.93569607295217616 0 0.85600844944837662 0.88483418979512773 0 0.90416666666668166 0.20416666666667119 0 0.8517097391133297 0.2356960729520409 0 0.85600844944842547 0.1848341897950983 0 0.17933913398461551 0.2350063570234002 0 0.13737030665753211 0.20313708640667491 0 0.18124454140915969 0.18790916706335251 0 0.18269480424590959 0.75905448272264375 0 0.17777405986036951 0.81832336108265358 0 0.1382744753146134 0.79650574229207483 0 0.1216098864341134 0.50637075089503902 0 0.15801167086041079 0.46008690540259539 0 0.16618607197337229 0.50652878253548905 0 0.50760557329222289 0.20700468884612061 0 0.55306006949600994 0.20198184231352201 0 0.54248833945060504 0.2520322959927106 0 0.75000000000034661 1 0 0.7000000000006934 1 0 0.7250000000005199 0.94981617647078953 0 0.69999999999999984 0.29999999999999999 0 0.72500000000000064 0.2498161764706 0 0.74999999999999989 0.29999999999999999 0 0.72525833953073282 0.1032114801687094 0 0.68391457121233579 0.14440470121196541 0 0.68330259535470161 0.10038702501083881 0 0.43249999999999988 0.43937499999999979 0 0.46655310992796922 0.39650496622958609 0 0.48858720058566618 0.43964267759203868 0 0.19901705110390991 0.9175543425573498 0 0.14617343800780541 0.93808063414349496 0 0.16206583317966519 0.89685560785156404 0 0.19922788606653311 0.085920220746880993 0 0.16141998738593399 0.10404039647458049 0 0.14618258501891079 0.062070108745602003 0 0.31378396441836959 0.70157213313026345 0 0.26439878998046262 0.7048065392091396 0 0.27820712747429932 0.65530134213254643 0 0.1216098864341134 0.50637075089503902 0 0.113541300460994 0.46208784312094731 0 0.15801167086041079 0.46008690540259539 0 0.6084546825910605 0.37989672713932537 0 0.65481233915350323 0.35652751921065562 0 0.63912439215427275 0.41063340167983359 0 0.19901705110390991 0.9175543425573498 0 0.18474005699953849 0.96231585248064622 0 0.14617343800780541 0.93808063414349496 0 0.19922788606653311 0.085920220746880993 0 0.14618258501891079 0.062070108745602003 0 0.184418230509967 0.038773194583122873 0 0.38244435121258652 0.51653317813019495 0 0.35024835142131061 0.48654922671676981 0 0.3908716102680424 0.47010282357248828 0 0.82709327591102189 0.14937141670914489 0 0.77144070960558853 0.14311854477243749 0 0.80076557130237269 0.1154587552654202 0 0.82709327591091286 0.84937141670920724 0 0.76901770135486491 0.84293557325473656 0 0.80041942726660109 0.81543261647703358 0 0.43698630808430822 0.080423614171545449 0 0.44288491854585582 0.14116182884956319 0 0.39823268594401579 0.1116623613130045 0 0.39801143831225599 0.16651381068160659 0 0.39823268594401579 0.1116623613130045 0 0.44288491854585582 0.14116182884956319 0 0.36575549820117997 0.31677992835137742 0 0.3786248352540974 0.27082301512024259 0 0.41914690343363781 0.30688979866601612 0 0.42377727103934271 0.25099357235810238 0 0.41914690343363781 0.30688979866601612 0 0.3786248352540974 0.27082301512024259 0 0.049706944316475897 0.72477277076253799 0 0.1020579365089687 0.69352219419301997 0 0.090953281884486245 0.7564451946902494 0 0.1215415378367805 0.72939333680004137 0 0.090953281884486245 0.7564451946902494 0 0.1020579365089687 0.69352219419301997 0 0.1247745017231483 0.27198077544791172 0 0.093851963071650835 0.30582068233324772 0 0.095326043202144745 0.24554465089224409 0 0.049706944316556423 0.27522722923869108 0 0.095326043202144745 0.24554465089224409 0 0.093851963071650835 0.30582068233324772 0 0.77354604466818633 0.40378688774472771 0 0.81973119833356312 0.43505687159469048 0 0.77972660463949339 0.45529290596363098 0 0.43249999999999988 0.43937499999999979 0 0.43507373378304309 0.49699695397193322 0 0.3908716102680424 0.47010282357248828 0 0.26573297623774761 0.59828298563722948 0 0.2459498854893499 0.63248470766216769 0 0.22549374774072969 0.58452645269293457 0 0.72500000000000064 0.7952620967744265 0 0.77094201086366854 0.79647480515688507 0 0.76901770135486491 0.84293557325473656 0 0.72525833953073282 0.1032114801687094 0 0.76878382444651716 0.097147941686331368 0 0.77144070960558853 0.14311854477243749 0 0.72500000000000064 0.7952620967744265 0 0.68697391633157634 0.84450604838764298 0 0.68024162096458085 0.79868546898116533 0 0.31378396441836959 0.70157213313026345 0 0.29904318922293632 0.74132814928635593 0 0.26439878998046262 0.7048065392091396 0 0.31378396441836959 0.70157213313026345 0 0.35415581127540569 0.73730480045900215 0 0.29904318922293632 0.74132814928635593 0 0.61343887413683884 0.856862479058357 0 0.65005442820240822 0.82644988530054031 0 0.66412543161245952 0.88015090885499059 0 0.68697391633157634 0.84450604838764298 0 0.66412543161245952 0.88015090885499059 0 0.65005442820240822 0.82644988530054031 0 0.083411279318375747 0.91030024466934134 0 0.065374659239661639 0.8551091961254178 0 0.10562472963403439 0.87143394428979881 0 0.083411279318303222 0.089699755330707398 0 0.1053400320299198 0.12877248826361379 0 0.065374659239632718 0.1448908038746782 0 0.55306006949600994 0.20198184231352201 0 0.59443395090188023 0.18455690917515069 0 0.59814117807200873 0.23398510860739519 0 0.84999999999999987 0.29999999999999999 0 0.89999999999999991 0.29999999999999999 0 0.87430060258887643 0.34056085888204451 0 0.84999999999999987 0.69999999999999996 0 0.87712158428786946 0.65709029563313581 0 0.89999999999999991 0.69999999999999996 0 0.34258405725730701 0.4444034294386992 0 0.3908716102680424 0.47010282357248828 0 0.35024835142131061 0.48654922671676981 0 0.26573297623774761 0.59828298563722948 0 0.31502927232353312 0.6134992213375432 0 0.27820712747429932 0.65530134213254643 0 0.91696753777131557 0.497780560203536 0 0.86907294890112186 0.52008116128001669 0 0.88594198078881503 0.46167788676578442 0 0.84723782639812573 0.48638347960178252 0 0.88594198078881503 0.46167788676578442 0 0.86907294890112186 0.52008116128001669 0 0.7152569930854884 0.5237994455134295 0 0.77151014687832564 0.54436834383023036 0 0.71809016091162536 0.58185040402320831 0 0.90416666666660628 0.9041666666666166 0 0.89898474358632463 0.95391965591118966 0 0.85170973911348691 0.93569607295217616 0 0.90416666666668166 0.20416666666667119 0 0.89898474358614167 0.25391965591104898 0 0.8517097391133297 0.2356960729520409 0 0.91750694127107502 0.36982372220068471 0 0.95780851984364423 0.34215720972155339 0 0.95871855522754235 0.40006508612975411 0 0.91750694127105259 0.63017627779935648 0 0.95867599106212187 0.60011091146651041 0 0.9578014258160763 0.65787212321113708 0 0.90299850604011456 0.79563452813489832 0 0.88088768115933802 0.84674609810493673 0 0.84725310900444062 0.80779732082917555 0 0.90299850604006393 0.09563452813493091 0 0.88088768115941807 0.14674609810479519 0 0.84725310900442086 0.10779732082922661 0 0.1216098864341134 0.50637075089503902 0 0.16618607197337229 0.50652878253548905 0 0.14934928745814749 0.55042914607228977 0 0.20050006573841939 0.53248514016039872 0 0.14934928745814749 0.55042914607228977 0 0.16618607197337229 0.50652878253548905 0 0.80185942888539485 0.77452061303608133 0 0.84725310900444062 0.80779732082917555 0 0.80041942726660109 0.81543261647703358 0 0.80185942888501827 0.074520613036224564 0 0.84725310900442086 0.10779732082922661 0 0.80076557130237269 0.1154587552654202 0 0.083105206071452636 0.79992298667296435 0 0.065374659239661639 0.8551091961254178 0 0.038512288486097702 0.8155852717111195 0 0.083105206071467416 0.20007701332709979 0 0.038512288486115001 0.1844147282893184 0 0.065374659239632718 0.1448908038746782 0 0.54782696902220018 0.79245182748204157 0 0.59636844454254345 0.75937156204589151 0 0.60294066490120068 0.80851322453934582 0 0.083411279318375747 0.91030024466934134 0 0.0443105827531413 0.89858748162559932 0 0.065374659239661639 0.8551091961254178 0 0.083411279318303222 0.089699755330707398 0 0.065374659239632718 0.1448908038746782 0 0.044310582753132287 0.101412518374475 0 0.84999999999965292 1 0 0.81486180804382891 0.96321394949790495 0 0.85170973911348691 0.93569607295217616 0 0.84999999999999987 0.29999999999999999 0 0.81486180804364938 0.26321394949780091 0 0.8517097391133297 0.2356960729520409 0 0.4656888918609538 0.78493261229743638 0 0.45677673713123867 0.84253684404072415 0 0.42609163930740518 0.80361684430568059 0 0.39536230704883951 0.84069429572832477 0 0.42609163930740518 0.80361684430568059 0 0.45677673713123867 0.84253684404072415 0 0.6236733212988993 0.14864538214901801 0 0.56202748619534593 0.15054058349222879 0 0.58516465772821369 0.11653801664834119 0 0.57412547362576272 0.58273804879550706 0 0.63065402604362242 0.59661356661633302 0 0.5991018319127801 0.62925360607495295 0 0.61343887413683884 0.856862479058357 0 0.5832743223239254 0.88483152652961872 0 0.55899371797446828 0.85003102233514438 0 0.50202631463681879 0.87892870825713787 0 0.55899371797446828 0.85003102233514438 0 0.54783390826260769 0.89287767010860219 0 0.51076801031701946 0.1202837388510348 0 0.54979595918804436 0.1060565713905809 0 0.56202748619534593 0.15054058349222879 0 0.55306006949600994 0.20198184231352201 0 0.59814117807200873 0.23398510860739519 0 0.54248833945060504 0.2520322959927106 0 0.83573492347052902 0.36590755630746369 0 0.82500000000000062 0.33010209762754811 0 0.87430060258887643 0.34056085888204451 0 0.83758014339878906 0.63222013025741819 0 0.87712158428786946 0.65709029563313581 0 0.82457059160610424 0.66831947184359608 0 0.49102375406324739 0.49123754822244059 0 0.53823865529665704 0.45873898050322898 0 0.53330375813596242 0.50827942741749099 0 0.52289427570932567 0.3932284363388488 0 0.57744073070774993 0.41535148636609359 0 0.53823865529665704 0.45873898050322898 0 0.4089290844030305 0.58728915500154233 0 0.37272913873093971 0.56192925302619479 0 0.42644501560315817 0.54603747078095544 0 0.49695729691142171 0.25014895411178018 0 0.4604742573284204 0.27846934318264788 0 0.46429753744194407 0.22870891180733599 0 0.90299850604011456 0.79563452813489832 0 0.85491058998424563 0.76004753345552634 0 0.89999166460796554 0.74528934923809909 0 0.90299850604006393 0.09563452813493091 0 0.85491058998398861 0.060047533455626502 0 0.899991664607802 0.045289349238254978 0 0.38244435121258652 0.51653317813019495 0 0.42644501560315817 0.54603747078095544 0 0.37272913873093971 0.56192925302619479 0 0.71406021706547751 0.63292083137662503 0 0.71809016091162536 0.58185040402320831 0 0.74994237037456724 0.62775548192980357 0 0.84723782639812573 0.48638347960178252 0 0.86907294890112186 0.52008116128001669 0 0.81441713509985358 0.51161854125224959 0 0.33122374654748771 0.57588941099433744 0 0.33190227185843768 0.52715113583864037 0 0.37272913873093971 0.56192925302619479 0 0.086179601630648681 0.64647209519980475 0 0.1241190223511371 0.64391885572885044 0 0.1020579365089687 0.69352219419301997 0 0.59999999999894682 0 0 0.64999999999907843 0 0 0.61940220174112337 0.047251958781050582 0 0.18269480424590959 0.75905448272264375 0 0.14335651144331049 0.75565258250209677 0 0.15332765547575641 0.71200081858233666 0 0.22549374774072969 0.58452645269293457 0 0.2459498854893499 0.63248470766216769 0 0.19914261668318661 0.62286739485272158 0 0.38244435121258652 0.51653317813019495 0 0.43507373378304309 0.49699695397193322 0 0.42644501560315817 0.54603747078095544 0 0.65000000000104008 1 0 0.60000000000138687 1 0 0.62065498684670595 0.95224934003983619 0 0.078358742472063481 0.43365249433908948 0 0.068743045408989428 0.48853989837882689 0 0.033550201249889847 0.46247875832467239 0 0.2236846579037573 0.67380363126050236 0 0.27820712747429932 0.65530134213254643 0 0.26439878998046262 0.7048065392091396 0 0.6879972333610942 0.43038561374960838 0 0.68128176404677243 0.38629093627004979 0 0.72622533758026719 0.40265885511101601 0 0.72525833953073282 0.1032114801687094 0 0.7010294155333181 0.056779085686491267 0 0.7527966693318906 0.053051678021508272 0 0.18269480424590959 0.75905448272264375 0 0.15332765547575641 0.71200081858233666 0 0.19068556247388771 0.71028988922845504 0 0.1216098864341134 0.50637075089503902 0 0.085622222639554768 0.53333248912060549 0 0.068743045408989428 0.48853989837882689 0 0.25676291524611189 0.7436741304886243 0 0.26439878998046262 0.7048065392091396 0 0.29904318922293632 0.74132814928635593 0 0.65481233915350323 0.35652751921065562 0 0.68128176404677243 0.38629093627004979 0 0.63912439215427275 0.41063340167983359 0 0.83573492347052902 0.36590755630746369 0 0.86844634540301924 0.38530937474099819 0 0.81308179852519835 0.39754945808726527 0 0.27270076654418179 0.87751467830216623 0 0.2401283238295133 0.85648409884788523 0 0.29209212897034281 0.84715728365233667 0 0.84999999999999987 0.69999999999999996 0 0.85491058998424563 0.76004753345552634 0 0.81864958914779962 0.73589050177899629 0 0.84999999999960507 0 0 0.85491058998398861 0.060047533455626502 0 0.81864958914740749 0.035890501779055867 0 0.18381867841758909 0.57774125163628387 0 0.19914261668318661 0.62286739485272158 0 0.15720202157091859 0.60665697304410315 0 0.22549374774072969 0.58452645269293457 0 0.19914261668318661 0.62286739485272158 0 0.18381867841758909 0.57774125163628387 0 0.79680861578988083 0.92656778056766709 0 0.85170973911348691 0.93569607295217616 0 0.81486180804382891 0.96321394949790495 0 0.79680861578956375 0.22656778056752541 0 0.8517097391133297 0.2356960729520409 0 0.81486180804364938 0.26321394949780091 0 0.20050006573841939 0.53248514016039872 0 0.23975172658309729 0.49475499200540818 0 0.25115337790845271 0.54719303014923271 0 0.28307294598219601 0.50789252727458634 0 0.25115337790845271 0.54719303014923271 0 0.23975172658309729 0.49475499200540818 0 0.20050006573841939 0.53248514016039872 0 0.18381867841758909 0.57774125163628387 0 0.14934928745814749 0.55042914607228977 0 0.19922788606653311 0.085920220746880993 0 0.22985637510995899 0.1298347970200906 0 0.18652628422869419 0.14162325200928061 0 0.33758650185219202 0.23837101504325639 0 0.38831533174504851 0.2189834941785925 0 0.3786248352540974 0.27082301512024259 0 0.42377727103934271 0.25099357235810238 0 0.3786248352540974 0.27082301512024259 0 0.38831533174504851 0.2189834941785925 0 0.19922788606653311 0.085920220746880993 0 0.18652628422869419 0.14162325200928061 0 0.16141998738593399 0.10404039647458049 0 0.54782696902220018 0.79245182748204157 0 0.55363780716230748 0.74348740161571747 0 0.59636844454254345 0.75937156204589151 0 0.82709327591091286 0.84937141670920724 0 0.88088768115933802 0.84674609810493673 0 0.85600844944837662 0.88483418979512773 0 0.82709327591102189 0.14937141670914489 0 0.88088768115941807 0.14674609810479519 0 0.85600844944842547 0.1848341897950983 0 0.27866744612395528 0.38416094670951489 0 0.22033343844674469 0.36963382230740238 0 0.25966125648670141 0.34351016742083729 0 0 0.50000000000205869 0 0.033550201249889847 0.46247875832467239 0 0.068743045408989428 0.48853989837882689 0 0.31378396441836959 0.70157213313026345 0 0.36622285152418499 0.69092437780804039 0 0.35415581127540569 0.73730480045900215 0 0.77293540622714185 0.59448302402785813 0 0.71809016091162536 0.58185040402320831 0 0.77151014687832564 0.54436834383023036 0 0.7152569930854884 0.5237994455134295 0 0.69385896817107129 0.48377516041410151 0 0.73947346780852752 0.49062440112282169 0 0.15801167086041079 0.46008690540259539 0 0.191953871957803 0.42546416763755879 0 0.19604738184454831 0.47787523520405789 0 0.57667858002728545 0.078486105337742612 0 0.61940220174112337 0.047251958781050582 0 0.61956000905586006 0.1043312481793135 0 0.65408113592120842 0.073941773121567966 0 0.61956000905586006 0.1043312481793135 0 0.61940220174112337 0.047251958781050582 0 0 0.55000000000173355 0 0 0.50000000000205869 0 0.044576108720083309 0.53509043209532614 0 0.65507451745379841 0.92229208810758578 0 0.62065498684670595 0.95224934003983619 0 0.61885627562261258 0.90282959257498208 0 0.57724883562309992 0.92155686857100794 0 0.61885627562261258 0.90282959257498208 0 0.62065498684670595 0.95224934003983619 0 0.91750694127107502 0.36982372220068471 0 0.86844634540301924 0.38530937474099819 0 0.87430060258887643 0.34056085888204451 0 0.91750694127105259 0.63017627779935648 0 0.87712158428786946 0.65709029563313581 0 0.87159648282691515 0.61285406320581504 0 0.33123028043633618 0.77629643437932982 0 0.29904318922293632 0.74132814928635593 0 0.35415581127540569 0.73730480045900215 0 0.86411095495256451 0.42388805655111889 0 0.84925632466077294 0.45359738909549091 0 0.81973119833356312 0.43505687159469048 0 0.43846182030517877 0.64845797726506715 0 0.47913475093885149 0.66010775372412711 0 0.43323420005758778 0.6913544522562407 0 0.18269480424590959 0.75905448272264375 0 0.19068556247388771 0.71028988922845504 0 0.2248999640082178 0.72584299459689172 0 0.39536230704883951 0.84069429572832477 0 0.38586766253264881 0.78219501014812498 0 0.42609163930740518 0.80361684430568059 0 0.59999999999999976 0.69999999999999996 0 0.63221990677827677 0.73442891067859706 0 0.59636844454254345 0.75937156204589151 0 0.27866744612395528 0.38416094670951489 0 0.24049127783545701 0.41270748208749802 0 0.22033343844674469 0.36963382230740238 0 0.82709327591091286 0.84937141670920724 0 0.84725310900444062 0.80779732082917555 0 0.88088768115933802 0.84674609810493673 0 0.82709327591102189 0.14937141670914489 0 0.84725310900442086 0.10779732082922661 0 0.88088768115941807 0.14674609810479519 0 0.1650278706801647 0.38791388161335733 0 0.18434624290945251 0.35208838264196463 0 0.22033343844674469 0.36963382230740238 0 0.4409427642593301 0.35743108089689513 0 0.49077833859261139 0.35229981449445641 0 0.46655310992796922 0.39650496622958609 0 0.80185942888539485 0.77452061303608133 0 0.81864958914779962 0.73589050177899629 0 0.85491058998424563 0.76004753345552634 0 0.80185942888501827 0.074520613036224564 0 0.81864958914740749 0.035890501779055867 0 0.85491058998398861 0.060047533455626502 0 0.29999999999926641 0 0 0.34999999999912063 0 0 0.32541448401678508 0.046215317981507749 0 0.35000000000145642 1 0 0.30000000000124832 1 0 0.32544832635163229 0.95485394099568932 0 0.4656888918609538 0.78493261229743638 0 0.50731287292894423 0.78963574450233831 0 0.50627822638148745 0.8263979829520941 0 0.2185883431182947 0.18019736283949719 0 0.25557216766470708 0.15874861286892261 0 0.26429849586623999 0.19346700179430079 0 1 0.29999999999999999 0 1 0.34999999999993492 0 0.95780851984364423 0.34215720972155339 0 1 0.29999999999999999 0 0.95780851984364423 0.34215720972155339 0 0.94999999999999996 0.29999999999999999 0 1 0.69999999999999996 0 0.94999999999999996 0.69999999999999996 0 0.9578014258160763 0.65787212321113708 0 1 0.69999999999999996 0 0.9578014258160763 0.65787212321113708 0 1 0.64999999999986979 0 0.91750694127107502 0.36982372220068471 0 0.90594285160987287 0.4141265964174129 0 0.86844634540301924 0.38530937474099819 0 0.91750694127105259 0.63017627779935648 0 0.87159648282691515 0.61285406320581504 0 0.91143117093204207 0.58709913730335972 0 0.74999999999999989 0.69999999999999996 0 0.7750489929959945 0.66593931409600093 0 0.79999999999999982 0.69999999999999996 0 0.74999999999999989 0.29999999999999999 0 0.79999999999999982 0.29999999999999999 0 0.78145581580700685 0.34881365920033602 0 0.54999999999999993 0.69999999999999996 0 0.57484956128872922 0.66573805030881994 0 0.59999999999999976 0.69999999999999996 0 0.90299850604011456 0.79563452813489832 0 0.94399509803918602 0.75600490196082126 0 0.95386563387742829 0.80414874155775029 0 0.90416666666660628 0.9041666666666166 0 0.95391631417670719 0.89584263333814784 0 0.94399509803919068 0.9439950980391687 0 0.90299850604006393 0.09563452813493091 0 0.94399509803922566 0.056004901960802607 0 0.95386563387744361 0.1041487415577465 0 0.90416666666668166 0.20416666666667119 0 0.95391631417672862 0.19584263333809451 0 0.94399509803921056 0.24399509803922639 0 0.22278230690790279 0.44824268025881547 0 0.19604738184454831 0.47787523520405789 0 0.191953871957803 0.42546416763755879 0 0.90299850604011456 0.79563452813489832 0 0.89999166460796554 0.74528934923809909 0 0.94399509803918602 0.75600490196082126 0 0.90299850604006393 0.09563452813493091 0 0.899991664607802 0.045289349238254978 0 0.94399509803922566 0.056004901960802607 0 0.49102375406324739 0.49123754822244059 0 0.47793794143994173 0.52940715638744962 0 0.43507373378304309 0.49699695397193322 0 0.90416666666660628 0.9041666666666166 0 0.94399509803919068 0.9439950980391687 0 0.89898474358632463 0.95391965591118966 0 0.90416666666668166 0.20416666666667119 0 0.94399509803921056 0.24399509803922639 0 0.89898474358614167 0.25391965591104898 0 0.65394964615507722 0.22666784374016369 0 0.62657463266645097 0.26524202571255862 0 0.59814117807200873 0.23398510860739519 0 0.6084546825910605 0.37989672713932537 0 0.63912439215427275 0.41063340167983359 0 0.57744073070774993 0.41535148636609359 0 0.61209567303293111 0.44669033081290321 0 0.57744073070774993 0.41535148636609359 0 0.63912439215427275 0.41063340167983359 0 0.25676291524611189 0.7436741304886243 0 0.22556077506376701 0.77837424984191617 0 0.2248999640082178 0.72584299459689172 0 0.61343887413683884 0.856862479058357 0 0.60294066490120068 0.80851322453934582 0 0.65005442820240822 0.82644988530054031 0 0.64999999999907843 0 0 0.66369801598854572 0.036327466368102787 0 0.61940220174112337 0.047251958781050582 0 0.40326160981139969 0.73346192995102844 0 0.38586766253264881 0.78219501014812498 0 0.35415581127540569 0.73730480045900215 0 0.33123028043633618 0.77629643437932982 0 0.35415581127540569 0.73730480045900215 0 0.38586766253264881 0.78219501014812498 0 0.26573297623774761 0.59828298563722948 0 0.29110487519241501 0.56588143995431495 0 0.31502927232353312 0.6134992213375432 0 0.77846603114747959 0.49850927265137401 0 0.81441713509985358 0.51161854125224959 0 0.77151014687832564 0.54436834383023036 0 0.82862096804812391 0.55037090955459045 0 0.77151014687832564 0.54436834383023036 0 0.81441713509985358 0.51161854125224959 0 0.50000000000205869 1 0 0.45000000000187229 1 0 0.47135117303824892 0.95556877749289892 0 0.44999999999882923 0 0 0.49999999999869432 0 0 0.47040171442036788 0.044141676406503738 0 0 0.7000000000006934 0 0 0.65000000000104008 0 0.046634677244967337 0.671418230738282 0 0 0.35000000000145642 0 0 0.30000000000124832 0 0.046389130980076937 0.32668781832131749 0 0.31378396441836959 0.70157213313026345 0 0.27820712747429932 0.65530134213254643 0 0.32263089806001177 0.66003674931826484 0 0.33122374654748771 0.57588941099433744 0 0.31502927232353312 0.6134992213375432 0 0.29110487519241501 0.56588143995431495 0 0.26573297623774761 0.59828298563722948 0 0.27820712747429932 0.65530134213254643 0 0.2459498854893499 0.63248470766216769 0 0.14474682429600511 0.85524784522713515 0 0.16206583317966519 0.89685560785156404 0 0.1241151115713819 0.9045666525468371 0 0.14332333627550789 0.14578431753966009 0 0.12372429750337779 0.095814237875728972 0 0.16141998738593399 0.10404039647458049 0 0.64753070846764316 0.77332939069435502 0 0.59636844454254345 0.75937156204589151 0 0.63221990677827677 0.73442891067859706 0 0.14474682429600511 0.85524784522713515 0 0.1241151115713819 0.9045666525468371 0 0.10562472963403439 0.87143394428979881 0 0.14332333627550789 0.14578431753966009 0 0.1053400320299198 0.12877248826361379 0 0.12372429750337779 0.095814237875728972 0 0.77354604466818633 0.40378688774472771 0 0.81308179852519835 0.39754945808726527 0 0.81973119833356312 0.43505687159469048 0 0.54782696902220018 0.79245182748204157 0 0.50945740445113552 0.75476055527778108 0 0.55363780716230748 0.74348740161571747 0 0.2236846579037573 0.67380363126050236 0 0.2459498854893499 0.63248470766216769 0 0.27820712747429932 0.65530134213254643 0 0.77293540622714185 0.59448302402785813 0 0.74994237037456724 0.62775548192980357 0 0.71809016091162536 0.58185040402320831 0 0 0.79999999999999982 0 0 0.75000000000034661 0 0.04408157711937423 0.7728941757575627 0 0 0.25000000000104028 0 0 0.20000000000083221 0 0.044081577119474857 0.2271058242433576 0 0.19999999999955789 0 0 0.24999999999941211 0 0 0.22668068146512929 0.045875643423131329 0 0.25000000000104028 1 0 0.20000000000083221 1 0 0.22850979588452081 0.95594428570238643 0 0.47357141910802508 0.1873585799078378 0 0.44288491854585582 0.14116182884956319 0 0.48466639505193998 0.1421439844745814 0 0.59999999999999976 0.29999999999999999 0 0.5794309697024993 0.27124795968204829 0 0.62657463266645097 0.26524202571255862 0 0.43249999999999988 0.43937499999999979 0 0.42161023666869668 0.39493916313643851 0 0.46655310992796922 0.39650496622958609 0 0.31068898841644388 0.47541502461811092 0 0.33190227185843768 0.52715113583864037 0 0.28307294598219601 0.50789252727458634 0 0.35024835142131061 0.48654922671676981 0 0.33190227185843768 0.52715113583864037 0 0.31068898841644388 0.47541502461811092 0 0.35864735590330371 0.63903383440414463 0 0.36622285152418499 0.69092437780804039 0 0.32263089806001177 0.66003674931826484 0 0.31378396441836959 0.70157213313026345 0 0.32263089806001177 0.66003674931826484 0 0.36622285152418499 0.69092437780804039 0 0.86956835336234861 0.571283299838105 0 0.90900154012161016 0.53607784105648792 0 0.91143117093204207 0.58709913730335972 0 0.6499999999999998 0.29999999999999999 0 0.65481233915350323 0.35652751921065562 0 0.61959173890754571 0.33832250091341232 0 0.4409427642593301 0.35743108089689513 0 0.46226845272279993 0.31901800744800313 0 0.49077833859261139 0.35229981449445641 0 0.5 0.29999999999999999 0 0.49077833859261139 0.35229981449445641 0 0.46226845272279993 0.31901800744800313 0 0.14999999999970359 0 0 0.19999999999955789 0 0 0.184418230509967 0.038773194583122873 0 0.20000000000083221 1 0 0.15000000000062411 1 0 0.18474005699953849 0.96231585248064622 0 1 0.49999999999950101 0 1 0.54999999999963112 0 0.95631871884947484 0.51827533208233789 0 0.38586766253264881 0.78219501014812498 0 0.42676259796334498 0.76772545931379299 0 0.42609163930740518 0.80361684430568059 0 0.20050006573841939 0.53248514016039872 0 0.22549374774072969 0.58452645269293457 0 0.18381867841758909 0.57774125163628387 0 0.065374659239661639 0.8551091961254178 0 0.1074251789111534 0.83564394292147814 0 0.10562472963403439 0.87143394428979881 0 0.065374659239632718 0.1448908038746782 0 0.1053400320299198 0.12877248826361379 0 0.106902708054812 0.16453234188234539 0 0.1650278706801647 0.38791388161335733 0 0.14223753364722069 0.3341983344262433 0 0.18434624290945251 0.35208838264196463 0 0.43249999999999988 0.43937499999999979 0 0.46111841286828259 0.46690301029591341 0 0.43507373378304309 0.49699695397193322 0 0.83758014339878906 0.63222013025741819 0 0.81723410853263523 0.59419663659258926 0 0.87159648282691515 0.61285406320581504 0 0.19670163708476801 0.31472518408333222 0 0.18434624290945251 0.35208838264196463 0 0.14223753364722069 0.3341983344262433 0 0.75000000000034661 1 0 0.7250000000005199 0.94981617647078953 0 0.770759834363826 0.95919399014344442 0 0.74999999999999989 0.29999999999999999 0 0.72500000000000064 0.2498161764706 0 0.77075983436335049 0.25919399014334171 0 0.69999999999999984 0.29999999999999999 0 0.67933712972090698 0.25920070958121938 0 0.72500000000000064 0.2498161764706 0 0.57611405284611883 0.50165903596042916 0 0.53330375813596242 0.50827942741749099 0 0.53823865529665704 0.45873898050322898 0 0.6499999999999998 0.29999999999999999 0 0.68887083591306764 0.33632058575757479 0 0.65481233915350323 0.35652751921065562 0 0.27866744612395528 0.38416094670951489 0 0.33277555741076909 0.36432196682010132 0 0.31778888742534622 0.40581751814196781 0 0.49102375406324739 0.49123754822244059 0 0.43507373378304309 0.49699695397193322 0 0.46111841286828259 0.46690301029591341 0 0.94999999999999996 0.69999999999999996 0 0.97166519676947294 0.73337114490064459 0 0.94399509803918602 0.75600490196082126 0 0.94999999999986839 0 0 0.97166519676946894 0.033371144900598393 0 0.94399509803922566 0.056004901960802607 0 0.94999999999999996 0.29999999999999999 0 0.94399509803921056 0.24399509803922639 0 0.97166519676951801 0.26662885509932011 0 0.94999999999979179 1 0 0.94399509803919068 0.9439950980391687 0 0.97166519676946206 0.96662885509935492 0 0.34258405725730701 0.4444034294386992 0 0.29124338931648802 0.43334555462578611 0 0.31778888742534622 0.40581751814196781 0 0.27866744612395528 0.38416094670951489 0 0.31778888742534622 0.40581751814196781 0 0.29124338931648802 0.43334555462578611 0 0.36575549820117997 0.31677992835137742 0 0.33277555741076909 0.36432196682010132 0 0.32752639306529541 0.32610012995269699 0 0.35752321586431363 0.9185439911803448 0 0.32544832635163229 0.95485394099568932 0 0.30864387279288652 0.89906554525974958 0 0.27609987656793722 0.94991445621608572 0 0.30864387279288652 0.89906554525974958 0 0.32544832635163229 0.95485394099568932 0 0.33123028043633618 0.77629643437932982 0 0.30857225866488791 0.81101973481716805 0 0.2792923945214143 0.77665808831789485 0 0.33758650185219202 0.23837101504325639 0 0.29132859388405002 0.27203693976649962 0 0.28040350263641872 0.23054717217092141 0 0.4409427642593301 0.35743108089689513 0 0.41914690343363781 0.30688979866601612 0 0.46226845272279993 0.31901800744800313 0 0.14332333627550789 0.14578431753966009 0 0.13737030665753211 0.20313708640667491 0 0.106902708054812 0.16453234188234539 0 0.083105206071467416 0.20007701332709979 0 0.106902708054812 0.16453234188234539 0 0.13737030665753211 0.20313708640667491 0 0.083105206071452636 0.79992298667296435 0 0.1382744753146134 0.79650574229207483 0 0.1074251789111534 0.83564394292147814 0 0.14474682429600511 0.85524784522713515 0 0.1074251789111534 0.83564394292147814 0 0.1382744753146134 0.79650574229207483 0 0.65408113592120842 0.073941773121567966 0 0.7010294155333181 0.056779085686491267 0 0.68330259535470161 0.10038702501083881 0 0.72525833953073282 0.1032114801687094 0 0.68330259535470161 0.10038702501083881 0 0.7010294155333181 0.056779085686491267 0 0.049706944316475897 0.72477277076253799 0 0.046634677244967337 0.671418230738282 0 0.1020579365089687 0.69352219419301997 0 0.086179601630648681 0.64647209519980475 0 0.1020579365089687 0.69352219419301997 0 0.046634677244967337 0.671418230738282 0 0.087545339447545459 0.35122518864182262 0 0.046389130980076937 0.32668781832131749 0 0.093851963071650835 0.30582068233324772 0 0.049706944316556423 0.27522722923869108 0 0.093851963071650835 0.30582068233324772 0 0.046389130980076937 0.32668781832131749 0 0.82709327591091286 0.84937141670920724 0 0.80041942726660109 0.81543261647703358 0 0.84725310900444062 0.80779732082917555 0 0.82709327591102189 0.14937141670914489 0 0.80076557130237269 0.1154587552654202 0 0.84725310900442086 0.10779732082922661 0 0.17933913398461551 0.2350063570234002 0 0.14377654328998779 0.2442024734791064 0 0.13737030665753211 0.20313708640667491 0 0.18269480424590959 0.75905448272264375 0 0.1382744753146134 0.79650574229207483 0 0.14335651144331049 0.75565258250209677 0 0.33758650185219202 0.23837101504325639 0 0.3786248352540974 0.27082301512024259 0 0.33402499257867951 0.28911035184473982 0 0.14332333627550789 0.14578431753966009 0 0.18124454140915969 0.18790916706335251 0 0.13737030665753211 0.20313708640667491 0 0.14474682429600511 0.85524784522713515 0 0.1382744753146134 0.79650574229207483 0 0.17777405986036951 0.81832336108265358 0 0.5 0.29999999999999999 0 0.52752007115234678 0.33170632466418198 0 0.49077833859261139 0.35229981449445641 0 0.27866744612395528 0.38416094670951489 0 0.29644548887253103 0.34914008784168082 0 0.33277555741076909 0.36432196682010132 0 0 0.84999999999965292 0 0 0.79999999999999982 0 0.038512288486097702 0.8155852717111195 0 0 0.20000000000083221 0 0 0.15000000000062411 0 0.038512288486115001 0.1844147282893184 0 0.40326160981139969 0.73346192995102844 0 0.35415581127540569 0.73730480045900215 0 0.36622285152418499 0.69092437780804039 0 0.91696753777131557 0.497780560203536 0 0.96228564064454991 0.48206450662049471 0 0.95631871884947484 0.51827533208233789 0 0.33758650185219202 0.23837101504325639 0 0.31255190597181792 0.19850845631528771 0 0.3572130504031617 0.1874703368446563 0 0.59814117807200873 0.23398510860739519 0 0.62657463266645097 0.26524202571255862 0 0.5794309697024993 0.27124795968204829 0 0.34258405725730701 0.4444034294386992 0 0.31068898841644388 0.47541502461811092 0 0.29124338931648802 0.43334555462578611 0 0.38083244760691543 0.38531983672244652 0 0.35221190152536241 0.40457127605439203 0 0.33277555741076909 0.36432196682010132 0 0.083411279318375747 0.91030024466934134 0 0.10266856499240549 0.95548163909968886 0 0.053064897599294662 0.95186845269532028 0 0.083411279318303222 0.089699755330707398 0 0.053064897599215843 0.048131547304697528 0 0.10266856499169109 0.044518360900210059 0 0.42377727103934271 0.25099357235810238 0 0.4604742573284204 0.27846934318264788 0 0.41914690343363781 0.30688979866601612 0 0.28307294598219601 0.50789252727458634 0 0.25982634974572738 0.46097799597715272 0 0.31068898841644388 0.47541502461811092 0 0.29348325746214782 0.31350119524708198 0 0.29132859388405002 0.27203693976649962 0 0.33402499257867951 0.28911035184473982 0 0.35312867752657662 0.084946736076730367 0 0.39823268594401579 0.1116623613130045 0 0.36246644853392812 0.1399454205365751 0 0.7000000000006934 1 0 0.68015064798562208 0.95924320340003011 0 0.7250000000005199 0.94981617647078953 0 0.42377727103934271 0.25099357235810238 0 0.38831533174504851 0.2189834941785925 0 0.42905200079338551 0.19982395548231649 0 0.53823865529665704 0.45873898050322898 0 0.57744073070774993 0.41535148636609359 0 0.57975577671020095 0.46172033326338591 0 0.33758650185219202 0.23837101504325639 0 0.3572130504031617 0.1874703368446563 0 0.38831533174504851 0.2189834941785925 0 0.29124338931648802 0.43334555462578611 0 0.31068898841644388 0.47541502461811092 0 0.25982634974572738 0.46097799597715272 0 0.6084546825910605 0.37989672713932537 0 0.61959173890754571 0.33832250091341232 0 0.65481233915350323 0.35652751921065562 0 0.40326160981139969 0.73346192995102844 0 0.43323420005758778 0.6913544522562407 0 0.45582236402875981 0.73896743678908217 0 0.33758650185219202 0.23837101504325639 0 0.28040350263641872 0.23054717217092141 0 0.31255190597181792 0.19850845631528771 0 0.79999999999999982 1 0 0.75000000000034661 1 0 0.770759834363826 0.95919399014344442 0 0.74999999999999989 0.29999999999999999 0 0.77075983436335049 0.25919399014334171 0 0.79999999999999982 0.29999999999999999 0 0.6499999999999998 0.29999999999999999 0 0.67933712972090698 0.25920070958121938 0 0.69999999999999984 0.29999999999999999 0 0.39536230704883951 0.84069429572832477 0 0.39767323751400468 0.89584229130535065 0 0.35864759629805099 0.87963482415279515 0 0.54999999999999993 0.69999999999999996 0 0.52584555706968406 0.66664215091846768 0 0.57484956128872922 0.66573805030881994 0 0.35312867752657662 0.084946736076730367 0 0.32541448401678508 0.046215317981507749 0 0.3615861437013822 0.03582617922508851 0 0.35752321586431363 0.9185439911803448 0 0.36184234618600131 0.96443954459096326 0 0.32544832635163229 0.95485394099568932 0 0.35312867752657662 0.084946736076730367 0 0.3615861437013822 0.03582617922508851 0 0.39591832466117061 0.056982757562006353 0 0.35752321586431363 0.9185439911803448 0 0.39641108128798319 0.94356127926187128 0 0.36184234618600131 0.96443954459096326 0 0.083411279318303222 0.089699755330707398 0 0.044310582753132287 0.101412518374475 0 0.053064897599215843 0.048131547304697528 0 0.083411279318375747 0.91030024466934134 0 0.053064897599294662 0.95186845269532028 0 0.0443105827531413 0.89858748162559932 0 0.38083244760691543 0.38531983672244652 0 0.40076539126862748 0.34589349467022118 0 0.42161023666869668 0.39493916313643851 0 0.4409427642593301 0.35743108089689513 0 0.42161023666869668 0.39493916313643851 0 0.40076539126862748 0.34589349467022118 0 0.79999999999999982 0.29999999999999999 0 0.82500000000000062 0.33010209762754811 0 0.78145581580700685 0.34881365920033602 0 0.79999999999999982 0.69999999999999996 0 0.7750489929959945 0.66593931409600093 0 0.82457059160610424 0.66831947184359608 0 0.59999999999999976 0.69999999999999996 0 0.57484956128872922 0.66573805030881994 0 0.62460753523532009 0.66851202781000296 0 0.74999999999999989 0.69999999999999996 0 0.72500000000000064 0.67022701834392062 0 0.7750489929959945 0.66593931409600093 0 0.74999999999999989 0.29999999999999999 0 0.78145581580700685 0.34881365920033602 0 0.73090396928863699 0.33699297293167962 0 0.33758650185219202 0.23837101504325639 0 0.33402499257867951 0.28911035184473982 0 0.29132859388405002 0.27203693976649962 0 0.36575549820117997 0.31677992835137742 0 0.41914690343363781 0.30688979866601612 0 0.40076539126862748 0.34589349467022118 0 0.4409427642593301 0.35743108089689513 0 0.40076539126862748 0.34589349467022118 0 0.41914690343363781 0.30688979866601612 0 0.34258405725730701 0.4444034294386992 0 0.38707855792647411 0.42299362914874578 0 0.3908716102680424 0.47010282357248828 0 0.7000000000006934 1 0 0.65000000000104008 1 0 0.68015064798562208 0.95924320340003011 0 0.49102375406324739 0.49123754822244059 0 0.46111841286828259 0.46690301029591341 0 0.48858720058566618 0.43964267759203868 0 0.4656888918609538 0.78493261229743638 0 0.42676259796334498 0.76772545931379299 0 0.45582236402875981 0.73896743678908217 0 0.40326160981139969 0.73346192995102844 0 0.45582236402875981 0.73896743678908217 0 0.42676259796334498 0.76772545931379299 0 0.59999999999999976 0.29999999999999999 0 0.62657463266645097 0.26524202571255862 0 0.6499999999999998 0.29999999999999999 0 0.40000000000166441 1 0 0.36184234618600131 0.96443954459096326 0 0.39641108128798319 0.94356127926187128 0 0.3999999999989749 0 0 0.39591832466117061 0.056982757562006353 0 0.3615861437013822 0.03582617922508851 0 0.43249999999999988 0.43937499999999979 0 0.48858720058566618 0.43964267759203868 0 0.46111841286828259 0.46690301029591341 0 0.7250000000005199 0.89375000000045834 0 0.7250000000005199 0.94981617647078953 0 0.68987011941058407 0.92105047536677087 0 0.7250000000005199 0.89375000000045834 0 0.75729602384198635 0.92353652857884294 0 0.7250000000005199 0.94981617647078953 0 0.72500000000001008 0.19776155966387679 0 0.75668890529066124 0.2244279804069782 0 0.72500000000000064 0.2498161764706 0 0.72500000000001008 0.19776155966387679 0 0.72500000000000064 0.2498161764706 0 0.69397719155551807 0.2245125647000914 0 0.79999999999999982 0.29999999999999999 0 0.81486180804364938 0.26321394949780091 0 0.84999999999999987 0.29999999999999999 0 0.84999999999965292 1 0 0.79999999999999982 1 0 0.81486180804382891 0.96321394949790495 0 0.1247745017231483 0.27198077544791172 0 0.095326043202144745 0.24554465089224409 0 0.14377654328998779 0.2442024734791064 0 0.1215415378367805 0.72939333680004137 0 0.14335651144331049 0.75565258250209677 0 0.090953281884486245 0.7564451946902494 0 0.72500000000001008 0.19776155966387679 0 0.72634814642510737 0.16106886917518889 0 0.76587607630038135 0.18880039518954719 0 0.72500000000001008 0.19776155966387679 0 0.6865991819015953 0.189116534044597 0 0.72634814642510737 0.16106886917518889 0 0.77144070960558853 0.14311854477243749 0 0.76587607630038135 0.18880039518954719 0 0.72634814642510737 0.16106886917518889 0 0.68391457121233579 0.14440470121196541 0 0.72634814642510737 0.16106886917518889 0 0.6865991819015953 0.189116534044597 0 0.7250000000005199 0.89375000000045834 0 0.72863726579783861 0.85390518901155588 0 0.76891166905518427 0.88835469571185499 0 0.76901770135486491 0.84293557325473656 0 0.76891166905518427 0.88835469571185499 0 0.72863726579783861 0.85390518901155588 0 0 0.20000000000083221 0 0.038512288486115001 0.1844147282893184 0 0.044081577119474857 0.2271058242433576 0 0 0.79999999999999982 0 0.04408157711937423 0.7728941757575627 0 0.038512288486097702 0.8155852717111195 0 0.52375890611712683 0.059318771819432882 0 0.47881186583059909 0.093591717165689425 0 0.47040171442036788 0.044141676406503738 0 0.52122150208832174 0.94089974453840242 0 0.47135117303824892 0.95556877749289892 0 0.47401147028110507 0.91529957330468115 0 0.27474541102162192 0.11822029332053539 0 0.3096713403101819 0.085471541595262421 0 0.32215584939770009 0.1218492143506909 0 0.22278230690790279 0.44824268025881547 0 0.24049127783545701 0.41270748208749802 0 0.25982634974572738 0.46097799597715272 0 0.93732437411268477 0.55911392101136159 0 0.91143117093204207 0.58709913730335972 0 0.90900154012161016 0.53607784105648792 0 0.19901705110390991 0.9175543425573498 0 0.24536017905392571 0.90704567837671446 0 0.22850979588452081 0.95594428570238643 0 0.27609987656793722 0.94991445621608572 0 0.22850979588452081 0.95594428570238643 0 0.24536017905392571 0.90704567837671446 0 0.15720202157091859 0.60665697304410315 0 0.1241190223511371 0.64391885572885044 0 0.1024350934457823 0.60772393977513839 0 0.6499999999999998 0.69999999999999996 0 0.675261390228442 0.65996937624687813 0 0.69999999999999984 0.69999999999999996 0 0.3999999999989749 0 0 0.4320097814748517 0.037406712692169303 0 0.39591832466117061 0.056982757562006353 0 0.40000000000166441 1 0 0.39641108128798319 0.94356127926187128 0 0.4308986359464303 0.96395712492906194 0 0.54999999999999993 0.29999999999999999 0 0.56836770495988642 0.3523062350852913 0 0.52752007115234678 0.33170632466418198 0 0.14474682429600511 0.85524784522713515 0 0.17777405986036951 0.81832336108265358 0 0.19741632902693801 0.86755867406447229 0 0.21858834311891909 0.81980263716112767 0 0.19741632902693801 0.86755867406447229 0 0.17777405986036951 0.81832336108265358 0 0.54782696902220018 0.79245182748204157 0 0.50731287292894423 0.78963574450233831 0 0.50945740445113552 0.75476055527778108 0 0.20000000000083221 1 0 0.18474005699953849 0.96231585248064622 0 0.22850979588452081 0.95594428570238643 0 0.19999999999955789 0 0 0.22668068146512929 0.045875643423131329 0 0.184418230509967 0.038773194583122873 0 0.77846603114747959 0.49850927265137401 0 0.73947346780852752 0.49062440112282169 0 0.77972660463949339 0.45529290596363098 0 0.73483647259922602 0.44789725365921768 0 0.77972660463949339 0.45529290596363098 0 0.73947346780852752 0.49062440112282169 0 0.34258405725730701 0.4444034294386992 0 0.35024835142131061 0.48654922671676981 0 0.31068898841644388 0.47541502461811092 0 0.33123028043633618 0.77629643437932982 0 0.2792923945214143 0.77665808831789485 0 0.29904318922293632 0.74132814928635593 0 0.26573297623774761 0.59828298563722948 0 0.25115337790845271 0.54719303014923271 0 0.29110487519241501 0.56588143995431495 0 0.4656888918609538 0.78493261229743638 0 0.50945740445113552 0.75476055527778108 0 0.50731287292894423 0.78963574450233831 0 0.35312867752657662 0.084946736076730367 0 0.36246644853392812 0.1399454205365751 0 0.32215584939770009 0.1218492143506909 0 0.29348325746214782 0.31350119524708198 0 0.25966125648670141 0.34351016742083729 0 0.24432083401701241 0.3006253385567515 0 0.59999999999999976 0.69999999999999996 0 0.6499999999999998 0.69999999999999996 0 0.63221990677827677 0.73442891067859706 0 0.69999999999921003 0 0 0.7010294155333181 0.056779085686491267 0 0.66369801598854572 0.036327466368102787 0 0.40000000000166441 1 0 0.35000000000145642 1 0 0.36184234618600131 0.96443954459096326 0 0.34999999999912063 0 0 0.3999999999989749 0 0 0.3615861437013822 0.03582617922508851 0 0.43507373378304309 0.49699695397193322 0 0.47793794143994173 0.52940715638744962 0 0.42644501560315817 0.54603747078095544 0 0.14474682429600511 0.85524784522713515 0 0.19741632902693801 0.86755867406447229 0 0.16206583317966519 0.89685560785156404 0 0.19901705110390991 0.9175543425573498 0 0.16206583317966519 0.89685560785156404 0 0.19741632902693801 0.86755867406447229 0 0.35864735590330371 0.63903383440414463 0 0.3977710372045391 0.65868194622830212 0 0.36622285152418499 0.69092437780804039 0 0.7527966693318906 0.053051678021508272 0 0.7010294155333181 0.056779085686491267 0 0.72683645290270404 0.027797073151180601 0 0.71508799138962864 0.36622814920737751 0 0.72622533758026719 0.40265885511101601 0 0.68128176404677243 0.38629093627004979 0 0.79999999999999982 0.69999999999999996 0 0.84999999999999987 0.69999999999999996 0 0.81864958914779962 0.73589050177899629 0 0.79999999999947335 0 0 0.84999999999960507 0 0 0.81864958914740749 0.035890501779055867 0 0.39536230704883951 0.84069429572832477 0 0.35642984951668422 0.80994399665655703 0 0.38586766253264881 0.78219501014812498 0 0.42377727103934271 0.25099357235810238 0 0.46429753744194407 0.22870891180733599 0 0.4604742573284204 0.27846934318264788 0 0.39801143831225599 0.16651381068160659 0 0.42905200079338551 0.19982395548231649 0 0.38831533174504851 0.2189834941785925 0 0.79999999999999982 1 0 0.770759834363826 0.95919399014344442 0 0.81486180804382891 0.96321394949790495 0 0.79999999999999982 0.29999999999999999 0 0.77075983436335049 0.25919399014334171 0 0.81486180804364938 0.26321394949780091 0 0.25195515620380449 0.25883339815888678 0 0.21049769590865089 0.26857363548218488 0 0.224700362040408 0.22206622194729711 0 0.40326160981139969 0.73346192995102844 0 0.42676259796334498 0.76772545931379299 0 0.38586766253264881 0.78219501014812498 0 0.35312867752657662 0.084946736076730367 0 0.3096713403101819 0.085471541595262421 0 0.32541448401678508 0.046215317981507749 0 0.59999999999999976 0.29999999999999999 0 0.6499999999999998 0.29999999999999999 0 0.61959173890754571 0.33832250091341232 0 0.2185883431182947 0.18019736283949719 0 0.18652628422869419 0.14162325200928061 0 0.22985637510995899 0.1298347970200906 0 0.64999999999907843 0 0 0.69999999999921003 0 0 0.66369801598854572 0.036327466368102787 0 0.27499999999933927 0.060310814194988557 0 0.24218496799700481 0.089025544070598317 0 0.22668068146512929 0.045875643423131329 0 0.19922788606653311 0.085920220746880993 0 0.22668068146512929 0.045875643423131329 0 0.24218496799700481 0.089025544070598317 0 0.65507451745379841 0.92229208810758578 0 0.66412543161245952 0.88015090885499059 0 0.68987011941058407 0.92105047536677087 0 0.049706944316475897 0.72477277076253799 0 0.090953281884486245 0.7564451946902494 0 0.04408157711937423 0.7728941757575627 0 0.083105206071452636 0.79992298667296435 0 0.04408157711937423 0.7728941757575627 0 0.090953281884486245 0.7564451946902494 0 0.083105206071467416 0.20007701332709979 0 0.095326043202144745 0.24554465089224409 0 0.044081577119474857 0.2271058242433576 0 0.049706944316556423 0.27522722923869108 0 0.044081577119474857 0.2271058242433576 0 0.095326043202144745 0.24554465089224409 0 0.36575549820117997 0.31677992835137742 0 0.33402499257867951 0.28911035184473982 0 0.3786248352540974 0.27082301512024259 0 0.53245488764484505 0.55078124999999989 0 0.53330375813596242 0.50827942741749099 0 0.57435499076887508 0.54267261987897775 0 0.57611405284611883 0.50165903596042916 0 0.57435499076887508 0.54267261987897775 0 0.53330375813596242 0.50827942741749099 0 0.6499999999999998 0.29999999999999999 0 0.69999999999999984 0.29999999999999999 0 0.68887083591306764 0.33632058575757479 0 0.57611405284611883 0.50165903596042916 0 0.53823865529665704 0.45873898050322898 0 0.57975577671020095 0.46172033326338591 0 0.7750489929959945 0.66593931409600093 0 0.72500000000000064 0.67022701834392062 0 0.74994237037456724 0.62775548192980357 0 0.78145581580700685 0.34881365920033602 0 0.74764719760526988 0.3719647154012321 0 0.73090396928863699 0.33699297293167962 0 0.3999999999989749 0 0 0.44999999999882923 0 0 0.4320097814748517 0.037406712692169303 0 0.45000000000187229 1 0 0.40000000000166441 1 0 0.4308986359464303 0.96395712492906194 0 0.57484956128872922 0.66573805030881994 0 0.5991018319127801 0.62925360607495295 0 0.62460753523532009 0.66851202781000296 0 0.7750489929959945 0.66593931409600093 0 0.79884539758237771 0.62875045078114233 0 0.82457059160610424 0.66831947184359608 0 0.39801143831225599 0.16651381068160659 0 0.36246644853392812 0.1399454205365751 0 0.39823268594401579 0.1116623613130045 0 0.078358742472063481 0.43365249433908948 0 0.033550201249889847 0.46247875832467239 0 0.035463093262830522 0.42673416072819947 0 0.25676291524611189 0.7436741304886243 0 0.2792923945214143 0.77665808831789485 0 0.22556077506376701 0.77837424984191617 0 0.2236846579037573 0.67380363126050236 0 0.2248999640082178 0.72584299459689172 0 0.19068556247388771 0.71028988922845504 0 0.50715858906372158 0.63295939104129484 0 0.5166924242153631 0.59825134841919447 0 0.5498280205245758 0.6290146943450976 0 0.14618258501891079 0.062070108745602003 0 0.12372429750337779 0.095814237875728972 0 0.10266856499169109 0.044518360900210059 0 0.083411279318303222 0.089699755330707398 0 0.10266856499169109 0.044518360900210059 0 0.12372429750337779 0.095814237875728972 0 0.083411279318375747 0.91030024466934134 0 0.1241151115713819 0.9045666525468371 0 0.10266856499240549 0.95548163909968886 0 0.14617343800780541 0.93808063414349496 0 0.10266856499240549 0.95548163909968886 0 0.1241151115713819 0.9045666525468371 0 0.5499999999988151 0 0 0.59999999999894682 0 0 0.57396793757665954 0.037011367187645222 0 0.54782696902220018 0.79245182748204157 0 0.50627822638148745 0.8263979829520941 0 0.50731287292894423 0.78963574450233831 0 0.6499999999999998 0.29999999999999999 0 0.62657463266645097 0.26524202571255862 0 0.67933712972090698 0.25920070958121938 0 0.86956835336234861 0.571283299838105 0 0.86907294890112186 0.52008116128001669 0 0.90900154012161016 0.53607784105648792 0 0.17933913398461551 0.2350063570234002 0 0.224700362040408 0.22206622194729711 0 0.21049769590865089 0.26857363548218488 0 0.43249999999999988 0.43937499999999979 0 0.3908716102680424 0.47010282357248828 0 0.38707855792647411 0.42299362914874578 0 0.27474541102162192 0.11822029332053539 0 0.22985637510995899 0.1298347970200906 0 0.24218496799700481 0.089025544070598317 0 0.64753070846764316 0.77332939069435502 0 0.66427993341343905 0.73232764502436276 0 0.6916490518212759 0.75387992374886192 0 0 0.40000000000166441 0 0.050583896093752537 0.38543522283434112 0 0.035463093262830522 0.42673416072819947 0 0.73483647259922602 0.44789725365921768 0 0.73947346780852752 0.49062440112282169 0 0.69385896817107129 0.48377516041410151 0 0.57484956128872922 0.66573805030881994 0 0.52584555706968406 0.66664215091846768 0 0.5498280205245758 0.6290146943450976 0 0.60000000000138687 1 0 0.55000000000173355 1 0 0.57382506491224949 0.9629411906298494 0 0.068743045408989428 0.48853989837882689 0 0.085622222639554768 0.53333248912060549 0 0.044576108720083309 0.53509043209532614 0 0.083105206071467416 0.20007701332709979 0 0.044081577119474857 0.2271058242433576 0 0.038512288486115001 0.1844147282893184 0 0.083105206071452636 0.79992298667296435 0 0.038512288486097702 0.8155852717111195 0 0.04408157711937423 0.7728941757575627 0 0.28307294598219601 0.50789252727458634 0 0.23975172658309729 0.49475499200540818 0 0.25982634974572738 0.46097799597715272 0 0.43698630808430822 0.080423614171545449 0 0.39591832466117061 0.056982757562006353 0 0.4320097814748517 0.037406712692169303 0 0.4367309254023824 0.92065556789053882 0 0.4308986359464303 0.96395712492906194 0 0.39641108128798319 0.94356127926187128 0 0.80185942888539485 0.77452061303608133 0 0.75841349681148107 0.75422312624214749 0 0.78578450296893509 0.73292684821144505 0 0.80185942888501827 0.074520613036224564 0 0.7527966693318906 0.053051678021508272 0 0.78393852574753176 0.032039079577822822 0 0.6499999999999998 0.69999999999999996 0 0.62460753523532009 0.66851202781000296 0 0.675261390228442 0.65996937624687813 0 0.33123028043633618 0.77629643437932982 0 0.38586766253264881 0.78219501014812498 0 0.35642984951668422 0.80994399665655703 0 0.6405463747586706 0.63290524857395714 0 0.675261390228442 0.65996937624687813 0 0.62460753523532009 0.66851202781000296 0 0.22278230690790279 0.44824268025881547 0 0.191953871957803 0.42546416763755879 0 0.24049127783545701 0.41270748208749802 0 0.077693244765132896 0.56932317963405099 0 0.050069554451969707 0.61308520079857043 0 0.034381862692950467 0.57372682250960894 0 0.25195515620380449 0.25883339815888678 0 0.24432083401701241 0.3006253385567515 0 0.21049769590865089 0.26857363548218488 0 0.46666084890304671 0.57634471035397938 0 0.5166924242153631 0.59825134841919447 0 0.47095389620662098 0.61892551373708504 0 0.50715858906372158 0.63295939104129484 0 0.47095389620662098 0.61892551373708504 0 0.5166924242153631 0.59825134841919447 0 0.72525833953073282 0.1032114801687094 0 0.7527966693318906 0.053051678021508272 0 0.76878382444651716 0.097147941686331368 0 0.80185942888501827 0.074520613036224564 0 0.76878382444651716 0.097147941686331368 0 0.7527966693318906 0.053051678021508272 0 0.72500000000000064 0.7952620967744265 0 0.75841349681148107 0.75422312624214749 0 0.77094201086366854 0.79647480515688507 0 0.80185942888539485 0.77452061303608133 0 0.77094201086366854 0.79647480515688507 0 0.75841349681148107 0.75422312624214749 0 0.72500000000000064 0.7952620967744265 0 0.68024162096458085 0.79868546898116533 0 0.6916490518212759 0.75387992374886192 0 0.64753070846764316 0.77332939069435502 0 0.6916490518212759 0.75387992374886192 0 0.68024162096458085 0.79868546898116533 0 0 0.50000000000205869 0 0 0.45000000000187229 0 0.033550201249889847 0.46247875832467239 0 0.69999999999999984 0.69999999999999996 0 0.675261390228442 0.65996937624687813 0 0.72500000000000064 0.67022701834392062 0 0.71406021706547751 0.63292083137662503 0 0.72500000000000064 0.67022701834392062 0 0.675261390228442 0.65996937624687813 0 0.65408113592120842 0.073941773121567966 0 0.61940220174112337 0.047251958781050582 0 0.66369801598854572 0.036327466368102787 0 0.59999999999894682 0 0 0.61940220174112337 0.047251958781050582 0 0.57396793757665954 0.037011367187645222 0 0.60000000000138687 1 0 0.57382506491224949 0.9629411906298494 0 0.62065498684670595 0.95224934003983619 0 0.33122374654748771 0.57588941099433744 0 0.35765792684946668 0.6000687869219653 0 0.31502927232353312 0.6134992213375432 0 0.35864735590330371 0.63903383440414463 0 0.31502927232353312 0.6134992213375432 0 0.35765792684946668 0.6000687869219653 0 0.15801167086041079 0.46008690540259539 0 0.19604738184454831 0.47787523520405789 0 0.16618607197337229 0.50652878253548905 0 0.078358742472063481 0.43365249433908948 0 0.035463093262830522 0.42673416072819947 0 0.050583896093752537 0.38543522283434112 0 0.19901705110390991 0.9175543425573498 0 0.22850979588452081 0.95594428570238643 0 0.18474005699953849 0.96231585248064622 0 0.19922788606653311 0.085920220746880993 0 0.184418230509967 0.038773194583122873 0 0.22668068146512929 0.045875643423131329 0 0.19922788606653311 0.085920220746880993 0 0.24218496799700481 0.089025544070598317 0 0.22985637510995899 0.1298347970200906 0 0.74999999999999989 0.69999999999999996 0 0.78578450296893509 0.73292684821144505 0 0.75841349681148107 0.75422312624214749 0 0.74999999999934175 0 0 0.78393852574753176 0.032039079577822822 0 0.7527966693318906 0.053051678021508272 0 0 0.60000000000138687 0 0.034381862692950467 0.57372682250960894 0 0.050069554451969707 0.61308520079857043 0 0.2236846579037573 0.67380363126050236 0 0.26439878998046262 0.7048065392091396 0 0.2248999640082178 0.72584299459689172 0 0.6236733212988993 0.14864538214901801 0 0.58516465772821369 0.11653801664834119 0 0.61956000905586006 0.1043312481793135 0 0.26104540868854792 0.81401944968719064 0 0.2792923945214143 0.77665808831789485 0 0.30857225866488791 0.81101973481716805 0 0.42377727103934271 0.25099357235810238 0 0.42905200079338551 0.19982395548231649 0 0.46429753744194407 0.22870891180733599 0 0.27820712747429932 0.65530134213254643 0 0.31502927232353312 0.6134992213375432 0 0.32263089806001177 0.66003674931826484 0 0.61343887413683884 0.856862479058357 0 0.61885627562261258 0.90282959257498208 0 0.5832743223239254 0.88483152652961872 0 0.43698630808430822 0.080423614171545449 0 0.47040171442036788 0.044141676406503738 0 0.47881186583059909 0.093591717165689425 0 0.4367309254023824 0.92065556789053882 0 0.47401147028110507 0.91529957330468115 0 0.47135117303824892 0.95556877749289892 0 0.91696753777131557 0.497780560203536 0 0.95631871884947484 0.51827533208233789 0 0.90900154012161016 0.53607784105648792 0 0.93732437411268477 0.55911392101136159 0 0.90900154012161016 0.53607784105648792 0 0.95631871884947484 0.51827533208233789 0 0.27474541102162192 0.11822029332053539 0 0.25557216766470708 0.15874861286892261 0 0.22985637510995899 0.1298347970200906 0 0.2185883431182947 0.18019736283949719 0 0.22985637510995899 0.1298347970200906 0 0.25557216766470708 0.15874861286892261 0 0.29348325746214782 0.31350119524708198 0 0.33402499257867951 0.28911035184473982 0 0.32752639306529541 0.32610012995269699 0 0.27499999999933927 0.060310814194988557 0 0.32541448401678508 0.046215317981507749 0 0.3096713403101819 0.085471541595262421 0 0.27270076654418179 0.87751467830216623 0 0.24536017905392571 0.90704567837671446 0 0.2401283238295133 0.85648409884788523 0 1 0.44999999999963131 0 1 0.49999999999950101 0 0.96228564064454991 0.48206450662049471 0 0.61343887413683884 0.856862479058357 0 0.66412543161245952 0.88015090885499059 0 0.61885627562261258 0.90282959257498208 0 0 0.45000000000187229 0 0 0.40000000000166441 0 0.035463093262830522 0.42673416072819947 0 0.69999999999999984 0.69999999999999996 0 0.6916490518212759 0.75387992374886192 0 0.66427993341343905 0.73232764502436276 0 0.43846182030517877 0.64845797726506715 0 0.43323420005758778 0.6913544522562407 0 0.3977710372045391 0.65868194622830212 0 0.4367309254023824 0.92065556789053882 0 0.44003836461056539 0.88093474584252718 0 0.47401147028110507 0.91529957330468115 0 0.43846182030517877 0.64845797726506715 0 0.39743091024207589 0.6239520004230239 0 0.43545892161006339 0.61093128915313821 0 0.43846182030517877 0.64845797726506715 0 0.3977710372045391 0.65868194622830212 0 0.39743091024207589 0.6239520004230239 0 0.26429849586623999 0.19346700179430079 0 0.29336099386129338 0.15892013001050981 0 0.31255190597181792 0.19850845631528771 0 0.19670163708476801 0.31472518408333222 0 0.21049769590865089 0.26857363548218488 0 0.24432083401701241 0.3006253385567515 0 0.57724883562309992 0.92155686857100794 0 0.62065498684670595 0.95224934003983619 0 0.57382506491224949 0.9629411906298494 0 0.4409427642593301 0.35743108089689513 0 0.46655310992796922 0.39650496622958609 0 0.42161023666869668 0.39493916313643851 0 0.46666084890304671 0.57634471035397938 0 0.47095389620662098 0.61892551373708504 0 0.43545892161006339 0.61093128915313821 0 0.6879972333610942 0.43038561374960838 0 0.65178832218679827 0.45929119821019959 0 0.63912439215427275 0.41063340167983359 0 0.43698630808430822 0.080423614171545449 0 0.4320097814748517 0.037406712692169303 0 0.47040171442036788 0.044141676406503738 0 0.4367309254023824 0.92065556789053882 0 0.47135117303824892 0.95556877749289892 0 0.4308986359464303 0.96395712492906194 0 0.79680861578988083 0.92656778056766709 0 0.81486180804382891 0.96321394949790495 0 0.770759834363826 0.95919399014344442 0 0.79680861578956375 0.22656778056752541 0 0.81486180804364938 0.26321394949780091 0 0.77075983436335049 0.25919399014334171 0 0.71508799138962864 0.36622814920737751 0 0.68128176404677243 0.38629093627004979 0 0.68887083591306764 0.33632058575757479 0 0.35864735590330371 0.63903383440414463 0 0.32263089806001177 0.66003674931826484 0 0.31502927232353312 0.6134992213375432 0 0.21858834311891909 0.81980263716112767 0 0.2401283238295133 0.85648409884788523 0 0.19741632902693801 0.86755867406447229 0 0.35312867752657662 0.084946736076730367 0 0.32215584939770009 0.1218492143506909 0 0.3096713403101819 0.085471541595262421 0 0.35752321586431363 0.9185439911803448 0 0.35864759629805099 0.87963482415279515 0 0.39767323751400468 0.89584229130535065 0 0.41914690343363781 0.30688979866601612 0 0.4604742573284204 0.27846934318264788 0 0.46226845272279993 0.31901800744800313 0 0.33084213324567391 0.16272720141332131 0 0.32215584939770009 0.1218492143506909 0 0.36246644853392812 0.1399454205365751 0 0.46666084890304671 0.57634471035397938 0 0.42644501560315817 0.54603747078095544 0 0.47793794143994173 0.52940715638744962 0 0 0.60000000000138687 0 0 0.55000000000173355 0 0.034381862692950467 0.57372682250960894 0 0.77354604466818633 0.40378688774472771 0 0.74764719760526988 0.3719647154012321 0 0.78145581580700685 0.34881365920033602 0 0.34999999999912063 0 0 0.3615861437013822 0.03582617922508851 0 0.32541448401678508 0.046215317981507749 0 0.35000000000145642 1 0 0.32544832635163229 0.95485394099568932 0 0.36184234618600131 0.96443954459096326 0 0.57667858002728545 0.078486105337742612 0 0.57396793757665954 0.037011367187645222 0 0.61940220174112337 0.047251958781050582 0 0.47357141910802508 0.1873585799078378 0 0.50760557329222289 0.20700468884612061 0 0.46429753744194407 0.22870891180733599 0 0.49695729691142171 0.25014895411178018 0 0.46429753744194407 0.22870891180733599 0 0.50760557329222289 0.20700468884612061 0 0.33084213324567391 0.16272720141332131 0 0.3572130504031617 0.1874703368446563 0 0.31255190597181792 0.19850845631528771 0 0.6879972333610942 0.43038561374960838 0 0.63912439215427275 0.41063340167983359 0 0.68128176404677243 0.38629093627004979 0 0.65408113592120842 0.073941773121567966 0 0.65290632656860115 0.11434202593454081 0 0.61956000905586006 0.1043312481793135 0 0.33084213324567391 0.16272720141332131 0 0.31255190597181792 0.19850845631528771 0 0.29336099386129338 0.15892013001050981 0 0.61209567303293111 0.44669033081290321 0 0.63912439215427275 0.41063340167983359 0 0.65178832218679827 0.45929119821019959 0 0.086179601630648681 0.64647209519980475 0 0.1024350934457823 0.60772393977513839 0 0.1241190223511371 0.64391885572885044 0 0.44999999999882923 0 0 0.47040171442036788 0.044141676406503738 0 0.4320097814748517 0.037406712692169303 0 0.45000000000187229 1 0 0.4308986359464303 0.96395712492906194 0 0.47135117303824892 0.95556877749289892 0 0.74999999999934175 0 0 0.7527966693318906 0.053051678021508272 0 0.72683645290270404 0.027797073151180601 0 0.74999999999999989 0.69999999999999996 0 0.75841349681148107 0.75422312624214749 0 0.72501250972655151 0.74067302935308721 0 0.69999999999999984 0.69999999999999996 0 0.72501250972655151 0.74067302935308721 0 0.6916490518212759 0.75387992374886192 0 0.74999999999934175 0 0 0.79999999999947335 0 0 0.78393852574753176 0.032039079577822822 0 0.74999999999999989 0.69999999999999996 0 0.79999999999999982 0.69999999999999996 0 0.78578450296893509 0.73292684821144505 0 0.6405463747586706 0.63290524857395714 0 0.5991018319127801 0.62925360607495295 0 0.63065402604362242 0.59661356661633302 0 0.65481233915350323 0.35652751921065562 0 0.68887083591306764 0.33632058575757479 0 0.68128176404677243 0.38629093627004979 0 0.89999999999999991 0.29999999999999999 0 0.94999999999999996 0.29999999999999999 0 0.92012390126144183 0.33123581297173937 0 0.89999999999999991 0.69999999999999996 0 0.92057473616084773 0.66770436535372446 0 0.94999999999999996 0.69999999999999996 0 0.4367309254023824 0.92065556789053882 0 0.39767323751400468 0.89584229130535065 0 0.44003836461056539 0.88093474584252718 0 0.2185883431182947 0.18019736283949719 0 0.18124454140915969 0.18790916706335251 0 0.18652628422869419 0.14162325200928061 0 0.20050006573841939 0.53248514016039872 0 0.19604738184454831 0.47787523520405789 0 0.23975172658309729 0.49475499200540818 0 0.65507451745379841 0.92229208810758578 0 0.61885627562261258 0.90282959257498208 0 0.66412543161245952 0.88015090885499059 0 0.65394964615507722 0.22666784374016369 0 0.67933712972090698 0.25920070958121938 0 0.62657463266645097 0.26524202571255862 0 0.077693244765132896 0.56932317963405099 0 0.034381862692950467 0.57372682250960894 0 0.044576108720083309 0.53509043209532614 0 0.39801143831225599 0.16651381068160659 0 0.38831533174504851 0.2189834941785925 0 0.3572130504031617 0.1874703368446563 0 0.6499999999999998 0.69999999999999996 0 0.69999999999999984 0.69999999999999996 0 0.66427993341343905 0.73232764502436276 0 0.1215415378367805 0.72939333680004137 0 0.15332765547575641 0.71200081858233666 0 0.14335651144331049 0.75565258250209677 0 0.6405463747586706 0.63290524857395714 0 0.63065402604362242 0.59661356661633302 0 0.67529834988829951 0.61613270668143583 0 0.67323294229744413 0.57556450033612505 0 0.67529834988829951 0.61613270668143583 0 0.63065402604362242 0.59661356661633302 0 0.91750694127107502 0.36982372220068471 0 0.87430060258887643 0.34056085888204451 0 0.92012390126144183 0.33123581297173937 0 0.89999999999999991 0.29999999999999999 0 0.92012390126144183 0.33123581297173937 0 0.87430060258887643 0.34056085888204451 0 0.89999999999999991 0.69999999999999996 0 0.87712158428786946 0.65709029563313581 0 0.92057473616084773 0.66770436535372446 0 0.91750694127105259 0.63017627779935648 0 0.92057473616084773 0.66770436535372446 0 0.87712158428786946 0.65709029563313581 0 0.33122374654748771 0.57588941099433744 0 0.29110487519241501 0.56588143995431495 0 0.33190227185843768 0.52715113583864037 0 0.57484956128872922 0.66573805030881994 0 0.5498280205245758 0.6290146943450976 0 0.5991018319127801 0.62925360607495295 0 0.57412547362576272 0.58273804879550706 0 0.5991018319127801 0.62925360607495295 0 0.5498280205245758 0.6290146943450976 0 0.65408113592120842 0.073941773121567966 0 0.66369801598854572 0.036327466368102787 0 0.7010294155333181 0.056779085686491267 0 0.27474541102162192 0.11822029332053539 0 0.32215584939770009 0.1218492143506909 0 0.29336099386129338 0.15892013001050981 0 0.33084213324567391 0.16272720141332131 0 0.29336099386129338 0.15892013001050981 0 0.32215584939770009 0.1218492143506909 0 0.5 0.29999999999999999 0 0.54999999999999993 0.29999999999999999 0 0.52752007115234678 0.33170632466418198 0 0.83573492347052902 0.36590755630746369 0 0.87430060258887643 0.34056085888204451 0 0.86844634540301924 0.38530937474099819 0 0.83758014339878906 0.63222013025741819 0 0.87159648282691515 0.61285406320581504 0 0.87712158428786946 0.65709029563313581 0 0.22278230690790279 0.44824268025881547 0 0.23975172658309729 0.49475499200540818 0 0.19604738184454831 0.47787523520405789 0 1 0.49999999999950101 0 0.95631871884947484 0.51827533208233789 0 0.96228564064454991 0.48206450662049471 0 0.1650278706801647 0.38791388161335733 0 0.13773355295499351 0.42497777642586831 0 0.1117088112799664 0.38831403004970022 0 0.61209567303293111 0.44669033081290321 0 0.57975577671020095 0.46172033326338591 0 0.57744073070774993 0.41535148636609359 0 0.077693244765132896 0.56932317963405099 0 0.1154888278694548 0.56733818459978413 0 0.1024350934457823 0.60772393977513839 0 0.68697391633157634 0.84450604838764298 0 0.65005442820240822 0.82644988530054031 0 0.68024162096458085 0.79868546898116533 0 0.76901770135486491 0.84293557325473656 0 0.77094201086366854 0.79647480515688507 0 0.80041942726660109 0.81543261647703358 0 0.77144070960558853 0.14311854477243749 0 0.76878382444651716 0.097147941686331368 0 0.80076557130237269 0.1154587552654202 0 0.5 0.69999999999999996 0 0.52584555706968406 0.66664215091846768 0 0.54999999999999993 0.69999999999999996 0 0.077693244765132896 0.56932317963405099 0 0.044576108720083309 0.53509043209532614 0 0.085622222639554768 0.53333248912060549 0 0.69999999999921003 0 0 0.72683645290270404 0.027797073151180601 0 0.7010294155333181 0.056779085686491267 0 1 0 0 0.97166519676946894 0.033371144900598393 0 0.94999999999986839 0 0 1 0.69999999999999996 0 0.97166519676947294 0.73337114490064459 0 0.94999999999999996 0.69999999999999996 0 1 0.69999999999999996 0 1 0.74999999999993494 0 0.97166519676947294 0.73337114490064459 0 1 0.29999999999999999 0 0.97166519676951801 0.26662885509932011 0 1 0.24999999999987299 0 1 1 0 0.94999999999979179 1 0 0.97166519676946206 0.96662885509935492 0 1 0 0 1 0.049999999999896842 0 0.97166519676946894 0.033371144900598393 0 1 0.29999999999999999 0 0.94999999999999996 0.29999999999999999 0 0.97166519676951801 0.26662885509932011 0 1 1 0 0.97166519676946206 0.96662885509935492 0 1 0.94999999999997109 0 0 0.55000000000173355 0 0.044576108720083309 0.53509043209532614 0 0.034381862692950467 0.57372682250960894 0 0.6879972333610942 0.43038561374960838 0 0.69385896817107129 0.48377516041410151 0 0.65178832218679827 0.45929119821019959 0 0.33084213324567391 0.16272720141332131 0 0.36246644853392812 0.1399454205365751 0 0.3572130504031617 0.1874703368446563 0 0.65408113592120842 0.073941773121567966 0 0.68330259535470161 0.10038702501083881 0 0.65290632656860115 0.11434202593454081 0 0.16500388252850301 0.66612077714085194 0 0.19068556247388771 0.71028988922845504 0 0.15332765547575641 0.71200081858233666 0 0.82709327591091286 0.84937141670920724 0 0.85600844944837662 0.88483418979512773 0 0.81159157511211755 0.88795995483179491 0 0.82709327591102189 0.14937141670914489 0 0.85600844944842547 0.1848341897950983 0 0.81283102246527783 0.1881007222486438 0 0.79999999999999982 0.29999999999999999 0 0.84999999999999987 0.29999999999999999 0 0.82500000000000062 0.33010209762754811 0 0.79999999999999982 0.69999999999999996 0 0.82457059160610424 0.66831947184359608 0 0.84999999999999987 0.69999999999999996 0 0.59999999999999976 0.69999999999999996 0 0.62460753523532009 0.66851202781000296 0 0.6499999999999998 0.69999999999999996 0 0.39801143831225599 0.16651381068160659 0 0.3572130504031617 0.1874703368446563 0 0.36246644853392812 0.1399454205365751 0 0.69999999999999984 0.29999999999999999 0 0.74999999999999989 0.29999999999999999 0 0.73090396928863699 0.33699297293167962 0 0.69999999999999984 0.69999999999999996 0 0.72500000000000064 0.67022701834392062 0 0.74999999999999989 0.69999999999999996 0 0.6236733212988993 0.14864538214901801 0 0.64011864159029941 0.18789607982138171 0 0.59443395090188023 0.18455690917515069 0 0.20050006573841939 0.53248514016039872 0 0.16618607197337229 0.50652878253548905 0 0.19604738184454831 0.47787523520405789 0 0.79680861578956375 0.22656778056752541 0 0.76587607630038135 0.18880039518954719 0 0.81283102246527783 0.1881007222486438 0 0.79680861578988083 0.92656778056766709 0 0.76891166905518427 0.88835469571185499 0 0.81159157511211755 0.88795995483179491 0 0.71406021706547751 0.63292083137662503 0 0.675261390228442 0.65996937624687813 0 0.67529834988829951 0.61613270668143583 0 0.6405463747586706 0.63290524857395714 0 0.67529834988829951 0.61613270668143583 0 0.675261390228442 0.65996937624687813 0 0.19670163708476801 0.31472518408333222 0 0.168349569971391 0.28054490850913671 0 0.21049769590865089 0.26857363548218488 0 0.47357141910802508 0.1873585799078378 0 0.46429753744194407 0.22870891180733599 0 0.42905200079338551 0.19982395548231649 0 0.59814117807200873 0.23398510860739519 0 0.5794309697024993 0.27124795968204829 0 0.54248833945060504 0.2520322959927106 0 0.6541250972820879 0.49999999999999989 0 0.65178832218679827 0.45929119821019959 0 0.69385896817107129 0.48377516041410151 0 0.54999999999999993 0.29999999999999999 0 0.5794309697024993 0.27124795968204829 0 0.59999999999999976 0.29999999999999999 0 0.7750489929959945 0.66593931409600093 0 0.74994237037456724 0.62775548192980357 0 0.79884539758237771 0.62875045078114233 0 0.77293540622714185 0.59448302402785813 0 0.79884539758237771 0.62875045078114233 0 0.74994237037456724 0.62775548192980357 0 0.14332333627550789 0.14578431753966009 0 0.16141998738593399 0.10404039647458049 0 0.18652628422869419 0.14162325200928061 0 0.38083244760691543 0.38531983672244652 0 0.42161023666869668 0.39493916313643851 0 0.38707855792647411 0.42299362914874578 0 0.43249999999999988 0.43937499999999979 0 0.38707855792647411 0.42299362914874578 0 0.42161023666869668 0.39493916313643851 0 0.43846182030517877 0.64845797726506715 0 0.47095389620662098 0.61892551373708504 0 0.47913475093885149 0.66010775372412711 0 0.50715858906372158 0.63295939104129484 0 0.47913475093885149 0.66010775372412711 0 0.47095389620662098 0.61892551373708504 0 0.69999999999999984 0.69999999999999996 0 0.74999999999999989 0.69999999999999996 0 0.72501250972655151 0.74067302935308721 0 0.4089290844030305 0.58728915500154233 0 0.35765792684946668 0.6000687869219653 0 0.37272913873093971 0.56192925302619479 0 0.69999999999921003 0 0 0.74999999999934175 0 0 0.72683645290270404 0.027797073151180601 0 0.17933913398461551 0.2350063570234002 0 0.21049769590865089 0.26857363548218488 0 0.168349569971391 0.28054490850913671 0 0.14474682429600511 0.85524784522713515 0 0.10562472963403439 0.87143394428979881 0 0.1074251789111534 0.83564394292147814 0 0.14332333627550789 0.14578431753966009 0 0.106902708054812 0.16453234188234539 0 0.1053400320299198 0.12877248826361379 0 0.2236846579037573 0.67380363126050236 0 0.19914261668318661 0.62286739485272158 0 0.2459498854893499 0.63248470766216769 0 0.049999999999899652 0 0 0.053064897599215843 0.048131547304697528 0 0.02576622439977887 0.024532886826226379 0 0 0.050000000000207989 0 0.02576622439977887 0.024532886826226379 0 0.053064897599215843 0.048131547304697528 0 0.050000000000207989 1 0 0.025766224399875661 0.97546711317377799 0 0.053064897599294662 0.95186845269532028 0 0 0.94999999999979179 0 0.053064897599294662 0.95186845269532028 0 0.025766224399875661 0.97546711317377799 0 0.47357141910802508 0.1873585799078378 0 0.48466639505193998 0.1421439844745814 0 0.51729576145820033 0.1683240575987815 0 0.077693244765132896 0.56932317963405099 0 0.085622222639554768 0.53333248912060549 0 0.1154888278694548 0.56733818459978413 0 0.64753070846764316 0.77332939069435502 0 0.63221990677827677 0.73442891067859706 0 0.66427993341343905 0.73232764502436276 0 0.4656888918609538 0.78493261229743638 0 0.42609163930740518 0.80361684430568059 0 0.42676259796334498 0.76772545931379299 0 0.4089290844030305 0.58728915500154233 0 0.39743091024207589 0.6239520004230239 0 0.35765792684946668 0.6000687869219653 0 0.55306006949600994 0.20198184231352201 0 0.50760557329222289 0.20700468884612061 0 0.51729576145820033 0.1683240575987815 0 1 0.8999999999998336 0 1 0.94999999999997109 0 0.97435614836744289 0.92499999999990257 0 1 0.19999999999974799 0 1 0.24999999999987299 0 0.97435614836740092 0.22499999999981049 0 1 0.74999999999993494 0 1 0.7999999999998193 0 0.97435614836745565 0.77499999999987745 0 1 0.049999999999896842 0 1 0.099999999999753911 0 0.97435614836748241 0.074999999999825387 0 0.86411095495256451 0.42388805655111889 0 0.86844634540301924 0.38530937474099819 0 0.90594285160987287 0.4141265964174129 0 0.86956835336234861 0.571283299838105 0 0.91143117093204207 0.58709913730335972 0 0.87159648282691515 0.61285406320581504 0 0 0 0 0.02576622439977887 0.024532886826226379 0 0 0.050000000000207989 0 0 1 0 0 0.94999999999979179 0 0.025766224399875661 0.97546711317377799 0 0 1 0 0.025766224399875661 0.97546711317377799 0 0.050000000000207989 1 0 0 0 0 0.049999999999899652 0 0 0.02576622439977887 0.024532886826226379 0 0.65394964615507722 0.22666784374016369 0 0.64011864159029941 0.18789607982138171 0 0.6865991819015953 0.189116534044597 0 0.25195515620380449 0.25883339815888678 0 0.28040350263641872 0.23054717217092141 0 0.29132859388405002 0.27203693976649962 0 0.61209567303293111 0.44669033081290321 0 0.65178832218679827 0.45929119821019959 0 0.61547661924074692 0.48539576058873962 0 0.6541250972820879 0.49999999999999989 0 0.61547661924074692 0.48539576058873962 0 0.65178832218679827 0.45929119821019959 0 0.19670163708476801 0.31472518408333222 0 0.24432083401701241 0.3006253385567515 0 0.22615676742807109 0.33458786033114157 0 0.15801167086041079 0.46008690540259539 0 0.13773355295499351 0.42497777642586831 0 0.191953871957803 0.42546416763755879 0 0.1650278706801647 0.38791388161335733 0 0.191953871957803 0.42546416763755879 0 0.13773355295499351 0.42497777642586831 0 0.50715858906372158 0.63295939104129484 0 0.52584555706968406 0.66664215091846768 0 0.47913475093885149 0.66010775372412711 0 0.5 0.69999999999999996 0 0.47913475093885149 0.66010775372412711 0 0.52584555706968406 0.66664215091846768 0 0.51076801031701946 0.1202837388510348 0 0.51729576145820033 0.1683240575987815 0 0.48466639505193998 0.1421439844745814 0 0.71406021706547751 0.63292083137662503 0 0.74994237037456724 0.62775548192980357 0 0.72500000000000064 0.67022701834392062 0 0.71508799138962864 0.36622814920737751 0 0.73090396928863699 0.33699297293167962 0 0.74764719760526988 0.3719647154012321 0 0.22278230690790279 0.44824268025881547 0 0.25982634974572738 0.46097799597715272 0 0.23975172658309729 0.49475499200540818 0 0.80185942888539485 0.77452061303608133 0 0.78578450296893509 0.73292684821144505 0 0.81864958914779962 0.73589050177899629 0 0.80185942888501827 0.074520613036224564 0 0.78393852574753176 0.032039079577822822 0 0.81864958914740749 0.035890501779055867 0 0.5 0.29999999999999999 0 0.46226845272279993 0.31901800744800313 0 0.4604742573284204 0.27846934318264788 0 0.6405463747586706 0.63290524857395714 0 0.62460753523532009 0.66851202781000296 0 0.5991018319127801 0.62925360607495295 0 0.79680861578988083 0.92656778056766709 0 0.770759834363826 0.95919399014344442 0 0.75729602384198635 0.92353652857884294 0 0.79680861578956375 0.22656778056752541 0 0.77075983436335049 0.25919399014334171 0 0.75668890529066124 0.2244279804069782 0 0.65394964615507722 0.22666784374016369 0 0.69397719155551807 0.2245125647000914 0 0.67933712972090698 0.25920070958121938 0 0.81973119833356312 0.43505687159469048 0 0.84925632466077294 0.45359738909549091 0 0.81400510706333218 0.47357325943904899 0 0.83758014339878906 0.63222013025741819 0 0.82457059160610424 0.66831947184359608 0 0.79884539758237771 0.62875045078114233 0 0.25676291524611189 0.7436741304886243 0 0.2248999640082178 0.72584299459689172 0 0.26439878998046262 0.7048065392091396 0 0.91696753777131557 0.497780560203536 0 0.90900154012161016 0.53607784105648792 0 0.86907294890112186 0.52008116128001669 0 0.17933913398461551 0.2350063570234002 0 0.168349569971391 0.28054490850913671 0 0.14377654328998779 0.2442024734791064 0 0.1247745017231483 0.27198077544791172 0 0.14377654328998779 0.2442024734791064 0 0.168349569971391 0.28054490850913671 0 0.34258405725730701 0.4444034294386992 0 0.35221190152536241 0.40457127605439203 0 0.38707855792647411 0.42299362914874578 0 0.47357141910802508 0.1873585799078378 0 0.51729576145820033 0.1683240575987815 0 0.50760557329222289 0.20700468884612061 0 0.19670163708476801 0.31472518408333222 0 0.22615676742807109 0.33458786033114157 0 0.18434624290945251 0.35208838264196463 0 0.22033343844674469 0.36963382230740238 0 0.18434624290945251 0.35208838264196463 0 0.22615676742807109 0.33458786033114157 0 0.24432083401701241 0.3006253385567515 0 0.25966125648670141 0.34351016742083729 0 0.22615676742807109 0.33458786033114157 0 0.93814194660195893 0.44426664081746747 0 0.90594285160987287 0.4141265964174129 0 0.95871855522754235 0.40006508612975411 0 0.91750694127107502 0.36982372220068471 0 0.95871855522754235 0.40006508612975411 0 0.90594285160987287 0.4141265964174129 0 0.91750694127105259 0.63017627779935648 0 0.91143117093204207 0.58709913730335972 0 0.95867599106212187 0.60011091146651041 0 0.93732437411268477 0.55911392101136159 0 0.95867599106212187 0.60011091146651041 0 0.91143117093204207 0.58709913730335972 0 0.50715858906372158 0.63295939104129484 0 0.5498280205245758 0.6290146943450976 0 0.52584555706968406 0.66664215091846768 0 0.94399509803918602 0.75600490196082126 0 0.97435614836745565 0.77499999999987745 0 0.95386563387742829 0.80414874155775029 0 0.94399509803922566 0.056004901960802607 0 0.97435614836748241 0.074999999999825387 0 0.95386563387744361 0.1041487415577465 0 0.94399509803921056 0.24399509803922639 0 0.95391631417672862 0.19584263333809451 0 0.97435614836740092 0.22499999999981049 0 0.94399509803919068 0.9439950980391687 0 0.95391631417670719 0.89584263333814784 0 0.97435614836744289 0.92499999999990257 0 0.79680861578988083 0.92656778056766709 0 0.75729602384198635 0.92353652857884294 0 0.76891166905518427 0.88835469571185499 0 0.79680861578956375 0.22656778056752541 0 0.75668890529066124 0.2244279804069782 0 0.76587607630038135 0.18880039518954719 0 0.65394964615507722 0.22666784374016369 0 0.6865991819015953 0.189116534044597 0 0.69397719155551807 0.2245125647000914 0 0.38083244760691543 0.38531983672244652 0 0.38707855792647411 0.42299362914874578 0 0.35221190152536241 0.40457127605439203 0 1 0.7999999999998193 0 0.95386563387742829 0.80414874155775029 0 0.97435614836745565 0.77499999999987745 0 1 0.099999999999753911 0 0.95386563387744361 0.1041487415577465 0 0.97435614836748241 0.074999999999825387 0 1 0.8999999999998336 0 0.97435614836744289 0.92499999999990257 0 0.95391631417670719 0.89584263333814784 0 1 0.19999999999974799 0 0.97435614836740092 0.22499999999981049 0 0.95391631417672862 0.19584263333809451 0 0.84723782639812573 0.48638347960178252 0 0.81400510706333218 0.47357325943904899 0 0.84925632466077294 0.45359738909549091 0 0.54999999999999993 0.29999999999999999 0 0.54248833945060504 0.2520322959927106 0 0.5794309697024993 0.27124795968204829 0 0.94999999999999996 0.29999999999999999 0 0.95780851984364423 0.34215720972155339 0 0.92012390126144183 0.33123581297173937 0 0.94999999999999996 0.69999999999999996 0 0.92057473616084773 0.66770436535372446 0 0.9578014258160763 0.65787212321113708 0 0.15801167086041079 0.46008690540259539 0 0.113541300460994 0.46208784312094731 0 0.13773355295499351 0.42497777642586831 0 0.7250000000005199 0.94981617647078953 0 0.68015064798562208 0.95924320340003011 0 0.68987011941058407 0.92105047536677087 0 0.65507451745379841 0.92229208810758578 0 0.68987011941058407 0.92105047536677087 0 0.68015064798562208 0.95924320340003011 0 0.77846603114747959 0.49850927265137401 0 0.77972660463949339 0.45529290596363098 0 0.81400510706333218 0.47357325943904899 0 0.27866744612395528 0.38416094670951489 0 0.25966125648670141 0.34351016742083729 0 0.29644548887253103 0.34914008784168082 0 0.61209567303293111 0.44669033081290321 0 0.61547661924074692 0.48539576058873962 0 0.57975577671020095 0.46172033326338591 0 0.57611405284611883 0.50165903596042916 0 0.57975577671020095 0.46172033326338591 0 0.61547661924074692 0.48539576058873962 0 0.7250000000005199 0.89375000000045834 0 0.76891166905518427 0.88835469571185499 0 0.75729602384198635 0.92353652857884294 0 0.72500000000001008 0.19776155966387679 0 0.76587607630038135 0.18880039518954719 0 0.75668890529066124 0.2244279804069782 0 0.72500000000001008 0.19776155966387679 0 0.69397719155551807 0.2245125647000914 0 0.6865991819015953 0.189116534044597 0 0.083411279318303222 0.089699755330707398 0 0.12372429750337779 0.095814237875728972 0 0.1053400320299198 0.12877248826361379 0 0.083411279318375747 0.91030024466934134 0 0.10562472963403439 0.87143394428979881 0 0.1241151115713819 0.9045666525468371 0 0.14617343800780541 0.93808063414349496 0 0.1241151115713819 0.9045666525468371 0 0.16206583317966519 0.89685560785156404 0 0.14618258501891079 0.062070108745602003 0 0.16141998738593399 0.10404039647458049 0 0.12372429750337779 0.095814237875728972 0 0.33277555741076909 0.36432196682010132 0 0.35221190152536241 0.40457127605439203 0 0.31778888742534622 0.40581751814196781 0 0.7250000000005199 0.94981617647078953 0 0.75729602384198635 0.92353652857884294 0 0.770759834363826 0.95919399014344442 0 0.72500000000000064 0.2498161764706 0 0.75668890529066124 0.2244279804069782 0 0.77075983436335049 0.25919399014334171 0 0.72500000000000064 0.2498161764706 0 0.67933712972090698 0.25920070958121938 0 0.69397719155551807 0.2245125647000914 0 0.6236733212988993 0.14864538214901801 0 0.61956000905586006 0.1043312481793135 0 0.65290632656860115 0.11434202593454081 0 0.81973119833356312 0.43505687159469048 0 0.81400510706333218 0.47357325943904899 0 0.77972660463949339 0.45529290596363098 0 0.25676291524611189 0.7436741304886243 0 0.29904318922293632 0.74132814928635593 0 0.2792923945214143 0.77665808831789485 0 0.36575549820117997 0.31677992835137742 0 0.32752639306529541 0.32610012995269699 0 0.33402499257867951 0.28911035184473982 0 0.14332333627550789 0.14578431753966009 0 0.18652628422869419 0.14162325200928061 0 0.18124454140915969 0.18790916706335251 0 0.57724883562309992 0.92155686857100794 0 0.5832743223239254 0.88483152652961872 0 0.61885627562261258 0.90282959257498208 0 0.57667858002728545 0.078486105337742612 0 0.61956000905586006 0.1043312481793135 0 0.58516465772821369 0.11653801664834119 0 0.80185942888539485 0.77452061303608133 0 0.80041942726660109 0.81543261647703358 0 0.77094201086366854 0.79647480515688507 0 0.80185942888501827 0.074520613036224564 0 0.80076557130237269 0.1154587552654202 0 0.76878382444651716 0.097147941686331368 0 0.64753070846764316 0.77332939069435502 0 0.68024162096458085 0.79868546898116533 0 0.65005442820240822 0.82644988530054031 0 0.26429849586623999 0.19346700179430079 0 0.25557216766470708 0.15874861286892261 0 0.29336099386129338 0.15892013001050981 0 0.29348325746214782 0.31350119524708198 0 0.29644548887253103 0.34914008784168082 0 0.25966125648670141 0.34351016742083729 0 0.68391457121233579 0.14440470121196541 0 0.65290632656860115 0.11434202593454081 0 0.68330259535470161 0.10038702501083881 0 0.91750694127107502 0.36982372220068471 0 0.92012390126144183 0.33123581297173937 0 0.95780851984364423 0.34215720972155339 0 0.91750694127105259 0.63017627779935648 0 0.9578014258160763 0.65787212321113708 0 0.92057473616084773 0.66770436535372446 0 0.22033343844674469 0.36963382230740238 0 0.22615676742807109 0.33458786033114157 0 0.25966125648670141 0.34351016742083729 0 1 0.94999999999997109 0 0.97166519676946206 0.96662885509935492 0 0.97435614836744289 0.92499999999990257 0 0.94399509803919068 0.9439950980391687 0 0.97435614836744289 0.92499999999990257 0 0.97166519676946206 0.96662885509935492 0 0.94399509803921056 0.24399509803922639 0 0.97435614836740092 0.22499999999981049 0 0.97166519676951801 0.26662885509932011 0 1 0.24999999999987299 0 0.97166519676951801 0.26662885509932011 0 0.97435614836740092 0.22499999999981049 0 1 0.74999999999993494 0 0.97435614836745565 0.77499999999987745 0 0.97166519676947294 0.73337114490064459 0 1 0.049999999999896842 0 0.97435614836748241 0.074999999999825387 0 0.97166519676946894 0.033371144900598393 0 0.94399509803918602 0.75600490196082126 0 0.97166519676947294 0.73337114490064459 0 0.97435614836745565 0.77499999999987745 0 0.94399509803922566 0.056004901960802607 0 0.97166519676946894 0.033371144900598393 0 0.97435614836748241 0.074999999999825387 0 0.77846603114747959 0.49850927265137401 0 0.81400510706333218 0.47357325943904899 0 0.81441713509985358 0.51161854125224959 0 0.77354604466818633 0.40378688774472771 0 0.72622533758026719 0.40265885511101601 0 0.74764719760526988 0.3719647154012321 0 0.71508799138962864 0.36622814920737751 0 0.74764719760526988 0.3719647154012321 0 0.72622533758026719 0.40265885511101601 0 0.84723782639812573 0.48638347960178252 0 0.84925632466077294 0.45359738909549091 0 0.88594198078881503 0.46167788676578442 0 0.86411095495256451 0.42388805655111889 0 0.88594198078881503 0.46167788676578442 0 0.84925632466077294 0.45359738909549091 0 0.43846182030517877 0.64845797726506715 0 0.43545892161006339 0.61093128915313821 0 0.47095389620662098 0.61892551373708504 0 0.33123028043633618 0.77629643437932982 0 0.35642984951668422 0.80994399665655703 0 0.30857225866488791 0.81101973481716805 0 0.33403534827021109 0.84402799729020661 0 0.30857225866488791 0.81101973481716805 0 0.35642984951668422 0.80994399665655703 0 0.26429849586623999 0.19346700179430079 0 0.31255190597181792 0.19850845631528771 0 0.28040350263641872 0.23054717217092141 0 0.57724883562309992 0.92155686857100794 0 0.54783390826260769 0.89287767010860219 0 0.5832743223239254 0.88483152652961872 0 0.55899371797446828 0.85003102233514438 0 0.5832743223239254 0.88483152652961872 0 0.54783390826260769 0.89287767010860219 0 0.4089290844030305 0.58728915500154233 0 0.43545892161006339 0.61093128915313821 0 0.39743091024207589 0.6239520004230239 0 0.77293540622714185 0.59448302402785813 0 0.81723410853263523 0.59419663659258926 0 0.79884539758237771 0.62875045078114233 0 0.83758014339878906 0.63222013025741819 0 0.79884539758237771 0.62875045078114233 0 0.81723410853263523 0.59419663659258926 0 0.35864735590330371 0.63903383440414463 0 0.39743091024207589 0.6239520004230239 0 0.3977710372045391 0.65868194622830212 0 0.56202748619534593 0.15054058349222879 0 0.54979595918804436 0.1060565713905809 0 0.58516465772821369 0.11653801664834119 0 0.57667858002728545 0.078486105337742612 0 0.58516465772821369 0.11653801664834119 0 0.54979595918804436 0.1060565713905809 0 0.33122374654748771 0.57588941099433744 0 0.37272913873093971 0.56192925302619479 0 0.35765792684946668 0.6000687869219653 0 0.35864735590330371 0.63903383440414463 0 0.35765792684946668 0.6000687869219653 0 0.39743091024207589 0.6239520004230239 0 0.71508799138962864 0.36622814920737751 0 0.68887083591306764 0.33632058575757479 0 0.73090396928863699 0.33699297293167962 0 0.29348325746214782 0.31350119524708198 0 0.32752639306529541 0.32610012995269699 0 0.29644548887253103 0.34914008784168082 0 0.33277555741076909 0.36432196682010132 0 0.29644548887253103 0.34914008784168082 0 0.32752639306529541 0.32610012995269699 0 0.34258405725730701 0.4444034294386992 0 0.31778888742534622 0.40581751814196781 0 0.35221190152536241 0.40457127605439203 0 0.79999999999999982 0.69999999999999996 0 0.81864958914779962 0.73589050177899629 0 0.78578450296893509 0.73292684821144505 0 0.79999999999947335 0 0 0.81864958914740749 0.035890501779055867 0 0.78393852574753176 0.032039079577822822 0 0.27474541102162192 0.11822029332053539 0 0.29336099386129338 0.15892013001050981 0 0.25557216766470708 0.15874861286892261 0 0 0.45000000000187229 0 0.035463093262830522 0.42673416072819947 0 0.033550201249889847 0.46247875832467239 0 0.6499999999999998 0.69999999999999996 0 0.66427993341343905 0.73232764502436276 0 0.63221990677827677 0.73442891067859706 0 0.84723782639812573 0.48638347960178252 0 0.81441713509985358 0.51161854125224959 0 0.81400510706333218 0.47357325943904899 0 0.26104540868854792 0.81401944968719064 0 0.30857225866488791 0.81101973481716805 0 0.29209212897034281 0.84715728365233667 0 0.33403534827021109 0.84402799729020661 0 0.29209212897034281 0.84715728365233667 0 0.30857225866488791 0.81101973481716805 0 0.69999999999999984 0.29999999999999999 0 0.73090396928863699 0.33699297293167962 0 0.68887083591306764 0.33632058575757479 0 
</DataArray>
</Points>
<Cells>
<DataArray type="UInt32" Name="connectivity" format="ascii">
0 1 2 3 4 5 6 7 8 9 10 11 12 13 14 15 16 17 18 19 20 21 22 23 24 25 26 27 28 29 30 31 32 33 34 35 36 37 38 39 40 41 42 43 44 45 46 47 48 49 50 51 52 53 54 55 56 57 58 59 60 61 62 63 64 65 66 67 68 69 70 71 72 73 74 75 76 77 78 79 80 81 82 83 84 85 86 87 88 89 90 91 92 93 94 95 96 97 98 99 100 101 102 103 104 105 106 107 108 109 110 111 112 113 114 115 116 117 118 119 120 121 122 123 124 125 126 127 128 129 130 131 132 133 134 135 136 137 138 139 140 141 142 143 144 145 146 147 148 149 150 151 152 153 154 155 156 157 158 159 160 161 162 163 164 165 166 167 168 169 170 171 172 173 174 175 176 177 178 179 180 181 182 183 184 185 186 187 188 189 190 191 192 193 194 195 196 197 198 199 200 201 202 203 204 205 206 207 208 209 210 211 212 213 214 215 216 217 218 219 220 221 222 223 224 225 226 227 228 229 230 231 232 233 234 235 236 237 238 239 240 241 242 243 244 245 246 247 248 249 250 251 252 253 254 255 256 257 258 259 260 261 262 263 264 265 266 267 268 269 270 271 272 273 274 275 276 277 278 279 280 281 282 283 284 285 286 287 288 289 290 291 292 293 294 295 296 297 298 299 300 301 302 303 304 305 306 307 308 309 310 311 312 313 314 315 316 317 318 319 320 321 322 323 324 325 326 327 328 329 330 331 332 333 334 335 336 337 338 339 340 341 342 343 344 345 346 347 348 349 350 351 352 353 354 355 356 357 358 359 360 361 362 363 364 365 366 367 368 369 370 371 372 373 374 375 376 377 378 379 380 381 382 383 384 385 386 387 388 389 390 391 392 393 394 395 396 397 398 399 400 401 402 403 404 405 406 407 408 409 410 411 412 413 414 415 416 417 418 419 420 421 422 423 424 425 426 427 428 429 430 431 432 433 434 435 436 437 438 439 440 441 442 443 444 445 446 447 448 449 450 451 452 453 454 455 456 457 458 459 460 461 462 463 464 465 466 467 468 469 470 471 472 473 474 475 476 477 478 479 480 481 482 483 484 485 486 487 488 489 490 491 492 493 494 495 496 497 498 499 500 501 502 503 504 505 506 507 508 509 510 511 512 513 514 515 516 517 518 519 520 521 522 523 524 525 526 527 528 529 530 531 532 533 534 535 536 537 538 539 540 541 542 543 544 545 546 547 548 549 550 551 552 553 554 555 556 557 558 559 560 561 562 563 564 565 566 567 568 569 570 571 572 573 574 575 576 577 578 579 580 581 582 583 584 585 586 587 588 589 590 591 592 593 594 595 596 597 598 599 600 601 602 603 604 605 606 607 608 609 610 611 612 613 614 615 616 617 618 619 620 621 622 623 624 625 626 627 628 629 630 631 632 633 634 635 636 637 638 639 640 641 642 643 644 645 646 647 648 649 650 651 652 653 654 655 656 657 658 659 660 661 662 663 664 665 666 667 668 669 670 671 672 673 674 675 676 677 678 679 680 681 682 683 684 685 686 687 688 689 690 691 692 693 694 695 696 697 698 699 700 701 702 703 704 705 706 707 708 709 710 711 712 713 714 715 716 717 718 719 720 721 722 723 724 725 726 727 728 729 730 731 732 733 734 735 736 737 738 739 740 741 742 743 744 745 746 747 748 749 750 751 752 753 754 755 756 757 758 759 760 761 762 763 764 765 766 767 768 769 770 771 772 773 774 775 776 777 778 779 780 781 782 783 784 785 786 787 788 789 790 791 792 793 794 795 796 797 798 799 800 801 802 803 804 805 806 807 808 809 810 811 812 813 814 815 816 817 818 819 820 821 822 823 824 825 826 827 828 829 830 831 832 833 834 835 836 837 838 839 840 841 842 843 844 845 846 847 848 849 850 851 852 853 854 855 856 857 858 859 860 861 862 863 864 865 866 867 868 869 870 871 872 873 874 875 876 877 878 879 880 881 882 883 884 885 886 887 888 889 890 891 892 893 894 895 896 897 898 899 900 901 902 903 904 905 906 907 908 909 910 911 912 913 914 915 916 917 918 919 920 921 922 923 924 925 926 927 928 929 930 931 932 933 934 935 936 937 938 939 940 941 942 943 944 945 946 947 948 949 950 951 952 953 954 955 956 957 958 959 960 961 962 963 964 965 966 967 968 969 970 971 972 973 974 975 976 977 978 979 980 981 982 983 984 985 986 987 988 989 990 991 992 993 994 995 996 997 998 999 1000 1001 1002 1003 1004 1005 1006 1007 1008 1009 1010 1011 1012 1013 1014 1015 1016 1017 1018 1019 1020 1021 1022 1023 1024 1025 1026 1027 1028 1029 1030 1031 1032 1033 1034 1035 1036 1037 1038 1039 1040 1041 1042 1043 1044 1045 1046 1047 1048 1049 1050 1051 1052 1053 1054 1055 1056 1057 1058 1059 1060 1061 1062 1063 1064 1065 1066 1067 1068 1069 1070 1071 1072 1073 1074 1075 1076 1077 1078 1079 1080 1081 1082 1083 1084 1085 1086 1087 1088 1089 1090 1091 1092 1093 1094 1095 1096 1097 1098 1099 1100 1101 1102 1103 1104 1105 1106 1107 1108 1109 1110 1111 1112 1113 1114 1115 1116 1117 1118 1119 1120 1121 1122 1123 1124 1125 1126 1127 1128 1129 1130 1131 1132 1133 1134 1135 1136 1137 1138 1139 1140 1141 1142 1143 1144 1145 1146 1147 1148 1149 1150 1151 1152 1153 1154 1155 1156 1157 1158 1159 1160 1161 1162 1163 1164 1165 1166 1167 1168 1169 1170 1171 1172 1173 1174 1175 1176 1177 1178 1179 1180 1181 1182 1183 1184 1185 1186 1187 1188 1189 1190 1191 1192 1193 1194 1195 1196 1197 1198 1199 1200 1201 1202 1203 1204 1205 1206 1207 1208 1209 1210 1211 1212 1213 1214 1215 1216 1217 1218 1219 1220 1221 1222 1223 1224 1225 1226 1227 1228 1229 1230 1231 1232 1233 1234 1235 1236 1237 1238 1239 1240 1241 1242 1243 1244 1245 1246 1247 1248 1249 1250 1251 1252 1253 1254 1255 1256 1257 1258 1259 1260 1261 1262 1263 1264 1265 1266 1267 1268 1269 1270 1271 1272 1273 1274 1275 1276 1277 1278 1279 1280 1281 1282 1283 1284 1285 1286 1287 1288 1289 1290 1291 1292 1293 1294 1295 1296 1297 1298 1299 1300 1301 1302 1303 1304 1305 1306 1307 1308 1309 1310 1311 1312 1313 1314 1315 1316 1317 1318 1319 1320 1321 1322 1323 1324 1325 1326 1327 1328 1329 1330 1331 1332 1333 1334 1335 1336 1337 1338 1339 1340 1341 1342 1343 1344 1345 1346 1347 1348 1349 1350 1351 1352 1353 1354 1355 1356 1357 1358 1359 1360 1361 1362 1363 1364 1365 1366 1367 1368 1369 1370 1371 1372 1373 1374 1375 1376 1377 1378 1379 1380 1381 1382 1383 1384 1385 1386 1387 1388 1389 1390 1391 1392 1393 1394 1395 1396 1397 1398 1399 1400 1401 1402 1403 1404 1405 1406 1407 1408 1409 1410 1411 1412 1413 1414 1415 1416 1417 1418 1419 1420 1421 1422 1423 1424 1425 1426 1427 1428 1429 1430 1431 1432 1433 1434 1435 1436 1437 1438 1439 1440 1441 1442 1443 1444 1445 1446 1447 1448 1449 1450 1451 1452 1453 1454 1455 1456 1457 1458 1459 1460 1461 1462 1463 1464 1465 1466 1467 1468 1469 1470 1471 1472 1473 1474 1475 1476 1477 1478 1479 1480 1481 1482 1483 1484 1485 1486 1487 1488 1489 1490 1491 1492 1493 1494 1495 1496 1497 1498 1499 1500 1501 1502 1503 1504 1505 1506 1507 1508 1509 1510 1511 1512 1513 1514 1515 1516 1517 1518 1519 1520 1521 1522 1523 1524 1525 1526 1527 1528 1529 1530 1531 1532 1533 1534 1535 1536 1537 1538 1539 1540 1541 1542 1543 1544 1545 1546 1547 1548 1549 1550 1551 1552 1553 1554 1555 1556 1557 1558 1559 1560 1561 1562 1563 1564 1565 1566 1567 1568 1569 1570 1571 1572 1573 1574 1575 1576 1577 1578 1579 1580 1581 1582 1583 1584 1585 1586 1587 1588 1589 1590 1591 1592 1593 1594 1595 1596 1597 1598 1599 1600 1601 1602 1603 1604 1605 1606 1607 1608 1609 1610 1611 1612 1613 1614 1615 1616 1617 1618 1619 1620 1621 1622 1623 1624 1625 1626 1627 1628 1629 1630 1631 1632 1633 1634 1635 1636 1637 1638 1639 1640 1641 1642 1643 1644 1645 1646 1647 1648 1649 1650 1651 1652 1653 1654 1655 1656 1657 1658 1659 1660 1661 1662 1663 1664 1665 1666 1667 1668 1669 1670 1671 1672 1673 1674 1675 1676 1677 1678 1679 1680 1681 1682 1683 1684 1685 1686 1687 1688 1689 1690 1691 1692 1693 1694 1695 1696 1697 1698 1699 1700 1701 1702 1703 1704 1705 1706 1707 1708 1709 1710 1711 1712 1713 1714 1715 1716 1717 1718 1719 1720 1721 1722 1723 1724 1725 1726 1727 1728 1729 1730 1731 1732 1733 1734 1735 1736 1737 1738 1739 1740 1741 1742 1743 1744 1745 1746 1747 1748 1749 1750 1751 1752 1753 1754 1755 1756 1757 1758 1759 1760 1761 1762 1763 1764 1765 1766 1767 1768 1769 1770 1771 1772 1773 1774 1775 1776 1777 1778 1779 1780 1781 1782 1783 1784 1785 1786 1787 1788 1789 1790 1791 1792 1793 1794 1795 1796 1797 1798 1799 1800 1801 1802 1803 1804 1805 1806 1807 1808 1809 1810 1811 1812 1813 1814 1815 1816 1817 1818 1819 1820 1821 1822 1823 1824 1825 1826 1827 1828 1829 1830 1831 1832 1833 1834 1835 1836 1837 1838 1839 1840 1841 1842 1843 1844 1845 1846 1847 1848 1849 1850 1851 1852 1853 1854 1855 1856 1857 1858 1859 1860 1861 1862 1863 1864 1865 1866 1867 1868 1869 1870 1871 1872 1873 1874 1875 1876 1877 1878 1879 1880 1881 1882 1883 1884 1885 1886 1887 1888 1889 1890 1891 1892 1893 1894 1895 1896 1897 1898 1899 1900 1901 1902 1903 1904 1905 1906 1907 1908 1909 1910 1911 1912 1913 1914 1915 1916 1917 1918 1919 1920 1921 1922 1923 1924 1925 1926 1927 1928 1929 1930 1931 1932 1933 1934 1935 1936 1937 1938 1939 1940 1941 1942 1943 1944 1945 1946 1947 1948 1949 1950 1951 1952 1953 1954 1955 1956 1957 1958 1959 1960 1961 1962 1963 1964 1965 1966 1967 1968 1969 1970 1971 1972 1973 1974 1975 1976 1977 1978 1979 1980 1981 1982 1983 1984 1985 1986 1987 1988 1989 1990 1991 1992 1993 1994 1995 1996 1997 1998 1999 2000 2001 2002 2003 2004 2005 2006 2007 2008 2009 2010 2011 2012 2013 2014 2015 2016 2017 2018 2019 2020 2021 2022 2023 2024 2025 2026 2027 2028 2029 2030 2031 2032 2033 2034 2035 2036 2037 2038 2039 2040 2041 2042 2043 2044 2045 2046 2047 2048 2049 2050 2051 2052 2053 2054 2055 2056 2057 2058 2059 2060 2061 2062 2063 2064 2065 2066 2067 2068 2069 2070 2071 2072 2073 2074 2075 2076 2077 2078 2079 2080 2081 2082 2083 2084 2085 2086 2087 2088 2089 2090 2091 2092 2093 2094 2095 2096 2097 2098 2099 2100 2101 2102 2103 2104 2105 2106 2107 2108 2109 2110 2111 2112 2113 2114 2115 2116 2117 2118 2119 2120 2121 2122 2123 2124 2125 2126 2127 2128 2129 2130 2131 2132 2133 2134 2135 2136 2137 2138 2139 2140 2141 2142 2143 2144 2145 2146 2147 2148 2149 2150 2151 2152 2153 2154 2155 2156 2157 2158 2159 2160 2161 2162 2163 2164 2165 2166 2167 2168 2169 2170 2171 2172 2173 2174 2175 2176 2177 2178 2179 2180 2181 2182 2183 2184 2185 2186 2187 2188 2189 2190 2191 2192 2193 2194 2195 2196 2197 2198 2199 2200 2201 2202 2203 2204 2205 2206 2207 2208 2209 2210 2211 2212 2213 2214 2215 2216 2217 2218 2219 2220 2221 2222 2223 2224 2225 2226 2227 2228 2229 2230 2231 2232 2233 2234 2235 2236 2237 2238 2239 2240 2241 2242 2243 2244 2245 2246 2247 2248 2249 2250 2251 2252 2253 2254 2255 2256 2257 2258 2259 2260 2261 2262 2263 2264 2265 2266 2267 2268 2269 2270 2271 2272 2273 2274 2275 2276 2277 2278 2279 2280 2281 2282 2283 2284 2285 2286 2287 2288 2289 2290 2291 2292 2293 2294 2295 2296 2297 2298 2299 2300 2301 2302 2303 2304 2305 2306 2307 2308 2309 2310 2311 2312 2313 2314 2315 2316 2317 2318 2319 2320 2321 2322 2323 2324 2325 2326 2327 2328 2329 2330 2331 2332 2333 2334 2335 2336 2337 2338 2339 2340 2341 2342 2343 2344 2345 2346 2347 2348 2349 2350 2351 2352 2353 2354 2355 2356 2357 2358 2359 2360 2361 2362 2363 2364 2365 2366 2367 2368 2369 2370 2371 2372 2373 2374 2375 2376 2377 2378 2379 2380 2381 2382 2383 2384 2385 2386 2387 2388 2389 2390 2391 2392 2393 2394 2395 2396 2397 2398 2399 2400 2401 2402 2403 2404 2405 2406 2407 2408 2409 2410 2411 2412 2413 2414 2415 2416 2417 2418 2419 2420 2421 2422 2423 2424 2425 2426 2427 2428 2429 2430 2431 2432 2433 2434 2435 2436 2437 2438 2439 2440 2441 2442 2443 2444 2445 2446 2447 2448 2449 2450 2451 2452 2453 2454 2455 2456 2457 2458 2459 2460 2461 2462 2463 2464 2465 2466 2467 2468 2469 2470 2471 2472 2473 2474 2475 2476 2477 2478 2479 2480 2481 2482 2483 2484 2485 2486 2487 2488 2489 2490 2491 2492 2493 2494 2495 2496 2497 2498 2499 2500 2501 2502 2503 2504 2505 2506 2507 2508 2509 2510 2511 2512 2513 2514 2515 2516 2517 2518 2519 2520 2521 2522 2523 2524 2525 2526 2527 2528 2529 2530 2531 2532 2533 2534 2535 2536 2537 2538 2539 2540 2541 2542 2543 2544 2545 2546 2547 2548 2549 2550 2551 2552 2553 2554 2555 2556 2557 2558 2559 2560 2561 2562 2563 2564 2565 2566 2567 2568 2569 2570 2571 2572 2573 2574 2575 2576 2577 2578 2579 2580 2581 2582 2583 2584 2585 2586 2587 2588 2589 2590 2591 2592 2593 2594 2595 2596 2597 2598 2599 2600 2601 2602 2603 2604 2605 2606 2607 2608 2609 2610 2611 2612 2613 2614 2615 2616 2617 2618 2619 2620 2621 2622 2623 2624 2625 2626 2627 2628 2629 2630 2631 2632 2633 2634 2635 2636 2637 2638 2639 2640 2641 2642 2643 2644 2645 2646 2647 2648 2649 2650 2651 2652 2653 2654 2655 2656 2657 2658 2659 2660 2661 2662 2663 2664 2665 2666 2667 2668 2669 2670 2671 2672 2673 2674 2675 2676 2677 2678 2679 2680 2681 2682 2683 2684 2685 2686 2687 2688 2689 2690 2691 2692 2693 2694 2695 2696 2697 2698 2699 2700 2701 2702 2703 2704 2705 2706 2707 2708 2709 2710 2711 2712 2713 2714 2715 2716 2717 2718 2719 2720 2721 2722 2723 2724 2725 2726 2727 2728 2729 2730 2731 2732 2733 2734 2735 2736 2737 2738 2739 2740 2741 2742 2743 2744 2745 2746 2747 2748 2749 2750 2751 2752 2753 2754 2755 2756 2757 2758 2759 2760 2761 2762 2763 2764 2765 2766 2767 2768 2769 2770 2771 2772 2773 2774 2775 2776 2777 2778 2779 2780 2781 2782 2783 2784 2785 2786 2787 2788 2789 2790 2791 2792 2793 2794 2795 2796 2797 2798 2799 2800 2801 2802 2803 2804 2805 2806 2807 2808 2809 2810 2811 2812 2813 2814 2815 2816 2817 2818 2819 2820 2821 2822 2823 2824 2825 2826 2827 2828 2829 2830 2831 2832 2833 2834 2835 2836 2837 2838 2839 2840 2841 2842 2843 2844 2845 2846 2847 2848 2849 2850 2851 2852 2853 2854 2855 2856 2857 2858 2859 2860 2861 2862 2863 2864 2865 2866 2867 2868 2869 2870 2871 2872 2873 2874 2875 2876 2877 2878 2879 2880 2881 2882 2883 2884 2885 2886 2887 2888 2889 2890 2891 2892 2893 2894 2895 2896 2897 2898 2899 2900 2901 2902 2903 2904 2905 2906 2907 2908 2909 2910 2911 2912 2913 2914 2915 2916 2917 2918 2919 2920 2921 2922 2923 2924 2925 2926 2927 2928 2929 2930 2931 2932 2933 2934 2935 2936 2937 2938 2939 2940 2941 2942 2943 2944 2945 2946 2947 2948 2949 2950 2951 2952 2953 2954 2955 2956 2957 2958 2959 2960 2961 2962 2963 2964 2965 2966 2967 2968 2969 2970 2971 2972 2973 2974 2975 2976 2977 2978 2979 2980 2981 2982 2983 2984 2985 2986 2987 2988 2989 2990 2991 2992 2993 2994 2995 2996 2997 2998 2999 3000 3001 3002 3003 3004 3005 3006 3007 3008 3009 3010 3011 3012 3013 3014 3015 3016 3017 3018 3019 3020 3021 3022 3023 3024 3025 3026 3027 3028 3029 3030 3031 3032 3033 3034 3035 3036 3037 3038 3039 3040 3041 3042 3043 3044 3045 3046 3047 3048 3049 3050 3051 3052 3053 3054 3055 3056 3057 3058 3059 3060 3061 3062 3063 3064 3065 3066 3067 3068 3069 3070 3071 3072 3073 3074 3075 3076 3077 3078 3079 3080 3081 3082 3083 3084 3085 3086 3087 3088 3089 3090 3091 3092 3093 3094 3095 3096 3097 3098 3099 3100 3101 3102 3103 3104 3105 3106 3107 3108 3109 3110 3111 3112 3113 3114 3115 3116 3117 3118 3119 3120 3121 3122 3123 3124 3125 3126 3127 3128 3129 3130 3131 3132 3133 3134 3135 3136 3137 3138 3139 3140 3141 
</DataArray>
<DataArray type="UInt32" Name="offsets" format="ascii">
2 4 6 8 10 12 14 16 18 20 22 24 26 28 30 32 34 36 38 40 43 46 49 52 55 58 61 64 67 70 73 76 79 82 85 88 91 94 97 100 103 106 109 112 115 118 121 124 127 130 133 136 139 142 145 148 151 154 157 160 163 166 169 172 175 178 181 184 187 190 193 196 199 202 205 208 211 214 217 220 223 226 229 232 235 238 241 244 247 250 253 256 259 262 265 268 271 274 277 280 283 286 289 292 295 298 301 304 307 310 313 316 319 322 325 328 331 334 337 340 343 346 349 352 355 358 361 364 367 370 373 376 379 382 385 388 391 394 397 400 403 406 409 412 415 418 421 424 427 430 433 436 439 442 445 448 451 454 457 460 463 466 469 472 475 478 481 484 487 490 493 496 499 502 505 508 511 514 517 520 523 526 529 532 535 538 541 544 547 550 553 556 559 562 565 568 571 574 577 580 583 586 589 592 595 598 601 604 607 610 613 616 619 622 625 628 631 634 637 640 643 646 649 652 655 658 661 664 667 670 673 676 679 682 685 688 691 694 697 700 703 706 709 712 715 718 721 724 727 730 733 736 739 742 745 748 751 754 757 760 763 766 769 772 775 778 781 784 787 790 793 796 799 802 805 808 811 814 817 820 823 826 829 832 835 838 841 844 847 850 853 856 859 862 865 868 871 874 877 880 883 886 889 892 895 898 901 904 907 910 913 916 919 922 925 928 931 934 937 940 943 946 949 952 955 958 961 964 967 970 973 976 979 982 985 988 991 994 997 1000 1003 1006 1009 1012 1015 1018 1021 1024 1027 1030 1033 1036 1039 1042 1045 1048 1051 1054 1057 1060 1063 1066 1069 1072 1075 1078 1081 1084 1087 1090 1093 1096 1099 1102 1105 1108 1111 1114 1117 1120 1123 1126 1129 1132 1135 1138 1141 1144 1147 1150 1153 1156 1159 1162 1165 1168 1171 1174 1177 1180 1183 1186 1189 1192 1195 1198 1201 1204 1207 1210 1213 1216 1219 1222 1225 1228 1231 1234 1237 1240 1243 1246 1249 1252 1255 1258 1261 1264 1267 1270 1273 1276 1279 1282 1285 1288 1291 1294 1297 1300 1303 1306 1309 1312 1315 1318 1321 1324 1327 1330 1333 1336 1339 1342 1345 1348 1351 1354 1357 1360 1363 1366 1369 1372 1375 1378 1381 1384 1387 1390 1393 1396 1399 1402 1405 1408 1411 1414 1417 1420 1423 1426 1429 1432 1435 1438 1441 1444 1447 1450 1453 1456 1459 1462 1465 1468 1471 1474 1477 1480 1483 1486 1489 1492 1495 1498 1501 1504 1507 1510 1513 1516 1519 1522 1525 1528 1531 1534 1537 1540 1543 1546 1549 1552 1555 1558 1561 1564 1567 1570 1573 1576 1579 1582 1585 1588 1591 1594 1597 1600 1603 1606 1609 1612 1615 1618 1621 1624 1627 1630 1633 1636 1639 1642 1645 1648 1651 1654 1657 1660 1663 1666 1669 1672 1675 1678 1681 1684 1687 1690 1693 1696 1699 1702 1705 1708 1711 1714 1717 1720 1723 1726 1729 1732 1735 1738 1741 1744 1747 1750 1753 1756 1759 1762 1765 1768 1771 1774 1777 1780 1783 1786 1789 1792 1795 1798 1801 1804 1807 1810 1813 1816 1819 1822 1825 1828 1831 1834 1837 1840 1843 1846 1849 1852 1855 1858 1861 1864 1867 1870 1873 1876 1879 1882 1885 1888 1891 1894 1897 1900 1903 1906 1909 1912 1915 1918 1921 1924 1927 1930 1933 1936 1939 1942 1945 1948 1951 1954 1957 1960 1963 1966 1969 1972 1975 1978 1981 1984 1987 1990 1993 1996 1999 2002 2005 2008 2011 2014 2017 2020 2023 2026 2029 2032 2035 2038 2041 2044 2047 2050 2053 2056 2059 2062 2065 2068 2071 2074 2077 2080 2083 2086 2089 2092 2095 2098 2101 2104 2107 2110 2113 2116 2119 2122 2125 2128 2131 2134 2137 2140 2143 2146 2149 2152 2155 2158 2161 2164 2167 2170 2173 2176 2179 2182 2185 2188 2191 2194 2197 2200 2203 2206 2209 2212 2215 2218 2221 2224 2227 2230 2233 2236 2239 2242 2245 2248 2251 2254 2257 2260 2263 2266 2269 2272 2275 2278 2281 2284 2287 2290 2293 2296 2299 2302 2305 2308 2311 2314 2317 2320 2323 2326 2329 2332 2335 2338 2341 2344 2347 2350 2353 2356 2359 2362 2365 2368 2371 2374 2377 2380 2383 2386 2389 2392 2395 2398 2401 2404 2407 2410 2413 2416 2419 2422 2425 2428 2431 2434 2437 2440 2443 2446 2449 2452 2455 2458 2461 2464 2467 2470 2473 2476 2479 2482 2485 2488 2491 2494 2497 2500 2503 2506 2509 2512 2515 2518 2521 2524 2527 2530 2533 2536 2539 2542 2545 2548 2551 2554 2557 2560 2563 2566 2569 2572 2575 2578 2581 2584 2587 2590 2593 2596 2599 2602 2605 2608 2611 2614 2617 2620 2623 2626 2629 2632 2635 2638 2641 2644 2647 2650 2653 2656 2659 2662 2665 2668 2671 2674 2677 2680 2683 2686 2689 2692 2695 2698 2701 2704 2707 2710 2713 2716 2719 2722 2725 2728 2731 2734 2737 2740 2743 2746 2749 2752 2755 2758 2761 2764 2767 2770 2773 2776 2779 2782 2785 2788 2791 2794 2797 2800 2803 2806 2809 2812 2815 2818 2821 2824 2827 2830 2833 2836 2839 2842 2845 2848 2851 2854 2857 2860 2863 2866 2869 2872 2875 2878 2881 2884 2887 2890 2893 2896 2899 2902 2905 2908 2911 2914 2917 2920 2923 2926 2929 2932 2935 2938 2941 2944 2947 2950 2953 2956 2959 2962 2965 2968 2971 2974 2977 2980 2983 2986 2989 2992 2995 2998 3001 3004 3007 3010 3013 3016 3019 3022 3025 3028 3031 3034 3037 3040 3043 3046 3049 3052 3055 3058 3061 3064 3067 3070 3073 3076 3079 3082 3085 3088 3091 3094 3097 3100 3103 3106 3109 3112 3115 3118 3121 3124 3127 3130 3133 3136 3139 3142 
</DataArray>
<DataArray type="UInt32" Name="types" format="ascii">
3 3 3 3 3 3 3 3 3 3 3 3 3 3 3 3 3 3 3 3 5 5 5 5 5 5 5 5 5 5 5 5 5 5 5 5 5 5 5 5 5 5 5 5 5 5 5 5 5 5 5 5 5 5 5 5 5 5 5 5 5 5 5 5 5 5 5 5 5 5 5 5 5 5 5 5 5 5 5 5 5 5 5 5 5 5 5 5 5 5 5 5 5 5 5 5 5 5 5 5 5 5 5 5 5 5 5 5 5 5 5 5 5 5 5 5 5 5 5 5 5 5 5 5 5 5 5 5 5 5 5 5 5 5 5 5 5 5 5 5 5 5 5 5 5 5 5 5 5 5 5 5 5 5 5 5 5 5 5 5 5 5 5 5 5 5 5 5 5 5 5 5 5 5 5 5 5 5 5 5 5 5 5 5 5 5 5 5 5 5 5 5 5 5 5 5 5 5 5 5 5 5 5 5 5 5 5 5 5 5 5 5 5 5 5 5 5 5 5 5 5 5 5 5 5 5 5 5 5 5 5 5 5 5 5 5 5 5 5 5 5 5 5 5 5 5 5 5 5 5 5 5 5 5 5 5 5 5 5 5 5 5 5 5 5 5 5 5 5 5 5 5 5 5 5 5 5 5 5 5 5 5 5 5 5 5 5 5 5 5 5 5 5 5 5 5 5 5 5 5 5 5 5 5 5 5 5 5 5 5 5 5 5 5 5 5 5 5 5 5 5 5 5 5 5 5 5 5 5 5 5 5 5 5 5 5 5 5 5 5 5 5 5 5 5 5 5 5 5 5 5 5 5 5 5 5 5 5 5 5 5 5 5 5 5 5 5 5 5 5 5 5 5 5 5 5 5 5 5 5 5 5 5 5 5 5 5 5 5 5 5 5 5 5 5 5 5 5 5 5 5 5 5 5 5 5 5 5 5 5 5 5 5 5 5 5 5 5 5 5 5 5 5 5 5 5 5 5 5 5 5 5 5 5 5 5 5 5 5 5 5 5 5 5 5 5 5 5 5 5 5 5 5 5 5 5 5 5 5 5 5 5 5 5 5 5 5 5 5 5 5 5 5 5 5 5 5 5 5 5 5 5 5 5 5 5 5 5 5 5 5 5 5 5 5 5 5 5 5 5 5 5 5 5 5 5 5 5 5 5 5 5 5 5 5 5 5 5 5 5 5 5 5 5 5 5 5 5 5 5 5 5 5 5 5 5 5 5 5 5 5 5 5 5 5 5 5 5 5 5 5 5 5 5 5 5 5 5 5 5 5 5 5 5 5 5 5 5 5 5 5 5 5 5 5 5 5 5 5 5 5 5 5 5 5 5 5 5 5 5 5 5 5 5 5 5 5 5 5 5 5 5 5 5 5 5 5 5 5 5 5 5 5 5 5 5 5 5 5 5 5 5 5 5 5 5 5 5 5 5 5 5 5 5 5 5 5 5 5 5 5 5 5 5 5 5 5 5 5 5 5 5 5 5 5 5 5 5 5 5 5 5 5 5 5 5 5 5 5 5 5 5 5 5 5 5 5 5 5 5 5 5 5 5 5 5 5 5 5 5 5 5 5 5 5 5 5 5 5 5 5 5 5 5 5 5 5 5 5 5 5 5 5 5 5 5 5 5 5 5 5 5 5 5 5 5 5 5 5 5 5 5 5 5 5 5 5 5 5 5 5 5 5 5 5 5 5 5 5 5 5 5 5 5 5 5 5 5 5 5 5 5 5 5 5 5 5 5 5 5 5 5 5 5 5 5 5 5 5 5 5 5 5 5 5 5 5 5 5 5 5 5 5 5 5 5 5 5 5 5 5 5 5 5 5 5 5 5 5 5 5 5 5 5 5 5 5 5 5 5 5 5 5 5 5 5 5 5 5 5 5 5 5 5 5 5 5 5 5 5 5 5 5 5 5 5 5 5 5 5 5 5 5 5 5 5 5 5 5 5 5 5 5 5 5 5 5 5 5 5 5 5 5 5 5 5 5 5 5 5 5 5 5 5 5 5 5 5 5 5 5 5 5 5 5 5 5 5 5 5 5 5 5 5 5 5 5 5 5 5 5 5 5 5 5 5 5 5 5 5 5 5 5 5 5 5 5 5 5 5 5 5 5 5 5 5 5 5 5 5 5 5 5 5 5 5 5 5 5 5 5 5 5 5 5 5 5 5 5 5 5 5 5 5 5 5 5 5 5 5 5 5 5 5 5 5 5 5 5 5 5 5 5 5 5 5 5 5 5 5 5 5 5 5 5 5 5 5 5 5 5 5 5 5 5 5 5 5 5 5 5 5 5 5 5 5 5 5 5 5 5 5 5 5 5 5 5 5 5 5 5 5 5 5 5 5 5 5 5 5 5 5 5 5 5 5 5 5 5 5 5 5 5 5 
</DataArray>
</Cells>
<PointData Scalars="" Vectors="displacement," Tensors="">
<DataArray type="Float64" Name="displacement" NumberOfComponents="3" format="ascii">
0.07749418473151734 0.075390602216234615 0.073106138467386769 0.07752657555984506 0.075251789337517305 0.073213487257748386 0.07752657555984506 0.075251789337517305 0.073213487257748386 0.077604098824333945 0.07495879898984846 0.073503217932226556 0.077604098824333945 0.07495879898984846 0.073503217932226556 0.077705956507677129 0.074706123372333066 0.073928154229314882 0.077705956507677129 0.074706123372333066 0.073928154229314882 0.077814964315947296 0.074531553485895949 0.07444248027978749 0.077814964315947296 0.074531553485895949 0.07444248027978749 0.077908552856295832 0.074413242133619772 0.075001278626355417 0.077908552856295832 0.074413242133619772 0.075001278626355417 0.077970067935404966 0.074319785941908689 0.07556007829490248 0.077970067935404966 0.074319785941908689 0.07556007829490248 0.077985614308106244 0.074228892429261256 0.076074408366723176 0.077985614308106244 0.074228892429261256 0.076074408366723176 0.077949370264758205 0.074120830985708347 0.076499350654186726 0.077949370264758205 0.074120830985708347 0.076499350654186726 0.077880596062462573 0.074003602166503188 0.076789087979695594 0.077880596062462573 0.074003602166503188 0.076789087979695594 0.077843148101896381 0.073952268332250076 0.076896440507762356 0.073808105358005596 0.069512173118003659 0.073106134096651482 0.073767448033851518 0.069330825517735326 0.073213482971083751 0.073767448033851518 0.069330825517735326 0.073213482971083751 0.073691465951213869 0.068948279178263988 0.073503213844756707 0.073691465951213869 0.068948279178263988 0.073503213844756707 0.073612047873594169 0.068600975405038317 0.073928150349891641 0.073612047873594169 0.068600975405038317 0.073928150349891641 0.07350715444871099 0.068345742540279003 0.074442476571329214 0.07350715444871099 0.068345742540279003 0.074442476571329214 0.073369404737990876 0.068168914973746456 0.075001275006913698 0.073369404737990876 0.068168914973746456 0.075001275006913698 0.073194769572513141 0.068019722208595923 0.075560074752987857 0.073194769572513141 0.068019722208595923 0.075560074752987857 0.072985959050646185 0.067867143022996582 0.076074404908542878 0.072985959050646185 0.067867143022996582 0.076074404908542878 0.072763381761540416 0.067688969679655431 0.076499347271534554 0.072763381761540416 0.067688969679655431 0.076499347271534554 0.072553870493291525 0.067494256210439821 0.076789084650793399 0.072553870493291525 0.067494256210439821 0.076789084650793399 0.072456040871187205 0.067403345085651545 0.07689643719243483 0.042001775766972303 0.034773495410676661 0.040080245183739115 0.034048903161399677 0.02784364168827522 0.033280821091897624 0.038406616396450266 0.032478822439399584 0.036579009957355427 0.03910659525977235 0.03157369269831075 0.038086785519350526 0.034048903161399677 0.02784364168827522 0.033280821091897624 0.042001775766972303 0.034773495410676661 0.040080245183739115 0.063168015313866566 0.050360035948958826 0.056841377409635366 0.055709989038193984 0.043902849143915734 0.05229358580036049 0.058395469795178595 0.046128824486063674 0.052757043250370707 0.058395469795178595 0.046128824486063674 0.052757043250370707 0.055709989038193991 0.043902849143915734 0.052293585800360497 0.053105199418825126 0.042358802279864709 0.049082290995883834 0.0045570913189919458 -0.0010118795121198932 0.010002046427113616 0.0027255577088413458 -0.00063668768929292703 0.0053083606805488784 0.0053400690008796247 -0.00028741171776808531 0.010268915276601922 0.020720935760751753 0.015817954606123084 0.010002046203262165 0.016799109512933473 0.013967442499928926 0.010268914900968573 0.0082940738980415533 0.0069909944389470969 0.0053083606319808572 0.0023841516506553743 -0.0012941852490802087 0.0050018577762041792 0.0027255577088413458 -0.00063668768929292703 0.0053083606805488784 0.0045570913189919458 -0.0010118795121198932 0.010002046427113616 0.012020141289295599 0.0093525126665658029 0.0050018577253814998 0.020720935760751753 0.015817954606123084 0.010002046203262165 0.0082940738980415533 0.0069909944389470969 0.0053083606319808572 0.041385437043022576 0.032034610704121266 0.025002559154442321 0.047411060302950177 0.036778081598919807 0.030002695370748896 0.039164832523226951 0.032028397333510698 0.027502649551664031 0.01456210671960821 0.007962887023443813 0.030002699041210945 0.011674748809617176 0.0048626560749845628 0.025002562149333732 0.016034802565503815 0.0074670865530151401 0.027612637445586719 0.01364134573698267 0.0083319874668958075 0.015722592224156274 0.017417925517623317 0.010787513540007027 0.01991684739726347 0.013903648559043282 0.0077046581218331222 0.016502800112261646 0.019259580180706577 0.011323645741700906 0.022371152171776112 0.013903648559043282 0.0077046581218331222 0.016502800112261646 0.017417925517623317 0.010787513540007027 0.01991684739726347 0.012849078833335349 0.010663003201399648 0.012479659884711737 0.01742212359884102 0.014602236991930376 0.016837363997070472 0.014035589810783513 0.011318491298242535 0.01422606078516774 3.5176934526605859e-06 3.0635246103937668e-07 1.6667375803485503e-06 3.732101679834901e-06 5.208992984640531e-07 1.6667406108998171e-06 0.0037412057278235441 0.0014472199904650741 0.0049725770790265845 4.8305818371533299e-06 1.2185057124052655e-06 1.6667401759419788e-06 5.0181215434326985e-06 1.279584889652531e-06 1.6667378686926282e-06 0.0049776321738396025 0.0039634527677218116 0.0049725770819668558 0.072603341765071022 0.056937196843687594 0.060005476013049876 0.071409162173296195 0.057891542685962465 0.06196348039485141 0.063168015313866566 0.050360035948958826 0.056841377409635366 0.047446757229446926 0.033965493255983061 0.050005268575940606 0.039855628469163087 0.028263984926328697 0.043327415124949482 0.043263878353293948 0.032946728094698757 0.047917965406240749 0.099996862957378599 0.10000000365576595 0.099998333432632452 0.096023247975929607 0.097607118725092881 0.095390094606326192 0.095341846854124751 0.097209534199901776 0.093676270011825907 0.099995446253660372 0.099999931339285739 0.099998333433583164 0.094267947523131279 0.096435709416752682 0.095390324337418758 0.093236599173777995 0.095831472991116343 0.09367626942397933 0.099995446253660372 0.099999931339285739 0.099998333433583164 0.093236599173777995 0.095831472991116343 0.09367626942397933 0.096050193112242957 0.097872818177306808 0.095385025384417399 0.099996862957378599 0.10000000365576595 0.099998333432632452 0.095341846854124751 0.097209534199901776 0.093676270011825907 0.09730359620122131 0.098593142010673832 0.095385257093046141 0.086874833960437589 0.090549760404004365 0.090415814368644556 0.086783893564605488 0.089578162710870407 0.088087980853184991 0.093236599173777995 0.095831472991116343 0.09367626942397933 0.09088046636581841 0.093582132762643655 0.090415356133377436 0.090905983128941478 0.09291345475969616 0.088088010174341549 0.095341846854124751 0.097209534199901776 0.093676270011825907 0.012849078833335349 0.010663003201399648 0.012479659884711737 0.014035589810783513 0.011318491298242535 0.01422606078516774 0.0093077999915409087 0.0075096537300568776 0.0093872779778749055 0.047446757229446926 0.033965493255983061 0.050005268575940606 0.042539084420493575 0.028836412527918701 0.045586312775022689 0.039855628469163087 0.028263984926328697 0.043327415124949482 0.031520672159008063 0.032139233777033815 0.055002556035880848 0.027589083128341185 0.025932972893278151 0.050002752707353014 0.035932246012537201 0.030035645493171517 0.052124903416314698 0.069696022682842945 0.055196806188975822 0.050002746705504773 0.074907844028038559 0.060152005269443483 0.055002554097992075 0.066631568123868362 0.055444061825430414 0.052378633104499299 0.064498890541283035 0.050681304686215768 0.055006042037224409 0.072603341765071022 0.056937196843687594 0.060005476013049876 0.063168015313866566 0.050360035948958826 0.056841377409635366 0.039916691098344566 0.029377239124951226 0.050205688382466848 0.033730515012422677 0.022578390220979801 0.044006928879949059 0.038062255225764743 0.025443609051666705 0.04568096090417547 0.02588765438991272 0.014470395712919835 0.033406497389004808 0.026333454596222491 0.015326576447312655 0.03586771618685787 0.021099652471214689 0.010920532985739854 0.030867174799049775 0.050229463536741369 0.040037284206324207 0.053249262441144217 0.04567537494349859 0.035565915892706274 0.047797539503091881 0.052029290561023261 0.041530918143759095 0.053334042441767385 0.086304735822196554 0.087621385957280168 0.082709179784845474 0.082706409800728617 0.084936126493474401 0.081283038842260763 0.081970818243879778 0.081600075196356481 0.077144690707534241 0.080100762783888016 0.08195436821826256 0.082709175551303638 0.074908952028332448 0.077925209149011618 0.08115927174159461 0.073507373119060429 0.072946235054366509 0.076902403261546751 0.081970818243879778 0.081600075196356481 0.077144690707534241 0.082706409800728617 0.084936126493474401 0.081283038842260763 0.078362919749836196 0.079535424761783796 0.076588287114478085 0.073507373119060429 0.072946235054366509 0.076902403261546751 0.074908952028332448 0.077925209149011618 0.08115927174159461 0.069269869162067677 0.070982756264968513 0.076891814975515449 0.02588765438991272 0.014470395712919835 0.033406497389004808 0.021099652471214689 0.010920532985739854 0.030867174799049775 0.022013984873927174 0.01125652630911732 0.029212023827957019 0.052893902184149286 0.043355030958281721 0.057416331601401811 0.047011452076041793 0.036963080788540055 0.051673327689422344 0.050229463536741369 0.040037284206324207 0.053249262441144217 0.039916691098344566 0.029377239124951226 0.050205688382466848 0.034084627038345409 0.025220220734229692 0.047404098278257895 0.03373051501242267 0.022578390220979801 0.044006928879949059 0.047446757229446926 0.033965493255983061 0.050005268575940606 0.059249663110002244 0.042271327992164355 0.055005713090347561 0.056044168219378535 0.03985904314115598 0.055368308822801651 0.099998078576210098 0.099999710466816272 0.099998333538134213 0.097617345411672968 0.098142447581795883 0.095870289161615746 0.098559848008366757 0.098617254132633933 0.095778807653169873 0.099994595440461492 0.099999809271938994 0.099998333536419057 0.093328971184839918 0.094618496325241025 0.095778099796086869 0.095103302699796624 0.095982813228098748 0.095866035589543305 0.043146738492695319 0.033282648578248086 0.046669956425725447 0.04567537494349859 0.035565915892706274 0.047797539503091881 0.050229463536741369 0.040037284206324207 0.053249262441144217 0.091227255187725759 0.094120282522749135 0.094996823945180373 0.087650876613204115 0.091374217667374372 0.089896609785088219 0.093775098029333981 0.095824682380392989 0.094397596585404017 0.087385666474934232 0.091435150329136128 0.094998787928413042 0.082303054036704709 0.087384803194014066 0.089897730364846912 0.091069841764807813 0.093857887648632024 0.09439833667978309 3.8734577280507511e-06 5.7836318147966999e-07 1.6667412599629847e-06 0.0041081976399805721 0.0022458861418691318 0.0050088497700207218 0.0036978249746259968 0.0017443420280210255 0.0046653424219785244 4.6565383332135991e-06 1.1796364448059389e-06 1.6667413919645268e-06 0.0044725907790115803 0.0034687278484536528 0.0046407864833580836 0.0047056638465184939 0.0035255620255314466 0.0050602862025566422 0.039916691098344566 0.029377239124951226 0.050205688382466848 0.044423251393627253 0.031325571818049208 0.050631245643672385 0.048221151926335408 0.037637443324198487 0.055902419437427055 0.051613353178343292 0.037545954718992684 0.054786390590995916 0.048221151926335408 0.037637443324198487 0.055902419437427055 0.04442325139362726 0.031325571818049208 0.050631245643672385 0.049113641211803206 0.033570974926172573 0.050950010602855665 0.047446757229446926 0.033965493255983061 0.050005268575940606 0.056044168219378535 0.03985904314115598 0.055368308822801651 0.068607953690154197 0.078012462097282756 0.084999768185464064 0.076378340425051941 0.081746005397411725 0.085170694588846366 0.082303054036704709 0.087384803194014066 0.089897730364846912 0.078023175408787351 0.084853749632400027 0.084998139471959319 0.083513491793845721 0.087476602086635977 0.085169994073191202 0.087650876613204115 0.091374217667374372 0.089896609785088219 0.08501361359379532 0.085439290354409086 0.086956194013265958 0.081228996222204281 0.080506370672350502 0.082862096139365529 0.086967328966782803 0.086908050989502938 0.086906800901911871 0.048321862731273056 0.037903952661374883 0.049106102023224157 0.052029290561023261 0.041530918143759095 0.053334042441767385 0.04567537494349859 0.035565915892706274 0.047797539503091881 0.056762614156909079 0.046578988265508298 0.057614866687024223 0.061667376523716143 0.052145551075701763 0.06155079578097445 0.059394481422542875 0.050709765592325096 0.062046125752812209 0.06276219046251659 0.060782132031397873 0.071408105186564846 0.060332649469805141 0.055775560370428003 0.06753261048906968 0.067130467346625852 0.063188161316243469 0.071810873092966257 0.040710120290913129 0.046790619602371367 0.065001855052122845 0.044223266950251444 0.043861935404838806 0.062067644969712385 0.049915436774448138 0.053169175567585256 0.068016663684890538 0.097050015835899964 0.092957093610249647 0.084999771825353662 0.096229899011987863 0.096329651435571234 0.089998415951411212 0.09315237167754023 0.092424701883868254 0.085490754884868458 0.095364824111645444 0.089738072852149728 0.084998130721245013 0.094348806608811953 0.094584693934948477 0.089997280444902641 0.089802901869507193 0.088917543829260814 0.085489984891092191 0.084312935785703619 0.089447932998202487 0.089997154190084291 0.087650876613204115 0.091374217667374372 0.089896609785088219 0.091227255187725759 0.094120282522749135 0.094996823945180373 0.087385666474934232 0.091435150329136128 0.094998787928413042 0.07752025734118452 0.084651387501950143 0.089999260747541165 0.082303054036704709 0.087384803194014066 0.089897730364846912 0.089790762053598372 0.088848655556489256 0.08641049712035373 0.086734369237637235 0.083179333963978988 0.081308256358337952 0.091880745086570015 0.090317327404487321 0.086843732624653752 0.053071592606574382 0.045288251457606267 0.050005306161729317 0.052009418957009328 0.046472011103553493 0.049700008334699869 0.055222091888593228 0.050157057288803812 0.054253281076183373 0.089790762053598372 0.088848655556489256 0.08641049712035373 0.085358764332876383 0.08295321366097419 0.081973219806125541 0.086734369237637235 0.083179333963978988 0.081308256358337952 0.062912760045185465 0.056906147684721686 0.067325891337843086 0.067130467346625852 0.063188161316243469 0.071810873092966257 0.060332649469805141 0.055775560370428003 0.06753261048906968 0.068892583025511961 0.063348553463063645 0.06236987085733791 0.074487654800950917 0.070896535552358836 0.068393265868068112 0.0674253997108267 0.064035623743945058 0.064014499351431428 6.1084650084751103e-06 1.5562981451864316e-07 1.666730418066969e-06 0.0082940738980415533 0.0069909944389470969 0.0053083606319808572 0.0056812725359804061 0.0047006610902873124 0.0044328986679264973 1.9147068823878173e-06 -2.9808183907760329e-07 1.6667299539283492e-06 0.0024587854640600402 -9.8398959188389444e-05 0.0044328988079984392 0.0027255577088413458 -0.00063668768929292703 0.0053083606805488784 0.099998078576210098 0.099999710466816272 0.099998333538134213 0.099997018839007246 0.099999052418071208 0.099998333320638108 0.097617345411672968 0.098142447581795883 0.095870289161615746 0.099993636508168629 0.099997786850175879 0.099998333327189423 0.099994595440461492 0.099999809271938994 0.099998333536419057 0.095103302699796624 0.095982813228098748 0.095866035589543305 2.8927440765705907e-06 -1.2631283762586472e-07 1.666733534942977e-06 0.0041567618575550063 0.00056116357605668222 0.0065393947297387638 0.0024587854640600398 -9.8398959188389308e-05 0.0044328988079984383 5.4136320628600287e-06 1.0258382168267066e-06 1.6667339753276861e-06 0.0056812725359804061 0.0047006610902873124 0.0044328986679264973 0.0077778788860283828 0.006445723136526053 0.0065393944817963776 0.013903648559043282 0.0077046581218331222 0.016502800112261646 0.0081678495088274745 0.0038772767522891076 0.010207911913406777 0.010395025359240273 0.0057932940964836995 0.012414130991331885 0.028160850010557237 0.021722278448996893 0.015002228559451025 0.021998286221035959 0.01832196616510242 0.01462048021990262 0.016799109512933473 0.013967442499928926 0.010268914900968573 0.006759964256574936 0.00017472706303260342 0.015002229370271973 0.0053400690008796256 -0.00028741171776808499 0.010268915276601924 0.0081963998206168714 0.0011869747366214667 0.014619566190126687 0.070242321625740636 0.064918103102833205 0.071527529407332785 0.065465437429350445 0.058716214180463598 0.067571885753552413 0.070069841078505793 0.06321011860943436 0.069388046464978342 0.065024318770246323 0.056917336551990313 0.065415203094972063 0.059394481422542875 0.050709765592325096 0.062046125752812209 0.061667376523716143 0.052145551075701763 0.06155079578097445 0.099347908327161075 0.099317772724068179 0.094996824769281479 0.096643637285697526 0.09799358410531793 0.094397597809647585 0.094348806608811953 0.094584693934948477 0.089997280444902641 0.099611526512966009 0.099552717459199705 0.094998790570549788 0.097746213763779427 0.098667895637706976 0.094398339536657883 0.096229899011987863 0.096329651435571234 0.089998415951411226 0.065024318770246323 0.056917336551990313 0.065415203094972063 0.070069841078505793 0.06321011860943436 0.069388046464978342 0.065465437429350445 0.058716214180463598 0.067571885753552413 0.081228996222204281 0.080506370672350502 0.082862096139365529 0.077400122060943141 0.077325245382142777 0.081723458128401316 0.075159468727233308 0.072489775078952517 0.077151932760023384 0.063145590390866188 0.063366511269751832 0.072501193852254217 0.057182912561288046 0.053515325222381456 0.06641449529288615 0.063444528431865418 0.058767057573043832 0.068699212350734715 1.9147068823878173e-06 -2.9808183907760329e-07 1.6667299539283492e-06 2.9545539716494427e-06 4.9946127426933636e-08 1.6667330244223001e-06 0.0024587854640600398 -9.8398959188389308e-05 0.0044328988079984383 6.724067704220084e-06 2.3529169777332582e-06 1.6667320253475242e-06 6.1084650084751103e-06 1.5562981451864316e-07 1.666730418066969e-06 0.0056812725359804061 0.0047006610902873124 0.0044328986679264973 0.013903648559043282 0.0077046581218331222 0.016502800112261646 0.012480729896134269 0.0062110469304138593 0.015335108563574189 0.0081678495088274745 0.0038772767522891076 0.010207911913406777 0.091779011925572002 0.093820005770785905 0.090298546514105821 0.093236599173777995 0.095831472991116343 0.09367626942397933 0.086783893564605488 0.089578162710870407 0.088087980853184991 0.094408483808753815 0.095827375642429186 0.090299011389067388 0.095341846854124751 0.097209534199901776 0.093676270011825907 0.090905983128941478 0.09291345475969616 0.088088010174341549 0.074487654800950917 0.070896535552358836 0.068393265868068112 0.071331249935072644 0.069830903654842069 0.068661905692736974 0.0674253997108267 0.064035623743945058 0.064014499351431428 0.0074761635213697998 0.0048486838255663483 0.0085642845275921194 0.010907346776606871 0.0074777111307181955 0.012163219507305244 0.010045815015770046 0.0063257901722978708 0.011551082415104795 0.016486672174698371 0.0073068475494196729 0.021861392575771899 0.017954297798706532 0.0087854470910381875 0.022558700310636684 0.02032063511722183 0.010110130983780699 0.026107276385236002 0.077400122060943141 0.077325245382142777 0.081723458128401316 0.072219982176631892 0.070843244263305266 0.077294387051828076 0.075159468727233308 0.072489775078952517 0.077151932760023384 0.010045815015770046 0.0063257901722978708 0.011551082415104795 0.010907346776606871 0.0074777111307181955 0.012163219507305244 0.013264137189401785 0.0087246443917431762 0.014937288513902674 0.010907346776606871 0.0074777111307181955 0.012163219507305244 0.0060987662209299022 0.0041412190817480222 0.0068762888600065863 0.010376350635417987 0.0074417708853101519 0.011356322342318655 0.007165263837411796 0.0052060946870315962 0.0078379015606133071 0.010376350635417987 0.0074417708853101519 0.011356322342318655 0.0060987662209299022 0.0041412190817480222 0.0068762888600065863 0.09062299078163974 0.086853946540541668 0.083572961535136769 0.086734369237637235 0.083179333963978988 0.081308256358337952 0.087591002379308849 0.080277127307117876 0.078146103792827215 0.056762614156909079 0.046578988265508298 0.057614866687024223 0.059394481422542875 0.050709765592325089 0.062046125752812209 0.05474761834496681 0.04492560341862769 0.057439050558170175 0.08501361359379532 0.085439290354409086 0.086956194013265958 0.077400122060943141 0.077325245382142777 0.081723458128401316 0.081228996222204281 0.080506370672350502 0.082862096139365529 0.043146738492695319 0.033282648578248086 0.046669956425725447 0.050229463536741369 0.040037284206324214 0.053249262441144217 0.047011452076041793 0.036963080788540055 0.051673327689422344 0.09773905381944166 0.095042867452681173 0.089997154454501252 0.099347908327161075 0.099317772724068179 0.094996824769281479 0.094348806608811953 0.094584693934948477 0.089997280444902641 0.098586842151371007 0.096617663876322576 0.089999265766044376 0.099611526512966009 0.099552717459199705 0.094998790570549788 0.096229899011987863 0.096329651435571234 0.089998415951411226 0.097050015835899964 0.092957093610249647 0.084999771825353662 0.098586842151371007 0.096617663876322576 0.089999265766044376 0.096229899011987863 0.096329651435571234 0.089998415951411226 0.095364824111645444 0.089738072852149728 0.084998130721245013 0.09773905381944166 0.095042867452681173 0.089997154454501252 0.094348806608811953 0.094584693934948477 0.089997280444902641 0.039746580124776366 0.029948921164366475 0.043549749861383991 0.037715499848625302 0.0282150061817735 0.040896566585832052 0.043146738492695319 0.033282648578248086 0.046669956425725447 0.015929236239798496 0.012429575288462542 0.016505212621753945 0.010580786447952132 0.0081167009100511691 0.011173058479432032 0.014035589810783513 0.011318491298242535 0.01422606078516774 0.0084050860450887825 0.0065710807862012135 0.0087565952684602287 0.014035589810783513 0.011318491298242535 0.01422606078516774 0.010580786447952132 0.0081167009100511691 0.011173058479432032 0.073795644994213122 0.063071160352782152 0.069167177930595847 0.07941069259391087 0.06934934280624161 0.07250283965175737 0.072948321125505283 0.067311916183265083 0.072501406120550463 0.07941069259391087 0.06934934280624161 0.07250283965175737 0.081294184006038148 0.074496461670457703 0.075842138830347378 0.072948321125505283 0.067311916183265083 0.072501406120550463 0.052893902184149286 0.043355030958281721 0.057416331601401811 0.050229463536741369 0.0400372842063242 0.053249262441144217 0.05474761834496681 0.04492560341862769 0.057439050558170175 0.099995357992674741 0.099999337283507586 0.099998333504203674 0.095103302699796624 0.095982813228098748 0.095866035589543305 0.093274810033545749 0.094176477642949383 0.093731153187155539 0.099996553238882041 0.099999587080256691 0.099998333504592168 0.095356032489478423 0.095989822628932436 0.093812914375600492 0.097617345411672968 0.098142447581795883 0.095870289161615746 0.037715499848625302 0.0282150061817735 0.040896566585832052 0.040176705817246985 0.030606687548314422 0.042648158444440573 0.043146738492695319 0.033282648578248086 0.046669956425725447 0.07752025734118452 0.084651387501950143 0.089999260747541165 0.068607953690154197 0.078012462097282756 0.084999768185464064 0.082303054036704709 0.087384803194014066 0.089897730364846912 0.078023175408787351 0.084853749632400027 0.084998139471959319 0.087650876613204115 0.091374217667374372 0.089896609785088219 0.084312935785703619 0.089447932998202487 0.089997154190084291 0.047411060302950177 0.036778081598919807 0.030002695370748896 0.046359681369471398 0.037374445233414336 0.03254421815287821 0.039164832523226951 0.032028397333510698 0.027502649551664031 0.01456210671960821 0.007962887023443813 0.030002699041210945 0.016034802565503815 0.0074670865530151401 0.027612637445586719 0.019161827808195468 0.010738253705422755 0.03254760523668853 0.052893902184149286 0.043355030958281721 0.057416331601401811 0.059394481422542875 0.050709765592325096 0.062046125752812209 0.057467209657289381 0.050148091274153143 0.063068737928735685 0.053071592606574382 0.045288251457606267 0.050005306161729317 0.055222091888593228 0.050157057288803812 0.054253281076183373 0.053229784050221766 0.050374496918940907 0.055005750844896513 0.062912760045185465 0.056906147684721686 0.067325891337843086 0.059394481422542875 0.050709765592325096 0.062046125752812209 0.065465437429350445 0.058716214180463598 0.067571885753552413 0.065024318770246323 0.056917336551990313 0.065415203094972063 0.065465437429350445 0.058716214180463598 0.067571885753552413 0.059394481422542875 0.050709765592325096 0.062046125752812209 0.099996862957378599 0.10000000365576595 0.099998333432632452 0.099995181151423043 0.09999873599159266 0.099998333297139155 0.096023247975929607 0.097607118725092881 0.095390094606326192 0.099995446253660372 0.099999931339285739 0.099998333433583164 0.099993063700568902 0.099998138816905988 0.099998333496978481 0.094267947523131265 0.096435709416752682 0.095390324337418744 0.099996076704076481 0.099999577301347731 0.099998333295384906 0.099995446253660372 0.099999931339285739 0.099998333433583164 0.096050193112242957 0.097872818177306808 0.095385025384417399 0.099997331595540931 0.099999723231224066 0.099998333500146308 0.099996862957378599 0.10000000365576595 0.099998333432632452 0.09730359620122131 0.098593142010673832 0.095385257093046141 0.042389454092599706 0.028134710055594755 0.046572604892357358 0.04442325139362726 0.031325571818049208 0.050631245643672385 0.038062255225764743 0.025443609051666705 0.04568096090417547 0.072372330843864435 0.0642173902530076 0.068802064457161596 0.078172980848943807 0.07077414837560847 0.072624276646691341 0.076299694516819519 0.070478970915154301 0.07348518563285257 0.062912760045185465 0.056906147684721686 0.067325891337843086 0.065465437429350445 0.058716214180463598 0.067571885753552413 0.067130467346625852 0.063188161316243469 0.071810873092966257 0.070242321625740636 0.064918103102833205 0.071527529407332785 0.067130467346625852 0.063188161316243469 0.071810873092966257 0.065465437429350445 0.058716214180463598 0.067571885753552413 0.065565799008895642 0.064541782507310547 0.065397782825411213 0.060533803383664958 0.057300261097994055 0.059817841710619706 0.0674253997108267 0.064035623743945058 0.064014499351431428 0.031520672159008063 0.032139233777033815 0.055002556035880848 0.035932246012537201 0.030035645493171517 0.052124903416314698 0.038222389322635351 0.036524324645545135 0.057384966635572583 0.046174173063440953 0.03996490940419644 0.039804342441005981 0.052184610825931559 0.044875130304036816 0.044291671309564011 0.047627437584771469 0.041821875642437674 0.042908663245601011 0.052479292221772715 0.046229604285983897 0.047360649642137174 0.047627437584771469 0.041821875642437674 0.042908663245601011 0.052184610825931559 0.044875130304036816 0.044291671309564011 0.093548631929209689 0.093590331950631378 0.090593155341268966 0.090446254072200805 0.090451176635623728 0.088593472636937537 0.089790762053598372 0.088848655556489256 0.08641049712035373 0.051541613351651173 0.050469291018537366 0.065509357467261081 0.049915436774448138 0.053169175567585256 0.068016663684890538 0.044223266950251444 0.043861935404838806 0.062067644969712385 0.046518133179036796 0.038509028175723908 0.035315739867715676 0.053408711415413826 0.043460821995376861 0.039594722926369702 0.049563006911423457 0.041736592769096893 0.039826280708819377 0.055973945207282445 0.04640022260155794 0.04370158793082754 0.049563006911423457 0.041736592769096893 0.039826280708819377 0.053408711415413826 0.043460821995376861 0.039594722926369702 0.030343238529834421 0.021142407409237823 0.043676053813930645 0.025212002487197283 0.016767577116475092 0.039644004611406783 0.028812338852223066 0.018194872593951996 0.039770318202156714 0.023883099939939728 0.014129643539048843 0.035755202602464523 0.028812338852223066 0.018194872593951996 0.039770318202156714 0.025212002487197283 0.016767577116475092 0.039644004611406783 0.082753509162382638 0.077538971356307149 0.077355445566156492 0.080456331632647635 0.07674858723314526 0.077973445517217521 0.076299694516819519 0.070478970915154301 0.07348518563285257 0.074907844028038559 0.060152005269443483 0.055002554097992075 0.073656981184940337 0.061462978800076715 0.057399251254118829 0.066631568123868362 0.055444061825430414 0.052378633104499299 0.065953094089305664 0.054529549521935089 0.064755997059483886 0.056898172473205874 0.045693385511188706 0.060297173770162894 0.060660343190194123 0.046269486533203737 0.059640675494793044 0.048321862731273056 0.037903952661374883 0.049106102023224157 0.049997893981687608 0.039220453068704371 0.048862564649282521 0.054628326885864248 0.04362100584362337 0.053827576700932654 0.026669821829064855 0.019623328199767705 0.028310299229132831 0.026785760517758557 0.018930231440107016 0.029113534245823032 0.023073404099289947 0.016196642656872224 0.025118187291943091 0.069143650688783642 0.07381484013701313 0.079681183336244743 0.074908952028332448 0.077925209149011618 0.08115927174159461 0.076378340425051941 0.081746005397411725 0.085170694588846366 0.078468205941897504 0.081913234305652005 0.079680898161706259 0.082706409800728617 0.084936126493474401 0.081283038842260763 0.083513491793845721 0.087476602086635977 0.085169994073191202 0.052893902184149286 0.043355030958281721 0.057416331601401811 0.05474761834496681 0.044925603418627683 0.057439050558170175 0.059394481422542875 0.050709765592325096 0.062046125752812209 0.095356032489478409 0.095989822628932422 0.093812914375600479 0.090446254072200805 0.090451176635623728 0.088593472636937537 0.093548631929209689 0.093590331950631378 0.090593155341268966 0.070242321625740636 0.064918103102833205 0.071527529407332785 0.074529219759021492 0.069681680542653557 0.073948789426586781 0.075159468727233308 0.072489775078952517 0.077151932760023384 3.732101679834901e-06 5.208992984640531e-07 1.6667406108998171e-06 0.0036978249746259968 0.0017443420280210255 0.0046653424219785244 0.0037412057278235441 0.0014472199904650741 0.0049725770790265845 4.8305818371533299e-06 1.2185057124052655e-06 1.6667401759419788e-06 0.0049776321738396025 0.0039634527677218116 0.0049725770819668558 0.0044725907790115803 0.0034687278484536528 0.0046407864833580836 0.060533803383664958 0.057300261097994055 0.059817841710619706 0.06370761977048145 0.058638888666235414 0.059446506629270777 0.0674253997108267 0.064035623743945058 0.064014499351431428 0.016486672174698371 0.0073068475494196729 0.021861392575771899 0.02032063511722183 0.010110130983780699 0.026107276385236002 0.017275871171737144 0.0075898585517409183 0.024015440458565712 0.031969964946742334 0.019637154833315545 0.039539399774569266 0.038062255225764743 0.025443609051666705 0.045680960904175463 0.03373051501242267 0.022578390220979801 0.044006928879949059 0.0070661811719567747 0.0037251597997211873 0.0086200155030060188 0.0041081976399805721 0.0022458861418691318 0.0050088497700207218 0.0086864849311389832 0.0050337371260690865 0.01024564404599496 0.0066400739387781679 0.0040621243345989591 0.0077713484416874062 0.0086864849311389832 0.0050337371260690865 0.01024564404599496 0.0041081976399805721 0.0022458861418691318 0.0050088497700207218 0.007165263837411796 0.0052060946870315962 0.0078379015606133071 0.0047056638465184939 0.0035255620255314471 0.0050602862025566422 0.010580786447952132 0.0081167009100511691 0.011173058479432032 0.0084050860450887825 0.0065710807862012135 0.0087565952684602287 0.010580786447952132 0.0081167009100511691 0.011173058479432032 0.0047056638465184939 0.0035255620255314466 0.0050602862025566422 0.02588765438991272 0.014470395712919835 0.033406497389004808 0.0294161421452135 0.017394424614860456 0.035646116457354646 0.031969964946742334 0.019637154833315545 0.039539399774569266 0.026669821829064855 0.019623328199767705 0.028310299229132831 0.031300463115122912 0.02315751836041726 0.033193467839950544 0.026785760517758557 0.018930231440107016 0.029113534245823032 0.019259580180706577 0.011323645741700906 0.022371152171776112 0.015826531961715747 0.0083695194906958006 0.019071069561184428 0.013903648559043282 0.0077046581218331222 0.016502800112261646 0.02032063511722183 0.010110130983780699 0.026107276385236002 0.017954297798706532 0.0087854470910381875 0.022558700310636684 0.022944252670368447 0.012460570932426205 0.027932099747584725 0.036530411396741604 0.027641026725662363 0.03824790002699513 0.034741940755907794 0.02572570213098168 0.037276362594401112 0.031300463115122912 0.02315751836041726 0.033193467839950544 0.027073566765348375 0.023161268559100265 0.025198289547667493 0.031110499255557852 0.026641159318472111 0.029135839027086809 0.025380605050529019 0.021336064284449768 0.024434854629314266 0.030524567638294458 0.025691513838775267 0.029351355378571559 0.025380605050529019 0.021336064284449768 0.024434854629314266 0.031110499255557852 0.026641159318472111 0.029135839027086809 2.9545539716493969e-06 4.9946127426935509e-08 1.6667330244222171e-06 2.8927440765705907e-06 -1.2631283762586472e-07 1.666733534942977e-06 0.0024587854640600398 -9.8398959188389308e-05 0.0044328988079984383 5.4136320628600287e-06 1.0258382168267066e-06 1.6667339753276861e-06 6.724067704220084e-06 2.3529169777332582e-06 1.6667320253475242e-06 0.0056812725359804061 0.0047006610902873124 0.0044328986679264973 0.068519495182389686 0.049593718177683897 0.060005084837944866 0.060660343190194123 0.046269486533203737 0.059640675494793044 0.056044168219378535 0.03985904314115598 0.055368308822801651 0.015929236239798496 0.012429575288462542 0.016505212621753945 0.021824924782218522 0.017532935151976892 0.022036029712939602 0.01831947202338001 0.01399339485397494 0.019197947138593366 0.055709989038193984 0.043902849143915734 0.05229358580036049 0.048906075740026381 0.038644899721283342 0.04665929633166447 0.053105199418825126 0.042358802279864709 0.049082290995883834 0.092458245601210881 0.093029009820065886 0.091695743297922822 0.090446254072200805 0.090451176635623728 0.088593472636937537 0.095356032489478409 0.095989822628932422 0.093812914375600479 0.041385437043022576 0.032034610704121266 0.025002559154442321 0.039164832523226951 0.032028397333510698 0.027502649551664031 0.034328746591128237 0.02777804115092437 0.022670564658777242 0.011674748809617176 0.0048626560749845628 0.025002562149333732 0.012657179012285967 0.0045090997475746445 0.022853482833125053 0.016034802565503815 0.0074670865530151401 0.027612637445586719 0.078232530796665326 0.075099669543373326 0.077847421907703551 0.075159468727233308 0.072489775078952517 0.077151932760023384 0.074529219759021492 0.069681680542653557 0.073948789426586781 0.039164832523226951 0.032028397333510698 0.027502649551664031 0.035203674150129712 0.029804392932397724 0.027477242516961063 0.033066555493155403 0.027635751691950806 0.024221065495291096 0.019141807842625393 0.0091171653151017624 0.02727277877237768 0.022013984873927174 0.01125652630911732 0.029212023827957019 0.021099652471214689 0.010920532985739854 0.030867174799049775 0.041514465417415658 0.034377872880007709 0.030969903314373923 0.035203674150129712 0.029804392932397724 0.027477242516961063 0.039164832523226951 0.032028397333510698 0.027502649551664031 0.01944660696527872 0.016598276504008132 0.017936344686701008 0.02084361741291926 0.017943531377296582 0.018126864538429221 0.024927670802748936 0.02144361152534453 0.022472653925254427 0.014499481431389624 0.0067607071707888331 0.018271930953600864 0.017954297798706532 0.0087854470910381875 0.022558700310636684 0.01309020743345498 0.0051048220913362894 0.017779800160800729 0.026333454596222491 0.015326576447312655 0.03586771618685787 0.02588765438991272 0.014470395712919835 0.033406497389004808 0.031969964946742334 0.019637154833315545 0.039539399774569266 0.082753509162382638 0.077538971356307149 0.077355445566156492 0.076299694516819519 0.070478970915154301 0.07348518563285257 0.078172980848943807 0.07077414837560847 0.072624276646691341 0.083555953024659374 0.080849375357682704 0.080185885845481447 0.089802901869507193 0.088917543829260814 0.085489984891092191 0.085433229908700212 0.086410652451569606 0.084724720917901161 0.088901295532398283 0.086839596989884832 0.08018621139707556 0.09315237167754023 0.092424701883868254 0.085490754884868458 0.090068290417670865 0.090710134298889911 0.084725024538246235 0.0070661811719567747 0.0037251597997211873 0.0086200155030060188 0.0036978249746259973 0.0017443420280210257 0.0046653424219785244 0.0041081976399805721 0.0022458861418691318 0.0050088497700207218 0.0084050860450887825 0.0065710807862012135 0.0087565952684602287 0.0047056638465184939 0.0035255620255314462 0.0050602862025566414 0.0044725907790115803 0.0034687278484536528 0.0046407864833580836 3.5176934526605859e-06 3.0635246103937668e-07 1.6667375803485503e-06 0.0037412057278235441 0.0014472199904650741 0.0049725770790265845 0.0031355013009627258 0.00092500602165839017 0.0044100106686950791 5.0181215434326985e-06 1.279584889652531e-06 1.6667378686926282e-06 0.0046194004067528971 0.0037272598315502242 0.0044100104777006341 0.0049776321738396025 0.0039634527677218116 0.0049725770819668558 0.055709989038193984 0.043902849143915734 0.05229358580036049 0.063168015313866566 0.050360035948958826 0.056841377409635366 0.060983249827742544 0.049495345624884501 0.057747852907964935 0.066622573386988487 0.054711085206610013 0.060849322117525792 0.060983249827742544 0.049495345624884501 0.057747852907964935 0.063168015313866566 0.050360035948958826 0.056841377409635366 0.053670494724385426 0.045890400160532668 0.061346480396593857 0.048221151926335408 0.037637443324198487 0.055902419437427055 0.056898172473205874 0.045693385511188706 0.060297173770162894 0.051613353178343292 0.037545954718992684 0.054786390590995916 0.056898172473205874 0.045693385511188706 0.060297173770162894 0.048221151926335408 0.037637443324198487 0.055902419437427055 0.036537950651491839 0.024169013775699046 0.040329794540940676 0.032979489818810007 0.022123003244837972 0.036625734528352973 0.039855628469163087 0.028263984926328697 0.043327415124949482 0.055709989038193984 0.043902849143915734 0.05229358580036049 0.049997893981687608 0.039220453068704371 0.048862564649282521 0.048906075740026381 0.038644899721283342 0.04665929633166447 0.01364134573698267 0.0083319874668958075 0.015722592224156274 0.010045815015770046 0.0063257901722978708 0.011551082415104795 0.013264137189401785 0.0087246443917431762 0.014937288513902674 0.072372330843864435 0.0642173902530076 0.068802064457161596 0.076299694516819519 0.070478970915154301 0.07348518563285257 0.070069841078505793 0.06321011860943436 0.069388046464978342 0.063145590390866188 0.063366511269751832 0.072501193852254217 0.055760784089277156 0.056310410451587779 0.068988563380411344 0.057182912561288046 0.053515325222381456 0.06641449529288615 0.09062299078163974 0.086853946540541668 0.083572961535136769 0.087591002379308849 0.080277127307117876 0.078146103792827215 0.092682622555418981 0.08639204444504571 0.082499357506546731 0.081228996222204281 0.080506370672350502 0.082862096139365529 0.08143412654109744 0.079812258964159374 0.081441972848464578 0.086967328966782803 0.086908050989502938 0.086906800901911871 0.020008473656407347 0.016562183391049146 0.019672716185972699 0.014035589810783513 0.011318491298242535 0.01422606078516774 0.01742212359884102 0.014602236991930376 0.016837363997070472 0.039916691098344566 0.029377239124951226 0.050205688382466848 0.038062255225764743 0.025443609051666705 0.04568096090417547 0.04442325139362726 0.031325571818049208 0.050631245643672385 0.020720935760751753 0.015817954606123084 0.010002046203262165 0.028160850010557237 0.021722278448996893 0.015002228559451025 0.016799109512933473 0.013967442499928926 0.010268914900968573 0.006759964256574936 0.00017472706303260342 0.015002229370271973 0.0045570913189919458 -0.0010118795121198932 0.010002046427113616 0.0053400690008796247 -0.00028741171776808531 0.010268915276601922 0.062912760045185465 0.056906147684721686 0.067325891337843086 0.057467209657289381 0.050148091274153143 0.063068737928735685 0.059394481422542875 0.050709765592325096 0.062046125752812209 0.0091489965178021826 0.0076131406613997067 0.0083125319628763843 0.01526863342080674 0.013034557965653296 0.013739268545531445 0.009955599492262001 0.0082391919342081413 0.0095346788080634733 0.0058751853263382106 0.001700096350572949 0.0083125323122109872 0.0068436454482814265 0.0025759568415334184 0.0090973838878275169 0.010212001023788771 0.003751318184539549 0.013829690020503977 0.027589083128341185 0.025932972893278151 0.050002752707353014 0.030127336801358054 0.023792748102752996 0.047137975080166122 0.035932246012537201 0.030035645493171517 0.052124903416314698 0.069696022682842945 0.055196806188975822 0.050002746705504773 0.066631568123868362 0.055444061825430414 0.052378633104499299 0.062500339833778645 0.050787219091797398 0.047043024646762945 0.042389454092599706 0.028134710055594755 0.046572604892357358 0.042539084420493575 0.028836412527918704 0.045586312775022689 0.049113641211803206 0.033570974926172573 0.050950010602855665 0.047446757229446926 0.033965493255983061 0.050005268575940606 0.049113641211803206 0.033570974926172573 0.050950010602855665 0.042539084420493575 0.028836412527918704 0.045586312775022689 0.05888020717213318 0.05322440862390751 0.055309603011732891 0.063124565168694066 0.056179066974404973 0.05620578377161798 0.06370761977048145 0.058638888666235414 0.059446506629270777 0.068892583025511961 0.063348553463063645 0.06236987085733791 0.06370761977048145 0.058638888666235414 0.059446506629270777 0.063124565168694066 0.056179066974404973 0.05620578377161798 0.052893902184149286 0.043355030958281721 0.057416331601401811 0.048798648191096028 0.039020943160650787 0.054987180227014779 0.047011452076041793 0.036963080788540055 0.051673327689422344 0.092458245601210881 0.093029009820065886 0.091695743297922822 0.095356032489478423 0.095989822628932436 0.093812914375600492 0.096882834140087346 0.097387538605876331 0.096227161592378541 0.01364134573698267 0.0083319874668958075 0.015722592224156274 0.013903648559043282 0.0077046581218331222 0.016502800112261646 0.010395025359240273 0.0057932940964836995 0.012414130991331885 0.052184610825931559 0.044875130304036816 0.044291671309564011 0.059267053005030414 0.04985581293720219 0.047884160295338159 0.056279644893711969 0.048754751745381276 0.048469835881632922 0.099995357992674741 0.099999337283507586 0.099998333504203674 0.093274810033545749 0.094176477642949383 0.093731153187155539 0.095910003793894069 0.096524314613291987 0.095630515261163188 0.043268546291833548 0.038257527692284139 0.057727427508492288 0.038222389322635351 0.036524324645545135 0.057384966635572583 0.035932246012537201 0.030035645493171517 0.052124903416314698 0.076378340425051941 0.081746005397411725 0.085170694588846366 0.074908952028332448 0.077925209149011618 0.08115927174159461 0.081291346950596033 0.084698643909124974 0.085600442501980373 0.083513491793845721 0.087476602086635977 0.085169994073191202 0.082706409800728617 0.084936126493474401 0.081283038842260763 0.087036696223408511 0.089533173966107313 0.085600188223702606 0.027845811298840173 0.022358985362098519 0.027869724578273341 0.028514548173498248 0.022171844504096896 0.029127385505095471 0.023451905234884905 0.018317421157947638 0.02405192125859908 0.066622573386988487 0.054711085206610013 0.060849322117525792 0.063168015313866566 0.050360035948958826 0.056841377409635366 0.071409162173296195 0.057891542685962465 0.06196348039485141 0.018268062119998259 0.012647928415777412 0.020052611038190667 0.023073404099289947 0.016196642656872224 0.025118187291943091 0.02024324927355315 0.013462836019890546 0.02255209591572235 0.023998960836344261 0.016186566691024078 0.026576215966243558 0.02024324927355315 0.013462836019890546 0.02255209591572235 0.023073404099289947 0.016196642656872224 0.025118187291943091 0.02032063511722183 0.010110130983780699 0.026107276385236002 0.022013984873927174 0.01125652630911732 0.029212023827957019 0.017275871171737144 0.0075898585517409183 0.024015440458565712 0.068892583025511961 0.063348553463063645 0.06236987085733791 0.074109333660906176 0.068040224229292887 0.065292678956052938 0.074487654800950917 0.070896535552358836 0.068393265868068112 0.012198836863594785 0.0038069125675586051 0.019904124111370162 0.01356105908790217 0.0048951930876888622 0.019744074067992015 0.015880214935540277 0.0065697963614509769 0.024538603048124944 0.072948321125505283 0.067311916183265083 0.072501406120550463 0.073507373119060429 0.072946235054366509 0.076902403261546751 0.067552099734878773 0.065614112545126294 0.072864941650588155 0.072948321125505283 0.067311916183265083 0.072501406120550463 0.067552099734878773 0.065614112545126294 0.072864941650588155 0.063444528431865418 0.058767057573043832 0.068699212350734715 0.063145590390866188 0.063366511269751832 0.072501193852254217 0.063444528431865418 0.058767057573043832 0.068699212350734701 0.067552099734878773 0.065614112545126294 0.072864941650588155 0.081047807546535303 0.077214413135172688 0.07252702267868362 0.081970818243879778 0.081600075196356481 0.077144690707534241 0.076867957227436376 0.075628755309366344 0.072636091481405748 0.081047807546535303 0.077214413135172688 0.07252702267868362 0.076867957227436376 0.075628755309366344 0.072636091481405748 0.074487654800950917 0.070896535552358836 0.068393265868068112 0.032979489818810007 0.022123003244837972 0.036625734528352973 0.036214772134146471 0.025841857916383496 0.039780795458279436 0.039855628469163087 0.028263984926328697 0.043327415124949482 3.8734577280507511e-06 5.7836318147966999e-07 1.6667412599629847e-06 4.0968391249894212e-06 8.3638843648153e-07 1.6667428565914481e-06 0.0041081976399805721 0.0022458861418691318 0.0050088497700207218 4.557247793036238e-06 1.0622429158074703e-06 1.6667428717256782e-06 4.6565383332135991e-06 1.1796364448059389e-06 1.6667413919645268e-06 0.0047056638465184939 0.0035255620255314466 0.0050602862025566422 0.021824924782218522 0.017532935151976892 0.022036029712939602 0.023451905234884909 0.018317421157947638 0.024051921258599084 0.01831947202338001 0.01399339485397494 0.019197947138593366 0.053071592606574382 0.045288251457606267 0.050005306161729317 0.048815157209490312 0.042636048881090981 0.046051668923969932 0.052009418957009328 0.046472011103553493 0.049700008334699869 0.01356105908790217 0.0048951930876888622 0.019744074067992015 0.017275871171737144 0.0075898585517409183 0.024015440458565712 0.015880214935540277 0.0065697963614509769 0.024538603048124944 4.2677410011586431e-06 8.9727268268967421e-07 1.6667435488482176e-06 0.0060987662209299022 0.0041412190817480222 0.0068762888600065863 0.0038213991373220028 0.0024422601556660347 0.0044594831168748642 0.006759964256574936 0.00017472706303260342 0.015002229370271973 0.0081963998206168714 0.0011869747366214667 0.014619566190126687 0.0097730751896259287 0.0022330877191252462 0.018476360993277291 0.028160850010557237 0.021722278448996893 0.015002228559451025 0.029347985781420699 0.023680772849904764 0.018444176180063606 0.021998286221035959 0.01832196616510242 0.014620480219902619 0.070171810196093087 0.060366201675378123 0.0576704046157447 0.066631568123868362 0.055444061825430414 0.052378633104499299 0.073656981184940337 0.061462978800076715 0.057399251254118829 0.010376350635417987 0.0074417708853101519 0.011356322342318655 0.007165263837411796 0.0052060946870315962 0.0078379015606133071 0.0129227685605491 0.0096793881609032115 0.013775658035640206 0.082753509162382638 0.077538971356307149 0.077355445566156492 0.087591002379308849 0.080277127307117876 0.078146103792827215 0.086734369237637235 0.083179333963978988 0.081308256358337952 0.036530411396741604 0.027641026725662363 0.03824790002699513 0.031300463115122912 0.02315751836041726 0.033193467839950544 0.033841792208599945 0.025733729016441404 0.035028158023227167 0.065953094089305664 0.054529549521935089 0.064755997059483886 0.060837681039920551 0.053043704614021019 0.065007842292515564 0.056898172473205874 0.045693385511188706 0.060297173770162894 0.01364134573698267 0.0083319874668958075 0.015722592224156274 0.0086864849311389832 0.0050337371260690865 0.01024564404599496 0.010045815015770046 0.0063257901722978708 0.011551082415104795 0.086874833960437589 0.090549760404004365 0.090415814368644556 0.081291346950596033 0.084698643909124974 0.085600442501980373 0.086783893564605488 0.089578162710870407 0.088087980853184991 0.09088046636581841 0.093582132762643655 0.090415356133377436 0.087036696223408511 0.089533173966107313 0.085600188223702606 0.090905983128941478 0.09291345475969616 0.088088010174341549 0.007165263837411796 0.0052060946870315962 0.0078379015606133071 0.010580786447952132 0.0081167009100511691 0.011173058479432032 0.0129227685605491 0.0096793881609032115 0.013775658035640206 0.036530411396741604 0.027641026725662363 0.03824790002699513 0.038435584021780142 0.029651582391856862 0.039090665994134535 0.042366983180371444 0.032664710647698797 0.043511018940188648 0.091779011925572002 0.093820005770785905 0.090298546514105821 0.096050193112242957 0.097872818177306808 0.095385025384417399 0.093236599173777995 0.095831472991116343 0.09367626942397933 0.086874833960437589 0.090549760404004365 0.090415814368644556 0.093236599173777981 0.095831472991116343 0.093676269423979316 0.094267947523131265 0.096435709416752682 0.095390324337418744 0.094408483808753815 0.095827375642429186 0.090299011389067388 0.09730359620122131 0.098593142010673832 0.095385257093046141 0.095341846854124751 0.097209534199901776 0.093676270011825907 0.09088046636581841 0.093582132762643655 0.090415356133377436 0.095341846854124751 0.097209534199901776 0.093676270011825907 0.096023247975929607 0.097607118725092881 0.095390094606326192 0.031969964946742334 0.019637154833315545 0.039539399774569266 0.03373051501242267 0.022578390220979801 0.044006928879949059 0.028812338852223066 0.018194872593951996 0.039770318202156714 0.060391802889440092 0.052012043636487433 0.051079826370091938 0.066631568123868362 0.055444061825430414 0.052378633104499299 0.065303925890179859 0.056544985253260661 0.054982401520884551 0.070171810196093087 0.060366201675378123 0.0576704046157447 0.065303925890179859 0.056544985253260661 0.054982401520884551 0.066631568123868362 0.055444061825430414 0.052378633104499299 0.043268546291833548 0.038257527692284139 0.057727427508492288 0.035932246012537201 0.030035645493171517 0.052124903416314698 0.043207577245644488 0.03500289659199133 0.054786213635150939 0.039916691098344566 0.029377239124951226 0.050205688382466848 0.043207577245644488 0.03500289659199133 0.054786213635150939 0.035932246012537201 0.030035645493171517 0.052124903416314698 0.0084050860450887825 0.0065710807862012135 0.0087565952684602287 0.0093077999915409087 0.0075096537300568776 0.0093872779778749055 0.014035589810783513 0.011318491298242535 0.01422606078516774 0.059249663110002244 0.042271327992164355 0.055005713090347561 0.068519495182389686 0.049593718177683897 0.060005084837944866 0.056044168219378535 0.03985904314115598 0.055368308822801651 0.0058751853263382106 0.001700096350572949 0.0083125323122109872 0.0073118934481775193 0.0019023595048083756 0.010744619966252136 0.0041567618575550063 0.00056116357605668211 0.0065393947297387629 0.0091489965178021826 0.0076131406613997067 0.0083125319628763843 0.0077778788860283828 0.006445723136526053 0.0065393944817963776 0.01250949767791598 0.010611536790026604 0.010692370230108678 0.055709989038193984 0.043902849143915734 0.05229358580036049 0.054628326885864248 0.04362100584362337 0.053827576700932654 0.049997893981687608 0.039220453068704371 0.048862564649282521 0.01526863342080674 0.013034557965653296 0.013739268545531445 0.015327552865724164 0.012930417773372416 0.014379936486387924 0.009955599492262001 0.0082391919342081413 0.0095346788080634733 0.010212001023788771 0.003751318184539549 0.013829690020503977 0.0068436454482814265 0.0025759568415334184 0.0090973838878275169 0.011173693280519374 0.0048155829421556223 0.014337932241050493 0.019141807842625393 0.0091171653151017624 0.02727277877237768 0.021099652471214689 0.010920532985739854 0.030867174799049775 0.015880214935540277 0.0065697963614509769 0.024538603048124944 0.016034802565503815 0.0074670865530151401 0.027612637445586719 0.015880214935540277 0.0065697963614509769 0.024538603048124944 0.021099652471214689 0.010920532985739854 0.030867174799049775 0.091779011925572002 0.093820005770785905 0.090298546514105821 0.085433229908700212 0.086410652451569606 0.084724720917901161 0.089802901869507193 0.088917543829260814 0.085489984891092191 0.094408483808753815 0.095827375642429186 0.090299011389067388 0.090068290417670865 0.090710134298889911 0.084725024538246235 0.09315237167754023 0.092424701883868254 0.085490754884868458 0.099995357992674741 0.099999337283507586 0.099998333504203674 0.099993636508168629 0.099997786850175879 0.099998333327189423 0.095103302699796624 0.095982813228098748 0.095866035589543305 0.099997018839007246 0.099999052418071208 0.099998333320638108 0.099996553238882041 0.099999587080256691 0.099998333504592168 0.097617345411672968 0.098142447581795883 0.095870289161615746 0.030982980623787095 0.026752013135240626 0.028043222678241601 0.027073566765348375 0.023161268559100265 0.025198289547667493 0.024927670802748936 0.02144361152534453 0.022472653925254427 0.097062287076111572 0.089940985846564181 0.08499831528639501 0.094808438326794128 0.091876024608880599 0.087428563025465297 0.092682622555418981 0.08639204444504571 0.082499357506546731 0.071520156206205596 0.077392601712029316 0.084998320737247751 0.071865224579586384 0.075271374363996862 0.082456441278401932 0.080401433908728698 0.083143546453553457 0.087710656183191169 0.08501361359379532 0.085439290354409086 0.086956194013265958 0.083060543152712843 0.084260994611386919 0.087158724983314534 0.077400122060943141 0.077325245382142777 0.081723458128401316 0.055973945207282445 0.04640022260155794 0.04370158793082754 0.059267053005030414 0.04985581293720219 0.047884160295338159 0.052184610825931559 0.044875130304036816 0.044291671309564011 0.099996553238882041 0.099999587080256691 0.099998333504592168 0.096882834140087346 0.097387538605876331 0.096227161592378541 0.095356032489478409 0.095989822628932422 0.093812914375600479 0.023883099939939728 0.014129643539048843 0.035755202602464523 0.021099652471214689 0.010920532985739854 0.030867174799049775 0.026333454596222491 0.015326576447312655 0.03586771618685787 0.028514548173498248 0.022171844504096896 0.029127385505095471 0.024881143485861529 0.018824843000056317 0.025985526619353827 0.023451905234884905 0.018317421157947638 0.02405192125859908 0.060391802889440092 0.052012043636487433 0.051079826370091938 0.063124565168694066 0.056179066974404973 0.05620578377161798 0.057698380976621312 0.050929354774947366 0.0517329261708903 0.05888020717213318 0.05322440862390751 0.055309603011732891 0.057698380976621312 0.050929354774947366 0.0517329261708903 0.063124565168694066 0.056179066974404973 0.05620578377161798 0.03041028361218661 0.026240052343168563 0.026432605122244743 0.030982980623787095 0.026752013135240626 0.028043222678241601 0.024927670802748936 0.02144361152534453 0.022472653925254427 0.060391802889440092 0.052012043636487433 0.051079826370091938 0.056279644893711969 0.048754751745381276 0.048469835881632922 0.059267053005030414 0.04985581293720219 0.047884160295338159 0.025541164827727787 0.022017753197380353 0.021861390405439253 0.03041028361218661 0.026240052343168563 0.026432605122244743 0.024927670802748936 0.02144361152534453 0.022472653925254427 0.014499481431389624 0.0067607071707888331 0.018271930953600864 0.018775182956592029 0.010121124908093256 0.022492658255518216 0.017954297798706532 0.0087854470910381875 0.022558700310636684 0.060391802889440092 0.052012043636487433 0.051079826370091938 0.059267053005030414 0.04985581293720219 0.047884160295338159 0.066631568123868362 0.055444061825430414 0.052378633104499299 0.039916691098344566 0.029377239124951226 0.050205688382466848 0.035932246012537201 0.030035645493171517 0.052124903416314698 0.034084627038345409 0.025220220734229692 0.047404098278257895 2.8927440765705907e-06 -1.2631283762586472e-07 1.666733534942977e-06 0.0025523846276537363 0.00050957041295136363 0.003853053928995603 0.0041567618575550063 0.00056116357605668211 0.0065393947297387629 5.4136320628600287e-06 1.0258382168267066e-06 1.6667339753276861e-06 0.0077778788860283828 0.006445723136526053 0.0065393944817963776 0.0042571350991993627 0.0034730464283724625 0.0038530537662980332 0.025541164827727787 0.022017753197380353 0.021861390405439253 0.024927670802748936 0.02144361152534453 0.022472653925254427 0.02084361741291926 0.017943531377296582 0.018126864538429221 0.016486672174698371 0.0073068475494196729 0.021861392575771899 0.01309020743345498 0.0051048220913362894 0.017779800160800729 0.017954297798706532 0.0087854470910381875 0.022558700310636684 0.0095500317587379653 0.0042789986298632753 0.012156349486143761 0.0081678495088274745 0.0038772767522891076 0.010207911913406777 0.012480729896134269 0.0062110469304138593 0.015335108563574189 0.052009418957009328 0.046472011103553493 0.049700008334699869 0.054559827602832102 0.048639385728541366 0.050764299316119567 0.055222091888593228 0.050157057288803812 0.054253281076183373 0.01364134573698267 0.0083319874668958075 0.015722592224156274 0.013264137189401785 0.0087246443917431745 0.014937288513902674 0.016327136332520958 0.010623913239791383 0.018384388565571567 0.086874833960437589 0.090549760404004365 0.090415814368644556 0.076378340425051941 0.081746005397411725 0.085170694588846366 0.081291346950596033 0.084698643909124974 0.085600442501980373 0.09088046636581841 0.093582132762643655 0.090415356133377436 0.083513491793845721 0.087476602086635977 0.085169994073191202 0.087036696223408511 0.089533173966107313 0.085600188223702606 0.01944660696527872 0.016598276504008132 0.017936344686701008 0.01526863342080674 0.013034557965653296 0.013739268545531445 0.02084361741291926 0.017943531377296582 0.018126864538429221 0.014499481431389624 0.0067607071707888331 0.018271930953600864 0.01309020743345498 0.0051048220913362894 0.017779800160800729 0.010212001023788771 0.003751318184539549 0.013829690020503977 0.010907346776606871 0.0074777111307181955 0.012163219507305244 0.014660224729099402 0.010730641016088099 0.015803568455473576 0.015157147882261801 0.01061611451551104 0.01662104843502658 0.054559827602832102 0.048639385728541366 0.050764299316119567 0.05888020717213318 0.05322440862390751 0.055309603011732891 0.055222091888593228 0.050157057288803812 0.054253281076183373 0.052924811625687962 0.062840981095530268 0.0750008482195368 0.046406845584831685 0.054816430733239038 0.070001378641760342 0.05673121280253119 0.061005620257315749 0.072501133128898304 0.062089507902932703 0.068175996980242376 0.070002503401620952 0.069649006304861732 0.072713055257798934 0.072501553390915061 0.066800167063220686 0.074071137608084078 0.075000998032895339 0.081047807546535303 0.077214413135172688 0.07252702267868362 0.074487654800950903 0.070896535552358822 0.068393265868068098 0.077823876401377834 0.072157517714927691 0.068331934062166935 0.043746578030298008 0.034205877359310466 0.043253700751851927 0.048906075740026381 0.038644899721283342 0.04665929633166447 0.049997893981687608 0.039220453068704371 0.048862564649282521 0.012198836863594785 0.0038069125675586051 0.019904124111370162 0.0081963998206168696 0.0011869747366214664 0.014619566190126687 0.010216910594464213 0.0026539596551739086 0.016208876878168115 0.027707879977867163 0.023238827381474803 0.019925208524954476 0.021677787529265129 0.018415399291629515 0.016144289178272552 0.021998286221035959 0.01832196616510242 0.014620480219902619 0.027616057026844068 0.017378417695617047 0.031381523683032375 0.022772699610717546 0.013457425530305779 0.026442746251023868 0.024655776848710214 0.015794202930324394 0.027823681275719259 0.010907346776606871 0.0074777111307181955 0.012163219507305244 0.010376350635417987 0.0074417708853101519 0.011356322342318655 0.0146602247290994 0.010730641016088099 0.015803568455473576 0.066622573386988487 0.054711085206610013 0.060849322117525792 0.074002534657430535 0.062121334379178932 0.065484639066127032 0.068189345622158906 0.057871792962545819 0.063915615372357959 0.012198836863594785 0.0038069125675586051 0.019904124111370162 0.0097730751896259287 0.0022330877191252462 0.018476360993277291 0.0081963998206168714 0.0011869747366214667 0.014619566190126687 0.027707879977867163 0.023238827381474803 0.019925208524954476 0.021998286221035956 0.01832196616510242 0.014620480219902617 0.029347985781420702 0.023680772849904767 0.018444176180063606 0.036530411396741604 0.027641026725662363 0.03824790002699513 0.033841792208599945 0.025733729016441404 0.035028158023227167 0.038435584021780142 0.029651582391856862 0.039090665994134535 0.086304735822196554 0.087621385957280168 0.082709179784845474 0.081970818243879764 0.081600075196356467 0.077144690707534228 0.086148469465858593 0.085676296991676906 0.08007680737700372 0.080100762783888016 0.08195436821826256 0.082709175551303638 0.073507373119060429 0.072946235054366509 0.076902403261546751 0.079682175385903317 0.079111033367977979 0.080042073860618956 0.055973945207282445 0.04640022260155794 0.04370158793082754 0.052184610825931559 0.044875130304036816 0.044291671309564011 0.049563006911423457 0.041736592769096893 0.039826280708819377 0.046174173063440953 0.03996490940419644 0.039804342441005981 0.049563006911423457 0.041736592769096893 0.039826280708819377 0.052184610825931559 0.044875130304036816 0.044291671309564011 0.038406616396450266 0.032478822439399584 0.036579009957355427 0.040547109401969289 0.035139840300975243 0.037865956656532154 0.044351148545266977 0.037868355310402994 0.041918561563102349 0.045563423782165949 0.039981496111674397 0.042381452171564346 0.044351148545266977 0.037868355310402994 0.041918561563102349 0.040547109401969289 0.035139840300975243 0.037865956656532154 0.0037412057278235441 0.0014472199904650741 0.0049725770790265845 0.0081678495088274745 0.0038772767522891076 0.010207911913406777 0.0068436454482814265 0.0025759568415334184 0.0090973838878275169 0.0095500317587379653 0.0042789986298632753 0.012156349486143761 0.0068436454482814265 0.0025759568415334184 0.0090973838878275169 0.0081678495088274745 0.0038772767522891076 0.010207911913406777 0.012849078833335349 0.010663003201399648 0.012479659884711737 0.0093077999915409087 0.0075096537300568776 0.0093872779778749055 0.009955599492262001 0.0082391919342081413 0.0095346788080634733 0.0049776321738396025 0.0039634527677218116 0.0049725770819668558 0.009955599492262001 0.0082391919342081413 0.0095346788080634733 0.0093077999915409087 0.0075096537300568776 0.0093872779778749055 0.082753509162382638 0.077538971356307149 0.077355445566156492 0.085358764332876383 0.08295321366097419 0.081973219806125541 0.080456331632647635 0.07674858723314526 0.077973445517217521 0.043746578030298008 0.034205877359310466 0.043253700751851927 0.042366983180371444 0.032664710647698797 0.043511018940188648 0.038435584021780142 0.029651582391856862 0.039090665994134535 0.023998960836344261 0.016186566691024078 0.026576215966243558 0.021787603550671684 0.013918203977720056 0.024597800660473505 0.02024324927355315 0.013462836019890546 0.02255209591572235 0.072948321125505283 0.067311916183265083 0.072501406120550463 0.07809737164848729 0.075042117253507831 0.077094783648526177 0.073507373119060429 0.072946235054366509 0.076902403261546751 0.081047807546535303 0.077214413135172688 0.07252702267868362 0.084904988326750766 0.082540782812707242 0.076879034450102884 0.081970818243879778 0.081600075196356481 0.077144690707534241 0.072948321125505283 0.067311916183265083 0.072501406120550463 0.063444528431865418 0.058767057573043832 0.068699212350734715 0.067273274252469928 0.059300660089100843 0.068026323941564826 0.027616057026844068 0.017378417695617047 0.031381523683032375 0.025586130630067417 0.015021584154791028 0.029907321054545497 0.022772699610717546 0.013457425530305779 0.026442746251023868 0.027616057026844068 0.017378417695617047 0.031381523683032375 0.031231364358135685 0.019632129781277517 0.035418885827873774 0.025586130630067417 0.01502158415479103 0.029907321054545497 0.053670494724385426 0.045890400160532668 0.061346480396593857 0.060837681039920551 0.053043704614021019 0.065007842292515564 0.057182912561288046 0.053515325222381456 0.06641449529288615 0.063444528431865418 0.058767057573043832 0.068699212350734715 0.057182912561288046 0.053515325222381456 0.06641449529288615 0.060837681039920551 0.053043704614021019 0.065007842292515564 0.00477326848773061 0.00012757432382443234 0.0083431191637318488 0.0041567618575550072 0.00056116357605668222 0.0065393947297387629 0.0067344570821648271 0.0012409975588102832 0.010564558191706513 0.011375430360599799 0.009611385185114717 0.008343118868858022 0.013232405303263315 0.011218727020259785 0.01053608676438232 0.0077778788860283828 0.006445723136526053 0.0065393944817963776 0.05888020717213318 0.05322440862390751 0.055309603011732891 0.06370761977048145 0.058638888666235414 0.059446506629270777 0.060533803383664958 0.057300261097994055 0.059817841710619706 0.097062287076111572 0.089940985846564181 0.08499831528639501 0.098959776810219169 0.09487101893548415 0.089997261977407511 0.094808438326794128 0.091876024608880613 0.087428563025465297 0.071520156206205596 0.077392601712029316 0.084998320737247751 0.080401433908728698 0.083143546453553457 0.087710656183191169 0.079155026568145992 0.084061590546424508 0.089997265361592929 0.033795734927856952 0.026272284332200073 0.034261704711261248 0.038435584021780142 0.029651582391856862 0.039090665994134535 0.033841792208599945 0.025733729016441404 0.035028158023227167 0.023998960836344261 0.016186566691024078 0.026576215966243558 0.028606203803916527 0.019764118786921844 0.031506099007919695 0.024655776848710214 0.015794202930324394 0.027823681275719259 0.092458245601210881 0.093029009820065886 0.091695743297922822 0.086967328966782803 0.086908050989502938 0.086906800901911871 0.090446254072200805 0.090451176635623728 0.088593472636937537 0.085879524961875217 0.085036473353209699 0.084723572821480533 0.090446254072200805 0.090451176635623728 0.088593472636937537 0.086967328966782803 0.086908050989502938 0.086906800901911871 0.070242321625740636 0.064918103102833205 0.071527529407332785 0.075159468727233308 0.072489775078952517 0.077151932760023384 0.067130467346625852 0.063188161316243469 0.071810873092966257 0.086874833960437589 0.090549760404004365 0.090415814368644556 0.082303054036704709 0.087384803194014066 0.089897730364846912 0.076378340425051941 0.081746005397411725 0.085170694588846366 0.09088046636581841 0.093582132762643655 0.090415356133377436 0.087650876613204115 0.091374217667374372 0.089896609785088219 0.083513491793845721 0.087476602086635977 0.085169994073191202 0.09582532303277351 0.09550441979461341 0.091749087982028646 0.098559848008366757 0.098617254132633933 0.095778807653169873 0.097617345411672968 0.098142447581795883 0.095870289161615746 0.088399912306120917 0.089967833320090201 0.091749088786109767 0.095103302699796624 0.095982813228098748 0.095866035589543305 0.093328971184839918 0.094618496325241025 0.095778099796086869 0.091779011925572002 0.093820005770785905 0.090298546514105821 0.086783893564605488 0.089578162710870407 0.088087980853184991 0.085433229908700212 0.086410652451569606 0.084724720917901161 0.094408483808753815 0.095827375642429186 0.090299011389067388 0.090905983128941478 0.09291345475969616 0.088088010174341549 0.090068290417670865 0.090710134298889911 0.084725024538246235 0.010907346776606871 0.0074777111307181955 0.012163219507305244 0.015157147882261801 0.01061611451551104 0.01662104843502658 0.013264137189401785 0.0087246443917431762 0.014937288513902674 0.018268062119998259 0.012647928415777412 0.020052611038190667 0.013264137189401785 0.0087246443917431762 0.014937288513902674 0.015157147882261801 0.01061611451551104 0.01662104843502658 0.083555953024659374 0.080849375357682704 0.080185885845481447 0.085433229908700212 0.086410652451569606 0.084724720917901161 0.079682175385903317 0.079111033367977979 0.080042073860618956 0.088901295532398283 0.086839596989884832 0.08018621139707556 0.090068290417670865 0.090710134298889911 0.084725024538246235 0.086148469465858593 0.085676296991676906 0.08007680737700372 0.0058751853263382106 0.001700096350572949 0.0083125323122109872 0.0041567618575550072 0.000561163576056682 0.0065393947297387629 0.0025523846276537363 0.00050957041295136363 0.003853053928995603 0.0091489965178021826 0.0076131406613997067 0.0083125319628763843 0.0042571350991993627 0.0034730464283724625 0.0038530537662980332 0.0077778788860283828 0.006445723136526053 0.0065393944817963776 0.051613353178343292 0.037545954718992684 0.054786390590995916 0.060660343190194123 0.046269486533203737 0.059640675494793044 0.056898172473205874 0.045693385511188706 0.060297173770162894 0.00477326848773061 0.00012757432382443234 0.0083431191637318488 0.0024587854640600398 -9.8398959188389308e-05 0.0044328988079984383 0.0041567618575550063 0.00056116357605668211 0.0065393947297387629 0.011375430360599799 0.009611385185114717 0.008343118868858022 0.0077778788860283828 0.006445723136526053 0.0065393944817963776 0.0056812725359804061 0.0047006610902873124 0.0044328986679264973 0.068607953690154197 0.078012462097282756 0.084999768185464064 0.067519246920419801 0.074811543762079213 0.081486315908769577 0.076378340425051941 0.081746005397411725 0.085170694588846366 0.078023175408787351 0.084853749632400027 0.084998139471959319 0.077256466537123591 0.082617200148044287 0.081485610063176298 0.083513491793845721 0.087476602086635977 0.085169994073191202 0.042389454092599706 0.028134710055594755 0.046572604892357358 0.038062255225764743 0.025443609051666705 0.04568096090417547 0.036974179251656247 0.023713771306887826 0.042612601104877378 0.031969964946742334 0.019637154833315545 0.039539399774569266 0.036974179251656254 0.023713771306887826 0.042612601104877378 0.038062255225764743 0.025443609051666705 0.04568096090417547 0.068892583025511961 0.063348553463063645 0.06236987085733791 0.063124565168694052 0.056179066974404973 0.05620578377161798 0.067833518133299062 0.060023148690612621 0.058519118194967988 0.052893902184149286 0.043355030958281721 0.057416331601401811 0.057467209657289381 0.050148091274153143 0.063068737928735685 0.052729576694669412 0.044812196273325035 0.059914235108702196 0.053670494724385426 0.045890400160532668 0.061346480396593857 0.047626994877480518 0.040304483052775182 0.058330092886017051 0.048221151926335408 0.037637443324198487 0.055902419437427055 0.039916691098344566 0.029377239124951226 0.050205688382466848 0.048221151926335408 0.037637443324198487 0.055902419437427055 0.043207577245644488 0.03500289659199133 0.054786213635150939 0.060391802889440092 0.052012043636487433 0.051079826370091938 0.065303925890179859 0.056544985253260661 0.054982401520884551 0.063124565168694066 0.056179066974404973 0.05620578377161798 0.05888020717213318 0.05322440862390751 0.055309603011732891 0.060533803383664958 0.057300261097994055 0.059817841710619706 0.055222091888593228 0.050157057288803812 0.054253281076183373 0.09062299078163974 0.086853946540541668 0.083572961535136769 0.092682622555418981 0.08639204444504571 0.082499357506546731 0.094808438326794128 0.091876024608880613 0.087428563025465297 0.077111132557026368 0.078699850455315162 0.083757477939755146 0.080401433908728698 0.083143546453553457 0.087710656183191169 0.071865224579586384 0.075271374363996862 0.082456441278401932 0.048321862731273056 0.037903952661374883 0.049106102023224157 0.054628326885864248 0.04362100584362337 0.053827576700932654 0.052029290561023261 0.041530918143759095 0.053334042441767385 0.055709989038193984 0.043902849143915734 0.05229358580036049 0.060983249827742544 0.049495345624884501 0.057747852907964935 0.054628326885864248 0.04362100584362337 0.053827576700932654 0.037715499848625302 0.0282150061817735 0.040896566585832052 0.034741940755907794 0.02572570213098168 0.037276362594401112 0.040176705817246992 0.030606687548314422 0.042648158444440573 0.052009418957009328 0.046472011103553493 0.049700008334699869 0.048815157209490312 0.042636048881090981 0.046051668923969932 0.049834017732095948 0.044193780700412383 0.046433588525536966 0.091779011925572002 0.093820005770785905 0.090298546514105821 0.089802901869507193 0.088917543829260814 0.085489984891092191 0.094348806608811953 0.094584693934948477 0.089997280444902641 0.094408483808753815 0.095827375642429186 0.090299011389067388 0.09315237167754023 0.092424701883868254 0.085490754884868458 0.096229899011987863 0.096329651435571234 0.089998415951411226 0.036530411396741604 0.027641026725662363 0.03824790002699513 0.040176705817246992 0.030606687548314422 0.042648158444440573 0.034741940755907794 0.02572570213098168 0.037276362594401112 0.06276219046251659 0.060782132031397873 0.071408105186564846 0.067130467346625852 0.063188161316243469 0.071810873092966257 0.066993527942727116 0.066203834727112193 0.074995529635856623 0.085879524961875217 0.085036473353209699 0.084723572821480533 0.086967328966782803 0.086908050989502938 0.086906800901911871 0.08143412654109744 0.079812258964159374 0.081441972848464578 0.030565299117930871 0.021970923213700758 0.033125624935315755 0.031300463115122912 0.02315751836041726 0.033193467839950544 0.034741940755907794 0.02572570213098168 0.037276362594401112 0.0070661811719567747 0.0037251597997211873 0.0086200155030060188 0.010395025359240273 0.0057932940964836995 0.012414130991331885 0.0081678495088274745 0.0038772767522891076 0.010207911913406777 0.079928734182980243 0.065520919141860284 0.060002258330482734 0.084534913762283323 0.07111862035981005 0.065001860209525572 0.07691442511061701 0.066201738278603386 0.061942373251670339 0.014499481431389624 0.0067607071707888331 0.018271930953600864 0.011173693280519374 0.0048155829421556223 0.014337932241050493 0.012480729896134269 0.0062110469304138593 0.015335108563574189 0.02024324927355315 0.013462836019890546 0.02255209591572235 0.021787603550671684 0.013918203977720056 0.024597800660473505 0.017417925517623317 0.010787513540007027 0.01991684739726347 0.036530411396741604 0.027641026725662363 0.03824790002699513 0.042366983180371444 0.032664710647698797 0.043511018940188648 0.040176705817246992 0.030606687548314422 0.042648158444440573 0.040710120290913129 0.046790619602371367 0.065001855052122845 0.035754520644431222 0.039212328442923224 0.060002258162916856 0.044223266950251444 0.043861935404838806 0.062067644969712385 0.007165263837411796 0.0052060946870315962 0.0078379015606133071 0.0060987662209299022 0.0041412190817480222 0.0068762888600065863 0.0029610028268619178 0.0020852509294510741 0.0033568414641409984 0.019259580180706577 0.011323645741700906 0.022371152171776112 0.024655776848710214 0.015794202930324394 0.027823681275719259 0.022772699610717546 0.013457425530305779 0.026442746251023868 0.072372330843864435 0.0642173902530076 0.068802064457161596 0.074609873570324795 0.064786421070154365 0.068130836808304299 0.078172980848943807 0.07077414837560847 0.072624276646691341 0.081047807546535303 0.077214413135172688 0.07252702267868362 0.082936041028999125 0.075566319449335201 0.070104345395980025 0.087174588972824929 0.081790827075066297 0.075280495823704094 0.014499481431389624 0.0067607071707888331 0.018271930953600864 0.012480729896134269 0.0062110469304138593 0.015335108563574189 0.015826531961715743 0.0083695194906957988 0.019071069561184425 0.010907346776606871 0.0074777111307181955 0.012163219507305244 0.0074761635213697998 0.0048486838255663483 0.0085642845275921194 0.0060987662209299022 0.0041412190817480222 0.0068762888600065863 0.021463392054190969 0.011836848508917384 0.025679086653125221 0.022772699610717546 0.013457425530305779 0.026442746251023868 0.025586130630067417 0.01502158415479103 0.029907321054545497 0.074002534657430535 0.062121334379178932 0.065484639066127032 0.074609873570324795 0.064786421070154365 0.068130836808304299 0.068189345622158906 0.057871792962545819 0.063915615372357959 0.09062299078163974 0.086853946540541668 0.083572961535136769 0.091880745086570015 0.090317327404487321 0.086843732624653752 0.086734369237637235 0.083179333963978988 0.081308256358337952 0.019141807842625393 0.0091171653151017624 0.02727277877237768 0.017275871171737144 0.0075898585517409183 0.024015440458565712 0.022013984873927174 0.01125652630911732 0.029212023827957019 0.095364824111645444 0.089738072852149728 0.084998130721245013 0.089802901869507193 0.088917543829260814 0.085489984891092191 0.089210200252925906 0.084516976745859729 0.081864302500306116 0.097050015835899964 0.092957093610249647 0.084999771825353662 0.09315237167754023 0.092424701883868254 0.085490754884868458 0.092836021418068168 0.089362179931149241 0.081865056892044777 0.016327136332520958 0.010623913239791383 0.018384388565571567 0.017417925517623317 0.010787513540007027 0.01991684739726347 0.01364134573698267 0.0083319874668958075 0.015722592224156274 0.02024324927355315 0.013462836019890546 0.02255209591572235 0.017417925517623317 0.010787513540007027 0.01991684739726347 0.016327136332520958 0.010623913239791383 0.018384388565571567 0.069143650688783642 0.07381484013701313 0.079681183336244743 0.076378340425051941 0.081746005397411725 0.085170694588846366 0.067519246920419801 0.074811543762079213 0.081486315908769577 0.078468205941897504 0.081913234305652005 0.079680898161706259 0.083513491793845721 0.087476602086635977 0.085169994073191202 0.077256466537123591 0.082617200148044287 0.081485610063176298 0.018268062119998259 0.012647928415777412 0.020052611038190667 0.022473407536052717 0.016436001146261967 0.023977967156979724 0.023073404099289947 0.016196642656872224 0.025118187291943091 0.026669821829064855 0.019623328199767705 0.028310299229132831 0.023073404099289947 0.016196642656872224 0.025118187291943095 0.022473407536052717 0.016436001146261967 0.023977967156979724 0.018268062119998259 0.012647928415777412 0.020052611038190667 0.016327136332520958 0.010623913239791383 0.018384388565571567 0.013264137189401785 0.0087246443917431762 0.014937288513902674 0.027707879977867163 0.023238827381474803 0.019925208524954476 0.029120763044631182 0.024857586848304591 0.022988194490105324 0.023130487145719778 0.019872312370422796 0.018655031944655232 0.036999319706378986 0.032130527472588544 0.033761811255931057 0.042912970467725159 0.037551243136245339 0.038834900021079186 0.040547109401969289 0.035139840300975243 0.037865956656532154 0.045563423782165949 0.039981496111674397 0.042381452171564346 0.040547109401969289 0.035139840300975243 0.037865956656532154 0.042912970467725159 0.037551243136245339 0.038834900021079186 0.027707879977867163 0.023238827381474803 0.019925208524954476 0.023130487145719778 0.019872312370422796 0.018655031944655232 0.021677787529265129 0.018415399291629515 0.016144289178272552 0.051613353178343292 0.037545954718992684 0.054786390590995916 0.056044168219378535 0.03985904314115598 0.055368308822801651 0.060660343190194123 0.046269486533203737 0.059640675494793044 0.080100762783888016 0.08195436821826256 0.082709175551303638 0.086783893564605488 0.089578162710870407 0.088087980853184991 0.081291346950596033 0.084698643909124974 0.085600442501980373 0.086304735822196554 0.087621385957280168 0.082709179784845474 0.090905983128941478 0.09291345475969616 0.088088010174341549 0.087036696223408511 0.089533173966107313 0.085600188223702606 0.027845811298840173 0.022358985362098519 0.027869724578273341 0.021824924782218518 0.017532935151976892 0.022036029712939598 0.026359115751070472 0.02168679263391601 0.025968997990469551 4.2677410011586431e-06 8.9727268268967421e-07 1.6667435488482176e-06 0.0029610028268619178 0.0020852509294510741 0.0033568414641409984 0.0060987662209299022 0.0041412190817480222 0.0068762888600065863 0.027616057026844068 0.017378417695617047 0.031381523683032375 0.032979489818810007 0.022123003244837972 0.036625734528352973 0.031231364358135685 0.019632129781277517 0.035418885827873774 0.072219982176631892 0.070843244263305266 0.077294387051828076 0.067130467346625852 0.063188161316243469 0.071810873092966257 0.075159468727233308 0.072489775078952517 0.077151932760023384 0.070242321625740636 0.064918103102833205 0.071527529407332785 0.070069841078505793 0.06321011860943436 0.069388046464978342 0.074529219759021492 0.069681680542653557 0.073948789426586781 0.0146602247290994 0.010730641016088099 0.015803568455473576 0.01831947202338001 0.01399339485397494 0.019197947138593366 0.018283799540102313 0.013355434042660824 0.019607321631139225 0.070171810196093087 0.060366201675378123 0.0576704046157447 0.07691442511061701 0.066201738278603386 0.061942373251670339 0.071932460200339124 0.064383798179864477 0.061958323457040186 0.077577353601986199 0.069445055960935476 0.065410025780983552 0.071932460200339124 0.064383798179864477 0.061958323457040186 0.07691442511061701 0.066201738278603386 0.061942373251670339 4.159563636639851e-06 8.0105201257252178e-07 1.6667433560148235e-06 4.2677410011588515e-06 8.9727268268980751e-07 1.6667435488484609e-06 0.0038213991373220028 0.0024422601556660347 0.0044594831168748642 0.051541613351651173 0.050469291018537366 0.065509357467261081 0.044223266950251444 0.043861935404838806 0.062067644969712385 0.049672826026893602 0.045232581043271977 0.061887928932996203 0.043268546291833548 0.038257527692284139 0.057727427508492288 0.049672826026893602 0.045232581043271977 0.061887928932996203 0.044223266950251444 0.043861935404838806 0.062067644969712385 0.09582532303277351 0.09550441979461341 0.091749087982028646 0.091880745086570015 0.090317327404487321 0.086843732624653752 0.094808438326794128 0.091876024608880613 0.087428563025465297 0.088399912306120917 0.089967833320090201 0.091749088786109767 0.080401433908728698 0.083143546453553457 0.087710656183191169 0.083060543152712843 0.084260994611386919 0.087158724983314534 0.028016470127687581 0.01645142845368338 0.033126128592821866 0.025586130630067417 0.01502158415479103 0.029907321054545497 0.031231364358135685 0.019632129781277517 0.035418885827873774 0.089790762053598372 0.088848655556489256 0.08641049712035373 0.087313427550096037 0.086205518673650214 0.084925344887466114 0.085358764332876383 0.08295321366097419 0.081973219806125541 0.039848988022568789 0.029517941111777 0.043850182083710158 0.043263878353293948 0.032946728094698757 0.047917965406240749 0.039855628469163087 0.028263984926328697 0.043327415124949482 0.014499481431389624 0.0067607071707888331 0.018271930953600864 0.015826531961715743 0.0083695194906957988 0.019071069561184425 0.018775182956592029 0.010121124908093256 0.022492658255518216 0.031969964946742334 0.019637154833315545 0.039539399774569266 0.033519328753238917 0.020858210258074775 0.038590120696519938 0.036974179251656247 0.023713771306887826 0.042612601104877378 0.068519495182389686 0.049593718177683897 0.060005084837944866 0.068744379536686592 0.053459878086332423 0.063225718378686069 0.060660343190194123 0.046269486533203737 0.059640675494793044 0.027845811298840173 0.022358985362098519 0.027869724578273341 0.023451905234884905 0.018317421157947638 0.02405192125859908 0.021824924782218522 0.017532935151976892 0.022036029712939602 0.080100762783888016 0.08195436821826256 0.082709175551303638 0.085433229908700212 0.086410652451569606 0.084724720917901161 0.086783893564605488 0.089578162710870407 0.088087980853184991 0.086304735822196554 0.087621385957280168 0.082709179784845474 0.090068290417670865 0.090710134298889911 0.084725024538246235 0.090905983128941478 0.09291345475969616 0.088088010174341549 0.015929236239798496 0.012429575288462542 0.016505212621753945 0.018253021340395761 0.014739732085914227 0.018437132575001992 0.021824924782218522 0.017532935151976892 0.022036029712939602 0.04661966125858872 0.037980802372699789 0.04409828183090083 0.053105199418825126 0.042358802279864709 0.049082290995883834 0.048906075740026381 0.038644899721283342 0.04665929633166447 0.083555953024659374 0.080849375357682704 0.080185885845481447 0.089210200252925906 0.084516976745859729 0.081864302500306116 0.089802901869507193 0.088917543829260814 0.085489984891092191 0.088901295532398283 0.086839596989884832 0.08018621139707556 0.092836021418068154 0.089362179931149227 0.081865056892044763 0.09315237167754023 0.092424701883868254 0.085490754884868458 0.047411060302950177 0.036778081598919807 0.030002695370748896 0.053186335663250275 0.041372363890911361 0.035002799112550456 0.046359681369471398 0.037374445233414336 0.03254421815287821 0.01760699310207791 0.01159806751857095 0.035002804755497545 0.01456210671960821 0.007962887023443813 0.030002699041210945 0.019161827808195468 0.010738253705422755 0.03254760523668853 0.042389454092599706 0.028134710055594755 0.046572604892357358 0.046945661152010584 0.03251404637457786 0.050735074406912842 0.04442325139362726 0.031325571818049208 0.050631245643672385 0.025541164827727787 0.022017753197380353 0.021861390405439253 0.030855451318671474 0.026475243803846481 0.025559896701792553 0.03041028361218661 0.026240052343168563 0.026432605122244743 0.10000089749025794 0.10000066615146032 0.09999833166187487 0.099998078576210098 0.099999710466816272 0.099998333538134213 0.098559848008366757 0.098617254132633933 0.095778807653169873 0.10000089749025794 0.10000066615146032 0.09999833166187487 0.098559848008366757 0.098617254132633933 0.095778807653169873 0.099690250003355005 0.098429887242812542 0.094996916942126128 0.099984064520948907 0.099993788945363038 0.099998331668816234 0.08824921969816836 0.09090412388286627 0.094996917249852805 0.093328971184839918 0.094618496325241025 0.095778099796086869 0.099984064520948907 0.099993788945363038 0.099998331668816234 0.093328971184839918 0.094618496325241025 0.095778099796086869 0.099994595440461492 0.099999809271938994 0.099998333536419057 0.09582532303277351 0.09550441979461341 0.091749087982028646 0.093548631929209689 0.093590331950631378 0.090593155341268966 0.091880745086570015 0.090317327404487321 0.086843732624653752 0.088399912306120917 0.089967833320090201 0.091749088786109767 0.083060543152712843 0.084260994611386919 0.087158724983314534 0.089452426481111486 0.090435246862318713 0.091141928513014267 0.058904107142104603 0.06361924705380595 0.075001293466106275 0.065979872507921158 0.068394423672232169 0.077505536672798706 0.064775412674847793 0.070491807614581056 0.079999732175450589 0.090323782911419376 0.077433659102242869 0.075001287005323755 0.094228131654426325 0.083885691672089313 0.079999748188972306 0.087591002379308849 0.080277127307117876 0.078146103792827215 0.045561968037210979 0.03736240989149138 0.055006055484894706 0.048749901196110924 0.040731557734364245 0.057489886946729046 0.046880840779689716 0.043214260137348311 0.060005464271790945 0.091779011925572002 0.093820005770785905 0.090298546514105821 0.09664363728569754 0.097993584105317944 0.094397597809647599 0.096050193112242957 0.097872818177306808 0.095385025384417399 0.086874833960437589 0.090549760404004365 0.090415814368644556 0.094267947523131265 0.096435709416752682 0.095390324337418744 0.091069841764807813 0.093857887648632024 0.09439833667978309 0.094408483808753815 0.095827375642429186 0.090299011389067388 0.097746213763779427 0.098667895637706976 0.094398339536657883 0.09730359620122131 0.098593142010673832 0.095385257093046141 0.09088046636581841 0.093582132762643655 0.090415356133377436 0.096023247975929607 0.097607118725092881 0.095390094606326192 0.093775098029333981 0.095824682380392989 0.094397596585404017 0.021232215881128069 0.016067266154738694 0.022280941291196694 0.018283799540102313 0.013355434042660824 0.019607321631139225 0.01831947202338001 0.01399339485397494 0.019197947138593366 0.091779011925572002 0.093820005770785905 0.090298546514105821 0.094348806608811953 0.094584693934948477 0.089997280444902641 0.09664363728569754 0.097993584105317944 0.094397597809647599 0.094408483808753815 0.095827375642429186 0.090299011389067388 0.096229899011987863 0.096329651435571234 0.089998415951411226 0.097746213763779427 0.098667895637706976 0.094398339536657883 0.048321862731273056 0.037903952661374883 0.049106102023224157 0.04567537494349859 0.035565915892706274 0.047797539503091881 0.042366983180371444 0.032664710647698797 0.043511018940188648 0.086874833960437589 0.090549760404004365 0.090415814368644556 0.091069841764807813 0.093857887648632024 0.09439833667978309 0.082303054036704709 0.087384803194014066 0.089897730364846912 0.09088046636581841 0.093582132762643655 0.090415356133377436 0.093775098029333981 0.095824682380392989 0.094397596585404017 0.087650876613204115 0.091374217667374372 0.089896609785088219 0.065565799008895642 0.064541782507310547 0.065397782825411213 0.0600265766634588 0.059964913097195816 0.062661290720422674 0.060533803383664958 0.057300261097994055 0.059817841710619706 0.066622573386988487 0.054711085206610013 0.060849322117525792 0.068189345622158906 0.057871792962545819 0.063915615372357959 0.060983249827742544 0.049495345624884501 0.057747852907964935 0.063237546259823696 0.053017371960505426 0.061212841772838471 0.060983249827742544 0.049495345624884501 0.057747852907964935 0.068189345622158906 0.057871792962545819 0.063915615372357959 0.021463392054190969 0.011836848508917384 0.025679086653125221 0.017954297798706532 0.0087854470910381875 0.022558700310636684 0.018775182956592029 0.010121124908093256 0.022492658255518216 0.053670494724385426 0.045890400160532668 0.061346480396593857 0.056898172473205874 0.045693385511188706 0.060297173770162894 0.060837681039920551 0.053043704614021019 0.065007842292515564 0.084534913762283323 0.07111862035981005 0.065001860209525572 0.081894841437318913 0.071687831568215191 0.066371557841273465 0.07691442511061701 0.066201738278603386 0.061942373251670339 0.036537950651491839 0.024169013775699046 0.040329794540940676 0.033519328753238917 0.020858210258074775 0.038590120696519938 0.031231364358135685 0.019632129781277517 0.035418885827873774 0.028016470127687581 0.01645142845368338 0.033126128592821866 0.031231364358135685 0.019632129781277517 0.035418885827873774 0.033519328753238917 0.020858210258074775 0.038590120696519938 0.023998960836344261 0.016186566691024078 0.026576215966243558 0.026785760517758557 0.018930231440107016 0.029113534245823032 0.028606203803916527 0.019764118786921844 0.031506099007919695 0.078232530796665326 0.075099669543373326 0.077847421907703551 0.08143412654109744 0.079812258964159374 0.081441972848464578 0.075159468727233308 0.072489775078952517 0.077151932760023384 0.081228996222204281 0.080506370672350502 0.082862096139365529 0.075159468727233308 0.072489775078952517 0.077151932760023384 0.08143412654109744 0.079812258964159374 0.081441972848464578 0.027589083128341185 0.025932972893278151 0.050002752707353014 0.024056920087861571 0.020473763087361728 0.045002851892142592 0.030127336801358054 0.023792748102752996 0.047137975080166122 0.064303089517973866 0.050481328289179998 0.045002845670448925 0.069696022682842945 0.055196806188975822 0.050002746705504773 0.062500339833778645 0.050787219091797398 0.047043024646762945 3.732101679834901e-06 5.208992984640531e-07 1.6667406108998171e-06 3.8734577280507511e-06 5.7836318147966999e-07 1.6667412599629847e-06 0.0036978249746259968 0.0017443420280210255 0.0046653424219785244 4.6565383332135991e-06 1.1796364448059389e-06 1.6667413919645268e-06 4.8305818371533299e-06 1.2185057124052655e-06 1.6667401759419788e-06 0.0044725907790115803 0.0034687278484536528 0.0046407864833580836 0.027616057026844068 0.017378417695617047 0.031381523683032375 0.024655776848710214 0.015794202930324394 0.027823681275719259 0.028923807164706085 0.019254503555227981 0.032266295721536969 0.030565299117930871 0.021970923213700758 0.033125624935315755 0.028606203803916527 0.019764118786921844 0.031506099007919695 0.026785760517758557 0.018930231440107016 0.029113534245823032 0.023998960836344261 0.016186566691024078 0.026576215966243558 0.024655776848710214 0.015794202930324391 0.027823681275719259 0.021787603550671684 0.013918203977720056 0.024597800660473505 0.0098247407606958919 0.0028275777787892154 0.01447692652219449 0.010216910594464213 0.0026539596551739086 0.016208876878168115 0.0074605076093111327 0.0011524309533828153 0.012413658980891929 0.01752268486198464 0.015041851206575828 0.014334571238715057 0.016923104500353257 0.014412797488941101 0.012374575544697732 0.021677787529265129 0.018415399291629515 0.016144289178272552 0.065953094089305664 0.054529549521935089 0.064755997059483886 0.060660343190194123 0.046269486533203737 0.059640675494793044 0.068744379536686592 0.053459878086332423 0.063225718378686069 0.0098247407606958919 0.0028275777787892154 0.01447692652219449 0.0074605076093111318 0.0011524309533828148 0.012413658980891928 0.0067344570821648271 0.0012409975588102832 0.010564558191706513 0.01752268486198464 0.015041851206575828 0.014334571238715057 0.013232405303263315 0.011218727020259785 0.01053608676438232 0.016923104500353257 0.014412797488941101 0.012374575544697732 0.082753509162382638 0.077538971356307149 0.077355445566156492 0.086734369237637235 0.083179333963978988 0.081308256358337952 0.085358764332876383 0.08295321366097419 0.081973219806125541 0.051613353178343292 0.037545954718992684 0.054786390590995916 0.049113641211803206 0.033570974926172573 0.050950010602855665 0.056044168219378535 0.03985904314115598 0.055368308822801651 0.019259580180706577 0.011323645741700906 0.022371152171776112 0.021787603550671684 0.013918203977720056 0.024597800660473505 0.024655776848710214 0.015794202930324394 0.027823681275719259 0.072219982176631892 0.070843244263305266 0.077294387051828076 0.066993527942727116 0.066203834727112193 0.074995529635856623 0.067130467346625852 0.063188161316243469 0.071810873092966257 3.3378847996914705e-06 2.2904130180334934e-07 1.666736714008852e-06 3.5176934526605859e-06 3.0635246103937668e-07 1.6667375803485503e-06 0.0031355013009627258 0.00092500602165839017 0.0044100106686950791 5.0181215434326985e-06 1.279584889652531e-06 1.6667378686926282e-06 5.3910206432464088e-06 1.5238517072893449e-06 1.6667357312215213e-06 0.0046194004067528971 0.0037272598315502242 0.0044100104777006341 0.035032613361036753 0.027043692305003204 0.020002401956758377 0.041385437043022576 0.032034610704121266 0.025002559154442321 0.034328746591128237 0.02777804115092437 0.022670564658777242 0.011674748809617176 0.0048626560749845628 0.025002562149333732 0.0090652146118385922 0.0022577385156178709 0.020002403475149279 0.012657179012285967 0.0045090997475746445 0.022853482833125053 0.052479292221772715 0.046229604285983897 0.047360649642137174 0.052184610825931559 0.044875130304036816 0.044291671309564011 0.056279644893711969 0.048754751745381276 0.048469835881632922 0.05476491980136601 0.055878759239269812 0.060005090056350546 0.0563329205378542 0.053958794887458063 0.057947749176163951 0.0600265766634588 0.059964913097195816 0.062661290720422674 0.043746578030298008 0.034205877359310466 0.043253700751851927 0.043640048439819966 0.034822683272868395 0.042164785209438609 0.048906075740026381 0.038644899721283342 0.04665929633166447 0.029934729280526286 0.022707311473184156 0.031072037072613377 0.031300463115122912 0.02315751836041726 0.033193467839950544 0.026669821829064855 0.019623328199767705 0.028310299229132831 0.033841792208599945 0.025733729016441404 0.035028158023227167 0.031300463115122912 0.02315751836041726 0.033193467839950544 0.029934729280526286 0.022707311473184156 0.031072037072613377 0.032565056825558769 0.02282013561861481 0.035868157826890484 0.032979489818810007 0.022123003244837972 0.036625734528352973 0.028923807164706085 0.019254503555227981 0.032266295721536969 0.027616057026844068 0.017378417695617047 0.031381523683032375 0.028923807164706085 0.019254503555227981 0.032266295721536969 0.032979489818810007 0.022123003244837972 0.036625734528352973 0.08501361359379532 0.085439290354409086 0.086956194013265958 0.090756865191134836 0.091401557792241836 0.090899185519775133 0.089452426481111486 0.090435246862318713 0.091141928513014267 0.079527767363406221 0.063671828151579651 0.06500432108576544 0.074002534657430535 0.062121334379178932 0.065484639066127018 0.071409162173296195 0.057891542685962465 0.06196348039485141 0.04661966125858872 0.037980802372699789 0.04409828183090083 0.049153359544785905 0.041414520649898492 0.04623121792369634 0.053105199418825126 0.042358802279864709 0.049082290995883834 0.053071592606574382 0.045288251457606267 0.050005306161729317 0.053105199418825133 0.042358802279864709 0.049082290995883841 0.049153359544785905 0.041414520649898492 0.04623121792369634 0.028160850010557237 0.021722278448996893 0.015002228559451025 0.035032613361036753 0.027043692305003208 0.020002401956758377 0.029347985781420702 0.023680772849904767 0.018444176180063606 0.0090652146118385922 0.0022577385156178709 0.020002403475149279 0.006759964256574936 0.00017472706303260342 0.015002229370271973 0.0097730751896259287 0.0022330877191252462 0.018476360993277291 0.099995638592160568 0.099998682030106534 0.099998333545552015 0.099995357992674741 0.099999337283507586 0.099998333504203674 0.095910003793894069 0.096524314613291987 0.095630515261163188 0.033519328753238917 0.020858210258074775 0.038590120696519938 0.03842442616281784 0.025067980544900285 0.042679906814896737 0.036974179251656247 0.023713771306887826 0.042612601104877378 0.018268062119998259 0.012647928415777412 0.020052611038190667 0.02024324927355315 0.013462836019890545 0.02255209591572235 0.016327136332520958 0.010623913239791383 0.018384388565571567 0.0041567618575550063 0.00056116357605668211 0.0065393947297387629 0.0073118934481775193 0.0019023595048083758 0.010744619966252136 0.0067344570821648271 0.0012409975588102832 0.010564558191706513 0.0077778788860283828 0.006445723136526053 0.0065393944817963776 0.013232405303263316 0.011218727020259785 0.01053608676438232 0.01250949767791598 0.010611536790026604 0.010692370230108678 0.015929236239798496 0.012429575288462542 0.016505212621753945 0.014035589810783513 0.011318491298242535 0.01422606078516774 0.018253021340395761 0.014739732085914227 0.018437132575001992 0.043746578030298008 0.034205877359310466 0.043253700751851927 0.046033516962040395 0.035875524904059104 0.04611556914383512 0.042366983180371444 0.032664710647698797 0.043511018940188648 0.077111132557026368 0.078699850455315162 0.083757477939755146 0.077400122060943141 0.077325245382142777 0.081723458128401316 0.083060543152712843 0.084260994611386919 0.087158724983314534 0.020008473656407347 0.016562183391049146 0.019672716185972699 0.018253021340395758 0.014739732085914227 0.018437132575001989 0.014035589810783513 0.011318491298242535 0.01422606078516774 0.052924811625687962 0.062840981095530268 0.0750008482195368 0.05673121280253119 0.061005620257315749 0.072501133128898304 0.061606807295173767 0.068107394047241435 0.077076606548752938 0.066800167063220686 0.074071137608084078 0.075000998032895339 0.069649006304861732 0.072713055257798934 0.072501553390915061 0.073076319760295383 0.077856958481918218 0.077076461617188438 0.062089507902932703 0.068175996980242376 0.070002503401620952 0.064720232928744972 0.06678804203058189 0.067936377798707939 0.069649006304861732 0.072713055257798934 0.072501553390915061 0.056762614156909079 0.046578988265508298 0.057614866687024223 0.052029290561023261 0.041530918143759095 0.053334042441767385 0.054628326885864248 0.04362100584362337 0.053827576700932654 0.079527767363406221 0.063671828151579651 0.06500432108576544 0.079938088382707204 0.067684616284549567 0.068889949387266045 0.074002534657430535 0.062121334379178932 0.065484639066127032 0.027845811298840173 0.022358985362098519 0.027869724578273341 0.034048903161399677 0.02784364168827522 0.033280821091897624 0.031758005214611446 0.02524968847540629 0.03178207249684175 0.048321862731273056 0.037903952661374883 0.049106102023224157 0.042366983180371444 0.032664710647698797 0.043511018940188648 0.046033516962040395 0.035875524904059104 0.04611556914383512 0.099347908327161075 0.099317772724068179 0.094996824769281479 0.098921000601867273 0.099700960598348071 0.097164421709647023 0.09664363728569754 0.097993584105317944 0.094397597809647599 0.099611526512966009 0.099552717459199705 0.094998790570549788 0.099285888279732268 0.099816306263284207 0.097165107970836412 0.097746213763779427 0.098667895637706976 0.094398339536657883 0.091227255187725759 0.094120282522749135 0.094996823945180373 0.093775098029333981 0.095824682380392989 0.094397596585404017 0.096413409069154077 0.097892458563830761 0.097164420962657705 0.087385666474934232 0.091435150329136128 0.094998787928413042 0.091069841764807813 0.093857887648632024 0.09439833667978309 0.09484838818880223 0.096904679123862705 0.097165106219708974 0.033795734927856952 0.026272284332200073 0.034261704711261248 0.028514548173498248 0.022171844504096896 0.029127385505095471 0.031758005214611446 0.02524968847540629 0.03178207249684175 0.027845811298840173 0.022358985362098519 0.027869724578273341 0.031758005214611446 0.02524968847540629 0.03178207249684175 0.028514548173498248 0.022171844504096896 0.029127385505095471 0.038406616396450266 0.032478822439399584 0.036579009957355427 0.034048903161399677 0.02784364168827522 0.033280821091897624 0.034049151865643869 0.028544939863414581 0.032755866339871674 0.023883099939939728 0.014129643539048843 0.035755202602464523 0.019161827808195468 0.010738253705422755 0.03254760523668853 0.021099652471214689 0.010920532985739854 0.030867174799049775 0.016034802565503815 0.0074670865530151401 0.027612637445586719 0.021099652471214689 0.010920532985739853 0.030867174799049775 0.019161827808195468 0.010738253705422755 0.03254760523668853 0.028016470127687581 0.01645142845368338 0.033126128592821866 0.024758902265560389 0.013555501133359049 0.030860158976125256 0.022944252670368447 0.012460570932426205 0.027932099747584725 0.036999319706378986 0.032130527472588544 0.033761811255931057 0.031110499255557852 0.026641159318472111 0.029135839027086809 0.030982980623787095 0.026752013135240626 0.028043222678241601 0.04661966125858872 0.037980802372699789 0.04409828183090083 0.044351148545266977 0.037868355310402994 0.041918561563102349 0.049153359544785905 0.041414520649898492 0.04623121792369634 0.01752268486198464 0.015041851206575828 0.014334571238715057 0.015268633420806739 0.013034557965653294 0.013739268545531444 0.01250949767791598 0.010611536790026604 0.010692370230108678 0.0091489965178021826 0.0076131406613997067 0.0083125319628763843 0.01250949767791598 0.010611536790026604 0.010692370230108678 0.01526863342080674 0.013034557965653296 0.013739268545531445 0.0058751853263382106 0.001700096350572949 0.0083125323122109872 0.010212001023788771 0.003751318184539549 0.013829690020503977 0.0073118934481775193 0.0019023595048083756 0.010744619966252136 0.0098247407606958919 0.0028275777787892154 0.01447692652219449 0.0073118934481775193 0.0019023595048083752 0.010744619966252134 0.010212001023788771 0.003751318184539549 0.013829690020503977 0.077577353601986199 0.069445055960935476 0.065410025780983552 0.082936041028999125 0.075566319449335201 0.070104345395980039 0.077823876401377834 0.072157517714927691 0.068331934062166935 0.081047807546535303 0.077214413135172688 0.07252702267868362 0.077823876401377834 0.072157517714927691 0.068331934062166935 0.082936041028999125 0.075566319449335201 0.070104345395980039 0.0037412057278235441 0.0014472199904650741 0.0049725770790265845 0.0036978249746259968 0.0017443420280210255 0.0046653424219785244 0.0081678495088274745 0.0038772767522891076 0.010207911913406777 0.0070661811719567747 0.0037251597997211873 0.0086200155030060188 0.0081678495088274745 0.0038772767522891076 0.010207911913406777 0.0036978249746259968 0.0017443420280210255 0.0046653424219785244 0.0084050860450887825 0.0065710807862012135 0.0087565952684602287 0.0044725907790115803 0.0034687278484536528 0.0046407864833580836 0.0093077999915409087 0.0075096537300568776 0.0093872779778749055 0.0049776321738396025 0.0039634527677218116 0.0049725770819668558 0.0093077999915409087 0.0075096537300568776 0.0093872779778749055 0.0044725907790115803 0.0034687278484536528 0.0046407864833580836 0.080100762783888016 0.08195436821826256 0.082709175551303638 0.079682175385903317 0.079111033367977979 0.080042073860618956 0.085433229908700212 0.086410652451569606 0.084724720917901161 0.086304735822196554 0.087621385957280168 0.082709179784845474 0.086148469465858593 0.085676296991676906 0.08007680737700372 0.090068290417670865 0.090710134298889911 0.084725024538246235 0.01944660696527872 0.016598276504008132 0.017936344686701008 0.015327552865724164 0.012930417773372416 0.014379936486387924 0.01526863342080674 0.013034557965653296 0.013739268545531445 0.014499481431389624 0.0067607071707888331 0.018271930953600864 0.010212001023788771 0.003751318184539549 0.013829690020503977 0.011173693280519374 0.0048155829421556223 0.014337932241050493 0.036999319706378986 0.032130527472588544 0.033761811255931057 0.040547109401969289 0.035139840300975243 0.037865956656532154 0.035395010925371499 0.030290942144220106 0.033405729411706789 0.01752268486198464 0.015041851206575828 0.014334571238715057 0.02084361741291926 0.017943531377296582 0.018126864538429221 0.01526863342080674 0.013034557965653296 0.013739268545531445 0.0098247407606958919 0.0028275777787892154 0.01447692652219449 0.010212001023788771 0.003751318184539549 0.013829690020503977 0.01309020743345498 0.0051048220913362894 0.017779800160800729 0.053071592606574382 0.045288251457606267 0.050005306161729317 0.058395469795178595 0.046128824486063674 0.052757043250370707 0.053105199418825126 0.042358802279864709 0.049082290995883834 0.027845811298840173 0.022358985362098519 0.027869724578273341 0.030281464440493112 0.024967176428171409 0.029647613848429698 0.034048903161399677 0.02784364168827522 0.033280821091897624 2.8927440765705907e-06 -1.2631283762586472e-07 1.666733534942977e-06 3.3378847996914705e-06 2.2904130180334934e-07 1.666736714008852e-06 0.0025523846276537363 0.00050957041295136363 0.003853053928995603 5.3910206432464088e-06 1.5238517072893449e-06 1.6667357312215213e-06 5.4136320628600287e-06 1.0258382168267066e-06 1.6667339753276861e-06 0.0042571350991993627 0.0034730464283724625 0.0038530537662980332 0.036537950651491839 0.024169013775699046 0.040329794540940676 0.031231364358135685 0.019632129781277517 0.035418885827873774 0.032979489818810007 0.022123003244837972 0.036625734528352973 0.092458245601210881 0.093029009820065886 0.091695743297922822 0.096882834140087346 0.097387538605876331 0.096227161592378541 0.095910003793894069 0.096524314613291987 0.095630515261163188 0.036999319706378986 0.032130527472588544 0.033761811255931057 0.035664782706434306 0.030880337964181433 0.031258154139836056 0.040935342208900681 0.035513105983037682 0.035724429204271421 0.060533803383664958 0.057300261097994055 0.059817841710619706 0.0600265766634588 0.059964913097195816 0.062661290720422674 0.0563329205378542 0.053958794887458063 0.057947749176163951 0.033795734927856952 0.026272284332200073 0.034261704711261248 0.029934729280526286 0.022707311473184156 0.031072037072613377 0.028514548173498248 0.022171844504096896 0.029127385505095471 0.03910659525977235 0.03157369269831075 0.038086785519350526 0.035550893441402102 0.028342915406457642 0.035224556040852985 0.034048903161399677 0.02784364168827522 0.033280821091897624 0.00477326848773061 0.00012757432382443234 0.0083431191637318488 0.0053400690008796247 -0.00028741171776808531 0.010268915276601922 0.0027255577088413458 -0.00063668768929292703 0.0053083606805488784 0.011375430360599799 0.009611385185114717 0.008343118868858022 0.0082940738980415533 0.0069909944389470969 0.0053083606319808572 0.016799109512933473 0.013967442499928926 0.010268914900968573 0.045563423782165949 0.039981496111674397 0.042381452171564346 0.048815157209490312 0.042636048881090981 0.046051668923969932 0.044351148545266977 0.037868355310402994 0.041918561563102349 0.026669821829064855 0.019623328199767705 0.028310299229132831 0.024881143485861529 0.018824843000056317 0.025985526619353827 0.029934729280526286 0.022707311473184156 0.031072037072613377 0.030524567638294458 0.025691513838775267 0.029351355378571559 0.031110499255557852 0.026641159318472114 0.029135839027086809 0.035395010925371499 0.030290942144220106 0.033405729411706789 0.046518133179036796 0.038509028175723908 0.035315739867715676 0.049563006911423457 0.041736592769096893 0.039826280708819377 0.043926531695280428 0.037482696045833118 0.03624965453462508 0.046406845584831685 0.054816430733239038 0.070001378641760342 0.049915436774448138 0.053169175567585256 0.068016663684890538 0.05673121280253119 0.061005620257315749 0.072501133128898304 0.045563423782165949 0.039981496111674397 0.042381452171564346 0.042912970467725159 0.037551243136245339 0.038834900021079186 0.047627437584771469 0.041821875642437674 0.042908663245601011 0.054628326885864248 0.04362100584362337 0.053827576700932654 0.060983249827742544 0.049495345624884494 0.057747852907964935 0.058988520613542095 0.048371246922708985 0.05797907125410539 0.036999319706378986 0.032130527472588544 0.033761811255931057 0.040935342208900681 0.035513105983037682 0.035724429204271421 0.042912970467725159 0.037551243136245339 0.038834900021079186 0.028514548173498248 0.022171844504096896 0.029127385505095471 0.029934729280526286 0.022707311473184156 0.031072037072613377 0.024881143485861529 0.018824843000056317 0.025985526619353827 0.066622573386988487 0.054711085206610013 0.060849322117525792 0.071409162173296195 0.057891542685962465 0.06196348039485141 0.074002534657430535 0.062121334379178932 0.065484639066127032 0.036537950651491839 0.024169013775699046 0.040329794540940676 0.039855628469163087 0.028263984926328697 0.043327415124949482 0.042539084420493575 0.028836412527918704 0.045586312775022689 0.036999319706378986 0.032130527472588544 0.033761811255931057 0.030982980623787095 0.026752013135240622 0.028043222678241598 0.035664782706434306 0.030880337964181433 0.031258154139836056 0.060302057040432289 0.070646388859768192 0.080000301641263996 0.052924811625687962 0.062840981095530268 0.0750008482195368 0.061606807295173767 0.068107394047241435 0.077076606548752938 0.066800167063220686 0.074071137608084078 0.075000998032895339 0.073076319760295383 0.077856958481918218 0.077076461617188438 0.072107776000952931 0.079666252709010121 0.079999482670585181 0.057987664703854733 0.062048736173347198 0.065003921753032337 0.064720232928744972 0.06678804203058189 0.067936377798707939 0.062089507902932703 0.068175996980242376 0.070002503401620952 0.031969964946742334 0.019637154833315545 0.039539399774569266 0.028812338852223066 0.018194872593951996 0.039770318202156714 0.026333454596222491 0.015326576447312655 0.03586771618685787 0.045561968037210979 0.03736240989149138 0.055006055484894706 0.046156023706064093 0.035445187480038047 0.052589550807461007 0.048749901196110924 0.040731557734364245 0.057489886946729046 0.046518133179036796 0.038509028175723908 0.035315739867715676 0.046359681369471398 0.037374445233414336 0.03254421815287821 0.051357263247295691 0.041091041028822946 0.036161443570955944 0.023883099939939728 0.014129643539048843 0.035755202602464523 0.021053837597697404 0.013333888598288431 0.03618706979002867 0.019161827808195468 0.010738253705422755 0.03254760523668853 0.046518133179036796 0.038509028175723908 0.035315739867715676 0.051357263247295691 0.041091041028822946 0.036161443570955944 0.053408711415413826 0.043460821995376861 0.039594722926369702 0.023883099939939728 0.014129643539048843 0.035755202602464523 0.025212002487197283 0.016767577116475092 0.039644004611406783 0.021053837597697404 0.013333888598288431 0.03618706979002867 0.011375430360599799 0.009611385185114717 0.008343118868858022 0.0056812725359804061 0.0047006610902873124 0.0044328986679264973 0.0082940738980415533 0.0069909944389470969 0.0053083606319808572 0.00477326848773061 0.00012757432382443234 0.0083431191637318488 0.0027255577088413458 -0.00063668768929292703 0.0053083606805488784 0.0024587854640600398 -9.8398959188389308e-05 0.0044328988079984383 0.03910659525977235 0.03157369269831075 0.038086785519350526 0.042001775766972303 0.034773495410676661 0.040080245183739115 0.043640048439819966 0.034822683272868395 0.042164785209438609 0.04661966125858872 0.037980802372699789 0.04409828183090083 0.043640048439819966 0.034822683272868395 0.042164785209438609 0.042001775766972303 0.034773495410676661 0.040080245183739115 0.094228131654426325 0.083885691672089313 0.079999748188972306 0.092682622555418981 0.08639204444504571 0.082499357506546731 0.087591002379308849 0.080277127307117876 0.078146103792827215 0.064775412674847793 0.070491807614581056 0.079999732175450589 0.065979872507921158 0.068394423672232169 0.077505536672798706 0.071865224579586384 0.075271374363996862 0.082456441278401932 0.046880840779689716 0.043214260137348311 0.060005464271790945 0.048749901196110924 0.040731557734364245 0.057489886946729046 0.051634040522987548 0.047088186251140696 0.062465072049788045 0.058904107142104603 0.06361924705380595 0.075001293466106275 0.060046553086397218 0.061125849385833007 0.072501966647355212 0.065979872507921158 0.068394423672232169 0.077505536672798706 0.090323782911419376 0.077433659102242869 0.075001287005323755 0.087591002379308849 0.080277127307117876 0.078146103792827215 0.084260452527292154 0.073625034877397466 0.073092189579051947 0.036999319706378986 0.032130527472588544 0.033761811255931057 0.035395010925371499 0.030290942144220106 0.033405729411706782 0.031110499255557852 0.026641159318472111 0.029135839027086809 0.038406616396450266 0.032478822439399584 0.036579009957355427 0.044351148545266977 0.037868355310402994 0.041918561563102349 0.042001775766972303 0.034773495410676661 0.040080245183739115 0.04661966125858872 0.037980802372699789 0.04409828183090083 0.042001775766972303 0.034773495410676661 0.040080245183739115 0.044351148545266977 0.037868355310402994 0.041918561563102349 0.033795734927856952 0.026272284332200073 0.034261704711261248 0.039078667776534119 0.030813493129049831 0.03871138587377413 0.038435584021780142 0.029651582391856862 0.039090665994134535 0.046406845584831685 0.054816430733239038 0.070001378641760342 0.040710120290913129 0.046790619602371367 0.065001855052122845 0.049915436774448138 0.053169175567585256 0.068016663684890538 0.048321862731273056 0.037903952661374883 0.049106102023224157 0.046033516962040388 0.035875524904059104 0.046115569143835113 0.049997893981687608 0.039220453068704371 0.048862564649282521 0.042389454092599706 0.028134710055594755 0.046572604892357358 0.03842442616281784 0.025067980544900285 0.042679906814896737 0.042539084420493575 0.028836412527918704 0.045586312775022689 0.036537950651491839 0.024169013775699046 0.040329794540940676 0.042539084420493575 0.028836412527918704 0.045586312775022689 0.03842442616281784 0.025067980544900285 0.042679906814896737 0.05476491980136601 0.055878759239269812 0.060005090056350546 0.0600265766634588 0.059964913097195816 0.062661290720422674 0.057987664703854733 0.062048736173347198 0.065003921753032337 0.020789256401760652 0.015713635563533248 0.040002858822034193 0.021053837597697404 0.013333888598288431 0.03618706979002867 0.025212002487197283 0.016767577116475092 0.039644004611406783 0.058785762521560446 0.045922045516961232 0.040002852191895102 0.053408711415413826 0.043460821995376854 0.039594722926369695 0.051357263247295691 0.041091041028822946 0.036161443570955944 0.043746578030298008 0.034205877359310466 0.043253700751851927 0.049997893981687608 0.039220453068704364 0.048862564649282521 0.046033516962040395 0.035875524904059104 0.04611556914383512 0.063145590390866188 0.063366511269751832 0.072501193852254217 0.05673121280253119 0.061005620257315749 0.072501133128898304 0.055760784089277156 0.056310410451587779 0.068988563380411344 0.063145590390866188 0.063366511269751832 0.072501193852254217 0.064031764513253597 0.06750098717720221 0.075730385416935095 0.05673121280253119 0.061005620257315749 0.072501133128898304 0.074034165838142596 0.074321447827657997 0.072501387421954541 0.074762364305844167 0.077308749435630847 0.075669719705210414 0.069649006304861732 0.072713055257798934 0.072501553390915061 0.074034165838142596 0.074321447827657997 0.072501387421954541 0.069649006304861719 0.07271305525779892 0.072501553390915047 0.069104896940209201 0.069665171068934481 0.069399798981164537 0.072107776000952931 0.079666252709010121 0.079999482670585181 0.077256466537123591 0.082617200148044287 0.081485610063176298 0.078023175408787351 0.084853749632400027 0.084998139471959319 0.068607953690154197 0.078012462097282756 0.084999768185464064 0.060302057040432289 0.070646388859768192 0.080000301641263996 0.067519246920419801 0.074811543762079213 0.081486315908769577 0.012849078833335349 0.010663003201399648 0.012479659884711737 0.009955599492262001 0.0082391919342081413 0.0095346788080634733 0.015327552865724164 0.012930417773372416 0.014379936486387924 0.0095500317587379653 0.0042789986298632753 0.012156349486143761 0.011173693280519374 0.0048155829421556223 0.014337932241050493 0.0068436454482814265 0.0025759568415334184 0.0090973838878275169 0.074034165838142596 0.074321447827657997 0.072501387421954541 0.076867957227436376 0.075628755309366344 0.072636091481405748 0.078362919749836196 0.079535424761783796 0.076588287114478085 0.074034165838142596 0.074321447827657997 0.072501387421954541 0.071331249935072644 0.069830903654842069 0.068661905692736974 0.076867957227436376 0.075628755309366344 0.072636091481405748 0.081970818243879778 0.081600075196356481 0.077144690707534241 0.078362919749836196 0.079535424761783796 0.076588287114478085 0.076867957227436376 0.075628755309366344 0.072636091481405748 0.074487654800950917 0.070896535552358836 0.068393265868068112 0.076867957227436376 0.075628755309366344 0.072636091481405748 0.071331249935072644 0.069830903654842069 0.068661905692736974 0.063145590390866188 0.063366511269751832 0.072501193852254217 0.067552099734878773 0.065614112545126294 0.072864941650588155 0.069269869162067677 0.070982756264968513 0.076891814975515449 0.073507373119060429 0.072946235054366509 0.076902403261546751 0.069269869162067677 0.070982756264968513 0.076891814975515449 0.067552099734878773 0.065614112545126294 0.072864941650588155 5.3910206432464088e-06 1.5238517072893449e-06 1.6667357312215213e-06 0.0042571350991993627 0.0034730464283724625 0.0038530537662980332 0.0046194004067528971 0.0037272598315502242 0.0044100104777006341 3.3378847996914705e-06 2.2904130180334934e-07 1.666736714008852e-06 0.0031355013009627258 0.00092500602165839017 0.0044100106686950791 0.0025523846276537363 0.00050957041295136363 0.003853053928995603 0.066631568123868362 0.055444061825430414 0.052378633104499299 0.059267053005030414 0.04985581293720219 0.047884160295338159 0.062500339833778645 0.050787219091797398 0.047043024646762945 0.035932246012537201 0.030035645493171517 0.052124903416314698 0.030127336801358054 0.023792748102752996 0.047137975080166122 0.034084627038345409 0.025220220734229692 0.047404098278257895 0.035203674150129712 0.029804392932397724 0.027477242516961063 0.041514465417415658 0.034377872880007709 0.030969903314373923 0.040548593875700222 0.034260299111961781 0.032218442118004099 0.021232215881128069 0.016067266154738694 0.022280941291196694 0.023451905234884905 0.018317421157947638 0.02405192125859908 0.024881143485861529 0.018824843000056317 0.025985526619353827 0.093274810033545749 0.094176477642949383 0.093731153187155539 0.089452426481111486 0.090435246862318713 0.091141928513014267 0.090756865191134836 0.091401557792241836 0.090899185519775133 0.012198836863594785 0.0038069125675586051 0.019904124111370162 0.015880214935540277 0.0065697963614509769 0.024538603048124944 0.012657179012285967 0.0045090997475746445 0.022853482833125053 0.016034802565503815 0.0074670865530151401 0.027612637445586719 0.012657179012285967 0.0045090997475746445 0.022853482833125053 0.015880214935540277 0.0065697963614509769 0.024538603048124944 0.01364134573698267 0.0083319874668958075 0.015722592224156274 0.010395025359240273 0.0057932940964836995 0.012414130991331885 0.0086864849311389832 0.0050337371260690865 0.01024564404599496 0.049803182110526513 0.049796453427394097 0.065004305957383171 0.056495971459835044 0.054335812896845734 0.067529279548579374 0.053897523103457926 0.056588681708570704 0.070002873902428542 0.058785762521560446 0.045922045516961232 0.040002852191895102 0.059003190713839436 0.047478088617915339 0.043203856244130881 0.053408711415413826 0.043460821995376861 0.039594722926369702 0.020789256401760652 0.015713635563533248 0.040002858822034193 0.02521200248719728 0.016767577116475092 0.039644004611406783 0.02613822333676917 0.019442792938345992 0.043092747394705387 0.064498890541283035 0.050681304686215768 0.055006042037224409 0.063168015313866566 0.050360035948958819 0.056841377409635366 0.058395469795178595 0.046128824486063674 0.052757043250370707 0.0098247407606958919 0.0028275777787892154 0.01447692652219449 0.01309020743345498 0.0051048220913362894 0.017779800160800729 0.01356105908790217 0.0048951930876888622 0.019744074067992015 0.016486672174698371 0.0073068475494196729 0.021861392575771899 0.01356105908790217 0.0048951930876888631 0.019744074067992015 0.01309020743345498 0.0051048220913362894 0.017779800160800729 0.051613353178343292 0.037545954718992684 0.054786390590995916 0.046945661152010591 0.03251404637457786 0.050735074406912849 0.049113641211803206 0.033570974926172573 0.050950010602855665 0.0090652146118385922 0.0022577385156178709 0.020002403475149279 0.0097730751896259287 0.0022330877191252462 0.018476360993277291 0.012657179012285967 0.0045090997475746445 0.022853482833125053 0.035032613361036753 0.027043692305003204 0.020002401956758377 0.034328746591128237 0.02777804115092437 0.022670564658777242 0.029347985781420702 0.023680772849904767 0.018444176180063606 0.078232530796665326 0.075099669543373326 0.077847421907703551 0.074529219759021492 0.069681680542653557 0.073948789426586781 0.080456331632647635 0.07674858723314526 0.077973445517217521 0.076299694516819519 0.070478970915154301 0.07348518563285257 0.080456331632647635 0.07674858723314526 0.077973445517217521 0.074529219759021492 0.069681680542653557 0.073948789426586781 0.033795734927856952 0.026272284332200073 0.034261704711261248 0.033841792208599945 0.025733729016441404 0.035028158023227167 0.029934729280526286 0.022707311473184156 0.031072037072613377 0.028016470127687581 0.01645142845368338 0.033126128592821866 0.022944252670368447 0.012460570932426205 0.027932099747584725 0.025586130630067417 0.01502158415479103 0.029907321054545497 0.023998960836344261 0.016186566691024078 0.026576215966243558 0.023073404099289947 0.016196642656872224 0.025118187291943091 0.026785760517758557 0.018930231440107016 0.029113534245823032 0.042389454092599706 0.028134710055594755 0.046572604892357358 0.049113641211803206 0.033570974926172573 0.050950010602855665 0.046945661152010584 0.03251404637457786 0.050735074406912842 0.046518133179036796 0.038509028175723908 0.035315739867715676 0.043926531695280428 0.037482696045833118 0.03624965453462508 0.040548593875700222 0.034260299111961781 0.032218442118004099 0.030524567638294458 0.025691513838775267 0.029351355378571559 0.026359115751070472 0.02168679263391601 0.025968997990469551 0.025380605050529019 0.021336064284449768 0.024434854629314266 0.068519495182389686 0.049593718177683897 0.060005084837944866 0.076219960197758535 0.058109105770653209 0.065003942023570155 0.068744379536686592 0.053459878086332423 0.063225718378686069 0.088607096992515594 0.076955799705595213 0.070001379963038721 0.082936041028999125 0.075566319449335201 0.070104345395980039 0.081894841437318913 0.071687831568215191 0.066371557841273465 0.020789256401760652 0.015713635563533248 0.040002858822034193 0.01760699310207791 0.01159806751857095 0.035002804755497545 0.021053837597697404 0.013333888598288431 0.03618706979002867 0.053186335663250275 0.041372363890911361 0.035002799112550456 0.058785762521560446 0.045922045516961232 0.040002852191895102 0.051357263247295691 0.041091041028822946 0.036161443570955944 0.042366983180371444 0.032664710647698797 0.043511018940188648 0.04567537494349859 0.035565915892706274 0.047797539503091881 0.040176705817246992 0.030606687548314422 0.042648158444440573 0.0098247407606958919 0.0028275777787892154 0.01447692652219449 0.01356105908790217 0.0048951930876888622 0.019744074067992015 0.010216910594464213 0.0026539596551739086 0.016208876878168115 0.012198836863594785 0.0038069125675586051 0.019904124111370162 0.010216910594464213 0.0026539596551739086 0.016208876878168115 0.01356105908790217 0.0048951930876888622 0.019744074067992015 0.032565056825558769 0.02282013561861481 0.035868157826890484 0.036214772134146471 0.025841857916383496 0.039780795458279429 0.032979489818810007 0.022123003244837972 0.036625734528352973 0.087174588972824929 0.081790827075066297 0.075280495823704094 0.082936041028999125 0.075566319449335201 0.070104345395980039 0.087766585503707473 0.0793643352578801 0.072684752227958171 0.079933244553867952 0.070408285121436862 0.071510874793542775 0.078172980848943807 0.07077414837560847 0.072624276646691341 0.074609873570324795 0.064786421070154365 0.068130836808304299 0.092172781008020482 0.082740048824315876 0.079999476567780822 0.095364824111645444 0.089738072852149728 0.084998130721245013 0.089210200252925906 0.084516976745859729 0.081864302500306116 0.094966247487543343 0.088101690738644864 0.080000305235467473 0.097050015835899964 0.092957093610249647 0.084999771825353662 0.092836021418068168 0.089362179931149241 0.081865056892044777 0.031969964946742334 0.019637154833315545 0.039539399774569266 0.0294161421452135 0.017394424614860456 0.035646116457354646 0.033519328753238917 0.020858210258074775 0.038590120696519938 0.045563423782165949 0.039981496111674397 0.042381452171564346 0.049834017732095948 0.044193780700412383 0.046433588525536966 0.048815157209490312 0.042636048881090981 0.046051668923969932 0.046174173063440953 0.03996490940419644 0.039804342441005981 0.047627437584771469 0.041821875642437674 0.042908663245601011 0.042912970467725159 0.037551243136245339 0.038834900021079186 0.060302057040432289 0.070646388859768192 0.080000301641263996 0.061606807295173767 0.068107394047241435 0.077076606548752938 0.067519246920419801 0.074811543762079213 0.081486315908769577 0.072107776000952931 0.079666252709010121 0.079999482670585181 0.073076319760295383 0.077856958481918218 0.077076461617188438 0.077256466537123591 0.082617200148044287 0.081485610063176298 0.027073566765348375 0.023161268559100265 0.025198289547667493 0.022246962947123399 0.018877791594719421 0.021052360372737621 0.024927670802748936 0.02144361152534453 0.022472653925254427 0.036537950651491839 0.024169013775699046 0.040329794540940676 0.03842442616281784 0.025067980544900285 0.042679906814896737 0.033519328753238917 0.020858210258074775 0.038590120696519938 0.046518133179036796 0.038509028175723908 0.035315739867715676 0.041514465417415658 0.034377872880007709 0.030969903314373923 0.046359681369471398 0.037374445233414336 0.03254421815287821 0.072603341765071022 0.056937196843687594 0.060005476013049876 0.079527767363406221 0.063671828151579651 0.06500432108576544 0.071409162173296195 0.057891542685962465 0.06196348039485141 0.025541164827727787 0.022017753197380353 0.021861390405439253 0.023130487145719778 0.019872312370422796 0.018655031944655232 0.029120763044631182 0.024857586848304591 0.022988194490105324 0.084534913762283323 0.07111862035981005 0.065001860209525572 0.08860709699251558 0.076955799705595213 0.070001379963038721 0.081894841437318913 0.071687831568215191 0.066371557841273465 0.039164832523226951 0.032028397333510698 0.027502649551664031 0.033066555493155403 0.027635751691950806 0.024221065495291096 0.034328746591128237 0.02777804115092437 0.022670564658777242 0.027707879977867163 0.023238827381474803 0.019925208524954476 0.034328746591128237 0.02777804115092437 0.022670564658777242 0.033066555493155403 0.027635751691950806 0.024221065495291096 0.051541613351651173 0.050469291018537366 0.065509357467261081 0.057182912561288046 0.053515325222381456 0.06641449529288615 0.055760784089277156 0.056310410451587779 0.068988563380411344 0.0037412057278235441 0.0014472199904650741 0.0049725770790265845 0.0068436454482814265 0.0025759568415334184 0.0090973838878275169 0.0031355013009627258 0.00092500602165839017 0.0044100106686950791 0.0058751853263382106 0.001700096350572949 0.0083125323122109872 0.0031355013009627258 0.00092500602165839017 0.0044100106686950791 0.0068436454482814265 0.0025759568415334184 0.0090973838878275169 0.0091489965178021826 0.0076131406613997067 0.0083125319628763843 0.009955599492262001 0.0082391919342081413 0.0095346788080634733 0.0046194004067528971 0.0037272598315502242 0.0044100104777006341 0.0049776321738396025 0.0039634527677218116 0.0049725770819668558 0.0046194004067528971 0.0037272598315502242 0.0044100104777006341 0.009955599492262001 0.0082391919342081413 0.0095346788080634733 0.038406616396450266 0.032478822439399584 0.036579009957355427 0.035395010925371499 0.030290942144220106 0.033405729411706789 0.040547109401969289 0.035139840300975243 0.037865956656532154 0.050229463536741369 0.040037284206324207 0.053249262441144217 0.052029290561023261 0.041530918143759095 0.053334042441767385 0.05474761834496681 0.04492560341862769 0.057439050558170175 0.056762614156909079 0.046578988265508298 0.057614866687024223 0.05474761834496681 0.04492560341862769 0.057439050558170175 0.052029290561023261 0.041530918143759095 0.053334042441767385 0.079527767363406221 0.063671828151579651 0.06500432108576544 0.085473740852522864 0.070596969418229086 0.070002885371088258 0.079938088382707204 0.067684616284549567 0.068889949387266045 0.056762614156909079 0.046578988265508298 0.057614866687024223 0.054628326885864248 0.04362100584362337 0.053827576700932654 0.058988520613542095 0.048371246922708985 0.05797907125410539 0.065979872507921158 0.068394423672232169 0.077505536672798706 0.060046553086397218 0.061125849385833007 0.072501966647355212 0.066993527942727116 0.066203834727112193 0.074995529635856623 0.087591002379308849 0.080277127307117876 0.078146103792827215 0.082669821625702564 0.074910804070007608 0.074766062796228883 0.084260452527292154 0.073625034877397466 0.073092189579051947 0.058785762521560446 0.045922045516961232 0.040002852191895102 0.064303089517973866 0.050481328289179998 0.045002845670448925 0.059003190713839436 0.047478088617915339 0.043203856244130881 0.024056920087861571 0.020473763087361728 0.045002851892142592 0.020789256401760652 0.015713635563533248 0.040002858822034193 0.02613822333676917 0.019442792938345992 0.043092747394705387 0.048749901196110924 0.040731557734364245 0.057489886946729046 0.052729576694669412 0.044812196273325035 0.059914235108702196 0.051634040522987548 0.047088186251140696 0.062465072049788045 0.065979872507921158 0.068394423672232169 0.077505536672798706 0.072532851864566303 0.073295991909646502 0.079884781034647218 0.071865224579586384 0.075271374363996862 0.082456441278401932 0.046174173063440953 0.03996490940419644 0.039804342441005981 0.043926531695280428 0.037482696045833118 0.03624965453462508 0.049563006911423457 0.041736592769096893 0.039826280708819377 0.007165263837411796 0.0052060946870315962 0.0078379015606133071 0.0029610028268619178 0.0020852509294510741 0.0033568414641409984 0.0032176416429220279 0.0023346134419848876 0.003548138687420258 0.021463392054190969 0.011836848508917384 0.025679086653125221 0.022944252670368447 0.012460570932426205 0.027932099747584725 0.017954297798706532 0.0087854470910381875 0.022558700310636684 0.019259580180706577 0.011323645741700906 0.022371152171776112 0.018775182956592029 0.010121124908093256 0.022492658255518216 0.015826531961715743 0.0083695194906957988 0.019071069561184425 0.04528249468505318 0.035146639990485375 0.050720259164602238 0.047011452076041793 0.036963080788540055 0.051673327689422344 0.048798648191096028 0.039020943160650794 0.054987180227014779 0.021998286221035959 0.01832196616510242 0.014620480219902619 0.016923104500353257 0.014412797488941101 0.012374575544697732 0.016799109512933473 0.013967442499928926 0.010268914900968573 0.011375430360599799 0.009611385185114717 0.008343118868858022 0.016799109512933473 0.013967442499928926 0.010268914900968573 0.016923104500353257 0.014412797488941101 0.012374575544697732 0.00477326848773061 0.00012757432382443234 0.0083431191637318488 0.0074605076093111327 0.0011524309533828153 0.012413658980891929 0.0053400690008796247 -0.00028741171776808531 0.010268915276601922 0.0081963998206168714 0.0011869747366214667 0.014619566190126687 0.0053400690008796247 -0.00028741171776808531 0.010268915276601922 0.0074605076093111327 0.0011524309533828153 0.012413658980891929 0.074907844028038559 0.060152005269443483 0.055002554097992075 0.079928734182980243 0.065520919141860284 0.060002258330482734 0.073656981184940337 0.061462978800076715 0.057399251254118829 0.051613353178343292 0.037545954718992684 0.054786390590995916 0.044423251393627253 0.031325571818049208 0.050631245643672385 0.046945661152010584 0.03251404637457786 0.050735074406912842 0.057987664703854733 0.062048736173347198 0.065003921753032337 0.0600265766634588 0.059964913097195816 0.062661290720422674 0.064720232928744972 0.06678804203058189 0.067936377798707939 0.08501361359379532 0.085439290354409086 0.086956194013265958 0.086967328966782803 0.086908050989502938 0.086906800901911871 0.090756865191134836 0.091401557792241836 0.090899185519775133 0.01944660696527872 0.016598276504008132 0.017936344686701008 0.024927670802748936 0.02144361152534453 0.022472653925254427 0.022246962947123399 0.018877791594719421 0.021052360372737621 0.043746578030298008 0.034205877359310466 0.043253700751851927 0.038435584021780142 0.029651582391856862 0.039090665994134535 0.039078667776534119 0.030813493129049831 0.03871138587377413 0.035203674150129712 0.029804392932397724 0.027477242516961063 0.029120763044631182 0.024857586848304591 0.022988194490105324 0.033066555493155403 0.027635751691950806 0.024221065495291096 0.065953094089305664 0.054529549521935089 0.064755997059483886 0.073314221349853811 0.059160817456811156 0.066431091189031954 0.073795644994213122 0.063071160352782152 0.069167177930595847 4.557247793036238e-06 1.0622429158074703e-06 1.6667428717256782e-06 0.0047056638465184939 0.0035255620255314466 0.0050602862025566422 0.0032176416429220279 0.0023346134419848876 0.003548138687420258 0.076299694516819519 0.070478970915154301 0.07348518563285257 0.074529219759021492 0.069681680542653557 0.073948789426586781 0.070069841078505793 0.06321011860943436 0.069388046464978342 0.048749901196110924 0.040731557734364245 0.057489886946729046 0.046156023706064093 0.035445187480038047 0.052589550807461007 0.048798648191096028 0.039020943160650794 0.054987180227014779 0.035754520644431222 0.039212328442923224 0.060002258162916856 0.031520672159008063 0.032139233777033815 0.055002556035880848 0.038222389322635351 0.036524324645545135 0.057384966635572583 0.0060987662209299022 0.0041412190817480222 0.0068762888600065863 0.0074761635213697998 0.0048486838255663491 0.0085642845275921212 0.0038213991373220028 0.0024422601556660347 0.0044594831168748642 0.0091489965178021826 0.0076131406613997067 0.0083125319628763843 0.0046194004067528971 0.0037272598315502242 0.0044100104777006341 0.0042571350991993627 0.0034730464283724625 0.0038530537662980332 0.0058751853263382106 0.001700096350572949 0.0083125323122109872 0.0025523846276537363 0.00050957041295136363 0.003853053928995603 0.0031355013009627258 0.00092500602165839017 0.0044100106686950791 0.026669821829064855 0.019623328199767705 0.028310299229132831 0.022473407536052717 0.016436001146261967 0.023977967156979724 0.024881143485861529 0.018824843000056317 0.025985526619353827 0.055973945207282445 0.04640022260155794 0.04370158793082754 0.053408711415413826 0.043460821995376861 0.039594722926369702 0.059003190713839436 0.047478088617915339 0.043203856244130881 0.030343238529834421 0.021142407409237823 0.043676053813930645 0.02613822333676917 0.019442792938345992 0.043092747394705387 0.025212002487197283 0.016767577116475092 0.039644004611406783 0.083555953024659374 0.080849375357682704 0.080185885845481447 0.081294184006038148 0.074496461670457703 0.075842138830347378 0.086656138097419372 0.079626132750464387 0.078578533505009401 0.088901295532398283 0.086839596989884832 0.08018621139707556 0.087174588972824929 0.081790827075066297 0.075280495823704094 0.091106079494683398 0.0857815630131675 0.078394332717710236 0.049803182110526513 0.049796453427394097 0.065004305957383171 0.051634040522987548 0.047088186251140696 0.062465072049788045 0.056495971459835044 0.054335812896845734 0.067529279548579374 0.028016470127687581 0.01645142845368338 0.033126128592821866 0.033519328753238917 0.020858210258074772 0.038590120696519931 0.0294161421452135 0.017394424614860456 0.035646116457354646 0.055868337792942362 0.050331503471699852 0.064058170028698916 0.056495971459835044 0.054335812896845734 0.067529279548579374 0.051634040522987548 0.047088186251140696 0.062465072049788045 0.021232215881128069 0.016067266154738694 0.022280941291196694 0.01831947202338001 0.01399339485397494 0.019197947138593366 0.023451905234884905 0.018317421157947638 0.02405192125859908 0.0066400739387781679 0.0040621243345989591 0.0077713484416874062 0.0041081976399805721 0.0022458861418691318 0.0050088497700207218 0.0028735135156012352 0.0016962782311096087 0.0034400106459150409 0.027073566765348375 0.023161268559100265 0.025198289547667493 0.025380605050529022 0.021336064284449768 0.02443485462931427 0.022246962947123399 0.018877791594719421 0.021052360372737621 0.043146738492695319 0.033282648578248086 0.046669956425725447 0.047011452076041793 0.036963080788540055 0.051673327689422344 0.042641095370327994 0.032759474908795883 0.047099493889262753 0.04528249468505318 0.035146639990485375 0.050720259164602238 0.042641095370327994 0.032759474908795883 0.047099493889262753 0.047011452076041793 0.036963080788540055 0.051673327689422344 0.081047807546535303 0.077214413135172688 0.07252702267868362 0.087174588972824929 0.081790827075066297 0.075280495823704094 0.084904988326750766 0.082540782812707242 0.076879034450102884 0.088901295532398283 0.086839596989884832 0.08018621139707556 0.084904988326750766 0.082540782812707242 0.076879034450102884 0.087174588972824929 0.081790827075066297 0.075280495823704094 0.072948321125505283 0.067311916183265083 0.072501406120550463 0.081294184006038148 0.074496461670457703 0.075842138830347378 0.07809737164848729 0.075042117253507831 0.077094783648526177 0.083555953024659374 0.080849375357682704 0.080185885845481447 0.07809737164848729 0.075042117253507831 0.077094783648526177 0.081294184006038148 0.074496461670457703 0.075842138830347378 0.072948321125505283 0.067311916183265083 0.072501406120550463 0.067273274252469928 0.059300660089100843 0.068026323941564826 0.073795644994213122 0.063071160352782152 0.069167177930595847 0.065953094089305664 0.054529549521935089 0.064755997059483886 0.073795644994213122 0.063071160352782152 0.069167177930595847 0.067273274252469928 0.059300660089100843 0.068026323941564826 4.2677410011586431e-06 8.9727268268967421e-07 1.6667435488482176e-06 4.4117934236133927e-06 1.0512753514074549e-06 1.6667433991362826e-06 0.0029610028268619178 0.0020852509294510741 0.0033568414641409984 0.053897523103457926 0.056588681708570704 0.070002873902428542 0.056495971459835044 0.054335812896845734 0.067529279548579374 0.060046553086397218 0.061125849385833007 0.072501966647355212 0.06276219046251659 0.060782132031397873 0.071408105186564846 0.060046553086397218 0.061125849385833007 0.072501966647355212 0.056495971459835044 0.054335812896845734 0.067529279548579374 0.077577353601986199 0.069445055960935476 0.065410025780983552 0.07691442511061701 0.066201738278603386 0.061942373251670339 0.081894841437318913 0.071687831568215191 0.066371557841273465 0.079928734182980243 0.065520919141860284 0.060002258330482734 0.07691442511061701 0.066201738278603386 0.061942373251670339 0.073656981184940337 0.061462978800076715 0.057399251254118829 0.035754520644431222 0.039212328442923224 0.060002258162916856 0.038222389322635351 0.036524324645545135 0.057384966635572583 0.044223266950251444 0.043861935404838806 0.062067644969712385 0.030565299117930871 0.021970923213700758 0.033125624935315755 0.032804746978028584 0.023621466925851164 0.035769192266740829 0.028606203803916527 0.019764118786921844 0.031506099007919695 0.032565056825558769 0.02282013561861481 0.035868157826890484 0.028606203803916527 0.019764118786921844 0.031506099007919695 0.032804746978028584 0.023621466925851164 0.035769192266740829 0.0146602247290994 0.010730641016088099 0.015803568455473576 0.018283799540102313 0.013355434042660824 0.019607321631139225 0.015157147882261801 0.01061611451551104 0.01662104843502658 0.007165263837411796 0.0052060946870315962 0.0078379015606133071 0.0032176416429220275 0.0023346134419848872 0.0035481386874202576 0.0047056638465184939 0.0035255620255314466 0.0050602862025566422 0.012198836863594785 0.0038069125675586051 0.019904124111370162 0.012657179012285967 0.0045090997475746445 0.022853482833125053 0.0097730751896259287 0.0022330877191252462 0.018476360993277291 0.027707879977867163 0.023238827381474803 0.019925208524954476 0.029347985781420702 0.023680772849904767 0.018444176180063606 0.034328746591128237 0.02777804115092437 0.022670564658777242 0.027707879977867163 0.023238827381474803 0.019925208524954476 0.033066555493155403 0.027635751691950806 0.024221065495291096 0.029120763044631182 0.024857586848304591 0.022988194490105324 0.087801713317096367 0.074966108887688565 0.075000991118530813 0.086656138097419372 0.079626132750464387 0.078578533505009401 0.081294184006038148 0.074496461670457703 0.075842138830347378 0.092108987978869378 0.082652844217790192 0.075000852517487782 0.091106079494683398 0.0857815630131675 0.078394332717710236 0.087174588972824929 0.081790827075066297 0.075280495823704094 4.0968391249894212e-06 8.3638843648153e-07 1.6667428565914481e-06 0.0028735135156012352 0.0016962782311096087 0.0034400106459150414 0.0041081976399805721 0.0022458861418691318 0.0050088497700207218 0.019259580180706577 0.011323645741700906 0.022371152171776112 0.022772699610717543 0.013457425530305779 0.026442746251023868 0.018775182956592029 0.010121124908093256 0.022492658255518216 0.068892583025511961 0.063348553463063645 0.06236987085733791 0.067833518133299062 0.060023148690612621 0.058519118194967988 0.071932460200339124 0.064383798179864477 0.061958323457040186 0.02032063511722183 0.010110130983780699 0.026107276385236002 0.022944252670368443 0.012460570932426205 0.027932099747584725 0.024758902265560389 0.013555501133359049 0.030860158976125256 0.045563423782165949 0.039981496111674397 0.042381452171564346 0.047627437584771469 0.041821875642437674 0.042908663245601011 0.049834017732095948 0.044193780700412383 0.046433588525536966 0.024655776848710214 0.015794202930324394 0.027823681275719259 0.028606203803916527 0.019764118786921844 0.031506099007919695 0.028923807164706085 0.019254503555227981 0.032266295721536969 0.053670494724385426 0.045890400160532668 0.061346480396593857 0.049672826026893602 0.045232581043271977 0.061887928932996203 0.047626994877480518 0.040304483052775182 0.058330092886017051 0.055973945207282445 0.04640022260155794 0.04370158793082754 0.062500339833778645 0.050787219091797398 0.047043024646762945 0.059267053005030414 0.04985581293720219 0.047884160295338159 0.030343238529834421 0.021142407409237823 0.043676053813930645 0.034084627038345409 0.025220220734229692 0.047404098278257895 0.030127336801358054 0.023792748102752996 0.047137975080166122 0.092458245601210881 0.093029009820065886 0.091695743297922822 0.095910003793894069 0.096524314613291987 0.095630515261163188 0.090756865191134836 0.091401557792241836 0.090899185519775133 0.093274810033545749 0.094176477642949383 0.093731153187155539 0.090756865191134836 0.091401557792241836 0.090899185519775133 0.095910003793894069 0.096524314613291987 0.095630515261163188 0.035203674150129712 0.029804392932397724 0.027477242516961063 0.030855451318671474 0.026475243803846481 0.025559896701792553 0.029120763044631182 0.024857586848304591 0.022988194490105324 0.025541164827727787 0.022017753197380353 0.021861390405439253 0.029120763044631182 0.024857586848304591 0.022988194490105324 0.030855451318671474 0.026475243803846481 0.025559896701792553 0.030524567638294458 0.025691513838775267 0.029351355378571559 0.035395010925371499 0.030290942144220106 0.033405729411706789 0.034049151865643869 0.028544939863414581 0.032755866339871674 0.039164832523226951 0.032028397333510698 0.027502649551664031 0.046359681369471398 0.037374445233414336 0.03254421815287821 0.041514465417415658 0.034377872880007709 0.030969903314373923 0.019141807842625393 0.0091171653151017624 0.02727277877237768 0.015880214935540277 0.0065697963614509769 0.024538603048124944 0.017275871171737144 0.0075898585517409183 0.024015440458565712 0.099996553238882041 0.099999587080256691 0.099998333504592168 0.099995638592160568 0.099998682030106534 0.099998333545552015 0.096882834140087346 0.097387538605876331 0.096227161592378541 0.053670494724385426 0.045890400160532668 0.061346480396593857 0.057182912561288046 0.053515325222381456 0.06641449529288615 0.049672826026893602 0.045232581043271977 0.061887928932996203 4.4117934236133927e-06 1.0512753514074549e-06 1.6667433991362826e-06 4.557247793036238e-06 1.0622429158074703e-06 1.6667428717256782e-06 0.0032176416429220279 0.0023346134419848876 0.003548138687420258 0.082482589962733957 0.066620337343504948 0.070002509132083182 0.073795644994213122 0.063071160352782152 0.069167177930595847 0.073314221349853811 0.059160817456811156 0.066431091189031954 0.039848988022568789 0.029517941111777 0.043850182083710158 0.039855628469163087 0.028263984926328697 0.043327415124949482 0.036214772134146471 0.025841857916383496 0.039780795458279436 0.030343238529834421 0.021142407409237823 0.043676053813930645 0.03373051501242267 0.022578390220979801 0.044006928879949059 0.034084627038345409 0.025220220734229692 0.047404098278257895 0.039848988022568789 0.029517941111777 0.043850182083710158 0.036276121149079112 0.026503422809553888 0.039746741361907055 0.039746580124776366 0.029948921164366475 0.043549749861383991 0.039848988022568789 0.029517941111777 0.043850182083710158 0.036214772134146471 0.025841857916383493 0.039780795458279429 0.036276121149079112 0.026503422809553888 0.039746741361907055 0.03041028361218661 0.026240052343168563 0.026432605122244743 0.035247894533329202 0.030226363889341402 0.029338920160484082 0.035664782706434306 0.030880337964181433 0.031258154139836056 0.020008473656407347 0.016562183391049146 0.019672716185972699 0.022246962947123399 0.018877791594719421 0.021052360372737621 0.025380605050529019 0.021336064284449768 0.024434854629314266 0.043268546291833548 0.038257527692284139 0.057727427508492288 0.044223266950251444 0.043861935404838806 0.062067644969712385 0.038222389322635351 0.036524324645545135 0.057384966635572583 0.04661966125858872 0.037980802372699789 0.04409828183090083 0.048906075740026381 0.038644899721283342 0.046659296331664463 0.043640048439819966 0.034822683272868395 0.042164785209438609 0.043146738492695319 0.033282648578248086 0.046669956425725447 0.042641095370327994 0.032759474908795883 0.047099493889262753 0.039746580124776366 0.029948921164366475 0.043549749861383991 0.072372330843864435 0.0642173902530076 0.068802064457161596 0.066875446000882091 0.058015665675402381 0.06518160715877 0.068189345622158906 0.057871792962545819 0.063915615372357959 0.055973945207282445 0.04640022260155794 0.04370158793082754 0.059003190713839436 0.047478088617915339 0.043203856244130881 0.062500339833778645 0.050787219091797398 0.047043024646762945 0.030343238529834421 0.021142407409237823 0.043676053813930645 0.030127336801358054 0.023792748102752996 0.047137975080166122 0.02613822333676917 0.019442792938345992 0.043092747394705387 0.069143650688783642 0.07381484013701313 0.079681183336244743 0.067519246920419801 0.074811543762079213 0.081486315908769577 0.061606807295173767 0.068107394047241435 0.077076606548752938 0.078468205941897504 0.081913234305652005 0.079680898161706259 0.077256466537123591 0.082617200148044287 0.081485610063176298 0.073076319760295383 0.077856958481918218 0.077076461617188438 0.079933244553867952 0.070408285121436862 0.071510874793542775 0.074609873570324795 0.064786421070154365 0.068130836808304299 0.079938088382707204 0.067684616284549567 0.068889949387266045 0.032565056825558769 0.02282013561861481 0.035868157826890484 0.028923807164706085 0.019254503555227981 0.032266295721536969 0.028606203803916527 0.019764118786921844 0.031506099007919695 0.016486672174698371 0.0073068475494196729 0.021861392575771899 0.017275871171737144 0.0075898585517409183 0.024015440458565712 0.01356105908790217 0.0048951930876888622 0.019744074067992015 0.046518133179036796 0.038509028175723908 0.035315739867715676 0.040548593875700222 0.034260299111961781 0.032218442118004099 0.041514465417415658 0.034377872880007709 0.030969903314373923 0.023883099939939728 0.014129643539048843 0.035755202602464523 0.026333454596222487 0.015326576447312655 0.03586771618685787 0.028812338852223066 0.018194872593951996 0.039770318202156714 0.044351148545266977 0.037868355310402994 0.041918561563102349 0.048815157209490312 0.042636048881090981 0.046051668923969932 0.049153359544785905 0.041414520649898492 0.04623121792369634 0.039273010472083432 0.033750689782019679 0.033087176445985682 0.040548593875700215 0.034260299111961781 0.032218442118004099 0.043926531695280428 0.037482696045833118 0.03624965453462508 0.043146738492695319 0.033282648578248086 0.046669956425725447 0.040176705817246992 0.030606687548314422 0.042648158444440573 0.04567537494349859 0.035565915892706274 0.047797539503091881 4.0968391249894212e-06 8.3638843648153e-07 1.6667428565914481e-06 4.159563636639325e-06 8.0105201257221081e-07 1.6667433560141929e-06 0.0028735135156012352 0.0016962782311096087 0.0034400106459150409 0.082753509162382638 0.077538971356307149 0.077355445566156492 0.082669821625702564 0.074910804070007608 0.074766062796228883 0.087591002379308849 0.080277127307117876 0.078146103792827215 0.053186335663250275 0.041372363890911361 0.035002799112550456 0.051357263247295691 0.041091041028822946 0.036161443570955944 0.046359681369471398 0.037374445233414336 0.03254421815287821 0.01760699310207791 0.01159806751857095 0.035002804755497545 0.019161827808195468 0.010738253705422755 0.03254760523668853 0.021053837597697404 0.013333888598288431 0.03618706979002867 0.070171810196093087 0.060366201675378123 0.0576704046157447 0.073656981184940337 0.061462978800076715 0.057399251254118829 0.07691442511061701 0.066201738278603386 0.061942373251670339 0.052479292221772715 0.046229604285983897 0.047360649642137174 0.054559827602832102 0.048639385728541366 0.050764299316119567 0.049834017732095948 0.044193780700412383 0.046433588525536966 0.052009418957009328 0.046472011103553493 0.049700008334699869 0.049834017732095948 0.044193780700412383 0.046433588525536966 0.054559827602832102 0.048639385728541366 0.050764299316119567 0.039273010472083432 0.033750689782019679 0.033087176445985682 0.040935342208900681 0.035513105983037682 0.035724429204271421 0.035664782706434306 0.030880337964181433 0.031258154139836056 0.072372330843864435 0.0642173902530076 0.068802064457161596 0.068189345622158906 0.057871792962545819 0.063915615372357959 0.074609873570324795 0.064786421070154365 0.068130836808304299 0.077577353601986199 0.069445055960935476 0.065410025780983552 0.074109333660906176 0.068040224229292887 0.065292678956052938 0.071932460200339124 0.064383798179864477 0.061958323457040186 0.039273010472083432 0.033750689782019679 0.033087176445985682 0.035664782706434306 0.030880337964181433 0.031258154139836056 0.035247894533329202 0.030226363889341402 0.029338920160484082 0.063237546259823696 0.053017371960505426 0.061212841772838471 0.068189345622158906 0.057871792962545819 0.063915615372357959 0.066875446000882091 0.058015665675402381 0.06518160715877 0.0070661811719567747 0.0037251597997211873 0.0086200155030060188 0.0086864849311389849 0.0050337371260690874 0.010245644045994961 0.010395025359240273 0.0057932940964836995 0.012414130991331885 0.064303089517973866 0.050481328289179998 0.045002845670448925 0.062500339833778645 0.050787219091797398 0.047043024646762945 0.059003190713839436 0.047478088617915339 0.043203856244130881 0.024056920087861571 0.020473763087361728 0.045002851892142592 0.02613822333676917 0.019442792938345992 0.043092747394705387 0.030127336801358054 0.023792748102752996 0.047137975080166122 0.092108987978869378 0.082652844217790192 0.075000852517487782 0.087174588972824929 0.081790827075066297 0.075280495823704094 0.087766585503707473 0.0793643352578801 0.072684752227958171 0.087801713317096367 0.074966108887688565 0.075000991118530813 0.081294184006038148 0.074496461670457703 0.075842138830347378 0.07941069259391087 0.06934934280624161 0.07250283965175737 0.082482589962733957 0.066620337343504948 0.070002509132083182 0.07941069259391087 0.06934934280624161 0.07250283965175737 0.073795644994213122 0.063071160352782152 0.069167177930595847 0.092108987978869378 0.082652844217790192 0.075000852517487782 0.094966247487543329 0.088101690738644864 0.080000305235467473 0.091106079494683398 0.0857815630131675 0.078394332717710236 0.087801713317096367 0.074966108887688565 0.075000991118530813 0.092172781008020482 0.082740048824315876 0.079999476567780822 0.086656138097419372 0.079626132750464387 0.078578533505009401 0.055868337792942362 0.050331503471699852 0.064058170028698916 0.052729576694669412 0.044812196273325035 0.059914235108702196 0.057467209657289381 0.050148091274153143 0.063068737928735685 0.074002534657430535 0.062121334379178932 0.065484639066127032 0.079938088382707204 0.067684616284549567 0.068889949387266045 0.074609873570324795 0.064786421070154365 0.068130836808304299 0.098959776810219169 0.09487101893548415 0.089997261977407511 0.099690250003355005 0.098429887242812542 0.094996916942126142 0.09754144396294076 0.09622108357469894 0.092010189543565074 0.079155026568145992 0.084061590546424508 0.089997265361592929 0.086142733465061433 0.088685382630671314 0.092055293058818197 0.08824921969816836 0.09090412388286627 0.094996917249852805 0.030343238529834421 0.021142407409237823 0.043676053813930645 0.028812338852223066 0.018194872593951996 0.039770318202156714 0.03373051501242267 0.022578390220979801 0.044006928879949059 0.025541164827727787 0.022017753197380353 0.021861390405439253 0.02084361741291926 0.017943531377296582 0.018126864538429221 0.023130487145719778 0.019872312370422796 0.018655031944655232 0.018268062119998259 0.012647928415777412 0.020052611038190667 0.018283799540102313 0.013355434042660824 0.019607321631139225 0.022473407536052717 0.016436001146261967 0.023977967156979724 0.051541613351651173 0.050469291018537366 0.065509357467261081 0.049672826026893602 0.045232581043271977 0.061887928932996203 0.057182912561288046 0.053515325222381456 0.06641449529288615 0.065565799008895642 0.064541782507310547 0.065397782825411213 0.064720232928744972 0.06678804203058189 0.067936377798707939 0.0600265766634588 0.059964913097195816 0.062661290720422674 0.0066400739387781679 0.0040621243345989591 0.0077713484416874062 0.0028735135156012352 0.0016962782311096087 0.0034400106459150409 0.0038213991373220028 0.0024422601556660347 0.0044594831168748642 0.046174173063440953 0.03996490940419644 0.039804342441005981 0.042912970467725159 0.037551243136245339 0.038834900021079186 0.040935342208900681 0.035513105983037682 0.035724429204271421 0.076219960197758535 0.058109105770653209 0.065003942023570155 0.082482589962733957 0.066620337343504948 0.070002509132083182 0.073314221349853811 0.059160817456811156 0.066431091189031954 0.0095500317587379653 0.0042789986298632753 0.012156349486143761 0.012480729896134269 0.0062110469304138593 0.015335108563574189 0.011173693280519374 0.0048155829421556223 0.014337932241050493 0.055868337792942362 0.050331503471699852 0.064058170028698916 0.057467209657289381 0.050148091274153143 0.063068737928735685 0.060332649469805141 0.055775560370428003 0.06753261048906968 0.062912760045185465 0.056906147684721686 0.067325891337843086 0.060332649469805141 0.055775560370428003 0.06753261048906968 0.057467209657289381 0.050148091274153143 0.063068737928735685 0.09582532303277351 0.09550441979461341 0.091749087982028646 0.094808438326794128 0.091876024608880613 0.087428563025465297 0.09754144396294076 0.09622108357469894 0.092010189543565074 0.098959776810219169 0.09487101893548415 0.089997261977407511 0.09754144396294076 0.09622108357469894 0.092010189543565074 0.094808438326794128 0.091876024608880613 0.087428563025465297 0.079155026568145992 0.084061590546424508 0.089997265361592929 0.080401433908728698 0.083143546453553457 0.087710656183191169 0.086142733465061433 0.088685382630671314 0.092055293058818197 0.088399912306120917 0.089967833320090201 0.091749088786109767 0.086142733465061433 0.088685382630671314 0.092055293058818197 0.080401433908728698 0.083143546453553457 0.087710656183191169 0.030565299117930871 0.021970923213700758 0.033125624935315755 0.026785760517758557 0.018930231440107016 0.029113534245823032 0.031300463115122912 0.02315751836041726 0.033193467839950544 0.048749901196110924 0.040731557734364245 0.057489886946729046 0.048798648191096028 0.039020943160650794 0.054987180227014779 0.052729576694669412 0.044812196273325035 0.059914235108702196 0.052893902184149286 0.043355030958281721 0.057416331601401811 0.052729576694669412 0.044812196273325035 0.059914235108702196 0.048798648191096028 0.039020943160650794 0.054987180227014779 0.077577353601986199 0.069445055960935476 0.065410025780983552 0.081894841437318913 0.071687831568215191 0.066371557841273465 0.082936041028999125 0.075566319449335201 0.070104345395980039 0.035203674150129712 0.029804392932397724 0.027477242516961063 0.040548593875700222 0.034260299111961781 0.032218442118004099 0.035247894533329202 0.030226363889341402 0.029338920160484082 0.039273010472083432 0.033750689782019679 0.033087176445985682 0.035247894533329202 0.030226363889341402 0.029338920160484082 0.040548593875700222 0.034260299111961781 0.032218442118004099 0.053071592606574382 0.045288251457606267 0.050005306161729317 0.064498890541283035 0.050681304686215768 0.055006042037224409 0.058395469795178595 0.046128824486063674 0.052757043250370707 0.09062299078163974 0.086853946540541668 0.083572961535136769 0.094808438326794128 0.091876024608880613 0.087428563025465297 0.091880745086570015 0.090317327404487321 0.086843732624653752 0.077111132557026368 0.078699850455315162 0.083757477939755146 0.083060543152712843 0.084260994611386919 0.087158724983314534 0.080401433908728698 0.083143546453553457 0.087710656183191169 0.021232215881128069 0.016067266154738694 0.022280941291196694 0.022473407536052713 0.016436001146261967 0.02397796715697972 0.018283799540102313 0.013355434042660824 0.019607321631139225 0.099995638592160568 0.099998682030106534 0.099998333545552015 0.095910003793894069 0.096524314613291987 0.095630515261163188 0.096882834140087346 0.097387538605876331 0.096227161592378541 0.015929236239798496 0.012429575288462542 0.016505212621753945 0.0129227685605491 0.0096793881609032115 0.013775658035640206 0.010580786447952132 0.0081167009100511691 0.011173058479432032 0.063237546259823696 0.053017371960505426 0.061212841772838471 0.058988520613542095 0.048371246922708985 0.057979071254105383 0.060983249827742544 0.049495345624884501 0.057747852907964935 0.0066400739387781679 0.0040621243345989591 0.0077713484416874062 0.010045815015770046 0.0063257901722978708 0.011551082415104795 0.0086864849311389832 0.0050337371260690865 0.01024564404599496 0.063444528431865418 0.058767057573043832 0.068699212350734715 0.060837681039920551 0.053043704614021019 0.065007842292515564 0.067273274252469928 0.059300660089100843 0.068026323941564826 0.073507373119060429 0.072946235054366509 0.076902403261546751 0.07809737164848729 0.075042117253507831 0.077094783648526177 0.079682175385903317 0.079111033367977979 0.080042073860618956 0.081970818243879778 0.081600075196356481 0.077144690707534241 0.084904988326750766 0.082540782812707242 0.076879034450102884 0.086148469465858593 0.085676296991676906 0.08007680737700372 0.047446757229446926 0.033965493255983061 0.050005268575940606 0.046156023706064093 0.035445187480038047 0.052589550807461007 0.045561968037210979 0.03736240989149138 0.055006055484894706 0.0066400739387781679 0.0040621243345989591 0.0077713484416874062 0.0038213991373220028 0.0024422601556660347 0.0044594831168748642 0.0074761635213697998 0.0048486838255663483 0.0085642845275921194 0.088607096992515594 0.076955799705595213 0.070001379963038721 0.087766585503707473 0.0793643352578801 0.072684752227958171 0.082936041028999125 0.075566319449335201 0.070104345395980039 0.099999796488051157 0.10000060297519993 0.099998333526368055 0.099285888279732268 0.099816306263284207 0.097165107970836412 0.099611526512966009 0.099552717459199705 0.094998790570549788 0.099999642563612642 0.1000008922435871 0.099998331713725921 0.098921000601867273 0.099700960598348071 0.097164421709647023 0.099347908327161075 0.099317772724068179 0.094996824769281479 0.099999642563612642 0.1000008922435871 0.099998331713725921 0.099997556565423251 0.09999981122473503 0.099998333413191379 0.098921000601867273 0.099700960598348071 0.097164421709647023 0.099988996978483596 0.099995535094538804 0.09999833171335068 0.096413409069154077 0.097892458563830761 0.097164420962657705 0.099995645535302088 0.10000018587098833 0.099998333412644066 0.099984113028426302 0.099993548537707755 0.099998333526016461 0.087385666474934232 0.091435150329136128 0.094998787928413042 0.09484838818880223 0.096904679123862705 0.097165106219708974 0.099999796488051157 0.10000060297519993 0.099998333526368055 0.099998361505869007 0.099999896944585165 0.099998333369139103 0.099285888279732268 0.099816306263284207 0.097165107970836412 0.099988996978483596 0.099995535094538804 0.09999833171335068 0.091227255187725759 0.094120282522749135 0.094996823945180373 0.096413409069154077 0.097892458563830761 0.097164420962657705 0.099984113028426302 0.099993548537707755 0.099998333526016461 0.09484838818880223 0.096904679123862705 0.097165106219708974 0.099993763089122376 0.10000022274903886 0.099998333366651829 4.159563636639851e-06 8.0105201257252178e-07 1.6667433560148235e-06 0.0038213991373220028 0.0024422601556660347 0.0044594831168748642 0.0028735135156012352 0.0016962782311096087 0.0034400106459150409 0.072372330843864435 0.0642173902530076 0.068802064457161596 0.070069841078505793 0.06321011860943436 0.069388046464978342 0.066875446000882091 0.058015665675402381 0.06518160715877 0.039273010472083432 0.033750689782019679 0.033087176445985682 0.043926531695280428 0.037482696045833118 0.03624965453462508 0.040935342208900681 0.035513105983037682 0.035724429204271421 0.077577353601986199 0.069445055960935476 0.065410025780983552 0.077823876401377834 0.072157517714927691 0.068331934062166935 0.074109333660906176 0.068040224229292887 0.065292678956052938 0.013903648559043282 0.0077046581218331222 0.016502800112261646 0.015826531961715743 0.0083695194906957988 0.019071069561184425 0.012480729896134269 0.0062110469304138593 0.015335108563574189 0.080100762783888016 0.08195436821826256 0.082709175551303638 0.081291346950596033 0.084698643909124974 0.085600442501980373 0.074908952028332448 0.077925209149011618 0.08115927174159461 0.086304735822196554 0.087621385957280168 0.082709179784845474 0.087036696223408511 0.089533173966107313 0.085600188223702606 0.082706409800728617 0.084936126493474401 0.081283038842260763 0.094228131654426325 0.083885691672089313 0.079999748188972306 0.097062287076111572 0.089940985846564181 0.08499831528639501 0.092682622555418981 0.08639204444504571 0.082499357506546731 0.064775412674847793 0.070491807614581056 0.079999732175450589 0.071865224579586384 0.075271374363996862 0.082456441278401932 0.071520156206205596 0.077392601712029316 0.084998320737247751 0.046880840779689716 0.043214260137348311 0.060005464271790945 0.051634040522987548 0.047088186251140696 0.062465072049788045 0.049803182110526513 0.049796453427394097 0.065004305957383171 0.046174173063440953 0.03996490940419644 0.039804342441005981 0.040935342208900681 0.035513105983037682 0.035724429204271421 0.043926531695280428 0.037482696045833118 0.03624965453462508 0.085473740852522864 0.070596969418229086 0.070002885371088258 0.090323782911419376 0.077433659102242869 0.075001287005323755 0.084260452527292154 0.073625034877397466 0.073092189579051947 0.053897523103457926 0.056588681708570704 0.070002873902428542 0.060046553086397218 0.061125849385833007 0.072501966647355212 0.058904107142104603 0.06361924705380595 0.075001293466106275 0.068892583025511961 0.063348553463063645 0.06236987085733791 0.0674253997108267 0.064035623743945058 0.064014499351431428 0.06370761977048145 0.058638888666235414 0.059446506629270777 0.018268062119998259 0.012647928415777412 0.020052611038190667 0.015157147882261801 0.010616114515511038 0.016621048435026577 0.018283799540102313 0.013355434042660824 0.019607321631139225 0.078468205941897504 0.081913234305652005 0.079680898161706259 0.078362919749836196 0.079535424761783796 0.076588287114478085 0.082706409800728617 0.084936126493474401 0.081283038842260763 0.069143650688783642 0.07381484013701313 0.079681183336244743 0.069269869162067677 0.070982756264968513 0.076891814975515449 0.074908952028332448 0.077925209149011618 0.08115927174159461 0.06276219046251659 0.060782132031397873 0.071408105186564846 0.056495971459835044 0.054335812896845734 0.067529279548579374 0.060332649469805141 0.055775560370428003 0.06753261048906968 0.055868337792942362 0.050331503471699852 0.064058170028698916 0.060332649469805141 0.055775560370428003 0.06753261048906968 0.056495971459835044 0.054335812896845734 0.067529279548579374 0.020008473656407347 0.016562183391049146 0.019672716185972699 0.01742212359884102 0.014602236991930376 0.016837363997070472 0.022246962947123399 0.018877791594719421 0.021052360372737621 0.052479292221772715 0.046229604285983897 0.047360649642137174 0.049834017732095948 0.044193780700412383 0.046433588525536966 0.047627437584771469 0.041821875642437674 0.042908663245601011 0.060533803383664958 0.057300261097994055 0.059817841710619706 0.0563329205378542 0.053958794887458063 0.057947749176163951 0.055222091888593228 0.050157057288803812 0.054253281076183373 0.065024318770246323 0.056917336551990313 0.065415203094972063 0.066875446000882091 0.058015665675402381 0.06518160715877 0.070069841078505793 0.06321011860943436 0.069388046464978342 0.053229784050221766 0.050374496918940907 0.055005750844896513 0.0563329205378542 0.053958794887458063 0.057947749176163951 0.05476491980136601 0.055878759239269812 0.060005090056350546 0.065979872507921158 0.068394423672232169 0.077505536672798706 0.066993527942727116 0.066203834727112193 0.074995529635856623 0.072532851864566303 0.073295991909646502 0.079884781034647218 0.072219982176631892 0.070843244263305266 0.077294387051828076 0.072532851864566303 0.073295991909646502 0.079884781034647218 0.066993527942727116 0.066203834727112193 0.074995529635856623 0.01752268486198464 0.015041851206575828 0.014334571238715057 0.021677787529265129 0.018415399291629515 0.016144289178272552 0.023130487145719778 0.019872312370422796 0.018655031944655232 0.03910659525977235 0.03157369269831075 0.038086785519350526 0.043640048439819966 0.034822683272868395 0.042164785209438609 0.039078667776534119 0.030813493129049831 0.03871138587377413 0.043746578030298008 0.034205877359310466 0.043253700751851927 0.039078667776534119 0.030813493129049831 0.03871138587377413 0.043640048439819966 0.034822683272868395 0.042164785209438609 0.039848988022568789 0.029517941111777 0.043850182083710158 0.042641095370327994 0.032759474908795883 0.047099493889262753 0.043263878353293948 0.032946728094698757 0.047917965406240749 0.04528249468505318 0.035146639990485375 0.050720259164602238 0.043263878353293948 0.032946728094698757 0.047917965406240749 0.042641095370327994 0.032759474908795883 0.047099493889262753 0.082482589962733957 0.066620337343504948 0.070002509132083182 0.087801713317096367 0.074966108887688565 0.075000991118530813 0.07941069259391087 0.06934934280624161 0.07250283965175737 0.037715499848625302 0.0282150061817735 0.040896566585832052 0.032804746978028584 0.023621466925851164 0.035769192266740829 0.034741940755907794 0.02572570213098168 0.037276362594401112 0.088607096992515594 0.076955799705595213 0.070001379963038721 0.092108987978869378 0.082652844217790192 0.075000852517487782 0.087766585503707473 0.0793643352578801 0.072684752227958171 0.01944660696527872 0.016598276504008132 0.017936344686701008 0.022246962947123399 0.018877791594719421 0.021052360372737621 0.01742212359884102 0.014602236991930376 0.016837363997070472 0.0098247407606958919 0.0028275777787892154 0.01447692652219449 0.0067344570821648271 0.0012409975588102832 0.010564558191706513 0.0073118934481775193 0.0019023595048083756 0.010744619966252136 0.01752268486198464 0.015041851206575828 0.014334571238715057 0.01250949767791598 0.010611536790026604 0.010692370230108678 0.013232405303263315 0.011218727020259785 0.01053608676438232 0.019259580180706577 0.011323645741700906 0.022371152171776112 0.017417925517623317 0.010787513540007027 0.01991684739726347 0.021787603550671684 0.013918203977720056 0.024597800660473505 0.012020141289295599 0.0093525126665658029 0.0050018577253814998 0.0082940738980415533 0.0069909944389470969 0.0053083606319808572 0.0046989764405013477 0.0035774706932198939 0.0025783879753696042 6.1084650084751103e-06 1.5562981451864316e-07 1.666730418066969e-06 0.0046989764405013477 0.0035774706932198939 0.0025783879753696042 0.0082940738980415533 0.0069909944389470969 0.0053083606319808572 0.0023841516506553743 -0.0012941852490802087 0.0050018577762041792 0.0011864646227727255 -0.00051304816982428029 0.0025783879500152398 0.0027255577088413458 -0.00063668768929292703 0.0053083606805488784 1.9147068823878173e-06 -2.9808183907760329e-07 1.6667299539283492e-06 0.0027255577088413458 -0.00063668768929292703 0.0053083606805488784 0.0011864646227727255 -0.00051304816982428029 0.0025783879500152398 0.052479292221772715 0.046229604285983897 0.047360649642137174 0.056279644893711969 0.048754751745381276 0.048469835881632922 0.057698380976621312 0.050929354774947366 0.0517329261708903 0.0066400739387781679 0.0040621243345989591 0.0077713484416874062 0.0074761635213697998 0.0048486838255663483 0.0085642845275921194 0.010045815015770046 0.0063257901722978708 0.011551082415104795 0.065953094089305664 0.054529549521935089 0.064755997059483886 0.068744379536686592 0.053459878086332423 0.063225718378686069 0.073314221349853811 0.059160817456811156 0.066431091189031954 0.042389454092599706 0.028134710055594755 0.046572604892357358 0.03697417925165624 0.023713771306887826 0.042612601104877371 0.03842442616281784 0.025067980544900285 0.042679906814896737 0.037715499848625302 0.0282150061817735 0.040896566585832052 0.036276121149079112 0.026503422809553888 0.039746741361907055 0.032804746978028584 0.023621466925851164 0.035769192266740829 0.05888020717213318 0.05322440862390751 0.055309603011732891 0.054559827602832102 0.048639385728541366 0.050764299316119567 0.057698380976621312 0.050929354774947366 0.0517329261708903 0.099993063700568902 0.099998138816905988 0.099998333496978481 0.099993763089122376 0.10000022274903886 0.099998333366651829 0.096424197642658735 0.097899073281370291 0.09743416333235394 0.099995181151423043 0.09999873599159266 0.099998333297139155 0.099995645535302088 0.10000018587098833 0.099998333412644066 0.097511342200285595 0.098587298608561025 0.097433890156631869 0.099997556565423251 0.09999981122473503 0.099998333413191379 0.099996076704076481 0.099999577301347731 0.099998333295384906 0.098289534072008397 0.099305296174126562 0.09743389022421016 0.099998361505869007 0.099999896944585165 0.099998333369139103 0.099997331595540931 0.099999723231224066 0.099998333500146308 0.098841856464959452 0.09955237228442626 0.097434164192060316 0.089790762053598372 0.088848655556489256 0.08641049712035373 0.091880745086570015 0.090317327404487321 0.086843732624653752 0.093548631929209689 0.093590331950631378 0.090593155341268966 0.08501361359379532 0.085439290354409086 0.086956194013265958 0.089452426481111486 0.090435246862318713 0.091141928513014267 0.083060543152712843 0.084260994611386919 0.087158724983314534 1.5414589293083056e-05 6.6305560835735503e-06 1.6667308437183776e-06 0.0046989764405013486 0.0035774706932198948 0.0025783879753696047 6.1084650084751103e-06 1.5562981451864316e-07 1.666730418066969e-06 3.0205519905360732e-06 -1.3384441743987654e-06 1.666731794623592e-06 1.9147068823878173e-06 -2.9808183907760329e-07 1.6667299539283492e-06 0.0011864646227727255 -0.00051304816982428029 0.0025783879500152398 3.0205519905360732e-06 -1.3384441743987654e-06 1.666731794623592e-06 0.0011864646227727255 -0.00051304816982428029 0.0025783879500152398 0.0023841516506553743 -0.0012941852490802087 0.0050018577762041792 1.5414589293083056e-05 6.6305560835735503e-06 1.6667308437183776e-06 0.012020141289295599 0.0093525126665658029 0.0050018577253814998 0.0046989764405013477 0.0035774706932198939 0.0025783879753696042 0.065565799008895642 0.064541782507310547 0.065397782825411213 0.067425399710826686 0.064035623743945058 0.064014499351431414 0.071331249935072644 0.069830903654842069 0.068661905692736974 0.027073566765348375 0.023161268559100265 0.025198289547667493 0.030982980623787095 0.026752013135240626 0.028043222678241601 0.031110499255557852 0.026641159318472111 0.029135839027086809 0.063237546259823696 0.053017371960505426 0.061212841772838471 0.066875446000882091 0.058015665675402381 0.06518160715877 0.061667376523716143 0.052145551075701763 0.06155079578097445 0.065024318770246323 0.056917336551990313 0.065415203094972063 0.061667376523716143 0.052145551075701763 0.06155079578097445 0.066875446000882091 0.058015665675402381 0.06518160715877 0.020008473656407347 0.016562183391049146 0.019672716185972699 0.025380605050529019 0.021336064284449768 0.024434854629314266 0.022890814612506288 0.018839038219772161 0.02261837873621932 0.0146602247290994 0.010730641016088099 0.015803568455473576 0.0129227685605491 0.0096793881609032115 0.013775658035640206 0.01831947202338001 0.01399339485397494 0.019197947138593366 0.015929236239798496 0.012429575288462542 0.016505212621753945 0.01831947202338001 0.01399339485397494 0.019197947138593366 0.0129227685605491 0.0096793881609032115 0.013775658035640206 0.04528249468505318 0.035146639990485375 0.050720259164602238 0.046156023706064093 0.035445187480038047 0.052589550807461007 0.043263878353293948 0.032946728094698757 0.047917965406240749 0.047446757229446926 0.033965493255983061 0.050005268575940606 0.043263878353293955 0.032946728094698757 0.047917965406240749 0.046156023706064093 0.035445187480038047 0.052589550807461007 0.060391802889440092 0.052012043636487433 0.051079826370091938 0.057698380976621312 0.050929354774947366 0.0517329261708903 0.056279644893711969 0.048754751745381276 0.048469835881632922 0.06276219046251659 0.060782132031397873 0.071408105186564846 0.066993527942727116 0.066203834727112193 0.074995529635856623 0.060046553086397218 0.061125849385833007 0.072501966647355212 0.079933244553867952 0.070408285121436862 0.071510874793542775 0.084260452527292154 0.073625034877397466 0.073092189579051947 0.082669821625702564 0.074910804070007608 0.074766062796228883 0.021232215881128069 0.016067266154738694 0.022280941291196694 0.024881143485861529 0.018824843000056317 0.025985526619353827 0.022473407536052717 0.016436001146261967 0.023977967156979724 0.083555953024659374 0.080849375357682704 0.080185885845481447 0.086656138097419372 0.079626132750464387 0.078578533505009401 0.089210200252925906 0.084516976745859729 0.081864302500306116 0.088901295532398283 0.086839596989884832 0.08018621139707556 0.091106079494683398 0.0857815630131675 0.078394332717710236 0.092836021418068168 0.089362179931149241 0.081865056892044777 0.053071592606574382 0.045288251457606267 0.050005306161729317 0.049153359544785905 0.041414520649898492 0.04623121792369634 0.048815157209490312 0.042636048881090981 0.046051668923969932 0.055868337792942362 0.050331503471699852 0.064058170028698916 0.051634040522987548 0.047088186251140696 0.062465072049788045 0.052729576694669412 0.044812196273325035 0.059914235108702196 0.069143650688783642 0.07381484013701313 0.079681183336244743 0.061606807295173767 0.068107394047241435 0.077076606548752938 0.064031764513253597 0.06750098717720221 0.075730385416935095 0.078468205941897504 0.081913234305652005 0.079680898161706259 0.073076319760295383 0.077856958481918218 0.077076461617188438 0.074762364305844167 0.077308749435630847 0.075669719705210414 0.065565799008895642 0.064541782507310547 0.065397782825411213 0.069104896940209201 0.069665171068934481 0.069399798981164537 0.064720232928744972 0.06678804203058189 0.067936377798707939 0.085358764332876383 0.08295321366097419 0.081973219806125541 0.087313427550096037 0.086205518673650214 0.084925344887466114 0.083051272250828714 0.080975273072788678 0.081400767781666161 0.077111132557026368 0.078699850455315162 0.083757477939755146 0.071865224579586384 0.075271374363996862 0.082456441278401932 0.072532851864566303 0.073295991909646502 0.079884781034647218 0.021463392054190969 0.011836848508917384 0.025679086653125221 0.018775182956592029 0.010121124908093256 0.022492658255518216 0.022772699610717546 0.013457425530305779 0.026442746251023868 0.092458245601210881 0.093029009820065886 0.091695743297922822 0.090756865191134836 0.091401557792241836 0.090899185519775133 0.086967328966782803 0.086908050989502938 0.086906800901911871 0.01944660696527872 0.016598276504008132 0.017936344686701008 0.01742212359884102 0.014602236991930376 0.016837363997070472 0.015327552865724164 0.012930417773372416 0.014379936486387924 0.012849078833335349 0.010663003201399648 0.012479659884711737 0.015327552865724164 0.012930417773372416 0.014379936486387924 0.01742212359884102 0.014602236991930376 0.016837363997070472 0.033795734927856952 0.026272284332200073 0.034261704711261248 0.035550893441402102 0.028342915406457638 0.035224556040852985 0.039078667776534119 0.030813493129049831 0.03871138587377413 0.052479292221772715 0.046229604285983897 0.047360649642137174 0.057698380976621312 0.050929354774947366 0.0517329261708903 0.054559827602832102 0.048639385728541366 0.050764299316119567 0.020008473656407347 0.016562183391049146 0.019672716185972699 0.022890814612506288 0.018839038219772161 0.02261837873621932 0.018253021340395761 0.014739732085914227 0.018437132575001992 0.021824924782218522 0.017532935151976892 0.022036029712939602 0.018253021340395761 0.014739732085914227 0.018437132575001992 0.022890814612506288 0.018839038219772161 0.02261837873621932 0.025380605050529019 0.021336064284449768 0.024434854629314266 0.026359115751070472 0.02168679263391601 0.025968997990469551 0.022890814612506288 0.018839038219772161 0.02261837873621932 0.095356032489478409 0.095989822628932422 0.093812914375600479 0.093548631929209689 0.093590331950631378 0.090593155341268966 0.097617345411672968 0.098142447581795883 0.095870289161615746 0.09582532303277351 0.09550441979461341 0.091749087982028646 0.097617345411672968 0.098142447581795883 0.095870289161615746 0.093548631929209689 0.093590331950631378 0.090593155341268966 0.088399912306120917 0.089967833320090201 0.091749088786109767 0.089452426481111486 0.090435246862318713 0.091141928513014267 0.095103302699796624 0.095982813228098748 0.095866035589543305 0.093274810033545749 0.094176477642949383 0.093731153187155539 0.095103302699796624 0.095982813228098748 0.095866035589543305 0.089452426481111486 0.090435246862318713 0.091141928513014267 0.04528249468505318 0.035146639990485375 0.050720259164602238 0.048798648191096028 0.039020943160650794 0.054987180227014779 0.046156023706064093 0.035445187480038047 0.052589550807461007 0.09664363728569754 0.097993584105317944 0.094397597809647599 0.098289534072008397 0.099305296174126562 0.09743389022421016 0.096050193112242957 0.097872818177306808 0.095385025384417399 0.097746213763779427 0.098667895637706976 0.094398339536657883 0.098841856464959452 0.09955237228442626 0.097434164192060316 0.09730359620122131 0.098593142010673832 0.095385257093046141 0.093775098029333981 0.095824682380392989 0.094397596585404017 0.096023247975929607 0.097607118725092881 0.095390094606326192 0.097511342200285595 0.098587298608561025 0.097433890156631869 0.091069841764807813 0.093857887648632024 0.09439833667978309 0.094267947523131265 0.096435709416752682 0.095390324337418744 0.096424197642658735 0.097899073281370291 0.09743416333235394 0.069143650688783642 0.07381484013701313 0.079681183336244743 0.064031764513253597 0.06750098717720221 0.075730385416935095 0.069269869162067677 0.070982756264968513 0.076891814975515449 0.078468205941897504 0.081913234305652005 0.079680898161706259 0.074762364305844167 0.077308749435630847 0.075669719705210414 0.078362919749836196 0.079535424761783796 0.076588287114478085 0.065565799008895642 0.064541782507310547 0.065397782825411213 0.071331249935072644 0.069830903654842069 0.068661905692736974 0.069104896940209201 0.069665171068934481 0.069399798981164537 0.03910659525977235 0.03157369269831075 0.038086785519350526 0.039078667776534119 0.030813493129049831 0.03871138587377413 0.035550893441402102 0.028342915406457638 0.035224556040852985 0.099996076704076481 0.099999577301347731 0.099998333295384906 0.096050193112242957 0.097872818177306808 0.095385025384417399 0.098289534072008397 0.099305296174126562 0.09743389022421016 0.099997331595540931 0.099999723231224066 0.099998333500146308 0.09730359620122131 0.098593142010673832 0.095385257093046141 0.098841856464959452 0.09955237228442626 0.097434164192060316 0.099993063700568902 0.099998138816905988 0.099998333496978481 0.096424197642658735 0.097899073281370291 0.09743416333235394 0.094267947523131265 0.096435709416752682 0.095390324337418744 0.099995181151423043 0.09999873599159266 0.099998333297139155 0.097511342200285608 0.098587298608561039 0.097433890156631883 0.096023247975929607 0.097607118725092881 0.095390094606326192 0.085879524961875217 0.085036473353209699 0.084723572821480533 0.083051272250828714 0.080975273072788678 0.081400767781666161 0.087313427550096037 0.086205518673650214 0.084925344887466114 0.053229784050221766 0.050374496918940907 0.055005750844896513 0.055222091888593228 0.050157057288803812 0.054253281076183373 0.0563329205378542 0.053958794887458063 0.057947749176163951 0.099690250003355005 0.098429887242812542 0.094996916942126128 0.098559848008366757 0.098617254132633933 0.095778807653169873 0.09754144396294076 0.09622108357469894 0.092010189543565074 0.08824921969816836 0.09090412388286627 0.094996917249852805 0.086142733465061433 0.088685382630671314 0.092055293058818197 0.093328971184839918 0.094618496325241025 0.095778099796086869 0.0146602247290994 0.010730641016088099 0.015803568455473576 0.010376350635417987 0.0074417708853101519 0.011356322342318655 0.0129227685605491 0.0096793881609032115 0.013775658035640206 0.05673121280253119 0.061005620257315749 0.072501133128898304 0.049915436774448138 0.053169175567585256 0.068016663684890538 0.055760784089277156 0.056310410451587779 0.068988563380411344 0.051541613351651173 0.050469291018537366 0.065509357467261081 0.055760784089277156 0.056310410451587779 0.068988563380411344 0.049915436774448138 0.053169175567585256 0.068016663684890538 0.078232530796665326 0.075099669543373326 0.077847421907703551 0.080456331632647635 0.07674858723314526 0.077973445517217521 0.083051272250828714 0.080975273072788678 0.081400767781666161 0.027845811298840173 0.022358985362098519 0.027869724578273341 0.026359115751070472 0.02168679263391601 0.025968997990469551 0.030281464440493112 0.024967176428171412 0.029647613848429698 0.063237546259823696 0.053017371960505426 0.061212841772838471 0.061667376523716143 0.052145551075701763 0.06155079578097445 0.058988520613542095 0.048371246922708985 0.05797907125410539 0.056762614156909079 0.046578988265508298 0.057614866687024223 0.058988520613542095 0.048371246922708985 0.05797907125410539 0.061667376523716143 0.052145551075701763 0.06155079578097445 0.063145590390866188 0.063366511269751832 0.072501193852254217 0.069269869162067677 0.070982756264968513 0.076891814975515449 0.064031764513253597 0.06750098717720221 0.075730385416935095 0.074034165838142596 0.074321447827657997 0.072501387421954541 0.078362919749836196 0.079535424761783796 0.076588287114478085 0.074762364305844167 0.077308749435630847 0.075669719705210414 0.074034165838142596 0.074321447827657997 0.072501387421954541 0.069104896940209201 0.069665171068934481 0.069399798981164537 0.071331249935072644 0.069830903654842069 0.068661905692736974 0.011375430360599799 0.009611385185114717 0.008343118868858022 0.016923104500353257 0.014412797488941103 0.012374575544697734 0.013232405303263315 0.011218727020259785 0.01053608676438232 0.00477326848773061 0.00012757432382443234 0.0083431191637318488 0.0067344570821648271 0.0012409975588102832 0.010564558191706513 0.0074605076093111327 0.0011524309533828153 0.012413658980891929 0.0081963998206168714 0.0011869747366214667 0.014619566190126687 0.0074605076093111327 0.0011524309533828153 0.012413658980891929 0.010216910594464213 0.0026539596551739086 0.016208876878168115 0.021998286221035959 0.01832196616510242 0.014620480219902619 0.021677787529265129 0.018415399291629515 0.016144289178272552 0.016923104500353257 0.014412797488941101 0.012374575544697732 0.034048903161399677 0.02784364168827522 0.033280821091897624 0.035550893441402102 0.028342915406457638 0.035224556040852985 0.031758005214611446 0.02524968847540629 0.03178207249684175 0.05673121280253119 0.061005620257315749 0.072501133128898304 0.064031764513253597 0.06750098717720221 0.075730385416935095 0.061606807295173767 0.068107394047241435 0.077076606548752938 0.069649006304861732 0.072713055257798934 0.072501553390915061 0.074762364305844167 0.077308749435630847 0.075669719705210414 0.073076319760295383 0.077856958481918218 0.077076461617188438 0.069649006304861732 0.072713055257798934 0.072501553390915061 0.064720232928744972 0.06678804203058189 0.067936377798707939 0.069104896940209201 0.069665171068934481 0.069399798981164537 0.068892583025511961 0.063348553463063645 0.06236987085733791 0.071932460200339124 0.064383798179864477 0.061958323457040186 0.074109333660906176 0.068040224229292887 0.065292678956052938 0.085358764332876383 0.08295321366097419 0.081973219806125541 0.083051272250828714 0.080975273072788678 0.081400767781666161 0.080456331632647635 0.07674858723314526 0.077973445517217521 0.021463392054190969 0.011836848508917384 0.025679086653125221 0.025586130630067417 0.01502158415479103 0.029907321054545497 0.022944252670368447 0.012460570932426205 0.027932099747584725 0.038406616396450266 0.032478822439399584 0.036579009957355427 0.034049151865643862 0.028544939863414581 0.032755866339871674 0.035395010925371499 0.030290942144220106 0.033405729411706789 0.01752268486198464 0.015041851206575828 0.014334571238715057 0.023130487145719775 0.019872312370422793 0.018655031944655232 0.02084361741291926 0.017943531377296582 0.018126864538429221 0.043268546291833548 0.038257527692284139 0.057727427508492288 0.047626994877480525 0.040304483052775182 0.058330092886017051 0.049672826026893602 0.045232581043271977 0.061887928932996203 0.070171810196093087 0.060366201675378123 0.0576704046157447 0.071932460200339124 0.064383798179864477 0.061958323457040186 0.067833518133299062 0.060023148690612621 0.058519118194967988 0.083555953024659374 0.080849375357682704 0.080185885845481447 0.079682175385903317 0.079111033367977979 0.080042073860618956 0.07809737164848729 0.075042117253507831 0.077094783648526177 0.088901295532398283 0.086839596989884832 0.08018621139707556 0.086148469465858593 0.085676296991676906 0.08007680737700372 0.084904988326750766 0.082540782812707242 0.076879034450102884 0.065953094089305664 0.054529549521935089 0.064755997059483886 0.067273274252469928 0.059300660089100843 0.068026323941564826 0.060837681039920551 0.053043704614021019 0.065007842292515564 0.03041028361218661 0.026240052343168563 0.026432605122244743 0.030855451318671474 0.026475243803846481 0.025559896701792553 0.035247894533329202 0.030226363889341402 0.029338920160484082 0.030524567638294458 0.025691513838775267 0.029351355378571559 0.030281464440493112 0.024967176428171412 0.029647613848429698 0.026359115751070472 0.02168679263391601 0.025968997990469551 0.074487654800950917 0.070896535552358836 0.068393265868068112 0.074109333660906176 0.068040224229292887 0.065292678956052938 0.077823876401377834 0.072157517714927691 0.068331934062166935 0.09582532303277351 0.09550441979461341 0.091749087982028646 0.09754144396294076 0.09622108357469894 0.092010189543565074 0.098559848008366757 0.098617254132633933 0.095778807653169873 0.088399912306120917 0.089967833320090201 0.091749088786109767 0.093328971184839904 0.094618496325241025 0.095778099796086869 0.086142733465061433 0.088685382630671314 0.092055293058818197 0.021824924782218522 0.017532935151976892 0.022036029712939602 0.022890814612506288 0.018839038219772161 0.02261837873621932 0.026359115751070472 0.02168679263391601 0.025968997990469551 0.099993763089122376 0.10000022274903886 0.099998333366651829 0.09484838818880223 0.096904679123862705 0.097165106219708974 0.096424197642658735 0.097899073281370291 0.09743416333235394 0.091069841764807813 0.093857887648632024 0.09439833667978309 0.096424197642658735 0.097899073281370291 0.09743416333235394 0.09484838818880223 0.096904679123862705 0.097165106219708974 0.093775098029333981 0.095824682380392989 0.094397596585404017 0.097511342200285595 0.098587298608561025 0.097433890156631869 0.096413409069154077 0.097892458563830761 0.097164420962657705 0.099995645535302088 0.10000018587098833 0.099998333412644066 0.096413409069154077 0.097892458563830761 0.097164420962657705 0.097511342200285595 0.098587298608561025 0.097433890156631869 0.099997556565423251 0.09999981122473503 0.099998333413191379 0.098289534072008397 0.099305296174126562 0.09743389022421016 0.098921000601867273 0.099700960598348071 0.097164421709647023 0.099998361505869007 0.099999896944585165 0.099998333369139103 0.098841856464959452 0.09955237228442626 0.097434164192060316 0.099285888279732268 0.099816306263284207 0.097165107970836412 0.09664363728569754 0.097993584105317944 0.094397597809647599 0.098921000601867273 0.099700960598348071 0.097164421709647023 0.098289534072008397 0.099305296174126562 0.09743389022421016 0.097746213763779427 0.098667895637706976 0.094398339536657883 0.099285888279732268 0.099816306263284207 0.097165107970836412 0.098841856464959452 0.09955237228442626 0.097434164192060316 0.078232530796665326 0.075099669543373326 0.077847421907703551 0.083051272250828714 0.080975273072788678 0.081400767781666161 0.08143412654109744 0.079812258964159374 0.081441972848464578 0.082753509162382638 0.077538971356307149 0.077355445566156492 0.078172980848943807 0.07077414837560847 0.072624276646691341 0.082669821625702564 0.074910804070007608 0.074766062796228883 0.079933244553867952 0.070408285121436862 0.071510874793542775 0.082669821625702564 0.074910804070007608 0.074766062796228883 0.078172980848943807 0.07077414837560847 0.072624276646691341 0.085879524961875217 0.085036473353209699 0.084723572821480533 0.087313427550096037 0.086205518673650214 0.084925344887466114 0.090446254072200805 0.090451176635623728 0.088593472636937537 0.089790762053598372 0.088848655556489256 0.08641049712035373 0.090446254072200805 0.090451176635623728 0.088593472636937537 0.087313427550096037 0.086205518673650214 0.084925344887466114 0.039848988022568789 0.029517941111777 0.043850182083710158 0.039746580124776366 0.029948921164366475 0.043549749861383991 0.042641095370327994 0.032759474908795883 0.047099493889262753 0.028016470127687581 0.01645142845368338 0.033126128592821866 0.0294161421452135 0.017394424614860456 0.035646116457354646 0.024758902265560389 0.013555501133359049 0.030860158976125256 0.02588765438991272 0.014470395712919835 0.033406497389004808 0.024758902265560389 0.013555501133359049 0.030860158976125256 0.0294161421452135 0.017394424614860456 0.035646116457354646 0.03041028361218661 0.026240052343168563 0.026432605122244743 0.035664782706434306 0.030880337964181433 0.031258154139836056 0.030982980623787095 0.026752013135240626 0.028043222678241601 0.043268546291833548 0.038257527692284139 0.057727427508492288 0.043207577245644488 0.03500289659199133 0.054786213635150939 0.047626994877480518 0.040304483052775182 0.058330092886017051 0.048221151926335408 0.037637443324198487 0.055902419437427055 0.047626994877480518 0.040304483052775182 0.058330092886017051 0.043207577245644488 0.03500289659199133 0.054786213635150939 0.037715499848625302 0.0282150061817735 0.040896566585832052 0.039746580124776366 0.029948921164366475 0.043549749861383991 0.036276121149079112 0.026503422809553888 0.039746741361907055 0.072219982176631892 0.070843244263305266 0.077294387051828076 0.077400122060943141 0.077325245382142777 0.081723458128401316 0.072532851864566303 0.073295991909646502 0.079884781034647218 0.077111132557026368 0.078699850455315162 0.083757477939755146 0.072532851864566303 0.073295991909646502 0.079884781034647218 0.077400122060943141 0.077325245382142777 0.081723458128401316 0.032565056825558769 0.02282013561861481 0.035868157826890484 0.036276121149079112 0.026503422809553888 0.039746741361907055 0.036214772134146471 0.025841857916383496 0.039780795458279436 0.063124565168694066 0.056179066974404973 0.05620578377161798 0.065303925890179859 0.056544985253260661 0.054982401520884551 0.067833518133299062 0.060023148690612621 0.058519118194967988 0.070171810196093087 0.060366201675378123 0.0576704046157447 0.067833518133299062 0.060023148690612621 0.058519118194967988 0.065303925890179859 0.056544985253260661 0.054982401520884551 0.030565299117930871 0.021970923213700758 0.033125624935315755 0.034741940755907794 0.02572570213098168 0.037276362594401112 0.032804746978028584 0.023621466925851164 0.035769192266740829 0.032565056825558769 0.02282013561861481 0.035868157826890484 0.032804746978028584 0.023621466925851164 0.035769192266740829 0.036276121149079112 0.026503422809553888 0.039746741361907055 0.079933244553867952 0.070408285121436862 0.071510874793542775 0.079938088382707204 0.067684616284549567 0.068889949387266045 0.084260452527292154 0.073625034877397466 0.073092189579051947 0.030524567638294458 0.025691513838775267 0.029351355378571559 0.034049151865643869 0.028544939863414581 0.032755866339871674 0.030281464440493112 0.024967176428171412 0.029647613848429698 0.034048903161399677 0.02784364168827522 0.033280821091897624 0.030281464440493112 0.024967176428171412 0.029647613848429698 0.034049151865643869 0.028544939863414581 0.032755866339871674 0.033795734927856952 0.026272284332200073 0.034261704711261248 0.031758005214611446 0.02524968847540629 0.03178207249684175 0.035550893441402102 0.028342915406457638 0.035224556040852985 0.092172781008020482 0.082740048824315876 0.079999476567780822 0.089210200252925906 0.084516976745859729 0.081864302500306116 0.086656138097419372 0.079626132750464387 0.078578533505009401 0.094966247487543343 0.088101690738644864 0.080000305235467473 0.092836021418068154 0.089362179931149227 0.081865056892044763 0.091106079494683398 0.0857815630131675 0.078394332717710236 0.035203674150129712 0.029804392932397724 0.027477242516961063 0.035247894533329202 0.030226363889341402 0.029338920160484082 0.030855451318671474 0.026475243803846481 0.025559896701792553 4.4117934236133927e-06 1.0512753514074549e-06 1.6667433991362826e-06 0.0032176416429220284 0.0023346134419848876 0.0035481386874202585 0.0029610028268619178 0.0020852509294510741 0.0033568414641409984 0.076219960197758535 0.058109105770653209 0.065003942023570155 0.073314221349853811 0.059160817456811156 0.066431091189031954 0.068744379536686592 0.053459878086332423 0.063225718378686069 0.085879524961875217 0.085036473353209699 0.084723572821480533 0.08143412654109744 0.079812258964159374 0.081441972848464578 0.083051272250828714 0.080975273072788678 0.081400767781666161 0.02032063511722183 0.010110130983780699 0.026107276385236002 0.024758902265560385 0.013555501133359047 0.030860158976125252 0.022013984873927174 0.01125652630911732 0.029212023827957019 0.02588765438991272 0.014470395712919835 0.033406497389004808 0.022013984873927174 0.01125652630911732 0.029212023827957019 0.024758902265560389 0.013555501133359049 0.030860158976125256 0.085473740852522864 0.070596969418229086 0.070002885371088258 0.084260452527292154 0.073625034877397466 0.073092189579051947 0.079938088382707204 0.067684616284549567 0.068889949387266045 
</DataArray>
</PointData>
<CellData Scalars="region_id,cross_section_updated,displacement_divergence," Vectors="" Tensors="stress,">
<DataArray type="Float64" Name="region_id" format="ascii">
2 2 2 2 2 2 2 2 2 2 3 3 3 3 3 3 3 3 3 3 1 1 1 1 1 1 1 1 1 1 1 1 1 1 1 1 1 1 1 1 1 1 1 1 1 1 1 1 1 1 1 1 1 1 1 1 1 1 1 1 1 1 1 1 1 1 1 1 1 1 1 1 1 1 1 1 1 1 1 1 1 1 1 1 1 1 1 1 1 1 1 1 1 1 1 1 1 1 1 1 1 1 1 1 1 1 1 1 1 1 1 1 1 1 1 1 1 1 1 1 1 1 1 1 1 1 1 1 1 1 1 1 1 1 1 1 1 1 1 1 1 1 1 1 1 1 1 1 1 1 1 1 1 1 1 1 1 1 1 1 1 1 1 1 1 1 1 1 1 1 1 1 1 1 1 1 1 1 1 1 1 1 1 1 1 1 1 1 1 1 1 1 1 1 1 1 1 1 1 1 1 1 1 1 1 1 1 1 1 1 1 1 1 1 1 1 1 1 1 1 1 1 1 1 1 1 1 1 1 1 1 1 1 1 1 1 1 1 1 1 1 1 1 1 1 1 1 1 1 1 1 1 1 1 1 1 1 1 1 1 1 1 1 1 1 1 1 1 1 1 1 1 1 1 1 1 1 1 1 1 1 1 1 1 1 1 1 1 1 1 1 1 1 1 1 1 1 1 1 1 1 1 1 1 1 1 1 1 1 1 1 1 1 1 1 1 1 1 1 1 1 1 1 1 1 1 1 1 1 1 1 1 1 1 1 1 1 1 1 1 1 1 1 1 1 1 1 1 1 1 1 1 1 1 1 1 1 1 1 1 1 1 1 1 1 1 1 1 1 1 1 1 1 1 1 1 1 1 1 1 1 1 1 1 1 1 1 1 1 1 1 1 1 1 1 1 1 1 1 1 1 1 1 1 1 1 1 1 1 1 1 1 1 1 1 1 1 1 1 1 1 1 1 1 1 1 1 1 1 1 1 1 1 1 1 1 1 1 1 1 1 1 1 1 1 1 1 1 1 1 1 1 1 1 1 1 1 1 1 1 1 1 1 1 1 1 1 1 1 1 1 1 1 1 1 1 1 1 1 1 1 1 1 1 1 1 1 1 1 1 1 1 1 1 1 1 1 1 1 1 1 1 1 1 1 1 1 1 1 1 1 1 1 1 1 1 1 1 1 1 1 1 1 1 1 1 1 1 1 1 1 1 1 1 1 1 1 1 1 1 1 1 1 1 1 1 1 1 1 1 1 1 1 1 1 1 1 1 1 1 1 1 1 1 1 1 1 1 1 1 1 1 1 1 1 1 1 1 1 1 1 1 1 1 1 1 1 1 1 1 1 1 1 1 1 1 1 1 1 1 1 1 1 1 1 1 1 1 1 1 1 1 1 1 1 1 1 1 1 1 1 1 1 1 1 1 1 1 1 1 1 1 1 1 1 1 1 1 1 1 1 1 1 1 1 1 1 1 1 1 1 1 1 1 1 1 1 1 1 1 1 1 1 1 1 1 1 1 1 1 1 1 1 1 1 1 1 1 1 1 1 1 1 1 1 1 1 1 1 1 1 1 1 1 1 1 1 1 1 1 1 1 1 1 1 1 1 1 1 1 1 1 1 1 1 1 1 1 1 1 1 1 1 1 1 1 1 1 1 1 1 1 1 1 1 1 1 1 1 1 1 1 1 1 1 1 1 1 1 1 1 1 1 1 1 1 1 1 1 1 1 1 1 1 1 1 1 1 1 1 1 1 1 1 1 1 1 1 1 1 1 1 1 1 1 1 1 1 1 1 1 1 1 1 1 1 1 1 1 1 1 1 1 1 1 1 1 1 1 1 1 1 1 1 1 1 1 1 1 1 1 1 1 1 1 1 1 1 1 1 1 1 1 1 1 1 1 1 1 1 1 1 1 1 1 1 1 1 1 1 1 1 1 1 1 1 1 1 1 1 1 1 1 1 1 1 1 1 1 1 1 1 1 1 1 1 1 1 1 1 1 1 1 1 1 1 1 1 1 1 1 1 1 1 1 1 1 1 1 1 1 1 1 1 1 1 1 1 1 1 1 1 1 1 1 1 1 1 1 1 1 1 1 1 1 1 1 1 1 1 1 1 1 1 1 1 1 1 1 1 1 1 1 1 1 1 1 1 1 1 1 1 1 1 1 1 1 1 1 1 1 1 1 1 1 1 1 1 1 1 1 1 1 1 1 1 1 1 1 1 1 1 1 1 1 1 1 1 1 1 1 1 1 1 1 1 1 1 1 1 1 1 1 1 1 1 1 1 1 1 1 1 1 1 1 1 1 1 1 1 1 1 1 1 1 1 1 1 1 1 1 1 1 1 1 1 1 1 1 1 1 1 1 1 1 1 1 1 1 1 1 1 1 1 
</DataArray>
<DataArray type="Float64" Name="stress" NumberOfComponents="9" format="ascii">
0.0008387414333203419 0.001143318268473777 0.00085879032289293278 0.001143318268473777 0.00044321128698666945 5.8238465577842291e-08 0.00085879032289293278 5.8238465577842291e-08 0.00032048818007672508 0.002133607422071887 0.0034775829096024957 0.0023178453958253597 0.0034775829096024957 0.0014393333389266655 1.3542980544130334e-07 0.0023178453958253597 1.3542980544130334e-07 0.00089323519024961037 0.0029808903167663579 0.0058542999845281503 0.0033994903767066154 0.0058542999845281503 0.0024237792163356101 1.5705788648269492e-07 0.0033994903767066154 1.5705788648269492e-07 0.0013511673832755245 0.0034250002817278486 0.0075883080303313886 0.0041146084037808617 0.0075883080303313886 0.0032985011158928323 1.562604400803802e-07 0.0041146084037808617 1.562604400803802e-07 0.0016808753494051715 0.0034028237547940737 0.008435078941348359 0.0044703867725434153 0.008435078941348359 0.0042188046820755692 1.341883791427384e-07 0.0044703867725434153 1.341883791427384e-07 0.001905407109217383 0.0029927539900669355 0.0083811447666457557 0.0044703973483765135 0.0083811447666457557 0.0050412969072158517 1.1089816310747014e-07 0.0044703973483765135 1.1089816310747014e-07 0.0020085127243206664 0.0022344479802794484 0.0075047453629800698 0.0041146405745655689 0.0075047453629800698 0.0057083760879562129 8.8266564560873784e-08 0.0041146405745655689 8.8266564560873784e-08 0.0019857060170588928 0.0012322073899362213 0.0058726989899446757 0.0033995382997083967 0.0058726989899446757 0.0060162409440831788 5.672035178344581e-08 0.0033995382997083967 5.672035178344581e-08 0.0018121120835048465 0.00029595727637372199 0.0036841366143876833 0.0023178986040709431 0.0036841366143876833 0.0052894207760419837 4.0156853793604785e-08 0.0023178986040709431 4.0156853793604785e-08 0.0013963445131039559 -3.5803898191494321e-05 0.0012843083914558296 0.0008588202245341011 0.0012843083914558296 0.002289257781661419 1.8589093989801464e-08 0.0008588202245341011 1.8589093989801464e-08 0.00056336347086745342 6.0078404368465663e-06 0.0012867582124115881 0.00085879099545816296 0.0012867582124115881 0.0026200922671711646 -6.8478909430111368e-08 0.00085879099545816296 -6.8478909430111368e-08 0.00065652502690197439 0.00043410524489813536 0.0040048991793275469 0.0023178469893836407 0.0040048991793275469 0.0061651690235039469 -1.4436567864414829e-07 0.0023178469893836407 -1.4436567864414829e-07 0.0016498185671005219 0.0010323882138460298 0.006832656312181027 0.0033994920410794801 0.006832656312181027 0.0081799216091992324 -1.4867353181902132e-07 0.0033994920410794801 -1.4867353181902132e-07 0.0023030774557613425 0.0011514193984423771 0.0089585060712270986 0.0041146097715005787 0.0089585060712270986 0.010167437387850586 -1.4574083167552543e-07 0.0041146097715005787 -1.4574083167552543e-07 0.0028297141965732409 0.00096971043648061937 0.01008191407459318 0.0044703874846758716 0.01008191407459318 0.011725112795529187 -1.3342358416539024e-07 0.0044703874846758716 -1.3342358416539024e-07 0.0031737058080024538 0.00052777663725793282 0.010065452780428617 0.0044703979685932682 0.010065452780428617 0.012759980502348563 -1.1159104904359674e-07 0.0044703979685932682 -1.1159104904359674e-07 0.0033219392849016 -9.2710054835999645e-05 0.0090277737629277811 0.0041146412444401708 0.0090277737629277811 0.0130857432349775 -8.9124734502232794e-08 0.0041146412444401708 -8.9124734502232794e-08 0.0032482582950354028 -0.00067650532926280191 0.0070603522846179045 0.0033995389039334105 0.0070603522846179045 0.012215430514980113 -6.0184618885794627e-08 0.0033995389039334105 -6.0184618885794627e-08 0.002884731296429268 -0.0011492852884816517 0.0043788354223328017 0.0023178990340707627 0.0043788354223328017 0.0099608653024840302 -4.0677532606170352e-08 0.0023178990340707627 -4.0677532606170352e-08 0.0022028950035005886 -0.00066376050261858846 0.0014955643360250884 0.00085882033313145389 0.0014955643360250884 0.0042698143068210306 -1.848713232499577e-08 0.00085882033313145389 -1.848713232499577e-08 0.00090151345105063049 122.95491560337734 32.011691137239168 40.002646104187903 32.011691137239168 5.7902445138920484 0.00019674782697620685 40.002646104187903 0.00019674782697620685 32.18629002931732 121.2446644942948 30.421634449179976 40.002477759393983 30.421634449179976 3.7927323778332038 -0.00042434189106188569 40.002477759393983 -0.00042434189106188569 31.259349218032014 149.59188264044974 33.515662929388554 39.998723803555549 33.515662929388554 20.684307340451028 -0.0058038597378526902 39.998723803555549 -0.0058038597378526902 42.56904749522522 137.84589761533618 20.673062752680039 40.003240777867973 20.673062752680039 14.248257380163125 -0.0054642322670090948 40.003240777867973 -0.0054642322670090948 38.023538748874799 58.192323314626854 -2.4698393136216783 40.001516324003731 -2.4698393136216783 2.5628058094383119 -2.0075011121889474e-05 40.001516324003731 -2.0075011121889474e-05 15.188782281016287 177.27823408293906 15.629191138877793 40.001513599651986 15.629191138877793 5.9933883148130072 1.8874649606370753e-05 40.001513599651986 1.8874649606370753e-05 45.817905599438021 46.830192881436204 0.52811044296364962 40.001509207109066 0.52811044296364962 1.4224398713466204 -1.3135026871502475e-05 40.001509207109066 -1.3135026871502475e-05 12.063158188195704 185.89990737438325 16.325477390179355 40.001507823113315 16.325477390179355 0.84887594900934005 1.3241703008759487e-05 40.001507823113315 1.3241703008759487e-05 46.687195830848168 128.84366514804981 3.2381302907924692 40.001089730569163 3.2381302907924692 0.8911068076591846 0.00014782800542434416 40.001089730569163 0.00014782800542434416 32.43369298892722 61.421123172958545 2.0179475696597642 40.001095134851269 2.0179475696597642 -0.52753671978157968 -0.00012923770785278066 40.001095134851269 -0.00012923770785278066 15.223396613294256 103.99008498706976 23.268829433430572 40.001906086851548 23.268829433430572 14.177638650525125 -0.00010349297208733788 40.001906086851548 -0.00010349297208733788 29.541930909398722 102.64568195910883 22.40271625343761 40.001886830628266 22.40271625343761 12.368375135541442 -0.00011869139245845872 40.001886830628266 -0.00011869139245845872 28.753514273662546 122.24628851792674 32.998228420895842 40.0017860804831 32.998228420895842 23.997414857435047 0.00012685870579787206 40.0017860804831 0.00012685870579787206 36.560925843840451 90.229052961618208 11.640966934459991 40.001737449546063 11.640966934459991 30.071773988007642 -2.4244413667231326e-08 40.001737449546063 -2.4244413667231326e-08 30.075206737406464 120.04813820079487 31.883010424085693 40.001737473758489 31.883010424085693 40.014743044483701 1.8457998334233485e-08 40.001737473758489 1.8457998334233485e-08 40.015720311319647 142.81580302989681 14.187294225943901 39.99501715457302 14.187294225943901 0.55657766033323242 -0.0096596246533238173 39.99501715457302 -0.0096596246533238173 35.843095172557526 120.66581256367937 54.694213883666166 40.007099752686884 54.694213883666166 18.337111345591666 0.0040902015090296118 40.007099752686884 0.0040902015090296118 34.750730977317687 85.219963822064415 12.588035802238892 39.997467143668132 12.588035802238892 20.05472112868938 -0.0014139882977133311 39.997467143668132 -0.0014139882977133311 26.318671237688477 123.69394348913465 19.382754887197734 39.99747086878881 19.382754887197734 28.995083135010873 0.00059426729706046899 39.99747086878881 0.00059426729706046899 38.172256656036438 120.30396704999873 17.765337022360452 39.997470868788795 17.765337022360452 18.825153817639148 0.0014231807572286925 39.997470868788795 0.0014231807572286925 34.782280216909385 82.861881137767796 11.517512570386618 39.997467143668352 11.517512570386618 12.980473075849204 -0.00059447324485972786 39.997467143668352 -0.00059447324485972786 23.96058855340425 130.13475954647913 26.90753684973015 39.996511836276113 26.90753684973015 12.307700228441149 0.00096109821367917903 39.996511836276113 0.00096109821367917903 35.61061494373007 89.583344963821901 17.849115228545884 39.996503739944842 17.849115228545884 8.537854727363424 -0.0024320081205360111 39.996503739944842 -0.0024320081205360111 24.530299922796303 118.75684788792788 30.732985221509139 40.001792993263237 30.732985221509139 24.826404121376285 0.00012491844804429775 40.001792993263237 0.00012491844804429775 35.895813002326037 123.89477607432181 36.761947102558281 40.008034583518537 36.761947102558281 8.9196383346816219 -0.003129089869503332 40.008034583518537 -0.003129089869503332 33.203603602250809 84.41876153388236 4.4761477313776084 39.998426628482775 4.4761477313776084 1.6345866373305853 -0.00056834680026440765 39.998426628482775 -0.00056834680026440765 21.513337042803215 110.87339407366522 2.2773797987378761 39.998459139801767 2.2773797987378761 -0.93638387071860052 0.0005887514564619778 39.998459139801767 0.0005887514564619778 27.484252550736585 174.47559323876163 17.102088936581744 39.995471806603902 17.102088936581744 4.7419013938515491 -0.0093846729739652801 39.995471806603902 -0.0093846729739652801 44.804373658153395 106.14923088538603 15.399895582085009 39.99970104356396 15.399895582085009 6.3792637912727059 -0.0021593082938693442 39.99970104356396 -0.0021593082938693442 28.132123669164628 91.987735792535005 11.864743965688888 40.001045235124991 11.864743965688888 -0.33114932344108183 -0.00078994847311264493 40.001045235124991 -0.00078994847311264493 22.914146617273509 105.93420856453827 21.875710722499264 39.99981423258123 21.875710722499264 -0.1492811712475941 0.0010037617295211021 39.99981423258123 0.0010037617295211021 26.446231848322668 90.437886023602971 19.87861466521656 39.994608388782012 19.87861466521656 -0.061102389117081657 -0.0011137749359022564 39.994608388782012 -0.0011137749359022564 22.594195908621316 131.43687246689339 29.773025514438302 39.994529762705326 29.773025514438302 0.81679498938285633 0.00056260453007439537 39.994529762705326 0.00056260453007439537 33.063416864068898 97.294182286905993 18.687764829541265 39.993667776962639 18.687764829541265 -0.89366629428650413 -0.0002482717595739814 39.993667776962639 -0.0002482717595739814 24.100128998154901 140.37736760484154 27.7102342568528 39.994997915331965 27.7102342568528 1.0842895576342926 0.00011993169118795777 39.994997915331965 0.00011993169118795777 35.365414290619015 94.635475346217191 11.360982273058113 40.001399311427633 11.360982273058113 -0.65484432344933907 -0.00062659599677772349 40.001399311427633 -0.00062659599677772349 23.495157755691963 98.66088209154799 26.373685306633007 39.998475948585281 26.373685306633007 0.3053433403897543 0.0021195171106000998 39.998475948585281 0.0021195171106000998 24.74155635798445 104.20063247934002 9.2301580280829398 39.999726496615722 9.2301580280829398 2.1194328466186789 -0.0013727913731145236 39.999726496615722 -0.0013727913731145236 26.580016331489702 255.52298928543121 29.063632220230147 40.003556115255684 29.063632220230147 11.182991500752678 -0.011197035327995764 40.003556115255684 -0.011197035327995764 66.676495196546 41.170917822357978 7.0119974457222725 40.002977402723673 7.0119974457222725 4.4011826051594198 0.0032547986955933084 40.002977402723673 0.0032547986955933084 11.393025106879236 174.4908364531168 38.023619319865617 40.002956351897438 38.023619319865617 34.963031225783652 -0.0032742044776341572 40.002956351897438 -0.0032742044776341572 52.363466919724942 104.1972643021722 24.597931833892005 39.999804602604343 24.597931833892005 6.5211507835285261 0.0010283240312958242 39.999804602604343 0.0010283240312958242 27.679603771425164 131.71004961556241 12.537261895220922 39.997634867352872 12.537261895220922 1.1439278105576705 -0.0087658778817285565 39.997634867352872 -0.0087658778817285565 33.213494356530191 188.39574970799879 18.603362348176461 39.996214544645909 18.603362348176461 1.6530432158210715 0.00012770875366641121 39.996214544645909 0.00012770875366641121 47.512198230954937 93.833595259483062 15.177559781544357 40.001796921860233 15.177559781544357 24.634949134406874 -2.8778392717754286e-05 40.001796921860233 -2.8778392717754286e-05 29.617136098472493 112.19573805214469 27.928076811910088 40.001796767392307 27.928076811910088 32.898804674895544 2.972242330656627e-05 40.001796767392307 2.972242330656627e-05 36.273635681760062 117.38787716901282 21.771853058840975 39.998457455064397 21.771853058840975 10.928202796966048 -0.0029124566528508922 39.998457455064397 -0.0029124566528508922 32.079019991494697 119.92215095831934 20.21187759586644 39.999084199587116 20.21187759586644 14.702606685236475 -0.004310463277519716 39.999084199587116 -0.004310463277519716 33.656189410888956 177.04693214330797 55.106130526709421 40.000454496733028 55.106130526709421 26.542672050115755 -0.007371467231834572 40.000454496733028 -0.007371467231834572 50.897401048355917 182.46044078828598 9.5626196894626219 39.995995481242744 9.5626196894626219 2.8653242976804449 0.00018904783333795194 39.995995481242744 0.00018904783333795194 46.331441271491641 127.76792925969914 5.9846289699968338 39.994680435252008 5.9846289699968338 1.8376270540677453 -0.0056197349689064424 39.994680435252008 -0.0056197349689064424 32.401389078441753 122.96348494825895 38.618279315464633 39.994301325995934 38.618279315464633 8.9884981411582885 -0.0010958674869243623 39.994301325995934 -0.0010958674869243623 32.987995772354225 110.72325237114813 25.022747216766447 39.999431811209604 25.022747216766447 7.0645980253858625 1.6156118363142014e-06 39.999431811209604 1.6156118363142014e-06 29.446962599133485 111.15326289071552 31.251352694608784 39.996831209884505 31.251352694608784 -1.1748063988633248 0.00038654536547255702 39.996831209884505 0.00038654536547255702 27.494614122963071 101.43462514620069 26.679587719160565 39.992351867520114 26.679587719160565 -4.2682005997028227 0.0011703395491622359 39.992351867520114 0.0011703395491622359 24.29160613662458 119.9290207819439 7.2678772993081679 39.996342284170566 7.2678772993081679 -0.038837753557913857 -0.0001917772458455147 39.996342284170566 -0.0001917772458455147 29.972545757096555 48.735890577959935 5.1524757135096024 39.995981161591203 5.1524757135096024 -0.32429344634942936 -0.00017720464393278235 39.995981161591203 -0.00017720464393278235 12.102899282902627 73.084221983373027 7.9336259135128557 39.994672696028033 7.9336259135128557 -0.51400258286798817 0.005732604734475899 39.994672696028033 0.005732604734475899 18.142554850126089 148.3990282063979 7.1851243505776665 39.997358040768631 7.1851243505776665 2.6806428897757613 -0.0084594049273825078 39.997358040768631 -0.0084594049273825078 37.769917774043357 211.8467339051615 11.014218210108373 39.996217446808437 11.014218210108373 4.1540171581327741 0.00012449578764517355 39.996217446808437 0.00012449578764517355 54.000187765823739 89.975868336431972 31.495347346835615 39.993464485012225 31.495347346835615 4.1980932975893666 0.002412790809330545 39.993464485012225 0.002412790809330545 23.543490408505477 72.322708360610378 39.667060651048587 40.001142049497787 39.667060651048587 -6.5681300501043012 0.0081750010225931646 40.001142049497787 0.0081750010225931646 16.438644577626647 92.790905077792445 29.462964935189063 39.994034832530019 29.462964935189063 0.72691205208366227 0.0013077831630425862 39.994034832530019 0.0013077831630425862 23.379454282468942 110.3124171426507 30.44263450423621 39.993104661270507 30.44263450423621 -0.82945068470758088 0.0021099907805819385 39.993104661270507 0.0021099907805819385 27.370741614485837 91.597285571522661 19.51804179038168 39.99535903606872 19.51804179038168 -5.7230622637009674 0.0029275433693101149 39.99535903606872 0.0029275433693101149 21.46855582695548 177.8433293408257 42.989335579317938 40.001539657816359 42.989335579317938 36.385735141801334 2.4152541755029233e-05 40.001539657816359 2.4152541755029233e-05 53.55726612065677 58.465703214837461 -6.0603618870163274 40.00154005383952 -6.0603618870163274 10.763551353735547 -2.4904616459764384e-05 40.00154005383952 -2.4904616459764384e-05 17.307313642143253 69.168827581881331 17.981241114509089 39.999027955469273 17.981241114509089 23.042237487398989 -1.7399687977570798e-06 39.999027955469273 -1.7399687977570798e-06 23.052766267320024 142.0257102360888 38.871065513920371 39.999001493996161 38.871065513920371 47.385048409642877 1.6738371186875156e-06 39.999001493996161 1.6738371186875156e-06 47.352689661432919 72.751164383926039 0.57851484967943334 40.001606164301705 0.57851484967943334 12.934451324029256 -3.3967935877399213e-05 40.001606164301705 -3.3967935877399213e-05 21.421403926988823 138.88380151297133 35.588542546131798 40.001604625283747 35.588542546131798 38.459564841335947 3.3721160129118743e-05 40.001604625283747 3.3721160129118743e-05 44.33584158857682 100.76823060016787 19.651185310511199 40.001832646293913 19.651185310511199 18.266407634823992 -7.594884166906013e-05 40.001832646293913 -7.594884166906013e-05 29.758659558747986 167.8216865942731 11.800428546128458 40.001482286541361 11.800428546128458 5.327104892305087 4.7074433397575888e-05 40.001482286541361 4.7074433397575888e-05 43.287197871644572 58.820995499134106 0.037251931969453977 40.001485624984987 0.037251931969453977 0.40982147124815782 -4.6713830087696806e-05 40.001485624984987 -4.6713830087696806e-05 14.807704242595557 112.81378125187382 37.728854145514248 39.993847446422592 37.728854145514248 -0.50087179789898073 9.5763355147937546e-05 39.993847446422592 9.5763355147937546e-05 28.078227363493511 111.53425333566787 35.528362434601888 39.995243367943317 35.528362434601888 -2.034133756523488 0.00052317240107413454 39.995243367943317 0.00052317240107413454 27.375029894786223 68.76110759221153 15.800192882534475 39.997628682854838 15.800192882534475 6.9762651100327844 0.0087680727013719206 39.997628682854838 0.0087680727013719206 18.934343175561182 45.845898527174526 10.670813064622735 39.996215029878954 10.670813064622735 4.7811855971479531 -0.00012612298772296526 39.996215029878954 -0.00012612298772296526 12.656771031080652 111.91967100833944 36.344180717723702 39.994687050308386 36.344180717723702 -2.0610295937653973 0.00039343992921203608 39.994687050308386 0.00039343992921203608 27.464660353643467 120.80561674692356 34.359743051321573 39.993691513663407 34.359743051321573 2.7699945373581158 -0.0012015228808763823 39.993691513663407 -0.0012015228808763823 30.893902821070498 128.75371394635363 28.642919567074614 39.99535337240556 28.642919567074614 2.2340391943419036 -0.0015038009305499145 39.99535337240556 -0.0015038009305499145 32.746938285173883 66.50416869198601 -0.89712439484177875 40.001568921574453 -0.89712439484177875 22.160631634043273 -2.4563950944481161e-08 40.001568921574453 -2.4563950944481161e-08 22.16620008150732 153.69276985743508 42.41687977431495 40.001567666518703 42.41687977431495 51.277798745293445 1.2858254672944691e-08 40.001567666518703 1.2858254672944691e-08 51.24264215068213 97.067679494439986 17.457651402510464 40.001804322780259 17.457651402510464 11.866979165440441 -0.00014101300820001939 40.001804322780259 -0.00014101300820001939 27.233664664970114 128.31122885831121 26.898580165318549 39.996422410671357 26.898580165318549 6.7829338833455495 0.0024970356352582712 39.996422410671357 0.0024970356352582712 33.773540685414105 88.305970283838121 17.947348485443285 39.996415396086036 17.947348485443285 4.7169591300510092 -0.00091465032153337233 39.996415396086036 -0.00091465032153337233 23.255732353472183 90.67781940008112 19.898477827120814 39.994375284173998 19.898477827120814 -3.2343237963423803 0.0019369026924351829 39.994375284173998 0.0019369026924351829 21.860873900934713 104.98034960701182 23.503755197865488 40.001860377333536 23.503755197865488 21.660379402499316 -1.8154203942799541e-05 40.001860377333536 -1.8154203942799541e-05 31.66018225237778 94.916697585050855 16.759049830945159 40.001622254482129 16.759049830945159 4.8070301095521728 -0.00035012449104243615 40.001622254482129 -0.00035012449104243615 24.930931923650739 125.0392029271984 33.646443931731056 39.992781581701294 33.646443931731056 2.2024786538152057 -0.00036654155110227293 39.992781581701294 -0.00036654155110227293 31.810420395253345 106.19994552447439 23.928346658318105 40.001883875583246 23.928346658318105 22.170006228458895 -1.579500730386485e-05 40.001883875583246 -1.579500730386485e-05 32.092487938233333 106.5686048075242 24.828081085199898 40.001862351473513 24.828081085199898 23.376300873480744 9.0447286140715732e-06 40.001862351473513 9.0447286140715732e-06 32.486226420251242 109.54947158864361 26.553860815161332 40.001864915033558 26.553860815161332 28.790511054214242 1.3386282290639429e-05 40.001864915033558 1.3386282290639429e-05 34.584995660714455 83.005555997097019 24.426879521269711 39.991694663567671 24.426879521269711 2.0909197244743609 0.0017314152028120589 39.991694663567671 0.0017314152028120589 21.274118930392717 107.39299248662871 32.385549973568175 39.996512116608073 32.385549973568175 -1.4497503415609572 0.00072893275523711054 39.996512116608073 0.00072893275523711054 26.485810536266911 130.60919856497344 33.261827702074186 39.994277525243774 33.261827702074186 4.6578258735366944 -0.0010492645617432572 39.994277525243774 -0.0010492645617432572 33.816756109627477 97.940126364217178 20.875760963881845 40.000488178090393 20.875760963881845 -4.9155549189410976 0.0027876786489287042 40.000488178090393 0.0027876786489287042 23.256142861319006 34.572168765939864 4.2586132241297037 39.997362518241857 4.2586132241297037 0.74981780377765972 0.0084741746998133749 39.997362518241857 0.0084741746998133749 8.8304966424295799 22.052991905185422 2.665183082193721 39.996198435938027 2.665183082193721 0.57917657364760089 -0.00014444595706208929 39.996198435938027 -0.00014444595706208929 5.6580421197082842 34.345467034487001 8.4700706153539169 39.995951525420487 8.4700706153539169 4.6795169135734795 -0.00014449140030592389 39.995951525420487 -0.00014449140030592389 9.7562459870150633 52.942689956330241 12.498854780493957 39.992189866049898 12.498854780493957 6.8773685700334681 0.0084732226861206072 39.992189866049898 0.0084732226861206072 14.955014631590984 100.90607941907015 27.054318656739298 40.001746921914673 27.054318656739298 11.50512937792621 0.001415962926046177 40.001746921914673 0.001415962926046177 28.102802199249169 114.87027860044816 29.401197844585933 40.001862686521953 29.401197844585933 23.792843823165555 8.9398011411390144e-05 40.001862686521953 8.9398011411390144e-05 34.665780605903421 115.97894857913307 30.383944196874637 40.001820244955567 30.383944196874637 25.465408848445691 6.5455109393042221e-05 40.001820244955567 6.5455109393042221e-05 35.361089356894695 130.82535858172986 22.025020966250196 39.991268262841828 22.025020966250196 3.8396650273937212 -0.0013396941151313513 39.991268262841828 -0.0013396941151313513 33.666255902280966 110.37328454744915 20.347203111891815 39.990968588897942 20.347203111891815 -2.9787173405088652 -0.0013397627888025454 39.990968588897942 -0.0013397627888025454 26.848641801735084 103.35522359918895 25.400320250086168 39.998326656816118 25.400320250086168 -6.6945273349044783 0.0023141885337736312 39.998326656816118 0.0023141885337736312 24.165174066071131 125.24060140150198 32.746882068475202 39.997363716273526 32.746882068475202 37.457888066777741 -0.0013520041707124619 39.997363716273526 -0.0013520041707124619 40.674622367069901 84.650533504262739 20.361209160438193 39.99737587416152 20.361209160438193 9.2747710978646865 0.0013672597557388144 39.99737587416152 0.0013672597557388144 23.481326150531913 99.007141785989944 24.826872418640875 40.001610443965717 24.826872418640875 8.9827376409336921 0.00069604400272282874 40.001610443965717 0.00069604400272282874 26.997469856730874 188.99773114479581 10.023511751826602 39.995940496672333 10.023511751826602 -3.3942402323450551 0.0001305976387584451 39.995940496672333 0.0001305976387584451 46.400872728112745 133.42338905202075 6.6698789037563984 39.992117744999632 6.6698789037563984 -2.2744969665777717 -0.0083439491080525841 39.992117744999632 -0.0083439491080525841 32.787223021360774 126.07562892670998 2.9190690967108139 40.000982606202143 2.9190690967108139 0.042775498288449398 0.00010342288156550694 40.000982606202143 0.00010342288156550694 31.529601106249601 74.433543135921369 2.3755441826086496 40.001004059741319 2.3755441826086496 0.46740112724330629 -8.5777934742736761e-05 40.001004059741319 -8.5777934742736761e-05 18.725236065791137 98.944455488832205 29.962590041050561 39.996312271370812 29.962590041050561 -4.3577608856470533 0.0020825298668114556 39.996312271370812 0.0020825298668114556 23.646673650796288 -0.76216728368842723 23.878040013070745 40.003557465337622 23.878040013070745 -12.410754244497866 0.010314503219831295 40.003557465337622 0.010314503219831295 -3.2932303820465449 107.55984972988267 33.160950242953675 39.995046616003833 33.160950242953675 -2.7110984027106042 0.0012359945599200728 39.995046616003833 0.0012359945599200728 26.212187831793017 109.1708231794683 35.709034232843237 39.994905987721154 35.709034232843237 -0.72073588634088992 0.00025854928611579453 39.994905987721154 0.00025854928611579453 27.112521823281725 103.42098687561416 20.746366531670219 39.998872657462698 20.746366531670219 34.446618789508364 -1.083946382486343e-06 39.998872657462698 -1.083946382486343e-06 34.466901416280486 149.07046095411192 30.903626248114506 39.996880214468206 30.903626248114506 49.651913173936009 5.0716255373117747e-07 39.996880214468206 5.0716255373117747e-07 49.680593532011926 102.63776444497682 18.434906299773843 39.998884217267914 18.434906299773843 34.220140957670083 1.105586079575005e-06 39.998884217267914 1.105586079575005e-06 34.214476350661926 70.067925070375665 12.191970545363347 39.996876855258279 12.191970545363347 23.361957413685804 -5.4011088606760691e-07 39.996876855258279 -5.4011088606760691e-07 23.357470621015224 119.50676190640539 20.369155709602381 40.000134099522597 20.369155709602381 8.007879258438777 -0.0029548344506338253 40.000134099522597 -0.0029548344506338253 31.878660291210991 114.55923041250048 33.914417726571742 39.993347285822097 33.914417726571742 1.4706996290162806 -0.00054199252463149605 39.993347285822097 -0.00054199252463149605 29.007482510379191 108.04287589844455 35.324933854879191 39.993242480006757 35.324933854879191 -2.2009998664996289 0.0011264941358959391 39.993242480006757 0.0011264941358959391 26.460469007986262 110.16178714602337 35.043400145497458 39.99395640554792 35.043400145497458 -2.6824151090376773 0.00048033186661200489 39.99395640554792 0.00048033186661200489 26.869843009246452 83.455600868824718 19.618779633075718 39.994035111816231 19.618779633075718 -6.0461965645083637 0.0040159998092121896 39.994035111816231 0.0040159998092121896 19.352351076079117 100.49096192828242 6.3275916613322352 39.997902797654206 6.3275916613322352 0.70330263038215435 -0.00031327067091524441 39.997902797654206 -0.00031327067091524441 25.298566139666121 112.56040253859442 15.652245190503464 40.001063948817688 15.652245190503464 5.2223310123835063 0.002185431000555127 40.001063948817688 0.002185431000555127 29.445683387744452 99.785094498426929 13.89642066527027 40.00100867860678 13.89642066527027 0.48231365869662568 0.0021723979190255704 40.00100867860678 0.0021723979190255704 25.066852039280889 91.139768341605986 31.263864638853761 39.995245376824982 31.263864638853761 8.689410537429012 0.0014017391603715623 39.995245376824982 0.0014017391603715623 24.957294719758806 117.12159383608972 16.913502257237781 39.996425000047736 16.913502257237781 0.6783456499034628 -0.00089542779562634678 39.996425000047736 -0.00089542779562634678 29.449984871498287 120.18754615575705 6.9940932510076834 40.00073281811737 6.9940932510076834 2.2482891554337812 0.00085892466233872256 40.00073281811737 0.00085892466233872256 30.608958827797665 112.00944581194005 6.8032576075188729 40.000144821933532 6.8032576075188729 -0.44316120604742082 0.00088381210679244759 40.000144821933532 0.00088381210679244759 27.891571151473215 91.844885768705723 7.8899157023853945 40.000178930855867 7.8899157023853945 1.3316977869781681 -0.00081647625165714999 40.000178930855867 -0.00081647625165714999 23.294145888921008 86.533381018094715 4.9287122980421429 40.000675887313378 4.9287122980421429 -0.64441046702063431 -0.00080333186792813649 40.000675887313378 -0.00080333186792813649 21.472242637768545 109.25025396679054 35.290715473162322 39.99322521117449 35.290715473162322 1.4808297669142689 0.00037769490710104492 39.99322521117449 0.00037769490710104492 27.682770933426141 103.28792717547773 3.4807812001706679 39.997876605202237 3.4807812001706679 -0.5346176356365504 0.00033105318237858228 39.997876605202237 0.00033105318237858228 25.688327384960218 141.0228718856622 30.826132465581566 39.994326007363554 30.826132465581566 10.125480961132553 -0.0051323755776593316 39.994326007363554 -0.0051323755776593316 37.787088211698574 117.1501710334277 25.077067009138091 39.999263543575921 25.077067009138091 6.7822885180286079 -0.00087983767718569084 39.999263543575921 -0.00087983767718569084 30.983114887864033 108.86537475936211 27.006842732350776 40.001966213257504 27.006842732350776 11.846928075657885 1.803416506618305e-05 40.001966213257504 1.803416506618305e-05 30.178075708754982 157.4431752303621 23.801456271553207 39.995546662562447 23.801456271553207 1.1868675775575639 0.00044491610211139232 39.995546662562447 0.00044491610211139232 39.657510701979902 110.08572394644744 15.899037096678853 39.992912503507682 15.899037096678853 0.407407862392688 -0.0019123880942686355 39.992912503507682 -0.0019123880942686355 27.623282952209991 105.97560473357962 32.03622920830685 39.996502302796273 32.03622920830685 -5.7197711096248858 0.0023037376156302969 39.996502302796273 0.0023037376156302969 25.063958405988753 90.961327449786609 27.174012364817941 39.996374255590069 27.174012364817941 3.7849058678684742 0.0018765645162375222 39.996374255590069 0.0018765645162375222 23.686558329413742 113.23452689374426 38.420816702945672 39.993532818910637 38.420816702945672 -0.42596983652629206 -4.9166698715907842e-05 39.993532818910637 -4.9166698715907842e-05 28.202139264304435 89.40990573473502 11.680561621869657 40.001758189732705 11.680561621869657 21.847275215057099 -4.1639746839905456e-05 40.001758189732705 -4.1639746839905456e-05 27.814295237448036 116.122980320224 29.572845776426867 40.001758063184781 29.572845776426867 33.776509752861912 4.1331457524051984e-05 40.001758063184781 4.1331457524051984e-05 37.474872518271482 89.400040531185368 20.027907492008467 39.995442067515455 20.027907492008467 -8.7497572394095045 0.0052974421197973243 39.995442067515455 0.0052974421197973243 20.162570822943962 92.090702426127507 13.172471420412652 40.001614774111154 13.172471420412652 0.023517195864116047 -0.00040504136876506891 40.001614774111154 -0.00040504136876506891 23.02855490549792 108.32238511800554 10.745570268566308 40.000819495255456 10.745570268566308 0.93545065564569541 -0.0016717540219133298 40.000819495255456 -0.0016717540219133298 27.314458943412802 99.475560377416983 18.658395552245999 40.001830905630364 18.658395552245999 20.411553137761857 -5.1159047984583594e-05 40.001830905630364 -5.1159047984583594e-05 29.971778378794724 101.18768985135208 19.808649572225995 40.001833304360296 19.808649572225995 24.723469552535025 -2.7729712087420921e-05 40.001833304360296 -2.7729712087420921e-05 31.477789850971782 112.13394320988345 28.416305308199085 40.001836012287413 28.416305308199085 28.153747948604376 2.6818833916308904e-05 40.001836012287413 2.6818833916308904e-05 35.071922789621965 112.574284711896 28.55195713263349 40.001834634146576 28.55195713263349 29.534091573160623 5.6080515886236526e-05 40.001834634146576 5.6080515886236526e-05 35.527094071264159 103.79477277797078 17.101483866094739 40.001285049363872 17.101483866094739 0.93314263491828342 -0.0011383476325761421 40.001285049363872 -0.0011383476325761421 26.181978853222304 110.07597910877584 27.907182460331882 40.00192403766836 27.907182460331882 11.895000754791397 2.3875822279251224e-05 40.00192403766836 2.3875822279251224e-05 30.492744965891816 102.1400337805018 21.720217105893973 40.00189527761961 21.720217105893973 10.024719175314914 -0.00018320856204923075 40.00189527761961 -0.00018320856204923075 28.041188238954163 98.484126781072277 16.871876504186801 40.001752651958185 16.871876504186801 0.85618453011494466 -0.000479934582841679 40.001752651958185 -0.000479934582841679 24.835077827796809 109.89885616641456 26.215806791484454 40.001826951629653 26.215806791484454 10.713573666704633 0.00024837943733047041 40.001826951629653 0.00024837943733047041 30.153107458279834 120.91789950208106 30.623065084667701 40.001977383249908 30.623065084667701 12.637162538997927 0.00033537833076024981 40.001977383249908 0.00033537833076024981 33.388765510269764 120.63885047684272 30.423353375265023 40.002003411318242 30.423353375265023 10.467935481834502 0.00037817615208268762 40.002003411318242 0.00037817615208268762 32.776696489669291 66.509205825768532 -0.88817743457810616 40.001568922227293 -0.88817743457810616 22.173495466510644 -4.0841660782497957e-09 40.001568922227293 -4.0841660782497957e-09 22.170675323069794 153.66604847304052 42.402370256361685 40.001567666431306 42.402370256361685 51.193705144114283 1.5599838145704929e-08 40.001567666431306 1.5599838145704929e-08 51.214938404288709 166.17919826419975 17.626601674360074 39.996690077866788 17.626601674360074 6.5681722962920475 -0.0086495808863098489 39.996690077866788 -0.0086495808863098489 43.18684264012294 115.89334702575412 30.154803817327362 40.001904518345498 30.154803817327362 17.486219687204994 6.5900079420089241e-05 40.001904518345498 6.5900079420089241e-05 33.344891678239762 129.25670343830853 24.635513178500776 40.001011414466909 24.635513178500776 6.8675898545027394 -0.0037148917915033053 40.001011414466909 -0.0037148917915033053 34.031073323202747 98.910810674635513 32.587332718225298 39.99587683065738 32.587332718225298 16.571936611073625 0.00038525455761373451 39.99587683065738 0.00038525455761373451 28.870686821427284 135.44992675295111 4.4228109233603163 40.001241536994343 4.4228109233603163 0.63379896491142063 8.4901303466722311e-05 40.001241536994343 8.4901303466722311e-05 34.02093142946562 68.618758096392156 2.3552906071414625 40.00122384308446 2.3552906071414625 0.47683706697758055 -6.2167077331309883e-05 40.00122384308446 -6.2167077331309883e-05 17.273898790842427 112.44736057705408 37.976127561388807 39.993620842193877 37.976127561388807 0.39552532709274146 -0.0001016372382167674 39.993620842193877 -0.0001016372382167674 28.210721476036653 136.57770572250195 13.118108265852243 40.001304088835525 13.118108265852243 5.0326884681484474 0.00036396863634724497 40.001304088835525 0.00036396863634724497 35.402598547662642 85.371742283825313 9.4314120477875321 40.001308803149811 9.4314120477875321 -1.1778624615331239 -0.00059773604695578797 40.001308803149811 -0.00059773604695578797 21.048469955573076 125.24721108843741 10.976836407489714 40.001117797605332 10.976836407489714 1.2309481421860937 0.00036314963926997734 40.001117797605332 0.00036314963926997734 31.619539807655855 126.6081328229123 29.902956063110793 40.001714385342154 29.902956063110793 16.042764499645955 0.00024678527640986658 40.001714385342154 0.00024678527640986658 35.662724330639577 96.362313397189524 16.479317023594753 40.001714819332989 16.479317023594753 7.4267209915858245 -0.00023795811959814728 40.001714819332989 -0.00023795811959814728 25.947258597193866 102.31065256522017 11.381232714215059 40.0012946177321 11.381232714215059 -1.0447673870868357 -0.00096232739937818224 40.0012946177321 -0.00096232739937818224 25.316471294533329 104.3202319704418 33.462975019665009 39.992385768817371 33.462975019665009 -1.3765442135511421 -0.00035896763824894151 39.992385768817371 -0.00035896763824894151 25.735921939222749 104.68030169791552 27.244670084110055 39.993137613979655 27.244670084110055 3.5358846733488463 0.0029550147365853263 39.993137613979655 0.0029550147365853263 27.054046592816121 70.487378910586699 18.298056498018099 39.995527381457549 18.298056498018099 2.2747999074608742 -0.00056855661739518837 39.995527381457549 -0.00056855661739518837 18.190544704511922 98.279381838613659 17.716944763855579 40.001809526519111 17.716944763855579 26.502365171622408 -2.803618103541794e-05 40.001809526519111 -2.803618103541794e-05 31.195436752559004 114.94966152761816 30.058791059949836 40.001809403080742 30.058791059949836 33.397879223610843 2.8820192035539094e-05 40.001809403080742 2.8820192035539094e-05 37.086885187807248 84.607586000600975 8.4214199374196639 40.001713890248382 8.4214199374196639 19.755571588604248 -4.6444748505791722e-05 40.001713890248382 -4.6444748505791722e-05 26.090789397301307 120.92282489220331 31.028686730245155 40.00171304311209 31.028686730245155 35.30707998432986 4.815584034645326e-05 40.00171304311209 4.815584034645326e-05 39.057476219133299 129.01804348639129 25.285166150298096 39.999313392869027 25.285166150298096 10.755174158501291 -0.005148698306982169 39.999313392869027 -0.005148698306982169 34.943304411223181 133.52456954248663 31.488641816934773 39.995668424095015 31.488641816934773 9.776565208240072 -0.0046241402337727777 39.995668424095015 -0.0046241402337727777 35.825283687681576 121.9448136302895 25.733733397798339 39.997114978441445 25.733733397798339 9.0253254766605551 -0.0036284177473362433 39.997114978441445 -0.0036284177473362433 32.7425347767375 132.31573319871057 29.616362069468138 39.996875335139833 29.616362069468138 13.488760646614082 -0.0038820822483671691 39.996875335139833 -0.0038820822483671691 36.451123461331179 110.42844443373713 34.448409859274648 40.003264745634709 34.448409859274648 2.8107930413476652 -0.0011107498095839219 40.003264745634709 -0.0011107498095839219 28.309809368771198 129.11583737457019 22.424139683179419 40.001118336068885 22.424139683179419 7.4805091527605327 -0.0018763345673278309 40.001118336068885 -0.0018763345673278309 34.149086631832688 104.06716730326076 22.73162356428967 40.001869048895344 22.73162356428967 17.860060683398814 -4.5485546237955532e-05 40.001869048895344 -4.5485546237955532e-05 30.481806996664872 111.10869351500548 36.875193452280399 39.993410495776345 36.875193452280399 -0.27524564216128056 -0.00071106327868619701 39.993410495776345 -0.00071106327868619701 27.708361968211022 132.01584816010643 23.334754710964546 39.995220829655125 23.334754710964546 2.3952238092624611 -0.00091049049211733291 39.995220829655125 -0.00091049049211733291 33.602767992342251 87.677161734554147 18.919957884610255 39.990996958728431 18.919957884610255 1.6315615261214589 0.0039468723246045556 39.990996958728431 0.0039468723246045556 22.327180815168731 117.25294095841912 35.898859241930495 39.994595589116329 35.898859241930495 5.5279736715456238 -0.00070287887558606599 39.994595589116329 -0.00070287887558606599 30.69522865749127 119.58970451873628 31.307393356839675 40.001857565414547 31.307393356839675 21.33665750465957 0.00016164897490966723 40.001857565414547 0.00016164897490966723 35.23159050584897 112.62112801098596 12.877346074049342 40.000193734815554 12.877346074049342 7.4430807148936537 -0.0027719196962152637 40.000193734815554 -0.0027719196962152637 30.01605218146986 159.09960165651302 8.4289918425244483 40.001458849599736 8.4289918425244483 1.1442929809304019 2.2156533077577478e-05 40.001458849599736 2.2156533077577478e-05 40.060973659360869 46.92859649351692 3.5141285298473006 40.001463545100371 3.5141285298473006 -0.19807852417380278 -2.3238737966835288e-05 40.001463545100371 -2.3238737966835288e-05 11.682629492335778 105.90095466003788 34.089225825163794 39.994285405957498 34.089225825163794 -4.3889079991090512 0.0024687693058353943 39.994285405957498 0.0024687693058353943 25.378011665232179 130.8773118231916 35.156305236303972 40.001663654616578 35.156305236303972 29.455025832580901 0.00010824392678898676 40.001663654616578 0.00010824392678898676 40.083084413943112 88.289136806533904 11.264937477997265 40.001666845152869 11.264937477997265 14.938472340929646 -0.00010387367741770959 40.001666845152869 -0.00010387367741770959 25.806902286865892 89.518548484677467 2.4107591221376481 39.999061112640902 2.4107591221376481 0.65728160405876679 -0.00034051856530936675 39.999061112640902 -0.00034051856530936675 22.543957522184058 110.85902601000473 1.5434403222813557 39.99907243697362 1.5434403222813557 -0.11081668954113866 0.00034310796985437264 39.99907243697362 0.00034310796985437264 27.687052330115847 143.6387713983018 26.986305628026287 40.002529256793935 26.986305628026287 8.9222300655957838 -0.0036815118090771648 40.002529256793935 -0.0036815118090771648 38.140250365974438 134.18358711775491 42.001751343902669 40.003785160388304 42.001751343902669 19.498503319987933 -0.0079466884493086809 40.003785160388304 -0.0079466884493086809 38.420522609435665 91.157062722641044 19.213699635867215 39.996926950549323 19.213699635867215 -9.4732700803286889 0.0038258531955364106 39.996926950549323 0.0038258531955364106 20.420948160577936 94.744209442725037 18.080818780385869 39.996897346884055 18.080818780385869 -8.3003053736480297 0.0038540558339263953 39.996897346884055 0.0038540558339263953 21.610976017269252 93.377436858170796 23.900937753322182 39.999172824156403 23.900937753322182 -12.652362754459887 0.0046994768920001206 39.999172824156403 0.0046994768920001206 20.181268525927777 101.66776568529497 28.498864923424094 39.99680041493059 28.498864923424094 12.534650539705353 0.00075069874884547971 39.99680041493059 0.00075069874884547971 28.550604056250052 100.60030405867089 19.652369384780073 40.001843117262013 19.652369384780073 14.372495574674538 -9.5231139685125754e-05 40.001843117262013 -9.5231139685125754e-05 28.743199908336358 106.09949916978911 8.0388178205270719 40.000119215716268 8.0388178205270719 -0.86901187439298155 0.0018200532596210905 40.000119215716268 0.0018200532596210905 26.30762182384899 119.8039189715621 29.98391260790109 39.997493941435067 29.98391260790109 23.597771493976779 -0.00045645729346688313 39.997493941435067 -0.00045645729346688313 35.850422616384549 97.502793724533319 8.7242722124349257 39.998174217836549 8.7242722124349257 -0.15451631601920468 -0.00096103527565105651 39.998174217836549 -0.00096103527565105651 24.337069352128545 147.08380022290146 25.737501376313276 39.995387762534733 25.737501376313276 0.56533231928619898 0.00057845811636525468 39.995387762534733 0.00057845811636525468 36.912283135547 102.13866186161192 17.156098533938234 39.994274598557354 17.156098533938234 0.29871824544557057 -0.0030250284404473859 39.994274598557354 -0.0030250284404473859 25.609345026764231 115.82119076495849 29.27783399932909 40.001980416687871 29.27783399932909 10.960937459380503 3.5324461258312567e-05 40.001980416687871 3.5324461258312567e-05 31.695532056084708 151.58460550219843 23.352316756261246 39.996186365211656 23.352316756261246 7.8169149086231755 -0.005376670993996413 39.996186365211656 -0.005376670993996413 39.850380102705458 108.55974484441359 26.915303313955285 40.001945981783145 26.915303313955285 13.890031512644441 -3.7784012647534837e-05 40.001945981783145 -3.7784012647534837e-05 30.612444089264486 107.22483478702844 26.256394567241244 40.001968022554664 26.256394567241244 12.676989189781125 -2.2635172626905842e-05 40.001968022554664 -2.2635172626905842e-05 29.975455994202377 92.296921179072257 14.533707207128415 40.001476596356866 14.533707207128415 1.9892372297031784 -0.00047310447226323049 40.001476596356866 -0.00047310447226323049 23.571539602193859 92.136414722395784 18.187285428547625 39.995273627775362 18.187285428547625 -3.3232414251008322 0.0017142706837489641 39.995273627775362 0.0017142706837489641 22.203293324323852 77.874880239621774 9.8849792329424062 40.001383756929698 9.8849792329424062 0.88560717037740933 -0.00022163395788155071 40.001383756929698 -0.00022163395788155071 19.690121852499782 128.72394369985045 28.537571380691929 39.993982759258074 28.537571380691929 0.72433654329211095 -0.00092992358361243532 39.993982759258074 -0.00092992358361243532 32.362070060785641 129.37066121791 29.509248398475165 39.994400968085756 29.509248398475165 0.7767762071542279 -0.00095586247283563353 39.994400968085756 -0.00095586247283563353 32.536859356266099 129.02667507932244 29.581258478345831 39.994349743550401 29.581258478345831 -0.2670937068889998 -0.00072880068012182164 39.994349743550401 -0.00072880068012182164 32.189895343108333 88.661456614201711 18.714946292150387 39.994455247354722 18.714946292150387 -2.1028474425083914 0.00071361712377893127 39.994455247354722 0.00071361712377893127 21.639652292923302 90.223672786244506 19.739135881256857 39.994707591748238 19.739135881256857 -1.6340521491668767 0.00070886394243707684 39.994707591748238 0.00070886394243707684 22.147405159269404 112.92841786091714 36.745608910620945 40.003256464245851 36.745608910620945 10.429497975045308 0.00017960128894856098 40.003256464245851 0.00017960128894856098 30.839478958990668 98.360926375827034 17.934200630374772 40.001818129899455 17.934200630374772 32.78147091983562 -1.2773017034904345e-08 40.001818129899455 -1.2773017034904345e-08 32.785599323915676 111.52256233423027 27.869463671397668 40.00181758036419 27.869463671397668 37.171683049458146 1.183809280584166e-08 40.00181758036419 1.183809280584166e-08 37.173561345922103 115.2376963039948 29.26441142578075 40.001947635002523 29.26441142578075 16.111760480523628 8.7817049916338874e-05 40.001947635002523 8.7817049916338874e-05 32.83736419612962 107.74312772062081 39.211608684646421 40.006481651752239 39.211608684646421 5.1954602693951983 0.007849093632273707 40.006481651752239 0.007849093632273707 28.234646997504001 82.875115163207269 8.2800662584672935 40.00147646980767 8.2800662584672935 -0.11373122660501167 -0.00033420295088149032 40.00147646980767 -0.00033420295088149032 20.690345984150568 103.46344163957357 22.44163342726106 40.001847226376938 22.44163342726106 28.381825813261273 -4.0363348716709879e-06 40.001847226376938 -4.0363348716709879e-06 32.961316863208708 61.739700957170754 4.8577864100183099 40.001404645467119 4.8577864100183099 0.5773769770973054 -4.1709367579301215e-05 40.001404645467119 -4.1709367579301215e-05 15.57926948356701 145.04345201665279 8.025398032564155 40.001400361586704 8.025398032564155 -2.8088620587565174 4.2035912315441237e-05 40.001400361586704 4.2035912315441237e-05 35.558647489474083 106.30824564834677 5.8120662482946273 39.998164672331285 5.8120662482946273 -0.096636469519580714 0.00097942854404209356 39.998164672331285 0.00097942854404209356 26.552902294706655 110.37172360911998 27.024749421544723 40.001858608169613 27.024749421544723 23.60717661666132 2.1189654347608666e-05 40.001858608169613 2.1189654347608666e-05 33.494725056445333 94.603324708876613 25.088354211296519 39.992459172903978 25.088354211296519 -0.42485199473759394 0.0012353043436945654 39.992459172903978 0.0012353043436945654 23.544618178534762 109.43462409959301 26.31549720814521 40.00177288117132 26.31549720814521 8.9388416647894928 -8.9990031710840412e-06 40.00177288117132 -8.9990031710840412e-06 29.593366441095611 132.57903445749037 27.0452428902463 39.995417810074741 27.0452428902463 5.7556497956667343 -0.0037486852535373316 39.995417810074741 -0.0037486852535373316 34.583671063289273 103.41967475593367 22.213603583563653 40.001864320016175 22.213603583563653 21.026403017086437 -4.0468691381079225e-05 40.001864320016175 -4.0468691381079225e-05 31.11151944325502 149.81291403945318 33.101249387311384 39.995754438659219 33.101249387311384 8.7414083275475605 0.0012681562694751847 39.995754438659219 0.0012681562694751847 39.638580591750269 103.93101964828122 22.262722006512035 39.995359548920362 22.262722006512035 6.0546562773724872 -0.0019681393895325527 39.995359548920362 -0.0019681393895325527 27.49641898141374 111.64143972634156 27.766012609551744 40.001862250378686 27.766012609551744 26.722310247800607 4.6119049827098024e-05 40.001862250378686 4.6119049827098024e-05 34.590937493535542 111.95336410535674 25.079992229864132 40.001334865576496 25.079992229864132 7.6067834276179269 -0.00010285037784285578 40.001334865576496 -0.00010285037784285578 29.89003688324371 100.86398142862743 21.483813121613849 39.997895863784947 21.483813121613849 18.737906980496064 0.001581590365503871 39.997895863784947 0.001581590365503871 29.900472102280787 160.38779849992005 32.920113731238189 39.996503392432942 32.920113731238189 22.285654924929759 0.00095601496354902338 39.996503392432942 0.00095601496354902338 45.668363356212296 68.645401751021382 14.251797751818998 39.996487671737952 14.251797751818998 12.932261180222667 -0.00095955463734753721 39.996487671737952 -0.00095955463734753721 20.394415732811012 111.42976050483054 22.047742009774993 39.99791599857565 22.047742009774993 15.481704263302845 -0.0015818189784795322 39.99791599857565 -0.0015818189784795322 31.727866192033332 101.43956293489808 12.671243603367785 40.000472347594382 12.671243603367785 1.7644117924082252 -0.0012863411141097458 40.000472347594382 -0.0012863411141097458 25.800993681826554 101.5299143328659 8.7145270398201546 39.998291717388611 8.7145270398201546 -2.6392618875588596 0.001491776742852835 39.998291717388611 0.001491776742852835 24.722663111326796 101.87650246626566 9.4236198519583354 39.997900078386181 9.4236198519583354 -3.805328296763264 0.001709954012255821 39.997900078386181 0.001709954012255821 24.517793542375614 105.75253433324542 15.878403229333514 39.997905043779895 15.878403229333514 6.0824358422814839 -0.001740707578733236 39.997905043779895 -0.001740707578733236 27.95874254388184 109.02098436220184 14.586860228175723 39.998401927509292 14.586860228175723 4.0516487911944523 -0.0014653493859100308 39.998401927509292 -0.0014653493859100308 28.268158288349042 117.75748515591108 31.265915244494323 40.001822888262282 31.265915244494323 29.648242829460955 7.3945711456246954e-05 40.001822888262282 7.3945711456246954e-05 36.851431996343003 195.38735454456406 22.891248890289702 39.99497398077856 22.891248890289702 -7.1071889991058015 -0.010479122803701557 39.99497398077856 -0.010479122803701557 47.070041386364665 80.567395756589519 7.1937002637039731 40.001609416830597 7.1937002637039731 13.836130766676206 -8.3786815729069986e-05 40.001609416830597 -8.3786815729069986e-05 23.600881630816431 139.3731006954215 37.048490229024807 40.001605995534462 37.048490229024807 32.527469439707232 8.4151088216799508e-05 40.001605995534462 8.4151088216799508e-05 42.975142533782197 120.347907537786 22.827867588192589 39.99997253444559 22.827867588192589 10.736981290772661 -0.002723253558215788 39.99997253444559 -0.002723253558215788 32.771222207139658 125.49914268844898 32.217983111311142 40.001719007128784 32.217983111311142 23.097198620793762 0.00016312223996095554 40.001719007128784 0.00016312223996095554 37.149085327310665 90.604731561763685 11.655121394429226 40.001717999282306 11.655121394429226 8.0431577105641878 -0.00016429907343251671 40.001717999282306 -0.00016429907343251671 24.661972318081958 82.892613411171268 10.771543995294714 40.001222044769946 10.771543995294714 0.32510857295011419 -0.0004530381249594484 40.001222044769946 -0.0004530381249594484 20.804430496030349 80.859552917262988 5.8157231484343441 40.001242855173786 5.8157231484343441 -0.79574462347926556 -0.00028800839373843701 40.001242855173786 -0.00028800839373843701 20.015952073445931 103.80001357818935 19.980243204563294 39.995607081299852 19.980243204563294 0.12929659682549755 0.0033510353280234995 39.995607081299852 0.0033510353280234995 25.98232754375374 70.510952373014561 13.205909843460034 39.995922801233888 13.205909843460034 0.085654877031629439 -0.00050514441011273448 39.995922801233888 -0.00050514441011273448 17.649151812511604 141.99695473698486 38.849545464687253 39.99900148570282 38.849545464687253 47.299242334585003 -1.4161139686536267e-06 39.99900148570282 -1.4161139686536267e-06 47.324049267892612 69.178391751144773 17.986009254971918 39.999027960532885 17.986009254971918 23.07087004367213 1.4716324585606344e-06 39.999027960532885 1.4716324585606344e-06 23.062315448704339 124.23612096644513 29.743948097637144 40.001769954950021 29.743948097637144 12.644808287514081 0.00038737463671623118 40.001769954950021 0.00038737463671623118 34.22023231348976 66.805672907816074 9.0338966499070921 39.991605988934566 9.0338966499070921 -0.87056141432890399 0.0068778523870491881 39.991605988934566 0.0068778523870491881 16.48377787337165 145.80809760988285 7.7952980818920423 39.991809753746452 7.7952980818920423 0.086250842169420139 -0.0068268779989466566 39.991809753746452 -0.0068268779989466566 36.473587113013082 132.69219871526593 34.680608298802554 39.993683915860174 34.680608298802554 6.7294095865708528 -0.0024050731522926583 39.993683915860174 -0.0024050731522926583 34.85540207545931 108.10357769814834 8.4545273016952081 39.999688142229417 8.4545273016952081 -0.42184266487049626 0.0014944884480314613 39.999688142229417 0.0014944884480314613 26.920433758319405 89.030069597886609 22.903824959651956 39.997472830081961 22.903824959651956 24.657513116364271 0.00032118810463543923 39.997472830081961 0.00032118810463543923 28.421895678562919 85.914263375611654 6.5572025211328011 40.001062356038517 6.5572025211328011 -1.8007226713272075 -0.00074588889242477308 40.001062356038517 -0.00074588889242477308 21.028385176071112 116.22166876907062 29.302452718364151 40.001987750316147 29.302452718364151 13.372626653334635 1.7289970912770514e-05 40.001987750316147 1.7289970912770514e-05 32.398573855601342 98.124372495237253 13.605522006886702 39.998348346092826 13.605522006886702 -6.2376427332658295 0.0029278793616072107 39.998348346092826 0.0029278793616072107 22.971682440492827 98.218932824301476 14.252833484998632 39.998837770116438 14.252833484998632 -9.6417412215566856 0.0041589538172388529 39.998837770116438 0.0041589538172388529 22.14429790068624 124.8487503687855 26.310330174638182 40.001752884249925 26.310330174638182 10.109998821082172 0.00049949551723216246 40.001752884249925 0.00049949551723216246 33.739687297466972 101.84034359550441 9.1819989710011214 39.99901473353367 9.1819989710011214 -2.6027974620376426 0.0019532339238708119 39.99901473353367 0.0019532339238708119 24.809386533366876 127.45265200434335 27.630608019506582 40.001644026783822 27.630608019506582 12.190063230302712 0.00034877278812928125 40.001644026783822 0.00034877278812928125 34.910678808661544 95.298552825427322 16.917293169499324 40.001751517727044 16.917293169499324 3.8527035303519312 -0.00031938313262003248 40.001751517727044 -0.00031938313262003248 24.787814088944799 108.70857082292201 6.6710932593539951 39.999232694334324 6.6710932593539951 -1.7195628610596714 0.0016922875288400974 39.999232694334324 0.0016922875288400974 26.7472519904656 96.646331682798092 9.529056998088663 39.999260907550081 9.529056998088663 5.3326474907480872 -0.0017314137263610974 39.999260907550081 -0.0017314137263610974 25.494744793386559 74.590427571808505 2.4889250795280291 40.001606817261909 2.4889250795280291 19.760511451492221 -4.232288014804908e-05 40.001606817261909 -4.232288014804908e-05 23.587734755825181 138.38083557365408 35.665749413981594 40.00160528348119 35.665749413981594 36.876459777037226 4.2143117909176908e-05 40.00160528348119 4.2143117909176908e-05 43.814323837672831 131.49924906267418 28.44360442568663 40.001632950389421 28.44360442568663 13.142980761638 0.00035038972090362108 40.001632950389421 0.00035038972090362108 36.160557456078003 90.207458674006986 13.448315738672431 40.001620852335748 13.448315738672431 1.8569552218613978 -0.00035036047336234333 40.001620852335748 -0.00035036047336234333 23.016103473967135 98.068782579922953 17.071605796053902 40.001793333923757 17.071605796053902 14.751096571658934 -0.00011052396459376723 40.001793333923757 -0.00011052396459376723 28.204969787895479 74.739143829948034 16.358561109604523 40.001261516266538 16.358561109604523 -7.0384171959884156 0.0052868124333684818 40.001261516266538 0.0052868124333684818 16.925181658489919 106.12767092844852 24.706732469518869 40.00190818178362 24.706732469518869 17.770544648530269 -5.0950814639350028e-05 40.00190818178362 -5.0950814639350028e-05 30.974553894244682 161.08212443995603 22.440990962786771 39.996010190854349 22.440990962786771 4.3976067557832721 0.00063106409322699619 39.996010190854349 0.00063106409322699619 41.369932798934656 112.01566499537171 14.617570227726048 39.995734297798094 14.617570227726048 2.9546911295951759 -0.0029016585644967563 39.995734297798094 -0.0029016585644967563 28.742589031241778 132.37061161750341 31.422039853898596 40.001657697201352 31.422039853898596 18.119178372221427 0.0002444918486332881 40.001657697201352 0.0002444918486332881 37.622447497431182 89.077998998421222 12.22735292790852 40.001669584783428 12.22735292790852 4.0998083524055193 -0.00024171367666525612 40.001669584783428 -0.00024171367666525612 23.294451837706692 108.48435809011586 25.749367207901784 40.001887729075051 25.749367207901784 20.302680618353065 1.1116003946654018e-05 40.001887729075051 1.1116003946654018e-05 32.196759677117235 90.486712277584502 16.827217050000641 39.99945473922832 16.827217050000641 -13.501317475716178 0.0066865177457771097 39.99945473922832 0.0066865177457771097 19.246348700467081 139.07966259981498 7.8803735459391948 39.995756622489118 7.8803735459391948 0.089161181749432217 -0.00015700875997026742 39.995756622489118 -0.00015700875997026742 34.792205945391004 100.38649453968799 5.6802775641006065 39.98795705019495 5.6802775641006065 -0.32270263936584342 0.0015728282883173961 39.98795705019495 0.0015728282883173961 25.015947975080564 86.283912477207082 18.255769925253617 39.995281917223451 18.255769925253617 -3.6134131761953086 0.001285288382860017 39.995281917223451 0.001285288382860017 20.667624825253029 120.96828174002576 23.145449852348463 40.001034573757295 23.145449852348463 5.7580779267410662 -0.0018335500452053566 40.001034573757295 -0.0018335500452053566 31.681589916691735 72.278384994323233 7.5005298444914796 40.001434878355511 7.5005298444914796 3.4284230577913632 -0.000137408968271302 40.001434878355511 -0.000137408968271302 18.926702013028645 144.26175288461664 21.500386431048099 40.00143420641772 21.500386431048099 8.027259108839246 0.00013426371572222706 40.00143420641772 0.00013426371572222706 38.07225299836395 106.62324709230077 26.737209258216719 40.002090393495948 26.737209258216719 8.3163416596218553 -0.00023523319751461713 40.002090393495948 -0.00023523319751461713 28.734897187980664 110.27507621644432 27.150184132071104 40.001880817499583 27.150184132071104 23.360297732120706 5.6801185408517085e-06 40.001880817499583 5.6801185408517085e-06 33.40884348714124 132.53634096221384 27.627902363309346 39.99446600099958 27.627902363309346 3.961163332635806 -0.003297508760169876 39.99446600099958 -0.003297508760169876 34.124376073712369 66.076712565227837 2.6877001847404465 40.001446302049459 2.6877001847404465 -1.5291233236881219 -0.0001079994054222766 40.001446302049459 -0.0001079994054222766 16.136897310384921 154.33343535401244 13.185877834574853 40.001443696021525 13.185877834574853 3.6367223020783968 0.00011315778169773694 40.001443696021525 0.00011315778169773694 39.49253941402273 113.80840160428795 25.214591803496944 40.001784313010404 25.214591803496944 8.2360756776959079 -2.1274219534461736e-05 40.001784313010404 -2.1274219534461736e-05 30.511119320495908 90.024717663835872 20.115088753987123 39.994533985245127 20.115088753987123 -1.1230559499877018 -0.00045155958741815994 39.994533985245127 -0.00045155958741815994 22.225415428462384 130.73190828735028 30.20309681640677 39.994481302305232 30.20309681640677 -0.97414355726232316 0.00099990006106054352 39.994481302305232 0.00099990006106054352 32.43944118252216 114.48492133624441 8.03005351299322 40.000568186733801 8.03005351299322 1.7618799002376164 0.0014090226543927997 40.000568186733801 0.0014090226543927997 29.061700309120603 106.34358243586365 12.000828113465673 40.000598975285243 12.000828113465673 1.388063207635291 0.0013624191841179467 40.000598975285243 0.0013624191841179467 26.932911410874677 117.4939377502491 31.565472291075764 40.003226164354771 31.565472291075764 5.8244378317958478 0.00079032815574464621 40.003226164354771 0.00079032815574464621 30.829593895511181 114.48332328145582 32.436742627813203 40.002792793321987 32.436742627813203 6.1462775579818327 0.0012772329697874341 40.002792793321987 0.0012772329697874341 30.157400209859439 90.98253516672699 12.496873008711162 40.00174689357614 12.496873008711162 15.437002666695705 -8.942044297555185e-05 40.00174689357614 -8.942044297555185e-05 26.604884458355674 94.199620061904113 15.146375754960914 40.001752619808713 15.146375754960914 17.67933856628575 -8.8409877136541581e-05 40.001752619808713 -8.8409877136541581e-05 27.969739657047452 122.75321006170219 33.202200857077926 40.001755433158849 33.202200857077926 30.385824952931756 9.0596433423684175e-05 40.001755433158849 9.0596433423684175e-05 38.28475875365848 120.54664781301815 31.612297386805324 40.001740795573141 31.612297386805324 29.547771813092965 9.0238464039771316e-05 40.001740795573141 9.0238464039771316e-05 37.523604906527773 100.31171564105659 33.196979796298251 39.99333440773853 33.196979796298251 -0.71051488252282979 0.0003645916632422086 39.99333440773853 0.0003645916632422086 24.900300189633413 115.43102779987143 23.241844392352107 40.001547443827917 23.241844392352107 5.8123323300332999 -0.00045223554050011217 40.001547443827917 -0.00045223554050011217 30.31084003247614 106.58202113909401 26.614295994159093 40.001991261493203 26.614295994159093 11.330360444975469 -9.0611381693861404e-05 40.001991261493203 -9.0611381693861404e-05 29.478095396017324 122.23159061416789 30.087002019407027 39.99282593567191 30.087002019407027 0.10369392483903539 0.00013819057323871675 39.99282593567191 0.00013819057323871675 30.583821134751702 83.982052619410752 20.068022037542633 39.995068138036018 20.068022037542633 -1.1429729974265683 4.3506184965735883e-06 39.995068138036018 4.3506184965735883e-06 20.709769905496046 127.86772205690266 30.026322657273681 39.993096001004119 30.026322657273681 2.5989146837223416 -0.0019635555154309259 39.993096001004119 -0.0019635555154309259 32.616659185156209 104.269347754495 24.93248059807263 40.002073716264675 24.93248059807263 2.1307262619667853 -0.00048987282995938131 40.002073716264675 -0.00048987282995938131 26.600018504115425 110.11913511920406 27.236786498578979 40.002162643675234 27.236786498578979 5.7192650423303348 -0.00045690023634392674 40.002162643675234 -0.00045690023634392674 28.959600040383634 123.26597112156298 27.367831430848327 39.995990940922468 27.367831430848327 3.9390873979277785 -0.0022816095812459025 39.995990940922468 -0.0022816095812459025 31.801264629872719 128.39070270435917 29.440030106566155 39.994677037323299 29.440030106566155 3.8454253538819785 -0.0019373341690993584 39.994677037323299 -0.0019373341690993584 33.059032014560387 76.157798952558636 4.7577598011523783 40.001580494351529 4.7577598011523783 8.9381763021145222 -6.4074294272131738e-05 40.001580494351529 -6.4074294272131738e-05 21.273993813668284 143.86042026608465 34.883495309745683 40.001576881118844 34.883495309745683 25.434955774282344 6.3233584157273981e-05 40.001576881118844 6.3233584157273981e-05 42.323844010091733 89.961244778708476 18.030247214246174 39.99748227603132 18.030247214246174 -8.1652058725292136 0.005144421849365699 39.99748227603132 0.005144421849365699 20.44900972654483 40.993333771789707 8.1189197915769959 39.991573528100041 8.1189197915769959 1.5406583324838721 0.0068973001467611539 39.991573528100041 0.0068973001467611539 10.633498026068537 163.34885713505412 9.1672007453780679 39.991556994761368 9.1672007453780679 1.4148682409779667 -0.0069866372940623478 39.991556994761368 -0.0069866372940623478 41.190931344008163 115.59320363600855 26.750069613614301 40.001755496976386 26.750069613614301 8.4106613853454064 -9.2450950262445986e-05 40.001755496976386 -9.2450950262445986e-05 31.000966255338483 105.9358494559895 28.212851373318685 40.002088787814515 28.212851373318685 9.2783676638333645 -0.00010490528410400657 40.002088787814515 -0.00010490528410400657 28.803554279955719 109.52022954899769 33.783397855201486 39.995868964536498 33.783397855201486 7.2332916067343831 0.00039201446645620308 39.995868964536498 0.00039201446645620308 29.188380288933217 107.71793996793701 37.118785612918145 39.994707156527113 37.118785612918145 9.4125128359096379 5.6441221431668964e-05 39.994707156527113 5.6441221431668964e-05 29.282613200961691 115.93533298184235 35.68676207563081 39.993327994121046 35.68676207563081 -0.85393128751184122 0.00051100138671245077 39.993327994121046 0.00051100138671245077 28.77035042358267 165.76386446805316 24.981651486805049 39.995897418351547 24.981651486805049 2.7591632988449248 0.00044343927879708644 39.995897418351547 0.00044343927879708644 42.130756941724371 116.07146312430791 16.8264275835337 39.994453864908564 16.8264275835337 1.9874553545111269 -0.0050319738236481726 39.994453864908564 -0.0050319738236481726 29.514729619704781 63.563038403761311 21.475349224372508 39.997939654460879 21.475349224372508 11.254137217334801 0.0033339680497874724 39.997939654460879 0.0033339680497874724 18.704293905274085 161.69596292972574 40.690713446879954 39.997959999758336 40.690713446879954 30.808376069270707 -0.0033498544822805343 39.997959999758336 -0.0033498544822805343 48.126084749748998 111.32458516615105 29.293686367160717 39.995316354865281 29.293686367160717 7.0812326841290769 0.0020185567654493752 39.995316354865281 0.0020185567654493752 29.601454462570075 75.71359261046149 19.660585798840543 39.99577280098913 19.660585798840543 4.8614649683454445 -0.0011926364539363021 39.99577280098913 -0.0011926364539363021 20.143764394701918 108.00871658891563 25.565946747762069 40.001887833314044 25.565946747762069 18.870505989543346 -1.8286815787860178e-05 40.001887833314044 -1.8286815787860178e-05 31.719805644614752 108.34992692451169 25.874835667202802 40.001910111336166 25.874835667202802 19.269527303236941 -9.7426893432839279e-06 40.001910111336166 -9.7426893432839279e-06 31.904863556937158 114.68956873449963 23.564035890884384 39.994107175353292 23.564035890884384 -1.4686642294486774 0.0016324091734531976 39.994107175353292 0.0016324091734531976 28.305226126262596 78.019676515438732 15.512270002468199 39.995332812235915 15.512270002468199 -1.3381016386160809 -0.0003031393454193676 39.995332812235915 -0.0003031393454193676 19.170393719205663 80.559305821738477 5.5235798535404879 40.00164907692335 5.5235798535404879 12.352317842419303 -7.1044590129076823e-05 40.00164907692335 -7.1044590129076823e-05 23.227905916039443 132.67009855179685 33.821422123851278 40.001647480803626 33.821422123851278 33.793439701114409 7.0822459285579953e-05 40.001647480803626 7.0822459285579953e-05 41.61588456322783 134.48397331462456 25.749176266628496 39.99735786600985 25.749176266628496 9.8719438948003244 -0.00553785724247291 39.99735786600985 -0.00553785724247291 36.088979302356222 69.967658520478324 -0.018365318072251835 40.001558713934308 -0.018365318072251835 11.800066173952144 -5.6956380738881762e-05 40.001558713934308 -5.6956380738881762e-05 20.441931173607614 160.50980941701707 40.269367273350952 40.001557071467033 40.269367273350952 34.212736549243623 5.6759723388921657e-05 40.001557071467033 5.6759723388921657e-05 48.680636491565174 162.21585237544019 12.400521639443809 39.995635246702875 12.400521639443809 -3.6688857048147838 0.00017946977004612563 39.995635246702875 0.00017946977004612563 39.636741667656509 114.61672858991574 8.3868404269760504 39.991295063952123 8.3868404269760504 -2.3674776552561525 -0.0057097466058166901 39.991295063952123 -0.0057097466058166901 28.062312733664953 118.44521425032268 15.379906398125797 40.00152061137328 15.379906398125797 5.6018304339306439 -0.0027403222910749037 40.00152061137328 -0.0027403222910749037 31.011761171063299 108.56301245236625 17.599597769084085 40.000835345076695 17.599597769084085 3.3085939975426868 -0.0022000483063209231 40.000835345076695 -0.0022000483063209231 27.967901612477249 95.605298944419587 15.527007773269066 39.99685141137661 15.527007773269066 -5.0806191593487711 0.0023598965339033384 39.99685141137661 0.0023598965339033384 22.631169946267732 97.724185783972587 30.1810197788746 39.995690443716654 30.1810197788746 -8.212956765378749 0.0046158419636412873 39.995690443716654 0.0046158419636412873 22.377807254648417 121.68043183430194 24.137470466951356 39.996950889272796 24.137470466951356 6.5154822471739635 -0.0023206643975868246 39.996950889272796 -0.0023206643975868246 32.048978520369019 108.55741667591104 16.022818279702847 39.998698118791083 16.022818279702847 7.0308153932430741 -0.002438024629782376 39.998698118791083 -0.002438024629782376 28.897058017288657 103.19424930612115 10.742398425878037 39.998636977972097 10.742398425878037 -4.5384541490698211 0.0024388951653691038 39.998636977972097 0.0024388951653691038 24.663948789262804 77.746430169397854 23.854072249239749 39.99678748282696 23.854072249239749 -13.217529399662681 0.0061231359466091817 39.99678748282696 0.0061231359466091817 16.132225192433793 62.160845115639603 16.253043956987199 39.992311375749409 16.253043956987199 -2.5740932010918414 0.003552793693785361 39.992311375749409 0.003552793693785361 14.896687978637118 153.05268799829923 18.516791791390233 39.992497891207677 18.516791791390233 3.6494377019830608 -0.0036064897880123681 39.992497891207677 -0.0036064897880123681 39.175531425070631 112.62100412520391 22.712757652951268 39.999593739275952 22.712757652951268 3.0384498055466338 -0.00040011938637007916 39.999593739275952 -0.00040011938637007916 28.914863482687679 124.55097887183155 28.780941920335394 39.998157224977575 28.780941920335394 8.1416189569494009 -0.0022980579213935926 39.998157224977575 -0.0022980579213935926 33.173149457195223 105.75723689497943 26.0808681014542 40.001776942203662 26.0808681014542 11.592500053302501 0.00076674103570439911 40.001776942203662 0.00076674103570439911 29.337434237070454 81.567096500329399 28.540213132696181 40.003123467602734 28.540213132696181 0.84324096922682656 0.0035229961007416932 40.003123467602734 0.0035229961007416932 20.602584367388999 90.113336971400031 24.980287488692625 39.994418730099255 24.980287488692625 6.2920447723358848 0.0049568279299592177 39.994418730099255 0.0049568279299592177 24.101345435933922 60.465068455278697 16.908923819071333 39.995888831230786 16.908923819071333 4.3049088676298197 -0.00045924149890197441 39.995888831230786 -0.00045924149890197441 16.192494330727072 104.97299792225016 25.895612438210804 40.001609839108539 25.895612438210804 9.0897025383887922 0.00020191519388390589 40.001609839108539 0.00020191519388390589 28.515675115159809 113.95109965360032 27.547498074852115 39.991340551973963 27.547498074852115 0.017546837792224323 0.0010905371063216762 39.991340551973963 0.0010905371063216762 28.492161622848151 115.65690463126759 39.085273447813506 39.994452467404358 39.085273447813506 4.6628482405121758 0.00022147240196090934 39.994452467404358 0.00022147240196090934 30.079938217944914 105.92785790248135 27.566323118530363 40.001948128643789 27.566323118530363 10.567475325344885 0.00010612683074917584 40.001948128643789 0.00010612683074917584 29.123833306956577 98.869374891129837 18.982191511657017 40.001822947760246 18.982191511657017 17.141454747687803 -8.0262264717134713e-05 40.001822947760246 -8.0262264717134713e-05 29.002707409704403 97.923771423015921 4.1339015392582708 39.996815032237365 4.1339015392582708 -1.0241788055732286 0.00041679065930111392 39.996815032237365 0.00041679065930111392 24.224898154360631 94.42456549019704 16.309835637341418 40.001737566653219 16.309835637341418 9.8504005066720879 -0.00017048988650003594 40.001737566653219 -0.00017048988650003594 26.068741499217282 105.73928304640472 25.128792624499937 40.0019495560135 25.128792624499937 12.993295405769544 -7.2822305739350668e-05 40.0019495560135 -7.2822305739350668e-05 29.683144613043559 110.32197542502374 23.420207174687562 40.001505665127468 23.420207174687562 8.0492720075591251 0.00035727307471233871 40.001505665127468 0.00035727307471233871 29.592811858145723 106.20981867075352 6.8336537319337571 39.996775113925402 6.8336537319337571 1.471078635218646 -0.00045777136733704538 39.996775113925402 -0.00045777136733704538 26.920224326493098 106.74299606519992 24.422122561510516 40.001845081689176 24.422122561510516 26.926192500982932 9.9116885312611203e-06 40.001845081689176 9.9116885312611203e-06 33.417297141545703 103.3236657704833 24.540661528901097 40.00197963930944 24.540661528901097 5.7734393355932525 -0.00026612553358518198 40.00197963930944 -0.00026612553358518198 27.274276276519117 110.1430433882726 31.807959630541518 39.992471307535084 31.807959630541518 -0.77272005260402921 -0.0017497423984593752 39.992471307535084 -0.0017497423984593752 27.342580833917012 80.803464644421751 15.19137523760071 39.995589677858447 15.19137523760071 -1.0777595253243817 0.00044819021388775582 39.995589677858447 0.00044819021388775582 19.931426279774541 97.298039128421436 17.624112034092718 40.001813442089883 17.624112034092718 7.1510670927835918 -0.00021784528971124928 40.001813442089883 -0.00021784528971124928 26.112276555301257 107.12154170489111 24.863989910994867 40.001868064441872 24.863989910994867 25.946097067078796 -7.893698203531585e-06 40.001868064441872 -7.893698203531585e-06 33.266909692992485 105.15633897029616 23.650272514452695 40.001938339605857 23.650272514452695 6.0461250058735203 -0.00036145453179159404 40.001938339605857 -0.00036145453179159404 27.800615994042438 115.20740265337648 26.609509985729346 39.992948250980419 26.609509985729346 -1.2929551377404778 -0.0037375788740519056 39.992948250980419 -0.0037375788740519056 28.478611878909078 82.461505692431501 22.290488847832478 39.993618315501521 22.290488847832478 -2.7105356093888986 0.0031085994160093833 39.993618315501521 0.0031085994160093833 19.937742520760594 89.09411562721813 9.7338259091645796 40.001473058624242 9.7338259091645796 -0.90344586150558825 -0.00049281474286999583 40.001473058624242 -0.00049281474286999583 22.04766744142816 89.080258344578027 15.441027702682504 39.991394734320352 15.441027702682504 3.0818670858929238 0.0060006711310336414 39.991394734320352 0.0060006711310336414 23.040531357617596 59.280555621588874 10.466881233553295 39.995665328377754 10.466881233553295 1.9662388513466169 -0.00015137631550032893 39.995665328377754 -0.00015137631550032893 15.311698618233677 103.99017111685777 23.36263014801041 40.001891657726816 23.36263014801041 14.703675723252815 -6.6161057667102341e-05 40.001891657726816 -6.6161057667102341e-05 29.673461710027656 106.10209084230017 25.316733897121068 40.001936896255472 25.316733897121068 13.34225058594356 -8.1523159835228398e-05 40.001936896255472 -8.1523159835228398e-05 29.861085357060929 162.7164376607916 13.373846708661659 39.995598891860368 13.373846708661659 3.1537916105494332 0.0001307886615222742 39.995598891860368 0.0001307886615222742 41.467557317835031 113.92139197216056 8.6276403206595376 39.993134374882317 8.6276403206595376 2.2927380025407729 -0.0032468093852457969 39.993134374882317 -0.0032468093852457969 29.053532493675675 108.80414561827229 26.556287298865101 40.001935373252422 26.556287298865101 13.727575396627287 -1.2487095375490753e-06 40.001935373252422 -1.2487095375490753e-06 30.632930253724894 111.18345111990281 27.980390550051183 40.001940972525404 27.980390550051183 13.580151899681141 -2.4661646591539466e-06 40.001940972525404 -2.4661646591539466e-06 31.190900754895992 106.53276694387097 24.891649352435579 40.001899499319705 24.891649352435579 15.356133648454048 -3.9993063928989159e-05 40.001899499319705 -3.9993063928989159e-05 30.472225148081257 133.68133635530751 20.452652662236829 40.001476178865062 20.452652662236829 5.6654546504764767 0.00021886116012126422 40.001476178865062 0.00021886116012126422 34.83669775144601 116.67709721860436 28.100443973449785 40.002084934164131 28.100443973449785 8.4030194871252206 0.0012098465667236269 40.002084934164131 0.0012098465667236269 31.270029176432388 107.50196060790728 26.987562516044591 40.002823861365812 26.987562516044591 5.0716948184698367 0.0013479761506118848 40.002823861365812 0.0013479761506118848 28.143413856594236 147.73777541107646 23.713495081739694 40.001474576258971 23.713495081739694 11.70759011251053 0.00021849572821253105 40.001474576258971 0.00021849572821253105 39.861341380896775 151.54110609782413 34.444574434845322 39.996177315832426 34.444574434845322 20.44127128265535 -0.0072701785155473431 39.996177315832426 -0.0072701785155473431 42.995594345119805 130.58358642501764 29.918854686723677 39.995324856858922 29.918854686723677 4.3714284804227646 0.00098755241992876108 39.995324856858922 0.00098755241992876108 33.73875372635996 89.756795410738732 19.967631006501598 39.99536740566279 19.967631006501598 2.9364339354583535 -0.0019630073468306364 39.99536740566279 -0.0019630073468306364 23.173307336549215 117.78362810281561 30.299186851202485 40.001983913998657 30.299186851202485 12.52699077722275 0.00013143624238409757 40.001983913998657 0.00013143624238409757 32.577654720009548 105.70081543106413 24.180358732850667 40.00184873026226 24.180358732850667 33.106824533878651 4.9846721523749693e-06 40.00184873026226 4.9846721523749693e-06 34.701909991235695 107.14618037569514 28.925334272624141 40.002326789220447 28.925334272624141 1.7447235734852029 -0.00064235683146307565 40.002326789220447 -0.00064235683146307565 27.222725987295064 113.58362420608728 34.56615508639149 39.992713623415142 34.56615508639149 -1.6775788498623569 -0.00036460882029132335 39.992713623415142 -0.00036460882029132335 27.976511339056287 112.28127919521279 38.059518237066868 39.993780439839838 38.059518237066868 -1.0498960570271265 0.0001315868189522007 39.993780439839838 0.0001315868189522007 27.807845784546373 111.76068444159763 27.641627833796505 40.001900324853025 27.641627833796505 17.810452578223305 3.0958155065263782e-05 40.001900324853025 3.0958155065263782e-05 32.392784254955238 99.719774102832105 10.213750712878323 39.997189456186391 10.213750712878323 -1.0662103826377916 0.0011954087649996836 39.997189456186391 0.0011954087649996836 24.663390930048593 90.898571962234257 12.306958997160962 39.996299586994724 12.306958997160962 -4.0219834691909 0.0011978689894931449 39.996299586994724 0.0011978689894931449 21.719147123260825 102.7594062769318 21.907107094451273 40.001844050177695 21.907107094451273 34.251082718014736 -1.5426766562327381e-09 40.001844050177695 -1.5426766562327381e-09 34.252622248736628 122.2161310094836 19.314774673020167 39.996231211833674 19.314774673020167 4.8394866573930813 -0.0011180817086255956 39.996231211833674 -0.0011180817086255956 31.763904416719186 109.81356551216857 15.460015766794498 39.997149672390805 15.460015766794498 1.0942079334479331 -0.0011515105584294361 39.997149672390805 -0.0011515105584294361 27.726943361404153 66.027653498898871 16.616927474672877 39.995763006571337 16.616927474672877 -1.3560594197460887 0.0047671449286781353 39.995763006571337 0.0047671449286781353 16.167898519788196 157.90260308342545 24.850003980224358 39.995836640291145 24.850003980224358 6.9770562023982166 -0.0047150376799436344 39.995836640291145 -0.0047150376799436344 41.219914821455859 107.34688075803852 23.185632581758824 40.002134737358176 23.185632581758824 -0.31322243206517442 -0.00083916644555870334 40.002134737358176 -0.00083916644555870334 26.758414581493341 97.964631568464426 35.232518600302342 39.994004354742174 35.232518600302342 5.1436818818751817 0.001186678391377427 39.994004354742174 0.001186678391377427 25.777078362585087 89.974452378170326 39.833946709132633 40.004671592108693 39.833946709132633 10.450972448522748 0.0005232996153381464 40.004671592108693 0.0005232996153381464 25.106356206673297 100.90533405947859 19.76782856414475 40.001834079560979 19.76782856414475 9.2118234545600259 -0.00021446355250276383 40.001834079560979 -0.00021446355250276383 27.529289378509656 117.16365347724468 18.250404160179642 40.001639450413677 18.250404160179642 1.2302799403287281 -0.001533615767897345 40.001639450413677 -0.001533615767897345 29.598483354393387 148.9192835434263 17.97570365514315 39.992657723719788 17.97570365514315 0.92935284745578883 -0.0088962262028076111 39.992657723719788 -0.0088962262028076111 37.462159097720502 118.13519422787519 30.6365845696793 40.002000995486654 30.6365845696793 14.621822589162889 6.2845127956734359e-05 40.002000995486654 6.2845127956734359e-05 33.18925420425947 129.24192789333051 28.051321815858387 39.995372794191212 28.051321815858387 1.0550794825188632 0.0019698180700515877 39.995372794191212 0.0019698180700515877 32.574251843962202 88.804245926196018 18.723136942176325 39.9954198756609 18.723136942176325 0.54988045706977573 -0.00088786456524303503 39.9954198756609 -0.00088786456524303503 22.338531595816448 117.19266037481802 30.948728306397157 40.00191955326585 30.948728306397157 19.95058182407314 0.0001113876124492208 40.00191955326585 0.0001113876124492208 34.285810549722811 137.85953941280704 23.538178763758573 40.003376743097668 23.538178763758573 5.40113549792909 -0.0024186486004964536 40.003376743097668 -0.0024186486004964536 35.815168727684011 92.861134468003513 14.06483910698023 39.993220744829387 14.06483910698023 -3.9478252618059742 0.0032597313715996279 39.993220744829387 0.0032597313715996279 22.228327301549427 62.393676127875381 9.2734542489104115 39.995648205770749 9.2734542489104115 -2.8524657884481712 -0.00012567436374411045 39.995648205770749 -0.00012567436374411045 14.885302584856902 123.55651080910346 2.2471557177696617 40.000829934529044 2.2471557177696617 1.0519093670264965 0.00018737928314749297 40.000829934529044 0.00018737928314749297 31.152105044032453 64.880043912534717 2.0582582508529708 40.000845714126328 2.0582582508529708 -0.23259673964571448 -0.00017503557927511793 40.000845714126328 -0.00017503557927511793 16.161861793222243 128.50099476347506 17.277559237414074 40.001130266806122 17.277559237414074 11.607561438265634 -0.0039299557740832824 40.001130266806122 -0.0039299557740832824 35.027139050435096 129.76447212697397 23.620132497042164 40.001609887545882 23.620132497042164 8.7460651563018246 0.00046637280610184462 40.001609887545882 0.00046637280610184462 34.627634320818942 40.910740667508506 13.085367478267017 40.003579632903893 13.085367478267017 13.616525616763493 1.5010074844055629e-05 40.003579632903893 1.5010074844055629e-05 13.631816571067771 6.9057663384834314 1.3803302658460552 40.011317757990014 1.3803302658460552 0.8358598536633508 0.0077594256364363901 40.011317757990014 0.0077594256364363901 1.9354065480366671 259.83479260699119 41.870467467317894 40.011315351707367 41.870467467317894 28.47430916302028 -0.0077789340127765172 40.011315351707367 -0.0077789340127765172 72.077275442502696 189.45491052890327 50.916197049399557 40.00356436592574 50.916197049399557 63.02320320934723 -1.4940822666176246e-05 40.00356436592574 -1.4940822666176246e-05 63.119528434562653 77.12971284762321 26.891017024835151 39.995222100620367 26.891017024835151 7.5676534883998556 0.0030534833185811294 39.995222100620367 0.0030534833185811294 21.174341584006044 147.09689420636028 36.993064777181928 39.995265831158235 36.993064777181928 17.05551349443158 -0.0032021763285001725 39.995265831158235 -0.0032021763285001725 41.038101925197907 125.26676009399068 6.427621468365146 39.987509674754733 6.427621468365146 0.036726186407349815 -0.0014806779558398375 39.987509674754733 -0.0014806779558398375 31.325871570099594 83.743135399042558 9.094801481581726 39.987689469188467 9.094801481581726 1.3510866446815726 0.0016659376110510493 39.987689469188467 0.0016659376110510493 21.273555510930919 26.272871185222954 17.248884080674202 39.995270295169973 17.248884080674202 -5.5892419629706183 0.0096998486186521404 39.995270295169973 0.0096998486186521404 5.1709073055630199 99.100193655769431 20.939673106079795 39.997556643404323 20.939673106079795 12.219453675363638 0.0036082210834820216 39.997556643404323 0.0036082210834820216 27.829911832783296 158.80381445663147 30.473042742276363 39.996405710739964 30.473042742276363 20.722264419190196 0.00037220785907265963 39.996405710739964 0.00037220785907265963 44.88151971895536 67.376916077041074 13.987926952386715 39.996392430043784 13.987926952386715 8.4306470698231806 -0.00039054477224453876 39.996392430043784 -0.00039054477224453876 18.951890786716149 110.33869451599571 20.433160848127244 39.997573857097677 20.433160848127244 14.301089193787448 -0.0036266711858843337 39.997573857097677 -0.0036266711858843337 31.15994592744596 113.56557663537562 28.952911461961477 40.001933847658421 28.952911461961477 18.128609626977436 2.833989253758773e-05 40.001933847658421 2.833989253758773e-05 32.923546565588296 70.597811047969543 10.963152108240934 39.998617854645431 10.963152108240934 2.0839225394201151 0.0047060372496972036 39.998617854645431 0.0047060372496972036 18.170433396847528 47.351456209588555 7.0345706397615686 39.996302161086987 7.0345706397615686 1.5498480567115109 -0.00048392742449010484 39.996302161086987 -0.00048392742449010484 12.225326066574958 111.42598938128003 22.593176976524688 40.000621637710935 22.593176976524688 4.9106947595150814 0.0004095277544848841 40.000621637710935 0.0004095277544848841 29.084171035198722 194.42487964567056 23.820400201100369 39.99629325205251 23.820400201100369 11.711769394781413 0.00048466654629919503 39.99629325205251 0.00048466654629919503 51.534162260112907 135.58150627164821 15.700681870562107 39.998552295857507 15.700681870562107 7.9881933484371075 -0.0046051099457145028 39.998552295857507 -0.0046051099457145028 35.892424905021244 82.670891462960753 15.254846600779501 39.994355522511455 15.254846600779501 -3.6878304197995249 0.0064597585613910269 39.994355522511455 0.0064597585613910269 19.745765260790336 122.45327399453333 29.012676194612197 39.995736153555526 29.012676194612197 8.4416208833787323 -0.00456489407679328 39.995736153555526 -0.00456489407679328 32.72372371947813 121.40920058647242 32.138100287753844 39.995935702964971 32.138100287753844 3.313025261531493 -0.0019560095330461991 39.995935702964971 -0.0019560095330461991 31.180556462001107 102.0120313238251 20.700992340006977 40.001852532388057 20.700992340006977 5.9626543199803166 -0.00032065383521739932 40.001852532388057 -0.00032065383521739932 26.99367141095135 129.63458023471281 30.325781895158116 39.995214958842098 30.325781895158116 8.559827023220123 -0.0032158611629142797 39.995214958842098 -0.0032158611629142797 34.548601814483263 92.408182702818721 4.6277584061016341 39.996463084682091 4.6277584061016341 0.51846700812143354 0.00018888856632770512 39.996463084682091 0.00018888856632770512 23.231662427734904 113.03299675415187 26.213008180194862 40.002571319173967 26.213008180194862 -0.68606442780992438 -0.0013732197480607056 40.002571319173967 -0.0013732197480607056 28.086733081585486 110.84408217124064 24.909955673795537 40.001960417451215 24.909955673795537 2.6935747877956544 -0.00094165962170222883 40.001960417451215 -0.00094165962170222883 28.38441423975911 107.00650418067355 27.666864964975886 40.00205010577389 27.666864964975886 11.745178686540669 2.0413576947930778e-05 40.00205010577389 2.0413576947930778e-05 29.687920716803546 115.01429919366313 37.271442845588524 39.993802403956892 37.271442845588524 0.91103811130892609 -7.4098027653235476e-05 39.993802403956892 -7.4098027653235476e-05 28.9813343262432 119.38315050256801 39.206339522660969 39.99360078076424 39.206339522660969 2.5874257116047374 -0.00033825363414052845 39.99360078076424 -0.00033825363414052845 30.492644053543245 75.879298314175315 2.6025579991683632 39.999206521534283 2.6025579991683632 1.5794603526733226 -0.00043427682788887978 39.999206521534283 -0.00043427682788887978 19.36468966671211 114.76683083167768 1.4474362863172907 39.999208280554647 1.4474362863172907 -0.84723005751880009 0.00043419506562258903 39.999208280554647 0.00043419506562258903 28.479900193539663 95.053580425364004 14.955878684873886 40.001783706993571 14.955878684873886 31.683300912283663 -5.1925053406315369e-09 40.001783706993571 -5.1925053406315369e-09 31.684220334411918 115.5746868854573 29.898112266094675 40.001781835710425 29.898112266094675 38.524066417443628 9.7281737895591479e-09 40.001781835710425 9.7281737895591479e-09 38.524688325725222 105.49178526041572 28.037959790252785 40.002168996800208 28.037959790252785 5.3581418282872733 -0.00029566996286689573 40.002168996800208 -0.00029566996286689573 27.712481772175721 106.75945447690268 28.500518039346531 40.00202073512088 28.500518039346531 10.503808290293136 3.5170147853591516e-05 40.00202073512088 3.5170147853591516e-05 29.315815691799017 105.38758110433663 26.071129881145083 40.002000095370761 26.071129881145083 10.389049099449238 -8.5501656471365095e-05 40.002000095370761 -8.5501656471365095e-05 28.944157550946457 74.866968561601695 6.6055262815688103 40.001505370445216 6.6055262815688103 4.6549396708892345 -0.00015104107194474636 40.001505370445216 -0.00015104107194474636 19.880477058122743 149.38052033635171 28.854555942036711 40.001503139557656 28.854555942036711 15.89753356946494 0.00014541964520731199 40.001503139557656 0.00014541964520731199 41.319513476454162 149.2371594258567 18.585744642717714 39.994593688188189 18.585744642717714 6.6706882265286822 -0.0061135566298844424 39.994593688188189 -0.0061135566298844424 38.976961913096375 77.623621982984147 5.6153255784002045 40.001573612909453 5.6153255784002045 3.9453857224390205 -0.00012249295832589269 40.001573612909453 -0.00012249295832589269 20.39225192635579 143.55520556107646 30.430307179971919 40.00156867078173 30.430307179971919 13.058202529073867 0.00011971728473270105 40.00156867078173 0.00011971728473270105 39.153352022537575 98.598744221767788 33.926153441512383 39.992513167499709 33.926153441512383 0.36656405637313583 0.0015775474100792053 39.992513167499709 0.0015775474100792053 24.741327069535259 153.02898607723097 24.089072396932295 40.000614711664241 24.089072396932295 17.625896804145555 -0.0067435719336685906 40.000614711664241 -0.0067435719336685906 42.663720720344145 105.74422847667746 25.863417372171128 40.002027693696903 25.863417372171128 10.955702847217282 -0.00012451906223986953 40.002027693696903 -0.00012451906223986953 29.174982830973704 118.6891602720404 27.171306921099529 39.992575889185844 27.171306921099529 0.010704079387892307 0.00023337224746455831 39.992575889185844 0.00023337224746455831 29.674966087857115 85.261283927141378 8.3896866141505644 40.001689772337201 8.3896866141505644 28.418778670983411 -6.9307144548787751e-09 40.001689772337201 -6.9307144548787751e-09 28.420015649531194 125.60729605229926 33.805865259362896 40.00168804181088 33.805865259362896 41.863887658656843 1.7099765720860798e-08 40.00168804181088 1.7099765720860798e-08 41.867795927739024 135.64949103652498 4.2324139712697306 40.001257581588177 4.2324139712697306 0.36775746129671916 9.3057025480902666e-05 40.001257581588177 9.3057025480902666e-05 34.004312124455424 55.673556159766846 1.7360873564281647 40.001269393309173 1.7360873564281647 0.010479822166274744 -8.4386297800165266e-05 40.001269393309173 -8.4386297800165266e-05 13.921008995483291 106.14644526827948 13.588327673044887 40.00009669281792 13.588327673044887 0.31738419142220664 0.0027781905727692902 40.00009669281792 0.0027781905727692902 26.615957364925521 69.593085028758253 9.2827081742777864 39.994297924458635 9.2827081742777864 -0.62062600355773156 0.010170629143317456 39.994297924458635 0.010170629143317456 17.243114756300145 127.70690593044856 23.888841794162261 40.002028211251115 23.888841794162261 5.2123310954596889 -0.0010442703589461644 40.002028211251115 -0.0010442703589461644 33.229809256477154 110.84080480274521 26.940846853453536 40.001933869706988 26.940846853453536 10.257123168163901 -1.0528646043894696e-06 40.001933869706988 -1.0528646043894696e-06 30.274481992727274 113.65085786882484 27.111048475602956 40.001858688863706 27.111048475602956 10.551784887491124 2.9773428664725543e-05 40.001858688863706 2.9773428664725543e-05 31.050660689078981 106.67197013221178 31.108732385729581 40.002326410057776 31.108732385729581 8.1442384997689601 -0.00013042760812709275 40.002326410057776 -0.00013042760812709275 28.704052157995164 109.43835724367844 29.937587629596692 40.002407499317172 29.937587629596692 7.6076119531079343 -0.00024486951883062602 40.002407499317172 -0.00024486951883062602 29.261492299196625 131.34375700143903 39.054895061558796 39.995338971901788 39.054895061558796 17.0362111859788 -0.0015035004947776542 39.995338971901788 -0.0015035004947776542 37.094992046854372 140.08901490830564 12.660836428337575 39.992796466379332 12.660836428337575 4.6845055873912145 -0.0058680825418306881 39.992796466379332 -0.0058680825418306881 36.193380123924243 139.75826650825215 36.033571725348565 40.003427974511226 36.033571725348565 0.63293840928827194 -0.0019210819728527895 40.003427974511226 -0.0019210819728527895 35.097801229385112 120.55239580686232 40.998065372675853 40.007269432552221 40.998065372675853 -4.1978890146909009 -0.0052117545667300647 40.007269432552221 -0.0052117545667300647 29.088626698042916 147.33719654318642 6.0188114483107142 40.001387178575357 6.0188114483107142 2.2187351975885576 5.3738221765797789e-05 40.001387178575357 5.3738221765797789e-05 37.388982935193752 48.839653233694982 1.6825096961683674 40.00139283885197 1.6825096961683674 -1.0170630351750276 -5.2593585763816009e-05 40.00139283885197 -5.2593585763816009e-05 11.95564754962998 112.24184671502617 31.815566630578928 39.99716266768155 31.815566630578928 37.427927644230955 -3.3078679306405313e-07 39.99716266768155 -3.3078679306405313e-07 37.417443589814368 113.20278788589417 20.707698528959142 40.002047800644021 20.707698528959142 -0.713501846385725 -0.0023003787845823354 40.002047800644021 -0.0023003787845823354 28.122321509877111 106.88052231579778 25.339639650265667 40.001928400242804 25.339639650265667 15.889294352205155 -2.934019354938755e-05 40.001928400242804 -2.934019354938755e-05 30.692454167000705 76.098460156430875 4.4973154071365933 40.001598262536959 4.4973154071365933 6.9375920421704578 -0.0001078832833911747 40.001598262536959 -0.0001078832833911747 20.759013049650335 142.60118481512251 33.961742524225485 40.001594834462779 33.961742524225485 24.265321039927755 0.00010774891077858229 40.001594834462779 0.00010774891077858229 41.71662646376258 117.96266855802035 31.824185747978476 40.001871689979055 31.824185747978476 21.380854781866702 8.5578040653899734e-05 40.001871689979055 8.5578040653899734e-05 34.835880834971746 116.80736607730466 23.638543487778634 40.000780920984596 23.638543487778634 6.2213875245922736 -0.00041799814312071248 40.000780920984596 -0.00041799814312071248 30.757188400474263 141.15421943887981 25.410650199645602 39.993833330185453 25.410650199645602 5.0860832213068079 -0.0028404235160905955 39.993833330185453 -0.0028404235160905955 36.560075665046668 118.70011922912757 30.901458050063127 40.001849250856239 30.901458050063127 19.075599499464488 0.000138394136300235 40.001849250856239 0.000138394136300235 34.44392968214801 145.01876506989447 8.3633786245540023 39.995553207416492 8.3633786245540023 -0.058956728521479818 -5.5673778661002871e-05 39.995553207416492 -5.5673778661002871e-05 36.239952085343248 102.75335308329119 5.6954872276280639 39.990542948916755 5.6954872276280639 -0.1249869013308853 0.00028461500573939702 39.990542948916755 0.00028461500573939702 25.657091545490005 91.429181814252217 6.3770139375042163 39.990887230830253 6.3770139375042163 -0.14526319556216549 0.0030325519747975704 39.990887230830253 0.0030325519747975704 22.820979654672499 112.49799984058836 28.415194622525519 39.997995973961693 28.415194622525519 4.5183363284086226 -0.00055927837661329249 39.997995973961693 -0.00055927837661329249 29.254084042249303 117.09208858913479 13.132910106789325 39.990309618423851 13.132910106789325 -2.9400548604357937 -0.0056563705128382935 39.990309618423851 -0.0056563705128382935 28.538008432174763 118.62829287972434 29.802981638824917 40.002099343756157 29.802981638824917 7.69641569284056 -2.8350831257739628e-05 40.002099343756157 -2.8350831257739628e-05 31.58117714314119 112.42357450116026 23.244225091695569 40.000512544494953 23.244225091695569 7.4370466252805727 -0.00065026346601371188 40.000512544494953 -0.00065026346601371188 29.96515528161035 48.840196357421405 1.2726419054547478 40.00514275239334 1.2726419054547478 -3.6294195520472385 0.0095737388006682522 40.00514275239334 0.0095737388006682522 11.302694201343456 32.380273299534792 0.54379970866727945 39.99642499944764 0.54379970866727945 -2.4759035218264671 -0.0001036098390159168 39.99642499944764 -0.0001036098390159168 7.4760924444273087 157.51017682881962 19.25116167660849 40.005147752346375 19.25116167660849 7.5522643049138765 -0.0095714169729035348 40.005147752346375 -0.0095714169729035348 41.265610283433546 226.25776891429496 28.531148168818618 39.996441145664676 28.531148168818618 11.035818178555758 0.00010341236401245624 39.996441145664676 0.00010341236401245624 59.32339677321238 115.90252336495757 28.258449385864864 40.001983856751636 28.258449385864864 7.9059104170788714 -8.0277376014237234e-05 40.001983856751636 -8.0277376014237234e-05 30.952108445509111 118.69010203127101 29.832131944238498 40.002077891668733 29.832131944238498 11.360447160144076 1.0401220606581774e-05 40.002077891668733 1.0401220606581774e-05 32.512637297853814 119.77521545801204 32.035131563861967 40.002454599031637 32.035131563861967 6.4019677400783621 6.3900584450493625e-05 40.002454599031637 6.3900584450493625e-05 31.544295799522558 86.057322354749829 6.8491675241118912 40.000917927539433 6.8491675241118912 0.75325983307004662 -0.00038345904653169782 40.000917927539433 -0.00038345904653169782 21.702645546954983 73.122603845385484 5.2758166073340078 40.001037459748062 5.2758166073340078 -1.1793796171592987 -0.00041946426628669542 40.001037459748062 -0.00041946426628669542 17.985806057056543 103.57375121489584 18.551881228502467 40.001845269364878 18.551881228502467 -1.1149803055209588 -0.00072474871203098701 40.001845269364878 -0.00072474871203098701 25.614692727343709 119.06373283970333 28.960394742653591 40.001947915907323 28.960394742653591 9.3255637631937134 0.00052081452975016873 40.001947915907323 0.00052081452975016873 32.09732415072429 119.71296970575079 35.720281084797421 40.004953454101781 35.720281084797421 -0.44522535358419191 -0.001074185341451539 40.004953454101781 -0.001074185341451539 29.8169360880417 139.39807515685263 33.21997620945109 40.001604359901989 33.21997620945109 21.254506007063895 0.00016840072052737298 40.001604359901989 0.00016840072052737298 40.163145290979109 129.8363149512133 33.003041780038437 40.001662866122878 33.003041780038437 25.324540607228016 0.00012222649824877863 40.001662866122878 0.00012222649824877863 38.790213889610328 85.840110906799737 9.3005234679533793 40.001665715170709 9.3005234679533793 8.5001081146047142 -0.00012211653155702606 40.001665715170709 -0.00012211653155702606 23.585054755351116 82.333159339904356 8.0835831713474544 40.001609507512718 8.0835831713474544 6.5477064188492022 -0.00016642022136181822 40.001609507512718 -0.00016642022136181822 22.220216439688397 88.648170651517717 14.55279624435434 39.995979005731726 14.55279624435434 -1.9821689443956529 0.00084833582275223307 39.995979005731726 0.00084833582275223307 21.666500426780431 87.612742829411332 15.495079283518379 39.995329117538041 15.495079283518379 -1.0853679326335168 0.00058415339799466892 39.995329117538041 0.00058415339799466892 21.631843724194596 95.472466110049794 15.096432204863158 40.001774843500606 15.096432204863158 23.325145660969302 -4.2598705956464755e-05 40.001774843500606 -4.2598705956464755e-05 29.699402942754777 94.377801272843101 15.43387630186472 40.001784719228098 15.43387630186472 19.436197189423496 -6.736100734983097e-05 40.001784719228098 -6.736100734983097e-05 28.453499615566649 115.25940099092487 29.957004221117622 40.001785588086683 29.957004221117622 28.370711634104879 6.8764768286655453e-05 40.001785588086683 6.8764768286655453e-05 35.907528156257442 118.78785081269086 31.972695105919868 40.001773978091066 31.972695105919868 35.068112976066438 4.2357537644477361e-05 40.001773978091066 4.2357537644477361e-05 38.46399094718933 119.03012359434808 30.260017481387763 39.994058262248132 30.260017481387763 3.0660474320786761 0.0013323840137786647 39.994058262248132 0.0013323840137786647 30.524042756606718 81.042511750844483 20.172382418244524 39.995220513526078 20.172382418244524 1.756320838964939 -0.00098453792116970362 39.995220513526078 -0.00098453792116970362 20.699708147452498 126.86768709795835 33.007756671419465 40.001719549989389 33.007756671419465 23.192298616804862 0.00016303755324997837 40.001719549989389 0.00016303755324997837 37.514996428690793 94.913735051764448 15.30561948573478 40.001736828722699 15.30561948573478 10.637160702686344 -0.00016195673575225555 40.001736828722699 -0.00016195673575225555 26.387723938612723 114.92227400148505 28.971423428834527 40.002473679224408 28.971423428834527 6.8700421484344361 0.0007182451444691651 40.002473679224408 0.0007182451444691651 30.448079037479829 131.49488297718344 30.551658696111943 40.001632293747477 30.551658696111943 17.954838781162465 0.00017130016223632083 40.001632293747477 0.00017130016223632083 37.362430439586475 89.453502827098106 12.066777520485765 40.001629194538538 12.066777520485765 7.6689075770383361 -0.00016858938615982311 40.001629194538538 -0.00016858938615982311 24.280602601034111 175.37875937092889 43.163581560172702 40.002956002921508 43.163581560172702 13.575428335075458 -0.0059723115197130028 40.002956002921508 -0.0059723115197130028 47.238546926501158 120.12140106531925 30.819002616505429 40.002154877128191 30.819002616505429 9.872354979323859 0.0001231088650968104 40.002154877128191 0.0001231088650968104 32.498439011160826 79.426936985551535 5.2877592033073579 40.001644614422894 5.2877592033073579 26.468064773542636 -2.5432521527261578e-08 40.001644614422894 -2.5432521527261578e-08 26.473750439773539 132.48337282002194 36.057689950861452 40.001642930179962 36.057689950861452 44.171748561137157 1.4047156156017727e-08 40.001642930179962 1.4047156156017727e-08 44.16378034528978 116.64561268480938 32.09826878555026 40.002634785245704 32.09826878555026 6.5786285770064978 -0.00056222387405568952 40.002634785245704 -0.00056222387405568952 30.806060315453976 109.01399916489356 32.722696334538796 39.996516655989922 32.722696334538796 27.298066113347431 -6.7535727339418372e-05 39.996516655989922 -6.7535727339418372e-05 34.07801631956022 119.4844048156549 24.531119996146629 40.001669345052562 24.531119996146629 8.6344664839123197 0.00093370434430539717 40.001669345052562 0.00093370434430539717 32.029717824891833 71.047460020051915 18.195935245005955 39.993880251336293 18.195935245005955 -5.608046425257271 0.0068920981084374944 39.993880251336293 0.0068920981084374944 16.35985339869859 116.65146930825281 28.135758006038117 40.001975538801503 28.135758006038117 10.230047637455471 -4.1657919950921496e-05 40.001975538801503 -4.1657919950921496e-05 31.72037923642705 122.55405873153703 29.755229801917153 40.0023520601016 29.755229801917153 6.9495770344576613 -0.00013665951559005407 40.0023520601016 -0.00013665951559005407 32.375908941498608 59.113934455364898 -0.91229486416383221 40.001518445545862 -0.91229486416383221 6.2896982572968989 -4.920062442081985e-05 40.001518445545862 -4.920062442081985e-05 16.350908178165447 186.46102689843156 35.774079132791087 40.001515777845754 35.774079132791087 22.008963393567257 4.8778005066196783e-05 40.001515777845754 4.8778005066196783e-05 52.11749757299971 106.48859538021591 32.501981792278258 40.00458042233754 32.501981792278258 3.5446906320213429 0.0014253177338332534 40.00458042233754 0.0014253177338332534 27.508321503059307 113.94779349726703 28.111911724659677 40.001938430452896 28.111911724659677 12.160445470260242 2.8251968444692466e-06 40.001938430452896 2.8251968444692466e-06 31.527059741881814 118.72801113672806 30.757122836539338 40.002199800131052 30.757122836539338 9.7892870356765656 0.00036797093278195803 40.002199800131052 0.00036797093278195803 32.129324543101163 113.60198740697544 10.686097094779939 40.000721516698491 10.686097094779939 1.3285152635035047 0.00087800485533762185 40.000721516698491 0.00087800485533762185 28.732625667619743 129.5204102262995 8.3909798047578192 39.995819621680766 8.3909798047578192 -0.058848292232028143 -0.00012562454713815896 39.995819621680766 -0.00012562454713815896 32.365390483516734 111.45026855758363 25.017878560875317 40.002005941082587 25.017878560875317 8.9458535200110418 0.0022540982560599332 40.002005941082587 0.0022540982560599332 30.099030519398582 118.17461038990933 27.255788740657749 39.998074050034802 27.255788740657749 7.3245870044356707 -0.0023732093087573958 39.998074050034802 -0.0023732093087573958 31.374799348586123 110.62627698748855 23.025395950669918 40.00203298529209 23.025395950669918 5.2845016086165515 0.0010739186414525648 40.00203298529209 0.0010739186414525648 28.97769464902629 113.61505015568655 27.878444721298536 40.001947359588229 27.878444721298536 10.18026708082661 -2.8632757405944176e-05 40.001947359588229 -2.8632757405944176e-05 30.948829309128271 124.76446112848157 22.566408524951385 39.992985650445348 22.566408524951385 0.054423171840824125 -0.0062340902135247234 39.992985650445348 -0.0062340902135247234 31.204721075080556 124.04825367784906 37.770705758755156 40.003470885168326 37.770705758755156 7.5579166765668333 -0.00096401730240813777 40.003470885168326 -0.00096401730240813777 32.901542588603974 119.98442373291635 25.017594211519672 40.00191230021187 25.017594211519672 7.6612664780648174 0.00078112296415611127 40.00191230021187 0.00078112296415611127 31.911422552745307 157.19766277375788 7.3632596162703496 39.995627374094909 7.3632596162703496 -0.55071822563763817 -1.7941886767403048e-05 39.995627374094909 -1.7941886767403048e-05 39.161736137030061 113.04406364808733 4.8408103812724903 39.987877101518848 4.8408103812724903 -0.55478107060241655 -0.0010716202794469609 39.987877101518848 -0.0010716202794469609 28.122320644371257 87.226581343415887 6.6071321472348927 39.988653188708895 6.6071321472348927 -0.83822071074268933 0.0041639864209059851 39.988653188708895 0.0041639864209059851 21.597090158168271 94.713380175465247 9.9491801281686776 40.000930594207432 9.9491801281686776 -0.1627908308349113 -0.0013055435537996374 40.000930594207432 -0.0013055435537996374 23.637647336157602 54.145165670629524 20.841583217552909 39.99971370193839 20.841583217552909 -3.6762126109315432 0.012922569737042977 39.99971370193839 0.012922569737042977 12.617238264924453 124.02491088369391 5.4387574424773106 40.000797211872793 5.4387574424773106 2.2076985907661992 0.00048672266959215449 40.000797211872793 0.00048672266959215449 31.558152368615083 74.084192004609221 3.8346397475095557 40.000813084510128 3.8346397475095557 -1.6108309491742787 -0.00047607356676593326 40.000813084510128 -0.00047607356676593326 18.118340263858713 115.97614241109663 4.7698757326642749 40.000450571221393 4.7698757326642749 -0.57118806359341079 0.00042703886767014865 40.000450571221393 0.00042703886767014865 28.851238586875795 84.205655305189126 6.0149023256538499 40.000442947365315 6.0149023256538499 1.1343095363881162 -0.00044124076822527059 40.000442947365315 -0.00044124076822527059 21.334991210394364 155.85688763816205 36.855697891016533 40.001547699665785 36.855697891016533 26.877478064657424 2.5473855544078106e-05 40.001547699665785 2.5473855544078106e-05 45.683591425704869 68.165688951688793 1.7193563304216726 40.001549581646486 1.7193563304216726 10.322397203066187 -2.6470080069174173e-05 40.001549581646486 -2.6470080069174173e-05 19.622021538688745 123.15747670514989 29.160242984101501 40.002288410147344 29.160242984101501 2.0962638346657059 -0.00052007199613512967 40.002288410147344 -0.00052007199613512967 31.313435134953892 128.98692442622954 29.201716289743217 40.003246552101643 29.201716289743217 2.9934407238142171 -0.00092729085025666791 40.003246552101643 -0.00092729085025666791 32.995091287510945 74.062786841373736 8.1821615273950101 39.990470863700921 8.1821615273950101 -1.5423634284190939 0.0027225822676086864 39.990470863700921 0.0027225822676086864 18.130105853238433 133.28564803927236 5.5917371866364647 39.990020514387766 5.5917371866364647 0.040019680090153997 -0.0033199825854239862 39.990020514387766 -0.0033199825854239862 33.331416929840714 67.439429312023094 11.098331537782428 39.994505794471991 11.098331537782428 -1.2262207656133342 0.010261040498448892 39.994505794471991 0.010261040498448892 16.553302136602383 114.77868975099909 5.4058276457286638 39.989366343784923 5.4058276457286638 0.24721605956278836 -0.00011524187300437916 39.989366343784923 -0.00011524187300437916 28.756476452640356 99.081350276472961 9.1972827767395984 39.989889384368894 9.1972827767395984 -0.31178888151066531 0.00024829902707779183 39.989889384368894 0.00024829902707779183 24.69239034874073 120.11669620702484 29.338562164023415 40.002071034292385 29.338562164023415 8.6475635931857582 0.00068998258232255694 40.002071034292385 0.00068998258232255694 32.19106495005262 117.78987753801619 34.395577197384824 40.003030569334385 34.395577197384824 2.1276026691787138 -0.00026558246662489182 40.003030569334385 -0.00026558246662489182 29.97937005179881 125.06548965583181 34.015482293866114 40.003053436989831 34.015482293866114 2.485717867575886 -0.00025480548578116213 40.003053436989831 -0.00025480548578116213 31.887801880851839 116.91417084579615 25.794098544456972 40.001901254809496 25.794098544456972 5.2055779411616641 -0.00036632079547871399 40.001901254809496 -0.00036632079547871399 30.529937196739439 121.61827855022898 7.5767459386809906 39.996188717377272 7.5767459386809906 0.26441683737152744 -0.00030538132432411658 39.996188717377272 -0.00030538132432411658 30.470673846900127 116.53382207056035 21.836377120451687 40.000756733099195 21.836377120451687 6.9864737058269384 -0.00095035313893276907 40.000756733099195 -0.00095035313893276907 30.880073944096694 122.73356493259831 26.697831660170863 40.002312663463442 26.697831660170863 2.9910779559128287 -0.0036350195658769735 40.002312663463442 -0.0036350195658769735 31.4311607221278 125.21780423742243 27.063623595842586 40.003613024617493 27.063623595842586 1.8951918878503875 -0.0023210143729102128 40.003613024617493 -0.0023210143729102128 31.778249031318182 68.060452225188328 8.5197872993004466 39.990653573454324 8.5197872993004466 -2.0743170837135949 0.0073842961871264379 39.990653573454324 0.0073842961871264379 16.496533785368683 74.685138606029923 0.785107436332936 40.000527957640372 0.785107436332936 -0.77548485293476688 -0.00030048684874373066 40.000527957640372 -0.00030048684874373066 18.477413438273814 120.84908279806534 2.1295724816438337 40.000525013094148 2.1295724816438337 1.2097130985150244 0.0003062371102444672 40.000525013094148 0.0003062371102444672 30.514698974145105 120.95462159303264 22.641188198973516 40.001029049104403 22.641188198973516 5.697840868260073 -0.00067595478071780235 40.001029049104403 -0.00067595478071780235 31.66311561532325 128.72251928227831 21.490440883319593 39.995591725855547 21.490440883319593 -2.0087676104712955 -0.00043322630313014088 39.995591725855547 -0.00043322630313014088 31.678437917951669 142.70430597948058 20.979145669909599 39.995311389433198 20.979145669909599 2.6518279552628883 -0.00043322630324382772 39.995311389433198 -0.00043322630324382772 36.339033483685796 100.28399163269751 14.411656667989234 39.991880211631553 14.411656667989234 0.46994571756476944 0.0012753447947488894 39.991880211631553 0.0012753447947488894 25.188484337565683 91.140986205334798 15.682801093188232 39.992172059177506 15.682801093188232 -2.577722758222099 0.0012753447947944077 39.992172059177506 0.0012753447947944077 22.140815861778144 126.64817183084045 4.633610231089051 39.989254410993112 4.633610231089051 1.3589533911194849 -0.0037605062166221614 39.989254410993112 -0.0037605062166221614 32.001781305489942 177.85846778050291 7.2962200188012432 39.995732353877997 7.2962200188012432 1.9980177556185481 8.6712583311054914e-05 39.995732353877997 8.6712583311054914e-05 44.96412138403025 126.32142264002168 33.101604409392124 40.001718148567292 33.101604409392124 25.372821553468611 0.00013212951614605117 40.001718148567292 0.00013212951614605117 37.923561048372548 93.079610766437099 14.314009363417306 40.001718564697228 14.314009363417306 15.150376104663032 -0.00012691689832422526 40.001718564697228 -0.00012691689832422526 27.057496717775045 95.15173394630267 18.712908608712269 39.993282525863947 18.712908608712269 -1.5555152997918782 0.00095869461186026683 39.993282525863947 0.00095869461186026683 23.399054661627584 92.034141359864634 19.961052060426908 39.993531407557242 19.961052060426908 -2.4686251993048245 0.0009678389117198094 39.993531407557242 0.0009678389117198094 22.391379040140009 90.848522287211367 20.698913358557888 39.994092958699866 20.698913358557888 -2.3002441478362812 -0.00019647918908560769 39.994092958699866 -0.00019647918908560769 22.137069534843917 90.503959282189385 19.22032777497887 39.994221705070856 19.22032777497887 -3.1830078346738446 0.0019461239672864394 39.994221705070856 0.0019461239672864394 21.830237861879027 136.35506447731598 27.772914503120887 39.994945499229289 27.772914503120887 1.6798395149833425 -0.00067441664144496372 39.994945499229289 -0.00067441664144496372 34.508725998074752 129.52065652714256 30.771047863024933 39.994267496249449 30.771047863024933 -2.5155066761304212 0.00011822650588388939 39.994267496249449 0.00011822650588388939 31.75128746275298 127.54509194055382 32.915833341696079 40.001660836173571 32.915833341696079 36.633911597672295 4.4261000553547092e-05 40.001660836173571 4.4261000553547092e-05 41.044750884556528 78.701288210897829 4.6121402667694182 40.001662533526243 4.6121402667694182 18.122391868155479 -4.4304781063431165e-05 40.001662533526243 -4.4304781063431165e-05 24.20592001976333 106.930424824738 5.9188550154731274 39.9988364743744 5.9188550154731274 -2.1067723137489338 0.0011726673351404315 39.9988364743744 0.0011726673351404315 26.205913127747237 95.98706469259136 9.861451858244024 39.998866131620389 9.861451858244024 2.4309697478345242 -0.0010033957760811063 39.998866131620389 -0.0010033957760811063 24.604508610106478 126.86101866149355 11.909439514476844 40.001273651007409 11.909439514476844 3.4128714526279964 0.00052936436856043656 40.001273651007409 0.00052936436856043656 32.568472528530293 113.95845895517212 28.287227451085414 40.001942771480344 28.287227451085414 14.104923746227826 3.5306539501789302e-05 40.001942771480344 3.5306539501789302e-05 32.015845675350008 127.11645339830329 34.778510882416526 39.996821224280552 34.778510882416526 16.179091210552997 -0.0015740852566068497 39.996821224280552 -0.0015740852566068497 35.823886152214072 74.577798759521258 5.0000140701225231 40.001390775330428 5.0000140701225231 -0.13134653049498013 -0.00019068286505330434 40.001390775330428 -0.00019068286505330434 18.611613057256534 69.909239045740591 6.424760067641814 40.001199194935566 6.424760067641814 0.18876070001849143 -0.00025670116772857909 40.001199194935566 -0.00025670116772857909 17.524499936439767 102.43652792480759 21.206721091669387 40.001863607558818 21.206721091669387 18.23108111044094 -7.7038809507712358e-05 40.001863607558818 -7.7038809507712358e-05 30.166902258812129 87.195289239512306 8.1310574834581644 39.988543560362928 8.1310574834581644 -0.45195582907388143 0.00441579596650854 39.988543560362928 0.00441579596650854 21.685833352609677 114.97019677506114 1.9230449894633921 40.000009030999024 1.9230449894633921 -0.76257453137679931 0.00026927730908710146 40.000009030999024 0.00026927730908710146 28.551905560921057 81.461688590885558 3.5506413796526886 40.000011175531768 3.5506413796526886 0.98938376313472531 -0.0002676248533788339 40.000011175531768 -0.0002676248533788339 20.612768088505042 168.42299368556834 19.545537111864178 40.001618110567392 19.545537111864178 1.0300604450870878 -0.01154299114793389 40.001618110567392 -0.01154299114793389 42.363263532663922 82.13586027050097 9.4905939889761441 40.001552180750124 9.4905939889761441 3.946792604221784 -0.00023747464183543343 40.001552180750124 -0.00023747464183543343 21.520663218680696 90.440121613634531 12.367044241696128 40.001617708386959 12.367044241696128 2.2426408448489354 -0.00026361668098218161 40.001617708386959 -0.00026361668098218161 23.170690614620888 133.79963082232973 28.370153746386073 39.99946498548973 28.370153746386073 20.522856099251612 -0.0055731552797624317 39.99946498548973 -0.0055731552797624317 38.580621730395251 63.864146536788979 2.5036436761958996 40.00134712659974 2.5036436761958996 0.73655030864893689 -3.4082715529848429e-05 40.00134712659974 -3.4082715529848429e-05 16.150174211359491 142.27292825601648 4.598799311457924 40.001350518975528 4.598799311457924 -0.30933190127620946 3.9005841827588483e-05 40.001350518975528 3.9005841827588483e-05 35.490899088685069 112.15399032885853 38.961277438093447 39.993575037637925 38.961277438093447 1.2225597447145446 0.00012487717356179928 39.993575037637925 0.00012487717356179928 28.344137518393268 107.70578468332087 37.166219938512185 39.99331556569058 37.166219938512185 -0.82663278439326859 -0.00017073895492103475 39.99331556569058 -0.00017073895492103475 26.719787974731844 113.26962457006448 26.657211901579245 40.001900511926806 26.657211901579245 7.7507316943847684 -0.00011882219744308031 40.001900511926806 -0.00011882219744308031 30.255089066112255 105.16270075123077 22.548687809667477 40.00184632122113 22.548687809667477 3.429807799180935 -0.00057368941446611643 40.00184632122113 -0.00057368941446611643 27.148127137602955 107.84348605927832 27.74995524098469 40.001987889498878 27.74995524098469 11.668875297768778 -2.8304624905217679e-05 40.001987889498878 -2.8304624905217679e-05 29.878090339261739 129.34881722704324 21.134413054994809 40.001303161803605 21.134413054994809 17.866233061602088 -0.0054601228594037821 40.001303161803605 -0.0054601228594037821 36.803762572161418 122.37558410532327 11.677223157783033 40.001151931553864 11.677223157783033 3.5729738529788335 0.00080492828271161443 40.001151931553864 0.00080492828271161443 31.487139489575462 120.2479136485492 31.706530651587457 40.002047248512582 31.706530651587457 12.410177490714887 0.00021079756433550756 40.002047248512582 0.00021079756433550756 33.164522784816057 165.97652461737493 13.084694343758807 39.990857485002309 13.084694343758807 5.0998128685182564 -0.0072114931539317695 39.990857485002309 -0.0072114931539317695 42.769084371473127 89.476878271329269 6.8338917383632634 39.996093126043661 6.8338917383632634 1.4312820349247062 0.00023906001274198729 39.996093126043661 0.00023906001274198729 22.727040076563519 67.813557635136476 2.6309478154188639 40.000432532126752 2.6309478154188639 -0.22417827343878116 -0.00019809182401786529 40.000432532126752 -0.00019809182401786529 16.89734484042441 119.47437631402909 1.4890394606538702 40.000424634873738 1.4890394606538702 0.059810009192460711 0.00019860870503407568 40.000424634873738 0.00019860870503407568 29.883546580805387 106.89924219426753 24.1235637606853 40.000760309380013 24.1235637606853 7.3369902232093409 0.0002261271343968474 40.000760309380013 0.0002261271343968474 28.559058104369228 82.283337208642337 8.9194621907483906 40.001534845703446 8.9194621907483906 3.1890071911395097 -0.00016330999068259189 40.001534845703446 -0.00016330999068259189 21.368086099945458 74.915763844043113 5.8779406647992367 40.001483853363922 5.8779406647992367 0.24416716405065131 -0.0002248387669112617 40.001483853363922 -0.0002248387669112617 18.78998275202342 104.94061356889918 33.819481169068538 40.002859999921384 33.819481169068538 6.5372919241940508 -0.00020832634277212492 40.002859999921384 -0.00020832634277212492 27.869476373273272 79.346726963078481 7.2820675373077535 39.995568321996217 7.2820675373077535 -0.88140276840567822 0.00015159417694121657 39.995568321996217 0.00015159417694121657 19.616331048668371 117.00394859426029 25.663402725642641 39.992308333337519 25.663402725642641 2.1678707101142436 -0.00130224245006616 39.992308333337519 -0.00130224245006616 29.792954826093535 67.322148024415242 9.6968861363731165 39.989233227713612 9.6968861363731165 -2.324314558752576 0.0041125916438886634 39.989233227713612 0.0041125916438886634 16.249458366415411 43.874709130559495 6.4396131386020619 39.995732718984243 6.4396131386020619 -1.7370469027937361 -9.2510512786248e-05 39.995732718984243 -9.2510512786248e-05 10.534415556941553 105.21738860740268 16.95800647281952 40.00159104103588 16.95800647281952 -1.905285082276464 -0.0015257587517680804 40.00159104103588 -0.0015257587517680804 25.828025881281548 108.20536976916136 31.056771464264102 40.003016029020614 31.056771464264102 10.099239982313975 0.0035147411924754124 40.003016029020614 0.0035147411924754124 29.576152437868927 102.0120979080194 18.588301997068243 40.001696437364387 18.588301997068243 2.8969717697800661 0.0015960369773893035 40.001696437364387 0.0015960369773893035 26.227267419449873 155.87084261894256 7.8331928755745821 39.995571829289929 7.8331928755745821 -1.3457576747259736 2.1859586468053749e-05 39.995571829289929 2.1859586468053749e-05 38.63127123605409 110.34164502169824 5.2388201767536202 39.990773237303415 5.2388201767536202 -0.88504832718831494 -0.0031468903277982463 39.990773237303415 -0.0031468903277982463 27.364149173627538 122.8223575574323 29.420340834157848 40.001845008803116 29.420340834157848 13.802073823991577 0.00033173867197433538 40.001845008803116 0.00033173867197433538 34.156107845355905 120.35389780685729 27.364628289999132 40.002347597173923 27.364628289999132 2.0331746408875802 -0.0014530712300029336 40.002347597173923 -0.0014530712300029336 30.596768111936242 121.6842869119925 6.78896510021523 40.000951055595046 6.78896510021523 -0.39458987424359293 0.00037664008300453133 40.000951055595046 0.00037664008300453133 30.322424259437128 148.60367791768317 13.092547711088644 39.990760581724444 13.092547711088644 2.6477954595973188 -0.0074835228358551831 39.990760581724444 -0.0074835228358551831 37.812868344320123 138.88815730224476 25.371214494637684 40.001506418304189 25.371214494637684 11.488279293829862 0.00033001038602264998 40.001506418304189 0.00033001038602264998 37.594109149018692 86.391729817931491 5.3437228733369011 39.996158027999968 5.3437228733369011 -1.4445372803847931 0.00030391644281735353 39.996158027999968 0.00030391644281735353 21.236798134386618 130.65258944021909 10.635939718116674 40.001195305910443 10.635939718116674 1.8427928644987333 0.00023965212056964447 40.001195305910443 0.00023965212056964447 33.123845576179434 139.83320929142963 11.712597660174396 40.001372639413461 11.712597660174396 2.7240407103000734 0.00017593402614579645 40.001372639413461 0.00017593402614579645 35.639312500432482 126.25155854750156 23.164097983299143 39.995879978063385 23.164097983299143 3.1429402300213383 -0.0013253988012138507 39.995879978063385 -0.0013253988012138507 32.348624694380788 90.659942164188195 11.710668029716185 40.001713892962215 11.710668029716185 22.729224419968126 -4.644443126267106e-05 40.001713892962215 -4.644443126267106e-05 28.347291646039089 85.453069853182768 8.6088469905520899 40.001695557808858 8.6088469905520899 12.78360089815704 -9.8690822198932437e-05 40.001695557808858 -9.8690822198932437e-05 24.55916768783495 125.47530059000123 32.257377383136792 40.00169476074479 32.257377383136792 30.138886863879382 9.9883190502580987e-05 40.00169476074479 9.9883190502580987e-05 38.903546863470169 124.84173184515778 34.053358423176206 40.001713387822733 34.053358423176206 35.618359663552354 4.811554386918715e-05 40.001713387822733 4.811554386918715e-05 40.115022877177537 118.30580442211325 31.97131423525218 40.002409460528781 31.97131423525218 6.3481467372466795 0.00056162618091093464 40.002409460528781 0.00056162618091093464 31.163487789839991 106.85167670710726 27.976822552452461 39.99806630319199 27.976822552452461 0.48120569926838286 0.00096885109305588912 39.99806630319199 0.00096885109305588912 26.833220601593869 110.18944485168932 27.097784153132579 39.998206426989213 27.097784153132579 -1.1273217858055418 0.000801601292067744 39.998206426989213 0.000801601292067744 27.265530766471056 127.60523208205359 9.0122507732457962 39.988514282582514 9.0122507732457962 2.2733929426958639 -0.0037349751542024023 39.988514282582514 -0.0037349751542024023 32.46965625618725 116.29012118948071 28.406809099656016 39.997940260752557 28.406809099656016 2.2637859986703006 -0.00051011348330121109 39.997940260752557 -0.00051011348330121109 29.638476797037697 117.65506686286278 17.285589537410075 39.989386065979943 17.285589537410075 0.72380320678644239 0.00011496896627249953 39.989386065979943 0.00011496896627249953 29.594717517412278 91.582135435451733 20.704374828800724 39.990034283919101 20.704374828800724 -0.98371472230837753 -0.00037137225479000335 39.990034283919101 -0.00037137225479000335 22.649605178285697 117.84317145617325 1.0288546679022712 39.999947828547164 1.0288546679022712 0.42058659703207013 0.00032164964994763068 39.999947828547164 0.00032164964994763068 29.56593951330143 69.68402161808487 1.1290299185683064 39.999944560700811 1.1290299185683064 -0.078411055334640878 -0.00032473204595362404 39.999944560700811 -0.00032473204595362404 17.401402640687564 63.721428532301445 24.468263114874048 39.994735730727939 24.468263114874048 -6.4544899248753609 0.0061365794231278414 39.994735730727939 0.0061365794231278414 14.316734651856507 131.55268376200326 17.478602303987714 39.989964807155729 17.478602303987714 -0.58867748357852179 -0.0021609370638202563 39.989964807155729 -0.0021609370638202563 32.741001569606226 118.13246211019936 12.94045590457273 40.001106197476759 12.94045590457273 5.3276261622318088 0.0013644651046433864 40.001106197476759 0.0013644651046433864 30.865022068107805 109.52094462919575 26.099290577542579 40.001844454633698 26.099290577542579 32.917863641223875 8.9369717741760724e-06 40.001844454633698 8.9369717741760724e-06 35.609702067604914 99.860434633427005 19.755090982035583 40.00175493636732 19.755090982035583 4.2574055266457549 -0.00040841159449200859 40.00175493636732 -0.00040841159449200859 26.029460040018208 99.833937887192988 20.367575036401945 40.001841841157187 20.367575036401945 7.0760916021754134 -0.00023153785151031059 40.001841841157187 -0.00023153785151031059 26.727507372342117 84.548644895840738 24.125015995545823 40.000131930737325 24.125015995545823 -1.7985734149243058 0.0036664108346542434 40.000131930737325 0.0036664108346542434 20.687517870229073 154.89757941782443 23.940704889496828 40.001469737365611 23.940704889496828 10.221501142021111 7.8186154510717643e-05 40.001469737365611 7.8186154510717643e-05 41.279770139961414 158.48213663535526 27.178512719943512 40.001528338692651 27.178512719943512 7.0925416083555604 5.4131709219973345e-05 40.001528338692651 5.4131709219973345e-05 41.393669560927741 69.221209713819334 3.1284642068522475 40.001531148327132 3.1284642068522475 3.0327384242750277 -5.4614824023246911e-05 40.001531148327132 -5.4614824023246911e-05 18.06348703452359 63.9738965901048 4.1311916161283735 40.001472600650757 4.1311916161283735 3.3603575138835424 -7.9276432558117449e-05 40.001472600650757 -7.9276432558117449e-05 16.833563525997072 106.85515266040386 3.4210719483327674 39.997633859819913 3.4210719483327674 -0.77151193420945674 0.00048825100054727955 39.997633859819913 0.00048825100054727955 26.520910181548629 132.18516695021054 24.383076963160988 39.999354243180846 24.383076963160988 13.366444056514865 -0.0039799406713427743 39.999354243180846 -0.0039799406713427743 36.387902751681395 81.518389754165014 6.5238134860111927 39.991932749679108 6.5238134860111927 0.23579463252679034 0.0065221868851494946 39.991932749679108 0.0065221868851494946 20.438546096672894 120.79213727674444 34.114533308987689 39.995690898270254 34.114533308987689 8.3811021227602396 -0.0011093122438960989 39.995690898270254 -0.0011093122438960989 32.293309849876167 127.33959584137065 30.820165953789228 40.001728467149491 30.820165953789228 16.097872587386746 0.00029614859994353537 40.001728467149491 0.00029614859994353537 35.859367107189343 120.45733962119499 25.400215259880866 40.001627152101008 25.400215259880866 6.450926092708869 -0.00034425109271296606 40.001627152101008 -0.00034425109271296606 31.727066428476007 128.74062217504149 15.983767193702619 40.0013639462029 15.983767193702619 2.6635172635795925 0.00029721065936882951 40.0013639462029 0.00029721065936882951 32.851034859655329 127.80941580240079 17.999654722276205 39.991873764129537 17.999654722276205 -1.4529050203358338 -0.0049939859048890867 39.991873764129537 -0.0049939859048890867 31.589127695516197 109.26289145189847 26.546392852358721 40.001822178293594 26.546392852358721 32.454387714680649 1.5980581117958081e-05 40.001822178293594 1.5980581117958081e-05 35.429319791644787 112.99963532434191 37.665997030570111 39.993834288472726 37.665997030570111 0.73713679217263461 -0.00022703372771104569 39.993834288472726 -0.00022703372771104569 28.434193029128615 52.066188749923242 28.182914094760541 39.999591479479705 28.182914094760541 -11.003470537002158 0.0062978757347309511 39.999591479479705 0.0062978757347309511 10.265679553230257 90.659479895836057 6.0242245581372345 39.997617016565357 6.0242245581372345 1.0121366185469469 -0.00049699899648203427 39.997617016565357 -0.00049699899648203427 22.917904128595751 104.22749458626546 22.241539554589384 40.001851685201402 22.241539554589384 28.131037698061142 -1.7215144012538985e-06 40.001851685201402 -1.7215144012538985e-06 33.089633071081657 131.63252313204106 35.60132619389934 40.001656616594275 35.60132619389934 36.994639614091255 4.4811467944327887e-05 40.001656616594275 4.4811467944327887e-05 42.156790686533057 85.057997863629197 8.1081410933925113 40.001658273502528 8.1081410933925113 21.367716379232103 -4.4860524631928911e-05 40.001658273502528 -4.4860524631928911e-05 26.606428560715329 111.31930627614574 27.557099160067168 40.001939533648681 27.557099160067168 12.707536781389081 2.2785528130953026e-06 40.001939533648681 2.2785528130953026e-06 31.006710764383655 117.62098048236174 3.524696604644987 40.000246106699564 3.524696604644987 1.133395302669669 0.00070636291360415271 40.000246106699564 0.00070636291360415271 29.688593946257924 83.011355266896544 2.701048555262588 40.000255772219305 2.701048555262588 -0.78572425765977982 -0.00068121602122062086 40.000255772219305 -0.00068121602122062086 20.556407752309212 113.99969336901597 18.466958592692151 39.991261590756039 18.466958592692151 2.7197066791723046 0.0020284004588120297 39.991261590756039 0.0020284004588120297 29.179850012046927 76.137813735233749 12.391203086388828 39.995466405637956 12.391203086388828 1.1726040994481082 -8.0214804711431498e-05 39.995466405637956 -8.0214804711431498e-05 19.327604458670521 80.689598478138009 7.7603141709523698 39.991787605772913 7.7603141709523698 -0.68454617024008257 0.0064629560989715173 39.991787605772913 0.0064629560989715173 20.001263076974624 111.53661895397002 19.060518199093163 40.00197903894491 19.060518199093163 -0.39692332102924865 -0.0011141469656763547 40.00197903894491 -0.0011141469656763547 27.784923908235186 86.855172835340113 22.397690387680029 39.991548704491379 22.397690387680029 -2.2447812397469988 0.0050463852853681601 39.991548704491379 0.0050463852853681601 21.152597898898193 114.63392339329337 28.848970665023984 40.001932487075635 28.848970665023984 14.981403253652161 3.0181305021415028e-05 40.001932487075635 3.0181305021415028e-05 32.403831661736405 100.96989601626468 20.278718667372804 40.001840961684309 20.278718667372804 25.652259755045986 -2.28962162616142e-05 40.001840961684309 -2.28962162616142e-05 31.655538942827675 123.67493586092658 30.851940168129488 40.001839966186253 30.851940168129488 13.58622149512199 0.00031027573612618653 40.001839966186253 0.00031027573612618653 34.31528933901216 95.257874399579833 24.806724461962801 40.00078621479966 24.806724461962801 9.765200500949959 0.0021070061505952253 40.00078621479966 0.0021070061505952253 26.255768725132384 87.693476607837567 20.406301408799806 40.001683752588974 20.406301408799806 -3.7608860902789729 0.0040926755445980234 40.001683752588974 0.0040926755445980234 20.983147629389634 82.621706757632808 15.666622978160603 39.995091897695943 15.666622978160603 -0.23974872866938313 0.00017490296619371293 39.995091897695943 0.00017490296619371293 20.59548950724087 72.666891713333257 14.849141636286106 39.995404338234664 14.849141636286106 -1.5150590258792818 6.1627260947716422e-05 39.995404338234664 6.1627260947716422e-05 17.787958171863465 123.06115972146654 23.796107849608234 39.992825049869452 23.796107849608234 1.265791581179883 0.00017174814695408713 39.992825049869452 0.00017174814695408713 31.081737825661662 107.61993661749977 22.795664527794656 39.99201706843877 22.795664527794656 -1.8230727191612459 0.00041133168451779056 39.99201706843877 0.00041133168451779056 26.449215974584604 125.80766324790363 24.176066967182308 39.993034823605193 24.176066967182308 -0.03576603776605225 -0.0027634104684466365 39.993034823605193 -0.0027634104684466365 31.442974302534481 137.83044116109181 25.320159424064741 39.992834639512466 25.320159424064741 4.0577098800736167 -0.0028143770659880829 39.992834639512466 -0.0028143770659880829 35.472037760291414 105.74932237886831 24.84803490820088 40.001843156938001 24.84803490820088 35.246488736023473 1.1977002496106049e-09 40.001843156938001 1.1977002496106049e-09 35.248952778722945 103.70905123286008 7.2803707981033767 39.989810404787249 7.2803707981033767 0.23517984205636822 0.0036328961035110297 39.989810404787249 0.0036328961035110297 25.98605776872904 97.229049716699421 17.40795392119071 39.990226929434584 17.40795392119071 -2.5793701512693019 0.0016131963811858441 39.990226929434584 0.0016131963811858441 23.662419891357501 95.80934630804586 9.8658424794909934 39.996611858326276 9.8658424794909934 0.10483216326156253 0.00079212480488877191 39.996611858326276 0.00079212480488877191 23.978544617826856 101.29658297164985 3.4471725946013976 39.997267887349381 3.4471725946013976 0.36123405927548902 0.00023084310342369463 39.997267887349381 0.00023084310342369463 25.414454257731222 103.56975670387428 5.5614350790457365 39.997262804641196 5.5614350790457365 -0.50575305281427063 -0.00024681626570099979 39.997262804641196 -0.00024681626570099979 25.76600091276498 104.83206252476411 28.84067177353748 40.002168747885747 28.84067177353748 10.616228234862376 9.8903223914703631e-05 40.002168747885747 9.8903223914703631e-05 28.862072689906611 105.87144205467487 29.903004162135218 40.002193312081374 29.903004162135218 11.096721924304347 0.00017687081447093078 40.002193312081374 0.00017687081447093078 29.242040994744826 111.66315401685785 27.937067778420165 40.001911566768626 27.937067778420165 20.236271850196033 6.9202461077111366e-06 40.001911566768626 6.9202461077111366e-06 32.97485646676347 109.22640466510398 26.15775566293393 40.001842139876906 26.15775566293393 32.049583138827387 2.3289126573899921e-05 40.001842139876906 2.3289126573899921e-05 35.318996950982843 65.202051701245011 5.7490444166168189 40.001331013626071 5.7490444166168189 0.95642520923729535 -0.00014477144786440022 40.001331013626071 -0.00014477144786440022 16.539619227620591 139.89323339620853 11.282331567205006 40.001332169955646 11.282331567205006 1.7816032666646038 0.00014818995143173197 40.001332169955646 0.00014818995143173197 35.418709165718226 140.15849923063189 18.897124091578455 40.001363874026467 18.897124091578455 7.9347964123120391 0.00029718885471652357 40.001363874026467 0.00029718885471652357 37.023323910735968 96.302491018934234 10.801221348257741 39.989760337958387 10.801221348257741 -3.8197884745925421 9.8917780746887729e-05 39.989760337958387 9.8917780746887729e-05 23.120675636085707 64.681376493369044 6.7661959394799851 39.995558317602331 6.7661959394799851 -2.1343530204462695 5.6003912163760106e-05 39.995558317602331 5.6003912163760106e-05 15.636755868230694 97.072130237054751 17.810558442013999 40.001822150803605 17.810558442013999 27.70431190943232 -1.5398465841087727e-05 40.001822150803605 -1.5398465841087727e-05 31.194110536621768 104.17037635142712 23.897607354502412 40.001955319571408 23.897607354502412 8.2995913002221755 -0.00023418798014063213 40.001955319571408 -0.00023418798014063213 28.117491912912335 96.558722105597553 15.0363689031783 39.996956543650867 15.0363689031783 -4.0901570268340492 0.0022338038660336679 39.996956543650867 0.0022338038660336679 23.117141269690819 98.785400648165805 18.121758830945055 40.00162889670321 18.121758830945055 2.6556396779576232 -0.00054037564549958006 40.00162889670321 -0.00054037564549958006 25.360260081530868 95.146318642869673 23.196044800228719 40.002341759875151 23.196044800228719 3.1631678674454236 0.002288715544281672 40.002341759875151 0.002288715544281672 24.577371627578813 106.80759126879533 28.574181411877561 40.002143522561596 28.574181411877561 9.9028020064087627 -5.6691204349590407e-05 40.002143522561596 -5.6691204349590407e-05 29.177598318801046 116.47375106451634 22.116151468425812 39.997069952637048 22.116151468425812 4.0775933158760154 -0.0021922548397839137 39.997069952637048 -0.0021922548397839137 30.137836095098088 112.02753344353761 4.130588461073728 39.999843376986348 4.130588461073728 0.27886355150485542 0.0010014196821543919 39.999843376986348 0.0010014196821543919 28.076599248760658 93.081803247938268 5.1077099602156153 39.999756750584226 5.1077099602156153 0.63516126989463828 -0.00094455897453826765 39.999756750584226 -0.00094455897453826765 23.429241129458205 111.35418449717451 30.595689231655172 39.996619321552714 30.595689231655172 14.001434100343431 -0.00026465971473044192 39.996619321552714 -0.00026465971473044192 31.338904649379629 119.63517891086155 35.277275208790229 39.99634634003155 35.277275208790229 30.651986539788595 -0.00099021561482004472 39.99634634003155 -0.00099021561482004472 37.571791362662339 133.65669048501712 20.859695671159898 40.001404058428449 20.859695671159898 8.0771623519642617 0.00045224088559336906 40.001404058428449 0.00045224088559336906 35.43346320924536 127.77691472927033 22.474736665661794 40.001534440274042 22.474736665661794 6.5298689336919153 0.0003362799723305443 40.001534440274042 0.0003362799723305443 33.576695915740501 119.62919995268101 31.207555751126137 40.002189547430504 31.207555751126137 7.3495457465730851 0.00035092919853241256 40.002189547430504 0.00035092919853241256 31.744686424813494 131.01338715498338 8.3379192477027573 40.001072626962099 8.3379192477027573 3.0562072246016214 0.00042539453062317989 40.001072626962099 0.00042539453062317989 33.517398594896235 85.854669658807126 11.309445321117934 40.001363074168268 11.309445321117934 0.012094426710973494 -0.00032246934659951876 40.001363074168268 -0.00032246934659951876 21.466691021379525 99.046783522268441 27.690017414756539 39.99720003660434 27.690017414756539 32.996286770886442 3.2767875349696626e-07 39.99720003660434 3.2767875349696626e-07 33.01076757328881 125.06226692612273 26.166125870257503 39.995885763236856 26.166125870257503 5.5551688451550945 -0.0020526935549014524 39.995885763236856 -0.0020526935549014524 32.654358942819499 108.72688009587168 26.319801047361384 40.001834222212672 26.319801047361384 36.242059390583364 4.2192873558152933e-09 40.001834222212672 4.2192873558152933e-09 36.242234871613761 139.00521917016138 12.920885675881436 39.990484464647807 12.920885675881436 4.7658338895631687 -0.0032297222507509105 39.990484464647807 -0.0032297222507509105 35.942763264931187 103.08987277163064 38.802559370323763 40.003114622624196 38.802559370323763 14.311935458577594 0.00033355802923296096 40.003114622624196 0.00033355802923296096 29.350452057552022 96.05890317827604 11.039000406187313 39.999699116400848 11.039000406187313 2.8234548322995465 -0.0013457232631353122 39.999699116400848 -0.0013457232631353122 24.72058950264389 100.38949748969014 31.963494256912753 40.002628672254559 31.963494256912753 14.012299495632305 0.0013070028780930443 40.002628672254559 0.0013070028780930443 28.600449246330641 98.42735221854025 33.08441239316204 40.003142885757697 33.08441239316204 11.598810340824684 0.00044604360527955578 40.003142885757697 0.00044604360527955578 27.506540639841205 123.57183086421765 21.986350660910603 40.001657524296775 21.986350660910603 7.3736311612689178 0.00063902465873866277 40.001657524296775 0.00063902465873866277 32.736365506371612 120.7487331578177 30.989059231492149 40.001908082818517 30.989059231492149 16.603591129783183 0.00023839443061035581 40.001908082818517 0.00023839443061035581 34.338081071900177 110.89092170273219 14.592348720605145 39.997079053555524 14.592348720605145 5.5241077032644625 -0.0010516394273736296 39.997079053555524 -0.0010516394273736296 29.103757351499269 125.52748506135177 27.086901082338045 40.002045699721748 27.086901082338045 -0.45255515371718502 -0.0015462377646713321 40.002045699721748 -0.0015462377646713321 31.268732476908696 95.11792843519811 25.315787975521914 40.002339351359751 25.315787975521914 9.5824902677425996 0.0019504170731536874 40.002339351359751 0.0019504170731536874 26.175104675735092 115.63172650321422 35.477902402095424 39.993851962545648 35.477902402095424 1.7859962897919104 -0.0016981537581273187 39.993851962545648 -0.0016981537581273187 29.35443069825152 112.40295091218633 3.9322192496737216 39.999603702494539 3.9322192496737216 -0.66987737751543364 0.00078068118176588541 39.999603702494539 0.00078068118176588541 27.93326838366778 86.68446009510842 6.4049927112961598 39.999582614131384 6.4049927112961598 1.717504669926484 -0.00077188372677028383 39.999582614131384 -0.00077188372677028383 22.100491191258698 153.54288700721685 16.402453238670887 39.995560161061462 16.402453238670887 -2.0797735458812667 0.00014986881586764866 39.995560161061462 0.00014986881586764866 37.865778365333938 108.65056538521628 11.067567779294336 39.99067176291635 11.067567779294336 -1.714521096013641 -0.002033640080924215 39.99067176291635 -0.002033640080924215 26.734011072300632 109.82674787833821 21.613659447862005 39.991323422483731 21.613659447862005 -1.7761473890259367 -0.0029618384040759338 39.991323422483731 -0.0029618384040759338 27.012650122328182 105.22365694812396 30.28518479058711 40.00234976401606 30.28518479058711 8.6607531145203325 -9.0379507440729867e-05 40.00234976401606 -9.0379507440729867e-05 28.471102515661102 86.204530446247645 12.334848337951414 40.001478804704334 12.334848337951414 1.581921887925688 -0.0003251978111364906 40.001478804704334 -0.0003251978111364906 21.946613083543344 122.93082082518049 11.535023965802168 40.000954223810368 11.535023965802168 2.8877460301137035 0.00063898907623638479 40.000954223810368 0.00063898907623638479 31.454641713823662 95.012733532006422 9.9338438481927938 40.000702486809416 9.9338438481927938 1.4856222575154643 -0.00075628823924311916 40.000702486809416 -0.00075628823924311916 24.124588947380495 118.79529378549597 38.123384872459894 40.004346233206377 38.123384872459894 3.1298701224473007 0.0010847736807022557 40.004346233206377 0.0010847736807022557 30.481290976985917 116.72031635204515 16.150471691644157 40.001158397055747 16.150471691644157 4.1771897001040657 0.0007905259130751574 40.001158397055747 0.0007905259130751574 30.224376513037342 105.22598152491662 22.71537023603122 40.001121579187867 22.71537023603122 5.5804435479536778 0.0013447373410713226 40.001121579187867 0.0013447373410713226 27.701606268217574 100.14786606080608 19.724554124434377 40.001833914612256 19.724554124434377 33.383375863978763 -3.9953870038800243e-09 40.001833914612256 -3.9953870038800243e-09 33.382810481196209 101.58313007950773 25.542846621816011 39.990989701598551 25.542846621816011 1.948008903381151 0.0010238708509291428 39.990989701598551 0.0010238708509291428 25.88278474572229 120.56760039743556 1.7413264603838456 40.000689827791859 1.7413264603838456 0.093483672149829999 0.00011284563110791623 40.000689827791859 0.00011284563110791623 30.165271017396421 76.30222059632402 1.6771025177583567 40.000715085213074 1.6771025177583567 0.85686062841926969 -0.00010399596871479844 40.000715085213074 -0.00010399596871479844 19.289770306185886 96.885793484977398 8.7459158245608251 39.997083230349858 8.7459158245608251 -3.7136789802375745 0.0010501077736932984 39.997083230349858 0.0010501077736932984 23.293028626184871 92.370326337757945 17.34014432537262 40.000820697241039 17.34014432537262 -0.70923035141163382 0.0033477615751280609 40.000820697241039 0.0033477615751280609 22.915273996586563 97.493303442832087 20.674413652606546 40.001867413504669 20.674413652606546 2.1880886411222491 0.0054363516875355344 40.001867413504669 0.0054363516875355344 24.92034802098857 115.40909495437836 19.86477390836032 40.001647935823058 19.86477390836032 5.2667225640234392 0.00084708083068107953 40.001647935823058 0.00084708083068107953 30.168954379600279 121.73884689541262 30.380123983709325 39.9939647350011 30.380123983709325 3.4360099208131487 -0.0019771863189816941 39.9939647350011 -0.0019771863189816941 31.293714204056641 95.791188754333803 14.333224652868921 39.996319772147444 14.333224652868921 -1.4679660387061801 0.0012207984484078338 39.996319772147444 0.0012207984484078338 23.580805678906934 121.965412091003 21.38210159468332 40.001443696472506 21.38210159468332 8.0497285927859821 0.00074268024025059276 40.001443696472506 0.00074268024025059276 32.503785170947197 118.09997331308392 32.322465631446562 39.995654016038657 32.322465631446562 4.6972870106308164 -0.0021671655298405312 39.995654016038657 -0.0021671655298405312 30.69931508092867 100.38525511766657 19.441394592508161 40.001824732046714 19.441394592508161 21.494143058788737 -5.3748968390721075e-05 40.001824732046714 -5.3748968390721075e-05 30.469849544113821 113.98499680938986 0.88655133209965697 39.999704738071102 0.88655133209965697 -0.2037164666650142 0.0002047387945083301 39.999704738071102 0.0002047387945083301 28.445320085681175 83.44213511475823 1.2461625954110787 39.999701993492749 1.2461625954110787 0.53545749132473475 -0.00019618057646653142 39.999701993492749 -0.00019618057646653142 20.994398151520727 76.676748561148514 7.3647141651604215 39.995666881566194 7.3647141651604215 1.7502307178596368 5.028086024339018e-05 39.995666881566194 5.028086024339018e-05 19.606744819752038 120.6591740446824 12.315578516655023 39.990426903969023 12.315578516655023 3.1419671926865362 -4.5095092389146885e-06 39.990426903969023 -4.5095092389146885e-06 30.950285309342291 117.92551156972604 11.487692674964592 39.990522425983499 11.487692674964592 -2.4041172369886681 -0.0032238385535379166 39.990522425983499 -0.0032238385535379166 28.880348583184286 61.460446276174025 6.8564835287261916 39.995621743732102 6.8564835287261916 1.5167302738705075 -1.1182454272784526e-05 39.995621743732102 -1.1182454272784526e-05 15.744294137511133 93.927256215159105 10.271519285318789 39.987883594000039 10.271519285318789 2.0334364263339921 0.0021385405626688225 39.987883594000039 0.0021385405626688225 23.99017316037316 85.083769396147659 27.880960310294121 39.994667782639276 27.880960310294121 -5.7884068730750187 0.0036272647014357062 39.994667782639276 0.0036272647014357062 19.823840630768245 131.81675609446512 21.44177737945779 39.991966204684843 21.44177737945779 5.029369222040259 -0.0028642181099485242 39.991966204684843 -0.0028642181099485242 34.211531329126274 16.477417053245972 6.543138694077447 39.997239717748911 6.543138694077447 2.6819667990453127 0.0086606887123252818 39.997239717748911 0.0086606887123252818 4.7898459630732759 195.86595865520269 14.542952750596896 39.997215106078897 14.542952750596896 5.5695156441768177 -0.0086367992738018984 39.997215106078897 -0.0086367992738018984 50.358868574844905 95.070308978962657 6.2380295444953333 40.000474161056616 6.2380295444953333 1.431525872684233 -0.001281187512120141 40.000474161056616 -0.001281187512120141 24.125458712911779 130.08343765569938 26.808435619932268 40.001610821523414 26.808435619932268 11.439378107683069 0.00024323243857793386 40.001610821523414 0.00024323243857793386 35.380703940845649 111.18893266057108 27.830781093771336 40.001933049770201 27.830781093771336 16.464620182374006 -3.6658888902252329e-06 40.001933049770201 -3.6658888902252329e-06 31.913388210736251 118.11684940684705 21.747902323521998 39.99629474724378 21.747902323521998 -0.053643369646124484 -0.0012363163333475313 39.99629474724378 -0.0012363163333475313 29.515801509300275 83.013579896693614 15.353211016710475 39.991710688864941 15.353211016710475 -3.5342586663239217 0.0045827944097140971 39.991710688864941 0.0045827944097140971 19.869830307592338 102.14652139849683 20.9924547916591 40.001842326026008 20.9924547916591 28.68343013029255 -9.4774340979597582e-06 40.001842326026008 -9.4774340979597582e-06 32.707487882197356 116.50182801299607 20.799598827322029 40.001534323098269 20.799598827322029 8.3842279477891282 0.0015660791598861579 40.001534323098269 0.0015660791598861579 31.221513990196314 133.23927051509122 10.005354746928839 39.988536868104163 10.005354746928839 -1.0904934131526716 -0.0053816970751086046 39.988536868104163 -0.0053816970751086046 33.037194275484467 95.70927288767507 15.729710225761334 40.001763801164088 15.729710225761334 9.8583682175761851 -0.00016449727445433382 40.001763801164088 -0.00016449727445433382 26.3919102763128 100.37509305047385 28.287252493882761 39.99322648047621 28.287252493882761 -2.029667398107847 0.0040201333377467563 39.99322648047621 0.0040201333377467563 24.586356413091465 98.874708970774279 29.197422581894955 39.994083408633287 29.197422581894955 -4.4464417796138918 0.0020601608174253272 39.994083408633287 0.0020601608174253272 23.607066797790178 56.635400945000015 20.529081952125352 39.995045912663727 20.529081952125352 5.746207531320124 0.0058259272460645661 39.995045912663727 0.0058259272460645661 15.595402119079949 47.152966385238585 6.9968408894397953 39.995810205196562 6.9968408894397953 -1.1324960428569284 0.0095816626431997065 39.995810205196562 0.0095816626431997065 11.505117585595315 170.64856717811887 10.493049769113668 39.996047316905674 10.493049769113668 -0.27196812861916442 -0.0093807683703062139 39.996047316905674 -0.0093807683703062139 42.594149762374911 161.56807049716755 26.503580774493571 39.995156817277461 26.503580774493571 5.3147944659056066 -0.005735134168801892 39.995156817277461 -0.005735134168801892 41.720716240768375 107.87447970999403 27.14296110425385 40.002002844390248 27.14296110425385 11.200295608164993 0.00010688857327068035 40.002002844390248 0.00010688857327068035 29.768693829539785 82.613479436956766 24.730663553450086 39.99731341424075 24.730663553450086 -8.3135552861023143 0.0078500405830368436 39.99731341424075 0.0078500405830368436 18.574981037713599 83.257192659473816 28.478697579075231 39.997333373068841 28.478697579075231 -6.2369008865967999 0.0037336770592162338 39.997333373068841 0.0037336770592162338 19.255072943219346 83.945031125695067 10.142014023360957 39.995891090708938 10.142014023360957 -2.9527293363071294 0.00060784556839621473 39.995891090708938 0.00060784556839621473 20.248075447347077 126.56793015742258 17.705516621823683 40.001268800168617 17.705516621823683 6.1322978745254204 0.00059273868555465015 40.001268800168617 0.00059273868555465015 33.175057007986993 122.33351032112586 16.872660590513156 40.001445023049179 16.872660590513156 5.404039020145774 0.00072961991162401318 40.001445023049179 0.00072961991162401318 31.934387335317979 247.41165891296021 30.961066622544479 40.005887003960765 30.961066622544479 10.887908917525692 -0.0085163262551759544 40.005887003960765 -0.0085163262551759544 64.574891957621389 78.242592106397865 24.551467762769335 39.992859868261803 24.551467762769335 5.3126816023268475 0.0043873397445395312 39.992859868261803 0.0043873397445395312 20.88881842718115 140.54542325908255 25.075592988963024 39.992969926335263 25.075592988963024 1.3577448631608604 -0.0043569853638700806 39.992969926335263 -0.0043569853638700806 35.475792030561024 111.2243903869704 27.534082518531932 40.001924088847176 27.534082518531932 14.988285124331981 1.9535350062938051e-05 40.001924088847176 1.9535350062938051e-05 31.553168877825598 101.4528100506775 24.966105186451216 39.997180303515847 24.966105186451216 21.522296519483007 4.1821980858003371e-05 39.997180303515847 4.1821980858003371e-05 30.743776642540297 114.42047703698682 29.396512771102124 40.001862361132339 29.396512771102124 22.443517760647524 4.6040434426686261e-05 40.001862361132339 4.6040434426686261e-05 34.215998699408587 118.35971118223074 32.376840297145549 39.996229710645252 32.376840297145549 6.703503202967795 -0.0022811274302512174 39.996229710645252 -0.0022811274302512174 31.265803596299691 102.69991199902506 21.842469106624076 40.001856832307716 21.842469106624076 20.524299278596857 -4.2888915004368755e-05 40.001856832307716 -4.2888915004368755e-05 30.80605281940548 129.29197935378659 28.781817984431257 39.994813259330328 28.781817984431257 3.5372777718266661 -0.0022158676953267786 39.994813259330328 -0.0022158676953267786 33.207314281403455 121.75928858929528 27.46088405065052 39.993760481982235 27.46088405065052 -0.34323452322379921 0.00017689756009531266 39.993760481982235 0.00017689756009531266 30.354013516517895 82.79735456467678 18.070979920922582 39.994969391788914 18.070979920922582 -1.2262220264532004 1.0057688044184943e-05 39.994969391788914 1.0057688044184943e-05 20.392783134555557 -41.922858584036589 30.970122010225339 40.006295271632951 30.970122010225339 -5.142067449009005 0.0081568503051698826 40.006295271632951 0.0081568503051698826 -11.766231508261427 103.05152325608954 21.836751310274433 40.001850993893513 21.836751310274433 24.725230910316611 -1.7862824364556218e-05 40.001850993893513 -1.7862824364556218e-05 31.944188541601562 77.579038301437379 6.4347762186158661 39.995675060639087 6.4347762186158661 -2.511889696546632 0.00024663961727355854 39.995675060639087 0.00024663961727355854 18.766787151222729 10.151753149193041 -2.3367264497190945 39.996343646440891 -2.3367264497190945 5.6059810421954808 -5.0793883815458685e-05 39.996343646440891 -5.0793883815458685e-05 3.9394335478471021 16.686710159401969 -3.0370804013372208 40.012055555555435 -3.0370804013372208 8.3491393453055025 0.005085812444349358 40.012055555555435 0.005085812444349358 6.2589623761768962 45.613678993263719 4.2072361556849955 40.006081782673391 4.2072361556849955 15.181497928910389 1.3595723499665568e-05 40.006081782673391 1.3595723499665568e-05 15.198794230543697 151.57952940226232 29.679582911772172 40.006092321002939 29.679582911772172 50.427293236498372 -1.3594347251455474e-05 40.006092321002939 -1.3594347251455474e-05 50.50170565969006 281.25296901892398 44.44924743590316 39.996364780660727 44.44924743590316 37.458327636636568 5.3834717164136237e-05 39.996364780660727 5.3834717164136237e-05 79.677824163890136 30.188334577624047 2.5835689158996047 39.996401987229774 2.5835689158996047 10.047716206092687 -1.2578316963392723e-06 39.996401987229774 -1.2578316963392723e-06 10.05901269592907 195.58160633869147 30.345035184638007 40.012062145362464 30.345035184638007 25.993344407573204 -0.0050824584525344108 40.012062145362464 -0.0050824584525344108 55.393737686566055 217.72114185542603 43.590989621780068 39.996426682650963 43.590989621780068 72.431330776745654 1.2749171673931414e-06 39.996426682650963 1.2749171673931414e-06 72.538118158043062 99.776906793890618 20.344990497956616 40.001840740839583 20.344990497956616 27.577298708646829 -9.8956869436506167e-06 40.001840740839583 -9.8956869436506167e-06 31.838551375634356 115.65394189130475 35.460534313078938 39.994540882363026 35.460534313078938 1.6067910947124915 -0.00083517046481063062 39.994540882363026 -0.00083517046481063062 29.315183246504176 120.39939691087116 18.02840928698032 40.001394059681132 18.02840928698032 7.2205933393933037 0.0011176587744330391 40.001394059681132 0.0011176587744330391 31.904997562566109 88.196490178088197 15.082018933083077 39.995659310292353 15.082018933083077 -3.9357406975861977 0.0012015927078437016 39.995659310292353 0.0012015927078437016 21.0651873701255 99.791363005757972 19.453171126731021 40.001817109918875 19.453171126731021 13.99875514421845 -0.00013775874926125198 40.001817109918875 -0.00013775874926125198 28.447529537494095 147.99246658030347 28.12723446533596 39.995411575928188 28.12723446533596 1.9621963096783475 0.00091684455605900439 39.995411575928188 0.00091684455605900439 37.488665722495625 102.72521257517718 18.617155719482298 39.994413769920925 18.617155719482298 1.1859726816708189 -0.0011854442695948819 39.994413769920925 -0.0011854442695948819 25.977796314212242 61.092713661578273 9.0751724570355918 39.988536779381661 9.0751724570355918 1.8921939968799961 0.0043288526537708094 39.988536779381661 0.0043288526537708094 15.746226914614454 144.34339359297411 7.5383958546026406 39.98870849437742 7.5383958546026406 1.3665947720230633 -0.0043375510963414854 39.98870849437742 -0.0043375510963414854 36.427497091249222 62.076034318574955 10.546642792740158 39.990733484737746 10.546642792740158 -0.80174221782840505 0.0073130181823444218 39.990733484737746 0.0073130181823444218 15.318573025186652 109.77433741628124 16.574765359558285 40.001298565009051 16.574765359558285 3.3645343376020946 0.0011071028056903742 40.001298565009051 0.0011071028056903742 28.284717938470806 103.4520474184103 9.1605526061338711 39.987213073883872 9.1605526061338711 -0.046549514144317072 -0.0011332311167961961 39.987213073883872 -0.0011332311167961961 25.851374476066553 106.42899218355853 7.2640342675901479 39.987356509421829 7.2640342675901479 -1.1344019227117315 0.0015723908828135791 39.987356509421829 0.0015723908828135791 26.323647565211843 90.922068365089444 18.723161090800318 39.995623382759959 18.723161090800318 -4.892919597141713 0.002816786968537599 39.995623382759959 0.002816786968537599 21.507287191986961 108.64106881794133 26.145469406132335 40.00190370470844 26.145469406132335 15.997673116553358 -1.273204190965771e-06 40.00190370470844 -1.273204190965771e-06 31.159685483623676 97.367863429469708 16.98546050662685 39.993647542138888 16.98546050662685 -0.46942912900908595 -0.0016062277486526 39.993647542138888 -0.0016062277486526 24.224608575115326 139.71511623002709 25.265261335746686 39.994998981513845 25.265261335746686 -0.72196556334529305 0.00023520870445281616 39.994998981513845 0.00023520870445281616 34.748287666670308 107.56923224748743 22.358966524423238 39.991419295087155 22.358966524423238 0.9523024709103538 0.0033235430448712577 39.991419295087155 0.0033235430448712577 27.130383679599504 90.417212726734931 21.364445219099025 39.992890879990114 21.364445219099025 -4.7672625394125134 0.0033247837703811456 39.992890879990114 0.0033247837703811456 21.412487546830675 123.37126586983302 31.868483156969418 40.001802936332155 31.868483156969418 17.985616260316931 0.00020696304520129161 40.001802936332155 0.00020696304520129161 35.339220532537496 105.07158112886897 19.501223806829444 40.00137242565819 19.501223806829444 4.2614684861251249 0.0034715009460342117 40.00137242565819 0.0034715009460342117 27.33326240374852 72.353411986493938 16.465308472525237 39.997650785444364 16.465308472525237 -8.0221214895989306 0.0087853369990682495 39.997650785444364 0.0087853369990682495 16.082822624223809 113.02018332864691 36.971303059811703 39.99433195499887 36.971303059811703 0.078740355964882269 -0.00047617182300285776 39.99433195499887 -0.00047617182300285776 28.274730921153029 32.052190499388928 13.434171911358078 39.994713691632398 13.434171911358078 -2.0921165750653472 0.0098731919006240787 39.994713691632398 0.0098731919006240787 7.490018481080881 123.02496641244647 17.365372834648156 39.991425708120232 17.365372834648156 -0.060766483246197822 -0.0012261359618150891 39.991425708120232 -0.0012261359618150891 30.741049982299899 122.35391734624773 27.240223712208035 39.991412372369268 27.240223712208035 -0.46685007968949321 -0.00057067967907187267 39.991412372369268 -0.00057067967907187267 30.471766816639729 137.04153811509389 25.362153787305203 40.001552157318201 25.362153787305203 9.6763881498873729 0.00016666962098099702 40.001552157318201 0.00016666962098099702 36.679481566245315 125.15904215525299 27.167357346543312 40.002281708615129 27.167357346543312 4.6559887055963145 -0.00049166318120796859 40.002281708615129 -0.00049166318120796859 32.453757715212475 120.01925190735062 24.968899098909546 40.001865209222416 24.968899098909546 2.3483177763484946 -0.0010043239184938102 40.001865209222416 -0.0010043239184938102 30.591892420924864 96.144593948747257 34.542658599300893 40.003973583408424 34.542658599300893 18.250264840525801 0.0029602613502106578 40.003973583408424 0.0029602613502106578 28.598714697318286 83.525752815710746 28.083417179771004 40.001968294603444 28.083417179771004 17.959803191579908 0.0033586121056146112 40.001968294603444 0.0033586121056146112 25.371389001822763 113.43854566222194 10.386896427789061 39.987855891580985 10.386896427789061 -0.1082576925284684 -0.0015840118984442597 39.987855891580985 -0.0015840118984442597 28.332571992423254 101.8701173426856 27.907690254732884 40.002095129375888 27.907690254732884 10.566524756004583 0.00031254533899982562 40.002095129375888 0.00031254533899982562 28.109160524672518 74.702906800856908 6.4344201881665422 39.995780435487184 6.4344201881665422 -0.012302723480388522 0.00014490634748653974 39.995780435487184 0.00014490634748653974 18.67265101934413 122.89900716131513 30.988187017238232 40.001807445223449 30.988187017238232 18.805629419096817 0.00022283782463716761 40.001807445223449 0.00022283782463716761 35.426159145102986 81.907933975476539 8.4759798635162262 40.001579261949736 8.4759798635162262 9.3951889277444991 -0.00010883912557346775 40.001579261949736 -0.00010883912557346775 22.825780725805259 140.60769448122309 33.906014298761235 40.001573615847924 33.906014298761235 23.610708452764072 0.00010867614669507475 40.001573615847924 0.00010867614669507475 41.054600733496756 104.80625770128219 24.815952469691837 40.001966908024343 24.815952469691837 9.2446168291767492 -0.000157274195103696 40.001966908024343 -0.000157274195103696 28.5127186326147 228.0847449539917 34.565577747026765 40.001533432159242 34.565577747026765 11.656752646788826 1.1610982456833341e-05 40.001533432159242 1.1610982456833341e-05 59.935374400195151 183.2945113284712 41.703037232206633 40.001538989846956 41.703037232206633 53.157234196384877 5.1819099198269214e-06 40.001538989846956 5.1819099198269214e-06 59.11293638121402 57.905566590214008 -8.3987741012247241 40.001534595416622 -8.3987741012247241 3.5563616142448709 -1.151836239188242e-05 40.001534595416622 -1.151836239188242e-05 15.365482051114714 58.510959239972735 -6.9268806606107178 40.001539387319269 -6.9268806606107178 10.654772805289422 -5.9751416472408891e-06 40.001539387319269 -5.9751416472408891e-06 17.291433011315547 98.008541649975257 12.724062582365036 39.999727230841472 12.724062582365036 -2.5278851283815698 0.002687530207481359 39.999727230841472 0.002687530207481359 23.870164130398337 104.41145665455642 22.405451252667838 40.001858230387342 22.405451252667838 25.458502813578725 -1.6268578789890853e-05 40.001858230387342 -1.6268578789890853e-05 32.467489867033784 144.6763176220324 20.185782711394609 39.991812625690045 20.185782711394609 4.0418379983840396 -0.005018960975007758 39.991812625690045 -0.005018960975007758 37.179538905104152 128.10385747210097 22.596983714433293 40.001725357440876 22.596983714433293 4.343085744109203 -0.0023064065836706504 40.001725357440876 -0.0023064065836706504 33.1117358040525 103.8789754460249 29.825620698040893 40.00216525367324 29.825620698040893 13.119729956137462 0.00059388003778337861 40.00216525367324 0.00059388003778337861 29.249676350540561 92.280453226050554 15.221284551474852 39.999139954388184 15.221284551474852 -6.4645430438367839 0.0038378568860935047 39.999139954388184 0.0038378568860935047 21.453977545553357 167.0375606742879 32.763661746683511 39.996645374531454 32.763661746683511 55.723644110263614 -1.0426133237698375e-06 39.996645374531454 -1.0426133237698375e-06 55.690301196137767 116.25331710465289 22.031019595510315 40.000905246226921 22.031019595510315 38.782036461991957 9.2403936581872895e-07 40.000905246226921 9.2403936581872895e-07 38.758838391661499 79.890147356674134 10.819577526150624 40.000904182793874 10.819577526150624 26.625058753295402 -9.4245180913235024e-07 40.000904182793874 -9.4245180913235024e-07 26.628801527492698 54.092984366605918 6.9710212417342063 39.996632008756478 6.9710212417342063 18.027288903831082 1.0480576727414869e-06 39.996632008756478 1.0480576727414869e-06 18.030068317609533 84.718268101643801 24.805635719496877 39.995535617430733 24.805635719496877 0.49161929573693897 0.0026455402783938098 39.995535617430733 0.0026455402783938098 21.302471849345309 137.40454979491665 31.743008761024157 39.995717062316203 31.743008761024157 8.6726996229895121 -0.0025042650815976231 39.995717062316203 -0.0025042650815976231 36.519312354476483 218.28649806081668 55.409304532830298 40.001533864726397 55.409304532830298 72.624034259866278 -3.4052167613429773e-09 40.001533864726397 -3.4052167613429773e-09 72.727633080170733 55.133011455866281 -7.942961459526896 40.001533466986373 -7.942961459526896 18.355476088801996 1.4725560111374616e-08 40.001533466986373 1.4725560111374616e-08 18.372121886167065 54.627656619296459 -9.6317110605470759 40.00152835511004 -9.6317110605470759 11.490579543973674 -5.3541392475153771e-06 40.00152835511004 -5.3541392475153771e-06 16.529559040817531 267.80891186125041 50.264962211589911 40.001527956382532 50.264962211589911 35.124226782047998 6.2019677855573718e-06 40.001527956382532 6.2019677855573718e-06 75.73328466082458 90.629373096244962 18.735368057661276 39.994323392918773 18.735368057661276 -3.6247579810640218 0.0039131616390761792 39.994323392918773 0.0039131616390761792 21.751153778795214 122.21219285529429 28.673147294819273 40.001912030025409 28.673147294819273 10.382882824285957 0.00053026400507860671 40.001912030025409 0.00053026400507860671 33.148768919895019 115.22175497209082 34.765076000862024 39.995296927875813 34.765076000862024 1.6282711365440719 -0.0010423401731713966 39.995296927875813 -0.0010423401731713966 29.212506527158666 113.68842133465137 34.019157059038918 39.995649573920275 34.019157059038918 0.75191640713819652 -0.00055180605806981475 39.995649573920275 -0.00055180605806981475 28.610084435447448 120.43958976903411 31.133292000545254 40.001896360759375 31.133292000545254 14.91836563709694 0.00019880569618635491 40.001896360759375 0.00019880569618635491 33.839488851532792 113.08789236706855 28.666731190623381 40.001897213015724 28.666731190623381 20.527669919589471 2.7907483328704075e-05 40.001897213015724 2.7907483328704075e-05 33.403890571664512 113.32040987810583 28.774500169384012 40.001896822695116 28.774500169384012 21.233108104148101 7.1418362097119825e-05 40.001896822695116 7.1418362097119825e-05 33.638379495563491 66.806037891882482 19.007733784890434 40.00361503674344 19.007733784890434 -1.7977053115325816 0.0050584580855002059 40.00361503674344 0.0050584580855002059 16.252083145087482 60.121024160363504 52.818738771115591 40.003486080175492 52.818738771115591 17.234097013290352 0.0059802975557090576 40.003486080175492 0.0059802975557090576 19.338780293413436 104.96389524901653 10.215371764951442 39.999679516183619 10.215371764951442 -2.8347246407736293 0.0027469990656356913 39.999679516183619 0.0027469990656356913 25.532292652060704 110.24162209879603 17.290278699589152 39.991367637409425 17.290278699589152 0.82889684518409013 0.0012786916072400345 39.991367637409425 0.0012786916072400345 27.767629735995001 107.79161807066646 20.132760696784999 39.991159931980178 20.132760696784999 1.6337533895405159 -0.00091029257060881719 39.991159931980178 -0.00091029257060881719 27.356342865051829 113.77163076510637 28.568419780826211 40.001951650390538 28.568419780826211 14.468964512567027 9.4798748762059404e-06 40.001951650390538 9.4798748762059404e-06 32.060148819418345 93.332824537437432 17.238633035400881 39.990799041151149 17.238633035400881 0.050628753410137506 0.0022071640466378994 39.990799041151149 0.0022071640466378994 23.345863322711807 62.182841959073528 11.526422242534181 39.995611739390711 11.526422242534181 -0.098202673900232185 -0.00014152408169820774 39.995611739390711 -0.00014152408169820774 15.521159821293395 113.26559094479649 35.694817495191842 40.010310092028362 35.694817495191842 1.5830105161444408 0.00082088513522649009 40.010310092028362 0.00082088513522649009 28.712150365235232 87.416751399015453 21.620017521254852 39.99442913874384 21.620017521254852 -3.1595159903304193 0.0063357683829963207 39.99442913874384 0.0063357683829963207 21.064308852171251 148.4781487968371 17.14953745366131 39.995332774617395 17.14953745366131 1.8957889556056671 -3.1676630442234455e-05 39.995332774617395 -3.1676630442234455e-05 37.593484438110636 103.91785186929746 11.465801149275308 39.992143509318907 11.465801149275308 1.1897030645886844 -0.00085859704483937094 39.992143509318907 -0.00085859704483937094 26.276888733471537 88.371981903976916 14.098053233968677 39.992821330804958 14.098053233968677 -2.1102068465502271 0.0037160892096608222 39.992821330804958 0.0037160892096608222 21.565443764356587 101.15446732338762 33.780134096163863 39.994260790991746 33.780134096163863 -0.40508984716689156 0.00077831262387917377 39.994260790991746 0.00077831262387917377 25.18734436905504 135.21171270100643 17.550854374154596 39.992298692970735 17.550854374154596 -1.114998952821793 -0.0036782772409083009 39.992298692970735 -0.0036782772409083009 33.524178437046146 100.38077402620507 21.647491494382194 40.001881603005614 21.647491494382194 3.557332147690488 -0.0003726009279318987 40.001881603005614 -0.0003726009279318987 25.984526543473891 117.79636292767034 38.724614630876431 39.99544995068527 38.724614630876431 20.472360641343016 -0.0005078938393126009 39.99544995068527 -0.0005078938393126009 34.567180892253447 125.44693870605177 32.124154458090743 40.001730192863107 32.124154458090743 20.265934119730076 0.00020419494442336372 40.001730192863107 0.00020419494442336372 36.428218206445464 122.58370517606994 31.384488608745556 40.001777116689169 31.384488608745556 22.257755602716486 0.00017246728423003788 40.001777116689169 0.00017246728423003788 36.210365194696649 120.07531298728004 27.920819395228818 40.001985123609643 27.920819395228818 7.0551372156559466 -0.00019202209423951899 40.001985123609643 -0.00019202209423951899 31.782612550734044 98.703286754084957 13.682599126274681 40.000361187899614 13.682599126274681 -5.7394363771147709 0.0041437976668703413 40.000361187899614 0.0041437976668703413 23.240962594242433 119.50980320327545 31.256671713786247 40.00192108095284 31.256671713786247 19.588899464396832 0.00016214716580975619 40.00192108095284 0.00016214716580975619 34.774675666918114 117.62238380611279 30.291985649143072 40.001908943407628 30.291985649143072 15.159561314647249 0.00013314933801211737 40.001908943407628 0.00013314933801211737 33.195486280190039 119.41453872323423 30.331787171837448 40.001970269296351 30.331787171837448 13.601188955260625 0.00023833396188877032 40.001970269296351 0.00023833396188877032 33.253931919623724 83.03661474782507 26.488673924644559 39.997010293177027 26.488673924644559 17.270648711283002 0.0011970753155310376 39.997010293177027 0.0011970753155310376 25.076815864777245 72.874918259562605 18.690602711162228 39.99767554195472 18.690602711162228 0.57241061011291094 0.0036938890730198182 39.99767554195472 0.0036938890730198182 18.361832217418964 146.32418124617692 32.921559212819716 39.997806183627176 32.921559212819716 18.353283423828884 -0.0035604776921474013 39.997806183627176 -0.0035604776921474013 41.169366167501337 142.37382783942735 40.905097017421781 39.997170184692663 40.905097017421781 26.170866895425888 -0.0012512111092632949 39.997170184692663 -0.0012512111092632949 42.136173683713423 81.003569308672695 27.331789365759299 40.000424274876423 27.331789365759299 -15.116648851194441 0.0068286712490817081 40.000424274876423 0.0068286712490817081 16.47173011436962 80.025720735674327 9.7884802879807467 40.000601875029588 9.7884802879807467 12.767381470550845 0.0029838822656529373 40.000601875029588 0.0029838822656529373 23.198275551556094 54.141389804937035 6.1996705881911112 39.996573680088545 6.1996705881911112 8.8388988786773552 -0.00042770497964284004 39.996573680088545 -0.00042770497964284004 15.745072170903882 120.89736741596636 21.35244801211752 40.000605792070246 21.35244801211752 17.928837158876149 -0.0030019787144510701 40.000605792070246 -0.0030019787144510701 34.706551143710669 173.71252710913444 31.927930830763671 39.996588882994729 31.927930830763671 25.932023347529253 0.00040994822251150254 39.996588882994729 0.00040994822251150254 49.911137614165625 146.75462133702649 23.880360069846624 39.995330888870427 23.880360069846624 0.84774555051262723 -7.0957805746729719e-06 39.995330888870427 -7.0957805746729719e-06 36.900591721884894 102.73723385860978 16.12234181516758 39.992116503895602 16.12234181516758 -0.37528099275914428 -0.0003522648264606687 39.992116503895602 -0.0003522648264606687 25.590488216462518 88.497684940641193 18.360481048948031 39.992758688586491 18.360481048948031 -3.5823464643797251 0.0025527065594133092 39.992758688586491 0.0025527065594133092 21.22883461906531 119.5904610301275 28.059312149937853 40.002130168833673 28.059312149937853 2.5391171489339399 -0.00046653870789725715 40.002130168833673 -0.00046653870789725715 30.532394544765374 93.565698569295591 10.666246638619441 39.999054641023633 10.666246638619441 12.130312002371284 0.0018962325382290146 39.999054641023633 0.0018962325382290146 26.424002642916776 63.815750998776593 6.7473244806575963 39.996856307967278 6.7473244806575963 8.2052637492715803 -0.000229027769591994 39.996856307967278 -0.000229027769591994 18.0052536870121 148.88871712008552 25.465847065272555 39.996860451728253 25.465847065272555 45.071851816361232 0.00021957369574465702 39.996860451728253 0.00021957369574465702 48.490142234111772 103.33166986811466 16.858465868063149 39.999044649902316 16.858465868063149 31.296558386192828 -0.0019075902043823589 39.999044649902316 -0.0019075902043823589 33.657057063576758 108.52686038577508 38.077909248585797 39.994153369246021 38.077909248585797 6.8626081622605852 0.00058874654882856703 39.994153369246021 0.00058874654882856703 28.847367137008632 62.462583574308709 23.649672796589584 39.996261067760656 23.649672796589584 7.3707665673216525 0.011457106622785318 39.996261067760656 0.011457106622785318 17.458337535407608 41.02338451243719 12.882429447858613 39.998734274637854 12.882429447858613 5.4089600027468805 0.010090186616679375 39.998734274637854 0.010090186616679375 11.60808612879606 178.71024427035081 21.558257267662725 39.998814367292539 21.558257267662725 -6.2123666900229182 -0.010093921379279891 39.998814367292539 -0.010093921379279891 43.12446939508186 110.29373049907288 26.960450519934035 40.001882207575733 26.960450519934035 23.485278182069692 3.6574234428599084e-05 40.001882207575733 3.6574234428599084e-05 33.444752170285668 135.91870715209654 18.199888210040797 39.995721621987769 18.199888210040797 2.7287071453356475 -0.00059186090754792531 39.995721621987769 -0.00059186090754792531 34.66185357435802 124.27134892357731 17.254177048764177 39.995907843966272 17.254177048764177 -1.1243964102527571 -0.00054447023160264507 39.995907843966272 -0.00054447023160264507 30.786738128331081 108.26460280060526 37.182664823616733 39.993769343317808 37.182664823616733 -0.20934676680407449 0.00013054485476970967 39.993769343317808 0.00013054485476970967 27.013814008450325 119.74554390279368 31.608001635798701 40.002081449259151 31.608001635798701 11.009702199244089 8.5833828592285499e-05 40.002081449259151 8.5833828592285499e-05 32.688811525509465 116.28900890131149 31.19490716709663 39.996746587523603 31.19490716709663 2.8105039618376395 -0.0011689689515819168 39.996746587523603 -0.0011689689515819168 29.774878215787226 113.37227429635678 32.63154997359743 39.996402819901391 32.63154997359743 2.3429130641905545 -0.00065030168816093692 39.996402819901391 -0.00065030168816093692 28.928796840136876 134.17247967417211 24.366585233028601 39.995014663106446 24.366585233028601 -1.6369716629496907 -0.00011150098009693465 39.995014663106446 -0.00011150098009693465 33.133877002805662 93.962262274588625 17.001668457762946 39.993047773443379 17.001668457762946 -2.1514826268730758 -0.00011212133847493533 39.993047773443379 -0.00011212133847493533 22.952694911928802 94.256593436859248 16.965267430154881 39.993195090991776 16.965267430154881 -1.101471482484385 0.002461742089622021 39.993195090991776 0.002461742089622021 23.288780488593716 159.80851222371444 36.357463703952376 40.001522313088643 36.357463703952376 23.297291493964622 9.3858747760577899e-05 40.001522313088643 9.3858747760577899e-05 45.776450929419781 70.681233857817958 3.6609445138017502 40.001525378647656 3.6609445138017502 7.0212110251103965 -9.5574847151169706e-05 40.001525378647656 -9.5574847151169706e-05 19.425611220732076 72.774579640089939 4.9139847580598151 40.001514366507337 4.9139847580598151 0.72727887139171798 -0.00010676600128078917 40.001514366507337 -0.00010676600128078917 18.375464627870418 150.77592042056347 22.70564146315823 40.001511714841627 22.70564146315823 8.1798878064423661 0.00010612411732324745 40.001511714841627 0.00010612411732324745 39.738952056751451 119.36070600026932 29.255527195775585 40.002115607656208 29.255527195775585 7.3005516609682672 -2.2476907645341271e-05 40.002115607656208 -2.2476907645341271e-05 31.66531441530924 138.6746679532838 18.847845330367647 39.995566365024956 18.847845330367647 -1.8629919564459669 -0.00011987744028374436 39.995566365024956 -0.00011987744028374436 34.202918999209487 98.045051817744593 13.246230477359973 39.990653659494342 13.246230477359973 -1.8959624849308057 -0.00025560661356394121 39.990653659494342 -0.00025560661356394121 24.037272333203532 95.351211116047807 13.955329790578077 39.990857358097287 13.955329790578077 -1.1293610194093162 0.0028871984754914592 39.990857358097287 0.0028871984754914592 23.555462524159566 92.202863771104589 17.283827389408771 39.995988691606158 17.283827389408771 -6.0665574321066629 0.0023236415162415369 39.995988691606158 0.0023236415162415369 21.5340765847494 107.45293312235333 37.81599661588757 39.993485372634495 37.81599661588757 3.1816080551067785 0.00066303399742650981 39.993485372634495 0.00066303399742650981 27.658635294365013 103.07843661848283 21.068170708006896 40.001929132167703 21.068170708006896 0.91761998991893279 -0.00052739491042075315 40.001929132167703 -0.00052739491042075315 25.999014152100415 119.60847803501463 31.357334236517445 40.002539568325588 31.357334236517445 7.4141131081914864 0.00041242309583822134 40.002539568325588 0.00041242309583822134 31.755647785801386 140.02527353356371 29.605142132455512 40.001558961448239 29.605142132455512 15.4924877340232 0.00023731462150067273 40.001558961448239 0.00023731462150067273 38.879440316896734 118.02998295719335 21.218765105736054 39.996864265772047 21.218765105736054 6.8275691444328004 -0.001785614459407725 39.996864265772047 -0.001785614459407725 31.214388025406507 94.445021762608121 13.178498596559166 39.996810917268078 13.178498596559166 -5.3761463036325949 0.0018234683528817186 39.996810917268078 0.0018234683528817186 22.267218864743995 119.82521645275335 28.384753723992389 39.992852793697239 28.384753723992389 0.69022049395964302 0.0015882580328181461 39.992852793697239 0.0015882580328181461 30.128859236678075 81.294444980627588 18.952221663574392 39.995151483453697 18.952221663574392 -0.0034266529199271645 -0.00030798440802115579 39.995151483453697 -0.00030798440802115579 20.322754581926858 128.7889430269687 28.789514529277255 39.993487797721684 28.789514529277255 4.278745024163527 -0.00365699163694444 39.993487797721684 -0.00365699163694444 33.266922012783141 127.00892355628804 22.929450782020865 40.001488545605241 22.929450782020865 8.4585083443446649 0.00049687161755684883 40.001488545605241 0.00049687161755684883 33.866857975158212 119.63758485034907 31.037038492196899 40.002060105425642 31.037038492196899 9.912122398982774 0.00022528811485500455 40.002060105425642 0.00022528811485500455 32.387426812332933 92.088765518040987 17.810381194740671 39.995695097896942 17.810381194740671 -1.6629459378270894 0.0012795439495221217 39.995695097896942 0.0012795439495221217 22.606454895053503 41.378489265004688 10.327810539920961 39.999875185143651 10.327810539920961 -1.1246755133392696 0.006153439493587598 39.999875185143651 0.006153439493587598 10.063453437916493 189.61050640729184 29.141012635003676 39.999863970796127 29.141012635003676 13.919108841153502 -0.0061199281312838139 39.999863970796127 -0.0061199281312838139 50.882403812111193 119.39882287796129 31.298079898635478 40.001994494566702 31.298079898635478 16.157646568305751 0.00014736474312826431 40.001994494566702 0.00014736474312826431 33.889117361566782 191.79818262615777 28.736041678456104 39.996508012432059 28.736041678456104 45.278242609176232 0.00013985711836994597 39.996508012432059 0.00013985711836994597 59.26910630883367 184.55862720505399 38.228306975490113 39.996416189572642 38.228306975490113 44.530518014501922 0.00013392155142355477 39.996416189572642 0.00013392155142355477 57.272286304888894 128.75488396752019 25.899367858654841 40.000245327770358 25.899367858654841 30.902267871213553 -0.0035781312946028265 40.000245327770358 -0.0035781312946028265 39.914287959683406 133.44568477631958 19.28723427961495 40.004148470366204 19.28723427961495 31.307049378731335 -0.0033258263061952675 40.004148470366204 -0.0033258263061952675 41.188183538762701 54.259457735886713 -0.62361199124131872 40.004141499708794 -0.62361199124131872 6.792595529836035 0.0033197485339542254 40.004141499708794 0.0033197485339542254 15.263013316430943 36.36136390558238 -0.86965093823607731 39.996487578665324 -0.86965093823607731 4.6265618098964296 -0.00014710169580212096 39.996487578665324 -0.00014710169580212096 10.246981428869617 74.536848597821745 12.70460023732096 40.000233703143408 12.70460023732096 11.175619472113794 0.0035723543620633791 40.000233703143408 0.0035723543620633791 21.428117017483828 50.047273577110218 8.378630874605733 39.996394353093365 8.378630874605733 7.5412103151234078 -0.00014107545496244711 39.996394353093365 -0.00014107545496244711 14.397120973058236 113.11543705193719 39.660557822659598 39.993741995214009 39.660557822659598 3.4484442692360062 9.1568041284517676e-05 39.993741995214009 9.1568041284517676e-05 29.140970330293044 104.60812093581796 26.448402181330273 39.992379773255735 26.448402181330273 -1.8515597137015902 -0.00010745522160959808 39.992379773255735 -0.00010745522160959808 25.689140305528895 103.77088582108729 26.425190731596558 39.991167542471345 26.425190731596558 -1.7494558737448642 -0.00095348767058567319 39.991167542471345 -0.00095348767058567319 25.505357486835578 101.2499725520936 33.587336764246629 39.995083489440503 33.587336764246629 3.7233539383453547 0.00064601003980158112 39.995083489440503 0.00064601003980158112 26.243331622609738 100.95691414235796 34.100181855853407 39.994869158203301 34.100181855853407 3.7686808540183847 0.0016190790745440609 39.994869158203301 0.0016190790745440609 26.181398749094001 91.642378311825155 31.761136701324006 40.002481611576059 31.761136701324006 11.189759259116471 0.0013187707250352787 40.002481611576059 0.0013187707250352787 25.708034392735378 103.33988243359006 19.496605707888307 40.00163890239574 19.496605707888307 0.82603436860347301 -0.00085940950808094385 40.00163890239574 -0.00085940950808094385 26.04147920054838 102.2616883181382 15.713399651962959 40.001637842804456 15.713399651962959 -1.7315717198331981 -0.0009065487534201111 40.001637842804456 -0.0009065487534201111 25.132529149576243 123.13992950446215 26.344020925791554 40.001668262125222 26.344020925791554 9.8045173455310533 0.0005362493907341559 40.001668262125222 0.0005362493907341559 33.236111712498371 108.88614306276281 16.087216543761826 39.997799260782244 16.087216543761826 1.7349261597669283 -0.0016322108506301447 39.997799260782244 -0.0016322108506301447 27.655267305632435 115.58602605647985 21.724210071130074 39.9975483237871 21.724210071130074 12.991611169040084 -0.0027374994808155861 39.9975483237871 -0.0027374994808155861 32.144409306380055 96.428817944158908 28.671088122230174 40.002410876054341 28.671088122230174 10.311493197984646 0.0006709119452352752 40.002410876054341 0.0006709119452352752 26.685077785535867 124.16332908915797 26.868950437758116 39.992773607976915 26.868950437758116 -0.074864333438654285 -0.001599925413870551 39.992773607976915 -0.001599925413870551 31.022116188929886 133.65870499908442 27.487623708482317 39.992142603710676 27.487623708482317 1.42018277266925 -0.0019357307462541939 39.992142603710676 -0.0019357307462541939 33.769721942938418 105.60578423810739 33.814906301924026 40.002528349508964 33.814906301924026 13.971930848935131 0.00045206205254544329 40.002528349508964 0.00045206205254544329 29.894428771760602 97.048889758599842 13.987897340125869 39.997447973331873 13.987897340125869 -8.6044814912939955 0.0027658293082879482 39.997447973331873 0.0027658293082879482 22.111102066826504 102.04284847371713 10.113068258870044 39.997792085088008 10.113068258870044 -1.3313414547163802 0.0016046549984878311 39.997792085088008 0.0016046549984878311 25.177876754750116 106.66091023058655 28.084842959408959 40.002005666008245 28.084842959408959 11.658902285481759 0.00027719300953776838 40.002005666008245 0.00027719300953776838 29.579953129017099 101.7577332406488 31.050145798789998 40.002419105768411 31.050145798789998 9.6501497254534847 0.00017113729563611457 40.002419105768411 0.00017113729563611457 27.85197074152558 111.84277972868358 20.107905097159119 39.989813831298193 20.107905097159119 1.7765538608362021 -0.0016385214149750027 39.989813831298193 -0.0016385214149750027 28.404833397379889 120.045079645773 31.328910139815946 40.00224162945193 31.328910139815946 9.9806037634599534 0.00021020021137019285 40.00224162945193 0.00021020021137019285 32.506420852308281 119.61996762382915 30.806055973576292 40.002162877563876 30.806055973576292 6.8058029542283975 0.00010396391093081547 40.002162877563876 0.00010396391093081547 31.606442644514459 119.24515976992001 28.467583129979971 40.002110567219688 28.467583129979971 7.1818097282845201 -0.00016170107375046427 40.002110567219688 -0.00016170107375046427 31.606742374551089 95.537806861131628 8.9910379903532203 39.99069574716566 8.9910379903532203 0.71392231966456166 0.0033526304969200282 39.99069574716566 0.0033526304969200282 24.062932295199005 64.006586289397603 5.945754293644768 39.995598566333456 5.945754293644768 0.4158679325742014 -2.2801489535595465e-05 39.995598566333456 -2.2801489535595465e-05 16.105613555493051 125.725038858234 18.895088437123661 40.001488566716773 18.895088437123661 4.4601432384350232 0.00049222028759743353 40.001488566716773 0.00049222028759743353 32.546295524167334 105.39527333622311 24.415148725924858 40.001839923530873 24.415148725924858 31.312582217968341 8.694487299010234e-06 40.001839923530873 8.694487299010234e-06 34.17696388854786 141.47687788505607 10.537115210445563 39.991697351055564 10.537115210445563 -0.54270551446086301 -0.0067777618384070593 39.991697351055564 -0.0067777618384070593 35.233543092648802 109.48701548458155 36.376216351778112 39.99434754464005 36.376216351778112 2.3342036570770688 8.5009978647576645e-05 39.99434754464005 8.5009978647576645e-05 27.955304785414796 96.873617288682155 14.459098312515263 40.00162440234061 14.459098312515263 -1.2696190168526869 -0.00061158337945244057 40.00162440234061 -0.00061158337945244057 23.900999567957385 95.816266294915351 15.751106043651912 40.001392542689445 15.751106043651912 0.27620778078482999 -0.00071732041055838636 40.001392542689445 -0.00071732041055838636 24.02311851892506 111.02824342037968 8.6409200111664859 39.989840865058682 8.6409200111664859 -2.1373132895112121 -0.0033284906842254713 39.989840865058682 -0.0033284906842254713 27.222732532717146 
</DataArray>
<DataArray type="Float64" Name="cross_section_updated" format="ascii">
1.0001534038836375 1.0006826226858463 1.0013407647913251 1.0020220322081095 1.0028917469660728 1.0037909802286189 1.0046533375886217 1.0052551610757228 1.0048663453286726 1.0021573678884925 1.0024544590503366 1.0056441880705043 1.0073460551917974 1.0091721539890968 1.0106892587344085 1.0117975515218087 1.0122968561749277 1.0116633740231886 1.0096974628737292 1.004210376069713 1 1 1 1 1 1 1 1 1 1 1 1 1 1 1 1 1 1 1 1 1 1 1 1 1 1 1 1 1 1 1 1 1 1 1 1 1 1 1 1 1 1 1 1 1 1 1 1 1 1 1 1 1 1 1 1 1 1 1 1 1 1 1 1 1 1 1 1 1 1 1 1 1 1 1 1 1 1 1 1 1 1 1 1 1 1 1 1 1 1 1 1 1 1 1 1 1 1 1 1 1 1 1 1 1 1 1 1 1 1 1 1 1 1 1 1 1 1 1 1 1 1 1 1 1 1 1 1 1 1 1 1 1 1 1 1 1 1 1 1 1 1 1 1 1 1 1 1 1 1 1 1 1 1 1 1 1 1 1 1 1 1 1 1 1 1 1 1 1 1 1 1 1 1 1 1 1 1 1 1 1 1 1 1 1 1 1 1 1 1 1 1 1 1 1 1 1 1 1 1 1 1 1 1 1 1 1 1 1 1 1 1 1 1 1 1 1 1 1 1 1 1 1 1 1 1 1 1 1 1 1 1 1 1 1 1 1 1 1 1 1 1 1 1 1 1 1 1 1 1 1 1 1 1 1 1 1 1 1 1 1 1 1 1 1 1 1 1 1 1 1 1 1 1 1 1 1 1 1 1 1 1 1 1 1 1 1 1 1 1 1 1 1 1 1 1 1 1 1 1 1 1 1 1 1 1 1 1 1 1 1 1 1 1 1 1 1 1 1 1 1 1 1 1 1 1 1 1 1 1 1 1 1 1 1 1 1 1 1 1 1 1 1 1 1 1 1 1 1 1 1 1 1 1 1 1 1 1 1 1 1 1 1 1 1 1 1 1 1 1 1 1 1 1 1 1 1 1 1 1 1 1 1 1 1 1 1 1 1 1 1 1 1 1 1 1 1 1 1 1 1 1 1 1 1 1 1 1 1 1 1 1 1 1 1 1 1 1 1 1 1 1 1 1 1 1 1 1 1 1 1 1 1 1 1 1 1 1 1 1 1 1 1 1 1 1 1 1 1 1 1 1 1 1 1 1 1 1 1 1 1 1 1 1 1 1 1 1 1 1 1 1 1 1 1 1 1 1 1 1 1 1 1 1 1 1 1 1 1 1 1 1 1 1 1 1 1 1 1 1 1 1 1 1 1 1 1 1 1 1 1 1 1 1 1 1 1 1 1 1 1 1 1 1 1 1 1 1 1 1 1 1 1 1 1 1 1 1 1 1 1 1 1 1 1 1 1 1 1 1 1 1 1 1 1 1 1 1 1 1 1 1 1 1 1 1 1 1 1 1 1 1 1 1 1 1 1 1 1 1 1 1 1 1 1 1 1 1 1 1 1 1 1 1 1 1 1 1 1 1 1 1 1 1 1 1 1 1 1 1 1 1 1 1 1 1 1 1 1 1 1 1 1 1 1 1 1 1 1 1 1 1 1 1 1 1 1 1 1 1 1 1 1 1 1 1 1 1 1 1 1 1 1 1 1 1 1 1 1 1 1 1 1 1 1 1 1 1 1 1 1 1 1 1 1 1 1 1 1 1 1 1 1 1 1 1 1 1 1 1 1 1 1 1 1 1 1 1 1 1 1 1 1 1 1 1 1 1 1 1 1 1 1 1 1 1 1 1 1 1 1 1 1 1 1 1 1 1 1 1 1 1 1 1 1 1 1 1 1 1 1 1 1 1 1 1 1 1 1 1 1 1 1 1 1 1 1 1 1 1 1 1 1 1 1 1 1 1 1 1 1 1 1 1 1 1 1 1 1 1 1 1 1 1 1 1 1 1 1 1 1 1 1 1 1 1 1 1 1 1 1 1 1 1 1 1 1 1 1 1 1 1 1 1 1 1 1 1 1 1 1 1 1 1 1 1 1 1 1 1 1 1 1 1 1 1 1 1 1 1 1 1 1 1 1 1 1 1 1 1 1 1 1 1 1 1 1 1 1 1 1 1 1 1 1 1 1 1 1 1 1 1 1 1 1 1 1 1 1 1 1 1 1 1 1 1 1 1 1 1 1 1 1 1 1 1 1 1 1 1 1 1 1 1 1 1 1 1 1 1 1 1 1 1 1 1 1 1 1 1 1 1 1 1 1 1 1 1 1 1 1 1 1 1 1 1 1 1 1 1 1 1 1 1 1 1 1 1 1 1 1 1 1 1 1 1 1 1 1 1 1 1 1 1 1 1 1 1 1 1 1 1 1 1 1 1 1 1 1 1 1 1 1 1 1 1 1 1 1 1 1 1 1 1 1 1 1 1 1 1 1 1 1 1 1 1 1 1 1 1 1 1 1 1 1 1 1 1 1 1 1 1 1 1 1 1 1 1 1 1 1 1 1 1 
</DataArray>
<DataArray type="Float64" Name="displacement_divergence" format="ascii">
0.00080122045019186822 0.0022330879756240866 0.0033779184581888659 0.0042021883735129315 0.0047635177730434089 0.0050212818108016158 0.0049642650426472978 0.0045302802087619984 0.0034908612827599592 0.0014084086771685711 0.0016413125672548774 0.0041245464177513021 0.0057576936394031844 0.0070742854914330987 0.0079342645200061457 0.0083048482122538431 0.0081206457375885693 0.0072118282410730469 0.0055072375087515876 0.0022537836276266335 0.080465725073293415 0.078148373045080266 0.10642261873806291 0.095058846872187241 0.037971955702540708 0.1145447639985951 0.030157895470489259 0.11671798957712035 0.081084232472318163 0.038058491533235622 0.073854827273496723 0.071883785684156376 0.091402314609601104 0.07518801684351617 0.10003930077829913 0.089607737931393594 0.086876827443294391 0.065796678094221628 0.095430641640090963 0.086955700542273195 0.059901471383510874 0.089026537359325197 0.061325749806990348 0.089739532505815095 0.083009009005627021 0.053783342607008011 0.068710631376841413 0.11201093414538343 0.07033030917291172 0.057285366543183724 0.066115579620806608 0.05648548977155321 0.082658542160172377 0.060250322495387199 0.088413535726547421 0.058737894389229856 0.061853890894961072 0.066450040828724299 0.16669123799136498 0.028482562767198294 0.13090866729931294 0.069199009428562885 0.083033735891325122 0.11878049557738701 0.074042840246181241 0.090684089204400159 0.080197549978736737 0.084140473527222231 0.1272435026208899 0.11582860317872912 0.081003472696104264 0.082469989430885793 0.073617406497833549 0.068736535307407975 0.060729015341561166 0.074931364392741284 0.030257248207256948 0.04535638712531509 0.0944247944351084 0.13500046941455923 0.058858726021263408 0.041096611444066386 0.058448635706172425 0.068426854036214735 0.053671389567388594 0.13389316530164194 0.043268284105358129 0.057631915668300233 0.11838172415358184 0.053553509817472054 0.11083960397144205 0.074396648896869949 0.10821799467911143 0.037019260606488871 0.07019556840873431 0.068437574736965434 0.04733585793890227 0.031641927577701429 0.068661650884108694 0.077234757052676239 0.081867345712934636 0.0554155002037683 0.12810660537670535 0.068084161662425313 0.084433851713535124 0.058139330883680396 0.054652184752336908 0.079150455630944402 0.062327329809126822 0.079526050988133701 0.080231219845583318 0.081215566050628046 0.086462489151786143 0.053185297325981762 0.066214526340666935 0.084541890274068443 0.058140357153297684 0.022076241606073577 0.01414510529927071 0.024390614967537694 0.037387536578977532 0.070257005498122305 0.086664451514758545 0.088402723392236746 0.084165639755702681 0.067121604504337462 0.060412935165177872 0.10168655591767517 0.05870331537632989 0.067493674641827262 0.11600218182028166 0.081968057553401863 0.078824002765624068 0.046813090164477905 0.05911668412699056 -0.0082330759551166866 0.06553046957948272 0.067781304558204636 0.086167253540701053 0.12420148383003005 0.085536190876654317 0.05839367655253818 0.079696650728027563 0.072518706275948253 0.066151172519965329 0.067174607523115951 0.048380877690197499 0.063246415349165364 0.073614208469360731 0.062667130098202017 0.0623932367993979 0.073624962178746034 0.076522397069494041 0.0697289278786829 0.058235364722302396 0.053680606594421421 0.06920692733356551 0.064220818462400686 0.094467720529246679 0.077457787219660262 0.075445189271887508 0.099143776754949675 0.069058207380525261 0.062659896014971822 0.059216395823534107 0.07050534816076115 0.069535738093620084 0.093687181295678712 0.050406427057360051 0.057571387263744722 0.068286147358532112 0.074929445946986847 0.078694474627429387 0.087679806974054864 0.088817735178160412 0.065454947133055635 0.076231862414729568 0.070102970597385461 0.06208769456949198 0.075382768645699511 0.083471913775674367 0.081941741224173414 0.055426688307674485 0.12803734601072178 0.10796710660030723 0.083362229195599463 0.085077683308006802 0.072176717053568318 0.085052328573664016 0.043184746977106073 0.070526803690091566 0.088506496369156709 0.052621174888932698 0.079048849519139708 0.089156810826598903 0.064868146492984655 0.063291178236333484 0.06433980484805657 0.067635116482040569 0.045476361761279449 0.077988591881397507 0.09271721296951814 0.065226973493253265 0.097643690547833228 0.087358261028057771 0.089563209219203799 0.081856336941843799 0.091127808653327702 0.070774523421928137 0.085372716579581676 0.076204517491662294 0.069270904920527565 0.084006919980855632 0.055817952037922058 0.076738071643727812 0.088078976264622466 0.075040130453674636 0.10015243414840222 0.029206573730839423 0.063445029163080147 0.10020771103485775 0.064517255717164712 0.056359893805460137 0.069217630825289533 0.095350625914935927 0.096051306523589119 0.051052370401444891 0.054027440043172947 0.050453171314819134 0.071376510140624849 0.071857999770840855 0.065769054559622564 0.08962605654096123 0.060842673380321378 0.092280707838866993 0.064023362566910436 0.079238830140211727 0.099625950256763796 0.076531110223161197 0.074938639985506095 0.058928849005484646 0.055508233310809896 0.049225304631249467 0.080905175151963826 0.081342148390665073 0.080474738357770637 0.054099130732308209 0.055368512898173516 0.077098697397476657 0.081963998309789177 0.092933903364805281 0.082093410490324009 0.070586617493759829 0.051725864960376372 0.082403292158021779 0.038948173708917511 0.088896618723685178 0.066382255736766593 0.083736812641113323 0.058861545446336427 0.073983416102738953 0.086459177658223307 0.07777879860813755 0.099096451479375292 0.068741047453534376 0.086477343733838835 0.07472509220810937 0.074751180255702598 0.1141709083905309 0.050986039332028055 0.079319665480083401 0.064502484204566335 0.061806657778317176 0.061294483855939275 0.06989685635970444 0.070670395720872581 0.092128579990857482 0.1176751034659117 0.059002204077041071 0.10743785633445553 0.08192805551784918 0.09287271331827672 0.061654930795204885 0.052011076240075838 0.050039880183614827 0.064955818859383951 0.044122879531278691 0.11831012316973176 0.057655788621761239 0.08555058078372435 0.041209444683429464 0.091183967782533015 0.087138505188648921 0.067301084395798516 0.07105473919640759 0.052570962940177823 0.080996434639003356 0.057429206101232033 0.055360744751715707 0.08434921824366734 0.062023466333416599 0.08727669702165386 0.061969535222362093 0.066868129976163648 0.063736861983466508 0.058969336889562955 0.10953580959418205 0.090401393640194935 0.057540258684917828 0.070512424469738724 0.042312954146224935 0.077436384735611707 0.10342483199733699 0.071856472578104569 0.094056118743577888 0.058236129594266758 0.080491899192793023 0.048115871751167716 0.086980514863477465 0.062539869937701775 0.051669062063132598 0.079203974791729415 0.047316755032571628 0.095180632495909856 0.071837242969951698 0.083522108717853122 0.085310940184281092 0.040342243275962322 0.098731348535056718 0.07627779830123993 0.05556353857115548 0.081098602956305221 0.072654250772801479 0.067332278527186887 0.07707398473877794 0.075393500524648632 0.066512211145889177 0.069924349142618608 0.095711896884146219 0.09380901226631945 0.062250750474083238 0.075777100081190263 0.073695238490043474 0.076459552836879663 0.051774424763739502 0.081541647962890984 0.066500046260288617 0.072399000100959093 0.079503161574681736 0.082647580036400936 0.053184984534170705 0.10580961002522932 0.051122524316361995 0.026583745065170472 0.10297732836002027 0.077502415638346256 0.072008885699889336 0.072970950722332839 0.073206533002404095 0.07192587605895695 0.10532689235431122 0.073786824049262317 0.046760734763185097 0.120315211874372 0.074003636156424579 0.05035941098675456 0.079299514111536878 0.079762158892342894 0.07076306531565657 0.047925984298013979 0.058069764790098607 0.10403971140806956 0.090222448255890653 0.05110482793401902 0.12170159122891303 0.099091854169141458 0.070155781834162267 0.077529402927658142 0.069919754031193104 0.05657792486566926 0.055944518136621157 0.080122446300922801 0.07224264504322131 0.061659871973157587 0.040330562981084395 0.037241719946592089 0.097938828562676994 0.07228715870671909 0.082932873642988181 0.073343585592676175 0.051506460918472441 0.060253363589834352 0.040481235826818285 0.071289187787899666 0.071230404057120528 0.075199845544862365 0.072809583267391384 0.072506768524261023 0.060562245385901825 0.065171853748043185 0.074207861532608957 0.073982029645364489 0.067300560816232591 0.083543242853864261 0.068185690691297846 0.068356452084792851 0.049828565699435834 0.065280691388253154 0.083167274232481228 0.069501539985106137 0.071196529697272748 0.049844356301901094 0.055119168603570301 0.057601328394044304 0.038279246545583956 0.074183654275069053 0.074652713392652337 0.10366889329458795 0.072633831234189206 0.076582325634312276 0.077977251887239918 0.076180562870203111 0.087091744378614888 0.078175072941080725 0.070358534641485559 0.099653353452241841 0.10748898586279958 0.084346884315900539 0.057933268341373356 0.081444136800023825 0.086754774978089241 0.068056814968237844 0.069941278347640523 0.069519614461366452 0.08098196063738819 0.061658477325121197 0.054297867808152045 0.085631555621841562 0.079409761041797755 0.069317358403510609 0.040419746299471093 0.10304978705363976 0.066896036453733154 0.064442695906462344 0.062765890516683243 0.068823223446274201 0.073996208385983281 0.093655397744301094 0.082973135510648721 0.081435629609905802 0.055846328989541005 0.085714526374307098 0.089537921819210387 0.055570818253873888 0.037213256462142352 0.077880262610081075 0.040404654483055608 0.087567847626087714 0.086569085802047363 0.034079541427669953 0.0048385163700919165 0.18019318860625644 0.15779882108640653 0.052935853960015211 0.10259525481299558 0.07831467892524846 0.053183888777327715 0.012927268263907554 0.069574779581958346 0.11220379929738811 0.047379726966790381 0.077899864818614661 0.082308866413970699 0.045426083492118075 0.030563315166437843 0.072710427587996895 0.12883540565028273 0.089731062262553341 0.049364413151975928 0.081809309298695232 0.077951391155002381 0.067484178527378452 0.086371504536208232 0.058079156069337667 0.0702168327039637 0.070961035599397648 0.074219801792008877 0.072453335815607645 0.076231610133858041 0.048411724166780301 0.0711997504838493 0.079210550836029778 0.096311720814313051 0.069281204430439336 0.073289539229497463 0.072360393877366216 0.049701192645306869 0.10329878369113543 0.09744240478274091 0.050980629815889481 0.097883380056343894 0.061853317673837616 0.10665930180086025 0.072937457077434237 0.074187415219642894 0.071050039123827985 0.10466948981934755 0.085010780311138512 0.034802522488708215 0.066539893412314033 0.043107786890750455 0.083074523141192652 0.075686204981818272 0.077626651722697615 0.071760130394988048 0.073153730747991502 0.092737480117136561 0.09048345030981067 0.087744503073463043 0.07272156674510713 0.093472457337984483 0.029889118874074964 0.09354360897453623 0.070305803774692865 0.076731135417501789 0.051897532624125817 0.10429156615940655 0.087089702087429416 0.07689297100118575 0.091400189162616385 0.086109824205370028 0.090599880213357853 0.064142728863724963 0.057052449136681282 0.073135210105622961 0.071345021080436721 0.078952942857853037 0.07491288820402553 0.028256735503358721 0.018690231111067934 0.10316402570858385 0.14830849193303092 0.077380271113772769 0.081281593244634354 0.078860739498806565 0.054256613867387532 0.044964515142641409 0.064036731818359283 0.080243310376810761 0.074542340220104586 0.1004078632274478 0.096975534724025841 0.05896263688837778 0.05555054109922096 0.054166251066951387 0.054079609310486498 0.0742485073568869 0.071133749038916602 0.089768820390643628 0.09615997736797334 0.076310106891517293 0.051749270368631084 0.093787491071726958 0.065969309846531737 0.07612019759369959 0.093406076098966256 0.060701506502585226 0.11809636731625284 0.081246097527902017 0.066184376099433853 0.11040945086322446 0.077015150788634967 0.08519504079890039 0.080074294562229476 0.040899633496746413 0.07930094809106758 0.08093977235374672 0.040877270445413623 0.13029374393249923 0.068770803757648213 0.078817649354704533 0.080323311357752891 0.071831564169049456 0.080913476208791857 0.075247576298496432 0.078436998371465783 0.072444236622565883 0.077372073272820641 0.078011802687701526 0.082253856471509845 0.079778556381863153 0.097904340342575225 0.070305801610927809 0.053992725395420438 0.059094118340393784 0.031543095662311282 0.078895380921537583 0.045295850659647072 0.072128096467189651 0.053337478025985818 0.11420897856426215 0.049055053846721874 0.078283587837384427 0.08248772821877759 0.045325264633095941 0.083328542324601962 0.041383255341506109 0.07189119113160114 0.061730975871852056 0.080477662375131626 0.074948425129496843 0.079719504702129407 0.076324842991848607 0.076176684617250467 0.077200184860242049 0.07857790180531965 0.079445622578295461 0.041241334463421597 0.0461935335956844 0.076286747435362734 0.079157789038308168 0.079196094794879102 0.090847583709214308 0.06297121084391355 0.055352039654445122 0.080004453263725184 0.11241030346007586 0.094808902620931335 0.067643741794437592 0.058497636654068846 0.055978447600349757 0.055342673837109863 0.054575594654697523 0.086271814995186769 0.07937821865688291 0.10261187721139134 0.060514800049408311 0.065514782819368178 0.061511271525266364 0.081421181321325808 0.080039614188375047 0.089559715380535643 0.046529032643141365 0.043811249841099492 0.075417255647030321 0.054214583381524073 0.071379763902302606 0.05153192022126251 0.10590815883165999 0.053801658046701742 0.05792672653655212 0.096451554325988176 0.040375435528398729 0.088727247721712588 0.070860343795983605 0.066799469936829503 0.075637722665280752 0.067870317844007322 0.074695225848154356 0.09200940643040334 0.078717848723938999 0.082911306962040243 0.10692271092868322 0.056817600191408885 0.04224336210106111 0.074708866452013689 0.071397645260922959 0.053420215249863567 0.046974956880058552 0.069673690933183152 0.049040827621670058 0.074482387065233191 0.040623645916038065 0.026336038892353919 0.064570064703203867 0.073940381094672381 0.065568168548624794 0.096578178090134914 0.068410372934068597 0.085390269613389858 0.076491920279840475 0.075806060648592855 0.094532170860800235 0.093985272872546821 0.053091995335966313 0.082809613940448723 0.089098281251081046 0.080871561735951947 0.070868229115097728 0.061397919219587385 0.097258867158675447 0.10028755719294381 0.077908719474599986 0.067083051503984928 0.068163826916177617 0.08117414064046824 0.074096191992594207 0.073986793793530348 0.056624012945714064 0.073914848783253717 0.043503506601718978 0.035791836629641249 0.081852503924015996 0.077162555170269598 0.089024255169012259 0.065073650100045427 0.066818768430855199 0.051718794675572721 0.10319942534990351 0.10348417390231929 0.045158717586308975 0.04208390881499266 0.066302275453871573 0.090969756879203278 0.051096365241682595 0.080733274624690654 0.089648417767973387 0.079317666071190174 0.082127587149138148 0.078972819238790959 0.08857329947911198 0.071085482572821018 0.025664198883075473 0.057294760321489502 0.082724082677704119 0.10539197671633274 0.066516071401788335 0.077516776910959317 0.074221484865644838 0.051391019380772944 0.072949625030117815 0.048319011146676694 0.050003157692436573 0.069462309770587982 0.052881494747245128 0.081009579154340983 0.079138847357069178 0.085788223347530473 0.065639421812831222 0.052457869073474162 0.051488723768101874 0.044469895429658957 0.077704344564153871 0.066123039936462069 0.078607435756336663 0.088680094400728438 0.088122381946807382 0.064965144421822774 0.059156049728393667 0.059946361544567228 0.063536135644328251 0.064415002281912437 0.072155181724766371 0.073105102486862306 0.082437141166908673 0.08829749237745714 0.041349048069051507 0.088546772914295607 0.092558309776839875 0.05780168909021377 0.039091889670576307 0.077985276341554388 0.07029372978228085 0.057792853174227776 0.063400650203827152 0.061443429068946911 0.072943995797002725 0.075344590237745007 0.070191498121901841 0.058573102823645473 0.078347261623449072 0.093929478406655997 0.088583658023113354 0.083941739789351294 0.079361716062033572 0.08379349648724066 0.053666727553448951 0.082526918933221713 0.08163589735704857 0.0906055871790344 0.089856908162328053 0.073376130143879933 0.061801473756609958 0.07150112311582657 0.068766351599603093 0.081840913765929113 0.085845202679750432 0.072759393378748038 0.078171831192271779 0.065437761689337667 0.07338607674562847 0.069833170959169355 0.055251227978146855 0.094664445913335227 0.066835027680751669 0.067531625305820464 0.071177756289152683 0.05486653270885844 0.078636604284559097 0.060311472368451254 0.076203227442464549 0.075560941282593302 0.069254015670543567 0.083457026202990531 0.064706961864305912 0.075413177543491028 0.04822442576546454 0.058232571565462424 0.057288184991466484 0.062300870052471424 0.075422385949000748 0.078234285510141666 0.058952014197267456 0.081259462927368076 0.076748287702322004 0.076174623860284535 0.071113300214203035 0.052485995378801775 0.04901686204938005 0.077375713273355906 0.072200871457961502 0.03936073534377682 0.05997543290093299 0.049559601576920631 0.085528828322815498 0.011974614907682035 0.12589717143711265 0.060313646782279351 0.088451759852113954 0.079783470526840733 0.073789503773250775 0.049674575768981266 0.081768719705493376 0.078053784975490703 0.082592985688711096 0.065979775690781978 0.061465891032728481 0.059017666994475491 0.038988505297700371 0.028762793963988509 0.10648537440593731 0.10430179060192057 0.074421734573849374 0.046437452594284001 0.048137682358048106 0.050620188618367423 0.082937642519967714 0.079835968338294649 0.16143722989405362 0.05222204606795211 0.088689480076402427 0.07888292219456397 0.076859441606350387 0.08553999674852153 0.078164508990749226 0.077015132048513651 0.083018285703508887 0.075885033791294867 0.050981957836389341 -0.029415578770653705 0.079860471354003884 0.046916967878056992 0.0098485838696180661 0.015647405940442782 0.037996985576359291 0.12625426414922547 0.19919456040972516 0.025147531739822249 0.13848434421641498 0.18134529539510691 0.079596378439085874 0.073287958116260682 0.0797624939064151 0.052662968425313705 0.071118823843735149 0.093721664306238406 0.064944490785530329 0.039365567286536951 0.091068742728123597 0.038296432562966221 0.070711794846176956 0.06462843619016656 0.065809118913028986 0.053768217979967559 0.077899213709059112 0.060561521437788146 0.086870719166675769 0.067825959198998476 0.053531218867076902 0.088348051331343824 0.068333156009371038 0.04020705656055934 0.070686827302882213 0.018725046202702433 0.076852624955749294 0.076179417041599029 0.091698703915613272 0.081134394288031153 0.076479731052312094 0.071496786743295848 0.063428472504557076 0.07083142998105818 0.070272901311681513 0.04668162754836036 0.088565397862757633 0.05706445181451314 0.10263650183374184 0.071281796581536744 0.14983843600048785 0.14778234095303502 0.038413705127786794 0.043228582528288859 0.059675410325996048 0.08116872466758443 0.092948847262759871 0.082779339510131389 0.073124190876351469 0.053634943863883455 0.13922575299034504 0.096897095979152983 0.066572003818731532 0.045075170794024323 0.053256179623363598 0.091298280886191074 0.18181908270042685 0.045930304715417675 0.041323897602043844 0.18933321165206146 0.054377884446987657 0.082871922299737721 0.07303126631789647 0.071525211088618645 0.084598722128831794 0.083509726429161241 0.084095948738908716 0.040630207862718815 0.048346950733533622 0.06383073163015171 0.069419074339987397 0.068390857162629715 0.080150372048545859 0.058364658306779393 0.038802899553233239 0.071780375913087946 0.052660772130427969 0.09398371109527659 0.065692221833678621 0.05391360941089185 0.062968360922637689 0.083810446092615343 0.06496131635868474 0.086417952230633255 0.091070545516113682 0.090525912986741675 0.079456531376835227 0.058102406485606162 0.086936689167295245 0.082988715700474891 0.083134829799059062 0.062692039661943033 0.045904580543547624 0.10292341541875355 0.10534043420928318 0.041179325285924273 0.057995688878890839 0.039362680427258656 0.0867663778592771 0.1247778440354147 0.092251479304712669 0.063976220541156703 0.05307208654766371 0.076330986361913322 0.066060006607291832 0.045013134217530837 0.12122535558527958 0.084142642658942446 0.072118417842522042 0.043645843838519022 0.029020215321990561 0.10781117348770497 0.083611880425714102 0.086654633935895342 0.07696684532082787 0.067534535021125691 0.081722028813773606 0.074437195539468481 0.072321992100342014 0.082834692507013807 0.057381737279821987 0.058221951221484769 0.1144411273235495 0.04856402805183016 0.045938661569676006 0.099347380141878688 0.079163286038273273 0.085507297498023549 0.060093180833008963 0.058888656310398968 0.053835191461873821 0.069146588235912743 0.064997535380250937 0.079389119464503888 0.097198600792241741 0.07803597006351648 0.055668047161860024 0.07532214809169506 0.050806886454816819 0.083167305031957239 0.084667144937895344 0.080968567030832536 0.056516137237633934 0.025158633594789842 0.12720600953027805 0.084722793403917113 0.1481727657720846 0.14318071576222202 0.09978571989920848 0.1029704588469067 0.038157533291076629 0.025617453572174043 0.053570292543709375 0.035992802432646354 0.072852425825732592 0.064222850763822503 0.063763393717088723 0.065608329056523862 0.065453496872735828 0.064270085981838226 0.065103698001370863 0.062831322873940776 0.083090279281245905 0.069138168264081035 0.08036102326594996 0.066712694463839817 0.077555290472324234 0.084424304857345867 0.074736071929401682 0.055277755167066456 0.062944691886875181 0.073949882822542778 0.069629926853813889 0.071012083493449785 0.081266052130770428 0.079016106611286108 0.079016855936377528 0.060157330737997672 0.040264033888732342 0.081365738810418253 0.085442409721369655 0.088083857731621862 0.069888261963536813 0.059752498919893537 0.060057796297312616 0.068056831331792855 
</DataArray>
</CellData>
</Piece>
</UnstructuredGrid>
</VTKFile>
