<?xml version="1.0"?>
<VTKFile type="UnstructuredGrid" version="0.1" byte_order="LittleEndian">
<UnstructuredGrid>
<Piece NumberOfPoints="2824" NumberOfCells="706">
<Points>
<DataArray type="Float64" NumberOfComponents="3" format="ascii">
0 0 0 0.33416666666645822 0 0.33416666666687761 0.33416666666749117 0.33416666666791067 0 0 0.32892434865109021 0.32892434865109021 0.33416666666645822 0 0.33416666666687761 0.26500093005959219 0 0.62412558229931248 0.57500000000061269 0 0.57499999999949769 0.77789883252811276 0.39570480562063071 0.39543357482263919 0.26500093005959219 0 0.62412558229931248 0 0.26235908848024581 0.61665443494884975 0.77789883252811276 0.39570480562063071 0.39543357482263919 0.33416666666645822 0 0.33416666666687761 0.33416666666749117 0.33416666666791067 0 0 0.32892434865109021 0.32892434865109021 0.77789883252811276 0.39570480562063071 0.39543357482263919 0.39531730444687918 0.80019605692788165 0.39654492749411491 0 0.32892434865109021 0.32892434865109021 0.77789883252811276 0.39570480562063071 0.39543357482263919 0 0.26235908848024581 0.61665443494884975 0.33416666666645822 0 0.33416666666687761 0.33416666666645822 0 0.33416666666687761 0.33416666666749117 0.33416666666791067 0 0 0.32892434865109021 0.32892434865109021 0.77789883252811276 0.39570480562063071 0.39543357482263919 0 0 0.40000000000166441 0.33416666666645822 0 0.33416666666687761 0 0.32892434865109021 0.32892434865109021 0 0.26235908848024581 0.61665443494884975 0.33416666666645822 0 0.33416666666687761 0 0 0 0 0 0.40000000000166441 0 0.32892434865109021 0.32892434865109021 0 0 0.40000000000166441 0.33416666666645822 0 0.33416666666687761 0 0.26235908848024581 0.61665443494884975 0.26500093005959219 0 0.62412558229931248 0.33416666666749117 0.33416666666791067 0 0 0.40000000000166441 0 0 0.32892434865109021 0.32892434865109021 0 0.62491530451403432 0.26235908848027167 0 0.40000000000166441 0 0.33416666666749117 0.33416666666791067 0 0.26340755208406552 0.6259637681177177 0 0 0.62491530451403432 0.26235908848027167 0 0.40000000000166441 0 0 0 0 0.33416666666749117 0.33416666666791067 0 0 0.32892434865109021 0.32892434865109021 0.33416666666645822 0 0.33416666666687761 0.62596376811530841 0 0.26340755208326921 0.39999999999911567 0 0 0.62412558229828341 0.26500093006025072 0 0.33416666666645822 0 0.33416666666687761 0 0 0 0.33416666666749117 0.33416666666791067 0 0.39999999999911567 0 0 0.33416666666749117 0.33416666666791067 0 0.33416666666645822 0 0.33416666666687761 0.39999999999911567 0 0 0.62412558229828341 0.26500093006025072 0 0.62596376811530841 0 0.26340755208326921 0.7999999999979498 0 0 0.62412558229828341 0.26500093006025072 0 0.77789883252811276 0.39570480562063071 0.39543357482263919 0.62596376811530841 0 0.26340755208326921 0.39999999999911567 0 0 0.62412558229828341 0.26500093006025072 0 0.7999999999979498 0 0 0.62596376811530841 0 0.26340755208326921 0.62412558229828341 0.26500093006025072 0 0.33416666666645822 0 0.33416666666687761 0.77789883252811276 0.39570480562063071 0.39543357482263919 0.97934782608699855 0.40787109375058261 0 1.0206521739124059 0 0.40787109374997071 1.19811642196055 0.57789440443542173 0.58983547034755146 0.77789883252811276 0.39570480562063071 0.39543357482263919 0.33416666666645822 0 0.33416666666687761 0.62412558229828341 0.26500093006025072 0 0.33416666666749117 0.33416666666791067 0 0.77789883252811276 0.39570480562063071 0.39543357482263919 0.33416666666749117 0.33416666666791067 0 0.62412558229828341 0.26500093006025072 0 0.57500000000222118 0.57500000000110618 0 0.77789883252811276 0.39570480562063071 0.39543357482263919 0.62412558229828341 0.26500093006025072 0 0.97934782608699855 0.40787109375058261 0 0.57500000000222118 0.57500000000110618 0 0.77789883252811276 0.39570480562063071 0.39543357482263919 0.62412558229828341 0.26500093006025072 0 0.7999999999979498 0 0 0.97934782608699855 0.40787109375058261 0 0.77789883252811276 0.39570480562063071 0.39543357482263919 0.97934782608699855 0.40787109375058261 0 0.7999999999979498 0 0 1.1999999999978941 0 0 1.0206521739124059 0 0.40787109374997071 0.97934782608699855 0.40787109375058261 0 0.7999999999979498 0 0 1.0206521739124059 0 0.40787109374997071 0.77789883252811276 0.39570480562063071 0.39543357482263919 0.62596376811530841 0 0.26340755208326921 1.0206521739124059 0 0.40787109374997071 0.7999999999979498 0 0 0.77789883252811276 0.39570480562063071 0.39543357482263919 0.62596376811530841 0 0.26340755208326921 0.33416666666645822 0 0.33416666666687761 0.57500000000061269 0 0.57499999999949769 0.77789883252811276 0.39570480562063071 0.39543357482263919 0.57500000000061269 0 0.57499999999949769 1.0206521739124059 0 0.40787109374997071 0.62596376811530841 0 0.26340755208326921 0.77789883252811276 0.39570480562063071 0.39543357482263919 0.849152677791018 0 0.76609408500333809 0.57500000000061269 0 0.57499999999949769 0.59772980397989239 0.59772980397970443 0.74731771606769093 0.77789883252811276 0.39570480562063071 0.39543357482263919 0.849152677791018 0 0.76609408500333809 0.98528458949709452 0.48395451161029718 1.014715410503322 1.19811642196055 0.57789440443542173 0.58983547034755146 0.77789883252811276 0.39570480562063071 0.39543357482263919 0.57500000000061269 0 0.57499999999949769 0.40787109375015718 0 0.97934782608792492 0.849152677791018 0 0.76609408500333809 0.59772980397989239 0.59772980397970443 0.74731771606769093 0.26500093005959219 0 0.62412558229931248 0.59772980397989239 0.59772980397970443 0.74731771606769093 0.57500000000061269 0 0.57499999999949769 0.77789883252811276 0.39570480562063071 0.39543357482263919 0.849152677791018 0 0.76609408500333809 1.19811642196055 0.57789440443542173 0.58983547034755146 1.0206521739124059 0 0.40787109374997071 0.77789883252811276 0.39570480562063071 0.39543357482263919 0.849152677791018 0 0.76609408500333809 0.59772980397989239 0.59772980397970443 0.74731771606769093 0.73709538452274337 0 1.137931943365984 0.98528458949709452 0.48395451161029718 1.014715410503322 0.40787109375015718 0 0.97934782608792492 0.73709538452274337 0 1.137931943365984 0.849152677791018 0 0.76609408500333809 0.59772980397989239 0.59772980397970443 0.74731771606769093 0.849152677791018 0 0.76609408500333809 0.59772980397989239 0.59772980397970443 0.74731771606769093 0.98528458949709452 0.48395451161029718 1.014715410503322 0.77789883252811276 0.39570480562063071 0.39543357482263919 0.849152677791018 0 0.76609408500333809 1.0206521739124059 0 0.40787109374997071 0.57500000000061269 0 0.57499999999949769 0.77789883252811276 0.39570480562063071 0.39543357482263919 0.849152677791018 0 0.76609408500333809 0.73709538452274337 0 1.137931943365984 1.0000000000002141 0 0.99999999999992895 0.98528458949709452 0.48395451161029718 1.014715410503322 0.26500093005959219 0 0.62412558229931248 0 0.26235908848024581 0.61665443494884975 0 0.40787109374995661 0.97934782608798243 0.59772980397989239 0.59772980397970443 0.74731771606769093 0.26500093005959219 0 0.62412558229931248 0.77789883252811276 0.39570480562063071 0.39543357482263919 0 0.26235908848024581 0.61665443494884975 0.59772980397989239 0.59772980397970443 0.74731771606769093 0 0.32892434865109021 0.32892434865109021 0 0.26235908848024581 0.61665443494884975 0.77789883252811276 0.39570480562063071 0.39543357482263919 0.59772980397989239 0.59772980397970443 0.74731771606769093 0 0.32892434865109021 0.32892434865109021 0 0.57500000000018214 0.57500000000018214 0 0.26235908848024581 0.61665443494884975 0.59772980397989239 0.59772980397970443 0.74731771606769093 0.57500000000061269 0 0.57499999999949769 0.26500093005959219 0 0.62412558229931248 0.40787109375015718 0 0.97934782608792492 0.59772980397989239 0.59772980397970443 0.74731771606769093 0 0.26235908848024581 0.61665443494884975 0 0.57500000000018214 0.57500000000018214 0 0.40787109374995661 0.97934782608798243 0.59772980397989239 0.59772980397970443 0.74731771606769093 0.26500093005959219 0 0.62412558229931248 0 0.40787109374995661 0.97934782608798243 0.40787109375015718 0 0.97934782608792492 0.59772980397989239 0.59772980397970443 0.74731771606769093 0 0 0.80000000000332872 0.26500093005959219 0 0.62412558229931248 0 0.40787109374995661 0.97934782608798243 0.40787109375015718 0 0.97934782608792492 0 0.26235908848024581 0.61665443494884975 0 0 0.80000000000332872 0.26500093005959219 0 0.62412558229931248 0 0.40787109374995661 0.97934782608798243 0 0 1.200000000002774 0 0 0.80000000000332872 0 0.40787109374995661 0.97934782608798243 0.40787109375015718 0 0.97934782608792492 0 0 0.80000000000332872 0 0 0.40000000000166441 0 0.26235908848024581 0.61665443494884975 0.26500093005959219 0 0.62412558229931248 0 0.85167501661028155 0.7670914684099619 0.48528811404415773 0.99061345538166756 1.009386544617999 0.59772980397989239 0.59772980397970443 0.74731771606769093 0.39531730444687918 0.80019605692788165 0.39654492749411491 0 0.32892434865109021 0.32892434865109021 0 0.57500000000018214 0.57500000000018214 0.59772980397989239 0.59772980397970443 0.74731771606769093 0.39531730444687918 0.80019605692788165 0.39654492749411491 0 0.85167501661028155 0.7670914684099619 0.59772980397989239 0.59772980397970443 0.74731771606769093 0 0.57500000000018214 0.57500000000018214 0.39531730444687918 0.80019605692788165 0.39654492749411491 0 0.40787109374995661 0.97934782608798243 0 0.85167501661028155 0.7670914684099619 0 0.73703553820768952 1.137914212601322 0.59772980397989239 0.59772980397970443 0.74731771606769093 0 0.85167501661028155 0.7670914684099619 0.58179751944592217 1.199262271083781 0.58179751944619096 0.48528811404415773 0.99061345538166756 1.009386544617999 0.39531730444687918 0.80019605692788165 0.39654492749411491 0 0.73703553820768952 1.137914212601322 0.59772980397989239 0.59772980397970443 0.74731771606769093 0 0.85167501661028155 0.7670914684099619 0.48528811404415773 0.99061345538166756 1.009386544617999 0 0.85167501661028155 0.7670914684099619 0 1.0206521739139061 0.40787109375008618 0.58179751944592217 1.199262271083781 0.58179751944619096 0.39531730444687918 0.80019605692788165 0.39654492749411491 0 0.40787109374995661 0.97934782608798243 0 0.57500000000018214 0.57500000000018214 0 0.85167501661028155 0.7670914684099619 0.59772980397989239 0.59772980397970443 0.74731771606769093 0 0.85167501661028155 0.7670914684099619 0 0.57500000000018214 0.57500000000018214 0 1.0206521739139061 0.40787109375008618 0.39531730444687918 0.80019605692788165 0.39654492749411491 0 0.73703553820768952 1.137914212601322 0 0.85167501661028155 0.7670914684099619 0 1.0000000000000291 0.99999999999996969 0.48528811404415773 0.99061345538166756 1.009386544617999 0.59772980397989239 0.59772980397970443 0.74731771606769093 1.0362039003897969 1.032400726930619 0.49025282767413908 1.19811642196055 0.57789440443542173 0.58983547034755146 0.77789883252811276 0.39570480562063071 0.39543357482263919 0.59772980397989239 0.59772980397970443 0.74731771606769093 0.58179751944592217 1.199262271083781 0.58179751944619096 1 0.99999999999999978 0.99999999999999978 1.0362039003897969 1.032400726930619 0.49025282767413908 0.58179751944592217 1.199262271083781 0.58179751944619096 1.0362039003897969 1.032400726930619 0.49025282767413908 0.59772980397989239 0.59772980397970443 0.74731771606769093 0.39531730444687918 0.80019605692788165 0.39654492749411491 1.19811642196055 0.57789440443542173 0.58983547034755146 0.98528458949709452 0.48395451161029718 1.014715410503322 0.59772980397989239 0.59772980397970443 0.74731771606769093 0.77789883252811276 0.39570480562063071 0.39543357482263919 1.0362039003897969 1.032400726930619 0.49025282767413908 0.77789883252811276 0.39570480562063071 0.39543357482263919 0.59772980397989239 0.59772980397970443 0.74731771606769093 0.39531730444687918 0.80019605692788165 0.39654492749411491 0.59772980397989239 0.59772980397970443 0.74731771606769093 0.48528811404415773 0.99061345538166756 1.009386544617999 0.58179751944592217 1.199262271083781 0.58179751944619096 0.39531730444687918 0.80019605692788165 0.39654492749411491 1 0.99999999999999978 0.99999999999999978 0.59772980397989239 0.59772980397970443 0.74731771606769093 1.19811642196055 0.57789440443542173 0.58983547034755146 0.98528458949709452 0.48395451161029718 1.014715410503322 0.59772980397989239 0.59772980397970443 0.74731771606769093 1 0.99999999999999978 0.99999999999999978 1.19811642196055 0.57789440443542173 0.58983547034755146 1.0362039003897969 1.032400726930619 0.49025282767413908 1 0.99999999999999978 0.99999999999999978 0.48528811404415773 0.99061345538166756 1.009386544617999 0.59772980397989239 0.59772980397970443 0.74731771606769093 0.98528458949709452 0.48395451161029718 1.014715410503322 1 0.99999999999999978 0.99999999999999978 0.58179751944592217 1.199262271083781 0.58179751944619096 0.59772980397989239 0.59772980397970443 0.74731771606769093 0.48528811404415773 0.99061345538166756 1.009386544617999 0.40787109375061498 1.0206521739145791 0 0.73668669749125271 0.86068862301695703 0 0.58179751944592217 1.199262271083781 0.58179751944619096 0.39531730444687918 0.80019605692788165 0.39654492749411491 0.73668669749125271 0.86068862301695703 0 1.0362039003897969 1.032400726930619 0.49025282767413908 0.58179751944592217 1.199262271083781 0.58179751944619096 0.39531730444687918 0.80019605692788165 0.39654492749411491 1.151058336609301 0.76640924832138713 0 1.0362039003897969 1.032400726930619 0.49025282767413908 0.73668669749125271 0.86068862301695703 0 0.77789883252811276 0.39570480562063071 0.39543357482263919 0.73668669749125271 0.86068862301695703 0 0.77789883252811276 0.39570480562063071 0.39543357482263919 1.0362039003897969 1.032400726930619 0.49025282767413908 0.39531730444687918 0.80019605692788165 0.39654492749411491 1.151058336609301 0.76640924832138713 0 1.0000000000013569 1.0000000000020031 0 0.73668669749125271 0.86068862301695703 0 1.0362039003897969 1.032400726930619 0.49025282767413908 0.97934782608699855 0.40787109375058261 0 0.73668669749125271 0.86068862301695703 0 0.57500000000222118 0.57500000000110618 0 0.77789883252811276 0.39570480562063071 0.39543357482263919 1.151058336609301 0.76640924832138713 0 0.73668669749125271 0.86068862301695703 0 0.97934782608699855 0.40787109375058261 0 0.77789883252811276 0.39570480562063071 0.39543357482263919 0.73668669749125271 0.86068862301695703 0 0.57500000000222118 0.57500000000110618 0 0.77789883252811276 0.39570480562063071 0.39543357482263919 0.39531730444687918 0.80019605692788165 0.39654492749411491 0.57500000000222118 0.57500000000110618 0 0.33416666666749117 0.33416666666791067 0 0.77789883252811276 0.39570480562063071 0.39543357482263919 0.39531730444687918 0.80019605692788165 0.39654492749411491 0.57500000000222118 0.57500000000110618 0 0.73668669749125271 0.86068862301695703 0 0.40787109375061498 1.0206521739145791 0 0.39531730444687918 0.80019605692788165 0.39654492749411491 0.26340755208406552 0.6259637681177177 0 0.57500000000222118 0.57500000000110618 0 0.40787109375061498 1.0206521739145791 0 0.39531730444687918 0.80019605692788165 0.39654492749411491 0 0.80000000000332872 0 0.26340755208406552 0.6259637681177177 0 0.40787109375061498 1.0206521739145791 0 0.39531730444687918 0.80019605692788165 0.39654492749411491 0 0.32892434865109021 0.32892434865109021 0.59772980397989239 0.59772980397970443 0.74731771606769093 0.77789883252811276 0.39570480562063071 0.39543357482263919 0.39531730444687918 0.80019605692788165 0.39654492749411491 0.57500000000222118 0.57500000000110618 0 0.26340755208406552 0.6259637681177177 0 0.33416666666749117 0.33416666666791067 0 0.39531730444687918 0.80019605692788165 0.39654492749411491 0.33416666666749117 0.33416666666791067 0 0 0.62491530451403432 0.26235908848027167 0 0.32892434865109021 0.32892434865109021 0.39531730444687918 0.80019605692788165 0.39654492749411491 0 0.80000000000332872 0 0 0.40000000000166441 0 0.26340755208406552 0.6259637681177177 0 0 0.62491530451403432 0.26235908848027167 0.26340755208406552 0.6259637681177177 0 0 0.80000000000332872 0 0 0.62491530451403432 0.26235908848027167 0.39531730444687918 0.80019605692788165 0.39654492749411491 0.33416666666749117 0.33416666666791067 0 0.26340755208406552 0.6259637681177177 0 0 0.62491530451403432 0.26235908848027167 0.39531730444687918 0.80019605692788165 0.39654492749411491 0 0.32892434865109021 0.32892434865109021 0 0.62491530451403432 0.26235908848027167 0 0.57500000000018214 0.57500000000018214 0.39531730444687918 0.80019605692788165 0.39654492749411491 0 0.80000000000332872 0 0 1.0206521739139061 0.40787109375008618 0 0.62491530451403432 0.26235908848027167 0.39531730444687918 0.80019605692788165 0.39654492749411491 0 0.57500000000018214 0.57500000000018214 0 0.62491530451403432 0.26235908848027167 0 1.0206521739139061 0.40787109375008618 0.39531730444687918 0.80019605692788165 0.39654492749411491 0 0.80000000000332872 0 0.40787109375061498 1.0206521739145791 0 0 1.0206521739139061 0.40787109375008618 0.39531730444687918 0.80019605692788165 0.39654492749411491 0.26500093005965231 1.375874417702696 0 0 1.200000000002774 0 0.40787109375061498 1.0206521739145791 0 0 1.0206521739139061 0.40787109375008618 0 1.0206521739139061 0.40787109375008618 0.39531730444687918 0.80019605692788165 0.39654492749411491 0.40787109375061498 1.0206521739145791 0 0.37819010083105031 1.488109359197332 0.37639255045733749 0.40787109375061498 1.0206521739145791 0 0.39531730444687918 0.80019605692788165 0.39654492749411491 0.58179751944592217 1.199262271083781 0.58179751944619096 0.37819010083105031 1.488109359197332 0.37639255045733749 0 1.0206521739139061 0.40787109375008618 0.58179751944592217 1.199262271083781 0.58179751944619096 0.39531730444687918 0.80019605692788165 0.39654492749411491 0.37819010083105031 1.488109359197332 0.37639255045733749 0 1.0206521739139061 0.40787109375008618 0 1.4250000000002421 0.57500000000014528 0.58179751944592217 1.199262271083781 0.58179751944619096 0.37819010083105031 1.488109359197332 0.37639255045733749 0.40787109375061498 1.0206521739145791 0 0.58179751944592217 1.199262271083781 0.58179751944619096 0.57499999999972717 1.4249999999995451 0 0.37819010083105031 1.488109359197332 0.37639255045733749 0 1.200000000002774 0 0 0.80000000000332872 0 0.40787109375061498 1.0206521739145791 0 0 1.0206521739139061 0.40787109375008618 0.26500093005965231 1.375874417702696 0 0 1.200000000002774 0 0 1.0206521739139061 0.40787109375008618 0 1.3863248792278431 0.25937977430558068 0.26500093005965231 1.375874417702696 0 0 1.200000000002774 0 0 1.3863248792278431 0.25937977430558068 0 1.6000000000000001 0 0.26500093005965231 1.375874417702696 0 0.33416666666678929 1.6658333333334849 0 0 1.3863248792278431 0.25937977430558068 0.37819010083105031 1.488109359197332 0.37639255045733749 0.26500093005965231 1.375874417702696 0 0.40787109375061498 1.0206521739145791 0 0.57499999999972717 1.4249999999995451 0 0.37819010083105031 1.488109359197332 0.37639255045733749 0.26500093005965231 1.375874417702696 0 0.57499999999972717 1.4249999999995451 0 0.33416666666678929 1.6658333333334849 0 0.37819010083105031 1.488109359197332 0.37639255045733749 0.40787109375061498 1.0206521739145791 0 0.26500093005965231 1.375874417702696 0 0 1.0206521739139061 0.40787109375008618 0.37819010083105031 1.488109359197332 0.37639255045733749 0 1.0206521739139061 0.40787109375008618 0 1.3863248792278431 0.25937977430558068 0 1.4250000000002421 0.57500000000014528 0.37819010083105031 1.488109359197332 0.37639255045733749 0 1.685972222222293 0.31402777777767188 0 1.4250000000002421 0.57500000000014528 0 1.3863248792278431 0.25937977430558068 0.37819010083105031 1.488109359197332 0.37639255045733749 0 1.0206521739139061 0.40787109375008618 0.26500093005965231 1.375874417702696 0 0 1.3863248792278431 0.25937977430558068 0.37819010083105031 1.488109359197332 0.37639255045733749 0 0.85167501661028155 0.7670914684099619 0.58179751944592217 1.199262271083781 0.58179751944619096 0 1.263313302510646 0.86068862301506388 0.48528811404415773 0.99061345538166756 1.009386544617999 0 0.85167501661028155 0.7670914684099619 0 1.0206521739139061 0.40787109375008618 0 1.263313302510646 0.86068862301506388 0.58179751944592217 1.199262271083781 0.58179751944619096 0.48528811404415773 0.99061345538166756 1.009386544617999 0.41010551790091843 1.5854304871968741 0.7721068750782103 0 1.263313302510646 0.86068862301506388 0.39539622647752048 1.604332214875325 1.222086277851258 0 1.263313302510646 0.86068862301506388 0.48528811404415773 0.99061345538166756 1.009386544617999 0.58179751944592217 1.199262271083781 0.58179751944619096 0.41010551790091843 1.5854304871968741 0.7721068750782103 0 1.4250000000002421 0.57500000000014528 0 1.263313302510646 0.86068862301506388 0.58179751944592217 1.199262271083781 0.58179751944619096 0.41010551790091843 1.5854304871968741 0.7721068750782103 0 1.0206521739139061 0.40787109375008618 0 1.4250000000002421 0.57500000000014528 0 1.263313302510646 0.86068862301506388 0.58179751944592217 1.199262271083781 0.58179751944619096 0 1.4250000000002421 0.57500000000014528 0.41010551790091843 1.5854304871968741 0.7721068750782103 0.58179751944592217 1.199262271083781 0.58179751944619096 0.37819010083105031 1.488109359197332 0.37639255045733749 0 0.85167501661028155 0.7670914684099619 0 1.263313302510646 0.86068862301506388 0 1.0000000000000291 0.99999999999996969 0.48528811404415773 0.99061345538166756 1.009386544617999 0 1.4250000000002421 0.57500000000014528 0 1.592128906249999 1.0206521739122849 0 1.263313302510646 0.86068862301506388 0.41010551790091843 1.5854304871968741 0.7721068750782103 0 1.740620225694506 0.62193599033743363 0.41010551790091843 1.5854304871968741 0.7721068750782103 0 1.4250000000002421 0.57500000000014528 0.37819010083105031 1.488109359197332 0.37639255045733749 0 1.740620225694506 0.62193599033743363 0 1.592128906249999 1.0206521739122849 0 1.4250000000002421 0.57500000000014528 0.41010551790091843 1.5854304871968741 0.7721068750782103 0 1.740620225694506 0.62193599033743363 0.26500093005947722 2 0.6241255822972791 0.41010551790091843 1.5854304871968741 0.7721068750782103 0.37819010083105031 1.488109359197332 0.37639255045733749 0.57499999999943696 2 0.57500000000055196 0.41010551790091843 1.5854304871968741 0.7721068750782103 0.26500093005947722 2 0.6241255822972791 0.37819010083105031 1.488109359197332 0.37639255045733749 0.40787109375045588 2 0.9793478260856453 0 1.592128906249999 1.0206521739122849 0.41010551790091843 1.5854304871968741 0.7721068750782103 0.39539622647752048 1.604332214875325 1.222086277851258 0 1.740620225694506 0.62193599033743363 0 2 0.7999999999979498 0 1.592128906249999 1.0206521739122849 0.41010551790091843 1.5854304871968741 0.7721068750782103 0 1.592128906249999 1.0206521739122849 0 1.263313302510646 0.86068862301506388 0.41010551790091843 1.5854304871968741 0.7721068750782103 0.39539622647752048 1.604332214875325 1.222086277851258 0 2 0.7999999999979498 0.40787109375045588 2 0.9793478260856453 0 2 1.1999999999978941 0 1.592128906249999 1.0206521739122849 0.40787109375045588 2 0.9793478260856453 0 1.592128906249999 1.0206521739122849 0 2 0.7999999999979498 0.41010551790091843 1.5854304871968741 0.7721068750782103 0.40787109375045588 2 0.9793478260856453 0 2 0.7999999999979498 0.26500093005947722 2 0.6241255822972791 0.41010551790091843 1.5854304871968741 0.7721068750782103 0.57499999999943696 2 0.57500000000055196 0.40787109375045588 2 0.9793478260856453 0.26500093005947722 2 0.6241255822972791 0.41010551790091843 1.5854304871968741 0.7721068750782103 0 1.740620225694506 0.62193599033743363 0.26500093005947722 2 0.6241255822972791 0 2 0.7999999999979498 0.41010551790091843 1.5854304871968741 0.7721068750782103 0 1.740620225694506 0.62193599033743363 0 2 0.39999999999911567 0 2 0.7999999999979498 0.26500093005947722 2 0.6241255822972791 0.57499999999943696 2 0.57500000000055196 0.3341666666668387 2 0.3341666666664192 0.62596376811713206 2 0.26340755208327649 0.37819010083105031 1.488109359197332 0.37639255045733749 0 1.685972222222293 0.31402777777767188 0.3341666666668387 2 0.3341666666664192 0 1.740620225694506 0.62193599033743363 0.37819010083105031 1.488109359197332 0.37639255045733749 0.3341666666668387 2 0.3341666666664192 0.57499999999943696 2 0.57500000000055196 0.26500093005947722 2 0.6241255822972791 0.37819010083105031 1.488109359197332 0.37639255045733749 0 1.740620225694506 0.62193599033743363 0.3341666666668387 2 0.3341666666664192 0.26500093005947722 2 0.6241255822972791 0.37819010083105031 1.488109359197332 0.37639255045733749 0.62596376811713206 2 0.26340755208327649 0.3341666666668387 2 0.3341666666664192 0.33416666666678929 1.6658333333334849 0 0.37819010083105031 1.488109359197332 0.37639255045733749 0 1.685972222222293 0.31402777777767188 0 2 0 0 2 0.39999999999911567 0.3341666666668387 2 0.3341666666664192 0.62596376811718013 1.7365924479167429 0 0.62596376811713206 2 0.26340755208327649 0.33416666666678929 1.6658333333334849 0 0.37819010083105031 1.488109359197332 0.37639255045733749 0.3341666666668387 2 0.3341666666664192 0 2 0.39999999999911567 0 1.740620225694506 0.62193599033743363 0.26500093005947722 2 0.6241255822972791 0 1.685972222222293 0.31402777777767188 0.33416666666678929 1.6658333333334849 0 0.3341666666668387 2 0.3341666666664192 0.37819010083105031 1.488109359197332 0.37639255045733749 0 2 0.39999999999911567 0 1.685972222222293 0.31402777777767188 0.3341666666668387 2 0.3341666666664192 0 1.740620225694506 0.62193599033743363 0 2 0 0 1.685972222222293 0.31402777777767188 0.33416666666678929 1.6658333333334849 0 0.3341666666668387 2 0.3341666666664192 0 1.3863248792278431 0.25937977430558068 0.26500093005965231 1.375874417702696 0 0 1.6000000000000001 0 0.33416666666678929 1.6658333333334849 0 0 1.6000000000000001 0 0 2 0 0 1.685972222222293 0.31402777777767188 0.33416666666678929 1.6658333333334849 0 0 1.685972222222293 0.31402777777767188 0 1.3863248792278431 0.25937977430558068 0.33416666666678929 1.6658333333334849 0 0.37819010083105031 1.488109359197332 0.37639255045733749 0 1.3863248792278431 0.25937977430558068 0 1.6000000000000001 0 0 1.685972222222293 0.31402777777767188 0.33416666666678929 1.6658333333334849 0 0 1.685972222222293 0.31402777777767188 0 1.740620225694506 0.62193599033743363 0 1.4250000000002421 0.57500000000014528 0.37819010083105031 1.488109359197332 0.37639255045733749 0.62596376811718013 1.7365924479167429 0 0.33416666666678929 1.6658333333334849 0 0.57499999999972717 1.4249999999995451 0 0.37819010083105031 1.488109359197332 0.37639255045733749 0.33416666666678929 1.6658333333334849 0 0.62596376811713206 2 0.26340755208327649 0.40000000000166441 2 0 0.3341666666668387 2 0.3341666666664192 0.33416666666678929 1.6658333333334849 0 0 2 0 0.3341666666668387 2 0.3341666666664192 0.40000000000166441 2 0 0.62596376811713206 2 0.26340755208327649 0.33416666666678929 1.6658333333334849 0 0.40000000000166441 2 0 0.62596376811718013 1.7365924479167429 0 0.62596376811718013 1.7365924479167429 0 0.57499999999972717 1.4249999999995451 0 0.92204894738342102 1.545944433704725 0.55253256161165365 0.37819010083105031 1.488109359197332 0.37639255045733749 0.57499999999943696 2 0.57500000000055196 0.62596376811713206 2 0.26340755208327649 0.92204894738342102 1.545944433704725 0.55253256161165365 0.37819010083105031 1.488109359197332 0.37639255045733749 0.62596376811718013 1.7365924479167429 0 0.92204894738342102 1.545944433704725 0.55253256161165365 0.62596376811713206 2 0.26340755208327649 0.37819010083105031 1.488109359197332 0.37639255045733749 0.62596376811718013 1.7365924479167429 0 1.020652173914391 2 0.4078710937494115 0.62596376811713206 2 0.26340755208327649 0.92204894738342102 1.545944433704725 0.55253256161165365 0.62596376811718013 1.7365924479167429 0 1.0206521739143919 1.592128906250684 0 1.020652173914391 2 0.4078710937494115 0.92204894738342102 1.545944433704725 0.55253256161165365 0.62596376811718013 1.7365924479167429 0 0.57499999999972717 1.4249999999995451 0 1.0206521739143919 1.592128906250684 0 0.92204894738342102 1.545944433704725 0.55253256161165365 0.80000000000332872 2 0 0.62596376811718013 1.7365924479167429 0 0.62596376811713206 2 0.26340755208327649 0.40000000000166441 2 0 0.80000000000332872 2 0 0.62596376811718013 1.7365924479167429 0 1.0206521739143919 1.592128906250684 0 1.020652173914391 2 0.4078710937494115 0.62596376811718013 1.7365924479167429 0 0.80000000000332872 2 0 0.62596376811713206 2 0.26340755208327649 1.020652173914391 2 0.4078710937494115 0.57499999999943696 2 0.57500000000055196 0.62596376811713206 2 0.26340755208327649 1.020652173914391 2 0.4078710937494115 0.92204894738342102 1.545944433704725 0.55253256161165365 0.57499999999943696 2 0.57500000000055196 0.92204894738342102 1.545944433704725 0.55253256161165365 0.84920286521341182 2 0.76599646645041963 0.41010551790091843 1.5854304871968741 0.7721068750782103 0.57499999999943696 2 0.57500000000055196 1.020652173914391 2 0.4078710937494115 0.84920286521341182 2 0.76599646645041963 0.92204894738342102 1.545944433704725 0.55253256161165365 0.57499999999943696 2 0.57500000000055196 0.92204894738342102 1.545944433704725 0.55253256161165365 0.41010551790091843 1.5854304871968741 0.7721068750782103 0.37819010083105031 1.488109359197332 0.37639255045733749 0.84920286521341182 2 0.76599646645041963 0.92204894738342102 1.545944433704725 0.55253256161165365 0.86620738987133672 1.5000000000001401 1.0337672479303861 0.41010551790091843 1.5854304871968741 0.7721068750782103 0.84920286521341182 2 0.76599646645041963 0.86620738987133672 1.5000000000001401 1.0337672479303861 0.73668669749101645 2 1.139311376982779 0.41010551790091843 1.5854304871968741 0.7721068750782103 0.84920286521341182 2 0.76599646645041963 0.73668669749101645 2 1.139311376982779 0.40787109375045588 2 0.9793478260856453 0.41010551790091843 1.5854304871968741 0.7721068750782103 0.40787109375045588 2 0.9793478260856453 0.57499999999943696 2 0.57500000000055196 0.84920286521341182 2 0.76599646645041963 0.41010551790091843 1.5854304871968741 0.7721068750782103 0.84920286521341182 2 0.76599646645041963 1.000000000000635 2 0.99999999999835598 0.73668669749101645 2 1.139311376982779 0.86620738987133672 1.5000000000001401 1.0337672479303861 0.84920286521341182 2 0.76599646645041963 1.000000000000635 2 0.99999999999835598 0.86620738987133672 1.5000000000001401 1.0337672479303861 0.92204894738342102 1.545944433704725 0.55253256161165365 1 0.99999999999999978 0.99999999999999978 0.86620738987133672 1.5000000000001401 1.0337672479303861 0.58179751944592217 1.199262271083781 0.58179751944619096 0.48528811404415773 0.99061345538166756 1.009386544617999 0.58179751944592217 1.199262271083781 0.58179751944619096 0.41010551790091843 1.5854304871968741 0.7721068750782103 0.92204894738342102 1.545944433704725 0.55253256161165365 0.37819010083105031 1.488109359197332 0.37639255045733749 1 0.99999999999999978 0.99999999999999978 0.58179751944592217 1.199262271083781 0.58179751944619096 0.86620738987133672 1.5000000000001401 1.0337672479303861 0.92204894738342102 1.545944433704725 0.55253256161165365 0.86620738987133672 1.5000000000001401 1.0337672479303861 0.92204894738342102 1.545944433704725 0.55253256161165365 0.58179751944592217 1.199262271083781 0.58179751944619096 0.41010551790091843 1.5854304871968741 0.7721068750782103 1 0.99999999999999978 0.99999999999999978 1.0362039003897969 1.032400726930619 0.49025282767413908 0.58179751944592217 1.199262271083781 0.58179751944619096 0.92204894738342102 1.545944433704725 0.55253256161165365 0.58179751944592217 1.199262271083781 0.58179751944619096 0.48528811404415773 0.99061345538166756 1.009386544617999 0.86620738987133672 1.5000000000001401 1.0337672479303861 0.41010551790091843 1.5854304871968741 0.7721068750782103 0.57499999999972717 1.4249999999995451 0 0.58179751944592217 1.199262271083781 0.58179751944619096 0.86206805663365538 1.262904615478279 0 0.92204894738342102 1.545944433704725 0.55253256161165365 0.86206805663365538 1.262904615478279 0 0.58179751944592217 1.199262271083781 0.58179751944619096 0.73668669749125271 0.86068862301695703 0 1.0362039003897969 1.032400726930619 0.49025282767413908 0.58179751944592217 1.199262271083781 0.58179751944619096 0.92204894738342102 1.545944433704725 0.55253256161165365 0.57499999999972717 1.4249999999995451 0 0.37819010083105031 1.488109359197332 0.37639255045733749 0.40787109375061498 1.0206521739145791 0 0.86206805663365538 1.262904615478279 0 0.57499999999972717 1.4249999999995451 0 0.58179751944592217 1.199262271083781 0.58179751944619096 0.57499999999972717 1.4249999999995451 0 0.86206805663365538 1.262904615478279 0 1.0206521739143919 1.592128906250684 0 0.92204894738342102 1.545944433704725 0.55253256161165365 0.40787109375061498 1.0206521739145791 0 0.73668669749125271 0.86068862301695703 0 0.86206805663365538 1.262904615478279 0 0.58179751944592217 1.199262271083781 0.58179751944619096 0.86206805663365538 1.262904615478279 0 0.58179751944592217 1.199262271083781 0.58179751944619096 1.0362039003897969 1.032400726930619 0.49025282767413908 0.92204894738342102 1.545944433704725 0.55253256161165365 0.86206805663365538 1.262904615478279 0 0.73668669749125271 0.86068862301695703 0 1.0000000000013569 1.0000000000020031 0 1.0362039003897969 1.032400726930619 0.49025282767413908 1.2339059149979039 1.1508473222113209 0 1.592128906250452 0.97934782608882909 0 1.367905405405516 1.367905405405516 0.63209459459450335 1.5147705253128161 0.91852444755677043 0.69631892236242632 1.2339059149979039 1.1508473222113209 0 1.0362039003897969 1.032400726930619 0.49025282767413908 1.367905405405516 1.367905405405516 0.63209459459450335 0.92204894738342102 1.545944433704725 0.55253256161165365 0.86206805663365538 1.262904615478279 0 1.0000000000013569 1.0000000000020031 0 1.2339059149979039 1.1508473222113209 0 1.0362039003897969 1.032400726930619 0.49025282767413908 1.2339059149979039 1.1508473222113209 0 1.367905405405516 1.367905405405516 0.63209459459450335 1.0206521739143919 1.592128906250684 0 0.92204894738342102 1.545944433704725 0.55253256161165365 1.2339059149979039 1.1508473222113209 0 1.367905405405516 1.367905405405516 0.63209459459450335 1.0362039003897969 1.032400726930619 0.49025282767413908 1.5147705253128161 0.91852444755677043 0.69631892236242632 1.0206521739143919 1.592128906250684 0 1.2339059149979039 1.1508473222113209 0 1.425000000001621 1.425000000001621 0 1.367905405405516 1.367905405405516 0.63209459459450335 0.86206805663365538 1.262904615478279 0 1.2339059149979039 1.1508473222113209 0 1.0206521739143919 1.592128906250684 0 0.92204894738342102 1.545944433704725 0.55253256161165365 1.2339059149979039 1.1508473222113209 0 1.592128906250452 0.97934782608882909 0 1.425000000001621 1.425000000001621 0 1.367905405405516 1.367905405405516 0.63209459459450335 0.86206805663365538 1.262904615478279 0 1.0362039003897969 1.032400726930619 0.49025282767413908 1.2339059149979039 1.1508473222113209 0 0.92204894738342102 1.545944433704725 0.55253256161165365 1.367905405405516 1.367905405405516 0.63209459459450335 1.500000000000274 0.99883321436442229 1.16639307242336 1 0.99999999999999978 0.99999999999999978 1.5147705253128161 0.91852444755677043 0.69631892236242632 1.500000000000274 0.99883321436442229 1.16639307242336 1.5147705253128161 0.91852444755677043 0.69631892236242632 1.367905405405516 1.367905405405516 0.63209459459450335 1.532347752213032 1.4746298915713509 1.076108883276101 1.367905405405516 1.367905405405516 0.63209459459450335 0.86620738987133672 1.5000000000001401 1.0337672479303861 1 0.99999999999999978 0.99999999999999978 1.532347752213032 1.4746298915713509 1.076108883276101 1 0.99999999999999978 0.99999999999999978 0.86620738987133672 1.5000000000001401 1.0337672479303861 1.367905405405516 1.367905405405516 0.63209459459450335 0.92204894738342102 1.545944433704725 0.55253256161165365 1 0.99999999999999978 0.99999999999999978 1.367905405405516 1.367905405405516 0.63209459459450335 1.0362039003897969 1.032400726930619 0.49025282767413908 0.92204894738342102 1.545944433704725 0.55253256161165365 1 0.99999999999999978 0.99999999999999978 1.500000000000274 0.99883321436442229 1.16639307242336 1.367905405405516 1.367905405405516 0.63209459459450335 1.532347752213032 1.4746298915713509 1.076108883276101 1.367905405405516 1.367905405405516 0.63209459459450335 1 0.99999999999999978 0.99999999999999978 1.0362039003897969 1.032400726930619 0.49025282767413908 1.5147705253128161 0.91852444755677043 0.69631892236242632 1.2345896428056129 2 0.84641423559720264 0.86620738987133672 1.5000000000001401 1.0337672479303861 1.367905405405516 1.367905405405516 0.63209459459450335 1.532347752213032 1.4746298915713509 1.076108883276101 1.367905405405516 1.367905405405516 0.63209459459450335 0.86620738987133672 1.5000000000001401 1.0337672479303861 1.2345896428056129 2 0.84641423559720264 0.92204894738342102 1.545944433704725 0.55253256161165365 1.425000000001911 2 0.5749999999984764 1.2345896428056129 2 0.84641423559720264 1.020652173914391 2 0.4078710937494115 0.92204894738342102 1.545944433704725 0.55253256161165365 1.425000000001911 2 0.5749999999984764 1.367905405405516 1.367905405405516 0.63209459459450335 1.2345896428056129 2 0.84641423559720264 0.92204894738342102 1.545944433704725 0.55253256161165365 1.2345896428056129 2 0.84641423559720264 1.367905405405516 1.367905405405516 0.63209459459450335 1.425000000001911 2 0.5749999999984764 1.532347752213032 1.4746298915713509 1.076108883276101 1.425000000001911 2 0.5749999999984764 1.3863248792284211 2 0.25937977430496501 1.367905405405516 1.367905405405516 0.63209459459450335 0.92204894738342102 1.545944433704725 0.55253256161165365 1.5921289062505879 2 1.0206521739114489 1.2345896428056129 2 0.84641423559720264 1.425000000001911 2 0.5749999999984764 1.532347752213032 1.4746298915713509 1.076108883276101 1.2345896428056129 2 0.84641423559720264 0.86620738987133672 1.5000000000001401 1.0337672479303861 1.000000000000635 2 0.99999999999835598 0.92204894738342102 1.545944433704725 0.55253256161165365 0.84920286521341182 2 0.76599646645041963 1.2345896428056129 2 0.84641423559720264 1.000000000000635 2 0.99999999999835598 0.92204894738342102 1.545944433704725 0.55253256161165365 0.84920286521341182 2 0.76599646645041963 1.020652173914391 2 0.4078710937494115 1.2345896428056129 2 0.84641423559720264 0.92204894738342102 1.545944433704725 0.55253256161165365 1.671075651349931 1.671075651349931 0 1.383345565053743 1.737640911520447 0 1.425000000001621 1.425000000001621 0 1.367905405405516 1.367905405405516 0.63209459459450335 1.425000000001911 2 0.5749999999984764 1.3863248792284211 2 0.25937977430496501 1.685972222223028 2 0.31402777777693691 1.367905405405516 1.367905405405516 0.63209459459450335 1.383345565053743 1.737640911520447 0 1.3863248792284211 2 0.25937977430496501 1.020652173914391 2 0.4078710937494115 0.92204894738342102 1.545944433704725 0.55253256161165365 1.0206521739143919 1.592128906250684 0 1.367905405405516 1.367905405405516 0.63209459459450335 1.383345565053743 1.737640911520447 0 0.92204894738342102 1.545944433704725 0.55253256161165365 1.0206521739143919 1.592128906250684 0 1.425000000001621 1.425000000001621 0 1.383345565053743 1.737640911520447 0 1.367905405405516 1.367905405405516 0.63209459459450335 1.425000000001911 2 0.5749999999984764 1.020652173914391 2 0.4078710937494115 1.3863248792284211 2 0.25937977430496501 0.92204894738342102 1.545944433704725 0.55253256161165365 1.0206521739143919 1.592128906250684 0 1.383345565053743 1.737640911520447 0 1.020652173914391 2 0.4078710937494115 0.92204894738342102 1.545944433704725 0.55253256161165365 1.383345565053743 1.737640911520447 0 1.367905405405516 1.367905405405516 0.63209459459450335 1.3863248792284211 2 0.25937977430496501 0.92204894738342102 1.545944433704725 0.55253256161165365 1.671075651349931 1.671075651349931 0 1.3863248792284211 2 0.25937977430496501 1.383345565053743 1.737640911520447 0 1.367905405405516 1.367905405405516 0.63209459459450335 0.80000000000332872 2 0 1.0206521739143919 1.592128906250684 0 1.200000000002774 2 0 1.020652173914391 2 0.4078710937494115 1.200000000002774 2 0 1.0206521739143919 1.592128906250684 0 1.383345565053743 1.737640911520447 0 1.020652173914391 2 0.4078710937494115 1.200000000002774 2 0 1.383345565053743 1.737640911520447 0 1.3863248792284211 2 0.25937977430496501 1.020652173914391 2 0.4078710937494115 1.6000000000000001 2 0 1.200000000002774 2 0 1.383345565053743 1.737640911520447 0 1.3863248792284211 2 0.25937977430496501 2 1.685972222223028 0.31402777777693691 1.740620225695106 2 0.62193599033678559 1.685972222223028 2 0.31402777777693691 1.367905405405516 1.367905405405516 0.63209459459450335 2 1.685972222223028 0.31402777777693691 1.671075651349931 1.671075651349931 0 2 1.3863248792284211 0.25937977430496489 1.367905405405516 1.367905405405516 0.63209459459450335 2 1.685972222223028 0.31402777777693691 1.685972222223028 2 0.31402777777693691 1.671075651349931 1.671075651349931 0 1.367905405405516 1.367905405405516 0.63209459459450335 1.671075651349931 1.671075651349931 0 1.685972222223028 2 0.31402777777693691 1.3863248792284211 2 0.25937977430496501 1.367905405405516 1.367905405405516 0.63209459459450335 1.671075651349931 1.671075651349931 0 1.6000000000000001 2 0 1.383345565053743 1.737640911520447 0 1.3863248792284211 2 0.25937977430496501 1.6000000000000001 2 0 1.671075651349931 1.671075651349931 0 1.685972222223028 2 0.31402777777693691 1.3863248792284211 2 0.25937977430496501 1.671075651349931 1.671075651349931 0 2 2 0 1.6000000000000001 2 0 1.685972222223028 2 0.31402777777693691 1.671075651349931 1.671075651349931 0 2 1.6000000000000001 0 2 1.3863248792284211 0.25937977430496489 1.737640911520401 1.3750846954886311 0 2 1.685972222223028 0.31402777777693691 2 2 0 2 1.6000000000000001 0 1.671075651349931 1.671075651349931 0 2 1.6000000000000001 0 2 1.685972222223028 0.31402777777693691 1.671075651349931 1.671075651349931 0 2 1.3863248792284211 0.25937977430496489 2 1.685972222223028 0.31402777777693691 2 2 0 1.671075651349931 1.671075651349931 0 1.685972222223028 2 0.31402777777693691 1.740620225695106 2 0.62193599033678559 2 1.685972222223028 0.31402777777693691 2 2 0.39999999999911567 2 1.740620225695106 0.62193599033678559 2 2 0 2 1.685972222223028 0.31402777777693691 2 2 0.39999999999911567 1.685972222223028 2 0.31402777777693691 2 1.685972222223028 0.31402777777693691 1.740620225695106 2 0.62193599033678559 2 2 0.39999999999911567 1.685972222223028 2 0.31402777777693691 1.425000000001911 2 0.5749999999984764 1.740620225695106 2 0.62193599033678559 1.5921289062505879 2 1.0206521739114489 1.532347752213032 1.4746298915713509 1.076108883276101 2 2 0.7999999999979498 2 1.740620225695106 0.62193599033678559 1.740620225695106 2 0.62193599033678559 2 2 0.39999999999911567 1.740620225695106 2 0.62193599033678559 1.367905405405516 1.367905405405516 0.63209459459450335 2 1.740620225695106 0.62193599033678559 1.532347752213032 1.4746298915713509 1.076108883276101 2 1.425000000001911 0.57499999999847629 2 1.740620225695106 0.62193599033678559 1.367905405405516 1.367905405405516 0.63209459459450335 1.532347752213032 1.4746298915713509 1.076108883276101 2 1.592128906250589 1.0206521739114489 1.740620225695106 2 0.62193599033678559 2 1.740620225695106 0.62193599033678559 1.532347752213032 1.4746298915713509 1.076108883276101 2 1.425000000001911 0.57499999999847629 2 1.592128906250589 1.0206521739114489 2 1.740620225695106 0.62193599033678559 1.532347752213032 1.4746298915713509 1.076108883276101 1.425000000001911 2 0.5749999999984764 1.367905405405516 1.367905405405516 0.63209459459450335 1.740620225695106 2 0.62193599033678559 1.532347752213032 1.4746298915713509 1.076108883276101 1.425000000001911 2 0.5749999999984764 1.685972222223028 2 0.31402777777693691 1.740620225695106 2 0.62193599033678559 1.367905405405516 1.367905405405516 0.63209459459450335 1.5921289062505879 2 1.0206521739114489 1.740620225695106 2 0.62193599033678559 2 1.592128906250589 1.0206521739114489 1.532347752213032 1.4746298915713509 1.076108883276101 2 1.685972222223028 0.31402777777693691 2 1.425000000001911 0.57499999999847629 2 1.740620225695106 0.62193599033678559 1.367905405405516 1.367905405405516 0.63209459459450335 2 1.685972222223028 0.31402777777693691 2 1.740620225695106 0.62193599033678559 1.740620225695106 2 0.62193599033678559 1.367905405405516 1.367905405405516 0.63209459459450335 2 1.592128906250589 1.0206521739114489 1.5921289062505879 2 1.0206521739114489 2 2 0.7999999999979498 1.740620225695106 2 0.62193599033678559 2 1.592128906250589 1.0206521739114489 2 2 0.7999999999979498 2 1.740620225695106 0.62193599033678559 1.740620225695106 2 0.62193599033678559 2 1.2345896428056129 0.84641423559720252 1.367905405405516 1.367905405405516 0.63209459459450335 1.5147705253128161 0.91852444755677043 0.69631892236242632 1.532347752213032 1.4746298915713509 1.076108883276101 2 1.2345896428056129 0.84641423559720252 1.5147705253128161 0.91852444755677043 0.69631892236242632 1.500000000000274 0.99883321436442229 1.16639307242336 1.532347752213032 1.4746298915713509 1.076108883276101 2 1.425000000001911 0.57499999999847629 1.367905405405516 1.367905405405516 0.63209459459450335 2 1.2345896428056129 0.84641423559720252 1.532347752213032 1.4746298915713509 1.076108883276101 2 1.425000000001911 0.57499999999847629 2 1.020652173914391 0.40787109374941138 2 1.2345896428056129 0.84641423559720252 1.5147705253128161 0.91852444755677043 0.69631892236242632 2 1.592128906250589 1.0206521739114489 2 1.425000000001911 0.57499999999847629 2 1.2345896428056129 0.84641423559720252 1.532347752213032 1.4746298915713509 1.076108883276101 2 1.425000000001911 0.57499999999847629 2 1.2345896428056129 0.84641423559720252 1.367905405405516 1.367905405405516 0.63209459459450335 1.5147705253128161 0.91852444755677043 0.69631892236242632 2 1.425000000001911 0.57499999999847629 1.367905405405516 1.367905405405516 0.63209459459450335 2 1.020652173914391 0.40787109374941138 1.5147705253128161 0.91852444755677043 0.69631892236242632 2 1.2345896428056129 0.84641423559720252 2 0.84920286521341182 0.76599646645041952 2 1.000000000000635 0.99999999999835576 1.5147705253128161 0.91852444755677043 0.69631892236242632 2 1.2345896428056129 0.84641423559720252 2 1.000000000000635 0.99999999999835576 1.500000000000274 0.99883321436442229 1.16639307242336 1.5147705253128161 0.91852444755677043 0.69631892236242632 2 1.2345896428056129 0.84641423559720252 2 1.020652173914391 0.40787109374941138 2 0.84920286521341182 0.76599646645041952 1.5147705253128161 0.91852444755677043 0.69631892236242632 2 1.020652173914391 0.40787109374941138 2 1.3863248792284211 0.25937977430496489 1.737640911520401 1.3750846954886311 0 1.367905405405516 1.367905405405516 0.63209459459450335 2 1.020652173914391 0.40787109374941138 2 1.425000000001911 0.57499999999847629 2 1.3863248792284211 0.25937977430496489 1.367905405405516 1.367905405405516 0.63209459459450335 1.425000000001621 1.425000000001621 0 1.592128906250452 0.97934782608882909 0 1.737640911520401 1.3750846954886311 0 1.367905405405516 1.367905405405516 0.63209459459450335 1.425000000001621 1.425000000001621 0 1.737640911520401 1.3750846954886311 0 1.671075651349931 1.671075651349931 0 1.367905405405516 1.367905405405516 0.63209459459450335 2 1.685972222223028 0.31402777777693691 2 1.3863248792284211 0.25937977430496489 2 1.425000000001911 0.57499999999847629 1.367905405405516 1.367905405405516 0.63209459459450335 1.671075651349931 1.671075651349931 0 1.737640911520401 1.3750846954886311 0 2 1.3863248792284211 0.25937977430496489 1.367905405405516 1.367905405405516 0.63209459459450335 2 1.020652173914391 0.40787109374941138 1.367905405405516 1.367905405405516 0.63209459459450335 1.592128906250452 0.97934782608882909 0 1.5147705253128161 0.91852444755677043 0.69631892236242632 2 1.020652173914391 0.40787109374941138 1.737640911520401 1.3750846954886311 0 1.592128906250452 0.97934782608882909 0 1.367905405405516 1.367905405405516 0.63209459459450335 2 1.3863248792284211 0.25937977430496489 2 1.6000000000000001 0 2 1.200000000002774 0 1.737640911520401 1.3750846954886311 0 2 1.020652173914391 0.40787109374941138 2 1.200000000002774 0 2 0.80000000000332872 0 1.592128906250452 0.97934782608882909 0 2 1.020652173914391 0.40787109374941138 2 1.3863248792284211 0.25937977430496489 2 1.200000000002774 0 1.737640911520401 1.3750846954886311 0 2 1.200000000002774 0 2 1.020652173914391 0.40787109374941138 1.737640911520401 1.3750846954886311 0 1.592128906250452 0.97934782608882909 0 2 1.020652173914391 0.40787109374941138 1.5147705253128161 0.91852444755677043 0.69631892236242632 1.592128906250452 0.97934782608882909 0 1.5919037892070651 0.60245787335453693 0.40912424902564543 2 1.020652173914391 0.40787109374941138 2 0.80000000000332872 0 2 0.62596376811713206 0.26340755208327649 1.592128906250452 0.97934782608882909 0 2 0.80000000000332872 0 1.7349990699406379 0.62412558229936677 0 2 0.62596376811713206 0.26340755208327649 1.592128906250452 0.97934782608882909 0 2 0.62596376811713206 0.26340755208327649 2 1.020652173914391 0.40787109374941138 1.592128906250452 0.97934782608882909 0 1.5919037892070651 0.60245787335453693 0.40912424902564543 2 0.62596376811713206 0.26340755208327649 2 0.57499999999943696 0.57500000000055196 2 1.020652173914391 0.40787109374941138 1.5919037892070651 0.60245787335453693 0.40912424902564543 2 0.62596376811713206 0.26340755208327649 2 0.3341666666668387 0.3341666666664192 2 0.57499999999943696 0.57500000000055196 1.5919037892070651 0.60245787335453693 0.40912424902564543 1.7349990699406379 0.62412558229936677 0 2 0.3341666666668387 0.3341666666664192 2 0.62596376811713206 0.26340755208327649 1.5919037892070651 0.60245787335453693 0.40912424902564543 1.592128906250452 0.97934782608882909 0 1.424999999999718 0.57500000000001494 0 1.7349990699406379 0.62412558229936677 0 1.5919037892070651 0.60245787335453693 0.40912424902564543 1.7349990699406379 0.62412558229936677 0 2 0.62596376811713206 0.26340755208327649 1.592128906250452 0.97934782608882909 0 1.5919037892070651 0.60245787335453693 0.40912424902564543 1.424999999999718 0.57500000000001494 0 1.665833333333407 0.33416666666669298 0 1.7349990699406379 0.62412558229936677 0 1.5919037892070651 0.60245787335453693 0.40912424902564543 1.7349990699406379 0.62412558229936677 0 2 0.80000000000332872 0 2 0.62596376811713206 0.26340755208327649 2 0.40000000000166441 0 2 0.3341666666668387 0.3341666666664192 1.665833333333216 0 0.33416666666646572 2 0.26500093005947722 0.62412558229727921 1.5919037892070651 0.60245787335453693 0.40912424902564543 1.665833333333407 0.33416666666669298 0 1.3758744177011391 0 0.26500093005953979 1.665833333333216 0 0.33416666666646572 1.5919037892070651 0.60245787335453693 0.40912424902564543 2 0.3341666666668387 0.3341666666664192 2 0 0 1.665833333333407 0.33416666666669298 0 2 0.40000000000166441 0 1.425000000000477 0 0.57500000000037066 1.7365924479167549 0 0.62596376811523924 1.665833333333216 0 0.33416666666646572 1.5919037892070651 0.60245787335453693 0.40912424902564543 1.374036231883393 0.26340755208345812 0 1.3758744177011391 0 0.26500093005953979 1.665833333333407 0.33416666666669298 0 1.5919037892070651 0.60245787335453693 0.40912424902564543 1.7349990699406379 0.62412558229936677 0 2 0.3341666666668387 0.3341666666664192 1.665833333333407 0.33416666666669298 0 2 0.40000000000166441 0 2 0.3341666666668387 0.3341666666664192 1.665833333333407 0.33416666666669298 0 1.665833333333216 0 0.33416666666646572 1.5919037892070651 0.60245787335453693 0.40912424902564543 1.425000000000477 0 0.57500000000037066 1.665833333333216 0 0.33416666666646572 1.3758744177011391 0 0.26500093005953979 1.5919037892070651 0.60245787335453693 0.40912424902564543 2 0.26500093005947722 0.62412558229727921 1.665833333333216 0 0.33416666666646572 1.7365924479167549 0 0.62596376811523924 1.5919037892070651 0.60245787335453693 0.40912424902564543 1.7349990699406379 0.62412558229936677 0 2 0.62596376811713206 0.26340755208327649 2 0.3341666666668387 0.3341666666664192 2 0.40000000000166441 0 2 0.3341666666668387 0.3341666666664192 2 0.26500093005947722 0.62412558229727921 2 0.57499999999943696 0.57500000000055196 1.5919037892070651 0.60245787335453693 0.40912424902564543 2 0.26500093005947722 0.62412558229727921 2 0 0.39999999999911567 1.7365924479167549 0 0.62596376811523924 1.665833333333216 0 0.33416666666646572 2 0 0.39999999999911567 2 0.3341666666668387 0.3341666666664192 2 0 0 1.665833333333216 0 0.33416666666646572 2 0 0.39999999999911567 2 0.26500093005947722 0.62412558229727921 2 0.3341666666668387 0.3341666666664192 1.665833333333216 0 0.33416666666646572 2 0 0 2 0.3341666666668387 0.3341666666664192 1.665833333333407 0.33416666666669298 0 1.665833333333216 0 0.33416666666646572 1.3758744177011391 0 0.26500093005953979 1.374036231883393 0.26340755208345812 0 1.665833333333407 0.33416666666669298 0 1.5999999999989469 0 0 1.665833333333407 0.33416666666669298 0 2 0 0 1.665833333333216 0 0.33416666666646572 1.5999999999989469 0 0 1.3758744177011391 0 0.26500093005953979 1.665833333333407 0.33416666666669298 0 1.665833333333216 0 0.33416666666646572 1.5999999999989469 0 0 1.374036231883393 0.26340755208345812 0 1.665833333333407 0.33416666666669298 0 1.424999999999718 0.57500000000001494 0 1.5919037892070651 0.60245787335453693 0.40912424902564543 1.7349990699406379 0.62412558229936677 0 1.665833333333407 0.33416666666669298 0 2 0.3341666666668387 0.3341666666664192 1.5919037892070651 0.60245787335453693 0.40912424902564543 1.374036231883393 0.26340755208345812 0 1.19811642196055 0.57789440443542173 0.58983547034755146 1.3758744177011391 0 0.26500093005953979 1.5919037892070651 0.60245787335453693 0.40912424902564543 1.374036231883393 0.26340755208345812 0 1.0206521739124059 0 0.40787109374997071 1.3758744177011391 0 0.26500093005953979 1.19811642196055 0.57789440443542173 0.58983547034755146 1.424999999999718 0.57500000000001494 0 0.97934782608699855 0.40787109375058261 0 1.374036231883393 0.26340755208345812 0 1.19811642196055 0.57789440443542173 0.58983547034755146 1.425000000000477 0 0.57500000000037066 1.3758744177011391 0 0.26500093005953979 1.19811642196055 0.57789440443542173 0.58983547034755146 1.5919037892070651 0.60245787335453693 0.40912424902564543 0.97934782608699855 0.40787109375058261 0 1.0206521739124059 0 0.40787109374997071 1.374036231883393 0.26340755208345812 0 1.19811642196055 0.57789440443542173 0.58983547034755146 1.3758744177011391 0 0.26500093005953979 1.0206521739124059 0 0.40787109374997071 1.425000000000477 0 0.57500000000037066 1.19811642196055 0.57789440443542173 0.58983547034755146 1.1999999999978941 0 0 1.374036231883393 0.26340755208345812 0 1.3758744177011391 0 0.26500093005953979 1.5999999999989469 0 0 0.97934782608699855 0.40787109375058261 0 1.1999999999978941 0 0 1.374036231883393 0.26340755208345812 0 1.0206521739124059 0 0.40787109374997071 1.374036231883393 0.26340755208345812 0 1.1999999999978941 0 0 1.3758744177011391 0 0.26500093005953979 1.0206521739124059 0 0.40787109374997071 1.151058336609301 0.76640924832138713 0 1.19811642196055 0.57789440443542173 0.58983547034755146 1.424999999999718 0.57500000000001494 0 1.5919037892070651 0.60245787335453693 0.40912424902564543 1.5147705253128161 0.91852444755677043 0.69631892236242632 1.5919037892070651 0.60245787335453693 0.40912424902564543 1.2339059149979039 1.1508473222113209 0 1.592128906250452 0.97934782608882909 0 1.151058336609301 0.76640924832138713 0 1.0362039003897969 1.032400726930619 0.49025282767413908 1.19811642196055 0.57789440443542173 0.58983547034755146 1.5919037892070651 0.60245787335453693 0.40912424902564543 1.151058336609301 0.76640924832138713 0 1.5919037892070651 0.60245787335453693 0.40912424902564543 1.2339059149979039 1.1508473222113209 0 1.0362039003897969 1.032400726930619 0.49025282767413908 1.5147705253128161 0.91852444755677043 0.69631892236242632 1.2339059149979039 1.1508473222113209 0 1.5919037892070651 0.60245787335453693 0.40912424902564543 1.0362039003897969 1.032400726930619 0.49025282767413908 1.151058336609301 0.76640924832138713 0 0.97934782608699855 0.40787109375058261 0 1.424999999999718 0.57500000000001494 0 1.19811642196055 0.57789440443542173 0.58983547034755146 1.151058336609301 0.76640924832138713 0 1.2339059149979039 1.1508473222113209 0 1.5919037892070651 0.60245787335453693 0.40912424902564543 1.592128906250452 0.97934782608882909 0 1.374036231883393 0.26340755208345812 0 1.424999999999718 0.57500000000001494 0 1.19811642196055 0.57789440443542173 0.58983547034755146 1.5919037892070651 0.60245787335453693 0.40912424902564543 1.151058336609301 0.76640924832138713 0 0.97934782608699855 0.40787109375058261 0 1.19811642196055 0.57789440443542173 0.58983547034755146 0.77789883252811276 0.39570480562063071 0.39543357482263919 1.151058336609301 0.76640924832138713 0 1.19811642196055 0.57789440443542173 0.58983547034755146 1.0362039003897969 1.032400726930619 0.49025282767413908 0.77789883252811276 0.39570480562063071 0.39543357482263919 1.151058336609301 0.76640924832138713 0 1.2339059149979039 1.1508473222113209 0 1.0000000000013569 1.0000000000020031 0 1.0362039003897969 1.032400726930619 0.49025282767413908 1.151058336609301 0.76640924832138713 0 1.424999999999718 0.57500000000001494 0 1.592128906250452 0.97934782608882909 0 1.5919037892070651 0.60245787335453693 0.40912424902564543 1.19811642196055 0.57789440443542173 0.58983547034755146 1 0.99999999999999978 0.99999999999999978 0.98528458949709452 0.48395451161029718 1.014715410503322 1.5137040598352169 0.53344955263790295 0.97801656337898046 1.0362039003897969 1.032400726930619 0.49025282767413908 1.5147705253128161 0.91852444755677043 0.69631892236242632 1.19811642196055 0.57789440443542173 0.58983547034755146 1.5919037892070651 0.60245787335453693 0.40912424902564543 1.19811642196055 0.57789440443542173 0.58983547034755146 1 0.99999999999999978 0.99999999999999978 1.5137040598352169 0.53344955263790295 0.97801656337898046 1.5147705253128161 0.91852444755677043 0.69631892236242632 1.500000000000274 0.99883321436442229 1.16639307242336 1.5137040598352169 0.53344955263790295 0.97801656337898046 1 0.99999999999999978 0.99999999999999978 1.5147705253128161 0.91852444755677043 0.69631892236242632 1.19811642196055 0.57789440443542173 0.58983547034755146 1.5147705253128161 0.91852444755677043 0.69631892236242632 1.5137040598352169 0.53344955263790295 0.97801656337898046 1.5919037892070651 0.60245787335453693 0.40912424902564543 1.19811642196055 0.57789440443542173 0.58983547034755146 1.0362039003897969 1.032400726930619 0.49025282767413908 1 0.99999999999999978 0.99999999999999978 1.5147705253128161 0.91852444755677043 0.69631892236242632 1.0206521739124059 0 0.40787109374997071 1.2335907516799069 0 0.84894166339084287 1.425000000000477 0 0.57500000000037066 1.19811642196055 0.57789440443542173 0.58983547034755146 1.425000000000477 0 0.57500000000037066 1.19811642196055 0.57789440443542173 0.58983547034755146 1.2335907516799069 0 0.84894166339084287 1.5137040598352169 0.53344955263790295 0.97801656337898046 1.19811642196055 0.57789440443542173 0.58983547034755146 0.98528458949709452 0.48395451161029718 1.014715410503322 1.2335907516799069 0 0.84894166339084287 1.5137040598352169 0.53344955263790295 0.97801656337898046 1.425000000000477 0 0.57500000000037066 1.19811642196055 0.57789440443542173 0.58983547034755146 1.5137040598352169 0.53344955263790295 0.97801656337898046 1.5919037892070651 0.60245787335453693 0.40912424902564543 0.849152677791018 0 0.76609408500333809 1.2335907516799069 0 0.84894166339084287 1.19811642196055 0.57789440443542173 0.58983547034755146 0.98528458949709452 0.48395451161029718 1.014715410503322 0.849152677791018 0 0.76609408500333809 1.2335907516799069 0 0.84894166339084287 1.0206521739124059 0 0.40787109374997071 1.19811642196055 0.57789440443542173 0.58983547034755146 1.592128906250083 0 1.020652173912294 1.425000000000477 0 0.57500000000037066 1.2335907516799069 0 0.84894166339084287 1.5137040598352169 0.53344955263790295 0.97801656337898046 0.849152677791018 0 0.76609408500333809 1.0000000000002141 0 0.99999999999992895 1.2335907516799069 0 0.84894166339084287 0.98528458949709452 0.48395451161029718 1.014715410503322 1.425000000000477 0 0.57500000000037066 1.592128906250083 0 1.020652173912294 1.7365924479167549 0 0.62596376811523924 1.5137040598352169 0.53344955263790295 0.97801656337898046 1.425000000000477 0 0.57500000000037066 1.5137040598352169 0.53344955263790295 0.97801656337898046 1.7365924479167549 0 0.62596376811523924 1.5919037892070651 0.60245787335453693 0.40912424902564543 2 0.26500093005947722 0.62412558229727921 1.5137040598352169 0.53344955263790295 0.97801656337898046 2 0.57499999999943696 0.57500000000055196 1.5919037892070651 0.60245787335453693 0.40912424902564543 2 0.26500093005947722 0.62412558229727921 1.7365924479167549 0 0.62596376811523924 1.5137040598352169 0.53344955263790295 0.97801656337898046 1.5919037892070651 0.60245787335453693 0.40912424902564543 2 0.26500093005947722 0.62412558229727921 1.7365924479167549 0 0.62596376811523924 2 0.40787109375045588 0.9793478260856453 1.5137040598352169 0.53344955263790295 0.97801656337898046 1.592128906250083 0 1.020652173912294 2 0.40787109375045588 0.9793478260856453 1.7365924479167549 0 0.62596376811523924 1.5137040598352169 0.53344955263790295 0.97801656337898046 1.592128906250083 0 1.020652173912294 2 0 1.1999999999978941 2 0 0.7999999999979498 2 0.40787109375045588 0.9793478260856453 2 0.26500093005947722 0.62412558229727921 1.7365924479167549 0 0.62596376811523924 2 0 0.7999999999979498 2 0.40787109375045588 0.9793478260856453 1.7365924479167549 0 0.62596376811523924 1.592128906250083 0 1.020652173912294 2 0 0.7999999999979498 2 0.40787109375045588 0.9793478260856453 2 0 0.39999999999911567 2 0.26500093005947722 0.62412558229727921 1.7365924479167549 0 0.62596376811523924 2 0 0.7999999999979498 2 0.26500093005947722 0.62412558229727921 2 0.40787109375045588 0.9793478260856453 2 0.57499999999943696 0.57500000000055196 1.5137040598352169 0.53344955263790295 0.97801656337898046 1.5919037892070651 0.60245787335453693 0.40912424902564543 2 0.84920286521341182 0.76599646645041952 1.5137040598352169 0.53344955263790295 0.97801656337898046 2 0.57499999999943696 0.57500000000055196 2 0.57499999999943696 0.57500000000055196 2 0.40787109375045588 0.9793478260856453 2 0.84920286521341182 0.76599646645041952 1.5137040598352169 0.53344955263790295 0.97801656337898046 2 0.84920286521341182 0.76599646645041952 2 0.40787109375045588 0.9793478260856453 2 0.73668669749101645 1.139311376982779 1.5137040598352169 0.53344955263790295 0.97801656337898046 1.5919037892070651 0.60245787335453693 0.40912424902564543 1.5137040598352169 0.53344955263790295 0.97801656337898046 2 0.84920286521341182 0.76599646645041952 1.5147705253128161 0.91852444755677043 0.69631892236242632 2 1.020652173914391 0.40787109374941138 2 0.84920286521341182 0.76599646645041952 1.5147705253128161 0.91852444755677043 0.69631892236242632 1.5919037892070651 0.60245787335453693 0.40912424902564543 2 1.020652173914391 0.40787109374941138 2 0.57499999999943696 0.57500000000055196 2 0.84920286521341182 0.76599646645041952 1.5919037892070651 0.60245787335453693 0.40912424902564543 2 1.000000000000635 0.99999999999835576 1.5137040598352169 0.53344955263790295 0.97801656337898046 1.500000000000274 0.99883321436442229 1.16639307242336 1.5147705253128161 0.91852444755677043 0.69631892236242632 2 1.000000000000635 0.99999999999835576 2 0.84920286521341182 0.76599646645041952 1.5137040598352169 0.53344955263790295 0.97801656337898046 1.5147705253128161 0.91852444755677043 0.69631892236242632 2 0.73668669749101645 1.139311376982779 2 1.000000000000635 0.99999999999835576 2 0.84920286521341182 0.76599646645041952 1.5137040598352169 0.53344955263790295 0.97801656337898046 2 0.73668669749101645 1.139311376982779 1.500000000000274 0.99883321436442229 1.16639307242336 2 1.000000000000635 0.99999999999835576 1.5137040598352169 0.53344955263790295 0.97801656337898046 2 0.73668669749101645 1.139311376982779 2 1.1510583366092999 1.2335907516785649 2 1.000000000000635 0.99999999999835576 1.500000000000274 0.99883321436442229 1.16639307242336 2 0.97934782608697624 1.5921289062492749 1.416074976583422 1.0640336752305579 1.5993145461844129 1.500000000000274 0.99883321436442229 1.16639307242336 1.6049090527780649 0.68972037691419241 1.610520945894512 1.500000000000274 0.99883321436442229 1.16639307242336 2 0.73668669749101645 1.139311376982779 1.6049090527780649 0.68972037691419241 1.610520945894512 1.592055221591679 0.37998381655983821 1.346767458941071 1.500000000000274 0.99883321436442229 1.16639307242336 1.5137040598352169 0.53344955263790295 0.97801656337898046 2 0.73668669749101645 1.139311376982779 1.592055221591679 0.37998381655983821 1.346767458941071 2 0.73668669749101645 1.139311376982779 2 0.97934782608697624 1.5921289062492749 2 1.1510583366092999 1.2335907516785649 1.500000000000274 0.99883321436442229 1.16639307242336 2 0.97934782608697624 1.5921289062492749 1.500000000000274 0.99883321436442229 1.16639307242336 2 0.73668669749101645 1.139311376982779 1.6049090527780649 0.68972037691419241 1.610520945894512 2 0.57500000000210227 1.4249999999987459 1.6049090527780649 0.68972037691419241 1.610520945894512 2 0.73668669749101645 1.139311376982779 1.592055221591679 0.37998381655983821 1.346767458941071 2 0.57500000000210227 1.4249999999987459 2 0.97934782608697624 1.5921289062492749 2 0.73668669749101645 1.139311376982779 1.6049090527780649 0.68972037691419241 1.610520945894512 2 0.73668669749101645 1.139311376982779 1.5137040598352169 0.53344955263790295 0.97801656337898046 2 0.40787109375045588 0.9793478260856453 1.592055221591679 0.37998381655983821 1.346767458941071 2 0.73668669749101645 1.139311376982779 2 0.40787109375045588 0.9793478260856453 2 0.57500000000210227 1.4249999999987459 1.592055221591679 0.37998381655983821 1.346767458941071 1.592128906250083 0 1.020652173912294 2 0.40787109375045588 0.9793478260856453 1.5137040598352169 0.53344955263790295 0.97801656337898046 1.592055221591679 0.37998381655983821 1.346767458941071 2 0.26340755208402722 1.3740362318826671 2 0.40787109375045588 0.9793478260856453 2 0 1.1999999999978941 1.592055221591679 0.37998381655983821 1.346767458941071 2 0.57500000000210227 1.4249999999987459 2 0.26340755208402722 1.3740362318826671 2 0.33416666666757772 1.665833333332104 1.592055221591679 0.37998381655983821 1.346767458941071 2 0.57500000000210227 1.4249999999987459 2 0.40787109375045588 0.9793478260856453 2 0.26340755208402722 1.3740362318826671 1.592055221591679 0.37998381655983821 1.346767458941071 1.734999069940508 0 1.3758744177011299 2 0.33416666666757772 1.665833333332104 2 0.26340755208402722 1.3740362318826671 1.592055221591679 0.37998381655983821 1.346767458941071 2 0.26340755208402722 1.3740362318826671 1.734999069940508 0 1.3758744177011299 2 0 1.1999999999978941 2 0 1.5999999999989469 1.734999069940508 0 1.3758744177011299 2 0.26340755208402722 1.3740362318826671 2 0 1.1999999999978941 1.592055221591679 0.37998381655983821 1.346767458941071 1.592128906250083 0 1.020652173912294 2 0 1.1999999999978941 2 0.40787109375045588 0.9793478260856453 1.592055221591679 0.37998381655983821 1.346767458941071 1.734999069940508 0 1.3758744177011299 2 0 1.1999999999978941 1.592128906250083 0 1.020652173912294 1.592055221591679 0.37998381655983821 1.346767458941071 1.4249999999997249 0 1.425000000000185 1.734999069940508 0 1.3758744177011299 1.592128906250083 0 1.020652173912294 1.592055221591679 0.37998381655983821 1.346767458941071 1.4249999999997249 0 1.425000000000185 1.6658333333334381 0 1.665833333333264 1.734999069940508 0 1.3758744177011299 1.592055221591679 0.37998381655983821 1.346767458941071 1.4249999999997249 0 1.425000000000185 1.2526822839324241 0.59772980398008735 1.402270196020621 1.3740362318847941 0 1.736592447916669 1.592055221591679 0.37998381655983821 1.346767458941071 1.1393113769850489 0 1.263313302510394 1.5137040598352169 0.53344955263790295 0.97801656337898046 1.2526822839324241 0.59772980398008735 1.402270196020621 1.592055221591679 0.37998381655983821 1.346767458941071 1.592128906250083 0 1.020652173912294 1.5137040598352169 0.53344955263790295 0.97801656337898046 1.1393113769850489 0 1.263313302510394 1.592055221591679 0.37998381655983821 1.346767458941071 0.97934782608803661 0 1.5921289062498969 1.4249999999997249 0 1.425000000000185 1.1393113769850489 0 1.263313302510394 1.2526822839324241 0.59772980398008735 1.402270196020621 1.1393113769850489 0 1.263313302510394 1.2335907516799069 0 0.84894166339084287 0.98528458949709452 0.48395451161029718 1.014715410503322 1.5137040598352169 0.53344955263790295 0.97801656337898046 1.1393113769850489 0 1.263313302510394 0.98528458949709452 0.48395451161029718 1.014715410503322 1.2526822839324241 0.59772980398008735 1.402270196020621 1.5137040598352169 0.53344955263790295 0.97801656337898046 1.4249999999997249 0 1.425000000000185 1.1393113769850489 0 1.263313302510394 1.2526822839324241 0.59772980398008735 1.402270196020621 1.592055221591679 0.37998381655983821 1.346767458941071 1.1393113769850489 0 1.263313302510394 1.592128906250083 0 1.020652173912294 1.2335907516799069 0 0.84894166339084287 1.5137040598352169 0.53344955263790295 0.97801656337898046 1.1393113769850489 0 1.263313302510394 0.97934782608803661 0 1.5921289062498969 1.2526822839324241 0.59772980398008735 1.402270196020621 0.98528458949709452 0.48395451161029718 1.014715410503322 1.4249999999997249 0 1.425000000000185 1.592128906250083 0 1.020652173912294 1.1393113769850489 0 1.263313302510394 1.592055221591679 0.37998381655983821 1.346767458941071 1.1393113769850489 0 1.263313302510394 1.2335907516799069 0 0.84894166339084287 1.0000000000002141 0 0.99999999999992895 0.98528458949709452 0.48395451161029718 1.014715410503322 1.500000000000274 0.99883321436442229 1.16639307242336 0.98528458949676634 0.98528458949702458 1.516045488389935 1.2526822839324241 0.59772980398008735 1.402270196020621 1.416074976583422 1.0640336752305579 1.5993145461844129 1.2526822839324241 0.59772980398008735 1.402270196020621 1.500000000000274 0.99883321436442229 1.16639307242336 1.6049090527780649 0.68972037691419241 1.610520945894512 1.592055221591679 0.37998381655983821 1.346767458941071 1.2526822839324241 0.59772980398008735 1.402270196020621 1.5137040598352169 0.53344955263790295 0.97801656337898046 1.500000000000274 0.99883321436442229 1.16639307242336 1.592055221591679 0.37998381655983821 1.346767458941071 1 0.99999999999999978 0.99999999999999978 1.2526822839324241 0.59772980398008735 1.402270196020621 1.500000000000274 0.99883321436442229 1.16639307242336 0.98528458949676634 0.98528458949702458 1.516045488389935 1.2526822839324241 0.59772980398008735 1.402270196020621 1 0.99999999999999978 0.99999999999999978 1.500000000000274 0.99883321436442229 1.16639307242336 1.5137040598352169 0.53344955263790295 0.97801656337898046 1.2526822839324241 0.59772980398008735 1.402270196020621 0.98528458949709452 0.48395451161029718 1.014715410503322 1 0.99999999999999978 0.99999999999999978 1.5137040598352169 0.53344955263790295 0.97801656337898046 1 0.99999999999999978 0.99999999999999978 0.98528458949709452 0.48395451161029718 1.014715410503322 1.2526822839324241 0.59772980398008735 1.402270196020621 0.98528458949676634 0.98528458949702458 1.516045488389935 1.500000000000274 0.99883321436442229 1.16639307242336 1.416074976583422 1.0640336752305579 1.5993145461844129 1.2526822839324241 0.59772980398008735 1.402270196020621 1.6049090527780649 0.68972037691419241 1.610520945894512 1.425000000001911 0.57499999999847629 2 1.3780640096633039 0.25937977430496151 2 1.2526822839324241 0.59772980398008735 1.402270196020621 1.6049090527780649 0.68972037691419241 1.610520945894512 0.979347826088805 0.40787109374939401 2 1.1535857644027949 0.76541035719405237 2 1.425000000001911 0.57499999999847629 2 1.2526822839324241 0.59772980398008735 1.402270196020621 1.1535857644027949 0.76541035719405237 2 1.2526822839324241 0.59772980398008735 1.402270196020621 1.416074976583422 1.0640336752305579 1.5993145461844129 1.6049090527780649 0.68972037691419241 1.610520945894512 1.1535857644027949 0.76541035719405237 2 1.2526822839324241 0.59772980398008735 1.402270196020621 0.98528458949676634 0.98528458949702458 1.516045488389935 1.416074976583422 1.0640336752305579 1.5993145461844129 0.979347826088805 0.40787109374939401 2 1.1535857644027949 0.76541035719405237 2 1.2526822839324241 0.59772980398008735 1.402270196020621 0.98528458949676634 0.98528458949702458 1.516045488389935 1.1535857644027949 0.76541035719405237 2 1.425000000001911 0.57499999999847629 2 1.2526822839324241 0.59772980398008735 1.402270196020621 1.6049090527780649 0.68972037691419241 1.610520945894512 1.1535857644027949 0.76541035719405237 2 1.5921289062508031 0.97934782608568471 2 1.425000000001911 0.57499999999847629 2 1.6049090527780649 0.68972037691419241 1.610520945894512 1.1535857644027949 0.76541035719405237 2 1.2340035335497621 1.1507971347859809 2 1.5921289062508031 0.97934782608568471 2 1.416074976583422 1.0640336752305579 1.5993145461844129 1.1535857644027949 0.76541035719405237 2 1.416074976583422 1.0640336752305579 1.5993145461844129 1.5921289062508031 0.97934782608568471 2 1.6049090527780649 0.68972037691419241 1.610520945894512 1.000000000001781 0.99999999999894518 2 1.1535857644027949 0.76541035719405237 2 0.98528458949676634 0.98528458949702458 1.516045488389935 1.416074976583422 1.0640336752305579 1.5993145461844129 1.000000000001781 0.99999999999894518 2 1.2340035335497621 1.1507971347859809 2 1.1535857644027949 0.76541035719405237 2 1.416074976583422 1.0640336752305579 1.5993145461844129 1.2526822839324241 0.59772980398008735 1.402270196020621 1.6049090527780649 0.68972037691419241 1.610520945894512 1.3780640096633039 0.25937977430496151 2 1.592055221591679 0.37998381655983821 1.346767458941071 1.3740362318847941 0 1.736592447916669 1.2526822839324241 0.59772980398008735 1.402270196020621 1.3780640096633039 0.25937977430496151 2 1.592055221591679 0.37998381655983821 1.346767458941071 0.97934782608803661 0 1.5921289062498969 1.3740362318847941 0 1.736592447916669 1.4249999999997249 0 1.425000000000185 1.2526822839324241 0.59772980398008735 1.402270196020621 1.425000000001911 0.57499999999847629 2 1.3780640096633039 0.25937977430496151 2 0.979347826088805 0.40787109374939401 2 1.2526822839324241 0.59772980398008735 1.402270196020621 0.97934782608803661 0 1.5921289062498969 0.979347826088805 0.40787109374939401 2 1.3740362318847941 0 1.736592447916669 1.2526822839324241 0.59772980398008735 1.402270196020621 0.979347826088805 0.40787109374939401 2 1.3780640096633039 0.25937977430496151 2 1.3740362318847941 0 1.736592447916669 1.2526822839324241 0.59772980398008735 1.402270196020621 1.3740362318847941 0 1.736592447916669 0.979347826088805 0.40787109374939401 2 1.200000000002774 0 2 1.3780640096633039 0.25937977430496151 2 0.979347826088805 0.40787109374939401 2 0.97934782608803661 0 1.5921289062498969 1.3740362318847941 0 1.736592447916669 1.200000000002774 0 2 1.200000000002774 0 2 1.3740362318847941 0 1.736592447916669 1.3780640096633039 0.25937977430496151 2 1.6000000000000001 0 2 1.6658333333334381 0 1.665833333333264 1.685972222223028 0.31402777777693702 2 2 0.33416666666757772 1.665833333332104 1.592055221591679 0.37998381655983821 1.346767458941071 1.6658333333334381 0 1.665833333333264 1.3780640096633039 0.25937977430496151 2 1.685972222223028 0.31402777777693702 2 1.592055221591679 0.37998381655983821 1.346767458941071 1.685972222223028 0.31402777777693702 2 1.6049090527780649 0.68972037691419241 1.610520945894512 2 0.33416666666757772 1.665833333332104 1.592055221591679 0.37998381655983821 1.346767458941071 1.425000000001911 0.57499999999847629 2 1.685972222223028 0.31402777777693702 2 1.3780640096633039 0.25937977430496151 2 1.6049090527780649 0.68972037691419241 1.610520945894512 1.3780640096633039 0.25937977430496151 2 1.6049090527780649 0.68972037691419241 1.610520945894512 1.685972222223028 0.31402777777693702 2 1.592055221591679 0.37998381655983821 1.346767458941071 1.6658333333334381 0 1.665833333333264 1.3740362318847941 0 1.736592447916669 1.3780640096633039 0.25937977430496151 2 1.592055221591679 0.37998381655983821 1.346767458941071 1.6658333333334381 0 1.665833333333264 2 0.33416666666757772 1.665833333332104 1.734999069940508 0 1.3758744177011299 1.592055221591679 0.37998381655983821 1.346767458941071 1.6658333333334381 0 1.665833333333264 1.4249999999997249 0 1.425000000000185 1.3740362318847941 0 1.736592447916669 1.592055221591679 0.37998381655983821 1.346767458941071 1.6658333333334381 0 1.665833333333264 1.3780640096633039 0.25937977430496151 2 1.6000000000000001 0 2 1.685972222223028 0.31402777777693702 2 1.3740362318847941 0 1.736592447916669 1.6658333333334381 0 1.665833333333264 1.3780640096633039 0.25937977430496151 2 1.6000000000000001 0 2 1.6658333333334381 0 1.665833333333264 1.6000000000000001 0 2 2 0 2 1.685972222223028 0.31402777777693702 2 2 0.33416666666757772 1.665833333332104 1.6658333333334381 0 1.665833333333264 2 0 2 1.685972222223028 0.31402777777693702 2 2 0.33416666666757772 1.665833333332104 1.6658333333334381 0 1.665833333333264 2 0 1.5999999999989469 2 0 2 1.734999069940508 0 1.3758744177011299 2 0.26340755208402722 1.3740362318826671 2 0.33416666666757772 1.665833333332104 2 0 1.5999999999989469 1.6658333333334381 0 1.665833333333264 1.734999069940508 0 1.3758744177011299 2 0.33416666666757772 1.665833333332104 2 0 1.5999999999989469 2 0.57500000000210227 1.4249999999987459 2 0.33416666666757772 1.665833333332104 1.6049090527780649 0.68972037691419241 1.610520945894512 1.592055221591679 0.37998381655983821 1.346767458941071 1.7406202256951491 0.61367512077163267 2 2 0.33416666666757772 1.665833333332104 2 0.39999999999911567 2 1.685972222223028 0.31402777777693702 2 1.7406202256951491 0.61367512077163267 2 2 0.33416666666757772 1.665833333332104 1.685972222223028 0.31402777777693702 2 1.6049090527780649 0.68972037691419241 1.610520945894512 2 0.39999999999911567 2 2 0.33416666666757772 1.665833333332104 2 0 2 1.685972222223028 0.31402777777693702 2 2 0.33416666666757772 1.665833333332104 1.7406202256951491 0.61367512077163267 2 2 0.39999999999911567 2 2 0.62412558229832538 1.734999069939664 1.7406202256951491 0.61367512077163267 2 2 0.7999999999979498 2 2 0.62412558229832538 1.734999069939664 1.6049090527780649 0.68972037691419241 1.610520945894512 1.5921289062508031 0.97934782608568471 2 1.416074976583422 1.0640336752305579 1.5993145461844129 2 0.97934782608697624 1.5921289062492749 1.6049090527780649 0.68972037691419241 1.610520945894512 2 0.39999999999911567 2 1.7406202256951491 0.61367512077163267 2 2 0.7999999999979498 2 2 0.62412558229832538 1.734999069939664 1.7406202256951491 0.61367512077163267 2 2 0.62412558229832538 1.734999069939664 2 0.33416666666757772 1.665833333332104 1.6049090527780649 0.68972037691419241 1.610520945894512 1.7406202256951491 0.61367512077163267 2 1.425000000001911 0.57499999999847629 2 1.5921289062508031 0.97934782608568471 2 1.6049090527780649 0.68972037691419241 1.610520945894512 1.7406202256951491 0.61367512077163267 2 1.685972222223028 0.31402777777693702 2 1.425000000001911 0.57499999999847629 2 1.6049090527780649 0.68972037691419241 1.610520945894512 2 0.57500000000210227 1.4249999999987459 2 0.62412558229832538 1.734999069939664 2 0.97934782608697624 1.5921289062492749 1.6049090527780649 0.68972037691419241 1.610520945894512 2 0.57500000000210227 1.4249999999987459 2 0.33416666666757772 1.665833333332104 2 0.62412558229832538 1.734999069939664 1.6049090527780649 0.68972037691419241 1.610520945894512 2 0.7999999999979498 2 2 0.97934782608697624 1.5921289062492749 2 0.62412558229832538 1.734999069939664 1.6049090527780649 0.68972037691419241 1.610520945894512 1.7406202256951491 0.61367512077163267 2 1.5921289062508031 0.97934782608568471 2 2 0.7999999999979498 2 1.6049090527780649 0.68972037691419241 1.610520945894512 1.5921289062508031 0.97934782608568471 2 2 0.7999999999979498 2 2 0.97934782608697624 1.5921289062492749 2 1.1999999999978941 2 2 0.7999999999979498 2 1.5921289062508031 0.97934782608568471 2 2 0.97934782608697624 1.5921289062492749 1.6049090527780649 0.68972037691419241 1.610520945894512 2 1.3750846954865119 1.737640911519603 1.5950886193190319 1.5950886193190319 1.4995967914346211 2 1.4249999999998371 1.4249999999998371 1.416074976583422 1.0640336752305579 1.5993145461844129 2 0.97934782608697624 1.5921289062492749 2 1.3750846954865119 1.737640911519603 2 1.4249999999998371 1.4249999999998371 1.416074976583422 1.0640336752305579 1.5993145461844129 1.4249999999998371 1.4249999999998371 2 1.5950886193190319 1.5950886193190319 1.4995967914346211 1.737640911519909 1.3750846954862539 2 1.416074976583422 1.0640336752305579 1.5993145461844129 1.737640911519909 1.3750846954862539 2 1.5921289062508031 0.97934782608568471 2 2 0.97934782608697624 1.5921289062492749 2 1.1999999999978941 2 1.737640911519909 1.3750846954862539 2 1.5950886193190319 1.5950886193190319 1.4995967914346211 2 1.3750846954865119 1.737640911519603 1.416074976583422 1.0640336752305579 1.5993145461844129 1.737640911519909 1.3750846954862539 2 2 0.97934782608697624 1.5921289062492749 2 1.3750846954865119 1.737640911519603 2 1.1999999999978941 2 1.737640911519909 1.3750846954862539 2 2 0.97934782608697624 1.5921289062492749 1.5921289062508031 0.97934782608568471 2 1.416074976583422 1.0640336752305579 1.5993145461844129 1.737640911519909 1.3750846954862539 2 2 1.3750846954865119 1.737640911519603 2 0.97934782608697624 1.5921289062492749 1.416074976583422 1.0640336752305579 1.5993145461844129 2 1.3750846954865119 1.737640911519603 1.737640911519909 1.3750846954862539 2 2 1.1999999999978941 2 2 1.5999999999989469 2 1.4249999999998371 1.4249999999998371 2 1.737640911519909 1.3750846954862539 2 1.5921289062508031 0.97934782608568471 2 1.416074976583422 1.0640336752305579 1.5993145461844129 1.416074976583422 1.0640336752305579 1.5993145461844129 1.532347752213032 1.4746298915713509 1.076108883276101 2 1.1510583366092999 1.2335907516785649 1.500000000000274 0.99883321436442229 1.16639307242336 2 0.97934782608697624 1.5921289062492749 2 1.4249999999998371 1.4249999999998371 2 1.1510583366092999 1.2335907516785649 1.416074976583422 1.0640336752305579 1.5993145461844129 2 0.97934782608697624 1.5921289062492749 2 1.1510583366092999 1.2335907516785649 1.500000000000274 0.99883321436442229 1.16639307242336 1.416074976583422 1.0640336752305579 1.5993145461844129 1.416074976583422 1.0640336752305579 1.5993145461844129 2 1.1510583366092999 1.2335907516785649 1.532347752213032 1.4746298915713509 1.076108883276101 1.5950886193190319 1.5950886193190319 1.4995967914346211 2 1.1510583366092999 1.2335907516785649 2 1.4249999999998371 1.4249999999998371 1.5950886193190319 1.5950886193190319 1.4995967914346211 1.416074976583422 1.0640336752305579 1.5993145461844129 2 1.2345896428056129 0.84641423559720252 1.500000000000274 0.99883321436442229 1.16639307242336 2 1.1510583366092999 1.2335907516785649 1.532347752213032 1.4746298915713509 1.076108883276101 2 1.1510583366092999 1.2335907516785649 2 1.2345896428056129 0.84641423559720252 2 1.000000000000635 0.99999999999835576 1.500000000000274 0.99883321436442229 1.16639307242336 2 1.592128906250589 1.0206521739114489 2 1.2345896428056129 0.84641423559720252 2 1.1510583366092999 1.2335907516785649 1.532347752213032 1.4746298915713509 1.076108883276101 2 1.592128906250589 1.0206521739114489 2 1.1510583366092999 1.2335907516785649 2 1.4249999999998371 1.4249999999998371 1.532347752213032 1.4746298915713509 1.076108883276101 2 1.1510583366092999 1.2335907516785649 2 1.4249999999998371 1.4249999999998371 1.532347752213032 1.4746298915713509 1.076108883276101 1.5950886193190319 1.5950886193190319 1.4995967914346211 1.5921289062505879 2 1.0206521739114489 2 1.592128906250589 1.0206521739114489 1.7376409115198661 2 1.3833455650514059 1.532347752213032 1.4746298915713509 1.076108883276101 1.7376409115198661 2 1.3833455650514059 2 1.592128906250589 1.0206521739114489 2 1.7376409115198661 1.3833455650514059 1.532347752213032 1.4746298915713509 1.076108883276101 1.7376409115198661 2 1.3833455650514059 1.4249999999998371 2 1.4249999999998371 1.532347752213032 1.4746298915713509 1.076108883276101 1.5950886193190319 1.5950886193190319 1.4995967914346211 2 1.4249999999998371 1.4249999999998371 2 1.7376409115198661 1.3833455650514059 1.532347752213032 1.4746298915713509 1.076108883276101 1.5950886193190319 1.5950886193190319 1.4995967914346211 1.7376409115198661 2 1.3833455650514059 1.532347752213032 1.4746298915713509 1.076108883276101 1.4249999999998371 2 1.4249999999998371 1.5921289062505879 2 1.0206521739114489 1.7376409115198661 2 1.3833455650514059 1.532347752213032 1.4746298915713509 1.076108883276101 2 1.7376409115198661 1.3833455650514059 1.5950886193190319 1.5950886193190319 1.4995967914346211 2 1.671075651348906 1.671075651348906 2 1.7376409115198661 1.3833455650514059 2 1.4249999999998371 1.4249999999998371 1.5950886193190319 1.5950886193190319 1.4995967914346211 2 1.592128906250589 1.0206521739114489 2 1.4249999999998371 1.4249999999998371 2 1.7376409115198661 1.3833455650514059 1.532347752213032 1.4746298915713509 1.076108883276101 1.7376409115198661 2 1.3833455650514059 2 1.592128906250589 1.0206521739114489 2 2 1.1999999999978941 2 1.7376409115198661 1.3833455650514059 2 1.592128906250589 1.0206521739114489 1.7376409115198661 2 1.3833455650514059 2 2 1.1999999999978941 1.5921289062505879 2 1.0206521739114489 1.5921289062505879 2 1.0206521739114489 2 2 1.1999999999978941 2 1.592128906250589 1.0206521739114489 2 2 0.7999999999979498 1.671075651348906 2 1.671075651348906 1.4249999999998371 2 1.4249999999998371 1.7376409115198661 2 1.3833455650514059 1.5950886193190319 1.5950886193190319 1.4995967914346211 2 1.671075651348906 1.671075651348906 1.7376409115198661 2 1.3833455650514059 2 1.7376409115198661 1.3833455650514059 1.5950886193190319 1.5950886193190319 1.4995967914346211 2 2 1.1999999999978941 2 2 1.5999999999989469 1.7376409115198661 2 1.3833455650514059 2 1.7376409115198661 1.3833455650514059 1.671075651348906 2 1.671075651348906 2 1.671075651348906 1.671075651348906 1.671075651348906 1.671075651348906 2 1.5950886193190319 1.5950886193190319 1.4995967914346211 1.4249999999998371 1.4249999999998371 2 1.671075651348906 1.671075651348906 2 1.737640911519909 1.3750846954862539 2 1.5950886193190319 1.5950886193190319 1.4995967914346211 2 2 1.5999999999989469 2 1.671075651348906 1.671075651348906 1.7376409115198661 2 1.3833455650514059 2 1.7376409115198661 1.3833455650514059 2 1.671075651348906 1.671075651348906 1.671075651348906 2 1.671075651348906 1.7376409115198661 2 1.3833455650514059 1.5950886193190319 1.5950886193190319 1.4995967914346211 2 1.671075651348906 1.671075651348906 1.671075651348906 2 1.671075651348906 2 2 2 2 2 1.5999999999989469 1.4249999999998371 1.4249999999998371 2 1.3833455650517461 1.737640911519633 2 1.671075651348906 1.671075651348906 2 1.5950886193190319 1.5950886193190319 1.4995967914346211 1.3833455650517461 1.737640911519633 2 1.671075651348906 2 1.671075651348906 1.671075651348906 1.671075651348906 2 1.5950886193190319 1.5950886193190319 1.4995967914346211 1.3833455650517461 1.737640911519633 2 1.3750846954865119 2 1.737640911519603 1.671075651348906 2 1.671075651348906 1.5950886193190319 1.5950886193190319 1.4995967914346211 2 1.671075651348906 1.671075651348906 1.671075651348906 2 1.671075651348906 2 2 1.5999999999989469 1.7376409115198661 2 1.3833455650514059 1.737640911519909 1.3750846954862539 2 1.671075651348906 1.671075651348906 2 2 1.3750846954865119 1.737640911519603 1.5950886193190319 1.5950886193190319 1.4995967914346211 2 1.3750846954865119 1.737640911519603 1.671075651348906 1.671075651348906 2 2 1.671075651348906 1.671075651348906 1.5950886193190319 1.5950886193190319 1.4995967914346211 2 1.671075651348906 1.671075651348906 1.671075651348906 2 1.671075651348906 1.671075651348906 1.671075651348906 2 2 2 2 2 1.3750846954865119 1.737640911519603 2 1.5999999999989469 2 2 1.671075651348906 1.671075651348906 1.671075651348906 1.671075651348906 2 2 1.3750846954865119 1.737640911519603 1.737640911519909 1.3750846954862539 2 2 1.5999999999989469 2 1.671075651348906 1.671075651348906 2 2 1.5999999999989469 2 2 1.671075651348906 1.671075651348906 1.671075651348906 1.671075651348906 2 2 2 2 2 1.3750846954865119 1.737640911519603 2 1.671075651348906 1.671075651348906 2 1.4249999999998371 1.4249999999998371 1.5950886193190319 1.5950886193190319 1.4995967914346211 1.3750846954865119 2 1.737640911519603 1.3833455650517461 1.737640911519633 2 1.671075651348906 2 1.671075651348906 1.5999999999989469 2 2 1.671075651348906 2 1.671075651348906 1.3833455650517461 1.737640911519633 2 1.671075651348906 1.671075651348906 2 1.5999999999989469 2 2 1.671075651348906 2 1.671075651348906 1.671075651348906 1.671075651348906 2 2 2 2 1.5999999999989469 2 2 1.3750846954865119 2 1.737640911519603 1.4249999999998371 2 1.4249999999998371 1.671075651348906 2 1.671075651348906 1.5950886193190319 1.5950886193190319 1.4995967914346211 1.4249999999998371 1.4249999999998371 2 1.1981164219601721 1.4101645296525169 1.4221055955645681 1.3833455650517461 1.737640911519633 2 1.5950886193190319 1.5950886193190319 1.4995967914346211 0.97934782608697635 2 1.5921289062492749 1.4249999999998371 2 1.4249999999998371 1.3750846954865119 2 1.737640911519603 1.1981164219601721 1.4101645296525169 1.4221055955645681 0.97934782608697635 2 1.5921289062492749 1.3750846954865119 2 1.737640911519603 1.0206521739131471 1.5921289062494219 2 1.1981164219601721 1.4101645296525169 1.4221055955645681 1.3833455650517461 1.737640911519633 2 1.0206521739131471 1.5921289062494219 2 1.3750846954865119 2 1.737640911519603 1.1981164219601721 1.4101645296525169 1.4221055955645681 1.3833455650517461 1.737640911519633 2 1.1981164219601721 1.4101645296525169 1.4221055955645681 1.3750846954865119 2 1.737640911519603 1.5950886193190319 1.5950886193190319 1.4995967914346211 1.3750846954865119 2 1.737640911519603 1.1981164219601721 1.4101645296525169 1.4221055955645681 1.4249999999998371 2 1.4249999999998371 1.5950886193190319 1.5950886193190319 1.4995967914346211 1.4249999999998371 1.4249999999998371 2 1.0206521739131471 1.5921289062494219 2 1.3833455650517461 1.737640911519633 2 1.1981164219601721 1.4101645296525169 1.4221055955645681 1.3833455650517461 1.737640911519633 2 1.3750846954865119 2 1.737640911519603 1.1999999999978941 2 2 1.5999999999989469 2 2 1.3833455650517461 1.737640911519633 2 1.3750846954865119 2 1.737640911519603 1.0206521739131471 1.5921289062494219 2 1.1999999999978941 2 2 1.3750846954865119 2 1.737640911519603 0.97934782608697635 2 1.5921289062492749 1.0206521739131471 1.5921289062494219 2 1.1999999999978941 2 2 1.1510583366092999 2 1.2335907516785649 0.86620738987133672 1.5000000000001401 1.0337672479303861 1.2345896428056129 2 0.84641423559720264 1.532347752213032 1.4746298915713509 1.076108883276101 1.1510583366092999 2 1.2335907516785649 1.1981164219601721 1.4101645296525169 1.4221055955645681 0.86620738987133672 1.5000000000001401 1.0337672479303861 1.532347752213032 1.4746298915713509 1.076108883276101 1.1510583366092999 2 1.2335907516785649 1.2345896428056129 2 0.84641423559720264 1.5921289062505879 2 1.0206521739114489 1.532347752213032 1.4746298915713509 1.076108883276101 1.1981164219601721 1.4101645296525169 1.4221055955645681 1.532347752213032 1.4746298915713509 1.076108883276101 1.4249999999998371 2 1.4249999999998371 1.5950886193190319 1.5950886193190319 1.4995967914346211 1.1510583366092999 2 1.2335907516785649 1.5921289062505879 2 1.0206521739114489 1.4249999999998371 2 1.4249999999998371 1.532347752213032 1.4746298915713509 1.076108883276101 1.1510583366092999 2 1.2335907516785649 1.4249999999998371 2 1.4249999999998371 1.1981164219601721 1.4101645296525169 1.4221055955645681 1.532347752213032 1.4746298915713509 1.076108883276101 0.97934782608697635 2 1.5921289062492749 1.1510583366092999 2 1.2335907516785649 1.4249999999998371 2 1.4249999999998371 1.1981164219601721 1.4101645296525169 1.4221055955645681 1.1510583366092999 2 1.2335907516785649 1.1981164219601721 1.4101645296525169 1.4221055955645681 0.97934782608697635 2 1.5921289062492749 0.77911601688602494 1.603176022082401 1.607321515253783 1.1510583366092999 2 1.2335907516785649 1.000000000000635 2 0.99999999999835598 1.2345896428056129 2 0.84641423559720264 0.86620738987133672 1.5000000000001401 1.0337672479303861 1.500000000000274 0.99883321436442229 1.16639307242336 1.532347752213032 1.4746298915713509 1.076108883276101 1.1981164219601721 1.4101645296525169 1.4221055955645681 1.416074976583422 1.0640336752305579 1.5993145461844129 1.1981164219601721 1.4101645296525169 1.4221055955645681 0.98528458949676634 0.98528458949702458 1.516045488389935 1.500000000000274 0.99883321436442229 1.16639307242336 1.416074976583422 1.0640336752305579 1.5993145461844129 1 0.99999999999999978 0.99999999999999978 1.1981164219601721 1.4101645296525169 1.4221055955645681 1.500000000000274 0.99883321436442229 1.16639307242336 1.532347752213032 1.4746298915713509 1.076108883276101 1.532347752213032 1.4746298915713509 1.076108883276101 1.5950886193190319 1.5950886193190319 1.4995967914346211 1.1981164219601721 1.4101645296525169 1.4221055955645681 1.416074976583422 1.0640336752305579 1.5993145461844129 1 0.99999999999999978 0.99999999999999978 1.500000000000274 0.99883321436442229 1.16639307242336 1.1981164219601721 1.4101645296525169 1.4221055955645681 0.98528458949676634 0.98528458949702458 1.516045488389935 1.1981164219601721 1.4101645296525169 1.4221055955645681 1 0.99999999999999978 0.99999999999999978 0.86620738987133672 1.5000000000001401 1.0337672479303861 1.532347752213032 1.4746298915713509 1.076108883276101 1.1981164219601721 1.4101645296525169 1.4221055955645681 0.86620738987133672 1.5000000000001401 1.0337672479303861 1 0.99999999999999978 0.99999999999999978 0.98528458949676634 0.98528458949702458 1.516045488389935 1.4249999999998371 1.4249999999998371 2 1.2340035335497621 1.1507971347859809 2 1.0206521739131471 1.5921289062494219 2 1.1981164219601721 1.4101645296525169 1.4221055955645681 1.416074976583422 1.0640336752305579 1.5993145461844129 1.1981164219601721 1.4101645296525169 1.4221055955645681 1.000000000001781 0.99999999999894518 2 1.2340035335497621 1.1507971347859809 2 1.2340035335497621 1.1507971347859809 2 1.1981164219601721 1.4101645296525169 1.4221055955645681 1.4249999999998371 1.4249999999998371 2 1.416074976583422 1.0640336752305579 1.5993145461844129 0.86068862301746607 1.2633133025089971 2 1.000000000001781 0.99999999999894518 2 1.1981164219601721 1.4101645296525169 1.4221055955645681 1.2340035335497621 1.1507971347859809 2 1.2340035335497621 1.1507971347859809 2 0.86068862301746607 1.2633133025089971 2 1.0206521739131471 1.5921289062494219 2 1.1981164219601721 1.4101645296525169 1.4221055955645681 0.86068862301746607 1.2633133025089971 2 1.1981164219601721 1.4101645296525169 1.4221055955645681 1.000000000001781 0.99999999999894518 2 0.98528458949676634 0.98528458949702458 1.516045488389935 1.416074976583422 1.0640336752305579 1.5993145461844129 1.000000000001781 0.99999999999894518 2 1.1981164219601721 1.4101645296525169 1.4221055955645681 0.98528458949676634 0.98528458949702458 1.516045488389935 1.4249999999998371 1.4249999999998371 2 1.1981164219601721 1.4101645296525169 1.4221055955645681 1.5950886193190319 1.5950886193190319 1.4995967914346211 1.416074976583422 1.0640336752305579 1.5993145461844129 1.5921289062508031 0.97934782608568471 2 1.2340035335497621 1.1507971347859809 2 1.4249999999998371 1.4249999999998371 2 1.416074976583422 1.0640336752305579 1.5993145461844129 0.59772980397967113 1.252682283932151 1.4022701960199091 0.86068862301746607 1.2633133025089971 2 0.98528458949676634 0.98528458949702458 1.516045488389935 0.77911601688602494 1.603176022082401 1.607321515253783 0.86068862301746607 1.2633133025089971 2 0.76640924832151791 0.84894166339049981 2 0.59772980397967113 1.252682283932151 1.4022701960199091 0.98528458949676634 0.98528458949702458 1.516045488389935 0.86068862301746607 1.2633133025089971 2 1.0206521739131471 1.5921289062494219 2 1.1981164219601721 1.4101645296525169 1.4221055955645681 0.77911601688602494 1.603176022082401 1.607321515253783 0.86068862301746607 1.2633133025089971 2 1.000000000001781 0.99999999999894518 2 0.76640924832151791 0.84894166339049981 2 0.98528458949676634 0.98528458949702458 1.516045488389935 0.86068862301746607 1.2633133025089971 2 0.4078710937509023 1.020652173913281 2 0.5750000000018145 1.424999999998573 2 0.59772980397967113 1.252682283932151 1.4022701960199091 0.86068862301746607 1.2633133025089971 2 0.59772980397967113 1.252682283932151 1.4022701960199091 0.5750000000018145 1.424999999998573 2 0.77911601688602494 1.603176022082401 1.607321515253783 0.86068862301746607 1.2633133025089971 2 0.76640924832151791 0.84894166339049981 2 0.4078710937509023 1.020652173913281 2 0.59772980397967113 1.252682283932151 1.4022701960199091 0.5750000000018145 1.424999999998573 2 0.59772980397967113 1.252682283932151 1.4022701960199091 0.25937977430622478 1.3863248792272369 2 0.77911601688602494 1.603176022082401 1.607321515253783 1.1981164219601721 1.4101645296525169 1.4221055955645681 0.98528458949676634 0.98528458949702458 1.516045488389935 0.86068862301746607 1.2633133025089971 2 0.77911601688602494 1.603176022082401 1.607321515253783 0.86068862301746607 1.2633133025089971 2 0.5750000000018145 1.424999999998573 2 1.0206521739131471 1.5921289062494219 2 0.77911601688602494 1.603176022082401 1.607321515253783 0.59772980397967113 1.252682283932151 1.4022701960199091 0.98528458949676634 0.98528458949702458 1.516045488389935 1.1981164219601721 1.4101645296525169 1.4221055955645681 0.77911601688602494 1.603176022082401 1.607321515253783 0.59772980397967113 1.252682283932151 1.4022701960199091 0.86620738987133672 1.5000000000001401 1.0337672479303861 1.1981164219601721 1.4101645296525169 1.4221055955645681 0.98528458949676634 0.98528458949702458 1.516045488389935 0.59772980397967113 1.252682283932151 1.4022701960199091 1 0.99999999999999978 0.99999999999999978 0.86620738987133672 1.5000000000001401 1.0337672479303861 0.98528458949676634 0.98528458949702458 1.516045488389935 1.1981164219601721 1.4101645296525169 1.4221055955645681 0.86620738987133672 1.5000000000001401 1.0337672479303861 0.59772980397967113 1.252682283932151 1.4022701960199091 0.77911601688602494 1.603176022082401 1.607321515253783 1 0.99999999999999978 0.99999999999999978 0.59772980397967113 1.252682283932151 1.4022701960199091 0.86620738987133672 1.5000000000001401 1.0337672479303861 0.48528811404415773 0.99061345538166756 1.009386544617999 0.86620738987133672 1.5000000000001401 1.0337672479303861 0.48528811404415773 0.99061345538166756 1.009386544617999 0.59772980397967113 1.252682283932151 1.4022701960199091 0.39539622647752048 1.604332214875325 1.222086277851258 0.86620738987133672 1.5000000000001401 1.0337672479303861 0.41010551790091843 1.5854304871968741 0.7721068750782103 0.48528811404415773 0.99061345538166756 1.009386544617999 0.39539622647752048 1.604332214875325 1.222086277851258 0.59772980397967113 1.252682283932151 1.4022701960199091 0.48528811404415773 0.99061345538166756 1.009386544617999 1 0.99999999999999978 0.99999999999999978 0.98528458949676634 0.98528458949702458 1.516045488389935 0.86620738987133672 1.5000000000001401 1.0337672479303861 0.39539622647752048 1.604332214875325 1.222086277851258 0.59772980397967113 1.252682283932151 1.4022701960199091 0.77911601688602494 1.603176022082401 1.607321515253783 0.73668669749101645 2 1.139311376982779 0.39539622647752048 1.604332214875325 1.222086277851258 0.86620738987133672 1.5000000000001401 1.0337672479303861 0.77911601688602494 1.603176022082401 1.607321515253783 0.73668669749101645 2 1.139311376982779 0.86620738987133672 1.5000000000001401 1.0337672479303861 1.1510583366092999 2 1.2335907516785649 0.77911601688602494 1.603176022082401 1.607321515253783 1.1510583366092999 2 1.2335907516785649 0.86620738987133672 1.5000000000001401 1.0337672479303861 1.1981164219601721 1.4101645296525169 1.4221055955645681 0.77911601688602494 1.603176022082401 1.607321515253783 0.73668669749101645 2 1.139311376982779 0.41010551790091843 1.5854304871968741 0.7721068750782103 0.86620738987133672 1.5000000000001401 1.0337672479303861 0.39539622647752048 1.604332214875325 1.222086277851258 0.73668669749101645 2 1.139311376982779 1.000000000000635 2 0.99999999999835598 1.1510583366092999 2 1.2335907516785649 0.86620738987133672 1.5000000000001401 1.0337672479303861 0.40787109375045588 2 0.9793478260856453 0.73668669749101645 2 1.139311376982779 0.57500000000210227 2 1.4249999999987459 0.39539622647752048 1.604332214875325 1.222086277851258 0.73668669749101645 2 1.139311376982779 0.57500000000210227 2 1.4249999999987459 0.39539622647752048 1.604332214875325 1.222086277851258 0.77911601688602494 1.603176022082401 1.607321515253783 0.33416666666757772 2 1.665833333332104 0.39539622647752048 1.604332214875325 1.222086277851258 0.57500000000210227 2 1.4249999999987459 0.77911601688602494 1.603176022082401 1.607321515253783 0.73668669749101645 2 1.139311376982779 1.1510583366092999 2 1.2335907516785649 0.97934782608697635 2 1.5921289062492749 0.77911601688602494 1.603176022082401 1.607321515253783 0.57500000000210227 2 1.4249999999987459 0.73668669749101645 2 1.139311376982779 0.97934782608697635 2 1.5921289062492749 0.77911601688602494 1.603176022082401 1.607321515253783 0.97934782608697635 2 1.5921289062492749 1.1981164219601721 1.4101645296525169 1.4221055955645681 1.0206521739131471 1.5921289062494219 2 0.77911601688602494 1.603176022082401 1.607321515253783 0.7999999999979498 2 2 0.62412558229832538 2 1.734999069939664 0.97934782608697635 2 1.5921289062492749 0.77911601688602494 1.603176022082401 1.607321515253783 0.97934782608697635 2 1.5921289062492749 0.7999999999979498 2 2 1.0206521739131471 1.5921289062494219 2 1.1999999999978941 2 2 0.97934782608697635 2 1.5921289062492749 1.0206521739131471 1.5921289062494219 2 0.7999999999979498 2 2 0.77911601688602494 1.603176022082401 1.607321515253783 0.7999999999979498 2 2 1.0206521739131471 1.5921289062494219 2 0.62193599033808677 1.7406202256939109 2 0.77911601688602494 1.603176022082401 1.607321515253783 0.62193599033808677 1.7406202256939109 2 1.0206521739131471 1.5921289062494219 2 0.5750000000018145 1.424999999998573 2 0.77911601688602494 1.603176022082401 1.607321515253783 0.31402777777840701 1.6859722222215581 2 0.62193599033808677 1.7406202256939109 2 0.5750000000018145 1.424999999998573 2 0.77911601688602494 1.603176022082401 1.607321515253783 0.31402777777840701 1.6859722222215581 2 0.33416666666757772 2 1.665833333332104 0.62193599033808677 1.7406202256939109 2 0.77911601688602494 1.603176022082401 1.607321515253783 0.7999999999979498 2 2 0.62193599033808677 1.7406202256939109 2 0.62412558229832538 2 1.734999069939664 0.77911601688602494 1.603176022082401 1.607321515253783 0.62193599033808677 1.7406202256939109 2 0.33416666666757772 2 1.665833333332104 0.62412558229832538 2 1.734999069939664 0.77911601688602494 1.603176022082401 1.607321515253783 0.39999999999911567 2 2 0.7999999999979498 2 2 0.62193599033808677 1.7406202256939109 2 0.62412558229832538 2 1.734999069939664 0.57500000000210227 2 1.4249999999987459 0.97934782608697635 2 1.5921289062492749 0.62412558229832538 2 1.734999069939664 0.77911601688602494 1.603176022082401 1.607321515253783 0.33416666666757772 2 1.665833333332104 0.57500000000210227 2 1.4249999999987459 0.62412558229832538 2 1.734999069939664 0.77911601688602494 1.603176022082401 1.607321515253783 0.39539622647752048 1.604332214875325 1.222086277851258 0 1.374036231884781 1.736592447916667 0.77911601688602494 1.603176022082401 1.607321515253783 0 1.665833333333429 1.665833333333256 0.31402777777840701 1.6859722222215581 2 0.5750000000018145 1.424999999998573 2 0.25937977430622478 1.3863248792272369 2 0.77911601688602494 1.603176022082401 1.607321515253783 0.33416666666757772 2 1.665833333332104 0 1.665833333333429 1.665833333333256 0.39539622647752048 1.604332214875325 1.222086277851258 0.77911601688602494 1.603176022082401 1.607321515253783 0.33416666666757772 2 1.665833333332104 0.31402777777840701 1.6859722222215581 2 0 1.665833333333429 1.665833333333256 0.77911601688602494 1.603176022082401 1.607321515253783 0 1.4249999999997121 1.4250000000001719 0 1.665833333333429 1.665833333333256 0 1.374036231884781 1.736592447916667 0.39539622647752048 1.604332214875325 1.222086277851258 0.31402777777840701 1.6859722222215581 2 0.25937977430622478 1.3863248792272369 2 0 1.665833333333429 1.665833333333256 0.77911601688602494 1.603176022082401 1.607321515253783 0.25937977430622478 1.3863248792272369 2 0.77911601688602494 1.603176022082401 1.607321515253783 0 1.374036231884781 1.736592447916667 0 1.665833333333429 1.665833333333256 0.33416666666757772 2 1.665833333332104 0.39999999999911567 2 2 0.31402777777840701 1.6859722222215581 2 0.62193599033808677 1.7406202256939109 2 0.33416666666757772 2 1.665833333332104 0.39999999999911567 2 2 0.62193599033808677 1.7406202256939109 2 0.62412558229832538 2 1.734999069939664 0.39999999999911567 2 2 0.33416666666757772 2 1.665833333332104 0.31402777777840701 1.6859722222215581 2 0 2 2 0.31402777777840701 1.6859722222215581 2 0.25937977430622478 1.3863248792272369 2 0 1.6000000000000001 2 0 1.665833333333429 1.665833333333256 0.25937977430622478 1.3863248792272369 2 0 1.6000000000000001 2 0 1.665833333333429 1.665833333333256 0 1.374036231884781 1.736592447916667 0 1.6000000000000001 2 0.31402777777840701 1.6859722222215581 2 0 1.665833333333429 1.665833333333256 0 2 2 0.31402777777840701 1.6859722222215581 2 0.33416666666757772 2 1.665833333332104 0 1.665833333333429 1.665833333333256 0 2 2 0.26340755208402722 2 1.3740362318826671 0 1.73499906994049 1.375874417701122 0.33416666666757772 2 1.665833333332104 0 2 1.5999999999989469 0.33416666666757772 2 1.665833333332104 0 1.73499906994049 1.375874417701122 0 1.665833333333429 1.665833333333256 0 2 1.5999999999989469 0.33416666666757772 2 1.665833333332104 0 1.665833333333429 1.665833333333256 0 2 2 0 2 1.5999999999989469 0 2 1.1999999999978941 0 1.73499906994049 1.375874417701122 0.26340755208402722 2 1.3740362318826671 0 2 1.5999999999989469 0 1.73499906994049 1.375874417701122 0.33416666666757772 2 1.665833333332104 0 1.665833333333429 1.665833333333256 0.39539622647752048 1.604332214875325 1.222086277851258 0 2 1.1999999999978941 0.26340755208402722 2 1.3740362318826671 0 1.73499906994049 1.375874417701122 0.39539622647752048 1.604332214875325 1.222086277851258 0 1.73499906994049 1.375874417701122 0.26340755208402722 2 1.3740362318826671 0.33416666666757772 2 1.665833333332104 0.39539622647752048 1.604332214875325 1.222086277851258 0.57500000000210227 2 1.4249999999987459 0.33416666666757772 2 1.665833333332104 0.26340755208402722 2 1.3740362318826671 0.39539622647752048 1.604332214875325 1.222086277851258 0.57500000000210227 2 1.4249999999987459 0.26340755208402722 2 1.3740362318826671 0.40787109375045588 2 0.9793478260856453 0.39539622647752048 1.604332214875325 1.222086277851258 0.73668669749101645 2 1.139311376982779 0.40787109375045588 2 0.9793478260856453 0.41010551790091843 1.5854304871968741 0.7721068750782103 0.39539622647752048 1.604332214875325 1.222086277851258 0.40787109375045588 2 0.9793478260856453 0.26340755208402722 2 1.3740362318826671 0 2 1.1999999999978941 0.39539622647752048 1.604332214875325 1.222086277851258 0.40787109375045588 2 0.9793478260856453 0 2 1.1999999999978941 0 1.592128906249999 1.0206521739122849 0.39539622647752048 1.604332214875325 1.222086277851258 0 2 1.1999999999978941 0 1.73499906994049 1.375874417701122 0 1.592128906249999 1.0206521739122849 0.39539622647752048 1.604332214875325 1.222086277851258 0 1.4249999999997121 1.4250000000001719 0 1.592128906249999 1.0206521739122849 0 1.73499906994049 1.375874417701122 0.39539622647752048 1.604332214875325 1.222086277851258 0 1.73499906994049 1.375874417701122 0 1.665833333333429 1.665833333333256 0 1.4249999999997121 1.4250000000001719 0.39539622647752048 1.604332214875325 1.222086277851258 0 1.1379319433661621 1.2629046154773571 0.59772980397967113 1.252682283932151 1.4022701960199091 0 0.97934782608799098 1.5921289062499051 0.48528811404415773 0.99061345538166756 1.009386544617999 0 1.1379319433661621 1.2629046154773571 0 1.4249999999997121 1.4250000000001719 0.59772980397967113 1.252682283932151 1.4022701960199091 0.39539622647752048 1.604332214875325 1.222086277851258 0.39539622647752048 1.604332214875325 1.222086277851258 0.77911601688602494 1.603176022082401 1.607321515253783 0 1.374036231884781 1.736592447916667 0.59772980397967113 1.252682283932151 1.4022701960199091 0 1.263313302510646 0.86068862301506388 0 1.1379319433661621 1.2629046154773571 0.48528811404415773 0.99061345538166756 1.009386544617999 0.39539622647752048 1.604332214875325 1.222086277851258 0 1.4249999999997121 1.4250000000001719 0 0.97934782608799098 1.5921289062499051 0 1.1379319433661621 1.2629046154773571 0.59772980397967113 1.252682283932151 1.4022701960199091 0 1.4249999999997121 1.4250000000001719 0 1.374036231884781 1.736592447916667 0.59772980397967113 1.252682283932151 1.4022701960199091 0.39539622647752048 1.604332214875325 1.222086277851258 0.59772980397967113 1.252682283932151 1.4022701960199091 0.48528811404415773 0.99061345538166756 1.009386544617999 0 1.1379319433661621 1.2629046154773571 0.39539622647752048 1.604332214875325 1.222086277851258 0 1.1379319433661621 1.2629046154773571 0 1.592128906249999 1.0206521739122849 0 1.4249999999997121 1.4250000000001719 0.39539622647752048 1.604332214875325 1.222086277851258 0 1.263313302510646 0.86068862301506388 0 1.592128906249999 1.0206521739122849 0 1.1379319433661621 1.2629046154773571 0.39539622647752048 1.604332214875325 1.222086277851258 0 1.0000000000000291 0.99999999999996969 0 1.263313302510646 0.86068862301506388 0 1.1379319433661621 1.2629046154773571 0.48528811404415773 0.99061345538166756 1.009386544617999 0 1.374036231884781 1.736592447916667 0 0.97934782608799098 1.5921289062499051 0 1.4249999999997121 1.4250000000001719 0.59772980397967113 1.252682283932151 1.4022701960199091 0.25937977430622478 1.3863248792272369 2 0 1.374036231884781 1.736592447916667 0.77911601688602494 1.603176022082401 1.607321515253783 0.59772980397967113 1.252682283932151 1.4022701960199091 0.25937977430622478 1.3863248792272369 2 0.4078710937509023 1.020652173913281 2 0 1.374036231884781 1.736592447916667 0.59772980397967113 1.252682283932151 1.4022701960199091 0.5750000000018145 1.424999999998573 2 0.4078710937509023 1.020652173913281 2 0.25937977430622478 1.3863248792272369 2 0.59772980397967113 1.252682283932151 1.4022701960199091 0 1.374036231884781 1.736592447916667 0.4078710937509023 1.020652173913281 2 0 0.97934782608799098 1.5921289062499051 0.59772980397967113 1.252682283932151 1.4022701960199091 0.25937977430622478 1.3863248792272369 2 0 1.200000000002774 2 0 1.6000000000000001 2 0 1.374036231884781 1.736592447916667 0.25937977430622478 1.3863248792272369 2 0 1.200000000002774 2 0 1.374036231884781 1.736592447916667 0.4078710937509023 1.020652173913281 2 0 1.200000000002774 2 0 1.374036231884781 1.736592447916667 0.4078710937509023 1.020652173913281 2 0 0.97934782608799098 1.5921289062499051 0 1.200000000002774 2 0.4078710937509023 1.020652173913281 2 0 0.80000000000332872 2 0 0.97934782608799098 1.5921289062499051 0.26235908848041961 0.62491530451389399 2 0 0.80000000000332872 2 0 0.97934782608799098 1.5921289062499051 0 0.62412558229928472 1.7349990699404849 0.26235908848041961 0.62491530451389399 2 0.57500000000013385 0.57500000000013385 2 0.32892434865106179 0.32892434865106179 2 0.63209459459459538 0.63209459459460771 1.3679054054053961 0.4078710937509023 1.020652173913281 2 0.63209459459459538 0.63209459459460771 1.3679054054053961 0 0.97934782608799098 1.5921289062499051 0.59772980397967113 1.252682283932151 1.4022701960199091 0.4078710937509023 1.020652173913281 2 0.57500000000013385 0.57500000000013385 2 0.26235908848041961 0.62491530451389399 2 0.63209459459459538 0.63209459459460771 1.3679054054053961 0.4078710937509023 1.020652173913281 2 0.26235908848041961 0.62491530451389399 2 0 0.80000000000332872 2 0 0.97934782608799098 1.5921289062499051 0 0.97934782608799098 1.5921289062499051 0.26235908848041961 0.62491530451389399 2 0 0.62412558229928472 1.7349990699404849 0.63209459459459538 0.63209459459460771 1.3679054054053961 0 0.62412558229928472 1.7349990699404849 0.26235908848041961 0.62491530451389399 2 0 0.33416666666678929 1.6658333333334849 0.63209459459459538 0.63209459459460771 1.3679054054053961 0 0.62412558229928472 1.7349990699404849 0 0.33416666666678929 1.6658333333334849 0 0.57499999999972706 1.4249999999995451 0.63209459459459538 0.63209459459460771 1.3679054054053961 0.4078710937509023 1.020652173913281 2 0.26235908848041961 0.62491530451389399 2 0 0.97934782608799098 1.5921289062499051 0.63209459459459538 0.63209459459460771 1.3679054054053961 0 0.97934782608799098 1.5921289062499051 0 0.62412558229928472 1.7349990699404849 0 0.57499999999972706 1.4249999999995451 0.63209459459459538 0.63209459459460771 1.3679054054053961 0.26235908848041961 0.62491530451389399 2 0 0.80000000000332872 2 0 0.62412558229928472 1.7349990699404849 0 0.40000000000166441 2 0.979347826088805 0.40787109374939401 2 0.76640924832151791 0.84894166339049981 2 1.1535857644027949 0.76541035719405237 2 0.98528458949676634 0.98528458949702458 1.516045488389935 0.979347826088805 0.40787109374939401 2 0.63209459459459538 0.63209459459460771 1.3679054054053961 0.76640924832151791 0.84894166339049981 2 0.98528458949676634 0.98528458949702458 1.516045488389935 0.979347826088805 0.40787109374939401 2 1.2526822839324241 0.59772980398008735 1.402270196020621 0.63209459459459538 0.63209459459460771 1.3679054054053961 0.98528458949676634 0.98528458949702458 1.516045488389935 0.63209459459459538 0.63209459459460771 1.3679054054053961 0.59772980397967113 1.252682283932151 1.4022701960199091 0.76640924832151791 0.84894166339049981 2 0.98528458949676634 0.98528458949702458 1.516045488389935 0.4078710937509023 1.020652173913281 2 0.76640924832151791 0.84894166339049981 2 0.57500000000013385 0.57500000000013385 2 0.63209459459459538 0.63209459459460771 1.3679054054053961 0.76640924832151791 0.84894166339049981 2 0.63209459459459538 0.63209459459460771 1.3679054054053961 0.4078710937509023 1.020652173913281 2 0.59772980397967113 1.252682283932151 1.4022701960199091 0.979347826088805 0.40787109374939401 2 0.57500000000013385 0.57500000000013385 2 0.76640924832151791 0.84894166339049981 2 0.63209459459459538 0.63209459459460771 1.3679054054053961 0.76640924832151791 0.84894166339049981 2 1.000000000001781 0.99999999999894518 2 1.1535857644027949 0.76541035719405237 2 0.98528458949676634 0.98528458949702458 1.516045488389935 0.63209459459459538 0.63209459459460771 1.3679054054053961 0.59772980397989239 0.59772980397970443 0.74731771606769093 0.48528811404415773 0.99061345538166756 1.009386544617999 0.98528458949709452 0.48395451161029718 1.014715410503322 1 0.99999999999999978 0.99999999999999978 0.63209459459459538 0.63209459459460771 1.3679054054053961 0.98528458949709452 0.48395451161029718 1.014715410503322 0.98528458949676634 0.98528458949702458 1.516045488389935 0.63209459459459538 0.63209459459460771 1.3679054054053961 0.48528811404415773 0.99061345538166756 1.009386544617999 1 0.99999999999999978 0.99999999999999978 0.98528458949709452 0.48395451161029718 1.014715410503322 0.63209459459459538 0.63209459459460771 1.3679054054053961 1 0.99999999999999978 0.99999999999999978 0.48528811404415773 0.99061345538166756 1.009386544617999 0.98528458949676634 0.98528458949702458 1.516045488389935 0.63209459459459538 0.63209459459460771 1.3679054054053961 0.48528811404415773 0.99061345538166756 1.009386544617999 0.59772980397967113 1.252682283932151 1.4022701960199091 0.98528458949676634 0.98528458949702458 1.516045488389935 1.2526822839324241 0.59772980398008735 1.402270196020621 0.98528458949709452 0.48395451161029718 1.014715410503322 0.63209459459459538 0.63209459459460771 1.3679054054053961 0.98528458949676634 0.98528458949702458 1.516045488389935 0 0.73703553820768952 1.137914212601322 0 0.97934782608799098 1.5921289062499051 0.63209459459459538 0.63209459459460771 1.3679054054053961 0.48528811404415773 0.99061345538166756 1.009386544617999 0 0.73703553820768952 1.137914212601322 0.63209459459459538 0.63209459459460771 1.3679054054053961 0.59772980397989239 0.59772980397970443 0.74731771606769093 0.48528811404415773 0.99061345538166756 1.009386544617999 0 0.97934782608799098 1.5921289062499051 0.59772980397967113 1.252682283932151 1.4022701960199091 0.63209459459459538 0.63209459459460771 1.3679054054053961 0.48528811404415773 0.99061345538166756 1.009386544617999 0 0.73703553820768952 1.137914212601322 0 1.1379319433661621 1.2629046154773571 0 0.97934782608799098 1.5921289062499051 0.48528811404415773 0.99061345538166756 1.009386544617999 0 0.73703553820768952 1.137914212601322 0 0.97934782608799098 1.5921289062499051 0 0.57499999999972706 1.4249999999995451 0.63209459459459538 0.63209459459460771 1.3679054054053961 0 0.40787109374995661 0.97934782608798243 0 0.73703553820768952 1.137914212601322 0.63209459459459538 0.63209459459460771 1.3679054054053961 0.59772980397989239 0.59772980397970443 0.74731771606769093 0 0.73703553820768952 1.137914212601322 0 0.57499999999972706 1.4249999999995451 0 0.40787109374995661 0.97934782608798243 0.63209459459459538 0.63209459459460771 1.3679054054053961 0 0.73703553820768952 1.137914212601322 0 1.0000000000000291 0.99999999999996969 0 1.1379319433661621 1.2629046154773571 0.48528811404415773 0.99061345538166756 1.009386544617999 0 0.26340755208329458 1.374036231884757 0.33416666666682932 0 1.665833333333445 0.26340755208335531 0 1.374036231884725 0.63209459459459538 0.63209459459460771 1.3679054054053961 0.33416666666682932 0 1.665833333333445 0.57499999999978968 0 1.424999999999482 0.26340755208335531 0 1.374036231884725 0.63209459459459538 0.63209459459460771 1.3679054054053961 0.40787109375015718 0 0.97934782608792492 0 0.40787109374995661 0.97934782608798243 0.63209459459459538 0.63209459459460771 1.3679054054053961 0.59772980397989239 0.59772980397970443 0.74731771606769093 0 0.40787109374995661 0.97934782608798243 0 0.26340755208329458 1.374036231884757 0.26340755208335531 0 1.374036231884725 0.63209459459459538 0.63209459459460771 1.3679054054053961 0.40787109375015718 0 0.97934782608792492 0 0.40787109374995661 0.97934782608798243 0.26340755208335531 0 1.374036231884725 0.63209459459459538 0.63209459459460771 1.3679054054053961 0 0.40787109374995661 0.97934782608798243 0 0.57499999999972706 1.4249999999995451 0 0.26340755208329458 1.374036231884757 0.63209459459459538 0.63209459459460771 1.3679054054053961 0.40787109375015718 0 0.97934782608792492 0.26340755208335531 0 1.374036231884725 0.57499999999978968 0 1.424999999999482 0.63209459459459538 0.63209459459460771 1.3679054054053961 0 0.33416666666678929 1.6658333333334849 0 0.26340755208329458 1.374036231884757 0 0.57499999999972706 1.4249999999995451 0.63209459459459538 0.63209459459460771 1.3679054054053961 0 0 1.6000000000000001 0 0 1.200000000002774 0 0.26340755208329458 1.374036231884757 0.26340755208335531 0 1.374036231884725 0 0.40787109374995661 0.97934782608798243 0 0 1.200000000002774 0.40787109375015718 0 0.97934782608792492 0.26340755208335531 0 1.374036231884725 0 0 1.200000000002774 0 0.40787109374995661 0.97934782608798243 0 0.26340755208329458 1.374036231884757 0.26340755208335531 0 1.374036231884725 0.73709538452274337 0 1.137931943365984 0.57499999999978968 0 1.424999999999482 0.97934782608803661 0 1.5921289062498969 0.63209459459459538 0.63209459459460771 1.3679054054053961 0.73709538452274337 0 1.137931943365984 0.40787109375015718 0 0.97934782608792492 0.57499999999978968 0 1.424999999999482 0.63209459459459538 0.63209459459460771 1.3679054054053961 0.40787109375015718 0 0.97934782608792492 0.63209459459459538 0.63209459459460771 1.3679054054053961 0.73709538452274337 0 1.137931943365984 0.59772980397989239 0.59772980397970443 0.74731771606769093 0.63209459459459538 0.63209459459460771 1.3679054054053961 1.2526822839324241 0.59772980398008735 1.402270196020621 0.97934782608803661 0 1.5921289062498969 0.98528458949709452 0.48395451161029718 1.014715410503322 0.73709538452274337 0 1.137931943365984 0.59772980397989239 0.59772980397970443 0.74731771606769093 0.63209459459459538 0.63209459459460771 1.3679054054053961 0.98528458949709452 0.48395451161029718 1.014715410503322 0.97934782608803661 0 1.5921289062498969 0.73709538452274337 0 1.137931943365984 0.63209459459459538 0.63209459459460771 1.3679054054053961 0.98528458949709452 0.48395451161029718 1.014715410503322 0.97934782608803661 0 1.5921289062498969 1.1393113769850489 0 1.263313302510394 0.73709538452274337 0 1.137931943365984 0.98528458949709452 0.48395451161029718 1.014715410503322 0.73709538452274337 0 1.137931943365984 1.1393113769850489 0 1.263313302510394 1.0000000000002141 0 0.99999999999992895 0.98528458949709452 0.48395451161029718 1.014715410503322 0.57499999999978968 0 1.424999999999482 0.62412558229932147 0 1.7349990699404549 0.97934782608803661 0 1.5921289062498969 0.63209459459459538 0.63209459459460771 1.3679054054053961 0.979347826088805 0.40787109374939401 2 0.61665443494899885 0.26235908848011791 2 0.57500000000013385 0.57500000000013385 2 0.63209459459459538 0.63209459459460771 1.3679054054053961 0.33416666666682932 0 1.665833333333445 0.61665443494899885 0.26235908848011791 2 0.62412558229932147 0 1.7349990699404549 0.63209459459459538 0.63209459459460771 1.3679054054053961 0.62412558229932147 0 1.7349990699404549 0.979347826088805 0.40787109374939401 2 0.97934782608803661 0 1.5921289062498969 0.63209459459459538 0.63209459459460771 1.3679054054053961 0.57499999999978968 0 1.424999999999482 0.33416666666682932 0 1.665833333333445 0.62412558229932147 0 1.7349990699404549 0.63209459459459538 0.63209459459460771 1.3679054054053961 0.979347826088805 0.40787109374939401 2 0.97934782608803661 0 1.5921289062498969 0.63209459459459538 0.63209459459460771 1.3679054054053961 1.2526822839324241 0.59772980398008735 1.402270196020621 0.32892434865106179 0.32892434865106179 2 0.57500000000013385 0.57500000000013385 2 0.61665443494899885 0.26235908848011791 2 0.63209459459459538 0.63209459459460771 1.3679054054053961 0.979347826088805 0.40787109374939401 2 0.62412558229932147 0 1.7349990699404549 0.61665443494899885 0.26235908848011791 2 0.63209459459459538 0.63209459459460771 1.3679054054053961 0.979347826088805 0.40787109374939401 2 0.62412558229932147 0 1.7349990699404549 0.80000000000332872 0 2 0.61665443494899885 0.26235908848011791 2 0.979347826088805 0.40787109374939401 2 0.80000000000332872 0 2 0.97934782608803661 0 1.5921289062498969 1.200000000002774 0 2 0.62412558229932147 0 1.7349990699404549 0.979347826088805 0.40787109374939401 2 0.80000000000332872 0 2 0.97934782608803661 0 1.5921289062498969 0.62412558229932147 0 1.7349990699404549 0.40000000000166441 0 2 0.80000000000332872 0 2 0.61665443494899885 0.26235908848011791 2 0.32892434865106179 0.32892434865106179 2 0.40000000000166441 0 2 0.33416666666682932 0 1.665833333333445 0.61665443494899885 0.26235908848011791 2 0 0.33416666666678929 1.6658333333334849 0.26235908848041961 0.62491530451389399 2 0.32892434865106179 0.32892434865106179 2 0.63209459459459538 0.63209459459460771 1.3679054054053961 0.33416666666682932 0 1.665833333333445 0.40000000000166441 0 2 0.62412558229932147 0 1.7349990699404549 0.61665443494899885 0.26235908848011791 2 0.33416666666682932 0 1.665833333333445 0.32892434865106179 0.32892434865106179 2 0.61665443494899885 0.26235908848011791 2 0.63209459459459538 0.63209459459460771 1.3679054054053961 0 0.33416666666678929 1.6658333333334849 0.33416666666682932 0 1.665833333333445 0 0.26340755208329458 1.374036231884757 0.63209459459459538 0.63209459459460771 1.3679054054053961 0 0 2 0.32892434865106179 0.32892434865106179 2 0.40000000000166441 0 2 0.33416666666682932 0 1.665833333333445 0 0.33416666666678929 1.6658333333334849 0.32892434865106179 0.32892434865106179 2 0.33416666666682932 0 1.665833333333445 0.63209459459459538 0.63209459459460771 1.3679054054053961 0 0.33416666666678929 1.6658333333334849 0.32892434865106179 0.32892434865106179 2 0 0.40000000000166441 2 0 0 2 0.26235908848041961 0.62491530451389399 2 0 0.33416666666678929 1.6658333333334849 0 0.40000000000166441 2 0 0.62412558229928472 1.7349990699404849 0 0.33416666666678929 1.6658333333334849 0.26235908848041961 0.62491530451389399 2 0 0.40000000000166441 2 0.32892434865106179 0.32892434865106179 2 0 0 1.6000000000000001 0 0.33416666666678929 1.6658333333334849 0 0 2 0.33416666666682932 0 1.665833333333445 0.33416666666682932 0 1.665833333333445 0 0 1.6000000000000001 0 0.26340755208329458 1.374036231884757 0.26340755208335531 0 1.374036231884725 0 0 1.6000000000000001 0 0.33416666666678929 1.6658333333334849 0.33416666666682932 0 1.665833333333445 0 0.26340755208329458 1.374036231884757 0 0.33416666666678929 1.6658333333334849 0.32892434865106179 0.32892434865106179 2 0 0 2 0.33416666666682932 0 1.665833333333445 
</DataArray>
</Points>
<Cells>
<DataArray type="UInt32" Name="connectivity" format="ascii">
0 1 2 3 4 5 6 7 8 9 10 11 12 13 14 15 16 17 18 19 20 21 22 23 24 25 26 27 28 29 30 31 32 33 34 35 36 37 38 39 40 41 42 43 44 45 46 47 48 49 50 51 52 53 54 55 56 57 58 59 60 61 62 63 64 65 66 67 68 69 70 71 72 73 74 75 76 77 78 79 80 81 82 83 84 85 86 87 88 89 90 91 92 93 94 95 96 97 98 99 100 101 102 103 104 105 106 107 108 109 110 111 112 113 114 115 116 117 118 119 120 121 122 123 124 125 126 127 128 129 130 131 132 133 134 135 136 137 138 139 140 141 142 143 144 145 146 147 148 149 150 151 152 153 154 155 156 157 158 159 160 161 162 163 164 165 166 167 168 169 170 171 172 173 174 175 176 177 178 179 180 181 182 183 184 185 186 187 188 189 190 191 192 193 194 195 196 197 198 199 200 201 202 203 204 205 206 207 208 209 210 211 212 213 214 215 216 217 218 219 220 221 222 223 224 225 226 227 228 229 230 231 232 233 234 235 236 237 238 239 240 241 242 243 244 245 246 247 248 249 250 251 252 253 254 255 256 257 258 259 260 261 262 263 264 265 266 267 268 269 270 271 272 273 274 275 276 277 278 279 280 281 282 283 284 285 286 287 288 289 290 291 292 293 294 295 296 297 298 299 300 301 302 303 304 305 306 307 308 309 310 311 312 313 314 315 316 317 318 319 320 321 322 323 324 325 326 327 328 329 330 331 332 333 334 335 336 337 338 339 340 341 342 343 344 345 346 347 348 349 350 351 352 353 354 355 356 357 358 359 360 361 362 363 364 365 366 367 368 369 370 371 372 373 374 375 376 377 378 379 380 381 382 383 384 385 386 387 388 389 390 391 392 393 394 395 396 397 398 399 400 401 402 403 404 405 406 407 408 409 410 411 412 413 414 415 416 417 418 419 420 421 422 423 424 425 426 427 428 429 430 431 432 433 434 435 436 437 438 439 440 441 442 443 444 445 446 447 448 449 450 451 452 453 454 455 456 457 458 459 460 461 462 463 464 465 466 467 468 469 470 471 472 473 474 475 476 477 478 479 480 481 482 483 484 485 486 487 488 489 490 491 492 493 494 495 496 497 498 499 500 501 502 503 504 505 506 507 508 509 510 511 512 513 514 515 516 517 518 519 520 521 522 523 524 525 526 527 528 529 530 531 532 533 534 535 536 537 538 539 540 541 542 543 544 545 546 547 548 549 550 551 552 553 554 555 556 557 558 559 560 561 562 563 564 565 566 567 568 569 570 571 572 573 574 575 576 577 578 579 580 581 582 583 584 585 586 587 588 589 590 591 592 593 594 595 596 597 598 599 600 601 602 603 604 605 606 607 608 609 610 611 612 613 614 615 616 617 618 619 620 621 622 623 624 625 626 627 628 629 630 631 632 633 634 635 636 637 638 639 640 641 642 643 644 645 646 647 648 649 650 651 652 653 654 655 656 657 658 659 660 661 662 663 664 665 666 667 668 669 670 671 672 673 674 675 676 677 678 679 680 681 682 683 684 685 686 687 688 689 690 691 692 693 694 695 696 697 698 699 700 701 702 703 704 705 706 707 708 709 710 711 712 713 714 715 716 717 718 719 720 721 722 723 724 725 726 727 728 729 730 731 732 733 734 735 736 737 738 739 740 741 742 743 744 745 746 747 748 749 750 751 752 753 754 755 756 757 758 759 760 761 762 763 764 765 766 767 768 769 770 771 772 773 774 775 776 777 778 779 780 781 782 783 784 785 786 787 788 789 790 791 792 793 794 795 796 797 798 799 800 801 802 803 804 805 806 807 808 809 810 811 812 813 814 815 816 817 818 819 820 821 822 823 824 825 826 827 828 829 830 831 832 833 834 835 836 837 838 839 840 841 842 843 844 845 846 847 848 849 850 851 852 853 854 855 856 857 858 859 860 861 862 863 864 865 866 867 868 869 870 871 872 873 874 875 876 877 878 879 880 881 882 883 884 885 886 887 888 889 890 891 892 893 894 895 896 897 898 899 900 901 902 903 904 905 906 907 908 909 910 911 912 913 914 915 916 917 918 919 920 921 922 923 924 925 926 927 928 929 930 931 932 933 934 935 936 937 938 939 940 941 942 943 944 945 946 947 948 949 950 951 952 953 954 955 956 957 958 959 960 961 962 963 964 965 966 967 968 969 970 971 972 973 974 975 976 977 978 979 980 981 982 983 984 985 986 987 988 989 990 991 992 993 994 995 996 997 998 999 1000 1001 1002 1003 1004 1005 1006 1007 1008 1009 1010 1011 1012 1013 1014 1015 1016 1017 1018 1019 1020 1021 1022 1023 1024 1025 1026 1027 1028 1029 1030 1031 1032 1033 1034 1035 1036 1037 1038 1039 1040 1041 1042 1043 1044 1045 1046 1047 1048 1049 1050 1051 1052 1053 1054 1055 1056 1057 1058 1059 1060 1061 1062 1063 1064 1065 1066 1067 1068 1069 1070 1071 1072 1073 1074 1075 1076 1077 1078 1079 1080 1081 1082 1083 1084 1085 1086 1087 1088 1089 1090 1091 1092 1093 1094 1095 1096 1097 1098 1099 1100 1101 1102 1103 1104 1105 1106 1107 1108 1109 1110 1111 1112 1113 1114 1115 1116 1117 1118 1119 1120 1121 1122 1123 1124 1125 1126 1127 1128 1129 1130 1131 1132 1133 1134 1135 1136 1137 1138 1139 1140 1141 1142 1143 1144 1145 1146 1147 1148 1149 1150 1151 1152 1153 1154 1155 1156 1157 1158 1159 1160 1161 1162 1163 1164 1165 1166 1167 1168 1169 1170 1171 1172 1173 1174 1175 1176 1177 1178 1179 1180 1181 1182 1183 1184 1185 1186 1187 1188 1189 1190 1191 1192 1193 1194 1195 1196 1197 1198 1199 1200 1201 1202 1203 1204 1205 1206 1207 1208 1209 1210 1211 1212 1213 1214 1215 1216 1217 1218 1219 1220 1221 1222 1223 1224 1225 1226 1227 1228 1229 1230 1231 1232 1233 1234 1235 1236 1237 1238 1239 1240 1241 1242 1243 1244 1245 1246 1247 1248 1249 1250 1251 1252 1253 1254 1255 1256 1257 1258 1259 1260 1261 1262 1263 1264 1265 1266 1267 1268 1269 1270 1271 1272 1273 1274 1275 1276 1277 1278 1279 1280 1281 1282 1283 1284 1285 1286 1287 1288 1289 1290 1291 1292 1293 1294 1295 1296 1297 1298 1299 1300 1301 1302 1303 1304 1305 1306 1307 1308 1309 1310 1311 1312 1313 1314 1315 1316 1317 1318 1319 1320 1321 1322 1323 1324 1325 1326 1327 1328 1329 1330 1331 1332 1333 1334 1335 1336 1337 1338 1339 1340 1341 1342 1343 1344 1345 1346 1347 1348 1349 1350 1351 1352 1353 1354 1355 1356 1357 1358 1359 1360 1361 1362 1363 1364 1365 1366 1367 1368 1369 1370 1371 1372 1373 1374 1375 1376 1377 1378 1379 1380 1381 1382 1383 1384 1385 1386 1387 1388 1389 1390 1391 1392 1393 1394 1395 1396 1397 1398 1399 1400 1401 1402 1403 1404 1405 1406 1407 1408 1409 1410 1411 1412 1413 1414 1415 1416 1417 1418 1419 1420 1421 1422 1423 1424 1425 1426 1427 1428 1429 1430 1431 1432 1433 1434 1435 1436 1437 1438 1439 1440 1441 1442 1443 1444 1445 1446 1447 1448 1449 1450 1451 1452 1453 1454 1455 1456 1457 1458 1459 1460 1461 1462 1463 1464 1465 1466 1467 1468 1469 1470 1471 1472 1473 1474 1475 1476 1477 1478 1479 1480 1481 1482 1483 1484 1485 1486 1487 1488 1489 1490 1491 1492 1493 1494 1495 1496 1497 1498 1499 1500 1501 1502 1503 1504 1505 1506 1507 1508 1509 1510 1511 1512 1513 1514 1515 1516 1517 1518 1519 1520 1521 1522 1523 1524 1525 1526 1527 1528 1529 1530 1531 1532 1533 1534 1535 1536 1537 1538 1539 1540 1541 1542 1543 1544 1545 1546 1547 1548 1549 1550 1551 1552 1553 1554 1555 1556 1557 1558 1559 1560 1561 1562 1563 1564 1565 1566 1567 1568 1569 1570 1571 1572 1573 1574 1575 1576 1577 1578 1579 1580 1581 1582 1583 1584 1585 1586 1587 1588 1589 1590 1591 1592 1593 1594 1595 1596 1597 1598 1599 1600 1601 1602 1603 1604 1605 1606 1607 1608 1609 1610 1611 1612 1613 1614 1615 1616 1617 1618 1619 1620 1621 1622 1623 1624 1625 1626 1627 1628 1629 1630 1631 1632 1633 1634 1635 1636 1637 1638 1639 1640 1641 1642 1643 1644 1645 1646 1647 1648 1649 1650 1651 1652 1653 1654 1655 1656 1657 1658 1659 1660 1661 1662 1663 1664 1665 1666 1667 1668 1669 1670 1671 1672 1673 1674 1675 1676 1677 1678 1679 1680 1681 1682 1683 1684 1685 1686 1687 1688 1689 1690 1691 1692 1693 1694 1695 1696 1697 1698 1699 1700 1701 1702 1703 1704 1705 1706 1707 1708 1709 1710 1711 1712 1713 1714 1715 1716 1717 1718 1719 1720 1721 1722 1723 1724 1725 1726 1727 1728 1729 1730 1731 1732 1733 1734 1735 1736 1737 1738 1739 1740 1741 1742 1743 1744 1745 1746 1747 1748 1749 1750 1751 1752 1753 1754 1755 1756 1757 1758 1759 1760 1761 1762 1763 1764 1765 1766 1767 1768 1769 1770 1771 1772 1773 1774 1775 1776 1777 1778 1779 1780 1781 1782 1783 1784 1785 1786 1787 1788 1789 1790 1791 1792 1793 1794 1795 1796 1797 1798 1799 1800 1801 1802 1803 1804 1805 1806 1807 1808 1809 1810 1811 1812 1813 1814 1815 1816 1817 1818 1819 1820 1821 1822 1823 1824 1825 1826 1827 1828 1829 1830 1831 1832 1833 1834 1835 1836 1837 1838 1839 1840 1841 1842 1843 1844 1845 1846 1847 1848 1849 1850 1851 1852 1853 1854 1855 1856 1857 1858 1859 1860 1861 1862 1863 1864 1865 1866 1867 1868 1869 1870 1871 1872 1873 1874 1875 1876 1877 1878 1879 1880 1881 1882 1883 1884 1885 1886 1887 1888 1889 1890 1891 1892 1893 1894 1895 1896 1897 1898 1899 1900 1901 1902 1903 1904 1905 1906 1907 1908 1909 1910 1911 1912 1913 1914 1915 1916 1917 1918 1919 1920 1921 1922 1923 1924 1925 1926 1927 1928 1929 1930 1931 1932 1933 1934 1935 1936 1937 1938 1939 1940 1941 1942 1943 1944 1945 1946 1947 1948 1949 1950 1951 1952 1953 1954 1955 1956 1957 1958 1959 1960 1961 1962 1963 1964 1965 1966 1967 1968 1969 1970 1971 1972 1973 1974 1975 1976 1977 1978 1979 1980 1981 1982 1983 1984 1985 1986 1987 1988 1989 1990 1991 1992 1993 1994 1995 1996 1997 1998 1999 2000 2001 2002 2003 2004 2005 2006 2007 2008 2009 2010 2011 2012 2013 2014 2015 2016 2017 2018 2019 2020 2021 2022 2023 2024 2025 2026 2027 2028 2029 2030 2031 2032 2033 2034 2035 2036 2037 2038 2039 2040 2041 2042 2043 2044 2045 2046 2047 2048 2049 2050 2051 2052 2053 2054 2055 2056 2057 2058 2059 2060 2061 2062 2063 2064 2065 2066 2067 2068 2069 2070 2071 2072 2073 2074 2075 2076 2077 2078 2079 2080 2081 2082 2083 2084 2085 2086 2087 2088 2089 2090 2091 2092 2093 2094 2095 2096 2097 2098 2099 2100 2101 2102 2103 2104 2105 2106 2107 2108 2109 2110 2111 2112 2113 2114 2115 2116 2117 2118 2119 2120 2121 2122 2123 2124 2125 2126 2127 2128 2129 2130 2131 2132 2133 2134 2135 2136 2137 2138 2139 2140 2141 2142 2143 2144 2145 2146 2147 2148 2149 2150 2151 2152 2153 2154 2155 2156 2157 2158 2159 2160 2161 2162 2163 2164 2165 2166 2167 2168 2169 2170 2171 2172 2173 2174 2175 2176 2177 2178 2179 2180 2181 2182 2183 2184 2185 2186 2187 2188 2189 2190 2191 2192 2193 2194 2195 2196 2197 2198 2199 2200 2201 2202 2203 2204 2205 2206 2207 2208 2209 2210 2211 2212 2213 2214 2215 2216 2217 2218 2219 2220 2221 2222 2223 2224 2225 2226 2227 2228 2229 2230 2231 2232 2233 2234 2235 2236 2237 2238 2239 2240 2241 2242 2243 2244 2245 2246 2247 2248 2249 2250 2251 2252 2253 2254 2255 2256 2257 2258 2259 2260 2261 2262 2263 2264 2265 2266 2267 2268 2269 2270 2271 2272 2273 2274 2275 2276 2277 2278 2279 2280 2281 2282 2283 2284 2285 2286 2287 2288 2289 2290 2291 2292 2293 2294 2295 2296 2297 2298 2299 2300 2301 2302 2303 2304 2305 2306 2307 2308 2309 2310 2311 2312 2313 2314 2315 2316 2317 2318 2319 2320 2321 2322 2323 2324 2325 2326 2327 2328 2329 2330 2331 2332 2333 2334 2335 2336 2337 2338 2339 2340 2341 2342 2343 2344 2345 2346 2347 2348 2349 2350 2351 2352 2353 2354 2355 2356 2357 2358 2359 2360 2361 2362 2363 2364 2365 2366 2367 2368 2369 2370 2371 2372 2373 2374 2375 2376 2377 2378 2379 2380 2381 2382 2383 2384 2385 2386 2387 2388 2389 2390 2391 2392 2393 2394 2395 2396 2397 2398 2399 2400 2401 2402 2403 2404 2405 2406 2407 2408 2409 2410 2411 2412 2413 2414 2415 2416 2417 2418 2419 2420 2421 2422 2423 2424 2425 2426 2427 2428 2429 2430 2431 2432 2433 2434 2435 2436 2437 2438 2439 2440 2441 2442 2443 2444 2445 2446 2447 2448 2449 2450 2451 2452 2453 2454 2455 2456 2457 2458 2459 2460 2461 2462 2463 2464 2465 2466 2467 2468 2469 2470 2471 2472 2473 2474 2475 2476 2477 2478 2479 2480 2481 2482 2483 2484 2485 2486 2487 2488 2489 2490 2491 2492 2493 2494 2495 2496 2497 2498 2499 2500 2501 2502 2503 2504 2505 2506 2507 2508 2509 2510 2511 2512 2513 2514 2515 2516 2517 2518 2519 2520 2521 2522 2523 2524 2525 2526 2527 2528 2529 2530 2531 2532 2533 2534 2535 2536 2537 2538 2539 2540 2541 2542 2543 2544 2545 2546 2547 2548 2549 2550 2551 2552 2553 2554 2555 2556 2557 2558 2559 2560 2561 2562 2563 2564 2565 2566 2567 2568 2569 2570 2571 2572 2573 2574 2575 2576 2577 2578 2579 2580 2581 2582 2583 2584 2585 2586 2587 2588 2589 2590 2591 2592 2593 2594 2595 2596 2597 2598 2599 2600 2601 2602 2603 2604 2605 2606 2607 2608 2609 2610 2611 2612 2613 2614 2615 2616 2617 2618 2619 2620 2621 2622 2623 2624 2625 2626 2627 2628 2629 2630 2631 2632 2633 2634 2635 2636 2637 2638 2639 2640 2641 2642 2643 2644 2645 2646 2647 2648 2649 2650 2651 2652 2653 2654 2655 2656 2657 2658 2659 2660 2661 2662 2663 2664 2665 2666 2667 2668 2669 2670 2671 2672 2673 2674 2675 2676 2677 2678 2679 2680 2681 2682 2683 2684 2685 2686 2687 2688 2689 2690 2691 2692 2693 2694 2695 2696 2697 2698 2699 2700 2701 2702 2703 2704 2705 2706 2707 2708 2709 2710 2711 2712 2713 2714 2715 2716 2717 2718 2719 2720 2721 2722 2723 2724 2725 2726 2727 2728 2729 2730 2731 2732 2733 2734 2735 2736 2737 2738 2739 2740 2741 2742 2743 2744 2745 2746 2747 2748 2749 2750 2751 2752 2753 2754 2755 2756 2757 2758 2759 2760 2761 2762 2763 2764 2765 2766 2767 2768 2769 2770 2771 2772 2773 2774 2775 2776 2777 2778 2779 2780 2781 2782 2783 2784 2785 2786 2787 2788 2789 2790 2791 2792 2793 2794 2795 2796 2797 2798 2799 2800 2801 2802 2803 2804 2805 2806 2807 2808 2809 2810 2811 2812 2813 2814 2815 2816 2817 2818 2819 2820 2821 2822 2823 
</DataArray>
<DataArray type="UInt32" Name="offsets" format="ascii">
4 8 12 16 20 24 28 32 36 40 44 48 52 56 60 64 68 72 76 80 84 88 92 96 100 104 108 112 116 120 124 128 132 136 140 144 148 152 156 160 164 168 172 176 180 184 188 192 196 200 204 208 212 216 220 224 228 232 236 240 244 248 252 256 260 264 268 272 276 280 284 288 292 296 300 304 308 312 316 320 324 328 332 336 340 344 348 352 356 360 364 368 372 376 380 384 388 392 396 400 404 408 412 416 420 424 428 432 436 440 444 448 452 456 460 464 468 472 476 480 484 488 492 496 500 504 508 512 516 520 524 528 532 536 540 544 548 552 556 560 564 568 572 576 580 584 588 592 596 600 604 608 612 616 620 624 628 632 636 640 644 648 652 656 660 664 668 672 676 680 684 688 692 696 700 704 708 712 716 720 724 728 732 736 740 744 748 752 756 760 764 768 772 776 780 784 788 792 796 800 804 808 812 816 820 824 828 832 836 840 844 848 852 856 860 864 868 872 876 880 884 888 892 896 900 904 908 912 916 920 924 928 932 936 940 944 948 952 956 960 964 968 972 976 980 984 988 992 996 1000 1004 1008 1012 1016 1020 1024 1028 1032 1036 1040 1044 1048 1052 1056 1060 1064 1068 1072 1076 1080 1084 1088 1092 1096 1100 1104 1108 1112 1116 1120 1124 1128 1132 1136 1140 1144 1148 1152 1156 1160 1164 1168 1172 1176 1180 1184 1188 1192 1196 1200 1204 1208 1212 1216 1220 1224 1228 1232 1236 1240 1244 1248 1252 1256 1260 1264 1268 1272 1276 1280 1284 1288 1292 1296 1300 1304 1308 1312 1316 1320 1324 1328 1332 1336 1340 1344 1348 1352 1356 1360 1364 1368 1372 1376 1380 1384 1388 1392 1396 1400 1404 1408 1412 1416 1420 1424 1428 1432 1436 1440 1444 1448 1452 1456 1460 1464 1468 1472 1476 1480 1484 1488 1492 1496 1500 1504 1508 1512 1516 1520 1524 1528 1532 1536 1540 1544 1548 1552 1556 1560 1564 1568 1572 1576 1580 1584 1588 1592 1596 1600 1604 1608 1612 1616 1620 1624 1628 1632 1636 1640 1644 1648 1652 1656 1660 1664 1668 1672 1676 1680 1684 1688 1692 1696 1700 1704 1708 1712 1716 1720 1724 1728 1732 1736 1740 1744 1748 1752 1756 1760 1764 1768 1772 1776 1780 1784 1788 1792 1796 1800 1804 1808 1812 1816 1820 1824 1828 1832 1836 1840 1844 1848 1852 1856 1860 1864 1868 1872 1876 1880 1884 1888 1892 1896 1900 1904 1908 1912 1916 1920 1924 1928 1932 1936 1940 1944 1948 1952 1956 1960 1964 1968 1972 1976 1980 1984 1988 1992 1996 2000 2004 2008 2012 2016 2020 2024 2028 2032 2036 2040 2044 2048 2052 2056 2060 2064 2068 2072 2076 2080 2084 2088 2092 2096 2100 2104 2108 2112 2116 2120 2124 2128 2132 2136 2140 2144 2148 2152 2156 2160 2164 2168 2172 2176 2180 2184 2188 2192 2196 2200 2204 2208 2212 2216 2220 2224 2228 2232 2236 2240 2244 2248 2252 2256 2260 2264 2268 2272 2276 2280 2284 2288 2292 2296 2300 2304 2308 2312 2316 2320 2324 2328 2332 2336 2340 2344 2348 2352 2356 2360 2364 2368 2372 2376 2380 2384 2388 2392 2396 2400 2404 2408 2412 2416 2420 2424 2428 2432 2436 2440 2444 2448 2452 2456 2460 2464 2468 2472 2476 2480 2484 2488 2492 2496 2500 2504 2508 2512 2516 2520 2524 2528 2532 2536 2540 2544 2548 2552 2556 2560 2564 2568 2572 2576 2580 2584 2588 2592 2596 2600 2604 2608 2612 2616 2620 2624 2628 2632 2636 2640 2644 2648 2652 2656 2660 2664 2668 2672 2676 2680 2684 2688 2692 2696 2700 2704 2708 2712 2716 2720 2724 2728 2732 2736 2740 2744 2748 2752 2756 2760 2764 2768 2772 2776 2780 2784 2788 2792 2796 2800 2804 2808 2812 2816 2820 2824 
</DataArray>
<DataArray type="UInt32" Name="types" format="ascii">
10 10 10 10 10 10 10 10 10 10 10 10 10 10 10 10 10 10 10 10 10 10 10 10 10 10 10 10 10 10 10 10 10 10 10 10 10 10 10 10 10 10 10 10 10 10 10 10 10 10 10 10 10 10 10 10 10 10 10 10 10 10 10 10 10 10 10 10 10 10 10 10 10 10 10 10 10 10 10 10 10 10 10 10 10 10 10 10 10 10 10 10 10 10 10 10 10 10 10 10 10 10 10 10 10 10 10 10 10 10 10 10 10 10 10 10 10 10 10 10 10 10 10 10 10 10 10 10 10 10 10 10 10 10 10 10 10 10 10 10 10 10 10 10 10 10 10 10 10 10 10 10 10 10 10 10 10 10 10 10 10 10 10 10 10 10 10 10 10 10 10 10 10 10 10 10 10 10 10 10 10 10 10 10 10 10 10 10 10 10 10 10 10 10 10 10 10 10 10 10 10 10 10 10 10 10 10 10 10 10 10 10 10 10 10 10 10 10 10 10 10 10 10 10 10 10 10 10 10 10 10 10 10 10 10 10 10 10 10 10 10 10 10 10 10 10 10 10 10 10 10 10 10 10 10 10 10 10 10 10 10 10 10 10 10 10 10 10 10 10 10 10 10 10 10 10 10 10 10 10 10 10 10 10 10 10 10 10 10 10 10 10 10 10 10 10 10 10 10 10 10 10 10 10 10 10 10 10 10 10 10 10 10 10 10 10 10 10 10 10 10 10 10 10 10 10 10 10 10 10 10 10 10 10 10 10 10 10 10 10 10 10 10 10 10 10 10 10 10 10 10 10 10 10 10 10 10 10 10 10 10 10 10 10 10 10 10 10 10 10 10 10 10 10 10 10 10 10 10 10 10 10 10 10 10 10 10 10 10 10 10 10 10 10 10 10 10 10 10 10 10 10 10 10 10 10 10 10 10 10 10 10 10 10 10 10 10 10 10 10 10 10 10 10 10 10 10 10 10 10 10 10 10 10 10 10 10 10 10 10 10 10 10 10 10 10 10 10 10 10 10 10 10 10 10 10 10 10 10 10 10 10 10 10 10 10 10 10 10 10 10 10 10 10 10 10 10 10 10 10 10 10 10 10 10 10 10 10 10 10 10 10 10 10 10 10 10 10 10 10 10 10 10 10 10 10 10 10 10 10 10 10 10 10 10 10 10 10 10 10 10 10 10 10 10 10 10 10 10 10 10 10 10 10 10 10 10 10 10 10 10 10 10 10 10 10 10 10 10 10 10 10 10 10 10 10 10 10 10 10 10 10 10 10 10 10 10 10 10 10 10 10 10 10 10 10 10 10 10 10 10 10 10 10 10 10 10 10 10 10 10 10 10 10 10 10 10 10 10 10 10 10 10 10 10 10 10 10 10 10 10 10 10 10 10 10 10 10 10 10 10 10 10 10 10 10 10 10 10 10 10 10 10 10 10 10 10 10 10 10 10 10 10 10 10 10 10 10 10 10 10 10 10 10 10 10 10 10 10 10 10 10 10 10 10 10 10 10 10 10 10 10 10 10 10 10 10 10 10 10 10 10 10 10 10 10 10 10 10 10 10 10 10 10 10 10 10 10 10 10 10 10 10 10 10 10 
</DataArray>
</Cells>
<PointData Scalars="" Vectors="displacement," Tensors="">
<DataArray type="Float64" Name="displacement" NumberOfComponents="3" format="ascii">
-1.1437241898339731e-06 -1.1628436669266493e-06 -9.2910843239570827e-06 -1.0517844556006972e-06 -1.6275051638452589e-06 -0.037601047081558182 2.7706982072822034e-07 2.8115503271518606e-07 -5.4361537268081065e-06 -1.6152382263135563e-06 -8.7527316421514517e-07 -0.037011082242534001 -1.0517844556006972e-06 -1.6275051638452589e-06 -0.037601047081558182 -1.0576413973537315e-06 -1.1662869834646817e-06 -0.070221601592143745 -5.7835218419264094e-07 -1.4890219928504194e-06 -0.064694920224527303 -2.6068322373151984e-10 -7.591339129477071e-07 -0.044493327485174025 -1.0576413973537315e-06 -1.1662869834646817e-06 -0.070221601592143745 -1.1836508910538652e-06 -1.0510737556647355e-06 -0.069381195667945539 -2.6068322373148975e-10 -7.591339129477071e-07 -0.044493327485174018 -1.0517844556006972e-06 -1.6275051638452589e-06 -0.037601047081558182 2.7706982072822034e-07 2.8115503271518606e-07 -5.4361537268081065e-06 -1.6152382263135561e-06 -8.7527316421514475e-07 -0.037011082242533994 -2.6068322373135441e-10 -7.5913391294770646e-07 -0.044493327485174011 -9.1288436913113809e-07 2.996897167014111e-08 -0.044618578492471604 -1.6152382263135563e-06 -8.7527316421514517e-07 -0.037011082242534001 -2.606832237316265e-10 -7.5913391294770689e-07 -0.044493327485174025 -1.1836508910538652e-06 -1.0510737556647355e-06 -0.069381195667945539 -1.0517844556006974e-06 -1.6275051638452593e-06 -0.037601047081558182 -1.0517844556006972e-06 -1.6275051638452589e-06 -0.037601047081558182 2.7706982072822034e-07 2.8115503271518606e-07 -5.4361537268081065e-06 -1.6152382263135563e-06 -8.7527316421514517e-07 -0.037011082242534001 -2.6068322373160499e-10 -7.591339129477071e-07 -0.044493327485174025 -1.610870033789996e-06 -1.6641285476438537e-06 -0.045007796662184664 -1.0517844556006972e-06 -1.6275051638452589e-06 -0.037601047081558182 -1.6152382263135565e-06 -8.7527316421514506e-07 -0.037011082242533994 -1.1836508910538652e-06 -1.0510737556647355e-06 -0.069381195667945539 -1.0517844556006972e-06 -1.6275051638452589e-06 -0.037601047081558182 -1.1437241898339731e-06 -1.1628436669266493e-06 -9.2910843239570827e-06 -1.610870033789996e-06 -1.6641285476438537e-06 -0.045007796662184664 -1.6152382263135563e-06 -8.7527316421514517e-07 -0.037011082242534001 -1.610870033789996e-06 -1.6641285476438537e-06 -0.045007796662184664 -1.0517844556006972e-06 -1.6275051638452589e-06 -0.037601047081558182 -1.1836508910538654e-06 -1.0510737556647355e-06 -0.069381195667945539 -1.0576413973537315e-06 -1.1662869834646817e-06 -0.070221601592143745 2.7706982072822034e-07 2.8115503271518606e-07 -5.4361537268081065e-06 -7.393813765402345e-07 1.1913262339504389e-07 -5.9289463123753029e-06 -1.6152382263135563e-06 -8.7527316421514475e-07 -0.037011082242533994 -1.6240251027577223e-06 -2.221630175218113e-07 -0.029522635680216871 -7.393813765402345e-07 1.1913262339504389e-07 -5.9289463123753029e-06 2.7706982072822034e-07 2.8115503271518606e-07 -5.4361537268081065e-06 2.6998146304878523e-07 -5.6686939412650709e-08 -5.4832330560666758e-06 -1.6240251027577223e-06 -2.221630175218113e-07 -0.029522635680216871 -7.393813765402345e-07 1.1913262339504389e-07 -5.9289463123753029e-06 -1.1437241898339731e-06 -1.1628436669266493e-06 -9.2910843239582702e-06 2.7706982072822034e-07 2.8115503271518606e-07 -5.4361537268081065e-06 -1.6152382263135563e-06 -8.7527316421514517e-07 -0.037011082242534001 -1.0517844556006972e-06 -1.6275051638452589e-06 -0.037601047081558182 -3.2503207307761558e-07 -1.6199349468911886e-06 -0.029640622414729017 1.1689221825536017e-07 -7.4701891159394034e-07 -6.1814093938679922e-06 -5.5563166330817505e-08 2.7269068758291007e-07 -4.9021265908711286e-06 -1.0517844556006972e-06 -1.6275051638452589e-06 -0.037601047081558182 -1.1437241898339731e-06 -1.1628436669266493e-06 -9.2910843239570827e-06 2.7706982072822034e-07 2.8115503271518606e-07 -5.4361537268081065e-06 1.1689221825536017e-07 -7.4701891159394034e-07 -6.1814093938679922e-06 2.7706982072822034e-07 2.8115503271518606e-07 -5.4361537268081065e-06 -1.0517844556006972e-06 -1.6275051638452589e-06 -0.037601047081558182 1.1689221825536015e-07 -7.4701891159394034e-07 -6.1814093938679922e-06 -5.5563166330817505e-08 2.7269068758291007e-07 -4.9021265908711286e-06 -3.2503207307761569e-07 -1.6199349468911884e-06 -0.029640622414729013 -1.3487998474587854e-09 -9.9436283606844665e-07 -7.6468341894303034e-06 -5.5563166330817505e-08 2.7269068758291007e-07 -4.9021265908711286e-06 -2.6068322373164449e-10 -7.5913391294770699e-07 -0.044493327485174011 -3.2503207307761569e-07 -1.6199349468911884e-06 -0.029640622414729013 1.1689221825536018e-07 -7.4701891159394034e-07 -6.1814093938672375e-06 -5.5563166330817505e-08 2.7269068758291007e-07 -4.9021265908711286e-06 -1.3487998474587854e-09 -9.9436283606844665e-07 -7.6468341894303034e-06 -3.2503207307761569e-07 -1.6199349468911884e-06 -0.029640622414729013 -5.5563166330817505e-08 2.7269068758291007e-07 -4.9021265908711286e-06 -1.0517844556006972e-06 -1.6275051638452589e-06 -0.037601047081558182 -2.6068322373151379e-10 -7.591339129477071e-07 -0.044493327485174025 -3.2540468108078291e-10 2.0914835553013421e-07 -8.8082577350679402e-06 -1.487319352464344e-07 -2.3682850484688046e-06 -0.045893277902572735 2.0328949823796511e-07 -6.8846666516139169e-07 -0.066363563835468306 -2.6068322373154388e-10 -7.591339129477071e-07 -0.044493327485174018 -1.0517844556006972e-06 -1.6275051638452589e-06 -0.037601047081558182 -5.5563166330817372e-08 2.7269068758291001e-07 -4.9021265908761812e-06 2.7706982072822034e-07 2.8115503271518606e-07 -5.4361537268081065e-06 -2.6068322373172002e-10 -7.5913391294770689e-07 -0.044493327485174018 2.7706982072822034e-07 2.8115503271518606e-07 -5.4361537268081065e-06 -5.5563166330817505e-08 2.7269068758291007e-07 -4.9021265908711286e-06 -1.1391025220957601e-07 -1.1504872342335629e-07 -6.059569642879992e-06 -2.6068322373151984e-10 -7.591339129477071e-07 -0.044493327485174025 -5.5563166330817505e-08 2.7269068758291007e-07 -4.9021265908711286e-06 -3.2540468108078291e-10 2.0914835553013421e-07 -8.8082577350679402e-06 -1.1391025220957601e-07 -1.1504872342335629e-07 -6.059569642879992e-06 -2.6068322373151984e-10 -7.591339129477071e-07 -0.044493327485174025 -5.5563166330817505e-08 2.7269068758291007e-07 -4.9021265908711286e-06 -1.3487998474587854e-09 -9.9436283606844665e-07 -7.6468341894303034e-06 -3.2540468108078291e-10 2.0914835553013421e-07 -8.8082577350679402e-06 -2.6068322373151984e-10 -7.591339129477071e-07 -0.044493327485174025 -3.2540468108078291e-10 2.0914835553013421e-07 -8.8082577350679402e-06 -1.3487998474587854e-09 -9.9436283606844665e-07 -7.6468341894303034e-06 1.6971311895434125e-09 -9.6222839755603464e-07 -7.9076054456413882e-06 -1.487319352464344e-07 -2.3682850484688046e-06 -0.045893277902572735 -3.2540468108078291e-10 2.0914835553013421e-07 -8.8082577350679402e-06 -1.348799847458791e-09 -9.9436283606844665e-07 -7.6468341894292734e-06 -1.4873193524643443e-07 -2.368285048468805e-06 -0.045893277902572728 -2.6068322373151984e-10 -7.591339129477071e-07 -0.044493327485174025 -3.2503207307761569e-07 -1.6199349468911884e-06 -0.029640622414729013 -1.4873193524643438e-07 -2.3682850484688046e-06 -0.045893277902572735 -1.3487998474587854e-09 -9.9436283606844665e-07 -7.6468341894303034e-06 -2.6068322373151984e-10 -7.591339129477071e-07 -0.044493327485174025 -3.2503207307761569e-07 -1.6199349468911884e-06 -0.029640622414729013 -1.0517844556006972e-06 -1.6275051638452589e-06 -0.037601047081558182 -5.7835218419264094e-07 -1.4890219928504194e-06 -0.064694920224527303 -2.6068322373153525e-10 -7.5913391294770721e-07 -0.044493327485174032 -5.7835218419264094e-07 -1.4890219928504194e-06 -0.064694920224527303 -1.4873193524643438e-07 -2.3682850484688046e-06 -0.045893277902572735 -3.2503207307761569e-07 -1.6199349468911884e-06 -0.029640622414729013 -2.6068322373151984e-10 -7.591339129477071e-07 -0.044493327485174025 -1.8372557286915506e-07 -1.7201407338661059e-06 -0.086193261424062334 -5.7835218419264104e-07 -1.4890219928504196e-06 -0.064694920224527303 -6.2751146633239384e-07 -6.0428346057975923e-07 -0.084080607414070058 -2.6068322373151984e-10 -7.591339129477071e-07 -0.044493327485174025 -1.8372557286915506e-07 -1.7201407338661059e-06 -0.086193261424062334 -4.1782557321432068e-08 -8.3805439704036295e-07 -0.11416303671339965 2.0328949823796509e-07 -6.8846666516139159e-07 -0.066363563835468292 -2.6068322373151798e-10 -7.591339129477071e-07 -0.044493327485174018 -5.7835218419264094e-07 -1.4890219928504194e-06 -0.064694920224527303 -1.1146520123300943e-06 -2.1105469420251194e-06 -0.11018439928886213 -1.8372557286915506e-07 -1.7201407338661059e-06 -0.086193261424062334 -6.2751146633239384e-07 -6.0428346057975934e-07 -0.084080607414070058 -1.0576413973537315e-06 -1.1662869834646817e-06 -0.070221601592143745 -6.2751146633239363e-07 -6.0428346057975891e-07 -0.08408060741407003 -5.7835218419264094e-07 -1.4890219928504194e-06 -0.064694920224527303 -2.6068322373151984e-10 -7.591339129477071e-07 -0.044493327485174025 -1.8372557286915506e-07 -1.7201407338661059e-06 -0.086193261424062334 2.0328949823796509e-07 -6.8846666516139159e-07 -0.066363563835468292 -1.487319352464344e-07 -2.3682850484688046e-06 -0.045893277902572735 -2.6068322373151984e-10 -7.591339129477071e-07 -0.044493327485174025 -1.8372557286915506e-07 -1.7201407338661059e-06 -0.086193261424062334 -6.2751146633239384e-07 -6.0428346057975923e-07 -0.084080607414070058 -5.2452855144461483e-07 -1.7558241027410377e-06 -0.12802521977277156 -4.1782557321432068e-08 -8.3805439704036285e-07 -0.11416303671339965 -1.1146520123300943e-06 -2.1105469420251194e-06 -0.11018439928886213 -5.2452855144461483e-07 -1.7558241027410377e-06 -0.12802521977277156 -1.8372557286915506e-07 -1.7201407338661059e-06 -0.086193261424062334 -6.2751146633239374e-07 -6.0428346057975923e-07 -0.084080607414070044 -1.8372557286915506e-07 -1.7201407338661059e-06 -0.086193261424062334 -6.2751146633239384e-07 -6.0428346057975923e-07 -0.084080607414070058 -4.1782557321432154e-08 -8.3805439704036285e-07 -0.11416303671339967 -2.606832237316785e-10 -7.5913391294770721e-07 -0.044493327485174025 -1.8372557286915506e-07 -1.7201407338661059e-06 -0.086193261424062334 -1.487319352464344e-07 -2.3682850484688046e-06 -0.045893277902572735 -5.7835218419264094e-07 -1.4890219928504194e-06 -0.064694920224527303 -2.6068322373151984e-10 -7.591339129477071e-07 -0.044493327485174025 -1.8372557286915506e-07 -1.7201407338661059e-06 -0.086193261424062334 -5.2452855144461483e-07 -1.7558241027410377e-06 -0.12802521977277156 -3.7551287102183929e-08 -5.3757547439088497e-07 -0.11250770888502605 -4.1782557321432068e-08 -8.3805439704036285e-07 -0.11416303671339965 -1.0576413973537315e-06 -1.1662869834646817e-06 -0.070221601592143745 -1.1836508910538654e-06 -1.0510737556647358e-06 -0.069381195667945553 -2.122422722385205e-06 -1.2254363624462565e-06 -0.11018438916285854 -6.2751146633239384e-07 -6.0428346057975923e-07 -0.084080607414070058 -1.0576413973537315e-06 -1.1662869834646817e-06 -0.070221601592143745 -2.6068322373153328e-10 -7.591339129477071e-07 -0.044493327485174025 -1.1836508910538652e-06 -1.0510737556647355e-06 -0.069381195667945539 -6.2751146633239363e-07 -6.0428346057975923e-07 -0.084080607414070044 -1.6152382263135563e-06 -8.7527316421514517e-07 -0.037011082242534001 -1.1836508910538652e-06 -1.0510737556647355e-06 -0.069381195667945539 -2.6068322373012103e-10 -7.5913391294770763e-07 -0.044493327485174018 -6.2751146633239416e-07 -6.0428346057975913e-07 -0.084080607414070072 -1.6152382263135563e-06 -8.7527316421514517e-07 -0.037011082242534001 -1.5003321662178658e-06 -5.4903324989947759e-07 -0.064694901845269506 -1.1836508910538652e-06 -1.0510737556647355e-06 -0.069381195667945539 -6.2751146633239416e-07 -6.0428346057975955e-07 -0.084080607414070058 -5.7835218419264094e-07 -1.4890219928504194e-06 -0.064694920224527303 -1.0576413973537315e-06 -1.1662869834646817e-06 -0.070221601592143745 -1.1146520123300943e-06 -2.1105469420251194e-06 -0.11018439928886213 -6.2751146633239374e-07 -6.0428346057975923e-07 -0.084080607414070044 -1.1836508910538652e-06 -1.0510737556647355e-06 -0.069381195667945539 -1.5003321662178658e-06 -5.4903324989947759e-07 -0.064694901845269506 -2.122422722385205e-06 -1.2254363624462565e-06 -0.11018438916285854 -6.2751146633239384e-07 -6.0428346057975923e-07 -0.084080607414070058 -1.0576413973537315e-06 -1.1662869834646817e-06 -0.070221601592143745 -2.122422722385205e-06 -1.2254363624462565e-06 -0.11018438916285854 -1.1146520123300943e-06 -2.1105469420251194e-06 -0.11018439928886213 -6.2751146633239384e-07 -6.0428346057975923e-07 -0.084080607414070058 -1.95263521974949e-06 -1.9382567145798415e-06 -0.090007959897485709 -1.0576413973537315e-06 -1.1662869834646817e-06 -0.070221601592143745 -2.122422722385205e-06 -1.2254363624462565e-06 -0.11018438916285854 -1.1146520123300943e-06 -2.1105469420251194e-06 -0.11018439928886213 -1.1836508910538652e-06 -1.0510737556647355e-06 -0.069381195667945539 -1.95263521974949e-06 -1.9382567145798415e-06 -0.090007959897485709 -1.0576413973537317e-06 -1.1662869834646821e-06 -0.070221601592143759 -2.122422722385205e-06 -1.2254363624462565e-06 -0.11018438916285854 -1.9919384224075031e-06 -1.9978515390069703e-06 -0.13500775542255133 -1.95263521974949e-06 -1.9382567145798415e-06 -0.090007959897485709 -2.122422722385205e-06 -1.2254363624462565e-06 -0.11018438916285854 -1.1146520123300943e-06 -2.1105469420251194e-06 -0.11018439928886213 -1.95263521974949e-06 -1.9382567145798415e-06 -0.090007959897485709 -1.610870033789996e-06 -1.6641285476438537e-06 -0.045007796662184664 -1.1836508910538652e-06 -1.0510737556647355e-06 -0.069381195667945539 -1.0576413973537315e-06 -1.1662869834646817e-06 -0.070221601592143745 -1.7879555561625399e-06 -2.0031189923012702e-07 -0.086305432420555842 -8.3676624718560179e-07 -8.5966934163608295e-08 -0.11356349935481477 -6.2751146633239384e-07 -6.0428346057975923e-07 -0.084080607414070058 -9.1288436913113841e-07 2.9968971670141044e-08 -0.044618578492471625 -1.6152382263135563e-06 -8.7527316421514517e-07 -0.037011082242534001 -1.5003321662178658e-06 -5.4903324989947759e-07 -0.064694901845269506 -6.2751146633239374e-07 -6.042834605797586e-07 -0.084080607414070016 -9.1288436913113809e-07 2.9968971670141177e-08 -0.044618578492471625 -1.7879555561625399e-06 -2.0031189923012702e-07 -0.086305432420555842 -6.2751146633239384e-07 -6.0428346057975923e-07 -0.084080607414070058 -1.5003321662178658e-06 -5.4903324989947759e-07 -0.064694901845269506 -9.1288436913113809e-07 2.9968971670141071e-08 -0.044618578492471618 -2.122422722385205e-06 -1.2254363624462565e-06 -0.11018438916285854 -1.7879555561625399e-06 -2.0031189923012702e-07 -0.086305432420555842 -1.7271124640361885e-06 -5.9251520095778602e-07 -0.12802320450099669 -6.2751146633239384e-07 -6.0428346057975923e-07 -0.084080607414070058 -1.7879555561625399e-06 -2.0031189923012702e-07 -0.086305432420555842 -7.0300616243069253e-07 2.5936240158855776e-07 -0.065459204618209879 -8.36766247185602e-07 -8.5966934163608573e-08 -0.11356349935481479 -9.128843691311383e-07 2.9968971670141402e-08 -0.044618578492471604 -1.7271124640361885e-06 -5.9251520095778602e-07 -0.12802320450099669 -6.2751146633239384e-07 -6.0428346057975923e-07 -0.084080607414070058 -1.7879555561625399e-06 -2.0031189923012702e-07 -0.086305432420555842 -8.3676624718560179e-07 -8.5966934163608375e-08 -0.11356349935481479 -1.7879555561625399e-06 -2.0031189923012702e-07 -0.086305432420555842 -2.4259826060808704e-06 -1.2379690127294101e-07 -0.045893159383620818 -7.0300616243069253e-07 2.5936240158855776e-07 -0.065459204618209879 -9.128843691311383e-07 2.9968971670141355e-08 -0.044618578492471604 -2.122422722385205e-06 -1.2254363624462565e-06 -0.11018438916285854 -1.5003321662178658e-06 -5.4903324989947759e-07 -0.064694901845269506 -1.7879555561625399e-06 -2.0031189923012702e-07 -0.086305432420555842 -6.2751146633239384e-07 -6.0428346057975923e-07 -0.084080607414070058 -1.7879555561625399e-06 -2.0031189923012702e-07 -0.086305432420555842 -1.5003321662178658e-06 -5.4903324989947759e-07 -0.064694901845269506 -2.4259826060808704e-06 -1.2379690127294101e-07 -0.045893159383620805 -9.1288436913113851e-07 2.9968971670141203e-08 -0.044618578492471604 -1.7271124640361885e-06 -5.9251520095778602e-07 -0.12802320450099669 -1.7879555561625399e-06 -2.0031189923012702e-07 -0.086305432420555842 -6.0747646535357058e-07 -6.4488800055668519e-08 -0.11250765485392401 -8.36766247185602e-07 -8.59669341636086e-08 -0.11356349935481479 -6.2751146633239384e-07 -6.0428346057975923e-07 -0.084080607414070058 1.9737869475514652e-11 2.1593026908295335e-08 -0.055160151058131664 2.0328949823796517e-07 -6.8846666516139159e-07 -0.066363563835468278 -2.6068322373154512e-10 -7.5913391294770721e-07 -0.044493327485174032 -6.2751146633239384e-07 -6.0428346057975923e-07 -0.084080607414070058 -7.0300616243069253e-07 2.5936240158855776e-07 -0.065459204618209879 2.476652034606105e-08 -2.8604385151869255e-08 -0.11250737590774476 1.9737869475525001e-11 2.159302690829551e-08 -0.055160151058131671 -7.0300616243069253e-07 2.5936240158855776e-07 -0.065459204618209879 1.9737869475575617e-11 2.1593026908295414e-08 -0.055160151058131664 -6.2751146633239374e-07 -6.0428346057975934e-07 -0.084080607414070058 -9.128843691311382e-07 2.9968971670141488e-08 -0.044618578492471597 2.0328949823796509e-07 -6.8846666516139159e-07 -0.066363563835468292 -4.1782557321431903e-08 -8.3805439704036306e-07 -0.11416303671339965 -6.2751146633239427e-07 -6.0428346057975891e-07 -0.084080607414070058 -2.6068322373151984e-10 -7.591339129477071e-07 -0.044493327485174025 1.9737869475584322e-11 2.1593026908295404e-08 -0.055160151058131664 -2.6068322373126409e-10 -7.5913391294770731e-07 -0.044493327485174011 -6.2751146633239363e-07 -6.0428346057975913e-07 -0.08408060741407003 -9.1288436913113809e-07 2.9968971670141335e-08 -0.044618578492471604 -6.2751146633239384e-07 -6.0428346057975923e-07 -0.084080607414070058 -8.3676624718560211e-07 -8.5966934163608467e-08 -0.11356349935481479 -7.0300616243069253e-07 2.5936240158855776e-07 -0.065459204618209879 -9.1288436913113809e-07 2.9968971670141335e-08 -0.044618578492471604 2.476652034606105e-08 -2.8604385151869255e-08 -0.11250737590774476 -6.2751146633239384e-07 -6.0428346057975944e-07 -0.084080607414070072 2.0328949823796509e-07 -6.8846666516139159e-07 -0.066363563835468292 -4.1782557321432068e-08 -8.3805439704036285e-07 -0.11416303671339965 -6.2751146633239384e-07 -6.0428346057975923e-07 -0.084080607414070058 2.476652034606105e-08 -2.8604385151869255e-08 -0.11250737590774476 2.0328949823796509e-07 -6.8846666516139159e-07 -0.066363563835468292 1.9737869475697775e-11 2.1593026908295328e-08 -0.055160151058131671 2.476652034606105e-08 -2.8604385151869255e-08 -0.11250737590774476 -8.367662471856019e-07 -8.59669341636086e-08 -0.11356349935481477 -6.2751146633239384e-07 -6.0428346057975923e-07 -0.084080607414070058 -4.1782557321432068e-08 -8.3805439704036285e-07 -0.11416303671339965 2.476652034606105e-08 -2.8604385151869255e-08 -0.11250737590774476 -7.0300616243069253e-07 2.5936240158855776e-07 -0.065459204618209879 -6.2751146633239384e-07 -6.0428346057975923e-07 -0.084080607414070058 -8.367662471856019e-07 -8.59669341636086e-08 -0.11356349935481477 2.0822891451958603e-07 -5.5299303536937486e-11 -8.5010714907297946e-06 -1.5659848334724439e-08 -1.5817412780985991e-08 -7.4215003313520934e-06 -7.0300616243069242e-07 2.5936240158855781e-07 -0.065459204618209879 -9.1288436913113798e-07 2.9968971670141329e-08 -0.044618578492471597 -1.5659848334724419e-08 -1.5817412780985988e-08 -7.4215003313516589e-06 1.9737869475584322e-11 2.1593026908295404e-08 -0.055160151058131664 -7.0300616243069264e-07 2.593624015885576e-07 -0.065459204618209893 -9.128843691311383e-07 2.9968971670141216e-08 -0.044618578492471611 1.5686957438088017e-08 -1.5858432917167624e-08 -7.3730241147481008e-06 1.9737869475584322e-11 2.1593026908295404e-08 -0.055160151058131664 -1.5659848334724419e-08 -1.5817412780985988e-08 -7.4215003313516589e-06 -2.6068322373151984e-10 -7.591339129477071e-07 -0.044493327485174025 -1.5659848334724419e-08 -1.5817412780985988e-08 -7.4215003313516589e-06 -2.6068322373151984e-10 -7.591339129477071e-07 -0.044493327485174025 1.973786947556857e-11 2.1593026908295404e-08 -0.055160151058131664 -9.128843691311383e-07 2.9968971670141395e-08 -0.044618578492471604 1.5686957438088017e-08 -1.5858432917167624e-08 -7.3730241147481008e-06 1.3971513634161693e-10 9.2148327310257337e-11 -2.1157460880607715e-06 -1.5659848334724419e-08 -1.5817412780985981e-08 -7.4215003313478227e-06 1.9737869475584322e-11 2.1593026908295404e-08 -0.055160151058131664 -3.2540468108078291e-10 2.0914835553013421e-07 -8.8082577350679402e-06 -1.5659848334724419e-08 -1.5817412780985988e-08 -7.4215003313516589e-06 -1.1391025220957601e-07 -1.1504872342335629e-07 -6.059569642879992e-06 -2.6068322373151984e-10 -7.591339129477071e-07 -0.044493327485174025 1.5686957438088017e-08 -1.5858432917167624e-08 -7.3730241147481008e-06 -1.5659848334724419e-08 -1.5817412780985988e-08 -7.4215003313516589e-06 -3.2540468108078291e-10 2.0914835553013421e-07 -8.8082577350679402e-06 -2.6068322373151984e-10 -7.591339129477071e-07 -0.044493327485174025 -1.5659848334724419e-08 -1.5817412780985988e-08 -7.4215003313516589e-06 -1.1391025220957602e-07 -1.1504872342335627e-07 -6.059569642876354e-06 -2.6068322373151984e-10 -7.591339129477071e-07 -0.044493327485174025 -9.128843691311383e-07 2.9968971670141402e-08 -0.044618578492471611 -1.1391025220957601e-07 -1.1504872342335629e-07 -6.059569642879992e-06 2.7706982072822034e-07 2.8115503271518606e-07 -5.4361537268081065e-06 -2.6068322373151984e-10 -7.591339129477071e-07 -0.044493327485174025 -9.1288436913113798e-07 2.9968971670141282e-08 -0.044618578492471597 -1.1391025220957601e-07 -1.1504872342335629e-07 -6.059569642879992e-06 -1.5659848334724419e-08 -1.5817412780985988e-08 -7.4215003313516589e-06 2.0822891451958603e-07 -5.5299303536937486e-11 -8.5010714907297946e-06 -9.1288436913113788e-07 2.9968971670141302e-08 -0.044618578492471597 2.6998146304878523e-07 -5.6686939412650709e-08 -5.4832330560666758e-06 -1.1391025220957601e-07 -1.1504872342335629e-07 -6.059569642879992e-06 2.0822891451958603e-07 -5.5299303536937486e-11 -8.5010714907297946e-06 -9.1288436913113809e-07 2.9968971670141335e-08 -0.044618578492471604 -9.8407643725419988e-07 -1.3970795137812392e-09 -7.9717370538963505e-06 2.6998146304878523e-07 -5.6686939412650709e-08 -5.4832330560666758e-06 2.0822891451958603e-07 -5.5299303536937486e-11 -8.5010714907297946e-06 -9.1288436913113862e-07 2.9968971670141342e-08 -0.044618578492471611 -1.6152382263135563e-06 -8.7527316421514517e-07 -0.037011082242534001 -6.2751146633239406e-07 -6.0428346057975881e-07 -0.08408060741407003 -2.6068322373144271e-10 -7.5913391294770657e-07 -0.044493327485173984 -9.1288436913113809e-07 2.9968971670140998e-08 -0.044618578492471618 -1.1391025220957601e-07 -1.1504872342335629e-07 -6.059569642879992e-06 2.6998146304878523e-07 -5.6686939412650709e-08 -5.4832330560666758e-06 2.7706982072822034e-07 2.8115503271518606e-07 -5.4361537268081065e-06 -9.1288436913113788e-07 2.9968971670141269e-08 -0.044618578492471597 2.7706982072822034e-07 2.8115503271518606e-07 -5.4361537268081065e-06 -1.6240251027577223e-06 -2.221630175218113e-07 -0.029522635680216871 -1.6152382263135561e-06 -8.7527316421514485e-07 -0.037011082242533987 -9.1288436913113809e-07 2.9968971670141335e-08 -0.044618578492471604 -9.8407643725419988e-07 -1.3970795137812392e-09 -7.9717370538963505e-06 -7.393813765402345e-07 1.1913262339504389e-07 -5.9289463123753029e-06 2.6998146304878523e-07 -5.6686939412650709e-08 -5.4832330560666758e-06 -1.6240251027577223e-06 -2.221630175218113e-07 -0.029522635680216871 2.6998146304878523e-07 -5.6686939412650709e-08 -5.4832330560666758e-06 -9.8407643725419988e-07 -1.3970795137812392e-09 -7.9717370538963505e-06 -1.6240251027577223e-06 -2.221630175218113e-07 -0.029522635680216874 -9.128843691311383e-07 2.9968971670141309e-08 -0.044618578492471611 2.7706982072822034e-07 2.8115503271518606e-07 -5.4361537268081065e-06 2.6998146304878523e-07 -5.6686939412650709e-08 -5.4832330560666758e-06 -1.6240251027577223e-06 -2.221630175218113e-07 -0.029522635680216871 -9.1288436913113809e-07 2.9968971670141335e-08 -0.044618578492471604 -1.6152382263135563e-06 -8.7527316421514517e-07 -0.037011082242534001 -1.6240251027577223e-06 -2.221630175218113e-07 -0.029522635680216871 -1.5003321662178658e-06 -5.4903324989947759e-07 -0.064694901845269506 -9.1288436913113809e-07 2.9968971670141335e-08 -0.044618578492471604 -9.8407643725419988e-07 -1.3970795137812392e-09 -7.9717370538963505e-06 -2.4259826060808704e-06 -1.2379690127294098e-07 -0.045893159383620812 -1.6240251027577223e-06 -2.221630175218113e-07 -0.029522635680216871 -9.1288436913113735e-07 2.9968971670141448e-08 -0.044618578492471604 -1.5003321662178658e-06 -5.4903324989947759e-07 -0.064694901845269506 -1.6240251027577223e-06 -2.221630175218113e-07 -0.029522635680216871 -2.4259826060808704e-06 -1.2379690127294098e-07 -0.045893159383620812 -9.1288436913113809e-07 2.9968971670141335e-08 -0.044618578492471604 -9.8407643725419988e-07 -1.3970795137812392e-09 -7.9717370538963505e-06 2.0822891451958603e-07 -5.5299303536937486e-11 -8.5010714907297946e-06 -2.4259826060808704e-06 -1.2379690127294101e-07 -0.045893159383620805 -9.1288436913113788e-07 2.9968971670141382e-08 -0.044618578492471611 2.6255775025344018e-07 5.6788874906052614e-08 -4.9237590276600317e-06 -9.5993999338169531e-07 1.5549201814657347e-09 -7.7333402548308705e-06 2.0822891451958603e-07 -5.5299303536937486e-11 -8.5010714907297946e-06 -2.4259826060808704e-06 -1.2379690127294098e-07 -0.045893159383620812 -2.4259826060808704e-06 -1.2379690127294098e-07 -0.045893159383620812 -9.1288436913113809e-07 2.9968971670141335e-08 -0.044618578492471604 2.0822891451958603e-07 -5.5299303536937486e-11 -8.5010714907297946e-06 -6.9396802082021406e-07 3.7899307944826909e-07 -0.042350590920845192 2.0822891451958603e-07 -5.5299303536937486e-11 -8.5010714907297946e-06 -9.1288436913113809e-07 2.9968971670141342e-08 -0.044618578492471604 -7.030061624306919e-07 2.5936240158855776e-07 -0.065459204618209879 -6.9396802082021438e-07 3.7899307944826893e-07 -0.042350590920845192 -2.4259826060808704e-06 -1.2379690127294098e-07 -0.045893159383620812 -7.03006162430692e-07 2.5936240158855776e-07 -0.065459204618209865 -9.1288436913113767e-07 2.9968971670141375e-08 -0.04461857849247159 -6.9396802082021343e-07 3.7899307944826909e-07 -0.042350590920845164 -2.4259826060808704e-06 -1.2379690127294098e-07 -0.045893159383620812 -1.4818811298588073e-06 5.7026482360180023e-07 -0.064694647875689196 -7.0300616243069253e-07 2.5936240158855776e-07 -0.065459204618209879 -6.9396802082021427e-07 3.7899307944826871e-07 -0.042350590920845164 2.0822891451958603e-07 -5.5299303536937486e-11 -8.5010714907297946e-06 -7.0300616243069253e-07 2.5936240158855776e-07 -0.065459204618209879 -1.1090668213200478e-07 1.150126141054463e-07 -6.217991885888511e-06 -6.9396802082021438e-07 3.7899307944826893e-07 -0.042350590920845192 -9.5993999338169531e-07 1.5549201814657347e-09 -7.7333402548308705e-06 -9.8407643725419988e-07 -1.3970795137812392e-09 -7.9717370538963505e-06 2.0822891451958603e-07 -5.5299303536937486e-11 -8.5010714907297946e-06 -2.4259826060808704e-06 -1.2379690127294098e-07 -0.045893159383620812 2.6255775025344018e-07 5.6788874906052614e-08 -4.9237590276600317e-06 -9.5993999338169531e-07 1.5549201814657347e-09 -7.7333402548308705e-06 -2.4259826060808704e-06 -1.2379690127294098e-07 -0.045893159383620812 -1.5351901453434743e-06 3.9393196962133644e-07 -0.029187006568548165 2.6255775025344018e-07 5.6788874906052614e-08 -4.9237590276600317e-06 -9.5993999338169531e-07 1.5549201814657347e-09 -7.7333402548308705e-06 -1.5351901453434743e-06 3.9393196962133644e-07 -0.029187006568548165 -7.1633536860005963e-07 -1.1907485619001274e-07 -6.166986853752411e-06 2.6255775025344018e-07 5.6788874906052614e-08 -4.9237590276600317e-06 2.6285343120517426e-07 -2.8150944187084089e-07 -5.4059750492107181e-06 -1.5351901453434743e-06 3.9393196962133644e-07 -0.029187006568548165 -6.9396802082021438e-07 3.7899307944826893e-07 -0.042350590920845192 2.6255775025344018e-07 5.6788874906052614e-08 -4.9237590276600317e-06 2.0822891451958606e-07 -5.5299303536945997e-11 -8.5010714907282598e-06 -1.1090668213200478e-07 1.150126141054463e-07 -6.217991885888511e-06 -6.9396802082021438e-07 3.7899307944826893e-07 -0.042350590920845192 2.6255775025344018e-07 5.6788874906052614e-08 -4.9237590276600317e-06 -1.1090668213200478e-07 1.150126141054463e-07 -6.217991885888511e-06 2.6285343120517426e-07 -2.8150944187084089e-07 -5.4059750492107181e-06 -6.9396802082021438e-07 3.7899307944826893e-07 -0.042350590920845192 2.0822891451958603e-07 -5.5299303536937486e-11 -8.5010714907297946e-06 2.6255775025344013e-07 5.6788874906052601e-08 -4.9237590276605984e-06 -2.4259826060808704e-06 -1.2379690127294098e-07 -0.045893159383620812 -6.9396802082021438e-07 3.7899307944826893e-07 -0.042350590920845192 -2.4259826060808704e-06 -1.2379690127294098e-07 -0.045893159383620812 -1.5351901453434743e-06 3.9393196962133644e-07 -0.029187006568548165 -1.4818811298588073e-06 5.7026482360180023e-07 -0.064694647875689196 -6.9396802082021427e-07 3.7899307944826877e-07 -0.042350590920845192 -1.6250547533700342e-06 1.0985624591740177e-06 -0.03533534356151221 -1.4818811298588073e-06 5.7026482360180023e-07 -0.064694647875689196 -1.5351901453434743e-06 3.9393196962133644e-07 -0.029187006568548165 -6.9396802082021438e-07 3.7899307944826893e-07 -0.042350590920845192 -2.4259826060808704e-06 -1.2379690127294098e-07 -0.045893159383620812 2.6255775025344018e-07 5.6788874906052614e-08 -4.9237590276600317e-06 -1.5351901453434743e-06 3.9393196962133644e-07 -0.029187006568548165 -6.9396802082021438e-07 3.7899307944826898e-07 -0.042350590920845206 -1.7879555561625399e-06 -2.0031189923012702e-07 -0.086305432420555842 -7.0300616243069253e-07 2.5936240158855776e-07 -0.065459204618209879 -1.796341094137159e-06 4.3439888085025457e-07 -0.096834932874743568 -8.3676624718560169e-07 -8.5966934163608666e-08 -0.11356349935481479 -1.7879555561625399e-06 -2.0031189923012702e-07 -0.086305432420555842 -2.4259826060808704e-06 -1.2379690127294098e-07 -0.045893159383620812 -1.796341094137159e-06 4.3439888085025457e-07 -0.096834932874743568 -7.0300616243069253e-07 2.5936240158855776e-07 -0.065459204618209879 -8.367662471856019e-07 -8.59669341636086e-08 -0.11356349935481477 -9.5655384941100713e-07 9.7284563199355891e-07 -0.086869136001384503 -1.7963410941371593e-06 4.3439888085025452e-07 -0.096834932874743554 -1.0430846506784021e-06 1.0162707339623687e-06 -0.13749253292993852 -1.796341094137159e-06 4.3439888085025457e-07 -0.096834932874743568 -8.3676624718560179e-07 -8.5966934163608719e-08 -0.11356349935481479 -7.0300616243069264e-07 2.5936240158855755e-07 -0.065459204618209865 -9.5655384941100692e-07 9.7284563199355934e-07 -0.086869136001384531 -1.4818811298588073e-06 5.7026482360180023e-07 -0.064694647875689196 -1.796341094137159e-06 4.3439888085025457e-07 -0.096834932874743568 -7.0300616243069242e-07 2.5936240158855787e-07 -0.065459204618209865 -9.5655384941100713e-07 9.7284563199355891e-07 -0.086869136001384503 -2.4259826060808704e-06 -1.2379690127294098e-07 -0.045893159383620812 -1.4818811298588073e-06 5.7026482360180023e-07 -0.064694647875689196 -1.796341094137159e-06 4.3439888085025457e-07 -0.096834932874743568 -7.0300616243069253e-07 2.5936240158855776e-07 -0.065459204618209879 -1.4818811298588073e-06 5.7026482360180023e-07 -0.064694647875689196 -9.5655384941100692e-07 9.7284563199355913e-07 -0.086869136001384489 -7.0300616243069253e-07 2.5936240158855776e-07 -0.065459204618209879 -6.9396802082021438e-07 3.7899307944826903e-07 -0.042350590920845199 -1.7879555561625399e-06 -2.0031189923012702e-07 -0.086305432420555842 -1.796341094137159e-06 4.3439888085025457e-07 -0.096834932874743568 -6.0747646535357058e-07 -6.4488800055668519e-08 -0.11250765485392401 -8.3676624718560158e-07 -8.59669341636086e-08 -0.11356349935481477 -1.4818811298588073e-06 5.7026482360180023e-07 -0.064694647875689196 -2.1447826988564768e-06 1.0824821021342419e-06 -0.11483101382096692 -1.796341094137159e-06 4.3439888085025457e-07 -0.096834932874743568 -9.5655384941100713e-07 9.7284563199355891e-07 -0.086869136001384503 -1.3634682568172138e-06 1.1381325498398636e-06 -0.069975310539544602 -9.5655384941100713e-07 9.7284563199355891e-07 -0.086869136001384503 -1.4818811298588071e-06 5.7026482360180013e-07 -0.064694647875689182 -6.9396802082021438e-07 3.7899307944826893e-07 -0.042350590920845192 -1.3634682568172138e-06 1.1381325498398636e-06 -0.069975310539544602 -2.1447826988564768e-06 1.0824821021342419e-06 -0.11483101382096692 -1.4818811298588073e-06 5.7026482360180023e-07 -0.064694647875689196 -9.5655384941100713e-07 9.7284563199355891e-07 -0.086869136001384503 -1.3634682568172138e-06 1.1381325498398636e-06 -0.069975310539544602 -1.2073181797103238e-06 1.167890701899973e-06 -0.070221600253354749 -9.5655384941100713e-07 9.728456319935587e-07 -0.086869136001384503 -6.9396802082021438e-07 3.7899307944826893e-07 -0.042350590920845185 -6.3254051044142092e-07 1.4826190538445518e-06 -0.064694723080378033 -9.5655384941100713e-07 9.7284563199355913e-07 -0.086869136001384503 -1.2073181797103238e-06 1.1678907018999733e-06 -0.070221600253354763 -6.9396802082021438e-07 3.7899307944826909e-07 -0.042350590920845185 -1.0688332475764841e-06 2.107543762951347e-06 -0.11018423174631617 -2.1447826988564773e-06 1.0824821021342417e-06 -0.11483101382096694 -9.5655384941100713e-07 9.728456319935587e-07 -0.086869136001384489 -1.0430846506784025e-06 1.0162707339623687e-06 -0.13749253292993852 -1.3634682568172138e-06 1.1381325498398636e-06 -0.069975310539544602 -1.9768428880328081e-06 1.9389084194650523e-06 -0.090007727968619597 -2.1447826988564768e-06 1.0824821021342419e-06 -0.11483101382096693 -9.5655384941100713e-07 9.7284563199355891e-07 -0.086869136001384503 -2.1447826988564768e-06 1.0824821021342419e-06 -0.11483101382096692 -1.796341094137159e-06 4.3439888085025457e-07 -0.096834932874743568 -9.5655384941100713e-07 9.7284563199355891e-07 -0.086869136001384503 -1.0430846506784021e-06 1.0162707339623687e-06 -0.13749253292993852 -1.9768428880328081e-06 1.9389084194650523e-06 -0.090007727968619597 -1.0688332475764841e-06 2.107543762951347e-06 -0.11018423174631617 -1.9292813609048083e-06 1.9976937430219701e-06 -0.1350078129807607 -2.1447826988564768e-06 1.0824821021342419e-06 -0.11483101382096692 -1.0688332475764841e-06 2.107543762951347e-06 -0.11018423174631617 -2.1447826988564768e-06 1.0824821021342419e-06 -0.11483101382096693 -1.9768428880328081e-06 1.9389084194650523e-06 -0.090007727968619597 -9.5655384941100713e-07 9.7284563199355891e-07 -0.086869136001384503 -1.0688332475764841e-06 2.107543762951347e-06 -0.11018423174631617 -1.9768428880328081e-06 1.9389084194650523e-06 -0.090007727968619597 -1.2073181797103238e-06 1.1678907018999733e-06 -0.070221600253354763 -9.5655384941100713e-07 9.7284563199355891e-07 -0.086869136001384503 -6.3254051044142092e-07 1.4826190538445518e-06 -0.064694723080378033 -1.0688332475764841e-06 2.107543762951347e-06 -0.11018423174631617 -1.2073181797103238e-06 1.1678907018999733e-06 -0.070221600253354763 -9.5655384941100713e-07 9.7284563199355891e-07 -0.086869136001384503 -1.3634682568172138e-06 1.1381325498398636e-06 -0.069975310539544602 -1.2073181797103238e-06 1.1678907018999733e-06 -0.070221600253354763 -1.9768428880328081e-06 1.9389084194650523e-06 -0.090007727968619597 -9.5655384941100756e-07 9.7284563199355913e-07 -0.086869136001384517 -1.3634682568172138e-06 1.1381325498398636e-06 -0.069975310539544602 -1.5082590701292699e-06 1.663291465119299e-06 -0.045007742159625441 -1.9768428880328081e-06 1.9389084194650523e-06 -0.090007727968619597 -1.2073181797103238e-06 1.1678907018999733e-06 -0.070221600253354763 -6.3254051044142092e-07 1.4826190538445518e-06 -0.064694723080378033 -1.0497500926488284e-06 1.6284160064600867e-06 -0.037600910777665364 -2.8849621667955527e-07 1.6187816587829126e-06 -0.029640173337197154 -6.9396802082021438e-07 3.7899307944826893e-07 -0.042350590920845192 -1.6250547533700342e-06 1.0985624591740177e-06 -0.03533534356151221 -1.0497500926488284e-06 1.6284160064600867e-06 -0.037600910777665364 -1.3634682568172138e-06 1.1381325498398636e-06 -0.069975310539544602 -6.9396802082021438e-07 3.7899307944826893e-07 -0.042350590920845192 -1.0497500926488284e-06 1.6284160064600867e-06 -0.037600910777665364 -6.3254051044142092e-07 1.4826190538445518e-06 -0.064694723080378033 -1.2073181797103238e-06 1.1678907018999733e-06 -0.070221600253354763 -6.9396802082021438e-07 3.7899307944826893e-07 -0.042350590920845192 -1.3634682568172138e-06 1.1381325498398636e-06 -0.069975310539544602 -1.0497500926488284e-06 1.6284160064600869e-06 -0.037600910777665364 -1.2073181797103238e-06 1.1678907018999733e-06 -0.070221600253354763 -6.9396802082021427e-07 3.7899307944826856e-07 -0.042350590920845206 -2.8849621667955527e-07 1.6187816587829126e-06 -0.029640173337197154 -1.0497500926488284e-06 1.6284160064600867e-06 -0.037600910777665364 2.6285343120517441e-07 -2.8150944187084105e-07 -5.4059750492018607e-06 -6.9396802082021459e-07 3.7899307944826914e-07 -0.042350590920845199 -1.6250547533700342e-06 1.0985624591740177e-06 -0.03533534356151221 -1.0714616078466916e-06 1.1626874113526292e-06 -9.3083487626063053e-06 -1.5082590701292697e-06 1.6632914651192987e-06 -0.045007742159625448 -1.0497500926488284e-06 1.6284160064600867e-06 -0.037600910777665364 -5.1600919470834729e-08 -2.7175572469339625e-07 -5.4758534832556704e-06 -2.8849621667955527e-07 1.6187816587829126e-06 -0.029640173337197154 2.6285343120517426e-07 -2.8150944187084089e-07 -5.4059750492107181e-06 -6.9396802082021438e-07 3.7899307944826893e-07 -0.042350590920845192 -1.0497500926488284e-06 1.6284160064600867e-06 -0.037600910777665364 -1.5082590701292697e-06 1.6632914651192987e-06 -0.045007742159625448 -1.3634682568172138e-06 1.1381325498398636e-06 -0.069975310539544602 -1.2073181797103238e-06 1.1678907018999733e-06 -0.070221600253354763 -1.6250547533700342e-06 1.0985624591740177e-06 -0.03533534356151221 2.6285343120517415e-07 -2.8150944187084084e-07 -5.4059750492099702e-06 -1.0497500926488284e-06 1.6284160064600867e-06 -0.037600910777665364 -6.9396802082021438e-07 3.7899307944826893e-07 -0.042350590920845192 -1.5082590701292697e-06 1.6632914651192987e-06 -0.045007742159625448 -1.6250547533700342e-06 1.0985624591740177e-06 -0.03533534356151221 -1.0497500926488284e-06 1.6284160064600867e-06 -0.037600910777665364 -1.3634682568172138e-06 1.1381325498398636e-06 -0.069975310539544602 -1.0714616078466916e-06 1.1626874113526292e-06 -9.3083487626063053e-06 -1.6250547533700342e-06 1.0985624591740177e-06 -0.03533534356151221 2.6285343120517426e-07 -2.8150944187084089e-07 -5.4059750492107181e-06 -1.0497500926488284e-06 1.6284160064600867e-06 -0.037600910777665364 -1.5351901453434743e-06 3.9393196962133644e-07 -0.029187006568548165 2.6255775025344018e-07 5.6788874906052614e-08 -4.9237590276600317e-06 -7.1633536860005985e-07 -1.1907485619001272e-07 -6.1669868537557118e-06 2.6285343120517426e-07 -2.8150944187084089e-07 -5.4059750492107181e-06 -7.1633536860005963e-07 -1.1907485619001274e-07 -6.166986853752411e-06 -1.0714616078466916e-06 1.1626874113526292e-06 -9.3083487626063053e-06 -1.6250547533700342e-06 1.0985624591740177e-06 -0.03533534356151221 2.6285343120517426e-07 -2.8150944187084089e-07 -5.4059750492107181e-06 -1.6250547533700342e-06 1.0985624591740177e-06 -0.03533534356151221 -1.5351901453434743e-06 3.9393196962133639e-07 -0.029187006568548168 2.6285343120517426e-07 -2.8150944187084089e-07 -5.4059750492107181e-06 -6.9396802082021438e-07 3.7899307944826893e-07 -0.042350590920845192 -1.5351901453434743e-06 3.9393196962133644e-07 -0.029187006568548165 -7.1633536860005963e-07 -1.1907485619001274e-07 -6.166986853752411e-06 -1.6250547533700342e-06 1.0985624591740177e-06 -0.03533534356151221 2.6285343120517426e-07 -2.8150944187084089e-07 -5.4059750492107181e-06 -1.6250547533700342e-06 1.0985624591740177e-06 -0.03533534356151221 -1.3634682568172138e-06 1.1381325498398636e-06 -0.069975310539544602 -1.4818811298588073e-06 5.7026482360180023e-07 -0.064694647875689196 -6.9396802082021438e-07 3.7899307944826893e-07 -0.042350590920845192 -5.1600919470834729e-08 -2.7175572469339625e-07 -5.4758534832556704e-06 2.6285343120517436e-07 -2.8150944187084095e-07 -5.4059750492065693e-06 -1.1090668213200478e-07 1.150126141054463e-07 -6.217991885888511e-06 -6.9396802082021438e-07 3.7899307944826893e-07 -0.042350590920845192 2.6285343120517426e-07 -2.8150944187084089e-07 -5.4059750492107181e-06 -2.8849621667955564e-07 1.6187816587829128e-06 -0.029640173337197161 1.08358333220244e-07 7.4757432033089942e-07 -5.934810394657653e-06 -1.0497500926488284e-06 1.6284160064600867e-06 -0.037600910777665364 2.6285343120517426e-07 -2.8150944187084089e-07 -5.4059750492107181e-06 -1.071461607846692e-06 1.1626874113526294e-06 -9.3083487626102084e-06 -1.0497500926488284e-06 1.6284160064600867e-06 -0.037600910777665364 1.08358333220244e-07 7.4757432033089942e-07 -5.934810394657653e-06 -2.8849621667955527e-07 1.6187816587829126e-06 -0.029640173337197154 2.6285343120517426e-07 -2.8150944187084089e-07 -5.4059750492107181e-06 1.0835833322024399e-07 7.4757432033089953e-07 -5.9348103946588346e-06 -5.1600919470834729e-08 -2.7175572469339625e-07 -5.4758534832556704e-06 -5.1600919470834729e-08 -2.7175572469339625e-07 -5.4758534832556704e-06 -1.1090668213200478e-07 1.150126141054463e-07 -6.217991885888511e-06 -2.070580466833261e-08 9.6445986032008265e-07 -0.062167379013274994 -6.9396802082021438e-07 3.7899307944826893e-07 -0.042350590920845192 -6.3254051044142092e-07 1.4826190538445518e-06 -0.064694723080378033 -2.8849621667955527e-07 1.6187816587829126e-06 -0.029640173337197154 -2.070580466833261e-08 9.6445986032008265e-07 -0.062167379013274994 -6.9396802082021438e-07 3.7899307944826893e-07 -0.042350590920845192 -5.1600919470834729e-08 -2.7175572469339625e-07 -5.4758534832556704e-06 -2.070580466833264e-08 9.6445986032008286e-07 -0.062167379013275001 -2.8849621667955527e-07 1.6187816587829126e-06 -0.029640173337197154 -6.9396802082021438e-07 3.7899307944826893e-07 -0.042350590920845192 -5.1600919470834729e-08 -2.7175572469339625e-07 -5.4758534832556704e-06 1.1353829114606701e-07 2.3819502689412936e-06 -0.045893443915219614 -2.8849621667955527e-07 1.6187816587829126e-06 -0.029640173337197151 -2.070580466833261e-08 9.6445986032008265e-07 -0.062167379013274994 -5.1600919470834729e-08 -2.7175572469339625e-07 -5.4758534832556704e-06 6.8466918576162348e-12 -2.0964518389264368e-07 -8.3824109698244645e-06 1.1353829114606698e-07 2.3819502689412931e-06 -0.045893443915219614 -2.070580466833261e-08 9.6445986032008265e-07 -0.062167379013274994 -5.1600919470834729e-08 -2.7175572469339625e-07 -5.4758534832556704e-06 -1.1090668213200478e-07 1.150126141054463e-07 -6.217991885888511e-06 6.8466918576162348e-12 -2.0964518389264368e-07 -8.3824109698244645e-06 -2.070580466833261e-08 9.6445986032008265e-07 -0.062167379013274994 -1.5107097931964223e-09 9.9117677121055698e-07 -7.9939094316804866e-06 -5.1600919470834696e-08 -2.7175572469339615e-07 -5.4758534832545735e-06 -2.8849621667955527e-07 1.6187816587829126e-06 -0.029640173337197154 1.08358333220244e-07 7.4757432033089942e-07 -5.934810394657653e-06 -1.5107097931964223e-09 9.9117677121055698e-07 -7.9939094316804866e-06 -5.1600919470834736e-08 -2.7175572469339636e-07 -5.4758534832537561e-06 6.8466918576162348e-12 -2.0964518389264368e-07 -8.3824109698244645e-06 1.1353829114606701e-07 2.3819502689412936e-06 -0.045893443915219614 -5.1600919470834729e-08 -2.7175572469339625e-07 -5.4758534832556704e-06 -1.5107097931964277e-09 9.9117677121055698e-07 -7.9939094316852588e-06 -2.8849621667955532e-07 1.6187816587829128e-06 -0.029640173337197158 1.1353829114606701e-07 2.3819502689412936e-06 -0.045893443915219614 -6.3254051044142092e-07 1.4826190538445518e-06 -0.064694723080378033 -2.8849621667955527e-07 1.6187816587829126e-06 -0.029640173337197154 1.1353829114606701e-07 2.3819502689412936e-06 -0.045893443915219614 -2.070580466833261e-08 9.6445986032008265e-07 -0.062167379013274994 -6.3254051044142092e-07 1.4826190538445518e-06 -0.064694723080378033 -2.070580466833261e-08 9.6445986032008265e-07 -0.062167379013274994 -2.1431205915304432e-07 1.7464461820971485e-06 -0.086182151307495569 -9.5655384941100713e-07 9.7284563199355891e-07 -0.086869136001384503 -6.3254051044142092e-07 1.4826190538445518e-06 -0.064694723080378033 1.1353829114606701e-07 2.3819502689412936e-06 -0.045893443915219614 -2.1431205915304432e-07 1.7464461820971485e-06 -0.086182151307495569 -2.070580466833261e-08 9.6445986032008265e-07 -0.062167379013274994 -6.3254051044142092e-07 1.4826190538445518e-06 -0.064694723080378033 -2.070580466833261e-08 9.6445986032008265e-07 -0.062167379013274994 -9.5655384941100713e-07 9.7284563199355913e-07 -0.086869136001384503 -6.9396802082021417e-07 3.7899307944826877e-07 -0.042350590920845178 -2.1431205915304432e-07 1.7464461820971485e-06 -0.086182151307495569 -2.0705804668332518e-08 9.6445986032008265e-07 -0.062167379013274994 -2.0473406895490608e-07 7.3344753203942895e-07 -0.1163064065154269 -9.5655384941100713e-07 9.7284563199355913e-07 -0.086869136001384517 -2.1431205915304432e-07 1.7464461820971485e-06 -0.086182151307495569 -2.0473406895490608e-07 7.3344753203942905e-07 -0.11630640651542687 -4.735334038542775e-07 1.7801820730799089e-06 -0.12818034135432466 -9.5655384941100713e-07 9.7284563199355891e-07 -0.086869136001384503 -2.1431205915304432e-07 1.7464461820971485e-06 -0.086182151307495569 -4.735334038542775e-07 1.7801820730799089e-06 -0.12818034135432466 -1.0688332475764841e-06 2.107543762951347e-06 -0.11018423174631617 -9.5655384941100713e-07 9.7284563199355891e-07 -0.086869136001384503 -1.0688332475764841e-06 2.107543762951347e-06 -0.11018423174631617 -6.3254051044142092e-07 1.4826190538445518e-06 -0.064694723080378033 -2.1431205915304432e-07 1.7464461820971485e-06 -0.086182151307495569 -9.5655384941100713e-07 9.7284563199355891e-07 -0.086869136001384503 -2.1431205915304432e-07 1.7464461820971485e-06 -0.086182151307495569 -1.5784179928759744e-07 4.7898444584461424e-07 -0.11250777092154438 -4.735334038542775e-07 1.7801820730799089e-06 -0.12818034135432466 -2.0473406895490613e-07 7.3344753203942884e-07 -0.11630640651542686 -2.1431205915304432e-07 1.7464461820971485e-06 -0.086182151307495569 -1.5784179928759744e-07 4.7898444584461424e-07 -0.11250777092154438 -2.0473406895490635e-07 7.3344753203943022e-07 -0.11630640651542688 -2.070580466833261e-08 9.6445986032008265e-07 -0.062167379013274994 2.476652034606105e-08 -2.8604385151869255e-08 -0.11250737590774476 -2.0473406895490619e-07 7.3344753203942937e-07 -0.11630640651542688 -7.0300616243069253e-07 2.5936240158855776e-07 -0.065459204618209865 -8.367662471856019e-07 -8.59669341636086e-08 -0.11356349935481477 -7.0300616243069253e-07 2.5936240158855776e-07 -0.065459204618209879 -9.5655384941100713e-07 9.728456319935587e-07 -0.086869136001384503 -2.070580466833267e-08 9.6445986032008244e-07 -0.062167379013274994 -6.9396802082021438e-07 3.7899307944826893e-07 -0.042350590920845192 2.476652034606105e-08 -2.8604385151869255e-08 -0.11250737590774476 -7.0300616243069253e-07 2.5936240158855776e-07 -0.065459204618209879 -2.0473406895490643e-07 7.3344753203942916e-07 -0.11630640651542688 -2.070580466833261e-08 9.6445986032008265e-07 -0.062167379013274994 -2.0473406895490619e-07 7.3344753203942916e-07 -0.11630640651542687 -2.070580466833261e-08 9.6445986032008265e-07 -0.062167379013274994 -7.0300616243069253e-07 2.5936240158855776e-07 -0.065459204618209879 -9.5655384941100713e-07 9.7284563199355891e-07 -0.086869136001384503 2.476652034606105e-08 -2.8604385151869255e-08 -0.11250737590774476 1.9737869475462597e-11 2.1593026908295371e-08 -0.055160151058131664 -7.0300616243069242e-07 2.5936240158855771e-07 -0.065459204618209865 -2.070580466833261e-08 9.6445986032008265e-07 -0.062167379013274994 -7.0300616243069253e-07 2.5936240158855776e-07 -0.065459204618209879 -8.367662471856019e-07 -8.59669341636086e-08 -0.11356349935481477 -2.0473406895490619e-07 7.3344753203942916e-07 -0.11630640651542687 -9.5655384941100692e-07 9.728456319935587e-07 -0.086869136001384503 -1.1090668213200478e-07 1.150126141054463e-07 -6.217991885888511e-06 -7.0300616243069232e-07 2.5936240158855792e-07 -0.065459204618209865 -1.642241113609399e-08 1.5860007184955709e-08 -7.0289596901630954e-06 -2.0705804668332796e-08 9.6445986032008223e-07 -0.062167379013274994 -1.642241113609396e-08 1.5860007184955732e-08 -7.0289596901630319e-06 -7.0300616243069242e-07 2.5936240158855771e-07 -0.065459204618209865 -1.5659848334724442e-08 -1.5817412780985978e-08 -7.4215003313515242e-06 1.9737869475584322e-11 2.1593026908295404e-08 -0.055160151058131664 -7.0300616243069253e-07 2.5936240158855776e-07 -0.065459204618209879 -2.0705804668332686e-08 9.6445986032008244e-07 -0.062167379013274994 -1.109066821320049e-07 1.1501261410544642e-07 -6.2179918858984543e-06 -6.9396802082021438e-07 3.7899307944826893e-07 -0.042350590920845192 2.0822891451958603e-07 -5.5299303536937486e-11 -8.5010714907297946e-06 -1.6422411136093957e-08 1.5860007184955739e-08 -7.0289596901621611e-06 -1.1090668213200478e-07 1.150126141054463e-07 -6.217991885888511e-06 -7.0300616243069253e-07 2.5936240158855776e-07 -0.065459204618209879 -1.1090668213200478e-07 1.150126141054463e-07 -6.217991885888511e-06 -1.642241113609395e-08 1.5860007184955782e-08 -7.0289596901651706e-06 6.8466918576162348e-12 -2.0964518389264368e-07 -8.3824109698244645e-06 -2.0705804668332607e-08 9.6445986032008244e-07 -0.06216737901327498 2.0822891451958603e-07 -5.5299303536937486e-11 -8.5010714907297946e-06 -1.5659848334724419e-08 -1.5817412780985988e-08 -7.4215003313516589e-06 -1.6422411136094e-08 1.5860007184955742e-08 -7.0289596901657153e-06 -7.0300616243069253e-07 2.5936240158855776e-07 -0.065459204618209879 -1.642241113609396e-08 1.5860007184955732e-08 -7.0289596901630319e-06 -7.0300616243069242e-07 2.5936240158855771e-07 -0.065459204618209865 1.9737869475672698e-11 2.1593026908295517e-08 -0.055160151058131664 -2.0705804668332468e-08 9.6445986032008286e-07 -0.062167379013275001 -1.642241113609396e-08 1.5860007184955732e-08 -7.0289596901630319e-06 -1.5659848334724419e-08 -1.5817412780985988e-08 -7.4215003313516589e-06 1.3971513634161742e-10 9.2148327310262184e-11 -2.1157460880601201e-06 1.9737869475584322e-11 2.1593026908295404e-08 -0.055160151058131664 1.6349152756139673e-08 1.5981235644754602e-08 -6.9302504994440584e-06 -2.0965299839359381e-07 1.4411364857206904e-09 -8.6271102403973726e-06 5.6933496659124678e-07 4.9348592000736186e-07 -0.071117429320817299 9.9076822048899575e-07 -5.1479713604694132e-09 -0.078343150827848429 1.6349152756139673e-08 1.5981235644754602e-08 -6.9302504994440584e-06 1.9737869475480013e-11 2.1593026908295593e-08 -0.055160151058131671 5.6933496659124688e-07 4.9348592000736186e-07 -0.071117429320817299 -2.0705804668332746e-08 9.6445986032008244e-07 -0.062167379013275001 -1.642241113609396e-08 1.5860007184955732e-08 -7.0289596901630319e-06 1.3971513634161742e-10 9.2148327310262184e-11 -2.1157460880601201e-06 1.6349152756139673e-08 1.5981235644754602e-08 -6.9302504994440584e-06 1.9737869475584322e-11 2.1593026908295404e-08 -0.055160151058131664 1.6349152756139673e-08 1.5981235644754602e-08 -6.9302504994440584e-06 5.6933496659124656e-07 4.9348592000736228e-07 -0.071117429320817313 6.8466918576162348e-12 -2.0964518389264368e-07 -8.3824109698244645e-06 -2.070580466833261e-08 9.6445986032008265e-07 -0.062167379013274994 1.6349152756139673e-08 1.5981235644754602e-08 -6.9302504994440584e-06 5.6933496659124656e-07 4.9348592000736196e-07 -0.071117429320817299 1.9737869475584322e-11 2.1593026908295404e-08 -0.055160151058131664 9.9076822048899532e-07 -5.1479713604690881e-09 -0.078343150827848429 6.8466918576162348e-12 -2.0964518389264368e-07 -8.3824109698244645e-06 1.6349152756139673e-08 1.5981235644754602e-08 -6.9302504994440584e-06 1.1150271732064904e-07 1.1136359937538858e-07 -6.5221534439198411e-06 5.6933496659124678e-07 4.9348592000736186e-07 -0.071117429320817299 -1.642241113609396e-08 1.5860007184955732e-08 -7.0289596901630319e-06 1.6349152756139673e-08 1.5981235644754602e-08 -6.9302504994440584e-06 6.8466918576162348e-12 -2.0964518389264368e-07 -8.3824109698244645e-06 -2.0705804668332614e-08 9.6445986032008286e-07 -0.062167379013275008 1.6349152756139673e-08 1.5981235644754602e-08 -6.9302504994440584e-06 -2.0965299839359381e-07 1.4411364857206904e-09 -8.6271102403973726e-06 1.1150271732064904e-07 1.1136359937538858e-07 -6.5221534439198411e-06 5.6933496659124678e-07 4.9348592000736186e-07 -0.071117429320817299 -1.642241113609396e-08 1.5860007184955732e-08 -7.0289596901630319e-06 1.9737869475584322e-11 2.1593026908295404e-08 -0.055160151058131664 1.6349152756139673e-08 1.5981235644754602e-08 -6.9302504994440584e-06 -2.070580466833261e-08 9.6445986032008265e-07 -0.062167379013275001 5.6933496659124678e-07 4.9348592000736186e-07 -0.071117429320817299 8.51847729842543e-07 6.3619711076103244e-08 -0.13122680368518999 2.476652034606105e-08 -2.8604385151869255e-08 -0.11250737590774476 9.9076822048899532e-07 -5.1479713604688905e-09 -0.078343150827848443 8.51847729842543e-07 6.3619711076103323e-08 -0.13122680368518999 9.9076822048899511e-07 -5.1479713604688706e-09 -0.078343150827848443 5.6933496659124678e-07 4.9348592000736186e-07 -0.071117429320817299 1.0120020271779598e-06 9.172933406768821e-07 -0.12106967681622136 5.6933496659124678e-07 4.9348592000736186e-07 -0.071117429320817299 -2.0473406895490613e-07 7.3344753203942927e-07 -0.11630640651542688 2.4766520346061043e-08 -2.8604385151869258e-08 -0.11250737590774476 1.0120020271779598e-06 9.172933406768821e-07 -0.12106967681622136 2.476652034606105e-08 -2.8604385151869255e-08 -0.11250737590774476 -2.0473406895490613e-07 7.3344753203942916e-07 -0.11630640651542688 5.6933496659124667e-07 4.9348592000736186e-07 -0.071117429320817299 -2.070580466833261e-08 9.6445986032008265e-07 -0.062167379013274994 2.476652034606105e-08 -2.8604385151869255e-08 -0.11250737590774476 5.6933496659124667e-07 4.9348592000736207e-07 -0.071117429320817313 1.9737869475542184e-11 2.1593026908295441e-08 -0.055160151058131657 -2.070580466833261e-08 9.6445986032008265e-07 -0.062167379013274994 2.476652034606105e-08 -2.8604385151869255e-08 -0.11250737590774476 8.51847729842543e-07 6.361971107610335e-08 -0.13122680368518999 5.6933496659124678e-07 4.9348592000736218e-07 -0.071117429320817313 1.0120020271779598e-06 9.1729334067688274e-07 -0.12106967681622137 5.6933496659124678e-07 4.9348592000736186e-07 -0.071117429320817299 2.4766520346060868e-08 -2.8604385151869348e-08 -0.11250737590774476 1.9737869475644357e-11 2.1593026908295457e-08 -0.055160151058131678 9.9076822048899532e-07 -5.1479713604688905e-09 -0.078343150827848443 3.5358859416798777e-07 1.733160187836483e-06 -0.095229053596918981 -2.0473406895490619e-07 7.3344753203942916e-07 -0.11630640651542687 5.6933496659124678e-07 4.9348592000736165e-07 -0.071117429320817285 1.0120020271779596e-06 9.172933406768821e-07 -0.12106967681622134 5.6933496659124678e-07 4.9348592000736186e-07 -0.071117429320817299 -2.0473406895490621e-07 7.3344753203942927e-07 -0.11630640651542686 3.5358859416798782e-07 1.7331601878364832e-06 -0.095229053596918994 -2.070580466833265e-08 9.6445986032008244e-07 -0.062167379013274994 6.0483940661265768e-07 1.5411400121023102e-06 -0.06469450414906687 3.5358859416798777e-07 1.733160187836483e-06 -0.095229053596918981 1.1353829114606701e-07 2.3819502689412936e-06 -0.045893443915219614 -2.070580466833261e-08 9.6445986032008265e-07 -0.062167379013274994 6.0483940661265768e-07 1.5411400121023102e-06 -0.06469450414906687 5.6933496659124678e-07 4.9348592000736218e-07 -0.071117429320817285 3.5358859416798777e-07 1.733160187836483e-06 -0.095229053596918981 -2.070580466833261e-08 9.6445986032008265e-07 -0.062167379013274994 3.5358859416798777e-07 1.733160187836483e-06 -0.095229053596918981 5.6933496659124656e-07 4.9348592000736165e-07 -0.071117429320817285 6.0483940661265768e-07 1.5411400121023102e-06 -0.06469450414906687 1.0120020271779596e-06 9.1729334067688221e-07 -0.12106967681622136 6.0483940661265768e-07 1.5411400121023102e-06 -0.06469450414906687 3.6804407745452817e-07 1.5321480641801713e-06 -0.029186788197080166 5.6933496659124678e-07 4.9348592000736186e-07 -0.071117429320817285 -2.070580466833261e-08 9.6445986032008265e-07 -0.062167379013274994 1.0803781251645984e-06 2.1924556078653701e-06 -0.11483093926902731 3.5358859416798777e-07 1.733160187836483e-06 -0.095229053596918981 6.0483940661265768e-07 1.5411400121023102e-06 -0.06469450414906687 1.0120020271779598e-06 9.172933406768821e-07 -0.12106967681622136 3.5358859416798777e-07 1.733160187836483e-06 -0.095229053596918981 -2.0473406895490619e-07 7.3344753203942916e-07 -0.11630640651542687 -1.5784179928759744e-07 4.7898444584461424e-07 -0.11250777092154438 -2.070580466833261e-08 9.6445986032008265e-07 -0.062167379013274994 -2.1431205915304432e-07 1.7464461820971485e-06 -0.086182151307495569 3.5358859416798777e-07 1.733160187836483e-06 -0.095229053596918981 -1.5784179928759744e-07 4.7898444584461424e-07 -0.11250777092154438 -2.070580466833261e-08 9.6445986032008265e-07 -0.062167379013274994 -2.1431205915304432e-07 1.7464461820971485e-06 -0.086182151307495569 1.1353829114606701e-07 2.3819502689412936e-06 -0.045893443915219614 3.5358859416798777e-07 1.733160187836483e-06 -0.095229053596918981 -2.070580466833261e-08 9.6445986032008265e-07 -0.062167379013274994 -2.6278070835393102e-07 -2.6275836249286771e-07 -5.3363155997567346e-06 5.125576187619815e-08 -2.6408504701878725e-07 -4.9646836398747408e-06 1.1150271732064904e-07 1.1136359937538858e-07 -6.5221534439198411e-06 5.6933496659124678e-07 4.9348592000736186e-07 -0.071117429320817299 6.0483940661265768e-07 1.5411400121023102e-06 -0.06469450414906687 3.6804407745452823e-07 1.5321480641801713e-06 -0.029186788197080166 1.0407288586290826e-06 1.6168170056280339e-06 -0.035335107595211808 5.6933496659124667e-07 4.9348592000736186e-07 -0.071117429320817285 5.125576187619815e-08 -2.6408504701878725e-07 -4.9646836398747408e-06 3.6804407745452812e-07 1.5321480641801717e-06 -0.029186788197080159 1.1353829114606708e-07 2.3819502689412931e-06 -0.045893443915219614 -2.0705804668332726e-08 9.6445986032008265e-07 -0.06216737901327498 6.8466918576162348e-12 -2.0964518389264368e-07 -8.3824109698244645e-06 5.6933496659124635e-07 4.9348592000736239e-07 -0.071117429320817313 5.1255761876198077e-08 -2.640850470187872e-07 -4.9646836398755108e-06 -2.0705804668332309e-08 9.6445986032008223e-07 -0.062167379013275001 6.8466918576162348e-12 -2.0964518389264368e-07 -8.3824109698244645e-06 1.1150271732064906e-07 1.1136359937538866e-07 -6.5221534439191669e-06 5.1255761876198144e-08 -2.6408504701878725e-07 -4.9646836398741233e-06 5.6933496659124678e-07 4.9348592000736186e-07 -0.071117429320817299 6.0483940661265768e-07 1.5411400121023102e-06 -0.06469450414906687 1.1353829114606706e-07 2.3819502689412931e-06 -0.045893443915219614 3.6804407745452817e-07 1.5321480641801713e-06 -0.029186788197080166 -2.070580466833261e-08 9.6445986032008265e-07 -0.062167379013274994 6.8466918576162348e-12 -2.0964518389264368e-07 -8.3824109698244645e-06 5.1255761876198157e-08 -2.640850470187872e-07 -4.9646836398747637e-06 1.1353829114606701e-07 2.3819502689412936e-06 -0.045893443915219614 -2.070580466833261e-08 9.6445986032008265e-07 -0.062167379013274994 5.125576187619815e-08 -2.6408504701878725e-07 -4.9646836398747408e-06 5.6933496659124678e-07 4.9348592000736165e-07 -0.071117429320817299 3.6804407745452817e-07 1.5321480641801713e-06 -0.029186788197080163 -2.0705804668332802e-08 9.6445986032008223e-07 -0.062167379013274987 -2.6278070835393102e-07 -2.6275836249286771e-07 -5.3363155997567346e-06 3.6804407745452812e-07 1.5321480641801713e-06 -0.029186788197080159 5.125576187619815e-08 -2.6408504701878725e-07 -4.9646836398746163e-06 5.6933496659124667e-07 4.9348592000736112e-07 -0.071117429320817285 -1.5107097931964223e-09 9.9117677121055698e-07 -7.9939094316804866e-06 6.8466918576162348e-12 -2.0964518389264368e-07 -8.3824109698244645e-06 1.652270470772463e-09 9.669459145843349e-07 -7.8448792665192973e-06 1.1353829114606701e-07 2.3819502689412936e-06 -0.045893443915219614 1.652270470772463e-09 9.669459145843349e-07 -7.8448792665192973e-06 6.8466918576162348e-12 -2.0964518389264368e-07 -8.3824109698244645e-06 5.125576187619815e-08 -2.6408504701878725e-07 -4.9646836398747408e-06 1.1353829114606701e-07 2.3819502689412936e-06 -0.045893443915219614 1.652270470772463e-09 9.669459145843349e-07 -7.8448792665192973e-06 5.125576187619815e-08 -2.6408504701878725e-07 -4.9646836398747408e-06 3.6804407745452817e-07 1.5321480641801713e-06 -0.029186788197080166 1.1353829114606701e-07 2.3819502689412936e-06 -0.045893443915219614 -1.0836562169653825e-07 7.1721775382125711e-07 -5.9724000908221648e-06 1.652270470772463e-09 9.669459145843349e-07 -7.8448792665192973e-06 5.125576187619815e-08 -2.6408504701878725e-07 -4.9646836398747408e-06 3.6804407745452817e-07 1.5321480641801713e-06 -0.029186788197080166 1.6167800085178836e-06 1.021474213737579e-06 -0.035335247418276573 1.119003883094268e-06 1.344107890773174e-06 -0.069975015636690049 1.0407288586290826e-06 1.6168170056280339e-06 -0.035335107595211808 5.6933496659124699e-07 4.9348592000736196e-07 -0.071117429320817313 1.6167800085178836e-06 1.021474213737579e-06 -0.035335247418276573 -2.6278070835393081e-07 -2.6275836249286761e-07 -5.3363155997624851e-06 1.5321831577957325e-06 3.0375520860143812e-07 -0.02918708257780216 5.6933496659124667e-07 4.9348592000736165e-07 -0.071117429320817285 1.6167800085178836e-06 1.021474213737579e-06 -0.035335247418276573 1.0407288586290826e-06 1.6168170056280339e-06 -0.035335107595211808 -2.6278070835393108e-07 -2.6275836249286777e-07 -5.3363155997576773e-06 5.6933496659124678e-07 4.9348592000736186e-07 -0.071117429320817285 -2.6278070835393102e-07 -2.6275836249286771e-07 -5.3363155997567346e-06 1.0407288586290826e-06 1.6168170056280339e-06 -0.035335107595211808 3.6804407745452807e-07 1.5321480641801715e-06 -0.029186788197080163 5.693349665912472e-07 4.9348592000736165e-07 -0.071117429320817313 -2.6278070835393102e-07 -2.6275836249286771e-07 -5.3363155997567346e-06 -1.0836562169653825e-07 7.1721775382125711e-07 -5.9724000908221648e-06 5.125576187619815e-08 -2.6408504701878725e-07 -4.9646836398747408e-06 3.6804407745452817e-07 1.5321480641801713e-06 -0.029186788197080166 -1.0836562169653825e-07 7.1721775382125711e-07 -5.9724000908221648e-06 -2.6278070835393102e-07 -2.6275836249286766e-07 -5.3363155997569218e-06 1.0407288586290826e-06 1.6168170056280339e-06 -0.035335107595211808 3.6804407745452817e-07 1.5321480641801713e-06 -0.029186788197080166 -2.6278070835393102e-07 -2.6275836249286771e-07 -5.3363155997567346e-06 1.0718779256994302e-06 1.0718669797808234e-06 -9.1651552669306868e-06 -1.0836562169653825e-07 7.1721775382125711e-07 -5.9724000908221648e-06 1.0407288586290826e-06 1.6168170056280339e-06 -0.035335107595211808 -2.6278070835393102e-07 -2.6275836249286771e-07 -5.3363155997567346e-06 7.1722659407665267e-07 -1.0825825531820954e-07 -5.8979255984852184e-06 1.5321831577957325e-06 3.0375520860143812e-07 -0.02918708257780216 -2.6400789241337508e-07 5.127925199095165e-08 -5.4446524801821952e-06 1.6167800085178836e-06 1.021474213737579e-06 -0.035335247418276573 1.0718779256994304e-06 1.0718669797808236e-06 -9.1651552669324555e-06 7.1722659407665267e-07 -1.0825825531820954e-07 -5.8979255984852184e-06 -2.6278070835393092e-07 -2.6275836249286771e-07 -5.3363155997528128e-06 7.1722659407665267e-07 -1.0825825531820954e-07 -5.8979255984852184e-06 1.6167800085178836e-06 1.021474213737579e-06 -0.035335247418276573 -2.6278070835393102e-07 -2.6275836249286771e-07 -5.3363155997567346e-06 1.5321831577957325e-06 3.0375520860143812e-07 -0.02918708257780216 1.6167800085178836e-06 1.021474213737579e-06 -0.035335247418276573 1.0718779256994304e-06 1.0718669797808236e-06 -9.1651552669324555e-06 -2.6278070835393076e-07 -2.6275836249286739e-07 -5.3363155997606572e-06 1.0407288586290826e-06 1.6168170056280339e-06 -0.035335107595211808 1.119003883094268e-06 1.344107890773174e-06 -0.069975015636690049 1.6167800085178836e-06 1.021474213737579e-06 -0.035335247418276573 1.5195101026816928e-06 1.5194652187827254e-06 -0.045007556327979106 1.3440570001817371e-06 1.08821453548339e-06 -0.069975093201658789 1.0718779256994304e-06 1.0718669797808236e-06 -9.1651552669324555e-06 1.6167800085178836e-06 1.021474213737579e-06 -0.035335247418276573 1.5195101026816928e-06 1.5194652187827254e-06 -0.045007556327979106 1.0407288586290826e-06 1.6168170056280339e-06 -0.035335107595211808 1.6167800085178836e-06 1.021474213737579e-06 -0.035335247418276573 1.119003883094268e-06 1.344107890773174e-06 -0.069975015636690049 1.5195101026816928e-06 1.5194652187827254e-06 -0.045007556327979106 1.0407288586290826e-06 1.6168170056280339e-06 -0.035335107595211808 6.0483940661265768e-07 1.5411400121023102e-06 -0.06469450414906687 1.119003883094268e-06 1.344107890773174e-06 -0.069975015636690049 1.0803781251645984e-06 2.1924556078653701e-06 -0.11483093926902731 1.0120020271779598e-06 9.172933406768821e-07 -0.12106967681622136 1.964402772272242e-06 1.9643390109548266e-06 -0.090007674710414681 1.3440570001817371e-06 1.0882145354833898e-06 -0.069975093201658789 1.119003883094268e-06 1.344107890773174e-06 -0.069975015636690049 1.5195101026816928e-06 1.5194652187827254e-06 -0.045007556327979106 1.119003883094268e-06 1.344107890773174e-06 -0.069975015636690049 5.6933496659124688e-07 4.9348592000736207e-07 -0.071117429320817313 1.3440570001817371e-06 1.08821453548339e-06 -0.069975093201658789 1.0120020271779598e-06 9.172933406768821e-07 -0.12106967681622136 1.5412560369053259e-06 5.7393587300730367e-07 -0.064694752728358479 1.3440570001817371e-06 1.08821453548339e-06 -0.069975093201658789 5.6933496659124678e-07 4.9348592000736186e-07 -0.071117429320817299 1.0120020271779598e-06 9.172933406768821e-07 -0.12106967681622137 2.1924062950024264e-06 1.193261223325765e-06 -0.11483096715198732 1.1190038830942682e-06 1.3441078907731742e-06 -0.069975015636690063 1.3440570001817371e-06 1.08821453548339e-06 -0.069975093201658789 1.0120020271779598e-06 9.172933406768821e-07 -0.12106967681622136 1.5412560369053259e-06 5.7393587300730367e-07 -0.064694752728358479 2.1924062950024264e-06 1.193261223325765e-06 -0.11483096715198732 1.3440570001817371e-06 1.08821453548339e-06 -0.069975093201658789 1.0120020271779591e-06 9.17293340676882e-07 -0.12106967681622134 6.0483940661265768e-07 1.5411400121023102e-06 -0.06469450414906687 5.6933496659124678e-07 4.9348592000736218e-07 -0.071117429320817327 1.119003883094268e-06 1.344107890773174e-06 -0.069975015636690049 1.0120020271779598e-06 9.172933406768821e-07 -0.12106967681622136 6.0483940661265768e-07 1.5411400121023102e-06 -0.06469450414906687 1.0407288586290826e-06 1.6168170056280339e-06 -0.035335107595211808 1.119003883094268e-06 1.344107890773174e-06 -0.069975015636690049 5.6933496659124667e-07 4.9348592000736186e-07 -0.071117429320817285 1.0803781251645984e-06 2.1924556078653701e-06 -0.11483093926902731 1.119003883094268e-06 1.344107890773174e-06 -0.069975015636690049 2.1924062950024264e-06 1.193261223325765e-06 -0.11483096715198732 1.0120020271779598e-06 9.172933406768821e-07 -0.12106967681622136 1.6167800085178836e-06 1.021474213737579e-06 -0.035335247418276573 1.5412560369053259e-06 5.7393587300730367e-07 -0.064694752728358479 1.3440570001817371e-06 1.08821453548339e-06 -0.069975093201658789 5.6933496659124688e-07 4.9348592000736207e-07 -0.071117429320817299 1.6167800085178836e-06 1.021474213737579e-06 -0.035335247418276573 1.3440570001817371e-06 1.08821453548339e-06 -0.069975093201658789 1.119003883094268e-06 1.344107890773174e-06 -0.069975015636690049 5.6933496659124699e-07 4.9348592000736207e-07 -0.071117429320817299 2.1924062950024264e-06 1.193261223325765e-06 -0.11483096715198732 1.0803781251645986e-06 2.192455607865371e-06 -0.11483093926902732 1.964402772272242e-06 1.9643390109548266e-06 -0.090007674710414681 1.119003883094268e-06 1.344107890773174e-06 -0.069975015636690049 2.1924062950024264e-06 1.193261223325765e-06 -0.11483096715198732 1.964402772272242e-06 1.9643390109548266e-06 -0.090007674710414681 1.3440570001817371e-06 1.08821453548339e-06 -0.069975093201658789 1.119003883094268e-06 1.344107890773174e-06 -0.069975015636690049 1.7332579571572197e-06 4.3408559546872347e-07 -0.095229126536803627 5.6933496659124667e-07 4.9348592000736175e-07 -0.071117429320817285 9.9076822048899532e-07 -5.1479713604689277e-09 -0.078343150827848443 1.01200202717796e-06 9.17293340676882e-07 -0.12106967681622136 1.7332579571572197e-06 4.3408559546872347e-07 -0.095229126536803627 9.9076822048899532e-07 -5.1479713604691891e-09 -0.078343150827848457 8.5184772984254289e-07 6.3619711076103257e-08 -0.13122680368518996 1.0120020271779598e-06 9.1729334067688168e-07 -0.12106967681622136 1.5412560369053259e-06 5.7393587300730367e-07 -0.064694752728358479 5.6933496659124678e-07 4.9348592000736186e-07 -0.071117429320817299 1.7332579571572197e-06 4.3408559546872336e-07 -0.095229126536803627 1.01200202717796e-06 9.1729334067688242e-07 -0.12106967681622137 1.5412560369053259e-06 5.7393587300730367e-07 -0.064694752728358479 2.3816285138685588e-06 -1.2333034553431525e-07 -0.045893317521383592 1.7332579571572197e-06 4.3408559546872347e-07 -0.095229126536803627 9.9076822048899596e-07 -5.1479713604689517e-09 -0.078343150827848429 2.1924062950024264e-06 1.193261223325765e-06 -0.11483096715198732 1.5412560369053259e-06 5.7393587300730367e-07 -0.064694752728358479 1.7332579571572197e-06 4.3408559546872347e-07 -0.095229126536803627 1.0120020271779596e-06 9.17293340676882e-07 -0.12106967681622134 1.5412560369053259e-06 5.7393587300730367e-07 -0.064694752728358479 1.7332579571572197e-06 4.3408559546872347e-07 -0.095229126536803613 5.6933496659124678e-07 4.9348592000736186e-07 -0.071117429320817299 9.9076822048899511e-07 -5.1479713604686837e-09 -0.078343150827848457 1.5412560369053259e-06 5.7393587300730367e-07 -0.064694752728358479 5.6933496659124678e-07 4.9348592000736186e-07 -0.071117429320817299 2.3816285138685588e-06 -1.2333034553431515e-07 -0.045893317521383606 9.9076822048899638e-07 -5.1479713604690633e-09 -0.078343150827848401 1.7332579571572197e-06 4.3408559546872347e-07 -0.095229126536803627 1.7466844018638165e-06 -1.7384558114440106e-07 -0.086182033084373319 4.789587893398366e-07 -1.3902183481529176e-07 -0.11250770360087491 9.9076822048899532e-07 -5.1479713604688905e-09 -0.078343150827848443 1.7332579571572197e-06 4.3408559546872347e-07 -0.095229126536803627 4.789587893398366e-07 -1.3902183481529176e-07 -0.11250770360087491 8.5184772984254289e-07 6.361971107610327e-08 -0.13122680368518999 9.9076822048899553e-07 -5.147971360468682e-09 -0.078343150827848443 1.7332579571572197e-06 4.3408559546872347e-07 -0.095229126536803627 2.3816285138685588e-06 -1.2333034553431525e-07 -0.045893317521383599 1.7466844018638165e-06 -1.7384558114440106e-07 -0.086182033084373319 9.9076822048899532e-07 -5.1479713604688905e-09 -0.078343150827848443 2.3816285138685588e-06 -1.2333034553431525e-07 -0.045893317521383592 1.5321831577957325e-06 3.0375520860143812e-07 -0.029187082577802156 -2.6400789241337508e-07 5.127925199095165e-08 -5.4446524801821952e-06 5.6933496659124688e-07 4.9348592000736196e-07 -0.071117429320817313 2.3816285138685588e-06 -1.2333034553431525e-07 -0.045893317521383592 1.5412560369053259e-06 5.7393587300730367e-07 -0.064694752728358479 1.5321831577957325e-06 3.0375520860143812e-07 -0.02918708257780216 5.6933496659124667e-07 4.9348592000736186e-07 -0.071117429320817299 1.1150271732064904e-07 1.1136359937538858e-07 -6.5221534439198411e-06 -2.0965299839359381e-07 1.4411364857206904e-09 -8.6271102403973726e-06 -2.6400789241337508e-07 5.127925199095165e-08 -5.4446524801821952e-06 5.6933496659124678e-07 4.9348592000736186e-07 -0.071117429320817299 1.1150271732064904e-07 1.1136359937538858e-07 -6.5221534439198411e-06 -2.6400789241337508e-07 5.127925199095165e-08 -5.4446524801825044e-06 -2.6278070835393102e-07 -2.6275836249286771e-07 -5.3363155997567346e-06 5.6933496659124678e-07 4.9348592000736186e-07 -0.071117429320817299 1.6167800085178836e-06 1.021474213737579e-06 -0.035335247418276573 1.5321831577957325e-06 3.0375520860143812e-07 -0.02918708257780216 1.5412560369053259e-06 5.7393587300730367e-07 -0.064694752728358479 5.6933496659124731e-07 4.9348592000736186e-07 -0.071117429320817313 -2.6278070835393102e-07 -2.6275836249286771e-07 -5.3363155997567346e-06 -2.6400789241337508e-07 5.127925199095165e-08 -5.4446524801821952e-06 1.5321831577957325e-06 3.0375520860143812e-07 -0.02918708257780216 5.6933496659124678e-07 4.9348592000736186e-07 -0.071117429320817299 2.3816285138685588e-06 -1.2333034553431525e-07 -0.045893317521383592 5.6933496659124678e-07 4.9348592000736207e-07 -0.071117429320817299 -2.0965299839359363e-07 1.4411364857207012e-09 -8.6271102403971846e-06 9.9076822048899532e-07 -5.1479713604688847e-09 -0.078343150827848443 2.3816285138685588e-06 -1.2333034553431525e-07 -0.045893317521383592 -2.6400789241337476e-07 5.127925199095165e-08 -5.4446524801893518e-06 -2.0965299839359389e-07 1.4411364857206977e-09 -8.6271102403986059e-06 5.6933496659124688e-07 4.9348592000736196e-07 -0.071117429320817313 1.5321831577957325e-06 3.0375520860143812e-07 -0.02918708257780216 7.1722659407665267e-07 -1.0825825531820954e-07 -5.8979255984852184e-06 9.6694579485541127e-07 1.0460499355667733e-09 -7.943757696777289e-06 -2.6400789241337508e-07 5.127925199095165e-08 -5.4446524801821952e-06 2.3816285138685588e-06 -1.2333034553431525e-07 -0.045893317521383592 9.6694579485541127e-07 1.0460499355667733e-09 -7.943757696777289e-06 9.9143491181304581e-07 -1.3164888737278145e-09 -7.7059478667604348e-06 -2.0965299839359381e-07 1.4411364857206904e-09 -8.6271102403973726e-06 2.3816285138685588e-06 -1.2333034553431525e-07 -0.045893317521383592 1.5321831577957325e-06 3.0375520860143812e-07 -0.02918708257780216 9.6694579485541127e-07 1.0460499355667733e-09 -7.943757696777289e-06 -2.6400789241337508e-07 5.127925199095165e-08 -5.4446524801821952e-06 9.6694579485541127e-07 1.0460499355667733e-09 -7.943757696777289e-06 2.3816285138685588e-06 -1.2333034553431525e-07 -0.045893317521383592 -2.6400789241337508e-07 5.127925199095165e-08 -5.4446524801821952e-06 -2.0965299839359381e-07 1.4411364857206904e-09 -8.6271102403973726e-06 2.3816285138685588e-06 -1.2333034553431525e-07 -0.045893317521383592 9.9076822048899532e-07 -5.1479713604688499e-09 -0.078343150827848457 -2.0965299839359387e-07 1.4411364857206906e-09 -8.6271102403940692e-06 6.3688810104242526e-07 -2.4455641935379284e-07 -0.046033282304531693 2.3816285138685588e-06 -1.2333034553431525e-07 -0.045893317521383592 9.9143491181304581e-07 -1.3164888737278145e-09 -7.7059478667604348e-06 1.6189002423177514e-06 -1.2884301712535565e-07 -0.029640074706383249 -2.0965299839359381e-07 1.4411364857206904e-09 -8.6271102403973726e-06 9.9143491181304581e-07 -1.3164888737278145e-09 -7.7059478667604348e-06 -2.720748399865334e-07 -5.7682384223654143e-08 -4.8858645587909336e-06 1.6189002423177514e-06 -1.2884301712535565e-07 -0.029640074706383249 -2.0965299839359381e-07 1.4411364857206904e-09 -8.6271102403973726e-06 1.6189002423177514e-06 -1.2884301712535565e-07 -0.029640074706383249 2.3816285138685588e-06 -1.2333034553431525e-07 -0.045893317521383592 -2.0965299839359371e-07 1.4411364857207014e-09 -8.6271102403958073e-06 6.3688810104242568e-07 -2.4455641935379295e-07 -0.046033282304531693 1.6189002423177514e-06 -1.2884301712535565e-07 -0.029640074706383249 1.4824594926493403e-06 -5.5805087842661419e-07 -0.064694654731114493 2.3816285138685588e-06 -1.2333034553431525e-07 -0.045893317521383592 6.3688810104242558e-07 -2.4455641935379295e-07 -0.046033282304531693 1.6189002423177514e-06 -1.2884301712535565e-07 -0.029640074706383249 1.6285964643136989e-06 -9.5020743830835081e-07 -0.037600926861414516 1.4824594926493403e-06 -5.5805087842661419e-07 -0.064694654731114493 6.3688810104242558e-07 -2.4455641935379295e-07 -0.046033282304531693 -2.720748399865334e-07 -5.7682384223654143e-08 -4.8858645587909336e-06 1.6285964643136985e-06 -9.5020743830835113e-07 -0.037600926861414502 1.618900242317751e-06 -1.2884301712535589e-07 -0.029640074706383242 6.3688810104242558e-07 -2.4455641935379295e-07 -0.046033282304531693 -2.0965299839359381e-07 1.4411364857206904e-09 -8.6271102403973726e-06 1.1524275586430773e-07 -1.1558122107233853e-07 -6.2859904271786313e-06 -2.720748399865334e-07 -5.7682384223654143e-08 -4.8858645587909336e-06 6.3688810104242558e-07 -2.4455641935379295e-07 -0.046033282304531693 -2.720748399865334e-07 -5.7682384223654143e-08 -4.8858645587909336e-06 1.618900242317751e-06 -1.2884301712535565e-07 -0.029640074706383246 -2.0965299839359381e-07 1.4411364857206904e-09 -8.6271102403973726e-06 6.3688810104242558e-07 -2.4455641935379295e-07 -0.046033282304531693 1.1524275586430773e-07 -1.1558122107233853e-07 -6.2859904271786313e-06 -2.814027445945389e-07 2.8607067447698922e-07 -5.4081259236514057e-06 -2.720748399865334e-07 -5.7682384223654143e-08 -4.8858645587909336e-06 6.3688810104242547e-07 -2.445564193537929e-07 -0.046033282304531686 -2.720748399865334e-07 -5.7682384223654143e-08 -4.8858645587909336e-06 9.9143491181304581e-07 -1.3164888737278145e-09 -7.7059478667604348e-06 1.6189002423177512e-06 -1.2884301712535558e-07 -0.029640074706383236 7.4746070389769992e-07 1.1744078203206391e-07 -6.1863126448979295e-06 1.6285964643136989e-06 -9.5020743830835081e-07 -0.037600926861414509 1.0955215059238848e-06 -1.6393216399747168e-06 -0.037600901766762083 1.1679899337141984e-06 -1.0353424404375864e-06 -0.070221626408612403 6.3688810104242568e-07 -2.44556419353793e-07 -0.046033282304531693 -2.814027445945389e-07 2.8607067447698922e-07 -5.4081259236514057e-06 2.9770132640081225e-07 -1.4927146811741588e-06 -0.029819352926484858 1.0955215059238848e-06 -1.6393216399747168e-06 -0.037600901766762083 6.3688810104242526e-07 -2.4455641935379284e-07 -0.046033282304531686 1.6285964643136989e-06 -9.5020743830835081e-07 -0.037600926861414509 1.1626606916519157e-06 -1.1605735410588557e-06 -9.2906611543477521e-06 -2.814027445945389e-07 2.8607067447698922e-07 -5.4081259236514057e-06 7.4746070389769992e-07 1.1744078203206391e-07 -6.1863126448979295e-06 6.2002839717757938e-07 -1.451763055287823e-06 -0.064694727805285596 1.0979236175485202e-06 -1.284641576434595e-06 -0.07042833302143113 1.0955215059238848e-06 -1.6393216399747168e-06 -0.037600901766762083 6.3688810104242558e-07 -2.4455641935379295e-07 -0.046033282304531693 5.656023946259566e-08 2.704454092729954e-07 -5.3846003997851677e-06 2.9770132640081204e-07 -1.4927146811741588e-06 -0.029819352926484851 -2.8140274459453901e-07 2.8607067447698916e-07 -5.4081259236493533e-06 6.3688810104242558e-07 -2.4455641935379295e-07 -0.046033282304531693 -2.720748399865334e-07 -5.7682384223654143e-08 -4.8858645587909336e-06 1.6285964643136989e-06 -9.5020743830835081e-07 -0.037600926861414509 -2.814027445945389e-07 2.8607067447698922e-07 -5.4081259236514057e-06 7.4746070389769992e-07 1.1744078203206391e-07 -6.1863126448979295e-06 1.6285964643136989e-06 -9.5020743830835081e-07 -0.037600926861414509 -2.8140274459453896e-07 2.8607067447698916e-07 -5.4081259236514387e-06 1.0955215059238848e-06 -1.6393216399747168e-06 -0.037600901766762083 6.3688810104242568e-07 -2.44556419353793e-07 -0.046033282304531693 6.2002839717757938e-07 -1.451763055287823e-06 -0.064694727805285596 1.095521505923885e-06 -1.6393216399747168e-06 -0.037600901766762083 2.9770132640081204e-07 -1.4927146811741588e-06 -0.029819352926484851 6.3688810104242558e-07 -2.4455641935379295e-07 -0.046033282304531693 1.1679899337141984e-06 -1.0353424404375864e-06 -0.070221626408612403 1.0955215059238848e-06 -1.639321639974717e-06 -0.03760090176676207 1.09792361754852e-06 -1.2846415764345948e-06 -0.07042833302143113 6.3688810104242558e-07 -2.4455641935379295e-07 -0.046033282304531693 -2.720748399865334e-07 -5.7682384223654143e-08 -4.8858645587909336e-06 1.6189002423177512e-06 -1.2884301712535605e-07 -0.029640074706383249 1.6285964643136989e-06 -9.5020743830835081e-07 -0.037600926861414509 7.4746070389769992e-07 1.1744078203206391e-07 -6.1863126448979295e-06 1.6285964643136989e-06 -9.5020743830835081e-07 -0.037600926861414509 1.1679899337141984e-06 -1.0353424404375864e-06 -0.070221626408612403 1.4824594926493403e-06 -5.5805087842661419e-07 -0.064694654731114493 6.3688810104242558e-07 -2.4455641935379295e-07 -0.046033282304531693 1.1679899337141984e-06 -1.0353424404375864e-06 -0.070221626408612403 1.6631138305634815e-06 -1.6147997739529628e-06 -0.045007735071497412 1.0979236175485202e-06 -1.284641576434595e-06 -0.07042833302143113 1.0955215059238848e-06 -1.639321639974717e-06 -0.037600901766762083 1.6631138305634815e-06 -1.6147997739529628e-06 -0.045007735071497412 1.6285964643136989e-06 -9.5020743830835081e-07 -0.037600926861414509 1.1626606916519157e-06 -1.1605735410588557e-06 -9.2906611543479808e-06 1.0955215059238848e-06 -1.6393216399747168e-06 -0.037600901766762083 1.6631138305634815e-06 -1.6147997739529628e-06 -0.045007735071497412 1.1679899337141984e-06 -1.0353424404375864e-06 -0.070221626408612403 1.6285964643136989e-06 -9.5020743830835081e-07 -0.037600926861414509 1.0955215059238848e-06 -1.6393216399747168e-06 -0.037600901766762083 1.1626606916519157e-06 -1.1605735410588557e-06 -9.2906611543477521e-06 1.6285964643136987e-06 -9.5020743830835081e-07 -0.037600926861414509 -2.814027445945389e-07 2.8607067447698922e-07 -5.4081259236514057e-06 1.0955215059238848e-06 -1.6393216399747168e-06 -0.037600901766762083 2.9770132640081204e-07 -1.4927146811741588e-06 -0.029819352926484851 5.6560239462595674e-08 2.7044540927299566e-07 -5.3846003997760545e-06 -2.814027445945389e-07 2.8607067447698922e-07 -5.4081259236514057e-06 -1.1905982992076874e-07 -7.7306709204331294e-07 -5.9817924894378544e-06 -2.814027445945389e-07 2.8607067447698922e-07 -5.4081259236514057e-06 1.1626606916519154e-06 -1.1605735410588557e-06 -9.2906611543453872e-06 1.0955215059238848e-06 -1.6393216399747168e-06 -0.037600901766762083 -1.1905982992076874e-07 -7.7306709204331294e-07 -5.9817924894378544e-06 2.9770132640081204e-07 -1.4927146811741588e-06 -0.029819352926484851 -2.814027445945389e-07 2.8607067447698922e-07 -5.4081259236517352e-06 1.0955215059238848e-06 -1.6393216399747168e-06 -0.037600901766762083 -1.1905982992076874e-07 -7.7306709204331294e-07 -5.9817924894378544e-06 5.656023946259566e-08 2.704454092729954e-07 -5.3846003997851677e-06 -2.814027445945389e-07 2.8607067447698922e-07 -5.4081259236514057e-06 1.1524275586430773e-07 -1.1558122107233853e-07 -6.2859904271786313e-06 6.3688810104242558e-07 -2.4455641935379295e-07 -0.046033282304531693 -2.720748399865334e-07 -5.7682384223654143e-08 -4.8858645587909336e-06 -2.814027445945389e-07 2.8607067447698922e-07 -5.4081259236514057e-06 1.6285964643136989e-06 -9.5020743830835081e-07 -0.037600926861414509 6.3688810104242558e-07 -2.4455641935379295e-07 -0.046033282304531693 5.656023946259566e-08 2.704454092729954e-07 -5.3846003997851677e-06 2.0328949823796509e-07 -6.8846666516139159e-07 -0.066363563835468292 2.9770132640081204e-07 -1.4927146811741588e-06 -0.029819352926484851 6.3688810104242558e-07 -2.4455641935379295e-07 -0.046033282304531693 5.656023946259566e-08 2.704454092729954e-07 -5.3846003997851677e-06 -1.4873193524643409e-07 -2.3682850484688037e-06 -0.045893277902572735 2.9770132640081204e-07 -1.4927146811741588e-06 -0.029819352926484851 2.0328949823796509e-07 -6.8846666516139159e-07 -0.066363563835468292 1.1524275586430773e-07 -1.1558122107233853e-07 -6.2859904271786313e-06 -3.2540468108078012e-10 2.0914835553013418e-07 -8.808257735070588e-06 5.656023946259566e-08 2.704454092729954e-07 -5.3846003997851677e-06 2.0328949823796509e-07 -6.8846666516139159e-07 -0.066363563835468292 6.2002839717757938e-07 -1.451763055287823e-06 -0.064694727805285596 2.9770132640081204e-07 -1.4927146811741588e-06 -0.029819352926484851 2.032894982379653e-07 -6.8846666516139159e-07 -0.066363563835468292 6.3688810104242558e-07 -2.4455641935379295e-07 -0.046033282304531693 -3.2540468108078291e-10 2.0914835553013421e-07 -8.8082577350679402e-06 -1.487319352464344e-07 -2.3682850484688046e-06 -0.045893277902572735 5.656023946259566e-08 2.704454092729954e-07 -5.3846003997851677e-06 2.0328949823796509e-07 -6.8846666516139159e-07 -0.066363563835468292 2.9770132640081204e-07 -1.4927146811741588e-06 -0.029819352926484851 -1.487319352464344e-07 -2.3682850484688046e-06 -0.045893277902572735 6.2002839717757938e-07 -1.451763055287823e-06 -0.064694727805285596 2.0328949823796509e-07 -6.8846666516139159e-07 -0.066363563835468292 1.6971311895434125e-09 -9.6222839755603464e-07 -7.9076054456413882e-06 5.6560239462595674e-08 2.704454092729954e-07 -5.3846003997866407e-06 2.9770132640081204e-07 -1.4927146811741588e-06 -0.029819352926484851 -1.1905982992076874e-07 -7.7306709204331294e-07 -5.9817924894378544e-06 -3.2540468108078291e-10 2.0914835553013421e-07 -8.8082577350679402e-06 1.6971311895434125e-09 -9.6222839755603464e-07 -7.9076054456413882e-06 5.656023946259566e-08 2.704454092729954e-07 -5.3846003997851677e-06 -1.487319352464344e-07 -2.3682850484688046e-06 -0.045893277902572735 5.656023946259566e-08 2.704454092729954e-07 -5.3846003997851677e-06 1.6971311895434133e-09 -9.6222839755603464e-07 -7.9076054456460367e-06 2.9770132640081204e-07 -1.4927146811741588e-06 -0.029819352926484851 -1.4873193524643422e-07 -2.3682850484688046e-06 -0.045893277902572721 1.5686957438088017e-08 -1.5858432917167624e-08 -7.3730241147481008e-06 2.0328949823796564e-07 -6.8846666516139106e-07 -0.066363563835468306 1.1524275586430773e-07 -1.1558122107233853e-07 -6.2859904271786313e-06 6.3688810104242463e-07 -2.4455641935379374e-07 -0.046033282304531686 9.9076822048899532e-07 -5.1479713604688905e-09 -0.078343150827848443 6.3688810104242547e-07 -2.445564193537929e-07 -0.046033282304531693 1.6349152756139627e-08 1.5981235644754619e-08 -6.930250499440666e-06 -2.0965299839359413e-07 1.4411364857208162e-09 -8.6271102403893343e-06 1.5686957438088017e-08 -1.5858432917167624e-08 -7.3730241147481008e-06 1.9737869475584322e-11 2.1593026908295404e-08 -0.055160151058131664 2.0328949823796527e-07 -6.8846666516139148e-07 -0.066363563835468278 6.3688810104242515e-07 -2.4455641935379369e-07 -0.0460332823045317 1.5686957438088017e-08 -1.5858432917167624e-08 -7.3730241147481008e-06 6.3688810104242547e-07 -2.445564193537929e-07 -0.046033282304531693 1.6349152756139673e-08 1.5981235644754602e-08 -6.9302504994440584e-06 1.9737869475584322e-11 2.1593026908295404e-08 -0.055160151058131664 9.9076822048899532e-07 -5.1479713604688905e-09 -0.078343150827848443 1.6349152756139895e-08 1.5981235644754665e-08 -6.9302504994316798e-06 6.3688810104242558e-07 -2.4455641935379295e-07 -0.046033282304531693 1.9737869475788552e-11 2.1593026908295408e-08 -0.055160151058131664 1.5686957438088017e-08 -1.5858432917167624e-08 -7.3730241147481008e-06 -3.2540468108078291e-10 2.0914835553013421e-07 -8.8082577350679402e-06 1.1524275586430773e-07 -1.1558122107233855e-07 -6.2859904271799553e-06 2.0328949823796509e-07 -6.8846666516139159e-07 -0.066363563835468292 1.5686957438088017e-08 -1.5858432917167624e-08 -7.3730241147481008e-06 1.6349152756139564e-08 1.5981235644754619e-08 -6.9302504994394607e-06 6.3688810104242526e-07 -2.4455641935379284e-07 -0.046033282304531679 -2.0965299839359381e-07 1.4411364857206904e-09 -8.6271102403973726e-06 5.656023946259566e-08 2.704454092729954e-07 -5.3846003997851677e-06 1.1524275586430778e-07 -1.1558122107233848e-07 -6.2859904271820322e-06 2.0328949823796501e-07 -6.8846666516139159e-07 -0.066363563835468278 6.3688810104242558e-07 -2.4455641935379295e-07 -0.046033282304531693 1.5686957438088017e-08 -1.5858432917167624e-08 -7.3730241147481008e-06 -3.2540468108078291e-10 2.0914835553013421e-07 -8.8082577350679402e-06 2.0328949823796509e-07 -6.8846666516139159e-07 -0.066363563835468292 -2.6068322373151984e-10 -7.591339129477071e-07 -0.044493327485174025 1.5686957438088017e-08 -1.5858432917167624e-08 -7.3730241147481008e-06 2.0328949823796509e-07 -6.8846666516139159e-07 -0.066363563835468292 1.9737869475584322e-11 2.1593026908295404e-08 -0.055160151058131664 -2.6068322373151984e-10 -7.591339129477071e-07 -0.044493327485174025 1.5686957438088017e-08 -1.5858432917167624e-08 -7.3730241147481008e-06 1.6349152756139673e-08 1.5981235644754602e-08 -6.9302504994440584e-06 1.3971513634161742e-10 9.2148327310262184e-11 -2.1157460880601201e-06 1.9737869475584322e-11 2.1593026908295404e-08 -0.055160151058131664 1.5686957438088017e-08 -1.5858432917167624e-08 -7.3730241147481008e-06 1.1524275586430773e-07 -1.1558122107233853e-07 -6.2859904271786313e-06 -2.0965299839359381e-07 1.4411364857206904e-09 -8.6271102403973726e-06 6.3688810104242537e-07 -2.445564193537929e-07 -0.046033282304531679 2.0328949823796509e-07 -6.8846666516139159e-07 -0.066363563835468292 2.4766520346061046e-08 -2.860438515186908e-08 -0.11250737590774477 -4.1782557321432121e-08 -8.3805439704036274e-07 -0.11416303671339964 9.9256299545612317e-07 -8.7757408567391994e-07 -0.11003432602610703 1.9737869475584322e-11 2.1593026908295404e-08 -0.055160151058131664 9.907682204889949e-07 -5.1479713604689078e-09 -0.078343150827848429 2.0328949823796501e-07 -6.8846666516139138e-07 -0.066363563835468278 6.3688810104242558e-07 -2.4455641935379295e-07 -0.046033282304531693 2.0328949823796509e-07 -6.8846666516139159e-07 -0.066363563835468292 2.4766520346060977e-08 -2.8604385151869288e-08 -0.11250737590774476 9.9256299545612317e-07 -8.7757408567391994e-07 -0.11003432602610703 9.9076822048899532e-07 -5.1479713604688905e-09 -0.078343150827848443 8.51847729842543e-07 6.3619711076103323e-08 -0.13122680368518999 9.9256299545612317e-07 -8.7757408567391994e-07 -0.11003432602610703 2.476652034606105e-08 -2.8604385151869255e-08 -0.11250737590774476 9.9076822048899532e-07 -5.1479713604689765e-09 -0.078343150827848457 2.0328949823796509e-07 -6.8846666516139159e-07 -0.066363563835468292 9.9076822048899553e-07 -5.1479713604687846e-09 -0.078343150827848443 9.9256299545612317e-07 -8.7757408567391994e-07 -0.11003432602610703 6.3688810104242547e-07 -2.445564193537929e-07 -0.046033282304531686 2.0328949823796509e-07 -6.8846666516139159e-07 -0.066363563835468292 1.9737869475756961e-11 2.1593026908295332e-08 -0.055160151058131664 2.4766520346061056e-08 -2.8604385151869265e-08 -0.11250737590774477 9.9076822048899553e-07 -5.1479713604687358e-09 -0.078343150827848443 -1.487319352464344e-07 -2.3682850484688046e-06 -0.045893277902572735 3.9977859936498586e-07 -1.8240835949680774e-06 -0.095513505353309158 6.2002839717757938e-07 -1.451763055287823e-06 -0.064694727805285596 2.0328949823796509e-07 -6.8846666516139159e-07 -0.066363563835468292 6.2002839717757938e-07 -1.451763055287823e-06 -0.064694727805285596 2.0328949823796488e-07 -6.8846666516139169e-07 -0.066363563835468292 3.9977859936498581e-07 -1.8240835949680774e-06 -0.095513505353309158 9.9256299545612338e-07 -8.7757408567391983e-07 -0.11003432602610703 2.0328949823796509e-07 -6.8846666516139159e-07 -0.066363563835468292 -4.1782557321432068e-08 -8.3805439704036285e-07 -0.11416303671339965 3.9977859936498586e-07 -1.8240835949680774e-06 -0.095513505353309158 9.9256299545612317e-07 -8.7757408567391994e-07 -0.11003432602610703 6.2002839717757938e-07 -1.451763055287823e-06 -0.064694727805285596 2.032894982379649e-07 -6.8846666516139148e-07 -0.066363563835468278 9.9256299545612359e-07 -8.7757408567392004e-07 -0.11003432602610705 6.3688810104242558e-07 -2.4455641935379295e-07 -0.046033282304531693 -1.8372557286915506e-07 -1.7201407338661059e-06 -0.086193261424062334 3.9977859936498586e-07 -1.8240835949680774e-06 -0.095513505353309158 2.0328949823796511e-07 -6.8846666516139138e-07 -0.066363563835468264 -4.1782557321432068e-08 -8.3805439704036285e-07 -0.11416303671339965 -1.8372557286915506e-07 -1.7201407338661059e-06 -0.086193261424062334 3.9977859936498586e-07 -1.8240835949680774e-06 -0.095513505353309158 -1.487319352464344e-07 -2.3682850484688046e-06 -0.045893277902572728 2.0328949823796509e-07 -6.8846666516139159e-07 -0.066363563835468292 1.1355844641412014e-06 -2.2301139644872247e-06 -0.11483110637364337 6.2002839717757938e-07 -1.451763055287823e-06 -0.064694727805285596 3.9977859936498586e-07 -1.8240835949680774e-06 -0.095513505353309158 9.9256299545612317e-07 -8.7757408567392036e-07 -0.11003432602610703 -1.8372557286915506e-07 -1.7201407338661059e-06 -0.086193261424062334 -3.7551287102183929e-08 -5.3757547439088497e-07 -0.11250770888502605 3.9977859936498586e-07 -1.8240835949680774e-06 -0.095513505353309158 -4.1782557321432068e-08 -8.3805439704036285e-07 -0.11416303671339965 6.2002839717757938e-07 -1.451763055287823e-06 -0.064694727805285596 1.1355844641412014e-06 -2.2301139644872247e-06 -0.11483110637364337 1.0979236175485202e-06 -1.284641576434595e-06 -0.07042833302143113 9.9256299545612317e-07 -8.7757408567391994e-07 -0.11003432602610703 6.2002839717757938e-07 -1.451763055287823e-06 -0.064694727805285596 9.9256299545612317e-07 -8.7757408567391994e-07 -0.11003432602610703 1.0979236175485202e-06 -1.284641576434595e-06 -0.07042833302143113 6.3688810104242558e-07 -2.4455641935379295e-07 -0.046033282304531693 1.1679899337141984e-06 -1.0353424404375864e-06 -0.070221626408612403 9.9256299545612317e-07 -8.7757408567392004e-07 -0.11003432602610705 1.4824594926493403e-06 -5.5805087842661419e-07 -0.064694654731114493 6.3688810104242547e-07 -2.445564193537929e-07 -0.046033282304531686 1.1679899337141984e-06 -1.0353424404375864e-06 -0.070221626408612403 1.0979236175485202e-06 -1.284641576434595e-06 -0.07042833302143113 9.9256299545612338e-07 -8.7757408567392004e-07 -0.11003432602610705 6.3688810104242558e-07 -2.4455641935379295e-07 -0.046033282304531686 1.1679899337141984e-06 -1.0353424404375864e-06 -0.070221626408612403 1.09792361754852e-06 -1.284641576434595e-06 -0.07042833302143113 2.1075067866291557e-06 -1.1511708150372051e-06 -0.11018431591000441 9.9256299545612317e-07 -8.7757408567391994e-07 -0.11003432602610703 1.1355844641412014e-06 -2.2301139644872247e-06 -0.11483110637364337 2.1075067866291553e-06 -1.1511708150372049e-06 -0.1101843159100044 1.0979236175485202e-06 -1.284641576434595e-06 -0.07042833302143113 9.9256299545612338e-07 -8.7757408567392026e-07 -0.11003432602610703 1.1355844641412014e-06 -2.2301139644872247e-06 -0.11483110637364337 1.99768801233918e-06 -1.9043466416480279e-06 -0.13500788728958502 1.9389662133142591e-06 -1.9690481973258899e-06 -0.090007918396784362 2.1075067866291557e-06 -1.1511708150372051e-06 -0.11018431591000441 1.1679899337141984e-06 -1.0353424404375864e-06 -0.070221626408612403 1.0979236175485202e-06 -1.284641576434595e-06 -0.07042833302143113 1.9389662133142591e-06 -1.9690481973258899e-06 -0.090007918396784362 2.1075067866291557e-06 -1.1511708150372051e-06 -0.11018431591000441 1.0979236175485202e-06 -1.284641576434595e-06 -0.07042833302143113 1.1355844641412014e-06 -2.2301139644872247e-06 -0.11483110637364337 1.9389662133142595e-06 -1.9690481973258904e-06 -0.090007918396784362 2.1075067866291557e-06 -1.1511708150372051e-06 -0.11018431591000441 1.6631138305634815e-06 -1.6147997739529628e-06 -0.045007735071497412 1.1679899337141984e-06 -1.0353424404375864e-06 -0.070221626408612403 1.0979236175485202e-06 -1.284641576434595e-06 -0.07042833302143113 1.9389662133142591e-06 -1.9690481973258899e-06 -0.090007918396784362 1.1679899337141984e-06 -1.0353424404375864e-06 -0.070221626408612403 2.1075067866291557e-06 -1.1511708150372051e-06 -0.11018431591000441 1.4824594926493403e-06 -5.5805087842661419e-07 -0.064694654731114493 9.9256299545612317e-07 -8.7757408567391994e-07 -0.11003432602610703 6.3688810104242558e-07 -2.4455641935379295e-07 -0.046033282304531693 1.7466844018638165e-06 -1.7384558114440106e-07 -0.086182033084373319 9.9256299545612317e-07 -8.7757408567391994e-07 -0.11003432602610703 1.4824594926493403e-06 -5.5805087842661419e-07 -0.064694654731114493 1.4824594926493403e-06 -5.5805087842661419e-07 -0.064694654731114493 2.1075067866291557e-06 -1.1511708150372051e-06 -0.11018431591000441 1.7466844018638165e-06 -1.7384558114440106e-07 -0.086182033084373319 9.9256299545612317e-07 -8.7757408567391994e-07 -0.11003432602610703 1.7466844018638165e-06 -1.7384558114440106e-07 -0.086182033084373319 2.1075067866291557e-06 -1.1511708150372051e-06 -0.11018431591000441 1.7800308126136394e-06 -4.3447065648962686e-07 -0.12818032648175323 9.9256299545612317e-07 -8.7757408567391994e-07 -0.11003432602610703 6.3688810104242558e-07 -2.4455641935379295e-07 -0.046033282304531693 9.9256299545612295e-07 -8.7757408567391983e-07 -0.11003432602610705 1.7466844018638165e-06 -1.7384558114440106e-07 -0.086182033084373319 9.9076822048899532e-07 -5.1479713604690352e-09 -0.078343150827848443 2.3816285138685588e-06 -1.2333034553431525e-07 -0.045893317521383592 1.7466844018638163e-06 -1.7384558114440109e-07 -0.086182033084373305 9.9076822048899532e-07 -5.1479713604688905e-09 -0.078343150827848443 6.368881010424259e-07 -2.4455641935379284e-07 -0.0460332823045317 2.3816285138685588e-06 -1.2333034553431525e-07 -0.045893317521383592 1.4824594926493403e-06 -5.5805087842661419e-07 -0.064694654731114493 1.7466844018638165e-06 -1.7384558114440106e-07 -0.086182033084373319 6.3688810104242611e-07 -2.4455641935379306e-07 -0.0460332823045317 4.789587893398366e-07 -1.3902183481529176e-07 -0.11250770360087491 9.9256299545612295e-07 -8.7757408567391962e-07 -0.11003432602610702 8.51847729842543e-07 6.3619711076103323e-08 -0.13122680368518999 9.9076822048899532e-07 -5.1479713604688905e-09 -0.078343150827848443 4.789587893398366e-07 -1.3902183481529176e-07 -0.11250770360087491 1.7466844018638165e-06 -1.7384558114440106e-07 -0.086182033084373319 9.9256299545612317e-07 -8.7757408567391973e-07 -0.11003432602610702 9.9076822048899532e-07 -5.1479713604688905e-09 -0.078343150827848443 1.7800308126136394e-06 -4.3447065648962686e-07 -0.12818032648175323 4.789587893398366e-07 -1.3902183481529176e-07 -0.11250770360087491 1.7466844018638165e-06 -1.7384558114440106e-07 -0.086182033084373319 9.9256299545612317e-07 -8.7757408567391994e-07 -0.11003432602610703 1.7800308126136394e-06 -4.3447065648962686e-07 -0.12818032648175323 8.51847729842543e-07 6.3619711076103323e-08 -0.13122680368518999 4.789587893398366e-07 -1.3902183481529176e-07 -0.11250770360087491 9.9256299545612317e-07 -8.7757408567391994e-07 -0.11003432602610703 1.7800308126136394e-06 -4.3447065648962686e-07 -0.12818032648175323 1.8625218763443124e-06 2.6019857093997069e-07 -0.13878678912217696 4.789587893398366e-07 -1.3902183481529176e-07 -0.11250770360087491 8.51847729842543e-07 6.3619711076103323e-08 -0.13122680368518999 2.2076495334491158e-06 -4.8370688609734209e-08 -0.17912261002578175 7.5272775909004946e-07 4.7381673523042248e-08 -0.17993089255123865 8.51847729842543e-07 6.361971107610331e-08 -0.13122680368518999 1.0061627859981193e-06 -4.5564339661784431e-07 -0.18119170855610681 8.51847729842543e-07 6.3619711076103323e-08 -0.13122680368518999 1.7800308126136392e-06 -4.3447065648962686e-07 -0.1281803264817532 1.0061627859981193e-06 -4.5564339661784426e-07 -0.18119170855610681 9.5681590985225098e-07 -9.5042420833711136e-07 -0.15151932336345705 8.51847729842543e-07 6.3619711076103323e-08 -0.13122680368518999 9.9256299545612317e-07 -8.7757408567391994e-07 -0.11003432602610703 1.7800308126136394e-06 -4.3447065648962681e-07 -0.12818032648175323 9.5681590985225098e-07 -9.5042420833711146e-07 -0.15151932336345703 1.7800308126136394e-06 -4.3447065648962686e-07 -0.12818032648175323 2.2076495334491158e-06 -4.8370688609734209e-08 -0.17912261002578175 1.8625218763443124e-06 2.6019857093997069e-07 -0.13878678912217696 8.51847729842543e-07 6.3619711076103323e-08 -0.13122680368518999 2.2076495334491158e-06 -4.8370688609734209e-08 -0.17912261002578175 8.51847729842543e-07 6.3619711076103323e-08 -0.13122680368518999 1.7800308126136394e-06 -4.3447065648962686e-07 -0.12818032648175323 1.0061627859981193e-06 -4.5564339661784421e-07 -0.18119170855610681 1.5303635558486307e-06 -7.2468839904059901e-07 -0.16032047279889719 1.0061627859981191e-06 -4.5564339661784426e-07 -0.18119170855610681 1.7800308126136394e-06 -4.3447065648962686e-07 -0.12818032648175323 9.5681590985225098e-07 -9.5042420833711146e-07 -0.15151932336345703 1.5303635558486307e-06 -7.2468839904059901e-07 -0.16032047279889719 2.2076495334491158e-06 -4.8370688609734169e-08 -0.17912261002578175 1.7800308126136394e-06 -4.3447065648962686e-07 -0.12818032648175323 1.0061627859981193e-06 -4.5564339661784421e-07 -0.18119170855610681 1.7800308126136394e-06 -4.3447065648962686e-07 -0.12818032648175323 9.9256299545612317e-07 -8.7757408567391994e-07 -0.11003432602610703 2.1075067866291557e-06 -1.1511708150372051e-06 -0.11018431591000441 9.5681590985225098e-07 -9.5042420833711146e-07 -0.15151932336345703 1.7800308126136394e-06 -4.3447065648962686e-07 -0.12818032648175323 2.1075067866291557e-06 -1.1511708150372051e-06 -0.11018431591000441 1.5303635558486305e-06 -7.246883990405989e-07 -0.16032047279889716 9.5681590985225098e-07 -9.5042420833711146e-07 -0.15151932336345703 1.1355844641412014e-06 -2.2301139644872247e-06 -0.11483110637364337 2.1075067866291557e-06 -1.1511708150372049e-06 -0.11018431591000441 9.9256299545612338e-07 -8.7757408567392015e-07 -0.11003432602610703 9.568159098522512e-07 -9.5042420833711146e-07 -0.15151932336345703 1.3706455932248775e-06 -1.2251985987272035e-06 -0.15458702664646856 2.1075067866291557e-06 -1.1511708150372051e-06 -0.11018431591000442 1.99768801233918e-06 -1.9043466416480279e-06 -0.13500788728958502 9.5681590985225098e-07 -9.5042420833711146e-07 -0.15151932336345703 1.5303635558486307e-06 -7.2468839904059901e-07 -0.16032047279889719 1.3706455932248775e-06 -1.2251985987272035e-06 -0.15458702664646856 1.3567141713781345e-06 -1.1268655200916913e-06 -0.18741440692497949 9.5681590985225098e-07 -9.5042420833711146e-07 -0.15151932336345703 1.5303635558486307e-06 -7.2468839904059901e-07 -0.16032047279889719 2.1075067866291557e-06 -1.1511708150372051e-06 -0.11018431591000441 1.3706455932248775e-06 -1.2251985987272035e-06 -0.15458702664646856 9.5681590985225098e-07 -9.5042420833711146e-07 -0.15151932336345703 1.2662811178030546e-06 -1.2214033004768725e-06 -0.15479382328719732 1.3567141713781345e-06 -1.1268655200916913e-06 -0.18741440692497949 1.3706455932248775e-06 -1.2251985987272038e-06 -0.15458702664646856 9.5681590985225098e-07 -9.5042420833711146e-07 -0.15151932336345703 1.3706455932248775e-06 -1.2251985987272035e-06 -0.15458702664646856 1.2662811178030546e-06 -1.2214033004768725e-06 -0.15479382328719732 1.99768801233918e-06 -1.9043466416480279e-06 -0.13500788728958502 1.4819189762095146e-06 -1.5475450794524096e-06 -0.18000832726153584 1.2662811178030546e-06 -1.2214033004768725e-06 -0.15479382328719732 1.3706455932248773e-06 -1.2251985987272031e-06 -0.15458702664646856 1.99768801233918e-06 -1.9043466416480279e-06 -0.13500788728958502 9.5681590985225098e-07 -9.5042420833711146e-07 -0.15151932336345703 1.1355844641412014e-06 -2.2301139644872247e-06 -0.11483110637364337 1.99768801233918e-06 -1.9043466416480279e-06 -0.13500788728958502 2.1075067866291557e-06 -1.1511708150372049e-06 -0.11018431591000442 9.5681590985225098e-07 -9.5042420833711115e-07 -0.15151932336345703 1.2662811178030546e-06 -1.2214033004768725e-06 -0.15479382328719732 1.99768801233918e-06 -1.9043466416480279e-06 -0.13500788728958502 1.1355844641412014e-06 -2.2301139644872247e-06 -0.11483110637364337 9.5681590985225098e-07 -9.5042420833711146e-07 -0.15151932336345703 7.5367803957120063e-07 -1.5105984760648922e-06 -0.16032049983550817 1.2662811178030546e-06 -1.2214033004768725e-06 -0.15479382328719732 1.1355844641412014e-06 -2.2301139644872247e-06 -0.11483110637364337 9.5681590985225098e-07 -9.5042420833711146e-07 -0.15151932336345703 7.5367803957120063e-07 -1.5105984760648922e-06 -0.16032049983550817 1.0649487331511901e-06 -1.3601398726146824e-06 -0.18741441924600813 1.2662811178030546e-06 -1.2214033004768725e-06 -0.15479382328719732 9.5681590985225098e-07 -9.5042420833711146e-07 -0.15151932336345703 7.5367803957120063e-07 -1.5105984760648922e-06 -0.16032049983550817 3.6902190996498466e-07 -7.1550844904051593e-07 -0.1577633092157793 6.2262601919551587e-07 -1.3712975006994666e-06 -0.19537491197777085 9.5681590985225098e-07 -9.5042420833711146e-07 -0.15151932336345703 2.65773486303324e-07 -1.8530876144777872e-06 -0.14213063811804039 9.9256299545612359e-07 -8.7757408567391973e-07 -0.11003432602610703 3.6902190996498493e-07 -7.1550844904051593e-07 -0.1577633092157793 9.5681590985225098e-07 -9.5042420833711125e-07 -0.15151932336345703 1.1355844641412014e-06 -2.2301139644872247e-06 -0.11483110637364337 9.9256299545612317e-07 -8.7757408567392004e-07 -0.11003432602610705 2.65773486303324e-07 -1.8530876144777872e-06 -0.14213063811804039 9.5681590985225098e-07 -9.5042420833711146e-07 -0.15151932336345703 -3.4689862873536473e-08 -2.1263917566863184e-06 -0.17912266840537322 7.5367803957120063e-07 -1.5105984760648922e-06 -0.16032049983550817 2.65773486303324e-07 -1.8530876144777872e-06 -0.14213063811804039 3.6902190996498466e-07 -7.1550844904051593e-07 -0.1577633092157793 2.65773486303324e-07 -1.8530876144777872e-06 -0.14213063811804039 3.9977859936498586e-07 -1.8240835949680774e-06 -0.095513505353309158 -4.1782557321432373e-08 -8.3805439704036263e-07 -0.11416303671339965 9.9256299545612317e-07 -8.7757408567391994e-07 -0.11003432602610703 2.65773486303324e-07 -1.8530876144777872e-06 -0.14213063811804039 -4.1782557321432267e-08 -8.3805439704036295e-07 -0.11416303671339965 3.6902190996498487e-07 -7.1550844904051604e-07 -0.15776330921577933 9.9256299545612317e-07 -8.7757408567391994e-07 -0.11003432602610703 7.5367803957120063e-07 -1.5105984760648922e-06 -0.16032049983550817 2.65773486303324e-07 -1.8530876144777872e-06 -0.14213063811804039 3.6902190996498466e-07 -7.1550844904051593e-07 -0.1577633092157793 9.5681590985225098e-07 -9.5042420833711146e-07 -0.15151932336345703 2.65773486303324e-07 -1.8530876144777872e-06 -0.14213063811804039 1.1355844641412014e-06 -2.2301139644872247e-06 -0.11483110637364337 3.9977859936498586e-07 -1.8240835949680774e-06 -0.095513505353309158 9.9256299545612317e-07 -8.7757408567391994e-07 -0.11003432602610703 2.65773486303324e-07 -1.8530876144777872e-06 -0.14213063811804039 -3.4689862873536473e-08 -2.1263917566863184e-06 -0.17912266840537322 3.6902190996498482e-07 -7.1550844904051604e-07 -0.1577633092157793 -4.1782557321432346e-08 -8.3805439704036274e-07 -0.11416303671339964 7.5367803957120063e-07 -1.5105984760648922e-06 -0.16032049983550817 1.1355844641412014e-06 -2.2301139644872247e-06 -0.11483110637364337 2.65773486303324e-07 -1.8530876144777872e-06 -0.14213063811804039 9.5681590985225098e-07 -9.5042420833711146e-07 -0.15151932336345703 2.65773486303324e-07 -1.8530876144777872e-06 -0.14213063811804039 3.997785993649857e-07 -1.8240835949680769e-06 -0.095513505353309172 -3.7551287102183929e-08 -5.3757547439088497e-07 -0.11250770888502605 -4.1782557321432167e-08 -8.3805439704036253e-07 -0.11416303671339964 8.51847729842543e-07 6.3619711076103323e-08 -0.13122680368518999 -4.1482650587529034e-08 -4.0170451547914521e-08 -0.17056303157081257 3.6902190996498461e-07 -7.1550844904051625e-07 -0.15776330921577933 7.5272775909004936e-07 4.7381673523042241e-08 -0.17993089255123865 3.6902190996498466e-07 -7.1550844904051593e-07 -0.1577633092157793 8.5184772984254311e-07 6.3619711076103416e-08 -0.13122680368518999 1.0061627859981193e-06 -4.5564339661784421e-07 -0.18119170855610681 9.5681590985225098e-07 -9.5042420833711146e-07 -0.15151932336345703 3.6902190996498466e-07 -7.1550844904051593e-07 -0.1577633092157793 9.9256299545612295e-07 -8.7757408567392004e-07 -0.11003432602610703 8.5184772984254321e-07 6.361971107610372e-08 -0.13122680368518996 9.5681590985225098e-07 -9.5042420833711146e-07 -0.15151932336345703 2.476652034606105e-08 -2.8604385151869255e-08 -0.11250737590774476 3.6902190996498477e-07 -7.1550844904051583e-07 -0.1577633092157793 8.51847729842543e-07 6.3619711076103204e-08 -0.13122680368518999 -4.148265058752916e-08 -4.0170451547914369e-08 -0.17056303157081257 3.6902190996498466e-07 -7.1550844904051593e-07 -0.1577633092157793 2.476652034606105e-08 -2.8604385151869255e-08 -0.11250737590774476 8.5184772984254311e-07 6.3619711076103562e-08 -0.13122680368519002 9.9256299545612317e-07 -8.7757408567392015e-07 -0.11003432602610703 3.6902190996498466e-07 -7.1550844904051593e-07 -0.1577633092157793 -4.1782557321432148e-08 -8.3805439704036295e-07 -0.11416303671339965 2.476652034606105e-08 -2.8604385151869255e-08 -0.11250737590774476 9.9256299545612317e-07 -8.7757408567391994e-07 -0.11003432602610702 2.476652034606105e-08 -2.8604385151869255e-08 -0.11250737590774476 -4.1782557321431909e-08 -8.3805439704036295e-07 -0.11416303671339964 3.6902190996498466e-07 -7.1550844904051604e-07 -0.1577633092157793 -4.1482650587529206e-08 -4.0170451547914402e-08 -0.17056303157081257 8.51847729842543e-07 6.3619711076103323e-08 -0.13122680368518999 7.5272775909004936e-07 4.7381673523042208e-08 -0.17993089255123867 3.690219099649844e-07 -7.1550844904051614e-07 -0.15776330921577933 1.0061627859981193e-06 -4.5564339661784421e-07 -0.18119170855610681 7.0674396187499833e-07 -6.8220803208875066e-07 -0.22500839978443962 6.4462206563415105e-07 -1.1748181738538305e-06 -0.22500838390354286 3.6902190996498466e-07 -7.1550844904051593e-07 -0.1577633092157793 1.0061627859981193e-06 -4.5564339661784421e-07 -0.18119170855610681 -3.5799432357563405e-08 -1.2108393618771328e-06 -0.22500843951266927 2.3620121997676696e-07 -4.7445898406146674e-07 -0.22500838205245932 7.0674396187499833e-07 -6.8220803208875066e-07 -0.22500839978443962 3.6902190996498466e-07 -7.1550844904051593e-07 -0.1577633092157793 2.3620121997676696e-07 -4.7445898406146679e-07 -0.22500838205245932 3.6902190996498487e-07 -7.1550844904051583e-07 -0.15776330921577933 7.5272775909004946e-07 4.7381673523042023e-08 -0.17993089255123865 1.0061627859981193e-06 -4.5564339661784421e-07 -0.18119170855610681 2.3620121997676696e-07 -4.7445898406146679e-07 -0.22500838205245932 3.6902190996498461e-07 -7.1550844904051562e-07 -0.1577633092157793 -4.1482650587529444e-08 -4.0170451547914257e-08 -0.17056303157081257 7.5272775909004936e-07 4.7381673523042096e-08 -0.17993089255123867 -3.5799432357563405e-08 -1.2108393618771328e-06 -0.22500843951266927 2.3620121997676704e-07 -4.7445898406146679e-07 -0.22500838205245935 3.6902190996498477e-07 -7.1550844904051604e-07 -0.1577633092157793 -4.1482650587529206e-08 -4.0170451547914402e-08 -0.17056303157081257 2.3620121997676696e-07 -4.7445898406146679e-07 -0.22500838205245932 7.0674396187499844e-07 -6.8220803208875066e-07 -0.22500839978443959 3.6902190996498466e-07 -7.1550844904051593e-07 -0.1577633092157793 1.0061627859981193e-06 -4.5564339661784421e-07 -0.18119170855610681 2.3620121997676696e-07 -4.7445898406146679e-07 -0.22500838205245932 1.109330289949709e-06 -7.5277872219156401e-08 -0.22500840603251834 7.0674396187499833e-07 -6.8220803208875066e-07 -0.22500839978443962 1.0061627859981193e-06 -4.5564339661784421e-07 -0.18119170855610681 2.3620121997676696e-07 -4.7445898406146679e-07 -0.22500838205245932 3.6714400363158546e-07 1.9171151289491201e-07 -0.22500834829679936 1.109330289949709e-06 -7.5277872219156401e-08 -0.22500840603251834 7.5272775909004946e-07 4.7381673523042314e-08 -0.17993089255123865 2.3620121997676696e-07 -4.7445898406146679e-07 -0.22500838205245932 7.5272775909004968e-07 4.7381673523042129e-08 -0.17993089255123865 1.109330289949709e-06 -7.5277872219156401e-08 -0.22500840603251834 1.0061627859981193e-06 -4.5564339661784421e-07 -0.18119170855610681 -2.0439690619634012e-08 -4.6616004532364952e-08 -0.2250083686631448 2.3620121997676696e-07 -4.7445898406146679e-07 -0.22500838205245932 -4.1482650587529206e-08 -4.0170451547914402e-08 -0.17056303157081257 7.5272775909004978e-07 4.7381673523042394e-08 -0.17993089255123867 -2.0439690619634012e-08 -4.6616004532364952e-08 -0.2250083686631448 3.6714400363158541e-07 1.9171151289491198e-07 -0.22500834829679936 2.3620121997676696e-07 -4.7445898406146679e-07 -0.22500838205245932 7.5272775909004957e-07 4.7381673523042268e-08 -0.17993089255123865 3.6902190996498466e-07 -7.1550844904051593e-07 -0.1577633092157793 1.0061627859981193e-06 -4.5564339661784421e-07 -0.18119170855610681 6.4462206563415095e-07 -1.1748181738538305e-06 -0.22500838390354283 9.5681590985225098e-07 -9.5042420833711146e-07 -0.15151932336345703 6.2262601919551587e-07 -1.3712975006994668e-06 -0.19537491197777085 3.6902190996498429e-07 -7.1550844904051583e-07 -0.1577633092157793 6.4462206563415095e-07 -1.1748181738538305e-06 -0.22500838390354283 9.5681590985225098e-07 -9.5042420833711146e-07 -0.15151932336345703 -3.4689862873536473e-08 -2.1263917566863184e-06 -0.17912266840537322 6.2262601919551587e-07 -1.3712975006994668e-06 -0.19537491197777085 7.5367803957120063e-07 -1.5105984760648922e-06 -0.16032049983550817 3.6902190996498466e-07 -7.1550844904051593e-07 -0.1577633092157793 7.0674396187499833e-07 -6.8220803208875066e-07 -0.22500839978443962 6.4462206563415095e-07 -1.1748181738538305e-06 -0.22500838390354283 -3.5799432357563405e-08 -1.2108393618771328e-06 -0.22500843951266927 3.6902190996498466e-07 -7.1550844904051593e-07 -0.1577633092157793 -3.4689862873536473e-08 -2.1263917566863184e-06 -0.17912266840537322 -3.5799432357563379e-08 -1.2108393618771328e-06 -0.22500843951266927 6.2262601919551587e-07 -1.3712975006994668e-06 -0.19537491197777085 3.6902190996498466e-07 -7.1550844904051593e-07 -0.1577633092157793 -3.5799432357563405e-08 -1.2108393618771328e-06 -0.22500843951266927 6.4462206563415095e-07 -1.1748181738538305e-06 -0.22500838390354283 6.2262601919551587e-07 -1.3712975006994668e-06 -0.19537491197777085 3.6902190996498466e-07 -7.1550844904051593e-07 -0.1577633092157793 6.2262601919551587e-07 -1.3712975006994668e-06 -0.19537491197777085 -3.5799432357563405e-08 -1.2108393618771328e-06 -0.22500843951266927 4.4413949218236504e-07 -1.9922402756611916e-06 -0.22500860505310968 6.4462206563415095e-07 -1.1748181738538305e-06 -0.22500838390354283 -3.5799432357563405e-08 -1.2108393618771328e-06 -0.22500843951266927 -3.4689862873536678e-08 -2.1263917566863193e-06 -0.17912266840537322 6.2262601919551608e-07 -1.3712975006994664e-06 -0.19537491197777088 4.4413949218236504e-07 -1.9922402756611916e-06 -0.22500860505310968 4.4413949218236504e-07 -1.9922402756611916e-06 -0.22500860505310968 6.2262601919551587e-07 -1.3712975006994668e-06 -0.19537491197777085 6.4462206563415095e-07 -1.1748181738538305e-06 -0.22500838390354283 1.0807084798429264e-06 -1.4818025547898873e-06 -0.225008486616531 1.0649487331511903e-06 -1.3601398726146824e-06 -0.18741441924600813 1.163309915991865e-06 -1.1690551890845397e-06 -0.22500833153920577 1.3567141713781343e-06 -1.1268655200916911e-06 -0.18741440692497946 9.5681590985225077e-07 -9.5042420833711125e-07 -0.151519323363457 1.0649487331511903e-06 -1.3601398726146824e-06 -0.18741441924600813 6.4462206563415095e-07 -1.1748181738538305e-06 -0.22500838390354283 1.163309915991865e-06 -1.16905518908454e-06 -0.22500833153920577 9.5681590985225098e-07 -9.5042420833711146e-07 -0.15151932336345703 1.163309915991865e-06 -1.16905518908454e-06 -0.22500833153920577 1.0061627859981195e-06 -4.5564339661784421e-07 -0.18119170855610683 1.3567141713781345e-06 -1.1268655200916911e-06 -0.18741440692497952 9.5681590985225077e-07 -9.5042420833711136e-07 -0.151519323363457 7.0674396187499833e-07 -6.8220803208875066e-07 -0.22500839978443962 1.163309915991865e-06 -1.16905518908454e-06 -0.22500833153920577 6.4462206563415095e-07 -1.1748181738538305e-06 -0.22500838390354283 1.0061627859981193e-06 -4.5564339661784421e-07 -0.18119170855610681 6.4462206563415095e-07 -1.1748181738538305e-06 -0.22500838390354283 1.0061627859981193e-06 -4.5564339661784421e-07 -0.18119170855610681 1.163309915991865e-06 -1.16905518908454e-06 -0.22500833153920577 9.5681590985225098e-07 -9.5042420833711146e-07 -0.15151932336345703 1.0649487331511903e-06 -1.3601398726146824e-06 -0.18741441924600813 6.2262601919551577e-07 -1.3712975006994666e-06 -0.19537491197777085 6.4462206563415095e-07 -1.1748181738538305e-06 -0.22500838390354283 9.5681590985225098e-07 -9.5042420833711146e-07 -0.15151932336345703 1.0649487331511903e-06 -1.3601398726146824e-06 -0.18741441924600813 1.3567141713781343e-06 -1.1268655200916911e-06 -0.18741440692497946 1.2662811178030546e-06 -1.2214033004768725e-06 -0.15479382328719732 9.5681590985225098e-07 -9.5042420833711136e-07 -0.15151932336345703 1.0649487331511903e-06 -1.3601398726146824e-06 -0.18741441924600813 7.5367803957120073e-07 -1.5105984760648922e-06 -0.16032049983550817 6.2262601919551587e-07 -1.3712975006994668e-06 -0.19537491197777085 9.5681590985225098e-07 -9.5042420833711146e-07 -0.15151932336345703 1.0649487331511903e-06 -1.3601398726146824e-06 -0.18741441924600813 6.4462206563415116e-07 -1.1748181738538305e-06 -0.22500838390354283 1.0807084798429264e-06 -1.4818025547898873e-06 -0.225008486616531 1.163309915991865e-06 -1.16905518908454e-06 -0.22500833153920577 6.2262601919551587e-07 -1.3712975006994668e-06 -0.19537491197777085 1.0649487331511903e-06 -1.3601398726146824e-06 -0.18741441924600813 6.4462206563415095e-07 -1.1748181738538305e-06 -0.22500838390354283 1.0807084798429264e-06 -1.4818025547898873e-06 -0.225008486616531 1.0649487331511903e-06 -1.3601398726146824e-06 -0.18741441924600813 1.0807084798429264e-06 -1.4818025547898873e-06 -0.225008486616531 2.3231732472941984e-06 -2.3214465808591666e-06 -0.22500883349400883 1.163309915991865e-06 -1.16905518908454e-06 -0.22500833153920577 1.3567141713781345e-06 -1.1268655200916913e-06 -0.18741440692497949 1.0649487331511903e-06 -1.3601398726146824e-06 -0.18741441924600813 2.3231732472941984e-06 -2.3214465808591666e-06 -0.22500883349400883 1.1633099159918646e-06 -1.1690551890845395e-06 -0.22500833153920574 1.3567141713781345e-06 -1.1268655200916913e-06 -0.18741440692497949 1.0649487331511903e-06 -1.3601398726146824e-06 -0.18741441924600813 1.4819189762095146e-06 -1.5475450794524096e-06 -0.18000832726153584 2.3231732472941984e-06 -2.3214465808591666e-06 -0.22500883349400883 1.2662811178030546e-06 -1.2214033004768725e-06 -0.15479382328719732 1.3706455932248777e-06 -1.2251985987272038e-06 -0.15458702664646853 1.3567141713781345e-06 -1.1268655200916913e-06 -0.18741440692497949 1.4819189762095146e-06 -1.5475450794524096e-06 -0.18000832726153584 1.0649487331511903e-06 -1.3601398726146824e-06 -0.18741441924600813 1.2662811178030544e-06 -1.2214033004768723e-06 -0.15479382328719732 1.3567141713781345e-06 -1.1268655200916913e-06 -0.18741440692497949 1.4819189762095146e-06 -1.5475450794524096e-06 -0.18000832726153584 1.5303635558486307e-06 -7.2468839904059901e-07 -0.16032047279889719 1.3567141713781345e-06 -1.1268655200916913e-06 -0.18741440692497949 1.0061627859981191e-06 -4.5564339661784421e-07 -0.18119170855610681 9.5681590985225077e-07 -9.5042420833711136e-07 -0.15151932336345703 1.248854146472686e-06 -6.3668633817235667e-07 -0.22500835294744487 1.3567141713781345e-06 -1.1268655200916913e-06 -0.18741440692497949 1.5473167036796005e-06 -1.1043553359002e-06 -0.22500849484651986 1.163309915991865e-06 -1.16905518908454e-06 -0.22500833153920577 1.248854146472686e-06 -6.3668633817235667e-07 -0.22500835294744487 1.3567141713781345e-06 -1.1268655200916913e-06 -0.18741440692497949 1.163309915991865e-06 -1.16905518908454e-06 -0.22500833153920577 1.0061627859981193e-06 -4.5564339661784421e-07 -0.18119170855610681 1.5473167036796005e-06 -1.1043553359002e-06 -0.22500849484651986 1.3567141713781345e-06 -1.1268655200916913e-06 -0.18741440692497949 2.3231732472941984e-06 -2.3214465808591666e-06 -0.22500883349400883 1.163309915991865e-06 -1.16905518908454e-06 -0.22500833153920577 1.3567141713781345e-06 -1.1268655200916913e-06 -0.18741440692497949 1.248854146472686e-06 -6.3668633817235667e-07 -0.22500835294744487 1.5473167036796005e-06 -1.1043553359002e-06 -0.22500849484651986 1.2212154340997275e-06 -6.8957847225828044e-07 -0.19519560963483265 1.248854146472686e-06 -6.3668633817235667e-07 -0.22500835294744487 1.9115841410173511e-06 -3.7585108064193532e-07 -0.2250084166321385 1.2212154340997275e-06 -6.8957847225828044e-07 -0.19519560963483265 1.0061627859981193e-06 -4.5564339661784421e-07 -0.18119170855610681 1.109330289949709e-06 -7.5277872219156401e-08 -0.22500840603251834 7.5272775909004957e-07 4.7381673523042129e-08 -0.17993089255123865 2.2076495334491158e-06 -4.8370688609734209e-08 -0.17912261002578175 1.0061627859981193e-06 -4.5564339661784421e-07 -0.18119170855610681 1.5473167036796005e-06 -1.1043553359002e-06 -0.22500849484651986 1.248854146472686e-06 -6.3668633817235656e-07 -0.22500835294744487 1.9115841410173511e-06 -3.7585108064193532e-07 -0.2250084166321385 1.2212154340997275e-06 -6.8957847225828044e-07 -0.19519560963483265 1.248854146472686e-06 -6.3668633817235667e-07 -0.22500835294744487 1.2212154340997275e-06 -6.8957847225828065e-07 -0.19519560963483265 1.3567141713781343e-06 -1.1268655200916911e-06 -0.18741440692497949 1.0061627859981191e-06 -4.5564339661784421e-07 -0.18119170855610678 1.248854146472686e-06 -6.3668633817235667e-07 -0.22500835294744487 7.0674396187499833e-07 -6.8220803208875066e-07 -0.22500839978443962 1.109330289949709e-06 -7.5277872219156401e-08 -0.22500840603251834 1.0061627859981193e-06 -4.5564339661784421e-07 -0.18119170855610681 1.248854146472686e-06 -6.3668633817235667e-07 -0.22500835294744487 1.163309915991865e-06 -1.16905518908454e-06 -0.22500833153920577 7.0674396187499823e-07 -6.8220803208875066e-07 -0.22500839978443962 1.0061627859981193e-06 -4.5564339661784421e-07 -0.18119170855610681 1.5303635558486307e-06 -7.2468839904059901e-07 -0.16032047279889719 1.2212154340997275e-06 -6.8957847225828044e-07 -0.19519560963483265 2.2076495334491158e-06 -4.8370688609734209e-08 -0.17912261002578175 1.0061627859981193e-06 -4.5564339661784421e-07 -0.18119170855610681 1.5303635558486307e-06 -7.2468839904059901e-07 -0.16032047279889719 1.3567141713781345e-06 -1.1268655200916913e-06 -0.18741440692497949 1.2212154340997275e-06 -6.8957847225828044e-07 -0.19519560963483265 1.0061627859981193e-06 -4.5564339661784421e-07 -0.18119170855610681 1.9115841410173511e-06 -3.7585108064193537e-07 -0.2250084166321385 2.2076495334491158e-06 -4.8370688609734209e-08 -0.17912261002578175 1.2212154340997275e-06 -6.8957847225828044e-07 -0.19519560963483265 1.0061627859981193e-06 -4.5564339661784421e-07 -0.18119170855610681 1.248854146472686e-06 -6.3668633817235667e-07 -0.22500835294744487 1.109330289949709e-06 -7.5277872219156401e-08 -0.22500840603251834 1.9115841410173511e-06 -3.7585108064193537e-07 -0.2250084166321385 1.0061627859981193e-06 -4.5564339661784421e-07 -0.18119170855610681 1.109330289949709e-06 -7.5277872219156401e-08 -0.22500840603251834 1.9115841410173511e-06 -3.7585108064193537e-07 -0.2250084166321385 2.2076495334491158e-06 -4.8370688609734242e-08 -0.17912261002578175 1.9712811455543739e-06 3.8909755115889752e-07 -0.2250084101762411 1.9115841410173511e-06 -3.7585108064193537e-07 -0.2250084166321385 1.109330289949709e-06 -7.5277872219156401e-08 -0.22500840603251834 2.2076495334491158e-06 -4.8370688609734209e-08 -0.17912261002578175 1.0061627859981193e-06 -4.5564339661784421e-07 -0.18119170855610681 1.3610620182211881e-06 5.8378654743066748e-07 -0.19549275754613368 8.6581830178581167e-07 8.7526268048029028e-07 -0.16871248639725339 1.5842809798186554e-06 6.5198699867323292e-07 -0.16032039460356642 7.5272775909004915e-07 4.738167352304246e-08 -0.17993089255123865 2.2076495334491158e-06 -4.8370688609734209e-08 -0.17912261002578175 1.3610620182211881e-06 5.8378654743066748e-07 -0.19549275754613368 1.5842809798186554e-06 6.5198699867323292e-07 -0.16032039460356642 7.5272775909004946e-07 4.7381673523042248e-08 -0.17993089255123865 6.2565793605882007e-07 6.3302704187396082e-07 -0.2250082864039511 8.6581830178581145e-07 8.752626804802906e-07 -0.16871248639725342 1.1396122608119358e-06 5.5692571076351762e-07 -0.22500829467477521 7.5272775909004946e-07 4.7381673523042248e-08 -0.17993089255123865 1.1396122608119358e-06 5.5692571076351762e-07 -0.22500829467477521 1.1093302899497088e-06 -7.5277872219156401e-08 -0.22500840603251832 2.2076495334491158e-06 -4.8370688609734209e-08 -0.17912261002578175 1.9712811455543739e-06 3.8909755115889752e-07 -0.2250084101762411 1.1396122608119358e-06 5.5692571076351762e-07 -0.22500829467477521 8.6581830178581145e-07 8.7526268048029071e-07 -0.16871248639725339 1.3610620182211881e-06 5.8378654743066748e-07 -0.19549275754613368 7.5272775909004946e-07 4.7381673523042248e-08 -0.17993089255123865 1.1396122608119358e-06 5.5692571076351762e-07 -0.22500829467477521 2.2076495334491158e-06 -4.8370688609734367e-08 -0.17912261002578178 1.3610620182211881e-06 5.8378654743066769e-07 -0.19549275754613371 1.9712811455543739e-06 3.8909755115889752e-07 -0.2250084101762411 1.1396122608119358e-06 5.5692571076351762e-07 -0.22500829467477521 2.2076495334491158e-06 -4.8370688609734268e-08 -0.17912261002578175 1.1093302899497092e-06 -7.5277872219156361e-08 -0.22500840603251834 7.5272775909004946e-07 4.7381673523042248e-08 -0.17993089255123865 1.1396122608119358e-06 5.5692571076351762e-07 -0.22500829467477521 1.3610620182211877e-06 5.8378654743066769e-07 -0.19549275754613366 2.2076495334491162e-06 -4.8370688609734374e-08 -0.17912261002578178 7.5272775909004946e-07 4.7381673523042248e-08 -0.17993089255123865 1.3610620182211881e-06 5.8378654743066748e-07 -0.19549275754613368 1.1396122608119356e-06 5.5692571076351762e-07 -0.22500829467477521 1.9712811455543739e-06 3.8909755115889752e-07 -0.2250084101762411 1.4746947657833094e-06 1.0679013386039785e-06 -0.22500840008561895 6.2565793605882007e-07 6.3302704187396082e-07 -0.2250082864039511 1.1396122608119358e-06 5.5692571076351762e-07 -0.22500829467477521 1.109330289949709e-06 -7.5277872219156401e-08 -0.22500840603251834 7.5272775909004946e-07 4.7381673523042248e-08 -0.17993089255123865 7.5272775909004946e-07 4.7381673523042248e-08 -0.17993089255123865 1.0120020271779598e-06 9.172933406768821e-07 -0.12106967681622136 1.8625218763443122e-06 2.6019857093997069e-07 -0.13878678912217696 8.51847729842543e-07 6.3619711076103323e-08 -0.13122680368518999 2.2076495334491158e-06 -4.8370688609734209e-08 -0.17912261002578175 1.5842809798186554e-06 6.5198699867323292e-07 -0.16032039460356642 1.8625218763443124e-06 2.6019857093997069e-07 -0.13878678912217696 7.5272775909004946e-07 4.7381673523042248e-08 -0.17993089255123865 2.2076495334491158e-06 -4.8370688609734209e-08 -0.17912261002578175 1.8625218763443124e-06 2.6019857093997069e-07 -0.13878678912217696 8.51847729842543e-07 6.3619711076103323e-08 -0.13122680368518999 7.5272775909004946e-07 4.7381673523042248e-08 -0.17993089255123865 7.5272775909004946e-07 4.7381673523042248e-08 -0.17993089255123865 1.8625218763443122e-06 2.6019857093997069e-07 -0.13878678912217693 1.0120020271779598e-06 9.172933406768821e-07 -0.12106967681622136 8.6581830178581145e-07 8.7526268048029071e-07 -0.16871248639725339 1.8625218763443124e-06 2.6019857093997069e-07 -0.13878678912217696 1.5842809798186554e-06 6.5198699867323292e-07 -0.16032039460356642 8.6581830178581156e-07 8.7526268048029092e-07 -0.16871248639725336 7.5272775909004989e-07 4.7381673523042354e-08 -0.17993089255123865 1.7332579571572197e-06 4.3408559546872347e-07 -0.095229126536803627 8.51847729842543e-07 6.3619711076103323e-08 -0.13122680368518999 1.8625218763443124e-06 2.6019857093997069e-07 -0.13878678912217696 1.0120020271779598e-06 9.1729334067688179e-07 -0.12106967681622136 1.8625218763443124e-06 2.6019857093997069e-07 -0.13878678912217696 1.7332579571572197e-06 4.3408559546872347e-07 -0.095229126536803627 4.789587893398366e-07 -1.3902183481529176e-07 -0.11250770360087491 8.51847729842543e-07 6.3619711076103323e-08 -0.13122680368518999 2.1924062950024264e-06 1.193261223325765e-06 -0.11483096715198732 1.7332579571572197e-06 4.3408559546872357e-07 -0.095229126536803627 1.8625218763443124e-06 2.6019857093997069e-07 -0.13878678912217696 1.01200202717796e-06 9.172933406768821e-07 -0.12106967681622136 2.1924062950024264e-06 1.193261223325765e-06 -0.11483096715198732 1.8625218763443124e-06 2.6019857093997069e-07 -0.13878678912217696 1.5842809798186554e-06 6.5198699867323292e-07 -0.16032039460356642 1.0120020271779598e-06 9.17293340676882e-07 -0.12106967681622136 1.8625218763443124e-06 2.6019857093997069e-07 -0.13878678912217696 1.5842809798186554e-06 6.5198699867323292e-07 -0.16032039460356642 1.0120020271779598e-06 9.172933406768821e-07 -0.12106967681622136 8.6581830178581145e-07 8.7526268048029071e-07 -0.16871248639725339 1.0803781251645984e-06 2.1924556078653701e-06 -0.11483093926902731 2.1924062950024264e-06 1.1932612233257648e-06 -0.11483096715198733 1.0952736169451392e-06 1.2330710449276299e-06 -0.15563434847201879 1.0120020271779598e-06 9.172933406768821e-07 -0.12106967681622136 1.0952736169451392e-06 1.2330710449276299e-06 -0.15563434847201879 2.1924062950024268e-06 1.1932612233257652e-06 -0.11483096715198732 1.2330079938157291e-06 1.0610109653206038e-06 -0.15563427279957179 1.0120020271779598e-06 9.172933406768821e-07 -0.12106967681622136 1.0952736169451392e-06 1.2330710449276299e-06 -0.15563434847201879 6.5125936137601855e-07 1.5842450044398363e-06 -0.16032039614855545 1.0120020271779596e-06 9.17293340676882e-07 -0.12106967681622136 8.6581830178581156e-07 8.7526268048029071e-07 -0.16871248639725339 1.5842809798186554e-06 6.5198699867323292e-07 -0.16032039460356642 1.2330079938157291e-06 1.0610109653206038e-06 -0.15563427279957179 1.0120020271779598e-06 9.172933406768821e-07 -0.12106967681622136 8.6581830178581145e-07 8.7526268048029071e-07 -0.16871248639725339 1.0952736169451392e-06 1.2330710449276299e-06 -0.15563434847201879 1.0120020271779598e-06 9.172933406768821e-07 -0.12106967681622136 6.5125936137601855e-07 1.5842450044398363e-06 -0.16032039614855545 1.0803781251645984e-06 2.1924556078653701e-06 -0.11483093926902731 1.0952736169451392e-06 1.2330710449276299e-06 -0.15563434847201879 1.0120020271779596e-06 9.17293340676882e-07 -0.12106967681622137 1.2330079938157291e-06 1.0610109653206038e-06 -0.15563427279957179 8.6581830178581135e-07 8.752626804802905e-07 -0.16871248639725336 1.343240433373717e-06 1.0595831201805565e-06 -0.18800408779455763 1.2330079938157291e-06 1.0610109653206038e-06 -0.15563427279957179 1.5842809798186554e-06 6.5198699867323292e-07 -0.16032039460356642 8.6581830178581124e-07 8.752626804802906e-07 -0.16871248639725336 2.1924062950024264e-06 1.193261223325765e-06 -0.11483096715198732 1.5842809798186554e-06 6.5198699867323292e-07 -0.16032039460356642 1.2330079938157291e-06 1.0610109653206038e-06 -0.15563427279957179 1.0120020271779598e-06 9.172933406768821e-07 -0.12106967681622136 1.0952736169451392e-06 1.2330710449276299e-06 -0.15563434847201879 2.1924062950024264e-06 1.193261223325765e-06 -0.11483096715198732 1.936364769671968e-06 1.9362817189744893e-06 -0.13500753403426446 1.2330079938157291e-06 1.0610109653206038e-06 -0.15563427279957179 2.1924062950024264e-06 1.193261223325765e-06 -0.11483096715198732 1.0952736169451388e-06 1.2330710449276297e-06 -0.15563434847201876 1.936364769671968e-06 1.9362817189744893e-06 -0.13500753403426446 1.0803781251645984e-06 2.1924556078653701e-06 -0.11483093926902731 1.0803781251645984e-06 2.1924556078653701e-06 -0.11483093926902731 1.9363647696719675e-06 1.9362817189744889e-06 -0.13500753403426444 2.1924062950024264e-06 1.193261223325765e-06 -0.11483096715198732 1.964402772272242e-06 1.9643390109548266e-06 -0.090007674710414681 1.0339258876759629e-06 1.3432194814929329e-06 -0.18800412978768874 6.5125936137601855e-07 1.5842450044398363e-06 -0.16032039614855545 1.0952736169451392e-06 1.2330710449276299e-06 -0.15563434847201879 8.6581830178581135e-07 8.7526268048029039e-07 -0.16871248639725336 1.343240433373717e-06 1.0595831201805565e-06 -0.18800408779455763 1.0952736169451392e-06 1.2330710449276299e-06 -0.15563434847201879 1.2330079938157291e-06 1.0610109653206038e-06 -0.15563427279957179 8.6581830178581145e-07 8.7526268048029071e-07 -0.16871248639725339 1.936364769671968e-06 1.9362817189744893e-06 -0.13500753403426446 1.4976373238792031e-06 1.4976284074241154e-06 -0.18000829673033567 1.0952736169451392e-06 1.2330710449276299e-06 -0.15563434847201879 1.2330079938157291e-06 1.0610109653206038e-06 -0.15563427279957179 1.0339258876759629e-06 1.3432194814929329e-06 -0.18800412978768874 1.3432404333737168e-06 1.0595831201805562e-06 -0.18800408779455766 1.109536235342766e-06 1.1287232829635396e-06 -0.22500824272647035 8.6581830178581145e-07 8.7526268048029081e-07 -0.16871248639725339 6.2565793605882007e-07 6.3302704187396082e-07 -0.2250082864039511 1.109536235342766e-06 1.1287232829635396e-06 -0.22500824272647035 1.1396122608119358e-06 5.5692571076351762e-07 -0.22500829467477521 8.6581830178581145e-07 8.7526268048029071e-07 -0.16871248639725342 1.4976373238792031e-06 1.4976284074241154e-06 -0.18000829673033567 1.343240433373717e-06 1.0595831201805565e-06 -0.18800408779455763 1.0952736169451392e-06 1.2330710449276299e-06 -0.15563434847201879 1.2330079938157291e-06 1.0610109653206038e-06 -0.15563427279957179 1.343240433373717e-06 1.0595831201805565e-06 -0.18800408779455763 1.0339258876759629e-06 1.3432194814929329e-06 -0.18800412978768877 1.0952736169451392e-06 1.2330710449276299e-06 -0.15563434847201879 8.6581830178581124e-07 8.752626804802905e-07 -0.16871248639725336 1.343240433373717e-06 1.0595831201805565e-06 -0.18800408779455763 1.0339258876759627e-06 1.3432194814929327e-06 -0.18800412978768871 2.2851795412420248e-06 2.285207115063847e-06 -0.22500879482981742 1.4976373238792031e-06 1.4976284074241154e-06 -0.18000829673033567 6.2565793605882007e-07 6.3302704187396082e-07 -0.2250082864039511 5.6233987504856232e-07 1.1480587916921019e-06 -0.22500828175629828 1.109536235342766e-06 1.1287232829635396e-06 -0.22500824272647035 8.6581830178581145e-07 8.7526268048029071e-07 -0.16871248639725339 5.6233987504856243e-07 1.1480587916921019e-06 -0.22500828175629828 1.0339258876759629e-06 1.3432194814929327e-06 -0.18800412978768874 1.109536235342766e-06 1.1287232829635396e-06 -0.22500824272647035 8.6581830178581145e-07 8.7526268048029071e-07 -0.16871248639725339 5.6233987504856243e-07 1.1480587916921019e-06 -0.22500828175629828 5.5313544624663851e-07 1.3611350577352544e-06 -0.19549278131573711 1.0339258876759625e-06 1.3432194814929329e-06 -0.18800412978768871 8.6581830178581145e-07 8.7526268048029071e-07 -0.16871248639725339 1.343240433373717e-06 1.0595831201805565e-06 -0.18800408779455763 1.0339258876759629e-06 1.3432194814929329e-06 -0.18800412978768874 1.4976373238792031e-06 1.4976284074241154e-06 -0.18000829673033567 1.0952736169451392e-06 1.2330710449276299e-06 -0.15563434847201879 1.1396122608119358e-06 5.5692571076351762e-07 -0.22500829467477521 1.109536235342766e-06 1.1287232829635396e-06 -0.22500824272647035 1.3610620182211881e-06 5.8378654743066748e-07 -0.19549275754613368 8.6581830178581145e-07 8.7526268048029071e-07 -0.16871248639725339 1.3610620182211881e-06 5.8378654743066748e-07 -0.19549275754613368 1.109536235342766e-06 1.1287232829635396e-06 -0.22500824272647035 1.343240433373717e-06 1.0595831201805565e-06 -0.18800408779455763 8.6581830178581156e-07 8.7526268048029081e-07 -0.16871248639725342 1.343240433373717e-06 1.0595831201805565e-06 -0.18800408779455763 1.0339258876759629e-06 1.3432194814929329e-06 -0.18800412978768877 1.1095362353427658e-06 1.1287232829635394e-06 -0.22500824272647035 2.2851795412420248e-06 2.285207115063847e-06 -0.22500879482981742 1.3610620182211881e-06 5.8378654743066748e-07 -0.19549275754613368 1.4746947657833094e-06 1.0679013386039785e-06 -0.22500840008561895 1.343240433373717e-06 1.0595831201805565e-06 -0.18800408779455763 1.109536235342766e-06 1.1287232829635396e-06 -0.22500824272647035 1.3610620182211881e-06 5.8378654743066748e-07 -0.19549275754613368 1.1396122608119356e-06 5.5692571076351783e-07 -0.22500829467477521 1.4746947657833094e-06 1.0679013386039785e-06 -0.22500840008561895 1.109536235342766e-06 1.1287232829635394e-06 -0.22500824272647035 1.4746947657833094e-06 1.0679013386039785e-06 -0.22500840008561895 1.343240433373717e-06 1.0595831201805565e-06 -0.18800408779455763 1.109536235342766e-06 1.1287232829635396e-06 -0.22500824272647035 2.2851795412420248e-06 2.285207115063847e-06 -0.22500879482981742 1.3610620182211881e-06 5.8378654743066748e-07 -0.19549275754613368 1.343240433373717e-06 1.0595831201805565e-06 -0.18800408779455763 1.5842809798186554e-06 6.5198699867323292e-07 -0.16032039460356642 8.6581830178581167e-07 8.7526268048029071e-07 -0.16871248639725339 5.5313544624663851e-07 1.3611350577352544e-06 -0.19549278131573711 5.6233987504856243e-07 1.1480587916921019e-06 -0.22500828175629828 1.0339258876759629e-06 1.3432194814929329e-06 -0.18800412978768874 1.0376433551500126e-06 1.4746916460852209e-06 -0.22500842940588961 1.0339258876759629e-06 1.3432194814929329e-06 -0.18800412978768874 5.6233987504856274e-07 1.1480587916921019e-06 -0.22500828175629831 1.109536235342766e-06 1.1287232829635396e-06 -0.22500824272647035 1.0376433551500126e-06 1.4746916460852209e-06 -0.22500842940588961 1.0339258876759629e-06 1.3432194814929329e-06 -0.18800412978768874 1.1095362353427658e-06 1.1287232829635394e-06 -0.22500824272647035 2.2851795412420248e-06 2.285207115063847e-06 -0.22500879482981739 1.0376433551500126e-06 1.4746916460852209e-06 -0.22500842940588961 5.5313544624663851e-07 1.3611350577352544e-06 -0.19549278131573711 6.5125936137601845e-07 1.5842450044398363e-06 -0.16032039614855548 1.0339258876759629e-06 1.3432194814929329e-06 -0.18800412978768874 8.6581830178581135e-07 8.7526268048029081e-07 -0.16871248639725339 6.2565793605882007e-07 6.3302704187396082e-07 -0.2250082864039511 3.0536742981434794e-07 7.0015092085318519e-07 -0.15999472950949942 5.6233987504856243e-07 1.1480587916921019e-06 -0.22500828175629828 8.6581830178581114e-07 8.752626804802906e-07 -0.16871248639725336 -7.1951795232199953e-08 2.2076246424132797e-06 -0.17912262032708978 6.5125936137601855e-07 1.5842450044398363e-06 -0.16032039614855545 5.5313544624663851e-07 1.3611350577352544e-06 -0.19549278131573711 3.0536742981434788e-07 7.0015092085318519e-07 -0.15999472950949944 -7.1951795232199953e-08 2.2076246424132797e-06 -0.17912262032708978 5.5313544624663851e-07 1.3611350577352544e-06 -0.19549278131573711 -5.1036658472303202e-08 1.1433502951386889e-06 -0.22500840181502485 3.0536742981434788e-07 7.0015092085318519e-07 -0.15999472950949944 5.6233987504856243e-07 1.1480587916921019e-06 -0.22500828175629828 -5.1036658472303202e-08 1.1433502951386889e-06 -0.22500840181502485 5.5313544624663851e-07 1.3611350577352544e-06 -0.19549278131573711 3.0536742981434783e-07 7.0015092085318498e-07 -0.15999472950949942 5.6233987504856243e-07 1.1480587916921019e-06 -0.22500828175629828 3.0536742981434794e-07 7.0015092085318509e-07 -0.15999472950949944 5.5313544624663851e-07 1.3611350577352542e-06 -0.19549278131573708 8.6581830178581145e-07 8.7526268048029071e-07 -0.16871248639725339 5.5313544624663851e-07 1.3611350577352544e-06 -0.19549278131573711 3.0536742981434788e-07 7.001509208531853e-07 -0.15999472950949944 6.5125936137601855e-07 1.5842450044398363e-06 -0.16032039614855545 8.6581830178581114e-07 8.7526268048029081e-07 -0.16871248639725339 6.2565793605882007e-07 6.3302704187396082e-07 -0.2250082864039511 -5.1036658472303202e-08 1.1433502951386889e-06 -0.22500840181502485 5.6233987504856243e-07 1.1480587916921019e-06 -0.22500828175629828 3.0536742981434788e-07 7.0015092085318519e-07 -0.15999472950949944 5.6233987504856243e-07 1.1480587916921019e-06 -0.22500828175629828 5.5313544624663851e-07 1.3611350577352542e-06 -0.19549278131573711 3.94723560408449e-07 1.9711866253737405e-06 -0.22500851820792325 1.0376433551500126e-06 1.4746916460852209e-06 -0.22500842940588961 5.6233987504856243e-07 1.1480587916921019e-06 -0.22500828175629828 5.5313544624663851e-07 1.361135057735254e-06 -0.19549278131573714 -5.1036658472303202e-08 1.1433502951386889e-06 -0.22500840181502485 3.94723560408449e-07 1.9711866253737405e-06 -0.22500851820792325 5.5313544624663851e-07 1.3611350577352544e-06 -0.19549278131573711 -7.1951795232199953e-08 2.2076246424132797e-06 -0.17912262032708978 -5.1036658472303288e-08 1.1433502951386885e-06 -0.22500840181502485 3.94723560408449e-07 1.9711866253737405e-06 -0.22500851820792325 2.0828386804349142e-07 1.862492462044928e-06 -0.13878674870946392 -2.0473406895490613e-07 7.3344753203942905e-07 -0.11630640651542687 3.5358859416798777e-07 1.733160187836483e-06 -0.095229053596918981 1.0120020271779598e-06 9.172933406768821e-07 -0.12106967681622136 2.0828386804349142e-07 1.862492462044928e-06 -0.13878674870946392 3.0536742981434794e-07 7.0015092085318519e-07 -0.15999472950949942 -2.0473406895490619e-07 7.3344753203942916e-07 -0.11630640651542687 1.0120020271779598e-06 9.172933406768821e-07 -0.12106967681622136 2.0828386804349142e-07 1.862492462044928e-06 -0.13878674870946392 3.5358859416798766e-07 1.733160187836483e-06 -0.095229053596918981 1.0803781251645984e-06 2.1924556078653701e-06 -0.11483093926902731 1.0120020271779598e-06 9.172933406768821e-07 -0.12106967681622136 3.0536742981434788e-07 7.0015092085318519e-07 -0.15999472950949944 1.0120020271779598e-06 9.172933406768821e-07 -0.12106967681622136 6.5125936137601845e-07 1.5842450044398363e-06 -0.16032039614855545 8.6581830178581156e-07 8.7526268048029071e-07 -0.16871248639725342 2.0828386804349142e-07 1.862492462044928e-06 -0.13878674870946392 1.0803781251645984e-06 2.1924556078653701e-06 -0.11483093926902731 6.5125936137601855e-07 1.5842450044398363e-06 -0.16032039614855545 1.0120020271779598e-06 9.172933406768821e-07 -0.12106967681622136 2.0828386804349142e-07 1.862492462044928e-06 -0.13878674870946392 6.5125936137601855e-07 1.5842450044398363e-06 -0.16032039614855545 3.0536742981434788e-07 7.0015092085318519e-07 -0.15999472950949944 1.0120020271779598e-06 9.172933406768821e-07 -0.12106967681622136 -7.1951795232199953e-08 2.2076246424132797e-06 -0.17912262032708978 2.0828386804349142e-07 1.862492462044928e-06 -0.13878674870946389 6.5125936137601855e-07 1.5842450044398363e-06 -0.16032039614855545 3.0536742981434788e-07 7.0015092085318519e-07 -0.15999472950949944 2.0828386804349142e-07 1.862492462044928e-06 -0.13878674870946392 3.0536742981434762e-07 7.0015092085318498e-07 -0.15999472950949942 -7.1951795232199953e-08 2.2076246424132797e-06 -0.17912262032708978 -3.3353582175768705e-07 1.0362657721083498e-06 -0.18083175862098763 2.0828386804349142e-07 1.862492462044928e-06 -0.13878674870946392 -1.5784179928759744e-07 4.7898444584461424e-07 -0.11250777092154438 3.5358859416798777e-07 1.733160187836483e-06 -0.095229053596918981 -2.0473406895490619e-07 7.3344753203942916e-07 -0.11630640651542687 8.51847729842543e-07 6.3619711076103323e-08 -0.13122680368518999 1.0120020271779598e-06 9.1729334067688221e-07 -0.12106967681622136 3.0536742981434831e-07 7.001509208531853e-07 -0.15999472950949944 7.5272775909004946e-07 4.7381673523042248e-08 -0.17993089255123865 3.0536742981434788e-07 7.0015092085318519e-07 -0.15999472950949944 -4.1482650587529153e-08 -4.0170451547914316e-08 -0.17056303157081257 8.51847729842543e-07 6.3619711076103297e-08 -0.13122680368518999 7.5272775909004936e-07 4.7381673523042387e-08 -0.17993089255123865 2.476652034606105e-08 -2.8604385151869255e-08 -0.11250737590774476 3.0536742981434788e-07 7.0015092085318519e-07 -0.15999472950949944 8.51847729842543e-07 6.3619711076103323e-08 -0.13122680368518999 1.01200202717796e-06 9.1729334067688253e-07 -0.12106967681622131 1.0120020271779598e-06 9.172933406768821e-07 -0.12106967681622136 8.6581830178581135e-07 8.7526268048029071e-07 -0.16871248639725339 3.0536742981434788e-07 7.0015092085318519e-07 -0.15999472950949944 7.5272775909004946e-07 4.7381673523042248e-08 -0.17993089255123865 2.476652034606105e-08 -2.8604385151869255e-08 -0.11250737590774476 8.51847729842543e-07 6.3619711076103284e-08 -0.13122680368519002 3.0536742981434788e-07 7.0015092085318519e-07 -0.15999472950949944 -4.1482650587529166e-08 -4.0170451547914402e-08 -0.17056303157081257 3.0536742981434788e-07 7.0015092085318519e-07 -0.15999472950949944 2.476652034606103e-08 -2.8604385151869262e-08 -0.11250737590774476 -2.0473406895490627e-07 7.3344753203942937e-07 -0.11630640651542688 1.0120020271779598e-06 9.172933406768821e-07 -0.12106967681622136 3.0536742981434788e-07 7.0015092085318519e-07 -0.15999472950949944 -2.0473406895490637e-07 7.3344753203942916e-07 -0.11630640651542687 2.4766520346061189e-08 -2.8604385151869215e-08 -0.11250737590774476 -4.1482650587529226e-08 -4.0170451547914343e-08 -0.17056303157081257 6.2565793605882007e-07 6.3302704187396082e-07 -0.2250082864039511 3.6714400363158541e-07 1.9171151289491195e-07 -0.22500834829679936 -5.1036658472303202e-08 1.1433502951386889e-06 -0.22500840181502485 3.0536742981434788e-07 7.0015092085318519e-07 -0.15999472950949944 7.5272775909004946e-07 4.7381673523042248e-08 -0.17993089255123865 3.0536742981434794e-07 7.0015092085318509e-07 -0.15999472950949944 -2.0439690619634214e-08 -4.6616004532365243e-08 -0.22500836866314478 3.6714400363158557e-07 1.9171151289491201e-07 -0.22500834829679939 3.6714400363158541e-07 1.9171151289491198e-07 -0.22500834829679936 3.053674298143482e-07 7.0015092085318498e-07 -0.15999472950949942 6.2565793605882007e-07 6.3302704187396082e-07 -0.2250082864039511 7.5272775909004946e-07 4.7381673523042248e-08 -0.17993089255123865 -2.50589158534345e-07 4.4447238143206925e-07 -0.22500837946597255 -2.0439690619634012e-08 -4.6616004532364952e-08 -0.2250083686631448 3.0536742981434788e-07 7.0015092085318519e-07 -0.15999472950949942 3.6714400363158541e-07 1.9171151289491198e-07 -0.22500834829679936 3.6714400363158541e-07 1.9171151289491198e-07 -0.22500834829679936 -2.50589158534345e-07 4.4447238143206925e-07 -0.22500837946597255 -5.1036658472303202e-08 1.1433502951386889e-06 -0.22500840181502485 3.0536742981434783e-07 7.0015092085318519e-07 -0.15999472950949942 -2.50589158534345e-07 4.4447238143206925e-07 -0.22500837946597255 3.0536742981434799e-07 7.0015092085318519e-07 -0.15999472950949942 -2.0439690619634012e-08 -4.6616004532364952e-08 -0.2250083686631448 -4.1482650587529206e-08 -4.0170451547914402e-08 -0.17056303157081257 7.5272775909004946e-07 4.7381673523042248e-08 -0.17993089255123865 -2.0439690619634012e-08 -4.6616004532364899e-08 -0.2250083686631448 3.0536742981434799e-07 7.0015092085318498e-07 -0.15999472950949947 -4.1482650587529206e-08 -4.0170451547914402e-08 -0.17056303157081257 6.2565793605882007e-07 6.3302704187396082e-07 -0.2250082864039511 3.0536742981434794e-07 7.0015092085318519e-07 -0.15999472950949942 8.6581830178581103e-07 8.7526268048029071e-07 -0.16871248639725342 7.5272775909004946e-07 4.7381673523042248e-08 -0.17993089255123865 1.109330289949709e-06 -7.5277872219156401e-08 -0.22500840603251834 3.6714400363158541e-07 1.9171151289491198e-07 -0.22500834829679936 6.2565793605882007e-07 6.3302704187396082e-07 -0.2250082864039511 7.5272775909004946e-07 4.7381673523042261e-08 -0.17993089255123865 -7.0631422306331799e-07 3.7370137097681773e-07 -0.15776329752566032 -2.5058915853434506e-07 4.444723814320693e-07 -0.22500837946597257 -4.1482650587529127e-08 -4.0170451547914409e-08 -0.17056303157081257 -3.3353582175768716e-07 1.0362657721083498e-06 -0.18083175862098766 -2.50589158534345e-07 4.4447238143206925e-07 -0.22500837946597255 -4.3839411054850066e-07 -2.9632474104596074e-07 -0.22500839860799904 -7.0631422306331799e-07 3.7370137097681773e-07 -0.15776329752566032 -4.1482650587529206e-08 -4.0170451547914402e-08 -0.17056303157081257 -2.50589158534345e-07 4.4447238143206925e-07 -0.22500837946597255 -5.1036658472303202e-08 1.1433502951386889e-06 -0.22500840181502485 3.0536742981434799e-07 7.0015092085318509e-07 -0.15999472950949944 -3.3353582175768705e-07 1.0362657721083498e-06 -0.18083175862098763 -2.50589158534345e-07 4.4447238143206925e-07 -0.22500837946597255 -2.0439690619634045e-08 -4.6616004532364932e-08 -0.2250083686631448 -4.3839411054850066e-07 -2.9632474104596074e-07 -0.22500839860799904 -4.1482650587529206e-08 -4.0170451547914402e-08 -0.17056303157081257 -2.50589158534345e-07 4.4447238143206925e-07 -0.22500837946597255 -1.1485455933954185e-06 -1.4376932328883101e-08 -0.22500843795872144 -6.6968188547987292e-07 7.0221702315358915e-07 -0.22500838930920072 -7.0631422306331799e-07 3.7370137097681773e-07 -0.15776329752566032 -2.50589158534345e-07 4.4447238143206925e-07 -0.22500837946597255 -7.0631422306331799e-07 3.7370137097681773e-07 -0.15776329752566032 -6.6968188547987292e-07 7.0221702315358915e-07 -0.22500838930920072 -3.3353582175768705e-07 1.0362657721083498e-06 -0.18083175862098763 -2.50589158534345e-07 4.4447238143206925e-07 -0.22500837946597255 -4.3839411054850066e-07 -2.9632474104596074e-07 -0.22500839860799904 -1.1485455933954185e-06 -1.4376932328883101e-08 -0.22500843795872144 -7.0631422306331799e-07 3.7370137097681773e-07 -0.15776329752566032 -6.6968188547987292e-07 7.0221702315358915e-07 -0.22500838930920072 -7.0631422306331799e-07 3.7370137097681773e-07 -0.15776329752566032 -1.1511764783017763e-06 6.2809783031058203e-07 -0.22500835392776281 -3.3353582175768705e-07 1.0362657721083498e-06 -0.18083175862098763 3.0536742981434788e-07 7.0015092085318519e-07 -0.15999472950949944 -4.1482650587529166e-08 -4.017045154791429e-08 -0.1705630315708126 -2.5058915853434484e-07 4.4447238143206925e-07 -0.22500837946597257 -3.3353582175768716e-07 1.0362657721083498e-06 -0.1808317586209876 -2.50589158534345e-07 4.4447238143206925e-07 -0.22500837946597255 -6.6968188547987292e-07 7.0221702315358915e-07 -0.22500838930920072 -5.1036658472303202e-08 1.1433502951386889e-06 -0.22500840181502485 -3.3353582175768705e-07 1.0362657721083498e-06 -0.18083175862098763 -7.0631422306331799e-07 3.7370137097681773e-07 -0.15776329752566032 -4.14826505875291e-08 -4.0170451547914548e-08 -0.1705630315708126 3.0536742981434788e-07 7.0015092085318519e-07 -0.15999472950949944 -3.3353582175768711e-07 1.0362657721083496e-06 -0.18083175862098763 -7.0631422306331799e-07 3.7370137097681773e-07 -0.15776329752566032 -2.0473406895490624e-07 7.3344753203942905e-07 -0.11630640651542686 3.0536742981434788e-07 7.0015092085318519e-07 -0.15999472950949944 -4.1482650587529219e-08 -4.0170451547914561e-08 -0.1705630315708126 -7.0631422306331799e-07 3.7370137097681773e-07 -0.15776329752566032 2.4766520346060653e-08 -2.8604385151869599e-08 -0.11250737590774473 -2.0473406895490616e-07 7.3344753203942937e-07 -0.11630640651542688 -4.1482650587529133e-08 -4.017045154791429e-08 -0.1705630315708126 3.0536742981434788e-07 7.0015092085318519e-07 -0.15999472950949944 -2.0473406895490616e-07 7.3344753203942916e-07 -0.11630640651542686 -7.0631422306331799e-07 3.7370137097681773e-07 -0.15776329752566032 -3.3353582175768711e-07 1.03626577210835e-06 -0.18083175862098763 2.476652034606105e-08 -2.8604385151869255e-08 -0.11250737590774476 -7.0631422306331788e-07 3.7370137097681778e-07 -0.15776329752566032 -2.0473406895490616e-07 7.3344753203942927e-07 -0.11630640651542687 -8.367662471856019e-07 -8.59669341636086e-08 -0.11356349935481477 -2.0473406895490619e-07 7.3344753203942916e-07 -0.11630640651542687 -8.36766247185602e-07 -8.5966934163608507e-08 -0.11356349935481479 -7.0631422306331788e-07 3.7370137097681768e-07 -0.15776329752566032 -1.0430846506784023e-06 1.0162707339623687e-06 -0.13749253292993852 -2.0473406895490619e-07 7.3344753203942916e-07 -0.11630640651542687 -9.5655384941100713e-07 9.7284563199355891e-07 -0.086869136001384531 -8.367662471856019e-07 -8.5966934163608666e-08 -0.11356349935481477 -1.0430846506784023e-06 1.0162707339623687e-06 -0.13749253292993852 -7.0631422306331799e-07 3.7370137097681773e-07 -0.15776329752566032 -8.3676624718560179e-07 -8.596693416360852e-08 -0.11356349935481476 2.476652034606103e-08 -2.8604385151869308e-08 -0.11250737590774476 -4.1482650587529239e-08 -4.0170451547914707e-08 -0.17056303157081257 -2.0473406895490619e-07 7.3344753203942916e-07 -0.11630640651542687 -1.0430846506784023e-06 1.0162707339623687e-06 -0.13749253292993852 -7.0631422306331799e-07 3.7370137097681778e-07 -0.15776329752566035 -3.3353582175768721e-07 1.0362657721083496e-06 -0.18083175862098763 -4.735334038542775e-07 1.7801820730799089e-06 -0.12818034135432466 -1.0430846506784018e-06 1.0162707339623687e-06 -0.13749253292993852 -2.0473406895490619e-07 7.3344753203942916e-07 -0.11630640651542687 -3.3353582175768705e-07 1.0362657721083498e-06 -0.18083175862098763 -4.735334038542775e-07 1.7801820730799089e-06 -0.12818034135432466 -2.0473406895490619e-07 7.3344753203942916e-07 -0.11630640651542687 2.0828386804349142e-07 1.862492462044928e-06 -0.13878674870946392 -3.3353582175768705e-07 1.0362657721083498e-06 -0.18083175862098763 2.0828386804349142e-07 1.862492462044928e-06 -0.13878674870946392 -2.0473406895490603e-07 7.3344753203942916e-07 -0.11630640651542687 3.0536742981434772e-07 7.0015092085318541e-07 -0.15999472950949944 -3.3353582175768705e-07 1.0362657721083498e-06 -0.18083175862098763 -4.735334038542775e-07 1.7801820730799089e-06 -0.12818034135432466 -9.5655384941100713e-07 9.728456319935587e-07 -0.086869136001384503 -2.0473406895490616e-07 7.3344753203942916e-07 -0.11630640651542687 -1.0430846506784023e-06 1.0162707339623689e-06 -0.13749253292993852 -4.735334038542775e-07 1.7801820730799089e-06 -0.12818034135432466 -1.5784179928759744e-07 4.7898444584461424e-07 -0.11250777092154438 2.0828386804349142e-07 1.862492462044928e-06 -0.13878674870946392 -2.0473406895490619e-07 7.3344753203942916e-07 -0.11630640651542687 -1.0688332475764841e-06 2.107543762951347e-06 -0.11018423174631617 -4.735334038542775e-07 1.7801820730799089e-06 -0.12818034135432466 -7.3619130639198541e-07 1.5303354190569541e-06 -0.16032046801220989 -1.0430846506784023e-06 1.0162707339623687e-06 -0.13749253292993852 -4.735334038542775e-07 1.7801820730799089e-06 -0.12818034135432466 -7.3619130639198562e-07 1.5303354190569541e-06 -0.16032046801220987 -1.0430846506784018e-06 1.0162707339623689e-06 -0.13749253292993852 -3.3353582175768705e-07 1.0362657721083498e-06 -0.18083175862098763 -1.0956636196212197e-06 1.356723878978119e-06 -0.18741439218920872 -1.0430846506784023e-06 1.0162707339623687e-06 -0.13749253292993852 -7.361913063919853e-07 1.5303354190569541e-06 -0.16032046801220989 -3.3353582175768705e-07 1.0362657721083498e-06 -0.18083175862098763 -4.735334038542775e-07 1.7801820730799089e-06 -0.12818034135432466 2.0828386804349145e-07 1.8624924620449282e-06 -0.13878674870946392 -7.1951795232199953e-08 2.2076246424132797e-06 -0.17912262032708978 -3.3353582175768705e-07 1.0362657721083498e-06 -0.18083175862098763 -7.3619130639198541e-07 1.5303354190569541e-06 -0.16032046801220989 -4.735334038542775e-07 1.7801820730799089e-06 -0.12818034135432466 -7.1951795232199993e-08 2.2076246424132797e-06 -0.17912262032708978 -3.3353582175768705e-07 1.0362657721083498e-06 -0.18083175862098763 -7.1951795232199953e-08 2.2076246424132797e-06 -0.17912262032708978 3.0536742981434799e-07 7.0015092085318519e-07 -0.15999472950949944 -5.1036658472303129e-08 1.1433502951386889e-06 -0.22500840181502485 -3.3353582175768705e-07 1.0362657721083498e-06 -0.1808317586209876 -3.8490482964813786e-07 1.9116386105240776e-06 -0.22500843153147704 -6.5049890799581335e-07 1.2212118932089587e-06 -0.19519560438387476 -7.1951795232199953e-08 2.2076246424132797e-06 -0.17912262032708978 -3.3353582175768705e-07 1.0362657721083498e-06 -0.18083175862098763 -7.1951795232199953e-08 2.2076246424132797e-06 -0.17912262032708978 -3.8490482964813786e-07 1.9116386105240772e-06 -0.22500843153147701 -5.1036658472303202e-08 1.1433502951386889e-06 -0.22500840181502485 3.94723560408449e-07 1.9711866253737405e-06 -0.22500851820792325 -7.1951795232199953e-08 2.2076246424132797e-06 -0.17912262032708978 -5.1036658472303102e-08 1.1433502951386889e-06 -0.22500840181502485 -3.8490482964813786e-07 1.9116386105240776e-06 -0.22500843153147704 -3.3353582175768711e-07 1.0362657721083498e-06 -0.18083175862098763 -3.8490482964813786e-07 1.9116386105240776e-06 -0.22500843153147704 -5.1036658472303175e-08 1.1433502951386887e-06 -0.22500840181502488 -6.376053888793156e-07 1.258233117682349e-06 -0.22500833471902076 -3.3353582175768705e-07 1.0362657721083498e-06 -0.18083175862098763 -6.376053888793156e-07 1.258233117682349e-06 -0.22500833471902076 -5.1036658472303208e-08 1.1433502951386889e-06 -0.22500840181502485 -6.6968188547987292e-07 7.0221702315358915e-07 -0.22500838930920072 -3.3353582175768711e-07 1.0362657721083498e-06 -0.18083175862098766 -1.2000189600132695e-06 1.1938552412132887e-06 -0.22500830767558291 -6.376053888793156e-07 1.258233117682349e-06 -0.22500833471902076 -6.6968188547987292e-07 7.0221702315358915e-07 -0.22500838930920072 -3.3353582175768705e-07 1.0362657721083498e-06 -0.18083175862098763 -1.2000189600132695e-06 1.1938552412132887e-06 -0.22500830767558291 -1.0956636196212197e-06 1.356723878978119e-06 -0.18741439218920872 -6.376053888793156e-07 1.258233117682349e-06 -0.22500833471902076 -3.3353582175768705e-07 1.0362657721083498e-06 -0.18083175862098763 -3.8490482964813786e-07 1.9116386105240776e-06 -0.22500843153147704 -6.376053888793156e-07 1.258233117682349e-06 -0.22500833471902076 -6.5049890799581335e-07 1.2212118932089587e-06 -0.19519560438387476 -3.3353582175768705e-07 1.0362657721083498e-06 -0.18083175862098763 -6.376053888793156e-07 1.258233117682349e-06 -0.22500833471902076 -1.0956636196212199e-06 1.356723878978119e-06 -0.18741439218920872 -6.5049890799581335e-07 1.2212118932089587e-06 -0.19519560438387476 -3.3353582175768705e-07 1.0362657721083496e-06 -0.1808317586209876 -1.0983498698168475e-06 1.5473124362797477e-06 -0.22500847590700815 -3.8490482964813786e-07 1.9116386105240776e-06 -0.22500843153147704 -6.376053888793156e-07 1.258233117682349e-06 -0.22500833471902076 -6.5049890799581335e-07 1.2212118932089587e-06 -0.19519560438387476 -7.3619130639198541e-07 1.5303354190569541e-06 -0.16032046801220989 -7.1951795232199953e-08 2.2076246424132797e-06 -0.17912262032708978 -6.5049890799581335e-07 1.2212118932089587e-06 -0.19519560438387476 -3.3353582175768705e-07 1.0362657721083498e-06 -0.18083175862098763 -1.0956636196212197e-06 1.356723878978119e-06 -0.18741439218920872 -7.3619130639198541e-07 1.5303354190569541e-06 -0.16032046801220989 -6.5049890799581335e-07 1.2212118932089587e-06 -0.19519560438387476 -3.3353582175768705e-07 1.0362657721083498e-06 -0.18083175862098763 -1.0430846506784023e-06 1.0162707339623687e-06 -0.13749253292993852 -1.3664953211172222e-06 5.7811602964690081e-07 -0.19537484628210519 -3.33535821757687e-07 1.0362657721083498e-06 -0.18083175862098763 -1.3557637678658269e-06 9.9377451956714861e-07 -0.18741436571446782 -1.2000189600132695e-06 1.1938552412132887e-06 -0.22500830767558291 -6.6968188547987292e-07 7.0221702315358915e-07 -0.22500838930920072 -1.1511764783017763e-06 6.2809783031058203e-07 -0.22500835392776281 -3.3353582175768705e-07 1.0362657721083498e-06 -0.18083175862098763 -1.0956636196212197e-06 1.356723878978119e-06 -0.18741439218920872 -1.3557637678658269e-06 9.9377451956714882e-07 -0.18741436571446782 -1.0430846506784025e-06 1.0162707339623687e-06 -0.13749253292993852 -3.3353582175768695e-07 1.0362657721083498e-06 -0.18083175862098763 -1.0956636196212197e-06 1.356723878978119e-06 -0.18741439218920872 -1.2000189600132695e-06 1.1938552412132887e-06 -0.22500830767558291 -1.3557637678658269e-06 9.9377451956714882e-07 -0.18741436571446782 -3.33535821757687e-07 1.0362657721083498e-06 -0.18083175862098763 -1.5325867982905602e-06 7.2781341167525582e-07 -0.16032044113932445 -1.3557637678658269e-06 9.9377451956714903e-07 -0.18741436571446782 -1.3664953211172222e-06 5.7811602964690091e-07 -0.19537484628210516 -1.0430846506784023e-06 1.0162707339623687e-06 -0.13749253292993852 -1.2000189600132695e-06 1.1938552412132887e-06 -0.22500830767558291 -1.1511764783017763e-06 6.2809783031058203e-07 -0.22500835392776281 -1.3557637678658269e-06 9.9377451956714882e-07 -0.18741436571446782 -3.3353582175768711e-07 1.0362657721083498e-06 -0.18083175862098763 -1.1511764783017763e-06 6.2809783031058203e-07 -0.22500835392776281 -3.3353582175768684e-07 1.0362657721083498e-06 -0.1808317586209876 -1.3664953211172222e-06 5.7811602964690091e-07 -0.19537484628210516 -1.3557637678658269e-06 9.9377451956714882e-07 -0.18741436571446782 -1.0956636196212197e-06 1.356723878978119e-06 -0.18741439218920872 -1.0983498698168477e-06 1.5473124362797475e-06 -0.22500847590700815 -1.2000189600132695e-06 1.1938552412132887e-06 -0.22500830767558291 -6.3760538887931517e-07 1.258233117682349e-06 -0.22500833471902074 -1.0956636196212197e-06 1.356723878978119e-06 -0.18741439218920872 -1.0983498698168475e-06 1.5473124362797477e-06 -0.22500847590700815 -6.3760538887931539e-07 1.2582331176823488e-06 -0.22500833471902076 -6.5049890799581335e-07 1.2212118932089587e-06 -0.19519560438387476 -1.0983498698168475e-06 1.5473124362797477e-06 -0.22500847590700815 -1.0956636196212197e-06 1.356723878978119e-06 -0.18741439218920872 -1.2000189600132695e-06 1.1938552412132887e-06 -0.22500830767558291 -2.3246459063889952e-06 2.3231786392268009e-06 -0.2250088366399807 -1.2000189600132695e-06 1.1938552412132887e-06 -0.22500830767558291 -1.1511764783017763e-06 6.2809783031058203e-07 -0.22500835392776281 -1.4843112412156333e-06 1.0490742357326497e-06 -0.22500844602637329 -1.3557637678658269e-06 9.9377451956714882e-07 -0.18741436571446782 -1.1511764783017763e-06 6.2809783031058203e-07 -0.22500835392776281 -1.4843112412156333e-06 1.0490742357326497e-06 -0.22500844602637329 -1.3557637678658269e-06 9.9377451956714882e-07 -0.18741436571446782 -1.3664953211172222e-06 5.7811602964690091e-07 -0.19537484628210516 -1.4843112412156333e-06 1.0490742357326497e-06 -0.22500844602637329 -1.2000189600132697e-06 1.1938552412132889e-06 -0.22500830767558291 -1.3557637678658269e-06 9.9377451956714882e-07 -0.18741436571446782 -2.3246459063889952e-06 2.3231786392268009e-06 -0.2250088366399807 -1.2000189600132695e-06 1.1938552412132887e-06 -0.22500830767558291 -1.0956636196212197e-06 1.356723878978119e-06 -0.18741439218920872 -1.3557637678658267e-06 9.9377451956714861e-07 -0.18741436571446782 -2.3246459063889952e-06 2.3231786392268009e-06 -0.2250088366399807 -1.2365171305909938e-06 1.3706358854183853e-06 -0.15458702201953092 -1.2312738286153831e-06 1.2406821508855872e-06 -0.15479380164423906 -1.0956636196212195e-06 1.3567238789781188e-06 -0.18741439218920869 -1.5410139098516568e-06 1.4818958078175806e-06 -0.18000829301429205 -1.0956636196212197e-06 1.356723878978119e-06 -0.18741439218920872 -1.2312738286153831e-06 1.240682150885587e-06 -0.15479380164423903 -1.3557637678658269e-06 9.9377451956714882e-07 -0.18741436571446782 -1.5410139098516568e-06 1.4818958078175806e-06 -0.18000829301429205 -1.0956636196212197e-06 1.356723878978119e-06 -0.18741439218920872 -1.3557637678658269e-06 9.9377451956714882e-07 -0.18741436571446782 -2.3246459063889952e-06 2.3231786392268009e-06 -0.2250088366399807 -1.5410139098516568e-06 1.4818958078175806e-06 -0.18000829301429205 -1.9292813609048083e-06 1.9976937430219701e-06 -0.1350078129807607 -1.2312738286153831e-06 1.2406821508855872e-06 -0.15479380164423906 -1.2365171305909938e-06 1.3706358854183853e-06 -0.15458702201953092 -1.5410139098516568e-06 1.4818958078175806e-06 -0.18000829301429205 -1.2312738286153831e-06 1.2406821508855872e-06 -0.15479380164423906 -1.0956636196212197e-06 1.356723878978119e-06 -0.18741439218920872 -1.3557637678658269e-06 9.9377451956714882e-07 -0.18741436571446782 -1.0430846506784025e-06 1.0162707339623689e-06 -0.13749253292993854 -1.9292813609048083e-06 1.9976937430219701e-06 -0.1350078129807607 -1.2365171305909938e-06 1.3706358854183853e-06 -0.15458702201953092 -1.2312738286153831e-06 1.2406821508855872e-06 -0.15479380164423906 -1.0430846506784021e-06 1.0162707339623685e-06 -0.13749253292993852 -1.2312738286153831e-06 1.2406821508855872e-06 -0.15479380164423906 -1.236517130590994e-06 1.3706358854183855e-06 -0.15458702201953095 -1.0956636196212195e-06 1.3567238789781188e-06 -0.18741439218920872 -1.0430846506784023e-06 1.0162707339623687e-06 -0.13749253292993852 -7.3619130639198541e-07 1.5303354190569541e-06 -0.16032046801220989 -1.0956636196212197e-06 1.356723878978119e-06 -0.18741439218920872 -1.2365171305909938e-06 1.3706358854183853e-06 -0.15458702201953092 -1.0430846506784023e-06 1.0162707339623687e-06 -0.13749253292993852 -7.3619130639198541e-07 1.5303354190569541e-06 -0.16032046801220989 -1.2365171305909938e-06 1.3706358854183853e-06 -0.15458702201953092 -1.0688332475764841e-06 2.107543762951347e-06 -0.11018423174631617 -1.0430846506784023e-06 1.0162707339623687e-06 -0.13749253292993852 -4.735334038542775e-07 1.7801820730799089e-06 -0.12818034135432466 -1.0688332475764841e-06 2.107543762951347e-06 -0.11018423174631617 -9.5655384941100713e-07 9.7284563199355849e-07 -0.086869136001384503 -1.0430846506784023e-06 1.0162707339623689e-06 -0.13749253292993849 -1.0688332475764841e-06 2.107543762951347e-06 -0.11018423174631617 -1.236517130590994e-06 1.3706358854183855e-06 -0.15458702201953092 -1.9292813609048083e-06 1.9976937430219701e-06 -0.1350078129807607 -1.0430846506784023e-06 1.0162707339623687e-06 -0.13749253292993852 -1.0688332475764841e-06 2.107543762951347e-06 -0.11018423174631617 -1.9292813609048083e-06 1.9976937430219701e-06 -0.1350078129807607 -2.1447826988564768e-06 1.0824821021342419e-06 -0.11483101382096693 -1.0430846506784023e-06 1.0162707339623685e-06 -0.13749253292993849 -1.9292813609048083e-06 1.9976937430219701e-06 -0.1350078129807607 -1.2312738286153831e-06 1.2406821508855872e-06 -0.15479380164423906 -2.1447826988564768e-06 1.0824821021342419e-06 -0.11483101382096692 -1.0430846506784025e-06 1.0162707339623687e-06 -0.13749253292993852 -1.5325867982905602e-06 7.2781341167525582e-07 -0.16032044113932445 -2.1447826988564768e-06 1.0824821021342419e-06 -0.11483101382096692 -1.2312738286153831e-06 1.2406821508855872e-06 -0.15479380164423906 -1.0430846506784023e-06 1.0162707339623687e-06 -0.13749253292993852 -1.2312738286153831e-06 1.2406821508855872e-06 -0.15479380164423906 -1.3557637678658269e-06 9.9377451956714882e-07 -0.18741436571446782 -1.5325867982905602e-06 7.2781341167525582e-07 -0.16032044113932445 -1.0430846506784025e-06 1.0162707339623687e-06 -0.13749253292993852 -1.8312112375692476e-06 2.4120404992228286e-07 -0.14208459809555371 -7.0631422306331788e-07 3.7370137097681789e-07 -0.15776329752566032 -2.1301506795013582e-06 -4.3772311248093674e-08 -0.17912262625432507 -8.367662471856019e-07 -8.5966934163608361e-08 -0.11356349935481477 -1.8312112375692476e-06 2.4120404992228286e-07 -0.14208459809555371 -1.5325867982905602e-06 7.2781341167525582e-07 -0.16032044113932445 -7.063142230633182e-07 3.7370137097681773e-07 -0.15776329752566032 -1.0430846506784023e-06 1.0162707339623687e-06 -0.13749253292993852 -1.0430846506784023e-06 1.0162707339623687e-06 -0.13749253292993852 -3.3353582175768705e-07 1.0362657721083498e-06 -0.18083175862098763 -1.3664953211172222e-06 5.7811602964690091e-07 -0.19537484628210516 -7.0631422306331799e-07 3.7370137097681773e-07 -0.15776329752566032 -1.796341094137159e-06 4.3439888085025457e-07 -0.096834932874743568 -1.8312112375692476e-06 2.4120404992228286e-07 -0.14208459809555371 -8.3676624718560158e-07 -8.5966934163608785e-08 -0.11356349935481476 -1.0430846506784023e-06 1.0162707339623687e-06 -0.13749253292993852 -1.5325867982905602e-06 7.2781341167525582e-07 -0.16032044113932445 -2.1301506795013582e-06 -4.3772311248093693e-08 -0.17912262625432504 -1.8312112375692476e-06 2.4120404992228286e-07 -0.14208459809555371 -7.0631422306331799e-07 3.7370137097681773e-07 -0.15776329752566032 -1.5325867982905602e-06 7.2781341167525582e-07 -0.16032044113932445 -1.3664953211172222e-06 5.7811602964690091e-07 -0.19537484628210516 -7.0631422306331799e-07 3.7370137097681794e-07 -0.15776329752566032 -1.0430846506784023e-06 1.0162707339623687e-06 -0.13749253292993852 -7.0631422306331799e-07 3.7370137097681773e-07 -0.15776329752566032 -8.367662471856019e-07 -8.59669341636086e-08 -0.11356349935481477 -1.8312112375692476e-06 2.4120404992228297e-07 -0.14208459809555374 -1.0430846506784023e-06 1.0162707339623687e-06 -0.13749253292993852 -1.8312112375692476e-06 2.4120404992228286e-07 -0.14208459809555371 -2.1447826988564768e-06 1.0824821021342419e-06 -0.11483101382096692 -1.5325867982905602e-06 7.2781341167525582e-07 -0.16032044113932445 -1.0430846506784016e-06 1.0162707339623685e-06 -0.13749253292993849 -1.796341094137159e-06 4.3439888085025457e-07 -0.096834932874743568 -2.1447826988564768e-06 1.0824821021342419e-06 -0.1148310138209669 -1.8312112375692476e-06 2.4120404992228286e-07 -0.14208459809555371 -1.0430846506784023e-06 1.0162707339623687e-06 -0.13749253292993852 -6.0747646535357058e-07 -6.4488800055668519e-08 -0.11250765485392401 -1.796341094137159e-06 4.3439888085025457e-07 -0.096834932874743568 -1.8312112375692476e-06 2.4120404992228286e-07 -0.14208459809555371 -8.367662471856019e-07 -8.59669341636086e-08 -0.11356349935481477 -1.3664953211172222e-06 5.7811602964690091e-07 -0.19537484628210516 -2.1301506795013582e-06 -4.377231124809366e-08 -0.17912262625432507 -1.5325867982905602e-06 7.2781341167525582e-07 -0.16032044113932445 -7.0631422306331799e-07 3.7370137097681773e-07 -0.15776329752566032 -1.1511764783017763e-06 6.2809783031058203e-07 -0.22500835392776281 -1.3664953211172222e-06 5.7811602964690091e-07 -0.19537484628210516 -3.3353582175768695e-07 1.0362657721083502e-06 -0.18083175862098763 -7.063142230633182e-07 3.7370137097681773e-07 -0.15776329752566035 -1.1511764783017763e-06 6.2809783031058203e-07 -0.22500835392776281 -1.1485455933954185e-06 -1.4376932328883101e-08 -0.22500843795872144 -1.3664953211172222e-06 5.7811602964690091e-07 -0.19537484628210516 -7.0631422306331799e-07 3.7370137097681773e-07 -0.15776329752566032 -6.6968188547987292e-07 7.0221702315358915e-07 -0.22500838930920072 -1.1485455933954185e-06 -1.4376932328883101e-08 -0.22500843795872144 -1.1511764783017763e-06 6.2809783031058203e-07 -0.22500835392776281 -7.0631422306331799e-07 3.7370137097681773e-07 -0.15776329752566032 -1.3664953211172222e-06 5.7811602964690091e-07 -0.19537484628210516 -1.1485455933954185e-06 -1.4376932328882967e-08 -0.22500843795872141 -2.1301506795013582e-06 -4.3772311248093674e-08 -0.17912262625432507 -7.0631422306331799e-07 3.7370137097681773e-07 -0.15776329752566032 -1.1511764783017763e-06 6.2809783031058203e-07 -0.22500835392776281 -1.9923101440336326e-06 4.052585956914493e-07 -0.22500855144518769 -1.4843112412156333e-06 1.0490742357326497e-06 -0.22500844602637327 -1.3664953211172222e-06 5.7811602964690091e-07 -0.19537484628210516 -1.1511764783017763e-06 6.2809783031058203e-07 -0.22500835392776281 -1.9923101440336326e-06 4.052585956914492e-07 -0.22500855144518769 -1.3664953211172222e-06 5.7811602964690091e-07 -0.19537484628210516 -1.1485455933954185e-06 -1.4376932328883101e-08 -0.22500843795872144 -1.9923101440336326e-06 4.0525859569144925e-07 -0.22500855144518769 -1.3664953211172222e-06 5.7811602964690091e-07 -0.19537484628210516 -1.1485455933954185e-06 -1.4376932328883101e-08 -0.22500843795872144 -2.1301506795013582e-06 -4.3772311248093674e-08 -0.17912262625432507 -1.9923101440336326e-06 4.0525859569144925e-07 -0.22500855144518769 -1.1485455933954185e-06 -1.4376932328883101e-08 -0.22500843795872144 -1.9319943460337826e-06 -4.3822087199270853e-07 -0.22500847998043091 -2.1301506795013582e-06 -4.3772311248093674e-08 -0.17912262625432507 -1.1347861873936218e-06 -6.031755313424322e-07 -0.22500837912997831 -1.9319943460337826e-06 -4.3822087199270853e-07 -0.22500847998043091 -2.1301506795013587e-06 -4.3772311248093508e-08 -0.1791226262543251 -1.2297490855511067e-06 -6.5808429742577244e-07 -0.19519566160392027 -1.1347861873936218e-06 -6.031755313424322e-07 -0.22500837912997831 -6.7635226592809024e-07 -7.0090168177922425e-07 -0.22500840920865894 -1.1487749789854438e-06 -1.1478212693205639e-06 -0.22500834109196169 -6.0322831609496617e-07 -5.9879807646239433e-07 -0.15389730798114562 -1.1485455933954185e-06 -1.4376932328883101e-08 -0.22500843795872144 -6.0322831609496617e-07 -5.9879807646239475e-07 -0.15389730798114562 -2.1301506795013582e-06 -4.3772311248093588e-08 -0.17912262625432501 -7.0631422306331788e-07 3.7370137097681805e-07 -0.15776329752566032 -1.1485455933954185e-06 -1.4376932328883101e-08 -0.22500843795872144 -6.7635226592809046e-07 -7.0090168177922435e-07 -0.22500840920865892 -1.1347861873936218e-06 -6.031755313424322e-07 -0.22500837912997831 -6.0322831609496617e-07 -5.9879807646239422e-07 -0.15389730798114559 -1.1485455933954185e-06 -1.4376932328883101e-08 -0.22500843795872144 -1.1347861873936218e-06 -6.031755313424322e-07 -0.22500837912997831 -1.9319943460337826e-06 -4.3822087199270853e-07 -0.22500847998043091 -2.1301506795013582e-06 -4.3772311248093627e-08 -0.17912262625432504 -2.1301506795013582e-06 -4.3772311248093674e-08 -0.17912262625432507 -1.1347861873936216e-06 -6.031755313424322e-07 -0.22500837912997831 -1.2297490855511064e-06 -6.5808429742577254e-07 -0.19519566160392027 -6.0322831609496617e-07 -5.9879807646239433e-07 -0.15389730798114562 -1.2297490855511064e-06 -6.5808429742577254e-07 -0.19519566160392027 -1.134786187393622e-06 -6.0317553134243231e-07 -0.22500837912997831 -1.3520362910588245e-06 -1.0647732719957701e-06 -0.18741444851437347 -6.0322831609496596e-07 -5.9879807646239422e-07 -0.15389730798114559 -1.2297490855511064e-06 -6.5808429742577254e-07 -0.19519566160392027 -1.3520362910588245e-06 -1.0647732719957701e-06 -0.18741444851437347 -1.5547965307987206e-06 -7.5781359520646889e-07 -0.16032047977194475 -6.0322831609496596e-07 -5.9879807646239433e-07 -0.15389730798114565 -1.1485455933954185e-06 -1.4376932328883101e-08 -0.22500843795872144 -1.1347861873936218e-06 -6.031755313424322e-07 -0.22500837912997831 -2.1301506795013587e-06 -4.3772311248093647e-08 -0.17912262625432507 -6.0322831609496585e-07 -5.9879807646239454e-07 -0.15389730798114559 -2.1301506795013582e-06 -4.3772311248093674e-08 -0.17912262625432507 -1.2297490855511067e-06 -6.5808429742577254e-07 -0.19519566160392024 -1.5547965307987208e-06 -7.5781359520646899e-07 -0.16032047977194475 -6.0322831609496617e-07 -5.9879807646239433e-07 -0.15389730798114562 -1.1347861873936218e-06 -6.031755313424322e-07 -0.22500837912997831 -1.9319943460337826e-06 -4.3822087199270853e-07 -0.22500847998043091 -1.2297490855511064e-06 -6.5808429742577254e-07 -0.19519566160392027 -1.5421887901513278e-06 -1.0707528684242558e-06 -0.22500854336095819 -3.5799432357563405e-08 -1.2108393618771328e-06 -0.22500843951266927 -4.3839411054850056e-07 -2.9632474104596079e-07 -0.22500839860799904 2.3620121997676696e-07 -4.7445898406146679e-07 -0.22500838205245932 -4.1482650587529206e-08 -4.0170451547914402e-08 -0.17056303157081257 -3.5799432357563405e-08 -1.2108393618771328e-06 -0.22500843951266927 -6.0322831609496596e-07 -5.9879807646239422e-07 -0.15389730798114562 -4.3839411054850066e-07 -2.9632474104596074e-07 -0.22500839860799904 -4.1482650587529477e-08 -4.0170451547914376e-08 -0.17056303157081257 -3.5799432357563405e-08 -1.2108393618771328e-06 -0.22500843951266927 3.690219099649845e-07 -7.1550844904051593e-07 -0.15776330921577927 -6.0322831609496617e-07 -5.9879807646239433e-07 -0.15389730798114562 -4.1482650587529345e-08 -4.0170451547914416e-08 -0.17056303157081257 -6.0322831609496617e-07 -5.9879807646239433e-07 -0.15389730798114562 -7.063142230633182e-07 3.7370137097681794e-07 -0.15776329752566032 -4.3839411054850066e-07 -2.9632474104596074e-07 -0.22500839860799904 -4.1482650587529206e-08 -4.0170451547914402e-08 -0.17056303157081257 -1.1485455933954185e-06 -1.4376932328883101e-08 -0.22500843795872144 -4.3839411054850071e-07 -2.9632474104596068e-07 -0.22500839860799904 -6.7635226592809035e-07 -7.0090168177922435e-07 -0.22500840920865894 -6.0322831609496617e-07 -5.9879807646239433e-07 -0.15389730798114559 -4.3839411054850066e-07 -2.9632474104596074e-07 -0.22500839860799904 -6.0322831609496596e-07 -5.9879807646239401e-07 -0.15389730798114562 -1.1485455933954185e-06 -1.4376932328883152e-08 -0.22500843795872147 -7.063142230633183e-07 3.7370137097681725e-07 -0.15776329752566032 -3.5799432357563405e-08 -1.2108393618771328e-06 -0.22500843951266927 -6.7635226592809035e-07 -7.0090168177922446e-07 -0.22500840920865894 -4.3839411054850066e-07 -2.9632474104596074e-07 -0.22500839860799904 -6.0322831609496617e-07 -5.9879807646239433e-07 -0.15389730798114562 -4.3839411054850066e-07 -2.9632474104596074e-07 -0.22500839860799904 -2.0439690619634012e-08 -4.6616004532364952e-08 -0.2250083686631448 2.3620121997676696e-07 -4.7445898406146679e-07 -0.22500838205245932 -4.14826505875292e-08 -4.0170451547914402e-08 -0.17056303157081257 -6.0322831609496617e-07 -5.9879807646239433e-07 -0.15389730798114562 -6.2751146633239374e-07 -6.0428346057975913e-07 -0.084080607414070072 -8.367662471856019e-07 -8.5966934163608547e-08 -0.11356349935481479 -4.1782557321432068e-08 -8.3805439704036285e-07 -0.11416303671339965 2.476652034606105e-08 -2.8604385151869255e-08 -0.11250737590774476 -6.0322831609496607e-07 -5.9879807646239444e-07 -0.15389730798114562 -4.1782557321432042e-08 -8.3805439704036306e-07 -0.11416303671339964 -4.1482650587529206e-08 -4.0170451547914402e-08 -0.17056303157081257 -6.0322831609496617e-07 -5.9879807646239433e-07 -0.15389730798114562 -8.36766247185602e-07 -8.5966934163608652e-08 -0.11356349935481476 2.4766520346061099e-08 -2.8604385151869192e-08 -0.11250737590774477 -4.1782557321432141e-08 -8.3805439704036285e-07 -0.11416303671339965 -6.0322831609496617e-07 -5.9879807646239433e-07 -0.15389730798114562 2.4766520346061139e-08 -2.8604385151869245e-08 -0.11250737590774476 -8.367662471856019e-07 -8.59669341636086e-08 -0.11356349935481477 -4.1482650587529206e-08 -4.0170451547914402e-08 -0.17056303157081257 -6.0322831609496617e-07 -5.9879807646239433e-07 -0.15389730798114562 -8.367662471856019e-07 -8.59669341636086e-08 -0.11356349935481477 -7.0631422306331809e-07 3.7370137097681789e-07 -0.15776329752566032 -4.1482650587529206e-08 -4.0170451547914402e-08 -0.17056303157081257 3.6902190996498466e-07 -7.1550844904051593e-07 -0.1577633092157793 -4.1782557321432081e-08 -8.3805439704036285e-07 -0.11416303671339965 -6.0322831609496617e-07 -5.9879807646239433e-07 -0.15389730798114562 -4.1482650587529173e-08 -4.017045154791427e-08 -0.17056303157081254 -1.7271124640361885e-06 -5.9251520095778602e-07 -0.12802320450099669 -2.1301506795013582e-06 -4.3772311248093674e-08 -0.17912262625432507 -6.0322831609496617e-07 -5.9879807646239433e-07 -0.15389730798114562 -8.3676624718560211e-07 -8.5966934163608533e-08 -0.11356349935481479 -1.7271124640361885e-06 -5.9251520095778602e-07 -0.12802320450099669 -6.0322831609496628e-07 -5.9879807646239454e-07 -0.15389730798114562 -6.2751146633239384e-07 -6.0428346057975923e-07 -0.084080607414070058 -8.3676624718560211e-07 -8.5966934163608454e-08 -0.1135634993548148 -2.1301506795013582e-06 -4.3772311248093674e-08 -0.17912262625432507 -7.063142230633182e-07 3.7370137097681789e-07 -0.15776329752566032 -6.0322831609496649e-07 -5.9879807646239444e-07 -0.15389730798114562 -8.36766247185602e-07 -8.5966934163608454e-08 -0.11356349935481473 -1.7271124640361885e-06 -5.9251520095778602e-07 -0.12802320450099669 -1.8312112375692476e-06 2.4120404992228286e-07 -0.14208459809555371 -2.1301506795013582e-06 -4.3772311248093674e-08 -0.17912262625432507 -8.36766247185602e-07 -8.5966934163608652e-08 -0.1135634993548148 -1.7271124640361885e-06 -5.9251520095778602e-07 -0.12802320450099669 -2.1301506795013582e-06 -4.3772311248093674e-08 -0.17912262625432507 -1.5547965307987206e-06 -7.5781359520646889e-07 -0.16032047977194475 -6.0322831609496617e-07 -5.9879807646239433e-07 -0.15389730798114562 -2.122422722385205e-06 -1.2254363624462565e-06 -0.11018438916285854 -1.7271124640361885e-06 -5.9251520095778602e-07 -0.12802320450099669 -6.0322831609496617e-07 -5.9879807646239433e-07 -0.15389730798114562 -6.2751146633239384e-07 -6.0428346057975923e-07 -0.084080607414070058 -1.7271124640361885e-06 -5.9251520095778602e-07 -0.12802320450099669 -1.5547965307987206e-06 -7.5781359520646889e-07 -0.16032047977194475 -2.122422722385205e-06 -1.2254363624462565e-06 -0.11018438916285854 -6.0322831609496617e-07 -5.9879807646239433e-07 -0.15389730798114562 -1.7271124640361885e-06 -5.9251520095778602e-07 -0.12802320450099669 -6.0747646535357069e-07 -6.4488800055668559e-08 -0.11250765485392403 -1.8312112375692476e-06 2.4120404992228286e-07 -0.14208459809555371 -8.36766247185602e-07 -8.59669341636086e-08 -0.11356349935481479 -1.3640355176015721e-06 -1.1646448850745884e-06 -0.15458707475718245 -1.050742438956672e-06 -1.3522718779654923e-06 -0.1874145060673644 -1.1815491476841361e-06 -1.3661288950029803e-06 -0.15458718148673212 -6.0322831609496628e-07 -5.9879807646239444e-07 -0.15389730798114562 -1.050742438956672e-06 -1.3522718779654923e-06 -0.1874145060673644 -7.4621452371418102e-07 -1.552148717685429e-06 -0.16032051138369138 -1.1815491476841361e-06 -1.3661288950029803e-06 -0.15458718148673212 -6.0322831609496617e-07 -5.9879807646239433e-07 -0.15389730798114562 -1.1146520123300943e-06 -2.1105469420251194e-06 -0.11018439928886213 -2.122422722385205e-06 -1.2254363624462565e-06 -0.11018438916285854 -6.0322831609496628e-07 -5.9879807646239433e-07 -0.15389730798114562 -6.2751146633239395e-07 -6.0428346057975944e-07 -0.084080607414070072 -2.122422722385205e-06 -1.2254363624462565e-06 -0.11018438916285854 -1.3640355176015721e-06 -1.1646448850745884e-06 -0.15458707475718245 -1.1815491476841364e-06 -1.3661288950029803e-06 -0.15458718148673212 -6.0322831609496607e-07 -5.9879807646239422e-07 -0.15389730798114562 -1.1146520123300943e-06 -2.1105469420251194e-06 -0.11018439928886213 -2.122422722385205e-06 -1.2254363624462565e-06 -0.11018438916285855 -1.1815491476841361e-06 -1.3661288950029803e-06 -0.15458718148673212 -6.0322831609496617e-07 -5.9879807646239433e-07 -0.15389730798114562 -2.122422722385205e-06 -1.2254363624462565e-06 -0.11018438916285854 -1.5547965307987206e-06 -7.5781359520646889e-07 -0.16032047977194475 -1.3640355176015721e-06 -1.1646448850745884e-06 -0.15458707475718245 -6.0322831609496617e-07 -5.9879807646239433e-07 -0.15389730798114562 -1.1146520123300943e-06 -2.1105469420251194e-06 -0.11018439928886213 -1.1815491476841361e-06 -1.3661288950029803e-06 -0.15458718148673212 -7.4621452371418113e-07 -1.5521487176854292e-06 -0.16032051138369138 -6.0322831609496617e-07 -5.9879807646239433e-07 -0.15389730798114562 -1.3520362910588245e-06 -1.0647732719957701e-06 -0.18741444851437347 -1.3640355176015721e-06 -1.1646448850745884e-06 -0.15458707475718245 -1.5547965307987206e-06 -7.5781359520646889e-07 -0.16032047977194475 -6.0322831609496617e-07 -5.9879807646239433e-07 -0.15389730798114562 -1.486194593033889e-06 -1.4843510826123054e-06 -0.18000838735777072 -1.9919384224075031e-06 -1.9978515390069703e-06 -0.13500775542255133 -1.3640355176015721e-06 -1.1646448850745884e-06 -0.15458707475718245 -1.1815491476841361e-06 -1.3661288950029803e-06 -0.15458718148673212 -2.122422722385205e-06 -1.2254363624462565e-06 -0.11018438916285854 -1.9919384224075031e-06 -1.9978515390069703e-06 -0.13500775542255133 -1.1146520123300943e-06 -2.1105469420251194e-06 -0.11018439928886213 -1.1815491476841361e-06 -1.3661288950029803e-06 -0.15458718148673212 -1.9919384224075031e-06 -1.9978515390069703e-06 -0.13500775542255133 -2.122422722385205e-06 -1.2254363624462565e-06 -0.11018438916285854 -1.3640355176015721e-06 -1.1646448850745884e-06 -0.15458707475718245 -1.1815491476841361e-06 -1.3661288950029803e-06 -0.15458718148673212 -5.2452855144461483e-07 -1.7558241027410377e-06 -0.12802521977277156 -7.4621452371418102e-07 -1.552148717685429e-06 -0.16032051138369138 -3.4689862873536473e-08 -2.1263917566863184e-06 -0.17912266840537322 -6.0322831609496617e-07 -5.9879807646239433e-07 -0.15389730798114562 -5.2452855144461483e-07 -1.7558241027410377e-06 -0.12802521977277156 -1.1146520123300943e-06 -2.1105469420251194e-06 -0.11018439928886213 -7.4621452371418102e-07 -1.552148717685429e-06 -0.16032051138369138 -6.0322831609496617e-07 -5.9879807646239433e-07 -0.15389730798114562 -1.1146520123300943e-06 -2.1105469420251194e-06 -0.11018439928886213 -6.0322831609496617e-07 -5.9879807646239433e-07 -0.15389730798114562 -5.2452855144461483e-07 -1.7558241027410377e-06 -0.12802521977277156 -6.2751146633239406e-07 -6.0428346057975955e-07 -0.084080607414070072 -6.0322831609496617e-07 -5.9879807646239433e-07 -0.15389730798114562 3.6902190996498472e-07 -7.1550844904051593e-07 -0.15776330921577927 -3.468986287353648e-08 -2.1263917566863184e-06 -0.17912266840537322 -4.1782557321432048e-08 -8.3805439704036274e-07 -0.11416303671339965 -5.2452855144461483e-07 -1.7558241027410377e-06 -0.12802521977277156 -6.2751146633239416e-07 -6.0428346057975923e-07 -0.084080607414070044 -6.0322831609496617e-07 -5.9879807646239433e-07 -0.15389730798114562 -4.1782557321431956e-08 -8.3805439704036295e-07 -0.11416303671339967 -3.4689862873536473e-08 -2.1263917566863184e-06 -0.17912266840537322 -5.2452855144461472e-07 -1.7558241027410377e-06 -0.12802521977277154 -6.0322831609496617e-07 -5.9879807646239433e-07 -0.15389730798114562 -4.1782557321432068e-08 -8.3805439704036285e-07 -0.11416303671339965 -3.4689862873536473e-08 -2.1263917566863184e-06 -0.17912266840537322 2.657734863033239e-07 -1.8530876144777872e-06 -0.14213063811804036 -5.2452855144461483e-07 -1.7558241027410377e-06 -0.12802521977277156 -4.1782557321432068e-08 -8.3805439704036285e-07 -0.11416303671339965 -5.2452855144461483e-07 -1.7558241027410377e-06 -0.12802521977277156 2.65773486303324e-07 -1.8530876144777872e-06 -0.14213063811804039 -3.7551287102183943e-08 -5.3757547439088497e-07 -0.11250770888502605 -4.1782557321432068e-08 -8.3805439704036285e-07 -0.11416303671339965 -7.4621452371418102e-07 -1.552148717685429e-06 -0.16032051138369138 -6.115774955777474e-07 -1.2309859383872418e-06 -0.19519568818122895 -3.4689862873536473e-08 -2.1263917566863184e-06 -0.17912266840537322 -6.0322831609496617e-07 -5.9879807646239433e-07 -0.15389730798114562 -3.5799432357563405e-08 -1.2108393618771328e-06 -0.22500843951266927 -6.5343145780749148e-07 -1.162847718944255e-06 -0.22500838025933473 -6.7635226592809035e-07 -7.0090168177922435e-07 -0.22500840920865892 -6.0322831609496617e-07 -5.9879807646239433e-07 -0.15389730798114562 -1.050742438956672e-06 -1.3522718779654923e-06 -0.1874145060673644 -6.5343145780749148e-07 -1.162847718944255e-06 -0.22500838025933473 -6.115774955777474e-07 -1.2309859383872418e-06 -0.19519568818122895 -6.0322831609496617e-07 -5.9879807646239433e-07 -0.15389730798114562 -6.115774955777474e-07 -1.2309859383872418e-06 -0.19519568818122895 -3.5799432357563412e-08 -1.2108393618771328e-06 -0.22500843951266927 -3.4689862873536473e-08 -2.1263917566863184e-06 -0.17912266840537322 -6.0322831609496607e-07 -5.9879807646239433e-07 -0.15389730798114562 -7.4621452371418102e-07 -1.552148717685429e-06 -0.16032051138369138 -1.050742438956672e-06 -1.3522718779654923e-06 -0.1874145060673644 -6.115774955777474e-07 -1.2309859383872418e-06 -0.19519568818122895 -6.0322831609496617e-07 -5.9879807646239433e-07 -0.15389730798114562 -3.5799432357563405e-08 -1.2108393618771328e-06 -0.22500843951266927 -3.4689862873536473e-08 -2.1263917566863184e-06 -0.17912266840537322 -6.0322831609496596e-07 -5.9879807646239412e-07 -0.15389730798114562 3.6902190996498461e-07 -7.1550844904051572e-07 -0.15776330921577927 -1.1487749789854438e-06 -1.1478212693205639e-06 -0.22500834109196169 -6.7635226592809046e-07 -7.0090168177922446e-07 -0.22500840920865894 -6.5343145780749148e-07 -1.162847718944255e-06 -0.22500838025933473 -6.0322831609496617e-07 -5.9879807646239433e-07 -0.15389730798114562 -3.5799432357563405e-08 -1.2108393618771328e-06 -0.22500843951266927 -6.115774955777474e-07 -1.2309859383872418e-06 -0.19519568818122893 -6.5343145780749148e-07 -1.162847718944255e-06 -0.22500838025933473 -6.0322831609496617e-07 -5.9879807646239433e-07 -0.15389730798114562 -3.5799432357563405e-08 -1.2108393618771328e-06 -0.22500843951266927 -6.115774955777474e-07 -1.2309859383872423e-06 -0.19519568818122898 -4.645084073509184e-07 -1.9328892277157735e-06 -0.2250086173308736 -6.5343145780749148e-07 -1.162847718944255e-06 -0.22500838025933473 -3.5799432357563405e-08 -1.2108393618771328e-06 -0.22500843951266927 -4.645084073509184e-07 -1.9328892277157735e-06 -0.2250086173308736 -3.46898628735365e-08 -2.1263917566863184e-06 -0.17912266840537322 4.4413949218236504e-07 -1.9922402756611916e-06 -0.22500860505310968 -6.115774955777474e-07 -1.2309859383872418e-06 -0.19519568818122895 -3.5799432357563339e-08 -1.2108393618771328e-06 -0.22500843951266927 -4.645084073509184e-07 -1.9328892277157735e-06 -0.2250086173308736 -3.4689862873536473e-08 -2.1263917566863184e-06 -0.17912266840537322 -6.115774955777474e-07 -1.2309859383872418e-06 -0.19519568818122895 -1.0845071628799714e-06 -1.5414710420000491e-06 -0.22500857472587171 -4.645084073509184e-07 -1.9328892277157735e-06 -0.22500861733087357 -6.5343145780749148e-07 -1.162847718944255e-06 -0.22500838025933473 -1.1487749789854438e-06 -1.1478212693205639e-06 -0.22500834109196169 -1.0845071628799714e-06 -1.5414710420000491e-06 -0.22500857472587171 -1.050742438956672e-06 -1.3522718779654923e-06 -0.1874145060673644 -6.5343145780749148e-07 -1.162847718944255e-06 -0.22500838025933473 -1.3520362910588245e-06 -1.0647732719957701e-06 -0.18741444851437347 -1.1347861873936218e-06 -6.0317553134243209e-07 -0.22500837912997831 -1.1487749789854438e-06 -1.1478212693205639e-06 -0.22500834109196169 -6.0322831609496617e-07 -5.9879807646239412e-07 -0.15389730798114562 -1.050742438956672e-06 -1.3522718779654923e-06 -0.1874145060673644 -1.0845071628799714e-06 -1.5414710420000491e-06 -0.22500857472587171 -6.1157749557774719e-07 -1.2309859383872416e-06 -0.19519568818122895 -6.5343145780749148e-07 -1.162847718944255e-06 -0.22500838025933473 -1.050742438956672e-06 -1.3522718779654923e-06 -0.1874145060673644 -1.1487749789854438e-06 -1.1478212693205639e-06 -0.22500834109196169 -6.5343145780749148e-07 -1.162847718944255e-06 -0.22500838025933473 -6.0322831609496617e-07 -5.9879807646239433e-07 -0.15389730798114562 -1.3520362910588245e-06 -1.0647732719957701e-06 -0.18741444851437347 -1.050742438956672e-06 -1.3522718779654923e-06 -0.1874145060673644 -1.3640355176015721e-06 -1.1646448850745884e-06 -0.15458707475718245 -6.0322831609496617e-07 -5.9879807646239433e-07 -0.15389730798114562 -2.3257299450739804e-06 -2.3262605963230434e-06 -0.22500892096591787 -1.1487749789854438e-06 -1.1478212693205639e-06 -0.22500834109196169 -1.0845071628799714e-06 -1.5414710420000491e-06 -0.22500857472587171 -1.050742438956672e-06 -1.3522718779654923e-06 -0.1874145060673644 -1.3520362910588245e-06 -1.0647732719957701e-06 -0.18741444851437347 -1.1487749789854438e-06 -1.1478212693205641e-06 -0.22500834109196169 -1.050742438956672e-06 -1.3522718779654923e-06 -0.1874145060673644 -6.0322831609496617e-07 -5.9879807646239433e-07 -0.15389730798114562 -1.3520362910588245e-06 -1.0647732719957701e-06 -0.18741444851437347 -1.1487749789854436e-06 -1.1478212693205639e-06 -0.22500834109196169 -1.5421887901513275e-06 -1.0707528684242556e-06 -0.22500854336095819 -2.3257299450739804e-06 -2.3262605963230434e-06 -0.22500892096591787 -1.1347861873936218e-06 -6.031755313424322e-07 -0.22500837912997831 -1.3520362910588245e-06 -1.0647732719957701e-06 -0.18741444851437347 -1.5421887901513278e-06 -1.0707528684242558e-06 -0.22500854336095819 -1.2297490855511064e-06 -6.5808429742577265e-07 -0.19519566160392027 -1.3520362910588245e-06 -1.0647732719957701e-06 -0.18741444851437347 -1.1347861873936218e-06 -6.031755313424322e-07 -0.22500837912997831 -1.5421887901513278e-06 -1.0707528684242558e-06 -0.22500854336095819 -1.1487749789854438e-06 -1.1478212693205639e-06 -0.22500834109196169 -1.486194593033889e-06 -1.4843510826123054e-06 -0.18000838735777072 -1.3520362910588245e-06 -1.0647732719957701e-06 -0.18741444851437347 -2.3257299450739804e-06 -2.3262605963230434e-06 -0.22500892096591787 -1.050742438956672e-06 -1.3522718779654923e-06 -0.1874145060673644 -1.050742438956672e-06 -1.3522718779654923e-06 -0.1874145060673644 -1.486194593033889e-06 -1.4843510826123054e-06 -0.18000838735777072 -1.3640355176015721e-06 -1.1646448850745884e-06 -0.15458707475718242 -1.1815491476841361e-06 -1.3661288950029803e-06 -0.15458718148673212 -1.486194593033889e-06 -1.4843510826123054e-06 -0.18000838735777072 -1.3520362910588245e-06 -1.0647732719957701e-06 -0.18741444851437347 -1.050742438956672e-06 -1.3522718779654923e-06 -0.1874145060673644 -1.3640355176015721e-06 -1.1646448850745884e-06 -0.15458707475718245 -1.3520362910588245e-06 -1.0647732719957701e-06 -0.18741444851437347 -1.1487749789854438e-06 -1.1478212693205639e-06 -0.22500834109196169 -2.3257299450739804e-06 -2.3262605963230434e-06 -0.22500892096591787 -1.050742438956672e-06 -1.3522718779654923e-06 -0.1874145060673644 
</DataArray>
</PointData>
<CellData Scalars="" Vectors="" Tensors="stress,">
<DataArray type="Float64" Name="stress" NumberOfComponents="9" format="ascii">
-2.4996495416779259 7.6658794566438276e-05 9.0172215464479066e-05 7.6658794566438276e-05 -2.4996286886834405 0.00012356701343052556 9.0172215464479066e-05 0.00012356701343052556 -9.9998110971085676 -2.499806174842873 -5.6322287099322757e-07 1.4697740818192528e-05 -5.6322287099322757e-07 -2.4997198729814079 6.7393302687790424e-05 1.4697740818192528e-05 6.7393302687790424e-05 -9.9999524060583678 -2.499856479824238 5.535386123022434e-05 2.7809218995145102e-05 5.535386123022434e-05 -2.4998748430411601 6.2609679331027124e-05 2.7809218995145102e-05 6.2609679331027124e-05 -9.9999852296568665 -2.4998430260917708 7.5724307110282645e-06 -9.6543725623565724e-05 7.5724307110282645e-06 -2.4998549080361978 -0.00011161546275229028 -9.6543725623565724e-05 -0.00011161546275229028 -10.000305677553033 -2.4998126219076937 7.5515457804938e-06 5.6061633798787369e-05 7.5515457804938e-06 -2.4997907006594251 2.0962723796369431e-05 5.6061633798787369e-05 2.0962723796369431e-05 -10.000040448137254 -2.4998427918368282 2.6749777162775487e-05 -0.00010061639443437187 2.6749777162775487e-05 -2.4998334795635961 -7.7713835379134011e-05 -0.00010061639443437187 -7.7713835379134011e-05 -10.000306773854295 -2.4997980198013705 1.4171637159153153e-05 9.4275982579494766e-05 1.4171637159153153e-05 -2.4997712183047134 6.0474865607229589e-05 9.4275982579494766e-05 6.0474865607229589e-05 -10.000012277754907 -2.499741432723003 -1.3431146537098455e-05 3.5439007189275173e-05 -1.3431146537098455e-05 -2.499695799941152 5.6443911473191832e-05 3.5439007189275173e-05 5.6443911473191832e-05 -9.999588562067526 -2.4998294043090699 5.8129389718408639e-05 6.134873777097205e-05 5.8129389718408639e-05 -2.4998837813996699 9.2408973977775588e-05 6.134873777097205e-05 9.2408973977775588e-05 -9.9999637997126314 -2.4997906710954201 4.6783998680013958e-06 -5.3241344971866056e-05 4.6783998680013958e-06 -2.499877803864575 -0.00013428839324713948 -5.3241344971866056e-05 -0.00013428839324713948 -10.000240192210191 -2.4998556045235301 3.39581164373954e-05 -8.3292521158577964e-05 3.39581164373954e-05 -2.5001410537744331 -5.2753963938685818e-06 -8.3292521158577964e-05 -5.2753963938685818e-06 -10.000412699973024 -2.4996789830327448 7.0903647451990887e-05 2.2874895396593118e-05 7.0903647451990887e-05 -2.4996813800254802 0.00020248932710865931 2.2874895396593118e-05 0.00020248932710865931 -10.000009893384972 -2.4998265952080141 -9.1780056699328276e-05 -0.00013067723495346174 -9.1780056699328276e-05 -2.4996487645331618 9.0365301406850561e-05 -0.00013067723495346174 9.0365301406850561e-05 -10.000174188608895 -2.4996870955861028 7.1325783938444175e-05 0.00016325925597591876 7.1325783938444175e-05 -2.4996784229055988 4.4389815928581953e-05 0.00016325925597591876 4.4389815928581953e-05 -10.000017671433007 -2.5000880113373394 3.3510682320781719e-05 -4.066770896585031e-05 3.3510682320781719e-05 -2.4998009260136658 7.723515886386419e-06 -4.066770896585031e-05 7.723515886386419e-06 -10.000205625100687 -2.499901572440304 -2.9451588208215069e-05 -0.00028596473909470177 -2.9451588208215069e-05 -2.4997215547090015 5.5436351416249252e-05 -0.00028596473909470177 5.5436351416249252e-05 -10.000239061239258 -2.4999513794548243 -3.3970851475433023e-05 -0.00016959001506075636 -3.3970851475433023e-05 -2.499640277452007 0.00017141531187773648 -0.00016959001506075636 0.00017141531187773648 -9.9999983788040119 -2.4998465214581 -2.0237050715623876e-05 -7.2463764277608256e-05 -2.0237050715623876e-05 -2.4997553667506023 -1.4781036800304292e-05 -7.2463764277608256e-05 -1.4781036800304292e-05 -10.000393720740089 -2.4998203214324475 6.1928090257096089e-06 -6.1834975506158685e-05 6.1928090257096089e-06 -2.4995814626128903 -5.853019299673079e-05 -6.1834975506158685e-05 -5.853019299673079e-05 -9.9996034573328743 -2.5001181913730601 0.00012327656446547321 3.2452800230453605e-05 0.00012327656446547321 -2.4999468457635992 -0.00013104717112133457 3.2452800230453605e-05 -0.00013104717112133457 -10.000491107429637 -2.5002421083819089 -2.4165359139410339e-05 5.7906957246879918e-05 -2.4165359139410339e-05 -2.5002464964288964 -0.00018742576047969762 5.7906957246879918e-05 -0.00018742576047969762 -10.000468485101782 -2.5000131772420566 5.0327712572904177e-06 -0.00029398525715649355 5.0327712572904177e-06 -2.5001078326307389 -0.00024928530996032533 -0.00029398525715649355 -0.00024928530996032533 -10.000044993422266 -2.4999365743034723 -5.7969610120275191e-05 -0.00039580725727243754 -5.7969610120275191e-05 -2.4997037376716493 -2.5527399732819776e-05 -0.00039580725727243754 -2.5527399732819776e-05 -10.000054208153584 -2.4999339467554536 2.6498947295055131e-06 -3.3913166336411549e-05 2.6498947295055131e-06 -2.4997400951133559 -0.00019909478222287613 -3.3913166336411549e-05 -0.00019909478222287613 -9.999932684594949 -2.4999088410585175 -2.7294555915299525e-05 -0.00015633840151307865 -2.7294555915299525e-05 -2.4996603062391722 -0.00012341179455388485 -0.00015633840151307865 -0.00012341179455388485 -9.9997444101539052 -2.4998485566531734 -1.0800899773097384e-06 -7.3496787777203702e-05 -1.0800899773097384e-06 -2.4996655161656385 -6.515031765541579e-05 -7.3496787777203702e-05 -6.515031765541579e-05 -9.9998660201129006 -2.4997544207724189 5.9267346231252612e-06 -1.5173693917125419e-05 5.9267346231252612e-06 -2.4997818456498422 3.9214063318304682e-05 -1.5173693917125419e-05 3.9214063318304682e-05 -9.9999455321588329 -2.499887832759887 -3.8333307916204253e-05 -5.822883125028433e-05 -3.8333307916204253e-05 -2.4997424252473914 4.279412042462738e-05 -5.822883125028433e-05 4.279412042462738e-05 -9.9999776232207047 -2.4998112780850774 -9.1182918910594557e-06 -3.0073350533399434e-05 -9.1182918910594557e-06 -2.4998312276731549 -8.9938742504624969e-06 -3.0073350533399434e-05 -8.9938742504624969e-06 -10.000024364052598 -2.4999311038288852 -1.1797794200216208e-05 -6.7814249966602347e-06 -1.1797794200216208e-05 -2.4998222172672167 1.6914899413134066e-05 -6.7814249966602347e-06 1.6914899413134066e-05 -10.000025585459795 -2.4998162995555449 6.2986507543050566e-06 -2.759848737809989e-05 6.2986507543050566e-06 -2.4998122852988152 -3.6029883233368309e-05 -2.759848737809989e-05 -3.6029883233368309e-05 -10.000003295905895 -2.4998627827988691 -3.4300743140837923e-05 -4.0728161761927062e-05 -3.4300743140837923e-05 -2.4998264567196826 -2.8845272760147367e-05 -4.0728161761927062e-05 -2.8845272760147367e-05 -10.000028978452381 -2.4999100952142004 -3.7242886956611943e-05 -2.1439041296034134e-05 -3.7242886956611943e-05 -2.4997205331151569 8.1925547797068177e-05 -2.1439041296034134e-05 8.1925547797068177e-05 -9.9999285360972614 -2.4998126466826234 1.7884021157990094e-08 -1.1775021219406767e-05 1.7884021157990094e-08 -2.4998062928873042 1.4179164852468062e-05 -1.1775021219406767e-05 1.4179164852468062e-05 -9.9999659613704388 -2.4997881073659283 3.4967136529286634e-05 -1.2926496304022095e-05 3.4967136529286634e-05 -2.4997657698012947 2.2676245555963703e-05 -1.2926496304022095e-05 2.2676245555963703e-05 -9.9999550765749028 -2.4997941134808022 1.518910081754609e-05 -1.1346532061029535e-05 1.518910081754609e-05 -2.4997997481468426 4.8690152214536653e-06 -1.1346532061029535e-05 4.8690152214536653e-06 -10.000003160316881 -2.4998326071928183 -1.6504501667991846e-05 -1.3622938105584126e-05 -1.6504501667991846e-05 -2.4996991763414806 7.9036377170993433e-05 -1.3622938105584126e-05 7.9036377170993433e-05 -9.9999159928566748 -2.4998754486277601 0.00018326543938775828 -1.3104195417668052e-07 0.00018326543938775828 -2.5000175357693042 6.3066926266230894e-05 -1.3104195417668052e-07 6.3066926266230894e-05 -10.000011305643815 -2.4998867581830164 3.6212025970707435e-05 -8.0350334958456671e-05 3.6212025970707435e-05 -2.499908642146532 -2.5886881154235653e-05 -8.0350334958456671e-05 -2.5886881154235653e-05 -10.000001951555024 -2.499910317283792 2.5951807477187541e-05 -3.6312094978674381e-05 2.5951807477187541e-05 -2.4999273776830213 7.8569833683594936e-06 -3.6312094978674381e-05 7.8569833683594936e-06 -10.000023337241037 -2.4998038123866464 -8.663021452650549e-05 3.2495663021880894e-05 -8.663021452650549e-05 -2.4998628664039582 2.3815185270947836e-05 3.2495663021880894e-05 2.3815185270947836e-05 -10.000047656076401 -2.4999011435403666 -3.0664691161038019e-05 6.0449558761277444e-05 -3.0664691161038019e-05 -2.4998706619167637 2.8285393112170709e-06 6.0449558761277444e-05 2.8285393112170709e-06 -10.000081318805478 -2.499844198317299 -4.330983637628785e-05 -2.3249225622912206e-05 -4.330983637628785e-05 -2.4997968766828143 -5.8975183792497887e-05 -2.3249225622912206e-05 -5.8975183792497887e-05 -9.999995935259399 -2.4997957207926929 -3.7636855880381267e-05 -6.0830133414846443e-05 -3.7636855880381267e-05 -2.4998385758000543 -2.0575984109205692e-05 -6.0830133414846443e-05 -2.0575984109205692e-05 -9.9999825677509406 -2.499788105202696 -2.4876779257336834e-05 -2.7227117128880707e-05 -2.4876779257336834e-05 -2.4998201006175425 -7.4129556887125858e-05 -2.7227117128880707e-05 -7.4129556887125858e-05 -9.9999953272042568 -2.4997296678118799 3.3923424913110143e-05 -6.1928052481619034e-06 3.3923424913110143e-05 -2.4996966530519162 -6.6168770777252917e-05 -6.1928052481619034e-06 -6.6168770777252917e-05 -9.9999843585164001 -2.4998396230834565 9.4571495744747661e-05 -5.5991818024736517e-05 9.4571495744747661e-05 -2.4997761197628279 -1.8698009985662623e-05 -5.5991818024736517e-05 -1.8698009985662623e-05 -9.9999924496122521 -2.4997618821966041 -2.4332431597366363e-05 4.8451771057500537e-06 -2.4332431597366363e-05 -2.4997808530122096 3.9817584909229709e-06 4.8451771057500537e-06 3.9817584909229709e-06 -9.9998676520673691 -2.4996947637617351 0.00015973991908380377 2.3662962023607292e-05 0.00015973991908380377 -2.4996886062084704 1.6966540858476264e-05 2.3662962023607292e-05 1.6966540858476264e-05 -9.9999093210168031 -2.4997898148868236 9.8001229979525697e-06 8.3330389166746954e-06 9.8001229979525697e-06 -2.4997999287531156 -2.3247635795531352e-05 8.3330389166746954e-06 -2.3247635795531352e-05 -9.999956964076393 -2.4998475265454774 1.05630808654882e-05 1.5599934054977282e-05 1.05630808654882e-05 -2.4998076960895297 -3.9860749362130576e-05 1.5599934054977282e-05 -3.9860749362130576e-05 -9.9999894082692435 -2.4998286663816476 -2.0274352796762523e-05 -8.5121281166999907e-06 -2.0274352796762523e-05 -2.49981670467219 -4.0552690980355521e-05 -8.5121281166999907e-06 -4.0552690980355521e-05 -9.9999811797718792 -2.4997550256107282 3.9557588162206575e-05 3.0177576983980714e-05 3.9557588162206575e-05 -2.4997720030762389 -1.3934781641466998e-05 3.0177576983980714e-05 -1.3934781641466998e-05 -9.999951802676037 -2.4998139850520666 -5.7646425259111184e-06 1.0720326454771723e-05 -5.7646425259111184e-06 -2.4999112397252525 1.5284883248423142e-05 1.0720326454771723e-05 1.5284883248423142e-05 -10.00000269091613 -2.4998045068370578 -1.8910930947337306e-06 2.1302778165033232e-05 -1.8910930947337306e-06 -2.4998197697063125 -1.3810776152922699e-05 2.1302778165033232e-05 -1.3810776152922699e-05 -9.9999678475419245 -2.4997170972453002 -2.8271125604005154e-05 7.275553609531471e-05 -2.8271125604005154e-05 -2.4998993340461766 3.6170184700701213e-06 7.275553609531471e-05 3.6170184700701213e-06 -9.9999128278935743 -2.4998107106733349 3.8748364472036796e-06 -3.9362896690597893e-05 3.8748364472036796e-06 -2.4998119416159628 -3.6465344052771798e-05 -3.9362896690597893e-05 -3.6465344052771798e-05 -10.000001717709337 -2.499724590649691 -2.4134007976633303e-05 5.2041730923324536e-05 -2.4134007976633303e-05 -2.499847148667953 -1.3213422993541002e-05 5.2041730923324536e-05 -1.3213422993541002e-05 -9.9999357853559321 -2.5000065792978856 0.00017279159729281806 6.9248079604733448e-05 0.00017279159729281806 -2.4998638538032876 9.8199385334396538e-07 6.9248079604733448e-05 9.8199385334396538e-07 -10.000006491188676 -2.4998972023456281 -1.6801422947804567e-05 -2.8372405182164329e-05 -1.6801422947804567e-05 -2.4998781436615314 5.3558902808337194e-06 -2.8372405182164329e-05 5.3558902808337194e-06 -10.00004682791768 -2.4998571044570355 -1.302772126337755e-06 2.0666761461285432e-05 -1.302772126337755e-06 -2.4998657673490809 9.7199923707602665e-06 2.0666761461285432e-05 9.7199923707602665e-06 -10.000045254728196 -2.4998504900636718 -1.3610919280466553e-05 2.0915069680826903e-05 -1.3610919280466553e-05 -2.4998719035752206 -1.3897543338137197e-05 2.0915069680826903e-05 -1.3897543338137197e-05 -9.9999735426890624 -2.4998865909326806 -5.5407651672082758e-05 -9.1806024493656935e-07 -5.5407651672082758e-05 -2.4999044590058528 2.8805296343747955e-06 -9.1806024493656935e-07 2.8805296343747955e-06 -10.000033237449438 -2.4998261292576873 -3.6137249873031733e-05 1.1028277327351788e-05 -3.6137249873031733e-05 -2.4998404315665765 -1.3103334157715807e-05 1.1028277327351788e-05 -1.3103334157715807e-05 -9.9999815328650339 -2.4998636933545018 -4.0169453294012319e-05 4.0851485955784028e-05 -4.0169453294012319e-05 -2.4998705579220766 1.3384106586356026e-06 4.0851485955784028e-05 1.3384106586356026e-06 -10.000004632574285 -2.4998589113319256 -3.4834473941819742e-07 1.3625882492984687e-05 -3.4834473941819742e-07 -2.4998494944578069 8.4257011234711854e-06 1.3625882492984687e-05 8.4257011234711854e-06 -10.000016517131701 -2.4998671398277246 1.2696272458860886e-07 1.0981521401554062e-05 1.2696272458860886e-07 -2.4998604751857538 1.9393850701376891e-05 1.0981521401554062e-05 1.9393850701376891e-05 -10.000046369577248 -2.4998376615212967 5.0976649870156706e-06 1.5967361578494987e-06 5.0976649870156706e-06 -2.4998451095368406 -4.5600701170656066e-07 1.5967361578494987e-06 -4.5600701170656066e-07 -10.000010741405386 -2.4998420843421574 3.6581365214351102e-07 9.0451129626245574e-06 3.6581365214351102e-07 -2.499859776241526 8.7229275207434398e-06 9.0451129626245574e-06 8.7229275207434398e-06 -10.0000209210446 -2.4999377965637275 5.2901956097731416e-05 1.7236614923143989e-05 5.2901956097731416e-05 -2.4999143437372418 -4.1508348898933178e-05 1.7236614923143989e-05 -4.1508348898933178e-05 -9.9997847458387668 -2.4998319313437047 7.8147274947169051e-07 -6.2828667892755874e-06 7.8147274947169051e-07 -2.4998824190824589 -3.8035126310731471e-06 -6.2828667892755874e-06 -3.8035126310731471e-06 -9.9998612112439567 -2.4999396259532709 8.1150044850261821e-06 5.9890999185574501e-06 8.1150044850261821e-06 -2.4998648031877093 -7.5981271883129864e-06 5.9890999185574501e-06 -7.5981271883129864e-06 -9.9998610748977175 -2.4997891733242668 -3.7096879233046123e-05 -4.5651407272195854e-06 -3.7096879233046123e-05 -2.4998094799306552 -2.4366913708995241e-07 -4.5651407272195854e-06 -2.4366913708995241e-07 -9.999840487949708 -2.5002490371478174 -8.5970789372275346e-08 0.00020457346940368367 -8.5970789372275346e-08 -2.5002484341055649 0.00088383538958785668 0.00020457346940368367 0.00088383538958785668 -10.001025129194947 -2.4999536051430096 3.0533167112350854e-05 -0.00023088471687985506 3.0533167112350854e-05 -2.4999822121917639 -9.3551513988648124e-05 -0.00023088471687985506 -9.3551513988648124e-05 -9.9999229549539113 -2.4998939800454374 -4.0414545561093199e-06 3.2219946132662204e-05 -4.0414545561093199e-06 -2.4999368626651606 3.4248467596367837e-05 3.2219946132662204e-05 3.4248467596367837e-05 -9.9995639890279442 -2.4998821441296677 -5.6347912298975738e-05 -0.00012237189398822679 -5.6347912298975738e-05 -2.4999334776185727 -0.0001280364377671539 -0.00012237189398822679 -0.0001280364377671539 -10.000164566182004 -2.5000258754868434 -0.00012654810618115036 -6.0388451999182635e-05 -0.00012654810618115036 -2.5000339009814008 -7.0888182159611901e-05 -6.0388451999182635e-05 -7.0888182159611901e-05 -10.000225124898911 -2.5000241640144329 2.2224410995703155e-05 -5.8870903978456256e-05 2.2224410995703155e-05 -2.4999777414612834 -0.00016510151722716698 -5.8870903978456256e-05 -0.00016510151722716698 -9.999981994006486 -2.5001155653059244 4.1091599354780591e-06 -0.00018784750142071538 4.1091599354780591e-06 -2.5000231220115965 -0.00021311437614002319 -0.00018784750142071538 -0.00021311437614002319 -10.000080070145705 -2.4997018986415487 -5.4063681945810206e-05 -6.3755512827483795e-07 -5.4063681945810206e-05 -2.4999401065670233 -0.00029234151729307561 -6.3755512827483795e-07 -0.00029234151729307561 -10.00006959791839 -2.4997782255997052 -6.3585743367515627e-06 -1.3802841697524437e-05 -6.3585743367515627e-06 -2.4997885809297946 -3.6704148090649369e-05 -1.3802841697524437e-05 -3.6704148090649369e-05 -9.9999597628768555 -2.5002219679058202 -2.4287374335412134e-05 -0.00014535033726373672 -2.4287374335412134e-05 -2.5002196917923643 8.8146493231529722e-06 -0.00014535033726373672 8.8146493231529722e-06 -10.000375326967717 -2.4997730115767247 6.1573758291548529e-06 -3.6296413732372912e-05 6.1573758291548529e-06 -2.4998658899132322 -0.00013032183733896474 -3.6296413732372912e-05 -0.00013032183733896474 -10.0002004262175 -2.4996330386274512 -3.4024273216718751e-05 0.00010752222411708023 -3.4024273216718751e-05 -2.4999435750211543 -0.00020498432198777234 0.00010752222411708023 -0.00020498432198777234 -9.9999643067754125 -2.4997068227345447 -4.1697973407137837e-05 2.4350738372591607e-05 -4.1697973407137837e-05 -2.4998967925415037 -0.00027181651607399715 2.4350738372591607e-05 -0.00027181651607399715 -10.000117828813442 -2.4998731959949505 5.4411648292486308e-05 -9.0321208646937379e-05 5.4411648292486308e-05 -2.5001311824818919 1.7613052008536023e-05 -9.0321208646937379e-05 1.7613052008536023e-05 -10.000411116195405 -2.4998231821552523 1.2236226437627893e-06 2.687232131659556e-05 1.2236226437627893e-06 -2.4997957955629273 -4.4999049779503864e-05 2.687232131659556e-05 -4.4999049779503864e-05 -9.9999737216994848 -2.4996653759768934 -9.4583085046625611e-06 -9.8542436215431906e-05 -9.4583085046625611e-06 -2.4998511408963999 -7.4214927296090138e-05 -9.8542436215431906e-05 -7.4214927296090138e-05 -9.999769540888046 -2.4997625764975178 -4.521178378617035e-05 1.8897721671073953e-05 -4.521178378617035e-05 -2.4999017452606012 -5.9272572299207127e-05 1.8897721671073953e-05 -5.9272572299207127e-05 -9.9999853091964255 -2.4996698129840791 -1.8325138152508366e-05 -0.00010945542663454155 -1.8325138152508366e-05 -2.4999146427854635 -7.447663178217212e-05 -0.00010945542663454155 -7.447663178217212e-05 -9.9997641481679835 -2.4995646958765514 5.553025678985749e-05 6.5202365879994477e-06 5.553025678985749e-05 -2.4997892715781997 0.00036973040692028124 6.5202365879994477e-06 0.00036973040692028124 -9.9994586526822093 -2.4995500079102886 3.4745337007195154e-05 -2.1483148689549481e-05 3.4745337007195154e-05 -2.4997773710486082 5.9537656242447667e-05 -2.1483148689549481e-05 5.9537656242447667e-05 -9.9995514005395165 -2.4996427444707647 3.3378492698463481e-06 -0.00024025252522807961 3.3378492698463481e-06 -2.4998075862816931 5.2419641074719081e-05 -0.00024025252522807961 5.2419641074719081e-05 -9.9996001110876716 -2.4996991113981739 3.2379549363911915e-05 -6.3381843500853741e-05 3.2379549363911915e-05 -2.49992541126867 2.2428113497729996e-05 -6.3381843500853741e-05 2.2428113497729996e-05 -10.000131357011234 -2.4998109111542606 6.5394606907904796e-05 5.6640738420488113e-05 6.5394606907904796e-05 -2.4998710994218074 9.8955566861569366e-05 5.6640738420488113e-05 9.8955566861569366e-05 -10.000031838641664 -2.4999718146750149 -4.085296021273118e-05 5.9066259187723347e-05 -4.085296021273118e-05 -2.4999502981757762 0.0001594338222035141 5.9066259187723347e-05 0.0001594338222035141 -9.9999573476668093 -2.4997331473175795 1.9879452202298743e-06 -0.00017293551525060828 1.9879452202298743e-06 -2.4999253617834407 9.7301717089541334e-06 -0.00017293551525060828 9.7301717089541334e-06 -9.9998966135993204 -2.4995917562075971 1.1801807610064701e-05 0.00018431997359646957 1.1801807610064701e-05 -2.4997419306377373 0.00011328623998574372 0.00018431997359646957 0.00011328623998574372 -9.9997465606865745 -2.4996135698614226 3.3919606016955176e-05 0.00017826700133150773 3.3919606016955176e-05 -2.4999142746418079 0.00018817566555798595 0.00017826700133150773 0.00018817566555798595 -9.9998371735712475 -2.499808275465119 -3.1423290044003443e-05 -1.6354231426429777e-05 -3.1423290044003443e-05 -2.5001163356720482 -3.7099615660451946e-05 -1.6354231426429777e-05 -3.7099615660451946e-05 -10.000317530814268 -2.5002026628193312 -5.3001041040752359e-06 -0.00025086630909211842 -5.3001041040752359e-06 -2.5001108775959073 0.00028775803450991152 -0.00025086630909211842 0.00028775803450991152 -10.000440305349681 -2.5001963978983395 2.290236096647389e-05 -0.00021063925645573223 2.290236096647389e-05 -2.5001968568258675 1.4053848199866445e-05 -0.00021063925645573223 1.4053848199866445e-05 -10.000284242919973 -2.4998431919547093 6.7717966552855252e-05 -0.00033704048968452582 6.7717966552855252e-05 -2.4999932205169975 0.000266152167861744 -0.00033704048968452582 0.000266152167861744 -10.000312813252272 -2.4998519704615512 6.0390658363000208e-05 2.4751783969101382e-05 6.0390658363000208e-05 -2.4998556752871273 7.364319103597694e-05 2.4751783969101382e-05 7.364319103597694e-05 -10.000052338255426 -2.4997711333151664 -3.6089410405634335e-05 5.9898594586105247e-05 -3.6089410405634335e-05 -2.4997677484206862 -3.3245614185606343e-05 5.9898594586105247e-05 -3.3245614185606343e-05 -9.9999880350632129 -2.4997914033603106 8.462998484538409e-06 -4.8369501294942552e-05 8.462998484538409e-06 -2.4998912372626756 3.3611152594259508e-05 -4.8369501294942552e-05 3.3611152594259508e-05 -10.000322567870594 -2.4998126883616183 -7.0810508831379153e-06 1.9938623660120669e-05 -7.0810508831379153e-06 -2.499836782308003 1.7955657571011585e-05 1.9938623660120669e-05 1.7955657571011585e-05 -9.999995637885851 -2.4997315964789704 -1.0135661129908068e-05 8.577828560829559e-05 -1.0135661129908068e-05 -2.4998092872792843 2.8189239859699455e-05 8.577828560829559e-05 2.8189239859699455e-05 -9.9998895123601077 -2.4998161700174659 -2.5331895593836277e-06 1.0296367211393154e-05 -2.5331895593836277e-06 -2.4998321808780242 3.9525217516711564e-06 1.0296367211393154e-05 3.9525217516711564e-06 -10.000055825341612 -2.4998055103836401 1.5966627839244565e-06 1.9431352552778947e-05 1.5966627839244565e-06 -2.4998188909931263 1.2418092381949464e-05 1.9431352552778947e-05 1.2418092381949464e-05 -10.000004278927959 -2.4998486182995805 1.8164337645095799e-05 -1.4670961791196646e-05 1.8164337645095799e-05 -2.4998388947865013 2.5791656463880486e-05 -1.4670961791196646e-05 2.5791656463880486e-05 -10.000011780211523 -2.4997756648135869 7.7447086524748201e-05 3.3576373228871859e-05 7.7447086524748201e-05 -2.4998198984632811 6.0007438055897921e-05 3.3576373228871859e-05 6.0007438055897921e-05 -9.9999439832998434 -2.4998816666902406 1.3117753426967658e-05 -7.4243686873920467e-06 1.3117753426967658e-05 -2.4999024630244944 7.2349070543875627e-05 -7.4243686873920467e-06 7.2349070543875627e-05 -10.000118361920967 -2.5000265736480909 -4.5825357235133133e-05 0.00020838523193766889 -4.5825357235133133e-05 -2.4998757818316264 1.9276254388245206e-06 0.00020838523193766889 1.9276254388245206e-06 -10.000011512499732 -2.4998011557891671 -1.153605309399931e-05 -2.3643022677433123e-05 -1.153605309399931e-05 -2.4998248704845984 1.6316166384200415e-05 -2.3643022677433123e-05 1.6316166384200415e-05 -10.000013943448437 -2.4998642102654567 1.0591005278977424e-05 1.0043524916847346e-05 1.0591005278977424e-05 -2.4998566024722222 6.6679115645618126e-06 1.0043524916847346e-05 6.6679115645618126e-06 -10.000072189062809 -2.4998121520682322 2.3235632903620887e-05 -2.94139944934102e-05 2.3235632903620887e-05 -2.4998213641477083 -1.8082956510845349e-05 -2.94139944934102e-05 -1.8082956510845349e-05 -9.9999844534351503 -2.4999252034841208 -3.6270362839045447e-05 1.7579344739337976e-05 -3.6270362839045447e-05 -2.499945740893708 1.1579683390716689e-05 1.7579344739337976e-05 1.1579683390716689e-05 -10.000099777511126 -2.499850123033434 3.0909001982436098e-05 -5.6711738640746745e-06 3.0909001982436098e-05 -2.4998808641537793 -3.5066900707647619e-06 -5.6711738640746745e-06 -3.5066900707647619e-06 -10.000064526434594 -2.4997211975634333 -1.4962376476376993e-05 8.4831580178246213e-06 -1.4962376476376993e-05 -2.499727186938526 -1.4150912515553671e-05 8.4831580178246213e-06 -1.4150912515553671e-05 -10.00001439751501 -2.4998205407736438 -1.8343230185995953e-05 -4.2793959860176756e-05 -1.8343230185995953e-05 -2.4997524254229311 1.0737470859112364e-05 -4.2793959860176756e-05 1.0737470859112364e-05 -9.9999555766730666 -2.4997384582125894 -4.212983171945919e-05 9.4514247859223133e-06 -4.212983171945919e-05 -2.4997970407052907 7.5172853986060773e-06 9.4514247859223133e-06 7.5172853986060773e-06 -10.000033908793718 -2.4997630565604014 2.7496758607450209e-05 1.7429645641442448e-05 2.7496758607450209e-05 -2.499762701939912 -5.7752084536843995e-06 1.7429645641442448e-05 -5.7752084536843995e-06 -9.9999221541295356 -2.4997436647858899 6.9303012170794195e-06 2.5816599222849845e-06 6.9303012170794195e-06 -2.4997488299468023 -3.209297648520959e-06 2.5816599222849845e-06 -3.209297648520959e-06 -9.9999730377643878 -2.4997640310290716 -2.8705326273800055e-05 -1.4266128522955057e-06 -2.8705326273800055e-05 -2.4998486704266645 7.1073544933852872e-05 -1.4266128522955057e-06 7.1073544933852872e-05 -9.9999699910950781 -2.499816620698589 4.182049132334185e-05 1.2230662511214518e-05 4.182049132334185e-05 -2.4998238215529747 4.1679560976781715e-05 1.2230662511214518e-05 4.1679560976781715e-05 -9.9999797262224774 -2.4998504235800514 -6.2973484966842856e-05 -4.5649004001280247e-05 -6.2973484966842856e-05 -2.4998723188134289 7.2635390142128387e-05 -4.5649004001280247e-05 7.2635390142128387e-05 -9.9999636251677604 -2.499752104974327 -0.00013375862917561684 -6.0973874003167339e-06 -0.00013375862917561684 -2.499719581225933 -5.6462663184930761e-06 -6.0973874003167339e-06 -5.6462663184930761e-06 -9.9998914990651127 -2.4997554747262654 -2.2943243282783879e-05 5.7910989856857498e-06 -2.2943243282783879e-05 -2.4997586367731421 -6.3616089164941769e-05 5.7910989856857498e-06 -6.3616089164941769e-05 -9.9999938507457138 -2.4997784687843785 -3.5259578500270036e-05 8.0704150852817236e-05 -3.5259578500270036e-05 -2.4997594881065943 -5.5024028376315925e-05 8.0704150852817236e-05 -5.5024028376315925e-05 -9.9999644287031799 -2.4998038575633519 8.2627860442146319e-06 1.8443711242710492e-05 8.2627860442146319e-06 -2.4997667789691675 -9.4918225002071921e-05 1.8443711242710492e-05 -9.4918225002071921e-05 -9.9999874968434135 -2.4998632215340701 -8.4854020982534826e-05 4.0924026349031806e-05 -8.4854020982534826e-05 -2.4998023274931573 -0.00011366992759942462 4.0924026349031806e-05 -0.00011366992759942462 -9.9999906725429835 -2.4998536190952354 -3.5726619017776587e-06 -9.4672634899262142e-05 -3.5726619017776587e-06 -2.4997938885902729 4.2434685052938903e-05 -9.4672634899262142e-05 4.2434685052938903e-05 -10.000213804223176 -2.4997777989479766 2.7102576160964193e-05 4.7306011394354641e-05 2.7102576160964193e-05 -2.49975788255519 -4.9593397724922994e-05 4.7306011394354641e-05 -4.9593397724922994e-05 -9.9995938984930977 -2.5001149851711206 5.5757335662819839e-06 -5.8578514906093559e-05 5.5757335662819839e-06 -2.4997857187214665 6.4783024035897085e-05 -5.8578514906093559e-05 6.4783024035897085e-05 -10.000260106429124 -2.4998845701053973 -3.9669870464762434e-05 4.5891792712193791e-05 -3.9669870464762434e-05 -2.4999346419315298 -0.00010577654398602476 4.5891792712193791e-05 -0.00010577654398602476 -10.000019176537805 -2.4997923379372473 -5.9531693410991938e-05 -4.4050526812444701e-05 -5.9531693410991938e-05 -2.4997921705381247 5.1220171457533326e-05 -4.4050526812444701e-05 5.1220171457533326e-05 -10.000211238155543 -2.499837750613993 8.7092343372248372e-08 8.0918442170174743e-05 8.7092343372248372e-08 -2.4998164933704965 -5.5967686391600324e-05 8.0918442170174743e-05 -5.5967686391600324e-05 -9.9999859978743419 -2.4996599283160155 -8.1483234769419094e-05 9.5981968619707203e-05 -8.1483234769419094e-05 -2.499656632489843 -0.00010657963825799754 9.5981968619707203e-05 -0.00010657963825799754 -9.9998071719640631 -2.4998462790808764 -3.3374616842502406e-05 -3.4228705245252955e-05 -3.3374616842502406e-05 -2.5001247522491878 -4.1518116117193488e-05 -3.4228705245252955e-05 -4.1518116117193488e-05 -10.000336452070327 -2.4996794139109748 -6.6839867456511436e-05 3.91275470221251e-05 -6.6839867456511436e-05 -2.4996727966738685 -0.00016177335438887224 3.91275470221251e-05 -0.00016177335438887224 -9.9999663317259113 -2.4997643777453256 -3.9599941854037373e-05 -1.9800408106451783e-05 -3.9599941854037373e-05 -2.499843733831502 6.4890316156973604e-05 -1.9800408106451783e-05 6.4890316156973604e-05 -10.000191478345947 -2.4997742669109817 -1.9574959729769427e-05 -1.688568104640277e-05 -1.9574959729769427e-05 -2.4998510801397908 8.3760584327130516e-05 -1.688568104640277e-05 8.3760584327130516e-05 -10.000173452237551 -2.4997574871818196 -2.1939927705324657e-05 8.2508728700858569e-05 -2.1939927705324657e-05 -2.4997998004133324 -4.1144891251398974e-05 8.2508728700858569e-05 -4.1144891251398974e-05 -9.9999728578350879 -2.5001646047043398 2.4332262119311882e-05 -0.00010252508328141362 2.4332262119311882e-05 -2.5001731384519661 0.00012073386997247886 -0.00010252508328141362 0.00012073386997247886 -10.000181799191088 -2.4998495779726264 -6.3870414296208881e-06 -9.4034379085616848e-05 -6.3870414296208881e-06 -2.4997764464970751 3.7462756301342992e-05 -9.4034379085616848e-05 3.7462756301342992e-05 -10.000214309968813 -2.4997094443677907 -6.937318617579932e-05 0.00018497560608277141 -6.937318617579932e-05 -2.4996871474668421 -2.7086538183056122e-05 0.00018497560608277141 -2.7086538183056122e-05 -10.000039894313174 -2.5000962985148156 -3.3723485734170648e-05 -1.6175285006491498e-05 -3.3723485734170648e-05 -2.4998135576025824 7.7923155451281194e-05 -1.6175285006491498e-05 7.7923155451281194e-05 -10.000262344614104 -2.4999388030711831 2.4464683511113219e-05 -7.8455407890309914e-05 2.4464683511113219e-05 -2.5001294772354443 0.00013283307394518218 -7.8455407890309914e-05 0.00013283307394518218 -10.000160568071784 -2.4998554845229179 2.7635214324843889e-05 -7.4200166920057598e-05 2.7635214324843889e-05 -2.4998312210322675 -2.3951061768334725e-05 -7.4200166920057598e-05 -2.3951061768334725e-05 -10.000057824678436 -2.499872829595104 -2.0074937622551907e-05 -4.4332446990313912e-05 -2.0074937622551907e-05 -2.4997413901277055 7.8604635132206724e-05 -4.4332446990313912e-05 7.8604635132206724e-05 -10.000224822068166 -2.4998727788362416 1.8638015235553226e-05 -7.7170705784279647e-05 1.8638015235553226e-05 -2.4996926014806373 4.764765971332352e-05 -7.7170705784279647e-05 4.764765971332352e-05 -10.000180714409545 -2.4998890900585176 5.8343085100200141e-05 -0.00023697525170707223 5.8343085100200141e-05 -2.4996602557871355 0.00011096908020524765 -0.00023697525170707223 0.00011096908020524765 -9.9998747712267591 -2.49999090020337 -4.0261507162965395e-06 -0.00020387033443940671 -4.0261507162965395e-06 -2.5000832026317923 0.00017862334343541182 -0.00020387033443940671 0.00017862334343541182 -9.9999469383768993 -2.4999036704395463 3.2688256457917629e-05 -0.0002139579359341393 3.2688256457917629e-05 -2.4995925444059446 -0.00011244518599234579 -0.0002139579359341393 -0.00011244518599234579 -9.9998159387487746 -2.4997939401965752 5.4114918429844116e-05 -0.00028509644425154905 5.4114918429844116e-05 -2.4995528845381005 -4.0102459612537133e-05 -0.00028509644425154905 -4.0102459612537133e-05 -9.9994813529253701 -2.4997586664018208 9.6944969665393782e-06 -0.00013114055161578264 9.6944969665393782e-06 -2.4995527695477353 -0.00014114516449437176 -0.00013114055161578264 -0.00014114516449437176 -9.9996971116526154 -2.4998582634851223 5.6586807331522506e-05 -0.000104149715697055 5.6586807331522506e-05 -2.4997706497755541 -4.0325493950277291e-05 -0.000104149715697055 -4.0325493950277291e-05 -10.00005762317279 -2.4998257994280424 1.3282965499791207e-05 -3.8427443747046652e-05 1.3282965499791207e-05 -2.4998447191400492 2.1695096282581261e-05 -3.8427443747046652e-05 2.1695096282581261e-05 -9.999968835205042 -2.4997923794479417 5.1588124215191973e-05 -5.3631841661960777e-05 5.1588124215191973e-05 -2.499737185772867 -5.3143941062039346e-05 -5.3631841661960777e-05 -5.3143941062039346e-05 -9.9998735216664763 -2.4998667580837672 1.3256494677150786e-05 -7.0476385063633629e-05 1.3256494677150786e-05 -2.4998652335937743 2.1428292517389202e-05 -7.0476385063633629e-05 2.1428292517389202e-05 -10.000067113537026 -2.4998118892607422 -2.0534065488414147e-06 -3.4916230059245379e-05 -2.0534065488414147e-06 -2.4998038757328782 -1.4915822923344813e-05 -3.4916230059245379e-05 -1.4915822923344813e-05 -9.9999530895407815 -2.4998200048717343 -7.2410797909741961e-06 -2.6244003665354398e-05 -7.2410797909741961e-06 -2.4997996526107813 -1.2404956723388594e-05 -2.6244003665354398e-05 -1.2404956723388594e-05 -9.9999950706315115 -2.4997880836724784 -3.6750317364351974e-05 -1.2952556119216752e-05 -3.6750317364351974e-05 -2.4997247467859891 -3.2418885696827715e-05 -1.2952556119216752e-05 -3.2418885696827715e-05 -9.9999650848620547 -2.4998234179843792 -5.8665602093634507e-06 -2.5493703512680099e-05 -5.8665602093634507e-06 -2.499809119952308 2.9376031869254859e-05 -2.5493703512680099e-05 2.9376031869254859e-05 -10.000015113111459 -2.499908620473605 -0.00020066446803586636 -2.1863450005099594e-05 -0.00020066446803586636 -2.499912132997721 -6.6911297525784619e-05 -2.1863450005099594e-05 -6.6911297525784619e-05 -10.000026689262473 -2.499907321748946 -0.00022639496014504102 -3.9552879386839379e-05 -0.00022639496014504102 -2.4998838461293174 -4.281995535793115e-05 -3.9552879386839379e-05 -4.281995535793115e-05 -9.999988425311777 -2.499845945446475 2.2639036545491191e-06 1.0187514731363478e-05 2.2639036545491191e-06 -2.4998543909457327 -1.0288800037283607e-05 1.0187514731363478e-05 -1.0288800037283607e-05 -10.000045393438896 -2.4998685331617598 3.3460021563787514e-05 -7.5656851996619423e-05 3.3460021563787514e-05 -2.4998624310227169 2.9935588351515108e-05 -7.5656851996619423e-05 2.9935588351515108e-05 -10.000072131534184 -2.4998016297567558 1.4679279837760162e-05 -3.240224562528482e-05 1.4679279837760162e-05 -2.4998203958806569 -3.0047350041639831e-05 -3.240224562528482e-05 -3.0047350041639831e-05 -9.9999575872258699 -2.4998069281710085 7.4876399556080556e-06 -3.553380405030282e-05 7.4876399556080556e-06 -2.4997923686309442 -2.735832091271817e-05 -3.553380405030282e-05 -2.735832091271817e-05 -9.999953204728584 -2.4998385450770546 1.6155359185038751e-05 6.4808777122671302e-07 1.6155359185038751e-05 -2.4998272801742405 -4.3679833988008454e-05 6.4808777122671302e-07 -4.3679833988008454e-05 -10.000045789251855 -2.499844891306108 -5.6447801431056769e-06 -8.1784469871948318e-06 -5.6447801431056769e-06 -2.4998354897733481 4.7997770336039025e-06 -8.1784469871948318e-06 4.7997770336039025e-06 -10.000035319217883 -2.4999058015375706 5.2234097651582419e-05 -9.9448008718638903e-05 5.2234097651582419e-05 -2.4998614307632367 5.6295186462662627e-05 -9.9448008718638903e-05 5.6295186462662627e-05 -10.000030560597789 -2.4998680863655136 -2.6625347701314453e-05 1.2339480182532725e-05 -2.6625347701314453e-05 -2.499939726772415 3.0653831870619541e-05 1.2339480182532725e-05 3.0653831870619541e-05 -9.9999117517560983 -2.4998666450231442 3.7238693832075532e-05 -7.7689665504809824e-05 3.7238693832075532e-05 -2.4998676571037466 2.4893793388880425e-05 -7.7689665504809824e-05 2.4893793388880425e-05 -10.000052540450591 -2.4999823866802897 -2.999890563678958e-05 -3.3772567543350425e-05 -2.999890563678958e-05 -2.4999529898438886 0.00019696298125641257 -3.3772567543350425e-05 0.00019696298125641257 -9.9999211527923961 -2.4999672874601573 -2.2033810552923978e-05 -0.00013467943515350873 -2.2033810552923978e-05 -2.5000131944139588 -5.8004584938548941e-06 -0.00013467943515350873 -5.8004584938548941e-06 -9.9999356064849199 -2.500014255700151 5.8100714373646647e-06 6.0593637405841983e-05 5.8100714373646647e-06 -2.499969362598446 1.2738275630330502e-05 6.0593637405841983e-05 1.2738275630330502e-05 -9.9998651019602143 -2.4998182022900846 2.1833003134565537e-05 -1.0174227093928678e-05 2.1833003134565537e-05 -2.4998046280576438 -2.3258535176928774e-05 -1.0174227093928678e-05 -2.3258535176928774e-05 -9.9999286972726047 -2.5002293198107459 -7.376181040385956e-08 0.00078357364820505959 -7.376181040385956e-08 -2.5002294063061523 -0.00021052225401253647 0.00078357364820505959 -0.00021052225401253647 -10.000946414553816 -2.5000429144405709 -1.6885775410998304e-05 -0.00011310004107389915 -1.6885775410998304e-05 -2.4998770772847085 -5.0375564963900388e-06 -0.00011310004107389915 -5.0375564963900388e-06 -9.9998740588471318 -2.4998353230990999 -7.8192370691544829e-06 4.7866235284743652e-05 -7.8192370691544829e-06 -2.4998079433007949 -3.5976672232429507e-05 4.7866235284743652e-05 -3.5976672232429507e-05 -9.9998891523096862 -2.5001564483633856 6.5043296085361595e-08 -0.0002126412014185141 6.5043296085361595e-08 -2.5001571612536342 -0.00073316331981500044 -0.0002126412014185141 -0.00073316331981500044 -10.000657934785462 -2.4998633112101185 -4.0481384595506898e-05 8.4390263888067807e-06 -4.0481384595506898e-05 -2.5000632260428337 -5.5108348496535342e-05 8.4390263888067807e-06 -5.5108348496535342e-05 -9.9998754192669956 -2.499814269886055 -6.6168118293585104e-06 -1.6100055370671384e-05 -6.6168118293585104e-06 -2.4998515935381138 3.6108976098958578e-05 -1.6100055370671384e-05 3.6108976098958578e-05 -9.99991735958797 -2.4999784921528119 2.8273496497632468e-05 0.00016046180653885532 2.8273496497632468e-05 -2.5000108216083787 -2.2601336296088602e-05 0.00016046180653885532 -2.2601336296088602e-05 -10.00001181543545 -2.4999786693903689 -5.782121615679247e-06 -2.903034284213688e-05 -5.782121615679247e-06 -2.500024560345512 -5.5291499997933095e-05 -2.903034284213688e-05 -5.5291499997933095e-05 -9.9999048243910149 -2.5000328781992405 2.2814033201666614e-05 -7.5706670215862988e-05 2.2814033201666614e-05 -2.4999908428859285 0.00014101006259044976 -7.5706670215862988e-05 0.00014101006259044976 -10.000034167468941 -2.4999508217794735 1.8155960437770047e-05 -6.6027480831731822e-06 1.8155960437770047e-05 -2.499831080452632 -2.7539562781342397e-05 -6.6027480831731822e-06 -2.7539562781342397e-05 -9.9999556865286419 -2.4998402263907069 -6.6856354672432365e-06 -1.0377216814738688e-05 -6.6856354672432365e-06 -2.499876331623593 2.8953005419829481e-05 -1.0377216814738688e-05 2.8953005419829481e-05 -10.000009098140744 -2.4996956431874455 6.0113713836429635e-05 -7.3468239015994641e-05 6.0113713836429635e-05 -2.4997984480427933 7.7236738524888437e-06 -7.3468239015994641e-05 7.7236738524888437e-06 -9.9999610641856833 -2.4998379735246319 1.0288316519249213e-05 2.2001471228882963e-05 1.0288316519249213e-05 -2.4998533658865911 7.4223578676591018e-06 2.2001471228882963e-05 7.4223578676591018e-06 -10.000058820389803 -2.4998515669837404 -1.661554640901656e-05 4.3141673259583513e-05 -1.661554640901656e-05 -2.4998442667645504 -1.351597880239197e-05 4.3141673259583513e-05 -1.351597880239197e-05 -9.9999459031395919 -2.4998654475111648 -3.4030349355673864e-06 5.0173068660619435e-05 -3.4030349355673864e-06 -2.4998410947346628 -3.4464584042215307e-05 5.0173068660619435e-05 -3.4464584042215307e-05 -10.000043713527299 -2.4998544177309681 1.082789611380482e-05 1.4479097956598963e-05 1.082789611380482e-05 -2.4998311238337614 1.775584788710205e-05 1.4479097956598963e-05 1.775584788710205e-05 -10.00005553208771 -2.4998308448739599 -1.8041116992432496e-06 -9.1878274925960568e-06 -1.8041116992432496e-06 -2.4998806701321077 2.4718957300606803e-05 -9.1878274925960568e-06 2.4718957300606803e-05 -10.000045845879249 -2.4998296233673285 8.1567749383080844e-06 2.2245090993244787e-05 8.1567749383080844e-06 -2.4998229290636971 -3.9624217829103969e-06 2.2245090993244787e-05 -3.9624217829103969e-06 -10.000045718122598 -2.4998370906339984 -5.6475083869408167e-06 3.4817720429014543e-05 -5.6475083869408167e-06 -2.499793530683732 -3.4390904878112138e-05 3.4817720429014543e-05 -3.4390904878112138e-05 -9.9999407245214744 -2.499816069013006 -6.1002979114558009e-05 7.5915089345457432e-05 -6.1002979114558009e-05 -2.4996762665790095 -7.1688497873978463e-05 7.5915089345457432e-05 -7.1688497873978463e-05 -9.9998994908987768 -2.4998603101547907 -1.6615454640680872e-05 4.7088194978783804e-05 -1.6615454640680872e-05 -2.4998314890655209 -4.2910868815609904e-06 4.7088194978783804e-05 -4.2910868815609904e-06 -9.9999903706342135 -2.4998325816268512 -7.758598060534177e-06 2.172582265025369e-05 -7.758598060534177e-06 -2.4998382649151898 3.2492057310817835e-06 2.172582265025369e-05 3.2492057310817835e-06 -10.000048965001152 -2.4998893617318507 -1.3021817413838801e-05 7.1855397477449401e-05 -1.3021817413838801e-05 -2.4998571396041309 -1.8337406928969902e-05 7.1855397477449401e-05 -1.8337406928969902e-05 -10.00007620726908 -2.4998116382184512 2.1975415466239922e-05 2.4237155261896959e-05 2.1975415466239922e-05 -2.4997701061456739 2.4659002813898212e-05 2.4237155261896959e-05 2.4659002813898212e-05 -10.000028500353935 -2.4998642552867962 0.00016151840966672433 3.5007267682907184e-05 0.00016151840966672433 -2.5001303215170192 -2.5049327358916962e-05 3.5007267682907184e-05 -2.5049327358916962e-05 -10.000013617083006 -2.4997744613876183 4.9604406418089464e-05 -9.9833407039007227e-06 4.9604406418089464e-05 -2.499560398439483 -0.00019094796819274507 -9.9833407039007227e-06 -0.00019094796819274507 -9.9999696466841641 -2.4997842740359792 7.0494312373340566e-06 -5.7677112881293624e-06 7.0494312373340566e-06 -2.499716052624914 -7.7784164600913641e-05 -5.7677112881293624e-06 -7.7784164600913641e-05 -9.9998106878765203 -2.5001313644229772 -2.1025752493264968e-05 1.4779562233551628e-05 -2.1025752493264968e-05 -2.5001357854501527 0.0001809913036765812 1.4779562233551628e-05 0.0001809913036765812 -10.000052181656073 -2.4997999140865579 6.3002852848988578e-06 -2.2796045643147522e-05 6.3002852848988578e-06 -2.4998349169227758 -1.1886512667036442e-05 -2.2796045643147522e-05 -1.1886512667036442e-05 -10.000027166373123 -2.499890186577765 -3.0115368065873199e-05 0.00010762978010792068 -3.0115368065873199e-05 -2.4996774078144504 -9.0473165625937213e-07 0.00010762978010792068 -9.0473165625937213e-07 -10.00019196978516 -2.4998218252296449 -7.5899979615261861e-05 0.00017076276286287495 -7.5899979615261861e-05 -2.4997639822791538 0.00042537091232652813 0.00017076276286287495 0.00042537091232652813 -9.9996397117261147 -2.4999906032321815 4.9937568986773702e-06 0.00025919897614504531 4.9937568986773702e-06 -2.5000817008094409 0.00021496530142217608 0.00025919897614504531 0.00021496530142217608 -9.9999543235728954 -2.4998725062001501 -6.3743201212874991e-05 0.00012314713382677311 -6.3743201212874991e-05 -2.4996897029496425 -6.6258390938322975e-05 0.00012314713382677311 -6.6258390938322975e-05 -10.00005411707405 -2.4998305930542308 -5.1670239355684292e-05 0.0003438123426711126 -5.1670239355684292e-05 -2.4995519742085768 -3.1572860916817547e-06 0.0003438123426711126 -3.1572860916817547e-06 -9.9996114252042858 -2.4999005993094459 4.6245092867482193e-07 7.9841919447432019e-05 4.6245092867482193e-07 -2.4997436572627221 4.0251957972942121e-05 7.9841919447432019e-05 4.0251957972942121e-05 -10.000254433370795 -2.5001033002608839 3.6830494411305616e-05 -2.6754761966230056e-05 3.6830494411305616e-05 -2.4997968780815167 4.3021480843119519e-05 -2.6754761966230056e-05 4.3021480843119519e-05 -10.000308477473601 -2.4999364620710778 -2.0006668502700934e-06 2.1678985508847616e-05 -2.0006668502700934e-06 -2.4997428992396298 0.00015322251869814558 2.1678985508847616e-05 0.00015322251869814558 -9.9999425740960248 -2.4998052807948983 -5.5268015211361494e-05 0.00037161833860374183 -5.5268015211361494e-05 -2.4995777367965482 -2.1990033192995659e-05 0.00037161833860374183 -2.1990033192995659e-05 -9.9995165082453425 -2.4997873950068872 -2.0542720311232692e-05 0.00017286352357048784 -2.0542720311232692e-05 -2.4995920148230364 -0.00016227843814808907 0.00017286352357048784 -0.00016227843814808907 -9.9997381167647514 -2.4998948269984846 -3.3519943475485131e-05 0.00020971148739973327 -3.3519943475485131e-05 -2.4995927664202657 -0.00016930509727829124 0.00020971148739973327 -0.00016930509727829124 -9.999771350679989 -2.4998286706789492 -1.6275069712451807e-05 -2.5377978828178271e-05 -1.6275069712451807e-05 -2.4998392750092804 -3.6375848568859226e-05 -2.5377978828178271e-05 -3.6375848568859226e-05 -9.9999842857508288 -2.4997558903711843 3.4166246186138611e-05 1.9423720119426946e-05 3.4166246186138611e-05 -2.4998377981490454 8.1587976530295148e-05 1.9423720119426946e-05 8.1587976530295148e-05 -10.000194031711167 -2.4997774111483269 6.1040688336647743e-05 4.3429521785931513e-05 6.1040688336647743e-05 -2.4997724631494331 5.5661398604245349e-05 4.3429521785931513e-05 5.5661398604245349e-05 -10.000212037518184 -2.4998508204774019 3.5204067240738202e-05 6.6237428844762025e-05 3.5204067240738202e-05 -2.4997533573756634 3.2440371790620759e-05 6.6237428844762025e-05 3.2440371790620759e-05 -10.000197806030677 -2.5001064038091658 3.2542916153764317e-05 -2.82003017670993e-05 3.2542916153764317e-05 -2.4998282906029892 4.7138350557041845e-05 -2.82003017670993e-05 4.7138350557041845e-05 -10.000289913339033 -2.4998536957875492 1.919216275469762e-05 7.8343590116602968e-05 1.919216275469762e-05 -2.499769409503247 2.7180086080380583e-05 7.8343590116602968e-05 2.7180086080380583e-05 -10.000163261913634 -2.4996901848330881 6.6455346614452485e-05 -0.00017101570491248814 6.6455346614452485e-05 -2.4996754972961188 -3.4554002202539808e-05 -0.00017101570491248814 -3.4554002202539808e-05 -9.9999556704167194 -2.4998264616648802 3.2045319016039614e-05 6.7140292113115121e-05 3.2045319016039614e-05 -2.5001022407812701 2.4745877971545354e-05 6.7140292113115121e-05 2.4745877971545354e-05 -10.000283089103997 -2.499689527411832 6.6462007641359051e-05 -2.8352708079683363e-05 6.6462007641359051e-05 -2.4997042410641801 -0.00017927444677889306 -2.8352708079683363e-05 -0.00017927444677889306 -10.000011803144169 -2.4997848917793055 2.0417931137633738e-05 3.9578551375152315e-05 2.0417931137633738e-05 -2.4998578461676395 9.7200120719787009e-05 3.9578551375152315e-05 9.7200120719787009e-05 -10.000236541373058 -2.4996518197527422 7.3082787112326491e-05 -0.00010653477685651502 7.3082787112326491e-05 -2.4996497753626885 -9.2713356800722124e-05 -0.00010653477685651502 -9.2713356800722124e-05 -9.9997877317461796 -2.4999008144060264 1.8239365567803689e-05 -8.2130795737711537e-05 1.8239365567803689e-05 -2.4998469828418979 -4.5323547261055808e-05 -8.2130795737711537e-05 -4.5323547261055808e-05 -9.9999758741551084 -2.4997738972008761 -4.1082784255518285e-05 -6.0302154700320187e-05 -4.1082784255518285e-05 -2.4997698175075791 -4.546308302311175e-05 -6.0302154700320187e-05 -4.546308302311175e-05 -9.9995869775040216 -2.4998336913745409 -1.2533966235003016e-05 -5.7291133097603364e-05 -1.2533966235003016e-05 -2.4998139923577214 -7.0978144201094828e-05 -5.7291133097603364e-05 -7.0978144201094828e-05 -9.9999662084597549 -2.499825099252929 -2.9579015477016952e-05 -1.0118408819703717e-06 -2.9579015477016952e-05 -2.4997477043846934 4.899221837106893e-05 -1.0118408819703717e-06 4.899221837106893e-05 -10.000000681046929 -2.4997266366852831 0.00010852663627113535 -1.5009812944999368e-05 0.00010852663627113535 -2.4997187373313086 -5.0433807907701578e-06 -1.5009812944999368e-05 -5.0433807907701578e-06 -9.9999127513166641 -2.4999004258039061 1.5412060962313564e-05 -3.0664903423321954e-06 1.5412060962313564e-05 -2.4998924221307934 8.2691126454953467e-06 -3.0664903423321954e-06 8.2691126454953467e-06 -10.000049011701025 -2.4998441549552686 -2.2275805222282392e-05 -9.5689854748837178e-06 -2.2275805222282392e-05 -2.4998512761571421 2.0210476360027485e-05 -9.5689854748837178e-06 2.0210476360027485e-05 -10.000030167115797 -2.4997706807318187 6.4226509048034537e-05 7.6306001651538224e-05 6.4226509048034537e-05 -2.4998451402483659 2.1038656385918841e-05 7.6306001651538224e-05 2.1038656385918841e-05 -9.9999878444805184 -2.4997203558994929 -1.9416725655890993e-05 4.4839567745924569e-05 -1.9416725655890993e-05 -2.4998173102399468 2.6901497310660716e-05 4.4839567745924569e-05 2.6901497310660716e-05 -9.9999689120232578 -2.4998466920176781 -2.6314510817978393e-05 -2.4240687048759924e-06 -2.6314510817978393e-05 -2.4998312755273946 1.3183306555752949e-05 -2.4240687048759924e-06 1.3183306555752949e-05 -10.00002832489319 -2.4998330979549075 -2.0020328222854916e-05 -2.0382954534881037e-05 -2.0020328222854916e-05 -2.4998333081953699 -3.8207126174860662e-05 -2.0382954534881037e-05 -3.8207126174860662e-05 -9.9999859388677379 -2.4997289169487029 3.6871274801187875e-06 1.6236441312322825e-05 3.6871274801187875e-06 -2.4997296694520328 6.2115645898863647e-05 1.6236441312322825e-05 6.2115645898863647e-05 -9.9999745356638883 -2.4998413979801 -1.7802410107716941e-05 -5.2568951136144904e-05 -1.7802410107716941e-05 -2.499832797515777 -4.1463747111336602e-06 -5.2568951136144904e-05 -4.1463747111336602e-06 -9.9999787842966281 -2.4998878796233979 1.4726909368269906e-05 -5.1482069266306496e-05 1.4726909368269906e-05 -2.4998792797537899 -1.0660926880401433e-05 -5.1482069266306496e-05 -1.0660926880401433e-05 -9.9999935236764372 -2.4997209625766708 2.2109838629423637e-05 -1.0878502192390727e-06 2.2109838629423637e-05 -2.4996848148882727 5.1662605625946156e-05 -1.0878502192390727e-06 5.1662605625946156e-05 -9.9999794540591971 -2.4998235220665306 7.6694724205265697e-05 4.5087939998467164e-05 7.6694724205265697e-05 -2.4997610626892639 1.5316508915397264e-05 4.5087939998467164e-05 1.5316508915397264e-05 -10.000000181322672 -2.4998624372610596 -1.4205201842820966e-05 -1.8625602109523243e-06 -1.4205201842820966e-05 -2.4998905191138601 4.6687465768413539e-05 -1.8625602109523243e-06 4.6687465768413539e-05 -10.000063325737024 -2.4998431880795708 -6.6253934856054525e-07 -2.4156127230945401e-05 -6.6253934856054525e-07 -2.4998246162282953 1.9430433528810909e-06 -2.4156127230945401e-05 1.9430433528810909e-06 -9.9999906363681106 -2.4998470310941441 -9.5555656455083335e-06 -1.1468138967907215e-05 -9.5555656455083335e-06 -2.4998513823953488 1.4234549814418074e-05 -1.1468138967907215e-05 1.4234549814418074e-05 -10.000027892663599 -2.4997085428300894 -6.9248050865308979e-05 -6.7187069610064043e-05 -6.9248050865308979e-05 -2.4998022360439336 6.4880406655642986e-05 -6.7187069610064043e-05 6.4880406655642986e-05 -9.9999033939271058 -2.4997582872141821 3.1057687624794951e-05 2.2665266611099355e-05 3.1057687624794951e-05 -2.4998063442625389 3.1308058373369363e-05 2.2665266611099355e-05 3.1308058373369363e-05 -9.99998122680989 -2.4998417189785913 -9.8543134596917181e-06 -1.2699437937996327e-05 -9.8543134596917181e-06 -2.4998711544948078 3.4561123657184112e-05 -1.2699437937996327e-05 3.4561123657184112e-05 -9.999981765856635 -2.4998277578982702 -2.6515214956678592e-05 -0.00011946203232393593 -2.6515214956678592e-05 -2.4998323222305388 6.7569832772562677e-05 -0.00011946203232393593 6.7569832772562677e-05 -9.9998510569219654 -2.4997520816439884 4.3913063713228749e-05 -0.00021309801736446587 4.3913063713228749e-05 -2.4998085564972765 -3.3478763262984046e-05 -0.00021309801736446587 -3.3478763262984046e-05 -10.000005363167105 -2.5000659443157964 0.00013725324318106222 -5.3418046111808337e-05 0.00013725324318106222 -2.4998390618604596 9.432538723430639e-07 -5.3418046111808337e-05 9.432538723430639e-07 -10.000039050449789 -2.4997848526128528 2.8518611793555239e-06 -7.1384940687480025e-05 2.8518611793555239e-06 -2.4998097914575603 4.3201063295583708e-06 -7.1384940687480025e-05 4.3201063295583708e-06 -9.9998484829104708 -2.4997263981165538 -2.7650549691201192e-05 4.1833495381116137e-05 -2.7650549691201192e-05 -2.4998635298623393 6.8488457034665551e-05 4.1833495381116137e-05 6.8488457034665551e-05 -10.000186261312411 -2.4998444628055587 -7.1450798843419584e-05 -2.5182384380872946e-05 -7.1450798843419584e-05 -2.4998657787360514 9.0002629862251382e-05 -2.5182384380872946e-05 9.0002629862251382e-05 -10.000061919154504 -2.5000860714982913 4.1627171432552026e-06 0.00017046702793539 4.1627171432552026e-06 -2.4999966777851559 0.00023351897339373117 0.00017046702793539 0.00023351897339373117 -9.9999715979674342 -2.5001357835149602 -2.169709199005393e-05 0.00014074463176547191 -2.169709199005393e-05 -2.5001291285598475 5.5026234144660811e-05 0.00014074463176547191 5.5026234144660811e-05 -10.000051734096409 -2.4998407227336483 8.5262825781029756e-06 -2.6240258451437626e-05 8.5262825781029756e-06 -2.4997888029620645 -3.1335050330039138e-06 -2.6240258451437626e-05 -3.1335050330039138e-06 -10.000019402618083 -2.49978702891441 3.3138030251088188e-05 4.2894144190785966e-05 3.3138030251088188e-05 -2.5000869985312519 2.3572944150340724e-05 4.2894144190785966e-05 2.3572944150340724e-05 -10.000242130249042 -2.4995733632384964 9.0770670897211073e-06 6.8127155302022402e-05 9.0770670897211073e-06 -2.4997783257607544 4.4494871535682989e-05 6.8127155302022402e-05 4.4494871535682989e-05 -9.9997072203664175 -2.4997193991034861 -6.670161042223744e-05 0.00017631249897442913 -6.670161042223744e-05 -2.4999129366825716 0.00025324028015805133 0.00017631249897442913 0.00025324028015805133 -9.9999928229297499 -2.4996146720176826 -3.3270842112674947e-05 -0.00011615534080576301 -3.3270842112674947e-05 -2.4999179055523912 0.00021593088251491057 -0.00011615534080576301 0.00021593088251491057 -9.9998655514390205 -2.4997395420881587 -2.1795564469290652e-06 0.00018128589006356137 -2.1795564469290652e-06 -2.499933671839031 -2.9895596857337911e-05 0.00018128589006356137 -2.9895596857337911e-05 -9.9999311796458077 -2.4995812178314964 -1.5217041680748371e-05 -0.00014366338247173943 -1.5217041680748371e-05 -2.4997597400765557 0.0001201862843952607 -0.00014366338247173943 0.0001201862843952607 -9.9997259137080992 -2.4995708076115695 -5.2727242477410457e-05 -1.761815505232461e-05 -5.2727242477410457e-05 -2.4998065511760545 0.00030113736825076169 -1.761815505232461e-05 0.00030113736825076169 -9.9995250099457493 -2.4995781950810554 -8.1149253697938215e-06 9.0857806764654825e-05 -8.1149253697938215e-06 -2.4998104537527541 -9.7769874448871974e-05 9.0857806764654825e-05 -9.7769874448871974e-05 -9.9997378799544236 -2.499667588635226 3.0499279987274119e-05 0.0001246816796163122 3.0499279987274119e-05 -2.4998786799001809 -0.00012375853754509336 0.0001246816796163122 -0.00012375853754509336 -9.9997873883120256 -2.499758149818569 5.7767710542991467e-05 1.9711937797834886e-05 5.7767710542991467e-05 -2.4999896454859845 -0.00040147267238529642 1.9711937797834886e-05 -0.00040147267238529642 -10.000269636584639 -2.4996636974780655 3.3155395202883633e-05 0.00012572146939682227 3.3155395202883633e-05 -2.4998776382736501 -0.00012444239494135978 0.00012572146939682227 -0.00012444239494135978 -9.9997944988123582 -2.4998274164114185 5.8888000842677608e-05 -1.3830787282564927e-05 5.8888000842677608e-05 -2.4999449282813044 -0.00011458259264118809 -1.3830787282564927e-05 -0.00011458259264118809 -10.000092776556542 -2.4997686531622589 -1.1713277044722746e-05 -2.5296399947194459e-05 -1.1713277044722746e-05 -2.4997464250139596 1.0301354721242717e-05 -2.5296399947194459e-05 1.0301354721242717e-05 -9.9999967833684256 -2.4997344555790013 2.7986321380005005e-05 6.0931769199967789e-05 2.7986321380005005e-05 -2.4997930671002608 -1.190934620365347e-06 6.0931769199967789e-05 -1.190934620365347e-06 -10.000327151885191 -2.5001703341197019 -5.2140984249236911e-06 0.00025334803167083851 -5.2140984249236911e-06 -2.5000751462170974 -0.00028617859904540995 0.00025334803167083851 -0.00028617859904540995 -10.000296231526209 -2.4998030437445911 5.8183600692491972e-05 7.8557355218222824e-05 5.8183600692491972e-05 -2.5000274976749135 -0.00038056723021639982 7.8557355218222824e-05 -0.00038056723021639982 -10.000421614321157 -2.5002134408533334 2.4417735069527087e-05 0.00020604098127474982 2.4417735069527087e-05 -2.5002117476284482 1.2131371239704745e-05 0.00020604098127474982 1.2131371239704745e-05 -10.00033393743958 -2.499591793513968 3.3989225368672349e-05 -0.00017784427928376574 3.3989225368672349e-05 -2.4999024627797315 -0.00014931300354211494 -0.00017784427928376574 -0.00014931300354211494 -9.999801763113787 -2.4998009947997675 -1.7243446940660562e-05 -7.8399661749717353e-05 -1.7243446940660562e-05 -2.4997779409948806 2.859230360741094e-05 -7.8399661749717353e-05 2.859230360741094e-05 -9.9999928170550145 -2.499855595522269 -2.3208877929960516e-05 9.3592697408717562e-05 -2.3208877929960516e-05 -2.4998067048559163 -6.6474676120975573e-05 9.3592697408717562e-05 -6.6474676120975573e-05 -10.000266127471214 -2.4996690378400843 -7.2402467786497664e-05 -4.7512217889855669e-05 -7.2402467786497664e-05 -2.4996749279110539 0.00017317866542945694 -4.7512217889855669e-05 0.00017317866542945694 -9.9999836160382696 -2.499826025580572 -5.5621024898628001e-06 -2.7813127524867198e-05 -5.5621024898628001e-06 -2.4997845610026905 5.8236591765847834e-05 -2.7813127524867198e-05 5.8236591765847834e-05 -9.9999838307810442 -2.5001387278657434 -1.8349506172522338e-06 4.159224528821337e-05 -1.8349506172522338e-06 -2.4998398208101298 -8.2943857694139922e-05 4.159224528821337e-05 -8.2943857694139922e-05 -10.000326608430253 -2.4997932995195509 -3.4044161356788385e-05 -1.0808862181804096e-05 -3.4044161356788385e-05 -2.5000827488479782 -3.1409817182175806e-05 -1.0808862181804096e-05 -3.1409817182175806e-05 -10.000173374894388 -2.4998170907623827 -4.7881030381802635e-05 7.3506771247178193e-05 -4.7881030381802635e-05 -2.4998054690911493 -7.1734615251450862e-05 7.3506771247178193e-05 -7.1734615251450862e-05 -10.000263890673427 -2.4997500430774466 -3.5942863799625133e-05 -1.4507410077246874e-05 -3.5942863799625133e-05 -2.4997755525396461 2.7947587042387312e-05 -1.4507410077246874e-05 2.7947587042387312e-05 -10.000015391900305 -2.4998908119499914 -5.6107529728928491e-05 -3.6831465328734936e-05 -5.6107529728928491e-05 -2.4998169286488743 6.7380485440526883e-05 -3.6831465328734936e-05 6.7380485440526883e-05 -9.9999947120107571 -2.49962460944848 0.00010364708160761774 -4.6948003747090093e-05 0.00010364708160761774 -2.4997741596634939 -6.3395506427638051e-05 -4.6948003747090093e-05 -6.3395506427638051e-05 -10.000103164963871 -2.4997455395103936 3.2585995185484544e-06 -6.1206989538931111e-05 3.2585995185484544e-06 -2.4998216968208915 3.4869329188502718e-05 -6.1206989538931111e-05 3.4869329188502718e-05 -9.9999836586589659 -2.4998273474546893 -5.6142703354635079e-05 -6.9152203637123932e-05 -5.6142703354635079e-05 -2.4998712944759203 8.5274838361737437e-05 -6.9152203637123932e-05 8.5274838361737437e-05 -9.9999782598774036 -2.4997452831902653 1.4676190827634571e-05 -4.2019155484851467e-05 1.4676190827634571e-05 -2.4997244137260686 4.3368189906854194e-05 -4.2019155484851467e-05 4.3368189906854194e-05 -9.9995828214717761 -2.4997909171865391 -1.3358722851864943e-05 -0.00010971314744656624 -1.3358722851864943e-05 -2.4997913057437335 5.710986175433419e-05 -0.00010971314744656624 5.710986175433419e-05 -9.9999760829817301 -2.4996537166800765 -8.3217879886624498e-05 -0.00010298104065697977 -8.3217879886624498e-05 -2.4996378942339357 0.00010685358410666979 -0.00010298104065697977 0.00010685358410666979 -9.9998140138914167 -2.5000974841885828 -3.4049040260934606e-05 4.2253538440243201e-06 -3.4049040260934606e-05 -2.4998034824392379 -5.1040324163009179e-05 4.2253538440243201e-06 -5.1040324163009179e-05 -10.00024689762027 -2.4996820875842598 -6.9528388674964178e-05 -0.00017562618757794408 -6.9528388674964178e-05 -2.4996716847545617 3.1498628963923182e-05 -0.00017562618757794408 3.1498628963923182e-05 -10.000020473688306 -2.4998295620990314 -2.5236032836187125e-05 8.87111366400285e-05 -2.5236032836187125e-05 -2.4997516446541912 -2.6129221655370443e-05 8.87111366400285e-05 -2.6129221655370443e-05 -10.000187134597921 -2.5001698428713932 2.5398613673388171e-05 8.0218636157956184e-05 2.5398613673388171e-05 -2.5001728806918946 -0.00011256719076106422 8.0218636157956184e-05 -0.00011256719076106422 -10.000174892874215 -2.4998875806563969 -9.8969732384822622e-05 8.6032359074561526e-05 -9.8969732384822622e-05 -2.5001029139098554 2.0152480789570326e-05 8.6032359074561526e-05 2.0152480789570326e-05 -10.000379699952251 -2.4998865954131375 -2.7420206606749387e-05 -1.3976465187859333e-05 -2.7420206606749387e-05 -2.4997734121715585 -7.507715055077302e-05 -1.3976465187859333e-05 -7.507715055077302e-05 -10.000242890248439 -2.4998566269055744 3.594210125690625e-05 7.7740372964818505e-05 3.594210125690625e-05 -2.4997259162254246 -4.4888991221458951e-05 7.7740372964818505e-05 -4.4888991221458951e-05 -10.000185530464545 -2.4999764427969535 -4.1952656549733844e-06 0.00024703906731571231 -4.1952656549733844e-06 -2.500069369371404 -0.00017138976382974304 0.00024703906731571231 -0.00017138976382974304 -9.9998932550789892 -2.4998644616407084 2.823375697995012e-05 2.5454859778673011e-05 2.823375697995012e-05 -2.4998486951626289 8.7612835728556604e-06 2.5454859778673011e-05 8.7612835728556604e-06 -10.000065850342761 -2.4998883690686653 6.3117745631225165e-05 0.00027515837562519518 6.3117745631225165e-05 -2.4996811822784428 -0.00014722968911851098 0.00027515837562519518 -0.00014722968911851098 -9.9998890615889184 -2.4998518206778124 7.4796282248871431e-05 9.7845887507386209e-05 7.4796282248871431e-05 -2.4998063677746534 3.049199186833107e-05 9.7845887507386209e-05 3.049199186833107e-05 -10.000082577897073 -2.4999035742820297 2.9354968974476967e-05 0.00020439612629240256 2.9354968974476967e-05 -2.499592296888542 0.00013605454724294013 0.00020439612629240256 0.00013605454724294013 -9.9998048175604968 -2.4997995194368552 5.3180209491146329e-05 0.00031724810835256304 5.3180209491146329e-05 -2.4995656315021035 1.0403897827171253e-05 0.00031724810835256304 1.0403897827171253e-05 -9.9995029456929529 -2.4997526158358609 2.0953745447030154e-05 0.00013014170708025574 2.0953745447030154e-05 -2.4995881101313469 0.00014250082122524432 0.00013014170708025574 0.00014250082122524432 -9.999713602183272 -2.4998741990803914 6.8906440799835537e-05 3.7529582749940005e-05 6.8906440799835537e-05 -2.4998595511993944 -0.00019005669505656186 3.7529582749940005e-05 -0.00019005669505656186 -10.000036879776786 -2.5000425575313296 -7.0623662359007687e-06 -0.00016723631745886895 -7.0623662359007687e-06 -2.4999334002629392 -0.00012640437568093573 -0.00016723631745886895 -0.00012640437568093573 -9.9999252762931086 -2.4998365590570049 2.5063872223084994e-05 4.0870968107675765e-05 2.5063872223084994e-05 -2.4998054042890039 2.2777667020301706e-05 4.0870968107675765e-05 2.2777667020301706e-05 -9.9998596766839238 -2.4998833175158772 -1.9560972981001272e-05 3.5535040774359317e-05 -1.9560972981001272e-05 -2.4999408002819679 2.9824190129312811e-05 3.5535040774359317e-05 2.9824190129312811e-05 -9.9998855177714869 -2.4998303535604869 2.5796144545573459e-05 -1.4403336114909848e-05 2.5796144545573459e-05 -2.4999137966701888 -4.1715757866267467e-05 -1.4403336114909848e-05 -4.1715757866267467e-05 -9.9999829436200436 -2.4999677736702295 -2.3275169216262676e-05 0.0001777463144787125 -2.3275169216262676e-05 -2.5000101250301769 1.24843301539916e-05 0.0001777463144787125 1.24843301539916e-05 -9.9999470156273969 -2.4999096453733642 4.1318473720778731e-06 -5.3674364137136759e-05 4.1318473720778731e-06 -2.4998660352722895 4.8151881353636876e-05 -5.3674364137136759e-05 4.8151881353636876e-05 -9.9994537328698705 -2.4999310101454899 2.9745951902802856e-05 3.3808812609947836e-05 2.9745951902802856e-05 -2.5001187393189932 -0.0001182917145388096 3.3808812609947836e-05 -0.0001182917145388096 -10.000105836170864 -2.4999305174336706 4.5867654891106689e-05 -0.00011988488300218592 4.5867654891106689e-05 -2.5000521266677826 0.00013774372123220857 -0.00011988488300218592 0.00013774372123220857 -9.999782328367548 -2.4999084439262691 -1.1148621784038708e-05 -1.7591330380817283e-05 -1.1148621784038708e-05 -2.4998494713338419 7.9366219374321645e-07 -1.7591330380817283e-05 7.9366219374321645e-07 -9.9998879308968718 -2.5001682412218416 5.0552200337306538e-08 -0.00082577253376589271 5.0552200337306538e-08 -2.5001682416697468 0.0002175573656974407 -0.00082577253376589271 0.0002175573656974407 -10.000704642239986 -2.5000250818274141 -2.8851832252480794e-05 4.4244088677070331e-05 -2.8851832252480794e-05 -2.4999920857208577 -0.00020173268373850314 4.4244088677070331e-05 -0.00020173268373850314 -10.000071868584273 -2.499811874063985 -4.8487013828464468e-06 1.6808808433133038e-05 -4.8487013828464468e-06 -2.499839066362104 6.4018815004451834e-06 1.6808808433133038e-05 6.4018815004451834e-06 -10.000012142158692 -2.4998625930637406 3.5762664618610879e-05 3.2487273495585001e-05 3.5762664618610879e-05 -2.4998632193899164 -1.6796328177304254e-05 3.2487273495585001e-05 -1.6796328177304254e-05 -10.000105187303916 -2.4997852009409938 1.2645898743581222e-05 2.1685566693463443e-06 1.2645898743581222e-05 -2.4997934235256096 -1.5131824296688023e-05 2.1685566693463443e-06 -1.5131824296688023e-05 -9.9999787442310648 -2.4998145824724869 3.0948585686623004e-06 -1.349399477446056e-05 3.0948585686623004e-06 -2.4997886502003528 -6.6796087279108463e-06 -1.349399477446056e-05 -6.6796087279108463e-06 -9.9999741384393914 -2.4998579960953564 4.3384013059892242e-05 3.5765157758049781e-05 4.3384013059892242e-05 -2.4998456266789799 -3.9680213437032208e-05 3.5765157758049781e-05 -3.9680213437032208e-05 -10.000035060768047 -2.4998091974263836 2.2146251330740407e-05 -1.0474636331636589e-05 2.2146251330740407e-05 -2.4998337947648404 1.1894401855450099e-05 -1.0474636331636589e-05 1.1894401855450099e-05 -10.000034790244751 -2.4998025303197773 7.1448049264063367e-05 6.2159710726206185e-05 7.1448049264063367e-05 -2.4997728689849854 3.3985838946204439e-05 6.2159710726206185e-05 3.3985838946204439e-05 -9.9999330006537939 -2.4998219163233033 2.3403566736670586e-05 2.3141120997216547e-05 2.3403566736670586e-05 -2.4998392052972038 -1.6716373425040842e-05 2.3141120997216547e-05 -1.6716373425040842e-05 -10.000021201662912 -2.4998028096559648 -9.7316843259773669e-06 1.5838382969590725e-05 -9.7316843259773669e-06 -2.4998071593444271 1.173924763309131e-05 1.5838382969590725e-05 1.173924763309131e-05 -10.000002553839378 -2.4998570079701601 1.6229869616309447e-05 3.2322729830447372e-05 1.6229869616309447e-05 -2.4998494451826359 -1.5739782850188178e-05 3.2322729830447372e-05 -1.5739782850188178e-05 -10.000028636968564 -2.4998422086905556 -1.4989554391895755e-05 1.930570064212489e-05 -1.4989554391895755e-05 -2.4998132912026145 1.5866068382663912e-05 1.930570064212489e-05 1.5866068382663912e-05 -9.9999938918095062 -2.4998094634125625 -1.9909617820355736e-05 2.5671370205704314e-05 -1.9909617820355736e-05 -2.499728385594449 8.5437049297532042e-05 2.5671370205704314e-05 8.5437049297532042e-05 -9.9998769086617294 -2.4998115301794952 -1.0757286829149047e-05 1.885341385765571e-05 -1.0757286829149047e-05 -2.4997763669608957 -3.925396062509634e-05 1.885341385765571e-05 -3.925396062509634e-05 -10.000011760013697 -2.4998844157486655 -5.0893526097935035e-05 -1.6190277225547334e-06 -5.0893526097935035e-05 -2.5000484155823175 0.00021395441234428603 -1.6190277225547334e-06 0.00021395441234428603 -10.000016219881221 -2.4998390334449678 2.8924147482663204e-05 6.6275277514904474e-06 2.8924147482663204e-05 -2.4997679666726964 -5.6718678959732927e-05 6.6275277514904474e-06 -5.6718678959732927e-05 -10.00000014564233 -2.4998655695109928 1.772095007649818e-05 1.3582588660798756e-05 1.772095007649818e-05 -2.4998530916475721 -1.1083847440973571e-05 1.3582588660798756e-05 -1.1083847440973571e-05 -10.000035837149717 -2.4998387015716679 2.9945836266220489e-05 2.1838735783763497e-05 2.9945836266220489e-05 -2.4998625510495947 -1.5730872190422573e-06 2.1838735783763497e-05 -1.5730872190422573e-06 -10.000027622032931 -2.4999413053718791 -2.3972990648921257e-05 -2.3739510339737535e-06 -2.3972990648921257e-05 -2.4998987933292045 -2.0507602930042168e-05 -2.3739510339737535e-06 -2.0507602930042168e-05 -10.000064951543983 -2.4998193387401675 -6.1054654185734665e-05 9.4868154159932772e-05 -6.1054654185734665e-05 -2.4998652630238021 -2.3789119527606317e-05 9.4868154159932772e-05 -2.3789119527606317e-05 -9.9999819470126905 -2.4997620461218863 6.7189149299270941e-06 1.9720365748376878e-05 6.7189149299270941e-06 -2.4997604319491176 -6.6394419725668286e-05 1.9720365748376878e-05 -6.6394419725668286e-05 -9.999981348336366 -2.4997731481303411 3.5874783887594351e-05 -8.544490392559112e-06 3.5874783887594351e-05 -2.499780815145324 2.3287493453594266e-05 -8.544490392559112e-06 2.3287493453594266e-05 -9.9999045712165184 -2.4998554450327775 -8.6668789576568845e-05 5.6161115545627638e-05 -8.6668789576568845e-05 -2.4997616543798942 -1.3360799154149561e-05 5.6161115545627638e-05 -1.3360799154149561e-05 -9.9999969257050019 -2.4997325945839863 -2.8405501064992784e-05 -3.2424211333648145e-06 -2.8405501064992784e-05 -2.4996879403691095 -5.2639254260355983e-05 -3.2424211333648145e-06 -5.2639254260355983e-05 -9.9999831837460427 -2.4997016339554157 -0.00014882614430276157 -3.1367283852112848e-05 -0.00014882614430276157 -2.4996884102747936 1.3169867546736214e-05 -3.1367283852112848e-05 1.3169867546736214e-05 -9.9999146739296645 -2.4997550110989417 3.8290104372461487e-05 6.3199900795396502e-05 3.8290104372461487e-05 -2.4998374215511205 2.5017183524767006e-06 6.3199900795396502e-05 2.5017183524767006e-06 -9.9999916269166711 -2.4998286011905035 2.3280843541374332e-06 1.7761561044160601e-05 2.3280843541374332e-06 -2.4998084224800641 -3.5152569728857941e-05 1.7761561044160601e-05 -3.5152569728857941e-05 -10.000025530983926 -2.4997866029918736 -5.4251561673209332e-06 3.4551832863272125e-05 -5.4251561673209332e-06 -2.4998122449752431 -2.5351984270116645e-05 3.4551832863272125e-05 -2.5351984270116645e-05 -10.000027134471463 -2.4997891120859892 -3.0053746903072734e-05 -2.0273465320741479e-05 -3.0053746903072734e-05 -2.4997799138956687 2.8442095576508564e-06 -2.0273465320741479e-05 2.8442095576508564e-06 -9.9999893058791436 -2.4998568377552455 2.2395330129959385e-05 2.3554930156599596e-05 2.2395330129959385e-05 -2.4998519454556254 -4.4196255358563974e-05 2.3554930156599596e-05 -4.4196255358563974e-05 -10.000040582355487 -2.4998067787526641 6.5135650868607659e-05 -4.3958749235462058e-05 6.5135650868607659e-05 -2.4999007635251087 -5.6426306565438011e-05 -4.3958749235462058e-05 -5.6426306565438011e-05 -9.9999244982117084 -2.499735367209996 2.6491940807193765e-05 -7.0514941337140868e-05 2.6491940807193765e-05 -2.4998325858961188 -3.0814536417178573e-05 -7.0514941337140868e-05 -3.0814536417178573e-05 -9.9998773439485085 -2.5000430606831188 -2.324708695487345e-05 -2.506844988436896e-05 -2.324708695487345e-05 -2.4998470138952209 -7.5473173355433687e-06 -2.506844988436896e-05 -7.5473173355433687e-06 -10.000032129441205 -2.4998354467826194 -8.9631853712076112e-05 -0.00012980753144642421 -8.9631853712076112e-05 -2.4998412175804519 -3.7810798794168932e-05 -0.00012980753144642421 -3.7810798794168932e-05 -10.000016122530605 -2.4995938663645241 -0.00017144502336186615 -6.4167179593788148e-05 -0.00017144502336186615 -2.4998411719161258 -2.0840951221678949e-05 -6.4167179593788148e-05 -2.0840951221678949e-05 -9.9999701816967743 -2.4998966602454553 -7.9561156574332024e-05 0.00015108256468865378 -7.9561156574332024e-05 -2.4998494395271011 3.2002265948349873e-05 0.00015108256468865378 3.2002265948349873e-05 -10.00000279911519 -2.4998442008096546 -5.0388508757403291e-05 0.00021207813041712598 -5.0388508757403291e-05 -2.4998447715221843 2.6108777473332623e-05 0.00021207813041712598 2.6108777473332623e-05 -9.9999835453273818 -2.4997630488266989 2.2057417407426591e-05 3.4070403520658488e-07 2.2057417407426591e-05 -2.4998453179926896 -3.1278677212753792e-06 3.4070403520658488e-07 -3.1278677212753792e-06 -10.000004144710168 -2.4998133114721313 -1.5126248492731617e-06 -1.0537049131897902e-05 -1.5126248492731617e-06 -2.49983312595326 1.1545773928034464e-05 -1.0537049131897902e-05 1.1545773928034464e-05 -9.9999974982748618 -2.4998271792545204 -2.3623024925522421e-06 -2.908508778243224e-05 -2.3623024925522421e-06 -2.4998277005026788 2.6238342195838982e-05 -2.908508778243224e-05 2.6238342195838982e-05 -10.000030082170571 -2.4998100472127884 -4.3940862993553324e-06 1.7767972657622977e-05 -4.3940862993553324e-06 -2.4998240686502351 1.1836982576340915e-06 1.7767972657622977e-05 1.1836982576340915e-06 -9.9999856117417742 -2.499772507562525 2.6266313695450775e-05 4.714902914315644e-06 2.6266313695450775e-05 -2.4998232169589172 1.0722170991073199e-05 4.714902914315644e-06 1.0722170991073199e-05 -9.9999884529331293 -2.4998655571234449 1.149121536289891e-05 -1.5262797433912567e-05 1.149121536289891e-05 -2.4998367648023736 7.7517236185542515e-07 -1.5262797433912567e-05 7.7517236185542515e-07 -9.9999855097246169 -2.4998138007782114 4.7842833445027755e-05 2.0626820482760877e-06 4.7842833445027755e-05 -2.4998230224547857 -4.0200913167254271e-06 2.0626820482760877e-06 -4.0200913167254271e-06 -9.9999796330586364 -2.4997952024662489 -2.2747593586145647e-05 -3.9716044375248671e-05 -2.2747593586145647e-05 -2.4998120501945795 2.872127550457293e-05 -3.9716044375248671e-05 2.872127550457293e-05 -10.000019421624483 -2.4998042838068377 -3.0973719200043774e-05 -3.211706907002565e-05 -3.0973719200043774e-05 -2.4997869154975305 4.7032767644950013e-06 -3.211706907002565e-05 4.7032767644950013e-06 -9.9999689292587988 -2.4997635992454335 4.5345664135815353e-06 -3.1204298654385898e-05 4.5345664135815353e-06 -2.4997422059961583 4.1194665030053201e-05 -3.1204298654385898e-05 4.1194665030053201e-05 -9.9999959996968499 -2.4998854247665805 -3.3868710246956905e-05 -6.7824726176723971e-05 -3.3868710246956905e-05 -2.4998002159962547 2.5760540095731699e-05 -6.7824726176723971e-05 2.5760540095731699e-05 -9.9999860588089131 -2.4998750700514325 1.111885039145876e-05 -1.1800581471987925e-06 1.111885039145876e-05 -2.4998461373515024 -2.8556807274426887e-07 -1.1800581471987925e-06 -2.8556807274426887e-07 -10.000001714153562 -2.4998611184381114 1.7143298255774348e-05 -4.8251613884886524e-05 1.7143298255774348e-05 -2.4998475426798064 1.3802173029375808e-05 -4.8251613884886524e-05 1.3802173029375808e-05 -9.9999943995191121 -2.4999259081666096 -3.3928415781919295e-05 5.5999887358382239e-06 -3.3928415781919295e-05 -2.4999489209701231 3.5823917716726328e-06 5.5999887358382239e-06 3.5823917716726328e-06 -10.000029571075686 -2.4998109762913829 -0.00011712341652916856 -5.9262894142264599e-05 -0.00011712341652916856 -2.4998053295786455 4.5951392984022732e-05 -5.9262894142264599e-05 4.5951392984022732e-05 -10.000011255540482 -2.4999007079821869 -4.3602740984534616e-05 -8.5384193068804848e-05 -4.3602740984534616e-05 -2.4999225779196603 9.3182176009065643e-05 -8.5384193068804848e-05 9.3182176009065643e-05 -9.9999844654458059 -2.4997555621633243 1.0135870717705064e-05 -1.7905187142730483e-05 1.0135870717705064e-05 -2.4997496443284772 3.7964058924977451e-05 -1.7905187142730483e-05 3.7964058924977451e-05 -9.9999665603868948 -2.4997850315992487 -1.7129325913598875e-05 -2.3714837531052524e-05 -1.7129325913598875e-05 -2.4998936570092916 9.6105925747380638e-05 -2.3714837531052524e-05 9.6105925747380638e-05 -9.9999799993966114 -2.4998402220467941 3.5653693054532159e-05 -7.4028009613424928e-06 3.5653693054532159e-05 -2.4998555317869631 7.3454269305273101e-05 -7.4028009613424928e-06 7.3454269305273101e-05 -9.9999892976175424 -2.4998510634761999 2.1863596051433258e-05 -9.0919664135213907e-06 2.1863596051433258e-05 -2.4998894854545632 -1.3163151145079155e-05 -9.0919664135213907e-06 -1.3163151145079155e-05 -10.0000074994771 -2.499847419368336 3.9622501280211467e-06 -1.7135338644891362e-05 3.9622501280211467e-06 -2.4998568747400607 1.6975140397335053e-05 -1.7135338644891362e-05 1.6975140397335053e-05 -10.000012669265585 -2.4998439713876373 1.4850252376968467e-05 -2.2758838580827501e-05 1.4850252376968467e-05 -2.4998386953923992 2.3751829224316623e-05 -2.2758838580827501e-05 2.3751829224316623e-05 -10.000035971942077 -2.4998215705967137 -1.3029267354794404e-05 -2.5834028715365775e-05 -1.3029267354794404e-05 -2.4997618087671949 4.3774716270483793e-05 -2.5834028715365775e-05 4.3774716270483793e-05 -10.000012287558356 -2.4998249192532196 3.8860474787233011e-05 2.9382112209930256e-07 3.8860474787233011e-05 -2.4998278867272976 -1.896402032741662e-06 2.9382112209930256e-07 -1.896402032741662e-06 -9.9999945612096468 -2.4997993455596381 -7.1452720654850024e-06 6.9839163501228541e-06 -7.1452720654850024e-06 -2.4998003779792892 6.8629759275573576e-06 6.9839163501228541e-06 6.8629759275573576e-06 -9.9999807961217542 -2.499805620941332 -1.3516515831991959e-05 -5.5213905714168732e-06 -1.3516515831991959e-05 -2.4998043850920921 3.7287106709193996e-06 -5.5213905714168732e-06 3.7287106709193996e-06 -10.000005104638118 -2.4998266144666967 1.0746833896847999e-05 -3.3535891805769324e-06 1.0746833896847999e-05 -2.499835000547348 4.4359893074386036e-05 -3.3535891805769324e-06 4.4359893074386036e-05 -9.9999558063233493 -2.4997882890173013 -3.1870825146469549e-05 1.4147712779077892e-06 -3.1870825146469549e-05 -2.499763228338205 4.7246416192692209e-06 1.4147712779077892e-06 4.7246416192692209e-06 -9.9999743166093005 -2.499824570443498 1.1875974591552403e-05 -6.9349085904946151e-06 1.1875974591552403e-05 -2.4998087421170059 -1.3166687900856289e-05 -6.9349085904946151e-06 -1.3166687900856289e-05 -9.9999984636003312 -2.4998133241700136 -4.958886325993531e-06 -6.7363504836492893e-06 -4.958886325993531e-06 -2.4998154431540098 5.8463277078146803e-05 -6.7363504836492893e-06 5.8463277078146803e-05 -9.9999780814764669 -2.4998605799446065 -0.00021546205582328965 7.8209079390489933e-06 -0.00021546205582328965 -2.5000420243167292 -4.0096351382246098e-05 7.8209079390489933e-06 -4.0096351382246098e-05 -10.000040869121742 -2.4998232415197226 2.9881627851332752e-06 1.1696529309546122e-06 2.9881627851332752e-06 -2.499823506601631 -2.1841638728758994e-06 1.1696529309546122e-06 -2.1841638728758994e-06 -10.000011543534832 -2.4998234408354918 1.5119772905341652e-05 -4.2179486898774599e-06 1.5119772905341652e-05 -2.4998318606982437 9.2776174813735679e-06 -4.2179486898774599e-06 9.2776174813735679e-06 -10.000001530116158 -2.499843294757119 1.6895526541938448e-05 -2.4315782290784682e-05 1.6895526541938448e-05 -2.499827131679194 2.3193702650470271e-05 -2.4315782290784682e-05 2.3193702650470271e-05 -10.000034703503689 -2.4998325161765305 9.9839595209330933e-06 -4.8435843855720861e-06 9.9839595209330933e-06 -2.4998209050438387 9.5980153069774587e-06 -4.8435843855720861e-06 9.5980153069774587e-06 -10.000013701745452 -2.4998235174663934 9.9634793338262449e-07 -1.3503555259308797e-05 9.9634793338262449e-07 -2.499811242443287 1.1953546451337616e-05 -1.3503555259308797e-05 1.1953546451337616e-05 -10.00001614152244 -2.4998170133581619 -5.2088135443608403e-06 -7.4543457939668656e-06 -5.2088135443608403e-06 -2.4998407435676073 1.059319497265232e-05 -7.4543457939668656e-06 1.059319497265232e-05 -10.000016738522833 -2.4998441353090177 -5.1513929518270013e-06 -1.9482685225113983e-06 -5.1513929518270013e-06 -2.4998469477601697 1.0965588717271046e-05 -1.9482685225113983e-06 1.0965588717271046e-05 -10.000020890673877 -2.4998353548615304 2.1037872393458982e-05 2.4796375335256471e-06 2.1037872393458982e-05 -2.4998456417291788 1.2990375006793897e-06 2.4796375335256471e-06 1.2990375006793897e-06 -10.00001710911534 -2.4998240362499438 8.7242698616647391e-06 -3.856592485362853e-07 8.7242698616647391e-06 -2.4998434328768173 -8.3442441001224665e-07 -3.856592485362853e-07 -8.3442441001224665e-07 -9.999997632677708 -2.4998277532835758 1.4789169312521465e-05 3.6946740138432688e-06 1.4789169312521465e-05 -2.4998195451801823 4.0721329952475571e-06 3.6946740138432688e-06 4.0721329952475571e-06 -9.9999951011453163 -2.4998299529826014 1.7651052228539138e-05 -2.4731305110492485e-06 1.7651052228539138e-05 -2.4998460169105403 7.4123373750012433e-06 -2.4731305110492485e-06 7.4123373750012433e-06 -10.000003432334935 -2.4998205226973411 2.9184206796723722e-06 -1.8679946762745203e-06 2.9184206796723722e-06 -2.4998271559544332 3.2481420717545006e-06 -1.8679946762745203e-06 3.2481420717545006e-06 -9.9999977447382093 -2.4998376491525898 8.2458510363537268e-06 -1.242062383610687e-06 8.2458510363537268e-06 -2.4998119129868401 3.1702878775519139e-06 -1.242062383610687e-06 3.1702878775519139e-06 -9.9999981484931304 -2.4998265572128857 1.2092630559582886e-05 -3.1264591804358588e-07 1.2092630559582886e-05 -2.4998409302519433 6.3037164821366787e-07 -3.1264591804358588e-07 6.3037164821366787e-07 -9.9999972106527704 -2.4998186272179321 1.4642884056235078e-05 3.5610307094202653e-06 1.4642884056235078e-05 -2.4998503993645329 -1.8264871854967168e-06 3.5610307094202653e-06 -1.8264871854967168e-06 -9.9999969127387658 -2.4998019070902533 -3.229463445127229e-07 -4.3045754480885989e-06 -3.229463445127229e-07 -2.4998231781457871 4.4459817396536039e-06 -4.3045754480885989e-06 4.4459817396536039e-06 -9.9999991899345488 -2.4998225568279895 1.5706922694206025e-05 -1.7981305422409832e-07 1.5706922694206025e-05 -2.4998503267595624 2.3661059334045831e-06 -1.7981305422409832e-07 2.3661059334045831e-06 -10.000006985680374 -2.4998194005596601 -8.775200801865146e-08 -1.7705031254422465e-06 -8.775200801865146e-08 -2.4998242622774067 -1.0404335633040773e-06 -1.7705031254422465e-06 -1.0404335633040773e-06 -10.000003855872984 -2.4998324678082735 -3.9014620942300903e-06 -5.6965191177482666e-06 -3.9014620942300903e-06 -2.4998264065782738 3.6743275799722142e-07 -5.6965191177482666e-06 3.6743275799722142e-07 -10.000000200841519 -2.4998243371349931 1.041845219056423e-05 -3.5839570351470229e-06 1.041845219056423e-05 -2.4998378575598172 7.3633264090489092e-06 -3.5839570351470229e-06 7.3633264090489092e-06 -9.9999841054024294 -2.499839243211202 -4.461270373123721e-06 -3.8585005519564675e-06 -4.461270373123721e-06 -2.4998902713268336 -5.4289718032229928e-07 -3.8585005519564675e-06 -5.4289718032229928e-07 -9.9999973433046065 -2.4998251141736798 4.9890349947578102e-05 -2.5714349414229787e-06 4.9890349947578102e-05 -2.4998173316104761 2.8341245762675271e-05 -2.5714349414229787e-06 2.8341245762675271e-05 -9.9999948725734313 -2.4998364324653641 1.9413359984053849e-05 6.3724962089395376e-06 1.9413359984053849e-05 -2.4998511190388664 -4.6440107328571401e-06 6.3724962089395376e-06 -4.6440107328571401e-06 -10.000005616493173 -2.4998333039993219 5.5570538653129586e-05 3.7394954195413277e-06 5.5570538653129586e-05 -2.4998273937187032 2.1775577562443971e-05 3.7394954195413277e-06 2.1775577562443971e-05 -9.9999970617188598 -2.4998419109993582 1.4844930299512642e-05 1.0538956345396144e-05 1.4844930299512642e-05 -2.4998858299961584 -1.4555055809495343e-06 1.0538956345396144e-05 -1.4555055809495343e-06 -10.000001732312285 -2.4998277744208757 2.2973563234590964e-05 2.4525260982954933e-05 2.2973563234590964e-05 -2.4997696359345234 -3.6316188463558774e-05 2.4525260982954933e-05 -3.6316188463558774e-05 -10.000004559433158 -2.4998197759982848 6.3074804360718913e-05 1.7688149350547633e-05 6.3074804360718913e-05 -2.499714155392077 -1.2387668721913769e-05 1.7688149350547633e-05 -1.2387668721913769e-05 -10.000001046306117 -2.499832604483327 3.1883822384483069e-05 2.2331853514856448e-05 3.1883822384483069e-05 -2.4997870052371365 -2.8829138850383629e-05 2.2331853514856448e-05 -2.8829138850383629e-05 -10.000012586167166 -2.4999190579614439 -3.8212450856268111e-06 6.49742179170687e-06 -3.8212450856268111e-06 -2.4999170183293362 -6.0450555086077884e-06 6.49742179170687e-06 -6.0450555086077884e-06 -10.000009318330825 -2.4998451191134716 -7.1064768278486114e-07 8.2702664592204655e-06 -7.1064768278486114e-07 -2.4998987357013993 -5.7174036163232245e-06 8.2702664592204655e-06 -5.7174036163232245e-06 -9.999992683712545 -2.4999000581605921 -5.5780650149280114e-06 6.2537930061168368e-06 -5.5780650149280114e-06 -2.4998400937131047 -2.5457325740774195e-06 6.2537930061168368e-06 -2.5457325740774195e-06 -9.9999899633408695 -2.499829434978917 -1.0681131861365659e-05 6.0497193103969948e-06 -1.0681131861365659e-05 -2.4998357096176598 -1.0352367869614909e-05 6.0497193103969948e-06 -1.0352367869614909e-05 -9.9999892012737206 -2.499824732861688 -8.7034575212234585e-06 7.7727323373188995e-06 -8.7034575212234585e-06 -2.4998226090293034 -1.4273727320102125e-06 7.7727323373188995e-06 -1.4273727320102125e-06 -9.9999731690722271 -2.4998558957526882 1.0042034942770058e-06 7.10340295184686e-06 1.0042034942770058e-06 -2.499895208774559 -3.364303869268781e-06 7.10340295184686e-06 -3.364303869268781e-06 -9.9999932343919227 -2.499889885148221 -1.1990425971515343e-05 -8.889629361519269e-06 -1.1990425971515343e-05 -2.4999275999503325 -1.89265378800485e-05 -8.889629361519269e-06 -1.89265378800485e-05 -10.000021151031689 -2.499853945468848 1.007993171702349e-07 -2.0793088602033549e-06 1.007993171702349e-07 -2.4998518123931142 9.749494944699677e-06 -2.0793088602033549e-06 9.749494944699677e-06 -10.00000681892638 -2.4998445600917822 -1.2479273126750532e-05 1.5764691713826551e-05 -1.2479273126750532e-05 -2.4998899012293627 2.4437855223879978e-06 1.5764691713826551e-05 2.4437855223879978e-06 -10.000021505935502 -2.4998528373911633 -1.2048276660212247e-05 1.5120605113772001e-05 -1.2048276660212247e-05 -2.4998838612486445 3.2991480871658041e-06 1.5120605113772001e-05 3.2991480871658041e-06 -10.000021892795083 -2.4997138962577172 -8.9548455620472669e-05 -6.9365073898097762e-06 -8.9548455620472669e-05 -2.499816266947223 -1.5457054303169571e-06 -6.9365073898097762e-06 -1.5457054303169571e-06 -9.9999956791088227 -2.4997753301457379 -9.6533762825428793e-05 2.3372191293447031e-05 -9.6533762825428793e-05 -2.4997819577973672 -1.9108525682653976e-05 2.3372191293447031e-05 -1.9108525682653976e-05 -10.000008016741916 -2.4998439339915102 -5.7699524444741789e-05 4.6031400718238302e-05 -5.7699524444741789e-05 -2.4998454054782027 -3.9189652639493033e-05 4.6031400718238302e-05 -3.9189652639493033e-05 -10.000039114364846 -2.4999226323476758 -5.4749594529414659e-05 -2.1184201241197798e-05 -5.4749594529414659e-05 -2.4998908391866332 2.3831182641487203e-05 -2.1184201241197798e-05 2.3831182641487203e-05 -10.000032495346288 -2.4998857442348963 -3.266827097459318e-05 -3.5594424463880614e-05 -3.266827097459318e-05 -2.4998710994260249 1.5334224094942783e-06 -3.5594424463880614e-05 1.5334224094942783e-06 -10.000023935226443 -2.4998633237620727 5.5608668154685998e-06 -8.4713216788045997e-06 5.5608668154685998e-06 -2.4998398560935211 3.6693478442373362e-06 -8.4713216788045997e-06 3.6693478442373362e-06 -9.9999902575191335 -2.4998748054902427 -7.6449948410015533e-06 1.0215037029581708e-06 -7.6449948410015533e-06 -2.4998330969951406 -8.95423909952342e-06 1.0215037029581708e-06 -8.95423909952342e-06 -10.000022867522324 -2.4998899935375301 1.2643940963680035e-06 7.2049914248140112e-06 1.2643940963680035e-06 -2.4998336267219967 -4.7430166105755234e-06 7.2049914248140112e-06 -4.7430166105755234e-06 -9.9999942887048654 -2.4998026631460775 -8.5554162928568614e-05 6.6894484476165417e-06 -8.5554162928568614e-05 -2.4997167388827854 1.0484688932166364e-05 6.6894484476165417e-06 1.0484688932166364e-05 -9.9999981225128209 -2.4999319581318336 -3.8213550069496186e-05 6.1868510776719177e-06 -3.8213550069496186e-05 -2.4998695261289612 -6.5157166453388982e-06 6.1868510776719177e-06 -6.5157166453388982e-06 -10.000041914459779 -2.4999124216429784 7.6681893734509095e-05 2.5798985948455311e-05 7.6681893734509095e-05 -2.4998385984766962 -6.5756432423569322e-06 2.5798985948455311e-05 -6.5756432423569322e-06 -10.00000147111075 -2.4997603127958152 2.1802179119772406e-05 -9.2265746931552428e-06 2.1802179119772406e-05 -2.4998417096286394 3.7889107318278548e-06 -9.2265746931552428e-06 3.7889107318278548e-06 -9.9999919932096653 -2.4998104140696036 2.0266049877225165e-05 5.3825947432528665e-05 2.0266049877225165e-05 -2.4998157220151072 5.6894702105125816e-06 5.3825947432528665e-05 5.6894702105125816e-06 -9.9999967002611925 -2.4999510944269909 -2.9491284520078653e-05 1.0110534661933457e-05 -2.9491284520078653e-05 -2.4998713265575434 -3.5153080779615209e-06 1.0110534661933457e-05 -3.5153080779615209e-06 -10.000014082366906 -2.4998327490419623 8.637746707139284e-06 8.4849838075662376e-06 8.637746707139284e-06 -2.4998435777562964 -7.8234400149312933e-06 8.4849838075662376e-06 -7.8234400149312933e-06 -9.9999924575760701 -2.4998232209642453 -3.4517975642022001e-06 5.9539267489583381e-06 -3.4517975642022001e-06 -2.4998186026225913 -6.3280510627095055e-06 5.9539267489583381e-06 -6.3280510627095055e-06 -9.9999859352600353 -2.4998594152463181 6.6047165973804646e-05 -4.6416285908179589e-05 6.6047165973804646e-05 -2.4998328207726281 -5.8638920048537102e-06 -4.6416285908179589e-05 -5.8638920048537102e-06 -10.000000590765509 -2.4999113248539775 -1.7793780079642948e-05 -3.3351132215031498e-05 -1.7793780079642948e-05 -2.4998625081024972 -4.7697961953474532e-06 -3.3351132215031498e-05 -4.7697961953474532e-06 -10.000016923488225 -2.4999007732095313 9.0975255396733739e-05 1.8532094472334393e-05 9.0975255396733739e-05 -2.4998377986198959 -5.8683815140625484e-07 1.8532094472334393e-05 -5.8683815140625484e-07 -10.000008462602221 -2.4997861598400508 1.4418816302921908e-05 -5.0081678573121735e-06 1.4418816302921908e-05 -2.4998318624135525 -1.1146093637393051e-05 -5.0081678573121735e-06 -1.1146093637393051e-05 -9.99997503337827 -2.4997934850246253 8.440426804031369e-06 -2.2638203503788645e-05 8.440426804031369e-06 -2.4998014972101741 1.804673797067835e-06 -2.2638203503788645e-05 1.804673797067835e-06 -9.9999789496580433 -2.4997735212216807 2.7539482265317709e-05 -1.2137874954021299e-05 2.7539482265317709e-05 -2.4998310041856837 -5.4542595915307857e-06 -1.2137874954021299e-05 -5.4542595915307857e-06 -9.9999821659630985 -2.499854629033659 -1.0891940529969548e-05 -3.1936270436183634e-05 -1.0891940529969548e-05 -2.4998493767785055 7.8203033009316414e-06 -3.1936270436183634e-05 7.8203033009316414e-06 -10.000004772499469 -2.4997851315538231 -5.6880410850123797e-05 -3.8527163377821694e-05 -5.6880410850123797e-05 -2.4998276424374524 7.0705033587969979e-06 -3.8527163377821694e-05 7.0705033587969979e-06 -9.9999869221518338 -2.4998422307837367 -1.0882630808833373e-05 -1.862697843080241e-06 -1.0882630808833373e-05 -2.4998438668831899 6.4948722098279177e-06 -1.862697843080241e-06 6.4948722098279177e-06 -10.000003578278596 -2.4997581354392473 -1.7736159772815943e-05 -1.0304840980523977e-05 -1.7736159772815943e-05 -2.4998324516307626 2.1078780624961269e-05 -1.0304840980523977e-05 2.1078780624961269e-05 -9.9999927763661631 -2.4998893327246661 1.3334010883749247e-07 2.8847351174476898e-08 1.3334010883749247e-07 -2.4998575979445166 7.7626299255229014e-06 2.8847351174476898e-08 7.7626299255229014e-06 -10.000008210531636 -2.4998462531708707 -6.8065539299718537e-05 1.3637474143735062e-05 -6.8065539299718537e-05 -2.4998504913495943 1.5069306231296764e-05 1.3637474143735062e-05 1.5069306231296764e-05 -10.000006910907587 -2.49977343793541 -2.4383374225668269e-05 -1.525714468719741e-05 -2.4383374225668269e-05 -2.4998266622537439 1.100410335919122e-05 -1.525714468719741e-05 1.100410335919122e-05 -9.9999894360925978 -2.4997904733301448 -8.4751923220736963e-05 3.7377241541847184e-05 -8.4751923220736963e-05 -2.4998250734575729 3.4629458949275715e-06 3.7377241541847184e-05 3.4629458949275715e-06 -9.9999787625000955 -2.4997753972845373 -2.4955319769357953e-05 3.5799885205634041e-05 -2.4955319769357953e-05 -2.4998183616406777 1.385503185602488e-05 3.5799885205634041e-05 1.385503185602488e-05 -9.9999952147062885 -2.4998465995248544 -1.6255735677472293e-05 3.8236698749471998e-06 -1.6255735677472293e-05 -2.4998446531953427 1.002699671559526e-05 3.8236698749471998e-06 1.002699671559526e-05 -10.000014063023798 -2.4998130330357915 4.409549427035055e-06 -9.3805900949206489e-06 4.409549427035055e-06 -2.4998261706777258 -5.6075674041977663e-06 -9.3805900949206489e-06 -5.6075674041977663e-06 -10.000013931950949 -2.4997754410771957 -4.0327431524597985e-05 6.903949707037782e-06 -4.0327431524597985e-05 -2.4998281336668615 3.2378974763602741e-06 6.903949707037782e-06 3.2378974763602741e-06 -9.9999740942399242 -2.4997854823511552 -3.8422137801922013e-05 5.1858907612611915e-06 -3.8422137801922013e-05 -2.4998528836486109 -2.0809984626168898e-05 5.1858907612611915e-06 -2.0809984626168898e-05 -10.000004889789736 -2.4998397473915719 -2.06211555833574e-05 -2.7643774740404581e-05 -2.06211555833574e-05 -2.4998496306470375 -9.1375603528121019e-06 -2.7643774740404581e-05 -9.1375603528121019e-06 -10.000018202113935 -2.4998530543268647 -1.2236464268772187e-05 -3.2764828852949179e-05 -1.2236464268772187e-05 -2.4998480097273443 3.4077395891785045e-06 -3.2764828852949179e-05 3.4077395891785045e-06 -9.9999930056473261 -2.499809327600452 4.6519121439346873e-06 -2.1653462818349567e-06 4.6519121439346873e-06 -2.499815312131386 5.182953087157216e-06 -2.1653462818349567e-06 5.182953087157216e-06 -9.9999840885101339 -2.4999768934625299 0.00020332798208891057 4.1636580581538851e-05 0.00020332798208891057 -2.4997977634690942 1.2584502925960805e-05 4.1636580581538851e-05 1.2584502925960805e-05 -10.000012904487271 -2.4997620707630333 3.5779162171121839e-05 1.9627366700802895e-06 3.5779162171121839e-05 -2.4997764251863943 5.7112277058735117e-06 1.9627366700802895e-06 5.7112277058735117e-06 -9.9999678047340055 -2.4997655487829444 2.9152094208796534e-06 -6.6229762600400477e-05 2.9152094208796534e-06 -2.4997992019881909 -1.2199587246186638e-05 -6.6229762600400477e-05 -1.2199587246186638e-05 -9.9999646383783016 -2.4998603488227538 -2.2236078532286694e-05 -1.3942699762736765e-05 -2.2236078532286694e-05 -2.4998267649388684 -3.2500835764892599e-06 -1.3942699762736765e-05 -3.2500835764892599e-06 -10.000028315638609 -2.4997525576169313 -1.7098360218577397e-05 -4.4880598871976929e-05 -1.7098360218577397e-05 -2.4997716123054872 -9.5559113931109607e-05 -4.4880598871976929e-05 -9.5559113931109607e-05 -9.999980989781065 -2.499830589706205 5.2260796330193557e-05 -0.00011516261161848007 5.2260796330193557e-05 -2.499890367271135 -4.3787366848846432e-05 -0.00011516261161848007 -4.3787366848846432e-05 -9.9999916393766668 -2.4998712619954038 -4.0657721246206619e-05 -2.9373233464191628e-05 -4.0657721246206619e-05 -2.499880343464973 -2.3084207862567041e-05 -2.9373233464191628e-05 -2.3084207862567041e-05 -10.000015906181545 -2.499880923862305 -4.1931986970506722e-05 -1.8019808834424111e-05 -4.1931986970506722e-05 -2.4998811693803633 -1.887644365172747e-05 -1.8019808834424111e-05 -1.887644365172747e-05 -10.000024849307074 -2.4998484679667703 -4.9254104707354901e-05 -2.9128067996930795e-05 -4.9254104707354901e-05 -2.4997809123727377 -8.0435550902535624e-05 -2.9128067996930795e-05 -8.0435550902535624e-05 -10.000002762140852 -2.4999392640541078 9.1722923698296264e-06 -2.299904679947673e-05 9.1722923698296264e-06 -2.4999357178998309 -2.6921314246308725e-05 -2.299904679947673e-05 -2.6921314246308725e-05 -10.000041158306097 -2.4998659379693136 -3.4490210697771645e-05 -4.9372531343294668e-06 -3.4490210697771645e-05 -2.4998648523393259 7.1337869762544415e-06 -4.9372531343294668e-06 7.1337869762544415e-06 -9.999998008789742 -2.4997570687889228 -4.0385581061452867e-05 -8.3720156030864246e-05 -4.0385581061452867e-05 -2.4998526240570627 -3.1838509428894213e-05 -8.3720156030864246e-05 -3.1838509428894213e-05 -9.9999843660425327 -2.4998660119726637 8.0028311916406102e-05 -6.6267784065487945e-05 8.0028311916406102e-05 -2.4997839092737788 -2.3353606134257632e-05 -6.6267784065487945e-05 -2.3353606134257632e-05 -10.000016173008383 -2.4997374704574371 1.4983948138341604e-05 -9.1162943167688582e-06 1.4983948138341604e-05 -2.4996992600623829 -7.1282139103789888e-05 -9.1162943167688582e-06 -7.1282139103789888e-05 -9.9999986048260148 -2.4997617288045504 -3.9805386133329036e-05 -4.5762122229398017e-06 -3.9805386133329036e-05 -2.499780191745713 -2.2990801018529794e-06 -4.5762122229398017e-06 -2.2990801018529794e-06 -9.9998802488812615 -2.4998562247720866 -3.3702472306869582e-05 -6.7564919401519319e-06 -3.3702472306869582e-05 -2.4998646559977811 -7.8780380956544604e-06 -6.7564919401519319e-06 -7.8780380956544604e-06 -9.99999089268006 -2.4999163723277045 1.9752432703007522e-05 1.0031149987099752e-05 1.9752432703007522e-05 -2.4999191545912014 -8.7923746168172556e-06 1.0031149987099752e-05 -8.7923746168172556e-06 -10.000025729078029 -2.499768431488282 0.00012761234724989294 -2.5281304321111975e-05 0.00012761234724989294 -2.4997597376578566 -3.4889487132261365e-05 -2.5281304321111975e-05 -3.4889487132261365e-05 -10.000058173019781 -2.4999023760570314 7.1524734270352476e-06 3.7620890473988311e-06 7.1524734270352476e-06 -2.4999049728335851 1.5464584279811788e-07 3.7620890473988311e-06 1.5464584279811788e-07 -10.000018152003843 -2.4998248186658456 1.1516829091087135e-05 6.3356514381496254e-06 1.1516829091087135e-05 -2.4998075744010579 1.2549789396132383e-05 6.3356514381496254e-06 1.2549789396132383e-05 -9.9999918423857075 -2.4998888137721202 4.420405191476685e-05 -1.3211053229156278e-06 4.420405191476685e-05 -2.4998691820620031 -1.7551936191573247e-05 -1.3211053229156278e-06 -1.7551936191573247e-05 -10.000017376623731 -2.4998912349649709 9.5444682158937251e-06 -6.924134593688791e-06 9.5444682158937251e-06 -2.4999019149792057 8.0281109759994251e-07 -6.924134593688791e-06 8.0281109759994251e-07 -10.000004106079693 -2.4998254922307392 5.9657859839086963e-05 3.8649025706050111e-05 5.9657859839086963e-05 -2.4998306929534664 3.4396464803521098e-05 3.8649025706050111e-05 3.4396464803521098e-05 -10.00003085690949 -2.4998104644359138 1.2545497383640116e-05 1.1065168287416327e-05 1.2545497383640116e-05 -2.4998253575252996 7.820272551306573e-06 1.1065168287416327e-05 7.820272551306573e-06 -9.9999925281645758 -2.4998261132407693 4.4657818035422813e-06 8.47282794014248e-06 4.4657818035422813e-06 -2.4998868398548177 -1.1173194192082292e-06 8.47282794014248e-06 -1.1173194192082292e-06 -10.000001969470272 -2.4998476202040631 2.4828923282042244e-06 3.2256808513153601e-06 2.4828923282042244e-06 -2.499886587058505 -3.8751307407380864e-06 3.2256808513153601e-06 -3.8751307407380864e-06 -10.000007009124587 -2.4998551669699669 3.5876651015965644e-05 -1.8858486502182359e-05 3.5876651015965644e-05 -2.4998546297522406 -9.8340088516835067e-06 -1.8858486502182359e-05 -9.8340088516835067e-06 -9.999995392732572 -2.4998719788322639 1.3992650801569757e-05 1.7175066773233993e-06 1.3992650801569757e-05 -2.4998148937119318 9.5087427345319497e-06 1.7175066773233993e-06 9.5087427345319497e-06 -9.9999991463297633 -2.499887766791387 1.7130648239213048e-06 2.2255913165736274e-06 1.7130648239213048e-06 -2.4998460752052836 1.1324216640407059e-05 2.2255913165736274e-06 1.1324216640407059e-05 -10.000007921948537 -2.4997791311088395 8.8124429326567555e-05 2.5712054139148677e-05 8.8124429326567555e-05 -2.4997836749761841 2.1131065539137239e-05 2.5712054139148677e-05 2.1131065539137239e-05 -10.00001489812805 -2.4998846529123924 7.0884808996971905e-06 -2.0782669878371962e-06 7.0884808996971905e-06 -2.499846075882818 1.4547477046988888e-05 -2.0782669878371962e-06 1.4547477046988888e-05 -10.000023947741184 -2.4998762988117615 1.3333797441579583e-05 -5.4421772546220382e-06 1.3333797441579583e-05 -2.4998200998088347 7.1135016099788118e-06 -5.4421772546220382e-06 7.1135016099788118e-06 -10.000018908450507 -2.4998213377990601 8.3296813136743983e-05 4.8610736547161082e-06 8.3296813136743983e-05 -2.4997216530919544 -1.0132241197169378e-05 4.8610736547161082e-06 -1.0132241197169378e-05 -10.000004233437174 -2.4998454269850949 -3.1349146266942745e-06 -3.2838475267027434e-05 -3.1349146266942745e-06 -2.4998403238825997 3.9641232354448164e-06 -3.2838475267027434e-05 3.9641232354448164e-06 -10.00000277276316 -2.4998419242680274 1.4347438114009206e-05 1.2331637488038893e-05 1.4347438114009206e-05 -2.4998746230319711 -4.9147170848584665e-06 1.2331637488038893e-05 -4.9147170848584665e-06 -10.000018990427158 -2.4998234740189815 1.2929984043565448e-05 1.4564855943532962e-05 1.2929984043565448e-05 -2.4998805897944294 -4.2263397830311078e-06 1.4564855943532962e-05 -4.2263397830311078e-06 -10.000016226980875 -2.49971502318391 8.2721799347766617e-05 -7.6107656035162563e-06 8.2721799347766617e-05 -2.4998236346666474 2.4200775889937631e-06 -7.6107656035162563e-06 2.4200775889937631e-06 -9.999999017438995 -2.4998431393364444 -3.085673856068115e-06 -1.9333862830706039e-06 -3.085673856068115e-06 -2.4998494847357864 -3.4597144059844709e-05 -1.9333862830706039e-06 -3.4597144059844709e-05 -10.000010861801682 -2.4998562898983101 -1.0448249048156913e-05 4.9051181854053993e-06 -1.0448249048156913e-05 -2.4998437015331243 -1.6269160063586696e-07 4.9051181854053993e-06 -1.6269160063586696e-07 -10.000005177269417 -2.4998286086103452 -6.0055884676386727e-05 3.7186364476582412e-06 -6.0055884676386727e-05 -2.4997896334062606 -3.7862393101661951e-05 3.7186364476582412e-06 -3.7862393101661951e-05 -9.9999937979410802 -2.4998313924088391 -6.5869057189481953e-05 1.5300411182472828e-06 -6.5869057189481953e-05 -2.499809213109109 -2.0045727692874493e-05 1.5300411182472828e-06 -2.0045727692874493e-05 -9.9999967999620587 -2.4998394090128091 -1.5984758962272581e-05 1.2735616377934633e-05 -1.5984758962272581e-05 -2.4998808467593658 -5.8734259233972352e-07 1.2735616377934633e-05 -5.8734259233972352e-07 -10.000001430615061 -2.4998665756043605 -2.6544145239671454e-06 8.6141756518998136e-06 -2.6544145239671454e-06 -2.4998922578544436 -1.9093678105264189e-06 8.6141756518998136e-06 -1.9093678105264189e-06 -10.000005890651289 -2.4998594272577752 -3.1680824880657427e-06 5.5455621073008388e-06 -3.1680824880657427e-06 -2.4998495398873737 -3.0275149980774074e-05 5.5455621073008388e-06 -3.0275149980774074e-05 -10.000010849691664 -2.4998351634810527 -1.9780673123302245e-05 6.7230581937138822e-06 -1.9780673123302245e-05 -2.4998429686576218 4.7037367565394561e-06 6.7230581937138822e-06 4.7037367565394561e-06 -10.000005844595727 -2.4998321433313215 -2.5229417267412122e-05 2.3027816308029969e-05 -2.5229417267412122e-05 -2.4997879639777274 2.5027010464029331e-05 2.3027816308029969e-05 2.5027010464029331e-05 -10.000015672473609 -2.4998309152033649 -1.829610772575776e-05 3.1739940752117946e-05 -1.829610772575776e-05 -2.4997684857878522 3.8424330863762179e-05 3.1739940752117946e-05 3.8424330863762179e-05 -9.9999945041138147 -2.4998277219440723 -6.490967896033225e-05 2.0701067917627824e-05 -6.490967896033225e-05 -2.4997183770376346 1.0714657886268242e-05 2.0701067917627824e-05 1.0714657886268242e-05 -9.9999988719014326 -2.4998139278366369 3.573502158769483e-06 1.0161060004953981e-05 3.573502158769483e-06 -2.4998075701669253 5.5559662803794652e-06 1.0161060004953981e-05 5.5559662803794652e-06 -9.9999889711305219 -2.4998128306608938 7.9651324439187904e-06 5.162033200889482e-07 7.9651324439187904e-06 -2.4998004802809484 -3.187092489920218e-06 5.162033200889482e-07 -3.187092489920218e-06 -9.9999998725175701 -2.4997880548252382 3.0771727899944252e-05 4.7822757966997642e-06 3.0771727899944252e-05 -2.4997637092746441 6.0842239539837806e-06 4.7822757966997642e-06 6.0842239539837806e-06 -9.9999785079855776 -2.4998515623422204 -6.2447399073237408e-06 -9.6164870573289818e-06 -6.2447399073237408e-06 -2.4998480008653754 -2.3375691766247542e-05 -9.6164870573289818e-06 -2.3375691766247542e-05 -10.000018444723718 -2.4998036673475372 -2.7630516510088014e-06 -5.6742740639492695e-06 -2.7630516510088014e-06 -2.4997745724248244 -6.1943312882561941e-05 -5.6742740639492695e-06 -6.1943312882561941e-05 -9.9999757834328946 -2.4998218714826663 -1.9674257173260276e-05 -2.9375091958883104e-07 -1.9674257173260276e-05 -2.4998312492873689 -3.1940658089091301e-05 -2.9375091958883104e-07 -3.1940658089091301e-05 -10.000008625777173 -2.4998302503026562 -4.3400238446196027e-05 6.0896758142803264e-06 -4.3400238446196027e-05 -2.4998060553791941 7.009109255662338e-06 6.0896758142803264e-06 7.009109255662338e-06 -9.9999935158462208 -2.4998344864644393 3.0382296137141225e-05 7.771943231205114e-07 3.0382296137141225e-05 -2.4997640232198775 4.2367576860158351e-05 7.771943231205114e-07 4.2367576860158351e-05 -9.9999889538221858 -2.4998619547163292 0.00019929265863495251 3.4321291636274509e-05 0.00019929265863495251 -2.500153857888578 3.6040936878478647e-05 3.4321291636274509e-05 3.6040936878478647e-05 -10.000056945166001 -2.4997820757048892 7.4267782200871148e-06 1.4493446887087202e-05 7.4267782200871148e-06 -2.4998165235929033 -5.6060260402723827e-06 1.4493446887087202e-05 -5.6060260402723827e-06 -9.9999954390086501 -2.4998211437747884 -3.9723388400469387e-06 4.033261426172885e-06 -3.9723388400469387e-06 -2.4998298197093156 -1.1974934931435754e-05 4.033261426172885e-06 -1.1974934931435754e-05 -10.000007933165861 -2.4998314369337464 1.2516739974748797e-05 -1.0805142097058962e-05 1.2516739974748797e-05 -2.4998311967209794 2.9853166072513204e-07 -1.0805142097058962e-05 2.9853166072513204e-07 -10.000029574335976 -2.4998367014875802 -2.0721599291784882e-05 -9.3901858466693966e-06 -2.0721599291784882e-05 -2.4998496576369194 -1.5503987702558675e-05 -9.3901858466693966e-06 -1.5503987702558675e-05 -10.000019780358897 -2.4998369222241665 4.4817308286221002e-06 -4.9298633011396475e-06 4.4817308286221002e-06 -2.4998383568838296 -5.7458731106407868e-07 -4.9298633011396475e-06 -5.7458731106407868e-07 -10.000018752103461 -2.4998220985098123 1.296732822091424e-05 1.5541757614201401e-06 1.296732822091424e-05 -2.4998374312571205 -9.4964700498856303e-06 1.5541757614201401e-06 -9.4964700498856303e-06 -10.000010845459769 -2.4998427698831556 9.2775883385880253e-06 9.4469243929751201e-06 9.2775883385880253e-06 -2.4998445956387378 -7.6870732277356524e-06 9.4469243929751201e-06 -7.6870732277356524e-06 -10.000020674356044 -2.4998340194300317 -2.1217515054146675e-05 7.4596305577045996e-06 -2.1217515054146675e-05 -2.4998120026106827 1.2359959242758123e-06 7.4596305577045996e-06 1.2359959242758123e-06 -9.9999988950379759 -2.499819892892571 -1.1192657167869087e-05 -1.5974440472632523e-06 -1.1192657167869087e-05 -2.4998215619740911 -8.3025084407495342e-07 -1.5974440472632523e-06 -8.3025084407495342e-07 -9.999995619498911 -2.499825793898411 -1.4523952648081858e-05 8.7228744227729749e-07 -1.4523952648081858e-05 -2.4998258941791884 1.068017743577343e-06 8.7228744227729749e-07 1.068017743577343e-06 -9.9999955553625437 -2.4998322715690584 -4.5026814123519608e-06 2.9828873842063786e-06 -4.5026814123519608e-06 -2.4998231085095757 -2.0998999108456928e-06 2.9828873842063786e-06 -2.0998999108456928e-06 -10.000000341818996 -2.4998301479176765 -6.8195305168585558e-06 -5.0735333534390747e-07 -6.8195305168585558e-06 -2.499794263607316 -3.8888322251295904e-07 -5.0735333534390747e-07 -3.8888322251295904e-07 -9.9999975353888146 -2.4998351795056539 -4.6400755627356734e-06 -7.0107784111428373e-07 -4.6400755627356734e-06 -2.4998248492769726 -3.7579321059411086e-06 -7.0107784111428373e-07 -3.7579321059411086e-06 -10.000006987744392 -2.4998151778978981 -7.7237600631720774e-06 -1.1308003973198311e-06 -7.7237600631720774e-06 -2.4998207860671817 -3.6101950531275406e-06 -1.1308003973198311e-06 -3.6101950531275406e-06 -10.000002163375576 -2.4998407608490263 -2.1897200117155842e-05 1.8520829287993479e-06 -2.1897200117155842e-05 -2.4998348951007463 2.6901048943983596e-06 1.8520829287993479e-06 2.6901048943983596e-06 -9.9999992754526748 -2.4998168906196181 -1.1893159949185054e-05 -2.0280560519836399e-06 -1.1893159949185054e-05 -2.4998366400105763 9.2176338952754122e-06 -2.0280560519836399e-06 9.2176338952754122e-06 -10.000004867525611 -2.4998168289600784 1.0376132101322703e-05 3.3770414642475544e-06 1.0376132101322703e-05 -2.4998189162863902 -3.0962765116271385e-06 3.3770414642475544e-06 -3.0962765116271385e-06 -9.9999962245055016 -2.4998249052373405 6.3318744615276514e-06 7.1552437983513073e-06 6.3318744615276514e-06 -2.4998248371792604 7.3674805411982902e-07 7.1552437983513073e-06 7.3674805411982902e-07 -10.000001988999767 -2.4998485485427953 4.4218725154668764e-06 -1.1076816104349518e-06 4.4218725154668764e-06 -2.4998083808511087 2.3213072184447014e-06 -1.1076816104349518e-06 2.3213072184447014e-06 -10.000001573203232 -2.4998247821999984 -1.6015596787732095e-06 3.4592347581963168e-06 -1.6015596787732095e-06 -2.4998210011198543 -1.5104451698277899e-06 3.4592347581963168e-06 -1.5104451698277899e-06 -10.000004622670662 -2.4998260628935443 1.8336040591237181e-05 2.5075990812695181e-06 1.8336040591237181e-05 -2.499825635319854 4.5834770254771229e-06 2.5075990812695181e-06 4.5834770254771229e-06 -9.9999974950894064 -2.4998367282289591 1.0959789728222807e-05 1.9505711534861803e-06 1.0959789728222807e-05 -2.4998217968614265 -1.1211031125668569e-06 1.9505711534861803e-06 -1.1211031125668569e-06 -9.9999956062537354 -2.499803408430159 2.1757482278698333e-06 3.1510924358713055e-07 2.1757482278698333e-06 -2.4998172991350689 2.6100898153913477e-06 3.1510924358713055e-07 2.6100898153913477e-06 -9.9999924622564293 -2.4998437221585208 9.0294125647980301e-06 -2.3857106383751159e-06 9.0294125647980301e-06 -2.4998176061610389 3.6698716598948522e-07 -2.3857106383751159e-06 3.6698716598948522e-07 -9.9999981390761299 -2.4998458117828637 1.4459744230838854e-06 2.3295993685223948e-06 1.4459744230838854e-06 -2.4998306679923807 -3.5928910122606794e-06 2.3295993685223948e-06 -3.5928910122606794e-06 -10.000004422993271 -2.4998468815969783 5.069194718128213e-06 -5.3088395102207642e-06 5.069194718128213e-06 -2.4998074712929981 3.9265236218000155e-06 -5.3088395102207642e-06 3.9265236218000155e-06 -9.9999947669403113 -2.4998322814969267 4.1117358289767229e-06 1.3771785046134966e-05 4.1117358289767229e-06 -2.4998271272407653 2.4461544816389846e-06 1.3771785046134966e-05 2.4461544816389846e-06 -10.000000230009789 -2.4998266042543102 -1.664931783881116e-07 -1.0389405291633125e-06 -1.664931783881116e-07 -2.499823088053458 5.5146895618918279e-06 -1.0389405291633125e-06 5.5146895618918279e-06 -9.9999942898296972 -2.4998343251014106 -4.778384587050362e-07 -1.5548187892733267e-06 -4.778384587050362e-07 -2.4998498523146697 -1.1032334501948071e-05 -1.5548187892733267e-06 -1.1032334501948071e-05 -10.000021001753584 -2.4998359287021543 1.0764377262443664e-05 4.1720491568142393e-06 1.0764377262443664e-05 -2.4998303449300723 3.4581754615459204e-06 4.1720491568142393e-06 3.4581754615459204e-06 -9.9999989392339934 -2.499836285508092 2.784199765462811e-06 3.7176019764828538e-06 2.784199765462811e-06 -2.4998451020165557 -6.1668712281193194e-06 3.7176019764828538e-06 -6.1668712281193194e-06 -10.000004809482888 -2.4998281933118403 -7.5950314664712177e-06 -1.0633412497185191e-06 -7.5950314664712177e-06 -2.4998262291263433 -4.2964434046055544e-06 -1.0633412497185191e-06 -4.2964434046055544e-06 -10.000002118844895 -2.4998435071251057 -8.0688569409272063e-06 -8.8773782982443095e-06 -8.0688569409272063e-06 -2.4998406982795194 1.2477233899410578e-06 -8.8773782982443095e-06 1.2477233899410578e-06 -10.000064218028403 -2.4998369580298467 -4.7120906857569362e-07 5.493180677995646e-06 -4.7120906857569362e-07 -2.4998367271289732 -8.8495401229238269e-08 5.493180677995646e-06 -8.8495401229238269e-08 -10.000017677738583 -2.4998156803294798 -5.2705862154544023e-07 5.8542746819156832e-06 -5.2705862154544023e-07 -2.4998135374975696 1.6101531219447907e-06 5.8542746819156832e-06 1.6101531219447907e-06 -9.9999915780109774 -2.4998138021111984 -5.9320849186230131e-06 6.2719194469096351e-06 -5.9320849186230131e-06 -2.4997969401175961 -3.0239105048845971e-06 6.2719194469096351e-06 -3.0239105048845971e-06 -9.999986519989811 -2.4998256701993471 1.1702374840445745e-06 9.3382076125081426e-06 1.1702374840445745e-06 -2.4997948185514769 -1.2633084871538358e-06 9.3382076125081426e-06 -1.2633084871538358e-06 -9.9999875194762389 -2.4998382509993489 6.2672449104831895e-06 5.018387671640312e-06 6.2672449104831895e-06 -2.4998023193997971 1.5386196028366328e-06 5.018387671640312e-06 1.5386196028366328e-06 -9.9999936366219764 -2.4998373402681091 -6.960972534164191e-06 -1.0025239097544159e-05 -6.960972534164191e-06 -2.4998145011047077 -4.7876732960361323e-06 -1.0025239097544159e-05 -4.7876732960361323e-06 -10.000057264272048 -2.499861717677117 -5.3928979371351097e-05 2.2468621838633851e-05 -5.3928979371351097e-05 -2.4999417692883972 0.00021343252345129571 2.2468621838633851e-05 0.00021343252345129571 -9.9999712796444591 -2.4998122609353057 -1.7243681262286476e-05 -6.9839816951855482e-06 -1.7243681262286476e-05 -2.4997915865473761 -3.2879567880783611e-05 -6.9839816951855482e-06 -3.2879567880783611e-05 -9.9999778350862201 -2.4998271220826513 1.7578171755920799e-05 -9.0516826034559017e-08 1.7578171755920799e-05 -2.4998579962492355 -1.8377281583603633e-05 -9.0516826034559017e-08 -1.8377281583603633e-05 -9.9999846571290281 -2.4998383676819023 1.0510215508825987e-05 6.6686226825041217e-06 1.0510215508825987e-05 -2.4998635443720696 -1.1320943587911358e-05 6.6686226825041217e-06 -1.1320943587911358e-05 -9.9999964594040307 -2.4998051273692692 -6.2851072380693546e-06 8.0902401933258261e-06 -6.2851072380693546e-06 -2.4997148929700428 2.4243284777014651e-05 8.0902401933258261e-06 2.4243284777014651e-05 -9.9999683870100569 -2.4998208052712974 4.9425727797757602e-05 -3.6471487145917081e-06 4.9425727797757602e-05 -2.4997886682695478 6.4218402151539067e-07 -3.6471487145917081e-06 6.4218402151539067e-07 -9.9999710708531993 -2.4998323813154957 1.3608275803741725e-05 -1.679685794897523e-06 1.3608275803741725e-05 -2.499746351387381 -3.5494055161677807e-06 -1.679685794897523e-06 -3.5494055161677807e-06 -9.9999853432607289 -2.4998428893774136 9.5551126529816173e-05 -4.2420728245673445e-06 9.5551126529816173e-05 -2.499853032445575 1.7600720155996896e-05 -4.2420728245673445e-06 1.7600720155996896e-05 -10.00000289925174 -2.4998022798434318 1.2824179328309239e-05 -4.2311925838589559e-06 1.2824179328309239e-05 -2.4998012718285016 -2.8343622739512853e-05 -4.2311925838589559e-06 -2.8343622739512853e-05 -9.9999897557787101 -2.4998382065590432 3.1814573922901991e-05 -5.9991186205365921e-06 3.1814573922901991e-05 -2.4997700166206176 -1.2367746705876925e-05 -5.9991186205365921e-06 -1.2367746705876925e-05 -9.999984185286344 -2.4998366237798564 1.6308806300458943e-05 -1.4149681216935051e-05 1.6308806300458943e-05 -2.4997897466172354 -6.3367141187598008e-06 -1.4149681216935051e-05 -6.3367141187598008e-06 -9.9999775955662287 -2.4998511982402363 7.921558630639984e-06 -8.7197799576443913e-06 7.921558630639984e-06 -2.499832530959285 9.7983694153924716e-06 -8.7197799576443913e-06 9.7983694153924716e-06 -9.9999953825125729 -2.4998119070766069 -9.3665346547364483e-06 -3.0479134291994114e-06 -9.3665346547364483e-06 -2.4998172450117959 3.0531991335180919e-06 -3.0479134291994114e-06 3.0531991335180919e-06 -9.999985311153722 -2.4998346083458767 5.9705658262749778e-06 -5.3087653593131279e-06 5.9705658262749778e-06 -2.4998994963505243 5.9364941424888684e-06 -5.3087653593131279e-06 5.9364941424888684e-06 -9.9999958101994686 -2.4998486617995033 6.9996684816392543e-05 -1.1262062395545058e-05 6.9996684816392543e-05 -2.4998914922157409 3.0851866513970094e-05 -1.1262062395545058e-05 3.0851866513970094e-05 -10.00000126569552 -2.4998715382115995 -2.3237700495637998e-05 -5.9734510426956433e-06 -2.3237700495637998e-05 -2.4999646157962774 5.103824628704956e-06 -5.9734510426956433e-06 5.103824628704956e-06 -10.000016231855344 -2.4998196671778352 2.2020536039819258e-05 -2.3520491829742696e-06 2.2020536039819258e-05 -2.4998123191336674 5.1716137544843832e-05 -2.3520491829742696e-06 5.1716137544843832e-05 -9.9999994617956816 -2.4998322945024665 6.8933808413318559e-05 -1.2279007410853637e-06 6.8933808413318559e-05 -2.4998231273366418 -4.7647366548275727e-05 -1.2279007410853637e-06 -4.7647366548275727e-05 -9.9999925935050982 -2.4998662268715712 -1.5063287490668453e-05 -4.1185297305901258e-07 -1.5063287490668453e-05 -2.4999225910314049 -3.4482463135532271e-05 -4.1185297305901258e-07 -3.4482463135532271e-05 -10.000019364970996 -2.4998628580040547 1.0472362727636963e-05 1.6017123838807379e-05 1.0472362727636963e-05 -2.499860287740109 3.0275714379968122e-07 1.6017123838807379e-05 3.0275714379968122e-07 -9.9999984146540282 -2.4998343248238548 -1.4924995790397678e-05 -1.2436284308137147e-05 -1.4924995790397678e-05 -2.4998138863854855 6.2121192101471934e-06 -1.2436284308137147e-05 6.2121192101471934e-06 -9.9999900786287768 -2.4998769333326241 -1.3494062972101041e-05 1.722747304899741e-05 -1.3494062972101041e-05 -2.4999002538711048 -4.3764869293028141e-06 1.722747304899741e-05 -4.3764869293028141e-06 -10.000008236246227 -2.4998827950754992 -9.6474560484469693e-06 -2.2383372280998515e-05 -9.6474560484469693e-06 -2.4999027304075474 1.0883923058813139e-05 -2.2383372280998515e-05 1.0883923058813139e-05 -10.000001833163321 -2.499858932152712 5.0823591906421986e-06 1.3393251435900311e-05 5.0823591906421986e-06 -2.4998646424845816 -5.9329699304555561e-06 1.3393251435900311e-05 -5.9329699304555561e-06 -10.00000907896441 -2.4998625956382119 -5.4520679097131596e-06 -2.2117918694775085e-05 -5.4520679097131596e-06 -2.4998214973940263 1.4356852743535597e-05 -2.2117918694775085e-05 1.4356852743535597e-05 -9.9999837889702512 -2.4998687837948372 3.2322456060255133e-06 -1.4456908026261317e-05 3.2322456060255133e-06 -2.49985938121507 2.9558444794020033e-06 -1.4456908026261317e-05 2.9558444794020033e-06 -9.9999941181387975 -2.4998319882874065 -5.8505877969883627e-06 -1.2224768397572916e-05 -5.8505877969883627e-06 -2.4998810930548037 1.0200967617279844e-06 -1.2224768397572916e-05 1.0200967617279844e-06 -10.000022628893911 -2.4998661236140309 -3.4311483080449209e-05 -1.0589307343877863e-05 -3.4311483080449209e-05 -2.4999354724208684 5.2567289792193606e-06 -1.0589307343877863e-05 5.2567289792193606e-06 -10.000040339842382 -2.4997168172450794 -8.1840769266068044e-05 9.6606681232458413e-06 -8.1840769266068044e-05 -2.499810760738908 5.6616630228489839e-06 9.6606681232458413e-06 5.6616630228489839e-06 -9.9999996215230649 -2.4998905531885658 -1.347141342490475e-05 -1.1158029913360679e-06 -1.347141342490475e-05 -2.4998306235953311 2.0581983079637212e-05 -1.1158029913360679e-06 2.0581983079637212e-05 -10.000022084827833 -2.499877805619517 -1.3842931393849647e-05 -3.6521779023246381e-07 -1.3842931393849647e-05 -2.4998576310157854 1.6844410108518559e-05 -3.6521779023246381e-07 1.6844410108518559e-05 -10.000025583989425 -2.4998238609784713 -8.3727628185492143e-05 -3.0214765711633618e-06 -8.3727628185492143e-05 -2.4997102076444953 -6.1176111678662437e-06 -3.0214765711633618e-06 -6.1176111678662437e-06 -10.000001281647505 -2.4997825565973999 -8.8551059145180046e-05 -2.3177138396945907e-05 -8.8551059145180046e-05 -2.4997717988068215 2.5174498706093118e-05 -2.3177138396945907e-05 2.5174498706093118e-05 -10.000012914624257 -2.4998833445443687 -5.6467665357546823e-05 2.602264056150716e-05 -5.6467665357546823e-05 -2.4999118649932086 -2.104211538167533e-05 2.602264056150716e-05 -2.104211538167533e-05 -10.000024742896438 -2.4998589817939747 -3.1367759785288422e-05 6.9652141476694851e-07 -3.1367759785288422e-05 -2.4998651215887575 -4.0576251500112903e-05 6.9652141476694851e-07 -4.0576251500112903e-05 -10.000009310785117 -2.4998357625413483 -5.764149322610518e-05 -4.133291356467339e-05 -5.764149322610518e-05 -2.4998253367329486 4.3496264966691456e-05 -4.133291356467339e-05 4.3496264966691456e-05 -10.000040944968895 -2.4998054342319707 -0.00011727837963572239 4.1961303827164897e-05 -0.00011727837963572239 -2.4998046239195437 -5.4856343147946518e-05 4.1961303827164897e-05 -5.4856343147946518e-05 -10.000018018312883 -2.4999437324223335 7.1052555232668595e-07 -1.2219643455324558e-05 7.1052555232668595e-07 -2.4998806610899331 -1.9405402374772507e-05 -1.2219643455324558e-05 -1.9405402374772507e-05 -10.000017421332155 -2.4998907086457702 -6.6574934056380341e-05 7.8427839854455783e-05 -6.6574934056380341e-05 -2.4998667450592542 -7.3621675257484753e-05 7.8427839854455783e-05 -7.3621675257484753e-05 -10.000008902681401 -2.4999562665880832 -2.5830201951422817e-05 1.1813682986527851e-05 -2.5830201951422817e-05 -2.4999346473162083 -8.4769651031990634e-07 1.1813682986527851e-05 -8.4769651031990634e-07 -10.000031675756173 -2.499848402345247 1.8198327398455058e-05 4.5984461110037955e-06 1.8198327398455058e-05 -2.4998780482769067 -6.8264624815128627e-06 4.5984461110037955e-06 -6.8264624815128627e-06 -9.9999998872227991 -2.4998392095110518 2.5035595897929952e-05 7.3851634649901854e-06 2.5035595897929952e-05 -2.4998271420892717 -5.1253315158206192e-05 7.3851634649901854e-06 -5.1253315158206192e-05 -10.000001134270335 -2.4998072965592222 -3.9003793345417978e-05 5.6083777622006892e-09 -3.9003793345417978e-05 -2.499748152059837 -1.4877220463560548e-05 5.6083777622006892e-09 -1.4877220463560548e-05 -10.000036399771876 -2.4997787108507721 -2.6563779011984541e-05 1.6372106120599028e-05 -2.6563779011984541e-05 -2.4998393463397433 -7.2000177619102601e-05 1.6372106120599028e-05 -7.2000177619102601e-05 -9.9999917617258411 -2.4997479550924959 8.4530793534121827e-06 2.1702141113522089e-05 8.4530793534121827e-06 -2.4997476681871289 -1.6379910531050257e-05 2.1702141113522089e-05 -1.6379910531050257e-05 -9.9999737762740715 -2.4998420133062114 -2.3106859044022445e-05 9.337352567762025e-05 -2.3106859044022445e-05 -2.4997660629751772 -2.0956985908426873e-05 9.337352567762025e-05 -2.0956985908426873e-05 -9.9999835292580848 -2.4998297802968876 3.9491212584822628e-05 6.6108348228510749e-05 3.9491212584822628e-05 -2.4998351302746666 -9.7241650927060164e-06 6.6108348228510749e-05 -9.7241650927060164e-06 -9.9999945263037233 -2.4999167153996202 2.3635963989475538e-05 -7.4267738661148996e-06 2.3635963989475538e-05 -2.4998585428733593 -1.8066990911336234e-05 -7.4267738661148996e-06 -1.8066990911336234e-05 -10.000007668136139 -2.4998112461117783 1.5947738665313277e-05 -1.6503100551013006e-05 1.5947738665313277e-05 -2.4998183629440378 -3.4857452551051438e-06 -1.6503100551013006e-05 -3.4857452551051438e-06 -10.000001859264971 -2.4998359727204313 1.223161041319841e-05 3.5042436926424614e-05 1.223161041319841e-05 -2.499823878925806 -4.6709863745775237e-06 3.5042436926424614e-05 -4.6709863745775237e-06 -9.999977751503053 -2.4998522599904196 3.9812123195281034e-06 1.7417781424722278e-05 3.9812123195281034e-06 -2.4998203475971255 -4.0107349335016806e-06 1.7417781424722278e-05 -4.0107349335016806e-06 -9.9999933099095752 -2.4998046878450375 -3.9222197184674267e-06 2.8481518121736826e-07 -3.9222197184674267e-06 -2.4998207586794448 -3.1982383115192192e-06 2.8481518121736826e-07 -3.1982383115192192e-06 -10.000001974031264 -2.4998277360091681 3.7398715074746889e-05 -8.6049105156860151e-06 3.7398715074746889e-05 -2.499828086963733 1.742576805519036e-06 -8.6049105156860151e-06 1.742576805519036e-06 -9.9999994552491955 -2.4998535151052517 1.2776790934350716e-06 1.7424938207888374e-05 1.2776790934350716e-06 -2.4998404556660807 -1.5418736275307765e-05 1.7424938207888374e-05 -1.5418736275307765e-05 -10.000007491308434 -2.4998089575275229 -3.1124363333355081e-06 -3.8785470543589717e-06 -3.1124363333355081e-06 -2.4998198454444571 -5.1589779115346346e-06 -3.8785470543589717e-06 -5.1589779115346346e-06 -9.9999978880276394 -2.4998007916048817 3.0348751394501227e-08 4.947526904963695e-05 3.0348751394501227e-08 -2.4998143119626715 -4.1365215110999998e-06 4.947526904963695e-05 -4.1365215110999998e-06 -9.9999811304321256 -2.499711846650567 -3.8979107917827839e-05 -1.1394174610046548e-05 -3.8979107917827839e-05 -2.4997840956297424 7.2209427415259597e-07 -1.1394174610046548e-05 7.2209427415259597e-07 -9.9999743619125283 -2.5000228248425458 -0.00018234888897822134 -4.9184914220568032e-05 -0.00018234888897822134 -2.499855621994314 1.4297870973400961e-05 -4.9184914220568032e-05 1.4297870973400961e-05 -10.000041096461473 -2.4998133925738237 5.058174273581794e-05 2.9040400134405786e-05 5.058174273581794e-05 -2.499828958208937 -3.2975819799219153e-06 2.9040400134405786e-05 -3.2975819799219153e-06 -9.9999924215304929 -2.4998779120705841 2.4133720126192341e-05 -6.6343666533796863e-06 2.4133720126192341e-05 -2.4998279399606815 -4.5549951206425021e-06 -6.6343666533796863e-06 -4.5549951206425021e-06 -9.9999948773972207 -2.4998832882284558 1.573259372906922e-05 -3.547206261167446e-06 1.573259372906922e-05 -2.4998351244384951 1.1380212621592278e-05 -3.547206261167446e-06 1.1380212621592278e-05 -10.000003358856464 -2.4998509482032505 2.006300680085819e-05 -6.1727281597256933e-06 2.006300680085819e-05 -2.4998302516284534 7.2388388261401815e-06 -6.1727281597256933e-06 7.2388388261401815e-06 -10.000006120595312 -2.4998288237485013 5.7016374526770556e-05 1.8182208879835571e-05 5.7016374526770556e-05 -2.4998384299338365 2.6274941689052866e-06 1.8182208879835571e-05 2.6274941689052866e-06 -10.000000196506917 -2.4997831976357823 3.2430395258899584e-05 -3.2152028612841832e-05 3.2430395258899584e-05 -2.4998312660693252 2.2358377645304017e-05 -3.2152028612841832e-05 2.2358377645304017e-05 -10.000016948350904 -2.4997641267007156 2.3397224743727029e-05 -4.1473797969260318e-05 2.3397224743727029e-05 -2.499823077047016 2.7940143844773502e-05 -4.1473797969260318e-05 2.7940143844773502e-05 -10.000003369571445 -2.4997216526305284 6.2414149264836523e-05 -1.6493369965786542e-05 6.2414149264836523e-05 -2.4998282855223337 1.8721960397982684e-05 -1.6493369965786542e-05 1.8721960397982684e-05 -10.000004664851893 -2.4997962734044687 -8.413416530216977e-06 2.0640214808409496e-05 -8.413416530216977e-06 -2.4997891867782034 -7.2840873173163345e-06 2.0640214808409496e-05 -7.2840873173163345e-06 -9.9999931399542348 -2.499881098149964 -7.9466537210373707e-05 -1.132809109449795e-05 -7.9466537210373707e-05 -2.4998486738518801 -6.3911108547642925e-06 -1.132809109449795e-05 -6.3911108547642925e-06 -10.000013630625379 -2.4998400210662632 1.2385389576971042e-05 -2.1115987811626269e-06 1.2385389576971042e-05 -2.4998195593067463 -5.1073986782057545e-06 -2.1115987811626269e-06 -5.1073986782057545e-06 -9.9999920513890679 -2.4997702892105331 -2.2907606314240808e-06 2.0201643402550928e-06 -2.2907606314240808e-06 -2.4998257915666735 2.5618561405593709e-06 2.0201643402550928e-06 2.5618561405593709e-06 -9.999985863209 -2.4998603015373897 -2.0432889616984757e-05 -5.1104588330019851e-06 -2.0432889616984757e-05 -2.4998513589277573 -4.606240464610778e-06 -5.1104588330019851e-06 -4.606240464610778e-06 -10.000002058978925 -2.499775755786473 -2.1088156272099121e-05 1.0268766338583646e-05 -2.1088156272099121e-05 -2.4998451519594767 -1.9766539519849857e-05 1.0268766338583646e-05 -1.9766539519849857e-05 -10.000002135991863 -2.4999039341108982 -8.6016088754412902e-05 -8.4209645381250198e-06 -8.6016088754412902e-05 -2.4998388144985912 8.2623614199306417e-06 -8.4209645381250198e-06 8.2623614199306417e-06 -9.9999952787991546 -2.4999150062164825 2.1290367094197936e-05 -7.6958562136297815e-06 2.1290367094197936e-05 -2.4998732406060049 -4.3015212858321661e-07 -7.6958562136297815e-06 -4.3015212858321661e-07 -10.000004503194148 -2.4998492917007855 1.0493618739290051e-05 3.2851275289402793e-05 1.0493618739290051e-05 -2.4998628613719074 2.9901642388807659e-06 3.2851275289402793e-05 2.9901642388807659e-06 -10.000016183958238 -2.4997949588798041 -2.8891063837321041e-05 1.1155332532375439e-05 -2.8891063837321041e-05 -2.4998347988653582 -5.1526649667010815e-06 1.1155332532375439e-05 -5.1526649667010815e-06 -9.9999826171592421 -2.4998210862355812 -6.2954786370500408e-05 4.4147350719114797e-05 -6.2954786370500408e-05 -2.4998251261687994 2.3676122440363656e-06 4.4147350719114797e-05 2.3676122440363656e-06 -10.000003501323306 -2.4997728291316932 -1.8265113416491797e-05 -5.0435731191456057e-05 -1.8265113416491797e-05 -2.4998266254755244 -2.0455675731056999e-06 -5.0435731191456057e-05 -2.0455675731056999e-06 -9.9999928302423555 -2.4998214847998161 -3.1390863430124229e-06 2.5357797994729481e-07 -3.1390863430124229e-06 -2.4997987235264736 5.7674430564702561e-06 2.5357797994729481e-07 5.7674430564702561e-06 -9.9999987411037985 -2.4998237498754952 -1.2849892300903003e-05 5.6397631720273012e-06 -1.2849892300903003e-05 -2.4998090110090576 2.9669729793013744e-06 5.6397631720273012e-06 2.9669729793013744e-06 -9.9999931910988948 -2.4998377095401731 -2.1552341861728869e-06 5.2893490023464551e-06 -2.1552341861728869e-06 -2.4998234130009291 -1.616614753174872e-07 5.2893490023464551e-06 -1.616614753174872e-07 -9.9999910775113339 -2.4998330940222457 -1.0229098150802179e-06 7.6517326164093902e-06 -1.0229098150802179e-06 -2.4998409148227241 2.431638240096845e-06 7.6517326164093902e-06 2.431638240096845e-06 -10.000000670098299 -2.4998226490327662 -1.4845174636887129e-05 3.5921900991553457e-06 -1.4845174636887129e-05 -2.4998411490712487 -1.9403194677636293e-06 3.5921900991553457e-06 -1.9403194677636293e-06 -9.9999904057824587 -2.4998088390579301 -2.8526941696293939e-06 1.1895618863277946e-06 -2.8526941696293939e-06 -2.499834752929385 2.7079520403816559e-06 1.1895618863277946e-06 2.7079520403816559e-06 -9.9999921136656784 -2.4998414170041112 -2.2991526797132647e-05 -1.3977941115683734e-06 -2.2991526797132647e-05 -2.4998199574314786 9.5950615275341988e-07 -1.3977941115683734e-06 9.5950615275341988e-07 -9.9999902298893204 -2.4998256630853612 -7.7234921906579342e-07 1.7541163739309695e-06 -7.7234921906579342e-07 -2.4998244012273565 1.1397162786863646e-06 1.7541163739309695e-06 1.1397162786863646e-06 -10.000005546849867 -2.4998578184373139 -8.4961935277951564e-06 8.4498725190229607e-06 -8.4961935277951564e-06 -2.4998722940728033 1.0206790363120888e-05 8.4498725190229607e-06 1.0206790363120888e-05 -10.000024397891909 -2.4998508806600546 2.8595841685733573e-06 4.7580379369804859e-06 2.8595841685733573e-06 -2.499849090580093 1.0997884506666062e-05 4.7580379369804859e-06 1.0997884506666062e-05 -10.000022217416838 -2.4998388483486362 5.5789643332926545e-06 9.7126639698212487e-06 5.5789643332926545e-06 -2.4998457874960724 1.3717264672585827e-05 9.7126639698212487e-06 1.3717264672585827e-05 -10.000017734308159 -2.499841054610302 1.2143506350470814e-06 5.3480502712128156e-06 1.2143506350470814e-06 -2.4998534325180675 1.0407872174766908e-05 5.3480502712128156e-06 1.0407872174766908e-05 -10.000021120594493 -2.4998413109089643 -3.34997258460733e-06 1.1084010935746846e-05 -3.34997258460733e-06 -2.4998510175569049 1.0445447645945904e-05 1.1084010935746846e-05 1.0445447645945904e-05 -10.000036702495493 -2.4998478808162758 -1.7116237261131997e-06 3.8526070362809861e-06 -1.7116237261131997e-06 -2.4998377873844042 1.0251250589732308e-05 3.8526070362809861e-06 1.0251250589732308e-05 -10.000029780788912 -2.4998083095093344 -1.0042430735674702e-05 -1.3007814009924346e-05 -1.0042430735674702e-05 -2.499818557869788 2.4502659847769337e-05 -1.3007814009924346e-05 2.4502659847769337e-05 -9.9999928329888679 -2.4998290242243111 9.5952415348487272e-06 6.740796425042106e-06 9.5952415348487272e-06 -2.4998525651549781 8.768356305921543e-06 6.740796425042106e-06 8.768356305921543e-06 -10.000014515012959 -2.4997851802624993 3.5512031229010644e-08 -1.1260477302155181e-05 3.5512031229010644e-08 -2.4998339881689748 8.6343817388145894e-06 -1.1260477302155181e-05 8.6343817388145894e-06 -10.000009398167816 -2.499830333244395 9.3799634361970469e-07 -1.8302731324304489e-05 9.3799634361970469e-07 -2.4997998939126358 1.3986349338246384e-05 -1.8302731324304489e-05 1.3986349338246384e-05 -9.9999862299001734 -2.4998319492872572 -4.0642940568372883e-05 -5.0195445187029009e-06 -4.0642940568372883e-05 -2.4998311564388143 6.5485217923821892e-06 -5.0195445187029009e-06 6.5485217923821892e-06 -9.9999737681488199 -2.4997959747890888 5.4447359357666219e-05 2.8777473564112199e-06 5.4447359357666219e-05 -2.4997999989427027 1.6667960180960506e-06 2.8777473564112199e-06 1.6667960180960506e-06 -9.999996452642149 -2.4998358914606738 2.8279734263681403e-05 3.3857748316989955e-05 2.8279734263681403e-05 -2.4998226637185872 1.1102171445287468e-05 3.3857748316989955e-05 1.1102171445287468e-05 -9.999969365844974 -2.500003153917481 4.7279013009880871e-05 -0.00016958372344078043 4.7279013009880871e-05 -2.499843596643184 1.3736880501546977e-05 -0.00016958372344078043 1.3736880501546977e-05 -10.000035997242595 -2.4998972479134975 2.0245422573829559e-05 3.2740418065557719e-06 2.0245422573829559e-05 -2.4998951330907984 9.3470888140601005e-06 3.2740418065557719e-06 9.3470888140601005e-06 -9.9999977754484739 -2.4998559272449512 -1.7258206855110572e-05 1.7204505597945285e-05 -1.7258206855110572e-05 -2.4998422789850778 6.8579858734096888e-06 1.7204505597945285e-05 6.8579858734096888e-06 -9.9999887498810764 -2.4997491587559382 7.3235078914246339e-06 3.7495640614615411e-06 7.3235078914246339e-06 -2.4997538013817224 3.2694237508401613e-06 3.7495640614615411e-06 3.2694237508401613e-06 -9.9999780375619949 -2.4998963080623953 2.0736054065544647e-05 6.4686721409579206e-05 2.0736054065544647e-05 -2.4998947168738366 2.8021368188468898e-05 6.4686721409579206e-05 2.8021368188468898e-05 -9.9999980071012864 -2.4997924032507099 -3.0742504157195942e-05 2.4979851234618877e-05 -3.0742504157195942e-05 -2.4998301225858248 6.0947571221880992e-05 2.4979851234618877e-05 6.0947571221880992e-05 -9.9999887728874537 -2.4998317411982613 -2.2595311579951303e-05 5.2842179860235206e-05 -2.2595311579951303e-05 -2.4998664682015308 2.4908816829594116e-05 5.2842179860235206e-05 2.4908816829594116e-05 -9.999983853440412 -2.4998576738045224 -2.40141178196449e-05 2.4628096355172602e-05 -2.40141178196449e-05 -2.4998321299132189 5.2328032220216869e-05 2.4628096355172602e-05 5.2328032220216869e-05 -9.9999939866426555 -2.49984669605562 -1.6935309843375728e-05 5.4223467049752117e-06 -1.6935309843375728e-05 -2.4998653749758741 6.8836319861986794e-06 5.4223467049752117e-06 6.8836319861986794e-06 -10.000000692128438 -2.4997844467809829 0.00010328253122026665 3.2650746415896492e-05 0.00010328253122026665 -2.4997795260048674 4.6803395388650415e-05 3.2650746415896492e-05 4.6803395388650415e-05 -10.000039181663457 -2.4997268881571983 3.41518807870873e-05 5.1352195757914387e-06 3.41518807870873e-05 -2.4996915407704812 5.4474851761909804e-05 5.1352195757914387e-06 5.4474851761909804e-05 -9.9999699453794122 -2.4998208077810098 8.6585695034096057e-05 4.7483897315458989e-05 8.6585695034096057e-05 -2.499762460485023 2.1205457123585347e-05 4.7483897315458989e-05 2.1205457123585347e-05 -9.999977591606708 -2.4998264131199628 -4.3300823257583627e-05 8.8099530337615306e-07 -4.3300823257583627e-05 -2.4998303159707378 -4.7150249216088014e-07 8.8099530337615306e-07 -4.7150249216088014e-07 -9.9999759483939421 -2.4998257547227158 2.2264045962352335e-05 3.6931375015925028e-06 2.2264045962352335e-05 -2.4998358906572307 3.6463539798248235e-05 3.6931375015925028e-06 3.6463539798248235e-05 -9.9999735320136622 -2.4998126384491166 4.552053508556376e-05 2.1893324895216892e-06 4.552053508556376e-05 -2.4997954776434601 2.8961952027728444e-06 2.1893324895216892e-06 2.8961952027728444e-06 -9.9999988604832097 -2.499833017277469 -2.8817799453471523e-06 3.7592952550902226e-06 -2.8817799453471523e-06 -2.4997854506167201 -9.2171380807748449e-06 3.7592952550902226e-06 -9.2171380807748449e-06 -10.000005519593209 -2.499837995124357 5.7633673919825241e-06 6.9861404785598324e-06 5.7633673919825241e-06 -2.499820164005103 6.2372121565346106e-06 6.9861404785598324e-06 6.2372121565346106e-06 -10.000009548367169 -2.4998173486791098 -1.0432579487426941e-05 1.7274691356483629e-05 -1.0432579487426941e-05 -2.4998041929632651 -1.0972480571691534e-05 1.7274691356483629e-05 -1.0972480571691534e-05 -9.99999189573278 -2.4998055386342664 6.668383852427909e-07 7.6497028551614221e-06 6.668383852427909e-07 -2.499823840911267 -1.4803462088153196e-05 7.6497028551614221e-06 -1.4803462088153196e-05 -9.9999852415938264 -2.4998557920040643 5.4033980243312413e-05 1.1587774539023599e-05 5.4033980243312413e-05 -2.5000103678612504 -0.00018254809146789341 1.1587774539023599e-05 -0.00018254809146789341 -10.000037757065158 -2.499829643154416 -6.2981324349016299e-05 5.2502512115637501e-06 -6.2981324349016299e-05 -2.4998217854811537 4.5523108342493401e-05 5.2502512115637501e-06 4.5523108342493401e-05 -10.000002800689199 -2.4998396398346694 -1.8084772062421487e-05 -2.4600038592836881e-06 -1.8084772062421487e-05 -2.4998568774764376 -6.9028890727906855e-06 -2.4600038592836881e-06 -6.9028890727906855e-06 -9.999999088774377 -2.4998598925627213 1.5995964332614973e-05 -2.1489634043359018e-06 1.5995964332614973e-05 -2.4999132224261515 -7.6347334969639746e-06 -2.1489634043359018e-06 -7.6347334969639746e-06 -9.9999986587261649 -2.4998397914540678 -7.3890995696460109e-05 1.6793154489214146e-06 -7.3890995696460109e-05 -2.4998498017568376 2.8885493536634499e-05 1.6793154489214146e-06 2.8885493536634499e-05 -9.9999992271560227 -2.4998549732070021 9.6626454510173577e-06 9.8429009938172385e-06 9.6626454510173577e-06 -2.49984718672148 3.3778838179898685e-05 9.8429009938172385e-06 3.3778838179898685e-05 -10.000014242601047 -2.4998264010135016 -2.7563646584814289e-06 4.6455969009429054e-06 -2.7563646584814289e-06 -2.4997739238249923 5.6482950760994299e-07 4.6455969009429054e-06 5.6482950760994299e-07 -9.999983447875497 -2.4998266464017211 1.5327802036802096e-05 -3.4944158855410024e-06 1.5327802036802096e-05 -2.4998427420128211 -3.7245815747155575e-06 -3.4944158855410024e-06 -3.7245815747155575e-06 -9.9999940129973766 -2.4998431832940624 -1.5681990858077399e-05 -1.0554889104952281e-05 -1.5681990858077399e-05 -2.4999093452224428 -8.4737192391770577e-06 -1.0554889104952281e-05 -8.4737192391770577e-06 -9.9999950725925881 -2.499833539455464 -2.1866308304001276e-05 -2.9606888819699861e-05 -2.1866308304001276e-05 -2.4997892401773019 -4.5104807991691587e-05 -2.9606888819699861e-05 -4.5104807991691587e-05 -10.000000715468659 -2.4997815541005259 -3.2052635711042805e-06 -8.0818984926622761e-07 -3.2052635711042805e-06 -2.4998106265149671 2.7721548896408876e-05 -8.0818984926622761e-07 2.7721548896408876e-05 -10.000005791887197 -2.4998290197716679 -8.0683050948438705e-05 -1.7355653463724252e-05 -8.0683050948438705e-05 -2.4997252295871535 -9.5576848915257528e-06 -1.7355653463724252e-05 -9.5576848915257528e-06 -10.00000308394922 -2.4998378375278882 -2.0514922508911234e-05 -1.934101700840074e-05 -2.0514922508911234e-05 -2.499791088936643 -3.9002211487115801e-05 -1.934101700840074e-05 -3.9002211487115801e-05 -10.000018097458323 -2.4998367400324044 1.4079191359312387e-05 -1.3966374616813937e-05 1.4079191359312387e-05 -2.4998711859875593 3.4647657258801701e-06 -1.3966374616813937e-05 3.4647657258801701e-06 -10.000018340351065 -2.4998907287882806 3.5377712268699984e-06 -4.5611902379505409e-06 3.5377712268699984e-06 -2.4998319045186768 -5.5312458164813449e-06 -4.5611902379505409e-06 -5.5312458164813449e-06 -9.9999914230908686 -2.4998567230694366 2.9680533171506755e-05 -1.0447114366485266e-05 2.9680533171506755e-05 -2.4999001151284812 -8.8797553843278365e-07 -1.0447114366485266e-05 -8.8797553843278365e-07 -10.000029320970617 -2.4998403227863775 7.8590391802442037e-07 -6.553360060390645e-06 7.8590391802442037e-07 -2.4998890064184844 -1.8641275572051086e-06 -6.553360060390645e-06 -1.8641275572051086e-06 -9.9999877441052796 -2.4998942976384959 1.4653877433636575e-05 -8.0792556023112638e-07 1.4653877433636575e-05 -2.4998931704326757 7.5464383169077109e-06 -8.0792556023112638e-07 7.5464383169077109e-06 -10.000015253895574 -2.4997131369126855 8.1237014319267433e-05 5.1077704128488222e-06 8.1237014319267433e-05 -2.4998119585506213 -1.8455162802410996e-06 5.1077704128488222e-06 -1.8455162802410996e-06 -9.9999949487949991 -2.4999018849398471 6.4374382251754904e-06 -9.9004909888122938e-06 6.4374382251754904e-06 -2.4999022339801584 -3.8502785919547478e-06 -9.9004909888122938e-06 -3.8502785919547478e-06 -9.9999992569579881 -2.4998133734587373 8.0092994659935936e-05 -4.5338595073829424e-06 8.0092994659935936e-05 -2.4997120782115516 1.0258576899957461e-05 -4.5338595073829424e-06 1.0258576899957461e-05 -10.000002525326906 -2.4998967309285027 3.672126766700117e-05 -2.3212865762900492e-06 3.672126766700117e-05 -2.4998684075521527 -9.8497558873589242e-06 -2.3212865762900492e-06 -9.8497558873589242e-06 -10.000035792951413 -2.4998685279605777 1.6801513722864857e-05 -5.7855275770180015e-07 1.6801513722864857e-05 -2.4998278085943166 -1.2590832419334674e-05 -5.7855275770180015e-07 -1.2590832419334674e-05 -10.000021986164604 -2.4998399428317075 5.4162125430792015e-05 -4.8104578443286528e-05 5.4162125430792015e-05 -2.4998430318284193 -4.2561478073910308e-05 -4.8104578443286528e-05 -4.2561478073910308e-05 -10.00004331656146 -2.4998748714339367 3.2939771908958693e-05 2.1944995181044646e-05 3.2939771908958693e-05 -2.4998819089140181 2.9127732513956062e-05 2.1944995181044646e-05 2.9127732513956062e-05 -10.000002740231793 -2.4998745875484687 2.6684548261683914e-05 1.6796053028844682e-05 2.6684548261683914e-05 -2.4998790513240152 2.5828307280040264e-05 1.6796053028844682e-05 2.5828307280040264e-05 -10.000019779523157 -2.4997780710647968 8.998212213962027e-05 -2.6005252463434658e-05 8.998212213962027e-05 -2.4997792967234345 -1.9530483056584558e-05 -2.6005252463434658e-05 -1.9530483056584558e-05 -10.00000702279792 
</DataArray>
</CellData>
</Piece>
</UnstructuredGrid>
</VTKFile>
