<?xml version="1.0"?>
<VTKFile type="UnstructuredGrid" version="0.1" byte_order="LittleEndian">
<UnstructuredGrid>
<Piece NumberOfPoints="2824" NumberOfCells="706">
<Points>
<DataArray type="Float64" NumberOfComponents="3" format="ascii">
1.367905405405516 1.367905405405516 0.63209459459450335 0.86620738987133672 1.5000000000001401 1.0337672479303861 1 0.99999999999999978 0.99999999999999978 1.532347752213032 1.4746298915713509 1.076108883276101 0.59772980397989239 0.59772980397970443 0.74731771606769093 0.58179751944592217 1.199262271083781 0.58179751944619096 1 0.99999999999999978 0.99999999999999978 1.0362039003897969 1.032400726930619 0.49025282767413908 0.979347826088805 0.40787109374939401 2 0.62412558229932147 0 1.7349990699404549 0.61665443494899885 0.26235908848011791 2 0.63209459459459538 0.63209459459460771 1.3679054054053961 0.59772980397989239 0.59772980397970443 0.74731771606769093 1 0.99999999999999978 0.99999999999999978 1.19811642196055 0.57789440443542173 0.58983547034755146 1.0362039003897969 1.032400726930619 0.49025282767413908 0.63209459459459538 0.63209459459460771 1.3679054054053961 1 0.99999999999999978 0.99999999999999978 0.48528811404415773 0.99061345538166756 1.009386544617999 0.98528458949676634 0.98528458949702458 1.516045488389935 0.63209459459459538 0.63209459459460771 1.3679054054053961 0.48528811404415773 0.99061345538166756 1.009386544617999 1 0.99999999999999978 0.99999999999999978 0.98528458949709452 0.48395451161029718 1.014715410503322 1.383345565053743 1.737640911520447 0 1.367905405405516 1.367905405405516 0.63209459459450335 1.3863248792284211 2 0.25937977430496501 0.92204894738342102 1.545944433704725 0.55253256161165365 0.59772980397967113 1.252682283932151 1.4022701960199091 0.48528811404415773 0.99061345538166756 1.009386544617999 1 0.99999999999999978 0.99999999999999978 0.98528458949676634 0.98528458949702458 1.516045488389935 1 0.99999999999999978 0.99999999999999978 0.48528811404415773 0.99061345538166756 1.009386544617999 0.59772980397989239 0.59772980397970443 0.74731771606769093 0.98528458949709452 0.48395451161029718 1.014715410503322 1 0.99999999999999978 0.99999999999999978 0.63209459459459538 0.63209459459460771 1.3679054054053961 0.98528458949709452 0.48395451161029718 1.014715410503322 0.98528458949676634 0.98528458949702458 1.516045488389935 1.1981164219601721 1.4101645296525169 1.4221055955645681 1 0.99999999999999978 0.99999999999999978 0.86620738987133672 1.5000000000001401 1.0337672479303861 1.532347752213032 1.4746298915713509 1.076108883276101 1 0.99999999999999978 0.99999999999999978 0.98528458949709452 0.48395451161029718 1.014715410503322 1.2526822839324241 0.59772980398008735 1.402270196020621 0.98528458949676634 0.98528458949702458 1.516045488389935 1 0.99999999999999978 0.99999999999999978 0.58179751944592217 1.199262271083781 0.58179751944619096 0.59772980397989239 0.59772980397970443 0.74731771606769093 0.48528811404415773 0.99061345538166756 1.009386544617999 0.979347826088805 0.40787109374939401 2 1.2526822839324241 0.59772980398008735 1.402270196020621 0.63209459459459538 0.63209459459460771 1.3679054054053961 0.98528458949676634 0.98528458949702458 1.516045488389935 0.59772980397967113 1.252682283932151 1.4022701960199091 1 0.99999999999999978 0.99999999999999978 0.86620738987133672 1.5000000000001401 1.0337672479303861 0.98528458949676634 0.98528458949702458 1.516045488389935 1.671075651349931 1.671075651349931 0 1.3863248792284211 2 0.25937977430496501 1.383345565053743 1.737640911520447 0 1.367905405405516 1.367905405405516 0.63209459459450335 0.33416666666682932 0 1.665833333333445 0.61665443494899885 0.26235908848011791 2 0.62412558229932147 0 1.7349990699404549 0.63209459459459538 0.63209459459460771 1.3679054054053961 0 0.40787109374995661 0.97934782608798243 0 0.26340755208329458 1.374036231884757 0.26340755208335531 0 1.374036231884725 0.63209459459459538 0.63209459459460771 1.3679054054053961 1.1981164219601721 1.4101645296525169 1.4221055955645681 0.86620738987133672 1.5000000000001401 1.0337672479303861 1 0.99999999999999978 0.99999999999999978 0.98528458949676634 0.98528458949702458 1.516045488389935 1 0.99999999999999978 0.99999999999999978 0.59772980397989239 0.59772980397970443 0.74731771606769093 1.19811642196055 0.57789440443542173 0.58983547034755146 0.98528458949709452 0.48395451161029718 1.014715410503322 2 1.020652173914391 0.40787109374941138 2 1.3863248792284211 0.25937977430496489 1.737640911520401 1.3750846954886311 0 1.367905405405516 1.367905405405516 0.63209459459450335 0 0.97934782608799098 1.5921289062499051 0.59772980397967113 1.252682283932151 1.4022701960199091 0.63209459459459538 0.63209459459460771 1.3679054054053961 0.48528811404415773 0.99061345538166756 1.009386544617999 0.63209459459459538 0.63209459459460771 1.3679054054053961 0.59772980397967113 1.252682283932151 1.4022701960199091 0.76640924832151791 0.84894166339049981 2 0.98528458949676634 0.98528458949702458 1.516045488389935 0.63209459459459538 0.63209459459460771 1.3679054054053961 1.2526822839324241 0.59772980398008735 1.402270196020621 0.97934782608803661 0 1.5921289062498969 0.98528458949709452 0.48395451161029718 1.014715410503322 1 0.99999999999999978 0.99999999999999978 1.500000000000274 0.99883321436442229 1.16639307242336 1.367905405405516 1.367905405405516 0.63209459459450335 1.532347752213032 1.4746298915713509 1.076108883276101 1 0.99999999999999978 0.99999999999999978 1.367905405405516 1.367905405405516 0.63209459459450335 1.0362039003897969 1.032400726930619 0.49025282767413908 0.92204894738342102 1.545944433704725 0.55253256161165365 1 0.99999999999999978 0.99999999999999978 0.86620738987133672 1.5000000000001401 1.0337672479303861 1.367905405405516 1.367905405405516 0.63209459459450335 0.92204894738342102 1.545944433704725 0.55253256161165365 0 0.97934782608799098 1.5921289062499051 0.26235908848041961 0.62491530451389399 2 0 0.62412558229928472 1.7349990699404849 0.63209459459459538 0.63209459459460771 1.3679054054053961 2 1.685972222223028 0.31402777777693691 2 1.740620225695106 0.62193599033678559 1.740620225695106 2 0.62193599033678559 1.367905405405516 1.367905405405516 0.63209459459450335 0 0.62412558229928472 1.7349990699404849 0.26235908848041961 0.62491530451389399 2 0 0.33416666666678929 1.6658333333334849 0.63209459459459538 0.63209459459460771 1.3679054054053961 1 0.99999999999999978 0.99999999999999978 1.0362039003897969 1.032400726930619 0.49025282767413908 0.58179751944592217 1.199262271083781 0.58179751944619096 0.92204894738342102 1.545944433704725 0.55253256161165365 1.671075651349931 1.671075651349931 0 1.737640911520401 1.3750846954886311 0 2 1.3863248792284211 0.25937977430496489 1.367905405405516 1.367905405405516 0.63209459459450335 0.40787109375015718 0 0.97934782608792492 0 0.40787109374995661 0.97934782608798243 0.63209459459459538 0.63209459459460771 1.3679054054053961 0.59772980397989239 0.59772980397970443 0.74731771606769093 1 0.99999999999999978 0.99999999999999978 0.58179751944592217 1.199262271083781 0.58179751944619096 0.86620738987133672 1.5000000000001401 1.0337672479303861 0.92204894738342102 1.545944433704725 0.55253256161165365 1 0.99999999999999978 0.99999999999999978 0.86620738987133672 1.5000000000001401 1.0337672479303861 0.58179751944592217 1.199262271083781 0.58179751944619096 0.48528811404415773 0.99061345538166756 1.009386544617999 1.2526822839324241 0.59772980398008735 1.402270196020621 0.98528458949709452 0.48395451161029718 1.014715410503322 1 0.99999999999999978 0.99999999999999978 1.5137040598352169 0.53344955263790295 0.97801656337898046 2 1.685972222223028 0.31402777777693691 1.671075651349931 1.671075651349931 0 2 1.3863248792284211 0.25937977430496489 1.367905405405516 1.367905405405516 0.63209459459450335 1.671075651349931 1.671075651349931 0 1.685972222223028 2 0.31402777777693691 1.3863248792284211 2 0.25937977430496501 1.367905405405516 1.367905405405516 0.63209459459450335 2 1.685972222223028 0.31402777777693691 1.740620225695106 2 0.62193599033678559 1.685972222223028 2 0.31402777777693691 1.367905405405516 1.367905405405516 0.63209459459450335 1 0.99999999999999978 0.99999999999999978 1.1981164219601721 1.4101645296525169 1.4221055955645681 1.500000000000274 0.99883321436442229 1.16639307242336 1.532347752213032 1.4746298915713509 1.076108883276101 1.19811642196055 0.57789440443542173 0.58983547034755146 1 0.99999999999999978 0.99999999999999978 0.98528458949709452 0.48395451161029718 1.014715410503322 1.5137040598352169 0.53344955263790295 0.97801656337898046 1.2526822839324241 0.59772980398008735 1.402270196020621 1 0.99999999999999978 0.99999999999999978 1.500000000000274 0.99883321436442229 1.16639307242336 1.5137040598352169 0.53344955263790295 0.97801656337898046 0 0.26340755208329458 1.374036231884757 0.33416666666682932 0 1.665833333333445 0.26340755208335531 0 1.374036231884725 0.63209459459459538 0.63209459459460771 1.3679054054053961 2 1.685972222223028 0.31402777777693691 1.685972222223028 2 0.31402777777693691 1.671075651349931 1.671075651349931 0 1.367905405405516 1.367905405405516 0.63209459459450335 0.73709538452274337 0 1.137931943365984 0.59772980397989239 0.59772980397970443 0.74731771606769093 0.63209459459459538 0.63209459459460771 1.3679054054053961 0.98528458949709452 0.48395451161029718 1.014715410503322 0.40787109375015718 0 0.97934782608792492 0 0.40787109374995661 0.97934782608798243 0.26340755208335531 0 1.374036231884725 0.63209459459459538 0.63209459459460771 1.3679054054053961 0 0.73703553820768952 1.137914212601322 0.63209459459459538 0.63209459459460771 1.3679054054053961 0.59772980397989239 0.59772980397970443 0.74731771606769093 0.48528811404415773 0.99061345538166756 1.009386544617999 1.367905405405516 1.367905405405516 0.63209459459450335 1.500000000000274 0.99883321436442229 1.16639307242336 1 0.99999999999999978 0.99999999999999978 1.5147705253128161 0.91852444755677043 0.69631892236242632 1.740620225695106 2 0.62193599033678559 1.367905405405516 1.367905405405516 0.63209459459450335 2 1.740620225695106 0.62193599033678559 1.532347752213032 1.4746298915713509 1.076108883276101 0.979347826088805 0.40787109374939401 2 0.97934782608803661 0 1.5921289062498969 0.63209459459459538 0.63209459459460771 1.3679054054053961 1.2526822839324241 0.59772980398008735 1.402270196020621 1.2339059149979039 1.1508473222113209 0 1.367905405405516 1.367905405405516 0.63209459459450335 1.0362039003897969 1.032400726930619 0.49025282767413908 1.5147705253128161 0.91852444755677043 0.69631892236242632 0.31402777777840701 1.6859722222215581 2 0.25937977430622478 1.3863248792272369 2 0 1.665833333333429 1.665833333333256 0.77911601688602494 1.603176022082401 1.607321515253783 0.33416666666682932 0 1.665833333333445 0.32892434865106179 0.32892434865106179 2 0.61665443494899885 0.26235908848011791 2 0.63209459459459538 0.63209459459460771 1.3679054054053961 1 0.99999999999999978 0.99999999999999978 1.500000000000274 0.99883321436442229 1.16639307242336 1.1981164219601721 1.4101645296525169 1.4221055955645681 0.98528458949676634 0.98528458949702458 1.516045488389935 2 1.020652173914391 0.40787109374941138 1.737640911520401 1.3750846954886311 0 1.592128906250452 0.97934782608882909 0 1.367905405405516 1.367905405405516 0.63209459459450335 0.4078710937509023 1.020652173913281 2 0.63209459459459538 0.63209459459460771 1.3679054054053961 0 0.97934782608799098 1.5921289062499051 0.59772980397967113 1.252682283932151 1.4022701960199091 0 0.32892434865109021 0.32892434865109021 0 0.57500000000018214 0.57500000000018214 0 0.26235908848024581 0.61665443494884975 0.59772980397989239 0.59772980397970443 0.74731771606769093 0 0.32892434865109021 0.32892434865109021 0.59772980397989239 0.59772980397970443 0.74731771606769093 0.77789883252811276 0.39570480562063071 0.39543357482263919 0.39531730444687918 0.80019605692788165 0.39654492749411491 2 1.685972222223028 0.31402777777693691 2 1.3863248792284211 0.25937977430496489 2 1.425000000001911 0.57499999999847629 1.367905405405516 1.367905405405516 0.63209459459450335 1.425000000001911 2 0.5749999999984764 1.3863248792284211 2 0.25937977430496501 1.685972222223028 2 0.31402777777693691 1.367905405405516 1.367905405405516 0.63209459459450335 1 0.99999999999999978 0.99999999999999978 0.59772980397967113 1.252682283932151 1.4022701960199091 0.86620738987133672 1.5000000000001401 1.0337672479303861 0.48528811404415773 0.99061345538166756 1.009386544617999 0.62412558229932147 0 1.7349990699404549 0.979347826088805 0.40787109374939401 2 0.97934782608803661 0 1.5921289062498969 0.63209459459459538 0.63209459459460771 1.3679054054053961 0.26500093005959219 0 0.62412558229931248 0.59772980397989239 0.59772980397970443 0.74731771606769093 0.57500000000061269 0 0.57499999999949769 0.77789883252811276 0.39570480562063071 0.39543357482263919 1 0.99999999999999978 0.99999999999999978 1.2526822839324241 0.59772980398008735 1.402270196020621 1.500000000000274 0.99883321436442229 1.16639307242336 0.98528458949676634 0.98528458949702458 1.516045488389935 0.26500093005959219 0 0.62412558229931248 0 0.26235908848024581 0.61665443494884975 0 0.40787109374995661 0.97934782608798243 0.59772980397989239 0.59772980397970443 0.74731771606769093 0 1.4249999999997121 1.4250000000001719 0 1.374036231884781 1.736592447916667 0.59772980397967113 1.252682283932151 1.4022701960199091 0.39539622647752048 1.604332214875325 1.222086277851258 1.19811642196055 0.57789440443542173 0.58983547034755146 1 0.99999999999999978 0.99999999999999978 1.5137040598352169 0.53344955263790295 0.97801656337898046 1.5147705253128161 0.91852444755677043 0.69631892236242632 0.63209459459459538 0.63209459459460771 1.3679054054053961 0.48528811404415773 0.99061345538166756 1.009386544617999 0.59772980397967113 1.252682283932151 1.4022701960199091 0.98528458949676634 0.98528458949702458 1.516045488389935 0.63209459459459538 0.63209459459460771 1.3679054054053961 0.59772980397989239 0.59772980397970443 0.74731771606769093 0.48528811404415773 0.99061345538166756 1.009386544617999 0.98528458949709452 0.48395451161029718 1.014715410503322 2 1.020652173914391 0.40787109374941138 1.367905405405516 1.367905405405516 0.63209459459450335 1.592128906250452 0.97934782608882909 0 1.5147705253128161 0.91852444755677043 0.69631892236242632 1.0206521739143919 1.592128906250684 0 1.367905405405516 1.367905405405516 0.63209459459450335 1.383345565053743 1.737640911520447 0 0.92204894738342102 1.545944433704725 0.55253256161165365 0 0.33416666666678929 1.6658333333334849 0.26235908848041961 0.62491530451389399 2 0.32892434865106179 0.32892434865106179 2 0.63209459459459538 0.63209459459460771 1.3679054054053961 0.979347826088805 0.40787109374939401 2 0.63209459459459538 0.63209459459460771 1.3679054054053961 0.76640924832151791 0.84894166339049981 2 0.98528458949676634 0.98528458949702458 1.516045488389935 0.5750000000018145 1.424999999998573 2 0.59772980397967113 1.252682283932151 1.4022701960199091 0.25937977430622478 1.3863248792272369 2 0.77911601688602494 1.603176022082401 1.607321515253783 1.2526822839324241 0.59772980398008735 1.402270196020621 0.98528458949709452 0.48395451161029718 1.014715410503322 0.63209459459459538 0.63209459459460771 1.3679054054053961 0.98528458949676634 0.98528458949702458 1.516045488389935 1.2345896428056129 2 0.84641423559720264 0.86620738987133672 1.5000000000001401 1.0337672479303861 1.367905405405516 1.367905405405516 0.63209459459450335 1.532347752213032 1.4746298915713509 1.076108883276101 0 0.33416666666678929 1.6658333333334849 0.33416666666682932 0 1.665833333333445 0 0.26340755208329458 1.374036231884757 0.63209459459459538 0.63209459459460771 1.3679054054053961 2 1.685972222223028 0.31402777777693691 2 1.425000000001911 0.57499999999847629 2 1.740620225695106 0.62193599033678559 1.367905405405516 1.367905405405516 0.63209459459450335 1.425000000001911 2 0.5749999999984764 1.685972222223028 2 0.31402777777693691 1.740620225695106 2 0.62193599033678559 1.367905405405516 1.367905405405516 0.63209459459450335 1.500000000000274 0.99883321436442229 1.16639307242336 1.5137040598352169 0.53344955263790295 0.97801656337898046 1 0.99999999999999978 0.99999999999999978 1.5147705253128161 0.91852444755677043 0.69631892236242632 0.59772980397967113 1.252682283932151 1.4022701960199091 0.86620738987133672 1.5000000000001401 1.0337672479303861 1.1981164219601721 1.4101645296525169 1.4221055955645681 0.98528458949676634 0.98528458949702458 1.516045488389935 0.76640924832151791 0.84894166339049981 2 0.63209459459459538 0.63209459459460771 1.3679054054053961 0.4078710937509023 1.020652173913281 2 0.59772980397967113 1.252682283932151 1.4022701960199091 1.425000000001911 2 0.5749999999984764 1.3863248792284211 2 0.25937977430496501 1.367905405405516 1.367905405405516 0.63209459459450335 0.92204894738342102 1.545944433704725 0.55253256161165365 1.671075651349931 1.671075651349931 0 1.383345565053743 1.737640911520447 0 1.425000000001621 1.425000000001621 0 1.367905405405516 1.367905405405516 0.63209459459450335 0.32892434865106179 0.32892434865106179 2 0.57500000000013385 0.57500000000013385 2 0.61665443494899885 0.26235908848011791 2 0.63209459459459538 0.63209459459460771 1.3679054054053961 1.1510583366092999 2 1.2335907516785649 1.000000000000635 2 0.99999999999835598 1.2345896428056129 2 0.84641423559720264 0.86620738987133672 1.5000000000001401 1.0337672479303861 0 0.33416666666678929 1.6658333333334849 0.32892434865106179 0.32892434865106179 2 0.33416666666682932 0 1.665833333333445 0.63209459459459538 0.63209459459460771 1.3679054054053961 1.2526822839324241 0.59772980398008735 1.402270196020621 1.6049090527780649 0.68972037691419241 1.610520945894512 1.3780640096633039 0.25937977430496151 2 1.592055221591679 0.37998381655983821 1.346767458941071 2 0.26500093005947722 0.62412558229727921 1.7365924479167549 0 0.62596376811523924 1.5137040598352169 0.53344955263790295 0.97801656337898046 1.5919037892070651 0.60245787335453693 0.40912424902564543 0.4078710937509023 1.020652173913281 2 0.26235908848041961 0.62491530451389399 2 0 0.97934782608799098 1.5921289062499051 0.63209459459459538 0.63209459459460771 1.3679054054053961 0 0.62412558229928472 1.7349990699404849 0 0.33416666666678929 1.6658333333334849 0 0.57499999999972706 1.4249999999995451 0.63209459459459538 0.63209459459460771 1.3679054054053961 0.57499999999978968 0 1.424999999999482 0.33416666666682932 0 1.665833333333445 0.62412558229932147 0 1.7349990699404549 0.63209459459459538 0.63209459459460771 1.3679054054053961 0.979347826088805 0.40787109374939401 2 1.3780640096633039 0.25937977430496151 2 1.3740362318847941 0 1.736592447916669 1.2526822839324241 0.59772980398008735 1.402270196020621 0.40787109375015718 0 0.97934782608792492 0.63209459459459538 0.63209459459460771 1.3679054054053961 0.73709538452274337 0 1.137931943365984 0.59772980397989239 0.59772980397970443 0.74731771606769093 0 0.40787109374995661 0.97934782608798243 0 0.73703553820768952 1.137914212601322 0.63209459459459538 0.63209459459460771 1.3679054054053961 0.59772980397989239 0.59772980397970443 0.74731771606769093 1.2339059149979039 1.1508473222113209 0 1.0362039003897969 1.032400726930619 0.49025282767413908 1.367905405405516 1.367905405405516 0.63209459459450335 0.92204894738342102 1.545944433704725 0.55253256161165365 1.0362039003897969 1.032400726930619 0.49025282767413908 0.77789883252811276 0.39570480562063071 0.39543357482263919 0.59772980397989239 0.59772980397970443 0.74731771606769093 0.39531730444687918 0.80019605692788165 0.39654492749411491 1.367905405405516 1.367905405405516 0.63209459459450335 1 0.99999999999999978 0.99999999999999978 1.0362039003897969 1.032400726930619 0.49025282767413908 1.5147705253128161 0.91852444755677043 0.69631892236242632 1.383345565053743 1.737640911520447 0 1.3863248792284211 2 0.25937977430496501 1.020652173914391 2 0.4078710937494115 0.92204894738342102 1.545944433704725 0.55253256161165365 1.3740362318847941 0 1.736592447916669 1.2526822839324241 0.59772980398008735 1.402270196020621 1.3780640096633039 0.25937977430496151 2 1.592055221591679 0.37998381655983821 1.346767458941071 0 0.73703553820768952 1.137914212601322 0 0.97934782608799098 1.5921289062499051 0.63209459459459538 0.63209459459460771 1.3679054054053961 0.48528811404415773 0.99061345538166756 1.009386544617999 1.367905405405516 1.367905405405516 0.63209459459450335 0.86620738987133672 1.5000000000001401 1.0337672479303861 1.2345896428056129 2 0.84641423559720264 0.92204894738342102 1.545944433704725 0.55253256161165365 0.979347826088805 0.40787109374939401 2 1.1535857644027949 0.76541035719405237 2 1.2526822839324241 0.59772980398008735 1.402270196020621 0.98528458949676634 0.98528458949702458 1.516045488389935 1.425000000001911 2 0.5749999999984764 1.367905405405516 1.367905405405516 0.63209459459450335 1.740620225695106 2 0.62193599033678559 1.532347752213032 1.4746298915713509 1.076108883276101 1.374036231883393 0.26340755208345812 0 1.19811642196055 0.57789440443542173 0.58983547034755146 1.3758744177011391 0 0.26500093005953979 1.5919037892070651 0.60245787335453693 0.40912424902564543 0 0.32892434865109021 0.32892434865109021 0 0.57500000000018214 0.57500000000018214 0.59772980397989239 0.59772980397970443 0.74731771606769093 0.39531730444687918 0.80019605692788165 0.39654492749411491 0.97934782608803661 0 1.5921289062498969 0.73709538452274337 0 1.137931943365984 0.63209459459459538 0.63209459459460771 1.3679054054053961 0.98528458949709452 0.48395451161029718 1.014715410503322 1.425000000001621 1.425000000001621 0 1.592128906250452 0.97934782608882909 0 1.737640911520401 1.3750846954886311 0 1.367905405405516 1.367905405405516 0.63209459459450335 0.40787109375015718 0 0.97934782608792492 0.26340755208335531 0 1.374036231884725 0.57499999999978968 0 1.424999999999482 0.63209459459459538 0.63209459459460771 1.3679054054053961 1.425000000001621 1.425000000001621 0 1.737640911520401 1.3750846954886311 0 1.671075651349931 1.671075651349931 0 1.367905405405516 1.367905405405516 0.63209459459450335 0.26235908848041961 0.62491530451389399 2 0.57500000000013385 0.57500000000013385 2 0.32892434865106179 0.32892434865106179 2 0.63209459459459538 0.63209459459460771 1.3679054054053961 2 1.020652173914391 0.40787109374941138 2 1.425000000001911 0.57499999999847629 2 1.3863248792284211 0.25937977430496489 1.367905405405516 1.367905405405516 0.63209459459450335 0 0.40787109374995661 0.97934782608798243 0 0.57499999999972706 1.4249999999995451 0 0.26340755208329458 1.374036231884757 0.63209459459459538 0.63209459459460771 1.3679054054053961 0.979347826088805 0.40787109374939401 2 0.61665443494899885 0.26235908848011791 2 0.57500000000013385 0.57500000000013385 2 0.63209459459459538 0.63209459459460771 1.3679054054053961 1.0206521739143919 1.592128906250684 0 1.425000000001621 1.425000000001621 0 1.383345565053743 1.737640911520447 0 1.367905405405516 1.367905405405516 0.63209459459450335 0.86620738987133672 1.5000000000001401 1.0337672479303861 0.48528811404415773 0.99061345538166756 1.009386544617999 0.59772980397967113 1.252682283932151 1.4022701960199091 0.39539622647752048 1.604332214875325 1.222086277851258 2 1.000000000000635 0.99999999999835576 1.5137040598352169 0.53344955263790295 0.97801656337898046 1.500000000000274 0.99883321436442229 1.16639307242336 1.5147705253128161 0.91852444755677043 0.69631892236242632 1.2339059149979039 1.1508473222113209 0 1.592128906250452 0.97934782608882909 0 1.367905405405516 1.367905405405516 0.63209459459450335 1.5147705253128161 0.91852444755677043 0.69631892236242632 0.25937977430622478 1.3863248792272369 2 0.4078710937509023 1.020652173913281 2 0 1.374036231884781 1.736592447916667 0.59772980397967113 1.252682283932151 1.4022701960199091 0.31402777777840701 1.6859722222215581 2 0.5750000000018145 1.424999999998573 2 0.25937977430622478 1.3863248792272369 2 0.77911601688602494 1.603176022082401 1.607321515253783 1.19811642196055 0.57789440443542173 0.58983547034755146 1.0362039003897969 1.032400726930619 0.49025282767413908 1 0.99999999999999978 0.99999999999999978 1.5147705253128161 0.91852444755677043 0.69631892236242632 0 1.1379319433661621 1.2629046154773571 0.59772980397967113 1.252682283932151 1.4022701960199091 0 0.97934782608799098 1.5921289062499051 0.48528811404415773 0.99061345538166756 1.009386544617999 0.33416666666645822 0 0.33416666666687761 0.26500093005959219 0 0.62412558229931248 0.57500000000061269 0 0.57499999999949769 0.77789883252811276 0.39570480562063071 0.39543357482263919 0 0.33416666666678929 1.6658333333334849 0 0.26340755208329458 1.374036231884757 0 0.57499999999972706 1.4249999999995451 0.63209459459459538 0.63209459459460771 1.3679054054053961 0.33416666666682932 0 1.665833333333445 0.57499999999978968 0 1.424999999999482 0.26340755208335531 0 1.374036231884725 0.63209459459459538 0.63209459459460771 1.3679054054053961 0.59772980397989239 0.59772980397970443 0.74731771606769093 1.0362039003897969 1.032400726930619 0.49025282767413908 1.19811642196055 0.57789440443542173 0.58983547034755146 0.77789883252811276 0.39570480562063071 0.39543357482263919 2 1.425000000001911 0.57499999999847629 2 1.740620225695106 0.62193599033678559 1.367905405405516 1.367905405405516 0.63209459459450335 1.532347752213032 1.4746298915713509 1.076108883276101 0.58179751944592217 1.199262271083781 0.58179751944619096 1.0362039003897969 1.032400726930619 0.49025282767413908 0.59772980397989239 0.59772980397970443 0.74731771606769093 0.39531730444687918 0.80019605692788165 0.39654492749411491 0.86620738987133672 1.5000000000001401 1.0337672479303861 0.41010551790091843 1.5854304871968741 0.7721068750782103 0.48528811404415773 0.99061345538166756 1.009386544617999 0.39539622647752048 1.604332214875325 1.222086277851258 1.151058336609301 0.76640924832138713 0 1.0362039003897969 1.032400726930619 0.49025282767413908 1.19811642196055 0.57789440443542173 0.58983547034755146 1.5919037892070651 0.60245787335453693 0.40912424902564543 1.374036231883393 0.26340755208345812 0 1.0206521739124059 0 0.40787109374997071 1.3758744177011391 0 0.26500093005953979 1.19811642196055 0.57789440443542173 0.58983547034755146 0 1.4249999999997121 1.4250000000001719 0 1.665833333333429 1.665833333333256 0 1.374036231884781 1.736592447916667 0.39539622647752048 1.604332214875325 1.222086277851258 1.0362039003897969 1.032400726930619 0.49025282767413908 1.5147705253128161 0.91852444755677043 0.69631892236242632 1.19811642196055 0.57789440443542173 0.58983547034755146 1.5919037892070651 0.60245787335453693 0.40912424902564543 0.4078710937509023 1.020652173913281 2 0.57500000000013385 0.57500000000013385 2 0.26235908848041961 0.62491530451389399 2 0.63209459459459538 0.63209459459460771 1.3679054054053961 1.1393113769850489 0 1.263313302510394 0.97934782608803661 0 1.5921289062498969 1.2526822839324241 0.59772980398008735 1.402270196020621 0.98528458949709452 0.48395451161029718 1.014715410503322 0.57499999999978968 0 1.424999999999482 0.62412558229932147 0 1.7349990699404549 0.97934782608803661 0 1.5921289062498969 0.63209459459459538 0.63209459459460771 1.3679054054053961 0 0.97934782608799098 1.5921289062499051 0 0.62412558229928472 1.7349990699404849 0 0.57499999999972706 1.4249999999995451 0.63209459459459538 0.63209459459460771 1.3679054054053961 1.3833455650517461 1.737640911519633 2 1.1981164219601721 1.4101645296525169 1.4221055955645681 1.3750846954865119 2 1.737640911519603 1.5950886193190319 1.5950886193190319 1.4995967914346211 1.3833455650517461 1.737640911519633 2 1.0206521739131471 1.5921289062494219 2 1.3750846954865119 2 1.737640911519603 1.1981164219601721 1.4101645296525169 1.4221055955645681 0.58179751944592217 1.199262271083781 0.58179751944619096 0.48528811404415773 0.99061345538166756 1.009386544617999 0.86620738987133672 1.5000000000001401 1.0337672479303861 0.41010551790091843 1.5854304871968741 0.7721068750782103 1.1510583366092999 2 1.2335907516785649 1.1981164219601721 1.4101645296525169 1.4221055955645681 0.86620738987133672 1.5000000000001401 1.0337672479303861 1.532347752213032 1.4746298915713509 1.076108883276101 0.26500093005959219 0 0.62412558229931248 0 0.40787109374995661 0.97934782608798243 0.40787109375015718 0 0.97934782608792492 0.59772980397989239 0.59772980397970443 0.74731771606769093 0.33416666666757772 2 1.665833333332104 0 1.665833333333429 1.665833333333256 0.39539622647752048 1.604332214875325 1.222086277851258 0.77911601688602494 1.603176022082401 1.607321515253783 1.151058336609301 0.76640924832138713 0 1.19811642196055 0.57789440443542173 0.58983547034755146 1.0362039003897969 1.032400726930619 0.49025282767413908 0.77789883252811276 0.39570480562063071 0.39543357482263919 1.425000000000477 0 0.57500000000037066 1.5137040598352169 0.53344955263790295 0.97801656337898046 1.7365924479167549 0 0.62596376811523924 1.5919037892070651 0.60245787335453693 0.40912424902564543 1.2345896428056129 2 0.84641423559720264 0.86620738987133672 1.5000000000001401 1.0337672479303861 1.000000000000635 2 0.99999999999835598 0.92204894738342102 1.545944433704725 0.55253256161165365 0.33416666666749117 0.33416666666791067 0 0 0.32892434865109021 0.32892434865109021 0.77789883252811276 0.39570480562063071 0.39543357482263919 0.39531730444687918 0.80019605692788165 0.39654492749411491 1.2339059149979039 1.1508473222113209 0 1.367905405405516 1.367905405405516 0.63209459459450335 1.0206521739143919 1.592128906250684 0 0.92204894738342102 1.545944433704725 0.55253256161165365 0.97934782608803661 0 1.5921289062498969 0.979347826088805 0.40787109374939401 2 1.3740362318847941 0 1.736592447916669 1.2526822839324241 0.59772980398008735 1.402270196020621 0.33416666666757772 2 1.665833333332104 0.31402777777840701 1.6859722222215581 2 0 1.665833333333429 1.665833333333256 0.77911601688602494 1.603176022082401 1.607321515253783 1.425000000000477 0 0.57500000000037066 1.19811642196055 0.57789440443542173 0.58983547034755146 1.5137040598352169 0.53344955263790295 0.97801656337898046 1.5919037892070651 0.60245787335453693 0.40912424902564543 0.73668669749125271 0.86068862301695703 0 0.77789883252811276 0.39570480562063071 0.39543357482263919 1.0362039003897969 1.032400726930619 0.49025282767413908 0.39531730444687918 0.80019605692788165 0.39654492749411491 1.425000000000477 0 0.57500000000037066 1.3758744177011391 0 0.26500093005953979 1.19811642196055 0.57789440443542173 0.58983547034755146 1.5919037892070651 0.60245787335453693 0.40912424902564543 1.3780640096633039 0.25937977430496151 2 1.6049090527780649 0.68972037691419241 1.610520945894512 1.685972222223028 0.31402777777693702 2 1.592055221591679 0.37998381655983821 1.346767458941071 0.33416666666645822 0 0.33416666666687761 0.33416666666749117 0.33416666666791067 0 0 0.32892434865109021 0.32892434865109021 0.77789883252811276 0.39570480562063071 0.39543357482263919 1.1510583366092999 2 1.2335907516785649 0.86620738987133672 1.5000000000001401 1.0337672479303861 1.2345896428056129 2 0.84641423559720264 1.532347752213032 1.4746298915713509 1.076108883276101 1.1393113769850489 0 1.263313302510394 0.98528458949709452 0.48395451161029718 1.014715410503322 1.2526822839324241 0.59772980398008735 1.402270196020621 1.5137040598352169 0.53344955263790295 0.97801656337898046 1.0206521739143919 1.592128906250684 0 1.383345565053743 1.737640911520447 0 1.020652173914391 2 0.4078710937494115 0.92204894738342102 1.545944433704725 0.55253256161165365 2 1.425000000001911 0.57499999999847629 1.367905405405516 1.367905405405516 0.63209459459450335 2 1.020652173914391 0.40787109374941138 1.5147705253128161 0.91852444755677043 0.69631892236242632 1.425000000001911 2 0.5749999999984764 1.020652173914391 2 0.4078710937494115 1.3863248792284211 2 0.25937977430496501 0.92204894738342102 1.545944433704725 0.55253256161165365 1.425000000001911 0.57499999999847629 2 1.3780640096633039 0.25937977430496151 2 1.2526822839324241 0.59772980398008735 1.402270196020621 1.6049090527780649 0.68972037691419241 1.610520945894512 2 1.2345896428056129 0.84641423559720252 2 1.000000000000635 0.99999999999835576 1.500000000000274 0.99883321436442229 1.16639307242336 1.5147705253128161 0.91852444755677043 0.69631892236242632 2 0.73668669749101645 1.139311376982779 1.500000000000274 0.99883321436442229 1.16639307242336 2 1.000000000000635 0.99999999999835576 1.5137040598352169 0.53344955263790295 0.97801656337898046 0.979347826088805 0.40787109374939401 2 0.76640924832151791 0.84894166339049981 2 1.1535857644027949 0.76541035719405237 2 0.98528458949676634 0.98528458949702458 1.516045488389935 1.1393113769850489 0 1.263313302510394 1.5137040598352169 0.53344955263790295 0.97801656337898046 1.2526822839324241 0.59772980398008735 1.402270196020621 1.592055221591679 0.37998381655983821 1.346767458941071 0.86068862301746607 1.2633133025089971 2 0.76640924832151791 0.84894166339049981 2 0.59772980397967113 1.252682283932151 1.4022701960199091 0.98528458949676634 0.98528458949702458 1.516045488389935 1.2339059149979039 1.1508473222113209 0 1.592128906250452 0.97934782608882909 0 1.425000000001621 1.425000000001621 0 1.367905405405516 1.367905405405516 0.63209459459450335 0.979347826088805 0.40787109374939401 2 0.57500000000013385 0.57500000000013385 2 0.76640924832151791 0.84894166339049981 2 0.63209459459459538 0.63209459459460771 1.3679054054053961 1.0206521739143919 1.592128906250684 0 1.2339059149979039 1.1508473222113209 0 1.425000000001621 1.425000000001621 0 1.367905405405516 1.367905405405516 0.63209459459450335 1.1510583366092999 2 1.2335907516785649 0.86620738987133672 1.5000000000001401 1.0337672479303861 1.1981164219601721 1.4101645296525169 1.4221055955645681 0.77911601688602494 1.603176022082401 1.607321515253783 2 1.592128906250589 1.0206521739114489 1.740620225695106 2 0.62193599033678559 2 1.740620225695106 0.62193599033678559 1.532347752213032 1.4746298915713509 1.076108883276101 0 1.374036231884781 1.736592447916667 0.4078710937509023 1.020652173913281 2 0 0.97934782608799098 1.5921289062499051 0.59772980397967113 1.252682283932151 1.4022701960199091 2 1.000000000000635 0.99999999999835576 2 0.84920286521341182 0.76599646645041952 1.5137040598352169 0.53344955263790295 0.97801656337898046 1.5147705253128161 0.91852444755677043 0.69631892236242632 1.425000000001911 2 0.5749999999984764 1.740620225695106 2 0.62193599033678559 1.5921289062505879 2 1.0206521739114489 1.532347752213032 1.4746298915713509 1.076108883276101 0.84920286521341182 2 0.76599646645041963 1.000000000000635 2 0.99999999999835598 0.86620738987133672 1.5000000000001401 1.0337672479303861 0.92204894738342102 1.545944433704725 0.55253256161165365 0.59772980397967113 1.252682283932151 1.4022701960199091 0.48528811404415773 0.99061345538166756 1.009386544617999 0 1.1379319433661621 1.2629046154773571 0.39539622647752048 1.604332214875325 1.222086277851258 0 0.73703553820768952 1.137914212601322 0 1.1379319433661621 1.2629046154773571 0 0.97934782608799098 1.5921289062499051 0.48528811404415773 0.99061345538166756 1.009386544617999 1.2345896428056129 2 0.84641423559720264 1.367905405405516 1.367905405405516 0.63209459459450335 1.425000000001911 2 0.5749999999984764 1.532347752213032 1.4746298915713509 1.076108883276101 0.73709538452274337 0 1.137931943365984 0.40787109375015718 0 0.97934782608792492 0.57499999999978968 0 1.424999999999482 0.63209459459459538 0.63209459459460771 1.3679054054053961 0.4078710937509023 1.020652173913281 2 0.76640924832151791 0.84894166339049981 2 0.57500000000013385 0.57500000000013385 2 0.63209459459459538 0.63209459459460771 1.3679054054053961 0 0.73703553820768952 1.137914212601322 0 0.57499999999972706 1.4249999999995451 0 0.40787109374995661 0.97934782608798243 0.63209459459459538 0.63209459459460771 1.3679054054053961 0.849152677791018 0 0.76609408500333809 0.98528458949709452 0.48395451161029718 1.014715410503322 1.19811642196055 0.57789440443542173 0.58983547034755146 0.77789883252811276 0.39570480562063071 0.39543357482263919 2 0.26500093005947722 0.62412558229727921 1.5137040598352169 0.53344955263790295 0.97801656337898046 2 0.57499999999943696 0.57500000000055196 1.5919037892070651 0.60245787335453693 0.40912424902564543 0.48528811404415773 0.99061345538166756 1.009386544617999 0.41010551790091843 1.5854304871968741 0.7721068750782103 0 1.263313302510646 0.86068862301506388 0.39539622647752048 1.604332214875325 1.222086277851258 2 1.1510583366092999 1.2335907516785649 2 1.4249999999998371 1.4249999999998371 1.5950886193190319 1.5950886193190319 1.4995967914346211 1.416074976583422 1.0640336752305579 1.5993145461844129 0.73709538452274337 0 1.137931943365984 0.57499999999978968 0 1.424999999999482 0.97934782608803661 0 1.5921289062498969 0.63209459459459538 0.63209459459460771 1.3679054054053961 0 0.73703553820768952 1.137914212601322 0 0.97934782608799098 1.5921289062499051 0 0.57499999999972706 1.4249999999995451 0.63209459459459538 0.63209459459460771 1.3679054054053961 1.4249999999997249 0 1.425000000000185 1.2526822839324241 0.59772980398008735 1.402270196020621 1.3740362318847941 0 1.736592447916669 1.592055221591679 0.37998381655983821 1.346767458941071 0 0.85167501661028155 0.7670914684099619 0.58179751944592217 1.199262271083781 0.58179751944619096 0.48528811404415773 0.99061345538166756 1.009386544617999 0.39531730444687918 0.80019605692788165 0.39654492749411491 2 1.2345896428056129 0.84641423559720252 1.367905405405516 1.367905405405516 0.63209459459450335 1.5147705253128161 0.91852444755677043 0.69631892236242632 1.532347752213032 1.4746298915713509 1.076108883276101 1.737640911519909 1.3750846954862539 2 1.5950886193190319 1.5950886193190319 1.4995967914346211 2 1.3750846954865119 1.737640911519603 1.416074976583422 1.0640336752305579 1.5993145461844129 1.500000000000274 0.99883321436442229 1.16639307242336 2 0.73668669749101645 1.139311376982779 1.6049090527780649 0.68972037691419241 1.610520945894512 1.592055221591679 0.37998381655983821 1.346767458941071 1.2526822839324241 0.59772980398008735 1.402270196020621 1.500000000000274 0.99883321436442229 1.16639307242336 1.6049090527780649 0.68972037691419241 1.610520945894512 1.592055221591679 0.37998381655983821 1.346767458941071 0.86206805663365538 1.262904615478279 0 1.0362039003897969 1.032400726930619 0.49025282767413908 1.2339059149979039 1.1508473222113209 0 0.92204894738342102 1.545944433704725 0.55253256161165365 0.73668669749125271 0.86068862301695703 0 1.0362039003897969 1.032400726930619 0.49025282767413908 0.58179751944592217 1.199262271083781 0.58179751944619096 0.39531730444687918 0.80019605692788165 0.39654492749411491 0.97934782608699855 0.40787109375058261 0 1.0206521739124059 0 0.40787109374997071 1.374036231883393 0.26340755208345812 0 1.19811642196055 0.57789440443542173 0.58983547034755146 2 1.2345896428056129 0.84641423559720252 1.5147705253128161 0.91852444755677043 0.69631892236242632 1.500000000000274 0.99883321436442229 1.16639307242336 1.532347752213032 1.4746298915713509 1.076108883276101 1.151058336609301 0.76640924832138713 0 1.0362039003897969 1.032400726930619 0.49025282767413908 0.73668669749125271 0.86068862301695703 0 0.77789883252811276 0.39570480562063071 0.39543357482263919 0.97934782608697635 2 1.5921289062492749 1.3750846954865119 2 1.737640911519603 1.0206521739131471 1.5921289062494219 2 1.1981164219601721 1.4101645296525169 1.4221055955645681 0.849152677791018 0 0.76609408500333809 0.59772980397989239 0.59772980397970443 0.74731771606769093 0.73709538452274337 0 1.137931943365984 0.98528458949709452 0.48395451161029718 1.014715410503322 0 0.73703553820768952 1.137914212601322 0.59772980397989239 0.59772980397970443 0.74731771606769093 0 0.85167501661028155 0.7670914684099619 0.48528811404415773 0.99061345538166756 1.009386544617999 0.62596376811718013 1.7365924479167429 0 0.92204894738342102 1.545944433704725 0.55253256161165365 0.62596376811713206 2 0.26340755208327649 0.37819010083105031 1.488109359197332 0.37639255045733749 0.97934782608803661 0 1.5921289062498969 1.1393113769850489 0 1.263313302510394 0.73709538452274337 0 1.137931943365984 0.98528458949709452 0.48395451161029718 1.014715410503322 1.6658333333334381 0 1.665833333333264 1.3740362318847941 0 1.736592447916669 1.3780640096633039 0.25937977430496151 2 1.592055221591679 0.37998381655983821 1.346767458941071 0.57500000000061269 0 0.57499999999949769 0.26500093005959219 0 0.62412558229931248 0.40787109375015718 0 0.97934782608792492 0.59772980397989239 0.59772980397970443 0.74731771606769093 2 1.3750846954865119 1.737640911519603 1.5950886193190319 1.5950886193190319 1.4995967914346211 2 1.4249999999998371 1.4249999999998371 1.416074976583422 1.0640336752305579 1.5993145461844129 0 0.26235908848024581 0.61665443494884975 0 0.57500000000018214 0.57500000000018214 0 0.40787109374995661 0.97934782608798243 0.59772980397989239 0.59772980397970443 0.74731771606769093 1.4249999999998371 1.4249999999998371 2 1.1981164219601721 1.4101645296525169 1.4221055955645681 1.3833455650517461 1.737640911519633 2 1.5950886193190319 1.5950886193190319 1.4995967914346211 1.425000000001911 0.57499999999847629 2 1.3780640096633039 0.25937977430496151 2 0.979347826088805 0.40787109374939401 2 1.2526822839324241 0.59772980398008735 1.402270196020621 2 0.26500093005947722 0.62412558229727921 1.7365924479167549 0 0.62596376811523924 2 0.40787109375045588 0.9793478260856453 1.5137040598352169 0.53344955263790295 0.97801656337898046 1.1981164219601721 1.4101645296525169 1.4221055955645681 0.98528458949676634 0.98528458949702458 1.516045488389935 1.500000000000274 0.99883321436442229 1.16639307242336 1.416074976583422 1.0640336752305579 1.5993145461844129 1.19811642196055 0.57789440443542173 0.58983547034755146 0.98528458949709452 0.48395451161029718 1.014715410503322 1.2335907516799069 0 0.84894166339084287 1.5137040598352169 0.53344955263790295 0.97801656337898046 2 1.425000000001911 0.57499999999847629 2 1.2345896428056129 0.84641423559720252 1.367905405405516 1.367905405405516 0.63209459459450335 1.5147705253128161 0.91852444755677043 0.69631892236242632 1.500000000000274 0.99883321436442229 1.16639307242336 1.532347752213032 1.4746298915713509 1.076108883276101 1.1981164219601721 1.4101645296525169 1.4221055955645681 1.416074976583422 1.0640336752305579 1.5993145461844129 1.19811642196055 0.57789440443542173 0.58983547034755146 0.98528458949709452 0.48395451161029718 1.014715410503322 0.59772980397989239 0.59772980397970443 0.74731771606769093 0.77789883252811276 0.39570480562063071 0.39543357482263919 1.500000000000274 0.99883321436442229 1.16639307242336 1.5147705253128161 0.91852444755677043 0.69631892236242632 1.367905405405516 1.367905405405516 0.63209459459450335 1.532347752213032 1.4746298915713509 1.076108883276101 1.7376409115198661 2 1.3833455650514059 1.532347752213032 1.4746298915713509 1.076108883276101 2 1.7376409115198661 1.3833455650514059 1.5950886193190319 1.5950886193190319 1.4995967914346211 1.151058336609301 0.76640924832138713 0 1.0000000000013569 1.0000000000020031 0 0.73668669749125271 0.86068862301695703 0 1.0362039003897969 1.032400726930619 0.49025282767413908 0.59772980397967113 1.252682283932151 1.4022701960199091 0.98528458949676634 0.98528458949702458 1.516045488389935 1.1981164219601721 1.4101645296525169 1.4221055955645681 0.77911601688602494 1.603176022082401 1.607321515253783 1.6658333333334381 0 1.665833333333264 1.3780640096633039 0.25937977430496151 2 1.685972222223028 0.31402777777693702 2 1.592055221591679 0.37998381655983821 1.346767458941071 1.374036231883393 0.26340755208345812 0 1.424999999999718 0.57500000000001494 0 1.19811642196055 0.57789440443542173 0.58983547034755146 1.5919037892070651 0.60245787335453693 0.40912424902564543 0.849152677791018 0 0.76609408500333809 0.59772980397989239 0.59772980397970443 0.74731771606769093 0.98528458949709452 0.48395451161029718 1.014715410503322 0.77789883252811276 0.39570480562063071 0.39543357482263919 1.1981164219601721 1.4101645296525169 1.4221055955645681 0.98528458949676634 0.98528458949702458 1.516045488389935 0.86068862301746607 1.2633133025089971 2 0.77911601688602494 1.603176022082401 1.607321515253783 0.86206805663365538 1.262904615478279 0 0.58179751944592217 1.199262271083781 0.58179751944619096 1.0362039003897969 1.032400726930619 0.49025282767413908 0.92204894738342102 1.545944433704725 0.55253256161165365 0.5750000000018145 1.424999999998573 2 0.4078710937509023 1.020652173913281 2 0.25937977430622478 1.3863248792272369 2 0.59772980397967113 1.252682283932151 1.4022701960199091 1.5921289062505879 2 1.0206521739114489 1.740620225695106 2 0.62193599033678559 2 1.592128906250589 1.0206521739114489 1.532347752213032 1.4746298915713509 1.076108883276101 0 0.85167501661028155 0.7670914684099619 0.58179751944592217 1.199262271083781 0.58179751944619096 0 1.263313302510646 0.86068862301506388 0.48528811404415773 0.99061345538166756 1.009386544617999 0.58179751944592217 1.199262271083781 0.58179751944619096 0.92204894738342102 1.545944433704725 0.55253256161165365 0.57499999999972717 1.4249999999995451 0 0.37819010083105031 1.488109359197332 0.37639255045733749 1.1981164219601721 1.4101645296525169 1.4221055955645681 1.532347752213032 1.4746298915713509 1.076108883276101 1.4249999999998371 2 1.4249999999998371 1.5950886193190319 1.5950886193190319 1.4995967914346211 0.59772980397989239 0.59772980397970443 0.74731771606769093 0.48528811404415773 0.99061345538166756 1.009386544617999 0.58179751944592217 1.199262271083781 0.58179751944619096 0.39531730444687918 0.80019605692788165 0.39654492749411491 1.3750846954865119 2 1.737640911519603 1.1981164219601721 1.4101645296525169 1.4221055955645681 1.4249999999998371 2 1.4249999999998371 1.5950886193190319 1.5950886193190319 1.4995967914346211 0.97934782608803661 0 1.5921289062498969 1.3740362318847941 0 1.736592447916669 1.4249999999997249 0 1.425000000000185 1.2526822839324241 0.59772980398008735 1.402270196020621 0 1.374036231884781 1.736592447916667 0 0.97934782608799098 1.5921289062499051 0 1.4249999999997121 1.4250000000001719 0.59772980397967113 1.252682283932151 1.4022701960199091 0.849152677791018 0 0.76609408500333809 1.2335907516799069 0 0.84894166339084287 1.19811642196055 0.57789440443542173 0.58983547034755146 0.98528458949709452 0.48395451161029718 1.014715410503322 1.425000000001911 2 0.5749999999984764 1.367905405405516 1.367905405405516 0.63209459459450335 1.2345896428056129 2 0.84641423559720264 0.92204894738342102 1.545944433704725 0.55253256161165365 0 0.85167501661028155 0.7670914684099619 0.48528811404415773 0.99061345538166756 1.009386544617999 0.59772980397989239 0.59772980397970443 0.74731771606769093 0.39531730444687918 0.80019605692788165 0.39654492749411491 1.532347752213032 1.4746298915713509 1.076108883276101 1.5950886193190319 1.5950886193190319 1.4995967914346211 1.1981164219601721 1.4101645296525169 1.4221055955645681 1.416074976583422 1.0640336752305579 1.5993145461844129 1.2526822839324241 0.59772980398008735 1.402270196020621 1.5137040598352169 0.53344955263790295 0.97801656337898046 1.500000000000274 0.99883321436442229 1.16639307242336 1.592055221591679 0.37998381655983821 1.346767458941071 2 1.020652173914391 0.40787109374941138 1.5147705253128161 0.91852444755677043 0.69631892236242632 1.592128906250452 0.97934782608882909 0 1.5919037892070651 0.60245787335453693 0.40912424902564543 1.500000000000274 0.99883321436442229 1.16639307242336 1.5137040598352169 0.53344955263790295 0.97801656337898046 2 0.73668669749101645 1.139311376982779 1.592055221591679 0.37998381655983821 1.346767458941071 2 1.425000000001911 0.57499999999847629 2 1.592128906250589 1.0206521739114489 2 1.740620225695106 0.62193599033678559 1.532347752213032 1.4746298915713509 1.076108883276101 1.500000000000274 0.99883321436442229 1.16639307242336 0.98528458949676634 0.98528458949702458 1.516045488389935 1.2526822839324241 0.59772980398008735 1.402270196020621 1.416074976583422 1.0640336752305579 1.5993145461844129 1.1393113769850489 0 1.263313302510394 1.2335907516799069 0 0.84894166339084287 0.98528458949709452 0.48395451161029718 1.014715410503322 1.5137040598352169 0.53344955263790295 0.97801656337898046 1.7376409115198661 2 1.3833455650514059 2 1.592128906250589 1.0206521739114489 2 1.7376409115198661 1.3833455650514059 1.532347752213032 1.4746298915713509 1.076108883276101 1.1981164219601721 1.4101645296525169 1.4221055955645681 0.86620738987133672 1.5000000000001401 1.0337672479303861 0.59772980397967113 1.252682283932151 1.4022701960199091 0.77911601688602494 1.603176022082401 1.607321515253783 0 1.263313302510646 0.86068862301506388 0 1.1379319433661621 1.2629046154773571 0.48528811404415773 0.99061345538166756 1.009386544617999 0.39539622647752048 1.604332214875325 1.222086277851258 2 1.1510583366092999 1.2335907516785649 2 1.4249999999998371 1.4249999999998371 1.532347752213032 1.4746298915713509 1.076108883276101 1.5950886193190319 1.5950886193190319 1.4995967914346211 0.59772980397967113 1.252682283932151 1.4022701960199091 0.86068862301746607 1.2633133025089971 2 0.98528458949676634 0.98528458949702458 1.516045488389935 0.77911601688602494 1.603176022082401 1.607321515253783 0 1.263313302510646 0.86068862301506388 0.48528811404415773 0.99061345538166756 1.009386544617999 0.58179751944592217 1.199262271083781 0.58179751944619096 0.41010551790091843 1.5854304871968741 0.7721068750782103 2 1.425000000001911 0.57499999999847629 1.367905405405516 1.367905405405516 0.63209459459450335 2 1.2345896428056129 0.84641423559720252 1.532347752213032 1.4746298915713509 1.076108883276101 1.1535857644027949 0.76541035719405237 2 1.2526822839324241 0.59772980398008735 1.402270196020621 0.98528458949676634 0.98528458949702458 1.516045488389935 1.416074976583422 1.0640336752305579 1.5993145461844129 2 1.1510583366092999 1.2335907516785649 2 1.2345896428056129 0.84641423559720252 2 1.000000000000635 0.99999999999835576 1.500000000000274 0.99883321436442229 1.16639307242336 0 1.0206521739139061 0.40787109375008618 0.26500093005965231 1.375874417702696 0 0 1.3863248792278431 0.25937977430558068 0.37819010083105031 1.488109359197332 0.37639255045733749 2 0.73668669749101645 1.139311376982779 2 1.000000000000635 0.99999999999835576 2 0.84920286521341182 0.76599646645041952 1.5137040598352169 0.53344955263790295 0.97801656337898046 0.86206805663365538 1.262904615478279 0 0.58179751944592217 1.199262271083781 0.58179751944619096 0.73668669749125271 0.86068862301695703 0 1.0362039003897969 1.032400726930619 0.49025282767413908 1.3758744177011391 0 0.26500093005953979 1.0206521739124059 0 0.40787109374997071 1.425000000000477 0 0.57500000000037066 1.19811642196055 0.57789440443542173 0.58983547034755146 1.4249999999998371 1.4249999999998371 2 1.0206521739131471 1.5921289062494219 2 1.3833455650517461 1.737640911519633 2 1.1981164219601721 1.4101645296525169 1.4221055955645681 0.62596376811718013 1.7365924479167429 0 1.020652173914391 2 0.4078710937494115 0.62596376811713206 2 0.26340755208327649 0.92204894738342102 1.545944433704725 0.55253256161165365 2 0.26500093005947722 0.62412558229727921 1.665833333333216 0 0.33416666666646572 1.7365924479167549 0 0.62596376811523924 1.5919037892070651 0.60245787335453693 0.40912424902564543 1.374036231883393 0.26340755208345812 0 1.3758744177011391 0 0.26500093005953979 1.665833333333407 0.33416666666669298 0 1.5919037892070651 0.60245787335453693 0.40912424902564543 0.84920286521341182 2 0.76599646645041963 1.2345896428056129 2 0.84641423559720264 1.000000000000635 2 0.99999999999835598 0.92204894738342102 1.545944433704725 0.55253256161165365 1.425000000000477 0 0.57500000000037066 1.19811642196055 0.57789440443542173 0.58983547034755146 1.2335907516799069 0 0.84894166339084287 1.5137040598352169 0.53344955263790295 0.97801656337898046 0.62596376811718013 1.7365924479167429 0 0.57499999999972717 1.4249999999995451 0 0.92204894738342102 1.545944433704725 0.55253256161165365 0.37819010083105031 1.488109359197332 0.37639255045733749 1.1535857644027949 0.76541035719405237 2 1.2526822839324241 0.59772980398008735 1.402270196020621 1.416074976583422 1.0640336752305579 1.5993145461844129 1.6049090527780649 0.68972037691419241 1.610520945894512 0.97934782608697635 2 1.5921289062492749 1.1981164219601721 1.4101645296525169 1.4221055955645681 1.0206521739131471 1.5921289062494219 2 0.77911601688602494 1.603176022082401 1.607321515253783 0.97934782608699855 0.40787109375058261 0 1.0206521739124059 0 0.40787109374997071 1.19811642196055 0.57789440443542173 0.58983547034755146 0.77789883252811276 0.39570480562063071 0.39543357482263919 1.737640911519909 1.3750846954862539 2 2 1.3750846954865119 1.737640911519603 2 0.97934782608697624 1.5921289062492749 1.416074976583422 1.0640336752305579 1.5993145461844129 0.86068862301746607 1.2633133025089971 2 0.76640924832151791 0.84894166339049981 2 0.4078710937509023 1.020652173913281 2 0.59772980397967113 1.252682283932151 1.4022701960199091 0 1.0206521739139061 0.40787109375008618 0.58179751944592217 1.199262271083781 0.58179751944619096 0.39531730444687918 0.80019605692788165 0.39654492749411491 0.37819010083105031 1.488109359197332 0.37639255045733749 1.1510583366092999 2 1.2335907516785649 1.4249999999998371 2 1.4249999999998371 1.1981164219601721 1.4101645296525169 1.4221055955645681 1.532347752213032 1.4746298915713509 1.076108883276101 0.40787109375061498 1.0206521739145791 0 0.39531730444687918 0.80019605692788165 0.39654492749411491 0.58179751944592217 1.199262271083781 0.58179751944619096 0.37819010083105031 1.488109359197332 0.37639255045733749 0.97934782608697635 2 1.5921289062492749 1.4249999999998371 2 1.4249999999998371 1.3750846954865119 2 1.737640911519603 1.1981164219601721 1.4101645296525169 1.4221055955645681 1.424999999999718 0.57500000000001494 0 0.97934782608699855 0.40787109375058261 0 1.374036231883393 0.26340755208345812 0 1.19811642196055 0.57789440443542173 0.58983547034755146 0.73668669749101645 2 1.139311376982779 0.86620738987133672 1.5000000000001401 1.0337672479303861 1.1510583366092999 2 1.2335907516785649 0.77911601688602494 1.603176022082401 1.607321515253783 0.57499999999943696 2 0.57500000000055196 0.62596376811713206 2 0.26340755208327649 0.92204894738342102 1.545944433704725 0.55253256161165365 0.37819010083105031 1.488109359197332 0.37639255045733749 0.86206805663365538 1.262904615478279 0 0.73668669749125271 0.86068862301695703 0 1.0000000000013569 1.0000000000020031 0 1.0362039003897969 1.032400726930619 0.49025282767413908 1.5921289062505879 2 1.0206521739114489 1.2345896428056129 2 0.84641423559720264 1.425000000001911 2 0.5749999999984764 1.532347752213032 1.4746298915713509 1.076108883276101 1.685972222223028 0.31402777777693702 2 1.6049090527780649 0.68972037691419241 1.610520945894512 2 0.33416666666757772 1.665833333332104 1.592055221591679 0.37998381655983821 1.346767458941071 0 1.73499906994049 1.375874417701122 0.26340755208402722 2 1.3740362318826671 0.33416666666757772 2 1.665833333332104 0.39539622647752048 1.604332214875325 1.222086277851258 2 0.97934782608697624 1.5921289062492749 2 1.3750846954865119 1.737640911519603 2 1.4249999999998371 1.4249999999998371 1.416074976583422 1.0640336752305579 1.5993145461844129 2 0.97934782608697624 1.5921289062492749 1.416074976583422 1.0640336752305579 1.5993145461844129 1.500000000000274 0.99883321436442229 1.16639307242336 1.6049090527780649 0.68972037691419241 1.610520945894512 0.86206805663365538 1.262904615478279 0 1.2339059149979039 1.1508473222113209 0 1.0206521739143919 1.592128906250684 0 0.92204894738342102 1.545944433704725 0.55253256161165365 0.40787109375015718 0 0.97934782608792492 0.73709538452274337 0 1.137931943365984 0.849152677791018 0 0.76609408500333809 0.59772980397989239 0.59772980397970443 0.74731771606769093 1.1393113769850489 0 1.263313302510394 1.2335907516799069 0 0.84894166339084287 1.0000000000002141 0 0.99999999999992895 0.98528458949709452 0.48395451161029718 1.014715410503322 0 0.85167501661028155 0.7670914684099619 0 1.263313302510646 0.86068862301506388 0 1.0000000000000291 0.99999999999996969 0.48528811404415773 0.99061345538166756 1.009386544617999 0 0.40787109374995661 0.97934782608798243 0 0.85167501661028155 0.7670914684099619 0 0.73703553820768952 1.137914212601322 0.59772980397989239 0.59772980397970443 0.74731771606769093 0.57499999999972717 1.4249999999995451 0 0.58179751944592217 1.199262271083781 0.58179751944619096 0.86206805663365538 1.262904615478279 0 0.92204894738342102 1.545944433704725 0.55253256161165365 0.33416666666749117 0.33416666666791067 0 0.26340755208406552 0.6259637681177177 0 0 0.62491530451403432 0.26235908848027167 0.39531730444687918 0.80019605692788165 0.39654492749411491 0.86620738987133672 1.5000000000001401 1.0337672479303861 0.92204894738342102 1.545944433704725 0.55253256161165365 0.58179751944592217 1.199262271083781 0.58179751944619096 0.41010551790091843 1.5854304871968741 0.7721068750782103 1.425000000000477 0 0.57500000000037066 1.665833333333216 0 0.33416666666646572 1.3758744177011391 0 0.26500093005953979 1.5919037892070651 0.60245787335453693 0.40912424902564543 1.000000000001781 0.99999999999894518 2 1.1535857644027949 0.76541035719405237 2 0.98528458949676634 0.98528458949702458 1.516045488389935 1.416074976583422 1.0640336752305579 1.5993145461844129 2 0.97934782608697624 1.5921289062492749 1.500000000000274 0.99883321436442229 1.16639307242336 2 0.73668669749101645 1.139311376982779 1.6049090527780649 0.68972037691419241 1.610520945894512 0.73668669749101645 2 1.139311376982779 0.39539622647752048 1.604332214875325 1.222086277851258 0.86620738987133672 1.5000000000001401 1.0337672479303861 0.77911601688602494 1.603176022082401 1.607321515253783 0.849152677791018 0 0.76609408500333809 1.19811642196055 0.57789440443542173 0.58983547034755146 1.0206521739124059 0 0.40787109374997071 0.77789883252811276 0.39570480562063071 0.39543357482263919 0.86620738987133672 1.5000000000001401 1.0337672479303861 0.39539622647752048 1.604332214875325 1.222086277851258 0.59772980397967113 1.252682283932151 1.4022701960199091 0.77911601688602494 1.603176022082401 1.607321515253783 1.592128906250083 0 1.020652173912294 1.5137040598352169 0.53344955263790295 0.97801656337898046 1.1393113769850489 0 1.263313302510394 1.592055221591679 0.37998381655983821 1.346767458941071 0.62596376811530841 0 0.26340755208326921 0.62412558229828341 0.26500093006025072 0 0.33416666666645822 0 0.33416666666687761 0.77789883252811276 0.39570480562063071 0.39543357482263919 0.849152677791018 0 0.76609408500333809 1.0000000000002141 0 0.99999999999992895 1.2335907516799069 0 0.84894166339084287 0.98528458949709452 0.48395451161029718 1.014715410503322 1.7349990699406379 0.62412558229936677 0 2 0.62596376811713206 0.26340755208327649 1.592128906250452 0.97934782608882909 0 1.5919037892070651 0.60245787335453693 0.40912424902564543 0.57500000000061269 0 0.57499999999949769 0.40787109375015718 0 0.97934782608792492 0.849152677791018 0 0.76609408500333809 0.59772980397989239 0.59772980397970443 0.74731771606769093 0.62193599033808677 1.7406202256939109 2 0.33416666666757772 2 1.665833333332104 0.62412558229832538 2 1.734999069939664 0.77911601688602494 1.603176022082401 1.607321515253783 0 0.40787109374995661 0.97934782608798243 0 0.57500000000018214 0.57500000000018214 0 0.85167501661028155 0.7670914684099619 0.59772980397989239 0.59772980397970443 0.74731771606769093 1.665833333333407 0.33416666666669298 0 1.3758744177011391 0 0.26500093005953979 1.665833333333216 0 0.33416666666646572 1.5919037892070651 0.60245787335453693 0.40912424902564543 2 0.3341666666668387 0.3341666666664192 1.665833333333216 0 0.33416666666646572 2 0.26500093005947722 0.62412558229727921 1.5919037892070651 0.60245787335453693 0.40912424902564543 0.979347826088805 0.40787109374939401 2 1.1535857644027949 0.76541035719405237 2 1.425000000001911 0.57499999999847629 2 1.2526822839324241 0.59772980398008735 1.402270196020621 1.4249999999998371 1.4249999999998371 2 1.5950886193190319 1.5950886193190319 1.4995967914346211 1.737640911519909 1.3750846954862539 2 1.416074976583422 1.0640336752305579 1.5993145461844129 0.84920286521341182 2 0.76599646645041963 0.92204894738342102 1.545944433704725 0.55253256161165365 0.86620738987133672 1.5000000000001401 1.0337672479303861 0.41010551790091843 1.5854304871968741 0.7721068750782103 0.62596376811718013 1.7365924479167429 0 1.0206521739143919 1.592128906250684 0 1.020652173914391 2 0.4078710937494115 0.92204894738342102 1.545944433704725 0.55253256161165365 0 0.85167501661028155 0.7670914684099619 0 1.0206521739139061 0.40787109375008618 0.58179751944592217 1.199262271083781 0.58179751944619096 0.39531730444687918 0.80019605692788165 0.39654492749411491 0.86068862301746607 1.2633133025089971 2 1.000000000001781 0.99999999999894518 2 0.76640924832151791 0.84894166339049981 2 0.98528458949676634 0.98528458949702458 1.516045488389935 2 1.425000000001911 0.57499999999847629 2 1.020652173914391 0.40787109374941138 2 1.2345896428056129 0.84641423559720252 1.5147705253128161 0.91852444755677043 0.69631892236242632 2 0.97934782608697624 1.5921289062492749 2 1.1510583366092999 1.2335907516785649 1.500000000000274 0.99883321436442229 1.16639307242336 1.416074976583422 1.0640336752305579 1.5993145461844129 0 1.0000000000000291 0.99999999999996969 0 1.263313302510646 0.86068862301506388 0 1.1379319433661621 1.2629046154773571 0.48528811404415773 0.99061345538166756 1.009386544617999 0.57500000000222118 0.57500000000110618 0 0.33416666666749117 0.33416666666791067 0 0.77789883252811276 0.39570480562063071 0.39543357482263919 0.39531730444687918 0.80019605692788165 0.39654492749411491 0.33416666666749117 0.33416666666791067 0 0 0.62491530451403432 0.26235908848027167 0 0.32892434865109021 0.32892434865109021 0.39531730444687918 0.80019605692788165 0.39654492749411491 0.849152677791018 0 0.76609408500333809 1.2335907516799069 0 0.84894166339084287 1.0206521739124059 0 0.40787109374997071 1.19811642196055 0.57789440443542173 0.58983547034755146 0.73668669749101645 2 1.139311376982779 1.000000000000635 2 0.99999999999835598 1.1510583366092999 2 1.2335907516785649 0.86620738987133672 1.5000000000001401 1.0337672479303861 2 0.97934782608697624 1.5921289062492749 2 1.4249999999998371 1.4249999999998371 2 1.1510583366092999 1.2335907516785649 1.416074976583422 1.0640336752305579 1.5993145461844129 0 1.73499906994049 1.375874417701122 0.33416666666757772 2 1.665833333332104 0 1.665833333333429 1.665833333333256 0.39539622647752048 1.604332214875325 1.222086277851258 0.86068862301746607 1.2633133025089971 2 0.4078710937509023 1.020652173913281 2 0.5750000000018145 1.424999999998573 2 0.59772980397967113 1.252682283932151 1.4022701960199091 1.4249999999998371 1.4249999999998371 2 1.1981164219601721 1.4101645296525169 1.4221055955645681 1.5950886193190319 1.5950886193190319 1.4995967914346211 1.416074976583422 1.0640336752305579 1.5993145461844129 1.425000000000477 0 0.57500000000037066 1.7365924479167549 0 0.62596376811523924 1.665833333333216 0 0.33416666666646572 1.5919037892070651 0.60245787335453693 0.40912424902564543 1.737640911519909 1.3750846954862539 2 2 0.97934782608697624 1.5921289062492749 1.5921289062508031 0.97934782608568471 2 1.416074976583422 1.0640336752305579 1.5993145461844129 1.592128906250083 0 1.020652173912294 2 0.40787109375045588 0.9793478260856453 1.7365924479167549 0 0.62596376811523924 1.5137040598352169 0.53344955263790295 0.97801656337898046 1.425000000000477 0 0.57500000000037066 1.592128906250083 0 1.020652173912294 1.7365924479167549 0 0.62596376811523924 1.5137040598352169 0.53344955263790295 0.97801656337898046 1.425000000001911 0.57499999999847629 2 1.685972222223028 0.31402777777693702 2 1.3780640096633039 0.25937977430496151 2 1.6049090527780649 0.68972037691419241 1.610520945894512 0.33416666666757772 2 1.665833333332104 0.39539622647752048 1.604332214875325 1.222086277851258 0.57500000000210227 2 1.4249999999987459 0.77911601688602494 1.603176022082401 1.607321515253783 0.73668669749101645 2 1.139311376982779 0.41010551790091843 1.5854304871968741 0.7721068750782103 0.86620738987133672 1.5000000000001401 1.0337672479303861 0.39539622647752048 1.604332214875325 1.222086277851258 2 0.26500093005947722 0.62412558229727921 2 0.40787109375045588 0.9793478260856453 2 0.57499999999943696 0.57500000000055196 1.5137040598352169 0.53344955263790295 0.97801656337898046 1.5921289062505879 2 1.0206521739114489 2 1.592128906250589 1.0206521739114489 1.7376409115198661 2 1.3833455650514059 1.532347752213032 1.4746298915713509 1.076108883276101 0.62596376811718013 1.7365924479167429 0 0.57499999999972717 1.4249999999995451 0 1.0206521739143919 1.592128906250684 0 0.92204894738342102 1.545944433704725 0.55253256161165365 1.734999069940508 0 1.3758744177011299 2 0.26340755208402722 1.3740362318826671 2 0 1.1999999999978941 1.592055221591679 0.37998381655983821 1.346767458941071 0 0.85167501661028155 0.7670914684099619 0 1.0206521739139061 0.40787109375008618 0 1.263313302510646 0.86068862301506388 0.58179751944592217 1.199262271083781 0.58179751944619096 0.31402777777840701 1.6859722222215581 2 0.33416666666757772 2 1.665833333332104 0.62193599033808677 1.7406202256939109 2 0.77911601688602494 1.603176022082401 1.607321515253783 0.57499999999943696 2 0.57500000000055196 0.92204894738342102 1.545944433704725 0.55253256161165365 0.41010551790091843 1.5854304871968741 0.7721068750782103 0.37819010083105031 1.488109359197332 0.37639255045733749 1.7376409115198661 2 1.3833455650514059 2 1.592128906250589 1.0206521739114489 2 2 1.1999999999978941 2 1.7376409115198661 1.3833455650514059 1.1510583366092999 2 1.2335907516785649 1.1981164219601721 1.4101645296525169 1.4221055955645681 0.97934782608697635 2 1.5921289062492749 0.77911601688602494 1.603176022082401 1.607321515253783 0.40787109375061498 1.0206521739145791 0 0.26500093005965231 1.375874417702696 0 0 1.0206521739139061 0.40787109375008618 0.37819010083105031 1.488109359197332 0.37639255045733749 1.151058336609301 0.76640924832138713 0 0.97934782608699855 0.40787109375058261 0 1.19811642196055 0.57789440443542173 0.58983547034755146 0.77789883252811276 0.39570480562063071 0.39543357482263919 1.200000000002774 2 0 1.383345565053743 1.737640911520447 0 1.3863248792284211 2 0.25937977430496501 1.020652173914391 2 0.4078710937494115 0.33416666666645822 0 0.33416666666687761 0.62412558229828341 0.26500093006025072 0 0.33416666666749117 0.33416666666791067 0 0.77789883252811276 0.39570480562063071 0.39543357482263919 1.1535857644027949 0.76541035719405237 2 1.425000000001911 0.57499999999847629 2 1.2526822839324241 0.59772980398008735 1.402270196020621 1.6049090527780649 0.68972037691419241 1.610520945894512 1.6658333333334381 0 1.665833333333264 1.685972222223028 0.31402777777693702 2 2 0.33416666666757772 1.665833333332104 1.592055221591679 0.37998381655983821 1.346767458941071 0 1.0206521739139061 0.40787109375008618 0.39531730444687918 0.80019605692788165 0.39654492749411491 0.40787109375061498 1.0206521739145791 0 0.37819010083105031 1.488109359197332 0.37639255045733749 0.97934782608803661 0 1.5921289062498969 1.4249999999997249 0 1.425000000000185 1.1393113769850489 0 1.263313302510394 1.2526822839324241 0.59772980398008735 1.402270196020621 0 0.73703553820768952 1.137914212601322 0 1.0000000000000291 0.99999999999996969 0 1.1379319433661621 1.2629046154773571 0.48528811404415773 0.99061345538166756 1.009386544617999 0.86068862301746607 1.2633133025089971 2 1.0206521739131471 1.5921289062494219 2 1.1981164219601721 1.4101645296525169 1.4221055955645681 0.77911601688602494 1.603176022082401 1.607321515253783 1.151058336609301 0.76640924832138713 0 1.19811642196055 0.57789440443542173 0.58983547034755146 1.424999999999718 0.57500000000001494 0 1.5919037892070651 0.60245787335453693 0.40912424902564543 0 1.4249999999997121 1.4250000000001719 0 0.97934782608799098 1.5921289062499051 0 1.1379319433661621 1.2629046154773571 0.59772980397967113 1.252682283932151 1.4022701960199091 0.76640924832151791 0.84894166339049981 2 1.000000000001781 0.99999999999894518 2 1.1535857644027949 0.76541035719405237 2 0.98528458949676634 0.98528458949702458 1.516045488389935 0.979347826088805 0.40787109374939401 2 0.62412558229932147 0 1.7349990699404549 0.80000000000332872 0 2 0.61665443494899885 0.26235908848011791 2 0 0.26235908848024581 0.61665443494884975 0 0 0.80000000000332872 0.26500093005959219 0 0.62412558229931248 0 0.40787109374995661 0.97934782608798243 2 0.57500000000210227 1.4249999999987459 1.6049090527780649 0.68972037691419241 1.610520945894512 2 0.73668669749101645 1.139311376982779 1.592055221591679 0.37998381655983821 1.346767458941071 0.62596376811718013 1.7365924479167429 0 0.80000000000332872 2 0 0.62596376811713206 2 0.26340755208327649 1.020652173914391 2 0.4078710937494115 1.151058336609301 0.76640924832138713 0 1.2339059149979039 1.1508473222113209 0 1.0000000000013569 1.0000000000020031 0 1.0362039003897969 1.032400726930619 0.49025282767413908 2 1.2345896428056129 0.84641423559720252 1.500000000000274 0.99883321436442229 1.16639307242336 2 1.1510583366092999 1.2335907516785649 1.532347752213032 1.4746298915713509 1.076108883276101 0.84920286521341182 2 0.76599646645041963 0.86620738987133672 1.5000000000001401 1.0337672479303861 0.73668669749101645 2 1.139311376982779 0.41010551790091843 1.5854304871968741 0.7721068750782103 0.73709538452274337 0 1.137931943365984 1.1393113769850489 0 1.263313302510394 1.0000000000002141 0 0.99999999999992895 0.98528458949709452 0.48395451161029718 1.014715410503322 0 0 1.200000000002774 0 0.40787109374995661 0.97934782608798243 0 0.26340755208329458 1.374036231884757 0.26340755208335531 0 1.374036231884725 2 1.592128906250589 1.0206521739114489 2 2 0.7999999999979498 2 1.740620225695106 0.62193599033678559 1.740620225695106 2 0.62193599033678559 0.40787109375061498 1.0206521739145791 0 0.73668669749125271 0.86068862301695703 0 0.58179751944592217 1.199262271083781 0.58179751944619096 0.39531730444687918 0.80019605692788165 0.39654492749411491 1.2340035335497621 1.1507971347859809 2 0.86068862301746607 1.2633133025089971 2 1.0206521739131471 1.5921289062494219 2 1.1981164219601721 1.4101645296525169 1.4221055955645681 1.0206521739124059 0 0.40787109374997071 1.2335907516799069 0 0.84894166339084287 1.425000000000477 0 0.57500000000037066 1.19811642196055 0.57789440443542173 0.58983547034755146 1.4249999999998371 1.4249999999998371 2 1.2340035335497621 1.1507971347859809 2 1.0206521739131471 1.5921289062494219 2 1.1981164219601721 1.4101645296525169 1.4221055955645681 0 1.0206521739139061 0.40787109375008618 0 1.4250000000002421 0.57500000000014528 0.58179751944592217 1.199262271083781 0.58179751944619096 0.37819010083105031 1.488109359197332 0.37639255045733749 0.40787109375061498 1.0206521739145791 0 0.58179751944592217 1.199262271083781 0.58179751944619096 0.57499999999972717 1.4249999999995451 0 0.37819010083105031 1.488109359197332 0.37639255045733749 1.151058336609301 0.76640924832138713 0 1.424999999999718 0.57500000000001494 0 1.592128906250452 0.97934782608882909 0 1.5919037892070651 0.60245787335453693 0.40912424902564543 1.500000000000274 0.99883321436442229 1.16639307242336 1.416074976583422 1.0640336752305579 1.5993145461844129 1.2526822839324241 0.59772980398008735 1.402270196020621 1.6049090527780649 0.68972037691419241 1.610520945894512 1.3740362318847941 0 1.736592447916669 0.979347826088805 0.40787109374939401 2 1.200000000002774 0 2 1.3780640096633039 0.25937977430496151 2 2 0.62596376811713206 0.26340755208327649 2 1.020652173914391 0.40787109374941138 1.592128906250452 0.97934782608882909 0 1.5919037892070651 0.60245787335453693 0.40912424902564543 0 1.0206521739139061 0.40787109375008618 0 1.4250000000002421 0.57500000000014528 0 1.263313302510646 0.86068862301506388 0.58179751944592217 1.199262271083781 0.58179751944619096 0.40787109375061498 1.0206521739145791 0 0.73668669749125271 0.86068862301695703 0 0.86206805663365538 1.262904615478279 0 0.58179751944592217 1.199262271083781 0.58179751944619096 0.40787109375061498 1.0206521739145791 0 0.86206805663365538 1.262904615478279 0 0.57499999999972717 1.4249999999995451 0 0.58179751944592217 1.199262271083781 0.58179751944619096 0 0.73703553820768952 1.137914212601322 0 0.85167501661028155 0.7670914684099619 0 1.0000000000000291 0.99999999999996969 0.48528811404415773 0.99061345538166756 1.009386544617999 1.1393113769850489 0 1.263313302510394 1.592128906250083 0 1.020652173912294 1.2335907516799069 0 0.84894166339084287 1.5137040598352169 0.53344955263790295 0.97801656337898046 1.151058336609301 0.76640924832138713 0 0.97934782608699855 0.40787109375058261 0 1.424999999999718 0.57500000000001494 0 1.19811642196055 0.57789440443542173 0.58983547034755146 0.97934782608697635 2 1.5921289062492749 1.1510583366092999 2 1.2335907516785649 1.4249999999998371 2 1.4249999999998371 1.1981164219601721 1.4101645296525169 1.4221055955645681 0.849152677791018 0 0.76609408500333809 0.73709538452274337 0 1.137931943365984 1.0000000000002141 0 0.99999999999992895 0.98528458949709452 0.48395451161029718 1.014715410503322 0 1.1379319433661621 1.2629046154773571 0 1.4249999999997121 1.4250000000001719 0.59772980397967113 1.252682283932151 1.4022701960199091 0.39539622647752048 1.604332214875325 1.222086277851258 0.849152677791018 0 0.76609408500333809 0.57500000000061269 0 0.57499999999949769 0.59772980397989239 0.59772980397970443 0.74731771606769093 0.77789883252811276 0.39570480562063071 0.39543357482263919 0 0.85167501661028155 0.7670914684099619 0.59772980397989239 0.59772980397970443 0.74731771606769093 0 0.57500000000018214 0.57500000000018214 0.39531730444687918 0.80019605692788165 0.39654492749411491 2 1.592128906250589 1.0206521739114489 2 1.425000000001911 0.57499999999847629 2 1.2345896428056129 0.84641423559720252 1.532347752213032 1.4746298915713509 1.076108883276101 1.737640911519909 1.3750846954862539 2 2 0.97934782608697624 1.5921289062492749 2 1.3750846954865119 1.737640911519603 2 1.1999999999978941 2 0.26500093005965231 1.375874417702696 0 0 1.200000000002774 0 0 1.0206521739139061 0.40787109375008618 0 1.3863248792278431 0.25937977430558068 1.4249999999997249 0 1.425000000000185 1.1393113769850489 0 1.263313302510394 1.2526822839324241 0.59772980398008735 1.402270196020621 1.592055221591679 0.37998381655983821 1.346767458941071 2 1.4249999999998371 1.4249999999998371 2 1.7376409115198661 1.3833455650514059 1.532347752213032 1.4746298915713509 1.076108883276101 1.5950886193190319 1.5950886193190319 1.4995967914346211 1.1510583366092999 2 1.2335907516785649 1.2345896428056129 2 0.84641423559720264 1.5921289062505879 2 1.0206521739114489 1.532347752213032 1.4746298915713509 1.076108883276101 1.425000000001911 2 0.5749999999984764 1.2345896428056129 2 0.84641423559720264 1.020652173914391 2 0.4078710937494115 0.92204894738342102 1.545944433704725 0.55253256161165365 2 0.26340755208402722 1.3740362318826671 2 0.40787109375045588 0.9793478260856453 2 0 1.1999999999978941 1.592055221591679 0.37998381655983821 1.346767458941071 0 1.4250000000002421 0.57500000000014528 0.41010551790091843 1.5854304871968741 0.7721068750782103 0.58179751944592217 1.199262271083781 0.58179751944619096 0.37819010083105031 1.488109359197332 0.37639255045733749 1.7406202256951491 0.61367512077163267 2 2 0.7999999999979498 2 2 0.62412558229832538 1.734999069939664 1.6049090527780649 0.68972037691419241 1.610520945894512 1.374036231883393 0.26340755208345812 0 1.1999999999978941 0 0 1.3758744177011391 0 0.26500093005953979 1.0206521739124059 0 0.40787109374997071 2 0.80000000000332872 0 1.7349990699406379 0.62412558229936677 0 2 0.62596376811713206 0.26340755208327649 1.592128906250452 0.97934782608882909 0 2 0.26500093005947722 0.62412558229727921 1.7365924479167549 0 0.62596376811523924 2 0 0.7999999999979498 2 0.40787109375045588 0.9793478260856453 0.86068862301746607 1.2633133025089971 2 0.59772980397967113 1.252682283932151 1.4022701960199091 0.5750000000018145 1.424999999998573 2 0.77911601688602494 1.603176022082401 1.607321515253783 1.2340035335497621 1.1507971347859809 2 1.1981164219601721 1.4101645296525169 1.4221055955645681 1.4249999999998371 1.4249999999998371 2 1.416074976583422 1.0640336752305579 1.5993145461844129 0 1.4250000000002421 0.57500000000014528 0 1.263313302510646 0.86068862301506388 0.58179751944592217 1.199262271083781 0.58179751944619096 0.41010551790091843 1.5854304871968741 0.7721068750782103 1.1510583366092999 2 1.2335907516785649 1.5921289062505879 2 1.0206521739114489 1.4249999999998371 2 1.4249999999998371 1.532347752213032 1.4746298915713509 1.076108883276101 0.86206805663365538 1.262904615478279 0 1.0000000000013569 1.0000000000020031 0 1.2339059149979039 1.1508473222113209 0 1.0362039003897969 1.032400726930619 0.49025282767413908 0 0.32892434865109021 0.32892434865109021 0 0.62491530451403432 0.26235908848027167 0 0.57500000000018214 0.57500000000018214 0.39531730444687918 0.80019605692788165 0.39654492749411491 1.7406202256951491 0.61367512077163267 2 2 0.62412558229832538 1.734999069939664 2 0.33416666666757772 1.665833333332104 1.6049090527780649 0.68972037691419241 1.610520945894512 0.31402777777840701 1.6859722222215581 2 0.62193599033808677 1.7406202256939109 2 0.5750000000018145 1.424999999998573 2 0.77911601688602494 1.603176022082401 1.607321515253783 1.3833455650517461 1.737640911519633 2 1.3750846954865119 2 1.737640911519603 1.0206521739131471 1.5921289062494219 2 1.1999999999978941 2 2 2 0.73668669749101645 1.139311376982779 2 0.97934782608697624 1.5921289062492749 2 1.1510583366092999 1.2335907516785649 1.500000000000274 0.99883321436442229 1.16639307242336 0.58179751944592217 1.199262271083781 0.58179751944619096 0.41010551790091843 1.5854304871968741 0.7721068750782103 0.92204894738342102 1.545944433704725 0.55253256161165365 0.37819010083105031 1.488109359197332 0.37639255045733749 1.19811642196055 0.57789440443542173 0.58983547034755146 1.5147705253128161 0.91852444755677043 0.69631892236242632 1.5137040598352169 0.53344955263790295 0.97801656337898046 1.5919037892070651 0.60245787335453693 0.40912424902564543 1.734999069940508 0 1.3758744177011299 2 0 1.1999999999978941 1.592128906250083 0 1.020652173912294 1.592055221591679 0.37998381655983821 1.346767458941071 2 1.020652173914391 0.40787109374941138 2 1.3863248792284211 0.25937977430496489 2 1.200000000002774 0 1.737640911520401 1.3750846954886311 0 2 1.592128906250589 1.0206521739114489 1.5921289062505879 2 1.0206521739114489 2 2 0.7999999999979498 1.740620225695106 2 0.62193599033678559 0.26235908848041961 0.62491530451389399 2 0 0.80000000000332872 2 0 0.97934782608799098 1.5921289062499051 0 0.62412558229928472 1.7349990699404849 0.80000000000332872 2 0 0.62596376811718013 1.7365924479167429 0 1.0206521739143919 1.592128906250684 0 1.020652173914391 2 0.4078710937494115 0.73668669749101645 2 1.139311376982779 0.57500000000210227 2 1.4249999999987459 0.39539622647752048 1.604332214875325 1.222086277851258 0.77911601688602494 1.603176022082401 1.607321515253783 2 1.2345896428056129 0.84641423559720252 2 0.84920286521341182 0.76599646645041952 2 1.000000000000635 0.99999999999835576 1.5147705253128161 0.91852444755677043 0.69631892236242632 1.592128906250083 0 1.020652173912294 1.425000000000477 0 0.57500000000037066 1.2335907516799069 0 0.84894166339084287 1.5137040598352169 0.53344955263790295 0.97801656337898046 0 0.40787109374995661 0.97934782608798243 0 0 1.200000000002774 0.40787109375015718 0 0.97934782608792492 0.26340755208335531 0 1.374036231884725 0.57500000000222118 0.57500000000110618 0 0.26340755208406552 0.6259637681177177 0 0.33416666666749117 0.33416666666791067 0 0.39531730444687918 0.80019605692788165 0.39654492749411491 1.200000000002774 2 0 1.0206521739143919 1.592128906250684 0 1.383345565053743 1.737640911520447 0 1.020652173914391 2 0.4078710937494115 0.57499999999972717 1.4249999999995451 0 0.86206805663365538 1.262904615478279 0 1.0206521739143919 1.592128906250684 0 0.92204894738342102 1.545944433704725 0.55253256161165365 2 1.592128906250589 1.0206521739114489 1.7376409115198661 2 1.3833455650514059 2 2 1.1999999999978941 1.5921289062505879 2 1.0206521739114489 0 1.73499906994049 1.375874417701122 0 1.665833333333429 1.665833333333256 0 1.4249999999997121 1.4250000000001719 0.39539622647752048 1.604332214875325 1.222086277851258 1.000000000001781 0.99999999999894518 2 1.2340035335497621 1.1507971347859809 2 1.1535857644027949 0.76541035719405237 2 1.416074976583422 1.0640336752305579 1.5993145461844129 0.73668669749101645 2 1.139311376982779 0.40787109375045588 2 0.9793478260856453 0.41010551790091843 1.5854304871968741 0.7721068750782103 0.39539622647752048 1.604332214875325 1.222086277851258 2 0.73668669749101645 1.139311376982779 2 1.1510583366092999 1.2335907516785649 2 1.000000000000635 0.99999999999835576 1.500000000000274 0.99883321436442229 1.16639307242336 0 1.740620225694506 0.62193599033743363 0.26500093005947722 2 0.6241255822972791 0.41010551790091843 1.5854304871968741 0.7721068750782103 0.37819010083105031 1.488109359197332 0.37639255045733749 1.737640911519909 1.3750846954862539 2 1.5921289062508031 0.97934782608568471 2 2 0.97934782608697624 1.5921289062492749 2 1.1999999999978941 2 0 0 0.80000000000332872 0.26500093005959219 0 0.62412558229931248 0 0.40787109374995661 0.97934782608798243 0.40787109375015718 0 0.97934782608792492 0.25937977430622478 1.3863248792272369 2 0 1.200000000002774 2 0 1.374036231884781 1.736592447916667 0.4078710937509023 1.020652173913281 2 0.73668669749101645 2 1.139311376982779 1.1510583366092999 2 1.2335907516785649 0.97934782608697635 2 1.5921289062492749 0.77911601688602494 1.603176022082401 1.607321515253783 0.979347826088805 0.40787109374939401 2 0.97934782608803661 0 1.5921289062498969 1.3740362318847941 0 1.736592447916669 1.200000000002774 0 2 2 1.020652173914391 0.40787109374941138 2 0.84920286521341182 0.76599646645041952 1.5147705253128161 0.91852444755677043 0.69631892236242632 1.5919037892070651 0.60245787335453693 0.40912424902564543 0.57499999999943696 2 0.57500000000055196 0.92204894738342102 1.545944433704725 0.55253256161165365 0.84920286521341182 2 0.76599646645041963 0.41010551790091843 1.5854304871968741 0.7721068750782103 0.73668669749125271 0.86068862301695703 0 0.57500000000222118 0.57500000000110618 0 0.77789883252811276 0.39570480562063071 0.39543357482263919 0.39531730444687918 0.80019605692788165 0.39654492749411491 1.1535857644027949 0.76541035719405237 2 1.416074976583422 1.0640336752305579 1.5993145461844129 1.5921289062508031 0.97934782608568471 2 1.6049090527780649 0.68972037691419241 1.610520945894512 0 1.740620225694506 0.62193599033743363 0.3341666666668387 2 0.3341666666664192 0.26500093005947722 2 0.6241255822972791 0.37819010083105031 1.488109359197332 0.37639255045733749 1.151058336609301 0.76640924832138713 0 0.73668669749125271 0.86068862301695703 0 0.97934782608699855 0.40787109375058261 0 0.77789883252811276 0.39570480562063071 0.39543357482263919 1.7406202256951491 0.61367512077163267 2 2 0.33416666666757772 1.665833333332104 1.685972222223028 0.31402777777693702 2 1.6049090527780649 0.68972037691419241 1.610520945894512 0.57499999999943696 2 0.57500000000055196 0.41010551790091843 1.5854304871968741 0.7721068750782103 0.26500093005947722 2 0.6241255822972791 0.37819010083105031 1.488109359197332 0.37639255045733749 0.33416666666757772 2 1.665833333332104 0.57500000000210227 2 1.4249999999987459 0.62412558229832538 2 1.734999069939664 0.77911601688602494 1.603176022082401 1.607321515253783 2 1.592128906250589 1.0206521739114489 2 1.4249999999998371 1.4249999999998371 2 1.7376409115198661 1.3833455650514059 1.532347752213032 1.4746298915713509 1.076108883276101 1.592128906250083 0 1.020652173912294 2 0.40787109375045588 0.9793478260856453 1.5137040598352169 0.53344955263790295 0.97801656337898046 1.592055221591679 0.37998381655983821 1.346767458941071 0.33416666666749117 0.33416666666791067 0 0.62412558229828341 0.26500093006025072 0 0.57500000000222118 0.57500000000110618 0 0.77789883252811276 0.39570480562063071 0.39543357482263919 0.84920286521341182 2 0.76599646645041963 1.000000000000635 2 0.99999999999835598 0.73668669749101645 2 1.139311376982779 0.86620738987133672 1.5000000000001401 1.0337672479303861 1.3833455650517461 1.737640911519633 2 1.3750846954865119 2 1.737640911519603 1.671075651348906 2 1.671075651348906 1.5950886193190319 1.5950886193190319 1.4995967914346211 1.7406202256951491 0.61367512077163267 2 1.5921289062508031 0.97934782608568471 2 2 0.7999999999979498 2 1.6049090527780649 0.68972037691419241 1.610520945894512 0.62412558229932147 0 1.7349990699404549 0.979347826088805 0.40787109374939401 2 0.80000000000332872 0 2 0.97934782608803661 0 1.5921289062498969 2 0.7999999999979498 2 2 0.97934782608697624 1.5921289062492749 2 0.62412558229832538 1.734999069939664 1.6049090527780649 0.68972037691419241 1.610520945894512 2 0.57500000000210227 1.4249999999987459 2 0.97934782608697624 1.5921289062492749 2 0.73668669749101645 1.139311376982779 1.6049090527780649 0.68972037691419241 1.610520945894512 0 1.592128906249999 1.0206521739122849 0 1.263313302510646 0.86068862301506388 0.41010551790091843 1.5854304871968741 0.7721068750782103 0.39539622647752048 1.604332214875325 1.222086277851258 2 1.200000000002774 0 2 1.020652173914391 0.40787109374941138 1.737640911520401 1.3750846954886311 0 1.592128906250452 0.97934782608882909 0 2 1.020652173914391 0.40787109374941138 2 0.80000000000332872 0 2 0.62596376811713206 0.26340755208327649 1.592128906250452 0.97934782608882909 0 1.5921289062508031 0.97934782608568471 2 1.416074976583422 1.0640336752305579 1.5993145461844129 2 0.97934782608697624 1.5921289062492749 1.6049090527780649 0.68972037691419241 1.610520945894512 2 0.3341666666668387 0.3341666666664192 1.665833333333407 0.33416666666669298 0 1.665833333333216 0 0.33416666666646572 1.5919037892070651 0.60245787335453693 0.40912424902564543 0.57500000000210227 2 1.4249999999987459 0.33416666666757772 2 1.665833333332104 0.26340755208402722 2 1.3740362318826671 0.39539622647752048 1.604332214875325 1.222086277851258 2 0.57499999999943696 0.57500000000055196 2 0.40787109375045588 0.9793478260856453 2 0.84920286521341182 0.76599646645041952 1.5137040598352169 0.53344955263790295 0.97801656337898046 1.4249999999997249 0 1.425000000000185 1.592128906250083 0 1.020652173912294 1.1393113769850489 0 1.263313302510394 1.592055221591679 0.37998381655983821 1.346767458941071 1.734999069940508 0 1.3758744177011299 2 0.33416666666757772 1.665833333332104 2 0.26340755208402722 1.3740362318826671 1.592055221591679 0.37998381655983821 1.346767458941071 1.592128906250083 0 1.020652173912294 2 0 1.1999999999978941 2 0.40787109375045588 0.9793478260856453 1.592055221591679 0.37998381655983821 1.346767458941071 1.737640911519909 1.3750846954862539 2 1.671075651348906 1.671075651348906 2 2 1.3750846954865119 1.737640911519603 1.5950886193190319 1.5950886193190319 1.4995967914346211 0.3341666666668387 2 0.3341666666664192 0.57499999999943696 2 0.57500000000055196 0.26500093005947722 2 0.6241255822972791 0.37819010083105031 1.488109359197332 0.37639255045733749 0.62596376811718013 1.7365924479167429 0 0.62596376811713206 2 0.26340755208327649 0.33416666666678929 1.6658333333334849 0 0.37819010083105031 1.488109359197332 0.37639255045733749 0.84920286521341182 2 0.76599646645041963 0.73668669749101645 2 1.139311376982779 0.40787109375045588 2 0.9793478260856453 0.41010551790091843 1.5854304871968741 0.7721068750782103 0.26500093005965231 1.375874417702696 0 0 1.200000000002774 0 0.40787109375061498 1.0206521739145791 0 0 1.0206521739139061 0.40787109375008618 0.57499999999943696 2 0.57500000000055196 0.62596376811713206 2 0.26340755208327649 1.020652173914391 2 0.4078710937494115 0.92204894738342102 1.545944433704725 0.55253256161165365 0 1.740620225694506 0.62193599033743363 0.26500093005947722 2 0.6241255822972791 0 2 0.7999999999979498 0.41010551790091843 1.5854304871968741 0.7721068750782103 1.6658333333334381 0 1.665833333333264 1.4249999999997249 0 1.425000000000185 1.3740362318847941 0 1.736592447916669 1.592055221591679 0.37998381655983821 1.346767458941071 1.1535857644027949 0.76541035719405237 2 1.5921289062508031 0.97934782608568471 2 1.425000000001911 0.57499999999847629 2 1.6049090527780649 0.68972037691419241 1.610520945894512 0 1.263313302510646 0.86068862301506388 0 1.592128906249999 1.0206521739122849 0 1.1379319433661621 1.2629046154773571 0.39539622647752048 1.604332214875325 1.222086277851258 2 1.2345896428056129 0.84641423559720252 2 1.020652173914391 0.40787109374941138 2 0.84920286521341182 0.76599646645041952 1.5147705253128161 0.91852444755677043 0.69631892236242632 1.3750846954865119 2 1.737640911519603 0.97934782608697635 2 1.5921289062492749 1.0206521739131471 1.5921289062494219 2 1.1999999999978941 2 2 0.97934782608699855 0.40787109375058261 0 1.1999999999978941 0 0 1.374036231883393 0.26340755208345812 0 1.0206521739124059 0 0.40787109374997071 1.7365924479167549 0 0.62596376811523924 1.592128906250083 0 1.020652173912294 2 0 0.7999999999979498 2 0.40787109375045588 0.9793478260856453 0.62596376811530841 0 0.26340755208326921 0.33416666666645822 0 0.33416666666687761 0.57500000000061269 0 0.57499999999949769 0.77789883252811276 0.39570480562063071 0.39543357482263919 0.26500093005965231 1.375874417702696 0 0.40787109375061498 1.0206521739145791 0 0.57499999999972717 1.4249999999995451 0 0.37819010083105031 1.488109359197332 0.37639255045733749 1.3833455650517461 1.737640911519633 2 1.671075651348906 2 1.671075651348906 1.671075651348906 1.671075651348906 2 1.5950886193190319 1.5950886193190319 1.4995967914346211 2 1.020652173914391 0.40787109374941138 2 0.57499999999943696 0.57500000000055196 2 0.84920286521341182 0.76599646645041952 1.5919037892070651 0.60245787335453693 0.40912424902564543 1.7349990699406379 0.62412558229936677 0 2 0.3341666666668387 0.3341666666664192 2 0.62596376811713206 0.26340755208327649 1.5919037892070651 0.60245787335453693 0.40912424902564543 0 1.685972222222293 0.31402777777767188 0.3341666666668387 2 0.3341666666664192 0 1.740620225694506 0.62193599033743363 0.37819010083105031 1.488109359197332 0.37639255045733749 0.4078710937509023 1.020652173913281 2 0.26235908848041961 0.62491530451389399 2 0 0.80000000000332872 2 0 0.97934782608799098 1.5921289062499051 0 1.200000000002774 2 0 1.374036231884781 1.736592447916667 0.4078710937509023 1.020652173913281 2 0 0.97934782608799098 1.5921289062499051 0.57499999999943696 2 0.57500000000055196 0.3341666666668387 2 0.3341666666664192 0.62596376811713206 2 0.26340755208327649 0.37819010083105031 1.488109359197332 0.37639255045733749 0 1.0206521739139061 0.40787109375008618 0 1.3863248792278431 0.25937977430558068 0 1.4250000000002421 0.57500000000014528 0.37819010083105031 1.488109359197332 0.37639255045733749 2 0.7999999999979498 2 1.5921289062508031 0.97934782608568471 2 2 0.97934782608697624 1.5921289062492749 1.6049090527780649 0.68972037691419241 1.610520945894512 0.40787109375045588 2 0.9793478260856453 0 2 0.7999999999979498 0.26500093005947722 2 0.6241255822972791 0.41010551790091843 1.5854304871968741 0.7721068750782103 2 1.3750846954865119 1.737640911519603 1.671075651348906 1.671075651348906 2 2 1.671075651348906 1.671075651348906 1.5950886193190319 1.5950886193190319 1.4995967914346211 2 0.73668669749101645 1.139311376982779 1.5137040598352169 0.53344955263790295 0.97801656337898046 2 0.40787109375045588 0.9793478260856453 1.592055221591679 0.37998381655983821 1.346767458941071 0.84920286521341182 2 0.76599646645041963 1.020652173914391 2 0.4078710937494115 1.2345896428056129 2 0.84641423559720264 0.92204894738342102 1.545944433704725 0.55253256161165365 1.6658333333334381 0 1.665833333333264 2 0.33416666666757772 1.665833333332104 1.734999069940508 0 1.3758744177011299 1.592055221591679 0.37998381655983821 1.346767458941071 0.62596376811713206 2 0.26340755208327649 0.3341666666668387 2 0.3341666666664192 0.33416666666678929 1.6658333333334849 0 0.37819010083105031 1.488109359197332 0.37639255045733749 1.4249999999998371 1.4249999999998371 2 1.737640911519909 1.3750846954862539 2 1.5921289062508031 0.97934782608568471 2 1.416074976583422 1.0640336752305579 1.5993145461844129 0 2 1.1999999999978941 0.26340755208402722 2 1.3740362318826671 0 1.73499906994049 1.375874417701122 0.39539622647752048 1.604332214875325 1.222086277851258 1.4249999999998371 1.4249999999998371 2 1.3833455650517461 1.737640911519633 2 1.671075651348906 1.671075651348906 2 1.5950886193190319 1.5950886193190319 1.4995967914346211 2 0.62596376811713206 0.26340755208327649 2 0.57499999999943696 0.57500000000055196 2 1.020652173914391 0.40787109374941138 1.5919037892070651 0.60245787335453693 0.40912424902564543 2 0.3341666666668387 0.3341666666664192 2 0.26500093005947722 0.62412558229727921 2 0.57499999999943696 0.57500000000055196 1.5919037892070651 0.60245787335453693 0.40912424902564543 2 0.84920286521341182 0.76599646645041952 2 0.40787109375045588 0.9793478260856453 2 0.73668669749101645 1.139311376982779 1.5137040598352169 0.53344955263790295 0.97801656337898046 2 1.592128906250589 1.0206521739114489 2 1.1510583366092999 1.2335907516785649 2 1.4249999999998371 1.4249999999998371 1.532347752213032 1.4746298915713509 1.076108883276101 2 1.592128906250589 1.0206521739114489 2 1.2345896428056129 0.84641423559720252 2 1.1510583366092999 1.2335907516785649 1.532347752213032 1.4746298915713509 1.076108883276101 1.7349990699406379 0.62412558229936677 0 1.665833333333407 0.33416666666669298 0 2 0.3341666666668387 0.3341666666664192 1.5919037892070651 0.60245787335453693 0.40912424902564543 2 0.57500000000210227 1.4249999999987459 2 0.33416666666757772 1.665833333332104 1.6049090527780649 0.68972037691419241 1.610520945894512 1.592055221591679 0.37998381655983821 1.346767458941071 0.62596376811530841 0 0.26340755208326921 0.7999999999979498 0 0 0.62412558229828341 0.26500093006025072 0 0.77789883252811276 0.39570480562063071 0.39543357482263919 2 1.671075651348906 1.671075651348906 1.7376409115198661 2 1.3833455650514059 2 1.7376409115198661 1.3833455650514059 1.5950886193190319 1.5950886193190319 1.4995967914346211 1.4249999999998371 1.4249999999998371 2 1.671075651348906 1.671075651348906 2 1.737640911519909 1.3750846954862539 2 1.5950886193190319 1.5950886193190319 1.4995967914346211 0 1.740620225694506 0.62193599033743363 0 2 0.7999999999979498 0 1.592128906249999 1.0206521739122849 0.41010551790091843 1.5854304871968741 0.7721068750782103 0 1.1379319433661621 1.2629046154773571 0 1.592128906249999 1.0206521739122849 0 1.4249999999997121 1.4250000000001719 0.39539622647752048 1.604332214875325 1.222086277851258 1.7406202256951491 0.61367512077163267 2 1.685972222223028 0.31402777777693702 2 1.425000000001911 0.57499999999847629 2 1.6049090527780649 0.68972037691419241 1.610520945894512 0.7999999999979498 2 2 0.62193599033808677 1.7406202256939109 2 0.62412558229832538 2 1.734999069939664 0.77911601688602494 1.603176022082401 1.607321515253783 0.40787109375045588 2 0.9793478260856453 0.26340755208402722 2 1.3740362318826671 0 2 1.1999999999978941 0.39539622647752048 1.604332214875325 1.222086277851258 1.374036231883393 0.26340755208345812 0 1.665833333333407 0.33416666666669298 0 1.424999999999718 0.57500000000001494 0 1.5919037892070651 0.60245787335453693 0.40912424902564543 0.40787109375045588 2 0.9793478260856453 0.57499999999943696 2 0.57500000000055196 0.84920286521341182 2 0.76599646645041963 0.41010551790091843 1.5854304871968741 0.7721068750782103 0.57500000000210227 2 1.4249999999987459 0.73668669749101645 2 1.139311376982779 0.97934782608697635 2 1.5921289062492749 0.77911601688602494 1.603176022082401 1.607321515253783 2 0.57500000000210227 1.4249999999987459 2 0.40787109375045588 0.9793478260856453 2 0.26340755208402722 1.3740362318826671 1.592055221591679 0.37998381655983821 1.346767458941071 0.40787109375045588 2 0.9793478260856453 0 1.592128906249999 1.0206521739122849 0 2 0.7999999999979498 0.41010551790091843 1.5854304871968741 0.7721068750782103 1.592128906250452 0.97934782608882909 0 1.424999999999718 0.57500000000001494 0 1.7349990699406379 0.62412558229936677 0 1.5919037892070651 0.60245787335453693 0.40912424902564543 0.97934782608699855 0.40787109375058261 0 0.73668669749125271 0.86068862301695703 0 0.57500000000222118 0.57500000000110618 0 0.77789883252811276 0.39570480562063071 0.39543357482263919 0 2 1.1999999999978941 0 1.73499906994049 1.375874417701122 0 1.592128906249999 1.0206521739122849 0.39539622647752048 1.604332214875325 1.222086277851258 0.40787109375045588 2 0.9793478260856453 0 2 1.1999999999978941 0 1.592128906249999 1.0206521739122849 0.39539622647752048 1.604332214875325 1.222086277851258 0.62596376811530841 0 0.26340755208326921 1.0206521739124059 0 0.40787109374997071 0.7999999999979498 0 0 0.77789883252811276 0.39570480562063071 0.39543357482263919 0.40787109375045588 2 0.9793478260856453 0 1.592128906249999 1.0206521739122849 0.41010551790091843 1.5854304871968741 0.7721068750782103 0.39539622647752048 1.604332214875325 1.222086277851258 2 0.73668669749101645 1.139311376982779 2 0.40787109375045588 0.9793478260856453 2 0.57500000000210227 1.4249999999987459 1.592055221591679 0.37998381655983821 1.346767458941071 0.26340755208406552 0.6259637681177177 0 0 0.80000000000332872 0 0 0.62491530451403432 0.26235908848027167 0.39531730444687918 0.80019605692788165 0.39654492749411491 0.7999999999979498 2 2 1.0206521739131471 1.5921289062494219 2 0.62193599033808677 1.7406202256939109 2 0.77911601688602494 1.603176022082401 1.607321515253783 2 2 1.5999999999989469 2 1.671075651348906 1.671075651348906 1.7376409115198661 2 1.3833455650514059 2 1.7376409115198661 1.3833455650514059 0.62412558229828341 0.26500093006025072 0 0.7999999999979498 0 0 0.97934782608699855 0.40787109375058261 0 0.77789883252811276 0.39570480562063071 0.39543357482263919 0.7999999999979498 2 2 0.62412558229832538 2 1.734999069939664 0.97934782608697635 2 1.5921289062492749 0.77911601688602494 1.603176022082401 1.607321515253783 0.33416666666682932 0 1.665833333333445 0.40000000000166441 0 2 0.62412558229932147 0 1.7349990699404549 0.61665443494899885 0.26235908848011791 2 0 0 0.40000000000166441 0.33416666666645822 0 0.33416666666687761 0 0.26235908848024581 0.61665443494884975 0.26500093005959219 0 0.62412558229931248 0.57499999999943696 2 0.57500000000055196 1.020652173914391 2 0.4078710937494115 0.84920286521341182 2 0.76599646645041963 0.92204894738342102 1.545944433704725 0.55253256161165365 0.97934782608699855 0.40787109375058261 0 0.7999999999979498 0 0 1.0206521739124059 0 0.40787109374997071 0.77789883252811276 0.39570480562063071 0.39543357482263919 0.97934782608697635 2 1.5921289062492749 1.0206521739131471 1.5921289062494219 2 0.7999999999979498 2 2 0.77911601688602494 1.603176022082401 1.607321515253783 0.33416666666645822 0 0.33416666666687761 0.62596376811530841 0 0.26340755208326921 0.39999999999911567 0 0 0.62412558229828341 0.26500093006025072 0 1.3758744177011391 0 0.26500093005953979 1.374036231883393 0.26340755208345812 0 1.665833333333407 0.33416666666669298 0 1.5999999999989469 0 0 2 0.26500093005947722 0.62412558229727921 2 0 0.39999999999911567 1.7365924479167549 0 0.62596376811523924 1.665833333333216 0 0.33416666666646572 1.7349990699406379 0.62412558229936677 0 2 0.62596376811713206 0.26340755208327649 2 0.3341666666668387 0.3341666666664192 2 0.40000000000166441 0 0.26340755208402722 2 1.3740362318826671 0 1.73499906994049 1.375874417701122 0.33416666666757772 2 1.665833333332104 0 2 1.5999999999989469 1.734999069940508 0 1.3758744177011299 2 0.26340755208402722 1.3740362318826671 2 0.33416666666757772 1.665833333332104 2 0 1.5999999999989469 0.26235908848041961 0.62491530451389399 2 0 0.33416666666678929 1.6658333333334849 0 0.40000000000166441 2 0 0.62412558229928472 1.7349990699404849 1.671075651348906 2 1.671075651348906 2 1.671075651348906 1.671075651348906 1.671075651348906 1.671075651348906 2 1.5950886193190319 1.5950886193190319 1.4995967914346211 0.80000000000332872 2 0 1.0206521739143919 1.592128906250684 0 1.200000000002774 2 0 1.020652173914391 2 0.4078710937494115 1.671075651349931 1.671075651349931 0 1.6000000000000001 2 0 1.383345565053743 1.737640911520447 0 1.3863248792284211 2 0.25937977430496501 1.5921289062505879 2 1.0206521739114489 2 2 1.1999999999978941 2 1.592128906250589 1.0206521739114489 2 2 0.7999999999979498 0 0 1.200000000002774 0 0 0.80000000000332872 0 0.40787109374995661 0.97934782608798243 0.40787109375015718 0 0.97934782608792492 0.26500093005965231 1.375874417702696 0 0.33416666666678929 1.6658333333334849 0 0 1.3863248792278431 0.25937977430558068 0.37819010083105031 1.488109359197332 0.37639255045733749 0 1.3863248792278431 0.25937977430558068 0.26500093005965231 1.375874417702696 0 0 1.6000000000000001 0 0.33416666666678929 1.6658333333334849 0 2 0.33416666666757772 1.665833333332104 1.7406202256951491 0.61367512077163267 2 2 0.39999999999911567 2 2 0.62412558229832538 1.734999069939664 0 0.80000000000332872 0 0.40787109375061498 1.0206521739145791 0 0 1.0206521739139061 0.40787109375008618 0.39531730444687918 0.80019605692788165 0.39654492749411491 0 0.80000000000332872 0 0.26340755208406552 0.6259637681177177 0 0.40787109375061498 1.0206521739145791 0 0.39531730444687918 0.80019605692788165 0.39654492749411491 2 1.671075651348906 1.671075651348906 1.671075651348906 2 1.671075651348906 1.7376409115198661 2 1.3833455650514059 1.5950886193190319 1.5950886193190319 1.4995967914346211 2 0.57500000000210227 1.4249999999987459 2 0.33416666666757772 1.665833333332104 2 0.62412558229832538 1.734999069939664 1.6049090527780649 0.68972037691419241 1.610520945894512 0 0.80000000000332872 0 0 1.0206521739139061 0.40787109375008618 0 0.62491530451403432 0.26235908848027167 0.39531730444687918 0.80019605692788165 0.39654492749411491 0.3341666666668387 2 0.3341666666664192 0 2 0.39999999999911567 0 1.740620225694506 0.62193599033743363 0.26500093005947722 2 0.6241255822972791 0.33416666666757772 2 1.665833333332104 0.39999999999911567 2 2 0.62193599033808677 1.7406202256939109 2 0.62412558229832538 2 1.734999069939664 2 1.020652173914391 0.40787109374941138 2 1.200000000002774 0 2 0.80000000000332872 0 1.592128906250452 0.97934782608882909 0 0 1.685972222222293 0.31402777777767188 0.33416666666678929 1.6658333333334849 0 0.3341666666668387 2 0.3341666666664192 0.37819010083105031 1.488109359197332 0.37639255045733749 1.5921289062508031 0.97934782608568471 2 2 0.7999999999979498 2 2 0.97934782608697624 1.5921289062492749 2 1.1999999999978941 2 1.3750846954865119 2 1.737640911519603 1.3833455650517461 1.737640911519633 2 1.671075651348906 2 1.671075651348906 1.5999999999989469 2 2 0.979347826088805 0.40787109374939401 2 0.80000000000332872 0 2 0.97934782608803661 0 1.5921289062498969 1.200000000002774 0 2 1.740620225695106 2 0.62193599033678559 2 1.685972222223028 0.31402777777693691 2 2 0.39999999999911567 2 1.740620225695106 0.62193599033678559 0.62596376811713206 2 0.26340755208327649 0.33416666666678929 1.6658333333334849 0 0.40000000000166441 2 0 0.62596376811718013 1.7365924479167429 0 0.33416666666682932 0 1.665833333333445 0 0 1.6000000000000001 0 0.26340755208329458 1.374036231884757 0.26340755208335531 0 1.374036231884725 2 1.3750846954865119 1.737640911519603 1.737640911519909 1.3750846954862539 2 2 1.5999999999989469 2 1.671075651348906 1.671075651348906 2 1.1535857644027949 0.76541035719405237 2 1.2340035335497621 1.1507971347859809 2 1.5921289062508031 0.97934782608568471 2 1.416074976583422 1.0640336752305579 1.5993145461844129 0 0.40000000000166441 0 0.33416666666749117 0.33416666666791067 0 0.26340755208406552 0.6259637681177177 0 0 0.62491530451403432 0.26235908848027167 0.97934782608699855 0.40787109375058261 0 0.7999999999979498 0 0 1.1999999999978941 0 0 1.0206521739124059 0 0.40787109374997071 1.671075651349931 1.671075651349931 0 2 1.6000000000000001 0 2 1.3863248792284211 0.25937977430496489 1.737640911520401 1.3750846954886311 0 1.592128906250083 0 1.020652173912294 2 0 1.1999999999978941 2 0 0.7999999999979498 2 0.40787109375045588 0.9793478260856453 0.97934782608697635 2 1.5921289062492749 0.7999999999979498 2 2 1.0206521739131471 1.5921289062494219 2 1.1999999999978941 2 2 0 2 0.7999999999979498 0.40787109375045588 2 0.9793478260856453 0 2 1.1999999999978941 0 1.592128906249999 1.0206521739122849 0 1.740620225694506 0.62193599033743363 0.41010551790091843 1.5854304871968741 0.7721068750782103 0 1.4250000000002421 0.57500000000014528 0.37819010083105031 1.488109359197332 0.37639255045733749 0.25937977430622478 1.3863248792272369 2 0 1.6000000000000001 2 0 1.665833333333429 1.665833333333256 0 1.374036231884781 1.736592447916667 0 1.200000000002774 0 0 0.80000000000332872 0 0.40787109375061498 1.0206521739145791 0 0 1.0206521739139061 0.40787109375008618 0.33416666666749117 0.33416666666791067 0 0.33416666666645822 0 0.33416666666687761 0.39999999999911567 0 0 0.62412558229828341 0.26500093006025072 0 1.3758744177011391 0 0.26500093005953979 1.665833333333407 0.33416666666669298 0 1.665833333333216 0 0.33416666666646572 1.5999999999989469 0 0 2 0 0.39999999999911567 2 0.26500093005947722 0.62412558229727921 2 0.3341666666668387 0.3341666666664192 1.665833333333216 0 0.33416666666646572 1.7349990699406379 0.62412558229936677 0 2 0.3341666666668387 0.3341666666664192 1.665833333333407 0.33416666666669298 0 2 0.40000000000166441 0 1.6658333333334381 0 1.665833333333264 1.734999069940508 0 1.3758744177011299 2 0.33416666666757772 1.665833333332104 2 0 1.5999999999989469 0.33416666666757772 2 1.665833333332104 0 1.73499906994049 1.375874417701122 0 1.665833333333429 1.665833333333256 0 2 1.5999999999989469 2 1.685972222223028 0.31402777777693691 1.740620225695106 2 0.62193599033678559 2 2 0.39999999999911567 1.685972222223028 2 0.31402777777693691 2 1.671075651348906 1.671075651348906 1.671075651348906 2 1.671075651348906 1.671075651348906 1.671075651348906 2 2 2 2 2 0 0 2 0.3341666666668387 0.3341666666664192 1.665833333333407 0.33416666666669298 0 1.665833333333216 0 0.33416666666646572 0 0.33416666666678929 1.6658333333334849 0.32892434865106179 0.32892434865106179 2 0 0 2 0.33416666666682932 0 1.665833333333445 0 0 0 0.33416666666645822 0 0.33416666666687761 0.33416666666749117 0.33416666666791067 0 0 0.32892434865109021 0.32892434865109021 1.6000000000000001 2 0 1.671075651349931 1.671075651349931 0 1.685972222223028 2 0.31402777777693691 1.3863248792284211 2 0.25937977430496501 2 1.6000000000000001 0 2 1.685972222223028 0.31402777777693691 1.671075651349931 1.671075651349931 0 2 1.3863248792284211 0.25937977430496489 1.3740362318847941 0 1.736592447916669 1.6658333333334381 0 1.665833333333264 1.3780640096633039 0.25937977430496151 2 1.6000000000000001 0 2 0 2 0 0 1.685972222222293 0.31402777777767188 0.33416666666678929 1.6658333333334849 0 0.3341666666668387 2 0.3341666666664192 0.31402777777840701 1.6859722222215581 2 0.33416666666757772 2 1.665833333332104 0 1.665833333333429 1.665833333333256 0 2 2 2 0.33416666666757772 1.665833333332104 1.6658333333334381 0 1.665833333333264 2 0 2 1.685972222223028 0.31402777777693702 2 0.31402777777840701 1.6859722222215581 2 0.25937977430622478 1.3863248792272369 2 0 1.6000000000000001 2 0 1.665833333333429 1.665833333333256 0 1.3863248792278431 0.25937977430558068 0 1.6000000000000001 0 0 1.685972222222293 0.31402777777767188 0.33416666666678929 1.6658333333334849 0 1.7406202256951491 0.61367512077163267 2 2 0.33416666666757772 1.665833333332104 2 0.39999999999911567 2 1.685972222223028 0.31402777777693702 2 0 1.685972222222293 0.31402777777767188 0 1.3863248792278431 0.25937977430558068 0.33416666666678929 1.6658333333334849 0 0.37819010083105031 1.488109359197332 0.37639255045733749 1.671075651348906 2 1.671075651348906 1.3833455650517461 1.737640911519633 2 1.671075651348906 1.671075651348906 2 1.5999999999989469 2 2 2 1.671075651348906 1.671075651348906 1.671075651348906 2 1.671075651348906 2 2 1.5999999999989469 1.7376409115198661 2 1.3833455650514059 2 1.685972222223028 0.31402777777693691 2 2 0 1.671075651349931 1.671075651349931 0 1.685972222223028 2 0.31402777777693691 0 1.200000000002774 2 0.4078710937509023 1.020652173913281 2 0 0.80000000000332872 2 0 0.97934782608799098 1.5921289062499051 0 0 0.40000000000166441 0.33416666666645822 0 0.33416666666687761 0 0.32892434865109021 0.32892434865109021 0 0.26235908848024581 0.61665443494884975 0.32892434865106179 0.32892434865106179 2 0.40000000000166441 0 2 0.33416666666682932 0 1.665833333333445 0.61665443494899885 0.26235908848011791 2 0.33416666666645822 0 0.33416666666687761 0 0 0 0.33416666666749117 0.33416666666791067 0 0.39999999999911567 0 0 2 0 0.39999999999911567 2 0.3341666666668387 0.3341666666664192 2 0 0 1.665833333333216 0 0.33416666666646572 0 0 1.6000000000000001 0 0.33416666666678929 1.6658333333334849 0 0 2 0.33416666666682932 0 1.665833333333445 0.33416666666757772 2 1.665833333332104 0 1.665833333333429 1.665833333333256 0 2 2 0 2 1.5999999999989469 2 0.33416666666757772 1.665833333332104 1.6658333333334381 0 1.665833333333264 2 0 1.5999999999989469 2 0 2 1.665833333333407 0.33416666666669298 0 2 0 0 1.665833333333216 0 0.33416666666646572 1.5999999999989469 0 0 2 0.3341666666668387 0.3341666666664192 2 0 0 1.665833333333407 0.33416666666669298 0 2 0.40000000000166441 0 0.33416666666678929 1.6658333333334849 0 0 2 0 0.3341666666668387 2 0.3341666666664192 0.40000000000166441 2 0 0 2 0.39999999999911567 0 1.685972222222293 0.31402777777767188 0.3341666666668387 2 0.3341666666664192 0 1.740620225694506 0.62193599033743363 0.33416666666757772 2 1.665833333332104 0.39999999999911567 2 2 0.31402777777840701 1.6859722222215581 2 0.62193599033808677 1.7406202256939109 2 1.6658333333334381 0 1.665833333333264 1.3780640096633039 0.25937977430496151 2 1.6000000000000001 0 2 1.685972222223028 0.31402777777693702 2 0.57500000000210227 2 1.4249999999987459 0.26340755208402722 2 1.3740362318826671 0.40787109375045588 2 0.9793478260856453 0.39539622647752048 1.604332214875325 1.222086277851258 0 0.40000000000166441 0 0 0 0 0.33416666666749117 0.33416666666791067 0 0 0.32892434865109021 0.32892434865109021 0 0 2 0.32892434865106179 0.32892434865106179 2 0.40000000000166441 0 2 0.33416666666682932 0 1.665833333333445 0 0.33416666666678929 1.6658333333334849 0.32892434865106179 0.32892434865106179 2 0 0.40000000000166441 2 0 0 2 0.33416666666645822 0 0.33416666666687761 0 0 0 0 0 0.40000000000166441 0 0.32892434865109021 0.32892434865109021 2 1.3750846954865119 1.737640911519603 2 1.5999999999989469 2 2 1.671075651348906 1.671075651348906 1.671075651348906 1.671075651348906 2 1.671075651348906 2 1.671075651348906 1.671075651348906 1.671075651348906 2 2 2 2 1.5999999999989469 2 2 2 1.671075651348906 1.671075651348906 1.671075651348906 2 1.671075651348906 2 2 2 2 2 1.5999999999989469 2 1.5999999999989469 2 2 1.671075651348906 1.671075651348906 1.671075651348906 1.671075651348906 2 2 2 2 1.5921289062508031 0.97934782608568471 2 1.2340035335497621 1.1507971347859809 2 1.4249999999998371 1.4249999999998371 2 1.416074976583422 1.0640336752305579 1.5993145461844129 1.7406202256951491 0.61367512077163267 2 1.425000000001911 0.57499999999847629 2 1.5921289062508031 0.97934782608568471 2 1.6049090527780649 0.68972037691419241 1.610520945894512 0 0.33416666666678929 1.6658333333334849 0.26235908848041961 0.62491530451389399 2 0 0.40000000000166441 2 0.32892434865106179 0.32892434865106179 2 0.33416666666749117 0.33416666666791067 0 0 0.40000000000166441 0 0 0.32892434865109021 0.32892434865109021 0 0.62491530451403432 0.26235908848027167 2 0.57500000000210227 1.4249999999987459 2 0.62412558229832538 1.734999069939664 2 0.97934782608697624 1.5921289062492749 1.6049090527780649 0.68972037691419241 1.610520945894512 0.33416666666678929 1.6658333333334849 0 0.62596376811713206 2 0.26340755208327649 0.40000000000166441 2 0 0.3341666666668387 2 0.3341666666664192 0 0 1.6000000000000001 0 0.33416666666678929 1.6658333333334849 0.33416666666682932 0 1.665833333333445 0 0.26340755208329458 1.374036231884757 0.57499999999943696 2 0.57500000000055196 0.40787109375045588 2 0.9793478260856453 0.26500093005947722 2 0.6241255822972791 0.41010551790091843 1.5854304871968741 0.7721068750782103 2 0.57500000000210227 1.4249999999987459 2 0.26340755208402722 1.3740362318826671 2 0.33416666666757772 1.665833333332104 1.592055221591679 0.37998381655983821 1.346767458941071 1.4249999999997249 0 1.425000000000185 1.734999069940508 0 1.3758744177011299 1.592128906250083 0 1.020652173912294 1.592055221591679 0.37998381655983821 1.346767458941071 0 1.740620225694506 0.62193599033743363 0 1.592128906249999 1.0206521739122849 0 1.4250000000002421 0.57500000000014528 0.41010551790091843 1.5854304871968741 0.7721068750782103 0.57500000000061269 0 0.57499999999949769 1.0206521739124059 0 0.40787109374997071 0.62596376811530841 0 0.26340755208326921 0.77789883252811276 0.39570480562063071 0.39543357482263919 0.39999999999911567 2 2 0.33416666666757772 2 1.665833333332104 0.31402777777840701 1.6859722222215581 2 0 2 2 0 1.685972222222293 0.31402777777767188 0 2 0 0 2 0.39999999999911567 0.3341666666668387 2 0.3341666666664192 2 0.39999999999911567 2 2 0.33416666666757772 1.665833333332104 2 0 2 1.685972222223028 0.31402777777693702 2 0 1.6000000000000001 0 0 2 0 0 1.685972222222293 0.31402777777767188 0.33416666666678929 1.6658333333334849 0 0 1.6000000000000001 2 0.31402777777840701 1.6859722222215581 2 0 1.665833333333429 1.665833333333256 0 2 2 1.6658333333334381 0 1.665833333333264 1.6000000000000001 0 2 2 0 2 1.685972222223028 0.31402777777693702 2 1.671075651349931 1.671075651349931 0 2 2 0 1.6000000000000001 2 0 1.685972222223028 2 0.31402777777693691 2 1.685972222223028 0.31402777777693691 2 2 0 2 1.6000000000000001 0 1.671075651349931 1.671075651349931 0 0.849152677791018 0 0.76609408500333809 1.0206521739124059 0 0.40787109374997071 0.57500000000061269 0 0.57499999999949769 0.77789883252811276 0.39570480562063071 0.39543357482263919 0.62193599033808677 1.7406202256939109 2 1.0206521739131471 1.5921289062494219 2 0.5750000000018145 1.424999999998573 2 0.77911601688602494 1.603176022082401 1.607321515253783 0.26340755208406552 0.6259637681177177 0 0.57500000000222118 0.57500000000110618 0 0.40787109375061498 1.0206521739145791 0 0.39531730444687918 0.80019605692788165 0.39654492749411491 0 0.57500000000018214 0.57500000000018214 0 0.62491530451403432 0.26235908848027167 0 1.0206521739139061 0.40787109375008618 0.39531730444687918 0.80019605692788165 0.39654492749411491 2 2 0 2 1.685972222223028 0.31402777777693691 2 2 0.39999999999911567 1.685972222223028 2 0.31402777777693691 1.4249999999997249 0 1.425000000000185 1.6658333333334381 0 1.665833333333264 1.734999069940508 0 1.3758744177011299 1.592055221591679 0.37998381655983821 1.346767458941071 0 1.685972222222293 0.31402777777767188 0 1.740620225694506 0.62193599033743363 0 1.4250000000002421 0.57500000000014528 0.37819010083105031 1.488109359197332 0.37639255045733749 0 1.4249999999997121 1.4250000000001719 0 1.592128906249999 1.0206521739122849 0 1.73499906994049 1.375874417701122 0.39539622647752048 1.604332214875325 1.222086277851258 1.3750846954865119 2 1.737640911519603 1.4249999999998371 2 1.4249999999998371 1.671075651348906 2 1.671075651348906 1.5950886193190319 1.5950886193190319 1.4995967914346211 2 1.3750846954865119 1.737640911519603 2 1.671075651348906 1.671075651348906 2 1.4249999999998371 1.4249999999998371 1.5950886193190319 1.5950886193190319 1.4995967914346211 0 0.85167501661028155 0.7670914684099619 0 0.57500000000018214 0.57500000000018214 0 1.0206521739139061 0.40787109375008618 0.39531730444687918 0.80019605692788165 0.39654492749411491 0.40787109375045588 2 0.9793478260856453 0.73668669749101645 2 1.139311376982779 0.57500000000210227 2 1.4249999999987459 0.39539622647752048 1.604332214875325 1.222086277851258 1.424999999999718 0.57500000000001494 0 1.665833333333407 0.33416666666669298 0 1.7349990699406379 0.62412558229936677 0 1.5919037892070651 0.60245787335453693 0.40912424902564543 0.57500000000210227 2 1.4249999999987459 0.97934782608697635 2 1.5921289062492749 0.62412558229832538 2 1.734999069939664 0.77911601688602494 1.603176022082401 1.607321515253783 0.62412558229828341 0.26500093006025072 0 0.97934782608699855 0.40787109375058261 0 0.57500000000222118 0.57500000000110618 0 0.77789883252811276 0.39570480562063071 0.39543357482263919 0.62596376811718013 1.7365924479167429 0 0.33416666666678929 1.6658333333334849 0 0.57499999999972717 1.4249999999995451 0 0.37819010083105031 1.488109359197332 0.37639255045733749 0 1.4250000000002421 0.57500000000014528 0 1.592128906249999 1.0206521739122849 0 1.263313302510646 0.86068862301506388 0.41010551790091843 1.5854304871968741 0.7721068750782103 0.86068862301746607 1.2633133025089971 2 0.5750000000018145 1.424999999998573 2 1.0206521739131471 1.5921289062494219 2 0.77911601688602494 1.603176022082401 1.607321515253783 2 0.62596376811713206 0.26340755208327649 2 0.3341666666668387 0.3341666666664192 2 0.57499999999943696 0.57500000000055196 1.5919037892070651 0.60245787335453693 0.40912424902564543 0.57500000000222118 0.57500000000110618 0 0.73668669749125271 0.86068862301695703 0 0.40787109375061498 1.0206521739145791 0 0.39531730444687918 0.80019605692788165 0.39654492749411491 1.671075651348906 2 1.671075651348906 1.4249999999998371 2 1.4249999999998371 1.7376409115198661 2 1.3833455650514059 1.5950886193190319 1.5950886193190319 1.4995967914346211 2 1.671075651348906 1.671075651348906 2 1.7376409115198661 1.3833455650514059 2 1.4249999999998371 1.4249999999998371 1.5950886193190319 1.5950886193190319 1.4995967914346211 0 1.685972222222293 0.31402777777767188 0 1.4250000000002421 0.57500000000014528 0 1.3863248792278431 0.25937977430558068 0.37819010083105031 1.488109359197332 0.37639255045733749 0 0 0.80000000000332872 0 0 0.40000000000166441 0 0.26235908848024581 0.61665443494884975 0.26500093005959219 0 0.62412558229931248 0.62412558229932147 0 1.7349990699404549 0.40000000000166441 0 2 0.80000000000332872 0 2 0.61665443494899885 0.26235908848011791 2 0.26500093005965231 1.375874417702696 0 0.57499999999972717 1.4249999999995451 0 0.33416666666678929 1.6658333333334849 0 0.37819010083105031 1.488109359197332 0.37639255045733749 2 0.39999999999911567 2 1.7406202256951491 0.61367512077163267 2 2 0.7999999999979498 2 2 0.62412558229832538 1.734999069939664 0.26500093005965231 1.375874417702696 0 0 1.200000000002774 0 0 1.3863248792278431 0.25937977430558068 0 1.6000000000000001 0 2 2 1.1999999999978941 2 2 1.5999999999989469 1.7376409115198661 2 1.3833455650514059 2 1.7376409115198661 1.3833455650514059 1.6000000000000001 2 0 1.200000000002774 2 0 1.383345565053743 1.737640911520447 0 1.3863248792284211 2 0.25937977430496501 0 2 1.1999999999978941 0 1.73499906994049 1.375874417701122 0.26340755208402722 2 1.3740362318826671 0 2 1.5999999999989469 2 0.26340755208402722 1.3740362318826671 1.734999069940508 0 1.3758744177011299 2 0 1.1999999999978941 2 0 1.5999999999989469 1.1999999999978941 0 0 1.374036231883393 0.26340755208345812 0 1.3758744177011391 0 0.26500093005953979 1.5999999999989469 0 0 1.7349990699406379 0.62412558229936677 0 2 0.80000000000332872 0 2 0.62596376811713206 0.26340755208327649 2 0.40000000000166441 0 0.62596376811530841 0 0.26340755208326921 0.39999999999911567 0 0 0.62412558229828341 0.26500093006025072 0 0.7999999999979498 0 0 2 0 0.39999999999911567 2 0.26500093005947722 0.62412558229727921 1.7365924479167549 0 0.62596376811523924 2 0 0.7999999999979498 0.26235908848041961 0.62491530451389399 2 0 0.80000000000332872 2 0 0.62412558229928472 1.7349990699404849 0 0.40000000000166441 2 0.39999999999911567 2 2 0.7999999999979498 2 2 0.62193599033808677 1.7406202256939109 2 0.62412558229832538 2 1.734999069939664 0 1.740620225694506 0.62193599033743363 0 2 0.39999999999911567 0 2 0.7999999999979498 0.26500093005947722 2 0.6241255822972791 1.3833455650517461 1.737640911519633 2 1.3750846954865119 2 1.737640911519603 1.1999999999978941 2 2 1.5999999999989469 2 2 0.25937977430622478 1.3863248792272369 2 0 1.200000000002774 2 0 1.6000000000000001 2 0 1.374036231884781 1.736592447916667 2 1.3863248792284211 0.25937977430496489 2 1.6000000000000001 0 2 1.200000000002774 0 1.737640911520401 1.3750846954886311 0 0.80000000000332872 2 0 0.62596376811718013 1.7365924479167429 0 0.62596376811713206 2 0.26340755208327649 0.40000000000166441 2 0 0 0 1.6000000000000001 0 0 1.200000000002774 0 0.26340755208329458 1.374036231884757 0.26340755208335531 0 1.374036231884725 0 0.80000000000332872 0 0 0.40000000000166441 0 0.26340755208406552 0.6259637681177177 0 0 0.62491530451403432 0.26235908848027167 2 1.3750846954865119 1.737640911519603 1.737640911519909 1.3750846954862539 2 2 1.1999999999978941 2 2 1.5999999999989469 2 1.200000000002774 0 2 1.3740362318847941 0 1.736592447916669 1.3780640096633039 0.25937977430496151 2 1.6000000000000001 0 2 2 2 0.7999999999979498 2 1.740620225695106 0.62193599033678559 1.740620225695106 2 0.62193599033678559 2 2 0.39999999999911567 0 0.32892434865109021 0.32892434865109021 0.77789883252811276 0.39570480562063071 0.39543357482263919 0 0.26235908848024581 0.61665443494884975 0.33416666666645822 0 0.33416666666687761 0 0.32892434865109021 0.32892434865109021 0 0.26235908848024581 0.61665443494884975 0.77789883252811276 0.39570480562063071 0.39543357482263919 0.59772980397989239 0.59772980397970443 0.74731771606769093 0.26500093005959219 0 0.62412558229931248 0 0.26235908848024581 0.61665443494884975 0.77789883252811276 0.39570480562063071 0.39543357482263919 0.33416666666645822 0 0.33416666666687761 0.26500093005959219 0 0.62412558229931248 0.77789883252811276 0.39570480562063071 0.39543357482263919 0 0.26235908848024581 0.61665443494884975 0.59772980397989239 0.59772980397970443 0.74731771606769093 0.39539622647752048 1.604332214875325 1.222086277851258 0 1.374036231884781 1.736592447916667 0.77911601688602494 1.603176022082401 1.607321515253783 0 1.665833333333429 1.665833333333256 0.39539622647752048 1.604332214875325 1.222086277851258 0.77911601688602494 1.603176022082401 1.607321515253783 0 1.374036231884781 1.736592447916667 0.59772980397967113 1.252682283932151 1.4022701960199091 0.25937977430622478 1.3863248792272369 2 0.77911601688602494 1.603176022082401 1.607321515253783 0 1.374036231884781 1.736592447916667 0 1.665833333333429 1.665833333333256 0.25937977430622478 1.3863248792272369 2 0 1.374036231884781 1.736592447916667 0.77911601688602494 1.603176022082401 1.607321515253783 0.59772980397967113 1.252682283932151 1.4022701960199091 1.5147705253128161 0.91852444755677043 0.69631892236242632 1.2339059149979039 1.1508473222113209 0 1.5919037892070651 0.60245787335453693 0.40912424902564543 1.0362039003897969 1.032400726930619 0.49025282767413908 1.5147705253128161 0.91852444755677043 0.69631892236242632 1.5919037892070651 0.60245787335453693 0.40912424902564543 1.2339059149979039 1.1508473222113209 0 1.592128906250452 0.97934782608882909 0 1.151058336609301 0.76640924832138713 0 1.5919037892070651 0.60245787335453693 0.40912424902564543 1.2339059149979039 1.1508473222113209 0 1.0362039003897969 1.032400726930619 0.49025282767413908 1.151058336609301 0.76640924832138713 0 1.2339059149979039 1.1508473222113209 0 1.5919037892070651 0.60245787335453693 0.40912424902564543 1.592128906250452 0.97934782608882909 0 1.416074976583422 1.0640336752305579 1.5993145461844129 1.532347752213032 1.4746298915713509 1.076108883276101 2 1.1510583366092999 1.2335907516785649 1.500000000000274 0.99883321436442229 1.16639307242336 1.416074976583422 1.0640336752305579 1.5993145461844129 2 1.1510583366092999 1.2335907516785649 1.532347752213032 1.4746298915713509 1.076108883276101 1.5950886193190319 1.5950886193190319 1.4995967914346211 1.416074976583422 1.0640336752305579 1.5993145461844129 1.000000000001781 0.99999999999894518 2 1.1981164219601721 1.4101645296525169 1.4221055955645681 0.98528458949676634 0.98528458949702458 1.516045488389935 1.416074976583422 1.0640336752305579 1.5993145461844129 1.1981164219601721 1.4101645296525169 1.4221055955645681 1.000000000001781 0.99999999999894518 2 1.2340035335497621 1.1507971347859809 2 0.86068862301746607 1.2633133025089971 2 1.1981164219601721 1.4101645296525169 1.4221055955645681 1.000000000001781 0.99999999999894518 2 0.98528458949676634 0.98528458949702458 1.516045488389935 0.86068862301746607 1.2633133025089971 2 1.000000000001781 0.99999999999894518 2 1.1981164219601721 1.4101645296525169 1.4221055955645681 1.2340035335497621 1.1507971347859809 2 1.7376409115198661 2 1.3833455650514059 1.532347752213032 1.4746298915713509 1.076108883276101 1.4249999999998371 2 1.4249999999998371 1.5921289062505879 2 1.0206521739114489 1.7376409115198661 2 1.3833455650514059 1.4249999999998371 2 1.4249999999998371 1.532347752213032 1.4746298915713509 1.076108883276101 1.5950886193190319 1.5950886193190319 1.4995967914346211 1.5919037892070651 0.60245787335453693 0.40912424902564543 2 0.84920286521341182 0.76599646645041952 1.5137040598352169 0.53344955263790295 0.97801656337898046 2 0.57499999999943696 0.57500000000055196 1.5919037892070651 0.60245787335453693 0.40912424902564543 1.5137040598352169 0.53344955263790295 0.97801656337898046 2 0.84920286521341182 0.76599646645041952 1.5147705253128161 0.91852444755677043 0.69631892236242632 
</DataArray>
</Points>
<Cells>
<DataArray type="UInt32" Name="connectivity" format="ascii">
0 1 2 3 4 5 6 7 8 9 10 11 12 13 14 15 16 17 18 19 20 21 22 23 24 25 26 27 28 29 30 31 32 33 34 35 36 37 38 39 40 41 42 43 44 45 46 47 48 49 50 51 52 53 54 55 56 57 58 59 60 61 62 63 64 65 66 67 68 69 70 71 72 73 74 75 76 77 78 79 80 81 82 83 84 85 86 87 88 89 90 91 92 93 94 95 96 97 98 99 100 101 102 103 104 105 106 107 108 109 110 111 112 113 114 115 116 117 118 119 120 121 122 123 124 125 126 127 128 129 130 131 132 133 134 135 136 137 138 139 140 141 142 143 144 145 146 147 148 149 150 151 152 153 154 155 156 157 158 159 160 161 162 163 164 165 166 167 168 169 170 171 172 173 174 175 176 177 178 179 180 181 182 183 184 185 186 187 188 189 190 191 192 193 194 195 196 197 198 199 200 201 202 203 204 205 206 207 208 209 210 211 212 213 214 215 216 217 218 219 220 221 222 223 224 225 226 227 228 229 230 231 232 233 234 235 236 237 238 239 240 241 242 243 244 245 246 247 248 249 250 251 252 253 254 255 256 257 258 259 260 261 262 263 264 265 266 267 268 269 270 271 272 273 274 275 276 277 278 279 280 281 282 283 284 285 286 287 288 289 290 291 292 293 294 295 296 297 298 299 300 301 302 303 304 305 306 307 308 309 310 311 312 313 314 315 316 317 318 319 320 321 322 323 324 325 326 327 328 329 330 331 332 333 334 335 336 337 338 339 340 341 342 343 344 345 346 347 348 349 350 351 352 353 354 355 356 357 358 359 360 361 362 363 364 365 366 367 368 369 370 371 372 373 374 375 376 377 378 379 380 381 382 383 384 385 386 387 388 389 390 391 392 393 394 395 396 397 398 399 400 401 402 403 404 405 406 407 408 409 410 411 412 413 414 415 416 417 418 419 420 421 422 423 424 425 426 427 428 429 430 431 432 433 434 435 436 437 438 439 440 441 442 443 444 445 446 447 448 449 450 451 452 453 454 455 456 457 458 459 460 461 462 463 464 465 466 467 468 469 470 471 472 473 474 475 476 477 478 479 480 481 482 483 484 485 486 487 488 489 490 491 492 493 494 495 496 497 498 499 500 501 502 503 504 505 506 507 508 509 510 511 512 513 514 515 516 517 518 519 520 521 522 523 524 525 526 527 528 529 530 531 532 533 534 535 536 537 538 539 540 541 542 543 544 545 546 547 548 549 550 551 552 553 554 555 556 557 558 559 560 561 562 563 564 565 566 567 568 569 570 571 572 573 574 575 576 577 578 579 580 581 582 583 584 585 586 587 588 589 590 591 592 593 594 595 596 597 598 599 600 601 602 603 604 605 606 607 608 609 610 611 612 613 614 615 616 617 618 619 620 621 622 623 624 625 626 627 628 629 630 631 632 633 634 635 636 637 638 639 640 641 642 643 644 645 646 647 648 649 650 651 652 653 654 655 656 657 658 659 660 661 662 663 664 665 666 667 668 669 670 671 672 673 674 675 676 677 678 679 680 681 682 683 684 685 686 687 688 689 690 691 692 693 694 695 696 697 698 699 700 701 702 703 704 705 706 707 708 709 710 711 712 713 714 715 716 717 718 719 720 721 722 723 724 725 726 727 728 729 730 731 732 733 734 735 736 737 738 739 740 741 742 743 744 745 746 747 748 749 750 751 752 753 754 755 756 757 758 759 760 761 762 763 764 765 766 767 768 769 770 771 772 773 774 775 776 777 778 779 780 781 782 783 784 785 786 787 788 789 790 791 792 793 794 795 796 797 798 799 800 801 802 803 804 805 806 807 808 809 810 811 812 813 814 815 816 817 818 819 820 821 822 823 824 825 826 827 828 829 830 831 832 833 834 835 836 837 838 839 840 841 842 843 844 845 846 847 848 849 850 851 852 853 854 855 856 857 858 859 860 861 862 863 864 865 866 867 868 869 870 871 872 873 874 875 876 877 878 879 880 881 882 883 884 885 886 887 888 889 890 891 892 893 894 895 896 897 898 899 900 901 902 903 904 905 906 907 908 909 910 911 912 913 914 915 916 917 918 919 920 921 922 923 924 925 926 927 928 929 930 931 932 933 934 935 936 937 938 939 940 941 942 943 944 945 946 947 948 949 950 951 952 953 954 955 956 957 958 959 960 961 962 963 964 965 966 967 968 969 970 971 972 973 974 975 976 977 978 979 980 981 982 983 984 985 986 987 988 989 990 991 992 993 994 995 996 997 998 999 1000 1001 1002 1003 1004 1005 1006 1007 1008 1009 1010 1011 1012 1013 1014 1015 1016 1017 1018 1019 1020 1021 1022 1023 1024 1025 1026 1027 1028 1029 1030 1031 1032 1033 1034 1035 1036 1037 1038 1039 1040 1041 1042 1043 1044 1045 1046 1047 1048 1049 1050 1051 1052 1053 1054 1055 1056 1057 1058 1059 1060 1061 1062 1063 1064 1065 1066 1067 1068 1069 1070 1071 1072 1073 1074 1075 1076 1077 1078 1079 1080 1081 1082 1083 1084 1085 1086 1087 1088 1089 1090 1091 1092 1093 1094 1095 1096 1097 1098 1099 1100 1101 1102 1103 1104 1105 1106 1107 1108 1109 1110 1111 1112 1113 1114 1115 1116 1117 1118 1119 1120 1121 1122 1123 1124 1125 1126 1127 1128 1129 1130 1131 1132 1133 1134 1135 1136 1137 1138 1139 1140 1141 1142 1143 1144 1145 1146 1147 1148 1149 1150 1151 1152 1153 1154 1155 1156 1157 1158 1159 1160 1161 1162 1163 1164 1165 1166 1167 1168 1169 1170 1171 1172 1173 1174 1175 1176 1177 1178 1179 1180 1181 1182 1183 1184 1185 1186 1187 1188 1189 1190 1191 1192 1193 1194 1195 1196 1197 1198 1199 1200 1201 1202 1203 1204 1205 1206 1207 1208 1209 1210 1211 1212 1213 1214 1215 1216 1217 1218 1219 1220 1221 1222 1223 1224 1225 1226 1227 1228 1229 1230 1231 1232 1233 1234 1235 1236 1237 1238 1239 1240 1241 1242 1243 1244 1245 1246 1247 1248 1249 1250 1251 1252 1253 1254 1255 1256 1257 1258 1259 1260 1261 1262 1263 1264 1265 1266 1267 1268 1269 1270 1271 1272 1273 1274 1275 1276 1277 1278 1279 1280 1281 1282 1283 1284 1285 1286 1287 1288 1289 1290 1291 1292 1293 1294 1295 1296 1297 1298 1299 1300 1301 1302 1303 1304 1305 1306 1307 1308 1309 1310 1311 1312 1313 1314 1315 1316 1317 1318 1319 1320 1321 1322 1323 1324 1325 1326 1327 1328 1329 1330 1331 1332 1333 1334 1335 1336 1337 1338 1339 1340 1341 1342 1343 1344 1345 1346 1347 1348 1349 1350 1351 1352 1353 1354 1355 1356 1357 1358 1359 1360 1361 1362 1363 1364 1365 1366 1367 1368 1369 1370 1371 1372 1373 1374 1375 1376 1377 1378 1379 1380 1381 1382 1383 1384 1385 1386 1387 1388 1389 1390 1391 1392 1393 1394 1395 1396 1397 1398 1399 1400 1401 1402 1403 1404 1405 1406 1407 1408 1409 1410 1411 1412 1413 1414 1415 1416 1417 1418 1419 1420 1421 1422 1423 1424 1425 1426 1427 1428 1429 1430 1431 1432 1433 1434 1435 1436 1437 1438 1439 1440 1441 1442 1443 1444 1445 1446 1447 1448 1449 1450 1451 1452 1453 1454 1455 1456 1457 1458 1459 1460 1461 1462 1463 1464 1465 1466 1467 1468 1469 1470 1471 1472 1473 1474 1475 1476 1477 1478 1479 1480 1481 1482 1483 1484 1485 1486 1487 1488 1489 1490 1491 1492 1493 1494 1495 1496 1497 1498 1499 1500 1501 1502 1503 1504 1505 1506 1507 1508 1509 1510 1511 1512 1513 1514 1515 1516 1517 1518 1519 1520 1521 1522 1523 1524 1525 1526 1527 1528 1529 1530 1531 1532 1533 1534 1535 1536 1537 1538 1539 1540 1541 1542 1543 1544 1545 1546 1547 1548 1549 1550 1551 1552 1553 1554 1555 1556 1557 1558 1559 1560 1561 1562 1563 1564 1565 1566 1567 1568 1569 1570 1571 1572 1573 1574 1575 1576 1577 1578 1579 1580 1581 1582 1583 1584 1585 1586 1587 1588 1589 1590 1591 1592 1593 1594 1595 1596 1597 1598 1599 1600 1601 1602 1603 1604 1605 1606 1607 1608 1609 1610 1611 1612 1613 1614 1615 1616 1617 1618 1619 1620 1621 1622 1623 1624 1625 1626 1627 1628 1629 1630 1631 1632 1633 1634 1635 1636 1637 1638 1639 1640 1641 1642 1643 1644 1645 1646 1647 1648 1649 1650 1651 1652 1653 1654 1655 1656 1657 1658 1659 1660 1661 1662 1663 1664 1665 1666 1667 1668 1669 1670 1671 1672 1673 1674 1675 1676 1677 1678 1679 1680 1681 1682 1683 1684 1685 1686 1687 1688 1689 1690 1691 1692 1693 1694 1695 1696 1697 1698 1699 1700 1701 1702 1703 1704 1705 1706 1707 1708 1709 1710 1711 1712 1713 1714 1715 1716 1717 1718 1719 1720 1721 1722 1723 1724 1725 1726 1727 1728 1729 1730 1731 1732 1733 1734 1735 1736 1737 1738 1739 1740 1741 1742 1743 1744 1745 1746 1747 1748 1749 1750 1751 1752 1753 1754 1755 1756 1757 1758 1759 1760 1761 1762 1763 1764 1765 1766 1767 1768 1769 1770 1771 1772 1773 1774 1775 1776 1777 1778 1779 1780 1781 1782 1783 1784 1785 1786 1787 1788 1789 1790 1791 1792 1793 1794 1795 1796 1797 1798 1799 1800 1801 1802 1803 1804 1805 1806 1807 1808 1809 1810 1811 1812 1813 1814 1815 1816 1817 1818 1819 1820 1821 1822 1823 1824 1825 1826 1827 1828 1829 1830 1831 1832 1833 1834 1835 1836 1837 1838 1839 1840 1841 1842 1843 1844 1845 1846 1847 1848 1849 1850 1851 1852 1853 1854 1855 1856 1857 1858 1859 1860 1861 1862 1863 1864 1865 1866 1867 1868 1869 1870 1871 1872 1873 1874 1875 1876 1877 1878 1879 1880 1881 1882 1883 1884 1885 1886 1887 1888 1889 1890 1891 1892 1893 1894 1895 1896 1897 1898 1899 1900 1901 1902 1903 1904 1905 1906 1907 1908 1909 1910 1911 1912 1913 1914 1915 1916 1917 1918 1919 1920 1921 1922 1923 1924 1925 1926 1927 1928 1929 1930 1931 1932 1933 1934 1935 1936 1937 1938 1939 1940 1941 1942 1943 1944 1945 1946 1947 1948 1949 1950 1951 1952 1953 1954 1955 1956 1957 1958 1959 1960 1961 1962 1963 1964 1965 1966 1967 1968 1969 1970 1971 1972 1973 1974 1975 1976 1977 1978 1979 1980 1981 1982 1983 1984 1985 1986 1987 1988 1989 1990 1991 1992 1993 1994 1995 1996 1997 1998 1999 2000 2001 2002 2003 2004 2005 2006 2007 2008 2009 2010 2011 2012 2013 2014 2015 2016 2017 2018 2019 2020 2021 2022 2023 2024 2025 2026 2027 2028 2029 2030 2031 2032 2033 2034 2035 2036 2037 2038 2039 2040 2041 2042 2043 2044 2045 2046 2047 2048 2049 2050 2051 2052 2053 2054 2055 2056 2057 2058 2059 2060 2061 2062 2063 2064 2065 2066 2067 2068 2069 2070 2071 2072 2073 2074 2075 2076 2077 2078 2079 2080 2081 2082 2083 2084 2085 2086 2087 2088 2089 2090 2091 2092 2093 2094 2095 2096 2097 2098 2099 2100 2101 2102 2103 2104 2105 2106 2107 2108 2109 2110 2111 2112 2113 2114 2115 2116 2117 2118 2119 2120 2121 2122 2123 2124 2125 2126 2127 2128 2129 2130 2131 2132 2133 2134 2135 2136 2137 2138 2139 2140 2141 2142 2143 2144 2145 2146 2147 2148 2149 2150 2151 2152 2153 2154 2155 2156 2157 2158 2159 2160 2161 2162 2163 2164 2165 2166 2167 2168 2169 2170 2171 2172 2173 2174 2175 2176 2177 2178 2179 2180 2181 2182 2183 2184 2185 2186 2187 2188 2189 2190 2191 2192 2193 2194 2195 2196 2197 2198 2199 2200 2201 2202 2203 2204 2205 2206 2207 2208 2209 2210 2211 2212 2213 2214 2215 2216 2217 2218 2219 2220 2221 2222 2223 2224 2225 2226 2227 2228 2229 2230 2231 2232 2233 2234 2235 2236 2237 2238 2239 2240 2241 2242 2243 2244 2245 2246 2247 2248 2249 2250 2251 2252 2253 2254 2255 2256 2257 2258 2259 2260 2261 2262 2263 2264 2265 2266 2267 2268 2269 2270 2271 2272 2273 2274 2275 2276 2277 2278 2279 2280 2281 2282 2283 2284 2285 2286 2287 2288 2289 2290 2291 2292 2293 2294 2295 2296 2297 2298 2299 2300 2301 2302 2303 2304 2305 2306 2307 2308 2309 2310 2311 2312 2313 2314 2315 2316 2317 2318 2319 2320 2321 2322 2323 2324 2325 2326 2327 2328 2329 2330 2331 2332 2333 2334 2335 2336 2337 2338 2339 2340 2341 2342 2343 2344 2345 2346 2347 2348 2349 2350 2351 2352 2353 2354 2355 2356 2357 2358 2359 2360 2361 2362 2363 2364 2365 2366 2367 2368 2369 2370 2371 2372 2373 2374 2375 2376 2377 2378 2379 2380 2381 2382 2383 2384 2385 2386 2387 2388 2389 2390 2391 2392 2393 2394 2395 2396 2397 2398 2399 2400 2401 2402 2403 2404 2405 2406 2407 2408 2409 2410 2411 2412 2413 2414 2415 2416 2417 2418 2419 2420 2421 2422 2423 2424 2425 2426 2427 2428 2429 2430 2431 2432 2433 2434 2435 2436 2437 2438 2439 2440 2441 2442 2443 2444 2445 2446 2447 2448 2449 2450 2451 2452 2453 2454 2455 2456 2457 2458 2459 2460 2461 2462 2463 2464 2465 2466 2467 2468 2469 2470 2471 2472 2473 2474 2475 2476 2477 2478 2479 2480 2481 2482 2483 2484 2485 2486 2487 2488 2489 2490 2491 2492 2493 2494 2495 2496 2497 2498 2499 2500 2501 2502 2503 2504 2505 2506 2507 2508 2509 2510 2511 2512 2513 2514 2515 2516 2517 2518 2519 2520 2521 2522 2523 2524 2525 2526 2527 2528 2529 2530 2531 2532 2533 2534 2535 2536 2537 2538 2539 2540 2541 2542 2543 2544 2545 2546 2547 2548 2549 2550 2551 2552 2553 2554 2555 2556 2557 2558 2559 2560 2561 2562 2563 2564 2565 2566 2567 2568 2569 2570 2571 2572 2573 2574 2575 2576 2577 2578 2579 2580 2581 2582 2583 2584 2585 2586 2587 2588 2589 2590 2591 2592 2593 2594 2595 2596 2597 2598 2599 2600 2601 2602 2603 2604 2605 2606 2607 2608 2609 2610 2611 2612 2613 2614 2615 2616 2617 2618 2619 2620 2621 2622 2623 2624 2625 2626 2627 2628 2629 2630 2631 2632 2633 2634 2635 2636 2637 2638 2639 2640 2641 2642 2643 2644 2645 2646 2647 2648 2649 2650 2651 2652 2653 2654 2655 2656 2657 2658 2659 2660 2661 2662 2663 2664 2665 2666 2667 2668 2669 2670 2671 2672 2673 2674 2675 2676 2677 2678 2679 2680 2681 2682 2683 2684 2685 2686 2687 2688 2689 2690 2691 2692 2693 2694 2695 2696 2697 2698 2699 2700 2701 2702 2703 2704 2705 2706 2707 2708 2709 2710 2711 2712 2713 2714 2715 2716 2717 2718 2719 2720 2721 2722 2723 2724 2725 2726 2727 2728 2729 2730 2731 2732 2733 2734 2735 2736 2737 2738 2739 2740 2741 2742 2743 2744 2745 2746 2747 2748 2749 2750 2751 2752 2753 2754 2755 2756 2757 2758 2759 2760 2761 2762 2763 2764 2765 2766 2767 2768 2769 2770 2771 2772 2773 2774 2775 2776 2777 2778 2779 2780 2781 2782 2783 2784 2785 2786 2787 2788 2789 2790 2791 2792 2793 2794 2795 2796 2797 2798 2799 2800 2801 2802 2803 2804 2805 2806 2807 2808 2809 2810 2811 2812 2813 2814 2815 2816 2817 2818 2819 2820 2821 2822 2823 
</DataArray>
<DataArray type="UInt32" Name="offsets" format="ascii">
4 8 12 16 20 24 28 32 36 40 44 48 52 56 60 64 68 72 76 80 84 88 92 96 100 104 108 112 116 120 124 128 132 136 140 144 148 152 156 160 164 168 172 176 180 184 188 192 196 200 204 208 212 216 220 224 228 232 236 240 244 248 252 256 260 264 268 272 276 280 284 288 292 296 300 304 308 312 316 320 324 328 332 336 340 344 348 352 356 360 364 368 372 376 380 384 388 392 396 400 404 408 412 416 420 424 428 432 436 440 444 448 452 456 460 464 468 472 476 480 484 488 492 496 500 504 508 512 516 520 524 528 532 536 540 544 548 552 556 560 564 568 572 576 580 584 588 592 596 600 604 608 612 616 620 624 628 632 636 640 644 648 652 656 660 664 668 672 676 680 684 688 692 696 700 704 708 712 716 720 724 728 732 736 740 744 748 752 756 760 764 768 772 776 780 784 788 792 796 800 804 808 812 816 820 824 828 832 836 840 844 848 852 856 860 864 868 872 876 880 884 888 892 896 900 904 908 912 916 920 924 928 932 936 940 944 948 952 956 960 964 968 972 976 980 984 988 992 996 1000 1004 1008 1012 1016 1020 1024 1028 1032 1036 1040 1044 1048 1052 1056 1060 1064 1068 1072 1076 1080 1084 1088 1092 1096 1100 1104 1108 1112 1116 1120 1124 1128 1132 1136 1140 1144 1148 1152 1156 1160 1164 1168 1172 1176 1180 1184 1188 1192 1196 1200 1204 1208 1212 1216 1220 1224 1228 1232 1236 1240 1244 1248 1252 1256 1260 1264 1268 1272 1276 1280 1284 1288 1292 1296 1300 1304 1308 1312 1316 1320 1324 1328 1332 1336 1340 1344 1348 1352 1356 1360 1364 1368 1372 1376 1380 1384 1388 1392 1396 1400 1404 1408 1412 1416 1420 1424 1428 1432 1436 1440 1444 1448 1452 1456 1460 1464 1468 1472 1476 1480 1484 1488 1492 1496 1500 1504 1508 1512 1516 1520 1524 1528 1532 1536 1540 1544 1548 1552 1556 1560 1564 1568 1572 1576 1580 1584 1588 1592 1596 1600 1604 1608 1612 1616 1620 1624 1628 1632 1636 1640 1644 1648 1652 1656 1660 1664 1668 1672 1676 1680 1684 1688 1692 1696 1700 1704 1708 1712 1716 1720 1724 1728 1732 1736 1740 1744 1748 1752 1756 1760 1764 1768 1772 1776 1780 1784 1788 1792 1796 1800 1804 1808 1812 1816 1820 1824 1828 1832 1836 1840 1844 1848 1852 1856 1860 1864 1868 1872 1876 1880 1884 1888 1892 1896 1900 1904 1908 1912 1916 1920 1924 1928 1932 1936 1940 1944 1948 1952 1956 1960 1964 1968 1972 1976 1980 1984 1988 1992 1996 2000 2004 2008 2012 2016 2020 2024 2028 2032 2036 2040 2044 2048 2052 2056 2060 2064 2068 2072 2076 2080 2084 2088 2092 2096 2100 2104 2108 2112 2116 2120 2124 2128 2132 2136 2140 2144 2148 2152 2156 2160 2164 2168 2172 2176 2180 2184 2188 2192 2196 2200 2204 2208 2212 2216 2220 2224 2228 2232 2236 2240 2244 2248 2252 2256 2260 2264 2268 2272 2276 2280 2284 2288 2292 2296 2300 2304 2308 2312 2316 2320 2324 2328 2332 2336 2340 2344 2348 2352 2356 2360 2364 2368 2372 2376 2380 2384 2388 2392 2396 2400 2404 2408 2412 2416 2420 2424 2428 2432 2436 2440 2444 2448 2452 2456 2460 2464 2468 2472 2476 2480 2484 2488 2492 2496 2500 2504 2508 2512 2516 2520 2524 2528 2532 2536 2540 2544 2548 2552 2556 2560 2564 2568 2572 2576 2580 2584 2588 2592 2596 2600 2604 2608 2612 2616 2620 2624 2628 2632 2636 2640 2644 2648 2652 2656 2660 2664 2668 2672 2676 2680 2684 2688 2692 2696 2700 2704 2708 2712 2716 2720 2724 2728 2732 2736 2740 2744 2748 2752 2756 2760 2764 2768 2772 2776 2780 2784 2788 2792 2796 2800 2804 2808 2812 2816 2820 2824 
</DataArray>
<DataArray type="UInt32" Name="types" format="ascii">
10 10 10 10 10 10 10 10 10 10 10 10 10 10 10 10 10 10 10 10 10 10 10 10 10 10 10 10 10 10 10 10 10 10 10 10 10 10 10 10 10 10 10 10 10 10 10 10 10 10 10 10 10 10 10 10 10 10 10 10 10 10 10 10 10 10 10 10 10 10 10 10 10 10 10 10 10 10 10 10 10 10 10 10 10 10 10 10 10 10 10 10 10 10 10 10 10 10 10 10 10 10 10 10 10 10 10 10 10 10 10 10 10 10 10 10 10 10 10 10 10 10 10 10 10 10 10 10 10 10 10 10 10 10 10 10 10 10 10 10 10 10 10 10 10 10 10 10 10 10 10 10 10 10 10 10 10 10 10 10 10 10 10 10 10 10 10 10 10 10 10 10 10 10 10 10 10 10 10 10 10 10 10 10 10 10 10 10 10 10 10 10 10 10 10 10 10 10 10 10 10 10 10 10 10 10 10 10 10 10 10 10 10 10 10 10 10 10 10 10 10 10 10 10 10 10 10 10 10 10 10 10 10 10 10 10 10 10 10 10 10 10 10 10 10 10 10 10 10 10 10 10 10 10 10 10 10 10 10 10 10 10 10 10 10 10 10 10 10 10 10 10 10 10 10 10 10 10 10 10 10 10 10 10 10 10 10 10 10 10 10 10 10 10 10 10 10 10 10 10 10 10 10 10 10 10 10 10 10 10 10 10 10 10 10 10 10 10 10 10 10 10 10 10 10 10 10 10 10 10 10 10 10 10 10 10 10 10 10 10 10 10 10 10 10 10 10 10 10 10 10 10 10 10 10 10 10 10 10 10 10 10 10 10 10 10 10 10 10 10 10 10 10 10 10 10 10 10 10 10 10 10 10 10 10 10 10 10 10 10 10 10 10 10 10 10 10 10 10 10 10 10 10 10 10 10 10 10 10 10 10 10 10 10 10 10 10 10 10 10 10 10 10 10 10 10 10 10 10 10 10 10 10 10 10 10 10 10 10 10 10 10 10 10 10 10 10 10 10 10 10 10 10 10 10 10 10 10 10 10 10 10 10 10 10 10 10 10 10 10 10 10 10 10 10 10 10 10 10 10 10 10 10 10 10 10 10 10 10 10 10 10 10 10 10 10 10 10 10 10 10 10 10 10 10 10 10 10 10 10 10 10 10 10 10 10 10 10 10 10 10 10 10 10 10 10 10 10 10 10 10 10 10 10 10 10 10 10 10 10 10 10 10 10 10 10 10 10 10 10 10 10 10 10 10 10 10 10 10 10 10 10 10 10 10 10 10 10 10 10 10 10 10 10 10 10 10 10 10 10 10 10 10 10 10 10 10 10 10 10 10 10 10 10 10 10 10 10 10 10 10 10 10 10 10 10 10 10 10 10 10 10 10 10 10 10 10 10 10 10 10 10 10 10 10 10 10 10 10 10 10 10 10 10 10 10 10 10 10 10 10 10 10 10 10 10 10 10 10 10 10 10 10 10 10 10 10 10 10 10 10 10 10 10 10 10 10 10 10 10 10 10 10 10 10 10 10 10 10 10 10 10 10 10 10 10 10 10 10 10 10 10 10 10 10 10 10 10 10 10 10 10 10 10 10 10 
</DataArray>
</Cells>
<PointData Scalars="" Vectors="displacement," Tensors="">
<DataArray type="Float64" Name="displacement" NumberOfComponents="3" format="ascii">
4.5546797332216365e-05 3.9478873602407737e-05 -5.6893943456653879 -1.6378725507302203e-05 5.8675802566367371e-05 -9.3045125212341553 1.9813216383541097e-06 -2.2883508072449864e-06 -9.0005900726195947 8.0960162176960904e-05 7.3383467258547228e-05 -9.6855741452977107 -5.0200917297891034e-05 -4.8342676842918368e-05 -6.726448593125637 -5.6240492987426052e-05 2.0748992134194409e-05 -5.236736369456807 1.9813216383541101e-06 -2.2883508072449864e-06 -9.0005900726195947 1.5790354916985731e-09 1.7274421563572503e-06 -4.4128120846505423 -2.863954610078583e-06 -9.6867148962360804e-05 -18.000675161013572 -4.8926199649882529e-05 -9.8478875070980468e-05 -15.615655054498381 -5.2274516635187628e-05 -9.3027817525748963e-05 -18.000670420746832 -4.8258265288144023e-05 -4.790384611231278e-05 -12.3117846384917 -5.0200917297891034e-05 -4.8342676842918368e-05 -6.726448593125637 1.9813216383541101e-06 -2.2883508072449864e-06 -9.0005900726195947 1.6263159867841794e-05 -5.5077333210460378e-05 -5.3090851068374834 1.5790354917123953e-09 1.7274421563572357e-06 -4.4128120846505423 -4.8258265288144023e-05 -4.790384611231278e-05 -12.3117846384917 1.9813216383541169e-06 -2.288350807244986e-06 -9.0005900726195947 -6.694129976862802e-05 -6.8773547271868015e-06 -9.0850799483852231 -3.3186120504961269e-06 -3.2136361273681928e-06 -13.645042525665012 -4.8258265288144023e-05 -4.790384611231278e-05 -12.3117846384917 -6.694129976862802e-05 -6.8773547271868065e-06 -9.0850799483852231 1.9813216383541139e-06 -2.2883508072449813e-06 -9.0005900726195964 -3.34260457632117e-06 -6.7044351759096803e-05 -9.1330429370720037 4.1004609500944611e-06 -2.1126803761504402e-05 -0.00039717469118998099 4.5546797332216365e-05 3.9478873602407723e-05 -5.6893943456653879 2.9443526199445825e-05 0.00012257184513441317 -2.3349430557664204 -1.656464368270359e-06 7.7156788828507076e-05 -4.9733903210620074 -5.6505137840680834e-05 2.9896109673363036e-05 -12.621063802052849 -6.694129976862802e-05 -6.8773547271867947e-06 -9.0850799483852214 1.9813216383541084e-06 -2.2883508072449907e-06 -9.0005900726195947 -3.3186120504961294e-06 -3.213636127368217e-06 -13.645042525665012 1.9813216383541101e-06 -2.2883508072449864e-06 -9.0005900726195947 -6.694129976862802e-05 -6.8773547271868023e-06 -9.0850799483852231 -5.0200917297891034e-05 -4.8342676842918368e-05 -6.726448593125637 -3.342604576321164e-06 -6.7044351759096803e-05 -9.1330429370720037 1.9813216383541101e-06 -2.2883508072449864e-06 -9.0005900726195947 -4.8258265288144016e-05 -4.7903846112312787e-05 -12.3117846384917 -3.3426045763211623e-06 -6.7044351759096816e-05 -9.1330429370720019 -3.3186120504961269e-06 -3.2136361273681928e-06 -13.645042525665012 2.4429394386670141e-05 5.6012073672620296e-05 -12.799578360759936 1.9813216383541084e-06 -2.2883508072449869e-06 -9.0005900726195947 -1.6378725507302209e-05 5.8675802566367378e-05 -9.3045125212341553 8.0960162176960904e-05 7.3383467258547228e-05 -9.6855741452977107 1.9813216383541101e-06 -2.2883508072449864e-06 -9.0005900726195947 -3.3426045763211505e-06 -6.7044351759096816e-05 -9.1330429370720054 2.9521752799243031e-05 -5.72406759233809e-05 -12.621064737262351 -3.3186120504961269e-06 -3.2136361273681928e-06 -13.645042525665012 1.9813216383541101e-06 -2.2883508072449864e-06 -9.0005900726195947 -5.6240492987426052e-05 2.0748992134194409e-05 -5.236736369456807 -5.0200917297891034e-05 -4.8342676842918368e-05 -6.726448593125637 -6.694129976862802e-05 -6.8773547271868015e-06 -9.0850799483852231 -2.863954610078583e-06 -9.6867148962360804e-05 -18.000675161013572 2.9521752799243021e-05 -5.72406759233809e-05 -12.621064737262351 -4.8258265288144016e-05 -4.7903846112312774e-05 -12.3117846384917 -3.3186120504961379e-06 -3.2136361273681941e-06 -13.645042525665012 -5.6505137840680834e-05 2.9896109673363036e-05 -12.621063802052849 1.9813216383540783e-06 -2.2883508072450135e-06 -9.0005900726195947 -1.6378725507302203e-05 5.8675802566367371e-05 -9.3045125212341553 -3.3186120504961209e-06 -3.2136361273681835e-06 -13.645042525665014 -2.1022456668313783e-05 -2.1020668999429796e-05 -0.00042690524798053969 2.9443526199445815e-05 0.00012257184513441317 -2.3349430557664199 4.1004609500944611e-06 -2.1126803761504402e-05 -0.00039717469118997101 4.5546797332216358e-05 3.9478873602407676e-05 -5.689394345665387 -8.405939511630647e-05 -0.00010818175023724174 -14.993160485389225 -5.2274516635187628e-05 -9.3027817525748963e-05 -18.000670420746832 -4.8926199649882529e-05 -9.8478875070980482e-05 -15.615655054498383 -4.8258265288144023e-05 -4.790384611231278e-05 -12.3117846384917 -0.00016979381779081649 -9.803490899465116e-05 -8.8147511330287305 -0.00010912284140812552 -9.3171590803762798e-05 -12.366965980574648 -9.4523931815015708e-05 -0.00010929031160023451 -12.366974518938637 -4.8258265288144016e-05 -4.7903846112312774e-05 -12.3117846384917 2.4429394386670141e-05 5.6012073672620296e-05 -12.799578360759936 -1.6378725507302223e-05 5.8675802566367371e-05 -9.3045125212341553 1.9813216383541211e-06 -2.288350807244983e-06 -9.0005900726195947 -3.3186120504961285e-06 -3.2136361273681878e-06 -13.645042525665012 1.9813216383541101e-06 -2.2883508072449864e-06 -9.0005900726195947 -5.0200917297891041e-05 -4.8342676842918374e-05 -6.7264485931256379 1.6263159867841794e-05 -5.5077333210460378e-05 -5.3090851068374834 -3.342604576321164e-06 -6.7044351759096803e-05 -9.1330429370720037 0.00019053028110948625 -9.8664276415750734e-06 -3.6714654017106789 0.00012257465262365935 2.4300416687567908e-05 -2.3349666062241692 -2.1120631393069733e-05 4.1023401592752486e-06 -0.00043557219841457558 4.5546797332216372e-05 3.9478873602407744e-05 -5.6893943456653888 -0.00017041205436010796 -3.5017849039651094e-06 -14.329810100346082 -5.6505137840680847e-05 2.9896109673363046e-05 -12.621063802052849 -4.8258265288144043e-05 -4.7903846112312801e-05 -12.311784638491703 -6.694129976862802e-05 -6.8773547271867905e-06 -9.0850799483852196 -4.8258265288144023e-05 -4.790384611231278e-05 -12.3117846384917 -5.6505137840680854e-05 2.9896109673363052e-05 -12.621063802052849 -3.5071528866108971e-05 -2.3705979299402093e-05 -18.000671888639946 -3.3186120504961269e-06 -3.2136361273681928e-06 -13.645042525665012 -4.8258265288144023e-05 -4.790384611231278e-05 -12.3117846384917 2.9521752799243034e-05 -5.7240675923380906e-05 -12.621064737262351 -2.7751890347416891e-06 -0.00017011134053490407 -14.329813472429908 -3.3426045763211628e-06 -6.7044351759096789e-05 -9.1330429370720037 1.9813216383541101e-06 -2.2883508072449864e-06 -9.0005900726195947 6.8147818390345018e-05 5.0895768895878272e-06 -10.498144294815184 4.5546797332216365e-05 3.9478873602407757e-05 -5.6893943456653888 8.0960162176960904e-05 7.3383467258547283e-05 -9.6855741452977124 1.9813216383541101e-06 -2.2883508072449864e-06 -9.0005900726195947 4.5546797332216358e-05 3.947887360240775e-05 -5.6893943456653888 1.5790354916999479e-09 1.727442156357245e-06 -4.4128120846505414 -1.6564643682703435e-06 7.7156788828507104e-05 -4.9733903210620083 1.9813216383541101e-06 -2.2883508072449864e-06 -9.0005900726195947 -1.6378725507302203e-05 5.8675802566367364e-05 -9.3045125212341571 4.5546797332216358e-05 3.9478873602407737e-05 -5.6893943456653879 -1.6564643682703435e-06 7.7156788828507104e-05 -4.9733903210620083 -0.00017041205436010796 -3.5017849039651094e-06 -14.329810100346082 -9.0782894998885753e-05 -4.8254042513066549e-05 -18.000670330398322 -9.837992684408797e-05 -5.2646743794984978e-05 -15.615652928313695 -4.8258265288144023e-05 -4.790384611231278e-05 -12.3117846384917 0.00012934240068143102 8.1717937097800552e-05 -2.8268197934621271 0.00010752456001454087 8.7057162839067402e-05 -5.5980074561327084 8.9520310650679507e-05 0.00010752863126185365 -5.598001250935206 4.5546797332216386e-05 3.9478873602407757e-05 -5.6893943456653879 -9.837992684408797e-05 -5.2646743794984978e-05 -15.615652928313695 -9.078289499888578e-05 -4.8254042513066542e-05 -18.000670330398322 -0.00010816290328470918 -8.5181861756667622e-05 -14.99315588114991 -4.825826528814401e-05 -4.7903846112312774e-05 -12.311784638491698 1.9813216383541101e-06 -2.2883508072449864e-06 -9.0005900726195947 1.5790354916935811e-09 1.7274421563572393e-06 -4.4128120846505423 -5.6240492987426045e-05 2.0748992134194405e-05 -5.2367363694568061 -1.6564643682703435e-06 7.7156788828507104e-05 -4.9733903210620083 -2.1022456668313783e-05 -2.1020668999429796e-05 -0.00042690524798053969 -2.1120631393069733e-05 4.1023401592752486e-06 -0.00043557219841457558 0.00012257465262365935 2.4300416687567908e-05 -2.3349666062241692 4.5546797332216365e-05 3.9478873602407737e-05 -5.6893943456653879 -8.9172160982197956e-05 -0.00016884375536200977 -8.8147519431090195 -0.00016979381779081649 -9.803490899465116e-05 -8.8147511330287305 -4.825826528814403e-05 -4.790384611231278e-05 -12.3117846384917 -5.0200917297891041e-05 -4.8342676842918381e-05 -6.7264485931256379 1.9813216383541101e-06 -2.2883508072449864e-06 -9.0005900726195947 -5.6240492987426052e-05 2.0748992134194409e-05 -5.236736369456807 -1.6378725507302226e-05 5.8675802566367364e-05 -9.3045125212341553 -1.6564643682703435e-06 7.7156788828507104e-05 -4.9733903210620083 1.9813216383541101e-06 -2.2883508072449864e-06 -9.0005900726195947 -1.6378725507302203e-05 5.8675802566367378e-05 -9.3045125212341553 -5.6240492987426052e-05 2.0748992134194405e-05 -5.2367363694568052 -6.694129976862802e-05 -6.8773547271868015e-06 -9.0850799483852231 2.9521752799243031e-05 -5.7240675923380893e-05 -12.621064737262351 -3.3426045763211712e-06 -6.7044351759096803e-05 -9.1330429370720037 1.9813216383541101e-06 -2.2883508072449864e-06 -9.0005900726195947 7.9405039643381855e-05 -7.0205926849341223e-05 -8.8027460820885679 0.00012934240068143102 8.1717937097800552e-05 -2.8268197934621271 -2.102245666831377e-05 -2.1020668999429786e-05 -0.00042690524798099977 0.00012257465262365935 2.4300416687567908e-05 -2.3349666062241692 4.5546797332216358e-05 3.9478873602407723e-05 -5.689394345665387 -2.1022456668313783e-05 -2.1020668999429796e-05 -0.00042690524798053969 8.3258308693137195e-05 0.00012934536045024246 -2.8268086076169476 2.9443526199445811e-05 0.00012257184513441317 -2.3349430557664199 4.5546797332216392e-05 3.9478873602407723e-05 -5.6893943456653888 0.00012934240068143102 8.1717937097800552e-05 -2.8268197934621271 8.9520310650679521e-05 0.00010752863126185365 -5.598001250935206 8.3258308693137195e-05 0.00012934536045024246 -2.8268086076169476 4.5546797332216386e-05 3.947887360240775e-05 -5.6893943456653888 1.9813216383541101e-06 -2.2883508072449864e-06 -9.0005900726195947 2.4429394386670141e-05 5.6012073672620296e-05 -12.799578360759936 6.8147818390345004e-05 5.0895768895878238e-06 -10.498144294815184 8.0960162176960918e-05 7.3383467258547269e-05 -9.6855741452977071 1.6263159867841794e-05 -5.5077333210460378e-05 -5.3090851068374834 1.9813216383541097e-06 -2.288350807244972e-06 -9.0005900726195947 -3.3426045763211683e-06 -6.7044351759096803e-05 -9.1330429370720037 7.9405039643381855e-05 -7.0205926849341223e-05 -8.8027460820885697 2.9521752799243031e-05 -5.7240675923380893e-05 -12.621064737262351 1.9813216383541101e-06 -2.2883508072449864e-06 -9.0005900726195947 6.8147818390345004e-05 5.0895768895878433e-06 -10.498144294815186 7.9405039643381842e-05 -7.0205926849341237e-05 -8.8027460820885697 -0.00010912284140812552 -9.3171590803762798e-05 -12.366965980574648 -8.405939511630647e-05 -0.00010818175023724174 -14.993160485389225 -9.4523931815015694e-05 -0.00010929031160023451 -12.366974518938637 -4.825826528814403e-05 -4.7903846112312787e-05 -12.3117846384917 0.00012934240068143102 8.1717937097800552e-05 -2.8268197934621271 8.3258308693137195e-05 0.00012934536045024246 -2.8268086076169476 -2.1022456668313787e-05 -2.10206689994298e-05 -0.00042690524798061509 4.5546797332216365e-05 3.9478873602407744e-05 -5.689394345665387 -4.1962284113596218e-05 -0.00014046592821928292 -10.242017581821759 -5.0200917297891061e-05 -4.8342676842918374e-05 -6.726448593125637 -4.8258265288144023e-05 -4.790384611231278e-05 -12.3117846384917 -3.3426045763211551e-06 -6.7044351759096803e-05 -9.1330429370720037 -8.9172160982197956e-05 -0.00016884375536200977 -8.8147519431090195 -0.00016979381779081649 -9.803490899465116e-05 -8.8147511330287305 -9.4523931815015694e-05 -0.00010929031160023451 -12.366974518938637 -4.8258265288144023e-05 -4.790384611231278e-05 -12.3117846384917 -0.0001381689971228937 -4.7401216076933854e-05 -10.24185636007982 -4.825826528814403e-05 -4.7903846112312801e-05 -12.311784638491703 -5.0200917297891034e-05 -4.8342676842918368e-05 -6.726448593125637 -6.6941299768628033e-05 -6.8773547271867905e-06 -9.0850799483852231 4.5546797332216365e-05 3.9478873602407737e-05 -5.6893943456653879 6.8147818390345004e-05 5.0895768895878179e-06 -10.498144294815184 1.9813216383541101e-06 -2.2883508072449864e-06 -9.0005900726195947 7.9261457644039742e-05 -4.1183770571983835e-07 -6.2674520662278796 8.9520310650679521e-05 0.00010752863126185365 -5.598001250935206 4.5546797332216386e-05 3.947887360240775e-05 -5.6893943456653888 0.00010752456001454087 8.7057162839067402e-05 -5.5980074561327084 8.0960162176960904e-05 7.3383467258547228e-05 -9.6855741452977107 -2.863954610078583e-06 -9.6867148962360804e-05 -18.000675161013572 -2.7751890347416883e-06 -0.00017011134053490407 -14.329813472429908 -4.825826528814401e-05 -4.7903846112312767e-05 -12.3117846384917 2.9521752799243028e-05 -5.7240675923380879e-05 -12.621064737262349 1.307932220491518e-06 1.2784988515808176e-06 -0.00055442003995552372 4.5546797332216352e-05 3.9478873602407744e-05 -5.6893943456653879 1.5790354917033191e-09 1.7274421563572421e-06 -4.4128120846505423 7.9261457644039742e-05 -4.1183770571985418e-07 -6.2674520662278796 -9.6001516817300101e-05 9.5508419293289482e-05 -18.00066461404667 -9.2094118281700599e-05 5.0247826413477698e-05 -18.000668314221063 -0.00010846110142926469 7.9501961558041425e-05 -14.993149257157482 -2.6682865744602655e-05 8.2901261764422175e-05 -14.466540689678981 -8.405939511630647e-05 -0.00010818175023724174 -14.993160485389225 -9.1901998321488804e-05 -9.1825701555014503e-05 -18.000667287357011 -5.2274516635187628e-05 -9.3027817525748963e-05 -18.000670420746832 -4.8258265288144023e-05 -4.790384611231278e-05 -12.3117846384917 1.9813216383541101e-06 -2.2883508072449864e-06 -9.0005900726195947 6.8147818390345004e-05 5.0895768895878212e-06 -10.498144294815186 2.4429394386670141e-05 5.6012073672620296e-05 -12.799578360759936 -3.3186120504961235e-06 -3.2136361273681924e-06 -13.645042525665012 0.00019053028110948625 -9.8664276415750734e-06 -3.6714654017106789 -2.1120631393069702e-05 4.1023401592752478e-06 -0.00043557219841514815 -1.6772239871486526e-05 1.1529091885863225e-07 -0.00069016881923188958 4.5546797332216372e-05 3.9478873602407744e-05 -5.6893943456653888 -9.1883647489109408e-05 -1.1501545984557046e-06 -18.000675036697739 -4.8258265288144023e-05 -4.7903846112312814e-05 -12.3117846384917 -0.00017041205436010796 -3.501784903965103e-06 -14.32981010034608 -5.6505137840680827e-05 2.9896109673363063e-05 -12.621063802052847 -0.00012921905810508446 -7.0021853138365508e-05 -2.9608865794027373 -0.00012002657329742926 -4.3922659991772494e-05 -5.1755921476215931 -9.4692071284310412e-05 -8.4085900453570911e-05 -5.5504956534356733 -5.0200917297891054e-05 -4.8342676842918381e-05 -6.7264485931256361 -0.00012921905810508446 -7.0021853138365508e-05 -2.9608865794027373 -5.0200917297891054e-05 -4.834267684291832e-05 -6.7264485931256344 -2.0854650588351525e-08 -6.0730713035321741e-05 -3.5594661988139347 -7.3030749525209961e-05 2.3975177379793494e-06 -3.5694862793977462 0.00012934240068143102 8.1717937097800552e-05 -2.8268197934621271 0.00012257465262365935 2.4300416687567911e-05 -2.3349666062241692 0.00012330048295242609 4.5914869839652822e-05 -5.1755802182686654 4.5546797332216406e-05 3.9478873602407737e-05 -5.6893943456653879 4.8387152535928634e-05 0.00012329120096818714 -5.17556033192536 2.9443526199445832e-05 0.00012257184513441317 -2.3349430557664199 8.3258308693137195e-05 0.00012934536045024246 -2.8268086076169476 4.5546797332216358e-05 3.9478873602407737e-05 -5.6893943456653879 1.9813216383541101e-06 -2.2883508072449864e-06 -9.0005900726195947 -5.6505137840680834e-05 2.9896109673363039e-05 -12.62106380205285 -1.6378725507302203e-05 5.8675802566367371e-05 -9.3045125212341535 -6.694129976862802e-05 -6.8773547271868015e-06 -9.0850799483852231 -4.8926199649882529e-05 -9.8478875070980482e-05 -15.615655054498383 -2.8639546100785834e-06 -9.6867148962360804e-05 -18.000675161013572 -2.7751890347416883e-06 -0.00017011134053490407 -14.329813472429908 -4.8258265288144016e-05 -4.7903846112312774e-05 -12.3117846384917 -8.4611311785439785e-05 -9.3302958677176376e-05 -5.617728127371528 -5.0200917297891021e-05 -4.8342676842918354e-05 -6.7264485931256353 -4.6268174728439357e-05 -0.00011912175942803325 -5.1755936179622068 -2.0854650588357693e-08 -6.0730713035321782e-05 -3.5594661988139373 1.9813216383541101e-06 -2.2883508072449864e-06 -9.0005900726195947 2.9521752799243038e-05 -5.7240675923380886e-05 -12.621064737262351 6.8147818390344991e-05 5.0895768895878145e-06 -10.498144294815184 -3.318612050496123e-06 -3.2136361273681899e-06 -13.645042525665012 -8.4611311785439785e-05 -9.3302958677176376e-05 -5.617728127371528 -9.4692071284310425e-05 -8.4085900453570925e-05 -5.5504956534356751 -0.00016979381779081649 -9.803490899465116e-05 -8.8147511330287305 -5.0200917297891034e-05 -4.8342676842918368e-05 -6.726448593125637 -0.00012260694386324376 5.8225072929117639e-05 -12.825635291146 -0.00010931962568937949 4.624928236212659e-05 -15.629987702568473 -5.6505137840680834e-05 2.9896109673363052e-05 -12.62106380205285 -8.3446772044337979e-05 8.1301658715782454e-05 -10.999402634395079 1.6263159867841794e-05 -5.5077333210460378e-05 -5.3090851068374834 1.9813216383541042e-06 -2.288350807244989e-06 -9.0005900726195947 7.9405039643381855e-05 -7.0205926849341223e-05 -8.8027460820885697 7.9261457644039742e-05 -4.1183770571983835e-07 -6.2674520662278796 -4.8258265288144023e-05 -4.790384611231278e-05 -12.3117846384917 -6.694129976862802e-05 -6.8773547271868015e-06 -9.0850799483852231 -5.6505137840680847e-05 2.9896109673363049e-05 -12.621063802052849 -3.3186120504961269e-06 -3.2136361273681928e-06 -13.645042525665012 -4.8258265288144023e-05 -4.790384611231278e-05 -12.3117846384917 -5.0200917297891014e-05 -4.8342676842918354e-05 -6.7264485931256388 -6.694129976862802e-05 -6.8773547271867981e-06 -9.0850799483852249 -3.342604576321164e-06 -6.7044351759096803e-05 -9.1330429370720037 0.00019053028110948625 -9.8664276415750734e-06 -3.6714654017106789 4.5546797332216365e-05 3.9478873602407757e-05 -5.6893943456653879 -1.6772239871486509e-05 1.1529091885863252e-07 -0.00069016881923177574 7.9261457644039742e-05 -4.1183770571983787e-07 -6.2674520662278796 5.4773534935065782e-10 -1.6771614711411462e-05 -0.00067059287758595998 4.5546797332216331e-05 3.9478873602407777e-05 -5.6893943456653888 4.1004609500944552e-06 -2.1126803761504396e-05 -0.00039717469119004262 -1.6564643682703194e-06 7.715678882850709e-05 -4.9733903210620092 -0.00010816290328470918 -8.5181861756667622e-05 -14.99315588114991 -9.0782894998885766e-05 -4.8254042513066542e-05 -18.000670330398322 -9.1901998321488804e-05 -9.1825701555014503e-05 -18.000667287357011 -4.8258265288144023e-05 -4.7903846112312767e-05 -12.3117846384917 -2.863954610078583e-06 -9.6867148962360804e-05 -18.000675161013572 -4.8258265288144003e-05 -4.7903846112312767e-05 -12.3117846384917 -3.5071528866108971e-05 -2.3705979299402093e-05 -18.000671888639946 -3.3186120504961485e-06 -3.2136361273681907e-06 -13.64504252566501 -5.357455085872124e-05 5.6177361836313795e-05 -18.000671144736074 -5.6505137840680834e-05 2.9896109673363036e-05 -12.621063802052849 -9.2094118281700599e-05 5.0247826413477698e-05 -18.000668314221063 -2.6682865744602651e-05 8.2901261764422175e-05 -14.466540689678981 2.9521752799243031e-05 -5.7240675923380893e-05 -12.621064737262351 -3.3426045763211653e-06 -6.7044351759096789e-05 -9.1330429370720019 -4.8258265288144023e-05 -4.790384611231278e-05 -12.3117846384917 -3.3186120504961243e-06 -3.2136361273681822e-06 -13.645042525665012 2.8287087543558091e-05 0.00013865281502691918 -7.618324287753528 -1.6378725507302206e-05 5.8675802566367364e-05 -9.3045125212341553 4.5546797332216358e-05 3.9478873602407716e-05 -5.6893943456653862 8.0960162176960891e-05 7.3383467258547228e-05 -9.6855741452977089 -0.00010816290328470918 -8.5181861756667622e-05 -14.99315588114991 -8.405939511630647e-05 -0.00010818175023724174 -14.993160485389225 -0.00010912284140812552 -9.3171590803762798e-05 -12.366965980574648 -4.8258265288144023e-05 -4.790384611231278e-05 -12.3117846384917 0.00012934240068143102 8.1717937097800552e-05 -2.8268197934621271 0.00012330048295242609 4.5914869839652822e-05 -5.1755802182686654 0.00010752456001454087 8.7057162839067402e-05 -5.5980074561327084 4.5546797332216379e-05 3.9478873602407757e-05 -5.6893943456653879 4.8387152535928634e-05 0.00012329120096818714 -5.17556033192536 8.3258308693137195e-05 0.00012934536045024246 -2.8268086076169476 8.9520310650679521e-05 0.00010752863126185365 -5.598001250935206 4.5546797332216358e-05 3.9478873602407744e-05 -5.6893943456653879 6.8147818390345004e-05 5.0895768895878238e-06 -10.498144294815184 7.9405039643381855e-05 -7.0205926849341223e-05 -8.8027460820885697 1.9813216383541101e-06 -2.2883508072449864e-06 -9.0005900726195947 7.9261457644039742e-05 -4.1183770571984518e-07 -6.2674520662278805 -5.6505137840680834e-05 2.9896109673363036e-05 -12.621063802052849 -1.6378725507302206e-05 5.8675802566367351e-05 -9.3045125212341553 2.4429394386670141e-05 5.6012073672620296e-05 -12.799578360759936 -3.3186120504961277e-06 -3.2136361273682051e-06 -13.645042525665012 -3.5071528866108971e-05 -2.3705979299402093e-05 -18.000671888639946 -4.825826528814401e-05 -4.790384611231276e-05 -12.311784638491698 -9.1883647489109408e-05 -1.1501545984557087e-06 -18.000675036697739 -5.6505137840680854e-05 2.9896109673362998e-05 -12.621063802052849 4.8387152535928634e-05 0.00012329120096818714 -5.17556033192536 2.9443526199445825e-05 0.00012257184513441317 -2.3349430557664204 4.5546797332216365e-05 3.9478873602407737e-05 -5.6893943456653879 -1.6564643682703435e-06 7.7156788828507104e-05 -4.9733903210620083 -2.1022456668313783e-05 -2.1020668999429796e-05 -0.00042690524798053969 4.1004609500944611e-06 -2.1126803761504402e-05 -0.00039717469118998099 8.920217385652176e-06 8.9090879500314305e-06 -0.00052177227551358687 4.5546797332216365e-05 3.9478873602407737e-05 -5.6893943456653879 -9.1901998321488804e-05 -9.1825701555014503e-05 -18.000667287357011 -5.4108181290384368e-05 -5.6072134553941171e-05 -18.000672736692767 -5.2274516635187628e-05 -9.3027817525748963e-05 -18.000670420746832 -4.8258265288144023e-05 -4.790384611231278e-05 -12.3117846384917 1.6662709450967341e-05 0.00014899939696359503 -11.102939896757109 -1.2627343934002642e-05 3.8318755667570566e-05 -9.0006216737235576 2.8287087543558091e-05 0.00013865281502691918 -7.618324287753528 -1.6378725507302206e-05 5.8675802566367364e-05 -9.3045125212341553 -0.00010816290328470918 -8.5181861756667622e-05 -14.99315588114991 -9.1901998321488804e-05 -9.1825701555014517e-05 -18.000667287357011 -8.405939511630647e-05 -0.00010818175023724174 -14.993160485389225 -4.8258265288144023e-05 -4.790384611231278e-05 -12.3117846384917 2.9521752799243031e-05 -5.7240675923380893e-05 -12.621064737262351 8.0493022879137485e-05 -3.6451471731657108e-05 -14.495336684488498 5.15697652357654e-05 -9.3985453914083108e-05 -18.000670712283444 7.6545272793753142e-05 -7.6033936656246171e-05 -12.121545869076563 9.3439194697136869e-05 -8.2827395234403865e-05 -5.6177301126889931 8.7833889406321836e-05 -0.00010277132611476874 -5.6342666417144889 7.9405039643381869e-05 -7.0205926849341237e-05 -8.8027460820885697 5.0951048088386213e-05 -1.956451354636105e-05 -3.6826625843625402 -9.1883647489109408e-05 -1.1501545984557046e-06 -18.000675036697739 -9.0782894998885766e-05 -4.8254042513066549e-05 -18.000670330398322 -0.00017041205436010796 -3.5017849039651073e-06 -14.329810100346082 -4.8258265288143989e-05 -4.7903846112312787e-05 -12.311784638491698 -9.837992684408797e-05 -5.2646743794984978e-05 -15.615652928313695 -0.00010816290328470918 -8.5181861756667622e-05 -14.99315588114991 -0.00012438372246389764 -6.0625087616359944e-05 -12.825638381755647 -4.825826528814401e-05 -4.7903846112312787e-05 -12.311784638491703 -5.9697161899044567e-05 -0.00012417189741483465 -12.82564091069537 -8.405939511630647e-05 -0.00010818175023724174 -14.993160485389225 -4.8926199649882529e-05 -9.8478875070980482e-05 -15.615655054498383 -4.8258265288144023e-05 -4.790384611231278e-05 -12.3117846384917 -2.863954610078583e-06 -9.6867148962360804e-05 -18.000675161013572 5.15697652357654e-05 -9.3985453914083108e-05 -18.000670712283444 4.9810081526577643e-05 -0.0001097038000559613 -15.629992958221699 2.9521752799243031e-05 -5.7240675923380893e-05 -12.621064737262351 -8.9172160982197956e-05 -0.00016884375536200977 -8.8147519431090195 -4.8258265288144023e-05 -4.790384611231278e-05 -12.3117846384917 -4.1962284113596218e-05 -0.00014046592821928292 -10.242017581821759 -5.0200917297891041e-05 -4.8342676842918388e-05 -6.7264485931256379 -0.00016979381779081649 -9.803490899465116e-05 -8.8147511330287305 -0.0001381689971228937 -4.7401216076933854e-05 -10.24185636007982 -4.8258265288144023e-05 -4.790384611231278e-05 -12.3117846384917 -5.0200917297891034e-05 -4.8342676842918368e-05 -6.726448593125637 1.307932220491518e-06 1.2784988515808176e-06 -0.00055442003995552372 1.5790354916949745e-09 1.7274421563572569e-06 -4.4128120846505432 4.5546797332216372e-05 3.947887360240773e-05 -5.6893943456653879 -1.6564643682703543e-06 7.715678882850709e-05 -4.9733903210620083 1.5790354917033191e-09 1.7274421563572421e-06 -4.4128120846505423 -2.0854650588337235e-08 -6.0730713035321796e-05 -3.5594661988139364 -5.0200917297891027e-05 -4.8342676842918361e-05 -6.7264485931256361 -7.3030749525209961e-05 2.397517737979377e-06 -3.5694862793977453 4.5546797332216365e-05 3.9478873602407737e-05 -5.6893943456653879 1.9813216383540957e-06 -2.2883508072449932e-06 -9.0005900726195929 1.5790354917081219e-09 1.7274421563572461e-06 -4.4128120846505432 7.9261457644039742e-05 -4.1183770571983835e-07 -6.2674520662278796 4.1004609500944611e-06 -2.1126803761504402e-05 -0.00039717469118998099 2.9443526199445818e-05 0.00012257184513441317 -2.3349430557664199 9.0830632948897365e-06 0.00019055602151530425 -3.6714755132175751 -1.6564643682703527e-06 7.7156788828507104e-05 -4.9733903210620074 4.9810081526577643e-05 -0.0001097038000559613 -15.629992958221699 2.9521752799243001e-05 -5.7240675923380886e-05 -12.621064737262353 5.15697652357654e-05 -9.3985453914083108e-05 -18.000670712283444 7.6545272793753142e-05 -7.6033936656246171e-05 -12.121545869076563 -0.0001381689971228937 -4.7401216076933854e-05 -10.24185636007982 -0.00017041205436010796 -3.5017849039651094e-06 -14.329810100346082 -4.8258265288144023e-05 -4.790384611231278e-05 -12.3117846384917 -6.6941299768628033e-05 -6.8773547271867972e-06 -9.0850799483852231 4.5546797332216365e-05 3.9478873602407737e-05 -5.6893943456653879 -1.6378725507302206e-05 5.8675802566367371e-05 -9.3045125212341553 2.8287087543558098e-05 0.00013865281502691918 -7.6183242877535298 -1.6564643682703467e-06 7.715678882850709e-05 -4.9733903210620083 -2.863954610078583e-06 -9.6867148962360804e-05 -18.000675161013572 1.8896097576705484e-05 -3.7956718740192119e-05 -18.000670564196774 2.9521752799243038e-05 -5.72406759233809e-05 -12.621064737262353 -3.3186120504961269e-06 -3.2136361273681928e-06 -13.645042525665012 4.8387152535928634e-05 0.00012329120096818714 -5.17556033192536 4.5546797332216372e-05 3.9478873602407757e-05 -5.6893943456653879 8.9520310650679521e-05 0.00010752863126185365 -5.598001250935206 8.0960162176960904e-05 7.3383467258547228e-05 -9.6855741452977107 4.5248191570086891e-06 2.1635632741839188e-05 -0.00043076803198283391 1.6263159867841794e-05 -5.5077333210460378e-05 -5.3090851068374834 2.3816106115514376e-05 -0.00011941717449393304 -2.3855482341187906 5.0951048088386213e-05 -1.956451354636105e-05 -3.6826625843625407 -0.00012921905810508446 -7.0021853138365508e-05 -2.9608865794027373 -0.00012002657329742926 -4.3922659991772494e-05 -5.1755921476215931 -5.0200917297891034e-05 -4.8342676842918313e-05 -6.7264485931256344 -7.3030749525209975e-05 2.3975177379793643e-06 -3.5694862793977471 -2.7751890347416883e-06 -0.00017011134053490407 -14.329813472429908 -4.1962284113596211e-05 -0.00014046592821928292 -10.242017581821758 -4.8258265288144023e-05 -4.790384611231278e-05 -12.3117846384917 -3.342604576321164e-06 -6.7044351759096803e-05 -9.1330429370720037 8.920217385652176e-06 8.9090879500314305e-06 -0.00052177227551358687 -1.6772239871486523e-05 1.1529091885863168e-07 -0.00069016881923179081 -2.1120631393069733e-05 4.1023401592752486e-06 -0.00043557219841457558 4.5546797332216365e-05 3.9478873602407737e-05 -5.6893943456653879 -8.9172160982197956e-05 -0.00016884375536200977 -8.8147519431090195 -9.4523931815015694e-05 -0.00010929031160023451 -12.366974518938637 -5.9697161899044567e-05 -0.00012417189741483468 -12.825640910695371 -4.8258265288144023e-05 -4.790384611231278e-05 -12.3117846384917 8.920217385652176e-06 8.9090879500314305e-06 -0.00052177227551358687 -2.1120631393069733e-05 4.1023401592752486e-06 -0.0004355721984146003 -2.1022456668313783e-05 -2.1020668999429796e-05 -0.00042690524798053969 4.5546797332216365e-05 3.9478873602407737e-05 -5.6893943456653879 -9.0782894998885766e-05 -4.8254042513066549e-05 -18.000670330398322 -5.4108181290384361e-05 -5.6072134553941165e-05 -18.000672736692767 -9.1901998321488804e-05 -9.1825701555014503e-05 -18.000667287357011 -4.8258265288144023e-05 -4.790384611231278e-05 -12.3117846384917 0.00019053028110948625 -9.8664276415750734e-06 -3.6714654017106789 0.00012330048295242609 4.5914869839652822e-05 -5.1755802182686654 0.00012257465262365935 2.4300416687567908e-05 -2.3349666062241692 4.5546797332216358e-05 3.9478873602407737e-05 -5.6893943456653879 -0.00016979381779081649 -9.803490899465116e-05 -8.8147511330287305 -0.00012438372246389764 -6.0625087616359944e-05 -12.825638381755647 -0.00010912284140812552 -9.3171590803762798e-05 -12.366965980574648 -4.8258265288144023e-05 -4.790384611231278e-05 -12.3117846384917 -2.863954610078583e-06 -9.6867148962360804e-05 -18.000675161013572 -5.2274516635187628e-05 -9.3027817525748963e-05 -18.000670420746832 -5.4108181290384361e-05 -5.6072134553941165e-05 -18.000672736692763 -4.8258265288144023e-05 -4.790384611231278e-05 -12.3117846384917 5.4773534935065782e-10 -1.6771614711411462e-05 -0.00067059287758595998 8.9202173856521777e-06 8.9090879500314356e-06 -0.00052177227551353288 4.1004609500944611e-06 -2.1126803761504402e-05 -0.0003971746911899316 4.5546797332216365e-05 3.9478873602407737e-05 -5.6893943456653879 -1.6378725507302206e-05 5.8675802566367364e-05 -9.3045125212341553 -6.694129976862802e-05 -6.8773547271867938e-06 -9.0850799483852231 -5.6505137840680827e-05 2.9896109673363036e-05 -12.621063802052847 -8.3446772044337979e-05 8.1301658715782454e-05 -10.999402634395079 3.8316703147187174e-05 -1.112174678206273e-05 -9.0006162880699616 7.9405039643381855e-05 -7.0205926849341196e-05 -8.8027460820885697 6.8147818390345004e-05 5.0895768895878246e-06 -10.498144294815184 7.9261457644039742e-05 -4.1183770571983835e-07 -6.2674520662278796 1.307932220491518e-06 1.2784988515808176e-06 -0.00055442003995552372 -1.6772239871486523e-05 1.1529091885863168e-07 -0.00069016881923179081 4.5546797332216365e-05 3.9478873602407737e-05 -5.6893943456653879 7.9261457644039769e-05 -4.1183770571988017e-07 -6.2674520662278788 -9.2094118281700599e-05 5.0247826413477698e-05 -18.000668314221063 -9.1883647489109408e-05 -1.1501545984557046e-06 -18.000675036697739 -0.00010931962568937949 4.624928236212659e-05 -15.629987702568473 -5.6505137840680834e-05 2.9896109673363036e-05 -12.621063802052849 -9.6001516817300101e-05 9.5508419293289482e-05 -18.00066461404667 -5.357455085872124e-05 5.6177361836313795e-05 -18.000671144736074 -9.2094118281700599e-05 5.0247826413477698e-05 -18.000668314221063 -2.6682865744602651e-05 8.2901261764422175e-05 -14.466540689678981 1.6263159867841794e-05 -5.5077333210460378e-05 -5.3090851068374834 1.5790354917171301e-09 1.7274421563572361e-06 -4.4128120846505432 1.9813216383541105e-06 -2.2883508072449873e-06 -9.0005900726195947 7.9261457644039756e-05 -4.1183770571982602e-07 -6.2674520662278796 -0.00014649689900554012 1.9296323995193301e-05 -11.366767847644361 -5.6505137840680827e-05 2.9896109673363046e-05 -12.62106380205285 -0.00017041205436010796 -3.5017849039651094e-06 -14.329810100346082 -6.694129976862802e-05 -6.877354727186782e-06 -9.0850799483852249 -8.4142756444938123e-05 -0.00013020041310762154 -3.0080837665246687 -8.4611311785439785e-05 -9.330295867717639e-05 -5.617728127371528 -4.6268174728439357e-05 -0.00011912175942803325 -5.1755936179622068 -2.0854650588357693e-08 -6.0730713035321782e-05 -3.5594661988139373 -0.00010816290328470918 -8.5181861756667622e-05 -14.99315588114991 -0.00010912284140812552 -9.3171590803762798e-05 -12.366965980574648 -0.00012438372246389764 -6.0625087616359944e-05 -12.825638381755647 -4.8258265288144023e-05 -4.790384611231278e-05 -12.3117846384917 -8.405939511630647e-05 -0.00010818175023724174 -14.993160485389225 -5.9697161899044567e-05 -0.00012417189741483465 -12.82564091069537 -9.4523931815015694e-05 -0.00010929031160023451 -12.366974518938637 -4.8258265288144023e-05 -4.790384611231278e-05 -12.3117846384917 -5.0200917297891034e-05 -4.8342676842918368e-05 -6.726448593125637 1.5790354916977455e-09 1.7274421563572366e-06 -4.4128120846505423 1.6263159867841801e-05 -5.5077333210460378e-05 -5.3090851068374825 -2.0854650588359717e-08 -6.0730713035321796e-05 -3.5594661988139382 0.00012330048295242609 4.5914869839652822e-05 -5.1755802182686654 0.00010752456001454087 8.7057162839067402e-05 -5.5980074561327084 4.5546797332216365e-05 3.9478873602407737e-05 -5.6893943456653879 8.0960162176960904e-05 7.3383467258547228e-05 -9.6855741452977107 -5.6240492987426052e-05 2.0748992134194409e-05 -5.236736369456807 1.5790354917026228e-09 1.7274421563572429e-06 -4.4128120846505423 -5.0200917297891027e-05 -4.8342676842918381e-05 -6.7264485931256379 -7.3030749525209961e-05 2.3975177379793888e-06 -3.5694862793977449 -1.6378725507302206e-05 5.8675802566367364e-05 -9.3045125212341553 -7.6524307948240328e-05 7.7827650563770415e-05 -6.9495308801107614 -6.694129976862802e-05 -6.8773547271868065e-06 -9.0850799483852231 -8.3446772044337979e-05 8.1301658715782454e-05 -10.999402634395079 1.2549565950470023e-06 -1.2686746333718276e-06 -0.0005898419291798519 1.5790354917033191e-09 1.7274421563572421e-06 -4.4128120846505423 1.6263159867841807e-05 -5.5077333210460364e-05 -5.3090851068374834 5.0951048088386179e-05 -1.9564513546361111e-05 -3.6826625843625411 4.5248191570086891e-06 2.1635632741839188e-05 -0.00043076803198283391 -1.1898554813613858e-05 -0.00018946280387750509 -3.671462232205827 2.3816106115514376e-05 -0.00011941717449393304 -2.3855482341187906 1.6263159867841794e-05 -5.5077333210460378e-05 -5.3090851068374834 -0.00012260694386324376 5.8225072929117639e-05 -12.825635291146 -0.0001084611014292647 7.9501961558041425e-05 -14.99314925715748 -0.00010931962568937949 4.624928236212659e-05 -15.629987702568473 -8.3446772044337979e-05 8.1301658715782454e-05 -10.999402634395079 1.5790354917033191e-09 1.7274421563572421e-06 -4.4128120846505423 7.9261457644039715e-05 -4.1183770571983978e-07 -6.2674520662278779 1.626315986784179e-05 -5.5077333210460358e-05 -5.3090851068374816 5.0951048088386213e-05 -1.956451354636105e-05 -3.6826625843625407 -9.1883647489109408e-05 -1.1501545984557046e-06 -18.000675036697739 -5.4108181290384368e-05 -5.6072134553941171e-05 -18.000672736692763 -9.0782894998885766e-05 -4.8254042513066549e-05 -18.000670330398322 -4.8258265288144023e-05 -4.790384611231278e-05 -12.3117846384917 2.1261878906521027e-05 -0.00014824700915822139 -11.370451049443266 -2.7751890347416883e-06 -0.00017011134053490407 -14.329813472429908 2.9521752799243041e-05 -5.72406759233809e-05 -12.621064737262353 -3.3426045763211865e-06 -6.7044351759096789e-05 -9.1330429370720019 -5.9697161899044567e-05 -0.00012417189741483465 -12.82564091069537 -4.8926199649882529e-05 -9.8478875070980482e-05 -15.615655054498383 -2.7751890347416883e-06 -0.00017011134053490407 -14.329813472429908 -4.8258265288144023e-05 -4.790384611231278e-05 -12.3117846384917 -0.00017041205436010796 -3.5017849039651094e-06 -14.329810100346082 -9.8379926844087984e-05 -5.2646743794984978e-05 -15.615652928313695 -0.00012438372246389767 -6.0625087616359951e-05 -12.825638381755649 -4.8258265288144023e-05 -4.790384611231278e-05 -12.3117846384917 4.4987189988489345e-05 9.1844703327528701e-05 -18.000662540503793 2.4429394386670141e-05 5.6012073672620296e-05 -12.799578360759936 4.4250835695460036e-05 0.00010889080461882122 -15.639422505258912 6.9265464142664036e-05 7.002101444031617e-05 -13.496998911780246 4.4987189988489345e-05 9.1844703327528701e-05 -18.000662540503793 -4.0829326978900883e-06 9.146802360054628e-05 -18.000672145201957 4.4250835695460036e-05 0.00010889080461882123 -15.639422505258914 2.4429394386670138e-05 5.6012073672620283e-05 -12.799578360759934 -5.6240492987426052e-05 2.0748992134194409e-05 -5.236736369456807 -6.694129976862802e-05 -6.8773547271868015e-06 -9.0850799483852231 -1.6378725507302206e-05 5.8675802566367364e-05 -9.3045125212341553 -7.6524307948240314e-05 7.7827650563770415e-05 -6.9495308801107596 1.6662709450967341e-05 0.00014899939696359503 -11.102939896757109 2.4429394386670148e-05 5.6012073672620289e-05 -12.799578360759934 -1.6378725507302206e-05 5.8675802566367364e-05 -9.3045125212341553 8.0960162176960904e-05 7.3383467258547228e-05 -9.6855741452977107 -8.4611311785439785e-05 -9.3302958677176376e-05 -5.617728127371528 -0.00016979381779081649 -9.803490899465116e-05 -8.8147511330287305 -8.9172160982197956e-05 -0.00016884375536200977 -8.8147519431090195 -5.0200917297891034e-05 -4.8342676842918368e-05 -6.726448593125637 -8.7653089566767613e-05 0.00010853791031824606 -14.993151375136735 -0.00010846110142926469 7.9501961558041425e-05 -14.993149257157482 -8.3446772044337979e-05 8.1301658715782454e-05 -10.999402634395079 -2.6682865744602645e-05 8.2901261764422175e-05 -14.466540689678979 1.2549565950470023e-06 -1.2686746333718276e-06 -0.0005898419291798519 1.6263159867841794e-05 -5.5077333210460378e-05 -5.3090851068374834 1.5790354917033191e-09 1.7274421563572421e-06 -4.4128120846505423 -2.0854650588357693e-08 -6.0730713035321782e-05 -3.5594661988139373 4.9602271781296304e-05 -0.00011614104442302514 -5.1755782244228534 7.9405039643381855e-05 -7.0205926849341223e-05 -8.8027460820885697 8.7833889406321836e-05 -0.00010277132611476874 -5.6342666417144889 5.0951048088386213e-05 -1.956451354636105e-05 -3.6826625843625407 2.8287087543558091e-05 0.00013865281502691918 -7.618324287753528 -1.6378725507302206e-05 5.8675802566367364e-05 -9.3045125212341553 -1.2627343934002642e-05 3.8318755667570566e-05 -9.0006216737235576 -1.6564643682703435e-06 7.7156788828507104e-05 -4.9733903210620083 2.2165585658258704e-05 2.2492402617214108e-05 -0.00043489229814464958 -0.00012921905810508446 -7.0021853138365481e-05 -2.9608865794027373 -2.0854650588344458e-08 -6.0730713035321728e-05 -3.5594661988139364 -7.3030749525209961e-05 2.3975177379793592e-06 -3.5694862793977458 1.307932220491518e-06 1.2784988515808176e-06 -0.00055442003995552372 4.5546797332216345e-05 3.9478873602407764e-05 -5.6893943456653879 5.4773534935065782e-10 -1.6771614711411462e-05 -0.00067059287758595998 -1.6564643682703435e-06 7.7156788828507104e-05 -4.9733903210620083 -2.7751890347416883e-06 -0.00017011134053490407 -14.329813472429908 -2.8639546100785808e-06 -9.6867148962360804e-05 -18.000675161013572 4.9810081526577643e-05 -0.0001097038000559613 -15.629992958221699 2.9521752799243031e-05 -5.7240675923380893e-05 -12.621064737262351 -8.7653089566767613e-05 0.00010853791031824606 -14.993151375136735 -9.6001516817300101e-05 9.5508419293289482e-05 -18.00066461404667 -0.00010846110142926469 7.9501961558041425e-05 -14.993149257157482 -2.6682865744602648e-05 8.2901261764422175e-05 -14.466540689678981 4.9602271781296304e-05 -0.00011614104442302514 -5.1755782244228534 1.626315986784178e-05 -5.5077333210460371e-05 -5.3090851068374825 7.9405039643381883e-05 -7.0205926849341223e-05 -8.8027460820885715 5.0951048088386213e-05 -1.956451354636105e-05 -3.6826625843625407 -1.2527878667765527e-06 -1.2653930224785853e-06 -0.00059372002650813255 -2.0854650588357693e-08 -6.0730713035321782e-05 -3.5594661988139373 1.5790354917020587e-09 1.7274421563572421e-06 -4.4128120846505423 -7.3030749525209975e-05 2.3975177379793816e-06 -3.5694862793977458 4.9602271781296304e-05 -0.00011614104442302514 -5.1755782244228534 2.3816106115514376e-05 -0.00011941717449393304 -2.3855482341187906 1.6263159867841811e-05 -5.5077333210460371e-05 -5.3090851068374834 5.0951048088386213e-05 -1.956451354636105e-05 -3.6826625843625407 5.15697652357654e-05 -9.3985453914083108e-05 -18.000670712283444 8.0493022879137485e-05 -3.6451471731657108e-05 -14.495336684488498 9.306479326964633e-05 -9.3524415142361278e-05 -18.000666523136452 7.6545272793753142e-05 -7.6033936656246171e-05 -12.121545869076563 -8.4142756444938123e-05 -0.00013020041310762154 -3.0080837665246687 2.2165585658258704e-05 2.2492402617214108e-05 -0.00043489229814464958 -0.00012921905810508446 -7.0021853138365508e-05 -2.9608865794027373 -2.0854650588364505e-08 -6.0730713035321789e-05 -3.5594661988139373 1.6662709450967341e-05 0.00014899939696359503 -11.102939896757109 -1.6378725507302199e-05 5.8675802566367357e-05 -9.3045125212341535 2.8287087543558091e-05 0.00013865281502691918 -7.618324287753528 8.0960162176960904e-05 7.3383467258547228e-05 -9.6855741452977107 2.1261878906521027e-05 -0.00014824700915822139 -11.370451049443266 -3.342604576321181e-06 -6.7044351759096803e-05 -9.1330429370720019 2.9521752799243045e-05 -5.72406759233809e-05 -12.621064737262353 7.9405039643381855e-05 -7.0205926849341223e-05 -8.8027460820885697 5.4773534935065782e-10 -1.6771614711411462e-05 -0.00067059287758595998 4.1004609500944619e-06 -2.1126803761504396e-05 -0.00039717469118998283 9.0830632948897314e-06 0.00019055602151530425 -3.6714755132175751 -1.6564643682703435e-06 7.7156788828507104e-05 -4.9733903210620083 0.00012330048295242609 4.5914869839652822e-05 -5.1755802182686654 4.5546797332216365e-05 3.9478873602407737e-05 -5.6893943456653879 0.00019053028110948623 -9.8664276415750633e-06 -3.6714654017106798 7.9261457644039823e-05 -4.1183770571985217e-07 -6.2674520662278761 4.8387152535928634e-05 0.00012329120096818714 -5.17556033192536 9.0830632948897365e-06 0.0001905560215153042 -3.6714755132175747 2.9443526199445825e-05 0.00012257184513441317 -2.3349430557664204 -1.6564643682703435e-06 7.7156788828507104e-05 -4.9733903210620083 5.6539516930375717e-05 -5.4576642578592401e-05 -18.000671982755154 5.1569765235765407e-05 -9.3985453914083108e-05 -18.000670712283444 2.9521752799243031e-05 -5.7240675923380893e-05 -12.621064737262351 8.0493022879137485e-05 -3.6451471731657108e-05 -14.495336684488498 0.00013866063657257767 3.4726847636437595e-05 -7.6183301229442737 3.8316703147187174e-05 -1.112174678206273e-05 -9.0006162880699616 6.8147818390345004e-05 5.0895768895878195e-06 -10.498144294815184 7.9261457644039756e-05 -4.1183770571982162e-07 -6.2674520662278805 0.00014240246500908858 -3.4757652514682904e-05 -10.254426118540231 6.8147818390345004e-05 5.0895768895878238e-06 -10.498144294815184 3.8316703147187174e-05 -1.112174678206273e-05 -9.0006162880699616 7.9405039643381855e-05 -7.0205926849341223e-05 -8.8027460820885697 -2.863954610078583e-06 -9.6867148962360804e-05 -18.000675161013572 -3.5071528866108964e-05 -2.3705979299402097e-05 -18.000671888639943 1.8896097576705478e-05 -3.7956718740192119e-05 -18.000670564196778 -3.3186120504961269e-06 -3.2136361273681928e-06 -13.645042525665012 2.1261878906521027e-05 -0.00014824700915822139 -11.370451049443266 7.9405039643381883e-05 -7.020592684934121e-05 -8.8027460820885697 2.9521752799243051e-05 -5.72406759233809e-05 -12.621064737262353 7.6545272793753129e-05 -7.6033936656246158e-05 -12.121545869076563 -2.00471327014601e-05 3.5557790497135624e-05 -18.000670357277816 -3.5071528866108971e-05 -2.3705979299402093e-05 -18.000671888639946 -5.6505137840680834e-05 2.9896109673363036e-05 -12.621063802052849 -3.3186120504961269e-06 -3.2136361273681928e-06 -13.645042525665012 1.307932220491518e-06 1.2784988515808176e-06 -0.00055442003995552372 -1.6772239871486523e-05 1.1529091885863168e-07 -0.00069016881923179081 8.920217385652176e-06 8.9090879500314305e-06 -0.00052177227551358687 4.5546797332216365e-05 3.9478873602407737e-05 -5.6893943456653879 -2.863954610078583e-06 -9.6867148962360804e-05 -18.000675161013572 -5.4108181290384361e-05 -5.6072134553941171e-05 -18.000672736692767 -3.5071528866108971e-05 -2.3705979299402093e-05 -18.000671888639946 -4.8258265288144023e-05 -4.790384611231278e-05 -12.3117846384917 5.4773534935065782e-10 -1.6771614711411462e-05 -0.00067059287758595998 1.307932220491518e-06 1.2784988515808176e-06 -0.00055442003995552372 8.920217385652176e-06 8.9090879500314305e-06 -0.00052177227551358687 4.5546797332216365e-05 3.9478873602407737e-05 -5.6893943456653879 1.6662709450967341e-05 0.00014899939696359503 -11.102939896757109 -1.6378725507302192e-05 5.8675802566367364e-05 -9.3045125212341553 2.4429394386670131e-05 5.601207367262031e-05 -12.799578360759936 -2.6682865744602655e-05 8.2901261764422175e-05 -14.466540689678981 0.00017539250360019371 9.5460897868590415e-05 -9.1864773721589863 8.9520310650679534e-05 0.00010752863126185367 -5.598001250935206 0.00010752456001454087 8.7057162839067402e-05 -5.5980074561327084 8.0960162176960904e-05 7.3383467258547228e-05 -9.6855741452977089 -0.00010931962568937949 4.624928236212659e-05 -15.629987702568473 -9.1883647489109422e-05 -1.1501545984556938e-06 -18.000675036697739 -0.00017041205436010796 -3.5017849039651094e-06 -14.329810100346082 -5.6505137840680834e-05 2.9896109673363036e-05 -12.621063802052849 3.8316703147187174e-05 -1.112174678206273e-05 -9.0006162880699616 0.00013973475214910672 -1.3907646487358678e-05 -6.8945626467498471 7.9405039643381855e-05 -7.020592684934121e-05 -8.8027460820885697 7.9261457644039742e-05 -4.1183770571983835e-07 -6.2674520662278796 4.8387152535928634e-05 0.00012329120096818714 -5.17556033192536 8.9520310650679521e-05 0.00010752863126185365 -5.598001250935206 8.6430250018239643e-05 0.00017539644862922952 -9.1864751415221715 8.0960162176960904e-05 7.3383467258547228e-05 -9.6855741452977107 -1.7144964725052401e-05 0.00013971569456777236 -6.8945721045996571 -1.2627343934002642e-05 3.8318755667570566e-05 -9.0006216737235576 -1.637872550730222e-05 5.8675802566367446e-05 -9.3045125212341553 -1.6564643682703435e-06 7.7156788828507104e-05 -4.9733903210620083 -5.6505137840680834e-05 2.9896109673363036e-05 -12.621063802052849 -6.694129976862802e-05 -6.8773547271868015e-06 -9.0850799483852231 -0.00014649689900554012 1.9296323995193307e-05 -11.366767847644363 -8.3446772044337979e-05 8.1301658715782454e-05 -10.999402634395079 -0.0001381689971228937 -4.7401216076933854e-05 -10.24185636007982 -0.00014649689900554012 1.9296323995193301e-05 -11.366767847644361 -0.00017041205436010796 -3.5017849039651094e-06 -14.329810100346082 -6.694129976862802e-05 -6.8773547271868065e-06 -9.0850799483852249 2.8287087543558091e-05 0.00013865281502691918 -7.618324287753528 4.5546797332216352e-05 3.9478873602407723e-05 -5.6893943456653879 4.8387152535928634e-05 0.00012329120096818714 -5.17556033192536 8.0960162176960891e-05 7.3383467258547228e-05 -9.6855741452977107 -4.1962284113596218e-05 -0.00014046592821928292 -10.242017581821759 -8.9172160982197956e-05 -0.00016884375536200977 -8.8147519431090195 -5.9697161899044567e-05 -0.00012417189741483465 -12.82564091069537 -4.8258265288144023e-05 -4.790384611231278e-05 -12.3117846384917 -9.1883647489109408e-05 -1.1501545984557046e-06 -18.000675036697739 -3.5071528866108971e-05 -2.3705979299402093e-05 -18.000671888639943 -5.4108181290384361e-05 -5.6072134553941165e-05 -18.000672736692767 -4.825826528814403e-05 -4.7903846112312787e-05 -12.3117846384917 -0.0001381689971228937 -4.7401216076933854e-05 -10.24185636007982 -0.00012438372246389764 -6.0625087616359944e-05 -12.825638381755647 -0.00016979381779081649 -9.803490899465116e-05 -8.8147511330287305 -4.8258265288144023e-05 -4.790384611231278e-05 -12.3117846384917 -1.4698045821591352e-05 -0.00013761125870928874 -6.8954609139249996 -3.342604576321164e-06 -6.704435175909683e-05 -9.1330429370720054 1.6263159867841794e-05 -5.5077333210460378e-05 -5.3090851068374834 -2.0854650588357544e-08 -6.0730713035321782e-05 -3.5594661988139369 9.3439194697136869e-05 -8.2827395234403865e-05 -5.6177301126889931 7.9405039643381869e-05 -7.0205926849341237e-05 -8.8027460820885715 0.00011859675941194662 -4.4644070271330152e-05 -5.1755723784891527 5.0951048088386206e-05 -1.9564513546361046e-05 -3.6826625843625402 -6.694129976862802e-05 -6.8773547271868015e-06 -9.0850799483852231 -7.6524307948240328e-05 7.7827650563770415e-05 -6.9495308801107605 -0.00014370728753097112 3.4751910473935157e-05 -7.7467946299795249 -8.3446772044337965e-05 8.1301658715782454e-05 -10.999402634395079 0.00014900175010754471 2.0815885683260405e-05 -11.102943129774127 0.00012674247838549376 5.2158959898735568e-05 -12.825631568285278 6.9265464142664049e-05 7.0021014440316184e-05 -13.496998911780246 6.0218220723293502e-05 3.7905338856226064e-06 -14.394471404099082 -4.1962284113596218e-05 -0.00014046592821928292 -10.242017581821759 -5.9697161899044567e-05 -0.00012417189741483465 -12.82564091069537 -2.7751890347416883e-06 -0.00017011134053490407 -14.329813472429908 -4.8258265288144023e-05 -4.790384611231278e-05 -12.3117846384917 -0.0001381689971228937 -4.7401216076933854e-05 -10.24185636007982 -0.00017041205436010796 -3.5017849039651094e-06 -14.329810100346082 -0.00012438372246389764 -6.0625087616359944e-05 -12.825638381755647 -4.8258265288144023e-05 -4.790384611231278e-05 -12.3117846384917 6.0294243165696023e-05 -0.00012084787808519034 -12.825639986840683 2.9521752799243031e-05 -5.7240675923380893e-05 -12.621064737262351 4.9810081526577643e-05 -0.0001097038000559613 -15.629992958221699 7.6545272793753142e-05 -7.6033936656246171e-05 -12.121545869076563 -0.00014303644449300355 -1.6024951932374311e-05 -6.904434593644531 -5.6240492987426052e-05 2.0748992134194409e-05 -5.236736369456807 -6.694129976862802e-05 -6.8773547271867998e-06 -9.0850799483852249 -7.3030749525209975e-05 2.3975177379793825e-06 -3.5694862793977458 0.00013866063657257767 3.4726847636437595e-05 -7.6183301229442737 4.5546797332216352e-05 3.9478873602407737e-05 -5.689394345665387 7.9261457644039728e-05 -4.1183770571984132e-07 -6.2674520662278796 8.0960162176960918e-05 7.3383467258547228e-05 -9.6855741452977107 9.1168980855097344e-05 4.4554056855968427e-05 -18.000663573981956 6.9265464142664036e-05 7.002101444031617e-05 -13.496998911780246 0.00010888496145769071 4.6702923795040723e-05 -15.639420603690638 6.0218220723293475e-05 3.790533885622598e-06 -14.394471404099082 6.8147818390345004e-05 5.0895768895878238e-06 -10.498144294815184 0.00014240246500908858 -3.4757652514682904e-05 -10.254426118540231 8.0493022879137485e-05 -3.6451471731657108e-05 -14.4953366844885 7.6545272793753142e-05 -7.6033936656246171e-05 -12.121545869076563 2.9521752799243031e-05 -5.7240675923380893e-05 -12.621064737262351 6.8147818390345018e-05 5.0895768895878323e-06 -10.498144294815184 8.0493022879137485e-05 -3.6451471731657108e-05 -14.495336684488498 7.6545272793753142e-05 -7.6033936656246171e-05 -12.121545869076563 -1.3137928908867445e-06 1.2688005747969504e-06 -0.00056231677521304468 1.5790354917033191e-09 1.7274421563572421e-06 -4.4128120846505423 1.307932220491518e-06 1.2784988515808176e-06 -0.00055442003995552372 -1.6564643682703435e-06 7.7156788828507104e-05 -4.9733903210620083 -1.2527878667765527e-06 -1.2653930224785853e-06 -0.00059372002650813255 1.5790354917033191e-09 1.7274421563572421e-06 -4.4128120846505423 -5.6240492987426052e-05 2.0748992134194395e-05 -5.236736369456807 -7.3030749525209975e-05 2.3975177379793672e-06 -3.5694862793977458 -2.6032374485094275e-08 1.6731868442410117e-05 -0.00070466061880543752 -1.1898554813613883e-05 -0.00018946280387750514 -3.6714622322058275 4.5248191570086891e-06 2.1635632741839188e-05 -0.00043076803198283391 1.6263159867841794e-05 -5.5077333210460378e-05 -5.3090851068374834 0.00013866063657257767 3.4726847636437595e-05 -7.6183301229442737 7.9261457644039742e-05 -4.1183770571986217e-07 -6.2674520662278805 6.8147818390345004e-05 5.0895768895878187e-06 -10.498144294815184 8.0960162176960918e-05 7.3383467258547201e-05 -9.6855741452977107 1.2549565950470023e-06 -1.2686746333718276e-06 -0.0005898419291798519 1.5790354917033191e-09 1.7274421563572421e-06 -4.4128120846505423 -1.2527878667765527e-06 -1.2653930224785853e-06 -0.00059372002650813255 -2.0854650588357693e-08 -6.0730713035321782e-05 -3.5594661988139373 -5.7561436164462446e-06 0.00017660997139305813 -14.329809626167156 4.4250835695460036e-05 0.00010889080461882123 -15.639422505258914 -4.0829326978900883e-06 9.146802360054628e-05 -18.000672145201957 2.4429394386670141e-05 5.6012073672620296e-05 -12.799578360759936 -1.4698045821591352e-05 -0.00013761125870928874 -6.8954609139249996 -5.0200917297891034e-05 -4.8342676842918368e-05 -6.726448593125637 -4.1962284113596218e-05 -0.00014046592821928292 -10.242017581821759 -3.342604576321164e-06 -6.7044351759096803e-05 -9.1330429370720037 -0.0001381689971228937 -4.7401216076933854e-05 -10.24185636007982 -5.0200917297891034e-05 -4.8342676842918368e-05 -6.726448593125637 -0.00014303644449300355 -1.6024951932374311e-05 -6.904434593644531 -6.6941299768628006e-05 -6.8773547271867845e-06 -9.0850799483852231 -4.1280735576664007e-06 -2.1740457975472143e-05 -0.00043806827866045491 -1.6564643682703461e-06 7.7156788828507117e-05 -4.9733903210620083 -2.3079697332883424e-05 0.00012950253270263394 -2.3712138669757743 -5.551744166254126e-05 3.0319446361409032e-05 -3.388047273667623 -2.7751890347416883e-06 -0.00017011134053490407 -14.329813472429908 2.126187890652102e-05 -0.00014824700915822136 -11.370451049443265 -4.1962284113596218e-05 -0.00014046592821928292 -10.242017581821759 -3.342604576321164e-06 -6.7044351759096803e-05 -9.1330429370720037 8.5195898646498415e-05 -0.00010881118980917008 -14.993153539680677 4.9810081526577643e-05 -0.0001097038000559613 -15.629992958221699 5.15697652357654e-05 -9.3985453914083108e-05 -18.000670712283444 7.6545272793753142e-05 -7.6033936656246171e-05 -12.121545869076563 -4.6268174728439357e-05 -0.00011912175942803325 -5.1755936179622068 -8.4611311785439785e-05 -9.3302958677176376e-05 -5.617728127371528 -8.9172160982197956e-05 -0.00016884375536200977 -8.8147519431090195 -5.0200917297891027e-05 -4.8342676842918374e-05 -6.726448593125637 0.00010888496145769071 4.6702923795040723e-05 -15.639420603690638 6.9265464142664049e-05 7.0021014440316143e-05 -13.496998911780246 0.00012674247838549376 5.2158959898735568e-05 -12.825631568285278 6.0218220723293448e-05 3.7905338856226149e-06 -14.394471404099081 -9.4692071284310412e-05 -8.4085900453570911e-05 -5.5504956534356733 -0.00012002657329742926 -4.3922659991772494e-05 -5.1755921476215931 -0.00016979381779081649 -9.803490899465116e-05 -8.8147511330287305 -5.0200917297891034e-05 -4.8342676842918368e-05 -6.726448593125637 5.0052634869892587e-05 5.0642163338754964e-05 -18.000662912316056 2.4429394386670148e-05 5.6012073672620296e-05 -12.799578360759936 4.4987189988489345e-05 9.1844703327528701e-05 -18.000662540503793 6.9265464142664009e-05 7.002101444031617e-05 -13.496998911780244 5.6539516930375717e-05 -5.4576642578592401e-05 -18.000671982755154 5.15697652357654e-05 -9.3985453914083108e-05 -18.000670712283444 -2.863954610078583e-06 -9.6867148962360804e-05 -18.000675161013572 2.9521752799243031e-05 -5.7240675923380893e-05 -12.621064737262351 9.3439194697136869e-05 -8.2827395234403865e-05 -5.6177301126889931 8.7833889406321823e-05 -0.00010277132611476874 -5.634266641714488 0.00016860054293033356 -9.2093665196779889e-05 -8.8147452728003532 7.9405039643381855e-05 -7.0205926849341223e-05 -8.8027460820885697 2.4429394386670141e-05 5.6012073672620296e-05 -12.799578360759936 -3.3186120504961226e-06 -3.2136361273681869e-06 -13.64504252566501 6.8147818390345004e-05 5.0895768895878221e-06 -10.498144294815184 6.0218220723293462e-05 3.790533885622609e-06 -14.394471404099082 1.6263159867841794e-05 -5.5077333210460378e-05 -5.3090851068374834 -3.342604576321164e-06 -6.7044351759096803e-05 -9.1330429370720037 3.1982287958098758e-05 -0.00014592668759744643 -7.6410804282647513 7.9405039643381855e-05 -7.0205926849341223e-05 -8.8027460820885697 0.00012330048295242609 4.5914869839652822e-05 -5.1755802182686654 0.00013866063657257764 3.4726847636437595e-05 -7.6183301229442737 4.5546797332216365e-05 3.9478873602407737e-05 -5.6893943456653879 7.9261457644039742e-05 -4.1183770571982178e-07 -6.2674520662278805 6.8147818390345004e-05 5.0895768895878238e-06 -10.498144294815184 8.0960162176960891e-05 7.3383467258547242e-05 -9.6855741452977107 2.4429394386670175e-05 5.6012073672620296e-05 -12.799578360759936 6.0218220723293475e-05 3.790533885622598e-06 -14.394471404099082 1.6263159867841794e-05 -5.5077333210460378e-05 -5.3090851068374834 -3.3426045763211509e-06 -6.704435175909683e-05 -9.1330429370720037 -5.0200917297891068e-05 -4.8342676842918341e-05 -6.726448593125637 -2.0854650588357693e-08 -6.0730713035321782e-05 -3.5594661988139373 6.8147818390345004e-05 5.0895768895878238e-06 -10.498144294815184 7.9261457644039742e-05 -4.1183770571983676e-07 -6.2674520662278796 4.5546797332216365e-05 3.9478873602407737e-05 -5.6893943456653879 8.0960162176960904e-05 7.3383467258547228e-05 -9.6855741452977107 8.7621889359318754e-05 9.8645683594210482e-05 -12.450747877761467 8.0960162176960891e-05 7.3383467258547228e-05 -9.6855741452977107 9.8640639505258581e-05 8.4880877226723323e-05 -12.450741823965712 6.9265464142664022e-05 7.0021014440316157e-05 -13.496998911780246 1.2549565950470023e-06 -1.2686746333718276e-06 -0.0005898419291798519 1.1177210907078389e-08 7.3718661843508902e-09 -0.00016925968704486211 -1.2527878667765527e-06 -1.2653930224785851e-06 -0.00059372002650782572 1.5790354917033191e-09 1.7274421563572421e-06 -4.4128120846505423 -5.6505137840680834e-05 2.9896109673363036e-05 -12.621063802052849 -3.3186120504961188e-06 -3.2136361273682043e-06 -13.645042525665012 2.4429394386670141e-05 5.6012073672620296e-05 -12.799578360759936 -2.6682865744602655e-05 8.2901261764422175e-05 -14.466540689678979 8.5195898646498415e-05 -0.00010881118980917008 -14.993153539680677 5.15697652357654e-05 -9.3985453914083108e-05 -18.000670712283444 9.306479326964633e-05 -9.3524415142361278e-05 -18.000666523136452 7.6545272793753142e-05 -7.6033936656246171e-05 -12.121545869076563 4.5248191570086891e-06 2.1635632741839188e-05 -0.00043076803198283391 9.2194204691449542e-06 -9.2464976857869024e-06 -0.00050287923417455715 1.6263159867841787e-05 -5.5077333210460378e-05 -5.3090851068374825 5.0951048088386213e-05 -1.956451354636105e-05 -3.6826625843625407 -1.4698045821591352e-05 -0.00013761125870928874 -6.8954609139249996 -5.0200917297891034e-05 -4.8342676842918368e-05 -6.726448593125637 -3.3426045763211708e-06 -6.7044351759096803e-05 -9.1330429370720054 -2.0854650588370388e-08 -6.0730713035321789e-05 -3.5594661988139378 2.4429394386670141e-05 5.6012073672620296e-05 -12.799578360759936 -3.318612050496123e-06 -3.2136361273681839e-06 -13.645042525665012 -2.0047132701460084e-05 3.5557790497135624e-05 -18.000670357277816 -2.6682865744602662e-05 8.2901261764422175e-05 -14.466540689678981 -1.3137928908867445e-06 1.2688005747969504e-06 -0.00056231677521304468 -5.6240492987426045e-05 2.0748992134194405e-05 -5.2367363694568061 1.5790354917103892e-09 1.7274421563572514e-06 -4.4128120846505423 -1.6564643682703323e-06 7.7156788828507117e-05 -4.9733903210620083 -5.357455085872124e-05 5.6177361836313795e-05 -18.000671144736074 -9.1883647489109408e-05 -1.1501545984557046e-06 -18.000675036697739 -9.2094118281700599e-05 5.0247826413477698e-05 -18.000668314221063 -5.6505137840680834e-05 2.9896109673363036e-05 -12.621063802052849 8.6430250018239643e-05 0.00017539644862922952 -9.1864751415221715 8.9520310650679507e-05 0.00010752863126185365 -5.598001250935206 0.00017539250360019371 9.5460897868590415e-05 -9.1864773721589863 8.0960162176960904e-05 7.3383467258547228e-05 -9.6855741452977107 -0.00014303644449300355 -1.6024951932374311e-05 -6.904434593644531 -5.6240492987426052e-05 2.0748992134194409e-05 -5.236736369456807 -0.00014370728753097109 3.4751910473935164e-05 -7.7467946299795258 -6.6941299768627993e-05 -6.8773547271868065e-06 -9.0850799483852231 -5.6240492987426052e-05 2.0748992134194409e-05 -5.236736369456807 -1.6564643682703495e-06 7.715678882850709e-05 -4.9733903210620083 -8.8725345705609239e-06 9.2010091284365427e-06 -0.00049743935087187086 -5.551744166254126e-05 3.0319446361409032e-05 -3.388047273667623 2.4429394386670141e-05 5.6012073672620296e-05 -12.799578360759936 8.0960162176960904e-05 7.3383467258547215e-05 -9.6855741452977107 5.2100748911302167e-05 0.00012673960035518601 -12.825631691884411 6.9265464142664036e-05 7.0021014440316157e-05 -13.496998911780247 -5.0200917297891034e-05 -4.8342676842918368e-05 -6.726448593125637 -6.6941299768628033e-05 -6.8773547271867921e-06 -9.0850799483852249 -5.6240492987426052e-05 2.0748992134194409e-05 -5.236736369456807 -7.3030749525209961e-05 2.397517737979377e-06 -3.5694862793977453 4.4250835695460036e-05 0.00010889080461882123 -15.639422505258914 2.4429394386670141e-05 5.6012073672620303e-05 -12.799578360759936 5.2100748911302174e-05 0.00012673960035518601 -12.825631691884411 6.9265464142664022e-05 7.0021014440316184e-05 -13.496998911780246 -2.7751890347416883e-06 -0.00017011134053490407 -14.329813472429908 4.9810081526577643e-05 -0.0001097038000559613 -15.629992958221699 6.0294243165696023e-05 -0.00012084787808519034 -12.825639986840683 2.9521752799243031e-05 -5.7240675923380893e-05 -12.621064737262351 -0.00010931962568937949 4.624928236212659e-05 -15.629987702568473 -0.00017041205436010796 -3.501784903965109e-06 -14.329810100346082 -0.00012260694386324376 5.8225072929117639e-05 -12.825635291146 -5.6505137840680834e-05 2.9896109673363036e-05 -12.621063802052849 -1.4698045821591352e-05 -0.00013761125870928874 -6.8954609139249996 3.1982287958098758e-05 -0.00014592668759744643 -7.6410804282647513 1.6263159867841794e-05 -5.5077333210460358e-05 -5.3090851068374816 -3.342604576321164e-06 -6.7044351759096803e-05 -9.1330429370720037 4.8387152535928634e-05 0.00012329120096818714 -5.17556033192536 4.5546797332216352e-05 3.947887360240775e-05 -5.6893943456653879 2.8287087543558091e-05 0.00013865281502691918 -7.618324287753528 -1.6564643682703435e-06 7.7156788828507104e-05 -4.9733903210620083 -0.00014303644449300355 -1.6024951932374311e-05 -6.904434593644531 -6.6941299768627993e-05 -6.8773547271867777e-06 -9.0850799483852231 -5.0200917297891034e-05 -4.8342676842918368e-05 -6.726448593125637 -7.3030749525209988e-05 2.3975177379793532e-06 -3.5694862793977467 8.0960162176960904e-05 7.3383467258547228e-05 -9.6855741452977107 6.9265464142664022e-05 7.002101444031617e-05 -13.496998911780244 2.4429394386670141e-05 5.6012073672620296e-05 -12.799578360759936 6.0218220723293475e-05 3.790533885622598e-06 -14.394471404099082 2.9521752799243031e-05 -5.7240675923380893e-05 -12.621064737262351 7.9405039643381842e-05 -7.0205926849341223e-05 -8.8027460820885697 6.8147818390345004e-05 5.0895768895878551e-06 -10.498144294815184 7.6545272793753142e-05 -7.6033936656246171e-05 -12.121545869076563 0.00019053028110948625 -9.8664276415750734e-06 -3.6714654017106789 7.9261457644039728e-05 -4.1183770571983523e-07 -6.2674520662278805 -1.6772239871486526e-05 1.1529091885863169e-07 -0.00069016881923152648 5.0951048088386192e-05 -1.956451354636104e-05 -3.6826625843625402 6.8147818390345004e-05 5.0895768895878238e-06 -10.498144294815184 7.9405039643381855e-05 -7.0205926849341223e-05 -8.8027460820885697 0.00014240246500908858 -3.4757652514682904e-05 -10.254426118540231 7.6545272793753142e-05 -7.6033936656246171e-05 -12.121545869076563 0.00012330048295242609 4.5914869839652822e-05 -5.1755802182686654 0.00017539250360019371 9.5460897868590415e-05 -9.1864773721589863 0.00010752456001454087 8.7057162839067402e-05 -5.5980074561327084 8.096016217696085e-05 7.3383467258547215e-05 -9.6855741452977089 6.8147818390345004e-05 5.0895768895878238e-06 -10.498144294815184 -3.3186120504961125e-06 -3.2136361273682022e-06 -13.64504252566501 2.9521752799243031e-05 -5.724067592338092e-05 -12.621064737262351 6.0218220723293469e-05 3.7905338856225975e-06 -14.394471404099082 2.1261878906521027e-05 -0.00014824700915822139 -11.370451049443266 3.1982287958098758e-05 -0.00014592668759744643 -7.6410804282647513 -3.342604576321189e-06 -6.7044351759096789e-05 -9.1330429370720037 7.9405039643381855e-05 -7.0205926849341223e-05 -8.8027460820885697 8.7621889359318754e-05 9.8645683594210482e-05 -12.450747877761467 0.00017539250360019376 9.5460897868590415e-05 -9.1864773721589827 9.8640639505258581e-05 8.4880877226723323e-05 -12.450741823965712 8.0960162176960904e-05 7.3383467258547228e-05 -9.6855741452977107 2.4429394386670141e-05 5.6012073672620296e-05 -12.799578360759936 -1.6378725507302206e-05 5.8675802566367364e-05 -9.3045125212341553 -5.6505137840680834e-05 2.9896109673363036e-05 -12.621063802052849 -2.6682865744602655e-05 8.2901261764422188e-05 -14.466540689678983 -0.00014370728753097109 3.4751910473935164e-05 -7.7467946299795258 -0.00014649689900554012 1.9296323995193301e-05 -11.366767847644361 -6.6941299768627993e-05 -6.8773547271868167e-06 -9.0850799483852214 -8.3446772044337979e-05 8.1301658715782454e-05 -10.999402634395079 0.00014900175010754471 2.0815885683260405e-05 -11.102943129774127 0.00012674247838549376 5.2158959898735568e-05 -12.825631568285278 8.0960162176960904e-05 7.3383467258547228e-05 -9.6855741452977107 6.9265464142664036e-05 7.002101444031617e-05 -13.496998911780246 -5.6505137840680834e-05 2.9896109673363036e-05 -12.621063802052849 -2.0047132701460107e-05 3.5557790497135624e-05 -18.000670357277816 -3.3186120504961209e-06 -3.2136361273681937e-06 -13.645042525665012 -2.6682865744602658e-05 8.2901261764422175e-05 -14.466540689678981 -0.00014370728753097109 3.4751910473935164e-05 -7.7467946299795258 -6.694129976862802e-05 -6.8773547271868099e-06 -9.0850799483852231 -5.6240492987426066e-05 2.0748992134194395e-05 -5.236736369456807 -7.6524307948240314e-05 7.7827650563770442e-05 -6.9495308801107623 0.00012330048295242609 4.5914869839652822e-05 -5.1755802182686654 4.5546797332216365e-05 3.9478873602407737e-05 -5.6893943456653879 0.00013866063657257767 3.4726847636437588e-05 -7.6183301229442737 8.0960162176960931e-05 7.3383467258547242e-05 -9.6855741452977107 1.8896097576705478e-05 -3.7956718740192119e-05 -18.000670564196778 2.9521752799243028e-05 -5.7240675923380866e-05 -12.621064737262353 -3.3186120504961459e-06 -3.213636127368181e-06 -13.645042525665012 6.0218220723293462e-05 3.7905338856225853e-06 -14.394471404099082 0.00014900175010754471 2.0815885683260405e-05 -11.102943129774127 0.00013866063657257767 3.4726847636437595e-05 -7.6183301229442737 3.8316703147187174e-05 -1.112174678206273e-05 -9.0006162880699616 6.8147818390345004e-05 5.0895768895878238e-06 -10.498144294815184 -0.00019407860848646923 -9.9037520939548227e-06 -3.6714527506896903 2.1004620020276482e-05 4.5431099924851995e-06 -0.00039390072221281839 -0.00012281521162747783 3.1514557574876092e-05 -2.3349605254838588 -5.551744166254126e-05 3.0319446361409035e-05 -3.3880472736676239 0.00014240246500908858 -3.4757652514682904e-05 -10.254426118540231 3.8316703147187174e-05 -1.1121746782062732e-05 -9.0006162880699616 0.00013973475214910672 -1.3907646487358678e-05 -6.8945626467498471 7.9405039643381855e-05 -7.0205926849341223e-05 -8.8027460820885697 -1.3137928908867445e-06 1.2688005747969504e-06 -0.00056231677521304468 -5.6240492987426045e-05 2.0748992134194405e-05 -5.2367363694568061 -1.2527878667765546e-06 -1.2653930224785847e-06 -0.00059372002650812171 1.5790354917033191e-09 1.7274421563572421e-06 -4.4128120846505423 2.3816106115514376e-05 -0.00011941717449393304 -2.3855482341187906 -1.1898554813613883e-05 -0.00018946280387750514 -3.6714622322058275 4.9602271781296304e-05 -0.00011614104442302514 -5.1755782244228534 1.6263159867841794e-05 -5.5077333210460378e-05 -5.3090851068374834 5.0052634869892587e-05 5.0642163338754964e-05 -18.000662912316056 -4.0829326978900883e-06 9.146802360054628e-05 -18.000672145201957 4.4987189988489345e-05 9.1844703327528701e-05 -18.000662540503793 2.4429394386670141e-05 5.6012073672620296e-05 -12.799578360759936 -4.1280735576664007e-06 -2.1740457975472143e-05 -0.00043806827866045491 9.0830632948897314e-06 0.00019055602151530425 -3.6714755132175751 -2.3079697332883424e-05 0.00012950253270263394 -2.3712138669757743 -1.6564643682703435e-06 7.7156788828507104e-05 -4.9733903210620083 9.3439194697136869e-05 -8.2827395234403865e-05 -5.6177301126889931 8.7641720475871817e-05 -0.00013114573119797865 -3.0080721413409681 8.7833889406321823e-05 -0.00010277132611476872 -5.6342666417144907 5.0951048088386213e-05 -1.956451354636105e-05 -3.6826625843625407 4.5248191570086891e-06 2.1635632741839188e-05 -0.00043076803198283391 2.3816106115514376e-05 -0.00011941717449393304 -2.3855482341187906 -2.2512219567563313e-05 2.2885653958159277e-05 -0.00043265007389196609 5.0951048088386213e-05 -1.956451354636105e-05 -3.6826625843625407 -1.7144964725052401e-05 0.00013971569456777236 -6.8945721045996571 2.8287087543558091e-05 0.00013865281502691918 -7.618324287753528 -1.2627343934002642e-05 3.8318755667570566e-05 -9.0006216737235576 -1.6564643682703435e-06 7.7156788828507104e-05 -4.9733903210620083 4.9602271781296304e-05 -0.00011614104442302514 -5.1755782244228534 1.6263159867841774e-05 -5.5077333210460378e-05 -5.3090851068374816 3.1982287958098758e-05 -0.00014592668759744643 -7.6410804282647513 7.9405039643381869e-05 -7.020592684934121e-05 -8.8027460820885697 -4.1280735576664007e-06 -2.1740457975472143e-05 -0.00043806827866045491 -8.8725345705609137e-06 9.2010091284365343e-06 -0.00049743935087107549 -1.6564643682703435e-06 7.7156788828507104e-05 -4.9733903210620083 -5.551744166254126e-05 3.0319446361409032e-05 -3.388047273667623 1.8896097576705478e-05 -3.7956718740192119e-05 -18.000670564196778 2.9521752799243048e-05 -5.7240675923380879e-05 -12.621064737262353 6.0218220723293469e-05 3.7905338856225798e-06 -14.394471404099082 8.0493022879137485e-05 -3.6451471731657108e-05 -14.495336684488498 -5.7561436164462446e-06 0.00017660997139305813 -14.329809626167156 2.4429394386670155e-05 5.6012073672620289e-05 -12.799578360759936 -4.0829326978900824e-06 9.146802360054628e-05 -18.000672145201953 -2.6682865744602651e-05 8.2901261764422161e-05 -14.466540689678979 -2.6032374485094275e-08 1.6731868442410117e-05 -0.00070466061880543752 -1.1898554813613883e-05 -0.00018946280387750514 -3.6714622322058275 1.6263159867841794e-05 -5.5077333210460392e-05 -5.3090851068374834 -2.0854650588359615e-08 -6.0730713035321789e-05 -3.5594661988139369 9.1168980855097344e-05 4.4554056855968427e-05 -18.000663573981956 0.00010888496145769067 4.6702923795040736e-05 -15.63942060369064 0.00017661196267593142 -3.8696550812257288e-06 -14.329808802062498 6.0218220723293475e-05 3.790533885622598e-06 -14.394471404099082 -2.00471327014601e-05 3.5557790497135624e-05 -18.000670357277816 -3.5071528866108971e-05 -2.3705979299402093e-05 -18.000671888639946 -9.1883647489109408e-05 -1.1501545984557046e-06 -18.000675036697739 -5.6505137840680834e-05 2.9896109673363036e-05 -12.621063802052849 -0.00019407860848646923 -9.9037520939548227e-06 -3.6714527506896903 -5.6240492987426018e-05 2.0748992134194412e-05 -5.2367363694568061 -7.3030749525209934e-05 2.3975177379793799e-06 -3.5694862793977449 -5.5517441662541179e-05 3.0319446361409045e-05 -3.3880472736676208 1.6662709450967341e-05 0.00014899939696359503 -11.102939896757109 5.2100748911302167e-05 0.00012673960035518601 -12.825631691884411 2.4429394386670141e-05 5.6012073672620296e-05 -12.799578360759936 8.0960162176960904e-05 7.3383467258547228e-05 -9.6855741452977107 1.6658313161567762e-05 -4.423944282565793e-09 -0.00068008571925838558 -7.3030749525209961e-05 2.3975177379793778e-06 -3.5694862793977453 -5.6240492987426012e-05 2.0748992134194409e-05 -5.2367363694568061 -5.551744166254126e-05 3.0319446361409032e-05 -3.388047273667623 -5.7561436164462446e-06 0.00017660997139305813 -14.329809626167156 5.2100748911302174e-05 0.00012673960035518601 -12.825631691884411 4.4250835695460036e-05 0.00010889080461882123 -15.639422505258914 2.4429394386670141e-05 5.6012073672620296e-05 -12.799578360759936 9.2194204691449509e-06 -9.2464976857869075e-06 -0.00050287923417428502 -2.6032374485094053e-08 1.6731868442410113e-05 -0.00070466061880564927 4.5248191570086891e-06 2.1635632741839188e-05 -0.00043076803198283391 1.6263159867841794e-05 -5.5077333210460378e-05 -5.3090851068374834 -3.7882672294800167e-05 0.00014241456584638824 -10.254427308345981 -1.6378725507302206e-05 5.8675802566367364e-05 -9.3045125212341553 1.6662709450967341e-05 0.00014899939696359503 -11.102939896757109 -2.6682865744602651e-05 8.2901261764422175e-05 -14.466540689678981 -5.0603240832732144e-05 0.00011860952430756494 -5.1755778464302447 -2.3079697332883424e-05 0.00012950253270263394 -2.3712138669757743 -1.6564643682703435e-06 7.7156788828507104e-05 -4.9733903210620083 -5.551744166254126e-05 3.0319446361409032e-05 -3.388047273667623 -1.3137928908867445e-06 1.2688005747969504e-06 -0.00056231677521304468 -1.2527878667765527e-06 -1.2653930224785853e-06 -0.00059372002650813255 1.1177210907078425e-08 7.3718661843512798e-09 -0.00016925968704480999 1.5790354917033191e-09 1.7274421563572421e-06 -4.4128120846505423 8.6430250018239643e-05 0.00017539644862922952 -9.1864751415221715 2.8287087543558091e-05 0.00013865281502691918 -7.618324287753528 4.8387152535928634e-05 0.00012329120096818714 -5.17556033192536 8.0960162176960904e-05 7.3383467258547228e-05 -9.6855741452977107 9.306479326964633e-05 -9.3524415142361278e-05 -18.000666523136452 8.0493022879137498e-05 -3.6451471731657101e-05 -14.495336684488498 0.00010853713371024812 -9.0149241608151285e-05 -14.993152553998355 7.6545272793753129e-05 -7.6033936656246158e-05 -12.121545869076561 -9.8501906289231295e-05 9.9254572065674408e-05 -12.383504131539162 -9.8921370444029195e-05 0.00010965087083347255 -12.366961761562495 -8.76530895667676e-05 0.00010853791031824604 -14.993151375136737 -8.3446772044337979e-05 8.1301658715782454e-05 -10.999402634395079 0.00017661196267593137 -3.8696550812257152e-06 -14.329808802062496 0.00010888496145769071 4.6702923795040723e-05 -15.639420603690638 0.00012674247838549376 5.2158959898735568e-05 -12.825631568285278 6.0218220723293475e-05 3.790533885622598e-06 -14.394471404099082 0.00017661196267593137 -3.8696550812257152e-06 -14.329808802062496 6.0218220723293475e-05 3.790533885622598e-06 -14.394471404099082 6.8147818390345004e-05 5.0895768895878229e-06 -10.498144294815184 8.0493022879137485e-05 -3.6451471731657115e-05 -14.4953366844885 -1.3137928908867445e-06 1.2688005747969504e-06 -0.00056231677521304468 1.307932220491518e-06 1.2784988515808176e-06 -0.00055442003995552372 5.4773534935065782e-10 -1.6771614711411462e-05 -0.00067059287758595998 -1.656464368270344e-06 7.7156788828507117e-05 -4.9733903210620092 -8.9172160982197956e-05 -0.00016884375536200977 -8.8147519431090195 -4.1962284113596218e-05 -0.00014046592821928292 -10.242017581821759 -1.4698045821591352e-05 -0.00013761125870928874 -6.8954609139249996 -5.0200917297891027e-05 -4.8342676842918368e-05 -6.7264485931256361 2.1261878906521027e-05 -0.00014824700915822139 -11.370451049443266 3.1982287958098745e-05 -0.0001459266875974464 -7.6410804282647513 -3.0041029617888327e-06 -4.300603795127127e-05 -9.0006167108021078 -3.3426045763211721e-06 -6.7044351759096776e-05 -9.1330429370720019 -0.00014303644449300355 -1.6024951932374311e-05 -6.904434593644531 -0.00014370728753097109 3.4751910473935164e-05 -7.7467946299795258 -4.8598117228286016e-05 -5.1591040011501297e-06 -9.0006123883139821 -6.6941299768627993e-05 -6.8773547271868023e-06 -9.0850799483852231 -0.00016979381779081649 -9.803490899465116e-05 -8.8147511330287305 -0.00014303644449300355 -1.6024951932374311e-05 -6.904434593644531 -0.0001381689971228937 -4.7401216076933854e-05 -10.24185636007982 -5.0200917297891034e-05 -4.8342676842918368e-05 -6.726448593125637 -8.8725345705609137e-06 9.2010091284365343e-06 -0.00049743935087107549 -5.6240492987426032e-05 2.0748992134194422e-05 -5.236736369456807 -1.3137928908867468e-06 1.2688005747969487e-06 -0.00056231677521304977 -1.6564643682703584e-06 7.7156788828507076e-05 -4.9733903210620083 2.2165585658258704e-05 2.2492402617214108e-05 -0.00043489229814464958 2.1598517043903137e-05 -4.5349551530117086e-06 -0.00043865864448533665 -0.00012992200822061747 -1.7773041400599733e-05 -2.3618108544173597 -7.3030749525209961e-05 2.397517737979377e-06 -3.5694862793977453 -1.6378725507302206e-05 5.8675802566367364e-05 -9.3045125212341553 -1.6564643682703435e-06 7.7156788828507104e-05 -4.9733903210620083 -5.6240492987426052e-05 2.0748992134194409e-05 -5.236736369456807 -7.6524307948240328e-05 7.7827650563770415e-05 -6.9495308801107605 4.9602271781296304e-05 -0.00011614104442302514 -5.1755782244228534 8.7641720475871817e-05 -0.00013114573119797865 -3.0080721413409695 2.3816106115514376e-05 -0.00011941717449393304 -2.3855482341187906 5.0951048088386213e-05 -1.956451354636105e-05 -3.6826625843625407 -1.63517527619622e-06 -3.7292803831173659e-06 -18.000669493051568 1.8896097576705478e-05 -3.7956718740192119e-05 -18.000670564196778 -3.3186120504961269e-06 -3.2136361273681928e-06 -13.645042525665012 6.0218220723293496e-05 3.7905338856226098e-06 -14.394471404099084 0.00017661196267593137 -3.8696550812257152e-06 -14.329808802062496 6.8147818390345004e-05 5.0895768895878238e-06 -10.498144294815184 0.00014240246500908858 -3.4757652514682904e-05 -10.254426118540231 8.0493022879137485e-05 -3.6451471731657108e-05 -14.495336684488498 -3.7882672294800167e-05 0.00014241456584638824 -10.254427308345981 -8.3446772044337938e-05 8.1301658715782454e-05 -10.999402634395079 -1.6378725507302206e-05 5.8675802566367364e-05 -9.3045125212341553 -2.6682865744602651e-05 8.2901261764422175e-05 -14.466540689678981 -1.4698045821591352e-05 -0.00013761125870928874 -6.8954609139249996 1.6263159867841794e-05 -5.5077333210460378e-05 -5.3090851068374834 -1.1898554813613883e-05 -0.00018946280387750514 -3.6714622322058275 -2.0854650588357693e-08 -6.0730713035321782e-05 -3.5594661988139373 -1.6378725507302206e-05 5.8675802566367364e-05 -9.3045125212341553 -8.3446772044337979e-05 8.1301658715782454e-05 -10.999402634395079 -5.6505137840680834e-05 2.9896109673363039e-05 -12.62106380205285 -2.6682865744602662e-05 8.2901261764422161e-05 -14.466540689678981 9.084675713787726e-05 -0.00017840911715897697 -9.1864885098914577 7.9405039643381855e-05 -7.0205926849341237e-05 -8.8027460820885715 2.1261878906521027e-05 -0.00014824700915822139 -11.370451049443266 7.6545272793753142e-05 -7.6033936656246171e-05 -12.121545869076563 -2.6002565842290503e-05 -0.00012959479575129563 -2.3712497931783316 -4.4450533064651624e-06 2.1815255006633252e-05 -0.00039217012726969273 -8.4142756444938123e-05 -0.00013020041310762154 -3.0080837665246687 -2.0854650588357209e-08 -6.0730713035321782e-05 -3.5594661988139369 -1.4698045821591352e-05 -0.00013761125870928874 -6.8954609139249996 -3.0041029617888327e-06 -4.300603795127127e-05 -9.0006167108021078 3.1982287958098758e-05 -0.00014592668759744643 -7.6410804282647513 -3.342604576321164e-06 -6.7044351759096803e-05 -9.1330429370720037 -2.1765987198921882e-05 -4.6145907378921879e-06 -0.00039086916470327458 0.0001295120193854212 -1.0307441368190861e-05 -2.3712059765106566 -1.6772239871486523e-05 1.1529091885863168e-07 -0.00069016881923179081 5.0951048088386213e-05 -1.956451354636105e-05 -3.6826625843625407 -4.6268174728439357e-05 -0.00011912175942803325 -5.1755936179622068 -8.9172160982197956e-05 -0.00016884375536200977 -8.8147519431090195 -1.4698045821591352e-05 -0.00013761125870928874 -6.8954609139249996 -5.0200917297891034e-05 -4.8342676842918374e-05 -6.726448593125637 -5.1008431132875897e-05 0.00010065864941178387 -18.000666777521658 -8.765308956676764e-05 0.00010853791031824606 -14.993151375136733 -5.2039912642749521e-05 9.7696951456717647e-05 -15.615648350709991 -2.6682865744602648e-05 8.2901261764422161e-05 -14.466540689678979 -0.00016979381779081649 -9.803490899465116e-05 -8.8147511330287305 -0.00012002657329742926 -4.3922659991772494e-05 -5.1755921476215931 -0.00014303644449300355 -1.6024951932374311e-05 -6.904434593644531 -5.0200917297891034e-05 -4.8342676842918368e-05 -6.726448593125637 -2.2512219567563306e-05 2.288565395815928e-05 -0.00043265007389213029 2.3816106115514396e-05 -0.00011941717449393305 -2.3855482341187906 8.7641720475871803e-05 -0.00013114573119797865 -3.008072141340969 5.0951048088386192e-05 -1.9564513546361043e-05 -3.6826625843625402 0.00013028771714509668 -7.6016595063193055e-05 -3.0080741489131615 8.7641720475871803e-05 -0.00013114573119797865 -3.008072141340969 9.3439194697136869e-05 -8.2827395234403865e-05 -5.6177301126889931 5.095104808838622e-05 -1.9564513546361057e-05 -3.6826625843625407 -2.863954610078583e-06 -9.6867148962360804e-05 -18.000675161013572 1.8896097576705478e-05 -3.7956718740192119e-05 -18.000670564196778 5.6539516930375717e-05 -5.4576642578592401e-05 -18.000671982755154 2.9521752799243031e-05 -5.7240675923380893e-05 -12.621064737262351 5.0052634869892587e-05 5.0642163338754964e-05 -18.000662912316056 6.9265464142664036e-05 7.0021014440316157e-05 -13.496998911780246 9.1168980855097344e-05 4.4554056855968427e-05 -18.000663573981956 6.0218220723293475e-05 3.790533885622598e-06 -14.394471404099082 -1.7144964725052401e-05 0.00013971569456777236 -6.8945721045996571 -1.6564643682703361e-06 7.7156788828507104e-05 -4.9733903210620092 -1.6378725507302199e-05 5.8675802566367357e-05 -9.3045125212341553 -7.6524307948240328e-05 7.7827650563770442e-05 -6.9495308801107623 -4.1280735576664007e-06 -2.1740457975472143e-05 -0.00043806827866045491 5.4773534935065782e-10 -1.6771614711411462e-05 -0.00067059287758595998 9.0830632948897297e-06 0.0001905560215153042 -3.6714755132175751 -1.6564643682703435e-06 7.7156788828507104e-05 -4.9733903210620083 -0.00014303644449300355 -1.6024951932374311e-05 -6.904434593644531 -0.0001940786084864692 -9.9037520939548244e-06 -3.6714527506896903 -5.6240492987426052e-05 2.0748992134194409e-05 -5.236736369456807 -7.3030749525209988e-05 2.3975177379793782e-06 -3.5694862793977453 -2.00471327014601e-05 3.5557790497135624e-05 -18.000670357277816 -1.6351752761962225e-06 -3.7292803831173642e-06 -18.000669493051564 -3.5071528866108971e-05 -2.3705979299402093e-05 -18.000671888639946 -3.3186120504961269e-06 -3.2136361273681928e-06 -13.645042525665012 0.00012330048295242609 4.5914869839652822e-05 -5.1755802182686654 0.00019053028110948625 -9.8664276415750734e-06 -3.6714654017106789 0.00013866063657257767 3.4726847636437595e-05 -7.6183301229442737 7.9261457644039783e-05 -4.1183770571984333e-07 -6.2674520662278796 0.00017661196267593137 -3.8696550812257152e-06 -14.329808802062496 0.00014900175010754471 2.0815885683260405e-05 -11.102943129774127 6.8147818390345004e-05 5.0895768895878238e-06 -10.498144294815184 6.0218220723293475e-05 3.790533885622598e-06 -14.394471404099082 -4.8598117228286016e-05 -5.1591040011501297e-06 -9.0006123883139821 -0.00014370728753097109 3.4751910473935164e-05 -7.7467946299795258 -0.00014649689900554012 1.9296323995193301e-05 -11.366767847644361 -6.694129976862802e-05 -6.8773547271868015e-06 -9.0850799483852231 -9.1128201767663147e-06 -9.2038978738681371e-06 -0.0004847655714304023 2.2165585658258704e-05 2.2492402617214108e-05 -0.00043489229814464958 -2.0854650588357693e-08 -6.0730713035321782e-05 -3.5594661988139373 -7.3030749525209948e-05 2.3975177379793727e-06 -3.5694862793977449 2.2165585658258704e-05 2.2492402617214108e-05 -0.00043489229814464958 -0.00012992200822061747 -1.7773041400599733e-05 -2.3618108544173597 -0.00012921905810508443 -7.0021853138365481e-05 -2.9608865794027368 -7.3030749525209961e-05 2.397517737979377e-06 -3.5694862793977453 -1.4698045821591352e-05 -0.00013761125870928874 -6.8954609139249996 3.1982287958098758e-05 -0.00014592668759744643 -7.6410804282647513 -1.1898554813613883e-05 -0.00018946280387750514 -3.671462232205827 1.6263159867841794e-05 -5.5077333210460378e-05 -5.3090851068374834 -3.7882672294800167e-05 0.00014241456584638824 -10.254427308345981 -1.2627343934002642e-05 3.8318755667570566e-05 -9.0006216737235576 1.6662709450967341e-05 0.00014899939696359503 -11.102939896757109 -1.6378725507302206e-05 5.8675802566367364e-05 -9.3045125212341553 0.00017661196267593137 -3.8696550812257152e-06 -14.329808802062496 0.00012674247838549376 5.2158959898735568e-05 -12.825631568285278 0.00014900175010754471 2.0815885683260405e-05 -11.102943129774127 6.0218220723293475e-05 3.790533885622598e-06 -14.394471404099082 -9.8501906289231295e-05 9.9254572065674408e-05 -12.383504131539162 -8.76530895667676e-05 0.00010853791031824607 -14.993151375136735 -0.00010846110142926469 7.9501961558041425e-05 -14.993149257157482 -8.3446772044337993e-05 8.1301658715782481e-05 -10.99940263439508 -2.00471327014601e-05 3.5557790497135624e-05 -18.000670357277816 -9.1883647489109408e-05 -1.1501545984557046e-06 -18.000675036697739 -5.357455085872124e-05 5.6177361836313795e-05 -18.000671144736074 -5.6505137840680834e-05 2.9896109673363036e-05 -12.621063802052849 5.0052634869892587e-05 5.0642163338754964e-05 -18.000662912316056 2.4429394386670148e-05 5.6012073672620296e-05 -12.799578360759934 6.9265464142664009e-05 7.002101444031617e-05 -13.496998911780247 6.0218220723293475e-05 3.790533885622598e-06 -14.394471404099082 4.9602271781296304e-05 -0.00011614104442302514 -5.1755782244228534 8.7833889406321836e-05 -0.00010277132611476874 -5.6342666417144889 8.7641720475871803e-05 -0.00013114573119797865 -3.008072141340969 5.0951048088386213e-05 -1.956451354636105e-05 -3.6826625843625407 9.1168980855097344e-05 4.4554056855968427e-05 -18.000663573981956 0.00017661196267593137 -3.8696550812257203e-06 -14.329808802062496 8.8746423179647039e-05 -6.0222297875374808e-06 -18.000672482601487 6.0218220723293475e-05 3.790533885622598e-06 -14.394471404099082 9.084675713787726e-05 -0.00017840911715897697 -9.1864885098914577 0.00016860054293033354 -9.2093665196779875e-05 -8.8147452728003532 8.7833889406321836e-05 -0.00010277132611476874 -5.6342666417144889 7.9405039643381869e-05 -7.020592684934125e-05 -8.8027460820885697 4.9602271781296304e-05 -0.00011614104442302514 -5.1755782244228534 9.084675713787726e-05 -0.00017840911715897697 -9.1864885098914577 8.7833889406321836e-05 -0.00010277132611476874 -5.6342666417144889 7.9405039643381855e-05 -7.0205926849341223e-05 -8.8027460820885697 5.6539516930375717e-05 -5.4576642578592401e-05 -18.000671982755154 9.306479326964633e-05 -9.3524415142361278e-05 -18.000666523136452 5.1569765235765407e-05 -9.3985453914083108e-05 -18.000670712283444 8.0493022879137485e-05 -3.6451471731657108e-05 -14.495336684488498 -8.7653089566767613e-05 0.00010853791031824606 -14.993151375136735 -8.3446772044337979e-05 8.1301658715782454e-05 -10.999402634395079 -5.8895304499861013e-05 0.00012242683352455737 -12.8256374409768 -2.6682865744602651e-05 8.2901261764422175e-05 -14.466540689678981 -3.7882672294800167e-05 0.00014241456584638824 -10.254427308345981 -7.6524307948240328e-05 7.7827650563770402e-05 -6.9495308801107614 -1.6378725507302203e-05 5.8675802566367371e-05 -9.3045125212341553 -8.3446772044337965e-05 8.1301658715782468e-05 -10.999402634395077 9.3439194697136869e-05 -8.2827395234403865e-05 -5.6177301126889931 0.00016860054293033356 -9.2093665196779889e-05 -8.8147452728003532 0.00011859675941194662 -4.4644070271330152e-05 -5.1755723784891527 7.9405039643381855e-05 -7.0205926849341223e-05 -8.8027460820885697 8.6430250018239643e-05 0.00017539644862922952 -9.1864751415221715 0.00017539250360019371 9.5460897868590401e-05 -9.1864773721589863 8.7621889359318754e-05 9.8645683594210482e-05 -12.450747877761467 8.0960162176960904e-05 7.3383467258547228e-05 -9.6855741452977107 -4.1280735576664007e-06 -2.1740457975472143e-05 -0.00043806827866045491 -8.8725345705609137e-06 9.2010091284365343e-06 -0.00049743935087107549 5.4773534935065782e-10 -1.6771614711411462e-05 -0.00067059287758595998 -1.6564643682703435e-06 7.7156788828507104e-05 -4.9733903210620083 0.00010130248942603585 -9.7712264038148105e-05 -12.383505862975781 0.00010965164745798963 -9.8015887892919008e-05 -12.366962131717484 0.00015981504098713551 -0.00015234773133184182 -10.800630983166796 7.6545272793753142e-05 -7.6033936656246171e-05 -12.121545869076563 -0.00014303644449300355 -1.6024951932374311e-05 -6.904434593644531 -0.00019407860848646923 -9.9037520939548227e-06 -3.6714527506896903 -0.00014370728753097109 3.4751910473935164e-05 -7.7467946299795258 -5.6240492987426052e-05 2.0748992134194409e-05 -5.236736369456807 -9.6001516817300101e-05 9.5508419293289482e-05 -18.00066461404667 -8.7653089566767613e-05 0.00010853791031824606 -14.993151375136735 -5.1008431132875897e-05 0.00010065864941178387 -18.000666777521658 -2.6682865744602651e-05 8.2901261764422175e-05 -14.466540689678981 -5.0603240832732144e-05 0.00011860952430756494 -5.1755778464302447 -1.6564643682703435e-06 7.7156788828507104e-05 -4.9733903210620083 -7.6524307948240328e-05 7.7827650563770429e-05 -6.9495308801107614 -5.5517441662541254e-05 3.0319446361409018e-05 -3.3880472736676222 8.7621889359318754e-05 9.8645683594210482e-05 -12.450747877761467 0.00017539250360019371 9.5460897868590401e-05 -9.1864773721589845 0.00015490918157375636 0.00015490253751795764 -10.800602722741141 9.8640639505258581e-05 8.4880877226723323e-05 -12.450741823965712 1.6662709450967341e-05 0.00014899939696359503 -11.102939896757109 2.4429394386670124e-05 5.6012073672620276e-05 -12.799578360759934 -5.7561436164462446e-06 0.00017660997139305813 -14.329809626167156 -2.6682865744602651e-05 8.2901261764422175e-05 -14.466540689678981 1.6658313161567762e-05 -4.423944282565793e-09 -0.00068008571925838558 2.1004620020276475e-05 4.5431099924851987e-06 -0.00039390072221286377 -0.00019407860848646923 -9.9037520939548227e-06 -3.6714527506896903 -5.551744166254126e-05 3.0319446361409032e-05 -3.388047273667623 1.2549565950470023e-06 -1.2686746333718276e-06 -0.0005898419291798519 -2.6032374485094275e-08 1.6731868442410117e-05 -0.00070466061880543752 1.6263159867841794e-05 -5.5077333210460378e-05 -5.3090851068374834 -2.0854650588357693e-08 -6.0730713035321782e-05 -3.5594661988139373 1.3218163766206397e-07 7.7355673166747382e-05 -0.00062759034132154376 4.1004609500944611e-06 -2.1126803761504402e-05 -0.00039717469118998099 2.9443526199445825e-05 0.00012257184513441317 -2.3349430557664204 9.0830632948897314e-06 0.00019055602151530425 -3.6714755132175751 -8.4142756444938123e-05 -0.00013020041310762154 -3.0080837665246687 -4.4450533064651522e-06 2.1815255006633252e-05 -0.00039217012727009687 2.2165585658258704e-05 2.2492402617214108e-05 -0.00043489229814464958 -2.085465058837371e-08 -6.0730713035321769e-05 -3.5594661988139364 1.8896097576705478e-05 -3.7956718740192119e-05 -18.000670564196778 5.6539516930375711e-05 -5.4576642578592394e-05 -18.000671982755158 2.9521752799243031e-05 -5.72406759233809e-05 -12.621064737262353 8.0493022879137485e-05 -3.6451471731657108e-05 -14.495336684488498 8.5195898646498415e-05 -0.00010881118980917008 -14.993153539680677 9.3064793269646316e-05 -9.3524415142361278e-05 -18.000666523136452 0.00010853713371024811 -9.0149241608151285e-05 -14.993152553998351 7.6545272793753129e-05 -7.6033936656246158e-05 -12.121545869076561 -0.00019407860848646923 -9.9037520939548227e-06 -3.6714527506896903 -7.3030749525209961e-05 2.397517737979377e-06 -3.5694862793977453 1.6658313161567762e-05 -4.423944282565793e-09 -0.00068008571925838558 -5.551744166254124e-05 3.0319446361409042e-05 -3.3880472736676235 -2.7751890347416883e-06 -0.00017011134053490407 -14.329813472429908 6.0294243165696023e-05 -0.00012084787808519034 -12.825639986840683 2.1261878906521027e-05 -0.00014824700915822139 -11.370451049443266 2.9521752799243031e-05 -5.7240675923380893e-05 -12.621064737262351 -0.0001381689971228937 -4.7401216076933854e-05 -10.24185636007982 -4.8598117228286016e-05 -5.1591040011501322e-06 -9.0006123883139821 -0.00014649689900554012 1.9296323995193301e-05 -11.366767847644361 -6.694129976862802e-05 -6.8773547271868023e-06 -9.0850799483852231 -2.00471327014601e-05 3.5557790497135624e-05 -18.000670357277816 -4.0829326978900883e-06 9.146802360054628e-05 -18.000672145201957 2.4429394386670155e-05 5.6012073672620289e-05 -12.799578360759936 -2.6682865744602651e-05 8.2901261764422175e-05 -14.466540689678981 1.2549565950470023e-06 -1.2686746333718276e-06 -0.0005898419291798519 1.6263159867841834e-05 -5.5077333210460344e-05 -5.3090851068374842 9.2194204691449509e-06 -9.2464976857869075e-06 -0.00050287923417428502 5.0951048088386132e-05 -1.9564513546361114e-05 -3.6826625843625402 -0.00012260694386324376 5.8225072929117639e-05 -12.825635291146 -0.00017041205436010796 -3.5017849039651107e-06 -14.32981010034608 -0.00014649689900554012 1.9296323995193301e-05 -11.366767847644361 -5.6505137840680834e-05 2.9896109673363036e-05 -12.621063802052849 -3.5071528866108971e-05 -2.3705979299402093e-05 -18.000671888639946 -1.63517527619622e-06 -3.7292803831173659e-06 -18.000669493051568 1.8896097576705478e-05 -3.7956718740192119e-05 -18.000670564196778 -3.3186120504961264e-06 -3.2136361273681928e-06 -13.645042525665012 -2.863954610078583e-06 -9.6867148962360804e-05 -18.000675161013572 -4.8926199649882535e-05 -9.8478875070980522e-05 -15.615655054498383 -3.7160672606702536e-05 -0.00015463113821726556 -18.000689386469933 -5.2274516635187628e-05 -9.3027817525748963e-05 -18.000670420746832 -9.4692071284310412e-05 -8.4085900453570911e-05 -5.5504956534356733 -0.00015621081757995786 -0.00015506053716638719 -7.2006367917988898 -8.4611311785439799e-05 -9.3302958677176403e-05 -5.617728127371528 -0.00016979381779081649 -9.803490899465116e-05 -8.8147511330287305 0.00012242908446789109 -5.7975071915212778e-05 -12.825637823911741 8.0493022879137485e-05 -3.6451471731657108e-05 -14.495336684488498 0.00014240246500908858 -3.4757652514682904e-05 -10.254426118540231 7.6545272793753142e-05 -7.6033936656246171e-05 -12.121545869076563 -4.1280735576664007e-06 -2.1740457975472143e-05 -0.00043806827866045491 -1.2085678345586314e-07 7.9294141696844555e-05 -0.00063951275453482011 -2.307969733288343e-05 0.00012950253270263397 -2.3712138669757747 9.0830632948897314e-06 0.00019055602151530425 -3.6714755132175751 1.2549565950470023e-06 -1.2686746333718276e-06 -0.0005898419291798519 1.307932220491518e-06 1.2784988515808176e-06 -0.00055442003995552372 1.1177210907078425e-08 7.3718661843512798e-09 -0.00016925968704480999 1.5790354917033191e-09 1.7274421563572421e-06 -4.4128120846505423 0.00013866063657257767 3.4726847636437595e-05 -7.6183301229442737 6.8147818390345004e-05 5.0895768895878238e-06 -10.498144294815184 0.00014900175010754471 2.0815885683260405e-05 -11.102943129774127 8.0960162176960904e-05 7.3383467258547201e-05 -9.6855741452977107 -1.7144964725052401e-05 0.00013971569456777236 -6.8945721045996571 -1.6378725507302196e-05 5.8675802566367351e-05 -9.3045125212341553 -3.7882672294800167e-05 0.00014241456584638824 -10.254427308345981 -7.6524307948240328e-05 7.7827650563770415e-05 -6.9495308801107605 -4.1962284113596218e-05 -0.00014046592821928292 -10.242017581821759 2.1261878906521027e-05 -0.00014824700915822139 -11.370451049443266 -3.004102961788834e-06 -4.3006037951271277e-05 -9.0006167108021078 -3.342604576321164e-06 -6.7044351759096803e-05 -9.1330429370720037 -0.00015935507379260139 -0.00015982812312055885 -10.800620433804164 -0.00016979381779081649 -9.803490899465116e-05 -8.8147511330287305 -0.00010912284140812552 -9.3171590803762798e-05 -12.366965980574648 -9.4523931815015694e-05 -0.00010929031160023451 -12.366974518938637 0.00017539250360019371 9.5460897868590415e-05 -9.1864773721589863 0.00015715222178177952 0.0001571471208763866 -7.2006139768331705 0.00010752456001454087 8.7057162839067402e-05 -5.5980074561327084 8.9520310650679521e-05 0.00010752863126185365 -5.598001250935206 1.6658313161567762e-05 -4.423944282565793e-09 -0.00068008571925838558 -1.2527878667765542e-06 -1.2653930224785856e-06 -0.00059372002650816735 -5.6240492987426045e-05 2.0748992134194412e-05 -5.236736369456807 -7.3030749525209948e-05 2.3975177379793765e-06 -3.5694862793977449 2.9371520273084408e-05 1.5336921016930799e-05 -18.000667863743935 -2.00471327014601e-05 3.5557790497135624e-05 -18.000670357277816 -4.0829326978900883e-06 9.146802360054628e-05 -18.000672145201957 2.4429394386670138e-05 5.6012073672620296e-05 -12.799578360759936 -1.1898554813613883e-05 -0.00018946280387750514 -3.6714622322058275 3.1982287958098758e-05 -0.00014592668759744643 -7.6410804282647513 4.9602271781296304e-05 -0.00011614104442302514 -5.1755782244228534 1.6263159867841794e-05 -5.5077333210460378e-05 -5.3090851068374834 5.0052634869892587e-05 5.0642163338754964e-05 -18.000662912316056 2.9371520273084408e-05 1.5336921016930799e-05 -18.000667863743935 -4.0829326978900883e-06 9.146802360054628e-05 -18.000672145201957 2.4429394386670141e-05 5.6012073672620296e-05 -12.799578360759936 -0.00019407860848646923 -9.9037520939548227e-06 -3.6714527506896903 -0.00011855049038870445 4.5621185897033094e-05 -5.1755718300551568 -5.6240492987426052e-05 2.0748992134194409e-05 -5.236736369456807 -5.5517441662541254e-05 3.0319446361409018e-05 -3.3880472736676213 1.6658313161567762e-05 -4.423944282565793e-09 -0.00068008571925838558 -5.6240492987426052e-05 2.0748992134194409e-05 -5.236736369456807 -8.8725345705609137e-06 9.2010091284365343e-06 -0.00049743935087107549 -5.551744166254126e-05 3.0319446361409032e-05 -3.388047273667623 1.2549565950470023e-06 -1.2686746333718276e-06 -0.0005898419291798519 9.2194204691449509e-06 -9.2464976857869075e-06 -0.00050287923417428502 -1.6772239871486523e-05 1.1529091885863168e-07 -0.00069016881923179081 5.0951048088386192e-05 -1.9564513546361046e-05 -3.6826625843625393 6.8147818390345004e-05 5.0895768895878238e-06 -10.498144294815184 6.0218220723293469e-05 3.790533885622595e-06 -14.394471404099082 2.9521752799243014e-05 -5.7240675923380913e-05 -12.621064737262351 8.0493022879137485e-05 -3.6451471731657108e-05 -14.495336684488498 4.9810081526577643e-05 -0.0001097038000559613 -15.629992958221699 -2.863954610078583e-06 -9.6867148962360804e-05 -18.000675161013572 3.5531159359495573e-05 -0.00015937922205289532 -18.000688404248788 5.15697652357654e-05 -9.3985453914083108e-05 -18.000670712283444 0.00012951201938542122 -1.0307441368190859e-05 -2.3712059765106566 0.00019053028110948625 -9.8664276415750734e-06 -3.6714654017106789 -1.6772239871486512e-05 1.1529091885863256e-07 -0.00069016881923166559 5.095104808838622e-05 -1.956451354636105e-05 -3.6826625843625407 -0.00019407860848646923 -9.9037520939548227e-06 -3.6714527506896903 -0.00011855049038870445 4.5621185897033094e-05 -5.1755718300551568 -0.00014370728753097109 3.4751910473935164e-05 -7.7467946299795258 -5.6240492987426052e-05 2.0748992134194409e-05 -5.236736369456807 1.6658313161567762e-05 -4.423944282565793e-09 -0.00068008571925838558 -1.2527878667765527e-06 -1.2653930224785853e-06 -0.00059372002650813255 -1.3137928908867474e-06 1.2688005747969513e-06 -0.00056231677521325935 -5.6240492987426052e-05 2.0748992134194409e-05 -5.236736369456807 1.6658313161567762e-05 -4.423944282565793e-09 -0.00068008571925838558 -1.3137928908867442e-06 1.2688005747969511e-06 -0.00056231677521297507 -8.8725345705609137e-06 9.2010091284365343e-06 -0.00049743935087107549 -5.6240492987426052e-05 2.0748992134194409e-05 -5.236736369456807 -0.0001381689971228937 -4.7401216076933854e-05 -10.24185636007982 -0.00014303644449300355 -1.6024951932374311e-05 -6.904434593644531 -4.8598117228286016e-05 -5.1591040011501297e-06 -9.0006123883139821 -6.694129976862802e-05 -6.8773547271868023e-06 -9.0850799483852231 2.1261878906521027e-05 -0.00014824700915822139 -11.370451049443266 9.084675713787726e-05 -0.00017840911715897697 -9.1864885098914577 3.1982287958098758e-05 -0.00014592668759744643 -7.6410804282647513 7.9405039643381855e-05 -7.0205926849341223e-05 -8.8027460820885697 1.2549565950470023e-06 -1.2686746333718276e-06 -0.0005898419291798519 -2.6032374485094275e-08 1.6731868442410117e-05 -0.00070466061880543752 9.2194204691449509e-06 -9.2464976857869091e-06 -0.00050287923417439095 1.6263159867841794e-05 -5.5077333210460378e-05 -5.3090851068374834 -5.7561436164462446e-06 0.00017660997139305813 -14.329809626167156 1.6662709450967338e-05 0.000148999396963595 -11.102939896757107 5.2100748911302174e-05 0.00012673960035518601 -12.825631691884411 2.4429394386670141e-05 5.6012073672620296e-05 -12.799578360759936 -1.4698045821591352e-05 -0.00013761125870928874 -6.8954609139249996 -4.1962284113596218e-05 -0.00014046592821928292 -10.242017581821759 -3.0041029617888327e-06 -4.300603795127127e-05 -9.0006167108021078 -3.342604576321164e-06 -6.7044351759096803e-05 -9.1330429370720037 -0.00014649689900554012 1.9296323995193301e-05 -11.366767847644361 -0.00012260694386324376 5.8225072929117639e-05 -12.825635291146 -5.6505137840680854e-05 2.9896109673363039e-05 -12.62106380205285 -8.3446772044337993e-05 8.1301658715782468e-05 -10.999402634395079 -1.4698045821591352e-05 -0.00013761125870928874 -6.8954609139249996 -4.626817472843937e-05 -0.00011912175942803324 -5.1755936179622068 -5.0200917297891034e-05 -4.8342676842918368e-05 -6.726448593125637 -2.0854650588357693e-08 -6.0730713035321782e-05 -3.5594661988139373 -0.00014303644449300355 -1.6024951932374311e-05 -6.904434593644531 -5.0200917297891034e-05 -4.8342676842918368e-05 -6.726448593125637 -0.00012002657329742926 -4.3922659991772494e-05 -5.1755921476215931 -7.3030749525209975e-05 2.3975177379793558e-06 -3.5694862793977462 0.00017539250360019371 9.5460897868590415e-05 -9.1864773721589863 0.00012330048295242609 4.5914869839652822e-05 -5.1755802182686654 0.00013866063657257767 3.4726847636437595e-05 -7.6183301229442737 8.0960162176960891e-05 7.3383467258547215e-05 -9.6855741452977089 9.1168980855097344e-05 4.4554056855968427e-05 -18.000663573981956 0.00017661196267593137 -3.8696550812257279e-06 -14.329808802062498 0.00010888496145769072 4.6702923795040736e-05 -15.63942060369064 0.00015770249164434184 3.1127804082963551e-05 -18.000672814099236 2.1004620020276482e-05 4.5431099924851995e-06 -0.00039390072221281839 -7.6795199470536835e-05 1.243936145187622e-07 -0.00061866722038647008 -0.00019407860848646923 -9.903752093954821e-06 -3.6714527506896903 -0.00012281521162747783 3.1514557574876092e-05 -2.3349605254838588 6.0294243165696023e-05 -0.00012084787808519034 -12.825639986840683 2.1261878906521027e-05 -0.00014824700915822139 -11.370451049443266 2.9521752799243031e-05 -5.7240675923380893e-05 -12.621064737262351 7.6545272793753142e-05 -7.6033936656246171e-05 -12.121545869076563 0.00012674247838549376 5.2158959898735568e-05 -12.825631568285278 9.8640639505258581e-05 8.4880877226723323e-05 -12.450741823965714 8.0960162176960904e-05 7.3383467258547228e-05 -9.6855741452977107 6.9265464142664036e-05 7.002101444031617e-05 -13.496998911780246 1.6662709450967341e-05 0.00014899939696359503 -11.102939896757109 2.8287087543558088e-05 0.00013865281502691915 -7.6183242877535271 8.6430250018239643e-05 0.00017539644862922952 -9.1864751415221715 8.0960162176960904e-05 7.3383467258547228e-05 -9.6855741452977107 4.8387152535928634e-05 0.00012329120096818714 -5.17556033192536 2.8287087543558091e-05 0.00013865281502691918 -7.618324287753528 9.0830632948897314e-06 0.00019055602151530425 -3.6714755132175751 -1.6564643682703435e-06 7.7156788828507104e-05 -4.9733903210620083 0.00010965164745798966 -9.8015887892919062e-05 -12.366962131717484 0.00016860054293033356 -9.2093665196779889e-05 -8.8147452728003532 0.00015981504098713551 -0.00015234773133184182 -10.800630983166796 7.6545272793753142e-05 -7.6033936656246171e-05 -12.121545869076563 -0.00011855049038870445 4.5621185897033094e-05 -5.1755718300551568 -7.65243079482403e-05 7.7827650563770415e-05 -6.9495308801107605 -5.6240492987426052e-05 2.0748992134194409e-05 -5.236736369456807 -5.551744166254126e-05 3.0319446361409039e-05 -3.3880472736676235 9.9908331710670358e-05 -5.0934907065734275e-05 -18.000668235795541 0.00015292673128138154 -3.0068086454385769e-05 -18.000673330571033 9.7697234727977693e-05 -5.5166277780798851e-05 -15.615648770786567 8.0493022879137485e-05 -3.6451471731657108e-05 -14.495336684488498 4.5248191570086891e-06 2.1635632741839188e-05 -0.00043076803198283391 1.3577049516328183e-07 -7.6978271804482832e-05 -0.00063260843565167565 2.3816106115514376e-05 -0.00011941717449393304 -2.3855482341187906 -1.1898554813613868e-05 -0.00018946280387750514 -3.6714622322058261 7.9314792945042994e-05 -1.053191098978425e-07 -0.00061647582934083419 -2.1765987198921882e-05 -4.6145907378921879e-06 -0.00039086916470327458 0.00012951201938542122 -1.0307441368190859e-05 -2.3712059765106566 -1.6772239871486523e-05 1.1529091885863168e-07 -0.00069016881923179081 9.3439194697136869e-05 -8.2827395234403865e-05 -5.6177301126889931 8.7833889406321836e-05 -0.00010277132611476874 -5.6342666417144889 0.00015511729706514052 -0.00015752385578606952 -7.2006334717427469 0.00016860054293033356 -9.2093665196779889e-05 -8.8147452728003532 -2.00471327014601e-05 3.5557790497135624e-05 -18.000670357277816 -5.6505137840680834e-05 2.9896109673363036e-05 -12.621063802052849 -5.357455085872124e-05 5.6177361836313795e-05 -18.000671144736074 -2.6682865744602651e-05 8.2901261764422175e-05 -14.466540689678981 2.9371520273084408e-05 1.5336921016930799e-05 -18.000667863743935 2.4429394386670168e-05 5.6012073672620276e-05 -12.799578360759938 5.0052634869892587e-05 5.0642163338754964e-05 -18.000662912316056 6.0218220723293475e-05 3.790533885622598e-06 -14.394471404099082 -0.00011855049038870445 4.5621185897033094e-05 -5.1755718300551568 -0.00014370728753097109 3.4751910473935164e-05 -7.7467946299795258 -5.6240492987426052e-05 2.0748992134194419e-05 -5.236736369456807 -7.6524307948240328e-05 7.7827650563770415e-05 -6.9495308801107605 1.6662709450967341e-05 0.00014899939696359503 -11.102939896757109 8.6430250018239643e-05 0.00017539644862922952 -9.1864751415221715 5.2100748911302174e-05 0.00012673960035518601 -12.825631691884411 8.0960162176960904e-05 7.3383467258547228e-05 -9.6855741452977107 -1.3137928908867445e-06 1.2688005747969504e-06 -0.00056231677521304468 1.1177210907078425e-08 7.3718661843512798e-09 -0.00016925968704480999 1.307932220491518e-06 1.2784988515808176e-06 -0.00055442003995552372 1.5790354917033191e-09 1.7274421563572421e-06 -4.4128120846505423 -0.00012921905810508446 -7.0021853138365508e-05 -2.9608865794027373 -0.00012992200822061747 -1.7773041400599733e-05 -2.3618108544173597 -0.00012002657329742926 -4.3922659991772494e-05 -5.1755921476215931 -7.3030749525209961e-05 2.397517737979377e-06 -3.5694862793977453 9.9908331710670358e-05 -5.0934907065734275e-05 -18.000668235795541 9.7697234727977706e-05 -5.5166277780798872e-05 -15.615648770786567 0.00010853713371024811 -9.0149241608151299e-05 -14.993152553998351 8.0493022879137471e-05 -3.6451471731657108e-05 -14.495336684488496 -9.6001516817300101e-05 9.5508419293289482e-05 -18.00066461404667 -5.1008431132875897e-05 0.00010065864941178387 -18.000666777521658 -5.357455085872124e-05 5.6177361836313795e-05 -18.000671144736074 -2.6682865744602651e-05 8.2901261764422175e-05 -14.466540689678981 4.4987189988489345e-05 9.1844703327528701e-05 -18.000662540503793 4.4250835695460036e-05 0.00010889080461882123 -15.639422505258914 -4.0829326978900883e-06 9.146802360054628e-05 -18.000672145201957 3.1577884813976393e-05 0.00015769493002989543 -18.00068145663381 0.00014240246500908858 -3.4757652514682904e-05 -10.254426118540231 0.00017661196267593137 -3.8696550812257152e-06 -14.329808802062496 0.00014900175010754471 2.0815885683260405e-05 -11.102943129774127 6.8147818390345004e-05 5.0895768895878238e-06 -10.498144294815184 -5.6240492987426052e-05 2.0748992134194409e-05 -5.236736369456807 -7.6524307948240328e-05 7.7827650563770415e-05 -6.9495308801107596 -1.6564643682703482e-06 7.715678882850709e-05 -4.9733903210620083 -5.551744166254126e-05 3.0319446361409032e-05 -3.388047273667623 1.6263159867841794e-05 -5.5077333210460378e-05 -5.3090851068374834 7.9261457644039756e-05 -4.1183770571982988e-07 -6.2674520662278805 7.9405039643381855e-05 -7.0205926849341223e-05 -8.8027460820885697 5.0951048088386206e-05 -1.9564513546361046e-05 -3.6826625843625402 0.00010130248942603585 -9.7712264038148105e-05 -12.383505862975781 0.00015981504098713551 -0.00015234773133184182 -10.800630983166796 9.084675713787726e-05 -0.00017840911715897697 -9.1864885098914577 7.6545272793753142e-05 -7.6033936656246171e-05 -12.121545869076563 0.00019053028110948625 -9.8664276415750734e-06 -3.6714654017106789 0.00012257465262365935 2.4300416687567908e-05 -2.3349666062241692 7.7355663588432149e-05 8.3683994845227008e-08 -0.00063550061574218044 -2.1120631393069733e-05 4.1023401592752486e-06 -0.00043557219841457558 0.00017539250360019371 9.5460897868590415e-05 -9.1864773721589863 8.6430250018239657e-05 0.00017539644862922952 -9.1864751415221715 0.00015715222178177952 0.0001571471208763866 -7.2006139768331705 8.9520310650679521e-05 0.00010752863126185365 -5.598001250935206 -9.0782894998885766e-05 -4.8254042513066549e-05 -18.000670330398322 -0.00015455954768270897 -3.5057669769100641e-05 -18.000678398434538 -0.00017041205436010799 -3.5017849039650963e-06 -14.329810100346084 -9.8379926844087998e-05 -5.2646743794984971e-05 -15.615652928313695 -1.2085678345586269e-07 7.9294141696844555e-05 -0.00063951275453443836 -4.1280735576664007e-06 -2.1740457975472147e-05 -0.00043806827866030176 5.4773534935065782e-10 -1.6771614711411462e-05 -0.00067059287758595998 9.0830632948897314e-06 0.00019055602151530425 -3.6714755132175751 -3.7882672294800167e-05 0.00014241456584638824 -10.254427308345981 -5.8895304499861033e-05 0.00012242683352455737 -12.825637440976802 -8.3446772044337965e-05 8.1301658715782468e-05 -10.999402634395079 -2.6682865744602651e-05 8.2901261764422175e-05 -14.466540689678981 0.00013866063657257767 3.4726847636437595e-05 -7.6183301229442737 0.00013973475214910672 -1.3907646487358678e-05 -6.8945626467498471 3.8316703147187174e-05 -1.112174678206273e-05 -9.0006162880699616 7.9261457644039742e-05 -4.1183770571983835e-07 -6.2674520662278796 9.084675713787726e-05 -0.00017840911715897697 -9.1864885098914577 4.9602271781296304e-05 -0.00011614104442302514 -5.1755782244228534 3.1982287958098758e-05 -0.00014592668759744643 -7.6410804282647513 7.9405039643381869e-05 -7.020592684934125e-05 -8.8027460820885697 -0.00016979381779081649 -9.803490899465116e-05 -8.8147511330287305 -0.00015935507379260139 -0.00015982812312055885 -10.800620433804164 -8.9172160982197956e-05 -0.00016884375536200977 -8.8147519431090195 -9.4523931815015694e-05 -0.00010929031160023451 -12.366974518938637 -9.1128201767663147e-06 -9.2038978738681371e-06 -0.0004847655714304023 2.1598517043903137e-05 -4.5349551530117086e-06 -0.00043865864448533665 2.2165585658258704e-05 2.2492402617214108e-05 -0.00043489229814464958 -7.3030749525209948e-05 2.3975177379793719e-06 -3.5694862793977444 1.3218163766206397e-07 7.7355673166747382e-05 -0.00062759034132154376 5.4773534935065782e-10 -1.6771614711411462e-05 -0.00067059287758595998 4.1004609500944611e-06 -2.1126803761504402e-05 -0.00039717469118998099 9.0830632948897314e-06 0.00019055602151530425 -3.6714755132175751 -8.8725345705609137e-06 9.2010091284365343e-06 -0.00049743935087107549 -1.3137928908867436e-06 1.2688005747969545e-06 -0.00056231677521321566 5.4773534935065782e-10 -1.6771614711411462e-05 -0.00067059287758595998 -1.6564643682703431e-06 7.715678882850709e-05 -4.9733903210620074 0.00017539250360019371 9.5460897868590415e-05 -9.1864773721589863 8.7621889359318727e-05 9.8645683594210441e-05 -12.450747877761467 0.00015490918157375636 0.00015490253751795764 -10.800602722741141 8.6430250018239643e-05 0.00017539644862922952 -9.1864751415221715 -9.8501906289231295e-05 9.9254572065674408e-05 -12.383504131539162 -0.00010846110142926469 7.9501961558041425e-05 -14.993149257157482 -0.00012260694386324376 5.8225072929117639e-05 -12.825635291146 -8.3446772044337993e-05 8.1301658715782454e-05 -10.99940263439508 -1.63517527619622e-06 -3.7292803831173659e-06 -18.000669493051568 2.9371520273084408e-05 1.5336921016930799e-05 -18.000667863743935 1.8896097576705478e-05 -3.7956718740192119e-05 -18.000670564196778 6.0218220723293482e-05 3.7905338856225992e-06 -14.394471404099084 -3.7882672294800167e-05 0.00014241456584638824 -10.254427308345981 -8.550665979822611e-05 0.00016860350103610749 -8.8147385397052851 -7.6524307948240328e-05 7.7827650563770375e-05 -6.9495308801107605 -8.3446772044337979e-05 8.1301658715782468e-05 -10.999402634395077 0.00014240246500908858 -3.4757652514682904e-05 -10.254426118540231 0.00014900175010754471 2.0815885683260405e-05 -11.102943129774127 3.8316703147187174e-05 -1.112174678206273e-05 -9.0006162880699616 6.8147818390345004e-05 5.0895768895878238e-06 -10.498144294815184 -0.00010907746054537598 9.1050603991539865e-05 -5.5980248431635706 -9.6585454374517853e-05 9.3431256151998071e-05 -5.6177280202683786 -7.6524307948240314e-05 7.7827650563770388e-05 -6.9495308801107605 -5.551744166254126e-05 3.0319446361409032e-05 -3.3880472736676226 9.1168980855097344e-05 4.4554056855968427e-05 -18.000663573981956 8.8746423179647012e-05 -6.022229787537485e-06 -18.000672482601484 0.00017661196267593137 -3.8696550812257152e-06 -14.329808802062496 0.00015770249164434184 3.1127804082963551e-05 -18.000672814099236 -0.00015621081757995786 -0.00015506053716638719 -7.2006367917988898 -8.4611311785439785e-05 -9.3302958677176376e-05 -5.617728127371528 -0.00016979381779081649 -9.803490899465116e-05 -8.8147511330287305 -8.9172160982197956e-05 -0.00016884375536200977 -8.8147519431090195 -9.2094118281700599e-05 5.0247826413477698e-05 -18.000668314221063 -0.0001593848115227 3.2420687640137856e-05 -18.000684115615069 -0.00010931962568937949 4.624928236212659e-05 -15.629987702568473 -9.1883647489109408e-05 -1.1501545984557046e-06 -18.000675036697739 -3.7882672294800167e-05 0.00014241456584638824 -10.254427308345981 1.6662709450967341e-05 0.00014899939696359503 -11.102939896757109 -5.7561436164462446e-06 0.00017660997139305813 -14.329809626167156 -2.6682865744602651e-05 8.2901261764422175e-05 -14.466540689678981 -2.863954610078583e-06 -9.6867148962360804e-05 -18.000675161013572 -2.7751890347417048e-06 -0.00017011134053490415 -14.32981347242991 4.9810081526577656e-05 -0.00010970380005596129 -15.629992958221701 3.5531159359495573e-05 -0.00015937922205289532 -18.000688404248788 0.00019053028110948625 -9.8664276415750734e-06 -3.6714654017106789 0.00013973475214910672 -1.390764648735868e-05 -6.8945626467498462 7.9261457644039742e-05 -4.1183770571983835e-07 -6.2674520662278796 5.0951048088386233e-05 -1.9564513546361043e-05 -3.6826625843625411 -5.0603240832732144e-05 0.00011860952430756494 -5.1755778464302447 -1.6564643682703435e-06 7.7156788828507104e-05 -4.9733903210620083 -1.7144964725052401e-05 0.00013971569456777236 -6.8945721045996571 -7.6524307948240328e-05 7.7827650563770415e-05 -6.9495308801107605 -1.2527878667765527e-06 -1.2653930224785853e-06 -0.00059372002650813255 -9.1128201767663147e-06 -9.2038978738681354e-06 -0.00048476557143011119 -2.0854650588357693e-08 -6.0730713035321782e-05 -3.5594661988139373 -7.3030749525209975e-05 2.397517737979382e-06 -3.5694862793977458 1.8896097576705478e-05 -3.7956718740192119e-05 -18.000670564196778 6.0218220723293489e-05 3.7905338856225878e-06 -14.394471404099082 8.8746423179647026e-05 -6.0222297875374842e-06 -18.000672482601484 8.0493022879137485e-05 -3.6451471731657108e-05 -14.495336684488498 -0.00010907746054537598 9.1050603991539865e-05 -5.5980248431635706 -8.3980007410407634e-05 0.00013027328051680751 -3.0080728622132313 -9.6585454374517853e-05 9.3431256151998084e-05 -5.6177280202683795 -5.551744166254126e-05 3.0319446361409001e-05 -3.3880472736676244 1.2549565950470023e-06 -1.2686746333718276e-06 -0.0005898419291798519 -1.2527878667765527e-06 -1.2653930224785853e-06 -0.00059372002650813255 -2.6032374485094275e-08 1.6731868442410117e-05 -0.00070466061880543752 -2.0854650588357693e-08 -6.0730713035321782e-05 -3.5594661988139373 9.9908331710670358e-05 -5.0934907065734275e-05 -18.000668235795541 0.00010853713371024812 -9.0149241608151299e-05 -14.993152553998353 9.306479326964633e-05 -9.3524415142361278e-05 -18.000666523136452 8.0493022879137485e-05 -3.6451471731657108e-05 -14.495336684488498 -5.0603240832732144e-05 0.00011860952430756494 -5.1755778464302447 -7.6524307948240328e-05 7.7827650563770429e-05 -6.9495308801107614 -9.6585454374517853e-05 9.3431256151998084e-05 -5.6177280202683795 -5.5517441662541267e-05 3.0319446361409045e-05 -3.388047273667623 -8.7653089566767613e-05 0.00010853791031824606 -14.993151375136735 -5.889530449986102e-05 0.0001224268335245574 -12.825637440976802 -5.2039912642749521e-05 9.7696951456717647e-05 -15.615648350709991 -2.6682865744602651e-05 8.2901261764422175e-05 -14.466540689678981 0.00017539250360019371 9.5460897868590415e-05 -9.1864773721589863 0.00012674247838549376 5.2158959898735568e-05 -12.825631568285278 9.8640639505258581e-05 8.4880877226723323e-05 -12.450741823965712 8.0960162176960918e-05 7.3383467258547228e-05 -9.6855741452977107 9.084675713787726e-05 -0.00017840911715897697 -9.1864885098914577 0.00016860054293033359 -9.2093665196779875e-05 -8.8147452728003532 7.9405039643381869e-05 -7.020592684934125e-05 -8.8027460820885697 7.6545272793753156e-05 -7.6033936656246171e-05 -12.121545869076561 2.2165585658258704e-05 2.2492402617214108e-05 -0.00043489229814464958 -4.4450533064651624e-06 2.1815255006633252e-05 -0.00039217012726969273 -9.1128201767663147e-06 -9.2038978738681371e-06 -0.0004847655714304023 -2.0854650588357693e-08 -6.0730713035321782e-05 -3.5594661988139373 -1.7144964725052401e-05 0.00013971569456777236 -6.8945721045996571 -1.2627343934002642e-05 3.8318755667570566e-05 -9.0006216737235576 -3.7882672294800167e-05 0.00014241456584638824 -10.254427308345981 -1.6378725507302203e-05 5.867580256636733e-05 -9.3045125212341535 4.4987189988489345e-05 9.1844703327528701e-05 -18.000662540503793 4.4250835695460036e-05 0.00010889080461882123 -15.639422505258914 8.2714071011523235e-05 0.00010745755851943046 -15.040330383015052 6.9265464142664036e-05 7.002101444031617e-05 -13.496998911780246 9.9908331710670358e-05 -5.0934907065734275e-05 -18.000668235795541 8.8746423179647026e-05 -6.0222297875374842e-06 -18.000672482601484 0.00015292673128138154 -3.0068086454385776e-05 -18.000673330571036 8.0493022879137485e-05 -3.6451471731657108e-05 -14.495336684488498 -4.8926199649882529e-05 -9.8478875070980482e-05 -15.615655054498383 -2.8639546100785775e-06 -9.6867148962360804e-05 -18.000675161013568 -3.7160672606702536e-05 -0.00015463113821726556 -18.000689386469933 -2.7751890347416883e-06 -0.00017011134053490407 -14.329813472429908 0.00015292673128138154 -3.0068086454385776e-05 -18.000673330571036 0.00017661196267593137 -3.8696550812257152e-06 -14.329808802062496 9.7697234727977693e-05 -5.5166277780798851e-05 -15.615648770786567 8.0493022879137485e-05 -3.6451471731657108e-05 -14.495336684488498 0.00012242908446789109 -5.7975071915212778e-05 -12.825637823911741 0.00017661196267593134 -3.8696550812257127e-06 -14.329808802062496 0.00014240246500908858 -3.4757652514682904e-05 -10.254426118540231 8.0493022879137485e-05 -3.6451471731657108e-05 -14.495336684488498 -0.00017158261590851615 8.6598568170033604e-05 -9.1864811056773732 -0.00014370728753097109 3.4751910473935164e-05 -7.7467946299795258 -7.6524307948240328e-05 7.7827650563770415e-05 -6.9495308801107605 -8.3446772044337965e-05 8.1301658715782441e-05 -10.999402634395079 7.7355663588432149e-05 8.3683994845227008e-08 -0.00063550061574218044 0.00019053028110948625 -9.8664276415750734e-06 -3.6714654017106789 -2.1120631393069733e-05 4.1023401592752486e-06 -0.00043557219841457558 -1.6772239871486523e-05 1.1529091885863168e-07 -0.00069016881923179081 0.00019053028110948625 -9.8664276415750734e-06 -3.6714654017106789 7.9314792945042994e-05 -1.053191098978425e-07 -0.00061647582934083419 0.00012951201938542122 -1.0307441368190859e-05 -2.3712059765106566 -1.6772239871486523e-05 1.1529091885863168e-07 -0.00069016881923179081 8.8746423179647026e-05 -6.0222297875374842e-06 -18.000672482601484 6.0218220723293475e-05 3.7905338856225887e-06 -14.394471404099084 0.00017661196267593137 -3.8696550812257152e-06 -14.329808802062496 8.0493022879137485e-05 -3.6451471731657108e-05 -14.495336684488498 0.00013028771714509668 -7.6016595063193055e-05 -3.0080741489131615 -2.251221956756331e-05 2.2885653958159277e-05 -0.00043265007389213294 8.7641720475871803e-05 -0.00013114573119797865 -3.008072141340969 5.095104808838622e-05 -1.9564513546361053e-05 -3.6826625843625407 -5.889530449986102e-05 0.00012242683352455737 -12.825637440976802 -8.7653089566767613e-05 0.00010853791031824606 -14.993151375136735 -9.8921370444029195e-05 0.00010965087083347255 -12.366961761562495 -8.3446772044337979e-05 8.1301658715782454e-05 -10.999402634395079 0.00011859675941194662 -4.4644070271330152e-05 -5.1755723784891527 0.00016860054293033356 -9.2093665196779889e-05 -8.8147452728003532 0.00013973475214910672 -1.3907646487358678e-05 -6.8945626467498471 7.9405039643381855e-05 -7.0205926849341223e-05 -8.8027460820885697 6.0294243165696023e-05 -0.00012084787808519034 -12.825639986840683 9.084675713787726e-05 -0.00017840911715897697 -9.1864885098914577 2.1261878906521027e-05 -0.00014824700915822139 -11.370451049443266 7.6545272793753142e-05 -7.6033936656246171e-05 -12.121545869076563 0.00010130248942603585 -9.7712264038148105e-05 -12.383505862975781 0.00010853713371024812 -9.0149241608151299e-05 -14.993152553998353 0.00010965164745798966 -9.8015887892919076e-05 -12.366962131717484 7.6545272793753142e-05 -7.6033936656246171e-05 -12.121545869076563 9.084675713787726e-05 -0.00017840911715897697 -9.1864885098914577 0.00015981504098713551 -0.00015234773133184182 -10.800630983166796 0.00016860054293033356 -9.2093665196779875e-05 -8.8147452728003532 7.6545272793753142e-05 -7.6033936656246144e-05 -12.121545869076561 9.1168980855097344e-05 4.4554056855968427e-05 -18.000663573981956 8.87628988165085e-05 9.0297862631902507e-05 -18.00065941811755 0.00010888496145769071 4.6702923795040723e-05 -15.639420603690638 6.9265464142664036e-05 7.002101444031617e-05 -13.496998911780246 -8.398000741040762e-05 0.00013027328051680751 -3.0080728622132309 -5.0603240832732144e-05 0.00011860952430756494 -5.1755778464302447 -9.6585454374517853e-05 9.3431256151998084e-05 -5.6177280202683795 -5.551744166254126e-05 3.0319446361409032e-05 -3.388047273667623 -4.1280735576664007e-06 -2.1740457975472143e-05 -0.00043806827866045491 -2.3079697332883424e-05 0.00012950253270263394 -2.3712138669757743 2.1028274496414008e-05 -2.2520755349666249e-05 -0.00043247800393687679 -5.551744166254126e-05 3.0319446361409032e-05 -3.388047273667623 -1.7144964725052401e-05 0.00013971569456777236 -6.8945721045996571 -3.7882672294800167e-05 0.00014241456584638824 -10.254427308345981 -8.550665979822611e-05 0.00016860350103610749 -8.8147385397052851 -7.6524307948240328e-05 7.7827650563770415e-05 -6.9495308801107605 2.1004620020276482e-05 4.5431099924851995e-06 -0.00039390072221281839 -7.6795199470536835e-05 1.243936145187622e-07 -0.00061866722038647008 1.6658313161567762e-05 -4.423944282565793e-09 -0.00068008571925838558 -0.00019407860848646923 -9.9037520939548227e-06 -3.6714527506896903 -5.0603240832732144e-05 0.00011860952430756494 -5.1755778464302447 -2.3079697332883424e-05 0.00012950253270263394 -2.3712138669757743 9.0830632948897314e-06 0.00019055602151530425 -3.6714755132175751 -1.6564643682703435e-06 7.7156788828507104e-05 -4.9733903210620083 -0.00010907746054537598 9.1050603991539865e-05 -5.5980248431635706 -9.658545437451784e-05 9.3431256151998071e-05 -5.6177280202683786 -0.00015814743104262344 0.00015511267355720573 -7.2006182374895671 -7.6524307948240355e-05 7.7827650563770442e-05 -6.9495308801107614 8.5195898646498415e-05 -0.00010881118980917008 -14.993153539680677 6.029424316569603e-05 -0.00012084787808519034 -12.825639986840683 4.9810081526577643e-05 -0.0001097038000559613 -15.629992958221699 7.6545272793753142e-05 -7.6033936656246171e-05 -12.121545869076563 1.8896097576705478e-05 -3.7956718740192119e-05 -18.000670564196778 8.8746423179647026e-05 -6.0222297875374842e-06 -18.000672482601484 5.6539516930375717e-05 -5.4576642578592401e-05 -18.000671982755154 8.0493022879137485e-05 -3.6451471731657108e-05 -14.495336684488498 -0.00014370728753097109 3.4751910473935164e-05 -7.7467946299795258 -0.00017158261590851615 8.6598568170033591e-05 -9.1864811056773714 -0.00014649689900554012 1.9296323995193301e-05 -11.366767847644361 -8.3446772044337979e-05 8.1301658715782454e-05 -10.999402634395079 0.00013866063657257767 3.4726847636437595e-05 -7.6183301229442737 0.00019053028110948625 -9.8664276415750734e-06 -3.6714654017106794 0.00013973475214910672 -1.3907646487358678e-05 -6.8945626467498471 7.9261457644039742e-05 -4.1183770571983835e-07 -6.2674520662278796 4.4250835695460036e-05 0.00010889080461882123 -15.639422505258914 -5.7561436164462446e-06 0.00017660997139305813 -14.329809626167156 -4.0829326978900951e-06 9.146802360054624e-05 -18.000672145201957 3.1577884813976393e-05 0.00015769493002989543 -18.00068145663381 -2.6032374485094275e-08 1.6731868442410117e-05 -0.00070466061880543752 1.3577049516328177e-07 -7.6978271804482832e-05 -0.00063260843565130377 4.5248191570086891e-06 2.1635632741839188e-05 -0.00043076803198283391 -1.1898554813613883e-05 -0.00018946280387750514 -3.6714622322058275 8.7833889406321836e-05 -0.00010277132611476874 -5.6342666417144889 9.084675713787726e-05 -0.000178409117158977 -9.1864885098914577 0.00015511729706514052 -0.00015752385578606955 -7.2006334717427469 0.00016860054293033356 -9.2093665196779889e-05 -8.8147452728003532 -2.6002565842290503e-05 -0.00012959479575129563 -2.3712497931783316 -8.4142756444938123e-05 -0.00013020041310762154 -3.0080837665246687 -4.6268174728439357e-05 -0.00011912175942803325 -5.1755936179622068 -2.0854650588358923e-08 -6.0730713035321796e-05 -3.5594661988139373 2.1004620020276482e-05 4.5431099924851995e-06 -0.00039390072221281839 1.6658313161567765e-05 -4.4239442825664738e-09 -0.00068008571925826274 -8.8725345705609137e-06 9.2010091284365343e-06 -0.00049743935087107549 -5.551744166254126e-05 3.0319446361409032e-05 -3.388047273667623 4.4987189988489345e-05 9.1844703327528701e-05 -18.000662540503793 8.2714071011523276e-05 0.00010745755851943046 -15.04033038301505 8.87628988165085e-05 9.0297862631902507e-05 -18.00065941811755 6.9265464142664036e-05 7.002101444031617e-05 -13.496998911780246 0.00019053028110948625 -9.8664276415750734e-06 -3.6714654017106789 0.00011859675941194662 -4.4644070271330152e-05 -5.1755723784891527 0.00013973475214910672 -1.3907646487358678e-05 -6.8945626467498471 5.0951048088386253e-05 -1.956451354636106e-05 -3.6826625843625407 -2.1765987198921882e-05 -4.6145907378921879e-06 -0.00039086916470327458 0.00013028771714509665 -7.6016595063193082e-05 -3.008074148913161 0.00012951201938542117 -1.030744136819088e-05 -2.3712059765106561 5.0951048088386213e-05 -1.956451354636105e-05 -3.6826625843625407 -0.00013000438026960259 8.7884996738109395e-05 -2.8268274849209831 -8.398000741040762e-05 0.00013027328051680751 -3.0080728622132309 -0.00010907746054537598 9.1050603991539865e-05 -5.5980248431635706 -5.551744166254126e-05 3.0319446361409032e-05 -3.388047273667623 -9.1883647489109408e-05 -1.1501545984557046e-06 -18.000675036697739 -9.0782894998885766e-05 -4.8254042513066549e-05 -18.000670330398322 -0.00015455954768270899 -3.5057669769100641e-05 -18.000678398434538 -0.00017041205436010796 -3.5017849039651056e-06 -14.32981010034608 -0.0001593848115227 3.2420687640137856e-05 -18.000684115615069 -0.00010931962568937949 4.624928236212659e-05 -15.629987702568473 -9.1883647489109408e-05 -1.1501545984557046e-06 -18.000675036697739 -0.00017041205436010796 -3.5017849039651094e-06 -14.329810100346082 -5.0603240832732144e-05 0.00011860952430756494 -5.1755778464302447 -8.398000741040762e-05 0.00013027328051680751 -3.0080728622132309 -2.3079697332883424e-05 0.00012950253270263394 -2.3712138669757743 -5.551744166254126e-05 3.0319446361409032e-05 -3.388047273667623 -0.00019407860848646923 -9.9037520939548227e-06 -3.6714527506896903 -0.00012281521162747783 3.1514557574876092e-05 -2.3349605254838588 -0.00011855049038870447 4.5621185897033094e-05 -5.1755718300551568 -5.5517441662541247e-05 3.0319446361409018e-05 -3.3880472736676226 0.00015292673128138154 -3.0068086454385776e-05 -18.000673330571036 8.8746423179647026e-05 -6.0222297875374842e-06 -18.000672482601484 0.00017661196267593137 -3.8696550812257152e-06 -14.329808802062496 8.0493022879137485e-05 -3.6451471731657108e-05 -14.495336684488498 -8.550665979822611e-05 0.00016860350103610749 -8.8147385397052851 -0.00015814743104262344 0.00015511267355720573 -7.2006182374895671 -9.6585454374517853e-05 9.3431256151998084e-05 -5.6177280202683795 -7.6524307948240328e-05 7.7827650563770415e-05 -6.9495308801107605 0.00010888496145769071 4.6702923795040723e-05 -15.639420603690638 8.87628988165085e-05 9.0297862631902507e-05 -18.00065941811755 0.00010745923466989395 8.4766649612602013e-05 -15.040327023564549 6.9265464142664049e-05 7.002101444031617e-05 -13.496998911780246 0.00014240246500908858 -3.4757652514682904e-05 -10.254426118540231 7.9405039643381855e-05 -7.0205926849341223e-05 -8.8027460820885697 0.00016860054293033356 -9.2093665196779889e-05 -8.8147452728003532 7.6545272793753142e-05 -7.6033936656246171e-05 -12.121545869076563 -1.7144964725052401e-05 0.00013971569456777236 -6.8945721045996571 9.0830632948897314e-06 0.00019055602151530425 -3.6714755132175751 2.8287087543558091e-05 0.00013865281502691918 -7.618324287753528 -1.6564643682703435e-06 7.7156788828507104e-05 -4.9733903210620083 8.5195898646498415e-05 -0.00010881118980917008 -14.993153539680677 0.00010853713371024811 -9.0149241608151285e-05 -14.993152553998351 0.00010130248942603585 -9.7712264038148105e-05 -12.383505862975781 7.6545272793753142e-05 -7.6033936656246171e-05 -12.121545869076563 -2.3079697332883424e-05 0.00012950253270263394 -2.3712138669757743 -8.398000741040762e-05 0.00013027328051680751 -3.0080728622132309 2.1028274496414022e-05 -2.2520755349666266e-05 -0.00043247800393616821 -5.5517441662541281e-05 3.0319446361409049e-05 -3.3880472736676239 5.0052634869892587e-05 5.0642163338754964e-05 -18.000662912316056 9.1168980855097344e-05 4.4554056855968427e-05 -18.000663573981956 8.8746423179647026e-05 -6.0222297875374842e-06 -18.000672482601484 6.0218220723293475e-05 3.790533885622598e-06 -14.394471404099082 -0.00015434250887238422 0.00015981549944175559 -10.800625038460884 -9.8921370444029195e-05 0.00010965087083347255 -12.366961761562495 -9.8501906289231295e-05 9.9254572065674408e-05 -12.383504131539162 -8.3446772044337965e-05 8.1301658715782441e-05 -10.999402634395079 5.0052634869892587e-05 5.0642163338754964e-05 -18.000662912316056 4.4987189988489338e-05 9.1844703327528715e-05 -18.000662540503793 8.87628988165085e-05 9.0297862631902507e-05 -18.00065941811755 6.9265464142664036e-05 7.002101444031617e-05 -13.496998911780246 0.00012951201938542122 -1.0307441368190859e-05 -2.3712059765106566 0.00011859675941194662 -4.4644070271330152e-05 -5.1755723784891527 0.00019053028110948625 -9.8664276415750734e-06 -3.6714654017106789 5.0951048088386213e-05 -1.956451354636105e-05 -3.6826625843625407 0.00013028771714509668 -7.6016595063193055e-05 -3.0080741489131615 9.3439194697136869e-05 -8.2827395234403865e-05 -5.6177301126889931 0.00011859675941194662 -4.4644070271330152e-05 -5.1755723784891527 5.0951048088386213e-05 -1.956451354636105e-05 -3.6826625843625407 0.00013973475214910672 -1.3907646487358678e-05 -6.8945626467498471 0.00016860054293033356 -9.2093665196779889e-05 -8.8147452728003532 0.00014240246500908858 -3.4757652514682904e-05 -10.254426118540231 7.9405039643381855e-05 -7.0205926849341223e-05 -8.8027460820885697 0.00017539250360019371 9.5460897868590415e-05 -9.1864773721589863 0.00014900175010754471 2.0815885683260405e-05 -11.102943129774127 0.00012674247838549376 5.2158959898735568e-05 -12.825631568285278 8.0960162176960904e-05 7.3383467258547215e-05 -9.6855741452977089 0.00017539250360019371 9.5460897868590415e-05 -9.1864773721589863 0.00013866063657257767 3.4726847636437601e-05 -7.6183301229442737 0.00014900175010754471 2.0815885683260405e-05 -11.102943129774127 8.0960162176960918e-05 7.3383467258547228e-05 -9.6855741452977107 -2.1765987198921882e-05 -4.6145907378921879e-06 -0.00039086916470327458 -2.2512219567563306e-05 2.288565395815928e-05 -0.00043265007389213029 0.00013028771714509668 -7.6016595063193055e-05 -3.0080741489131615 5.0951048088386213e-05 -1.956451354636105e-05 -3.6826625843625407 0.00012242908446789109 -5.7975071915212778e-05 -12.825637823911741 0.00010853713371024812 -9.0149241608151299e-05 -14.993152553998353 8.0493022879137485e-05 -3.6451471731657108e-05 -14.495336684488498 7.6545272793753129e-05 -7.6033936656246171e-05 -12.121545869076563 -2.6002565842290503e-05 -0.00012959479575129563 -2.3712497931783316 -1.07903987795801e-07 -7.9549026885476166e-05 -0.00061174673515442814 -4.4450533064651624e-06 2.1815255006633252e-05 -0.00039217012726969273 -2.0854650588367662e-08 -6.0730713035321775e-05 -3.5594661988139364 0.00010745923466989395 8.4766649612602013e-05 -15.040327023564549 8.7621889359318754e-05 9.8645683594210482e-05 -12.450747877761467 9.8640639505258581e-05 8.4880877226723323e-05 -12.450741823965712 6.9265464142664036e-05 7.002101444031617e-05 -13.496998911780246 5.0052634869892587e-05 5.0642163338754964e-05 -18.000662912316056 8.87628988165085e-05 9.0297862631902507e-05 -18.00065941811755 9.1168980855097344e-05 4.4554056855968427e-05 -18.000663573981956 6.9265464142664036e-05 7.002101444031617e-05 -13.496998911780246 -0.00010907746054537598 9.1050603991539865e-05 -5.5980248431635706 -0.00015814743104262344 0.00015511267355720573 -7.2006182374895671 -0.00017158261590851615 8.6598568170033591e-05 -9.1864811056773732 -7.6524307948240328e-05 7.7827650563770415e-05 -6.9495308801107605 -0.00014649689900554012 1.9296323995193301e-05 -11.366767847644361 -0.00017158261590851615 8.6598568170033604e-05 -9.1864811056773732 -0.00012260694386324376 5.8225072929117639e-05 -12.825635291146 -8.3446772044337925e-05 8.1301658715782454e-05 -10.999402634395077 9.9908331710670358e-05 -5.0934907065734275e-05 -18.000668235795541 9.306479326964633e-05 -9.3524415142361278e-05 -18.000666523136452 5.6539516930375717e-05 -5.4576642578592401e-05 -18.000671982755154 8.0493022879137485e-05 -3.6451471731657108e-05 -14.495336684488498 -3.0792386391014046e-05 0.00015293108884192815 -18.000674522518157 -5.1008431132875897e-05 0.00010065864941178387 -18.000666777521658 -5.2039912642749521e-05 9.7696951456717647e-05 -15.615648350709991 -2.6682865744602651e-05 8.2901261764422175e-05 -14.466540689678981 -8.550665979822611e-05 0.00016860350103610749 -8.8147385397052851 -9.8921370444029195e-05 0.00010965087083347255 -12.366961761562495 -0.00015434250887238422 0.00015981549944175559 -10.800625038460884 -8.3446772044337979e-05 8.1301658715782454e-05 -10.999402634395079 4.5248191570086891e-06 2.1635632741839188e-05 -0.00043076803198283391 -2.2512219567563306e-05 2.288565395815928e-05 -0.00043265007389213029 9.2194204691449509e-06 -9.2464976857869075e-06 -0.00050287923417428502 5.0951048088386213e-05 -1.956451354636105e-05 -3.6826625843625407 -8.550665979822611e-05 0.00016860350103610749 -8.8147385397052851 -5.0603240832732144e-05 0.00011860952430756494 -5.1755778464302447 -1.7144964725052401e-05 0.00013971569456777236 -6.8945721045996571 -7.6524307948240328e-05 7.7827650563770415e-05 -6.9495308801107605 -5.889530449986102e-05 0.00012242683352455737 -12.825637440976802 -3.7882672294800167e-05 0.00014241456584638824 -10.254427308345981 -5.7561436164462471e-06 0.00017660997139305813 -14.329809626167156 -2.6682865744602651e-05 8.2901261764422175e-05 -14.466540689678981 0.00012242908446789109 -5.7975071915212778e-05 -12.825637823911741 0.00016860054293033356 -9.2093665196779889e-05 -8.8147452728003532 0.00010965164745798966 -9.8015887892919062e-05 -12.366962131717484 7.6545272793753142e-05 -7.6033936656246171e-05 -12.121545869076563 -8.550665979822611e-05 0.00016860350103610749 -8.8147385397052851 -0.00017158261590851618 8.6598568170033591e-05 -9.186481105677375 -0.00015814743104262344 0.00015511267355720573 -7.2006182374895671 -7.6524307948240328e-05 7.7827650563770415e-05 -6.9495308801107605 -1.6772239871486523e-05 1.1529091885863168e-07 -0.00069016881923179081 9.2194204691449509e-06 -9.2464976857869075e-06 -0.00050287923417428502 -2.1765987198921882e-05 -4.6145907378921879e-06 -0.00039086916470327458 5.0951048088386213e-05 -1.956451354636105e-05 -3.6826625843625407 -2.6032374485094275e-08 1.6731868442410117e-05 -0.00070466061880543752 -1.2527878667765527e-06 -1.2653930224785853e-06 -0.00059372002650813255 -9.1128201767663147e-06 -9.2038978738681371e-06 -0.0004847655714304023 -2.0854650588357693e-08 -6.0730713035321782e-05 -3.5594661988139373 -0.00015434250887238422 0.00015981549944175559 -10.800625038460884 -9.8501906289231295e-05 9.9254572065674408e-05 -12.383504131539162 -0.00017158261590851615 8.6598568170033604e-05 -9.1864811056773732 -8.3446772044337993e-05 8.1301658715782441e-05 -10.999402634395079 -8.550665979822611e-05 0.00016860350103610749 -8.8147385397052851 -0.00015434250887238422 0.00015981549944175559 -10.800625038460884 -0.00017158261590851615 8.6598568170033591e-05 -9.1864811056773732 -8.3446772044337979e-05 8.1301658715782427e-05 -10.999402634395077 -2.6002565842290503e-05 -0.00012959479575129563 -2.3712497931783316 -1.1898554813613881e-05 -0.00018946280387750514 -3.6714622322058275 -1.07903987795801e-07 -7.9549026885476166e-05 -0.00061174673515442814 -2.0854650588357693e-08 -6.0730713035321782e-05 -3.5594661988139373 -8.550665979822611e-05 0.00016860350103610749 -8.8147385397052851 -0.00017158261590851615 8.6598568170033591e-05 -9.1864811056773732 -7.6524307948240314e-05 7.7827650563770402e-05 -6.9495308801107596 -8.3446772044337993e-05 8.1301658715782454e-05 -10.999402634395079 0.00014240246500908858 -3.4757652514682904e-05 -10.254426118540231 0.00016860054293033356 -9.2093665196779889e-05 -8.8147452728003532 0.00012242908446789106 -5.7975071915212771e-05 -12.825637823911741 7.6545272793753142e-05 -7.6033936656246171e-05 -12.121545869076563 2.1598517043903137e-05 -4.5349551530117086e-06 -0.00043865864448533665 -7.8726114980336875e-05 -1.1176636110363461e-07 -0.00063773896431171229 -0.00012992200822061747 -1.7773041400599733e-05 -2.3618108544173602 -7.3030749525209975e-05 2.3975177379793748e-06 -3.5694862793977458 -3.0792386391014046e-05 0.00015293108884192815 -18.000674522518157 -4.0829326978900858e-06 9.1468023600546267e-05 -18.000672145201957 -5.1008431132875897e-05 0.00010065864941178387 -18.000666777521658 -2.6682865744602651e-05 8.2901261764422175e-05 -14.466540689678981 0.00011981098591033772 0.00011981027259392671 -14.400663738426799 0.00010745923466989394 8.4766649612602e-05 -15.040327023564547 8.7621889359318754e-05 9.8645683594210482e-05 -12.450747877761467 9.8640639505258581e-05 8.4880877226723323e-05 -12.450741823965712 -4.4450533064651624e-06 2.1815255006633252e-05 -0.00039217012726969273 -1.07903987795801e-07 -7.9549026885476166e-05 -0.00061174673515442814 -2.6032374485094275e-08 1.6731868442410117e-05 -0.00070466061880543752 -2.0854650588357693e-08 -6.0730713035321782e-05 -3.5594661988139373 -3.0792386391014046e-05 0.00015293108884192815 -18.000674522518157 -5.2039912642749521e-05 9.7696951456717647e-05 -15.615648350709991 -5.7561436164462446e-06 0.00017660997139305813 -14.329809626167156 -2.6682865744602651e-05 8.2901261764422175e-05 -14.466540689678981 -8.405939511630647e-05 -0.00010818175023724174 -14.993160485389225 -8.6760573039267543e-05 -0.00012331768336000369 -18.000685978069797 -4.8926199649882522e-05 -9.8478875070980482e-05 -15.615655054498383 -5.2274516635187628e-05 -9.3027817525748963e-05 -18.000670420746832 -0.00012886960270319973 -0.00013313028381150879 -3.6006237329747908 -8.4142756444938137e-05 -0.00013020041310762151 -3.0080837665246687 -9.4692071284310425e-05 -8.4085900453570925e-05 -5.5504956534356733 -8.4611311785439785e-05 -9.3302958677176376e-05 -5.617728127371528 -5.0603240832732144e-05 0.00011860952430756494 -5.1755778464302447 9.0830632948897314e-06 0.00019055602151530425 -3.6714755132175751 -1.7144964725052401e-05 0.00013971569456777236 -6.8945721045996571 -1.6564643682703435e-06 7.7156788828507104e-05 -4.9733903210620083 -2.6032374485094275e-08 1.6731868442410117e-05 -0.00070466061880543752 -1.0790398779580143e-07 -7.9549026885476179e-05 -0.00061174673515434575 -1.1898554813613886e-05 -0.00018946280387750514 -3.6714622322058275 -2.0854650588357693e-08 -6.0730713035321782e-05 -3.5594661988139373 -5.7561436164462446e-06 0.00017660997139305813 -14.329809626167156 -4.0829326978900807e-06 9.146802360054628e-05 -18.000672145201957 -3.0792386391014046e-05 0.00015293108884192815 -18.000674522518157 -2.6682865744602655e-05 8.2901261764422175e-05 -14.466540689678981 -8.4142756444938123e-05 -0.00013020041310762154 -3.0080837665246687 -2.60025658422905e-05 -0.00012959479575129563 -2.3712497931783316 9.3513774604288281e-06 -5.9761512927515348e-05 -0.00049451275150944149 -4.4450533064651624e-06 2.1815255006633252e-05 -0.00039217012726969273 2.3816106115514376e-05 -0.00011941717449393304 -2.3855482341187906 4.5248191570086899e-06 2.1635632741839208e-05 -0.00043076803198210484 -2.2512219567563306e-05 2.288565395815928e-05 -0.00043265007389213029 -9.5247863936612142e-06 -6.1845367363464886e-05 -0.00047854339915503406 9.3439194697136869e-05 -8.2827395234403865e-05 -5.6177301126889931 0.00013304910644507847 -0.00012918398191623623 -3.6006188057197934 8.783388940632185e-05 -0.00010277132611476873 -5.6342666417144898 8.7641720475871817e-05 -0.00013114573119797865 -3.008072141340969 -2.1765987198921882e-05 -4.6145907378921879e-06 -0.00039086916470327458 0.0001295120193854212 -1.0307441368190891e-05 -2.3712059765106566 0.00013028771714509668 -7.6016595063193055e-05 -3.0080741489131615 5.979685631181564e-05 9.3952625625654606e-06 -0.00049490501159183049 -9.8921370444029195e-05 0.00010965087083347255 -12.366961761562495 -9.8501906289231295e-05 9.9254572065674408e-05 -12.383504131539162 -8.76530895667676e-05 0.00010853791031824606 -14.993151375136735 -0.00012328111278813177 0.00011855166462540629 -14.400663441143418 0.00010130248942603585 -9.7712264038148105e-05 -12.383505862975781 0.00010965164745798966 -9.8015887892919076e-05 -12.366962131717482 0.00010853713371024812 -9.0149241608151299e-05 -14.993152553998353 0.00011855351809676501 -0.00012380360635619485 -14.400666180922869 -9.0782894998885766e-05 -4.8254042513066549e-05 -18.000670330398322 -0.00010816290328470918 -8.5181861756667622e-05 -14.99315588114991 -0.00012337510321210084 -8.5660229475338325e-05 -18.000683468876677 -9.837992684408797e-05 -5.2646743794984991e-05 -15.615652928313695 8.2714071011523276e-05 0.00010745755851943048 -15.040330383015052 0.00010745923466989394 8.4766649612602e-05 -15.040327023564551 8.87628988165085e-05 9.0297862631902507e-05 -18.00065941811755 6.9265464142664036e-05 7.002101444031617e-05 -13.496998911780247 -1.2085678345586269e-07 7.9294141696844555e-05 -0.00063951275453443836 5.4773534935065782e-10 -1.6771614711411462e-05 -0.00067059287758595998 1.3218163766206397e-07 7.7355673166747382e-05 -0.00062759034132154376 9.0830632948897314e-06 0.00019055602151530425 -3.6714755132175751 -2.1022456668313783e-05 -2.1020668999429796e-05 -0.00042690524798053969 -8.6692497357221731e-06 5.7377420305701182e-05 -0.00047779200726577424 4.1004609500944611e-06 -2.1126803761504402e-05 -0.00039717469118998099 2.9443526199445825e-05 0.00012257184513441317 -2.3349430557664204 8.6430250018239643e-05 0.00017539644862922952 -9.1864751415221715 0.00015490918157375636 0.00015490253751795761 -10.800602722741139 0.00017539250360019371 9.5460897868590415e-05 -9.1864773721589863 0.00015715222178177952 0.0001571471208763866 -7.2006139768331705 -0.00015935507379260139 -0.00015982812312055885 -10.800620433804164 -0.00015621081757995789 -0.00015506053716638719 -7.2006367917988898 -0.00016979381779081649 -9.803490899465116e-05 -8.8147511330287305 -8.9172160982197956e-05 -0.00016884375536200977 -8.8147519431090195 2.1004620020276482e-05 4.5431099924851995e-06 -0.00039390072221281839 2.1028274496414008e-05 -2.2520755349666249e-05 -0.00043247800393687679 -0.00012281521162747783 3.1514557574876092e-05 -2.3349605254838588 -5.551744166254126e-05 3.0319446361409032e-05 -3.388047273667623 -0.00012281521162747783 3.1514557574876092e-05 -2.3349605254838588 2.1004620020276482e-05 4.5431099924851995e-06 -0.00039390072221281839 -5.730682948800523e-05 -9.5259884952014043e-06 -0.00049335894830045504 2.1028274496414008e-05 -2.2520755349666249e-05 -0.00043247800393687679 0.00010853713371024812 -9.0149241608151299e-05 -14.993152553998353 9.9908331710670358e-05 -5.0934907065734275e-05 -18.000668235795541 0.00012378533629437273 -8.8348426890840076e-05 -18.000679587721589 9.7697234727977693e-05 -5.5166277780798851e-05 -15.615648770786567 -7.8726114980336875e-05 -1.1176636110363461e-07 -0.00063773896431171229 1.6658313161567762e-05 -4.423944282565793e-09 -0.00068008571925838558 -0.00019407860848646925 -9.9037520939548244e-06 -3.6714527506896903 -7.3030749525209948e-05 2.3975177379793808e-06 -3.5694862793977462 -7.8726114980336875e-05 -1.1176636110363461e-07 -0.00063773896431171229 2.1598517043903137e-05 -4.5349551530117086e-06 -0.00043865864448533665 1.6658313161567762e-05 -4.423944282565793e-09 -0.00068008571925838558 -7.3030749525210002e-05 2.3975177379793774e-06 -3.5694862793977462 0.00010745923466989395 8.4766649612602013e-05 -15.040327023564549 8.2714071011523276e-05 0.00010745755851943049 -15.040330383015052 8.7621889359318754e-05 9.8645683594210482e-05 -12.450747877761467 6.9265464142664009e-05 7.0021014440316157e-05 -13.496998911780244 0.00012242908446789109 -5.7975071915212778e-05 -12.825637823911741 0.00010853713371024812 -9.0149241608151299e-05 -14.993152553998353 9.7697234727977693e-05 -5.5166277780798851e-05 -15.615648770786567 8.0493022879137485e-05 -3.6451471731657108e-05 -14.495336684488498 -7.8726114980336875e-05 -1.1176636110363461e-07 -0.00063773896431171229 -0.00019407860848646923 -9.9037520939548227e-06 -3.6714527506896903 -0.00012992200822061747 -1.7773041400599733e-05 -2.3618108544173597 -7.3030749525209893e-05 2.3975177379793859e-06 -3.5694862793977453 -8.398000741040762e-05 0.00013027328051680751 -3.0080728622132309 -0.00012066072561034187 0.00013306331720954465 -3.6006193727700415 -0.00010907746054537598 9.1050603991539865e-05 -5.5980248431635706 -9.6585454374517853e-05 9.3431256151998084e-05 -5.6177280202683795 -8.7653089566767613e-05 0.00010853791031824606 -14.993151375136735 -8.7867989606788284e-05 0.00012378499490238142 -18.000678072560689 -5.1008431132875891e-05 0.00010065864941178387 -18.000666777521658 -5.2039912642749521e-05 9.7696951456717647e-05 -15.615648350709991 0.00019053028110948625 -9.8664276415750734e-06 -3.6714654017106789 7.7355663588432149e-05 8.3683994845227008e-08 -0.00063550061574218044 7.9314792945042994e-05 -1.053191098978425e-07 -0.00061647582934083419 -1.6772239871486523e-05 1.1529091885863168e-07 -0.00069016881923179081 -0.00013000438026960259 8.7884996738109395e-05 -2.8268274849209831 2.1028274496414001e-05 -2.2520755349666242e-05 -0.00043247800393681688 -8.398000741040762e-05 0.00013027328051680751 -3.0080728622132309 -5.551744166254126e-05 3.0319446361409032e-05 -3.388047273667623 8.8746423179647026e-05 -6.0222297875374842e-06 -18.000672482601484 0.00015292673128138154 -3.0068086454385776e-05 -18.000673330571036 0.00017661196267593137 -3.8696550812257169e-06 -14.329808802062496 0.00015770249164434184 3.1127804082963551e-05 -18.000672814099236 4.4250835695460036e-05 0.00010889080461882123 -15.639422505258914 4.4987189988489345e-05 9.1844703327528701e-05 -18.000662540503793 8.2714071011523276e-05 0.00010745755851943048 -15.040330383015052 8.3011468403866484e-05 0.00011797533168681736 -18.000674352471126 -2.863954610078583e-06 -9.6867148962360804e-05 -18.000675161013572 -3.7160672606702536e-05 -0.00015463113821726556 -18.000689386469933 -2.7751890347416904e-06 -0.00017011134053490407 -14.329813472429908 3.5531159359495573e-05 -0.00015937922205289532 -18.000688404248788 8.9520310650679521e-05 0.00010752863126185365 -5.598001250935206 0.00012934240068143102 8.1717937097800552e-05 -2.8268197934621271 0.00012156080821453578 0.00012155721750261833 -3.6006045062383296 0.00010752456001454087 8.7057162839067402e-05 -5.5980074561327084 -2.3079697332883424e-05 0.00012950253270263394 -2.3712138669757743 2.1028274496414008e-05 -2.2520755349666249e-05 -0.00043247800393687679 8.6686666576194574e-06 5.9805945626471632e-05 -0.0004747848315727092 -4.1280735576664007e-06 -2.1740457975472143e-05 -0.00043806827866045491 -8.405939511630647e-05 -0.00010818175023724174 -14.993160485389225 -0.00011889556744271018 -0.00011874808660898292 -14.400670988621727 -0.00010912284140812554 -9.3171590803762798e-05 -12.366965980574648 -9.4523931815015694e-05 -0.00010929031160023451 -12.366974518938637 0.00010888496145769071 4.6702923795040723e-05 -15.639420603690638 9.116898085509733e-05 4.4554056855968434e-05 -18.000663573981956 0.00011797558126266847 8.5432107082951113e-05 -18.000672006849449 8.8762898816508487e-05 9.0297862631902494e-05 -18.00065941811755 1.8896097576705478e-05 -3.7956718740192119e-05 -18.000670564196778 2.9371520273084415e-05 1.5336921016930802e-05 -18.000667863743939 8.8746423179647026e-05 -6.0222297875374842e-06 -18.000672482601484 6.0218220723293475e-05 3.7905338856226031e-06 -14.394471404099082 -5.9150510123219363e-05 9.5306098716043002e-06 -0.00047431570499002654 2.2165585658258704e-05 2.2492402617214108e-05 -0.00043489229814464958 2.1598517043903137e-05 -4.5349551530117086e-06 -0.00043865864448533665 -0.00012992200822061747 -1.7773041400599733e-05 -2.3618108544173597 -2.6032374485094275e-08 1.6731868442410117e-05 -0.00070466061880543752 -1.07903987795801e-07 -7.9549026885476166e-05 -0.00061174673515442814 1.3577049516328177e-07 -7.6978271804482832e-05 -0.00063260843565130377 -1.1898554813613883e-05 -0.00018946280387750514 -3.6714622322058275 -2.1022456668313783e-05 -2.1020668999429796e-05 -0.00042690524798053969 5.7378127526131987e-05 -8.6606604254567641e-06 -0.00047183404787881671 0.00012257465262365935 2.4300416687567908e-05 -2.3349666062241692 -2.1120631393069733e-05 4.1023401592752486e-06 -0.00043557219841457558 9.084675713787726e-05 -0.00017840911715897697 -9.1864885098914577 0.00015981504098713551 -0.00015234773133184182 -10.800630983166796 0.00015511729706514052 -0.00015752385578606952 -7.2006334717427469 0.00016860054293033356 -9.2093665196779889e-05 -8.8147452728003532 -5.7561436164462446e-06 0.00017660997139305813 -14.329809626167156 -3.0792386391014039e-05 0.00015293108884192812 -18.000674522518157 -4.0829326978900883e-06 9.146802360054628e-05 -18.000672145201957 3.1577884813976393e-05 0.00015769493002989543 -18.00068145663381 -0.00015814743104262344 0.00015511267355720573 -7.2006182374895671 -8.550665979822611e-05 0.00016860350103610749 -8.8147385397052851 -0.00015434250887238422 0.00015981549944175559 -10.800625038460884 -0.00017158261590851615 8.6598568170033604e-05 -9.1864811056773732 -0.00010907746054537598 9.1050603991539865e-05 -5.5980248431635706 -7.6524307948240328e-05 7.7827650563770415e-05 -6.9495308801107605 -0.00011855049038870444 4.5621185897033087e-05 -5.1755718300551559 -5.551744166254126e-05 3.0319446361409032e-05 -3.388047273667623 -9.2094118281700599e-05 5.0247826413477698e-05 -18.000668314221063 -0.00011874489929725387 8.3925938854513888e-05 -18.000675682109904 -0.00010846110142926469 7.9501961558041425e-05 -14.993149257157482 -0.00010931962568937949 4.624928236212659e-05 -15.629987702568473 -7.6795199470536835e-05 1.243936145187622e-07 -0.00061866722038647008 -7.8726114980336875e-05 -1.1176636110363461e-07 -0.00063773896431171229 1.6658313161567762e-05 -4.423944282565793e-09 -0.00068008571925838558 -0.00019407860848646923 -9.9037520939548227e-06 -3.6714527506896903 2.2165585658258704e-05 2.2492402617214108e-05 -0.00043489229814464958 -8.4142756444938123e-05 -0.00013020041310762154 -3.0080837665246687 9.3513774604288264e-06 -5.9761512927515348e-05 -0.00049451275150944149 -4.4450533064651624e-06 2.1815255006633252e-05 -0.00039217012726969273 2.3816106115514376e-05 -0.00011941717449393304 -2.3855482341187906 -2.2512219567563306e-05 2.288565395815928e-05 -0.00043265007389215663 8.7641720475871803e-05 -0.00013114573119797865 -3.008072141340969 -9.5247863936612142e-06 -6.1845367363464886e-05 -0.00047854339915503406 0.00013304910644507847 -0.00012918398191623623 -3.6006188057197934 9.3439194697136869e-05 -8.2827395234403865e-05 -5.6177301126889931 0.00013028771714509668 -7.6016595063193055e-05 -3.0080741489131615 8.7641720475871803e-05 -0.00013114573119797865 -3.008072141340969 -2.1765987198921882e-05 -4.6145907378921879e-06 -0.00039086916470327458 0.00013028771714509668 -7.6016595063193055e-05 -3.0080741489131615 -2.2512219567563303e-05 2.288565395815928e-05 -0.00043265007389213029 5.979685631181564e-05 9.3952625625654606e-06 -0.00049490501159183049 8.5195898646498415e-05 -0.00010881118980917008 -14.993153539680677 0.00010130248942603585 -9.7712264038148105e-05 -12.383505862975783 0.00010853713371024812 -9.0149241608151299e-05 -14.993152553998353 0.00011855351809676501 -0.00012380360635619485 -14.400666180922869 -8.7653089566767613e-05 0.00010853791031824606 -14.993151375136735 -9.8501906289231281e-05 9.9254572065674395e-05 -12.38350413153916 -0.00010846110142926466 7.9501961558041425e-05 -14.99314925715748 -0.00012328111278813177 0.00011855166462540629 -14.400663441143418 0.00012934240068143102 8.1717937097800552e-05 -2.8268197934621271 8.9520310650679521e-05 0.00010752863126185365 -5.598001250935206 0.00012156080821453578 0.00012155721750261833 -3.6006045062383296 8.3258308693137195e-05 0.00012934536045024246 -2.8268086076169476 0.00010745923466989395 8.4766649612602013e-05 -15.040327023564549 8.2714071011523276e-05 0.00010745755851943048 -15.040330383015053 8.8762898816508487e-05 9.0297862631902494e-05 -18.00065941811755 0.00018281436329935834 0.0001828165692051087 -18.000703586385338 9.3012855332153246e-05 -9.2845883284708433e-05 -0.0007432528923478109 0.00013028771714509668 -7.6016595063193055e-05 -3.0080741489131615 -2.2512219567563306e-05 2.288565395815928e-05 -0.00043265007389213029 8.7641720475871803e-05 -0.00013114573119797865 -3.008072141340969 -0.00010816290328470918 -8.5181861756667622e-05 -14.99315588114991 -9.1901998321488804e-05 -9.1825701555014503e-05 -18.000667287357011 -0.00018605839560591891 -0.00018610084770584982 -18.000713677273506 -8.405939511630647e-05 -0.00010818175023724174 -14.993160485389225 -9.1497935186718601e-05 -9.3027493354132628e-05 -0.00074328674591657093 -8.4142756444938123e-05 -0.00013020041310762154 -3.0080837665246687 2.2165585658258704e-05 2.2492402617214108e-05 -0.00043489229814464958 -0.00012921905810508446 -7.0021853138365508e-05 -2.9608865794027373 -8.6692497357221731e-06 5.7377420305701182e-05 -0.00047779200726577424 -2.1022456668313783e-05 -2.1020668999429796e-05 -0.0004269052479805547 8.3258308693137195e-05 0.00012934536045024246 -2.8268086076169476 2.9443526199445825e-05 0.00012257184513441317 -2.3349430557664204 5.7378127526131987e-05 -8.6606604254567641e-06 -0.00047183404787881671 0.00012934240068143102 8.1717937097800552e-05 -2.8268197934621271 -2.1022456668313783e-05 -2.1020668999429796e-05 -0.00042690524798053969 0.00012257465262365935 2.4300416687567908e-05 -2.3349666062241692 4.9810081526577643e-05 -0.0001097038000559613 -15.629992958221699 8.5195898646498415e-05 -0.00010881118980917008 -14.993153539680677 5.15697652357654e-05 -9.3985453914083108e-05 -18.000670712283444 8.6456678371646251e-05 -0.00011854420438319405 -18.000678929322493 -8.5716928627735124e-05 9.3014992908210757e-05 -0.00074466790100849673 -0.00013000438026960259 8.7884996738109395e-05 -2.8268274849209831 2.1028274496414008e-05 -2.2520755349666249e-05 -0.00043247800393687679 -8.398000741040762e-05 0.00013027328051680751 -3.0080728622132309 -9.6001516817300101e-05 9.5508419293289482e-05 -18.00066461404667 -8.7653089566767627e-05 0.00010853791031824606 -14.993151375136737 -0.00010846110142926468 7.9501961558041412e-05 -14.993149257157482 -0.00018597167251112985 0.00018585429113814872 -18.000706931198543 0.00010853713371024812 -9.0149241608151299e-05 -14.993152553998353 8.5195898646498415e-05 -0.00010881118980917008 -14.993153539680677 0.00018585385978352965 -0.0001857157264687408 -18.000706679520707 9.3064793269646316e-05 -9.3524415142361264e-05 -18.000666523136449 -9.6001516817300101e-05 9.5508419293289482e-05 -18.00066461404667 -9.2094118281700599e-05 5.0247826413477698e-05 -18.000668314221063 -0.00011874489929725385 8.3925938854513888e-05 -18.000675682109904 -0.00010846110142926469 7.9501961558041425e-05 -14.993149257157482 -0.00012281521162747783 3.1514557574876092e-05 -2.3349605254838588 -5.7306829488005209e-05 -9.525988495201406e-06 -0.00049335894830019103 -0.00013000438026960259 8.7884996738109395e-05 -2.8268274849209831 2.1028274496414008e-05 -2.2520755349666249e-05 -0.00043247800393687679 9.9908331710670358e-05 -5.0934907065734275e-05 -18.000668235795541 0.00010853713371024812 -9.0149241608151299e-05 -14.993152553998353 0.00012378533629437273 -8.8348426890840076e-05 -18.000679587721589 9.306479326964633e-05 -9.3524415142361278e-05 -18.000666523136452 -0.00013000438026960259 8.7884996738109395e-05 -2.8268274849209831 -0.00012281521162747783 3.1514557574876092e-05 -2.3349605254838588 2.1028274496414008e-05 -2.2520755349666249e-05 -0.00043247800393687679 -5.551744166254126e-05 3.0319446361409032e-05 -3.388047273667623 8.2714071011523276e-05 0.00010745755851943048 -15.040330383015052 4.4987189988489372e-05 9.1844703327528701e-05 -18.000662540503793 8.87628988165085e-05 9.0297862631902507e-05 -18.00065941811755 8.3011468403866484e-05 0.00011797533168681736 -18.000674352471126 0.00010745923466989395 8.4766649612602013e-05 -15.040327023564549 8.2714071011523289e-05 0.00010745755851943049 -15.04033038301505 0.00011981098591033772 0.00011981027259392671 -14.400663738426799 8.7621889359318754e-05 9.8645683594210482e-05 -12.450747877761467 0.00012934240068143102 8.1717937097800552e-05 -2.8268197934621271 8.5750234055954547e-05 8.5749358382465938e-05 -0.00073321242135459706 -2.1022456668313763e-05 -2.1020668999429773e-05 -0.00042690524798085346 8.3258308693137195e-05 0.00012934536045024246 -2.8268086076169476 -0.0001593848115227 3.2420687640137856e-05 -18.000684115615069 -9.1883647489109422e-05 -1.1501545984557046e-06 -18.000675036697739 -0.00015455954768270897 -3.5057669769100641e-05 -18.000678398434538 -0.00017041205436010796 -3.5017849039651094e-06 -14.329810100346082 -0.00012886960270319973 -0.00013313028381150879 -3.6006237329747908 -8.4142756444938123e-05 -0.00013020041310762154 -3.0080837665246687 -0.00012921905810508446 -7.0021853138365508e-05 -2.9608865794027364 -9.4692071284310412e-05 -8.4085900453570911e-05 -5.5504956534356733 -9.1901998321488804e-05 -9.1825701555014503e-05 -18.000667287357011 -8.6760573039267543e-05 -0.00012331768336000369 -18.000685978069797 -8.405939511630647e-05 -0.00010818175023724174 -14.993160485389225 -5.2274516635187628e-05 -9.3027817525748963e-05 -18.000670420746832 -8.4142756444938123e-05 -0.00013020041310762154 -3.0080837665246687 -9.1497935186718601e-05 -9.3027493354132628e-05 -0.00074328674591657093 2.2165585658258704e-05 2.2492402617214108e-05 -0.00043489229814464958 9.3513774604288281e-06 -5.9761512927515348e-05 -0.00049451275150944149 0.00013304910644507847 -0.00012918398191623623 -3.6006188057197934 0.00013028771714509668 -7.6016595063193055e-05 -3.0080741489131615 9.3012855332153246e-05 -9.2845883284708433e-05 -0.00074325289234782933 8.7641720475871803e-05 -0.00013114573119797865 -3.008072141340969 -0.00011889556744271018 -0.00011874808660898292 -14.400670988621727 -0.00010816290328470918 -8.5181861756667622e-05 -14.99315588114991 -0.00018605839560591891 -0.00018610084770584982 -18.000713677273506 -8.405939511630647e-05 -0.00010818175023724174 -14.993160485389225 -8.7653089566767613e-05 0.00010853791031824606 -14.993151375136735 -0.00010846110142926469 7.9501961558041425e-05 -14.993149257157482 -0.00018597167251112985 0.00018585429113814872 -18.000706931198543 -0.00012328111278813177 0.00011855166462540629 -14.400663441143418 0.00010853713371024812 -9.0149241608151299e-05 -14.993152553998353 8.5195898646498415e-05 -0.00010881118980917008 -14.993153539680677 0.00011855351809676501 -0.00012380360635619485 -14.400666180922869 0.00018585385978352965 -0.0001857157264687408 -18.000706679520707 -2.2512219567563306e-05 2.288565395815928e-05 -0.00043265007389213029 9.3012855332153232e-05 -9.2845883284708419e-05 -0.00074325289234762159 8.7641720475871803e-05 -0.00013114573119797865 -3.008072141340969 -9.5247863936612142e-06 -6.1845367363464886e-05 -0.00047854339915503406 0.00013028771714509668 -7.6016595063193055e-05 -3.0080741489131615 9.3012855332153246e-05 -9.2845883284708433e-05 -0.0007432528923478109 -2.2512219567563306e-05 2.288565395815928e-05 -0.00043265007389213029 5.979685631181564e-05 9.3952625625654606e-06 -0.00049490501159183049 2.1028274496414008e-05 -2.2520755349666249e-05 -0.00043247800393687679 -8.5716928627735151e-05 9.3014992908210784e-05 -0.00074466790100880919 -8.398000741040762e-05 0.00013027328051680751 -3.0080728622132309 8.6686666576194591e-06 5.9805945626471625e-05 -0.00047478483157261465 -0.00012066072561034187 0.00013306331720954465 -3.6006193727700415 -0.00013000438026960259 8.7884996738109395e-05 -2.8268274849209831 -8.398000741040762e-05 0.00013027328051680751 -3.0080728622132309 -0.00010907746054537598 9.1050603991539865e-05 -5.5980248431635706 -8.7653089566767613e-05 0.00010853791031824606 -14.993151375136735 -8.7867989606788284e-05 0.00012378499490238145 -18.000678072560689 -9.6001516817300101e-05 9.5508419293289482e-05 -18.00066461404667 -5.1008431132875857e-05 0.00010065864941178387 -18.000666777521655 8.5195898646498415e-05 -0.00010881118980917008 -14.993153539680677 5.1569765235765407e-05 -9.3985453914083108e-05 -18.000670712283444 8.6456678371646251e-05 -0.00011854420438319405 -18.000678929322493 9.306479326964633e-05 -9.3524415142361278e-05 -18.000666523136452 -5.889530449986102e-05 0.00012242683352455737 -12.825637440976802 -9.8921370444029195e-05 0.00010965087083347255 -12.366961761562495 -8.550665979822611e-05 0.00016860350103610749 -8.8147385397052851 -8.3446772044337979e-05 8.1301658715782454e-05 -10.999402634395079 -5.9150510123219363e-05 9.5306098716043002e-06 -0.00047431570499002654 -9.1497935186718601e-05 -9.3027493354132628e-05 -0.0007432867459166659 2.2165585658258704e-05 2.2492402617214108e-05 -0.00043489229814464958 -0.00012921905810508446 -7.0021853138365508e-05 -2.9608865794027373 -0.00018605839560591891 -0.00018610084770584982 -18.000713677273506 -9.1901998321488804e-05 -9.1825701555014503e-05 -18.000667287357011 -8.6760573039267543e-05 -0.00012331768336000369 -18.000685978069797 -8.405939511630647e-05 -0.00010818175023724174 -14.993160485389225 -0.00010816290328470918 -8.5181861756667622e-05 -14.99315588114991 -9.190199832148879e-05 -9.1825701555014503e-05 -18.000667287357011 -0.00012337510321210084 -8.5660229475338311e-05 -18.000683468876677 -0.00018605839560591891 -0.00018610084770584982 -18.000713677273506 -8.4142756444938123e-05 -0.00013020041310762154 -3.0080837665246687 -9.1497935186718601e-05 -9.3027493354132628e-05 -0.00074328674591657093 -0.00012886960270319973 -0.00013313028381150879 -3.6006237329747908 -0.00012921905810508446 -7.0021853138365508e-05 -2.9608865794027373 0.00010888496145769071 4.6702923795040723e-05 -15.639420603690638 0.00011797558126266847 8.5432107082951113e-05 -18.000672006849449 0.00010745923466989395 8.4766649612602013e-05 -15.040327023564549 8.87628988165085e-05 9.0297862631902507e-05 -18.00065941811755 8.2714071011523276e-05 0.00010745755851943048 -15.040330383015052 8.87628988165085e-05 9.0297862631902521e-05 -18.000659418117547 0.00018281436329935834 0.0001828165692051087 -18.000703586385338 8.3011468403866484e-05 0.00011797533168681736 -18.000674352471126 0.00010745923466989395 8.4766649612602013e-05 -15.040327023564549 8.2714071011523289e-05 0.00010745755851943049 -15.040330383015052 0.00018281436329935834 0.0001828165692051087 -18.000703586385338 0.00011981098591033772 0.00011981027259392671 -14.400663738426799 0.00011797558126266847 8.5432107082951113e-05 -18.000672006849449 0.00010745923466989395 8.4766649612602013e-05 -15.040327023564549 8.87628988165085e-05 9.0297862631902507e-05 -18.00065941811755 0.00018281436329935834 0.0001828165692051087 -18.000703586385338 8.8746423179647026e-05 -6.0222297875374842e-06 -18.000672482601484 2.9371520273084408e-05 1.5336921016930799e-05 -18.000667863743935 5.0052634869892587e-05 5.0642163338754964e-05 -18.000662912316056 6.0218220723293469e-05 3.7905338856225988e-06 -14.394471404099082 9.9908331710670358e-05 -5.0934907065734275e-05 -18.000668235795541 5.6539516930375717e-05 -5.4576642578592401e-05 -18.000671982755154 8.8746423179647026e-05 -6.0222297875374842e-06 -18.000672482601484 8.0493022879137485e-05 -3.6451471731657108e-05 -14.495336684488498 -0.00010816290328470918 -8.5181861756667622e-05 -14.99315588114991 -9.0782894998885766e-05 -4.8254042513066549e-05 -18.000670330398322 -0.00012337510321210084 -8.5660229475338325e-05 -18.000683468876677 -9.1901998321488804e-05 -9.1825701555014503e-05 -18.000667287357011 2.2165585658258704e-05 2.2492402617214108e-05 -0.00043489229814464958 -5.9150510123219363e-05 9.5306098716043002e-06 -0.00047431570499002654 -0.00012921905810508443 -7.0021853138365481e-05 -2.9608865794027364 -0.00012992200822061747 -1.7773041400599733e-05 -2.3618108544173597 0.00012242908446789109 -5.7975071915212778e-05 -12.825637823911741 9.7697234727977693e-05 -5.5166277780798851e-05 -15.615648770786567 0.00017661196267593137 -3.8696550812257152e-06 -14.329808802062496 8.0493022879137485e-05 -3.6451471731657108e-05 -14.495336684488498 2.1028274496414008e-05 -2.2520755349666249e-05 -0.00043247800393687679 -2.3079697332883451e-05 0.00012950253270263397 -2.3712138669757752 8.6686666576194591e-06 5.9805945626471625e-05 -0.00047478483157261465 -8.398000741040762e-05 0.00013027328051680751 -3.0080728622132309 -0.00011889556744271018 -0.00011874808660898292 -14.400670988621727 -0.00010816290328470918 -8.5181861756667622e-05 -14.99315588114991 -8.405939511630647e-05 -0.00010818175023724174 -14.993160485389225 -0.00010912284140812552 -9.3171590803762798e-05 -12.366965980574648 -5.0603240832732144e-05 0.00011860952430756494 -5.1755778464302447 -8.550665979822611e-05 0.00016860350103610749 -8.8147385397052851 -9.6585454374517853e-05 9.3431256151998084e-05 -5.6177280202683795 -7.6524307948240328e-05 7.7827650563770415e-05 -6.9495308801107605 0.00012242908446789109 -5.7975071915212778e-05 -12.825637823911741 0.00010965164745798966 -9.8015887892919062e-05 -12.366962131717484 0.00010853713371024812 -9.0149241608151299e-05 -14.993152553998353 7.6545272793753142e-05 -7.6033936656246171e-05 -12.121545869076563 6.0294243165696023e-05 -0.00012084787808519034 -12.825639986840683 0.00010130248942603585 -9.7712264038148105e-05 -12.383505862975781 9.084675713787726e-05 -0.00017840911715897697 -9.1864885098914577 7.6545272793753142e-05 -7.6033936656246171e-05 -12.121545869076563 -0.00010907746054537598 9.1050603991539865e-05 -5.5980248431635706 -0.00017158261590851615 8.6598568170033604e-05 -9.1864811056773732 -0.00011855049038870445 4.5621185897033094e-05 -5.1755718300551568 -7.6524307948240328e-05 7.7827650563770415e-05 -6.9495308801107605 -4.6268174728439357e-05 -0.00011912175942803325 -5.1755936179622068 -1.189855481361388e-05 -0.00018946280387750514 -3.6714622322058275 -2.6002565842290503e-05 -0.00012959479575129563 -2.3712497931783316 -2.0854650588357693e-08 -6.0730713035321782e-05 -3.5594661988139373 -8.7867989606788284e-05 0.00012378499490238142 -18.000678072560689 -8.7653089566767613e-05 0.00010853791031824606 -14.993151375136735 -9.6001516817300101e-05 9.5508419293289482e-05 -18.00066461404667 -0.00018597167251112985 0.00018585429113814872 -18.000706931198543 -0.00013000438026960259 8.7884996738109395e-05 -2.8268274849209831 -8.5716928627735124e-05 9.3014992908210757e-05 -0.00074466790100849673 -0.00012066072561034187 0.00013306331720954465 -3.6006193727700415 -8.398000741040762e-05 0.00013027328051680751 -3.0080728622132309 0.00012378533629437273 -8.8348426890840076e-05 -18.000679587721589 0.00010853713371024812 -9.0149241608151299e-05 -14.993152553998353 0.00018585385978352965 -0.0001857157264687408 -18.000706679520707 9.306479326964633e-05 -9.3524415142361278e-05 -18.000666523136452 -5.7306829488005209e-05 -9.525988495201406e-06 -0.00049335894830019103 -8.5716928627735124e-05 9.3014992908210757e-05 -0.00074466790100849673 -0.00013000438026960259 8.7884996738109395e-05 -2.8268274849209831 2.1028274496414008e-05 -2.2520755349666249e-05 -0.00043247800393687679 -0.00011874489929725385 8.3925938854513888e-05 -18.000675682109904 -9.6001516817300115e-05 9.5508419293289495e-05 -18.00066461404667 -0.00010846110142926469 7.9501961558041425e-05 -14.993149257157482 -0.00018597167251112985 0.00018585429113814872 -18.000706931198543 8.5195898646498415e-05 -0.00010881118980917008 -14.993153539680677 8.6456678371646251e-05 -0.00011854420438319405 -18.000678929322493 0.00018585385978352965 -0.0001857157264687408 -18.000706679520707 9.306479326964633e-05 -9.3524415142361278e-05 -18.000666523136452 -2.1022456668313783e-05 -2.1020668999429796e-05 -0.00042690524798053969 8.5750234055954533e-05 8.5749358382465938e-05 -0.00073321242135445579 -8.6692497357221731e-06 5.7377420305701182e-05 -0.00047779200726577424 8.3258308693137195e-05 0.00012934536045024246 -2.8268086076169476 0.00012934240068143102 8.1717937097800552e-05 -2.8268197934621271 8.5750234055954547e-05 8.5749358382465938e-05 -0.00073321242135459706 5.7378127526131987e-05 -8.6606604254567641e-06 -0.00047183404787881671 -2.1022456668313776e-05 -2.1020668999429796e-05 -0.00042690524798022586 -1.4698045821591352e-05 -0.00013761125870928874 -6.8954609139249996 -1.1898554813613883e-05 -0.00018946280387750514 -3.6714622322058275 -4.6268174728439357e-05 -0.00011912175942803325 -5.1755936179622068 -2.0854650588357693e-08 -6.0730713035321782e-05 -3.5594661988139373 -5.1008431132875897e-05 0.00010065864941178387 -18.000666777521658 -4.0829326978900883e-06 9.146802360054628e-05 -18.000672145201957 -5.357455085872124e-05 5.6177361836313801e-05 -18.000671144736074 -2.6682865744602651e-05 8.2901261764422175e-05 -14.466540689678981 2.1598517043903137e-05 -4.5349551530117086e-06 -0.00043865864448533665 -9.1128201767663147e-06 -9.2038978738681371e-06 -0.0004847655714304023 1.6658313161567762e-05 -4.423944282565793e-09 -0.00068008571925838558 -7.3030749525209961e-05 2.397517737979377e-06 -3.5694862793977453 -0.00012002657329742926 -4.3922659991772494e-05 -5.1755921476215931 -0.00012992200822061747 -1.7773041400599733e-05 -2.3618108544173597 -0.00019407860848646923 -9.9037520939548227e-06 -3.6714527506896903 -7.3030749525209961e-05 2.397517737979377e-06 -3.5694862793977453 8.5750234055954547e-05 8.5749358382465938e-05 -0.00073321242135459706 0.00012934240068143102 8.1717937097800552e-05 -2.8268197934621271 0.00012156080821453578 0.00012155721750261833 -3.6006045062383296 8.3258308693137195e-05 0.00012934536045024246 -2.8268086076169476 6.0294243165696023e-05 -0.00012084787808519034 -12.825639986840683 8.5195898646498402e-05 -0.00010881118980917008 -14.993153539680677 0.00010130248942603585 -9.7712264038148105e-05 -12.383505862975781 7.6545272793753142e-05 -7.6033936656246171e-05 -12.121545869076563 -0.00013000438026960259 8.7884996738109395e-05 -2.8268274849209831 -0.00010907746054537598 9.1050603991539865e-05 -5.5980248431635706 -0.00011855049038870445 4.5621185897033094e-05 -5.1755718300551568 -5.551744166254126e-05 3.0319446361409032e-05 -3.388047273667623 -0.00012260694386324376 5.8225072929117639e-05 -12.825635291146 -0.00017158261590851615 8.6598568170033604e-05 -9.1864811056773732 -9.8501906289231295e-05 9.9254572065674408e-05 -12.383504131539162 -8.3446772044337979e-05 8.1301658715782454e-05 -10.999402634395079 4.4250835695460036e-05 0.00010889080461882123 -15.639422505258914 5.2100748911302174e-05 0.00012673960035518598 -12.825631691884412 8.2714071011523276e-05 0.00010745755851943048 -15.040330383015052 6.9265464142664036e-05 7.0021014440316184e-05 -13.496998911780244 0.00010888496145769071 4.6702923795040723e-05 -15.639420603690638 0.00010745923466989395 8.4766649612602013e-05 -15.040327023564549 0.00012674247838549376 5.2158959898735568e-05 -12.825631568285278 6.9265464142664049e-05 7.002101444031617e-05 -13.496998911780246 -0.00014303644449300355 -1.6024951932374311e-05 -6.904434593644531 -0.00012002657329742926 -4.3922659991772494e-05 -5.1755921476215931 -0.00019407860848646923 -9.9037520939548244e-06 -3.6714527506896899 -7.3030749525209988e-05 2.3975177379793668e-06 -3.5694862793977453 -8.550665979822611e-05 0.00016860350103610749 -8.8147385397052851 -3.7882672294800167e-05 0.00014241456584638824 -10.254427308345981 -5.889530449986102e-05 0.00012242683352455737 -12.825637440976802 -8.3446772044337979e-05 8.1301658715782454e-05 -10.999402634395079 9.2194204691449509e-06 -9.2464976857869075e-06 -0.00050287923417428502 -2.2512219567563306e-05 2.288565395815928e-05 -0.00043265007389213029 -2.1765987198921882e-05 -4.6145907378921879e-06 -0.00039086916470327458 5.0951048088386206e-05 -1.9564513546361046e-05 -3.6826625843625402 -5.889530449986102e-05 0.00012242683352455737 -12.825637440976802 -5.7561436164462446e-06 0.00017660997139305813 -14.329809626167156 -5.2039912642749521e-05 9.7696951456717647e-05 -15.615648350709991 -2.6682865744602651e-05 8.2901261764422175e-05 -14.466540689678981 -4.4450533064651624e-06 2.1815255006633252e-05 -0.00039217012726969273 -2.6032374485094275e-08 1.6731868442410117e-05 -0.00070466061880543752 -9.1128201767663147e-06 -9.2038978738681371e-06 -0.0004847655714304023 -2.0854650588357693e-08 -6.0730713035321782e-05 -3.5594661988139373 -4.1280735576664007e-06 -2.1740457975472143e-05 -0.00043806827866045491 2.1028274496414018e-05 -2.2520755349666253e-05 -0.00043247800393654497 -8.8725345705609137e-06 9.2010091284365343e-06 -0.00049743935087107549 -5.551744166254126e-05 3.0319446361409032e-05 -3.388047273667623 -0.00011855049038870445 4.5621185897033094e-05 -5.1755718300551568 -0.00017158261590851615 8.6598568170033604e-05 -9.1864811056773732 -0.00014370728753097109 3.4751910473935164e-05 -7.7467946299795258 -7.6524307948240328e-05 7.7827650563770415e-05 -6.9495308801107605 -2.00471327014601e-05 3.5557790497135624e-05 -18.000670357277816 -5.357455085872124e-05 5.6177361836313795e-05 -18.000671144736074 -4.0829326978900883e-06 9.146802360054628e-05 -18.000672145201957 -2.6682865744602651e-05 8.2901261764422175e-05 -14.466540689678981 0.00012951201938542122 -1.0307441368190859e-05 -2.3712059765106566 0.00013028771714509668 -7.6016595063193055e-05 -3.0080741489131619 0.00011859675941194662 -4.4644070271330152e-05 -5.1755723784891527 5.0951048088386213e-05 -1.956451354636105e-05 -3.6826625843625407 -9.1128201767663147e-06 -9.2038978738681371e-06 -0.0004847655714304023 -1.2527878667765527e-06 -1.2653930224785853e-06 -0.00059372002650813255 1.6658313161567762e-05 -4.423944282565793e-09 -0.00068008571925838558 -7.3030749525209948e-05 2.3975177379793748e-06 -3.5694862793977444 8.2714071011523276e-05 0.00010745755851943048 -15.040330383015052 5.2100748911302174e-05 0.00012673960035518601 -12.825631691884411 8.7621889359318754e-05 9.8645683594210482e-05 -12.450747877761467 6.9265464142664022e-05 7.0021014440316143e-05 -13.496998911780244 0.00010745923466989395 8.4766649612602013e-05 -15.040327023564549 9.8640639505258581e-05 8.4880877226723323e-05 -12.450741823965712 0.00012674247838549376 5.2158959898735568e-05 -12.825631568285278 6.9265464142664009e-05 7.0021014440316157e-05 -13.496998911780244 -0.00013000438026960259 8.7884996738109395e-05 -2.8268274849209831 -0.00011855049038870445 4.5621185897033094e-05 -5.1755718300551568 -0.00012281521162747783 3.1514557574876092e-05 -2.3349605254838588 -5.551744166254126e-05 3.0319446361409032e-05 -3.388047273667623 -0.00015621081757995786 -0.00015506053716638719 -7.2006367917988898 -0.00012886960270319973 -0.00013313028381150879 -3.6006237329747908 -9.4692071284310412e-05 -8.4085900453570911e-05 -5.5504956534356733 -8.4611311785439785e-05 -9.3302958677176376e-05 -5.617728127371528 -4.8926199649882529e-05 -9.8478875070980482e-05 -15.615655054498383 -8.6760573039267543e-05 -0.00012331768336000369 -18.000685978069797 -3.7160672606702536e-05 -0.00015463113821726556 -18.000689386469929 -5.2274516635187628e-05 -9.3027817525748963e-05 -18.000670420746832 2.1004620020276482e-05 4.5431099924851995e-06 -0.00039390072221281839 -8.8725345705609137e-06 9.2010091284365343e-06 -0.00049743935087107549 2.1028274496414008e-05 -2.2520755349666249e-05 -0.00043247800393687679 -5.551744166254126e-05 3.0319446361409032e-05 -3.388047273667623 0.00012378533629437273 -8.8348426890840076e-05 -18.000679587721589 9.9908331710670358e-05 -5.0934907065734268e-05 -18.000668235795541 0.00015292673128138154 -3.0068086454385772e-05 -18.000673330571033 9.7697234727977693e-05 -5.5166277780798851e-05 -15.615648770786567 2.1004620020276482e-05 4.5431099924851995e-06 -0.00039390072221281839 -7.6795199470536835e-05 1.243936145187622e-07 -0.00061866722038647008 -0.00012281521162747783 3.1514557574876092e-05 -2.3349605254838588 -5.7306829488005209e-05 -9.525988495201406e-06 -0.00049335894830019103 0.00015490918157375636 0.00015490253751795764 -10.800602722741141 0.00011981098591033772 0.00011981027259392671 -14.400663738426799 8.7621889359318754e-05 9.8645683594210482e-05 -12.450747877761467 9.8640639505258581e-05 8.4880877226723323e-05 -12.450741823965712 -8.6692497357221731e-06 5.7377420305701182e-05 -0.00047779200726577424 1.3218163766206397e-07 7.7355673166747382e-05 -0.00062759034132154376 4.1004609500944611e-06 -2.1126803761504402e-05 -0.00039717469118998099 2.9443526199445825e-05 0.00012257184513441317 -2.3349430557664204 -0.00015434250887238422 0.00015981549944175559 -10.800625038460884 -9.8501906289231295e-05 9.9254572065674408e-05 -12.383504131539162 -9.8921370444029195e-05 0.00010965087083347255 -12.366961761562495 -0.00012328111278813177 0.00011855166462540629 -14.400663441143418 0.00010965164745798966 -9.8015887892919062e-05 -12.366962131717484 0.00010130248942603582 -9.7712264038148078e-05 -12.383505862975783 0.00015981504098713551 -0.00015234773133184182 -10.800630983166796 0.00011855351809676501 -0.00012380360635619485 -14.400666180922869 1.3577049516328177e-07 -7.6978271804482832e-05 -0.00063260843565130377 4.5248191570086899e-06 2.1635632741839184e-05 -0.00043076803198295176 2.3816106115514376e-05 -0.00011941717449393304 -2.3855482341187906 -9.5247863936612142e-06 -6.1845367363464886e-05 -0.00047854339915503406 -2.1765987198921882e-05 -4.6145907378921879e-06 -0.00039086916470327458 7.9314792945042994e-05 -1.053191098978425e-07 -0.00061647582934083419 0.0001295120193854212 -1.0307441368190853e-05 -2.3712059765106557 5.979685631181564e-05 9.3952625625654606e-06 -0.00049490501159183049 -2.6002565842290503e-05 -0.00012959479575129563 -2.3712497931783316 9.3513774604288281e-06 -5.9761512927515355e-05 -0.0004945127515093811 -4.4450533064651624e-06 2.1815255006633252e-05 -0.00039217012726969273 -1.07903987795801e-07 -7.9549026885476166e-05 -0.00061174673515442814 0.00013304910644507847 -0.00012918398191623623 -3.6006188057197934 9.3439194697136869e-05 -8.2827395234403865e-05 -5.6177301126889931 8.7833889406321836e-05 -0.00010277132611476874 -5.6342666417144889 0.00015511729706514052 -0.00015752385578606952 -7.2006334717427469 -9.0782894998885766e-05 -4.8254042513066549e-05 -18.000670330398322 -0.00015455954768270897 -3.5057669769100641e-05 -18.000678398434538 -9.8379926844087984e-05 -5.2646743794984978e-05 -15.615652928313695 -0.00012337510321210084 -8.5660229475338325e-05 -18.000683468876677 -8.7867989606788284e-05 0.00012378499490238142 -18.000678072560689 -3.0792386391014046e-05 0.00015293108884192815 -18.000674522518157 -5.1008431132875897e-05 0.00010065864941178387 -18.000666777521658 -5.2039912642749521e-05 9.7696951456717647e-05 -15.615648350709991 -0.00010907746054537598 9.1050603991539865e-05 -5.5980248431635706 -0.00012066072561034189 0.00013306331720954468 -3.6006193727700415 -0.00015814743104262344 0.00015511267355720573 -7.2006182374895671 -9.6585454374517853e-05 9.3431256151998084e-05 -5.6177280202683795 4.4987189988489345e-05 9.1844703327528701e-05 -18.000662540503793 4.4250835695460036e-05 0.00010889080461882123 -15.639422505258914 3.1577884813976393e-05 0.00015769493002989543 -18.00068145663381 8.3011468403866484e-05 0.00011797533168681736 -18.000674352471126 -9.2094118281700599e-05 5.0247826413477698e-05 -18.000668314221063 -0.0001593848115227 3.2420687640137863e-05 -18.000684115615069 -0.00011874489929725385 8.3925938854513888e-05 -18.000675682109904 -0.00010931962568937949 4.624928236212659e-05 -15.629987702568473 0.00012257465262365935 2.4300416687567908e-05 -2.3349666062241692 5.7378127526131987e-05 -8.6606604254567641e-06 -0.00047183404787881671 7.7355663588432149e-05 8.3683994845227008e-08 -0.00063550061574218044 -2.1120631393069733e-05 4.1023401592752486e-06 -0.00043557219841457558 -1.2085678345586269e-07 7.9294141696844555e-05 -0.00063951275453443836 -4.1280735576663981e-06 -2.1740457975472136e-05 -0.00043806827866036714 -2.3079697332883424e-05 0.00012950253270263394 -2.3712138669757743 8.6686666576194591e-06 5.9805945626471625e-05 -0.00047478483157261465 -0.00011889556744271018 -0.00011874808660898292 -14.400670988621727 -0.00015935507379260139 -0.00015982812312055885 -10.800620433804164 -0.00010912284140812552 -9.3171590803762798e-05 -12.366965980574648 -9.4523931815015694e-05 -0.00010929031160023451 -12.366974518938637 -7.8726114980336875e-05 -1.1176636110363461e-07 -0.00063773896431171229 -5.9150510123219363e-05 9.5306098716043002e-06 -0.00047431570499002654 2.1598517043903137e-05 -4.5349551530117086e-06 -0.00043865864448533665 -0.00012992200822061747 -1.7773041400599733e-05 -2.3618108544173597 0.00010888496145769071 4.6702923795040723e-05 -15.639420603690638 9.116898085509733e-05 4.4554056855968427e-05 -18.000663573981956 0.00015770249164434184 3.1127804082963551e-05 -18.000672814099236 0.00011797558126266847 8.5432107082951113e-05 -18.000672006849449 3.5531159359495573e-05 -0.00015937922205289532 -18.000688404248788 4.9810081526577643e-05 -0.0001097038000559613 -15.629992958221699 5.15697652357654e-05 -9.3985453914083108e-05 -18.000670712283444 8.6456678371646251e-05 -0.00011854420438319405 -18.000678929322493 0.00015715222178177952 0.0001571471208763866 -7.2006139768331705 0.00010752456001454087 8.7057162839067402e-05 -5.5980074561327076 8.9520310650679521e-05 0.00010752863126185365 -5.598001250935206 0.00012156080821453578 0.00012155721750261833 -3.6006045062383296 -0.00012921905810508446 -7.0021853138365508e-05 -2.9608865794027373 -2.0854650588366222e-08 -6.0730713035321775e-05 -3.5594661988139373 -9.4692071284310412e-05 -8.4085900453570911e-05 -5.5504956534356733 -8.4142756444938137e-05 -0.00013020041310762156 -3.0080837665246691 -0.00012921905810508446 -7.0021853138365508e-05 -2.9608865794027373 -9.4692071284310412e-05 -8.4085900453570911e-05 -5.5504956534356733 -2.0854650588245782e-08 -6.0730713035321823e-05 -3.5594661988139369 -5.0200917297891054e-05 -4.8342676842918347e-05 -6.726448593125637 -8.4611311785439785e-05 -9.3302958677176376e-05 -5.617728127371528 -9.4692071284310412e-05 -8.4085900453570911e-05 -5.5504956534356742 -2.0854650588355284e-08 -6.0730713035321789e-05 -3.5594661988139364 -8.4142756444938123e-05 -0.00013020041310762154 -3.0080837665246687 -8.4611311785439785e-05 -9.3302958677176376e-05 -5.617728127371528 -2.0854650588358768e-08 -6.0730713035321782e-05 -3.5594661988139373 -9.4692071284310398e-05 -8.4085900453570925e-05 -5.5504956534356733 -5.0200917297891021e-05 -4.8342676842918374e-05 -6.7264485931256361 -8.3446772044337979e-05 8.1301658715782454e-05 -10.999402634395079 -0.0001093196256893795 4.6249282362126584e-05 -15.629987702568474 -2.6682865744602651e-05 8.2901261764422161e-05 -14.466540689678981 -0.0001084611014292647 7.9501961558041412e-05 -14.993149257157484 -8.3446772044337979e-05 8.1301658715782454e-05 -10.999402634395079 -2.6682865744602655e-05 8.2901261764422175e-05 -14.466540689678981 -0.00010931962568937949 4.6249282362126584e-05 -15.629987702568473 -5.6505137840680834e-05 2.9896109673363036e-05 -12.621063802052849 -9.2094118281700599e-05 5.0247826413477698e-05 -18.000668314221063 -2.6682865744602641e-05 8.2901261764422175e-05 -14.466540689678981 -0.00010931962568937949 4.624928236212659e-05 -15.629987702568473 -0.00010846110142926469 7.9501961558041425e-05 -14.993149257157482 -9.2094118281700599e-05 5.0247826413477698e-05 -18.000668314221063 -0.00010931962568937949 4.624928236212659e-05 -15.629987702568473 -2.6682865744602641e-05 8.2901261764422215e-05 -14.466540689678981 -5.6505137840680847e-05 2.9896109673363036e-05 -12.62106380205285 7.9261457644039742e-05 -4.1183770571983835e-07 -6.2674520662278796 1.3079322204915358e-06 1.2784988515808226e-06 -0.00055442003995453341 5.0951048088386213e-05 -1.956451354636105e-05 -3.6826625843625402 1.5790354917196573e-09 1.7274421563572421e-06 -4.4128120846505423 7.9261457644039742e-05 -4.1183770571983835e-07 -6.2674520662278796 5.0951048088386206e-05 -1.9564513546361046e-05 -3.6826625843625407 1.3079322204915142e-06 1.278498851580819e-06 -0.00055442003995525234 -1.6772239871486546e-05 1.1529091885864174e-07 -0.00069016881923114766 1.2549565950470023e-06 -1.2686746333718276e-06 -0.0005898419291798519 5.0951048088386206e-05 -1.9564513546361046e-05 -3.6826625843625407 1.307932220491518e-06 1.2784988515808176e-06 -0.00055442003995552372 1.5790354917033191e-09 1.7274421563572421e-06 -4.4128120846505423 1.2549565950470023e-06 -1.2686746333718276e-06 -0.0005898419291798519 1.3079322204915093e-06 1.278498851580819e-06 -0.00055442003995515596 5.0951048088386186e-05 -1.9564513546361043e-05 -3.6826625843625393 -1.6772239871486523e-05 1.1529091885863168e-07 -0.00069016881923179081 6.0218220723293475e-05 3.790533885622598e-06 -14.394471404099082 8.0960162176960904e-05 7.3383467258547228e-05 -9.6855741452977107 0.00014900175010754469 2.0815885683260408e-05 -11.102943129774127 6.8147818390345004e-05 5.0895768895878238e-06 -10.498144294815184 6.0218220723293475e-05 3.790533885622598e-06 -14.394471404099082 0.00014900175010754471 2.0815885683260405e-05 -11.102943129774127 8.0960162176960904e-05 7.3383467258547228e-05 -9.6855741452977124 6.9265464142664036e-05 7.002101444031617e-05 -13.496998911780246 6.0218220723293475e-05 3.790533885622598e-06 -14.394471404099082 -1.63517527619622e-06 -3.7292803831173616e-06 -18.000669493051568 2.4429394386670151e-05 5.6012073672620276e-05 -12.799578360759938 -3.3186120504961269e-06 -3.2136361273681928e-06 -13.645042525665012 6.0218220723293475e-05 3.790533885622598e-06 -14.394471404099082 2.4429394386670148e-05 5.6012073672620289e-05 -12.799578360759936 -1.6351752761962365e-06 -3.7292803831173891e-06 -18.000669493051568 2.9371520273084421e-05 1.5336921016930802e-05 -18.000667863743935 -2.00471327014601e-05 3.5557790497135624e-05 -18.000670357277816 2.4429394386670151e-05 5.6012073672620303e-05 -12.799578360759936 -1.63517527619622e-06 -3.7292803831173659e-06 -18.000669493051568 -3.3186120504961269e-06 -3.2136361273681928e-06 -13.645042525665012 -2.00471327014601e-05 3.5557790497135624e-05 -18.000670357277816 -1.63517527619622e-06 -3.7292803831173659e-06 -18.000669493051568 2.4429394386670145e-05 5.6012073672620296e-05 -12.799578360759934 2.9371520273084408e-05 1.5336921016930799e-05 -18.000667863743935 8.7621889359318754e-05 9.8645683594210482e-05 -12.450747877761467 8.0960162176960904e-05 7.3383467258547215e-05 -9.6855741452977089 5.2100748911302174e-05 0.00012673960035518601 -12.825631691884411 8.6430250018239643e-05 0.00017539644862922952 -9.1864751415221715 8.7621889359318754e-05 9.8645683594210482e-05 -12.450747877761467 5.2100748911302174e-05 0.00012673960035518601 -12.825631691884411 8.0960162176960891e-05 7.3383467258547215e-05 -9.6855741452977089 6.9265464142664036e-05 7.002101444031617e-05 -13.496998911780247 5.0951048088386213e-05 -1.956451354636105e-05 -3.6826625843625407 0.00013973475214910672 -1.3907646487358678e-05 -6.8945626467498471 7.9405039643381855e-05 -7.0205926849341223e-05 -8.8027460820885697 0.00011859675941194662 -4.4644070271330152e-05 -5.1755723784891527 5.0951048088386213e-05 -1.956451354636105e-05 -3.6826625843625407 7.9405039643381855e-05 -7.020592684934121e-05 -8.8027460820885697 0.00013973475214910672 -1.3907646487358678e-05 -6.8945626467498471 7.9261457644039742e-05 -4.1183770571984994e-07 -6.2674520662278805 
</DataArray>
</PointData>
<CellData Scalars="" Vectors="" Tensors="stress,">
<DataArray type="Float64" Name="stress" NumberOfComponents="9" format="ascii">
-2.4998379735246434 1.0288316517362572e-05 2.2001471232435676e-05 1.0288316517362572e-05 -2.4998533658865982 7.4223578789833766e-06 2.2001471232435676e-05 7.4223578789833766e-06 -10.000058820389807 -2.4998571044570355 -1.3027721283563541e-06 2.0666761475496287e-05 -1.3027721283563541e-06 -2.4998657673490747 9.7199923823065859e-06 2.0666761475496287e-05 9.7199923823065859e-06 -10.000045254728199 -2.4998431832940917 -1.5681990861503159e-05 -1.0554889089409158e-05 -1.5681990861503159e-05 -2.499909345222457 -8.4737192347361656e-06 -1.0554889089409158e-05 -8.4737192347361656e-06 -9.999995072592581 -2.4998671398277224 1.2696272278193221e-07 1.0981521413433448e-05 1.2696272278193221e-07 -2.4998604751857516 1.9393850714699568e-05 1.0981521413433448e-05 1.9393850714699568e-05 -10.000046369577253 -2.4998410546102923 1.214350632091559e-06 5.348050282759135e-06 1.214350632091559e-06 -2.4998534325180763 1.040787219608319e-05 5.348050282759135e-06 1.040787219608319e-05 -10.000021120594472 -2.4998388483486309 5.5789643331530669e-06 9.712663983143925e-06 5.5789643331530669e-06 -2.4998457874960724 1.3717264685908503e-05 9.712663983143925e-06 1.3717264685908503e-05 -10.000017734308166 -2.4999005993094521 4.6245092832927315e-07 7.9841919456313803e-05 4.6245092832927315e-07 -2.4997436572627278 4.0251957968751029e-05 7.9841919456313803e-05 4.0251957968751029e-05 -10.000254433370811 -2.4998369580298387 -4.7120905719525726e-07 5.4931806884317425e-06 -4.7120905719525726e-07 -2.4998367271289839 -8.8495394123810911e-08 5.4931806884317425e-06 -8.8495394123810911e-08 -10.000017677738573 -2.499837661521302 5.0976649870654423e-06 1.5967361762792009e-06 5.0976649870654423e-06 -2.4998451095368512 -4.5600699571934911e-07 1.5967361762792009e-06 -4.5600699571934911e-07 -10.000010741405436 -2.4998508806600475 2.8595841618753672e-06 4.758037958296768e-06 2.8595841618753672e-06 -2.4998490905800868 1.0997884512883311e-05 4.758037958296768e-06 1.0997884512883311e-05 -10.000022217416824 -2.4998220985098039 1.2967328219638066e-05 1.5541757587556049e-06 1.2967328219638066e-05 -2.4998374312571086 -9.496470045000649e-06 1.5541757587556049e-06 -9.496470045000649e-06 -10.000010845459702 -2.4998441353090008 -5.1513929483156525e-06 -1.9482685154059709e-06 -5.1513929483156525e-06 -2.4998469477601617 1.0965588723377273e-05 -1.9482685154059709e-06 1.0965588723377273e-05 -10.000020890673856 -2.4998420843421578 3.6581365007029793e-07 9.0451129812763043e-06 3.6581365007029793e-07 -2.4998597762415287 8.7229275265165995e-06 9.0451129812763043e-06 8.7229275265165995e-06 -10.000020921044639 -2.4998377095401656 -2.1552341886930018e-06 5.2893490181116221e-06 -2.1552341886930018e-06 -2.4998234130009314 -1.6166146465934617e-07 5.2893490181116221e-06 -1.6166146465934617e-07 -9.9999910775113285 -2.4998343251014248 -4.7783845774692335e-07 -1.5548187768388289e-06 -4.7783845774692335e-07 -2.4998498523146697 -1.1032334495730822e-05 -1.5548187768388289e-06 -1.1032334495730822e-05 -10.000021001753566 -2.5001033002608883 3.6830494412202244e-05 -2.6754761963676543e-05 3.6830494412202244e-05 -2.4997968780815225 4.3021480838234538e-05 -2.6754761963676543e-05 4.3021480838234538e-05 -10.000308477473617 -2.4998598925627298 1.5995964332772569e-05 -2.1489633985627421e-06 1.5995964332772569e-05 -2.4999132224261618 -7.6347334942994394e-06 -2.1489633985627421e-06 -7.6347334942994394e-06 -9.9999986587261613 -2.4998963080623939 2.0736054065364564e-05 6.4686721401585601e-05 2.0736054065364564e-05 -2.499894716873829 2.8021368207120645e-05 6.4686721401585601e-05 2.8021368207120645e-05 -9.9999980071012828 -2.4998427698831396 9.2775883485450399e-06 9.4469244142914022e-06 9.2775883485450399e-06 -2.4998445956387254 -7.6870732215184034e-06 9.4469244142914022e-06 -7.6870732215184034e-06 -10.000020674356019 -2.4998589113319269 -3.4834473860934533e-07 1.3625882500756248e-05 -3.4834473860934533e-07 -2.4998494944578078 8.4257011394583969e-06 1.3625882500756248e-05 8.4257011394583969e-06 -10.000016517131712 -2.4997263981165601 -2.7650549691611403e-05 4.1833495388221564e-05 -2.7650549691611403e-05 -2.4998635298623451 6.8488457030002614e-05 4.1833495388221564e-05 6.8488457030002614e-05 -10.000186261312411 -2.4997851802625037 3.5512034708569475e-08 -1.1260477280838899e-05 3.5512034708569475e-08 -2.4998339881689917 8.6343817479739293e-06 -1.1260477280838899e-05 8.6343817479739293e-06 -10.000009398167823 -2.4998330940222488 -1.0229098101018131e-06 7.6517326306202449e-06 -1.0229098101018131e-06 -2.4998409148227352 2.4316382478684062e-06 7.6517326306202449e-06 2.4316382478684062e-06 -10.000000670098286 -2.4998330172774619 -2.8817799477369592e-06 3.759295273964014e-06 -2.8817799477369592e-06 -2.4997854506167165 -9.2171380670080794e-06 3.759295273964014e-06 -9.2171380670080794e-06 -10.000005519593209 -2.4998544177309867 1.0827896111997875e-05 1.4479097978803424e-05 1.0827896111997875e-05 -2.4998311238337645 1.7755847871114838e-05 1.4479097978803424e-05 1.7755847871114838e-05 -10.000055532087723 -2.4998654475111706 -3.403034938529901e-06 5.0173068670389398e-05 -3.403034938529901e-06 -2.4998410947346685 -3.4464584039550772e-05 5.0173068670389398e-05 -3.4464584039550772e-05 -10.00004371352731 -2.4998515669837431 -1.661554641269273e-05 4.3141673270241654e-05 -1.661554641269273e-05 -2.499844266764554 -1.3515978793843253e-05 4.3141673270241654e-05 -1.3515978793843253e-05 -9.9999459031395759 -2.4999039341109071 -8.6016088757646914e-05 -8.4209645239141651e-06 -8.6016088757646914e-05 -2.4998388144986055 8.2623614106047683e-06 -8.4209645239141651e-06 8.2623614106047683e-06 -9.9999952787991315 -2.499887879623413 1.4726909369069102e-05 -5.1482069268526942e-05 1.4726909369069102e-05 -2.4998792797537988 -1.0660926875960541e-05 -5.1482069268526942e-05 -1.0660926875960541e-05 -9.9999935236764568 -2.4999150062164928 2.1290367095535432e-05 -7.6958561967543915e-06 2.1290367095535432e-05 -2.4998732406060151 -4.3015219719499953e-07 -7.6958561967543915e-06 -4.3015219719499953e-07 -10.000004503194138 -2.4998385450770599 1.615535918027354e-05 6.4808778166280945e-07 1.615535918027354e-05 -2.4998272801742476 -4.367983398445574e-05 6.4808778166280945e-07 -4.367983398445574e-05 -10.000045789251862 -2.4997870289144157 3.3138030249344716e-05 4.2894144197891393e-05 3.3138030249344716e-05 -2.5000869985312542 2.3572944151895037e-05 4.2894144197891393e-05 2.3572944151895037e-05 -10.000242130249044 -2.4997491587559351 7.323507892084249e-06 3.7495640583529166e-06 7.323507892084249e-06 -2.4997538013817229 3.2694237575014995e-06 3.7495640583529166e-06 3.2694237575014995e-06 -9.9999780375620269 -2.4998016297567558 1.4679279833187112e-05 -3.240224561995575e-05 1.4679279833187112e-05 -2.4998203958806604 -3.0047350034312359e-05 -3.240224561995575e-05 -3.0047350034312359e-05 -9.9999575872258646 -2.4998459454464745 2.2639036533893036e-06 1.0187514750903404e-05 2.2639036533893036e-06 -2.4998543909457429 -1.0288800027069556e-05 1.0187514750903404e-05 -1.0288800027069556e-05 -10.000045393438928 -2.4998170133581619 -5.2088135434694499e-06 -7.4543457815323677e-06 -5.2088135434694499e-06 -2.499840743567602 1.0593194982699838e-05 -7.4543457815323677e-06 1.0593194982699838e-05 -10.000016738522813 -2.4997558903711936 3.4166246184240079e-05 1.9423720123867838e-05 3.4166246184240079e-05 -2.4998377981490525 8.1587976524410966e-05 1.9423720123867838e-05 8.1587976524410966e-05 -10.000194031711183 -2.4998508204774064 3.5204067241242106e-05 6.6237428853477276e-05 3.5204067241242106e-05 -2.4997533573756674 3.2440371788400313e-05 6.6237428853477276e-05 3.2440371788400313e-05 -10.000197806030684 -2.4998286706789568 -1.6275069713553594e-05 -2.5377978823737379e-05 -1.6275069713553594e-05 -2.4998392750092826 -3.6375848568415137e-05 -2.5377978823737379e-05 -3.6375848568415137e-05 -9.999984285750827 -2.4998314369337349 1.2516739972825124e-05 -1.0805142093062159e-05 1.2516739972825124e-05 -2.4998311967209572 2.9853165095516943e-07 -1.0805142093062159e-05 2.9853165095516943e-07 -10.000029574335887 -2.4998118740639899 -4.8487013813393312e-06 1.6808808451784785e-05 -4.8487013813393312e-06 -2.4998390663621031 6.4018815156274833e-06 1.6808808451784785e-05 6.4018815156274833e-06 -10.000012142158694 -2.4998235174663979 9.9634793296385479e-07 -1.3503555245542032e-05 9.9634793296385479e-07 -2.4998112424432826 1.1953546464660292e-05 -1.3503555245542032e-05 1.1953546464660292e-05 -10.000016141522408 -2.4998972479134975 2.024542257363999e-05 3.2740417985621662e-06 2.024542257363999e-05 -2.4998951330907948 9.3470888309354905e-06 3.2740417985621662e-06 9.3470888309354905e-06 -9.9999977754484739 -2.4997774111483357 6.1040688336069158e-05 4.3429521789484227e-05 6.1040688336069158e-05 -2.4997724631494371 5.5661398602913081e-05 4.3429521789484227e-05 5.5661398602913081e-05 -10.000212037518192 -2.4998379951243486 5.7633673949235309e-06 6.9861404803361893e-06 5.7633673949235309e-06 -2.4998201640050999 6.2372121529818969e-06 6.9861404803361893e-06 6.2372121529818969e-06 -10.000009548367194 -2.4997924032507131 -3.0742504157640546e-05 2.4979851235507056e-05 -3.0742504157640546e-05 -2.4998301225858279 6.0947571230762776e-05 2.4979851235507056e-05 6.0947571230762776e-05 -9.9999887728874945 -2.4998290242243115 9.5952415409103118e-06 6.7407964472465665e-06 9.5952415409103118e-06 -2.4998525651549768 8.7683563112506135e-06 6.7407964472465665e-06 8.7683563112506135e-06 -10.000014515012989 -2.4998402263907136 -6.6856354707684665e-06 -1.0377216797863298e-05 -6.6856354707684665e-06 -2.4998763316235908 2.8953005430487622e-05 -1.0377216797863298e-05 2.8953005430487622e-05 -10.000009098140699 -2.4999004258039159 1.5412060963110263e-05 -3.0664903459126647e-06 1.5412060963110263e-05 -2.4998924221307979 8.2691126503525725e-06 -3.0664903459126647e-06 8.2691126503525725e-06 -10.000049011701025 -2.4998264010134954 -2.7563646625796182e-06 4.645596916930117e-06 -2.7563646625796182e-06 -2.4997739238249967 5.6482951515945956e-07 4.645596916930117e-06 5.6482951515945956e-07 -9.9999834478754952 -2.4998142698860657 -6.6168118314130109e-06 -1.6100055359125065e-05 -6.6168118314130109e-06 -2.4998515935381227 3.6108976102511292e-05 -1.6100055359125065e-05 3.6108976102511292e-05 -9.9999173595879842 -2.4998625956382252 -5.4520679047190872e-06 -2.2117918667241554e-05 -5.4520679047190872e-06 -2.4998214973940129 1.4356852734653813e-05 -2.2117918667241554e-05 1.4356852734653813e-05 -9.9999837889703009 -2.4998403227864103 7.8590391852671091e-07 -6.5533600333012032e-06 7.8590391852671091e-07 -2.4998890064184978 -1.8641275678632496e-06 -6.5533600333012032e-06 -1.8641275678632496e-06 -9.9999877441052956 -2.4998369222241656 4.4817308333857186e-06 -4.9298632887051497e-06 4.4817308333857186e-06 -2.4998383568838118 -5.7458730040593764e-07 -4.9298632887051497e-06 -5.7458730040593764e-07 -10.00001875210344 -2.4997193991034905 -6.6701610421469486e-05 0.00017631249898331092 -6.6701610421469486e-05 -2.4999129366825725 0.00025324028015649702 0.00017631249898331092 0.00025324028015649702 -9.9999928229297481 -2.499770289210534 -2.2907606276045382e-06 2.0201643597950181e-06 -2.2907606276045382e-06 -2.4998257915666797 2.5618561529938688e-06 2.0201643597950181e-06 2.5618561529938688e-06 -9.9999858632089609 -2.4999011435403631 -3.0664691159169641e-05 6.044955876927105e-05 -3.0664691159169641e-05 -2.4998706619167703 2.8285393058880004e-06 6.044955876927105e-05 2.8285393058880004e-06 -10.000081318805526 -2.4997782255997065 -6.3585743350669742e-06 -1.3802841692028833e-05 -6.3585743350669742e-06 -2.4997885809297951 -3.6704148088873012e-05 -1.3802841692028833e-05 -3.6704148088873012e-05 -9.9999597628769035 -2.4998407227336488 8.5262825763292209e-06 -2.624025843767086e-05 8.5262825763292209e-06 -2.4997888029620596 -3.1335050432179656e-06 -2.624025843767086e-05 -3.1335050432179656e-06 -10.000019402618051 -2.4997999140865663 6.3002852868085444e-06 -2.2796045630713024e-05 6.3002852868085444e-06 -2.4998349169227843 -1.1886512671477334e-05 -2.2796045630713024e-05 -1.1886512671477334e-05 -10.000027166373135 -2.4998362855080822 2.7841997643106383e-06 3.7176019969109575e-06 2.7841997643106383e-06 -2.4998451020165549 -6.1668712247886504e-06 3.7176019969109575e-06 -6.1668712247886504e-06 -10.000004809482878 -2.4998397914540806 -7.3890995705310045e-05 1.6793154573591096e-06 -7.3890995705310045e-05 -2.4998498017568416 2.8885493541075391e-05 1.6793154573591096e-06 2.8885493541075391e-05 -9.9999992271560068 -2.4998627827988633 -3.4300743140923195e-05 -4.0728161750935854e-05 -3.4300743140923195e-05 -2.4998264567196857 -2.884527276125759e-05 -4.0728161750935854e-05 -2.884527276125759e-05 -10.000028978452423 -2.4998325161765322 9.9839595177076173e-06 -4.8435843749139451e-06 9.9839595177076173e-06 -2.4998209050438369 9.5980153105301724e-06 -4.8435843749139451e-06 9.5980153105301724e-06 -10.000013701745434 -2.4998867581830146 3.6212025973531795e-05 -8.0350334957124403e-05 3.6212025973531795e-05 -2.4999086421465386 -2.5886881153347474e-05 -8.0350334957124403e-05 -2.5886881153347474e-05 -10.000001951555079 -2.4998535151052415 1.2776791047956876e-06 1.7424938231869191e-05 1.2776791047956876e-06 -2.4998404556660812 -1.5418736250438769e-05 1.7424938231869191e-05 -1.5418736250438769e-05 -10.000007491308466 -2.4997852009410013 1.2645898742273942e-05 2.1685566826690206e-06 1.2645898742273942e-05 -2.4997934235256092 -1.5131824286918061e-05 2.1685566826690206e-06 -1.5131824286918061e-05 -9.9999787442310488 -2.499841310908987 -3.3499725821739788e-06 1.1084010964168556e-05 -3.3499725821739788e-06 -2.4998510175569284 1.044544765971267e-05 1.1084010964168556e-05 1.044544765971267e-05 -10.000036702495516 -2.4998578184373037 -8.4961935230254935e-06 8.4498725190229607e-06 -8.4961935230254935e-06 -2.4998722940728011 1.0206790365785423e-05 8.4498725190229607e-06 1.0206790365785423e-05 -10.00002439789194 -2.4995733632385053 9.0770670888345417e-06 6.81271553144569e-05 9.0770670888345417e-06 -2.4997783257607606 4.449487154101206e-05 6.81271553144569e-05 4.449487154101206e-05 -9.9997072203664263 -2.4998218252296498 -7.5899979614766922e-05 0.00017076276286998038 -7.5899979614766922e-05 -2.4997639822791542 0.00042537091232208724 0.00017076276286998038 0.00042537091232208724 -9.9996397117261306 -2.4998907287882894 3.5377712148984582e-06 -4.5611902734776777e-06 3.5377712148984582e-06 -2.4998319045186803 -5.5312458069334269e-06 -4.5611902734776777e-06 -5.5312458069334269e-06 -9.9999914230909273 -2.4998237498754867 -1.2849892301374243e-05 5.6397631862381559e-06 -1.2849892301374243e-05 -2.4998090110090616 2.9669729855186233e-06 5.6397631862381559e-06 2.9669729855186233e-06 -9.9999931910988806 -2.4998437221585341 9.0294125601086965e-06 -2.3857106334901346e-06 9.0294125601086965e-06 -2.499817606161022 3.6698720506933569e-07 -2.3857106334901346e-06 3.6698720506933569e-07 -9.9999981390761548 -2.4998478808162745 -1.7116237315628259e-06 3.8526070578193128e-06 -1.7116237315628259e-06 -2.4998377873844189 1.0251250614601304e-05 3.8526070578193128e-06 1.0251250614601304e-05 -10.000029780788916 -2.4998296233673387 8.156774941909079e-06 2.2245090994132966e-05 8.156774941909079e-06 -2.4998229290637033 -3.96242178402062e-06 2.2245090994132966e-05 -3.96242178402062e-06 -10.000045718122594 -2.4998942976384835 1.4653877432883627e-05 -8.079255788828732e-07 1.4653877432883627e-05 -2.4998931704326579 7.5464383479939556e-06 -8.079255788828732e-07 7.5464383479939556e-06 -10.000015253895524 -2.4998413979801084 -1.7802410109488066e-05 -5.2568951123266316e-05 -1.7802410109488066e-05 -2.4998327975157757 -4.1463747333381207e-06 -5.2568951123266316e-05 -4.1463747333381207e-06 -9.9999787842966299 -2.499833097954923 -2.0020328220948401e-05 -2.0382954522446539e-05 -2.0020328220948401e-05 -2.4998333081953774 -3.8207126179301554e-05 -2.0382954522446539e-05 -3.8207126179301554e-05 -9.999985938867745 -2.4998145824724913 3.0948585641771322e-06 -1.3493994757141081e-05 3.0948585641771322e-06 -2.4997886502003483 -6.6796087132559023e-06 -1.3493994757141081e-05 -6.6796087132559023e-06 -9.9999741384393452 -2.4998266042543102 -1.6649316746056475e-07 -1.0389405105115657e-06 -1.6649316746056475e-07 -2.4998230880534402 5.5146895725499689e-06 -1.0389405105115657e-06 5.5146895725499689e-06 -9.9999942898296617 -2.4998088390579385 -2.8526941728286272e-06 1.1895618827750809e-06 -2.8526941728286272e-06 -2.4998347529293978 2.7079520492634401e-06 1.1895618827750809e-06 2.7079520492634401e-06 -9.9999921136656589 -2.4998893617318556 -1.3021817413480839e-05 7.1855397485443007e-05 -1.3021817413480839e-05 -2.4998571396041376 -1.8337406933799372e-05 7.1855397485443007e-05 -1.8337406933799372e-05 -10.000076207269096 -2.500131364422979 -2.1025752493265815e-05 1.477956223679304e-05 -2.1025752493265815e-05 -2.5001357854501545 0.00018099130367777686 1.477956223679304e-05 0.00018099130367777686 -10.000052181656081 -2.4998266464017576 1.5327802025894602e-05 -3.4944158606720066e-06 1.5327802025894602e-05 -2.4998427420128344 -3.7245815818209849e-06 -3.4944158606720066e-06 -3.7245815818209849e-06 -9.9999940129973837 -2.4998619547163186 0.00019929265863465197 3.432129164160358e-05 0.00019929265863465197 -2.5001538578885727 3.6040936874037754e-05 3.432129164160358e-05 3.6040936874037754e-05 -10.000056945165955 -2.4999018849398635 6.4374382198716412e-06 -9.9004910234512522e-06 6.4374382198716412e-06 -2.4999022339801749 -3.8502785821847851e-06 -9.9004910234512522e-06 -3.8502785821847851e-06 -9.9999992569580396 -2.4998243371349815 1.0418452197898295e-05 -3.5839570031725998e-06 1.0418452197898295e-05 -2.4998378575598306 7.3633264534578302e-06 -3.5839570031725998e-06 7.3633264534578302e-06 -9.999984105402401 -2.4999413053718915 -2.3972990648899095e-05 -2.3739510326414859e-06 -2.3972990648899095e-05 -2.4998987933292036 -2.0507602932484659e-05 -2.3739510326414859e-06 -2.0507602932484659e-05 -10.000064951543992 -2.4997949588798205 -2.8891063845436433e-05 1.1155332558132613e-05 -2.8891063845436433e-05 -2.4998347988653711 -5.1526649540445391e-06 1.1155332558132613e-05 -5.1526649540445391e-06 -9.9999826171592083 -2.4998492917007908 1.0493618742719058e-05 3.2851275305390004e-05 1.0493618742719058e-05 -2.4998628613719216 2.9901641802609902e-06 3.2851275305390004e-05 2.9901641802609902e-06 -10.000016183958238 -2.4998549732070217 9.6626454522521555e-06 9.8429010044753795e-06 9.6626454522521555e-06 -2.4998471867214853 3.3778838181675042e-05 9.8429010044753795e-06 3.3778838181675042e-05 -10.00001424260109 -2.4998419109993377 1.484493030783215e-05 1.0538956356498375e-05 1.484493030783215e-05 -2.4998858299961575 -1.4555055667386796e-06 1.0538956356498375e-05 -1.4555055667386796e-06 -10.000001732312283 -2.4998126384491242 4.5520535085881051e-05 2.1893325086175253e-06 4.5520535085881051e-05 -2.4997954776434632 2.8961952032169336e-06 2.1893325086175253e-06 2.8961952032169336e-06 -9.9999988604832524 -2.499795974789091 5.444735936346479e-05 2.8777473684016286e-06 5.444735936346479e-05 -2.4997999989427138 1.6667959750193972e-06 2.8777473684016286e-06 1.6667959750193972e-06 -9.9999964526421756 -2.4998353230991088 -7.8192370724955399e-06 4.7866235295845883e-05 -7.8192370724955399e-06 -2.4998079433008025 -3.5976672227544526e-05 4.7866235295845883e-05 -3.5976672227544526e-05 -9.9998891523097004 -2.4998261292576966 -3.6137249876128052e-05 1.1028277336233572e-05 -3.6137249876128052e-05 -2.4998404315665814 -1.310333415305287e-05 1.1028277336233572e-05 -1.310333415305287e-05 -9.9999815328650818 -2.4998308448739697 -1.804111700753625e-06 -9.1878274828260942e-06 -1.804111700753625e-06 -2.4998806701321157 2.471895730238316e-05 -9.1878274828260942e-06 2.471895730238316e-05 -10.000045845879262 -2.499890186577769 -3.0115368065527877e-05 0.0001076297801070325 -3.0115368065527877e-05 -2.4996774078144628 -9.0473165403892608e-07 0.0001076297801070325 -9.0473165403892608e-07 -10.00019196978519 -2.4998392432111949 -4.4612703601630733e-06 -3.8585005430746833e-06 -4.4612703601630733e-06 -2.4998902713268372 -5.4289716611144456e-07 -3.8585005430746833e-06 -5.4289716611144456e-07 -9.9999973433045994 -2.4998083095093331 -1.0042430725600829e-05 -1.3007813984167171e-05 -1.0042430725600829e-05 -2.4998185578697911 2.450265986286837e-05 -1.3007813984167171e-05 2.450265986286837e-05 -9.9999928329888821 -2.4998370906339993 -5.6475083863348968e-06 3.4817720436564059e-05 -5.6475083863348968e-06 -2.4997935306837338 -3.4390904881331785e-05 3.4817720436564059e-05 -3.4390904881331785e-05 -9.9999407245214726 -2.4998376491525995 8.2458510333428263e-06 -1.2420624049269691e-06 8.2458510333428263e-06 -2.499811912986857 3.1702878677819513e-06 -1.2420624049269691e-06 3.1702878677819513e-06 -9.9999981484931766 -2.4998466920176923 -2.6314510816696558e-05 -2.4240686948839851e-06 -2.6314510816696558e-05 -2.4998312755274008 1.3183306553088414e-05 -2.4240686948839851e-06 1.3183306553088414e-05 -10.000028324893201 -2.4998865954131468 -2.7420206606616281e-05 -1.3976465169207586e-05 -2.7420206606616281e-05 -2.4997734121715625 -7.5077150553992666e-05 -1.3976465169207586e-05 -7.5077150553992666e-05 -10.000242890248462 -2.4998475265454765 1.0563080867474525e-05 1.5599934062970888e-05 1.0563080867474525e-05 -2.499807696089535 -3.9860749365239201e-05 1.5599934062970888e-05 -3.9860749365239201e-05 -9.9999894082693039 -2.4998173486791071 -1.0432579484847427e-05 1.727469135026638e-05 -1.0432579484847427e-05 -2.4998041929632659 -1.0972480577464694e-05 1.727469135026638e-05 -1.0972480577464694e-05 -9.9999918957328191 -2.5000860714982935 4.1627171432526445e-06 0.00017046702793863046 4.1627171432526445e-06 -2.4999966777851581 0.00023351897339493082 0.00017046702793863046 0.00023351897339493082 -9.9999715979674431 -2.4998576738045344 -2.4014117819105293e-05 2.4628096365830743e-05 -2.4014117819105293e-05 -2.4998321299132211 5.232803222554594e-05 2.4628096365830743e-05 5.232803222554594e-05 -9.9999939866426963 -2.500135783514962 -2.1697091990054885e-05 0.00014074463176871215 -2.1697091990054885e-05 -2.5001291285598493 5.5026234145857662e-05 0.00014074463176871215 5.5026234145857662e-05 -10.000051734096417 -2.4998400210662952 1.2385389559991383e-05 -2.1115987784980916e-06 1.2385389559991383e-05 -2.4998195593067427 -5.1073986639948998e-06 -2.1115987784980916e-06 -5.1073986639948998e-06 -9.9999920513890679 -2.4998444628055609 -7.1450798845070675e-05 -2.5182384368438449e-05 -7.1450798845070675e-05 -2.499865778736051 9.0002629861141159e-05 -2.5182384368438449e-05 9.0002629861141159e-05 -10.000061919154474 -2.4998317411982716 -2.2595311576702549e-05 5.2842179872669703e-05 -2.2595311576702549e-05 -2.4998664682015463 2.4908816811830548e-05 5.2842179872669703e-05 2.4908816811830548e-05 -9.9999838534404457 -2.4998396398346925 -1.8084772072476019e-05 -2.4600038468491903e-06 -1.8084772072476019e-05 -2.4998568774764474 -6.9028890727906855e-06 -2.4600038468491903e-06 -6.9028890727906855e-06 -9.999999088774377 -2.4999906032321837 4.993756898674287e-06 0.00025919897614828789 4.993756898674287e-06 -2.5000817008094431 0.00021496530142337195 0.00025919897614828789 0.00021496530142337195 -9.9999543235729043 -2.4998281933118438 -7.5950314633017017e-06 -1.0633412532712327e-06 -7.5950314633017017e-06 -2.4998262291263469 -4.2964433877301644e-06 -1.0633412532712327e-06 -4.2964433877301644e-06 -10.000002118844893 -2.500043060683117 -2.3247086958063268e-05 -2.5068449866161302e-05 -2.3247086958063268e-05 -2.4998470138952156 -7.547317321332514e-06 -2.5068449866161302e-05 -7.547317321332514e-06 -10.000032129441166 -2.5000429144405731 -1.6885775411035526e-05 -0.00011310004107123461 -1.6885775411035526e-05 -2.499877077284713 -5.0375564946136819e-06 -0.00011310004107123461 -5.0375564946136819e-06 -9.9998740588471389 -2.4998832882284745 1.5732593726890655e-05 -3.5472062522856618e-06 1.5732593726890655e-05 -2.4998351244384924 1.1380212606493245e-05 -3.5472062522856618e-06 1.1380212606493245e-05 -10.000003358856453 -2.4998343248238797 -1.4924995795378672e-05 -1.2436284301031719e-05 -1.4924995795378672e-05 -2.4998138863854749 6.2121191994890523e-06 -1.2436284301031719e-05 6.2121191994890523e-06 -9.9999900786288833 -2.499809197426393 2.2146251327099094e-05 -1.0474636320978448e-05 2.2146251327099094e-05 -2.4998337947648412 1.1894401868772775e-05 -1.0474636320978448e-05 1.1894401868772775e-05 -10.00003479024476 -2.4998112461117739 1.594773866099077e-05 -1.6503100529252634e-05 1.594773866099077e-05 -2.4998183629440476 -3.4857452408942891e-06 -1.6503100529252634e-05 -3.4857452408942891e-06 -10.000001859264984 -2.4998061748428717 -5.632228731025429e-07 1.4697740824409777e-05 -5.632228731025429e-07 -2.4997198729814167 6.7393302683349532e-05 1.4697740824409777e-05 6.7393302683349532e-05 -9.9999524060584157 -2.4998466960556009 -1.6935309839951648e-05 5.4223467209624232e-06 -1.6935309839951648e-05 -2.4998653749758604 6.8836319613296837e-06 5.4223467209624232e-06 6.8836319613296837e-06 -10.000000692128355 -2.4998559272449636 -1.7258206853882252e-05 1.7204505613932497e-05 -1.7258206853882252e-05 -2.4998422789850796 6.8579858751860456e-06 1.7204505613932497e-05 6.8579858751860456e-06 -9.999988749881112 -2.4998972023456401 -1.6801422949462461e-05 -2.8372405177057303e-05 -1.6801422949462461e-05 -2.4998781436615407 5.355890289493459e-06 -2.8372405177057303e-05 5.355890289493459e-06 -10.000046827917741 -2.4998441549552757 -2.2275805223841685e-05 -9.5689854626712645e-06 -2.2275805223841685e-05 -2.4998512761571403 2.0210476339599381e-05 -9.5689854626712645e-06 2.0210476339599381e-05 -10.000030167115792 -2.4998504900636824 -1.3610919282220157e-05 2.0915069690374821e-05 -1.3610919282220157e-05 -2.499871903575225 -1.3897543330809725e-05 2.0915069690374821e-05 -1.3897543330809725e-05 -9.9999735426891085 -2.4998435071251031 -8.068856938600417e-06 -8.8773782955797742e-06 -8.068856938600417e-06 -2.4998406982795256 1.2477234139218751e-06 -8.8773782955797742e-06 1.2477234139218751e-06 -10.000064218028399 -2.4998365590570146 2.5063872221642616e-05 4.0870968122774798e-05 2.5063872221642616e-05 -2.4998054042890079 2.2777667033402338e-05 4.0870968122774798e-05 2.2777667033402338e-05 -9.9998596766839523 -2.4998566269055824 3.5942101257763814e-05 7.77403729732562e-05 3.5942101257763814e-05 -2.4997259162254286 -4.4888991226788022e-05 7.77403729732562e-05 -4.4888991226788022e-05 -10.000185530464572 -2.4998589321526978 5.0823591906278329e-06 1.3393251478532875e-05 5.0823591906278329e-06 -2.4998646424845816 -5.9329699340082698e-06 1.3393251478532875e-05 -5.9329699340082698e-06 -10.000009078964453 -2.4998625930637539 3.5762664615153094e-05 3.2487273508241543e-05 3.5762664615153094e-05 -2.4998632193899217 -1.6796328165313845e-05 3.2487273508241543e-05 -1.6796328165313845e-05 -10.000105187303934 -2.4998603015374226 -2.0432889631457501e-05 -5.1104588330019851e-06 -2.0432889631457501e-05 -2.4998513589277742 -4.6062404486235664e-06 -5.1104588330019851e-06 -4.6062404486235664e-06 -10.000002058978929 -2.4998245704434976 1.1875974589154175e-05 -6.9349085656256193e-06 1.1875974589154175e-05 -2.4998087421170037 -1.316668788886588e-05 -6.9349085656256193e-06 -1.316668788886588e-05 -9.9999984636003365 -2.4998296431544262 -6.2981324348096787e-05 5.250251223998248e-06 -6.2981324348096787e-05 -2.4998217854811533 4.5523108342493401e-05 5.250251223998248e-06 4.5523108342493401e-05 -10.000002800689225 -2.4998210862355901 -6.2954786367224789e-05 4.4147350727996582e-05 -6.2954786367224789e-05 -2.4998251261688171 2.3676122378191167e-06 4.4147350727996582e-05 2.3676122378191167e-06 -10.000003501323327 -2.4998665756043352 -2.6544145222906571e-06 8.6141756376889589e-06 -2.6544145222906571e-06 -2.4998922578544147 -1.9093678091941513e-06 8.6141756376889589e-06 -1.9093678091941513e-06 -10.000005890651204 -2.4998394090127807 -1.5984758957228933e-05 1.2735616411241324e-05 -1.5984758957228933e-05 -2.4998808467593427 -5.8734260210968614e-07 1.2735616411241324e-05 -5.8734260210968614e-07 -10.000001430615008 -2.4998448913061049 -5.6447801438850014e-06 -8.1784469827539397e-06 -5.6447801438850014e-06 -2.4998354897733579 4.7997770575847198e-06 -8.1784469827539397e-06 4.7997770575847198e-06 -10.000035319217911 -2.499812830660888 7.9651324470442878e-06 5.1620331742441294e-07 7.9651324470442878e-06 -2.4998004802809426 -3.187092492140664e-06 5.1620331742441294e-07 -3.187092492140664e-06 -9.9999998725175061 -2.499788105202696 -2.4876779255266973e-05 -2.7227117127992528e-05 -2.4876779255266973e-05 -2.4998201006175496 -7.4129556884905412e-05 -2.7227117127992528e-05 -7.4129556884905412e-05 -9.9999953272043207 -2.4998769333326347 -1.3494062964027604e-05 1.722747307741912e-05 -1.3494062964027604e-05 -2.4999002538710959 -4.376486958612702e-06 1.722747307741912e-05 -4.376486958612702e-06 -10.000008236246266 -2.4999084439262775 -1.1148621785428459e-05 -1.7591330377708658e-05 -1.1148621785428459e-05 -2.4998494713338459 7.9366220240295604e-07 -1.7591330377708658e-05 7.9366220240295604e-07 -9.999887930896902 -2.4998655695110097 1.7720950076605817e-05 1.3582588671845475e-05 1.7720950076605817e-05 -2.4998530916475712 -1.1083847440751526e-05 1.3582588671845475e-05 -1.1083847440751526e-05 -10.000035837149721 -2.4998642552867851 0.0001615184096657245 3.5007267687792165e-05 0.0001615184096657245 -2.5001303215170232 -2.5049327359749629e-05 3.5007267687792165e-05 -2.5049327359749629e-05 -10.000013617082999 -2.4998430260917712 7.5724307128078629e-06 -9.6543725617459497e-05 7.5724307128078629e-06 -2.499854908036196 -0.00011161546275140211 -9.6543725617459497e-05 -0.00011161546275140211 -10.000305677553078 -2.4998633112101261 -4.0481384597711318e-05 8.4390263994649217e-06 -4.0481384597711318e-05 -2.5000632260428404 -5.5108348490762182e-05 8.4390263994649217e-06 -5.5108348490762182e-05 -9.9998754192670098 -2.4998333039993201 5.55705386552339e-05 3.7394954248703982e-06 5.55705386552339e-05 -2.4998273937187121 2.1775577576654825e-05 3.7394954248703982e-06 2.1775577576654825e-05 -9.9999970617188634 -2.4998827950755134 -9.6474560395157116e-06 -2.2383372256129519e-05 -9.6474560395157116e-06 -2.4999027304075403 1.0883923042825927e-05 -2.2383372256129519e-05 1.0883923042825927e-05 -10.000001833163363 -2.4998570079701681 1.6229869616457108e-05 3.2322729847766851e-05 1.6229869616457108e-05 -2.4998494451826332 -1.5739782852408624e-05 3.2322729847766851e-05 -1.5739782852408624e-05 -10.000028636968562 -2.4997891733242734 -3.7096879236655513e-05 -4.5651407161173552e-06 -3.7096879236655513e-05 -2.4998094799306574 -2.4366913042861427e-07 -4.5651407161173552e-06 -2.4366913042861427e-07 -9.9998404879497382 -2.4998644616407173 2.8233756979799185e-05 2.5454859797324758e-05 2.8233756979799185e-05 -2.4998486951626315 8.7612835679706791e-06 2.5454859797324758e-05 8.7612835679706791e-06 -10.000065850342782 -2.4998247328616658 -8.7034575334553935e-06 7.7727323586351815e-06 -8.7034575334553935e-06 -2.4998226090293025 -1.4273726947067189e-06 7.7727323586351815e-06 -1.4273726947067189e-06 -9.9999731690722093 -2.4998427918368318 2.674977716352874e-05 -0.00010061639442793258 2.674977716352874e-05 -2.4998334795636081 -7.7713835380910368e-05 -0.00010061639442793258 -7.7713835380910368e-05 -10.000306773854344 -2.4998139278366391 3.5735021615862674e-06 1.0161060003177624e-05 3.5735021615862674e-06 -2.4998075701669267 5.5559662825999112e-06 1.0161060003177624e-05 5.5559662825999112e-06 -9.9999889711304881 -2.4998056209413315 -1.3516515830182981e-05 -5.5213905589823753e-06 -1.3516515830182981e-05 -2.4998043850920846 3.7287106799399616e-06 -5.5213905589823753e-06 3.7287106799399616e-06 -10.000005104638092 -2.4998305930542366 -5.167023935545642e-05 0.00034381234267488736 -5.167023935545642e-05 -2.4995519742085874 -3.1572860899053978e-06 0.00034381234267488736 -3.1572860899053978e-06 -9.9996114252043036 -2.4998277578982782 -2.6515214959123123e-05 -0.00011946203231061325 -2.6515214959123123e-05 -2.4998323222305441 6.7569832775227212e-05 -0.00011946203231061325 6.7569832775227212e-05 -9.9998510569219619 -2.4998725062001501 -6.374320121355873e-05 0.00012314713382832743 -6.374320121355873e-05 -2.4996897029496514 -6.625839093565844e-05 0.00012314713382832743 -6.625839093565844e-05 -10.000054117074061 -2.4998240362499233 8.7242698596367457e-06 -3.8565921656186219e-07 8.7242698596367457e-06 -2.4998434328768324 -8.3442438869596458e-07 -3.8565921656186219e-07 -8.3442438869596458e-07 -9.9999976326777009 -2.5000659443157964 0.00013725324318019329 -5.3418046095821126e-05 0.00013725324318019329 -2.4998390618604667 9.4325386035265524e-07 -5.3418046095821126e-05 9.4325386035265524e-07 -10.000039050449747 -2.4998966602454562 -7.9561156576268355e-05 0.00015108256470242054 -7.9561156576268355e-05 -2.4998494395270985 3.2002265963448906e-05 0.00015108256470242054 3.2002265963448906e-05 -10.000002799115158 -2.4998214847998277 -3.1390863436121899e-06 2.5357795507829906e-07 -3.1390863436121899e-06 -2.499798723526494 5.7674430440357582e-06 2.5357795507829906e-07 5.7674430440357582e-06 -9.9999987411038447 -2.4998439713876244 1.4850252388544507e-05 -2.2758838568393003e-05 1.4850252388544507e-05 -2.4998386953923997 2.3751829241192013e-05 -2.2758838568393003e-05 2.3751829241192013e-05 -10.000035971942056 -2.4998249052373467 6.3318744680081963e-06 7.155243801904021e-06 6.3318744680081963e-06 -2.4998248371792702 7.3674804745849087e-07 7.155243801904021e-06 7.3674804745849087e-07 -10.000001988999763 -2.5000328781992427 2.2814033201666526e-05 -7.5706670212623989e-05 2.2814033201666526e-05 -2.4999908428859308 0.0001410100625916491 -7.5706670212623989e-05 0.0001410100625916491 -10.00003416746895 -2.4998414170041325 -2.2991526803820758e-05 -1.3977940920284482e-06 -2.2991526803820758e-05 -2.4998199574314937 9.595061669642746e-07 -1.3977940920284482e-06 9.595061669642746e-07 -9.9999902298893133 -2.4999784921528141 2.8273496497632828e-05 0.0001604618065420985 2.8273496497632828e-05 -2.500010821608381 -2.2601336294892239e-05 0.0001604618065420985 -2.2601336294892239e-05 -10.000011815435458 -2.4998382509993284 6.2672449168296211e-06 5.0183876609821709e-06 6.2672449168296211e-06 -2.4998023193997891 1.5386195961752946e-06 5.0183876609821709e-06 1.5386195961752946e-06 -9.9999936366219089 -2.4997706807318263 6.4226509049146848e-05 7.630600165420276e-05 6.4226509049146848e-05 -2.4998451402483699 2.1038656391247912e-05 7.630600165420276e-05 2.1038656391247912e-05 -9.9999878444805077 -2.499828823748504 5.7016374530964305e-05 1.8182208900263674e-05 5.7016374530964305e-05 -2.4998384299338374 2.627494173790268e-06 1.8182208900263674e-05 2.627494173790268e-06 -10.000000196506878 -2.4998354467826251 -8.9631853712798191e-05 -0.0001298075314259961 -8.9631853712798191e-05 -2.4998412175804532 -3.7810798780846255e-05 -0.0001298075314259961 -3.7810798780846255e-05 -10.000016122530575 -2.4998250992529316 -2.95790154745719e-05 -1.0118408724224537e-06 -2.95790154745719e-05 -2.499747704384693 4.8992218384391606e-05 -1.0118408724224537e-06 4.8992218384391606e-05 -10.000000681046881 -2.4999073217489469 -0.00022639496014484586 -3.9552879382398487e-05 -0.00022639496014484586 -2.4998838461293236 -4.2819955361039774e-05 -3.9552879382398487e-05 -4.2819955361039774e-05 -9.9999884253117699 -2.4998089575275237 -3.112436329770011e-06 -3.8785470384272713e-06 -3.112436329770011e-06 -2.4998198454444687 -5.1589778831129252e-06 -3.8785470384272713e-06 -5.1589778831129252e-06 -9.9999978880276714 -2.4998303332443808 9.3799634573563534e-07 -1.8302731299435493e-05 9.3799634573563534e-07 -2.4997998939126251 1.3986349356009953e-05 -1.8302731299435493e-05 1.3986349356009953e-05 -9.9999862299001734 -2.4998325816268689 -7.7585980560415549e-06 2.1725822652030047e-05 -7.7585980560415549e-06 -2.499838264915196 3.249205728889093e-06 2.1725822652030047e-05 3.249205728889093e-06 -10.000048965001149 -2.4998257547227283 2.2264045962746063e-05 3.6931375255733201e-06 2.2264045962746063e-05 -2.499835890657236 3.6463539798248235e-05 3.6931375255733201e-06 3.6463539798248235e-05 -9.9999735320137191 -2.4998226490327857 -1.4845174646305065e-05 3.5921901009317025e-06 -1.4845174646305065e-05 -2.4998411490712584 -1.9403194535527746e-06 3.5921901009317025e-06 -1.9403194535527746e-06 -9.9999904057824551 -2.4998358914606764 2.8279734266788761e-05 3.3857748332977167e-05 2.8279734266788761e-05 -2.4998226637185916 1.1102171395549476e-05 3.3857748332977167e-05 1.1102171395549476e-05 -9.9999693658449758 -2.4999311038288878 -1.1797794199866742e-05 -6.7814249899988965e-06 -1.1797794199866742e-05 -2.4998222172672158 1.6914899404474326e-05 -6.7814249899988965e-06 1.6914899404474326e-05 -10.000025585459817 -2.499838701571679 2.9945836266467396e-05 2.1838735796197994e-05 2.9945836266467396e-05 -2.4998625510495889 -1.5730872076624713e-06 2.1838735796197994e-05 -1.5730872076624713e-06 -10.000027622032929 -2.4998161700174535 -2.5331895581704546e-06 1.0296367234263748e-05 -2.5331895581704546e-06 -2.4998321808780277 3.9525217769842413e-06 1.0296367234263748e-05 3.9525217769842413e-06 -10.000055825341601 -2.4998530543268647 -1.2236464265230167e-05 -3.2764828839626503e-05 -1.2236464265230167e-05 -2.4998480097273497 3.4077395927312182e-06 -3.2764828839626503e-05 3.4077395927312182e-06 -9.9999930056473119 -2.4998264131199797 -4.3300823257169733e-05 8.8099531758700778e-07 -4.3300823257169733e-05 -2.4998303159707476 -4.7150248860816646e-07 8.8099531758700778e-07 -4.7150248860816646e-07 -9.9999759483940025 -2.4998319492872501 -4.0642940565180403e-05 -5.019544506268403e-06 -4.0642940565180403e-05 -2.4998311564388143 6.5485217817240482e-06 -5.019544506268403e-06 6.5485217817240482e-06 -9.9999737681487773 -2.4998474193683204 3.9622501470226029e-06 -1.7135338641338649e-05 3.9622501470226029e-06 -2.4998568747400416 1.6975140420427692e-05 -1.7135338641338649e-05 1.6975140420427692e-05 -10.000012669265566 -2.4998139850520626 -5.7646425278601023e-06 1.072032648408161e-05 -5.7646425278601023e-06 -2.499911239725253 1.5284883246202696e-05 1.072032648408161e-05 1.5284883246202696e-05 -10.000002690916176 -2.4998624372610747 -1.4205201847696193e-05 -1.8625601949651127e-06 -1.4205201847696193e-05 -2.4998905191138734 4.6687465776351633e-05 -1.8625601949651127e-06 4.6687465776351633e-05 -10.000063325737042 -2.499889332724639 1.3334010931857139e-07 2.8847361388528725e-08 1.3334010931857139e-07 -2.4998575979445055 7.7626299255229014e-06 2.8847361388528725e-08 7.7626299255229014e-06 -10.000008210531563 -2.4998133114721242 -1.5126248574137921e-06 -1.0537049109693442e-05 -1.5126248574137921e-06 -2.49983312595326 1.1545773944021676e-05 -1.0537049109693442e-05 1.1545773944021676e-05 -9.9999974982747553 -2.4998234408354669 1.5119772908593812e-05 -4.2179486667848209e-06 1.5119772908593812e-05 -2.4998318606982348 9.2776174955844226e-06 -4.2179486667848209e-06 9.2776174955844226e-06 -10.000001530116045 -2.4999508217794801 1.8155960436215755e-05 -6.6027480778441117e-06 1.8155960436215755e-05 -2.4998310804526396 -2.7539562776901505e-05 -6.6027480778441117e-06 -2.7539562776901505e-05 -9.9999556865286614 -2.4998319313437118 7.8147274720306025e-07 -6.2828667772851787e-06 7.8147274720306025e-07 -2.4998824190824624 -3.8035126239677197e-06 -6.2828667772851787e-06 -3.8035126239677197e-06 -9.9998612112439886 -2.4998883690686733 6.3117745631673604e-05 0.00027515837562996914 6.3117745631673604e-05 -2.4996811822784482 -0.00014722968912073142 0.00027515837562996914 -0.00014722968912073142 -9.9998890615889522 -2.4998431880795673 -6.6253935315659345e-07 -2.4156127214070011e-05 -6.6253935315659345e-07 -2.499824616228282 1.9430433368938793e-06 -2.4156127214070011e-05 1.9430433368938793e-06 -9.9999906363680608 -2.499939625953278 8.1150044837705489e-06 5.9890999255518551e-06 8.1150044837705489e-06 -2.4998648031877124 -7.5981271807634698e-06 5.9890999255518551e-06 -7.5981271807634698e-06 -9.9998610748977441 -2.4998313924088302 -6.5869057180497359e-05 1.5300411275731562e-06 -6.5869057180497359e-05 -2.4998092131090965 -2.0045727690209958e-05 1.5300411275731562e-06 -2.0045727690209958e-05 -9.9999967999620196 -2.4998126466826216 1.7884024966141805e-08 -1.1775021214077697e-05 1.7884024966141805e-08 -2.4998062928873059 1.4179164844918546e-05 -1.1775021214077697e-05 1.4179164844918546e-05 -9.9999659613704814 -2.4998045068370511 -1.8910930948715195e-06 2.1302778190790406e-05 -1.8910930948715195e-06 -2.4998197697063058 -1.3810776145817272e-05 2.1302778190790406e-05 -1.3810776145817272e-05 -9.9999678475419724 -2.499872829595108 -2.0074937626065336e-05 -4.433244698542893e-05 -2.0074937626065336e-05 -2.4997413901277161 7.8604635137757839e-05 -4.433244698542893e-05 7.8604635137757839e-05 -10.000224822068184 -2.4998055386342677 6.6683838828994111e-07 7.6497028533850653e-06 6.6683838828994111e-07 -2.4998238409112665 -1.480346209170591e-05 7.6497028533850653e-06 -1.480346209170591e-05 -9.9999852415938602 -2.4998558957526846 1.0042034942302869e-06 7.10340295184686e-06 1.0042034942302869e-06 -2.4998952087745563 -3.3643038577224615e-06 7.10340295184686e-06 -3.3643038577224615e-06 -9.9999932343919298 -2.4998441983173008 -4.3309836375113374e-05 -2.3249225620025626e-05 -4.3309836375113374e-05 -2.4997968766828222 -5.8975183791609709e-05 -2.3249225620025626e-05 -5.8975183791609709e-05 -9.999995935259463 -2.4998546290336376 -1.0891940526716236e-05 -3.1936270413090995e-05 -1.0891940526716236e-05 -2.4998493767784913 7.8203033062607119e-06 -3.1936270413090995e-05 7.8203033062607119e-06 -10.000004772499391 -2.4997957207926884 -3.7636855878499837e-05 -6.0830133408629194e-05 -3.7636855878499837e-05 -2.4998385758000605 -2.0575984112536361e-05 -6.0830133408629194e-05 -2.0575984112536361e-05 -9.9999825677509797 -2.4998562898982968 -1.0448249051306913e-05 4.9051181534309762e-06 -1.0448249051306913e-05 -2.4998437015331048 -1.6269156133397189e-07 4.9051181534309762e-06 -1.6269156133397189e-07 -10.000005177269379 -2.4998364324653526 1.941335998095768e-05 6.3724962195976786e-06 1.941335998095768e-05 -2.4998511190388815 -4.6440107048795198e-06 6.3724962195976786e-06 -4.6440107048795198e-06 -10.000005616493162 -2.4998193387401795 -6.1054654182823948e-05 9.4868154161709128e-05 -6.1054654182823948e-05 -2.4998652630238034 -2.3789119528494496e-05 9.4868154161709128e-05 -2.3789119528494496e-05 -9.9999819470126852 -2.4998211437747884 -3.9723388308140737e-06 4.0332614332783123e-06 -3.9723388308140737e-06 -2.499829819709305 -1.1974934911673785e-05 4.0332614332783123e-06 -1.1974934911673785e-05 -10.000007933165868 -2.4998028096559697 -9.7316843261449913e-06 1.5838382988242472e-05 -9.7316843261449913e-06 -2.4998071593444218 1.1739247635311756e-05 1.5838382988242472e-05 1.1739247635311756e-05 -10.000002553839384 -2.4998417189785966 -9.854313462637553e-06 -1.2699437927476964e-05 -9.854313462637553e-06 -2.4998711544948113 3.4561123662513182e-05 -1.2699437927476964e-05 3.4561123662513182e-05 -9.999981765856619 -2.4997820757049105 7.4267782189143341e-06 1.4493446844454638e-05 7.4267782189143341e-06 -2.4998165235929104 -5.6060260544832374e-06 1.4493446844454638e-05 -5.6060260544832374e-06 -9.9999954390086785 -2.4998865909326855 -5.5407651670797592e-05 -9.1806023982954343e-07 -5.5407651670797592e-05 -2.4999044590058541 2.8805296210521192e-06 -9.1806023982954343e-07 2.8805296210521192e-06 -10.000033237449466 -2.4996956431874344 6.0113713841052429e-05 -7.3468239047969064e-05 6.0113713841052429e-05 -2.4997984480427795 7.7236738427188811e-06 -7.3468239047969064e-05 7.7236738427188811e-06 -9.9999610641856318 -2.4999392640540989 9.1722923730205418e-06 -2.2999046797700373e-05 9.1722923730205418e-06 -2.4999357178998238 -2.6921314236538763e-05 -2.2999046797700373e-05 -2.6921314236538763e-05 -10.00004115830604 -2.5002490371478223 -8.5970789373272939e-08 0.00020457346940872412 -8.5970789373272939e-08 -2.5002484341055697 0.00088383538959100065 0.00020457346940872412 0.00088383538959100065 -10.001025129194966 -2.4998322814968983 4.1117358366547581e-06 1.3771785049687679e-05 4.1117358366547581e-06 -2.4998271272407298 2.4461544967380178e-06 1.3771785049687679e-05 2.4461544967380178e-06 -10.000000230009661 -2.499845119113453 -7.1064769049623384e-07 8.2702664769840339e-06 -7.1064769049623384e-07 -2.4998987357014011 -5.7174035958951208e-06 8.2702664769840339e-06 -5.7174035958951208e-06 -9.9999926837125308 -2.4999310101455006 2.9745951903354596e-05 3.3808812626823226e-05 2.9745951903354596e-05 -2.5001187393190012 -0.0001182917145388096 3.3808812626823226e-05 -0.0001182917145388096 -10.000105836170892 -2.4997941134808079 1.5189100818123455e-05 -1.1346532054368197e-05 1.5189100818123455e-05 -2.4997997481468439 4.8690152105734796e-06 -1.1346532054368197e-05 4.8690152105734796e-06 -10.00000316031691 -2.4998458117828743 1.4459744292064021e-06 2.3295993454297559e-06 1.4459744292064021e-06 -2.499830667992387 -3.5928910016025384e-06 2.3295993454297559e-06 -3.5928910016025384e-06 -10.000004422993328 -2.4998182022900934 2.1833003130200362e-05 -1.0174227083048493e-05 2.1833003130200362e-05 -2.4998046280576549 -2.3258535171599704e-05 -1.0174227083048493e-05 -2.3258535171599704e-05 -9.9999286972726296 -2.4998509482032585 2.0063006793458795e-05 -6.1727281490675523e-06 2.0063006793458795e-05 -2.4998302516284561 7.2388388172583973e-06 -6.1727281490675523e-06 7.2388388172583973e-06 -10.000006120595295 -2.4997289169487034 3.6871274815687791e-06 1.6236441314099181e-05 3.6871274815687791e-06 -2.4997296694520359 6.2115645912186324e-05 1.6236441314099181e-05 6.2115645912186324e-05 -9.9999745356638527 -2.4998126883616107 -7.0810508828437407e-06 1.9938623676107881e-05 -7.0810508828437407e-06 -2.4998367823080061 1.7955657595214447e-05 1.9938623676107881e-05 1.7955657595214447e-05 -9.9999956378858705 -2.4998666450231499 3.7238693826301274e-05 -7.7689665499036664e-05 3.7238693826301274e-05 -2.4998676571037564 2.4893793401759012e-05 -7.7689665499036664e-05 2.4893793401759012e-05 -10.000052540450616 -2.499851562342208 -6.2447399080197037e-06 -9.6164870608816955e-06 -6.2447399080197037e-06 -2.4998480008653656 -2.337569176180665e-05 -9.6164870608816955e-06 -2.337569176180665e-05 -10.000018444723651 -2.4998636933544964 -4.0169453294579296e-05 4.0851485961113099e-05 -4.0169453294579296e-05 -2.4998705579220784 1.3384106644087623e-06 4.0851485961113099e-05 1.3384106644087623e-06 -10.000004632574329 -2.4998594272577472 -3.1680824894690391e-06 5.545562093089984e-06 -3.1680824894690391e-06 -2.499849539887351 -3.0275149975445004e-05 5.545562093089984e-06 -3.0275149975445004e-05 -10.000010849691552 -2.499825114173678 4.9890349948538428e-05 -2.5714349316530161e-06 4.9890349948538428e-05 -2.4998173316104744 2.8341245783991553e-05 -2.5714349316530161e-06 2.8341245783991553e-05 -9.9999948725734242 -2.4998133925738255 5.0581742734687239e-05 2.9040400155722068e-05 5.0581742734687239e-05 -2.499828958208953 -3.2975819621583469e-06 2.9040400155722068e-05 -3.2975819621583469e-06 -9.9999924215305285 -2.4998422086905623 -1.4989554391863259e-05 1.9305700639904444e-05 -1.4989554391863259e-05 -2.4998132912026176 1.5866068376890752e-05 1.9305700639904444e-05 1.5866068376890752e-05 -9.9999938918095417 -2.4998603101547889 -1.6615454640218894e-05 4.7088194985889231e-05 -1.6615454640218894e-05 -2.4998314890655218 -4.2910868861961715e-06 4.7088194985889231e-05 -4.2910868861961715e-06 -9.999990370634201 -2.4997898148868245 9.8001229958440066e-06 8.3330389436531149e-06 9.8001229958440066e-06 -2.4997999287531236 -2.3247635780876408e-05 8.3330389436531149e-06 -2.3247635780876408e-05 -9.9999569640764534 -2.4998367014875731 -2.0721599290265915e-05 -9.3901858555511808e-06 -2.0721599290265915e-05 -2.4998496576369096 -1.550398768301875e-05 -9.3901858555511808e-06 -1.550398768301875e-05 -10.000019780358841 -2.499843294757107 1.6895526552291711e-05 -2.4315782276573827e-05 1.6895526552291711e-05 -2.4998271316791909 2.3193702670454286e-05 -2.4315782276573827e-05 2.3193702670454286e-05 -10.000034703503658 -2.499578195081062 -8.1149253732146505e-06 9.0857806776867278e-05 -8.1149253732146505e-06 -2.4998104537527568 -9.7769874441766547e-05 9.0857806776867278e-05 -9.7769874441766547e-05 -9.999737879954429 -2.4998271792545275 -2.3623024960577947e-06 -2.908508776555685e-05 -2.3623024960577947e-06 -2.4998277005026841 2.6238342218043442e-05 -2.908508776555685e-05 2.6238342218043442e-05 -10.000030082170554 -2.4997203558995014 -1.9416725657566708e-05 4.4839567751253639e-05 -1.9416725657566708e-05 -2.4998173102399481 2.6901497290232612e-05 4.4839567751253639e-05 2.6901497290232612e-05 -9.9999689120232755 -2.4998232415197199 2.9881627885021831e-06 1.1696529380600396e-06 2.9881627885021831e-06 -2.4998235066016319 -2.1841638586650447e-06 1.1696529380600396e-06 -2.1841638586650447e-06 -10.000011543534843 -2.4997993455596523 -7.1452720639000208e-06 6.9839163616691735e-06 -7.1452720639000208e-06 -2.499800377979291 6.8629759306659821e-06 6.9839163616691735e-06 6.8629759306659821e-06 -9.9999807961217968 -2.4998305897061925 5.2260796331817055e-05 -0.00011516261161492736 5.2260796331817055e-05 -2.4998903672711208 -4.3787366837300112e-05 -0.00011516261161492736 -4.3787366837300112e-05 -9.9999916393765744 -2.4998359287021428 1.076437726440899e-05 4.1720491639196666e-06 1.076437726440899e-05 -2.499830344930059 3.458175498849414e-06 4.1720491639196666e-06 3.458175498849414e-06 -9.9999989392339401 -2.49980468784503 -3.9222197152171479e-06 2.8481520653045322e-07 -3.9222197152171479e-06 -2.4998207586794567 -3.1982382795447961e-06 2.8481520653045322e-07 -3.1982382795447961e-06 -10.000001974031296 -2.4998603488227342 -2.223607852848708e-05 -1.3942699752078624e-05 -2.223607852848708e-05 -2.4998267649388577 -3.2500835853710441e-06 -1.3942699752078624e-05 -3.2500835853710441e-06 -10.000028315638538 -2.4998168289600962 1.0376132109404847e-05 3.3770415051037617e-06 1.0376132109404847e-05 -2.4998189162863937 -3.0962764796527154e-06 3.3770415051037617e-06 -3.0962764796527154e-06 -9.9999962245055443 -2.4998055103836312 1.5966627830295086e-06 1.9431352570542515e-05 1.5966627830295086e-06 -2.4998188909931316 1.2418092407706638e-05 1.9431352570542515e-05 1.2418092407706638e-05 -10.000004278927971 -2.4998470310941503 -9.5555656483543812e-06 -1.1468138956249874e-05 -9.5555656483543812e-06 -2.4998513823953417 1.423454981086536e-05 -1.1468138956249874e-05 1.423454981086536e-05 -10.000027892663601 -2.499820522697342 2.9184206884328478e-06 -1.867994679827234e-06 2.9184206884328478e-06 -2.4998271559544305 3.248142078859928e-06 -1.867994679827234e-06 3.248142078859928e-06 -9.9999977447382555 -2.4999768934625313 0.00020332798209180821 4.1636580595749706e-05 0.00020332798209180821 -2.4997977634690938 1.2584502915302664e-05 4.1636580595749706e-05 1.2584502915302664e-05 -10.000012904487251 -2.4997914033603132 8.46299848394656e-06 -4.8369501295386641e-05 8.46299848394656e-06 -2.4998912372626836 3.3611152618684415e-05 -4.8369501295386641e-05 3.3611152618684415e-05 -10.000322567870626 -2.499593866364533 -0.00017144502336085879 -6.4167179572471866e-05 -0.00017144502336085879 -2.4998411719161275 -2.0840951213685344e-05 -6.4167179572471866e-05 -2.0840951213685344e-05 -9.9999701816967388 -2.4998680863655203 -2.6625347703374576e-05 1.2339480192746777e-05 -2.6625347703374576e-05 -2.4999397267724204 3.0653831873284076e-05 1.2339480192746777e-05 3.0653831873284076e-05 -9.9999117517561231 -2.4998518206778177 7.4796282249557189e-05 9.7845887516712082e-05 7.4796282249557189e-05 -2.4998063677746529 3.0491991860781553e-05 9.7845887516712082e-05 3.0491991860781553e-05 -10.000082577897089 -2.4998351634810332 -1.9780673122086692e-05 6.7230582061483801e-06 -1.9780673122086692e-05 -2.499842968657604 4.7037367991720203e-06 6.7230582061483801e-06 4.7037367991720203e-06 -10.000005844595716 -2.4998727788362451 1.8638015233932717e-05 -7.717070578250329e-05 1.8638015233932717e-05 -2.4996926014806453 4.7647659717320323e-05 -7.717070578250329e-05 4.7647659717320323e-05 -10.000180714409559 -2.4998908119500016 -5.6107529728038131e-05 -3.6831465328290847e-05 -5.6107529728038131e-05 -2.4998169286488712 6.7380485436974169e-05 -3.6831465328290847e-05 6.7380485436974169e-05 -9.9999947120107411 -2.5001387278657452 -1.8349506177336501e-06 4.1592245293653463e-05 -1.8349506177336501e-06 -2.4998398208101298 -8.2943857693695833e-05 4.1592245293653463e-05 -8.2943857693695833e-05 -10.000326608430264 -2.4997744613876058 4.9604406419735175e-05 -9.9833407007920982e-06 4.9604406419735175e-05 -2.4995603984394812 -0.00019094796819896231 -9.9833407007920982e-06 -0.00019094796819896231 -9.9999696466841357 -2.499821916323314 2.3403566738333359e-05 2.3141121020309185e-05 2.3403566738333359e-05 -2.4998392052972029 -1.6716373424596753e-05 2.3141121020309185e-05 -1.6716373424596753e-05 -10.000021201662928 -2.4999388030711867 2.446468350758095e-05 -7.8455407885424933e-05 2.446468350758095e-05 -2.5001294772354479 0.00013283307394917898 -7.8455407885424933e-05 0.00013283307394917898 -10.000160568071802 -2.499829952982584 1.7651052230279351e-05 -2.4731304577585433e-06 1.7651052230279351e-05 -2.4998460169105194 7.4123373545731397e-06 -2.4731304577585433e-06 7.4123373545731397e-06 -10.000003432334944 -2.4998323813154908 1.3608275814280292e-05 -1.6796858197665188e-06 1.3608275814280292e-05 -2.4997463513873734 -3.5494055259377433e-06 -1.6796858197665188e-06 -3.5494055259377433e-06 -9.9999853432607182 -2.4998203214324617 6.1928090270404671e-06 -6.1834975496388722e-05 6.1928090270404671e-06 -2.4995814626128983 -5.8530193000949637e-05 -6.1834975496388722e-05 -5.8530193000949637e-05 -9.9996034573329151 -2.4997904733301191 -8.4751923214280606e-05 3.7377241556058038e-05 -8.4751923214280606e-05 -2.4998250734575613 3.4629458882662334e-06 3.7377241556058038e-05 3.4629458882662334e-06 -9.9999787625000209 -2.4998034084301661 2.1757482276994784e-06 3.1510923648170319e-07 2.1757482276994784e-06 -2.4998172991350707 2.6100898162795261e-06 3.1510923648170319e-07 2.6100898162795261e-06 -9.9999924622564151 -2.4996991113981757 3.2379549359728019e-05 -6.338184348875231e-05 3.2379549359728019e-05 -2.4999254112686788 2.2428113510386538e-05 -6.338184348875231e-05 2.2428113510386538e-05 -10.000131357011291 -2.4998218714826628 -1.9674257171169934e-05 -2.9375091870065262e-07 -1.9674257171169934e-05 -2.4998312492873609 -3.1940658086870855e-05 -2.9375091870065262e-07 -3.1940658086870855e-05 -10.000008625777099 -2.4996427444707701 3.3378492680059013e-06 -0.00024025252521830964 3.3378492680059013e-06 -2.4998075862816997 5.2419641085155178e-05 -0.00024025252521830964 5.2419641085155178e-05 -9.9996001110877089 -2.4998286086103292 -6.0055884675085826e-05 3.7186364547636686e-06 -6.0055884675085826e-05 -2.4997896334062428 -3.7862393101661951e-05 3.7186364547636686e-06 -3.7862393101661951e-05 -9.9999937979409736 -2.4999764427969628 -4.1952656549737571e-06 0.00024703906732192538 -4.1952656549737571e-06 -2.5000693693714133 -0.000171389763827976 0.00024703906732192538 -0.000171389763827976 -9.9998932550790265 -2.4998256701993391 1.1702374902818677e-06 9.3382076089554289e-06 1.1702374902818677e-06 -2.4997948185514636 -1.2633084987001553e-06 9.3382076089554289e-06 -1.2633084987001553e-06 -9.9999875194761643 -2.4998554845229171 2.7635214321773384e-05 -7.4200166920057598e-05 2.7635214321773384e-05 -2.4998312210322773 -2.3951061763227699e-05 -7.4200166920057598e-05 -2.3951061763227699e-05 -10.000057824678436 -2.5002293198107508 -7.3761810405239813e-08 0.00078357364821010351 -7.3761810405239813e-08 -2.5002294063061572 -0.00021052225400939928 0.00078357364821010351 -0.00021052225400939928 -10.000946414553836 -2.4998116382184605 2.1975415468866456e-05 2.4237155280548706e-05 2.1975415468866456e-05 -2.4997701061456779 2.4659002824556353e-05 2.4237155280548706e-05 2.4659002824556353e-05 -10.000028500353899 -2.4999000581605832 -5.5780650134995682e-06 6.2537929990114094e-06 -5.5780650134995682e-06 -2.4998400937131047 -2.5457325385502827e-06 6.2537929990114094e-06 -2.5457325385502827e-06 -9.9999899633408482 -2.4999562665880815 -2.5830201949871595e-05 1.1813683014949561e-05 -2.5830201949871595e-05 -2.4999346473162172 -8.4769651564897686e-07 1.1813683014949561e-05 -8.4769651564897686e-07 -10.000031675756244 -2.4997851315538036 -5.6880410848231505e-05 -3.8527163354729055e-05 -5.6880410848231505e-05 -2.499827642437447 7.070503357020641e-06 -3.8527163354729055e-05 7.070503357020641e-06 -9.9999869221517557 -2.4997630488266864 2.2057417408827519e-05 3.4070405252606406e-07 2.2057417408827519e-05 -2.4998453179926647 -3.1278677532498023e-06 3.4070405252606406e-07 -3.1278677532498023e-06 -10.000004144710154 -2.4999786693903738 -5.7821216156792741e-06 -2.9030342838216243e-05 -5.7821216156792741e-06 -2.5000245603455169 -5.529149999574821e-05 -2.9030342838216243e-05 -5.529149999574821e-05 -9.9999048243910327 -2.499788107365938 3.4967136529752855e-05 -1.2926496284926259e-05 3.4967136529752855e-05 -2.4997657698013001 2.2676245553299168e-05 -1.2926496284926259e-05 2.2676245553299168e-05 -9.999955076574949 -2.4998605799446185 -0.00021546205582049073 7.8209079319435659e-06 -0.00021546205582049073 -2.5000420243167323 -4.0096351389351526e-05 7.8209079319435659e-06 -4.0096351389351526e-05 -10.000040869121783 -2.5000265736480838 -4.5825357232768522e-05 0.00020838523195454428 -4.5825357232768522e-05 -2.4998757818316264 1.9276254583644459e-06 0.00020838523195454428 1.9276254583644459e-06 -10.000011512499754 -2.499755025610737 3.9557588160826406e-05 3.0177576990197963e-05 3.9557588160826406e-05 -2.4997720030762567 -1.393478167965867e-05 3.0177576990197963e-05 -1.393478167965867e-05 -9.9999518026761294 -2.4999058015375812 5.2234097648695121e-05 -9.9448008711089386e-05 5.2234097648695121e-05 -2.4998614307632518 5.6295186471988501e-05 -9.9448008711089386e-05 5.6295186471988501e-05 -10.000030560597818 -2.4998731959949514 5.4411648295335415e-05 -9.0321208644716933e-05 5.4411648295335415e-05 -2.5001311824818995 1.7613052011977715e-05 -9.0321208644716933e-05 1.7613052011977715e-05 -10.000411116195448 -2.4998069281710049 7.4876399506277729e-06 -3.5533804052079176e-05 7.4876399506277729e-06 -2.4997923686309504 -2.7358320896730959e-05 -3.5533804052079176e-05 -2.7358320896730959e-05 -9.9999532047285786 -2.4997500430774569 -3.5942863798628751e-05 -1.4507410071029625e-05 -3.5942863798628751e-05 -2.4997755525396474 2.7947587041499133e-05 -1.4507410071029625e-05 2.7947587041499133e-05 -10.00001539190032 -2.4998194005596401 -8.7752003832593883e-08 -1.7705031485348854e-06 -8.7752003832593883e-08 -2.4998242622773992 -1.0404334940261606e-06 -1.7705031485348854e-06 -1.0404334940261606e-06 -10.000003855872936 -2.4997725075625086 2.6266313702728439e-05 4.7149029205328929e-06 2.6266313702728439e-05 -2.499823216958883 1.0722170982191415e-05 4.7149029205328929e-06 1.0722170982191415e-05 -9.9999884529330672 -2.4998138021111931 -5.9320849119717885e-06 6.2719194398042077e-06 -5.9320849119717885e-06 -2.4997969401175855 -3.0239105164309166e-06 6.2719194398042077e-06 -3.0239105164309166e-06 -9.9999865199897471 -2.4999100952142022 -3.7242886954162344e-05 -2.1439041293369598e-05 -3.7242886954162344e-05 -2.4997205331151569 8.1925547790406839e-05 -2.1439041293369598e-05 8.1925547790406839e-05 -9.9999285360972738 -2.4998156803294806 -5.270586207293477e-07 5.8542746836920401e-06 -5.270586207293477e-07 -2.4998135374975536 1.610153162800998e-06 5.8542746836920401e-06 1.610153162800998e-06 -9.9999915780109276 -2.4998215705967075 -1.3029267349954282e-05 -2.5834028679838639e-05 -1.3029267349954282e-05 -2.4997618087671851 4.3774716268707436e-05 -2.5834028679838639e-05 4.3774716268707436e-05 -10.00001228755837 -2.4998465214581036 -2.0237050715188731e-05 -7.2463764270058739e-05 -2.0237050715188731e-05 -2.4997553667506107 -1.4781036799860203e-05 -7.2463764270058739e-05 -1.4781036799860203e-05 -10.000393720740133 -2.4998844157486699 -5.089352609516628e-05 -1.6190277296601607e-06 -5.089352609516628e-05 -2.5000484155823193 0.0002139544123371806 -1.6190277296601607e-06 0.0002139544123371806 -10.000016219881267 -2.4998030437446026 5.818360069168351e-05 7.8557355230213233e-05 5.818360069168351e-05 -2.5000274976749171 -0.00038056723021084871 7.8557355230213233e-05 -0.00038056723021084871 -10.000421614321166 -2.4998162995555475 6.2986507559084019e-06 -2.7598487353230894e-05 6.2986507559084019e-06 -2.4998122852988187 -3.6029883236032845e-05 -2.7598487353230894e-05 -3.6029883236032845e-05 -10.000003295905938 -2.4998715382116048 -2.3237700488320853e-05 -5.9734510200470936e-06 -2.3237700488320853e-05 -2.4999646157962685 5.1038246073886739e-06 -5.9734510200470936e-06 5.1038246073886739e-06 -10.000016231855337 -2.4998107106733332 3.8748364482302835e-06 -3.936289668082793e-05 3.8748364482302835e-06 -2.4998119416159601 -3.6465344077640793e-05 -3.936289668082793e-05 -3.6465344077640793e-05 -10.0000017177094 -2.4998555955222796 -2.320887792897561e-05 9.35926974143797e-05 -2.320887792897561e-05 -2.4998067048559185 -6.6474676120975573e-05 9.35926974143797e-05 -6.6474676120975573e-05 -10.000266127471228 -2.4998009947997772 -1.7243446938758712e-05 -7.8399661745276461e-05 -1.7243446938758712e-05 -2.4997779409948793 2.8592303604746405e-05 -7.8399661745276461e-05 2.8592303604746405e-05 -9.9999928170550163 -2.499827753283574 1.4789169313991982e-05 3.6946740529231192e-06 1.4789169313991982e-05 -2.4998195451801948 4.0721329597204203e-06 3.6946740529231192e-06 4.0721329597204203e-06 -9.9999951011453163 -2.4998422307837092 -1.0882630802907608e-05 -1.8626978159907992e-06 -1.0882630802907608e-05 -2.4998438668831873 6.4948722044988472e-06 -1.8626978159907992e-06 6.4948722044988472e-06 -10.000003578278543 -2.4998118892607373 -2.0534065498121009e-06 -3.4916230061021736e-05 -2.0534065498121009e-06 -2.4998038757328831 -1.4915822927785705e-05 -3.4916230061021736e-05 -1.4915822927785705e-05 -9.9999530895407798 -2.4998890900585238 5.8343085098942352e-05 -0.00023697525170285338 5.8343085098942352e-05 -2.4996602557871452 0.0001109690802074681 -0.00023697525170285338 0.0001109690802074681 -9.9998747712267768 -2.49971709724531 -2.8271125606131376e-05 7.2755536109081476e-05 -2.8271125606131376e-05 -2.4998993340461899 3.6170184811723516e-06 7.2755536109081476e-05 3.6170184811723516e-06 -9.9999128278936738 -2.4998247822000144 -1.6015596812806506e-06 3.4592348150397356e-06 -1.6015596812806506e-06 -2.4998210011198472 -1.5104451911440719e-06 3.4592348150397356e-06 -1.5104451911440719e-06 -10.000004622670613 -2.4997085428300982 -6.9248050867433812e-05 -6.718706959496501e-05 -6.9248050867433812e-05 -2.4998022360439371 6.4880406654754808e-05 -6.718706959496501e-05 6.4880406654754808e-05 -9.9999033939270916 -2.4997854823511494 -3.8422137808978299e-05 5.1858907763602247e-06 -3.8422137808978299e-05 -2.4998528836486029 -2.0809984661696035e-05 5.1858907763602247e-06 -2.0809984661696035e-05 -10.000004889789729 -2.500022824842544 -0.00018234888897587095 -4.9184914204580821e-05 -0.00018234888897587095 -2.4998556219943175 1.429787099116453e-05 -4.9184914204580821e-05 1.429787099116453e-05 -10.000041096461516 -2.500025875486851 -0.00012654810618428097 -6.0388451991855163e-05 -0.00012654810618428097 -2.5000339009814061 -7.0888182157835544e-05 -6.0388451991855163e-05 -7.0888182157835544e-05 -10.000225124898956 -2.4997730115767283 6.1573758318206739e-06 -3.6296413730152466e-05 6.1573758318206739e-06 -2.4998658899132362 -0.0001303218373343018 -3.6296413730152466e-05 -0.0001303218373343018 -10.000200426217559 -2.4998094634125643 -1.9909617819320201e-05 2.5671370203705912e-05 -1.9909617819320201e-05 -2.499728385594449 8.5437049293535239e-05 2.5671370203705912e-05 8.5437049293535239e-05 -9.9998769086617489 -2.4998617176771267 -5.3928979369601343e-05 2.2468621851956527e-05 -5.3928979369601343e-05 -2.4999417692883998 0.00021343252344774299 2.2468621851956527e-05 0.00021343252344774299 -9.9999712796444165 -2.4997754410771797 -4.0327431522413189e-05 6.9039497336831346e-06 -4.0327431522413189e-05 -2.4998281336668597 3.2378974736957389e-06 6.9039497336831346e-06 3.2378974736957389e-06 -9.9999740942398745 -2.4999437324223264 7.1052555234116005e-07 -1.2219643425126492e-05 7.1052555234116005e-07 -2.4998806610899331 -1.9405402378325221e-05 -1.2219643425126492e-05 -1.9405402378325221e-05 -10.000017421332227 -2.4998260628935434 1.8336040584530618e-05 2.5075990723877339e-06 1.8336040584530618e-05 -2.4998256353198567 4.5834770290298366e-06 2.5075990723877339e-06 4.5834770290298366e-06 -9.9999974950894028 -2.4998407608490236 -2.1897200114877022e-05 1.8520829101476011e-06 -2.1897200114877022e-05 -2.4998348951007507 2.6901048979510733e-06 1.8520829101476011e-06 2.6901048979510733e-06 -9.9999992754526517 -2.4998260255805862 -5.5621024888618173e-06 -2.7813127512210656e-05 -5.5621024888618173e-06 -2.4997845610026888 5.8236591764515566e-05 -2.7813127512210656e-05 5.8236591764515566e-05 -9.9999838307810389 -2.4997734379354153 -2.4383374217024203e-05 -1.5257144665881128e-05 -2.4383374217024203e-05 -2.4998266622537493 1.100410341514646e-05 -1.5257144665881128e-05 1.100410341514646e-05 -9.9999894360926618 -2.4997620461218917 6.7189149318775602e-06 1.9720365751929592e-05 6.7189149318775602e-06 -2.4997604319491034 -6.6394419738990962e-05 1.9720365751929592e-05 -6.6394419738990962e-05 -9.999981348336334 -2.4998390334449745 2.8924147482099744e-05 6.6275277603722316e-06 2.8924147482099744e-05 -2.4997679666726835 -5.6718678970391068e-05 6.6275277603722316e-06 -5.6718678970391068e-05 -10.000000145642296 -2.4998294349788939 -1.0681131881044186e-05 6.0497193210551359e-06 -1.0681131881044186e-05 -2.4998357096176651 -1.0352367848298627e-05 6.0497193210551359e-06 -1.0352367848298627e-05 -9.9999892012737206 -2.4998383676819076 1.0510215516536135e-05 6.6686227055967606e-06 1.0510215516536135e-05 -2.4998635443720678 -1.1320943617221246e-05 6.6686227055967606e-06 -1.1320943617221246e-05 -9.9999964594040627 -2.499837340268102 -6.9609725293315767e-06 -1.0025239098432337e-05 -6.9609725293315767e-06 -2.4998145011047068 -4.7876733066942734e-06 -1.0025239098432337e-05 -4.7876733066942734e-06 -10.000057264272037 -2.4997550110989577 3.8290104374806183e-05 6.3199900801613751e-05 3.8290104374806183e-05 -2.4998374215511161 2.5017183675757337e-06 6.3199900801613751e-05 2.5017183675757337e-06 -9.9999916269166853 -2.4997525576169246 -1.7098360217191454e-05 -4.4880598871976929e-05 -1.7098360217191454e-05 -2.4997716123054805 -9.5559113913346039e-05 -4.4880598871976929e-05 -9.5559113913346039e-05 -9.9999809897809957 -2.4999909002033749 -4.0261507162955671e-06 -0.00020387033443549317 -4.0261507162955671e-06 -2.5000832026317972 0.00017862334343759066 -0.00020387033443549317 0.00017862334343759066 -9.9999469383769188 -2.4999007079821993 -4.3602740984783636e-05 -8.5384193068804848e-05 -4.3602740984783636e-05 -2.4999225779196372 9.3182176001960215e-05 -8.5384193068804848e-05 9.3182176001960215e-05 -9.9999844654458059 -2.4997315964789761 -1.0135661129965556e-05 8.5778285614956928e-05 -1.0135661129965556e-05 -2.4998092872792994 2.8189239887232986e-05 8.5778285614956928e-05 2.8189239887232986e-05 -9.9998895123601841 -2.4998346083458971 5.9705658276944712e-06 -5.3087653304473292e-06 5.9705658276944712e-06 -2.4998994963505181 5.9364941318307274e-06 -5.3087653304473292e-06 5.9364941318307274e-06 -9.9999958101994757 -2.499866758083761 1.3256494674009076e-05 -7.0476385065187941e-05 1.3256494674009076e-05 -2.4998652335937788 2.1428292520386805e-05 -7.0476385065187941e-05 2.1428292520386805e-05 -10.000067113537007 -2.4998660119726601 8.0028311915864922e-05 -6.6267784070817015e-05 8.0028311915864922e-05 -2.4997839092737664 -2.3353606131593097e-05 -6.6267784070817015e-05 -2.3353606131593097e-05 -10.000016173008305 -2.4998344864644064 3.0382296151131228e-05 7.771943231205114e-07 3.0382296151131228e-05 -2.4997640232198588 4.2367576861934708e-05 7.771943231205114e-07 4.2367576861934708e-05 -9.9999889538221183 -2.4998431919547128 6.7717966552474805e-05 -0.00033704048966987088 6.7717966552474805e-05 -2.4999932205170068 0.00026615216787373441 -0.00033704048966987088 0.00026615216787373441 -10.000312813252307 -2.499930517433687 4.5867654893742344e-05 -0.00011988488299330413 4.5867654893742344e-05 -2.5000521266677964 0.00013774372123220857 -0.00011988488299330413 0.00013774372123220857 -9.9997823283675906 -2.499787395006889 -2.0542720310218069e-05 0.00017286352356959966 -2.0542720310218069e-05 -2.4995920148230413 -0.0001622784381507536 0.00017286352356959966 -0.0001622784381507536 -9.9997381167647728 -2.500118191373069 0.00012327656446824389 3.2452800237225965e-05 0.00012327656446824389 -2.4999468457636089 -0.00013104717111955821 3.2452800237225965e-05 -0.00013104717111955821 -10.00049110742968 -2.4998265572128773 1.2092630567158647e-05 -3.126458647528807e-07 1.2092630567158647e-05 -2.4998409302519509 6.3037163755552683e-07 -3.126458647528807e-07 6.3037163755552683e-07 -9.9999972106527864 -2.4999190579614332 -3.8212450795713861e-06 6.497421785489621e-06 -3.8212450795713861e-06 -2.4999170183293362 -6.0450554935087553e-06 6.497421785489621e-06 -6.0450554935087553e-06 -10.000009318330804 -2.4995500079102841 3.4745337003011509e-05 -2.1483148672896135e-05 3.4745337003011509e-05 -2.4997773710486126 5.9537656253105808e-05 -2.1483148672896135e-05 5.9537656253105808e-05 -9.999551400539552 -2.4998249192532231 3.8860474788750799e-05 2.9382112831655149e-07 3.8860474788750799e-05 -2.4998278867273012 -1.8964020114253799e-06 2.9382112831655149e-07 -1.8964020114253799e-06 -9.9999945612096681 -2.5000031539174774 4.7279013012263914e-05 -0.00016958372342124051 4.7279013012263914e-05 -2.499843596643184 1.3736880527304152e-05 -0.00016958372342124051 1.3736880527304152e-05 -10.000035997242637 -2.4998485485427997 4.4218725211249074e-06 -1.1076816157640224e-06 4.4218725211249074e-06 -2.4998083808510971 2.3213072584127303e-06 -1.1076816157640224e-06 2.3213072584127303e-06 -10.000001573203239 -2.4998741990804021 6.8906440798271088e-05 3.7529582765039038e-05 6.8906440798271088e-05 -2.4998595511994015 -0.00019005669504057465 3.7529582765039038e-05 -0.00019005669504057465 -10.000036879776815 -2.4998277360091627 3.7398715073309224e-05 -8.6049104908170193e-06 3.7398715073309224e-05 -2.4998280869637419 1.7425768241707829e-06 -8.6049104908170193e-06 1.7425768241707829e-06 -9.9999994552491955 -2.4998256630853639 -7.7234923092846952e-07 1.7541163650491853e-06 -7.7234923092846952e-07 -2.4998244012273769 1.1397163568460655e-06 1.7541163650491853e-06 1.1397163568460655e-06 -10.000005546849835 -2.4998335394554978 -2.1866308297552604e-05 -2.9606888805489007e-05 -2.1866308297552604e-05 -2.4997892401773392 -4.5104807993467944e-05 -2.9606888805489007e-05 -4.5104807993467944e-05 -10.000000715468616 -2.4998396230834556 9.4571495745729962e-05 -5.5991818030065588e-05 9.4571495745729962e-05 -2.499776119762835 -1.8698009990103515e-05 -5.5991818030065588e-05 -1.8698009990103515e-05 -9.9999924496122965 -2.4998655571234449 1.1491215362242964e-05 -1.5262797423254426e-05 1.1491215362242964e-05 -2.4998367648023985 7.7517239382984826e-07 -1.5262797423254426e-05 7.7517239382984826e-07 -9.9999855097245494 -2.4997586664018225 9.6944969660262795e-06 -0.00013114055161533855 9.6944969660262795e-06 -2.4995527695477389 -0.0001411451644925954 -0.00013114055161533855 -0.0001411451644925954 -9.9996971116526279 -2.5001682412218469 5.0552200340345037e-08 -0.00082577253376085063 5.0552200340345037e-08 -2.5001682416697522 0.0002175573657005857 -0.00082577253376085063 0.0002175573657005857 -10.000704642240006 -2.4998093276004507 4.6519121455093758e-06 -2.1653462685122804e-06 4.6519121455093758e-06 -2.4998153121313749 5.1829530818281455e-06 -2.1653462685122804e-06 5.1829530818281455e-06 -9.9999840885101037 -2.4998200048717356 -7.2410797899909738e-06 -2.624400366446622e-05 -7.2410797899909738e-06 -2.499799652610788 -1.2404956727829486e-05 -2.624400366446622e-05 -1.2404956727829486e-05 -9.9999950706315062 -2.4998557920040678 5.4033980246230882e-05 1.1587774536359063e-05 5.4033980246230882e-05 -2.5000103678612522 -0.00018254809147499884 1.1587774536359063e-05 -0.00018254809147499884 -10.000037757065208 -2.4998208077810098 8.6585695032777695e-05 4.7483897301248135e-05 8.6585695032777695e-05 -2.4997624604850177 2.1205457136019845e-05 4.7483897301248135e-05 2.1205457136019845e-05 -9.9999775916067009 -2.4998235220665395 7.669472420417686e-05 4.5087940003796234e-05 7.669472420417686e-05 -2.4997610626892675 1.5316508927387673e-05 4.5087940003796234e-05 1.5316508927387673e-05 -10.000000181322658 -2.4999377965637377 5.2901956097467155e-05 1.723661493091555e-05 5.2901956097467155e-05 -2.4999143437372506 -4.1508348888275037e-05 1.723661493091555e-05 -4.1508348888275037e-05 -9.9997847458388058 -2.4998301479176659 -6.8195305140136872e-06 -5.0735331047491172e-07 -6.8195305140136872e-06 -2.4997942636072947 -3.8888319764396329e-07 -5.0735331047491172e-07 -3.8888319764396329e-07 -9.9999975353887898 -2.4998025303197866 7.144804926519606e-05 6.2159710736864326e-05 7.144804926519606e-05 -2.4997728689849903 3.398583893998719e-05 6.2159710736864326e-05 3.398583893998719e-05 -9.9999330006538276 -2.4998340194300104 -2.1217515052777646e-05 7.4596305523755291e-06 -2.1217515052777646e-05 -2.4998120026106649 1.2359959296048828e-06 7.4596305523755291e-06 1.2359959296048828e-06 -9.9999988950379652 -2.4998109111542557 6.5394606905475858e-05 5.6640738430258075e-05 6.5394606905475858e-05 -2.4998710994218132 9.8955566874003864e-05 5.6640738430258075e-05 9.8955566874003864e-05 -10.000031838641691 -2.4999718146750167 -4.0852960214985426e-05 5.9066259188611525e-05 -4.0852960214985426e-05 -2.4999502981757806 0.00015943382221061952 5.9066259188611525e-05 0.00015943382221061952 -9.999957347666836 -2.5000250818274177 -2.8851832252481668e-05 4.4244088682161256e-05 -2.8851832252481668e-05 -2.4999920857208613 -0.00020173268373653439 4.4244088682161256e-05 -0.00020173268373653439 -10.000071868584287 -2.4998353548615189 2.103787238711627e-05 2.4796375868163523e-06 2.103787238711627e-05 -2.4998456417291592 1.2990374882448918e-06 2.4796375868163523e-06 1.2990374882448918e-06 -10.000017109115319 -2.4998277744208419 2.2973563233621091e-05 2.452526099006036e-05 2.2973563233621091e-05 -2.4997696359345252 -3.6316188474216915e-05 2.452526099006036e-05 -3.6316188474216915e-05 -10.000004559433073 -2.4996636974780766 3.3155395201802344e-05 0.00012572146940881268 3.3155395201802344e-05 -2.4998776382736558 -0.0001244423949344764 0.00012572146940881268 -0.0001244423949344764 -9.9997944988123617 -2.4997756648135852 7.744708652439902e-05 3.3576373237309554e-05 7.744708652439902e-05 -2.4998198984632851 6.0007438065223795e-05 3.3576373237309554e-05 6.0007438065223795e-05 -9.9999439832998931 -2.500014255700159 5.8100714373639024e-06 6.0593637410877288e-05 5.8100714373639024e-06 -2.499969362598454 1.2738275635418989e-05 6.0593637410877288e-05 1.2738275635418989e-05 -9.9998651019602462 -2.4999823866802977 -2.9998905636791583e-05 -3.3772567538321949e-05 -2.9998905636791583e-05 -2.4999529898438966 0.00019696298126151374 -3.3772567538321949e-05 0.00019696298126151374 -9.9999211527924263 -2.5000065792978803 0.00017279159729521672 6.9248079622497016e-05 0.00017279159729521672 -2.4998638538032885 9.8199388176567481e-07 6.9248079622497016e-05 9.8199388176567481e-07 -10.00000649118871 -2.4997882890173031 -3.1870825146685007e-05 1.4147713107703908e-06 -3.1870825146685007e-05 -2.4997632283382014 4.7246416103874367e-06 1.4147713107703908e-06 4.7246416103874367e-06 -9.9999743166093182 -2.4999677736702388 -2.3275169216264366e-05 0.00017774631448494156 -2.3275169216264366e-05 -2.5000101250301863 1.2484330155716403e-05 0.00017774631448494156 1.2484330155716403e-05 -9.9999470156274342 -2.499830250302649 -4.3400238444874845e-05 6.0896758160566833e-06 -4.3400238444874845e-05 -2.499806055379187 7.0091092574386948e-06 6.0896758160566833e-06 7.0091092574386948e-06 -9.9999935158461426 -2.4998754486277619 0.00018326543939063808 -1.310419577293942e-07 0.00018326543939063808 -2.5000175357693077 6.3066926260013645e-05 -1.310419577293942e-07 6.3066926260013645e-05 -10.000011305643874 -2.4998359727204367 1.2231610416803079e-05 3.5042436944632271e-05 1.2231610416803079e-05 -2.4998238789258256 -4.6709863470439927e-06 3.5042436944632271e-05 -4.6709863470439927e-06 -9.9999777515031028 -2.4998112780850796 -9.1182918915183307e-06 -3.0073350512971331e-05 -9.1182918915183307e-06 -2.4998312276731536 -8.9938742534600991e-06 -3.0073350512971331e-05 -8.9938742534600991e-06 -10.000024364052617 -2.4998286663816507 -2.0274352795730607e-05 -8.5121281049316266e-06 -2.0274352795730607e-05 -2.4998167046721913 -4.0552690998563179e-05 -8.5121281049316266e-06 -4.0552690998563179e-05 -9.9999811797719698 -2.499758287214191 3.1057687622571253e-05 2.2665266614652069e-05 3.1057687622571253e-05 -2.4998063442625367 3.1308058357382151e-05 2.2665266614652069e-05 3.1308058357382151e-05 -9.999981226809906 -2.4998462531708299 -6.806553930777958e-05 1.3637474136629635e-05 -6.806553930777958e-05 -2.4998504913495871 1.5069306229520407e-05 1.3637474136629635e-05 1.5069306229520407e-05 -10.000006910907587 -2.49959175620761 1.1801807609919615e-05 0.00018431997358581143 1.1801807609919615e-05 -2.4997419306377497 0.00011328624000794818 0.00018431997358581143 0.00011328624000794818 -9.9997465606866278 -2.499826614466695 1.0746833910423687e-05 -3.3535891734715051e-06 1.0746833910423687e-05 -2.4998350005473498 4.4359893073497858e-05 -3.3535891734715051e-06 4.4359893073497858e-05 -9.9999558063233707 -2.4998809238622925 -4.1931986970186855e-05 -1.8019808820213257e-05 -4.1931986970186855e-05 -2.4998811693803598 -1.8876443655058139e-05 -1.8019808820213257e-05 -1.8876443655058139e-05 -10.000024849307003 -2.4997880548252391 3.0771727901877276e-05 4.7822758073579053e-06 3.0771727901877276e-05 -2.4997637092746441 6.0842239664182785e-06 4.7822758073579053e-06 6.0842239664182785e-06 -9.9999785079855279 -2.4998160690130051 -6.1002979114808283e-05 7.5915089347233788e-05 -6.1002979114808283e-05 -2.4996762665790166 -7.1688497870425749e-05 7.5915089347233788e-05 -7.1688497870425749e-05 -9.9998994908987839 -2.4998854247665938 -3.3868710250586638e-05 -6.7824726176723971e-05 -3.3868710250586638e-05 -2.4998002159962414 2.5760540090402628e-05 -6.7824726176723971e-05 2.5760540090402628e-05 -9.9999860588089273 -2.4998816666902304 1.3117753422613204e-05 -7.424368674291415e-06 1.3117753422613204e-05 -2.4999024630245028 7.2349070566080087e-05 -7.424368674291415e-06 7.2349070566080087e-05 -10.000118361920961 -2.4999124216429562 7.6681893751611314e-05 2.5798985939573527e-05 7.6681893751611314e-05 -2.4998385984766651 -6.5756432530150732e-06 2.5798985939573527e-05 -6.5756432530150732e-06 -10.000001471110718 -2.4997526158358676 2.0953745447516663e-05 0.00013014170709091388 2.0953745447516663e-05 -2.4995881101313517 0.0001425008212221357 0.00013014170709091388 0.0001425008212221357 -9.9997136021832915 -2.4997581498185659 5.7767710542990701e-05 1.971193779783841e-05 5.7767710542990701e-05 -2.4999896454859813 -0.00040147267238239059 1.971193779783841e-05 -0.00040147267238239059 -10.000269636584626 -2.4998554450327823 -8.6668789579786079e-05 5.6161115545627638e-05 -8.6668789579786079e-05 -2.4997616543798831 -1.3360799153261382e-05 5.6161115545627638e-05 -1.3360799153261382e-05 -9.9999969257049841 -2.4998367282289551 1.0959789728249281e-05 1.9505711694733918e-06 1.0959789728249281e-05 -2.4998217968614154 -1.1211030681579359e-06 1.9505711694733918e-06 -1.1211030681579359e-06 -9.9999956062537532 -2.4998257938983999 -1.4523952637078024e-05 8.7228743161915645e-07 -1.4523952637078024e-05 -2.4998258941791853 1.0680177506827704e-06 8.7228743161915645e-07 1.0680177506827704e-06 -9.9999955553625242 -2.4998486182995752 1.8164337643065428e-05 -1.4670961776541702e-05 1.8164337643065428e-05 -2.4998388947865093 2.5791656487861303e-05 -1.4670961776541702e-05 2.5791656487861303e-05 -10.000011780211548 -2.4998036673475426 -2.7630516491993764e-06 -5.6742740541793069e-06 -2.7630516491993764e-06 -2.4997745724248261 -6.1943312871015621e-05 -5.6742740541793069e-06 -6.1943312871015621e-05 -9.9999757834328591 -2.5001564483633905 6.5043296087477907e-08 -0.00021264120141346779 6.5043296087477907e-08 -2.5001571612536391 -0.00073316331981186189 -0.00021264120141346779 -0.00073316331981186189 -10.000657934785481 -2.4998231821552555 1.2236226460721064e-06 2.6872321317927828e-05 1.2236226460721064e-06 -2.4997957955629349 -4.4999049777283417e-05 2.6872321317927828e-05 -4.4999049777283417e-05 -9.9999737216995594 -2.4999510944269696 -2.9491284511621994e-05 1.01105346601571e-05 -2.9491284511621994e-05 -2.4998713265575221 -3.5153080406580273e-06 1.01105346601571e-05 -3.5153080406580273e-06 -10.000014082366864 -2.4998119070766229 -9.3665346582395851e-06 -3.0479134052185941e-06 -9.3665346582395851e-06 -2.4998172450117622 3.0531991441762329e-06 -3.0479134052185941e-06 3.0531991441762329e-06 -9.9999853111537433 -2.4998309152033258 -1.8296107728370755e-05 3.1739940769881514e-05 -1.8296107728370755e-05 -2.4997684857878006 3.8424330860209466e-05 3.1739940769881514e-05 3.8424330860209466e-05 -9.9999945041137437 -2.4998100472127822 -4.3940862967120763e-06 1.7767972666504761e-05 -4.3940862967120763e-06 -2.4998240686502173 1.1836982558577347e-06 1.7767972666504761e-05 1.1836982558577347e-06 -9.9999856117417352 -2.4998685331617554 3.3460021559053528e-05 -7.5656851998617825e-05 3.3460021559053528e-05 -2.4998624310227222 2.9935588364837784e-05 -7.5656851998617825e-05 2.9935588364837784e-05 -10.00007213153417 -2.4998579960953657 4.3384013058650342e-05 3.5765157774481082e-05 4.3384013058650342e-05 -2.4998456266789812 -3.9680213431037004e-05 3.5765157774481082e-05 -3.9680213431037004e-05 -10.000035060768045 -2.4997850315992585 -1.7129325911667559e-05 -2.3714837535493416e-05 -1.7129325911667559e-05 -2.4998936570092694 9.6105925740275211e-05 -2.3714837535493416e-05 9.6105925740275211e-05 -9.9999799993966256 -2.4995812178314925 -1.5217041681942379e-05 -0.00014366338247351243 -1.5217041681942379e-05 -2.4997597400765557 0.00012018628439303895 -0.00014366338247351243 0.00012018628439303895 -9.9997259137080796 -2.4997209625766752 2.2109838629486819e-05 -1.0878502187949834e-06 2.2109838629486819e-05 -2.4996848148882727 5.1662605641933368e-05 -1.0878502187949834e-06 5.1662605641933368e-05 -9.9999794540591616 -2.4998810981499933 -7.9466537208897322e-05 -1.1328091078510738e-05 -7.9466537208897322e-05 -2.499848673851897 -6.3911108654224336e-06 -1.1328091078510738e-05 -6.3911108654224336e-06 -10.000013630625354 -2.4997939401965792 5.4114918429843852e-05 -0.00028509644424827579 5.4114918429843852e-05 -2.4995528845381045 -4.0102459612533447e-05 -0.00028509644424827579 -4.0102459612533447e-05 -9.9994813529253879 -2.4998271220826633 1.7578171762733146e-05 -9.0516813600061141e-08 1.7578171762733146e-05 -2.4998579962492253 -1.8377281609360807e-05 -9.0516813600061141e-08 -1.8377281609360807e-05 -9.9999846571290032 -2.4997520816439831 4.3913063712974957e-05 -0.00021309801735025502 4.3913063712974957e-05 -2.4998085564972783 -3.3478763266980849e-05 -0.00021309801735025502 -3.3478763266980849e-05 -10.000005363167034 -2.4998115301794983 -1.0757286829294683e-05 1.8853413889630133e-05 -1.0757286829294683e-05 -2.4997763669608855 -3.9253960633978124e-05 1.8853413889630133e-05 -3.9253960633978124e-05 -10.000011760013688 -2.4997268881572055 3.4151880784954173e-05 5.135219572238725e-06 3.4151880784954173e-05 -2.4996915407704918 5.4474851761909804e-05 5.135219572238725e-06 5.4474851761909804e-05 -9.9999699453794619 -2.5002219679058322 -2.4287374335413158e-05 -0.00014535033725818794 -2.4287374335413158e-05 -2.5002196917923762 8.814649327739039e-06 -0.00014535033725818794 8.814649327739039e-06 -10.000375326967765 -2.4998052807949023 -5.526801521136308e-05 0.00037161833860701395 -5.526801521136308e-05 -2.4995777367965522 -2.1990033192993626e-05 0.00037161833860701395 -2.1990033192993626e-05 -9.9995165082453603 -2.4999672874601617 -2.2033810552925367e-05 -0.00013467943514959964 -2.2033810552925367e-05 -2.5000131944139632 -5.8004584916644805e-06 -0.00013467943514959964 -5.8004584916644805e-06 -9.9999356064849376 -2.4997374704574362 1.4983948138065661e-05 -9.1162943256506423e-06 1.4983948138065661e-05 -2.4996992600623749 -7.1282139094908104e-05 -9.1162943256506423e-06 -7.1282139094908104e-05 -9.9999986048259331 -2.4999167153996105 2.3635963992070806e-05 -7.4267738359168334e-06 2.3635963992070806e-05 -2.4998585428733744 -1.8066990911336234e-05 -7.4267738359168334e-06 -1.8066990911336234e-05 -10.000007668136206 -2.4998324678082522 -3.9014620816091842e-06 -5.6965191692626149e-06 -3.9014620816091842e-06 -2.4998264065782863 3.6743279707707188e-07 -5.6965191692626149e-06 3.6743279707707188e-07 -10.000000200841576 -2.4998072965592097 -3.9003793342241286e-05 5.6083591104538755e-09 -3.9003793342241286e-05 -2.4997481520598379 -1.4877220457343299e-05 5.6083591104538755e-09 -1.4877220457343299e-05 -10.000036399771876 -2.4998442008096617 -5.0388508755182411e-05 0.00021207813042956047 -5.0388508755182411e-05 -2.4998447715221843 2.6108777482214407e-05 0.00021207813042956047 2.6108777482214407e-05 -9.999983545327396 -2.4999252034841102 -3.6270362841438925e-05 1.7579344741780467e-05 -3.6270362841438925e-05 -2.4999457408937142 1.1579683395379625e-05 1.7579344741780467e-05 1.1579683395379625e-05 -10.000099777511108 -2.4997581354392171 -1.7736159775113551e-05 -1.0304840948549554e-05 -1.7736159775113551e-05 -2.4998324516307537 2.107878066937019e-05 -1.0304840948549554e-05 2.107878066937019e-05 -9.99999277636622 -2.4997296678118817 3.3923424913184452e-05 -6.1928052561555091e-06 3.3923424913184452e-05 -2.4996966530519247 -6.6168770779917452e-05 -6.1928052561555091e-06 -6.6168770779917452e-05 -9.9999843585164498 -2.4997641267007689 2.3397224739037157e-05 -4.1473797951496749e-05 2.3397224739037157e-05 -2.4998230770470196 2.7940143830562647e-05 -4.1473797951496749e-05 2.7940143830562647e-05 -10.000003369571463 -2.4998051273692585 -6.2851072298304616e-06 8.0902401942140045e-06 -6.2851072298304616e-06 -2.4997148929700153 2.4243284777014651e-05 8.0902401942140045e-06 2.4243284777014651e-05 -9.9999683870099823 -2.4998197759982723 6.3074804353782188e-05 1.7688149350547633e-05 6.3074804353782188e-05 -2.4997141553920876 -1.2387668729019197e-05 1.7688149350547633e-05 -1.2387668729019197e-05 -10.000001046306032 -2.4998067787526699 6.5135650868151129e-05 -4.3958749217365423e-05 6.5135650868151129e-05 -2.4999007635251083 -5.6426306564993922e-05 -4.3958749217365423e-05 -5.6426306564993922e-05 -9.9999244982116871 -2.4998257994280402 1.3282965498480854e-05 -3.8427443751043455e-05 1.3282965498480854e-05 -2.4998447191400595 2.169509628302535e-05 -3.8427443751043455e-05 2.169509628302535e-05 -9.9999688352050544 -2.4998821441296744 -5.6347912302398137e-05 -0.00012237189398067727 -5.6347912302398137e-05 -2.4999334776185798 -0.00012803643776537754 -0.00012237189398067727 -0.00012803643776537754 -10.00016456618205 -2.4998225568280024 1.570692269449651e-05 -1.7981304623049255e-07 1.570692269449651e-05 -2.4998503267595718 2.3661058943247326e-06 -1.7981304623049255e-07 2.3661058943247326e-06 -10.000006985680496 -2.4998632215340586 -8.4854020985455951e-05 4.0924026352584519e-05 -8.4854020985455951e-05 -2.4998023274931636 -0.00011366992759498373 4.0924026352584519e-05 -0.00011366992759498373 -9.9999906725429657 -2.4998939800454485 -4.0414545561084762e-06 3.221994614035863e-05 -4.0414545561084762e-06 -2.4999368626651717 3.4248467596890964e-05 3.221994614035863e-05 3.4248467596890964e-05 -9.9995639890279868 -2.499889993537507 1.2643941057788208e-06 7.2049914248140112e-06 1.2643941057788208e-06 -2.4998336267219736 -4.7430165679429592e-06 7.2049914248140112e-06 -4.7430165679429592e-06 -9.9999942887048299 -2.4998501230334309 3.0909001980983613e-05 -5.6711738647408083e-06 3.0909001980983613e-05 -2.4998808641537869 -3.506690066767959e-06 -5.6711738647408083e-06 -3.506690066767959e-06 -10.000064526434578 -2.4998662268715837 -1.5063287485227845e-05 -4.1185294819001683e-07 -1.5063287485227845e-05 -2.4999225910313996 -3.448246315862491e-05 -4.1185294819001683e-07 -3.448246315862491e-05 -10.000019364971003 -2.4997570687889095 -4.0385581061815621e-05 -8.3720156025535175e-05 -4.0385581061815621e-05 -2.4998526240570547 -3.1838509428894213e-05 -8.3720156025535175e-05 -3.1838509428894213e-05 -9.9999843660424403 -2.499763599245445 4.5345664154513944e-06 -3.1204298654385898e-05 4.5345664154513944e-06 -2.4997422059961494 4.1194665024502086e-05 -3.1204298654385898e-05 4.1194665024502086e-05 -9.9999959996968499 -2.50024210838192 -2.4165359139409394e-05 5.7906957254581006e-05 -2.4165359139409394e-05 -2.5002464964289075 -0.00018742576047917851 5.7906957254581006e-05 -0.00018742576047917851 -10.000468485101827 -2.4999086204736147 -0.00020066446803444245 -2.1863449994441453e-05 -0.00020066446803444245 -2.4999121329977281 -6.6911297529337332e-05 -2.1863449994441453e-05 -6.6911297529337332e-05 -10.000026689262471 -2.4998476202040445 2.4828923296427625e-06 3.2256808331077025e-06 2.4828923296427625e-06 -2.4998865870584774 -3.8751307407380864e-06 3.2256808331077025e-06 -3.8751307407380864e-06 -10.000007009124506 -2.4997861598400242 1.441881630828097e-05 -5.0081678359958914e-06 1.441881630828097e-05 -2.4998318624135436 -1.1146093710223681e-05 -5.0081678359958914e-06 -1.1146093710223681e-05 -9.9999750333783126 -2.4998290197716875 -8.0683050947571682e-05 -1.7355653454842468e-05 -8.0683050947571682e-05 -2.4997252295871819 -9.5576848808676118e-06 -1.7355653454842468e-05 -9.5576848808676118e-06 -10.000003083949185 -2.4999007732095242 9.0975255402503077e-05 1.8532094468781679e-05 9.0975255402503077e-05 -2.4998377986198799 -5.8683816206439587e-07 1.8532094468781679e-05 -5.8683816206439587e-07 -10.000008462602214 -2.4998138007781989 4.784283345709458e-05 2.0626820429470172e-06 4.784283345709458e-05 -2.4998230224547804 -4.0200913078436429e-06 2.0626820429470172e-06 -4.0200913078436429e-06 -9.9999796330586079 -2.4997384582125726 -4.2129831719935344e-05 9.4514248134558443e-06 -4.2129831719935344e-05 -2.4997970407053014 7.5172854163696456e-06 9.4514248134558443e-06 7.5172854163696456e-06 -10.000033908793711 -2.4995708076115637 -5.2727242477410633e-05 -1.7618155052318322e-05 -5.2727242477410633e-05 -2.4998065511760488 0.0003011373682519561 -1.7618155052318322e-05 0.0003011373682519561 -9.9995250099457245 -2.499667588635222 3.0499279986646969e-05 0.00012468167961742339 3.0499279986646969e-05 -2.49987867990018 -0.00012375853753976429 0.00012468167961742339 -0.00012375853753976429 -9.9997873883120079 -2.4997603127958334 2.1802179120581854e-05 -9.226574685161637e-06 2.1802179120581854e-05 -2.4998417096286452 3.7889106820898633e-06 -9.226574685161637e-06 3.7889106820898633e-06 -9.9999919932097665 -2.4998170907623947 -4.7881030380024557e-05 7.3506771253395442e-05 -4.7881030380024557e-05 -2.4998054690911511 -7.1734615251450862e-05 7.3506771253395442e-05 -7.1734615251450862e-05 -10.000263890673441 -2.4998484023452345 1.8198327396525991e-05 4.5984461305437208e-06 1.8198327396525991e-05 -2.4998780482769138 -6.8264624921710038e-06 4.5984461305437208e-06 -6.8264624921710038e-06 -9.9999998872228701 -2.4997866029918896 -5.4251561660013847e-06 3.4551832872153909e-05 -5.4251561660013847e-06 -2.4998122449752476 -2.5351984248800363e-05 3.4551832872153909e-05 -2.5351984248800363e-05 -10.000027134471466 -2.4998133241700269 -4.9588863214371443e-06 -6.7363504623330073e-06 -4.9588863214371443e-06 -2.4998154431540018 5.8463277092357657e-05 -6.7363504623330073e-06 5.8463277092357657e-05 -9.999978081476554 -2.4999259081666096 -3.3928415781633377e-05 5.599988734061867e-06 -3.3928415781633377e-05 -2.4999489209700947 3.5823917539090644e-06 5.599988734061867e-06 3.5823917539090644e-06 -10.000029571075672 -2.4997555621633394 1.0135870715571184e-05 -1.7905187148947732e-05 1.0135870715571184e-05 -2.4997496443284621 3.7964058920536559e-05 -1.7905187148947732e-05 3.7964058920536559e-05 -9.999966560386909 -2.4998719788322248 1.3992650804082138e-05 1.7175067021923951e-06 1.3992650804082138e-05 -2.4998148937119069 9.5087427611773023e-06 1.7175067021923951e-06 9.5087427611773023e-06 -9.9999991463296638 -2.499803857563351 8.2627860430880374e-06 1.8443711240045957e-05 8.2627860430880374e-06 -2.4997667789691773 -9.4918224998075118e-05 1.8443711240045957e-05 -9.4918224998075118e-05 -9.9999874968434064 -2.5001149851711277 5.5757335665635707e-06 -5.8578514903984136e-05 5.5757335665635707e-06 -2.4997857187214816 6.478302404433478e-05 -5.8578514903984136e-05 6.478302404433478e-05 -10.000260106429145 -2.4997880836724753 -3.6750317365099016e-05 -1.2952556131651249e-05 -3.6750317365099016e-05 -2.4997247467860011 -3.2418885686169574e-05 -1.2952556131651249e-05 -3.2418885686169574e-05 -9.9999650848620565 -2.4995646958765687 5.5530256789858073e-05 6.5202365879911536e-06 5.5530256789858073e-05 -2.4997892715782171 0.00036973040692830976 6.5202365879911536e-06 0.00036973040692830976 -9.9994586526822786 -2.4998582634851205 5.6586807329963939e-05 -0.00010414971569971954 5.6586807329963939e-05 -2.4997706497755603 -4.0325493946724578e-05 -0.00010414971569971954 -4.0325493946724578e-05 -10.000057623172793 -2.4998504235800425 -6.2973484968816565e-05 -4.5649003999059801e-05 -6.2973484968816565e-05 -2.4998723188134395 7.2635390142572476e-05 -4.5649003999059801e-05 7.2635390142572476e-05 -9.9999636251677515 -2.4998539454688355 1.0079931994665982e-07 -2.0793088673087823e-06 1.0079931994665982e-07 -2.499851812393084 9.7494949713450296e-06 -2.0793088673087823e-06 9.7494949713450296e-06 -10.000006818926373 -2.4998186272179446 1.4642884063310534e-05 3.5610307307365474e-06 1.4642884063310534e-05 -2.4998503993645542 -1.8264872423401357e-06 3.5610307307365474e-06 -1.8264872423401357e-06 -9.9999969127388368 -2.4997118466505519 -3.8979107914969923e-05 -1.1394174581624839e-05 -3.8979107914969923e-05 -2.4997840956297592 7.2209429990977014e-07 -1.1394174581624839e-05 7.2209429990977014e-07 -9.9999743619125603 -2.4997848526128621 2.851861179340692e-06 -7.1384940670604635e-05 2.851861179340692e-06 -2.4998097914575723 4.3201063260056571e-06 -7.1384940670604635e-05 4.3201063260056571e-06 -9.999848482910453 -2.4998277219440546 -6.4909678959484499e-05 2.0701067926509609e-05 -6.4909678959484499e-05 -2.4997183770375955 1.0714657893373669e-05 2.0701067926509609e-05 1.0714657893373669e-05 -9.999998871901397 -2.499799519436861 5.318020949114805e-05 0.00031724810835876728 5.318020949114805e-05 -2.4995656315021093 1.0403897827145178e-05 0.00031724810835876728 1.0403897827145178e-05 -9.999502945692976 -2.4997325945839917 -2.8405501066036708e-05 -3.2424211351411714e-06 -2.8405501066036708e-05 -2.4996879403690917 -5.2639254265685054e-05 -3.2424211351411714e-06 -5.2639254265685054e-05 -9.9999831837460214 -2.4997544207724234 5.9267346243603572e-06 -1.5173693911796349e-05 5.9267346243603572e-06 -2.4997818456498502 3.9214063318304682e-05 -1.5173693911796349e-05 3.9214063318304682e-05 -9.9999455321588719 -2.500202662819337 -5.3001041040760372e-06 -0.00025086630908868459 -5.3001041040760372e-06 -2.5001108775959131 0.00028775803451604718 -0.00025086630908868459 0.00028775803451604718 -10.000440305349704 -2.4998261132407222 4.4657818079846473e-06 8.4728279432511044e-06 4.4657818079846473e-06 -2.4998868398547849 -1.1173194227609429e-06 8.4728279432511044e-06 -1.1173194227609429e-06 -10.000001969470155 -2.4997353672100013 2.6491940806672633e-05 -7.0514941331367709e-05 2.6491940806672633e-05 -2.4998325858961135 -3.0814536405188164e-05 -7.0514941331367709e-05 -3.0814536405188164e-05 -9.99987734394848 -2.499734455579012 2.7986321381566324e-05 6.0931769211514109e-05 2.7986321381566324e-05 -2.4997930671002622 -1.1909346132599197e-06 6.0931769211514109e-05 -1.1909346132599197e-06 -10.0003271518852 -2.4997784687843718 -3.5259578502331504e-05 8.0704150854149503e-05 -3.5259578502331504e-05 -2.4997594881066028 -5.5024028370098677e-05 8.0704150854149503e-05 -5.5024028370098677e-05 -9.999964428703171 -2.4997757557865015 -2.1088156275691876e-05 1.0268766367005355e-05 -2.1088156275691876e-05 -2.4998451519594891 -1.9766539502086289e-05 1.0268766367005355e-05 -1.9766539502086289e-05 -10.000002135991807 -2.4997216526305648 6.2414149267015973e-05 -1.6493369933812119e-05 6.2414149267015973e-05 -2.4998282855223399 1.8721960401535398e-05 -1.6493369933812119e-05 1.8721960401535398e-05 -10.000004664851861 -2.499755474726268 -2.2943243283911504e-05 5.7910989870180174e-06 -2.2943243283911504e-05 -2.4997586367731546 -6.3616089160056788e-05 5.7910989870180174e-06 -6.3616089160056788e-05 -9.9999938507457227 -2.4998519704615578 6.0390658362138511e-05 2.475178397043365e-05 6.0390658362138511e-05 -2.4998556752871424 7.3643191054184598e-05 2.475178397043365e-05 7.3643191054184598e-05 -10.000052338255482 -2.4997735212216683 2.7539482259650449e-05 -1.2137874926487768e-05 2.7539482259650449e-05 -2.4998310041856855 -5.4542596519269182e-06 -1.2137874926487768e-05 -5.4542596519269182e-06 -9.9999821659631554 -2.4997640310290539 -2.8705326272508282e-05 -1.4266128451900784e-06 -2.8705326272508282e-05 -2.4998486704266689 7.10735449409583e-05 -1.4266128451900784e-06 7.10735449409583e-05 -9.9999699910950568 -2.4998877667913506 1.7130648209923529e-06 2.2255913201263411e-06 1.7130648209923529e-06 -2.4998460752052667 1.1324216647068397e-05 2.2255913201263411e-06 1.1324216647068397e-05 -10.000007921948427 -2.4997952024662569 -2.2747593585861051e-05 -3.9716044362592129e-05 -2.2747593585861051e-05 -2.4998120501945849 2.8721275538323709e-05 -3.9716044362592129e-05 2.8721275538323709e-05 -10.000019421624447 -2.4997842740359797 7.0494312368549476e-06 -5.7677112783593998e-06 7.0494312368549476e-06 -2.4997160526249238 -7.7784164600913641e-05 -5.7677112783593998e-06 -7.7784164600913641e-05 -9.9998106878765345 -2.499889885148233 -1.1990425976316197e-05 -8.8896293366502732e-06 -1.1990425976316197e-05 -2.4999275999503339 -1.89265378800485e-05 -8.8896293366502732e-06 -1.89265378800485e-05 -10.000021151031772 -2.4998536190952407 -3.5726619017754937e-06 -9.4672634898373964e-05 -3.5726619017754937e-06 -2.4997938885902871 4.2434685061376598e-05 -9.4672634898373964e-05 4.2434685061376598e-05 -10.000213804223193 -2.4998465995248562 -1.6255735664938116e-05 3.8236699091420689e-06 -1.6255735664938116e-05 -2.4998446531953551 1.0026996761780538e-05 3.8236699091420689e-06 1.0026996761780538e-05 -10.000014063023876 -2.4998907086457702 -6.6574934055588277e-05 7.8427839877548422e-05 -6.6574934055588277e-05 -2.4998667450592595 -7.3621675267254716e-05 7.8427839877548422e-05 -7.3621675267254716e-05 -10.000008902681486 -2.4998104644358703 1.2545497388760966e-05 1.1065168298074468e-05 1.2545497388760966e-05 -2.4998253575252596 7.8202725992682076e-06 1.1065168298074468e-05 7.8202725992682076e-06 -9.9999925281644799 -2.4998274164114296 5.8888000843030001e-05 -1.3830787272794964e-05 5.8888000843030001e-05 -2.4999449282813071 -0.00011458259263674719 -1.3830787272794964e-05 -0.00011458259263674719 -10.000092776556532 -2.4997455395104047 3.2585995198452449e-06 -6.120698952827297e-05 3.2585995198452449e-06 -2.4998216968208866 3.4869329200049037e-05 -6.120698952827297e-05 3.4869329200049037e-05 -9.9999836586589641 -2.4997891120859936 -3.0053746902206274e-05 -2.0273465308306982e-05 -3.0053746902206274e-05 -2.4997799138956651 2.8442095816316737e-06 -2.0273465308306982e-05 2.8442095816316737e-06 -9.9999893058791045 -2.499765548782932 2.9152094205292934e-06 -6.622976259329505e-05 2.9152094205292934e-06 -2.4997992019881838 -1.2199587260397493e-05 -6.622976259329505e-05 -1.2199587260397493e-05 -9.9999646383782235 -2.499762070763035 3.5779162170744672e-05 1.9627366789620737e-06 3.5779162170744672e-05 -2.4997764251863925 5.7112276943271922e-06 1.9627366789620737e-06 5.7112276943271922e-06 -9.9999678047339806 -2.4998875806564103 -9.8969732384018565e-05 8.6032359081666954e-05 -9.8969732384018565e-05 -2.5001029139098612 2.0152480790680549e-05 8.6032359081666954e-05 2.0152480790680549e-05 -10.000379699952267 -2.4998633237620753 5.5608668127693294e-06 -8.4713216770282429e-06 5.5608668127693294e-06 -2.499839856093522 3.6693478833171866e-06 -8.4713216770282429e-06 3.6693478833171866e-06 -9.9999902575191122 -2.4999015724403115 -2.9451588207018479e-05 -0.00028596473908715225 -2.9451588207018479e-05 -2.4997215547090113 5.5436351416915386e-05 -0.00028596473908715225 5.5436351416915386e-05 -10.0002390612393 -2.4999163723276734 1.9752432706528259e-05 1.0031150001310607e-05 1.9752432706528259e-05 -2.4999191545911774 -8.7923746008300441e-06 1.0031150001310607e-05 -8.7923746008300441e-06 -10.000025729077898 -2.4998248186658065 1.1516829099432924e-05 6.3356514701240485e-06 1.1516829099432924e-05 -2.4998075744010277 1.2549789428106806e-05 6.3356514701240485e-06 1.2549789428106806e-05 -9.9999918423856222 -2.499820540773642 -1.8343230184774979e-05 -4.2793959847742258e-05 -1.8343230184774979e-05 -2.4997524254229444 1.0737470866217791e-05 -4.2793959847742258e-05 1.0737470866217791e-05 -9.9999555766730968 -2.4998007916048675 3.0348754387414219e-08 4.9475269076282302e-05 3.0348754387414219e-08 -2.4998143119626874 -4.1365214809019335e-06 4.9475269076282302e-05 -4.1365214809019335e-06 -9.999981130432154 -2.4998232209642026 -3.4517975648855592e-06 5.9539267738273338e-06 -3.4517975648855592e-06 -2.4998186026225717 -6.3280510271823687e-06 5.9539267738273338e-06 -6.3280510271823687e-06 -9.9999859352600211 -2.4998486617995104 6.9996684823793795e-05 -1.1262062376005133e-05 6.9996684823793795e-05 -2.4998914922157338 3.0851866489101099e-05 -1.1262062376005133e-05 3.0851866489101099e-05 -10.000001265695541 -2.4997787108507667 -2.6563779015835085e-05 1.637210614191531e-05 -2.6563779015835085e-05 -2.4998393463397486 -7.2000177629760742e-05 1.637210614191531e-05 -7.2000177629760742e-05 -9.9999917617258909 -2.5001698428713968 2.5398613673388154e-05 8.0218636163035861e-05 2.5398613673388154e-05 -2.5001728806918981 -0.00011256719075905118 8.0218636163035861e-05 -0.00011256719075905118 -10.000174892874229 -2.4998234179843735 -5.8665602093291357e-06 -2.5493703521561883e-05 -5.8665602093291357e-06 -2.4998091199523156 2.9376031875472108e-05 -2.5493703521561883e-05 2.9376031875472108e-05 -10.000015113111449 -2.4998208052713036 4.9425727807355421e-05 -3.6471486914990692e-06 4.9425727807355421e-05 -2.4997886682695309 6.4218400375182227e-07 -3.6471486914990692e-06 6.4218400375182227e-07 -9.9999710708531566 -2.4998611184381141 1.7143298251215766e-05 -4.8251613872452026e-05 1.7143298251215766e-05 -2.4998475426797904 1.3802173072008372e-05 -4.8251613872452026e-05 1.3802173072008372e-05 -9.9999943995190712 -2.4997436647858828 6.9303012209149406e-06 2.5816599387162853e-06 6.9303012209149406e-06 -2.4997488299468111 -3.2092976365305503e-06 2.5816599387162853e-06 -3.2092976365305503e-06 -9.9999730377644234 -2.5001703341197055 -5.2140984249234277e-06 0.0002533480316759155 -5.2140984249234277e-06 -2.5000751462171009 -0.00028617859904343589 0.0002533480316759155 -0.00028617859904343589 -10.000296231526223 -2.4999536051430207 3.0533167112351173e-05 -0.00023088471687215072 3.0533167112351173e-05 -2.499982212191775 -9.3551513988123208e-05 -0.00023088471687215072 -9.3551513988123208e-05 -9.9999229549539557 -2.4998420133061963 -2.3106859041242659e-05 9.337352571137103e-05 -2.3106859041242659e-05 -2.4997660629751746 -2.0956985916420479e-05 9.337352571137103e-05 -2.0956985916420479e-05 -9.999983529258138 -2.4997479550924799 8.4530793521046688e-06 2.1702141143720155e-05 8.4530793521046688e-06 -2.4997476681871298 -1.6379910532826614e-05 2.1702141143720155e-05 -1.6379910532826614e-05 -9.9999737762741034 -2.4998485566531818 -1.0800899758236834e-06 -7.3496787764326904e-05 -1.0800899758236834e-06 -2.4996655161656456 -6.5150317658968504e-05 -7.3496787764326904e-05 -6.5150317658968504e-05 -9.9998660201129326 -2.499721197563411 -1.4962376473582631e-05 8.4831580471345092e-06 -1.4962376473582631e-05 -2.4997271869385242 -1.4150912515553671e-05 8.4831580471345092e-06 -1.4150912515553671e-05 -10.000014397514999 -2.4998042838068404 -3.0973719201632605e-05 -3.2117069048709368e-05 -3.0973719201632605e-05 -2.4997869154975287 4.7032767938048892e-06 -3.2117069048709368e-05 4.7032767938048892e-06 -9.9999689292587419 -2.4997068227345469 -4.1697973401575704e-05 2.4350738374590009e-05 -4.1697973401575704e-05 -2.4998967925415077 -0.00027181651607266488 2.4350738374590009e-05 -0.00027181651607266488 -10.000117828813483 -2.4998366237798528 1.6308806298273191e-05 -1.4149681209829623e-05 1.6308806298273191e-05 -2.499789746617223 -6.3367141311942987e-06 -1.4149681209829623e-05 -6.3367141311942987e-06 -9.9999775955662642 -2.499888813772106 4.4204051917971765e-05 -1.3211053282446983e-06 4.4204051917971765e-05 -2.4998691820619729 -1.7551936191573247e-05 -1.3211053282446983e-06 -1.7551936191573247e-05 -10.000017376623624 -2.4999365743034834 -5.7969610120276756e-05 -0.00039580725726473613 -5.7969610120276756e-05 -2.4997037376716604 -2.5527399732296757e-05 -0.00039580725726473613 -2.5527399732296757e-05 -10.000054208153628 -2.4998428893774198 9.5551126536962244e-05 -4.2420728014747056e-06 9.5551126536962244e-05 -2.4998530324455652 1.7600720129351544e-05 -4.2420728014747056e-06 1.7600720129351544e-05 -10.000002899251744 -2.4998567230694442 2.9680533171277826e-05 -1.0447114366485266e-05 2.9680533171277826e-05 -2.4999001151285154 -8.8797553488006997e-07 -1.0447114366485266e-05 -8.8797553488006997e-07 -10.000029320970585 -2.4998294043090739 5.8129389717924915e-05 6.1348737772526363e-05 5.8129389717924915e-05 -2.4998837813996833 9.2408973974222874e-05 6.1348737772526363e-05 9.2408973974222874e-05 -9.9999637997126811 -2.4997923794479426 5.1588124214658831e-05 -5.3631841663737134e-05 5.1588124214658831e-05 -2.4997371857728794 -5.3143941061151168e-05 -5.3631841663737134e-05 -5.3143941061151168e-05 -9.9998735216665011 -2.49990884105853 -2.7294555915179504e-05 -0.00015633840149842371 -2.7294555915179504e-05 -2.4996603062391816 -0.00012341179455699347 -0.00015633840149842371 -0.00012341179455699347 -9.9997444101539408 -2.4998382065590317 3.1814573920150801e-05 -5.9991186152075215e-06 3.1814573920150801e-05 -2.4997700166205998 -1.2367746724528672e-05 -5.9991186152075215e-06 -1.2367746724528672e-05 -9.9999841852863653 -2.4998265952080194 -9.1780056701180987e-05 -0.00013067723494768793 -9.1780056701180987e-05 -2.4996487645331715 9.0365301405961407e-05 -0.00013067723494768793 9.0365301405961407e-05 -10.000174188608938 -2.5000974841885859 -3.4049040260933976e-05 4.2253538494537064e-06 -3.4049040260933976e-05 -2.499803482439241 -5.1040324163026092e-05 4.2253538494537064e-06 -5.1040324163026092e-05 -10.000246897620283 -2.4998273474546928 -5.6142703355765088e-05 -6.9152203633571219e-05 -5.6142703355765088e-05 -2.4998712944759158 8.5274838356852456e-05 -6.9152203633571219e-05 8.5274838356852456e-05 -9.9999782598773894 -2.4996246094484791 0.00010364708160847481 -4.6948003741755927e-05 0.00010364708160847481 -2.4997741596634908 -6.3395506419645665e-05 -4.6948003741755927e-05 -6.3395506419645665e-05 -10.000103164963869 -2.4998833445443749 -5.6467665356354417e-05 2.6022640582823442e-05 -5.6467665356354417e-05 -2.4999118649932059 -2.1042115374569903e-05 2.6022640582823442e-05 -2.1042115374569903e-05 -10.000024742896519 -2.4999226323476784 -5.4749594521944615e-05 -2.1184201255408652e-05 -5.4749594521944615e-05 -2.4998908391866288 2.3831182637934489e-05 -2.1184201255408652e-05 2.3831182637934489e-05 -10.000032495346268 -2.4998967309285218 3.6721267664104764e-05 -2.3212865727373355e-06 3.6721267664104764e-05 -2.4998684075521576 -9.8497559584131977e-06 -2.3212865727373355e-06 -9.8497559584131977e-06 -10.000035792951355 -2.4999023760569914 7.1524734263939826e-06 3.7620890562806153e-06 7.1524734263939826e-06 -2.4999049728335523 1.5464584102176104e-07 3.7620890562806153e-06 1.5464584102176104e-07 -10.000018152003722 -2.4999364620710822 -2.0006668502701476e-06 2.1678985512120497e-05 -2.0006668502701476e-06 -2.4997428992396342 0.00015322251869814911 2.1678985512120497e-05 0.00015322251869814911 -9.9999425740960408 -2.5001064038091734 3.2542916153767149e-05 -2.8200301762143411e-05 3.2542916153767149e-05 -2.4998282906029967 4.7138350557041656e-05 -2.8200301762143411e-05 4.7138350557041656e-05 -10.000289913339063 -2.4997617288045575 -3.9805386133329727e-05 -4.5762122247161585e-06 -3.9805386133329727e-05 -2.4997801917457156 -2.2990800894184815e-06 -4.5762122247161585e-06 -2.2990800894184815e-06 -9.9998802488812366 -2.4997618821966103 -2.4332431597366445e-05 4.8451771004209832e-06 -2.4332431597366445e-05 -2.4997808530122221 3.981758489146614e-06 4.8451771004209832e-06 3.981758489146614e-06 -9.9998676520674366 -2.4998082754651176 -3.1423290046364314e-05 -1.6354231423321153e-05 -3.1423290046364314e-05 -2.5001163356720513 -3.709961565390163e-05 -1.6354231423321153e-05 -3.709961565390163e-05 -10.000317530814289 -2.4998462790808826 -3.3374616842502542e-05 -3.4228705245280332e-05 -3.3374616842502542e-05 -2.5001247522491941 -4.151811610888812e-05 -3.4228705245280332e-05 -4.151811610888812e-05 -10.000336452070352 -2.4999319581318122 -3.8213550075070585e-05 6.1868510528029219e-06 -3.8213550075070585e-05 -2.4998695261289487 -6.5157166062590477e-06 6.1868510528029219e-06 -6.5157166062590477e-06 -10.000041914459835 -2.4996698129840844 -1.8325138159378335e-05 -0.00010945542662743613 -1.8325138159378335e-05 -2.4999146427854675 -7.4476631783504388e-05 -0.00010945542662743613 -7.4476631783504388e-05 -9.9997641481680368 -2.4997018986415607 -5.4063681945808383e-05 -6.3755512272415651e-07 -5.4063681945808383e-05 -2.4999401065670352 -0.00029234151728848684 -6.3755512272415651e-07 -0.00029234151728848684 -10.000069597918436 -2.4998912349649451 9.5444682129517154e-06 -6.9241345759252226e-06 9.5444682129517154e-06 -2.4999019149791906 8.0281110292901303e-07 -6.9241345759252226e-06 8.0281110292901303e-07 -10.000004106079629 -2.4999113248539704 -1.7793780073164318e-05 -3.3351132209702428e-05 -1.7793780073164318e-05 -2.4998625081024848 -4.7697961527148891e-06 -3.3351132209702428e-05 -4.7697961527148891e-06 -10.000016923488204 -2.4996653759768899 -9.4583085053385696e-06 -9.8542436212323281e-05 -9.4583085053385696e-06 -2.4998511408963973 -7.4214927299198763e-05 -9.8542436212323281e-05 -7.4214927299198763e-05 -9.9997695408880958 -2.4998845701053929 -3.9669870463320472e-05 4.5891792718855129e-05 -3.9669870463320472e-05 -2.499934641931544 -0.00010577654398691294 4.5891792718855129e-05 -0.00010577654398691294 -10.000019176537796 -2.4998661236140376 -3.4311483079944594e-05 -1.0589307333219722e-05 -3.4311483079944594e-05 -2.4999354724208644 5.2567289543503648e-06 -1.0589307333219722e-05 5.2567289543503648e-06 -10.000040339842409 -2.499739542088153 -2.1795564469299948e-06 0.00018128589006356625 -2.1795564469299948e-06 -2.4999336718390253 -2.9895596856140409e-05 0.00018128589006356625 -2.9895596856140409e-05 -9.9999311796457828 -2.4997923379372482 -5.9531693413288482e-05 -4.4050526806671542e-05 -5.9531693413288482e-05 -2.4997921705381394 5.1220171465971021e-05 -4.4050526806671542e-05 5.1220171465971021e-05 -10.000211238155561 -2.4997934850245835 8.4404268080774065e-06 -2.2638203434510729e-05 8.4404268080774065e-06 -2.4998014972101803 1.8046737899624077e-06 -2.2638203434510729e-05 1.8046737899624077e-06 -9.9999789496580362 -2.4998419242680221 1.4347438124816358e-05 1.2331637464946255e-05 1.4347438124816358e-05 -2.4998746230319426 -4.9147171097274622e-06 1.2331637464946255e-05 -4.9147171097274622e-06 -10.000018990427172 -2.4997815541005108 -3.2052635756255933e-06 -8.0818982794994554e-07 -3.2052635756255933e-06 -2.499810626514984 2.772154889996159e-05 -8.0818982794994554e-07 2.772154889996159e-05 -10.000005791887148 -2.4999008144060433 1.8239365569498189e-05 -8.2130795741264251e-05 1.8239365569498189e-05 -2.4998469828419023 -4.5323547257059005e-05 -8.2130795741264251e-05 -4.5323547257059005e-05 -9.9999758741551279 -2.5000962985148178 -3.3723485734172674e-05 -1.6175285004127395e-05 -3.3723485734172674e-05 -2.4998135576025846 7.7923155451301414e-05 -1.6175285004127395e-05 7.7923155451301414e-05 -10.000262344614111 -2.4998748714339349 3.2939771909551446e-05 2.1944995173939219e-05 3.2939771909551446e-05 -2.499881908914011 2.9127732535272344e-05 2.1944995173939219e-05 2.9127732535272344e-05 -10.0000027402318 -2.499876298811726 1.3333797443017004e-05 -5.4421772652801792e-06 1.3333797443017004e-05 -2.4998200998088311 7.1135016241896665e-06 -5.4421772652801792e-06 7.1135016241896665e-06 -10.000018908450528 -2.4998019070902533 -3.229463356182654e-07 -4.3045754765103084e-06 -3.229463356182654e-07 -2.4998231781457925 4.4459817787334543e-06 -4.3045754765103084e-06 4.4459817787334543e-06 -9.9999991899345702 -2.4998556045235412 3.3958116437393075e-05 -8.329252115857482e-05 3.3958116437393075e-05 -2.5001410537744442 -5.2753963920541694e-06 -8.329252115857482e-05 -5.2753963920541694e-06 -10.000412699973069 -2.4999339467554593 2.6498947295068684e-06 -3.3913166330167845e-05 2.6498947295068684e-06 -2.4997400951133617 -0.00019909478222288036 -3.3913166330167845e-05 -0.00019909478222288036 -9.9999326845949721 -2.4998264616648762 3.2045319016040637e-05 6.7140292113118997e-05 3.2045319016040637e-05 -2.5001022407812661 2.4745877970666391e-05 6.7140292113118997e-05 2.4745877970666391e-05 -10.000283089103981 -2.4997731481303536 3.5874783887595069e-05 -8.5444904032172531e-06 3.5874783887595069e-05 -2.4997808151453098 2.3287493450041552e-05 -8.5444904032172531e-06 2.3287493450041552e-05 -9.9999045712165113 -2.4998022798434212 1.2824179329527557e-05 -4.2311925589899602e-06 1.2824179329527557e-05 -2.4998012718284714 -2.8343622741289209e-05 -4.2311925589899602e-06 -2.8343622741289209e-05 -9.999989755778703 -2.4997630565603997 2.7496758607448773e-05 1.7429645661870552e-05 2.7496758607448773e-05 -2.4997627019399236 -5.775208448355329e-06 1.7429645661870552e-05 -5.775208448355329e-06 -9.9999221541296102 -2.4998642102654487 1.0591005276291362e-05 1.0043524929059799e-05 1.0591005276291362e-05 -2.4998566024722346 6.667911588209563e-06 1.0043524929059799e-05 6.667911588209563e-06 -10.000072189062811 -2.4998778056195778 -1.3842931401845468e-05 -3.6521778312703645e-07 -1.3842931401845468e-05 -2.4998576310157823 1.6844410115623987e-05 -3.6521778312703645e-07 1.6844410115623987e-05 -10.000025583989384 -2.4997331473175968 1.9879452202296194e-06 -0.00017293551525060665 1.9879452202296194e-06 -2.499925361783458 9.7301717170082376e-06 -0.00017293551525060665 9.7301717170082376e-06 -9.9998966135993896 -2.5000880113373509 3.3510682320784504e-05 -4.0667708961964854e-05 3.3510682320784504e-05 -2.4998009260136773 7.723515886386785e-06 -4.0667708961964854e-05 7.723515886386785e-06 -10.000205625100733 -2.4998295620990416 -2.5236032835626057e-05 8.8711136643579425e-05 -2.5236032835626057e-05 -2.4997516446541956 -2.6129221655696029e-05 8.8711136643579425e-05 -2.6129221655696029e-05 -10.000187134597933 -2.4997909171865449 -1.3358722851692826e-05 -0.00010971314744478988 -1.3358722851692826e-05 -2.4997913057437313 5.7109861752557833e-05 -0.00010971314744478988 5.7109861752557833e-05 -9.9999760829817355 -2.4997932995195518 -3.4044161356786576e-05 -1.0808862181779268e-05 -3.4044161356786576e-05 -2.5000827488479791 -3.140981718031686e-05 -1.0808862181779268e-05 -3.140981718031686e-05 -10.000173374894391 -2.4998857442349096 -3.2668270972758683e-05 -3.5594424453222473e-05 -3.2668270972758683e-05 -2.4998710994260507 1.5334224272578467e-06 -3.5594424453222473e-05 1.5334224272578467e-06 -10.00002393522654 -2.499858981793976 -3.1367759785102482e-05 6.965214502940853e-07 -3.1367759785102482e-05 -2.4998651215887482 -4.0576251503665617e-05 6.965214502940853e-07 -4.0576251503665617e-05 -10.000009310785176 -2.4998336913745489 -1.2533966235320253e-05 -5.7291133093606561e-05 -1.2533966235320253e-05 -2.4998139923577187 -7.0978144201094828e-05 -5.7291133093606561e-05 -7.0978144201094828e-05 -9.9999662084597514 -2.4997791311088058 8.8124429333979364e-05 2.5712054128490536e-05 8.8124429333979364e-05 -2.4997836749761575 2.1131065514268244e-05 2.5712054128490536e-05 2.1131065514268244e-05 -10.000014898128001 -2.4996537166800805 -8.321787988692638e-05 -0.00010298104065453728 -8.321787988692638e-05 -2.4996378942339348 0.00010685358410866819 -0.00010298104065453728 0.00010685358410866819 -9.9998140138914238 -2.4997780710648243 8.9982122129997948e-05 -2.6005252488303654e-05 8.9982122129997948e-05 -2.4997792967234655 -1.9530483037044633e-05 -2.6005252488303654e-05 -1.9530483037044633e-05 -10.000007022798009 -2.4996495416779347 7.6658794565226016e-05 9.0172215468697914e-05 7.6658794565226016e-05 -2.4996286886834547 0.00012356701342763898 9.0172215468697914e-05 0.00012356701342763898 -9.9998110971086209 -2.4998536957875559 1.9192162754457496e-05 7.8343590127705198e-05 1.9192162754457496e-05 -2.4997694095032519 2.7180086081823873e-05 7.8343590127705198e-05 2.7180086081823873e-05 -10.000163261913649 -2.4997848917793055 2.0417931137491572e-05 3.9578551373709026e-05 2.0417931137491572e-05 -2.4998578461676408 9.7200120710905225e-05 3.9578551373709026e-05 9.7200120710905225e-05 -10.000236541373056 -2.4998528373911508 -1.2048276657203362e-05 1.5120605117324715e-05 -1.2048276657203362e-05 -2.4998838612486534 3.2991480978239451e-06 1.5120605117324715e-05 3.2991480978239451e-06 -10.00002189279504 -2.4996599283160181 -8.14832347712624e-05 9.5981968623926051e-05 -8.14832347712624e-05 -2.4996566324898533 -0.00010657963825155825 9.5981968623926051e-05 -0.00010657963825155825 -9.9998071719640791 -2.4997825565974301 -8.8551059130526701e-05 -2.3177138359642413e-05 -8.8551059130526701e-05 -2.4997717988068189 2.5174498686553193e-05 -2.3177138359642413e-05 2.5174498686553193e-05 -10.0000129146243 -2.4997753301457069 -9.6533762818542523e-05 2.3372191304105172e-05 -9.6533762818542523e-05 -2.4997819577973752 -1.9108525664890408e-05 2.3372191304105172e-05 -1.9108525664890408e-05 -10.000008016741862 -2.4998905531886084 -1.3471413421427958e-05 -1.1158029913360679e-06 -1.3471413421427958e-05 -2.4998306235953045 2.0581983086742639e-05 -1.1158029913360679e-06 2.0581983086742639e-05 -10.000022084827819 -2.4997742669109888 -1.9574959729274703e-05 -1.688568104653797e-05 -1.9574959729274703e-05 -2.4998510801398028 8.3760584334235944e-05 -1.688568104653797e-05 8.3760584334235944e-05 -10.000173452237576 -2.4998748054902151 -7.6449948456985204e-06 1.0215036745364614e-06 -7.6449948456985204e-06 -2.4998330969951255 -8.9542390604435695e-06 1.0215036745364614e-06 -8.9542390604435695e-06 -10.000022867522361 -2.4997643777453251 -3.9599941855105611e-05 -1.980040810289907e-05 -3.9599941855105611e-05 -2.4998437338315118 6.4890316163190853e-05 -1.980040810289907e-05 6.4890316163190853e-05 -10.000191478345968 -2.4998234740189602 1.2929984054397495e-05 1.4564855942644783e-05 1.2929984054397495e-05 -2.4998805897944045 -4.2263398292163856e-06 1.4564855942644783e-05 -4.2263398292163856e-06 -10.000016226980875 -2.4998551669699509 3.5876651014080541e-05 -1.885848649596511e-05 3.5876651014080541e-05 -2.4998546297522228 -9.8340088561243988e-06 -1.885848649596511e-05 -9.8340088561243988e-06 -9.999995392732508 -2.4996518197527484 7.3082787113391002e-05 -0.0001065347768534064 7.3082787113391002e-05 -2.4996497753626894 -9.2713356802498481e-05 -0.0001065347768534064 -9.2713356802498481e-05 -9.9997877317461885 -2.4997962734045078 -8.4134165296382096e-06 2.0640214842160276e-05 -8.4134165296382096e-06 -2.4997891867782176 -7.2840873137636208e-06 2.0640214842160276e-05 -7.2840873137636208e-06 -9.9999931399542064 -2.4997980198013749 1.4171637159311125e-05 9.42759825801609e-05 1.4171637159311125e-05 -2.499771218304728 6.0474865604120964e-05 9.42759825801609e-05 6.0474865604120964e-05 -10.000012277754964 -2.4998367400324311 1.4079191360818398e-05 -1.3966374599050368e-05 1.4079191360818398e-05 -2.4998711859875931 3.4647657081166017e-06 -1.3966374599050368e-05 3.4647657081166017e-06 -10.000018340351058 -2.4996870955861143 7.1325783938446235e-05 0.00016325925597980855 7.1325783938446235e-05 -2.4996784229056104 4.4389815928582929e-05 0.00016325925597980855 4.4389815928582929e-05 -10.000017671433053 -2.4997452831902711 1.467619082763804e-05 -4.201915548307511e-05 1.467619082763804e-05 -2.4997244137260659 4.3368189906408181e-05 -4.201915548307511e-05 4.3368189906408181e-05 -9.9995828214717797 -2.4998399428317093 5.4162125430783911e-05 -4.8104578450391955e-05 5.4162125430783911e-05 -2.4998430318284139 -4.2561478028613209e-05 -4.8104578450391955e-05 -4.2561478028613209e-05 -10.000043316561481 -2.4998357625413554 -5.7641493226113339e-05 -4.1332913534475324e-05 -5.7641493226113339e-05 -2.499825336732945 4.3496264964915099e-05 -4.1332913534475324e-05 4.3496264964915099e-05 -10.000040944968973 -2.4998439339914924 -5.7699524444757151e-05 4.6031400751989082e-05 -5.7699524444757151e-05 -2.4998454054782009 -3.9189652630611249e-05 4.6031400751989082e-05 -3.9189652630611249e-05 -10.000039114364846 -2.499682087584262 -6.9528388674964842e-05 -0.00017562618757548359 -6.9528388674964842e-05 -2.4996716847545639 3.1498628963903016e-05 -0.00017562618757548359 3.1498628963903016e-05 -10.000020473688314 -2.4996690378400852 -7.2402467786497854e-05 -4.7512217889826179e-05 -7.2402467786497854e-05 -2.4996749279110548 0.00017317866543129 -4.7512217889826179e-05 0.00017317866543129 -9.9999836160382731 -2.4997094443677925 -6.9373186175800201e-05 0.00018497560608462941 -6.9373186175800201e-05 -2.4996871474668438 -2.7086538183031944e-05 0.00018497560608462941 -2.7086538183031944e-05 -10.000039894313181 -2.4998377506139891 8.7092343620822049e-08 8.0918442176169947e-05 8.7092343620822049e-08 -2.499816493370508 -5.5967686389823967e-05 8.0918442176169947e-05 -5.5967686389823967e-05 -9.9999859978743331 -2.4998319882874287 -5.8505878013483191e-06 -1.2224768369151207e-05 -5.8505878013483191e-06 -2.499881093054801 1.0200967430762375e-06 -1.2224768369151207e-05 1.0200967430762375e-06 -10.000022628893936 -2.4998445600917614 -1.2479273130423254e-05 1.576469174224826e-05 -1.2479273130423254e-05 -2.499889901229388 2.4437855401515662e-06 1.576469174224826e-05 2.4437855401515662e-06 -10.000021505935438 -2.4998392095110358 2.5035595894926688e-05 7.385163484308066e-06 2.5035595894926688e-05 -2.499827142089277 -5.1253315168864333e-05 7.385163484308066e-06 -5.1253315168864333e-05 -10.000001134270391 -2.4996789830327599 7.0903647451989383e-05 2.2874895396595828e-05 7.0903647451989383e-05 -2.4996813800254953 0.000202489327107199 2.2874895396595828e-05 0.000202489327107199 -10.000009893385032 -2.4997131369127086 8.1237014325152699e-05 5.1077704199542495e-06 8.1237014325152699e-05 -2.4998119585506497 -1.845516298004668e-06 5.1077704199542495e-06 -1.845516298004668e-06 -9.9999949487949706 -2.4998133734587427 8.0092994649530875e-05 -4.533859561561826e-06 8.0092994649530875e-05 -2.4997120782115534 1.0258576949695453e-05 -4.533859561561826e-06 1.0258576949695453e-05 -10.000002525326899 -2.4997414327230065 -1.3431146537098564e-05 3.5439007189719263e-05 -1.3431146537098564e-05 -2.4996957999411662 5.6443911469195029e-05 3.5439007189719263e-05 5.6443911469195029e-05 -9.999588562067574 -2.4998846529123515 7.088480898459506e-06 -2.0782669949426236e-06 7.088480898459506e-06 -2.4998460758828145 1.4547477054094315e-05 -2.0782669949426236e-06 1.4547477054094315e-05 -10.000023947741155 -2.4997150231838852 8.2721799353117453e-05 -7.6107655999635426e-06 8.2721799353117453e-05 -2.499823634666626 2.420077546361199e-06 -7.6107655999635426e-06 2.420077546361199e-06 -9.9999990174389879 -2.4998254922307304 5.9657859839094824e-05 3.8649025716708252e-05 5.9657859839094824e-05 -2.4998306929534593 3.4396464792862957e-05 3.8649025716708252e-05 3.4396464792862957e-05 -10.00003085690949 -2.4998213377990166 8.3296813137708354e-05 4.8610736387288966e-06 8.3296813137708354e-05 -2.4997216530919286 -1.0132241214932947e-05 4.8610736387288966e-06 -1.0132241214932947e-05 -10.000004233437148 -2.4998168906196199 -1.1893159940891948e-05 -2.0280560857344199e-06 -1.1893159940891948e-05 -2.499836640010578 9.2176339165916943e-06 -2.0280560857344199e-06 9.2176339165916943e-06 -10.000004867525632 -2.4998327490419339 8.6377467027140231e-06 8.4849838417611068e-06 8.6377467027140231e-06 -2.4998435777563 -7.8234400788801395e-06 8.4849838417611068e-06 -7.8234400788801395e-06 -9.9999924575761341 -2.4998685279605839 1.6801513705619821e-05 -5.7855282165064637e-07 1.6801513705619821e-05 -2.4998278085943051 -1.2590832408676533e-05 -5.7855282165064637e-07 -1.2590832408676533e-05 -10.000021986164587 -2.4997906710954316 4.6783998686020845e-06 -5.3241344970755833e-05 4.6783998686020845e-06 -2.4998778038645808 -0.00013428839324269859 -5.3241344970755833e-05 -0.00013428839324269859 -10.000240192210242 -2.4998594152463056 6.6047165980409131e-05 -4.6416285915285016e-05 6.6047165980409131e-05 -2.4998328207726068 -5.8638920137354944e-06 -4.6416285915285016e-05 -5.8638920137354944e-06 -10.000000590765474 -2.4998495779726269 -6.3870414297087627e-06 -9.403437908472867e-05 -6.3870414297087627e-06 -2.4997764464970769 3.7462756301676059e-05 -9.403437908472867e-05 3.7462756301676059e-05 -10.00021430996882 -2.4998745875484527 2.6684548261628538e-05 1.6796053020851076e-05 2.6684548261628538e-05 -2.4998790513239939 2.5828307317787846e-05 1.6796053020851076e-05 2.5828307317787846e-05 -10.0000197795231 -2.4998166206985815 4.182049132360954e-05 1.2230662514767232e-05 4.182049132360954e-05 -2.4998238215529787 4.1679560982110786e-05 1.2230662514767232e-05 4.1679560982110786e-05 -9.9999797262224561 -2.4998750700514485 1.1118850388072281e-05 -1.1800581329879378e-06 1.1118850388072281e-05 -2.4998461373514953 -2.8556803188806157e-07 -1.1800581329879378e-06 -2.8556803188806157e-07 -10.000001714153584 -2.4998402220467986 3.5653693058742129e-05 -7.402800928035802e-06 3.5653693058742129e-05 -2.4998555317869462 7.3454269314154885e-05 -7.402800928035802e-06 7.3454269314154885e-05 -9.9999892976176064 -2.4998121520682282 2.3235632904297009e-05 -2.9413994479199346e-05 2.3235632904297009e-05 -2.4998213641477238 -1.8082956492193603e-05 -2.9413994479199346e-05 -1.8082956492193603e-05 -9.9999844534351698 -2.4998878327598955 -3.8333307914330833e-05 -5.8228831238515966e-05 -3.8333307914330833e-05 -2.4997424252473999 4.2794120421518755e-05 -5.8228831238515966e-05 4.2794120421518755e-05 -9.9999776232207456 -2.4997168172451429 -8.184076926686191e-05 9.6606681516675508e-06 -8.184076926686191e-05 -2.4998107607389182 5.6616630050854155e-06 9.6606681516675508e-06 5.6616630050854155e-06 -9.9999996215231057 -2.4997777989479792 2.7102576160963624e-05 4.7306011397907355e-05 2.7102576160963624e-05 -2.4997578825552078 -4.9593397723146637e-05 4.7306011397907355e-05 -4.9593397723146637e-05 -9.9995938984931154 -2.4998026631460619 -8.5554162927471564e-05 6.6894484369584006e-06 -8.5554162927471564e-05 -2.4997167388828356 1.0484688914402795e-05 6.6894484369584006e-06 1.0484688914402795e-05 -9.9999981225128369 -2.4996794139109806 -6.6839867456509159e-05 3.912754702209832e-05 -6.6839867456509159e-05 -2.4996727966738743 -0.00016177335438330909 3.912754702209832e-05 -0.00016177335438330909 -9.9999663317259326 -2.4998238609785193 -8.3727628186238968e-05 -3.021476552511615e-06 -8.3727628186238968e-05 -2.4997102076444935 -6.1176112104988078e-06 -3.021476552511615e-06 -6.1176112104988078e-06 -10.00000128164749 -2.499713896257675 -8.9548455616904045e-05 -6.9365073898097762e-06 -8.9548455616904045e-05 -2.4998162669472537 -1.545705409000675e-06 -6.9365073898097762e-06 -1.545705409000675e-06 -9.9999956791087676 -2.4996901848330908 6.6455346614451957e-05 -0.00017101570490875946 6.6455346614451957e-05 -2.4996754972961215 -3.4554002202541055e-05 -0.00017101570490875946 -3.4554002202541055e-05 -9.9999556704167301 -2.4996895274118329 6.6462007641359891e-05 -2.8352708079680978e-05 6.6462007641359891e-05 -2.499704241064181 -0.00017927444678049432 -2.8352708079680978e-05 -0.00017927444678049432 -10.000011803144172 -2.499832607192817 -1.6504501666661151e-05 -1.3622938089596914e-05 -1.6504501666661151e-05 -2.4996991763414784 7.90363771723257e-05 -1.3622938089596914e-05 7.90363771723257e-05 -9.999915992856673 -2.4998511982402363 7.9215586259981858e-06 -8.7197799363281092e-06 7.9215586259981858e-06 -2.4998325309592531 9.79836943315604e-06 -8.7197799363281092e-06 9.79836943315604e-06 -9.9999953825126084 -2.5001155653059364 4.1091599354789019e-06 -0.00018784750141516708 4.1091599354789019e-06 -2.5000231220116085 -0.00021311437613543316 -0.00018784750141516708 -0.00021311437613543316 -10.000080070145751 -2.4997625764975187 -4.5211783785893059e-05 1.8897721676403023e-05 -4.5211783785893059e-05 -2.4999017452605985 -5.9272572303648019e-05 1.8897721676403023e-05 -5.9272572303648019e-05 -9.9999853091965001 -2.4997738972008858 -4.1082784255517635e-05 -6.0302154697655652e-05 -4.1082784255517635e-05 -2.4997698175075782 -4.5463083022667661e-05 -6.0302154697655652e-05 -4.5463083022667661e-05 -9.9995869775040269 -2.4998510634762141 2.1863596055065633e-05 -9.0919663850996812e-06 2.1863596055065633e-05 -2.4998894854545561 -1.3163151139750084e-05 -9.0919663850996812e-06 -1.3163151139750084e-05 -10.000007499477185 -2.4997574871818147 -2.1939927707280152e-05 8.2508728712404888e-05 -2.1939927707280152e-05 -2.4997998004133466 -4.1144891224753621e-05 8.2508728712404888e-05 -4.1144891224753621e-05 -9.9999728578350862 -2.4998297802968752 3.9491212586765918e-05 6.6108348262261529e-05 3.9491212586765918e-05 -2.4998351302746764 -9.724165085600589e-06 6.6108348262261529e-05 -9.724165085600589e-06 -9.9999945263037731 -2.4998431393364156 -3.0856738556007696e-06 -1.9333862901760313e-06 -3.0856738556007696e-06 -2.4998494847357629 -3.4597144052739282e-05 -1.9333862901760313e-06 -3.4597144052739282e-05 -10.000010861801574 -2.4998454269850754 -3.1349146268713247e-06 -3.2838475243934795e-05 -3.1349146268713247e-06 -2.4998403238825908 3.9641232421061545e-06 -3.2838475243934795e-05 3.9641232421061545e-06 -10.000002772763075 -2.4997245906497056 -2.4134007975963961e-05 5.2041730923768625e-05 -2.4134007975963961e-05 -2.4998471486679614 -1.3213423005087321e-05 5.2041730923768625e-05 -1.3213423005087321e-05 -9.9999357853560582 -2.4998122609352968 -1.7243681264141682e-05 -6.9839817111727598e-06 -1.7243681264141682e-05 -2.4997915865473779 -3.2879567880783611e-05 -6.9839817111727598e-06 -3.2879567880783611e-05 -9.9999778350862414 -2.500213440853337 2.4417735069528358e-05 0.00020604098127982167 2.4417735069528358e-05 -2.5002117476284518 1.2131371241711441e-05 0.00020604098127982167 1.2131371241711441e-05 -10.000333937439594 -2.4998322945024753 6.8933808419833936e-05 -1.227900716216368e-06 6.8933808419833936e-05 -2.4998231273366383 -4.7647366569592009e-05 -1.227900716216368e-06 -4.7647366569592009e-05 -9.9999925935051053 -2.5000131772420677 5.0327712572888854e-06 -0.00029398525714879122 5.0327712572888854e-06 -2.50010783263075 -0.00024928530995980459 -0.00029398525714879122 -0.00024928530995980459 -10.000044993422311 -2.5001646047043455 2.4332262119311323e-05 -0.00010252508327797901 2.4332262119311323e-05 -2.5001731384519719 0.0001207338699786046 -0.00010252508327797901 0.0001207338699786046 -10.000181799191111 -2.4998011557891648 -1.1536053093326589e-05 -2.3643022661445912e-05 -1.1536053093326589e-05 -2.4998248704846158 1.6316166405516697e-05 -2.3643022661445912e-05 1.6316166405516697e-05 -10.000013943448465 -2.4998468815969872 5.069194718046864e-06 -5.30883950133898e-06 5.069194718046864e-06 -2.499807471292991 3.9265236466690112e-06 -5.30883950133898e-06 3.9265236466690112e-06 -9.999994766940361 -2.4997686531622687 -1.1713277044370082e-05 -2.5296399936980407e-05 -1.1713277044370082e-05 -2.4997464250139574 1.0301354730124501e-05 -2.5296399936980407e-05 1.0301354730124501e-05 -9.9999967833684167 -2.5000241640144449 2.2224410995704591e-05 -5.8870903972903189e-05 2.2224410995704591e-05 -2.4999777414612954 -0.0001651015172225755 -5.8870903972903189e-05 -0.0001651015172225755 -9.999981994006534 -2.499856224772067 -3.3702472306071067e-05 -6.7564919365992182e-06 -3.3702472306071067e-05 -2.4998646559977686 -7.8780380832199626e-06 -6.7564919365992182e-06 -7.8780380832199626e-06 -9.9999908926800032 -2.4998659379692887 -3.4490210698169229e-05 -4.9372531147895415e-06 -3.4490210698169229e-05 -2.4998648523393134 7.1337869620435868e-06 -4.9372531147895415e-06 7.1337869620435868e-06 -9.9999980087896354 -2.4997711333151726 -3.6089410406202423e-05 5.9898594589657961e-05 -3.6089410406202423e-05 -2.4997677484207039 -3.3245614178056826e-05 5.9898594589657961e-05 -3.3245614178056826e-05 -9.9999880350632662 -2.4996947637617337 0.0001597399190837981 2.3662962020054579e-05 0.0001597399190837981 -2.4996886062084798 1.6966540851370837e-05 2.3662962020054579e-05 1.6966540851370837e-05 -9.9999093210168439 -2.499837837527906 -2.0514922503249585e-05 -1.9341017004848027e-05 -2.0514922503249585e-05 -2.499791088936675 -3.9002211494221228e-05 -1.9341017004848027e-05 -3.9002211494221228e-05 -10.000018097458266 -2.5001963978983452 2.2902360966472457e-05 -0.0002106392564522971 2.2902360966472457e-05 -2.5001968568258732 1.4053848205994356e-05 -0.0002106392564522971 1.4053848205994356e-05 -10.000284242919996 -2.4998104140695823 2.0266049879716472e-05 5.3825947386343387e-05 2.0266049879716472e-05 -2.4998157220150752 5.689470238934291e-06 5.3825947386343387e-05 5.689470238934291e-06 -9.9999967002612635 -2.4996135698614288 3.3919606016956491e-05 0.00017826700133148345 3.3919606016956491e-05 -2.4999142746418141 0.00018817566556629105 0.00017826700133148345 0.00018817566556629105 -9.9998371735712706 -2.4997684314882722 0.00012761234724988944 -2.5281304328217402e-05 0.00012761234724988944 -2.499759737657838 -3.4889487128708652e-05 -2.5281304328217402e-05 -3.4889487128708652e-05 -10.000058173019678 -2.4998948269984922 -3.3519943475482021e-05 0.00020971148740468477 -3.3519943475482021e-05 -2.4995927664202733 -0.00016930509727829113 0.00020971148740468477 -0.00016930509727829113 -9.9997713506800192 -2.4998054342319698 -0.00011727837963571572 4.1961303857362964e-05 -0.00011727837963571572 -2.4998046239195375 -5.4856343147946518e-05 4.1961303857362964e-05 -5.4856343147946518e-05 -10.00001801831295 -2.4998109762913892 -0.00011712341652917675 -5.9262894142264599e-05 -0.00011712341652917675 -2.4998053295786296 4.5951392982246375e-05 -5.9262894142264599e-05 4.5951392982246375e-05 -10.000011255540496 -2.4999035742820328 2.9354968974478797e-05 0.00020439612629781262 2.9354968974478797e-05 -2.4995922968885451 0.00013605454724290467 0.00020439612629781262 0.00013605454724290467 -9.9998048175605092 -2.4995917935139649 3.3989225368672376e-05 -0.00017784427928375988 3.3989225368672376e-05 -2.4999024627797284 -0.0001493130035392122 -0.00017784427928375988 -0.0001493130035392122 -9.9998017631137728 -2.4999513794548354 -3.3970851475433775e-05 -0.00016959001505456031 -3.3970851475433775e-05 -2.4996402774520181 0.00017141531187773713 -0.00016959001505456031 0.00017141531187773713 -9.9999983788040545 -2.4997016339554241 -0.00014882614430275593 -3.1367283854777384e-05 -0.00014882614430275593 -2.4996884102747923 1.3169867542295322e-05 -3.1367283854777384e-05 1.3169867542295322e-05 -9.9999146739296609 -2.4997728291317003 -1.8265113415892463e-05 -5.0435731210995982e-05 -1.8265113415892463e-05 -2.4998266254755261 -2.0455676192909777e-06 -5.0435731210995982e-05 -2.0455676192909777e-06 -9.9999928302422489 -2.4998196671778281 2.2020536043600711e-05 -2.3520491616579875e-06 2.2020536043600711e-05 -2.4998123191336532 5.171613752352755e-05 -2.3520491616579875e-06 5.171613752352755e-05 -9.9999994617956673 -2.4997521049743181 -0.00013375862917561931 -6.0973873949876634e-06 -0.00013375862917561931 -2.4997195812259458 -5.6462663193812546e-06 -6.0973873949876634e-06 -5.6462663193812546e-06 -9.9998914990651002 -2.4998321433312878 -2.5229417264964726e-05 2.3027816283160973e-05 -2.5229417264964726e-05 -2.4997879639776865 2.5027010432054908e-05 2.3027816283160973e-05 2.5027010432054908e-05 -10.000015672473616 -2.4997831976358391 3.2430395256734229e-05 -3.215202859685462e-05 3.2430395256734229e-05 -2.4998312660693038 2.2358377652409445e-05 -3.215202859685462e-05 2.2358377652409445e-05 -10.000016948350876 -2.4996146720176791 -3.3270842112673097e-05 -0.00011615534080575802 -3.3270842112673097e-05 -2.4999179055523877 0.00021593088251402976 -0.00011615534080575802 0.00021593088251402976 -9.9998655514390045 -2.4999036704395485 3.2688256457917182e-05 -0.0002139579359317933 3.2688256457917182e-05 -2.4995925444059468 -0.00011244518599234324 -0.0002139579359317933 -0.00011244518599234324 -9.9998159387487817 -2.4997844467809891 0.00010328253122027367 3.2650746412343779e-05 0.00010328253122027367 -2.4997795260048665 4.680339540286127e-05 3.2650746412343779e-05 4.680339540286127e-05 -10.000039181663489 -2.4996330386274623 -3.4024273216718026e-05 0.00010752222411708327 -3.4024273216718026e-05 -2.4999435750211654 -0.00020498432198595511 0.00010752222411708327 -0.00020498432198595511 -9.9999643067754569 -2.4997753972844947 -2.4955319773661693e-05 3.5799885202081327e-05 -2.4955319773661693e-05 -2.4998183616406529 1.3855031859577593e-05 3.5799885202081327e-05 1.3855031859577593e-05 -9.9999952147062743 -2.4998326044833128 3.1883822385180238e-05 2.2331853504198307e-05 3.1883822385180238e-05 -2.49978700523714 -2.8829138855712699e-05 2.2331853504198307e-05 -2.8829138855712699e-05 -10.000012586167081 -2.4997266366852942 0.00010852663627113371 -1.5009812939226208e-05 0.00010852663627113371 -2.4997187373313108 -5.0433807796679275e-06 -1.5009812939226208e-05 -5.0433807796679275e-06 -9.9999127513166552 -2.4998126219076959 7.5515457813700894e-06 5.6061633801174349e-05 7.5515457813700894e-06 -2.4997907006594366 2.0962723795037164e-05 5.6061633801174349e-05 2.0962723795037164e-05 -10.000040448137302 -2.4998038123866477 -8.6630214521812764e-05 3.2495663025211563e-05 -8.6630214521812764e-05 -2.4998628664039604 2.3815185270947836e-05 3.2495663025211563e-05 2.3815185270947836e-05 -10.000047656076447 -2.4998564798242411 5.5353861230415674e-05 2.7809218999363949e-05 5.5353861230415674e-05 -2.4998748430411712 6.2609679329916901e-05 2.7809218999363949e-05 6.2609679329916901e-05 -9.9999852296569216 -2.4999103172837911 2.5951807479106274e-05 -3.6312094971346909e-05 2.5951807479106274e-05 -2.4999273776830289 7.8569833701358505e-06 -3.6312094971346909e-05 7.8569833701358505e-06 -10.000023337241087 -2.4998628580040716 1.0472362726238305e-05 1.601712387166998e-05 1.0472362726238305e-05 -2.4998602877401161 3.0275714024696754e-07 1.601712387166998e-05 3.0275714024696754e-07 -9.9999984146540655 -2.4998522599904298 3.9812123194854215e-06 1.741778144648265e-05 3.9812123194854215e-06 -2.4998203475971232 -4.0107348890927597e-06 1.741778144648265e-05 -4.0107348890927597e-06 -9.9999933099095841 -2.4998687837948541 3.2322456018961938e-06 -1.445690800760957e-05 3.2322456018961938e-06 -2.4998593812150727 2.9558444758492897e-06 -1.445690800760957e-05 2.9558444758492897e-06 -9.9999941181388223 -2.4998779120706041 2.4133720133676961e-05 -6.6343666418333669e-06 2.4133720133676961e-05 -2.499827939960682 -4.5549950744572243e-06 -6.6343666418333669e-06 -4.5549950744572243e-06 -9.9999948773972331 -2.499830353560498 2.5796144540358433e-05 -1.4403336105139886e-05 2.5796144540358433e-05 -2.4999137966701954 -4.171575785871795e-05 -1.4403336105139886e-05 -4.171575785871795e-05 -9.999982943620056 -2.5000425575313345 -7.0623662387086524e-06 -0.00016723631745487486 -7.0623662387086524e-06 -2.4999334002629419 -0.00012640437567560753 -0.00016723631745487486 -0.00012640437567560753 -9.9999252762931139 -2.4998833175158821 -1.9560972981774003e-05 3.5535040781464744e-05 -1.9560972981774003e-05 -2.4999408002819727 2.9824190131755302e-05 3.5535040781464744e-05 2.9824190131755302e-05 -9.9998855177715047 -2.4999096453733682 4.1318473720781272e-06 -5.3674364132053043e-05 4.1318473720781272e-06 -2.4998660352722935 4.8151881355618147e-05 -5.3674364132053043e-05 4.8151881355618147e-05 -9.9994537328698847 -2.4998130330357942 4.4095494291428321e-06 -9.380590082486151e-06 4.4095494291428321e-06 -2.4998261706777232 -5.6075674201849779e-06 -9.380590082486151e-06 -5.6075674201849779e-06 -10.000013931950946 -2.499839747391559 -2.0621155579034896e-05 -2.7643774716423763e-05 -2.0621155579034896e-05 -2.4998496306470299 -9.1375603492593882e-06 -2.7643774716423763e-05 -9.1375603492593882e-06 -10.00001820211388 -2.4998151778978768 -7.7237600544631523e-06 -1.1308004115306858e-06 -7.7237600544631523e-06 -2.4998207860671693 -3.6101950424693996e-06 -1.1308004115306858e-06 -3.6101950424693996e-06 -10.00000216337553 -2.4998198928925461 -1.1192657149321313e-05 -1.5974440685795344e-06 -1.1192657149321313e-05 -2.4998215619740876 -8.3025085118038078e-07 -1.5974440685795344e-06 -8.3025085118038078e-07 -9.999995619498911 -2.4998351795056708 -4.6400755567691352e-06 -7.0107778782357855e-07 -4.6400755567691352e-06 -2.4998248492769575 -3.7579321290337475e-06 -7.0107778782357855e-07 -3.7579321290337475e-06 -10.000006987744353 -2.4998322715690513 -4.5026813911294792e-06 2.9828873948645196e-06 -4.5026813911294792e-06 -2.4998231085095668 -2.099899953478257e-06 2.9828873948645196e-06 -2.099899953478257e-06 -10.000000341819046 -2.4998484679667525 -4.9254104706117406e-05 -2.9128067984496298e-05 -4.9254104706117406e-05 -2.4997809123727341 -8.0435550890101126e-05 -2.9128067984496298e-05 -8.0435550890101126e-05 -10.000002762140806 -2.4998712619953842 -4.0657721244507044e-05 -2.9373233449092595e-05 -4.0657721244507044e-05 -2.4998803434649659 -2.3084207853685257e-05 -2.9373233449092595e-05 -2.3084207853685257e-05 -10.000015906181488 -2.4998286011905155 2.3280843538195045e-06 1.7761561056595099e-05 2.3280843538195045e-06 -2.4998084224800645 -3.5152569710206194e-05 1.7761561056595099e-05 -3.5152569710206194e-05 -10.000025530983924 -2.4998568377552566 2.2395330128867397e-05 2.3554930175251343e-05 2.2395330128867397e-05 -2.4998519454556272 -4.4196255352346725e-05 2.3554930175251343e-05 -4.4196255352346725e-05 -10.000040582355485 
</DataArray>
</CellData>
</Piece>
</UnstructuredGrid>
</VTKFile>
