<?xml version="1.0"?>
<VTKFile type="UnstructuredGrid" version="0.1" byte_order="LittleEndian">
<UnstructuredGrid>
<Piece NumberOfPoints="880" NumberOfCells="299">
<Points>
<DataArray type="Float64" NumberOfComponents="3" format="ascii">
-0 0 0 0.18653882694645291 0.22249173546702489 0 0 0.25000000000104189 0 -0 0 0 0.18653882694645291 0.22249173546702489 0 0.24999999999941089 0 0 0.24999999999941089 0 0 0.35015135319464608 0.1900339269648805 0 0.49999999999869182 0 0 0.18653882694645291 0.22249173546702489 0 0.24999999999941089 0 0 0.35015135319464608 0.1900339269648805 0 0.35015135319464608 0.1900339269648805 0 0.49924741621175961 0.21507969613896921 0 0.49999999999869182 0 0 0.35015135319464608 0.1900339269648805 0 0.49924741621175961 0.21507969613896921 0 0.40587285776242238 0.32419148732968017 0 0.37764981543668408 0.41341486499350411 0 0.41576443813007791 0.48093483781626972 0 0.45418244162583959 0.41624787166862259 0 0.37764981543668408 0.41341486499350411 0 0.45418244162583959 0.41624787166862259 0 0.40587285776242238 0.32419148732968017 0 0.41576443813007791 0.48093483781626972 0 0.46566719828045178 0.47702825415921918 0 0.45418244162583959 0.41624787166862259 0 0.41576443813007791 0.48093483781626972 0 0.46566719828045178 0.47702825415921918 0 0.4638583922372429 0.51470588235294135 0 0.46566719828045178 0.47702825415921918 0 0.49954900152271581 0.45107191084564019 0 0.5 0.5 0 0.46566719828045178 0.47702825415921918 0 0.4638583922372429 0.51470588235294135 0 0.5 0.5 0 0.46566719828045178 0.47702825415921918 0 0.49954900152271581 0.45107191084564019 0 0.45418244162583959 0.41624787166862259 0 0.45418244162583959 0.41624787166862259 0 0.49435464945626773 0.33318442629318029 0 0.54876010062294855 0.39662628167175101 0 0.45418244162583959 0.41624787166862259 0 0.49435464945626773 0.33318442629318029 0 0.40587285776242238 0.32419148732968017 0 0.49924741621175961 0.21507969613896921 0 0.49435464945626773 0.33318442629318029 0 0.40587285776242238 0.32419148732968017 0 0.35015135319464608 0.1900339269648805 0 0.40587285776242238 0.32419148732968017 0 0.29145599617909779 0.35026601625021492 0 0.37764981543668408 0.41341486499350411 0 0.40587285776242238 0.32419148732968017 0 0.29145599617909779 0.35026601625021492 0 0.18653882694645291 0.22249173546702489 0 0.35015135319464608 0.1900339269648805 0 0.29145599617909779 0.35026601625021492 0 0.29145599617909779 0.35026601625021492 0 0.32540781287085369 0.49175159894608172 0 0.17872124008781709 0.39692711089439497 0 0.37764981543668408 0.41341486499350411 0 0.29145599617909779 0.35026601625021492 0 0.32540781287085369 0.49175159894608172 0 0.37764981543668408 0.41341486499350411 0 0.41576443813007791 0.48093483781626972 0 0.32540781287085369 0.49175159894608172 0 0.17872124008781709 0.39692711089439497 0 0 0.25000000000104189 0 0 0.50000000000206157 0 0.17872124008781709 0.39692711089439497 0 0 0.50000000000206157 0 0.22453074737734591 0.51613635929252633 0 0.32540781287085369 0.49175159894608172 0 0.17872124008781709 0.39692711089439497 0 0.22453074737734591 0.51613635929252633 0 0.18653882694645291 0.22249173546702489 0 0.29145599617909779 0.35026601625021492 0 0.17872124008781709 0.39692711089439497 0 0.18653882694645291 0.22249173546702489 0 0.17872124008781709 0.39692711089439497 0 0 0.25000000000104189 0 0 0.50000000000206157 0 0.18442368612951149 0.62734948407416979 0 0 0.75000000000034772 0 0.18442368612951149 0.62734948407416979 0 0.22727208279115291 0.72949159435386135 0 0 0.75000000000034772 0 0.18442368612951149 0.62734948407416979 0 0.22727208279115291 0.72949159435386135 0 0.31346558946927339 0.67110784456164874 0 0.18442368612951149 0.62734948407416979 0 0.22453074737734591 0.51613635929252633 0 0.31771010312359771 0.58585679504088894 0 0 0.50000000000206157 0 0.18442368612951149 0.62734948407416979 0 0.22453074737734591 0.51613635929252633 0 0 1 0 0.096516139048187316 0.89789944498939644 0 0 0.75000000000034772 0 0 1 0 0.096516139048187316 0.89789944498939644 0 0.1596341872805197 1 0 0.096516139048187316 0.89789944498939644 0 0 0.75000000000034772 0 0.1644705180525495 0.8200994301041713 0 0.1644705180525495 0.8200994301041713 0 0.2386314078659193 0.92924778694987087 0 0.27155609766735261 0.80398965554903801 0 0.22727208279115291 0.72949159435386135 0 0 0.75000000000034772 0 0.1644705180525495 0.8200994301041713 0 0.22727208279115291 0.72949159435386135 0 0.1644705180525495 0.8200994301041713 0 0.27155609766735261 0.80398965554903801 0 0.096516139048187316 0.89789944498939644 0 0.1644705180525495 0.8200994301041713 0 0.2386314078659193 0.92924778694987087 0 0.096516139048187316 0.89789944498939644 0 0.2386314078659193 0.92924778694987087 0 0.1596341872805197 1 0 0.2386314078659193 0.92924778694987087 0 0.1596341872805197 1 0 0.27591592301363282 1 0 0.36061858902161292 1 0 0.32789203369730929 0.94219211037003092 0 0.27591592301363282 1 0 0.36061858902161292 1 0 0.32789203369730929 0.94219211037003092 0 0.39382242252278338 0.95440420122950598 0 0.2386314078659193 0.92924778694987087 0 0.32789203369730929 0.94219211037003092 0 0.27591592301363282 1 0 0.2386314078659193 0.92924778694987087 0 0.32789203369730929 0.94219211037003092 0 0.31834856208730472 0.88134829947972904 0 0.32789203369730929 0.94219211037003092 0 0.37746652222901839 0.8987532801416368 0 0.39382242252278338 0.95440420122950598 0 0.32789203369730929 0.94219211037003092 0 0.31834856208730472 0.88134829947972904 0 0.37746652222901839 0.8987532801416368 0 0.2386314078659193 0.92924778694987087 0 0.31834856208730472 0.88134829947972904 0 0.27155609766735261 0.80398965554903801 0 0.31834856208730472 0.88134829947972904 0 0.36493375430404612 0.82333914183704071 0 0.37746652222901839 0.8987532801416368 0 0.31834856208730472 0.88134829947972904 0 0.36493375430404612 0.82333914183704071 0 0.27155609766735261 0.80398965554903801 0 0.22727208279115291 0.72949159435386135 0 0.27155609766735261 0.80398965554903801 0 0.32984265945580837 0.74432890077789404 0 0.36493375430404612 0.82333914183704071 0 0.27155609766735261 0.80398965554903801 0 0.32984265945580837 0.74432890077789404 0 0.36493375430404612 0.82333914183704071 0 0.39746869305290999 0.7595658224757349 0 0.32984265945580837 0.74432890077789404 0 0.36493375430404612 0.82333914183704071 0 0.39746869305290999 0.7595658224757349 0 0.42893012659725649 0.81084715169569632 0 0.39746869305290999 0.7595658224757349 0 0.42893012659725649 0.81084715169569632 0 0.44651949253391748 0.77225997208621999 0 0.39746869305290999 0.7595658224757349 0 0.44651949253391748 0.77225997208621999 0 0.43412357948152142 0.72128778687215156 0 0.44651949253391748 0.77225997208621999 0 0.47786860714145291 0.77730227330627721 0 0.47220206448452873 0.74892462649306213 0 0.47786860714145291 0.77730227330627721 0 0.47220206448452873 0.74892462649306213 0 0.5 0.76470588235294124 0 0.47786860714145291 0.77730227330627721 0 0.5 0.79411764705882359 0 0.5 0.76470588235294124 0 0.47062147868881782 0.80650323854033878 0 0.5 0.82352941176470584 0 0.5 0.79411764705882359 0 0.47786860714145291 0.77730227330627721 0 0.47062147868881782 0.80650323854033878 0 0.5 0.79411764705882359 0 0.44651949253391748 0.77225997208621999 0 0.47786860714145291 0.77730227330627721 0 0.47062147868881782 0.80650323854033878 0 0.42893012659725649 0.81084715169569632 0 0.44651949253391748 0.77225997208621999 0 0.47062147868881782 0.80650323854033878 0 0.42893012659725649 0.81084715169569632 0 0.47062147868881782 0.80650323854033878 0 0.46181179062043481 0.83858979842637782 0 0.42893012659725649 0.81084715169569632 0 0.46181179062043481 0.83858979842637782 0 0.42880856207355889 0.86677159981903118 0 0.46181179062043481 0.83858979842637782 0 0.5 0.85294117647058831 0 0.5 0.82352941176470584 0 0.47062147868881782 0.80650323854033878 0 0.46181179062043481 0.83858979842637782 0 0.5 0.82352941176470584 0 0.46181179062043481 0.83858979842637782 0 0.47032448519202857 0.86718057681700655 0 0.5 0.85294117647058831 0 0.47032448519202857 0.86718057681700655 0 0.5 0.88235294117647056 0 0.5 0.85294117647058831 0 0.46181179062043481 0.83858979842637782 0 0.47032448519202857 0.86718057681700655 0 0.42880856207355889 0.86677159981903118 0 0.36493375430404612 0.82333914183704071 0 0.42880856207355889 0.86677159981903118 0 0.37746652222901839 0.8987532801416368 0 0.36493375430404612 0.82333914183704071 0 0.42893012659725649 0.81084715169569632 0 0.42880856207355889 0.86677159981903118 0 0.37746652222901839 0.8987532801416368 0 0.42822627495986648 0.92083108049218854 0 0.39382242252278338 0.95440420122950598 0 0.42880856207355889 0.86677159981903118 0 0.37746652222901839 0.8987532801416368 0 0.42822627495986648 0.92083108049218854 0 0.47032448519202857 0.86718057681700655 0 0.42880856207355889 0.86677159981903118 0 0.46100207326614928 0.89524736819256467 0 0.42880856207355889 0.86677159981903118 0 0.42822627495986648 0.92083108049218854 0 0.46100207326614928 0.89524736819256467 0 0.47032448519202857 0.86718057681700655 0 0.46100207326614928 0.89524736819256467 0 0.5 0.88235294117647056 0 0.46100207326614928 0.89524736819256467 0 0.5 0.91176470588235292 0 0.5 0.88235294117647056 0 0.46100207326614928 0.89524736819256467 0 0.46949408183482899 0.92833826413560594 0 0.5 0.91176470588235292 0 0.46949408183482899 0.92833826413560594 0 0.5 0.94117647058823528 0 0.5 0.91176470588235292 0 0.42822627495986648 0.92083108049218854 0 0.46100207326614928 0.89524736819256467 0 0.46949408183482899 0.92833826413560594 0 0.46949408183482899 0.92833826413560594 0 0.44768478605684647 0.9646709673379662 0 0.47596308696979028 0.95620709615192379 0 0.42822627495986648 0.92083108049218854 0 0.46949408183482899 0.92833826413560594 0 0.44768478605684647 0.9646709673379662 0 0.44768478605684647 0.9646709673379662 0 0.47596308696979028 0.95620709615192379 0 0.47818194888216242 0.97829325975680159 0 0.46949408183482899 0.92833826413560594 0 0.47596308696979028 0.95620709615192379 0 0.5 0.94117647058823528 0 0.47596308696979028 0.95620709615192379 0 0.47818194888216242 0.97829325975680159 0 0.5 0.97058823529411764 0 0.47596308696979028 0.95620709615192379 0 0.5 0.97058823529411764 0 0.5 0.94117647058823528 0 0.47818194888216242 0.97829325975680159 0 0.46726187138417491 1 0 0.5 1 0 0.47818194888216242 0.97829325975680159 0 0.5 0.97058823529411764 0 0.5 1 0 0.44768478605684647 0.9646709673379662 0 0.47818194888216242 0.97829325975680159 0 0.46726187138417491 1 0 0.44768478605684647 0.9646709673379662 0 0.46726187138417491 1 0 0.42231823435723009 1 0 0.44768478605684647 0.9646709673379662 0 0.42231823435723009 1 0 0.39382242252278338 0.95440420122950598 0 0.42822627495986648 0.92083108049218854 0 0.44768478605684647 0.9646709673379662 0 0.39382242252278338 0.95440420122950598 0 0.36061858902161292 1 0 0.42231823435723009 1 0 0.39382242252278338 0.95440420122950598 0 0.31771010312359771 0.58585679504088894 0 0.3872154068451229 0.6301386882447304 0 0.41980724897053312 0.55867199730355355 0 0.32540781287085369 0.49175159894608172 0 0.31771010312359771 0.58585679504088894 0 0.41980724897053312 0.55867199730355355 0 0.32540781287085369 0.49175159894608172 0 0.22453074737734591 0.51613635929252633 0 0.31771010312359771 0.58585679504088894 0 0.18442368612951149 0.62734948407416979 0 0.31771010312359771 0.58585679504088894 0 0.31346558946927339 0.67110784456164874 0 0.22727208279115291 0.72949159435386135 0 0.32984265945580837 0.74432890077789404 0 0.31346558946927339 0.67110784456164874 0 0.39746869305290999 0.7595658224757349 0 0.32984265945580837 0.74432890077789404 0 0.38513711431054509 0.69312683393047636 0 0.32984265945580837 0.74432890077789404 0 0.31346558946927339 0.67110784456164874 0 0.38513711431054509 0.69312683393047636 0 0.31771010312359771 0.58585679504088894 0 0.31346558946927339 0.67110784456164874 0 0.3872154068451229 0.6301386882447304 0 0.31346558946927339 0.67110784456164874 0 0.3872154068451229 0.6301386882447304 0 0.38513711431054509 0.69312683393047636 0 0.3872154068451229 0.6301386882447304 0 0.38513711431054509 0.69312683393047636 0 0.4390556798454946 0.66199025953586599 0 0.3872154068451229 0.6301386882447304 0 0.4390556798454946 0.66199025953586599 0 0.44702869549010399 0.61002701911053991 0 0.39746869305290999 0.7595658224757349 0 0.38513711431054509 0.69312683393047636 0 0.43412357948152142 0.72128778687215156 0 0.38513711431054509 0.69312683393047636 0 0.43412357948152142 0.72128778687215156 0 0.4390556798454946 0.66199025953586599 0 0.43412357948152142 0.72128778687215156 0 0.47636314644728822 0.72058823529411908 0 0.47220206448452873 0.74892462649306213 0 0.44651949253391748 0.77225997208621999 0 0.43412357948152142 0.72128778687215156 0 0.47220206448452873 0.74892462649306213 0 0.43412357948152142 0.72128778687215156 0 0.46330219403010409 0.69594601192744354 0 0.4390556798454946 0.66199025953586599 0 0.43412357948152142 0.72128778687215156 0 0.46330219403010409 0.69594601192744354 0 0.47636314644728822 0.72058823529411908 0 0.46330219403010409 0.69594601192744354 0 0.47636314644728822 0.72058823529411908 0 0.5 0.70588235294117663 0 0.46330219403010409 0.69594601192744354 0 0.5 0.67647058823529438 0 0.5 0.70588235294117663 0 0.47636314644728822 0.72058823529411908 0 0.5 0.73529411764705888 0 0.5 0.70588235294117663 0 0.47220206448452873 0.74892462649306213 0 0.5 0.73529411764705888 0 0.5 0.76470588235294124 0 0.47636314644728822 0.72058823529411908 0 0.47220206448452873 0.74892462649306213 0 0.5 0.73529411764705888 0 0.4390556798454946 0.66199025953586599 0 0.47501372853621993 0.66300743809067952 0 0.47271076880550111 0.63357150722538136 0 0.4390556798454946 0.66199025953586599 0 0.47271076880550111 0.63357150722538136 0 0.44702869549010399 0.61002701911053991 0 0.46330219403010409 0.69594601192744354 0 0.4390556798454946 0.66199025953586599 0 0.47501372853621993 0.66300743809067952 0 0.46330219403010409 0.69594601192744354 0 0.47501372853621993 0.66300743809067952 0 0.5 0.67647058823529438 0 0.47501372853621993 0.66300743809067952 0 0.5 0.64705882352941191 0 0.5 0.67647058823529438 0 0.47501372853621993 0.66300743809067952 0 0.47271076880550111 0.63357150722538136 0 0.5 0.64705882352941191 0 0.47271076880550111 0.63357150722538136 0 0.5 0.61764705882352966 0 0.5 0.64705882352941191 0 0.47784843225772261 0.60532339797118362 0 0.5 0.5882352941176473 0 0.5 0.61764705882352966 0 0.47271076880550111 0.63357150722538136 0 0.47784843225772261 0.60532339797118362 0 0.5 0.61764705882352966 0 0.46950269699300751 0.57713611057881953 0 0.5 0.55882352941176494 0 0.5 0.5882352941176473 0 0.47784843225772261 0.60532339797118362 0 0.46950269699300751 0.57713611057881953 0 0.5 0.5882352941176473 0 0.46950269699300751 0.57713611057881953 0 0.44702869549010399 0.61002701911053991 0 0.41980724897053312 0.55867199730355355 0 0.47784843225772261 0.60532339797118362 0 0.46950269699300751 0.57713611057881953 0 0.44702869549010399 0.61002701911053991 0 0.47271076880550111 0.63357150722538136 0 0.47784843225772261 0.60532339797118362 0 0.44702869549010399 0.61002701911053991 0 0.3872154068451229 0.6301386882447304 0 0.44702869549010399 0.61002701911053991 0 0.41980724897053312 0.55867199730355355 0 0.41576443813007791 0.48093483781626972 0 0.32540781287085369 0.49175159894608172 0 0.41980724897053312 0.55867199730355355 0 0.41576443813007791 0.48093483781626972 0 0.41980724897053312 0.55867199730355355 0 0.4638583922372429 0.51470588235294135 0 0.41980724897053312 0.55867199730355355 0 0.4638583922372429 0.51470588235294135 0 0.47063366764015668 0.5477498568705923 0 0.46950269699300751 0.57713611057881953 0 0.41980724897053312 0.55867199730355355 0 0.47063366764015668 0.5477498568705923 0 0.46950269699300751 0.57713611057881953 0 0.47063366764015668 0.5477498568705923 0 0.5 0.55882352941176494 0 0.47063366764015668 0.5477498568705923 0 0.5 0.52941176470588269 0 0.5 0.55882352941176494 0 0.4638583922372429 0.51470588235294135 0 0.47063366764015668 0.5477498568705923 0 0.5 0.52941176470588269 0 0.4638583922372429 0.51470588235294135 0 0.5 0.5 0 0.5 0.52941176470588269 0 0.5 0.52941176470588269 0 0.52629893369322589 0.51330452493555312 0 0.52820848765230954 0.54540076010342464 0 0.5 0.5 0 0.5 0.52941176470588269 0 0.52629893369322589 0.51330452493555312 0 0.5 0.5 0 0.5 0.52941176470588269 0 0.5 0.52941176470588269 0 0.5 0.55882352941176494 0 0.52820848765230954 0.54540076010342464 0 0.5 0.52941176470588269 0 0.5 0.55882352941176494 0 0.5 0.55882352941176494 0 0.52820848765230954 0.54540076010342464 0 0.52246722155046366 0.57417151085839346 0 0.52820848765230954 0.54540076010342464 0 0.56199650931215228 0.51957997397013023 0 0.55931585964581554 0.57571189932143541 0 0.52629893369322589 0.51330452493555312 0 0.56199650931215228 0.51957997397013023 0 0.54128967150166729 0.47213012589832831 0 0.52629893369322589 0.51330452493555312 0 0.52820848765230954 0.54540076010342464 0 0.56199650931215228 0.51957997397013023 0 0.56199650931215228 0.51957997397013023 0 0.61174067805461174 0.54148194547208961 0 0.60345082206666756 0.47575908627627911 0 0.56199650931215228 0.51957997397013023 0 0.61174067805461174 0.54148194547208961 0 0.55931585964581554 0.57571189932143541 0 0.61174067805461174 0.54148194547208961 0 0.61264973759093866 0.60999664295093947 0 0.55931585964581554 0.57571189932143541 0 0.61264973759093866 0.60999664295093947 0 0.55931585964581554 0.57571189932143541 0 0.55828304378107996 0.63546085023637511 0 0.55931585964581554 0.57571189932143541 0 0.52754891270107895 0.60396918438229519 0 0.55828304378107996 0.63546085023637511 0 0.52754891270107895 0.60396918438229519 0 0.52222323737415433 0.63323059203007803 0 0.55828304378107996 0.63546085023637511 0 0.52820848765230954 0.54540076010342464 0 0.55931585964581554 0.57571189932143541 0 0.52246722155046366 0.57417151085839346 0 0.55931585964581554 0.57571189932143541 0 0.52246722155046366 0.57417151085839346 0 0.52754891270107895 0.60396918438229519 0 0.52246722155046366 0.57417151085839346 0 0.5 0.5882352941176473 0 0.52754891270107895 0.60396918438229519 0 0.5 0.55882352941176494 0 0.52246722155046366 0.57417151085839346 0 0.5 0.5882352941176473 0 0.5 0.55882352941176494 0 0.5 0.5882352941176473 0 0.52754891270107895 0.60396918438229519 0 0.5 0.61764705882352966 0 0.52222323737415433 0.63323059203007803 0 0.5 0.5882352941176473 0 0.5 0.61764705882352966 0 0.5 0.5882352941176473 0 0.52754891270107895 0.60396918438229519 0 0.5 0.61764705882352966 0 0.5 0.61764705882352966 0 0.52222323737415433 0.63323059203007803 0 0.5 0.64705882352941191 0 0.5 0.61764705882352966 0 0.5 0.64705882352941191 0 0.52222323737415433 0.63323059203007803 0 0.5 0.64705882352941191 0 0.52736180768426655 0.66304505109048573 0 0.5 0.64705882352941191 0 0.5 0.67647058823529438 0 0.52736180768426655 0.66304505109048573 0 0.5 0.64705882352941191 0 0.5 0.67647058823529438 0 0.5 0.67647058823529438 0 0.52736180768426655 0.66304505109048573 0 0.52189318962165776 0.69193883095305098 0 0.52736180768426655 0.66304505109048573 0 0.52189318962165776 0.69193883095305098 0 0.55852327729743823 0.69498827241231187 0 0.52736180768426655 0.66304505109048573 0 0.55828304378107996 0.63546085023637511 0 0.55852327729743823 0.69498827241231187 0 0.52222323737415433 0.63323059203007803 0 0.52736180768426655 0.66304505109048573 0 0.55828304378107996 0.63546085023637511 0 0.5 0.73529411764705888 0 0.52547133540542634 0.72058823529411897 0 0.5211984712236245 0.75134107022269114 0 0.5 0.73529411764705888 0 0.52547133540542634 0.72058823529411897 0 0.5 0.70588235294117663 0 0.5 0.73529411764705888 0 0.5 0.70588235294117663 0 0.52547133540542634 0.72058823529411897 0 0.5 0.70588235294117663 0 0.52189318962165776 0.69193883095305098 0 0.5 0.67647058823529438 0 0.5 0.70588235294117663 0 0.52189318962165776 0.69193883095305098 0 0.5 0.67647058823529438 0 0.5 0.70588235294117663 0 0.52547133540542634 0.72058823529411897 0 0.52189318962165776 0.69193883095305098 0 0.55852327729743823 0.69498827241231187 0 0.52547133540542634 0.72058823529411897 0 0.5211984712236245 0.75134107022269114 0 0.55458114032207428 0.75544804615062711 0 0.52547133540542634 0.72058823529411897 0 0.55852327729743823 0.69498827241231187 0 0.55458114032207428 0.75544804615062711 0 0.55852327729743823 0.69498827241231187 0 0.6088970477846376 0.72715446211577472 0 0.55458114032207428 0.75544804615062711 0 0.55852327729743823 0.69498827241231187 0 0.6088970477846376 0.72715446211577472 0 0.60110770968787908 0.67045598539422102 0 0.61264973759093866 0.60999664295093947 0 0.55828304378107996 0.63546085023637511 0 0.60110770968787908 0.67045598539422102 0 0.55828304378107996 0.63546085023637511 0 0.55852327729743823 0.69498827241231187 0 0.60110770968787908 0.67045598539422102 0 0.61264973759093866 0.60999664295093947 0 0.60110770968787908 0.67045598539422102 0 0.66621429167335955 0.68470300534742679 0 0.6088970477846376 0.72715446211577472 0 0.66621429167335955 0.68470300534742679 0 0.6817340940367822 0.76923101696744944 0 0.6088970477846376 0.72715446211577472 0 0.60110770968787908 0.67045598539422102 0 0.66621429167335955 0.68470300534742679 0 0.66621429167335955 0.68470300534742679 0 0.6817340940367822 0.76923101696744944 0 0.7828103453665094 0.69876044407634474 0 0.66621429167335955 0.68470300534742679 0 0.69354174170208815 0.57892485983477626 0 0.7828103453665094 0.69876044407634474 0 0.69354174170208815 0.57892485983477626 0 0.77935529174931761 0.49004815756283893 0 0.66681557370681976 0.49435464945626773 0 0.61174067805461174 0.54148194547208961 0 0.69354174170208815 0.57892485983477626 0 0.66681557370681976 0.49435464945626773 0 0.61174067805461174 0.54148194547208961 0 0.60345082206666756 0.47575908627627911 0 0.66681557370681976 0.49435464945626773 0 0.61174067805461174 0.54148194547208961 0 0.61264973759093866 0.60999664295093947 0 0.69354174170208815 0.57892485983477626 0 0.61264973759093866 0.60999664295093947 0 0.66621429167335955 0.68470300534742679 0 0.69354174170208815 0.57892485983477626 0 0.60145933092659498 0.94808652648958736 0 0.57768176564240026 1 0 0.63938141097836054 1 0 0.60145933092659498 0.94808652648958736 0 0.55381003699196441 0.97073734537240042 0 0.55652711631508067 0.93435010280744335 0 0.60145933092659498 0.94808652648958736 0 0.57768176564240026 1 0 0.55381003699196441 0.97073734537240042 0 0.57768176564240026 1 0 0.53273812861558045 1 0 0.55381003699196441 0.97073734537240042 0 0.53273812861558045 1 0 0.55381003699196441 0.97073734537240042 0 0.52191028766292435 0.97912620202886635 0 0.53273812861558045 1 0 0.52191028766292435 0.97912620202886635 0 0.5 1 0 0.52191028766292435 0.97912620202886635 0 0.5 0.97058823529411764 0 0.5 1 0 0.5 0.97058823529411764 0 0.5 1 0 0.5 0.97058823529411764 0 0.5 0.94117647058823528 0 0.5 0.97058823529411764 0 0.5 0.94117647058823528 0 0.52554900427979434 0.95492408164812537 0 0.52191028766292435 0.97912620202886635 0 0.5 0.97058823529411764 0 0.52554900427979434 0.95492408164812537 0 0.5 0.94117647058823528 0 0.52554900427979434 0.95492408164812537 0 0.52149395742518578 0.9280464911497236 0 0.55381003699196441 0.97073734537240042 0 0.52554900427979434 0.95492408164812537 0 0.55652711631508067 0.93435010280744335 0 0.55381003699196441 0.97073734537240042 0 0.52191028766292435 0.97912620202886635 0 0.52554900427979434 0.95492408164812537 0 0.52554900427979434 0.95492408164812537 0 0.55652711631508067 0.93435010280744335 0 0.52149395742518578 0.9280464911497236 0 0.55652711631508067 0.93435010280744335 0 0.52982914238326484 0.89727189043838895 0 0.57507719038536997 0.89743529736491356 0 0.55652711631508067 0.93435010280744335 0 0.52149395742518578 0.9280464911497236 0 0.52982914238326484 0.89727189043838895 0 0.52149395742518578 0.9280464911497236 0 0.5 0.91176470588235292 0 0.52982914238326484 0.89727189043838895 0 0.5 0.94117647058823528 0 0.5 0.91176470588235292 0 0.5 0.94117647058823528 0 0.52149395742518578 0.9280464911497236 0 0.5 0.91176470588235292 0 0.5 0.91176470588235292 0 0.5 0.88235294117647056 0 0.52982914238326484 0.89727189043838895 0 0.5 0.91176470588235292 0 0.5 0.88235294117647056 0 0.5 0.88235294117647056 0 0.52982914238326484 0.89727189043838895 0 0.51991574276818808 0.86764705882352966 0 0.52982914238326484 0.89727189043838895 0 0.57507719038536997 0.89743529736491356 0 0.54799184932697576 0.8599032232094268 0 0.60145933092659498 0.94808652648958736 0 0.55652711631508067 0.93435010280744335 0 0.57507719038536997 0.89743529736491356 0 0.60145933092659498 0.94808652648958736 0 0.57507719038536997 0.89743529736491356 0 0.63427031498547037 0.88927276979110648 0 0.57507719038536997 0.89743529736491356 0 0.58994607995897996 0.84812355238296233 0 0.63427031498547037 0.88927276979110648 0 0.58994607995897996 0.84812355238296233 0 0.64153141236229239 0.83072478436463804 0 0.63427031498547037 0.88927276979110648 0 0.58994607995897996 0.84812355238296233 0 0.60049020024666178 0.78900583008989877 0 0.64153141236229239 0.83072478436463804 0 0.58994607995897996 0.84812355238296233 0 0.54799184932697576 0.8599032232094268 0 0.55206941203846505 0.81091931303809783 0 0.58994607995897996 0.84812355238296233 0 0.55206941203846505 0.81091931303809783 0 0.60049020024666178 0.78900583008989877 0 0.57507719038536997 0.89743529736491356 0 0.58994607995897996 0.84812355238296233 0 0.54799184932697576 0.8599032232094268 0 0.52982914238326484 0.89727189043838895 0 0.54799184932697576 0.8599032232094268 0 0.51991574276818808 0.86764705882352966 0 0.54799184932697576 0.8599032232094268 0 0.51991574276818808 0.86764705882352966 0 0.52395085592512047 0.83729395211968571 0 0.51991574276818808 0.86764705882352966 0 0.5 0.85294117647058831 0 0.52395085592512047 0.83729395211968571 0 0.5 0.88235294117647056 0 0.5 0.85294117647058831 0 0.5 0.88235294117647056 0 0.51991574276818808 0.86764705882352966 0 0.5 0.85294117647058831 0 0.5 0.82352941176470584 0 0.52395085592512047 0.83729395211968571 0 0.52039202967084142 0.80930587873000437 0 0.5 0.85294117647058831 0 0.5 0.82352941176470584 0 0.5 0.85294117647058831 0 0.5 0.82352941176470584 0 0.52395085592512047 0.83729395211968571 0 0.52395085592512047 0.83729395211968571 0 0.55206941203846505 0.81091931303809783 0 0.52039202967084142 0.80930587873000437 0 0.54799184932697576 0.8599032232094268 0 0.52395085592512047 0.83729395211968571 0 0.55206941203846505 0.81091931303809783 0 0.55206941203846505 0.81091931303809783 0 0.52039202967084142 0.80930587873000437 0 0.52593988039062167 0.78066906966870908 0 0.55206941203846505 0.81091931303809783 0 0.52593988039062167 0.78066906966870908 0 0.55458114032207428 0.75544804615062711 0 0.52039202967084142 0.80930587873000437 0 0.5 0.79411764705882359 0 0.52593988039062167 0.78066906966870908 0 0.5 0.82352941176470584 0 0.5 0.79411764705882359 0 0.5 0.82352941176470584 0 0.52039202967084142 0.80930587873000437 0 0.5 0.79411764705882359 0 0.5 0.73529411764705888 0 0.5 0.76470588235294124 0 0.5 0.73529411764705888 0 0.5 0.76470588235294124 0 0.5211984712236245 0.75134107022269114 0 0.5 0.79411764705882359 0 0.5 0.76470588235294124 0 0.52593988039062167 0.78066906966870908 0 0.5 0.79411764705882359 0 0.5 0.76470588235294124 0 0.5 0.76470588235294124 0 0.52593988039062167 0.78066906966870908 0 0.5211984712236245 0.75134107022269114 0 0.52593988039062167 0.78066906966870908 0 0.5211984712236245 0.75134107022269114 0 0.55458114032207428 0.75544804615062711 0 0.6088970477846376 0.72715446211577472 0 0.55458114032207428 0.75544804615062711 0 0.60049020024666178 0.78900583008989877 0 0.55206941203846505 0.81091931303809783 0 0.55458114032207428 0.75544804615062711 0 0.60049020024666178 0.78900583008989877 0 0.6817340940367822 0.76923101696744944 0 0.70916369539323409 0.86041409043207073 0 0.80987878298654392 0.8110307373443908 0 0.6088970477846376 0.72715446211577472 0 0.60049020024666178 0.78900583008989877 0 0.6817340940367822 0.76923101696744944 0 0.60049020024666178 0.78900583008989877 0 0.6817340940367822 0.76923101696744944 0 0.64153141236229239 0.83072478436463804 0 0.70916369539323409 0.86041409043207073 0 0.64153141236229239 0.83072478436463804 0 0.63427031498547037 0.88927276979110648 0 0.6817340940367822 0.76923101696744944 0 0.70916369539323409 0.86041409043207073 0 0.64153141236229239 0.83072478436463804 0 0.70916369539323409 0.86041409043207073 0 0.68173274398262862 0.93660593960145366 0 0.63427031498547037 0.88927276979110648 0 0.60145933092659498 0.94808652648958736 0 0.68173274398262862 0.93660593960145366 0 0.63427031498547037 0.88927276979110648 0 0.70916369539323409 0.86041409043207073 0 0.68173274398262862 0.93660593960145366 0 0.78222494485339233 0.91531439423588867 0 0.68173274398262862 0.93660593960145366 0 0.72408407698689681 1 0 0.78222494485339233 0.91531439423588867 0 0.60145933092659498 0.94808652648958736 0 0.68173274398262862 0.93660593960145366 0 0.63938141097836054 1 0 0.68173274398262862 0.93660593960145366 0 0.72408407698689681 1 0 0.63938141097836054 1 0 1 1 0 0.89611933618281592 0.89173516444576184 0 1 0.74999999999934008 0 0.72408407698689681 1 0 0.84036581271988753 1 0 0.78222494485339233 0.91531439423588867 0 0.84036581271988753 1 0 0.78222494485339233 0.91531439423588867 0 0.89611933618281592 0.89173516444576184 0 0.6817340940367822 0.76923101696744944 0 0.80987878298654392 0.8110307373443908 0 0.7828103453665094 0.69876044407634474 0 0.80987878298654392 0.8110307373443908 0 0.7828103453665094 0.69876044407634474 0 1 0.74999999999934008 0 0.78222494485339233 0.91531439423588867 0 0.80987878298654392 0.8110307373443908 0 0.89611933618281592 0.89173516444576184 0 0.70916369539323409 0.86041409043207073 0 0.78222494485339233 0.91531439423588867 0 0.80987878298654392 0.8110307373443908 0 0.80987878298654392 0.8110307373443908 0 0.89611933618281592 0.89173516444576184 0 1 0.74999999999934008 0 0.84036581271988753 1 0 1 1 0 0.89611933618281592 0.89173516444576184 0 0.84549316180028322 0.59867304496468476 0 1 0.74999999999934008 0 1 0.49999999999869182 0 0.69354174170208815 0.57892485983477626 0 0.84549316180028322 0.59867304496468476 0 0.77935529174931761 0.49004815756283893 0 0.84549316180028322 0.59867304496468476 0 1 0.49999999999869182 0 0.77935529174931761 0.49004815756283893 0 0.69354174170208815 0.57892485983477626 0 0.84549316180028322 0.59867304496468476 0 0.7828103453665094 0.69876044407634474 0 0.84549316180028322 0.59867304496468476 0 0.7828103453665094 0.69876044407634474 0 1 0.74999999999934008 0 1 0.49999999999869182 0 0.77935529174931761 0.49004815756283893 0 0.80451351819826811 0.35479918680564199 0 0.80451351819826811 0.35479918680564199 0 1 0.24999999999941089 0 0.79923457477009219 0.1751534052300894 0 1 0.49999999999869182 0 0.80451351819826811 0.35479918680564199 0 1 0.24999999999941089 0 1 0 0 0.79923457477009219 0.1751534052300894 0 0.74999999999934008 0 0 1 0.24999999999941089 0 1 0 0 0.79923457477009219 0.1751534052300894 0 0.49999999999869182 0 0 0.62537763927714929 0.14286513648320209 0 0.74999999999934008 0 0 0.79923457477009219 0.1751534052300894 0 0.62537763927714929 0.14286513648320209 0 0.6197279975813802 0.30020319976287241 0 0.79923457477009219 0.1751534052300894 0 0.62537763927714929 0.14286513648320209 0 0.74999999999934008 0 0 0.49924741621175961 0.21507969613896921 0 0.49999999999869182 0 0 0.62537763927714929 0.14286513648320209 0 0.49924741621175961 0.21507969613896921 0 0.62537763927714929 0.14286513648320209 0 0.6197279975813802 0.30020319976287241 0 0.49924741621175961 0.21507969613896921 0 0.49435464945626773 0.33318442629318029 0 0.6197279975813802 0.30020319976287241 0 0.49435464945626773 0.33318442629318029 0 0.6197279975813802 0.30020319976287241 0 0.54876010062294855 0.39662628167175101 0 0.6197279975813802 0.30020319976287241 0 0.54876010062294855 0.39662628167175101 0 0.66576775508844777 0.41353720431697111 0 0.49954900152271581 0.45107191084564019 0 0.45418244162583959 0.41624787166862259 0 0.54876010062294855 0.39662628167175101 0 0.49954900152271581 0.45107191084564019 0 0.54876010062294855 0.39662628167175101 0 0.54128967150166729 0.47213012589832831 0 0.49954900152271581 0.45107191084564019 0 0.5 0.5 0 0.54128967150166729 0.47213012589832831 0 0.5 0.5 0 0.52629893369322589 0.51330452493555312 0 0.54128967150166729 0.47213012589832831 0 0.54876010062294855 0.39662628167175101 0 0.54128967150166729 0.47213012589832831 0 0.60345082206666756 0.47575908627627911 0 0.56199650931215228 0.51957997397013023 0 0.54128967150166729 0.47213012589832831 0 0.60345082206666756 0.47575908627627911 0 0.54876010062294855 0.39662628167175101 0 0.60345082206666756 0.47575908627627911 0 0.66576775508844777 0.41353720431697111 0 0.77935529174931761 0.49004815756283893 0 0.80451351819826811 0.35479918680564199 0 0.66576775508844777 0.41353720431697111 0 0.60345082206666756 0.47575908627627911 0 0.66576775508844777 0.41353720431697111 0 0.66681557370681976 0.49435464945626773 0 0.77935529174931761 0.49004815756283893 0 0.66576775508844777 0.41353720431697111 0 0.66681557370681976 0.49435464945626773 0 0.80451351819826811 0.35479918680564199 0 0.79923457477009219 0.1751534052300894 0 0.6197279975813802 0.30020319976287241 0 0.80451351819826811 0.35479918680564199 0 0.6197279975813802 0.30020319976287241 0 0.66576775508844777 0.41353720431697111 0 
</DataArray>
</Points>
<Cells>
<DataArray type="UInt32" Name="connectivity" format="ascii">
0 1 2 3 4 5 6 7 8 9 10 11 12 13 14 15 16 17 18 19 20 21 22 23 24 25 26 27 28 29 30 31 32 33 34 35 36 37 38 39 40 41 42 43 44 45 46 47 48 49 50 51 52 53 54 55 56 57 58 59 60 61 62 63 64 65 66 67 68 69 70 71 72 73 74 75 76 77 78 79 80 81 82 83 84 85 86 87 88 89 90 91 92 93 94 95 96 97 98 99 100 101 102 103 104 105 106 107 108 109 110 111 112 113 114 115 116 117 118 119 120 121 122 123 124 125 126 127 128 129 130 131 132 133 134 135 136 137 138 139 140 141 142 143 144 145 146 147 148 149 150 151 152 153 154 155 156 157 158 159 160 161 162 163 164 165 166 167 168 169 170 171 172 173 174 175 176 177 178 179 180 181 182 183 184 185 186 187 188 189 190 191 192 193 194 195 196 197 198 199 200 201 202 203 204 205 206 207 208 209 210 211 212 213 214 215 216 217 218 219 220 221 222 223 224 225 226 227 228 229 230 231 232 233 234 235 236 237 238 239 240 241 242 243 244 245 246 247 248 249 250 251 252 253 254 255 256 257 258 259 260 261 262 263 264 265 266 267 268 269 270 271 272 273 274 275 276 277 278 279 280 281 282 283 284 285 286 287 288 289 290 291 292 293 294 295 296 297 298 299 300 301 302 303 304 305 306 307 308 309 310 311 312 313 314 315 316 317 318 319 320 321 322 323 324 325 326 327 328 329 330 331 332 333 334 335 336 337 338 339 340 341 342 343 344 345 346 347 348 349 350 351 352 353 354 355 356 357 358 359 360 361 362 363 364 365 366 367 368 369 370 371 372 373 374 375 376 377 378 379 380 381 382 383 384 385 386 387 388 389 390 391 392 393 394 395 396 397 398 399 400 401 402 403 404 405 406 407 408 409 410 411 412 413 414 415 416 417 418 419 420 421 422 423 424 425 426 427 428 429 430 431 432 433 434 435 436 437 438 439 440 441 442 443 444 445 446 447 448 449 450 451 452 453 454 455 456 457 458 459 460 461 462 463 464 465 466 467 468 469 470 471 472 473 474 475 476 477 478 479 480 481 482 483 484 485 486 487 488 489 490 491 492 493 494 495 496 497 498 499 500 501 502 503 504 505 506 507 508 509 510 511 512 513 514 515 516 517 518 519 520 521 522 523 524 525 526 527 528 529 530 531 532 533 534 535 536 537 538 539 540 541 542 543 544 545 546 547 548 549 550 551 552 553 554 555 556 557 558 559 560 561 562 563 564 565 566 567 568 569 570 571 572 573 574 575 576 577 578 579 580 581 582 583 584 585 586 587 588 589 590 591 592 593 594 595 596 597 598 599 600 601 602 603 604 605 606 607 608 609 610 611 612 613 614 615 616 617 618 619 620 621 622 623 624 625 626 627 628 629 630 631 632 633 634 635 636 637 638 639 640 641 642 643 644 645 646 647 648 649 650 651 652 653 654 655 656 657 658 659 660 661 662 663 664 665 666 667 668 669 670 671 672 673 674 675 676 677 678 679 680 681 682 683 684 685 686 687 688 689 690 691 692 693 694 695 696 697 698 699 700 701 702 703 704 705 706 707 708 709 710 711 712 713 714 715 716 717 718 719 720 721 722 723 724 725 726 727 728 729 730 731 732 733 734 735 736 737 738 739 740 741 742 743 744 745 746 747 748 749 750 751 752 753 754 755 756 757 758 759 760 761 762 763 764 765 766 767 768 769 770 771 772 773 774 775 776 777 778 779 780 781 782 783 784 785 786 787 788 789 790 791 792 793 794 795 796 797 798 799 800 801 802 803 804 805 806 807 808 809 810 811 812 813 814 815 816 817 818 819 820 821 822 823 824 825 826 827 828 829 830 831 832 833 834 835 836 837 838 839 840 841 842 843 844 845 846 847 848 849 850 851 852 853 854 855 856 857 858 859 860 861 862 863 864 865 866 867 868 869 870 871 872 873 874 875 876 877 878 879 
</DataArray>
<DataArray type="UInt32" Name="offsets" format="ascii">
3 6 9 12 15 18 21 24 27 30 33 36 39 42 45 48 51 54 57 60 63 66 69 72 75 78 81 84 87 90 93 96 99 102 105 108 111 114 117 120 123 126 129 132 135 138 141 144 147 150 153 156 159 162 165 168 171 174 177 180 183 186 189 192 195 198 201 204 207 210 213 216 219 222 225 228 231 234 237 240 243 246 249 252 255 258 261 264 267 270 273 276 279 282 285 288 291 294 297 300 303 306 309 312 315 318 321 324 327 330 333 336 339 342 345 348 351 354 357 360 363 366 369 372 375 378 381 384 387 390 393 396 399 402 405 408 411 414 417 420 423 425 428 430 433 436 439 442 445 448 451 454 457 460 463 466 469 472 474 477 479 482 485 487 490 493 495 498 501 504 507 510 513 515 518 521 523 526 529 532 535 538 541 544 547 550 553 556 559 562 565 568 571 574 577 580 583 586 589 592 595 597 599 602 605 608 611 614 617 620 623 626 628 631 634 636 639 642 645 648 651 654 657 660 663 666 669 672 675 677 680 683 685 688 691 694 697 700 703 705 708 710 713 716 718 721 724 727 730 733 736 739 742 745 748 751 754 757 760 763 766 769 772 775 778 781 784 787 790 793 796 799 802 805 808 811 814 817 820 823 826 829 832 835 838 841 844 847 850 853 856 859 862 865 868 871 874 877 880 
</DataArray>
<DataArray type="UInt32" Name="types" format="ascii">
5 5 5 5 5 5 5 5 5 5 5 5 5 5 5 5 5 5 5 5 5 5 5 5 5 5 5 5 5 5 5 5 5 5 5 5 5 5 5 5 5 5 5 5 5 5 5 5 5 5 5 5 5 5 5 5 5 5 5 5 5 5 5 5 5 5 5 5 5 5 5 5 5 5 5 5 5 5 5 5 5 5 5 5 5 5 5 5 5 5 5 5 5 5 5 5 5 5 5 5 5 5 5 5 5 5 5 5 5 5 5 5 5 5 5 5 5 5 5 5 5 5 5 5 5 5 5 5 5 5 5 5 5 5 5 5 5 5 5 5 5 3 5 3 5 5 5 5 5 5 5 5 5 5 5 5 5 5 3 5 3 5 5 3 5 5 3 5 5 5 5 5 5 3 5 5 3 5 5 5 5 5 5 5 5 5 5 5 5 5 5 5 5 5 5 5 5 5 5 5 5 3 3 5 5 5 5 5 5 5 5 5 3 5 5 3 5 5 5 5 5 5 5 5 5 5 5 5 5 3 5 5 3 5 5 5 5 5 5 3 5 3 5 5 3 5 5 5 5 5 5 5 5 5 5 5 5 5 5 5 5 5 5 5 5 5 5 5 5 5 5 5 5 5 5 5 5 5 5 5 5 5 5 5 5 5 5 5 5 5 5 5 5 5 5 5 5 5 5 
</DataArray>
</Cells>
<PointData Scalars="" Vectors="displacement," Tensors="">
<DataArray type="Float64" Name="displacement" NumberOfComponents="3" format="ascii">
-5.6469092251400215e-05 -2.7457442363605231e-05 0 -0.030989282965091128 -0.0080355350536892006 0 -3.4931826882654187e-05 3.3144988355520346e-06 0 -5.6469092251400215e-05 -2.7457442363605231e-05 0 -0.030989282965091125 -0.0080355350536891971 0 -0.049343950789367631 -0.023941708879520778 0 -0.049343950789367631 -0.023941708879520778 0 -0.062552784064661068 -0.016142441133838201 0 -0.093766298333498588 -0.030527231264670565 0 -0.030989282965091128 -0.0080355350536892006 0 -0.049343950789367631 -0.023941708879520778 0 -0.062552784064661068 -0.016142441133838198 0 -0.062552784064661068 -0.016142441133838198 0 -0.090033594500750103 -0.01723867533727497 0 -0.093766298333498588 -0.030527231264670565 0 -0.062552784064661068 -0.016142441133838198 0 -0.090033594500750103 -0.01723867533727497 0 -0.071090750140091225 -0.0095037342153902402 0 -0.064951256830487858 -0.0041247168511830863 0 -0.072045210449733499 -0.00063698517124976162 0 -0.079503112931368275 -0.0046787307413739335 0 -0.064951256830487858 -0.0041247168511830863 0 -0.079503112931368275 -0.0046787307413739335 0 -0.071090750140091225 -0.0095037342153902402 0 -0.072045210449733499 -0.00063698517124976162 0 -0.081529601999176193 -0.001163263105671298 0 -0.079503112931368275 -0.0046787307413739335 0 -0.072045210449733499 -0.00063698517124976162 0 -0.081529601999176207 -0.0011632631056712991 0 -0.081048762344691591 0.0011127678839444092 0 -0.081529601999176207 -0.0011632631056712982 0 -0.08803284502101337 -0.0029625665905667329 0 -0.087994630046426228 -7.4510342360657446e-05 0 -0.081529601999176207 -0.0011632631056712982 0 -0.081048762344691591 0.0011127678839444092 0 -0.087994630046426228 -7.4510342360657446e-05 0 -0.081529601999176207 -0.0011632631056712982 0 -0.08803284502101337 -0.0029625665905667329 0 -0.079503112931368275 -0.0046787307413739335 0 -0.079503112931368275 -0.0046787307413739335 0 -0.087791694736955153 -0.010012153899231274 0 -0.097621192444502555 -0.0066175140199677988 0 -0.079503112931368275 -0.0046787307413739335 0 -0.087791694736955153 -0.010012153899231274 0 -0.071090750140091225 -0.0095037342153902402 0 -0.090033594500750103 -0.01723867533727497 0 -0.087791694736955153 -0.010012153899231274 0 -0.071090750140091225 -0.0095037342153902402 0 -0.062552784064661068 -0.016142441133838198 0 -0.071090750140091225 -0.0095037342153902402 0 -0.049126950683147368 -0.0059151489669214269 0 -0.064951256830487858 -0.0041247168511830863 0 -0.071090750140091225 -0.0095037342153902402 0 -0.049126950683147368 -0.0059151489669214269 0 -0.030989282965091128 -0.0080355350536892006 0 -0.062552784064661068 -0.016142441133838198 0 -0.049126950683147368 -0.0059151489669214269 0 -0.049126950683147368 -0.0059151489669214269 0 -0.055199235953525293 -1.4373783857730119e-05 0 -0.02878849367116177 -0.0025886274654765415 0 -0.064951256830487858 -0.0041247168511830863 0 -0.049126950683147368 -0.0059151489669214269 0 -0.055199235953525293 -1.4373783857730119e-05 0 -0.064951256830487858 -0.0041247168511830863 0 -0.072045210449733499 -0.0006369851712497614 0 -0.055199235953525293 -1.4373783857730119e-05 0 -0.02878849367116177 -0.0025886274654765415 0 -3.4931826882654187e-05 3.3144988355520346e-06 0 -4.0401107952318927e-05 -1.1868185248518463e-06 0 -0.02878849367116177 -0.0025886274654765415 0 -4.0401107952318927e-05 -1.1868185248518463e-06 0 -0.037338751289003352 0.00094722663862483109 0 -0.055199235953525293 -1.4373783857730119e-05 0 -0.02878849367116177 -0.0025886274654765415 0 -0.037338751289003352 0.00094722663862483109 0 -0.030989282965091128 -0.0080355350536892006 0 -0.049126950683147368 -0.0059151489669214269 0 -0.02878849367116177 -0.0025886274654765415 0 -0.030989282965091128 -0.0080355350536892006 0 -0.02878849367116177 -0.0025886274654765415 0 -3.4931826882654187e-05 3.3144988355520346e-06 0 -4.0401107952318927e-05 -1.1868185248518463e-06 0 -0.029808100849199961 0.003983592461776782 0 -3.4764256121701106e-05 1.6459024918438068e-06 0 -0.029808100849199961 0.003983592461776782 0 -0.038449699683845845 0.0087759173761602811 0 -3.4764256121701106e-05 1.6459024918438068e-06 0 -0.029808100849199961 0.003983592461776782 0 -0.038449699683845845 0.0087759173761602811 0 -0.053578978447744313 0.0083988271815683743 0 -0.029808100849199961 0.003983592461776782 0 -0.037338751289003352 0.00094722663862483109 0 -0.053841754855092662 0.0044467959676623434 0 -4.0401107952318927e-05 -1.1868185248518463e-06 0 -0.029808100849199968 0.0039835924617767811 0 -0.037338751289003352 0.00094722663862483109 0 -5.6669872761756124e-05 1.991003648479084e-05 0 -0.016353406787407144 0.0074463576808259961 0 -3.4764256121701106e-05 1.6459024918438068e-06 0 -5.6669872761756124e-05 1.991003648479084e-05 0 -0.016353406787407144 0.0074463576808259969 0 -0.033857500376278937 0.019108703059191056 0 -0.016353406787407144 0.0074463576808259961 0 -3.4764256121701106e-05 1.6459024918438068e-06 0 -0.028004095286498998 0.0089119808682193973 0 -0.028004095286498998 0.0089119808682193973 0 -0.045058136163756674 0.019780939461127234 0 -0.047681038692874281 0.014156766562837594 0 -0.038449699683845845 0.0087759173761602811 0 -3.4764256121697643e-05 1.6459024918417926e-06 0 -0.028004095286498998 0.0089119808682193973 0 -0.038449699683845845 0.0087759173761602811 0 -0.028004095286498998 0.0089119808682193973 0 -0.047681038692874281 0.014156766562837594 0 -0.016353406787407144 0.0074463576808259961 0 -0.028004095286499001 0.0089119808682193991 0 -0.045058136163756674 0.019780939461127234 0 -0.016353406787407144 0.0074463576808259961 0 -0.045058136163756674 0.019780939461127234 0 -0.033857500376278937 0.019108703059191056 0 -0.045058136163756674 0.019780939461127234 0 -0.033857500376278937 0.019108703059191056 0 -0.054830026290293668 0.025759207146190378 0 -0.069658376086197071 0.028658245325843788 0 -0.061981193050957471 0.024228925173927288 0 -0.054830026290293668 0.025759207146190378 0 -0.069658376086197071 0.028658245325843788 0 -0.061981193050957471 0.024228925173927288 0 -0.074240006566640884 0.026855757766075981 0 -0.045058136163756674 0.019780939461127234 0 -0.061981193050957471 0.024228925173927288 0 -0.054830026290293668 0.025759207146190378 0 -0.045058136163756674 0.019780939461127234 0 -0.061981193050957471 0.024228925173927288 0 -0.058379875808191477 0.020208390158723537 0 -0.061981193050957471 0.024228925173927288 0 -0.069773049517103544 0.023065470081260753 0 -0.074240006566640884 0.026855757766075981 0 -0.061981193050957471 0.024228925173927288 0 -0.058379875808191477 0.020208390158723534 0 -0.069773049517103544 0.023065470081260753 0 -0.045058136163756674 0.019780939461127234 0 -0.058379875808191477 0.020208390158723537 0 -0.047681038692874281 0.014156766562837594 0 -0.058379875808191477 0.020208390158723537 0 -0.06562270085827332 0.018197905631892802 0 -0.069773049517103544 0.023065470081260753 0 -0.058379875808191477 0.020208390158723537 0 -0.06562270085827332 0.018197905631892802 0 -0.047681038692874281 0.014156766562837594 0 -0.038449699683845845 0.0087759173761602811 0 -0.047681038692874281 0.014156766562837594 0 -0.05763134000669061 0.012664274585367143 0 -0.06562270085827332 0.018197905631892802 0 -0.047681038692874281 0.014156766562837594 0 -0.05763134000669061 0.012664274585367143 0 -0.06562270085827332 0.018197905631892802 0 -0.070581351379461491 0.015118487555100178 0 -0.05763134000669061 0.012664274585367143 0 -0.06562270085827332 0.018197905631892802 0 -0.070581351379461491 0.015118487555100178 0 -0.077365990181769109 0.018880476245521777 0 -0.070581351379461491 0.015118487555100178 0 -0.077365990181769109 0.018880476245521777 0 -0.080015673660795511 0.016817021790305458 0 -0.070581351379461491 0.015118487555100178 0 -0.080015673660795511 0.016817021790305458 0 -0.076904778234945473 0.013458602008023035 0 -0.080015673660795511 0.016817021790305458 0 -0.086001655264877935 0.017662729611657151 0 -0.084502476483866856 0.015775955776334612 0 -0.086001655264877935 0.017662729611657151 0 -0.084502476483866856 0.015775955776334612 0 -0.089987010101409415 0.017196488082207955 0 -0.086001655264877935 0.017662729611657151 0 -0.09043204891624268 0.019093823280704112 0 -0.089987010101409415 0.017196488082207955 0 -0.085113581685612283 0.019392119874840279 0 -0.0909154561313361 0.020985939485614353 0 -0.09043204891624268 0.019093823280704112 0 -0.086001655264877935 0.017662729611657151 0 -0.085113581685612283 0.019392119874840279 0 -0.09043204891624268 0.019093823280704112 0 -0.080015673660795511 0.016817021790305458 0 -0.086001655264877921 0.017662729611657151 0 -0.085113581685612283 0.019392119874840279 0 -0.077365990181769109 0.018880476245521777 0 -0.080015673660795511 0.016817021790305458 0 -0.085113581685612283 0.019392119874840279 0 -0.077365990181769109 0.018880476245521777 0 -0.085113581685612269 0.019392119874840276 0 -0.084054410248386821 0.021256027897707155 0 -0.077365990181769109 0.018880476245521777 0 -0.084054410248386807 0.021256027897707152 0 -0.078492153924613589 0.022345477211404487 0 -0.084054410248386821 0.021256027897707155 0 -0.091432109917082185 0.022856708098185706 0 -0.0909154561313361 0.020985939485614353 0 -0.085113581685612283 0.019392119874840279 0 -0.084054410248386821 0.021256027897707155 0 -0.0909154561313361 0.020985939485614353 0 -0.084054410248386821 0.021256027897707155 0 -0.086193559048539509 0.023205887816477776 0 -0.091432109917082185 0.022856708098185706 0 -0.086193559048539509 0.023205887816477776 0 -0.091969605407769148 0.024712771030031441 0 -0.091432109917082185 0.022856708098185706 0 -0.084054410248386821 0.021256027897707155 0 -0.086193559048539509 0.023205887816477776 0 -0.078492153924613589 0.022345477211404487 0 -0.06562270085827332 0.018197905631892802 0 -0.078492153924613589 0.022345477211404487 0 -0.069773049517103544 0.023065470081260753 0 -0.06562270085827332 0.018197905631892802 0 -0.077365990181769109 0.018880476245521777 0 -0.078492153924613589 0.022345477211404487 0 -0.069773049517103544 0.023065470081260753 0 -0.079619297788942431 0.025645826429665137 0 -0.074240006566640884 0.026855757766075981 0 -0.078492153924613589 0.022345477211404487 0 -0.069773049517103544 0.023065470081260753 0 -0.079619297788942431 0.025645826429665137 0 -0.086193559048539509 0.023205887816477776 0 -0.078492153924613589 0.022345477211404487 0 -0.085046619396911993 0.024772775151285602 0 -0.078492153924613589 0.022345477211404487 0 -0.079619297788942431 0.02564582642966514 0 -0.085046619396911993 0.024772775151285602 0 -0.086193559048539509 0.023205887816477776 0 -0.085046619396911993 0.024772775151285602 0 -0.091969605407769148 0.024712771030031441 0 -0.085046619396911993 0.024772775151285602 0 -0.092518569837243173 0.026541817740376492 0 -0.091969605407769148 0.024712771030031441 0 -0.085046619396911993 0.024772775151285602 0 -0.087285072828494056 0.026971915767605395 0 -0.092518569837243173 0.026541817740376492 0 -0.087285072828494056 0.026971915767605395 0 -0.09307443624352249 0.028343406444539771 0 -0.092518569837243173 0.026541817740376492 0 -0.079619297788942431 0.025645826429665137 0 -0.085046619396911993 0.024772775151285602 0 -0.087285072828494056 0.026971915767605395 0 -0.087285072828494056 0.026971915767605395 0 -0.084148773258053478 0.028721408651657118 0 -0.089042691452322312 0.028786758180581275 0 -0.079619297788942431 0.025645826429665137 0 -0.087285072828494056 0.026971915767605395 0 -0.084148773258053491 0.028721408651657118 0 -0.084148773258053491 0.028721408651657118 0 -0.089042691452322312 0.028786758180581275 0 -0.089882605551810033 0.030154603802239718 0 -0.087285072828494056 0.026971915767605395 0 -0.089042691452322312 0.028786758180581275 0 -0.09307443624352249 0.028343406444539771 0 -0.089042691452322312 0.028786758180581275 0 -0.089882605551810033 0.030154603802239718 0 -0.09362684151449914 0.030110170378710575 0 -0.089042691452322312 0.028786758180581275 0 -0.09362684151449914 0.030110170378710575 0 -0.09307443624352249 0.028343406444539771 0 -0.089882605551810033 0.030154603802239718 0 -0.088401976985338138 0.031220168878197299 0 -0.094172012153135448 0.031861004973272114 0 -0.089882605551810033 0.030154603802239718 0 -0.09362684151449914 0.030110170378710575 0 -0.094172012153135448 0.031861004973272114 0 -0.084148773258053491 0.028721408651657118 0 -0.089882605551810033 0.030154603802239718 0 -0.088401976985338138 0.031220168878197299 0 -0.084148773258053491 0.028721408651657118 0 -0.088401976985338138 0.031220168878197299 0 -0.080483127629571022 0.030248811035777652 0 -0.084148773258053491 0.028721408651657118 0 -0.080483127629571008 0.030248811035777652 0 -0.074240006566640884 0.026855757766075981 0 -0.079619297788942431 0.025645826429665137 0 -0.084148773258053491 0.028721408651657118 0 -0.074240006566640884 0.026855757766075981 0 -0.069658376086197071 0.028658245325843788 0 -0.080483127629571022 0.030248811035777652 0 -0.074240006566640884 0.026855757766075981 0 -0.053841754855092662 0.0044467959676623434 0 -0.066982819341805458 0.0074158603211388107 0 -0.07274282894116875 0.0036712177062372606 0 -0.055199235953525293 -1.4373783857730119e-05 0 -0.053841754855092662 0.0044467959676623434 0 -0.07274282894116875 0.0036712177062372606 0 -0.055199235953525293 -1.4373783857730119e-05 0 -0.037338751289003352 0.00094722663862483131 0 -0.053841754855092662 0.0044467959676623434 0 -0.029808100849199961 0.003983592461776782 0 -0.053841754855092662 0.0044467959676623434 0 -0.053578978447744313 0.0083988271815683743 0 -0.038449699683845845 0.0087759173761602811 0 -0.05763134000669061 0.012664274585367143 0 -0.053578978447744313 0.0083988271815683743 0 -0.070581351379461491 0.015118487555100178 0 -0.05763134000669061 0.012664274585367143 0 -0.067271179471170617 0.010962252771261902 0 -0.05763134000669061 0.012664274585367143 0 -0.053578978447744313 0.0083988271815683743 0 -0.067271179471170617 0.010962252771261902 0 -0.053841754855092662 0.0044467959676623434 0 -0.053578978447744313 0.0083988271815683743 0 -0.066982819341805458 0.0074158603211388107 0 -0.053578978447744313 0.0083988271815683743 0 -0.066982819341805458 0.0074158603211388107 0 -0.067271179471170617 0.010962252771261902 0 -0.066982819341805458 0.0074158603211388107 0 -0.067271179471170617 0.010962252771261902 0 -0.077094334455912461 0.0099179808691313518 0 -0.066982819341805458 0.0074158603211388107 0 -0.077094334455912461 0.0099179808691313518 0 -0.078163585730876436 0.0068557320732765331 0 -0.070581351379461491 0.015118487555100178 0 -0.067271179471170617 0.010962252771261902 0 -0.076904778234945473 0.013458602008023035 0 -0.067271179471170617 0.010962252771261902 0 -0.076904778234945473 0.013458602008023035 0 -0.077094334455912461 0.0099179808691313518 0 -0.076904778234945473 0.013458602008023035 0 -0.084896255203132515 0.014047079748369197 0 -0.084502476483866856 0.015775955776334612 0 -0.080015673660795511 0.016817021790305458 0 -0.076904778234945473 0.013458602008023035 0 -0.084502476483866856 0.015775955776334612 0 -0.076904778234945473 0.013458602008023035 0 -0.082101287330141159 0.012319216019338062 0 -0.077094334455912461 0.0099179808691313518 0 -0.076904778234945473 0.013458602008023035 0 -0.082101287330141159 0.012319216019338062 0 -0.084896255203132501 0.014047079748369197 0 -0.082101287330141159 0.012319216019338062 0 -0.084896255203132501 0.014047079748369197 0 -0.08920339448026271 0.013404032803598849 0 -0.082101287330141159 0.012319216019338062 0 -0.088866036725835137 0.011514504086645404 0 -0.08920339448026271 0.013404032803598849 0 -0.084896255203132501 0.014047079748369197 0 -0.089572456760089375 0.015303881008139892 0 -0.08920339448026271 0.013404032803598849 0 -0.084502476483866856 0.015775955776334612 0 -0.089572456760089375 0.015303881008139893 0 -0.089987010101409415 0.017196488082207955 0 -0.084896255203132501 0.014047079748369197 0 -0.084502476483866856 0.015775955776334612 0 -0.089572456760089375 0.015303881008139892 0 -0.077094334455912461 0.0099179808691313518 0 -0.083960471902238126 0.010383228541567474 0 -0.083239770258789272 0.0085114028610056292 0 -0.077094334455912461 0.0099179808691313518 0 -0.083239770258789272 0.0085114028610056292 0 -0.078163585730876436 0.0068557320732765331 0 -0.082101287330141159 0.012319216019338062 0 -0.077094334455912447 0.0099179808691313501 0 -0.083960471902238126 0.010383228541567474 0 -0.082101287330141159 0.012319216019338062 0 -0.083960471902238126 0.010383228541567474 0 -0.088866036725835137 0.011514504086645404 0 -0.083960471902238126 0.010383228541567474 0 -0.088578227663124606 0.0096089216421381424 0 -0.088866036725835137 0.011514504086645404 0 -0.083960471902238126 0.010383228541567474 0 -0.083239770258789259 0.0085114028610056292 0 -0.088578227663124606 0.0096089216421381424 0 -0.083239770258789272 0.0085114028610056292 0 -0.088343813838877128 0.0077014186387681857 0 -0.088578227663124606 0.0096089216421381424 0 -0.084022119790510122 0.0067661478524967235 0 -0.088169276658589993 0.0057838704934772963 0 -0.088343813838877128 0.0077014186387681857 0 -0.083239770258789272 0.0085114028610056292 0 -0.084022119790510122 0.0067661478524967235 0 -0.088343813838877128 0.0077014186387681857 0 -0.082273755683885216 0.0049516600697878423 0 -0.088042006822986532 0.0038689221804726632 0 -0.088169276658589993 0.0057838704934772963 0 -0.084022119790510122 0.0067661478524967235 0 -0.082273755683885216 0.0049516600697878423 0 -0.088169276658589993 0.0057838704934772963 0 -0.082273755683885216 0.0049516600697878423 0 -0.078163585730876436 0.0068557320732765331 0 -0.07274282894116875 0.0036712177062372606 0 -0.084022119790510122 0.0067661478524967235 0 -0.082273755683885216 0.0049516600697878423 0 -0.078163585730876436 0.0068557320732765331 0 -0.083239770258789272 0.0085114028610056292 0 -0.084022119790510122 0.0067661478524967235 0 -0.078163585730876436 0.0068557320732765331 0 -0.066982819341805458 0.0074158603211388107 0 -0.078163585730876436 0.0068557320732765331 0 -0.07274282894116875 0.0036712177062372606 0 -0.072045210449733499 -0.00063698517124976162 0 -0.055199235953525293 -1.4373783857730082e-05 0 -0.07274282894116875 0.0036712177062372606 0 -0.072045210449733499 -0.00063698517124976162 0 -0.07274282894116875 0.0036712177062372606 0 -0.081048762344691591 0.0011127678839444092 0 -0.07274282894116875 0.0036712177062372606 0 -0.081048762344691591 0.0011127678839444092 0 -0.082388645989818723 0.0031327609093288449 0 -0.082273755683885216 0.0049516600697878423 0 -0.07274282894116875 0.0036712177062372606 0 -0.082388645989818723 0.0031327609093288449 0 -0.082273755683885216 0.0049516600697878423 0 -0.082388645989818723 0.0031327609093288449 0 -0.088042006822986532 0.0038689221804726628 0 -0.082388645989818723 0.0031327609093288449 0 -0.087972300411759088 0.0019177135888444944 0 -0.088042006822986532 0.0038689221804726628 0 -0.081048762344691591 0.0011127678839444092 0 -0.082388645989818723 0.0031327609093288449 0 -0.087972300411759088 0.0019177135888444944 0 -0.081048762344691591 0.0011127678839444092 0 -0.087994630046426214 -7.4510342360657934e-05 0 -0.087972300411759088 0.0019177135888444944 0 -0.087972320099890824 0.0013896687589358009 0 -0.09292844822309014 0.00043417713895859219 0 -0.093324813697650166 0.0022292046740286708 0 -0.087994630046426228 -7.4510342360657446e-05 0 -0.087972320099890811 0.0013896687589358009 0 -0.09292844822309014 0.00043417713895859219 0 -0.088040968636940609 0.0018789076900169223 0 -0.087869735817852929 -0.0067331235331632147 0 -0.087972320099890824 0.0013896687589358009 0 -0.088042038233684949 0.0029392499778908418 0 -0.093324813697650166 0.0022292046740286708 0 -0.087869735817852929 -0.0067331235331632147 0 -0.087919057227912809 -0.0040036746976070221 0 -0.088042038233684949 0.0029392499778908418 0 -0.093324813697650166 0.0022292046740286708 0 -0.092343767667130622 0.0038298220860216634 0 -0.093324813697650166 0.0022292046740286708 0 -0.099714000621566337 0.00068591017038646684 0 -0.09932176523010669 0.0039863547122460383 0 -0.09292844822309014 0.00043417713895859219 0 -0.099714000621566337 0.00068591017038646684 0 -0.095887796377447584 -0.0020372526121456226 0 -0.09292844822309014 0.00043417713895859219 0 -0.093324813697650166 0.0022292046740286708 0 -0.099714000621566337 0.00068591017038646684 0 -0.099714000621566337 0.00068591017038646684 0 -0.1092111924440678 0.0019622530553539833 0 -0.10767404844323643 -0.0020436822922937372 0 -0.099714000621566337 0.00068591017038646684 0 -0.1092111924440678 0.0019622530553539829 0 -0.09932176523010669 0.0039863547122460383 0 -0.1092111924440678 0.0019622530553539833 0 -0.10963799198855838 0.0061431011181044964 0 -0.09932176523010669 0.0039863547122460383 0 -0.10963799198855838 0.0061431011181044964 0 -0.09932176523010669 0.0039863547122460383 0 -0.099482816945995811 0.0074862870723451779 0 -0.09932176523010669 0.0039863547122460383 0 -0.093453878345834157 0.0055225126312008974 0 -0.099482816945995811 0.0074862870723451779 0 -0.093453878345834157 0.0055225126312008974 0 -0.092656020351745874 0.0071502850725588289 0 -0.099482816945995811 0.0074862870723451779 0 -0.093324813697650166 0.0022292046740286708 0 -0.09932176523010669 0.0039863547122460383 0 -0.092343767667130622 0.0038298220860216634 0 -0.09932176523010669 0.0039863547122460383 0 -0.092343767667130622 0.0038298220860216634 0 -0.093453878345834157 0.0055225126312008974 0 -0.092343767667130622 0.0038298220860216634 0 -0.088169317108280118 0.0045203395478789045 0 -0.093453878345834157 0.0055225126312008974 0 -0.088042038233684949 0.0029392499778908418 0 -0.092343767667130622 0.0038298220860216634 0 -0.088169317108280118 0.0045203395478789045 0 -0.087919057227912809 -0.0040036746976070221 0 -0.08799692476616916 -0.0023625189597698049 0 -0.093453878345834157 0.0055225126312008974 0 -0.088343861843826477 0.0061313567184842497 0 -0.092656020351745874 0.0071502850725588289 0 -0.08799692476616916 -0.0023625189597698049 0 -0.088116363801210171 -0.00061999169465520919 0 -0.088169317108280118 0.0045203395478789045 0 -0.093453878345834157 0.0055225126312008982 0 -0.088343861843826491 0.0061313567184842497 0 -0.088343861843826491 0.0061313567184842497 0 -0.092656020351745874 0.0071502850725588289 0 -0.088578282911938408 0.0077548483947598853 0 -0.088116363801210171 -0.00061999169465520919 0 -0.088348726315346501 0.0012154214322238307 0 -0.092656020351745874 0.0071502850725588289 0 -0.088578282911938408 0.0077548483947598853 0 -0.093884406274690538 0.0088878744455288886 0 -0.088578282911938408 0.0077548483947598853 0 -0.088866099538599586 0.0093990386786437854 0 -0.093884406274690538 0.0088878744455288886 0 -0.088348726315346501 0.0012154214322238307 0 -0.088403560338978393 0.001980513127335647 0 -0.088866099538599586 0.0093990386786437854 0 -0.093884406274690538 0.0088878744455288886 0 -0.093156375038513428 0.010497474040004 0 -0.093884406274690538 0.0088878744455288886 0 -0.093156375038513428 0.010497474040004 0 -0.10008025278607051 0.010987682582879611 0 -0.093884406274690538 0.0088878744455288886 0 -0.099482816945995811 0.0074862870723451779 0 -0.10008025278607051 0.010987682582879611 0 -0.092656020351745874 0.0071502850725588289 0 -0.093884406274690538 0.0088878744455288886 0 -0.099482816945995811 0.0074862870723451779 0 -0.089572536159466296 0.012727892165449253 0 -0.094160205839782143 0.012187695821035639 0 -0.09375955334568975 0.013923565085755736 0 -0.089572536159466296 0.012727892165449253 0 -0.094160205839782143 0.012187695821035639 0 -0.0892034654401265 0.011055404733240147 0 -0.088909444443522875 0.0047416527949888255 0 -0.089461553923292095 0.013920767763190579 0 -0.094160205839782143 0.012187695821035639 0 -0.089203465440126486 0.011055404733240145 0 -0.093156375038513428 0.010497474040004 0 -0.088866099538599586 0.0093990386786437854 0 -0.0892034654401265 0.011055404733240147 0 -0.093156375038513428 0.010497474040004 0 -0.088403560338978393 0.001980513127335647 0 -0.089461553923292095 0.013920767763190579 0 -0.094160205839782143 0.012187695821035639 0 -0.093156375038513428 0.010497474040004 0 -0.10008025278607051 0.010987682582879611 0 -0.094160205839782143 0.012187695821035639 0 -0.09375955334568975 0.013923565085755736 0 -0.10006025318432753 0.014538140048613393 0 -0.094160205839782143 0.012187695821035639 0 -0.10008025278607051 0.010987682582879611 0 -0.10006025318432753 0.014538140048613393 0 -0.10008025278607051 0.010987682582879611 0 -0.10992720102340768 0.013267416214802756 0 -0.10006025318432753 0.014538140048613393 0 -0.10008025278607051 0.010987682582879611 0 -0.10992720102340768 0.013267416214802756 0 -0.10789368601141844 0.0097791497849469972 0 -0.10963799198855838 0.0061431011181044964 0 -0.099482816945995811 0.0074862870723451779 0 -0.10789368601141844 0.0097791497849469972 0 -0.099482816945995811 0.0074862870723451779 0 -0.10008025278607051 0.010987682582879611 0 -0.10789368601141844 0.0097791497849469972 0 -0.10963799198855838 0.0061431011181044964 0 -0.10789368601141844 0.0097791497849469972 0 -0.12033370336094143 0.010914430844609637 0 -0.10992720102340768 0.013267416214802756 0 -0.12033370336094143 0.010914430844609637 0 -0.12408622437750735 0.016247681353815588 0 -0.10992720102340768 0.013267416214802756 0 -0.10789368601141844 0.0097791497849469972 0 -0.12033370336094143 0.010914430844609637 0 -0.12033370336094143 0.010914430844609637 0 -0.12408622437750735 0.016247681353815588 0 -0.14248562847919091 0.012079964479053674 0 -0.12033370336094143 0.010914430844609637 0 -0.12487238579935399 0.0043330755350390639 0 -0.14248562847919091 0.012079964479053674 0 -0.12487238579935399 0.0043330755350390639 0 -0.14110181088912738 -0.0013214963939350258 0 -0.11971608094260396 -0.00099325181477924874 0 -0.1092111924440678 0.0019622530553539833 0 -0.12487238579935399 0.0043330755350390639 0 -0.11971608094260396 -0.00099325181477924874 0 -0.1092111924440678 0.0019622530553539833 0 -0.10767404844323643 -0.0020436822922937367 0 -0.11971608094260396 -0.00099325181477924874 0 -0.1092111924440678 0.0019622530553539833 0 -0.10963799198855838 0.0061431011181044964 0 -0.12487238579935399 0.0043330755350390639 0 -0.10963799198855838 0.0061431011181044964 0 -0.12033370336094143 0.010914430844609637 0 -0.12487238579935399 0.0043330755350390639 0 -0.11152846609930027 0.026640565409387189 0 -0.10790164817400603 0.029469658792813345 0 -0.11893625552508977 0.030096620278418421 0 -0.11152846609930027 0.026640565409387189 0 -0.10325100438855603 0.027428308390709772 0 -0.10318230876507972 0.025281447658782381 0 -0.11152846609930027 0.026640565409387189 0 -0.10790164817400603 0.029469658792813345 0 -0.10325100438855603 0.027428308390709772 0 -0.10790164817400603 0.029469658792813345 0 -0.099945111166619888 0.028851223565828355 0 -0.10325100438855603 0.027428308390709772 0 -0.099945111166619888 0.028851223565828355 0 -0.10325100438855603 0.027428308390709772 0 -0.09768730457894638 0.027441159095123513 0 -0.099945111166619888 0.028851223565828355 0 -0.09768730457894638 0.027441159095123513 0 -0.094172153089077906 0.028293074921427463 0 -0.09768730457894638 0.027441159095123513 0 -0.093626974810486277 0.026545844641734401 0 -0.094172153089077906 0.028293074921427463 0 -0.09462617082222477 0.037199836483233745 0 -0.093699239603462853 0.028026984310874737 0 -0.09462617082222477 0.037199836483233745 0 -0.093655139860224473 0.034337503796463394 0 -0.093626974810486277 0.026545844641734401 0 -0.093074561592197458 0.024791475162923873 0 -0.097922480327321454 0.02606161254240516 0 -0.09768730457894638 0.027441159095123513 0 -0.093626974810486277 0.026545844641734401 0 -0.097922480327321454 0.02606161254240516 0 -0.093074561592197458 0.024791475162923873 0 -0.097922480327321454 0.02606161254240516 0 -0.096722733268843036 0.024384743968240755 0 -0.10325100438855603 0.027428308390709772 0 -0.097922480327321454 0.02606161254240516 0 -0.10318230876507972 0.025281447658782381 0 -0.10325100438855603 0.027428308390709772 0 -0.09768730457894638 0.027441159095123513 0 -0.097922480327321454 0.02606161254240516 0 -0.097922480327321454 0.02606161254240516 0 -0.10318230876507972 0.025281447658782381 0 -0.096722733268843036 0.024384743968240755 0 -0.10318230876507972 0.025281447658782381 0 -0.097701467858031507 0.022681665677199429 0 -0.10598820424833266 0.023295476607352046 0 -0.10318230876507972 0.025281447658782381 0 -0.096722733268843036 0.024384743968240755 0 -0.097701467858031507 0.022681665677199429 0 -0.096722733268843036 0.024384743968240755 0 -0.092518687770669461 0.023037016483526261 0 -0.097701467858031507 0.022681665677199429 0 -0.093655139860224473 0.034337503796463394 0 -0.093139411677614511 0.032614595497692495 0 -0.093074561592197458 0.024791475162923873 0 -0.096722733268843036 0.024384743968240755 0 -0.092518687770669461 0.023037016483526261 0 -0.092518687770669461 0.023037016483526261 0 -0.091969716912656485 0.021284431453631385 0 -0.097701467858031507 0.022681665677199429 0 -0.093139411677614511 0.032614595497692495 0 -0.092518141757929842 0.030768079722199051 0 -0.091969716912656485 0.021284431453631385 0 -0.097701467858031507 0.022681665677199429 0 -0.095363579951835975 0.020750744272437196 0 -0.097701467858031507 0.022681665677199429 0 -0.10598820424833266 0.023295476607352046 0 -0.1004037514976204 0.020697351349375528 0 -0.11152846609930027 0.026640565409387189 0 -0.10318230876507972 0.025281447658782381 0 -0.10598820424833266 0.023295476607352046 0 -0.11152846609930027 0.026640565409387189 0 -0.10598820424833266 0.023295476607352046 0 -0.11674276081480436 0.02335726790432259 0 -0.10598820424833266 0.023295476607352046 0 -0.10797740784933388 0.020464548386805691 0 -0.11674276081480436 0.02335726790432259 0 -0.10797740784933388 0.020464548386805691 0 -0.11731519376845699 0.019812127091249798 0 -0.11674276081480436 0.02335726790432259 0 -0.10797740784933388 0.020464548386805691 0 -0.10910618010632148 0.016972710219020845 0 -0.11731519376845699 0.019812127091249802 0 -0.10797740784933388 0.020464548386805691 0 -0.1004037514976204 0.020697351349375528 0 -0.10038321309890116 0.017817459664948524 0 -0.10797740784933388 0.020464548386805691 0 -0.10038321309890116 0.017817459664948524 0 -0.10910618010632148 0.016972710219020845 0 -0.10598820424833266 0.023295476607352046 0 -0.10797740784933388 0.020464548386805691 0 -0.1004037514976204 0.020697351349375528 0 -0.097701467858031507 0.022681665677199429 0 -0.1004037514976204 0.020697351349375524 0 -0.095363579951835975 0.020750744272437196 0 -0.1004037514976204 0.020697351349375528 0 -0.095363579951835975 0.020750744272437196 0 -0.095585752810700711 0.019013120395536768 0 -0.095363579951835975 0.020750744272437196 0 -0.091432215832061625 0.019544731441106619 0 -0.095585752810700711 0.019013120395536768 0 -0.092518141757929842 0.030768079722199051 0 -0.091942711486715373 0.028935097898519828 0 -0.091969716912656485 0.021284431453631385 0 -0.095363579951835975 0.020750744272437196 0 -0.091432215832061625 0.019544731441106619 0 -0.090915556674030923 0.017818648953083827 0 -0.095585752810700711 0.019013120395536768 0 -0.094469012850603884 0.017303611310397309 0 -0.091942711486715373 0.028935097898519828 0 -0.091353187034770508 0.027019000302439537 0 -0.091432215832061625 0.019544731441106619 0 -0.090915556674030923 0.017818648953083827 0 -0.095585752810700711 0.019013120395536768 0 -0.095585752810700711 0.019013120395536768 0 -0.10038321309890116 0.017817459664948524 0 -0.094469012850603884 0.017303611310397309 0 -0.1004037514976204 0.020697351349375528 0 -0.095585752810700711 0.019013120395536768 0 -0.10038321309890116 0.017817459664948524 0 -0.10038321309890116 0.017817459664948524 0 -0.094469012850603884 0.017303611310397309 0 -0.095062178427390995 0.015697788493348835 0 -0.10038321309890116 0.017817459664948524 0 -0.095062178427390995 0.015697788493348835 0 -0.10006025318432753 0.014538140048613393 0 -0.094469012850603884 0.017303611310397309 0 -0.090432143439196908 0.016109035853314232 0 -0.095062178427390995 0.015697788493348835 0 -0.091353187034770508 0.027019000302439537 0 -0.090918299124394322 0.025973510362476058 0 -0.090915556674030923 0.017818648953083827 0 -0.094469012850603884 0.017303611310397309 0 -0.090432143439196908 0.016109035853314232 0 -0.088909444443522875 0.0047416527949888255 0 -0.090027968684205317 0.015890312654887689 0 -0.089572536159466296 0.012727892165449253 0 -0.089987097533045263 0.014410187435213972 0 -0.09375955334568975 0.013923565085755736 0 -0.090432143439196908 0.016109035853314232 0 -0.089987097533045263 0.014410187435213972 0 -0.095062178427390995 0.015697788493348835 0 -0.090918299124394322 0.025973510362476058 0 -0.090027968684205317 0.015890312654887689 0 -0.089987097533045263 0.014410187435213972 0 -0.095062178427390995 0.015697788493348835 0 -0.09375955334568975 0.013923565085755736 0 -0.095062178427390995 0.015697788493348835 0 -0.09375955334568975 0.013923565085755736 0 -0.10006025318432753 0.014538140048613393 0 -0.10992720102340768 0.013267416214802756 0 -0.10006025318432754 0.014538140048613393 0 -0.10910618010632148 0.016972710219020845 0 -0.10038321309890116 0.017817459664948524 0 -0.10006025318432753 0.014538140048613393 0 -0.10910618010632148 0.016972710219020845 0 -0.12408622437750735 0.016247681353815588 0 -0.13025319640133345 0.022039517751132776 0 -0.14855411391590329 0.01932863720470869 0 -0.10992720102340768 0.013267416214802756 0 -0.10910618010632148 0.016972710219020845 0 -0.12408622437750735 0.016247681353815588 0 -0.10910618010632148 0.016972710219020845 0 -0.12408622437750735 0.016247681353815588 0 -0.11731519376845699 0.019812127091249802 0 -0.13025319640133345 0.022039517751132776 0 -0.11731519376845699 0.019812127091249802 0 -0.11674276081480436 0.02335726790432259 0 -0.12408622437750735 0.016247681353815588 0 -0.13025319640133345 0.022039517751132776 0 -0.11731519376845699 0.019812127091249802 0 -0.13025319640133345 0.022039517751132776 0 -0.12602423380412869 0.026574756104030411 0 -0.11674276081480436 0.02335726790432259 0 -0.11152846609930027 0.026640565409387189 0 -0.12602423380412869 0.026574756104030411 0 -0.11674276081480436 0.02335726790432259 0 -0.13025319640133345 0.022039517751132776 0 -0.12602423380412869 0.026574756104030411 0 -0.1443493655389709 0.02573911278182443 0 -0.12602423380412869 0.026574756104030411 0 -0.13428467376352571 0.030664050818459066 0 -0.1443493655389709 0.02573911278182443 0 -0.11152846609930027 0.026640565409387189 0 -0.12602423380412869 0.026574756104030411 0 -0.11893625552508977 0.030096620278418421 0 -0.12602423380412869 0.026574756104030411 0 -0.13428467376352571 0.030664050818459066 0 -0.11893625552508977 0.030096620278418421 0 -0.1856133515369072 0.032173942875955645 0 -0.16533901703616555 0.024751648150547551 0 -0.18376429609410844 0.016153358093847398 0 -0.13428467376352571 0.030664050818459066 0 -0.15573161519874831 0.031222656431941279 0 -0.1443493655389709 0.02573911278182443 0 -0.15573161519874831 0.031222656431941279 0 -0.1443493655389709 0.02573911278182443 0 -0.16533901703616555 0.024751648150547551 0 -0.12408622437750735 0.016247681353815588 0 -0.14855411391590329 0.01932863720470869 0 -0.14248562847919091 0.012079964479053674 0 -0.14855411391590329 0.01932863720470869 0 -0.14248562847919091 0.012079964479053674 0 -0.18376429609410844 0.016153358093847398 0 -0.1443493655389709 0.02573911278182443 0 -0.14855411391590329 0.01932863720470869 0 -0.16533901703616555 0.024751648150547551 0 -0.13025319640133345 0.022039517751132776 0 -0.1443493655389709 0.02573911278182443 0 -0.14855411391590329 0.01932863720470869 0 -0.14855411391590329 0.01932863720470869 0 -0.16533901703616555 0.024751648150547551 0 -0.18376429609410844 0.016153358093847398 0 -0.15573161519874831 0.031222656431941279 0 -0.1856133515369072 0.032173942875955645 0 -0.16533901703616555 0.024751648150547551 0 -0.15378319835491205 0.0057402675089296713 0 -0.18376429609410844 0.016153358093847398 0 -0.18277582037004253 -0.00075229060359058655 0 -0.12487238579935399 0.0043330755350390639 0 -0.15378319835491205 0.0057402675089296704 0 -0.14110181088912738 -0.0013214963939350258 0 -0.15378319835491205 0.0057402675089296713 0 -0.18277582037004253 -0.00075229060359058655 0 -0.14110181088912738 -0.0013214963939350258 0 -0.12487238579935399 0.0043330755350390639 0 -0.15378319835491205 0.0057402675089296713 0 -0.14248562847919091 0.012079964479053674 0 -0.15378319835491205 0.0057402675089296713 0 -0.14248562847919091 0.012079964479053674 0 -0.18376429609410844 0.016153358093847398 0 -0.18277582037004253 -0.00075229060359058655 0 -0.14110181088912738 -0.0013214963939350258 0 -0.14630484033149313 -0.01010294760640121 0 -0.14630484033149313 -0.01010294760640121 0 -0.18388037819752354 -0.017547976727655644 0 -0.1467383559463305 -0.021573098776957681 0 -0.18277582037004253 -0.00075229060359058655 0 -0.14630484033149313 -0.01010294760640121 0 -0.18388037819752354 -0.017547976727655644 0 -0.18552598542855284 -0.033466670853619505 0 -0.1467383559463305 -0.021573098776957681 0 -0.13894962646705231 -0.032308239321209672 0 -0.18388037819752354 -0.017547976727655644 0 -0.18552598542855284 -0.033466670853619505 0 -0.1467383559463305 -0.021573098776957681 0 -0.093766298333498588 -0.030527231264670565 0 -0.11462313776619415 -0.022874925703964211 0 -0.13894962646705231 -0.032308239321209672 0 -0.1467383559463305 -0.021573098776957681 0 -0.11462313776619415 -0.022874925703964211 0 -0.11180267989868743 -0.013013180979046923 0 -0.1467383559463305 -0.021573098776957681 0 -0.11462313776619415 -0.022874925703964211 0 -0.13894962646705231 -0.032308239321209672 0 -0.090033594500750103 -0.01723867533727497 0 -0.093766298333498588 -0.030527231264670565 0 -0.11462313776619415 -0.022874925703964211 0 -0.090033594500750103 -0.01723867533727497 0 -0.11462313776619415 -0.022874925703964211 0 -0.11180267989868743 -0.013013180979046923 0 -0.090033594500750103 -0.01723867533727497 0 -0.087791694736955153 -0.010012153899231274 0 -0.11180267989868743 -0.013013180979046923 0 -0.087791694736955153 -0.010012153899231274 0 -0.11180267989868743 -0.013013180979046923 0 -0.097621192444502555 -0.0066175140199677988 0 -0.11180267989868743 -0.013013180979046923 0 -0.097621192444502555 -0.0066175140199677988 0 -0.11974661513614247 -0.0060787512571097071 0 -0.08803284502101337 -0.0029625665905667329 0 -0.079503112931368275 -0.0046787307413739335 0 -0.097621192444502555 -0.0066175140199677988 0 -0.08803284502101337 -0.0029625665905667329 0 -0.097621192444502555 -0.0066175140199677988 0 -0.095887796377447584 -0.0020372526121456226 0 -0.08803284502101337 -0.0029625665905667329 0 -0.087994630046426228 -7.4510342360657446e-05 0 -0.095887796377447584 -0.0020372526121456226 0 -0.087994630046426228 -7.4510342360657446e-05 0 -0.09292844822309014 0.00043417713895859219 0 -0.095887796377447584 -0.0020372526121456226 0 -0.097621192444502555 -0.0066175140199677988 0 -0.095887796377447584 -0.0020372526121456226 0 -0.10767404844323643 -0.0020436822922937372 0 -0.099714000621566337 0.00068591017038646684 0 -0.095887796377447584 -0.0020372526121456226 0 -0.10767404844323643 -0.0020436822922937372 0 -0.097621192444502555 -0.0066175140199677988 0 -0.10767404844323643 -0.0020436822922937372 0 -0.11974661513614247 -0.0060787512571097071 0 -0.14110181088912738 -0.0013214963939350258 0 -0.14630484033149313 -0.01010294760640121 0 -0.11974661513614247 -0.0060787512571097071 0 -0.10767404844323643 -0.0020436822922937372 0 -0.11974661513614247 -0.0060787512571097071 0 -0.11971608094260396 -0.00099325181477924874 0 -0.14110181088912738 -0.0013214963939350258 0 -0.11974661513614246 -0.0060787512571097053 0 -0.11971608094260396 -0.00099325181477924874 0 -0.14630484033149313 -0.01010294760640121 0 -0.1467383559463305 -0.021573098776957681 0 -0.11180267989868743 -0.013013180979046923 0 -0.14630484033149313 -0.01010294760640121 0 -0.11180267989868742 -0.013013180979046919 0 -0.11974661513614247 -0.0060787512571097071 0 
</DataArray>
</PointData>
<CellData Scalars="region_id,cross_section_updated," Vectors="" Tensors="stress,">
<DataArray type="Float64" Name="region_id" format="ascii">
1 1 1 1 1 1 1 1 1 1 1 1 1 1 1 1 1 1 1 1 1 1 1 1 1 1 1 1 1 1 1 1 1 1 1 1 1 1 1 1 1 1 1 1 1 1 1 1 1 1 1 1 1 1 1 1 1 1 1 1 1 1 1 1 1 1 1 1 1 1 1 1 1 1 1 1 1 1 1 1 1 1 1 1 1 1 1 1 1 1 1 1 1 1 1 1 1 1 1 1 1 1 1 1 1 1 1 1 1 1 1 1 1 1 1 1 1 1 1 1 1 1 1 1 1 1 1 1 1 1 1 1 1 1 1 1 1 1 1 1 1 6 1 6 1 1 1 1 1 1 1 1 1 1 1 1 1 1 6 1 6 1 1 6 1 1 6 1 1 1 1 1 1 6 1 1 6 1 1 1 1 1 1 1 1 1 1 1 1 1 1 1 1 1 1 1 1 1 1 1 1 6 6 1 1 1 1 1 1 1 1 1 6 1 1 6 1 1 1 1 1 1 1 1 1 1 1 1 1 6 1 1 6 1 1 1 1 1 1 6 1 6 1 1 6 1 1 1 1 1 1 1 1 1 1 1 1 1 1 1 1 1 1 1 1 1 1 1 1 1 1 1 1 1 1 1 1 1 1 1 1 1 1 1 1 1 1 1 1 1 1 1 1 1 1 1 1 1 1 
</DataArray>
<DataArray type="Float64" Name="stress" NumberOfComponents="9" format="ascii">
-0.19906415163744967 -0.017196191502076581 0 -0.017196191502076581 -0.066223423596700692 0 0 0 -0.066321893808537591 -0.21889715550925193 -0.027757599145490509 0 -0.027757599145490509 -0.025811700803181403 0 0 0 -0.061177214078108312 -0.19125758348114619 -0.00088171860086783821 0 -0.00088171860086783821 -0.0051667018769269712 0 0 0 -0.04910607133951831 -0.2002482031026768 -0.0033479479109396679 0 -0.0033479479109396679 -0.001897808431990812 0 0 0 -0.050536502883666894 -0.19985688063153109 -0.00040827273415443115 0 -0.00040827273415443115 -0.00078181079345299165 0 0 0 -0.050159672856246028 -0.20138613419257759 -0.0011833248447064501 0 -0.0011833248447064501 -0.0068846296081842839 0 0 0 -0.052067690950190454 -0.20549768796976364 -0.0028119895354170588 0 -0.0028119895354170588 -0.0077730833840866584 0 0 0 -0.053317692838462549 -0.20561716454734991 -0.00031821218912846355 0 -0.00031821218912846355 -0.0073912830652571315 0 0 0 -0.053252111903151787 -0.20424715172493391 -0.0013587341850693755 0 -0.0013587341850693755 -0.0051923044512291044 0 0 0 -0.052359864044040805 -0.20367483914391035 -0.00087501687165530636 0 -0.00087501687165530636 -0.0037553945956837961 0 0 0 -0.051857558434898497 -0.20435941800343305 -0.0021193105950223787 0 -0.0021193105950223787 -0.0050811621980995612 0 0 0 -0.052360145050383201 -0.2048597813883444 -0.0019318547361462249 0 -0.0019318547361462249 -0.004283346166150984 0 0 0 -0.052285781888624011 -0.20426035767885953 -0.0020507926905689103 0 -0.0020507926905689103 -0.0048433676953025945 0 0 0 -0.052275931343540583 -0.20376674426164201 -1.8131410235711076e-05 0 -1.8131410235711076e-05 -0.0035486795572153909 0 0 0 -0.051828855954714315 -0.20406746860913649 -0.0014379437257985503 0 -0.0014379437257985503 -0.0055670626444156227 0 0 0 -0.052408632813387979 -0.20357831828750317 -0.00031945339281770624 0 -0.00031945339281770624 -0.0031193802859252138 0 0 0 -0.051674424643357073 -0.20349367283807279 -0.0014608522653050959 0 -0.0014608522653050959 -0.0069181106126418937 0 0 0 -0.052602945862678663 -0.2062601539746042 -0.0041109064905757199 0 -0.0041109064905757199 -0.010856037832916235 0 0 0 -0.054279047951880079 -0.20842809220189978 -0.0102510171105442 0 -0.0102510171105442 -0.016935423203154429 0 0 0 -0.056340878851263557 -0.19857114420591718 -0.0043194266219387066 0 -0.0043194266219387066 -0.018852954970720287 0 0 0 -0.054356024794159366 -0.20369930570521394 -0.0041959852397062602 0 -0.0041959852397062602 -0.020375253702039287 0 0 0 -0.056018639851813296 -0.20289094593628135 -0.00019778378442424283 0 -0.00019778378442424283 -0.012133142556451187 0 0 0 -0.053756022123183117 -0.19304758715090187 -0.0058039131948695345 0 -0.0058039131948695345 -0.064368401337704939 0 0 0 -0.064353997122151702 -0.18710692517583813 -0.0023848032511361236 0 -0.0023848032511361236 -0.031612678151435772 0 0 0 -0.054679900831818479 -0.20124448680553764 -0.0022143555997836809 0 -0.0022143555997836809 -0.034557108639879305 0 0 0 -0.05895039886135426 -0.20201115183832796 -0.0049118071667097118 0 -0.0049118071667097118 -0.034837110801152787 0 0 0 -0.059212065659870215 -0.18641013335948203 -0.013412734236790078 0 -0.013412734236790078 -0.030681275878461943 0 0 0 -0.054272852309486003 -0.19370532195021334 0.0086485519462668574 0 0.0086485519462668574 -0.064556354373733124 0 0 0 -0.064565419080986605 -0.19241972007705396 0.011232064423174759 0 0.011232064423174759 -0.03256430445053219 0 0 0 -0.056246006131896543 -0.202390058945073 0.0051193133018904505 0 0.0051193133018904505 -0.026966739611403681 0 0 0 -0.057339199639119175 -0.20238205266991577 0.0066058108605931455 0 0.0066058108605931455 -0.033149467212885086 0 0 0 -0.0588828799707002 -0.18875757745003047 0.0039256148207449841 0 0.0039256148207449841 -0.032948722722450446 0 0 0 -0.055426575043120228 -0.2027018444744641 0.030773919670937202 0 0.030773919670937202 -0.067489354519784717 0 0 0 -0.067547799748562218 -0.23796660401114283 0.031613907026506821 0 0.031613907026506821 -0.036334063406009115 0 0 0 -0.068575166854287994 -0.19621928420558882 0.018486305665312074 0 0.018486305665312074 -0.043267779098328914 0 0 0 -0.059871765825979431 -0.20158077359536061 0.011816379808443106 0 0.011816379808443106 -0.0030300722603121694 0 0 0 -0.051152711463918192 -0.19098906606493804 0.015732656289584424 0 0.015732656289584424 -0.031507134988989299 0 0 0 -0.055624050263481814 -0.2071033253112009 0.016579834314399564 0 0.016579834314399564 -0.026820869093588967 0 0 0 -0.058481048601197475 -0.21735245124958821 0.021558003729666986 0 0.021558003729666986 -0.021498845679124245 0 0 0 -0.059712824232178108 -0.20005011461604133 0.0069572419102030582 0 0.0069572419102030582 0.0081249769152976214 0 0 0 -0.047981284425185927 -0.19468884389100444 0.0056493648446535316 0 0.0056493648446535316 -0.0069158510288824804 0 0 0 -0.050401173729971729 -0.18717821986559285 0.00021159831695925779 0 0.00021159831695925779 -0.0013312848597847315 0 0 0 -0.047127376181344396 -0.19212424310347365 -0.00084540477199074315 0 -0.00084540477199074315 0.00038423445037610859 0 0 0 -0.047935002163274412 -0.19508944571828502 -0.00027135368482160069 0 -0.00027135368482160069 0.0022284839730404293 0 0 0 -0.048215240436311146 -0.19841748427340197 0.004419333423902775 0 0.004419333423902775 -0.0025449578778710125 0 0 0 -0.050240610537818253 -0.19324203030773368 0.00067955519386672658 0 0.00067955519386672658 -0.00079214808154043359 0 0 0 -0.048508544597318515 -0.19600349038691406 -3.6585956871559855e-05 0 -3.6585956871559855e-05 8.5675748607502711e-05 0 0 0 -0.048979453659576608 -0.19821943331487493 0.0044439216350729699 0 0.0044439216350729699 -0.0074104473471406918 0 0 0 -0.051407470165503927 -0.19894880724995118 0.0026576319762890016 0 0.0026576319762890016 -0.0029347270389392666 0 0 0 -0.050470883572222611 -0.20048786450978684 0.0022806315537168345 0 0.0022806315537168345 -0.0033523013712942473 0 0 0 -0.050960041470270244 -0.20024219579453373 0.0064381422232053925 0 0.0064381422232053925 -0.0087541267093212694 0 0 0 -0.052249080625963784 -0.20385330230821114 0.0057082774816787588 0 0.0057082774816787588 -0.0082532920105301 0 0 0 -0.053026648579685282 -0.20099227986188403 0.0019630776911760128 0 0.0019630776911760128 -0.0030887406528097711 0 0 0 -0.051020255128673447 -0.20045704637740669 0.0018794095710202297 0 0.0018794095710202297 -0.0031705576912106903 0 0 0 -0.05090690101715431 -0.20074495601729092 0.00063765022376210956 0 0.00063765022376210956 -0.00083339220586947649 0 0 0 -0.050394587055790266 -0.20155020562826648 0.0014172098963942358 0 0.0014172098963942358 -0.0017692776932268228 0 0 0 -0.050829870830373318 -0.20095186517125982 0.00065381667366295332 0 0.00065381667366295332 0.00035333410118310038 0 0 0 -0.05014963276751927 -0.20104737451637786 -3.4330393085868494e-05 0 -3.4330393085868494e-05 0.0006962949165867649 0 0 0 -0.050087769899947759 -0.20062328356703465 0.0002072507842933724 0 0.0002072507842933724 0.0019355953431154926 0 0 0 -0.04967192205597995 -0.19982118148253869 0.00021283355664256098 0 0.00021283355664256098 0.0020136872038984954 0 0 0 -0.049451873569660076 -0.20010906713793847 0.00013312806239407227 0 0.00013312806239407227 0.00084900390514847102 0 0 0 -0.049815015808197846 -0.20062859920320802 0.00018257819849407109 0 0.00018257819849407109 0.00073828014775345618 0 0 0 -0.049972579763863545 -0.20029834797362556 0.00075701394018443113 0 0.00075701394018443113 -0.00061725792284306191 0 0 0 -0.050228901474117169 -0.20000917017720993 0.00012865721991248483 0 0.00012865721991248483 0.00081762639986582286 0 0 0 -0.049797885944335929 -0.19849224794397491 -0.00024320001198666064 0 -0.00024320001198666064 -2.868147716034164e-05 0 0 0 -0.04963023235528366 -0.19846749798822633 0.00017829295928449562 0 0.00017829295928449562 0.00169070901984536 0 0 0 -0.049194197242095228 -0.19907091655775044 -0.00021629813853799029 0 -0.00021629813853799029 0.00080681476715840916 0 0 0 -0.049566025447648113 -0.19795264910579835 -0.00045568150496344551 0 -0.00045568150496344551 0.00093732828306394844 0 0 0 -0.04925383020568351 -0.19711353406615811 9.568003316173801e-05 0 9.568003316173801e-05 0.0016087043062193995 0 0 0 -0.04887620743998472 -0.19748931308028023 0.00018701739713139487 0 0.00018701739713139487 0.00052832197486538113 0 0 0 -0.04924024777635376 -0.19770967123428479 -0.00022820100394317644 0 -0.00022820100394317644 -0.0012616084451102516 0 0 0 -0.049742819919848746 -0.20020829679200827 0.00088992956880453236 0 0.00088992956880453236 -0.00059412223475718839 0 0 0 -0.05020060475669133 -0.19447084947441065 -0.00093831710379348177 0 -0.00093831710379348177 0.00020097112955008711 0 0 0 -0.048567469586215245 -0.19633160184888698 0.00053413380189222537 0 0.00053413380189222537 -4.5842112005756164e-05 0 0 0 -0.049094360990223213 -0.19735878091062098 -0.00022968365106785594 0 -0.00022968365106785594 0.00088717062030219118 0 0 0 -0.049117902572579752 -0.1955759898445226 -0.0006522258323654051 0 -0.0006522258323654051 0.00017187316944001357 0 0 0 -0.048851029168770439 -0.19623740690604219 -0.00052986360580348224 0 -0.00052986360580348224 0.00087076366299537744 0 0 0 -0.048841660810761578 -0.19555692277451253 0.0001434031010589254 0 0.0001434031010589254 0.0011477864370097457 0 0 0 -0.048602284084375724 -0.19478219156885862 -0.00056612908897091252 0 -0.00056612908897091252 0.00067373941178650032 0 0 0 -0.048527113039267974 -0.19368798858959521 0.00011215739520636925 0 0.00011215739520636925 0.0007749541411232741 0 0 0 -0.048228258612118158 -0.19390931224682778 2.885006065900253e-05 0 2.885006065900253e-05 0.00049614835566380577 0 0 0 -0.048353290972790897 -0.19120881907593967 -0.00040903754024207428 0 -0.00040903754024207428 0.00067851801203100415 0 0 0 -0.04763257526597714 -0.19363159972199012 -0.00065186905137791518 0 -0.00065186905137791518 0.00031106321568186157 0 0 0 -0.048330134126577162 -0.19091327980713946 7.9693287995563633e-05 0 7.9693287995563633e-05 0.00025444915517480737 0 0 0 -0.047664707662991024 -0.19284913510621357 -0.00064857464173267987 0 -0.00064857464173267987 0.00036272891415756181 0 0 0 -0.048121601548014342 -0.19043882315585864 -0.00036829702335894332 0 -0.00036829702335894332 0.00052875380119363213 0 0 0 -0.047477517338666279 -0.19134309462168797 0.00013448571673430054 0 0.00013448571673430054 0.00029360713869874822 0 0 0 -0.047762371870747278 -0.18792316317966928 -0.00035222437038867627 0 -0.00035222437038867627 0.00022464566718527479 0 0 0 -0.04692462937812103 -0.1899779424623268 0.00018001795083874561 0 0.00018001795083874561 0.00017095380865606025 0 0 0 -0.047451747163417546 -0.19031738421003419 -0.00042645265493268525 0 -0.00042645265493268525 -9.3948651143316297e-05 0 0 0 -0.04760283321529446 -0.18793341585650727 -0.00045580166354847185 0 -0.00045580166354847185 2.412479408231416e-05 0 0 0 -0.04697732276560615 -0.19109541614259698 -0.00068056821012513202 0 -0.00068056821012513202 0.00020014036533561042 0 0 0 -0.047723818944315377 -0.19140635123531896 -0.00017483194284320658 0 -0.00017483194284320658 3.1435397347179261e-05 0 0 0 -0.047843728959493001 -0.1872092957887444 -0.00059933049187680873 0 -0.00059933049187680873 -0.00021129006854059273 0 0 0 -0.046855146464321207 -0.20126831746935278 0.0011499218741114637 0 0.0011499218741114637 -0.0076806683232651732 0 0 0 -0.052237246448154473 -0.2032579773342417 0.0017615375446923456 0 0.0017615375446923456 -0.016737743758876506 0 0 0 -0.05499893027327956 -0.19345260372483453 0.00076286623055240839 0 0.00076286623055240839 -0.01374606265848359 0 0 0 -0.051799666595829526 -0.19971070282582037 0.0048801685755413852 0 0.0048801685755413852 -0.016156215642923868 0 0 0 -0.05396672961718605 -0.20141041115723951 0.0065998271091056897 0 0.0065998271091056897 -0.012267789974231724 0 0 0 -0.053419550282867809 -0.20246090277608553 0.0033046767151600018 0 0.0033046767151600018 -0.0053455330556204939 0 0 0 -0.051951608957926484 -0.20267034920578925 0.0022568965440474403 0 0.0022568965440474403 -0.0099965544253461797 0 0 0 -0.053166725907783853 -0.20338997933463673 0.0026564368123628695 0 0.0026564368123628695 -0.017670014297982903 0 0 0 -0.055264998408154874 -0.20251556244242849 0.003004578717283983 0 0.003004578717283983 -0.0068056605800848879 0 0 0 -0.052330305755628331 -0.20340465958866594 0.0010424561299860469 0 0.0010424561299860469 -0.0072738687865616372 0 0 0 -0.052669632093806852 -0.20351254523586851 0.00098948503048813807 0 0.00098948503048813807 -0.0031743140917735169 0 0 0 -0.051671714831910499 -0.20192622246259737 0.00075054763565593485 0 0.00075054763565593485 -0.0039050088813504108 0 0 0 -0.051457807835987024 -0.20291369387133454 0.0013262789609687631 0 0.0013262789609687631 -0.0025393553926076062 0 0 0 -0.051363262315985606 -0.20202470250517446 0.00042365794731278293 0 0.00042365794731278293 8.4719006400502117e-05 0 0 0 -0.050484995874693572 -0.20138897569232625 0.00025693806876789238 0 0.00025693806876789238 -0.00095660566105876255 0 0 0 -0.050586395338346142 -0.20241777846475206 0.00051435216456401089 0 0.00051435216456401089 -0.0025576095797483767 0 0 0 -0.051243847011125152 -0.20241672708562039 0.00077263662265053545 0 0.00077263662265053545 -0.0011384906776621406 0 0 0 -0.050888804440820501 -0.20269119370691588 -0.00012665668854824896 0 -0.00012665668854824896 0.00024801669574503471 0 0 0 -0.050610794252792773 -0.20281097037012755 0.00027834783187918877 0 0.00027834783187918877 0.0009232513448026447 0 0 0 -0.050471929756331246 -0.2021959898488076 0.00017395109605729264 0 0.00017395109605729264 0.0015024982684197496 0 0 0 -0.050173372895096713 -0.20141840973496802 0.00019027637386963281 0 0.00019027637386963281 0.0014990799745460137 0 0 0 -0.049979832440105371 -0.20181129053214952 2.0901741369649951e-05 0 2.0901741369649951e-05 -7.1206499276527113e-06 0 0 0 -0.050454602795519152 -0.20372700891789874 0.00063948674424130604 0 0.00063948674424130604 -0.0010115584703988545 0 0 0 -0.051184641847074386 -0.20364781511841415 0.00024254445779042094 0 0.00024254445779042094 -0.0035245878131544006 0 0 0 -0.051793100732892131 -0.20365548342250239 -6.8545695637980963e-05 0 -6.8545695637980963e-05 -0.00095713872203173622 0 0 0 -0.051153155536133643 -0.20321127841673203 8.178423502847032e-05 0 8.178423502847032e-05 -0.00071237721836628354 0 0 0 -0.050980913908774558 -0.20335339083877985 0.00023208481256029034 0 0.00023208481256029034 0.0013246597078697686 0 0 0 -0.050507182782727533 -0.20393754860464108 -0.00016190107133232101 0 -0.00016190107133232101 -0.00091305494111623003 0 0 0 -0.05121265088643942 -0.20408111422225053 7.769249947159329e-05 0 7.769249947159329e-05 0.0011517375148006326 0 0 0 -0.050732344176862371 -0.20407546736583632 6.4336762771732836e-06 0 6.4336762771732836e-06 0.0015179236139374885 0 0 0 -0.05063938593797461 -0.20416262023597467 2.2384064231106837e-05 0 2.2384064231106837e-05 -0.00076938601818615782 0 0 0 -0.051233001563540215 -0.20404234180938791 -0.00029386284345073177 0 -0.00029386284345073177 0.0014346782151723192 0 0 0 -0.050651915898553695 -0.20439408403092557 -0.0004169520437079105 0 -0.0004169520437079105 -0.0008336851043499599 0 0 0 -0.051306942283818879 -0.20389728047803446 -0.00058227398976014658 0 -0.00058227398976014658 -0.0037414868718768021 0 0 0 -0.051909691837477887 -0.20414979098876029 0.00044898774287459309 0 0.00044898774287459309 -0.0014761469244595621 0 0 0 -0.051406484478304967 -0.2042025843870216 -0.00014599428621131505 0 -0.00014599428621131505 -0.0008640938206370824 0 0 0 -0.05126666955191457 -0.20379228221806275 0.0017024672373453058 0 0.0017024672373453058 -0.0072986264764207942 0 0 0 -0.052772727173620908 -0.20145007036597068 0.00018514375418858054 0 0.00018514375418858054 -0.0080211047095754967 0 0 0 -0.05236779376888652 -0.20309263824391188 -0.0007354762871350385 0 -0.0007354762871350385 -0.0084368852006921676 0 0 0 -0.052882380861150921 -0.20388722389388916 0.00034707003851643103 0 0.00034707003851643103 -0.003289160279405387 0 0 0 -0.051794096043323544 -0.20381756551428465 -0.00027723404391046674 0 -0.00027723404391046674 -0.0018044612055872766 0 0 0 -0.051405506679967961 -0.20466839571601475 -0.00069846563485409519 0 -0.00069846563485409519 -0.0021302030002102994 0 0 0 -0.051699649679056547 -0.20340508780197261 -0.00092727949655572323 0 -0.00092727949655572323 0.0029621356557243406 0 0 0 -0.050110738036562033 -0.2045188346682042 -0.0016896534756945317 0 -0.0016896534756945317 -0.0023463152199983094 0 0 0 -0.051716287472050718 -0.2031568135340566 -0.001812064136802927 0 -0.001812064136802927 0.0045323833936872088 0 0 0 -0.049656107535092309 -0.20453247879809355 -0.0012412305755493333 0 -0.0012412305755493333 -0.0083953575051320395 0 0 0 -0.053231959075806343 -0.20567396060706333 -0.0020334029544369957 0 -0.0020334029544369957 -0.01545709146200341 0 0 0 -0.055282763017266617 -1.1712480592315346e-07 -8.2321302585825513e-09 0 -8.2321302585825513e-09 -3.5137126766837993e-07 0 0 0 -1.1712401839788335e-07 -0.20501054267698368 -0.00098867190572515806 0 -0.00098867190572515806 -0.012138702018225167 0 0 0 -0.054287311173802429 3.7117438233753963e-08 -2.982511182662657e-08 0 -2.982511182662657e-08 1.1136049051409007e-07 0 0 0 3.7119482186961537e-08 -0.2044279021657833 -0.00087122064066543978 0 -0.00087122064066543978 -0.0084941681725042573 0 0 0 -0.053230517584571944 -0.20535524501146177 -0.0011562699284992616 0 -0.0011562699284992616 -0.0057731394758381988 0 0 0 -0.05278209612182496 -0.20509986895472271 -0.00031287362527737976 0 -0.00031287362527737976 -0.0056190651812661058 0 0 0 -0.05267973353399702 -0.20544209553123555 -0.0015441622269893127 0 -0.0015441622269893127 -0.0086475801569678521 0 0 0 -0.053522418922050972 -0.20504892352897955 -0.00020553070164178438 0 -0.00020553070164178438 -0.0031663604879157495 0 0 0 -0.052053821004223802 -0.20448779007176157 -0.00092458796899048089 0 -0.00092458796899048089 -0.0054562205787457296 0 0 0 -0.052486002662626867 -0.20486088087578078 -0.00098871846545193695 0 -0.00098871846545193695 -0.0032149990247202038 0 0 0 -0.052018969975125194 -0.20405546388459195 -0.0012880264228409682 0 -0.0012880264228409682 -0.0054852786907686191 0 0 0 -0.052385185643840183 -0.20458648658381326 -0.00086936673923211638 0 -0.00086936673923211638 -0.0056428448269755793 0 0 0 -0.052557332852697126 -0.20398019912420121 -0.00051925360210329508 0 -0.00051925360210329508 -0.0075278710843001764 0 0 0 -0.052877017552125399 -0.20465389517458898 -0.00070133968113945261 0 -0.00070133968113945261 -0.008469775804552937 0 0 0 -0.053280917744785362 -0.20439871364964221 -0.0012435171413026076 0 -0.0012435171413026076 -0.0078829182813573428 0 0 0 -0.053070407982749784 -0.20431635946324136 -0.00026885625759787146 0 -0.00026885625759787146 -0.0083052053952324123 0 0 0 -0.053155391214618319 -0.2047100038226658 -0.00056467183239577307 0 -0.00056467183239577307 -0.010895819535988227 0 0 0 -0.053901455839663534 2.2315406411274269e-08 -4.4923061483892262e-08 0 -4.4923061483892262e-08 6.6957716895987943e-08 0 0 0 2.2318280826815553e-08 -0.20414629408218299 -0.0004283988503177294 0 -0.0004283988503177294 -0.0075337028687956775 0 0 0 -0.052919999237744805 2.3693063527190146e-08 -5.8296228194202514e-08 0 -5.8296228194202514e-08 7.109334332388564e-08 0 0 0 2.3696601712769052e-08 -0.20421254850881321 -0.00033589432624283461 0 -0.00033589432624283461 -0.0096446267823170895 0 0 0 -0.053464293822782491 -0.20405963497521207 -0.00033098537848724741 0 -0.00033098537848724741 -0.0091412468654742396 0 0 0 -0.053300220460171688 2.4955423299766178e-08 -7.1642833545499202e-08 0 -7.1642833545499202e-08 7.4882790501402373e-08 0 0 0 2.4959553450292349e-08 -0.20389776258506104 -0.00018642160183540701 0 -0.00018642160183540701 -0.0073048066968656178 0 0 0 -0.052800642320481733 -0.20348750655709547 -0.00041517401191784598 0 -0.00041517401191784598 -0.0081998678901757209 0 0 0 -0.052921843611817634 1.0398163358827026e-08 -8.013651582899092e-08 0 -8.013651582899092e-08 3.1213379928997098e-08 0 0 0 1.0402885821955819e-08 -0.20325796963825363 -0.00038076484417064183 0 -0.00038076484417064183 -0.0064057957614805927 0 0 0 -0.052415941349933576 -0.20285073626359482 -0.0007220436691572768 0 -0.0007220436691572768 -0.0064575033806842097 0 0 0 -0.052327059911069965 -0.20367414028639047 -0.00086141733412058163 0 -0.00086141733412058163 -0.005180824559951086 0 0 0 -0.052213741211585327 -0.20362553175120443 -0.0011556278018384075 0 -0.0011556278018384075 -0.0067714169064573906 0 0 0 -0.052599237164415349 -0.20190384843893669 -0.00026783007432040762 0 -0.00026783007432040762 -0.00525857100962146 0 0 0 -0.051790604862139572 -0.20208125426219159 -0.00037025537413122589 0 -0.00037025537413122589 -0.0067048738792800378 0 0 0 -0.052196532035367796 -1.2484498512198553e-07 -9.0983649336125054e-08 0 -9.0983649336125054e-08 -3.7451089788744659e-07 0 0 0 -1.2483897075235814e-07 -0.20246705622976149 -0.00014751250430068696 0 -0.00014751250430068696 -0.0060511286220151783 0 0 0 -0.052129546212944217 -0.20290505647574908 -0.00043494118114004165 0 -0.00043494118114004165 -0.0075641432452215329 0 0 0 -0.052617299930242778 1.6237943668993276e-07 -1.0367058231387269e-07 0 -1.0367058231387269e-07 4.871597136903175e-07 0 0 0 1.6238478759506257e-07 -0.20250094335317251 -0.0011962482607456582 0 -0.0011962482607456582 -0.0057108435849639108 0 0 0 -0.052052946734533999 -0.20136970573712953 -0.0006805223262872917 0 -0.0006805223262872917 -0.0052436465499341861 0 0 0 -0.0516533380717661 -0.20230253621600447 -0.00091442451535628244 0 -0.00091442451535628244 -0.0041227102361879875 0 0 0 -0.051606311613048059 -0.20175648282267067 -0.0017883136556993001 0 -0.0017883136556993001 -0.0040949208887146593 0 0 0 -0.051462850927846304 -0.20275544739703527 -0.0013327523953549705 0 -0.0013327523953549705 -0.0029195975304554256 0 0 0 -0.051418761231872737 -0.20400441169890587 -0.0014698249181463452 0 -0.0014698249181463452 -0.0030774159197263229 0 0 0 -0.051770456904658035 -0.20306942651031715 -0.0015125768009117274 0 -0.0015125768009117274 -0.0049722543643434102 0 0 0 -0.052010420218665115 -0.20299407650461812 -0.0012857910286633023 0 -0.0012857910286633023 -0.0026789299325293628 0 0 0 -0.051418251609286772 -0.20165285652129358 -0.001894433422069762 0 -0.001894433422069762 -0.00089580144877304813 0 0 0 -0.050637164492516651 -0.20229857197960777 -0.0023264443289633535 0 -0.0023264443289633535 -0.0024086738652286804 0 0 0 -0.051176811461209087 -0.20152085579992318 -0.0029131001450968461 0 -0.0029131001450968461 -0.00035137942440982561 0 0 0 -0.05046805880608328 -0.2019824751842233 -0.0014277111459205655 0 -0.0014277111459205655 -0.0002943495047319708 0 0 0 -0.050569206172238819 -0.20281983452966049 -0.00056277249689842953 0 -0.00056277249689842953 -0.00025799761778353032 0 0 0 -0.050769458036861018 -0.20427632655072286 -0.00014600081456368893 0 -0.00014600081456368893 -0.0009730643305852528 0 0 0 -0.051312347720326987 -0.20381532096015698 -0.00030215377548496996 0 -0.00030215377548496996 -0.0027400251285272692 0 0 0 -0.051638836522171029 -0.20330400252323794 -0.0010614883101623951 0 -0.0010614883101623951 -0.0026937083480279636 0 0 0 -0.051499427717816432 -0.20387469562494084 -0.0018756147612386254 0 -0.0018756147612386254 -0.0011258683496412555 0 0 0 -0.051250140993645409 -0.19095251099262184 -0.00075615203342979664 0 -0.00075615203342979664 -0.0005569414396541239 0 0 0 -0.047877363108069032 -0.19329128774724286 -0.0013871962159761331 0 -0.0013871962159761331 -0.00054581825035748821 0 0 0 -0.048459276499400017 -0.19154154405347479 -0.00016862853154170354 0 -0.00016862853154170354 0.00013636437350700303 0 0 0 -0.047851294919991738 -0.18902667467975626 -0.00029912398983785457 0 -0.00029912398983785457 -0.00057227994098818513 0 0 0 -0.047399738655186097 -0.19035656053906486 -0.00011630564354753181 0 -0.00011630564354753181 0.00014990521625823927 0 0 0 -0.047551663830701807 -0.18812168283220618 0.00014223147102360167 0 0.00014223147102360167 -8.5212435902981554e-05 0 0 0 -0.047051723817027241 -0.1899493027807348 -0.00032899580475875823 0 -0.00032899580475875823 4.9783883290022146e-05 0 0 0 -0.047474879724361096 -1.2476724345985665e-07 -1.300388512012557e-07 0 -1.300388512012557e-07 -3.7425785327083864e-07 0 0 0 -1.2475627418267414e-07 3.8912205860349867e-08 -1.5553116145504377e-07 0 -1.5553116145504377e-07 1.167780007269869e-07 0 0 0 3.8922551646834086e-08 -0.19171267525311347 -0.00046577965630734131 0 -0.00046577965630734131 -0.00027909198617592779 0 0 0 -0.047997941809822142 -0.19050430251806205 0.00019123043502666803 0 0.00019123043502666803 0.00012517104716858185 0 0 0 -0.047594782867723229 -0.19255347500995734 5.8001752890335379e-05 0 5.8001752890335379e-05 -0.00046352516076986205 0 0 0 -0.048254250042681801 -0.19192485099529527 -0.00023821871168089315 0 -0.00023821871168089315 0.00013208976005474327 0 0 0 -0.047948190308810174 -0.19100360409063399 -0.00079883575846567689 0 -0.00079883575846567689 -0.00043111058837164151 0 0 0 -0.047858678669751575 -0.193464385324011 -0.0010069988161288956 0 -0.0010069988161288956 -0.00031684117070729378 0 0 0 -0.04844530662367974 -0.19549663559206787 -0.0010575384345800909 0 -0.0010575384345800909 -0.00062607413543058765 0 0 0 -0.049030677431874628 -0.1937758258441134 -0.00095286176971742798 0 -0.00095286176971742798 -0.0012541939895798215 0 0 0 -0.048757504958423237 -0.19473685976424066 -0.00012945489897753237 0 -0.00012945489897753237 -0.00090068409685561956 0 0 0 -0.048909385965274138 2.3416955937209186e-08 -1.4814855405281955e-07 0 -1.4814855405281955e-07 7.0289792947828402e-08 0 0 0 2.3426687221258973e-08 -0.1936697721514988 -0.0005533934508104299 0 -0.0005533934508104299 -0.00092822261101310755 0 0 0 -0.048649498690628012 -0.19554581876826896 -0.00065058143069690599 0 -0.00065058143069690599 -0.0016215225052353811 0 0 0 -0.049291835318375922 2.5098848247892699e-08 -1.4711208757271979e-07 0 -1.4711208757271979e-07 7.533325487386237e-08 0 0 0 2.5108025780438979e-08 -0.1962655877828117 -0.00017969548996965568 0 -0.00017969548996965568 -0.0020028440841057815 0 0 0 -0.049567107966729251 -0.19586007370775482 -0.0013279888723416425 0 -0.0013279888723416425 -0.0017242402571941984 0 0 0 -0.049396078491237227 -0.19346437437676689 -0.0012240158281498353 0 -0.0012240158281498353 -0.00069032622516262965 0 0 0 -0.048538675150482435 -0.19585646234761811 -0.001715611063270478 0 -0.001715611063270478 -0.00010279402098004042 0 0 0 -0.048989814092149545 -0.1964258047048775 -0.0022886567724865747 0 -0.0022886567724865747 -0.0012322584333668007 0 0 0 -0.049414515784561054 -0.19794950034550995 -0.0020443532561177091 0 -0.0020443532561177091 -0.00032192144944648282 0 0 0 -0.04956785544873904 -0.19872210773128851 -0.0025185852653388519 0 -0.0025185852653388519 -0.0017646116995340272 0 0 0 -0.050121679857705659 -0.19806449929111061 -0.0018381515498423345 0 -0.0018381515498423345 -0.0023130713669938241 0 0 0 -0.050094392664525964 -0.19953413943789694 -0.0016327459407254885 0 -0.0016327459407254885 -0.0015862413608105919 0 0 0 -0.050280095199676862 -0.19745752917994425 -0.0015396158027101425 0 -0.0015396158027101425 -0.00086907034309460784 0 0 0 -0.049581649880759901 -0.19703009202784608 -0.0010137716914061512 0 -0.0010137716914061512 -0.001405485706389431 0 0 0 -0.049608894433558676 -0.19744101999352981 -0.0011034443627391671 0 -0.0011034443627391671 -0.0027059363096931799 0 0 0 -0.050036739075805803 -0.19782740520175043 -0.00023247473849552502 0 -0.00023247473849552502 -0.0025180336216474863 0 0 0 -0.050086359705849265 2.4915507610028041e-08 -1.426321763581005e-07 0 -1.426321763581005e-07 7.4781310008777246e-08 0 0 0 2.4924204404701851e-08 -0.19702661643189123 -0.00055831421509908163 0 -0.00055831421509908163 -0.002582418356398497 0 0 0 -0.049902258697072432 -0.19912802990024767 -0.00014556219714881302 0 -0.00014556219714881302 -0.0033852023220813932 0 0 0 -0.050628308055582244 2.6046539846235668e-08 -1.3760287633864241e-07 0 -1.3760287633864241e-07 7.8172652766590072e-08 0 0 0 2.6054798153206435e-08 -0.19839973169949363 -0.00056876523649523891 0 -0.00056876523649523891 -0.0035339856675381531 0 0 0 -0.050483429341757952 -0.19928627379174865 -0.0012280647357964802 0 -0.0012280647357964802 -0.0030666194909440003 0 0 0 -0.050588223320673115 -0.19861739114115001 -0.00086673872622558545 0 -0.00086673872622558545 -0.0022778207773931913 0 0 0 -0.05022380297963587 -0.19965000476440373 -0.00082833748989748213 0 -0.00082833748989748213 -0.004001267324818647 0 0 0 -0.050912818022305517 -0.20064620257613736 -0.00089763052925345699 0 -0.00089763052925345699 -0.003241483234634801 0 0 0 -0.050971921452693074 -0.20021006128259444 -0.00028785438256623275 0 -0.00028785438256623275 -0.0038862713078764433 0 0 0 -0.051024083147617749 1.4206959244560593e-08 -1.2895603477952519e-07 0 -1.2895603477952519e-07 4.2652088237530358e-08 0 0 0 1.4214761870522314e-08 -0.1996148581148473 -0.00045964931159331313 0 -0.00045964931159331313 -0.0045363176199717525 0 0 0 -0.051037793933704834 1.516117642338576e-07 -1.2245771946697279e-07 0 -1.2245771946697279e-07 4.5486198566361827e-07 0 0 0 1.5161843747436918e-07 -0.2013351037463447 -0.00039579441978931929 0 -0.00039579441978931929 -0.0061004594653145151 0 0 0 -0.051858890802914968 -0.20049883386385761 -0.00041568467743044457 0 -0.00041568467743044457 -0.0052213753248495642 0 0 0 -0.051430052297176704 1.3712057154779749e-07 -1.2753025547424697e-07 0 -1.2753025547424697e-07 4.1139082737780281e-07 0 0 0 1.3712784973140029e-07 -0.20098515518061014 -0.00016722283707573671 0 -0.00016722283707573671 -0.0048424486014752022 0 0 0 -0.051456900945521411 -0.20092117091328016 -0.0011977584226444959 0 -0.0011977584226444959 -0.0043744354576955302 0 0 0 -0.051323901592743859 -0.20125106794614367 -0.0015524324912107798 0 -0.0015524324912107798 -0.0019648207498503822 0 0 0 -0.050803972173998457 -0.20011057533339233 -0.0019074233649723493 0 -0.0019074233649723493 -0.0031859296299896339 0 0 0 -0.050824126240845605 -0.19973873209051093 -0.0030474772381100246 0 -0.0030474772381100246 -8.6776648642594711e-06 0 0 0 -0.049936852438843812 -0.20054035661711067 -0.0025359783679929776 0 -0.0025359783679929776 -0.0020983590903970104 0 0 0 -0.050659678926876929 -0.20008691640714457 -0.0024976542701289489 0 -0.0024976542701289489 -0.00056743297909184198 0 0 0 -0.050163587346559041 -0.19807177769174394 -0.0028810007379851676 0 -0.0028810007379851676 -0.00063912125189580227 0 0 0 -0.049677724735909923 -0.1987300037259232 -0.0023209422953468228 0 -0.0023209422953468228 -0.00035703950746965307 0 0 0 -0.049771760808348338 -0.19684161361515118 -0.0019048076339448772 0 -0.0019048076339448772 0.00025993967899928805 0 0 0 -0.049145418484037959 -0.19488217495040802 -0.0021385682605338588 0 -0.0021385682605338588 -0.00078082371006593654 0 0 0 -0.048915749665118344 -0.19713828740096567 -0.0025339913189134783 0 -0.0025339913189134783 -0.00043456182678526523 0 0 0 -0.049393212306937648 -0.19616333881235798 -0.0010958492611273379 0 -0.0010958492611273379 7.7909693367628208e-05 0 0 0 -0.049021357279747657 -0.19404425250848423 -0.00075415236224878404 0 -0.00075415236224878404 0.00019149138196850046 0 0 0 -0.048463190281628876 -0.1934319670365402 -0.0010193289705686115 0 -0.0010193289705686115 -0.00044475028462526156 0 0 0 -0.048469179330291365 -0.19932038734131818 -0.0010931528511321231 0 -0.0010931528511321231 0.0019143659563752857 0 0 0 -0.04935150534623578 -0.19674589518874769 -0.0011900861604874726 0 -0.0011900861604874726 -3.1389107932822125e-05 0 0 0 -0.049194321074170086 -0.19810078448222995 -0.0011018076492928658 0 -0.0011018076492928658 -1.2810684484609869e-06 0 0 0 -0.049525516387669583 -0.20020797054504971 -0.0021856564103380945 0 -0.0021856564103380945 0.0013003198220888079 0 0 0 -0.049726912680740268 -0.20013397914226652 -0.001996104444508158 0 -0.001996104444508158 0.0011968072350108765 0 0 0 -0.049734292976813949 -0.19835210774439432 -0.0019017636544984701 0 -0.0019017636544984701 0.00066625384376960139 0 0 0 -0.049421463475156135 -0.198389525601401 -0.0021336182920186422 0 -0.0021336182920186422 0.00048828626089486571 0 0 0 -0.049475309835126498 -0.19979999543972748 -0.0015511145584179466 0 -0.0015511145584179466 0.00094316166253419209 0 0 0 -0.04971420844429833 -0.19949099767298642 -0.00067932247125144618 0 -0.00067932247125144618 0.00053125482627175424 0 0 0 -0.049739935711678639 -0.20115651722282218 -0.0011156420419995154 0 -0.0011156420419995154 0.0050785953679409459 0 0 0 -0.049019480463720337 -0.20237427889543283 -3.8322620801130259e-05 0 -3.8322620801130259e-05 0.0013139750937695462 0 0 0 -0.050265075950415843 -0.20045892405801263 -0.00086314789289926308 0 -0.00086314789289926308 0.0027603201423286594 0 0 0 -0.049424650978920903 -0.20183539823957106 -0.0019429226643486158 0 -0.0019429226643486158 0.00092138944808659029 0 0 0 -0.050228502197871137 -0.20038363116028116 -0.00081597056587728867 0 -0.00081597056587728867 0.0029882129685050995 0 0 0 -0.049348854547944007 -0.20088220067775267 0.0011852800155604105 0 0.0011852800155604105 0.0022272276046561013 0 0 0 -0.049663743268274163 -0.19996891160974034 0.0016562220328455272 0 0.0016562220328455272 0.0015679651666312133 0 0 0 -0.049600236610777303 -0.20094323287906321 0.00093995729979195683 0 0.00093995729979195683 0.0046805165031959944 0 0 0 -0.04906567909396678 -0.19852954456604271 0.0013070291629112205 0 0.0013070291629112205 0.00058876100750465676 0 0 0 -0.049485195889634487 -0.19947735568218863 0.0011571833080594937 0 0.0011571833080594937 0.0014273097102097006 0 0 0 -0.049512511492994682 -0.19295391410296789 0.0021987191971236733 0 0.0021987191971236733 -0.00051514220091605778 0 0 0 -0.048367264075971007 -0.19915442234549513 0.002837300500476949 0 0.002837300500476949 0.00031447138594925539 0 0 0 -0.049709987739886489 -0.19844174567118328 0.0015030840881189167 0 0.0015030840881189167 0.00046075902200093388 0 0 0 -0.049495246662295544 -0.19776565094308238 0.0029502469959425959 0 0.0029502469959425959 -5.3418804196085873e-05 0 0 0 -0.049454767436819626 -0.20133782089751229 0.00086818938890510094 0 0.00086818938890510094 -0.00059945553140959562 0 0 0 -0.050484319107230481 -0.20194931017476159 0.0012972544980403289 0 0.0012972544980403289 -0.002400159388141556 0 0 0 -0.051087367390725766 -0.20326060727385931 -0.00018300246279855971 0 -0.00018300246279855971 -0.0033188037440190221 0 0 0 -0.051644852754469575 -0.20294520842041053 0.001055581578350763 0 0.001055581578350763 -0.0004323836206102244 0 0 0 -0.05084439801025515 -0.20504792960415846 -0.001779226085201608 0 -0.001779226085201608 -0.0045424876606043191 0 0 0 -0.052397604316190713 -0.20437615664270012 -0.0015611388846864995 0 -0.0015611388846864995 -0.0042665886158110011 0 0 0 -0.052160686314627745 -0.2037128033932939 -0.0020475808149531503 0 -0.0020475808149531503 -0.0048674360134361673 0 0 0 -0.052145059851682593 -0.20430289600979262 -0.0025174297063953119 0 -0.0025174297063953119 -0.007690948406300975 0 0 0 -0.05299846110402362 -0.20370037112232856 0.00021984720870367978 0 0.00021984720870367978 -0.0035757877782140622 0 0 0 -0.051819039725135595 -0.20410628358906688 -0.00055282427651476632 0 -0.00055282427651476632 -0.0051693025788432795 0 0 0 -0.05231889654197748 -0.20334456966510292 -4.4139562159307283e-05 0 -4.4139562159307283e-05 -0.0030581999725420791 0 0 0 -0.051600692409411272 -0.20227181330398084 0.00058486422714666003 0 0.00058486422714666003 0.0015059578787339246 0 0 0 -0.050191463856311652 -0.20387614205397986 0.0003824793386714119 0 0.0003824793386714119 -0.00081167271962271671 0 0 0 -0.051171953693400676 -0.20273058310130623 0.00093266743180817763 0 0.00093266743180817763 -0.00044901418806958526 0 0 0 -0.050794899322343906 -0.20130653067686705 0.0019306015340853667 0 0.0019306015340853667 0.0011016123507921948 0 0 0 -0.050051229581518704 -0.2014724437142241 0.0015580586974324627 0 0.0015580586974324627 -0.00074608305676139575 0 0 0 -0.050554631692746349 
</DataArray>
<DataArray type="Float64" Name="cross_section_updated" format="ascii">
1 1 1 1 1 1 1 1 1 1 1 1 1 1 1 1 1 1 1 1 1 1 1 1 1 1 1 1 1 1 1 1 1 1 1 1 1 1 1 1 1 1 1 1 1 1 1 1 1 1 1 1 1 1 1 1 1 1 1 1 1 1 1 1 1 1 1 1 1 1 1 1 1 1 1 1 1 1 1 1 1 1 1 1 1 1 1 1 1 1 1 1 1 1 1 1 1 1 1 1 1 1 1 1 1 1 1 1 1 1 1 1 1 1 1 1 1 1 1 1 1 1 1 1 1 1 1 1 1 1 1 1 1 1 1 1 1 1 1 1 1 0.009999990155934127 1 0.0099999744505849253 1 1 1 1 1 1 1 1 1 1 1 1 1 1 0.0099999640698057168 1 0.009999955772680244 1 1 0.0099999483731184197 1 1 0.0099999409692108632 1 1 1 1 1 1 0.0099999248203796465 1 1 0.0099999331136858827 1 1 1 1 1 1 1 1 1 1 1 1 1 1 1 1 1 1 1 1 1 1 1 1 0.0099998628840352044 0.0099998706776689567 1 1 1 1 1 1 1 1 1 0.0099998783589493739 1 1 0.0099998852808432098 1 1 1 1 1 1 1 1 1 1 1 1 1 0.0099998912900666065 1 1 0.0099998967711628639 1 1 1 1 1 1 0.0099999024671754838 1 0.0099999165844936178 1 1 0.0099999090227049642 1 1 1 1 1 1 1 1 1 1 1 1 1 1 1 1 1 1 1 1 1 1 1 1 1 1 1 1 1 1 1 1 1 1 1 1 1 1 1 1 1 1 1 1 1 1 1 1 1 1 1 1 1 1 
</DataArray>
</CellData>
</Piece>
</UnstructuredGrid>
</VTKFile>
