<?xml version="1.0"?>
<VTKFile type="UnstructuredGrid" version="0.1" byte_order="LittleEndian">
<UnstructuredGrid>
<Piece NumberOfPoints="880" NumberOfCells="299">
<Points>
<DataArray type="Float64" NumberOfComponents="3" format="ascii">
-0 0 0 0.18653882694645291 0.22249173546702489 0 0 0.25000000000104189 0 -0 0 0 0.18653882694645291 0.22249173546702489 0 0.24999999999941089 0 0 0.24999999999941089 0 0 0.35015135319464608 0.1900339269648805 0 0.49999999999869182 0 0 0.18653882694645291 0.22249173546702489 0 0.24999999999941089 0 0 0.35015135319464608 0.1900339269648805 0 0.35015135319464608 0.1900339269648805 0 0.49924741621175961 0.21507969613896921 0 0.49999999999869182 0 0 0.35015135319464608 0.1900339269648805 0 0.49924741621175961 0.21507969613896921 0 0.40587285776242238 0.32419148732968017 0 0.37764981543668408 0.41341486499350411 0 0.41576443813007791 0.48093483781626972 0 0.45418244162583959 0.41624787166862259 0 0.37764981543668408 0.41341486499350411 0 0.45418244162583959 0.41624787166862259 0 0.40587285776242238 0.32419148732968017 0 0.41576443813007791 0.48093483781626972 0 0.46566719828045178 0.47702825415921918 0 0.45418244162583959 0.41624787166862259 0 0.41576443813007791 0.48093483781626972 0 0.46566719828045178 0.47702825415921918 0 0.4638583922372429 0.51470588235294135 0 0.46566719828045178 0.47702825415921918 0 0.49954900152271581 0.45107191084564019 0 0.5 0.5 0 0.46566719828045178 0.47702825415921918 0 0.4638583922372429 0.51470588235294135 0 0.5 0.5 0 0.46566719828045178 0.47702825415921918 0 0.49954900152271581 0.45107191084564019 0 0.45418244162583959 0.41624787166862259 0 0.45418244162583959 0.41624787166862259 0 0.49435464945626773 0.33318442629318029 0 0.54876010062294855 0.39662628167175101 0 0.45418244162583959 0.41624787166862259 0 0.49435464945626773 0.33318442629318029 0 0.40587285776242238 0.32419148732968017 0 0.49924741621175961 0.21507969613896921 0 0.49435464945626773 0.33318442629318029 0 0.40587285776242238 0.32419148732968017 0 0.35015135319464608 0.1900339269648805 0 0.40587285776242238 0.32419148732968017 0 0.29145599617909779 0.35026601625021492 0 0.37764981543668408 0.41341486499350411 0 0.40587285776242238 0.32419148732968017 0 0.29145599617909779 0.35026601625021492 0 0.18653882694645291 0.22249173546702489 0 0.35015135319464608 0.1900339269648805 0 0.29145599617909779 0.35026601625021492 0 0.29145599617909779 0.35026601625021492 0 0.32540781287085369 0.49175159894608172 0 0.17872124008781709 0.39692711089439497 0 0.37764981543668408 0.41341486499350411 0 0.29145599617909779 0.35026601625021492 0 0.32540781287085369 0.49175159894608172 0 0.37764981543668408 0.41341486499350411 0 0.41576443813007791 0.48093483781626972 0 0.32540781287085369 0.49175159894608172 0 0.17872124008781709 0.39692711089439497 0 0 0.25000000000104189 0 0 0.50000000000206157 0 0.17872124008781709 0.39692711089439497 0 0 0.50000000000206157 0 0.22453074737734591 0.51613635929252633 0 0.32540781287085369 0.49175159894608172 0 0.17872124008781709 0.39692711089439497 0 0.22453074737734591 0.51613635929252633 0 0.18653882694645291 0.22249173546702489 0 0.29145599617909779 0.35026601625021492 0 0.17872124008781709 0.39692711089439497 0 0.18653882694645291 0.22249173546702489 0 0.17872124008781709 0.39692711089439497 0 0 0.25000000000104189 0 0 0.50000000000206157 0 0.18442368612951149 0.62734948407416979 0 0 0.75000000000034772 0 0.18442368612951149 0.62734948407416979 0 0.22727208279115291 0.72949159435386135 0 0 0.75000000000034772 0 0.18442368612951149 0.62734948407416979 0 0.22727208279115291 0.72949159435386135 0 0.31346558946927339 0.67110784456164874 0 0.18442368612951149 0.62734948407416979 0 0.22453074737734591 0.51613635929252633 0 0.31771010312359771 0.58585679504088894 0 0 0.50000000000206157 0 0.18442368612951149 0.62734948407416979 0 0.22453074737734591 0.51613635929252633 0 0 1 0 0.096516139048187316 0.89789944498939644 0 0 0.75000000000034772 0 0 1 0 0.096516139048187316 0.89789944498939644 0 0.1596341872805197 1 0 0.096516139048187316 0.89789944498939644 0 0 0.75000000000034772 0 0.1644705180525495 0.8200994301041713 0 0.1644705180525495 0.8200994301041713 0 0.2386314078659193 0.92924778694987087 0 0.27155609766735261 0.80398965554903801 0 0.22727208279115291 0.72949159435386135 0 0 0.75000000000034772 0 0.1644705180525495 0.8200994301041713 0 0.22727208279115291 0.72949159435386135 0 0.1644705180525495 0.8200994301041713 0 0.27155609766735261 0.80398965554903801 0 0.096516139048187316 0.89789944498939644 0 0.1644705180525495 0.8200994301041713 0 0.2386314078659193 0.92924778694987087 0 0.096516139048187316 0.89789944498939644 0 0.2386314078659193 0.92924778694987087 0 0.1596341872805197 1 0 0.2386314078659193 0.92924778694987087 0 0.1596341872805197 1 0 0.27591592301363282 1 0 0.36061858902161292 1 0 0.32789203369730929 0.94219211037003092 0 0.27591592301363282 1 0 0.36061858902161292 1 0 0.32789203369730929 0.94219211037003092 0 0.39382242252278338 0.95440420122950598 0 0.2386314078659193 0.92924778694987087 0 0.32789203369730929 0.94219211037003092 0 0.27591592301363282 1 0 0.2386314078659193 0.92924778694987087 0 0.32789203369730929 0.94219211037003092 0 0.31834856208730472 0.88134829947972904 0 0.32789203369730929 0.94219211037003092 0 0.37746652222901839 0.8987532801416368 0 0.39382242252278338 0.95440420122950598 0 0.32789203369730929 0.94219211037003092 0 0.31834856208730472 0.88134829947972904 0 0.37746652222901839 0.8987532801416368 0 0.2386314078659193 0.92924778694987087 0 0.31834856208730472 0.88134829947972904 0 0.27155609766735261 0.80398965554903801 0 0.31834856208730472 0.88134829947972904 0 0.36493375430404612 0.82333914183704071 0 0.37746652222901839 0.8987532801416368 0 0.31834856208730472 0.88134829947972904 0 0.36493375430404612 0.82333914183704071 0 0.27155609766735261 0.80398965554903801 0 0.22727208279115291 0.72949159435386135 0 0.27155609766735261 0.80398965554903801 0 0.32984265945580837 0.74432890077789404 0 0.36493375430404612 0.82333914183704071 0 0.27155609766735261 0.80398965554903801 0 0.32984265945580837 0.74432890077789404 0 0.36493375430404612 0.82333914183704071 0 0.39746869305290999 0.7595658224757349 0 0.32984265945580837 0.74432890077789404 0 0.36493375430404612 0.82333914183704071 0 0.39746869305290999 0.7595658224757349 0 0.42893012659725649 0.81084715169569632 0 0.39746869305290999 0.7595658224757349 0 0.42893012659725649 0.81084715169569632 0 0.44651949253391748 0.77225997208621999 0 0.39746869305290999 0.7595658224757349 0 0.44651949253391748 0.77225997208621999 0 0.43412357948152142 0.72128778687215156 0 0.44651949253391748 0.77225997208621999 0 0.47786860714145291 0.77730227330627721 0 0.47220206448452873 0.74892462649306213 0 0.47786860714145291 0.77730227330627721 0 0.47220206448452873 0.74892462649306213 0 0.5 0.76470588235294124 0 0.47786860714145291 0.77730227330627721 0 0.5 0.79411764705882359 0 0.5 0.76470588235294124 0 0.47062147868881782 0.80650323854033878 0 0.5 0.82352941176470584 0 0.5 0.79411764705882359 0 0.47786860714145291 0.77730227330627721 0 0.47062147868881782 0.80650323854033878 0 0.5 0.79411764705882359 0 0.44651949253391748 0.77225997208621999 0 0.47786860714145291 0.77730227330627721 0 0.47062147868881782 0.80650323854033878 0 0.42893012659725649 0.81084715169569632 0 0.44651949253391748 0.77225997208621999 0 0.47062147868881782 0.80650323854033878 0 0.42893012659725649 0.81084715169569632 0 0.47062147868881782 0.80650323854033878 0 0.46181179062043481 0.83858979842637782 0 0.42893012659725649 0.81084715169569632 0 0.46181179062043481 0.83858979842637782 0 0.42880856207355889 0.86677159981903118 0 0.46181179062043481 0.83858979842637782 0 0.5 0.85294117647058831 0 0.5 0.82352941176470584 0 0.47062147868881782 0.80650323854033878 0 0.46181179062043481 0.83858979842637782 0 0.5 0.82352941176470584 0 0.46181179062043481 0.83858979842637782 0 0.47032448519202857 0.86718057681700655 0 0.5 0.85294117647058831 0 0.47032448519202857 0.86718057681700655 0 0.5 0.88235294117647056 0 0.5 0.85294117647058831 0 0.46181179062043481 0.83858979842637782 0 0.47032448519202857 0.86718057681700655 0 0.42880856207355889 0.86677159981903118 0 0.36493375430404612 0.82333914183704071 0 0.42880856207355889 0.86677159981903118 0 0.37746652222901839 0.8987532801416368 0 0.36493375430404612 0.82333914183704071 0 0.42893012659725649 0.81084715169569632 0 0.42880856207355889 0.86677159981903118 0 0.37746652222901839 0.8987532801416368 0 0.42822627495986648 0.92083108049218854 0 0.39382242252278338 0.95440420122950598 0 0.42880856207355889 0.86677159981903118 0 0.37746652222901839 0.8987532801416368 0 0.42822627495986648 0.92083108049218854 0 0.47032448519202857 0.86718057681700655 0 0.42880856207355889 0.86677159981903118 0 0.46100207326614928 0.89524736819256467 0 0.42880856207355889 0.86677159981903118 0 0.42822627495986648 0.92083108049218854 0 0.46100207326614928 0.89524736819256467 0 0.47032448519202857 0.86718057681700655 0 0.46100207326614928 0.89524736819256467 0 0.5 0.88235294117647056 0 0.46100207326614928 0.89524736819256467 0 0.5 0.91176470588235292 0 0.5 0.88235294117647056 0 0.46100207326614928 0.89524736819256467 0 0.46949408183482899 0.92833826413560594 0 0.5 0.91176470588235292 0 0.46949408183482899 0.92833826413560594 0 0.5 0.94117647058823528 0 0.5 0.91176470588235292 0 0.42822627495986648 0.92083108049218854 0 0.46100207326614928 0.89524736819256467 0 0.46949408183482899 0.92833826413560594 0 0.46949408183482899 0.92833826413560594 0 0.44768478605684647 0.9646709673379662 0 0.47596308696979028 0.95620709615192379 0 0.42822627495986648 0.92083108049218854 0 0.46949408183482899 0.92833826413560594 0 0.44768478605684647 0.9646709673379662 0 0.44768478605684647 0.9646709673379662 0 0.47596308696979028 0.95620709615192379 0 0.47818194888216242 0.97829325975680159 0 0.46949408183482899 0.92833826413560594 0 0.47596308696979028 0.95620709615192379 0 0.5 0.94117647058823528 0 0.47596308696979028 0.95620709615192379 0 0.47818194888216242 0.97829325975680159 0 0.5 0.97058823529411764 0 0.47596308696979028 0.95620709615192379 0 0.5 0.97058823529411764 0 0.5 0.94117647058823528 0 0.47818194888216242 0.97829325975680159 0 0.46726187138417491 1 0 0.5 1 0 0.47818194888216242 0.97829325975680159 0 0.5 0.97058823529411764 0 0.5 1 0 0.44768478605684647 0.9646709673379662 0 0.47818194888216242 0.97829325975680159 0 0.46726187138417491 1 0 0.44768478605684647 0.9646709673379662 0 0.46726187138417491 1 0 0.42231823435723009 1 0 0.44768478605684647 0.9646709673379662 0 0.42231823435723009 1 0 0.39382242252278338 0.95440420122950598 0 0.42822627495986648 0.92083108049218854 0 0.44768478605684647 0.9646709673379662 0 0.39382242252278338 0.95440420122950598 0 0.36061858902161292 1 0 0.42231823435723009 1 0 0.39382242252278338 0.95440420122950598 0 0.31771010312359771 0.58585679504088894 0 0.3872154068451229 0.6301386882447304 0 0.41980724897053312 0.55867199730355355 0 0.32540781287085369 0.49175159894608172 0 0.31771010312359771 0.58585679504088894 0 0.41980724897053312 0.55867199730355355 0 0.32540781287085369 0.49175159894608172 0 0.22453074737734591 0.51613635929252633 0 0.31771010312359771 0.58585679504088894 0 0.18442368612951149 0.62734948407416979 0 0.31771010312359771 0.58585679504088894 0 0.31346558946927339 0.67110784456164874 0 0.22727208279115291 0.72949159435386135 0 0.32984265945580837 0.74432890077789404 0 0.31346558946927339 0.67110784456164874 0 0.39746869305290999 0.7595658224757349 0 0.32984265945580837 0.74432890077789404 0 0.38513711431054509 0.69312683393047636 0 0.32984265945580837 0.74432890077789404 0 0.31346558946927339 0.67110784456164874 0 0.38513711431054509 0.69312683393047636 0 0.31771010312359771 0.58585679504088894 0 0.31346558946927339 0.67110784456164874 0 0.3872154068451229 0.6301386882447304 0 0.31346558946927339 0.67110784456164874 0 0.3872154068451229 0.6301386882447304 0 0.38513711431054509 0.69312683393047636 0 0.3872154068451229 0.6301386882447304 0 0.38513711431054509 0.69312683393047636 0 0.4390556798454946 0.66199025953586599 0 0.3872154068451229 0.6301386882447304 0 0.4390556798454946 0.66199025953586599 0 0.44702869549010399 0.61002701911053991 0 0.39746869305290999 0.7595658224757349 0 0.38513711431054509 0.69312683393047636 0 0.43412357948152142 0.72128778687215156 0 0.38513711431054509 0.69312683393047636 0 0.43412357948152142 0.72128778687215156 0 0.4390556798454946 0.66199025953586599 0 0.43412357948152142 0.72128778687215156 0 0.47636314644728822 0.72058823529411908 0 0.47220206448452873 0.74892462649306213 0 0.44651949253391748 0.77225997208621999 0 0.43412357948152142 0.72128778687215156 0 0.47220206448452873 0.74892462649306213 0 0.43412357948152142 0.72128778687215156 0 0.46330219403010409 0.69594601192744354 0 0.4390556798454946 0.66199025953586599 0 0.43412357948152142 0.72128778687215156 0 0.46330219403010409 0.69594601192744354 0 0.47636314644728822 0.72058823529411908 0 0.46330219403010409 0.69594601192744354 0 0.47636314644728822 0.72058823529411908 0 0.5 0.70588235294117663 0 0.46330219403010409 0.69594601192744354 0 0.5 0.67647058823529438 0 0.5 0.70588235294117663 0 0.47636314644728822 0.72058823529411908 0 0.5 0.73529411764705888 0 0.5 0.70588235294117663 0 0.47220206448452873 0.74892462649306213 0 0.5 0.73529411764705888 0 0.5 0.76470588235294124 0 0.47636314644728822 0.72058823529411908 0 0.47220206448452873 0.74892462649306213 0 0.5 0.73529411764705888 0 0.4390556798454946 0.66199025953586599 0 0.47501372853621993 0.66300743809067952 0 0.47271076880550111 0.63357150722538136 0 0.4390556798454946 0.66199025953586599 0 0.47271076880550111 0.63357150722538136 0 0.44702869549010399 0.61002701911053991 0 0.46330219403010409 0.69594601192744354 0 0.4390556798454946 0.66199025953586599 0 0.47501372853621993 0.66300743809067952 0 0.46330219403010409 0.69594601192744354 0 0.47501372853621993 0.66300743809067952 0 0.5 0.67647058823529438 0 0.47501372853621993 0.66300743809067952 0 0.5 0.64705882352941191 0 0.5 0.67647058823529438 0 0.47501372853621993 0.66300743809067952 0 0.47271076880550111 0.63357150722538136 0 0.5 0.64705882352941191 0 0.47271076880550111 0.63357150722538136 0 0.5 0.61764705882352966 0 0.5 0.64705882352941191 0 0.47784843225772261 0.60532339797118362 0 0.5 0.5882352941176473 0 0.5 0.61764705882352966 0 0.47271076880550111 0.63357150722538136 0 0.47784843225772261 0.60532339797118362 0 0.5 0.61764705882352966 0 0.46950269699300751 0.57713611057881953 0 0.5 0.55882352941176494 0 0.5 0.5882352941176473 0 0.47784843225772261 0.60532339797118362 0 0.46950269699300751 0.57713611057881953 0 0.5 0.5882352941176473 0 0.46950269699300751 0.57713611057881953 0 0.44702869549010399 0.61002701911053991 0 0.41980724897053312 0.55867199730355355 0 0.47784843225772261 0.60532339797118362 0 0.46950269699300751 0.57713611057881953 0 0.44702869549010399 0.61002701911053991 0 0.47271076880550111 0.63357150722538136 0 0.47784843225772261 0.60532339797118362 0 0.44702869549010399 0.61002701911053991 0 0.3872154068451229 0.6301386882447304 0 0.44702869549010399 0.61002701911053991 0 0.41980724897053312 0.55867199730355355 0 0.41576443813007791 0.48093483781626972 0 0.32540781287085369 0.49175159894608172 0 0.41980724897053312 0.55867199730355355 0 0.41576443813007791 0.48093483781626972 0 0.41980724897053312 0.55867199730355355 0 0.4638583922372429 0.51470588235294135 0 0.41980724897053312 0.55867199730355355 0 0.4638583922372429 0.51470588235294135 0 0.47063366764015668 0.5477498568705923 0 0.46950269699300751 0.57713611057881953 0 0.41980724897053312 0.55867199730355355 0 0.47063366764015668 0.5477498568705923 0 0.46950269699300751 0.57713611057881953 0 0.47063366764015668 0.5477498568705923 0 0.5 0.55882352941176494 0 0.47063366764015668 0.5477498568705923 0 0.5 0.52941176470588269 0 0.5 0.55882352941176494 0 0.4638583922372429 0.51470588235294135 0 0.47063366764015668 0.5477498568705923 0 0.5 0.52941176470588269 0 0.4638583922372429 0.51470588235294135 0 0.5 0.5 0 0.5 0.52941176470588269 0 0.5 0.52941176470588269 0 0.52629893369322589 0.51330452493555312 0 0.52820848765230954 0.54540076010342464 0 0.5 0.5 0 0.5 0.52941176470588269 0 0.52629893369322589 0.51330452493555312 0 0.5 0.5 0 0.5 0.52941176470588269 0 0.5 0.52941176470588269 0 0.5 0.55882352941176494 0 0.52820848765230954 0.54540076010342464 0 0.5 0.52941176470588269 0 0.5 0.55882352941176494 0 0.5 0.55882352941176494 0 0.52820848765230954 0.54540076010342464 0 0.52246722155046366 0.57417151085839346 0 0.52820848765230954 0.54540076010342464 0 0.56199650931215228 0.51957997397013023 0 0.55931585964581554 0.57571189932143541 0 0.52629893369322589 0.51330452493555312 0 0.56199650931215228 0.51957997397013023 0 0.54128967150166729 0.47213012589832831 0 0.52629893369322589 0.51330452493555312 0 0.52820848765230954 0.54540076010342464 0 0.56199650931215228 0.51957997397013023 0 0.56199650931215228 0.51957997397013023 0 0.61174067805461174 0.54148194547208961 0 0.60345082206666756 0.47575908627627911 0 0.56199650931215228 0.51957997397013023 0 0.61174067805461174 0.54148194547208961 0 0.55931585964581554 0.57571189932143541 0 0.61174067805461174 0.54148194547208961 0 0.61264973759093866 0.60999664295093947 0 0.55931585964581554 0.57571189932143541 0 0.61264973759093866 0.60999664295093947 0 0.55931585964581554 0.57571189932143541 0 0.55828304378107996 0.63546085023637511 0 0.55931585964581554 0.57571189932143541 0 0.52754891270107895 0.60396918438229519 0 0.55828304378107996 0.63546085023637511 0 0.52754891270107895 0.60396918438229519 0 0.52222323737415433 0.63323059203007803 0 0.55828304378107996 0.63546085023637511 0 0.52820848765230954 0.54540076010342464 0 0.55931585964581554 0.57571189932143541 0 0.52246722155046366 0.57417151085839346 0 0.55931585964581554 0.57571189932143541 0 0.52246722155046366 0.57417151085839346 0 0.52754891270107895 0.60396918438229519 0 0.52246722155046366 0.57417151085839346 0 0.5 0.5882352941176473 0 0.52754891270107895 0.60396918438229519 0 0.5 0.55882352941176494 0 0.52246722155046366 0.57417151085839346 0 0.5 0.5882352941176473 0 0.5 0.55882352941176494 0 0.5 0.5882352941176473 0 0.52754891270107895 0.60396918438229519 0 0.5 0.61764705882352966 0 0.52222323737415433 0.63323059203007803 0 0.5 0.5882352941176473 0 0.5 0.61764705882352966 0 0.5 0.5882352941176473 0 0.52754891270107895 0.60396918438229519 0 0.5 0.61764705882352966 0 0.5 0.61764705882352966 0 0.52222323737415433 0.63323059203007803 0 0.5 0.64705882352941191 0 0.5 0.61764705882352966 0 0.5 0.64705882352941191 0 0.52222323737415433 0.63323059203007803 0 0.5 0.64705882352941191 0 0.52736180768426655 0.66304505109048573 0 0.5 0.64705882352941191 0 0.5 0.67647058823529438 0 0.52736180768426655 0.66304505109048573 0 0.5 0.64705882352941191 0 0.5 0.67647058823529438 0 0.5 0.67647058823529438 0 0.52736180768426655 0.66304505109048573 0 0.52189318962165776 0.69193883095305098 0 0.52736180768426655 0.66304505109048573 0 0.52189318962165776 0.69193883095305098 0 0.55852327729743823 0.69498827241231187 0 0.52736180768426655 0.66304505109048573 0 0.55828304378107996 0.63546085023637511 0 0.55852327729743823 0.69498827241231187 0 0.52222323737415433 0.63323059203007803 0 0.52736180768426655 0.66304505109048573 0 0.55828304378107996 0.63546085023637511 0 0.5 0.73529411764705888 0 0.52547133540542634 0.72058823529411897 0 0.5211984712236245 0.75134107022269114 0 0.5 0.73529411764705888 0 0.52547133540542634 0.72058823529411897 0 0.5 0.70588235294117663 0 0.5 0.73529411764705888 0 0.5 0.70588235294117663 0 0.52547133540542634 0.72058823529411897 0 0.5 0.70588235294117663 0 0.52189318962165776 0.69193883095305098 0 0.5 0.67647058823529438 0 0.5 0.70588235294117663 0 0.52189318962165776 0.69193883095305098 0 0.5 0.67647058823529438 0 0.5 0.70588235294117663 0 0.52547133540542634 0.72058823529411897 0 0.52189318962165776 0.69193883095305098 0 0.55852327729743823 0.69498827241231187 0 0.52547133540542634 0.72058823529411897 0 0.5211984712236245 0.75134107022269114 0 0.55458114032207428 0.75544804615062711 0 0.52547133540542634 0.72058823529411897 0 0.55852327729743823 0.69498827241231187 0 0.55458114032207428 0.75544804615062711 0 0.55852327729743823 0.69498827241231187 0 0.6088970477846376 0.72715446211577472 0 0.55458114032207428 0.75544804615062711 0 0.55852327729743823 0.69498827241231187 0 0.6088970477846376 0.72715446211577472 0 0.60110770968787908 0.67045598539422102 0 0.61264973759093866 0.60999664295093947 0 0.55828304378107996 0.63546085023637511 0 0.60110770968787908 0.67045598539422102 0 0.55828304378107996 0.63546085023637511 0 0.55852327729743823 0.69498827241231187 0 0.60110770968787908 0.67045598539422102 0 0.61264973759093866 0.60999664295093947 0 0.60110770968787908 0.67045598539422102 0 0.66621429167335955 0.68470300534742679 0 0.6088970477846376 0.72715446211577472 0 0.66621429167335955 0.68470300534742679 0 0.6817340940367822 0.76923101696744944 0 0.6088970477846376 0.72715446211577472 0 0.60110770968787908 0.67045598539422102 0 0.66621429167335955 0.68470300534742679 0 0.66621429167335955 0.68470300534742679 0 0.6817340940367822 0.76923101696744944 0 0.7828103453665094 0.69876044407634474 0 0.66621429167335955 0.68470300534742679 0 0.69354174170208815 0.57892485983477626 0 0.7828103453665094 0.69876044407634474 0 0.69354174170208815 0.57892485983477626 0 0.77935529174931761 0.49004815756283893 0 0.66681557370681976 0.49435464945626773 0 0.61174067805461174 0.54148194547208961 0 0.69354174170208815 0.57892485983477626 0 0.66681557370681976 0.49435464945626773 0 0.61174067805461174 0.54148194547208961 0 0.60345082206666756 0.47575908627627911 0 0.66681557370681976 0.49435464945626773 0 0.61174067805461174 0.54148194547208961 0 0.61264973759093866 0.60999664295093947 0 0.69354174170208815 0.57892485983477626 0 0.61264973759093866 0.60999664295093947 0 0.66621429167335955 0.68470300534742679 0 0.69354174170208815 0.57892485983477626 0 0.60145933092659498 0.94808652648958736 0 0.57768176564240026 1 0 0.63938141097836054 1 0 0.60145933092659498 0.94808652648958736 0 0.55381003699196441 0.97073734537240042 0 0.55652711631508067 0.93435010280744335 0 0.60145933092659498 0.94808652648958736 0 0.57768176564240026 1 0 0.55381003699196441 0.97073734537240042 0 0.57768176564240026 1 0 0.53273812861558045 1 0 0.55381003699196441 0.97073734537240042 0 0.53273812861558045 1 0 0.55381003699196441 0.97073734537240042 0 0.52191028766292435 0.97912620202886635 0 0.53273812861558045 1 0 0.52191028766292435 0.97912620202886635 0 0.5 1 0 0.52191028766292435 0.97912620202886635 0 0.5 0.97058823529411764 0 0.5 1 0 0.5 0.97058823529411764 0 0.5 1 0 0.5 0.97058823529411764 0 0.5 0.94117647058823528 0 0.5 0.97058823529411764 0 0.5 0.94117647058823528 0 0.52554900427979434 0.95492408164812537 0 0.52191028766292435 0.97912620202886635 0 0.5 0.97058823529411764 0 0.52554900427979434 0.95492408164812537 0 0.5 0.94117647058823528 0 0.52554900427979434 0.95492408164812537 0 0.52149395742518578 0.9280464911497236 0 0.55381003699196441 0.97073734537240042 0 0.52554900427979434 0.95492408164812537 0 0.55652711631508067 0.93435010280744335 0 0.55381003699196441 0.97073734537240042 0 0.52191028766292435 0.97912620202886635 0 0.52554900427979434 0.95492408164812537 0 0.52554900427979434 0.95492408164812537 0 0.55652711631508067 0.93435010280744335 0 0.52149395742518578 0.9280464911497236 0 0.55652711631508067 0.93435010280744335 0 0.52982914238326484 0.89727189043838895 0 0.57507719038536997 0.89743529736491356 0 0.55652711631508067 0.93435010280744335 0 0.52149395742518578 0.9280464911497236 0 0.52982914238326484 0.89727189043838895 0 0.52149395742518578 0.9280464911497236 0 0.5 0.91176470588235292 0 0.52982914238326484 0.89727189043838895 0 0.5 0.94117647058823528 0 0.5 0.91176470588235292 0 0.5 0.94117647058823528 0 0.52149395742518578 0.9280464911497236 0 0.5 0.91176470588235292 0 0.5 0.91176470588235292 0 0.5 0.88235294117647056 0 0.52982914238326484 0.89727189043838895 0 0.5 0.91176470588235292 0 0.5 0.88235294117647056 0 0.5 0.88235294117647056 0 0.52982914238326484 0.89727189043838895 0 0.51991574276818808 0.86764705882352966 0 0.52982914238326484 0.89727189043838895 0 0.57507719038536997 0.89743529736491356 0 0.54799184932697576 0.8599032232094268 0 0.60145933092659498 0.94808652648958736 0 0.55652711631508067 0.93435010280744335 0 0.57507719038536997 0.89743529736491356 0 0.60145933092659498 0.94808652648958736 0 0.57507719038536997 0.89743529736491356 0 0.63427031498547037 0.88927276979110648 0 0.57507719038536997 0.89743529736491356 0 0.58994607995897996 0.84812355238296233 0 0.63427031498547037 0.88927276979110648 0 0.58994607995897996 0.84812355238296233 0 0.64153141236229239 0.83072478436463804 0 0.63427031498547037 0.88927276979110648 0 0.58994607995897996 0.84812355238296233 0 0.60049020024666178 0.78900583008989877 0 0.64153141236229239 0.83072478436463804 0 0.58994607995897996 0.84812355238296233 0 0.54799184932697576 0.8599032232094268 0 0.55206941203846505 0.81091931303809783 0 0.58994607995897996 0.84812355238296233 0 0.55206941203846505 0.81091931303809783 0 0.60049020024666178 0.78900583008989877 0 0.57507719038536997 0.89743529736491356 0 0.58994607995897996 0.84812355238296233 0 0.54799184932697576 0.8599032232094268 0 0.52982914238326484 0.89727189043838895 0 0.54799184932697576 0.8599032232094268 0 0.51991574276818808 0.86764705882352966 0 0.54799184932697576 0.8599032232094268 0 0.51991574276818808 0.86764705882352966 0 0.52395085592512047 0.83729395211968571 0 0.51991574276818808 0.86764705882352966 0 0.5 0.85294117647058831 0 0.52395085592512047 0.83729395211968571 0 0.5 0.88235294117647056 0 0.5 0.85294117647058831 0 0.5 0.88235294117647056 0 0.51991574276818808 0.86764705882352966 0 0.5 0.85294117647058831 0 0.5 0.82352941176470584 0 0.52395085592512047 0.83729395211968571 0 0.52039202967084142 0.80930587873000437 0 0.5 0.85294117647058831 0 0.5 0.82352941176470584 0 0.5 0.85294117647058831 0 0.5 0.82352941176470584 0 0.52395085592512047 0.83729395211968571 0 0.52395085592512047 0.83729395211968571 0 0.55206941203846505 0.81091931303809783 0 0.52039202967084142 0.80930587873000437 0 0.54799184932697576 0.8599032232094268 0 0.52395085592512047 0.83729395211968571 0 0.55206941203846505 0.81091931303809783 0 0.55206941203846505 0.81091931303809783 0 0.52039202967084142 0.80930587873000437 0 0.52593988039062167 0.78066906966870908 0 0.55206941203846505 0.81091931303809783 0 0.52593988039062167 0.78066906966870908 0 0.55458114032207428 0.75544804615062711 0 0.52039202967084142 0.80930587873000437 0 0.5 0.79411764705882359 0 0.52593988039062167 0.78066906966870908 0 0.5 0.82352941176470584 0 0.5 0.79411764705882359 0 0.5 0.82352941176470584 0 0.52039202967084142 0.80930587873000437 0 0.5 0.79411764705882359 0 0.5 0.73529411764705888 0 0.5 0.76470588235294124 0 0.5 0.73529411764705888 0 0.5 0.76470588235294124 0 0.5211984712236245 0.75134107022269114 0 0.5 0.79411764705882359 0 0.5 0.76470588235294124 0 0.52593988039062167 0.78066906966870908 0 0.5 0.79411764705882359 0 0.5 0.76470588235294124 0 0.5 0.76470588235294124 0 0.52593988039062167 0.78066906966870908 0 0.5211984712236245 0.75134107022269114 0 0.52593988039062167 0.78066906966870908 0 0.5211984712236245 0.75134107022269114 0 0.55458114032207428 0.75544804615062711 0 0.6088970477846376 0.72715446211577472 0 0.55458114032207428 0.75544804615062711 0 0.60049020024666178 0.78900583008989877 0 0.55206941203846505 0.81091931303809783 0 0.55458114032207428 0.75544804615062711 0 0.60049020024666178 0.78900583008989877 0 0.6817340940367822 0.76923101696744944 0 0.70916369539323409 0.86041409043207073 0 0.80987878298654392 0.8110307373443908 0 0.6088970477846376 0.72715446211577472 0 0.60049020024666178 0.78900583008989877 0 0.6817340940367822 0.76923101696744944 0 0.60049020024666178 0.78900583008989877 0 0.6817340940367822 0.76923101696744944 0 0.64153141236229239 0.83072478436463804 0 0.70916369539323409 0.86041409043207073 0 0.64153141236229239 0.83072478436463804 0 0.63427031498547037 0.88927276979110648 0 0.6817340940367822 0.76923101696744944 0 0.70916369539323409 0.86041409043207073 0 0.64153141236229239 0.83072478436463804 0 0.70916369539323409 0.86041409043207073 0 0.68173274398262862 0.93660593960145366 0 0.63427031498547037 0.88927276979110648 0 0.60145933092659498 0.94808652648958736 0 0.68173274398262862 0.93660593960145366 0 0.63427031498547037 0.88927276979110648 0 0.70916369539323409 0.86041409043207073 0 0.68173274398262862 0.93660593960145366 0 0.78222494485339233 0.91531439423588867 0 0.68173274398262862 0.93660593960145366 0 0.72408407698689681 1 0 0.78222494485339233 0.91531439423588867 0 0.60145933092659498 0.94808652648958736 0 0.68173274398262862 0.93660593960145366 0 0.63938141097836054 1 0 0.68173274398262862 0.93660593960145366 0 0.72408407698689681 1 0 0.63938141097836054 1 0 1 1 0 0.89611933618281592 0.89173516444576184 0 1 0.74999999999934008 0 0.72408407698689681 1 0 0.84036581271988753 1 0 0.78222494485339233 0.91531439423588867 0 0.84036581271988753 1 0 0.78222494485339233 0.91531439423588867 0 0.89611933618281592 0.89173516444576184 0 0.6817340940367822 0.76923101696744944 0 0.80987878298654392 0.8110307373443908 0 0.7828103453665094 0.69876044407634474 0 0.80987878298654392 0.8110307373443908 0 0.7828103453665094 0.69876044407634474 0 1 0.74999999999934008 0 0.78222494485339233 0.91531439423588867 0 0.80987878298654392 0.8110307373443908 0 0.89611933618281592 0.89173516444576184 0 0.70916369539323409 0.86041409043207073 0 0.78222494485339233 0.91531439423588867 0 0.80987878298654392 0.8110307373443908 0 0.80987878298654392 0.8110307373443908 0 0.89611933618281592 0.89173516444576184 0 1 0.74999999999934008 0 0.84036581271988753 1 0 1 1 0 0.89611933618281592 0.89173516444576184 0 0.84549316180028322 0.59867304496468476 0 1 0.74999999999934008 0 1 0.49999999999869182 0 0.69354174170208815 0.57892485983477626 0 0.84549316180028322 0.59867304496468476 0 0.77935529174931761 0.49004815756283893 0 0.84549316180028322 0.59867304496468476 0 1 0.49999999999869182 0 0.77935529174931761 0.49004815756283893 0 0.69354174170208815 0.57892485983477626 0 0.84549316180028322 0.59867304496468476 0 0.7828103453665094 0.69876044407634474 0 0.84549316180028322 0.59867304496468476 0 0.7828103453665094 0.69876044407634474 0 1 0.74999999999934008 0 1 0.49999999999869182 0 0.77935529174931761 0.49004815756283893 0 0.80451351819826811 0.35479918680564199 0 0.80451351819826811 0.35479918680564199 0 1 0.24999999999941089 0 0.79923457477009219 0.1751534052300894 0 1 0.49999999999869182 0 0.80451351819826811 0.35479918680564199 0 1 0.24999999999941089 0 1 0 0 0.79923457477009219 0.1751534052300894 0 0.74999999999934008 0 0 1 0.24999999999941089 0 1 0 0 0.79923457477009219 0.1751534052300894 0 0.49999999999869182 0 0 0.62537763927714929 0.14286513648320209 0 0.74999999999934008 0 0 0.79923457477009219 0.1751534052300894 0 0.62537763927714929 0.14286513648320209 0 0.6197279975813802 0.30020319976287241 0 0.79923457477009219 0.1751534052300894 0 0.62537763927714929 0.14286513648320209 0 0.74999999999934008 0 0 0.49924741621175961 0.21507969613896921 0 0.49999999999869182 0 0 0.62537763927714929 0.14286513648320209 0 0.49924741621175961 0.21507969613896921 0 0.62537763927714929 0.14286513648320209 0 0.6197279975813802 0.30020319976287241 0 0.49924741621175961 0.21507969613896921 0 0.49435464945626773 0.33318442629318029 0 0.6197279975813802 0.30020319976287241 0 0.49435464945626773 0.33318442629318029 0 0.6197279975813802 0.30020319976287241 0 0.54876010062294855 0.39662628167175101 0 0.6197279975813802 0.30020319976287241 0 0.54876010062294855 0.39662628167175101 0 0.66576775508844777 0.41353720431697111 0 0.49954900152271581 0.45107191084564019 0 0.45418244162583959 0.41624787166862259 0 0.54876010062294855 0.39662628167175101 0 0.49954900152271581 0.45107191084564019 0 0.54876010062294855 0.39662628167175101 0 0.54128967150166729 0.47213012589832831 0 0.49954900152271581 0.45107191084564019 0 0.5 0.5 0 0.54128967150166729 0.47213012589832831 0 0.5 0.5 0 0.52629893369322589 0.51330452493555312 0 0.54128967150166729 0.47213012589832831 0 0.54876010062294855 0.39662628167175101 0 0.54128967150166729 0.47213012589832831 0 0.60345082206666756 0.47575908627627911 0 0.56199650931215228 0.51957997397013023 0 0.54128967150166729 0.47213012589832831 0 0.60345082206666756 0.47575908627627911 0 0.54876010062294855 0.39662628167175101 0 0.60345082206666756 0.47575908627627911 0 0.66576775508844777 0.41353720431697111 0 0.77935529174931761 0.49004815756283893 0 0.80451351819826811 0.35479918680564199 0 0.66576775508844777 0.41353720431697111 0 0.60345082206666756 0.47575908627627911 0 0.66576775508844777 0.41353720431697111 0 0.66681557370681976 0.49435464945626773 0 0.77935529174931761 0.49004815756283893 0 0.66576775508844777 0.41353720431697111 0 0.66681557370681976 0.49435464945626773 0 0.80451351819826811 0.35479918680564199 0 0.79923457477009219 0.1751534052300894 0 0.6197279975813802 0.30020319976287241 0 0.80451351819826811 0.35479918680564199 0 0.6197279975813802 0.30020319976287241 0 0.66576775508844777 0.41353720431697111 0 
</DataArray>
</Points>
<Cells>
<DataArray type="UInt32" Name="connectivity" format="ascii">
0 1 2 3 4 5 6 7 8 9 10 11 12 13 14 15 16 17 18 19 20 21 22 23 24 25 26 27 28 29 30 31 32 33 34 35 36 37 38 39 40 41 42 43 44 45 46 47 48 49 50 51 52 53 54 55 56 57 58 59 60 61 62 63 64 65 66 67 68 69 70 71 72 73 74 75 76 77 78 79 80 81 82 83 84 85 86 87 88 89 90 91 92 93 94 95 96 97 98 99 100 101 102 103 104 105 106 107 108 109 110 111 112 113 114 115 116 117 118 119 120 121 122 123 124 125 126 127 128 129 130 131 132 133 134 135 136 137 138 139 140 141 142 143 144 145 146 147 148 149 150 151 152 153 154 155 156 157 158 159 160 161 162 163 164 165 166 167 168 169 170 171 172 173 174 175 176 177 178 179 180 181 182 183 184 185 186 187 188 189 190 191 192 193 194 195 196 197 198 199 200 201 202 203 204 205 206 207 208 209 210 211 212 213 214 215 216 217 218 219 220 221 222 223 224 225 226 227 228 229 230 231 232 233 234 235 236 237 238 239 240 241 242 243 244 245 246 247 248 249 250 251 252 253 254 255 256 257 258 259 260 261 262 263 264 265 266 267 268 269 270 271 272 273 274 275 276 277 278 279 280 281 282 283 284 285 286 287 288 289 290 291 292 293 294 295 296 297 298 299 300 301 302 303 304 305 306 307 308 309 310 311 312 313 314 315 316 317 318 319 320 321 322 323 324 325 326 327 328 329 330 331 332 333 334 335 336 337 338 339 340 341 342 343 344 345 346 347 348 349 350 351 352 353 354 355 356 357 358 359 360 361 362 363 364 365 366 367 368 369 370 371 372 373 374 375 376 377 378 379 380 381 382 383 384 385 386 387 388 389 390 391 392 393 394 395 396 397 398 399 400 401 402 403 404 405 406 407 408 409 410 411 412 413 414 415 416 417 418 419 420 421 422 423 424 425 426 427 428 429 430 431 432 433 434 435 436 437 438 439 440 441 442 443 444 445 446 447 448 449 450 451 452 453 454 455 456 457 458 459 460 461 462 463 464 465 466 467 468 469 470 471 472 473 474 475 476 477 478 479 480 481 482 483 484 485 486 487 488 489 490 491 492 493 494 495 496 497 498 499 500 501 502 503 504 505 506 507 508 509 510 511 512 513 514 515 516 517 518 519 520 521 522 523 524 525 526 527 528 529 530 531 532 533 534 535 536 537 538 539 540 541 542 543 544 545 546 547 548 549 550 551 552 553 554 555 556 557 558 559 560 561 562 563 564 565 566 567 568 569 570 571 572 573 574 575 576 577 578 579 580 581 582 583 584 585 586 587 588 589 590 591 592 593 594 595 596 597 598 599 600 601 602 603 604 605 606 607 608 609 610 611 612 613 614 615 616 617 618 619 620 621 622 623 624 625 626 627 628 629 630 631 632 633 634 635 636 637 638 639 640 641 642 643 644 645 646 647 648 649 650 651 652 653 654 655 656 657 658 659 660 661 662 663 664 665 666 667 668 669 670 671 672 673 674 675 676 677 678 679 680 681 682 683 684 685 686 687 688 689 690 691 692 693 694 695 696 697 698 699 700 701 702 703 704 705 706 707 708 709 710 711 712 713 714 715 716 717 718 719 720 721 722 723 724 725 726 727 728 729 730 731 732 733 734 735 736 737 738 739 740 741 742 743 744 745 746 747 748 749 750 751 752 753 754 755 756 757 758 759 760 761 762 763 764 765 766 767 768 769 770 771 772 773 774 775 776 777 778 779 780 781 782 783 784 785 786 787 788 789 790 791 792 793 794 795 796 797 798 799 800 801 802 803 804 805 806 807 808 809 810 811 812 813 814 815 816 817 818 819 820 821 822 823 824 825 826 827 828 829 830 831 832 833 834 835 836 837 838 839 840 841 842 843 844 845 846 847 848 849 850 851 852 853 854 855 856 857 858 859 860 861 862 863 864 865 866 867 868 869 870 871 872 873 874 875 876 877 878 879 
</DataArray>
<DataArray type="UInt32" Name="offsets" format="ascii">
3 6 9 12 15 18 21 24 27 30 33 36 39 42 45 48 51 54 57 60 63 66 69 72 75 78 81 84 87 90 93 96 99 102 105 108 111 114 117 120 123 126 129 132 135 138 141 144 147 150 153 156 159 162 165 168 171 174 177 180 183 186 189 192 195 198 201 204 207 210 213 216 219 222 225 228 231 234 237 240 243 246 249 252 255 258 261 264 267 270 273 276 279 282 285 288 291 294 297 300 303 306 309 312 315 318 321 324 327 330 333 336 339 342 345 348 351 354 357 360 363 366 369 372 375 378 381 384 387 390 393 396 399 402 405 408 411 414 417 420 423 425 428 430 433 436 439 442 445 448 451 454 457 460 463 466 469 472 474 477 479 482 485 487 490 493 495 498 501 504 507 510 513 515 518 521 523 526 529 532 535 538 541 544 547 550 553 556 559 562 565 568 571 574 577 580 583 586 589 592 595 597 599 602 605 608 611 614 617 620 623 626 628 631 634 636 639 642 645 648 651 654 657 660 663 666 669 672 675 677 680 683 685 688 691 694 697 700 703 705 708 710 713 716 718 721 724 727 730 733 736 739 742 745 748 751 754 757 760 763 766 769 772 775 778 781 784 787 790 793 796 799 802 805 808 811 814 817 820 823 826 829 832 835 838 841 844 847 850 853 856 859 862 865 868 871 874 877 880 
</DataArray>
<DataArray type="UInt32" Name="types" format="ascii">
5 5 5 5 5 5 5 5 5 5 5 5 5 5 5 5 5 5 5 5 5 5 5 5 5 5 5 5 5 5 5 5 5 5 5 5 5 5 5 5 5 5 5 5 5 5 5 5 5 5 5 5 5 5 5 5 5 5 5 5 5 5 5 5 5 5 5 5 5 5 5 5 5 5 5 5 5 5 5 5 5 5 5 5 5 5 5 5 5 5 5 5 5 5 5 5 5 5 5 5 5 5 5 5 5 5 5 5 5 5 5 5 5 5 5 5 5 5 5 5 5 5 5 5 5 5 5 5 5 5 5 5 5 5 5 5 5 5 5 5 5 3 5 3 5 5 5 5 5 5 5 5 5 5 5 5 5 5 3 5 3 5 5 3 5 5 3 5 5 5 5 5 5 3 5 5 3 5 5 5 5 5 5 5 5 5 5 5 5 5 5 5 5 5 5 5 5 5 5 5 5 3 3 5 5 5 5 5 5 5 5 5 3 5 5 3 5 5 5 5 5 5 5 5 5 5 5 5 5 3 5 5 3 5 5 5 5 5 5 3 5 3 5 5 3 5 5 5 5 5 5 5 5 5 5 5 5 5 5 5 5 5 5 5 5 5 5 5 5 5 5 5 5 5 5 5 5 5 5 5 5 5 5 5 5 5 5 5 5 5 5 5 5 5 5 5 5 5 5 
</DataArray>
</Cells>
<PointData Scalars="" Vectors="displacement," Tensors="">
<DataArray type="Float64" Name="displacement" NumberOfComponents="3" format="ascii">
-0.00010728837188777419 -1.3871083838465633e-05 0 -0.015665149170605328 -0.017037203817886849 0 2.6089271379577166e-06 5.4758750303452191e-06 0 -0.00010728837188777419 -1.3871083838465633e-05 0 -0.015665149170605318 -0.017037203817886842 0 -0.077640433439215867 -0.048520544202915412 0 -0.077640433439215867 -0.048520544202915412 0 -0.043235625569012684 -0.064750696472195113 0 -0.1600274584884574 -0.15281858742181112 0 -0.015665149170605328 -0.017037203817886849 0 -0.077640433439215867 -0.048520544202915412 0 -0.043235625569012677 -0.064750696472195099 0 -0.043235625569012677 -0.064750696472195099 0 -0.052058678234362048 -0.1396064277972435 0 -0.1600274584884574 -0.15281858742181112 0 -0.043235625569012677 -0.064750696472195099 0 -0.052058678234362048 -0.1396064277972435 0 0.00095598188124506082 -0.079662787853198982 0 0.029333978684371046 -0.065016970966657303 0 0.050823536145232669 -0.075667116554255898 0 0.038990192879410274 -0.092323755613756484 0 0.029333978684371046 -0.065016970966657303 0 0.038990192879410274 -0.092323755613756484 0 0.00095598188124506082 -0.079662787853198982 0 0.050823536145232669 -0.075667116554255898 0 0.062545557923109535 -0.091763108326811671 0 0.038990192879410274 -0.092323755613756484 0 0.050823536145232669 -0.075667116554255898 0 0.062545557923109535 -0.091763108326811685 0 0.062065996449756668 -0.089706927451173965 0 0.062545557923109521 -0.091763108326811685 0 0.058380870596593526 -0.11443284018272754 0 0.082500611754670092 -0.10089948794018055 0 0.062545557923109521 -0.091763108326811685 0 0.062065996449756668 -0.089706927451173965 0 0.082500611754670092 -0.10089948794018055 0 0.062545557923109521 -0.091763108326811685 0 0.058380870596593526 -0.11443284018272754 0 0.038990192879410274 -0.092323755613756484 0 0.038990192879410274 -0.092323755613756484 0 0.0030903236629193308 -0.12722109038285198 0 0.034951938908161416 -0.15972873517694877 0 0.038990192879410274 -0.092323755613756484 0 0.0030903236629193308 -0.12722109038285198 0 0.00095598188124506082 -0.079662787853198982 0 -0.052058678234362048 -0.1396064277972435 0 0.00309032366291933 -0.12722109038285198 0 0.00095598188124506082 -0.079662787853198982 0 -0.043235625569012677 -0.064750696472195099 0 0.00095598188124506082 -0.079662787853198982 0 0.007976889096013547 -0.040559359867674685 0 0.029333978684371046 -0.065016970966657303 0 0.00095598188124506169 -0.079662787853198982 0 0.007976889096013547 -0.040559359867674685 0 -0.015665149170605328 -0.017037203817886849 0 -0.043235625569012677 -0.064750696472195099 0 0.007976889096013547 -0.040559359867674685 0 0.007976889096013547 -0.040559359867674685 0 0.034514467274518575 -0.052749556052425123 0 0.0077042193278701295 -0.017897816887209088 0 0.029333978684371046 -0.065016970966657303 0 0.007976889096013547 -0.040559359867674685 0 0.034514467274518575 -0.052749556052425123 0 0.029333978684371046 -0.065016970966657303 0 0.050823536145232669 -0.075667116554255898 0 0.034514467274518575 -0.052749556052425123 0 0.0077042193278701295 -0.017897816887209088 0 2.6089271379577166e-06 5.4758750303452191e-06 0 1.810502283248328e-05 -9.3256998450912056e-06 0 0.0077042193278701295 -0.017897816887209088 0 1.810502283248328e-05 -9.3256998450912056e-06 0 0.021542504883463608 -0.032258357334663271 0 0.034514467274518575 -0.052749556052425123 0 0.0077042193278701295 -0.017897816887209088 0 0.021542504883463608 -0.032258357334663271 0 -0.015665149170605328 -0.017037203817886849 0 0.007976889096013547 -0.040559359867674685 0 0.0077042193278701295 -0.017897816887209088 0 -0.015665149170605328 -0.017037203817886849 0 0.0077042193278701295 -0.017897816887209088 0 2.6089271379577166e-06 5.4758750303452191e-06 0 1.810502283248328e-05 -9.3256998450912056e-06 0 0.015147611096743138 -0.029405870324629744 0 1.252264973020274e-05 -1.4108047063580995e-05 0 0.015147611096743138 -0.029405870324629744 0 0.01574467423562952 -0.036997935915312037 0 1.252264973020274e-05 -1.4108047063580995e-05 0 0.015147611096743138 -0.029405870324629744 0 0.01574467423562952 -0.036997935915312037 0 0.02358396613112446 -0.051790949769281731 0 0.015147611096743138 -0.029405870324629744 0 0.021542504883463608 -0.032258357334663271 0 0.030867452398000424 -0.052854240100145833 0 1.810502283248328e-05 -9.3256998450912056e-06 0 0.015147611096743143 -0.029405870324629747 0 0.021542504883463608 -0.032258357334663271 0 4.0815172486491122e-05 -1.6879839071545401e-05 0 0.0073662484958460436 -0.015045143701330798 0 1.252264973020274e-05 -1.4108047063580995e-05 0 4.0815172486491122e-05 -1.6879839071545401e-05 0 0.0073662484958460445 -0.015045143701330798 0 0.020536023121712082 -0.027811313302894498 0 0.0073662484958460436 -0.015045143701330798 0 1.252264973020274e-05 -1.4108047063580995e-05 0 0.010631064024632399 -0.02657771510118178 0 0.010631064024632399 -0.02657771510118178 0 0.018036878861353255 -0.039052363200413963 0 0.016194227449084608 -0.043388115943688937 0 0.01574467423562952 -0.036997935915312037 0 1.2522649730201727e-05 -1.4108047063577834e-05 0 0.010631064024632399 -0.02657771510118178 0 0.01574467423562952 -0.036997935915312037 0 0.010631064024632399 -0.02657771510118178 0 0.016194227449084608 -0.043388115943688937 0 0.0073662484958460436 -0.015045143701330798 0 0.010631064024632401 -0.026577715101181783 0 0.018036878861353255 -0.039052363200413963 0 0.0073662484958460436 -0.015045143701330798 0 0.018036878861353255 -0.039052363200413963 0 0.020536023121712082 -0.027811313302894498 0 0.018036878861353255 -0.039052363200413963 0 0.020536023121712082 -0.027811313302894498 0 0.025677689963378044 -0.044361939160214074 0 0.026237973460525792 -0.052315913155860393 0 0.021761797745817137 -0.049456554085170731 0 0.025677689963378044 -0.044361939160214074 0 0.026237973460525792 -0.052315913155860393 0 0.021761797745817137 -0.049456554085170731 0 0.023140589218885357 -0.054802601032018221 0 0.018036878861353255 -0.039052363200413963 0 0.021761797745817137 -0.049456554085170731 0 0.025677689963378044 -0.044361939160214074 0 0.018036878861353255 -0.039052363200413963 0 0.021761797745817137 -0.049456554085170731 0 0.01892937933045238 -0.048305748734736219 0 0.021761797745817137 -0.049456554085170731 0 0.020251730736974147 -0.053766452209239125 0 0.023140589218885357 -0.054802601032018221 0 0.021761797745817137 -0.049456554085170731 0 0.018929379330452377 -0.048305748734736219 0 0.020251730736974147 -0.053766452209239125 0 0.018036878861353255 -0.039052363200413963 0 0.01892937933045238 -0.048305748734736219 0 0.016194227449084608 -0.043388115943688937 0 0.01892937933045238 -0.048305748734736219 0 0.018501704982022429 -0.053993758960220441 0 0.020251730736974147 -0.053766452209239125 0 0.01892937933045238 -0.048305748734736219 0 0.018501704982022429 -0.053993758960220441 0 0.016194227449084608 -0.043388115943688937 0 0.01574467423562952 -0.036997935915312037 0 0.016194227449084608 -0.043388115943688937 0 0.019742523599189793 -0.052190567424564023 0 0.018501704982022429 -0.053993758960220441 0 0.016194227449084608 -0.043388115943688937 0 0.019742523599189793 -0.052190567424564023 0 0.018501704982022429 -0.053993758960220441 0 0.0200626016443512 -0.05841886672538156 0 0.019742523599189793 -0.052190567424564023 0 0.018501704982022429 -0.053993758960220441 0 0.0200626016443512 -0.05841886672538156 0 0.018765032263328003 -0.058265946809496628 0 0.0200626016443512 -0.05841886672538156 0 0.018765032263328003 -0.058265946809496628 0 0.019483817944962137 -0.059898218037253377 0 0.0200626016443512 -0.05841886672538156 0 0.019483817944962137 -0.059898218037253377 0 0.022148717270448263 -0.061820955042245031 0 0.019483817944962137 -0.059898218037253377 0 0.019248504536584055 -0.059936903702113839 0 0.02034542976162871 -0.060636568692255317 0 0.019248504536584055 -0.059936903702113839 0 0.02034542976162871 -0.060636568692255317 0 0.019573075956328744 -0.059649478777924689 0 0.019248504536584055 -0.059936903702113839 0 0.018820445530921312 -0.059585607921657707 0 0.019573075956328744 -0.059649478777924689 0 0.018731594614120176 -0.059460045369031593 0 0.018770024693028204 -0.059694260433256804 0 0.018820445530921312 -0.059585607921657707 0 0.019248504536584055 -0.059936903702113839 0 0.018731594614120176 -0.059460045369031593 0 0.018820445530921312 -0.059585607921657707 0 0.019483817944962137 -0.059898218037253377 0 0.019248504536584051 -0.059936903702113839 0 0.018731594614120176 -0.059460045369031593 0 0.018765032263328003 -0.058265946809496628 0 0.019483817944962137 -0.059898218037253377 0 0.018731594614120176 -0.059460045369031593 0 0.018765032263328003 -0.058265946809496628 0 0.018731594614120172 -0.059460045369031593 0 0.019007946651150555 -0.058903050346087886 0 0.018765032263328003 -0.058265946809496628 0 0.019007946651150551 -0.058903050346087886 0 0.0195553940664203 -0.057334739301366358 0 0.019007946651150555 -0.058903050346087886 0 0.019303475802734223 -0.059790547064665231 0 0.018770024693028204 -0.059694260433256804 0 0.018731594614120176 -0.059460045369031593 0 0.019007946651150555 -0.058903050346087886 0 0.018770024693028204 -0.059694260433256804 0 0.019007946651150555 -0.058903050346087886 0 0.019623865207711502 -0.059007858629982007 0 0.019303475802734223 -0.059790547064665231 0 0.019623865207711502 -0.059007858629982007 0 0.020128870043320302 -0.060015870094277807 0 0.019303475802734223 -0.059790547064665231 0 0.019007946651150555 -0.058903050346087886 0 0.019623865207711502 -0.059007858629982007 0 0.0195553940664203 -0.057334739301366358 0 0.018501704982022429 -0.053993758960220441 0 0.0195553940664203 -0.057334739301366358 0 0.020251730736974147 -0.053766452209239125 0 0.018501704982022429 -0.053993758960220441 0 0.018765032263328003 -0.058265946809496628 0 0.0195553940664203 -0.057334739301366358 0 0.020251730736974147 -0.053766452209239125 0 0.021540821685872145 -0.05694778346551789 0 0.023140589218885357 -0.054802601032018221 0 0.0195553940664203 -0.057334739301366358 0 0.020251730736974147 -0.053766452209239125 0 0.021540821685872145 -0.05694778346551789 0 0.019623865207711502 -0.059007858629982007 0 0.0195553940664203 -0.057334739301366358 0 0.020559832293714633 -0.058570411533966769 0 0.0195553940664203 -0.057334739301366358 0 0.021540821685872145 -0.05694778346551789 0 0.020559832293714633 -0.058570411533966769 0 0.019623865207711502 -0.059007858629982007 0 0.020559832293714633 -0.058570411533966769 0 0.020128870043320302 -0.060015870094277807 0 0.020559832293714633 -0.058570411533966769 0 0.021294537824843633 -0.060183719932411069 0 0.020128870043320302 -0.060015870094277807 0 0.020559832293714633 -0.058570411533966769 0 0.021982985912803454 -0.058948133439048075 0 0.021294537824843633 -0.060183719932411069 0 0.021982985912803454 -0.058948133439048075 0 0.022647212985721702 -0.060359181784044195 0 0.021294537824843633 -0.060183719932411069 0 0.021540821685872145 -0.05694778346551789 0 0.020559832293714633 -0.058570411533966769 0 0.021982985912803454 -0.058948133439048075 0 0.021982985912803454 -0.058948133439048075 0 0.023805406524935312 -0.057913536786428535 0 0.023384369869736941 -0.059273404282866461 0 0.021540821685872145 -0.05694778346551789 0 0.021982985912803454 -0.058948133439048075 0 0.023805406524935312 -0.057913536786428535 0 0.023805406524935312 -0.057913536786428535 0 0.023384369869736944 -0.059273404282866461 0 0.024540537217774713 -0.059407891571803866 0 0.021982985912803454 -0.058948133439048075 0 0.023384369869736941 -0.059273404282866461 0 0.022647212985721702 -0.060359181784044195 0 0.023384369869736941 -0.059273404282866461 0 0.024540537217774713 -0.059407891571803866 0 0.024146214782131994 -0.060473166106616461 0 0.023384369869736941 -0.059273404282866461 0 0.024146214782131994 -0.060473166106616461 0 0.022647212985721702 -0.060359181784044195 0 0.024540537217774713 -0.059407891571803866 0 0.025711481597917508 -0.058870328472210756 0 0.02567116187077734 -0.06050600475388189 0 0.024540537217774713 -0.059407891571803866 0 0.02414621478213199 -0.060473166106616461 0 0.02567116187077734 -0.06050600475388189 0 0.023805406524935312 -0.057913536786428535 0 0.024540537217774713 -0.059407891571803866 0 0.025711481597917508 -0.058870328472210756 0 0.023805406524935312 -0.057913536786428535 0 0.025711481597917508 -0.058870328472210756 0 0.02591393680983416 -0.05648485714726869 0 0.023805406524935312 -0.057913536786428535 0 0.02591393680983416 -0.05648485714726869 0 0.023140589218885357 -0.054802601032018221 0 0.021540821685872145 -0.05694778346551789 0 0.023805406524935312 -0.057913536786428535 0 0.023140589218885357 -0.054802601032018221 0 0.026237973460525792 -0.052315913155860393 0 0.02591393680983416 -0.05648485714726869 0 0.023140589218885357 -0.054802601032018221 0 0.030867452398000424 -0.052854240100145833 0 0.031586692808647947 -0.065072384304592806 0 0.045885775390818839 -0.07570789347945997 0 0.034514467274518575 -0.052749556052425123 0 0.030867452398000424 -0.052854240100145833 0 0.045885775390818839 -0.07570789347945997 0 0.034514467274518575 -0.052749556052425123 0 0.021542504883463605 -0.032258357334663271 0 0.030867452398000424 -0.052854240100145833 0 0.015147611096743138 -0.029405870324629744 0 0.030867452398000424 -0.052854240100145833 0 0.02358396613112446 -0.051790949769281731 0 0.01574467423562952 -0.036997935915312037 0 0.019742523599189793 -0.052190567424564023 0 0.02358396613112446 -0.051790949769281731 0 0.0200626016443512 -0.05841886672538156 0 0.019742523599189793 -0.052190567424564023 0 0.024200221902093269 -0.06071048934426701 0 0.019742523599189793 -0.052190567424564023 0 0.02358396613112446 -0.051790949769281731 0 0.024200221902093269 -0.06071048934426701 0 0.030867452398000424 -0.052854240100145833 0 0.02358396613112446 -0.051790949769281731 0 0.031586692808647947 -0.065072384304592806 0 0.02358396613112446 -0.051790949769281731 0 0.031586692808647947 -0.065072384304592806 0 0.024200221902093269 -0.06071048934426701 0 0.031586692808647947 -0.065072384304592806 0 0.024200221902093269 -0.06071048934426701 0 0.02768649023151586 -0.065886127796536492 0 0.031586692808647947 -0.065072384304592806 0 0.02768649023151586 -0.065886127796536492 0 0.035643660611876009 -0.071265855321668944 0 0.0200626016443512 -0.05841886672538156 0 0.024200221902093269 -0.06071048934426701 0 0.022148717270448263 -0.061820955042245031 0 0.024200221902093269 -0.06071048934426701 0 0.022148717270448263 -0.061820955042245031 0 0.02768649023151586 -0.065886127796536492 0 0.022148717270448263 -0.061820955042245031 0 0.021843206442788466 -0.061589560416999437 0 0.02034542976162871 -0.060636568692255317 0 0.019483817944962137 -0.059898218037253377 0 0.022148717270448263 -0.061820955042245031 0 0.02034542976162871 -0.060636568692255317 0 0.022148717270448263 -0.061820955042245031 0 0.023958946349488842 -0.063178082922845477 0 0.02768649023151586 -0.065886127796536492 0 0.022148717270448263 -0.061820955042245031 0 0.023958946349488842 -0.063178082922845477 0 0.021843206442788463 -0.061589560416999437 0 0.023958946349488842 -0.063178082922845477 0 0.021843206442788463 -0.061589560416999437 0 0.022697337452565219 -0.060896388789320209 0 0.023958946349488842 -0.063178082922845477 0 0.02501987154056488 -0.062239753401855703 0 0.022697337452565219 -0.060896388789320209 0 0.021843206442788463 -0.061589560416999437 0 0.020740208031449211 -0.060120255167088493 0 0.022697337452565219 -0.060896388789320209 0 0.02034542976162871 -0.060636568692255317 0 0.020740208031449211 -0.060120255167088493 0 0.019573075956328744 -0.059649478777924689 0 0.021843206442788463 -0.061589560416999437 0 0.020345429761628713 -0.060636568692255317 0 0.020740208031449211 -0.060120255167088493 0 0.02768649023151586 -0.065886127796536492 0 0.027038933387786526 -0.065018709478471715 0 0.031147010474077367 -0.067893072348546357 0 0.02768649023151586 -0.065886127796536492 0 0.031147010474077367 -0.067893072348546357 0 0.035643660611876009 -0.071265855321668944 0 0.023958946349488842 -0.063178082922845477 0 0.02768649023151586 -0.065886127796536492 0 0.027038933387786526 -0.065018709478471715 0 0.023958946349488842 -0.063178082922845477 0 0.027038933387786526 -0.065018709478471715 0 0.025019871540564884 -0.062239753401855703 0 0.027038933387786526 -0.065018709478471715 0 0.028462460696784393 -0.064012265665029613 0 0.025019871540564884 -0.062239753401855703 0 0.027038933387786526 -0.065018709478471715 0 0.031147010474077367 -0.067893072348546357 0 0.028462460696784393 -0.064012265665029613 0 0.031147010474077367 -0.067893072348546357 0 0.032483562856819137 -0.066816510511192334 0 0.028462460696784393 -0.064012265665029613 0 0.035550311776791473 -0.071177605336407324 0 0.038211099226356175 -0.070701940898856633 0 0.032483562856819137 -0.066816510511192334 0 0.031147010474077367 -0.067893072348546357 0 0.035550311776791473 -0.071177605336407324 0 0.032483562856819137 -0.066816510511192334 0 0.042396019549930712 -0.076805529628891492 0 0.045561228017103786 -0.076651420166923001 0 0.038211099226356175 -0.070701940898856633 0 0.035550311776791473 -0.071177605336407324 0 0.042396019549930712 -0.076805529628891492 0 0.038211099226356175 -0.070701940898856633 0 0.042396019549930712 -0.076805529628891492 0 0.035643660611876009 -0.071265855321668944 0 0.045885775390818839 -0.07570789347945997 0 0.035550311776791473 -0.071177605336407324 0 0.042396019549930712 -0.076805529628891492 0 0.035643660611876009 -0.071265855321668944 0 0.031147010474077367 -0.067893072348546357 0 0.035550311776791473 -0.071177605336407324 0 0.035643660611876009 -0.071265855321668944 0 0.031586692808647947 -0.065072384304592806 0 0.035643660611876009 -0.071265855321668944 0 0.045885775390818839 -0.07570789347945997 0 0.050823536145232669 -0.075667116554255898 0 0.034514467274518575 -0.052749556052425123 0 0.045885775390818839 -0.07570789347945997 0 0.050823536145232669 -0.075667116554255898 0 0.045885775390818839 -0.07570789347945997 0 0.062065996449756668 -0.089706927451173965 0 0.045885775390818839 -0.07570789347945997 0 0.062065996449756668 -0.089706927451173965 0 0.050561557200312607 -0.082456579171530958 0 0.042396019549930712 -0.076805529628891492 0 0.045885775390818846 -0.07570789347945997 0 0.050561557200312607 -0.082456579171530958 0 0.042396019549930712 -0.076805529628891492 0 0.050561557200312607 -0.082456579171530958 0 0.045561228017103786 -0.076651420166923001 0 0.050561557200312607 -0.082456579171530958 0 0.056485180761582911 -0.086272371129770375 0 0.045561228017103786 -0.076651420166923001 0 0.062065996449756668 -0.089706927451173965 0 0.050561557200312607 -0.082456579171530958 0 0.056485180761582911 -0.086272371129770375 0 0.062065996449756668 -0.089706927451173965 0 0.082500611754670092 -0.10089948794018055 0 0.056485180761582911 -0.086272371129770375 0 0.13835447782325463 -0.10130373543174198 0 0.11533315929450069 -0.13750229762192073 0 0.16038856082893996 -0.13810436023030503 0 0.082500611754670092 -0.10089948794018055 0 0.13835447782325463 -0.10130373543174198 0 0.11533315929450069 -0.13750229762192073 0 0.08251548639102689 -0.084591316481103379 0 0.096444635780222651 -0.08310499399358251 0 0.13835447782325463 -0.10130373543174198 0 0.17702963393123036 -0.10256023068886104 0 0.16038856082893996 -0.13810436023030503 0 0.096444635780222651 -0.08310499399358251 0 0.11082950305087053 -0.082149237463756422 0 0.17702963393123036 -0.10256023068886104 0 0.16038856082893996 -0.13810436023030503 0 0.19552879418384383 -0.12997667711159658 0 0.16038856082893996 -0.13810436023030503 0 0.13151707534649876 -0.17418049799193633 0 0.19755053332649694 -0.17061302408726334 0 0.11533315929450069 -0.13750229762192073 0 0.13151707534649876 -0.17418049799193633 0 0.079181613163825423 -0.15103396063351585 0 0.11533315929450069 -0.13750229762192073 0 0.16038856082893996 -0.13810436023030503 0 0.13151707534649876 -0.17418049799193633 0 0.13151707534649876 -0.17418049799193633 0 0.16249406331613106 -0.22387049999267719 0 0.096450225683041527 -0.21184506222843646 0 0.13151707534649876 -0.17418049799193633 0 0.16249406331613103 -0.22387049999267719 0 0.19755053332649694 -0.17061302408726334 0 0.16249406331613106 -0.22387049999267719 0 0.23624093079047781 -0.22450782820377407 0 0.19755053332649694 -0.17061302408726334 0 0.23624093079047781 -0.22450782820377407 0 0.19755053332649694 -0.17061302408726334 0 0.26324589361535555 -0.16768760836960844 0 0.19755053332649694 -0.17061302408726334 0 0.22898468116049273 -0.1350932149112892 0 0.26324589361535555 -0.16768760836960844 0 0.22898468116049273 -0.1350932149112892 0 0.26085421711964496 -0.1289590311845763 0 0.26324589361535555 -0.16768760836960844 0 0.16038856082893996 -0.13810436023030503 0 0.19755053332649694 -0.17061302408726334 0 0.19552879418384383 -0.12997667711159658 0 0.19755053332649694 -0.17061302408726334 0 0.19552879418384383 -0.12997667711159658 0 0.22898468116049273 -0.1350932149112892 0 0.19552879418384383 -0.12997667711159658 0 0.21154039489923718 -0.10399877648381077 0 0.22898468116049273 -0.1350932149112892 0 0.17702963393123036 -0.10256023068886104 0 0.19552879418384383 -0.12997667711159658 0 0.21154039489923718 -0.10399877648381077 0 0.11082950305087053 -0.082149237463756422 0 0.12453048026829562 -0.080653830502970217 0 0.22898468116049273 -0.1350932149112892 0 0.24395736713791744 -0.10459224310973107 0 0.26085421711964502 -0.1289590311845763 0 0.12453048026829562 -0.080653830502970217 0 0.13802638127624539 -0.079509219590062963 0 0.21154039489923718 -0.10399877648381077 0 0.22898468116049273 -0.1350932149112892 0 0.24395736713791744 -0.10459224310973107 0 0.24395736713791744 -0.10459224310973107 0 0.26085421711964502 -0.1289590311845763 0 0.27562347568862616 -0.10505012197039974 0 0.13802638127624539 -0.079509219590062963 0 0.1518912392453583 -0.078624228803552063 0 0.26085421711964502 -0.1289590311845763 0 0.27562347568862616 -0.10505012197039974 0 0.29256068054126189 -0.13425935569598377 0 0.27562347568862616 -0.10505012197039974 0 0.30670872699101759 -0.10519199345193794 0 0.29256068054126189 -0.13425935569598377 0 0.1518912392453583 -0.078624228803552063 0 0.16578910776627703 -0.077988626428682123 0 0.30670872699101759 -0.10519199345193794 0 0.29256068054126189 -0.13425935569598377 0 0.32288118289793261 -0.12824229894546235 0 0.29256068054126189 -0.13425935569598377 0 0.32288118289793261 -0.12824229894546235 0 0.32593658458314145 -0.166722886291024 0 0.29256068054126189 -0.13425935569598377 0 0.26324589361535555 -0.16768760836960844 0 0.32593658458314145 -0.166722886291024 0 0.26085421711964502 -0.1289590311845763 0 0.29256068054126189 -0.13425935569598377 0 0.26324589361535555 -0.16768760836960844 0 0.36821258116319788 -0.10503211028096107 0 0.35281686351393887 -0.13177194036433965 0 0.38488015668380327 -0.12705475632556354 0 0.36821258116319788 -0.10503211028096107 0 0.35281686351393887 -0.13177194036433965 0 0.33751230305479457 -0.10517444523136082 0 0.19446275562899268 -0.077114912868422952 0 0.18004823424517902 -0.077481628071659064 0 0.35281686351393887 -0.13177194036433965 0 0.33751230305479452 -0.10517444523136082 0 0.32288118289793261 -0.12824229894546235 0 0.30670872699101759 -0.10519199345193794 0 0.33751230305479457 -0.10517444523136082 0 0.32288118289793261 -0.12824229894546235 0 0.16578910776627703 -0.077988626428682123 0 0.18004823424517902 -0.077481628071659064 0 0.35281686351393887 -0.13177194036433965 0 0.32288118289793255 -0.12824229894546238 0 0.32593658458314145 -0.166722886291024 0 0.35281686351393887 -0.13177194036433965 0 0.38488015668380327 -0.12705475632556351 0 0.38903588059339261 -0.16184458867343438 0 0.35281686351393887 -0.13177194036433965 0 0.32593658458314145 -0.166722886291024 0 0.38903588059339261 -0.16184458867343438 0 0.32593658458314145 -0.166722886291024 0 0.35917616846086248 -0.21852766717662961 0 0.38903588059339261 -0.16184458867343438 0 0.32593658458314145 -0.166722886291024 0 0.35917616846086248 -0.21852766717662961 0 0.29996071806553304 -0.21137849851214077 0 0.23624093079047781 -0.22450782820377407 0 0.26324589361535555 -0.16768760836960844 0 0.29996071806553304 -0.21137849851214077 0 0.26324589361535555 -0.16768760836960844 0 0.32593658458314145 -0.166722886291024 0 0.29996071806553304 -0.21137849851214077 0 0.23624093079047781 -0.22450782820377407 0 0.29996071806553309 -0.21137849851214077 0 0.31479082031131594 -0.27750487772157684 0 0.35917616846086248 -0.21852766717662961 0 0.31479082031131594 -0.27750487772157684 0 0.40273987456980553 -0.29286562188807358 0 0.35917616846086248 -0.21852766717662961 0 0.29996071806553304 -0.21137849851214077 0 0.31479082031131594 -0.27750487772157684 0 0.31479082031131594 -0.27750487772157684 0 0.40273987456980553 -0.29286562188807358 0 0.33032057081153565 -0.39451262297551659 0 0.31479082031131594 -0.27750487772157684 0 0.20694015166982899 -0.30432327765251016 0 0.33032057081153565 -0.39451262297551659 0 0.20694015166982899 -0.30432327765251016 0 0.13087477941460252 -0.38265159656566278 0 0.1237414165796292 -0.27450506693010673 0 0.16249406331613106 -0.22387049999267719 0 0.20694015166982896 -0.30432327765251016 0 0.1237414165796292 -0.27450506693010673 0 0.16249406331613106 -0.22387049999267719 0 0.096450225683041527 -0.21184506222843646 0 0.1237414165796292 -0.27450506693010673 0 0.16249406331613106 -0.22387049999267719 0 0.23624093079047781 -0.22450782820377407 0 0.20694015166982899 -0.30432327765251016 0 0.23624093079047781 -0.22450782820377407 0 0.31479082031131594 -0.27750487772157684 0 0.20694015166982899 -0.30432327765251016 0 0.5905016493213423 -0.20954398846089844 0 0.64453174358193555 -0.18488125895433255 0 0.64472793982371501 -0.24886070629232415 0 0.5905016493213423 -0.20954398846089844 0 0.61404147156581768 -0.16008057348673579 0 0.57611054795458305 -0.16292224313439299 0 0.5905016493213423 -0.20954398846089844 0 0.64453174358193555 -0.18488125895433255 0 0.61404147156581779 -0.16008057348673582 0 0.64453174358193555 -0.18488125895433255 0 0.64450205425730012 -0.13816206805283643 0 0.61404147156581779 -0.16008057348673582 0 0.64450205425730012 -0.13816206805283643 0 0.61404147156581779 -0.16008057348673582 0 0.62276714793016419 -0.1268916441060251 0 0.64450205425730012 -0.13816206805283643 0 0.62276714793016419 -0.1268916441060251 0 0.64450406338016086 -0.10407398507236455 0 0.62276714793016419 -0.1268916441060251 0 0.61387226083076663 -0.10407057522531947 0 0.64450406338016086 -0.10407398507236455 0 0.31838047078124571 -0.077999709103978895 0 0.3379754146309068 -0.18115537184681427 0 0.31838047078124571 -0.077999709103978895 0 0.30308481584012575 -0.077243324906248939 0 0.61387226083076663 -0.10407057522531947 0 0.58322510937394578 -0.10407122178941715 0 0.59755313570900526 -0.13068495536098865 0 0.62276714793016419 -0.1268916441060251 0 0.61387226083076663 -0.10407057522531947 0 0.59755313570900526 -0.13068495536098865 0 0.58322510937394578 -0.10407122178941715 0 0.59755313570900526 -0.13068495536098862 0 0.56952556877398963 -0.12648566564037111 0 0.61404147156581779 -0.16008057348673582 0 0.59755313570900526 -0.13068495536098865 0 0.57611054795458305 -0.16292224313439299 0 0.61404147156581779 -0.16008057348673582 0 0.62276714793016419 -0.1268916441060251 0 0.59755313570900526 -0.13068495536098865 0 0.59755313570900526 -0.13068495536098865 0 0.57611054795458305 -0.16292224313439299 0 0.56952556877398963 -0.12648566564037111 0 0.57611054795458305 -0.16292224313439299 0 0.53736488877159283 -0.13522737437163232 0 0.53751235016412724 -0.18226976244505408 0 0.57611054795458305 -0.16292224313439299 0 0.56952556877398963 -0.12648566564037111 0 0.53736488877159283 -0.13522737437163232 0 0.56952556877398963 -0.12648566564037111 0 0.55252428600721071 -0.10408527933596487 0 0.53736488877159283 -0.13522737437163232 0 0.30308481584012575 -0.077243324906248939 0 0.28689151921968331 -0.077130947648625742 0 0.58322510937394578 -0.10407122178941715 0 0.56952556877398963 -0.12648566564037111 0 0.55252428600721071 -0.10408527933596487 0 0.55252428600721071 -0.10408527933596487 0 0.52178969869310499 -0.10414422143969511 0 0.53736488877159283 -0.13522737437163232 0 0.28689151921968331 -0.077130947648625742 0 0.27098626439443319 -0.077022161852693935 0 0.52178969869310499 -0.10414422143969511 0 0.53736488877159283 -0.13522737437163235 0 0.50638354719611289 -0.12498529433640898 0 0.53736488877159283 -0.13522737437163232 0 0.53751235016412724 -0.18226976244505408 0 0.49824872352019456 -0.15425074200365591 0 0.5905016493213423 -0.20954398846089844 0 0.57611054795458305 -0.16292224313439299 0 0.53751235016412724 -0.18226976244505408 0 0.5905016493213423 -0.20954398846089844 0 0.53751235016412724 -0.18226976244505408 0 0.52899622052638029 -0.24356202552125444 0 0.53751235016412724 -0.18226976244505408 0 0.48585937069815738 -0.19784668235002503 0 0.52899622052638029 -0.24356202552125444 0 0.48585937069815738 -0.19784668235002503 0 0.46751598316771703 -0.25121124442032478 0 0.52899622052638029 -0.24356202552125444 0 0.48585937069815738 -0.19784668235002503 0 0.42388851204851208 -0.20918035065444499 0 0.46751598316771703 -0.25121124442032478 0 0.48585937069815738 -0.19784668235002503 0 0.49824872352019456 -0.15425074200365591 0 0.44699470320828527 -0.15875586842037859 0 0.48585937069815738 -0.19784668235002503 0 0.44699470320828527 -0.15875586842037859 0 0.42388851204851208 -0.20918035065444499 0 0.53751235016412724 -0.18226976244505408 0 0.48585937069815738 -0.19784668235002503 0 0.49824872352019456 -0.15425074200365591 0 0.53736488877159283 -0.13522737437163232 0 0.49824872352019456 -0.15425074200365588 0 0.50638354719611289 -0.12498529433640898 0 0.49824872352019456 -0.15425074200365591 0 0.50638354719611289 -0.12498529433640898 0 0.47463976457383705 -0.12932735314751587 0 0.50638354719611289 -0.12498529433640898 0 0.49103376349630218 -0.10425443484713839 0 0.47463976457383705 -0.12932735314751587 0 0.27098626439443319 -0.077022161852693935 0 0.25518636468099953 -0.076926371377107367 0 0.52178969869310499 -0.10414422143969511 0 0.50638354719611289 -0.12498529433640898 0 0.49103376349630218 -0.10425443484713839 0 0.46030051695776669 -0.10441173285379034 0 0.47463976457383705 -0.12932735314751587 0 0.44539250960752824 -0.12578663053407871 0 0.25518636468099953 -0.076926371377107367 0 0.23955719353156446 -0.076872718304941981 0 0.49103376349630218 -0.10425443484713839 0 0.46030051695776669 -0.10441173285379034 0 0.47463976457383705 -0.12932735314751587 0 0.47463976457383705 -0.12932735314751587 0 0.44699470320828527 -0.15875586842037859 0 0.44539250960752824 -0.12578663053407871 0 0.49824872352019456 -0.15425074200365591 0 0.47463976457383705 -0.12932735314751587 0 0.44699470320828527 -0.15875586842037859 0 0.44699470320828527 -0.15875586842037859 0 0.44539250960752824 -0.12578663053407871 0 0.41547786263005776 -0.13176862915217188 0 0.44699470320828527 -0.15875586842037859 0 0.41547786263005776 -0.13176862915217188 0 0.38903588059339261 -0.16184458867343438 0 0.44539250960752824 -0.12578663053407871 0 0.42957814259743038 -0.10460958567982925 0 0.41547786263005776 -0.13176862915217188 0 0.23955719353156446 -0.076872718304941981 0 0.22422318780377617 -0.076825452547605158 0 0.46030051695776669 -0.10441173285379034 0 0.44539250960752824 -0.12578663053407871 0 0.42957814259743038 -0.10460958567982925 0 0.19446275562899268 -0.077114912868422952 0 0.20922797626731368 -0.076891839690632707 0 0.36821258116319788 -0.10503211028096107 0 0.39888424357294938 -0.10482375937540636 0 0.38488015668380327 -0.12705475632556354 0 0.42957814259743038 -0.10460958567982925 0 0.39888424357294938 -0.10482375937540636 0 0.41547786263005776 -0.13176862915217188 0 0.22422318780377617 -0.076825452547605158 0 0.20922797626731368 -0.076891839690632707 0 0.39888424357294938 -0.10482375937540636 0 0.41547786263005776 -0.13176862915217188 0 0.38488015668380327 -0.12705475632556354 0 0.41547786263005776 -0.13176862915217188 0 0.38488015668380327 -0.12705475632556354 0 0.38903588059339261 -0.16184458867343438 0 0.35917616846086248 -0.21852766717662961 0 0.38903588059339267 -0.16184458867343438 0 0.42388851204851208 -0.20918035065444499 0 0.44699470320828527 -0.15875586842037859 0 0.38903588059339261 -0.16184458867343438 0 0.42388851204851208 -0.20918035065444499 0 0.40273987456980553 -0.29286562188807358 0 0.49879055578044368 -0.32108485970412021 0 0.44707836128878126 -0.42504097184987777 0 0.35917616846086248 -0.21852766717662961 0 0.42388851204851213 -0.20918035065444499 0 0.40273987456980553 -0.29286562188807358 0 0.42388851204851208 -0.20918035065444499 0 0.40273987456980553 -0.29286562188807358 0 0.46751598316771703 -0.25121124442032478 0 0.49879055578044368 -0.32108485970412021 0 0.46751598316771703 -0.25121124442032478 0 0.52899622052638029 -0.24356202552125444 0 0.40273987456980553 -0.29286562188807358 0 0.49879055578044368 -0.32108485970412021 0 0.46751598316771703 -0.25121124442032478 0 0.49879055578044368 -0.32108485970412021 0 0.57878458600543592 -0.29264926636995098 0 0.52899622052638029 -0.24356202552125444 0 0.5905016493213423 -0.20954398846089844 0 0.57878458600543592 -0.29264926636995098 0 0.52899622052638029 -0.24356202552125444 0 0.49879055578044368 -0.32108485970412021 0 0.57878458600543592 -0.29264926636995098 0 0.5569556343777492 -0.39684843919688167 0 0.57878458600543592 -0.29264926636995098 0 0.64553359070760596 -0.33663427072717172 0 0.5569556343777492 -0.39684843919688167 0 0.5905016493213423 -0.20954398846089844 0 0.57878458600543592 -0.29264926636995098 0 0.64472793982371501 -0.24886070629232415 0 0.57878458600543592 -0.29264926636995098 0 0.64553359070760596 -0.33663427072717172 0 0.64472793982371501 -0.24886070629232415 0 0.64995165893543372 -0.63662909673878676 0 0.53244499858572292 -0.51812063646966866 0 0.38469265265531899 -0.6238913406784673 0 0.64553359070760596 -0.33663427072717172 0 0.64786799697762376 -0.45862106492686705 0 0.5569556343777492 -0.39684843919688167 0 0.64786799697762376 -0.45862106492686705 0 0.5569556343777492 -0.39684843919688167 0 0.53244499858572292 -0.51812063646966866 0 0.40273987456980553 -0.29286562188807358 0 0.44707836128878126 -0.42504097184987777 0 0.33032057081153565 -0.39451262297551659 0 0.44707836128878126 -0.42504097184987777 0 0.33032057081153565 -0.39451262297551659 0 0.38469265265531899 -0.6238913406784673 0 0.5569556343777492 -0.39684843919688167 0 0.44707836128878126 -0.42504097184987777 0 0.53244499858572292 -0.51812063646966866 0 0.49879055578044368 -0.32108485970412021 0 0.5569556343777492 -0.39684843919688167 0 0.44707836128878126 -0.42504097184987777 0 0.44707836128878126 -0.42504097184987777 0 0.53244499858572292 -0.51812063646966866 0 0.38469265265531899 -0.6238913406784673 0 0.64786799697762376 -0.45862106492686705 0 0.64995165893543372 -0.63662909673878676 0 0.53244499858572292 -0.51812063646966866 0 0.2327711707671978 -0.45332945826814025 0 0.38469265265531899 -0.6238913406784673 0 0.14830388026265262 -0.59485005407486802 0 0.20694015166982899 -0.30432327765251016 0 0.2327711707671978 -0.45332945826814025 0 0.13087477941460252 -0.38265159656566278 0 0.2327711707671978 -0.45332945826814025 0 0.14830388026265262 -0.59485005407486802 0 0.13087477941460252 -0.38265159656566278 0 0.20694015166982899 -0.30432327765251016 0 0.2327711707671978 -0.45332945826814025 0 0.33032057081153565 -0.39451262297551659 0 0.2327711707671978 -0.45332945826814025 0 0.33032057081153565 -0.39451262297551659 0 0.38469265265531899 -0.6238913406784673 0 0.14830388026265262 -0.59485005407486802 0 0.13087477941460252 -0.38265159656566278 0 0.026357738852810886 -0.39707805374876531 0 0.026357738852810886 -0.39707805374876531 0 -0.04341911128131011 -0.56981554209594831 0 -0.096296397780097479 -0.38627746123036488 0 0.14830388026265262 -0.59485005407486802 0 0.026357738852810886 -0.39707805374876531 0 -0.04341911128131011 -0.56981554209594831 0 -0.23738809495492982 -0.56744974213962396 0 -0.096296397780097479 -0.38627746123036488 0 -0.22265993959797434 -0.3456737352339635 0 -0.04341911128131011 -0.56981554209594831 0 -0.23738809495492982 -0.56744974213962396 0 -0.096296397780097479 -0.38627746123036488 0 -0.1600274584884574 -0.15281858742181112 0 -0.10457175523086103 -0.2344791155532466 0 -0.22265993959797434 -0.3456737352339635 0 -0.096296397780097479 -0.38627746123036488 0 -0.10457175523086103 -0.2344791155532466 0 -0.015129485606319604 -0.2233852699372301 0 -0.096296397780097479 -0.38627746123036488 0 -0.10457175523086103 -0.2344791155532466 0 -0.22265993959797434 -0.3456737352339635 0 -0.052058678234362048 -0.1396064277972435 0 -0.1600274584884574 -0.15281858742181112 0 -0.10457175523086103 -0.2344791155532466 0 -0.052058678234362048 -0.1396064277972435 0 -0.10457175523086103 -0.2344791155532466 0 -0.015129485606319604 -0.2233852699372301 0 -0.052058678234362048 -0.1396064277972435 0 0.0030903236629193308 -0.12722109038285198 0 -0.015129485606319604 -0.2233852699372301 0 0.0030903236629193308 -0.12722109038285198 0 -0.015129485606319604 -0.2233852699372301 0 0.034951938908161416 -0.15972873517694877 0 -0.015129485606319604 -0.2233852699372301 0 0.034951938908161409 -0.15972873517694877 0 0.059257267317502915 -0.26833533332177517 0 0.058380870596593526 -0.11443284018272754 0 0.038990192879410274 -0.092323755613756484 0 0.034951938908161416 -0.15972873517694877 0 0.058380870596593526 -0.11443284018272754 0 0.034951938908161416 -0.15972873517694877 0 0.079181613163825423 -0.15103396063351585 0 0.058380870596593526 -0.11443284018272754 0 0.082500611754670092 -0.10089948794018055 0 0.079181613163825423 -0.15103396063351585 0 0.082500611754670092 -0.10089948794018055 0 0.11533315929450069 -0.13750229762192073 0 0.079181613163825423 -0.15103396063351585 0 0.034951938908161416 -0.15972873517694877 0 0.079181613163825423 -0.15103396063351585 0 0.096450225683041527 -0.21184506222843646 0 0.13151707534649876 -0.17418049799193633 0 0.079181613163825423 -0.15103396063351585 0 0.096450225683041527 -0.21184506222843646 0 0.034951938908161416 -0.15972873517694877 0 0.096450225683041527 -0.21184506222843646 0 0.059257267317502915 -0.26833533332177517 0 0.13087477941460252 -0.38265159656566278 0 0.026357738852810886 -0.39707805374876531 0 0.059257267317502915 -0.26833533332177517 0 0.096450225683041527 -0.21184506222843646 0 0.059257267317502915 -0.26833533332177517 0 0.1237414165796292 -0.27450506693010673 0 0.13087477941460252 -0.38265159656566278 0 0.059257267317502929 -0.26833533332177517 0 0.1237414165796292 -0.27450506693010673 0 0.026357738852810886 -0.39707805374876531 0 -0.096296397780097479 -0.38627746123036488 0 -0.015129485606319604 -0.2233852699372301 0 0.026357738852810886 -0.39707805374876531 0 -0.015129485606319581 -0.2233852699372301 0 0.059257267317502915 -0.26833533332177517 0 
</DataArray>
</PointData>
<CellData Scalars="region_id," Vectors="" Tensors="stress,">
<DataArray type="Float64" Name="region_id" format="ascii">
1 1 1 1 1 1 1 1 1 1 1 1 1 1 1 1 1 1 1 1 1 1 1 1 1 1 1 1 1 1 1 1 1 1 1 1 1 1 1 1 1 1 1 1 1 1 1 1 1 1 1 1 1 1 1 1 1 1 1 1 1 1 1 1 1 1 1 1 1 1 1 1 1 1 1 1 1 1 1 1 1 1 1 1 1 1 1 1 1 1 1 1 1 1 1 1 1 1 1 1 1 1 1 1 1 1 1 1 1 1 1 1 1 1 1 1 1 1 1 1 1 1 1 1 1 1 1 1 1 1 1 1 1 1 1 1 1 1 1 1 1 6 1 6 1 1 1 1 1 1 1 1 1 1 1 1 1 1 6 1 6 1 1 6 1 1 6 1 1 1 1 1 1 6 1 1 6 1 1 1 1 1 1 1 1 1 1 1 1 1 1 1 1 1 1 1 1 1 1 1 1 6 6 1 1 1 1 1 1 1 1 1 6 1 1 6 1 1 1 1 1 1 1 1 1 1 1 1 1 6 1 1 6 1 1 1 1 1 1 6 1 6 1 1 6 1 1 1 1 1 1 1 1 1 1 1 1 1 1 1 1 1 1 1 1 1 1 1 1 1 1 1 1 1 1 1 1 1 1 1 1 1 1 1 1 1 1 1 1 1 1 1 1 1 1 1 1 1 1 
</DataArray>
<DataArray type="Float64" Name="stress" NumberOfComponents="9" format="ascii">
-0.10068158402857443 -0.036364655471445108 0 -0.036364655471445108 -0.033477980985018203 0 0 0 -0.033539891253398159 -0.3376945732501892 -0.0015738627082245021 0 -0.0015738627082245021 -0.020659462886429558 0 0 0 -0.08958850903415469 -0.34167320124155393 -0.02498747682046687 0 -0.02498747682046687 0.029534316908662872 0 0 0 -0.078034721083222791 -0.11932400932756429 -0.014019889587998047 0 -0.014019889587998047 0.026168328541694486 0 0 0 -0.023288920196467465 -0.14824874962821677 -0.0042357737709539239 0 -0.0042357737709539239 0.014196883684249428 0 0 0 -0.033512966485991835 -0.10584823865633464 -0.055647448394949769 0 -0.055647448394949769 0.076374919126552143 0 0 0 -0.0073683298824455679 0.15804132651164859 -0.042452567952525611 0 -0.042452567952525611 0.10026440099882628 0 0 0 0.06457643187761869 0.15596523846051541 -0.0019410933862752163 0 -0.0019410933862752163 0.10605970425473354 0 0 0 0.065506235678812252 0.34130313593163836 0.0084110940715932669 0 0.0084110940715932669 0.18752577949869997 0 0 0 0.13220722885758457 0.29743419019999517 -0.1283729080650487 0 -0.1283729080650487 0.14099623898486158 0 0 0 0.1096076072962141 0.41584938357101076 0.014660453519340866 0 0.014660453519340866 0.43811660656305884 0 0 0 0.21349149753351726 0.70186272569312524 -0.11140220165844528 0 -0.11140220165844528 0.27715084473946794 0 0 0 0.24475339260814849 0.22977215861832517 -0.087788700807234943 0 -0.087788700807234943 0.20298805997539771 0 0 0 0.10819005464843073 0.096192209000275697 -0.09513973547403376 0 -0.09513973547403376 0.12151530293161961 0 0 0 0.054426877982973854 0.038417359743099122 -0.051976509285678762 0 -0.051976509285678762 0.17565909447165584 0 0 0 0.053519113553688713 0.0050145391612820486 -0.031946112939483295 0 -0.031946112939483295 0.089409310424622024 0 0 0 0.02360596239647602 0.026276808641928107 -0.0044603452611355621 0 -0.0044603452611355621 0.038767088751787804 0 0 0 0.016260974348429019 0.038537979730564331 -0.0024612551793840309 0 -0.0024612551793840309 0.077267729978279687 0 0 0 0.028951427427211018 -0.11696572801180423 -0.0016335896478160555 0 -0.0016335896478160555 0.011795662605678436 0 0 0 -0.026292516351531459 0.073584817459389287 -0.018081758954934579 0 -0.018081758954934579 -0.012266588444914191 0 0 0 0.015329557253618776 0.15191748124481627 -0.044903822419048611 0 -0.044903822419048611 0.027255947656870005 0 0 0 0.044793357225421521 0.2402577342775753 -0.021033329009182589 0 -0.021033329009182589 0.065540242237219271 0 0 0 0.076449494128698586 0.051626607355114977 -0.040025496280494795 0 -0.040025496280494795 0.017145715732236694 0 0 0 0.017193080771837916 0.081158257002728898 -0.02292328435789337 0 -0.02292328435789337 -0.044547742860829381 0 0 0 0.0091526285354748549 0.1564844774822646 -0.060602999446702846 0 -0.060602999446702846 0.010772619760302693 0 0 0 0.04181427431064183 0.06507370647108407 -0.02811294344440958 0 -0.02811294344440958 0.0065380792417404215 0 0 0 0.017902946428206126 -0.081230883481925351 0.01534826524416209 0 0.01534826524416209 -0.036771176877431665 0 0 0 -0.029500515089839245 0.098454861650381587 -0.063762366345146218 0 -0.063762366345146218 0.03279788253532815 0 0 0 0.032813186046427439 0.07830908179098979 -0.074241410218167103 0 -0.074241410218167103 0.019870822073183553 0 0 0 0.024544975966043339 0.087963625025011011 -0.079205836379196759 0 -0.079205836379196759 0.027384255416888631 0 0 0 0.028836970110474924 0.11819962181597381 -0.082415832262089705 0 -0.082415832262089705 -0.0060135334860510203 0 0 0 0.028046522082480707 0.10676913504086553 -0.065658876289862042 0 -0.065658876289862042 0.0084028202677932096 0 0 0 0.028792988827164689 0.091217465944224252 -0.062242328697085909 0 -0.062242328697085909 0.030393995668840771 0 0 0 0.030402865403266258 0.14710658435146989 -0.049797676316542611 0 -0.049797676316542611 0.030476270497178909 0 0 0 0.044395713712162194 0.074185061452640463 -0.061288415649675868 0 -0.061288415649675868 0.030296028783882961 0 0 0 0.026120272559130853 0.064903489512464108 -0.05139528162672409 0 -0.05139528162672409 0.014250616329012866 0 0 0 0.01978852646036923 0.083033490691446804 -0.068615507457299968 0 -0.068615507457299968 0.03019648980503048 0 0 0 0.028307495124119286 0.060991184585751146 -0.071498885154678588 0 -0.071498885154678588 0.027710952505555997 0 0 0 0.022175534272826758 0.085088673017866295 -0.059700580945713982 0 -0.059700580945713982 0.028974312642617295 0 0 0 0.028515746415120904 0.055250045050642932 -0.027222349383967018 0 -0.027222349383967018 -0.007032243674621963 0 0 0 0.012054450344005263 0.053045001109224194 -0.023055802847200879 0 -0.023055802847200879 0.017639575953812603 0 0 0 0.017671144265759248 0.0094171484495380042 -0.0080869959886770149 0 -0.0080869959886770149 0.0070843761715483899 0 0 0 0.0041253811552715569 0.0072180866407193789 -0.0028293783165749264 0 -0.0028293783165749264 -0.0018338764417182851 0 0 0 0.0013460525497501208 0.027973188236789348 -0.0085207545195376683 0 -0.0085207545195376683 -0.0064066680554313304 0 0 0 0.0053916300453394905 0.04269447304271301 -0.030211230890395735 0 -0.030211230890395735 0.013542241400405608 0 0 0 0.014059178610779599 0.016542796150050776 -0.013483425193666243 0 -0.013483425193666243 0.011394554400829371 0 0 0 0.0069843376377200506 0.0090422787699088042 -0.018350311970827538 0 -0.018350311970827538 -0.0019352450469566074 0 0 0 0.0017767584307380319 0.03050061303296206 -0.036874013271207012 0 -0.036874013271207012 0.01536424625015953 0 0 0 0.011466214820780418 0.027326097642375952 -0.031025469154688401 0 -0.031025469154688401 0.029705385596366263 0 0 0 0.014257870809685574 0.026197872591321753 -0.036583758289452095 0 -0.036583758289452095 0.014990505969172507 0 0 0 0.010297094640123544 0.051019445953619375 -0.066889806020380888 0 -0.066889806020380888 0.019655682353900028 0 0 0 0.01766878207687983 0.049128615955738142 -0.059706260902878214 0 -0.059706260902878214 0.048825548504008554 0 0 0 0.024488541114936702 0.019066547067692896 -0.04656516467475702 0 -0.04656516467475702 0.027787734796003161 0 0 0 0.011713570465924028 0.014811998138175519 -0.033579476444914325 0 -0.033579476444914325 0.046791866996779508 0 0 0 0.015400966283738771 0.0027250451108624674 -0.023296960705580405 0 -0.023296960705580405 0.028151195613842717 0 0 0 0.007719060181176296 0.02144889537609207 -0.038133415546747207 0 -0.038133415546747207 0.058436998649220584 0 0 0 0.019971473506328108 0.0086933081316840077 -0.017504356155291473 0 -0.017504356155291473 0.030341231264596757 0 0 0 0.0097586348490701358 2.0404242266680583e-05 -0.0052306492063158849 0 -0.0052306492063158849 0.021138150186788218 0 0 0 0.0052896386072637247 0.00098993193345708885 -0.0045464913515393945 0 -0.0045464913515393945 0.0026463603651016854 0 0 0 0.00090907307463961029 0.0012842698410555631 -0.0030182740634093763 0 -0.0030182740634093763 -0.0035123744736416107 0 0 0 -0.00055702615814667844 0.00087294397722212369 -0.0064065464041146436 0 -0.0064065464041146436 0.018481755918629661 0 0 0 0.0048386749739630364 0.00078735416094088961 -0.0090104576244747492 0 -0.0090104576244747492 0.016698575811119998 0 0 0 0.0043714824930153329 0.0088257764884968615 -0.018153025462978922 0 -0.018153025462978922 0.035692188241403633 0 0 0 0.011129491182475082 0.004027782132620894 -0.0075933063905194997 0 -0.0075933063905194997 0.011769247267756633 0 0 0 0.0039492573500944372 0.0011977838729374524 -0.0076961679577520203 0 -0.0076961679577520203 0.018083152124443558 0 0 0 0.0048202339993451693 -0.00020234930500662163 -0.0015489755746966316 0 -0.0015489755746966316 -0.003559444934081224 0 0 0 -0.00094044855977193365 0.0014218420217418926 -0.003126809397536956 0 -0.003126809397536956 0.014434200254928364 0 0 0 0.0039640105691675087 0.00098299562406733987 -0.0011818559836153097 0 -0.0011818559836153097 0.0042356098014758592 0 0 0 0.0013046513563859108 0.00013892007705451626 -0.00079500251763364727 0 -0.00079500251763364727 -0.0081254085149313759 0 0 0 -0.0019966221094692704 0.0050727147080517621 -0.0077078288076561918 0 -0.0077078288076561918 0.010606035395085311 0 0 0 0.0039196875257841435 0.00624951598782858 -0.015283207507302249 0 -0.015283207507302249 0.01616087741521588 0 0 0 0.0056025983507611565 0.014856803805623209 -0.019754310824026747 0 -0.019754310824026747 0.022566204970751791 0 0 0 0.0093557521940936805 0.0037856912287197453 -0.0046457510055875062 0 -0.0046457510055875062 0.0010189603188044405 0 0 0 0.0012011628868810464 0.013834440239385293 -0.011461245670428832 0 -0.011461245670428832 0.011494312143311092 0 0 0 0.0063321880956740406 0.0024568856165889663 -0.0026148632593391719 0 -0.0026148632593391719 0.0031580036128189271 0 0 0 0.0014037223073519733 0.0011443602735727917 -0.0030316035825160847 0 -0.0030316035825160847 0.0075077305855965754 0 0 0 0.0021630227147923561 0.0014382932244125513 -0.0010039974545945629 0 -0.0010039974545945629 0.0044034509927852739 0 0 0 0.0014604360542994355 0.00018133522982766159 0.0002722976988105974 0 0.0002722976988105974 -0.0060269090530238323 0 0 0 -0.0014613934557989872 0.00048197199089297649 0.00073518855018361862 0 0.00073518855018361862 -0.00079466185464072137 0 0 0 -7.8172465937081936e-05 0.00051619923131718259 0.00089867028046575204 0 0.00089867028046575204 -0.0061913500754560147 0 0 0 -0.0014187877110345415 0.0040688450482426752 -0.0025754913168808957 0 -0.0025754913168808957 0.0025027509065211895 0 0 0 0.0016428989886909662 -9.0724884437287656e-06 0.00080750042904464969 0 0.00080750042904464969 -0.00051066514183650824 0 0 0 -0.00012993440756992047 0.0014961569856156709 0.0010596044231164642 0 0.0010596044231164642 -9.8200557642647013e-05 0 0 0 0.0003494891069931727 0.000419055564095272 0.0015271139908470954 0 0.0015271139908470954 -0.0011630406044673691 0 0 0 -0.00018599626009296877 0.00039906550148810505 0.0017234681723530265 0 0.0017234681723530265 -0.00097187348002603091 0 0 0 -0.00014320199463441208 2.1748785625941291e-05 0.0012314962879433899 0 0.0012314962879433899 -0.0012124352843134178 0 0 0 -0.00029767162467192465 -0.00010766062895972706 0.0013485689026898617 0 0.0013485689026898617 -0.0041697183082738398 0 0 0 -0.0010693447343085305 -0.0016258805050423097 0.0013447256265979313 0 0.0013447256265979313 -0.00093657547672920671 0 0 0 -0.00064061399544301789 -0.00016229671630452192 0.0010514119199868666 0 0.0010514119199868666 -0.001245047179594394 0 0 0 -0.00035183597397470123 4.6728081683489187e-05 0.0019625040056534537 0 0.0019625040056534537 0.0001151437743351913 0 0 0 4.0467964004697876e-05 -0.0044737606028987797 0.0013485284087521032 0 0.0013485284087521032 0.00099358803694793441 0 0 0 -0.00087004314148758644 0.00065769568603452067 0.0010835620978401073 0 0.0010835620978401073 -0.00074798986494928332 0 0 0 -2.2573544728676787e-05 0.0048489561077063592 -0.0032251708124553802 0 -0.0032251708124553802 0.0058189549313251154 0 0 0 0.002666977759757938 -0.0041690355356813757 -0.00138460496374041 0 -0.00138460496374041 0.0042987806322243305 0 0 0 3.2436274135794196e-05 0.14942816439103684 -0.14442281685045094 0 -0.14442281685045094 0.10655133020383767 0 0 0 0.063994873648718642 0.15984778063273491 -0.10257840875594609 0 -0.10257840875594609 0.032104005580292305 0 0 0 0.047987946553256826 0.13872007791033553 -0.094523125296871319 0 -0.094523125296871319 0.026948410291757319 0 0 0 0.041417122050523225 0.112846951678643 -0.10222669612976995 0 -0.10222669612976995 0.041639025270083341 0 0 0 0.038621494237181586 0.069185863961341104 -0.086192996462965063 0 -0.086192996462965063 0.053565100707974822 0 0 0 0.030687741167328975 0.045035679648186389 -0.068056528105833833 0 -0.068056528105833833 0.072438994310544791 0 0 0 0.029368668489682781 0.041459438938101306 -0.076092843693792933 0 -0.076092843693792933 0.039450482093950523 0 0 0 0.020227480258012992 0.076787419261448941 -0.10415767940511267 0 -0.10415767940511267 0.029442115458094727 0 0 0 0.026557383679885915 0.078808906028877579 -0.10402911083437191 0 -0.10402911083437191 0.095058446862141599 0 0 0 0.043466838222754767 0.023201803882556063 -0.069783391419779517 0 -0.069783391419779517 0.079590835587233219 0 0 0 0.025698159867447237 0.057636285845588109 -0.08918499155853632 0 -0.08918499155853632 0.11778194721813695 0 0 0 0.043854558265931265 0.009164466016468073 -0.04343507900476673 0 -0.04343507900476673 0.049265105196795833 0 0 0 0.014607392803315897 0.038974140747501274 -0.060679551202911408 0 -0.060679551202911408 0.080860879028444188 0 0 0 0.029958754943986365 0.00405434165250107 -0.019200284898743088 0 -0.019200284898743088 0.038172532719037644 0 0 0 0.010556718592884651 0.000933214979786684 -0.017990830564520999 0 -0.017990830564520999 0.039373358443284379 0 0 0 0.010076643355767717 0.003223947324747567 -0.032421976371056427 0 -0.032421976371056427 0.075446554095803808 0 0 0 0.019667625355137774 0.014114354682182695 -0.029928884572255066 0 -0.029928884572255066 0.069797290646754551 0 0 0 0.020977911332234367 -0.0008801190388887381 -0.010702275799518657 0 -0.010702275799518657 0.038947860347822383 0 0 0 0.0095169353272335222 0.0026729392467512714 -0.011663117197689921 0 -0.011663117197689921 0.0496103363635374 0 0 0 0.013070818902572334 0.0042381449314717878 -0.0083194581117950195 0 -0.0083194581117950195 0.029560494343427113 0 0 0 0.0084496598187248084 9.4999744838841771e-05 -0.0053040262516838022 0 -0.0053040262516838022 0.017105156961953139 0 0 0 0.0043000391766980783 0.00052150856471774865 -0.006770224454479834 0 -0.006770224454479834 0.041965843331612185 0 0 0 0.010621837974082532 0.021478880254449551 -0.046819705349519472 0 -0.046819705349519472 0.10953104770298117 0 0 0 0.032752481989357651 0.0068621788056453248 -0.050349524162870751 0 -0.050349524162870751 0.11794385671474572 0 0 0 0.03120150888009765 0.0072736526579377792 -0.030638947834108254 0 -0.030638947834108254 0.070494781123698447 0 0 0 0.019442108445409056 0.0013950089422652412 -0.013806448267964178 0 -0.013806448267964178 0.085886798081232785 0 0 0 0.021820451755874493 0.0028195993205666348 -0.015320415714174307 0 -0.015320415714174307 0.065222977851296271 0 0 0 0.017010644292965726 -0.00069619685683089405 -0.01577582244693021 0 -0.01577582244693021 0.095770317802404192 0 0 0 0.023768530236393332 0.0011737877851795142 -0.016651947655269062 0 -0.016651947655269062 0.10209187568256128 0 0 0 0.025816415866935283 0.016715168642899569 -0.028542102764831045 0 -0.028542102764831045 0.14648333160692539 0 0 0 0.040799625062456046 -0.0011214247162204261 -0.017752284235821092 0 -0.017752284235821092 0.14694049723356872 0 0 0 0.036454768129337151 0.025385945519182607 -0.049355041721213078 0 -0.049355041721213078 0.2242297632949346 0 0 0 0.062403927203529164 -0.0027336328112858022 -0.033517960828712612 0 -0.033517960828712612 0.16694169120538171 0 0 0 0.041052014598523923 0.054708914185564339 -0.10780778634719812 0 -0.10780778634719812 0.14867692729921056 0 0 0 0.050846460371193725 0.030054423638367578 -0.079845240915359494 0 -0.079845240915359494 0.21291793242065404 0 0 0 0.06074308901475528 0.014950574121070676 -0.055879671270398057 0 -0.055879671270398057 0.13312189417092057 0 0 0 0.037018117072997708 0.048780874175112676 -0.1051928614710132 0 -0.1051928614710132 0.14425627555913945 0 0 0 0.048259287433563058 0.21122264583966838 -0.12983286553396592 0 -0.12983286553396592 0.08383436552844814 0 0 0 0.073764252842029143 0.35278080282798052 -0.15246035671274438 0 -0.15246035671274438 0.13382066918485711 0 0 0 0.12165036800320944 0.11423810017198222 -0.17341774192904647 0 -0.17341774192904647 0.29005948720241337 0 0 0 0.10107439684359898 0.11456460230267718 -0.14753366091295994 0 -0.14753366091295994 0.23952511500396767 0 0 0 0.088522429326661323 0.0013527080860841548 -0.062791368349293775 0 -0.062791368349293775 0.21063837601303215 0 0 0 0.05299777102477924 0.094582679965545369 -0.11883342138382669 0 -0.11883342138382669 0.38044738157444868 0 0 0 0.11875751538499824 0.070555963951044576 -0.13561116123209715 0 -0.13561116123209715 0.25618911247601339 0 0 0 0.081686269106764464 0.44552212858991203 -0.39674101287328417 0 -0.39674101287328417 0.67898414585417344 0 0 0 0.28112656861102159 0.0062872218897787047 0.026214344042518656 0 0.026214344042518656 0.067068993791917997 0 0 0 0.018339053920424231 0.33977112130123216 0.20567457939863276 0 0.20567457939863276 0.098596331406450688 0 0 0 0.10959186317692032 4.9323718095305832e-06 -1.1119085434637121e-07 0 -1.1119085434637121e-07 1.6980278987242808e-06 0 0 0 1.6575999270637158e-06 0.025846343843561045 0.013830433836309108 0 0.013830433836309108 -0.036953446710330809 0 0 0 -0.0027767757166922741 1.2813260467353531e-05 -6.2316930159737903e-07 0 -6.2316930159737903e-07 4.3057489259328658e-06 0 0 0 4.2797523483215994e-06 0.0021296104038353025 -0.00970613267660414 0 -0.00970613267660414 0.037307363155668405 0 0 0 0.0098592433898765375 0.060655816642137372 0.048339953478842901 0 0.048339953478842901 0.034128809282676809 0 0 0 0.023696156481203268 0.32014883507395742 -0.015854909434674186 0 -0.015854909434674186 0.061164701912997721 0 0 0 0.095328384246739173 0.26765341554325683 0.14253649924748801 0 0.14253649924748801 0.13489115874554403 0 0 0 0.1006361435722001 0.20493082344828273 0.0033827478850192438 0 0.0033827478850192438 0.0039625601892980811 0 0 0 0.052223345909395036 0.12934152281182176 0.070220547762568364 0 0.070220547762568364 0.059673308530069136 0 0 0 0.047253707835472669 0.0422201494333138 0.025095198895742188 0 0.025095198895742188 0.018490334636392269 0 0 0 0.015177621017426295 0.03456759654534447 0.027720617156835825 0 0.027720617156835825 0.044747014761365111 0 0 0 0.019828652826677118 -0.0019495113934839825 0.0031823318066239725 0 0.0031823318066239725 0.031453120918486288 0 0 0 0.0073759023812500768 0.0043714381386613099 0.0056279482663819103 0 0.0056279482663819103 0.016393591418731202 0 0 0 0.0051912573893476144 0.029298973180046817 0.046704693943903974 0 0.046704693943903974 0.075811404474106503 0 0 0 0.026277594413538052 0.016176507505047066 0.007170539248354299 0 0.007170539248354299 0.022968699080423427 0 0 0 0.0097863016463675123 -0.0014678909520160488 -0.0070246271303662233 0 -0.0070246271303662233 0.024066621743862093 0 0 0 0.0056496826979612891 0.0066266047788992033 -0.005403375290836232 0 -0.005403375290836232 -0.049962392570543912 0 0 0 -0.01083394694791151 1.8308199629887143e-05 -9.9777963198086195e-07 0 -9.9777963198086195e-07 6.1569666357402228e-06 0 0 0 6.1162915664068413e-06 -4.9777076759349725e-05 -0.0056553736356611539 0 -0.0056553736356611539 0.0095140707213694498 0 0 0 0.0023660734111523585 2.3103752705654294e-05 -1.2379071099617406e-06 0 -1.2379071099617406e-06 7.7427621243262043e-06 0 0 0 7.7116287074951238e-06 -0.0035953219269733161 -0.0059992583199650618 0 -0.0059992583199650618 -0.022721496942367914 0 0 0 -0.0065792047173351964 0.00019180111036209979 -0.0035564265927303662 0 -0.0035564265927303662 -0.016541806310129914 0 0 0 -0.0040875012999417315 2.7530125031072947e-05 -1.3877097096982391e-06 0 -1.3877097096982391e-06 9.2088040095484431e-06 0 0 0 9.1847322601553476e-06 -0.00033377806502898899 -0.0030599425245450007 0 -0.0030599425245450007 0.0072562814186207802 0 0 0 0.0017306258383980033 -0.00011447492527930442 -0.0031206616878363125 0 -0.0031206616878363125 -0.0051833640388781847 0 0 0 -0.0013244597410391502 3.1739636418835894e-05 -1.4907909152245547e-06 0 -1.4907909152245547e-06 1.0602929985740582e-05 0 0 0 1.0585641601144119e-05 0.00028708548934441858 -0.0038095761682783724 0 -0.0038095761682783724 0.0085426324368809148 0 0 0 0.0022074294815566109 -0.00095466428414520133 -0.0010592164258604875 0 -0.0010592164258604875 0.0095736425576209427 0 0 0 0.0021547445683695599 -0.0020402387739675287 -0.0038479262333415143 0 -0.0038479262333415143 0.021181724760573228 0 0 0 0.0047853714966514804 0.0036326702525142363 -0.004441846961264373 0 -0.004441846961264373 0.0091141323081462833 0 0 0 0.0031867006401651299 3.8016801059859162e-05 -0.001134879160643365 0 -0.001134879160643365 0.0087436196870287475 0 0 0 0.0021954091220226513 -0.00021153350727542986 -0.0012789570983395837 0 -0.0012789570983395837 0.0050915030320739518 0 0 0 0.0012199923811992974 3.9742227650802689e-05 -1.5877607402983993e-06 0 -1.5877607402983993e-06 1.3260708754971593e-05 0 0 0 1.3250734101443571e-05 -1.6029497978298224e-05 -0.0013918313907359536 0 -0.0013918313907359536 0.0082886769790784243 0 0 0 0.0020681618702762528 -0.0012833841749884112 -0.0023810943865396617 0 -0.0023810943865396617 0.00020862074126792862 0 0 0 -0.00026869085842906593 3.5797124440816426e-05 -1.5506818097293892e-06 0 -1.5506818097293892e-06 1.195076195402018e-05 0 0 0 1.1936971598709154e-05 -0.0011003844993683898 -0.0023373820682304203 0 -0.0023373820682304203 0.0082589017921782526 0 0 0 0.0017896293232025351 -0.0010836191509981385 -0.00043831690737339279 0 -0.00043831690737339279 0.008648869308125251 0 0 0 0.0018913125392823749 -0.0012758646951307462 -0.0018242957182673658 0 -0.0018242957182673658 0.01276095975587177 0 0 0 0.002871273765185034 -0.0023328672231452963 0.0025927289367255746 0 0.0025927289367255746 0.013181720046678169 0 0 0 0.0027122132058829962 -0.002596067584514028 0.0025638228084907677 0 0.0025638228084907677 0.016899455371651051 0 0 0 0.0035758469467841447 0.003687511543617461 0.0068901888105056264 0 0.0068901888105056264 0.021891215429833188 0 0 0 0.0063946817433628844 0.004222056463943016 0.0065051249849816806 0 0.0065051249849816806 0.0231576476882491 0 0 0 0.0068449260380478629 0.0056552432275310816 0.013142580125282244 0 0.013142580125282244 0.025704717345781503 0 0 0 0.0078399901433284791 -0.0014419341980889122 0.0067253711682283557 0 0.0067253711682283557 0.0062791829184440928 0 0 0 0.0012093121800889062 0.0046054634723160792 0.010321359303819166 0 0.010321359303819166 0.016318405636350675 0 0 0 0.0052309672771666815 0.01054287309541535 0.014069870111285354 0 0.014069870111285354 0.0062740687723429334 0 0 0 0.0042042354669391546 0.0097254706853528994 0.0077213643326139447 0 0.0077213643326139447 -0.0026800018825086092 0 0 0 0.0017613672007110726 0.10046311048469669 -0.0042302959541971052 0 -0.0042302959541971052 -0.018047351095580755 0 0 0 0.020603939847278596 0.11098906540499009 -0.0047019466986852887 0 -0.0047019466986852887 -0.015094148338703484 0 0 0 0.023973729266571375 0.14502961799996883 0.0063871052371771153 0 0.0063871052371771153 -0.016168794975417566 0 0 0 0.032215205756137788 0.062668296184913222 0.036178467980633844 0 0.036178467980633844 0.024911016929535484 0 0 0 0.02189482827861201 0.038582344613493746 0.016301353005800934 0 0.016301353005800934 0.011233469798247686 0 0 0 0.012453953602935219 0.0038665561190159847 0.0021114144531833023 0 0.0021114144531833023 0.0014241159648840096 0 0 0 0.0013226680209753594 0.0021190935244628228 0.0019018390897934667 0 0.0019018390897934667 0.0013490184921591819 0 0 0 0.00086702800415583425 0.00091323128712650359 0.0011554208235071695 0 0.0011554208235071695 -0.00022363202521180625 0 0 0 0.0001723998154790074 0.00098579114174235372 0.0007626192095101541 0 0.0007626192095101541 0.00084348489465924104 0 0 0 0.00045731900910084278 0.00022189660093285823 0.00026077457226714174 0 0.00026077457226714174 -0.00015051735479509887 0 0 0 1.7844811535105976e-05 1.1344362093046456e-06 1.9992646094202371e-05 0 1.9992646094202371e-05 0.000199785735676139 0 0 0 5.0230042972443378e-05 0.0001044877525377963 -1.6876940362231529e-05 0 -1.6876940362231529e-05 -8.8834535323378816e-05 0 0 0 3.9133043028272141e-06 7.1110619840178521e-05 -1.4768165523883137e-06 0 -1.4768165523883137e-06 1.9962427911252672e-05 0 0 0 2.27682619378578e-05 6.9007949721122395e-05 -1.5381680752822884e-06 0 -1.5381680752822884e-06 2.2975218373469795e-05 0 0 0 2.2995792023648048e-05 0.00014839849853820475 0.00012692689062143714 0 0.00012692689062143714 7.2914890787423303e-05 0 0 0 5.5328347331018435e-05 4.9403347982313051e-05 7.6112382552118163e-05 0 7.6112382552118163e-05 0.00015544550234292132 0 0 0 5.1212212582640859e-05 2.8347696243713472e-06 0.00024900841124031459 0 0.00024900841124031459 0.0010698382430573972 0 0 0 0.00026816825317066417 0.00033545064121054402 0.00082352897147275339 0 0.00082352897147275339 0.00054821112178693454 0 0 0 0.00022091544074931413 0.00067492070789842984 0.00062007274189457284 0 0.00062007274189457284 0.0005710307951281024 0 0 0 0.00031148787575574488 0.00068908087535479723 0.0010196390089458607 0 0.0010196390089458607 0.00097218365157036857 0 0 0 0.00041531613173173554 4.9382619344395806e-05 0.0022724190240035469 0 0.0022724190240035469 0.001799832708287763 0 0 0 0.00046230383190737356 0.00081688006122071499 0.0018225499661180256 0 0.0018225499661180256 0.0026723343882952832 0 0 0 0.00087230361237766729 -4.7286233281429446e-05 0.00064003359524389403 0 0.00064003359524389403 0.001566552693758716 0 0 0 0.0003798166151196547 6.5506930343531793e-05 -1.5320431541405155e-06 0 -1.5320431541405155e-06 2.1831567899300792e-05 0 0 0 2.1834624560708145e-05 0.00052054988624483656 0.00051784193913528842 0 0.00051784193913528842 0.00068333698354816619 0 0 0 0.000300971717449805 0.00020809726346235135 0.00077355197795769826 0 0.00077355197795769826 0.0022069993831041125 0 0 0 0.00060377416164178249 6.1971955123104434e-05 -1.5442867493560218e-06 0 -1.5442867493560218e-06 2.0653373076169008e-05 0 0 0 2.065633204981836e-05 0.00012895811599511475 0.00093052430832685218 0 0.00093052430832685218 0.0038517069466950105 0 0 0 0.00099516626567242028 0.0008758611146335582 0.002736648855905131 0 0.002736648855905131 0.0042927669562784487 0 0 0 0.0012921570177282238 0.0015930356568076842 0.0030227973002716624 0 0.0030227973002716624 0.003033995496112496 0 0 0 0.0011567577882309887 0.00075890980416715159 0.0042471210431558326 0 0.0042471210431558326 0.0011074982302696768 0 0 0 0.00046660200861015078 0.002247630433452108 0.0050893773343019255 0 0.0050893773343019255 0.0048284652042396292 0 0 0 0.0017690239094231286 -0.00079640769404876188 0.0064943520906611818 0 0.0064943520906611818 0.0023523624821999434 0 0 0 0.00038898869703740679 0.00046900447810316326 0.0063880704996428506 0 0.0063880704996428506 0.0083321953337565091 0 0 0 0.0022002999529650014 0.00037339544830139459 0.0034625758332489931 0 0.0034625758332489931 0.0061001647782918944 0 0 0 0.0016183900566484333 -0.0010428804772926181 0.003712447886810466 0 0.003712447886810466 0.0065852210813441836 0 0 0 0.0013855851510122807 -0.00045668977721730064 0.0034946011861698434 0 0.0034946011861698434 0.002830013569553369 0 0 0 0.00059333094808350362 -0.00029619627237986723 0.0018413563304737757 0 0.0018413563304737757 0.0029096522636882227 0 0 0 0.00065336399782578436 0.00025487695838632973 0.0018241423747866192 0 0.0018241423747866192 0.0050466433378320019 0 0 0 0.0013253800740546939 6.256404853499653e-05 0.00062624730369442716 0 0.00062624730369442716 0.0045584027967402463 0 0 0 0.0011552417113194213 5.8402164230133183e-05 -1.5569661464551073e-06 0 -1.5569661464551073e-06 1.9463914075463121e-05 0 0 0 1.9466519576399076e-05 -0.00019928580584571698 0.00080261735871900441 0 0.00080261735871900441 0.0039306443079940578 0 0 0 0.0009328396255370297 8.0924461919984481e-05 0.00055498848293034087 0 0.00055498848293034087 0.0066654398714174334 0 0 0 0.0016865910833345765 5.4794917115716931e-05 -1.571070476427817e-06 0 -1.571070476427817e-06 1.8263026553821782e-05 0 0 0 1.8264485917384678e-05 -5.2174398130766519e-05 0.00063032674964702551 0 0.00063032674964702551 0.0056872829085339305 0 0 0 0.001408777127601013 -0.00084812561852887214 0.0016991936277630515 0 0.0016991936277630515 0.0059791013959262784 0 0 0 0.0012827439443499067 -0.00012276230448038383 0.0018150424817935384 0 0.0018150424817935384 0.0055712740896964874 0 0 0 0.0013621279463043034 -0.00024677444868670406 0.0011881404006506835 0 0.0011881404006506835 0.0075858625659472878 0 0 0 0.001834772029315479 -0.00053651936828602587 0.00082540970412425807 0 0.00082540970412425807 0.0088571595044455442 0 0 0 0.0020801600340396575 3.9070263308405018e-05 0.00027364766004045471 0 0.00027364766004045471 0.0071930589346589358 0 0 0 0.0018080322994922238 5.1136648545575065e-05 -1.5862865256761814e-06 0 -1.5862865256761814e-06 1.7043835343725608e-05 0 0 0 1.7045120972325168e-05 -0.00029056199070565114 0.00042168110975848716 0 0.00042168110975848716 0.0070786084941083516 0 0 0 0.00169701162585012 4.3610046240120102e-05 -1.6009157135459207e-06 0 -1.6009157135459207e-06 1.4544772200621228e-05 0 0 0 1.4538704610185331e-05 -0.00094628653917298844 -0.00056195646554924039 0 -0.00056195646554924039 0.0072407639950618913 0 0 0 0.0015736193639745574 -0.00011475680009609412 0.00014732773417680534 0 0.00014732773417680534 0.0077291137595638659 0 0 0 0.0019035892398664434 4.740503474613295e-05 -1.6000302902171741e-06 0 -1.6000302902171741e-06 1.5804085889098117e-05 0 0 0 1.5802280158807766e-05 8.2660775950760268e-05 1.9270242585633923e-05 0 1.9270242585633923e-05 0.008558926508770881 0 0 0 0.0021603968211802993 -0.0015689238363157387 0.00032209447008990644 0 0.00032209447008990644 0.0079154064681433711 0 0 0 0.0015866206579575048 -0.0021242273779089604 0.0028737025280456407 0 0.0028737025280456407 0.0099467841263107815 0 0 0 0.0019556391871007328 -0.0018312069563578143 0.0028811358898694905 0 0.0028811358898694905 0.0086763488818120127 0 0 0 0.0017112854813633865 0.0035473391411796618 0.0083354584542183474 0 0.0083354584542183474 0.0021310527303803894 0 0 0 0.0014195979678900406 -0.0024129320723330072 0.0072842917549307273 0 0.0072842917549307273 0.011463859732876447 0 0 0 0.0022627319151362069 -0.0037067769305234588 0.0085709527999818236 0 0.0085709527999818236 0.0037896324252413294 0 0 0 2.0713873679190087e-05 0.0026103853167933622 0.0064260720026658724 0 0.0064260720026658724 0.0034184449856136112 0 0 0 0.0015072075756017433 0.00061089889441945378 0.0078315060981828388 0 0.0078315060981828388 0.0018126212274938158 0 0 0 0.00060588003047901129 0.0019861019439166849 0.0062229364682004906 0 0.0062229364682004906 0.0013375902044383547 0 0 0 0.00083092303708887094 0.0050601746902958489 0.0051205759220417368 0 0.0051205759220417368 0.0026634078830154451 0 0 0 0.0019308956433272684 0.0067470095169205324 0.006011747766107689 0 0.006011747766107689 0.0021393464746195523 0 0 0 0.0022215889978848269 0.005770621959374056 0.0049569899776595872 0 0.0049569899776595872 0.00087099992001382631 0 0 0 0.0016604054698472481 0.0033256067622726704 0.0027464406833894173 0 0.0027464406833894173 5.1257281985961356e-05 0 0 0 0.00084421601106443589 0.010794064808465675 0.0041250852229526291 0 0.0041250852229526291 0.0019453386575842835 0 0 0 0.0031848508665126563 0.010044150291262155 -0.010670433874156782 0 -0.010670433874156782 -0.050999709093465295 0 0 0 -0.010238889700550757 0.020409948580466297 0.0042731063728670719 0 0.0042731063728670719 -0.0030115419276839361 0 0 0 0.0043496016631956458 0.0079574764527754471 0.0019214516445642538 0 0.0019214516445642538 0.0041354265591957429 0 0 0 0.003023225752992742 -0.0012646876416659847 0.0059878538292684746 0 0.0059878538292684746 -0.027320051465117956 0 0 0 -0.0071461847766955966 -0.0009785865635277835 -0.0052413855058575098 0 -0.0052413855058575098 -0.019877432499047498 0 0 0 -0.0052140047656435984 -0.0013677056301787394 -0.0051796724275416928 0 -0.0051796724275416928 -0.014012970847865791 0 0 0 -0.0038451691195108273 0.0028341933043201095 0.0082114771096353234 0 0.0082114771096353234 -0.0031845247451194325 0 0 0 -8.7582860199830748e-05 -0.00042501145169859811 -0.002302886518927294 0 -0.002302886518927294 -0.028479208869732986 0 0 0 -0.007226055080357785 0.0057942734910214622 -0.016904287788735411 0 -0.016904287788735411 -0.02438591577697391 0 0 0 -0.0046479105714880564 0.022140686372014384 -0.017832834765768801 0 -0.017832834765768801 -0.11652926071769754 0 0 0 -0.023597143586420732 0.039375190963596651 -0.026714574313895539 0 -0.026714574313895539 -0.048957262752280073 0 0 0 -0.0023955179471710775 0.018485138413270819 -0.01744337430742926 0 -0.01744337430742926 -0.06524172082240387 0 0 0 -0.011689145602283402 0.03828174962227715 0.0089202848210643004 0 0.0089202848210643004 -0.013365694171675102 0 0 0 0.0062290138626508451 -0.0043764534997945415 -0.022072365412677319 0 -0.022072365412677319 -0.070020884126559269 0 0 0 -0.018599334406588675 0.023872880081070358 -0.071029046519055589 0 -0.071029046519055589 -0.068444199818074036 0 0 0 -0.011142829934250864 -0.002721355259781566 -0.087665162273782904 0 -0.087665162273782904 -0.036775056197749123 0 0 0 -0.0098741028643827278 0.024969047628580099 -0.068168114009576786 0 -0.068168114009576786 -0.098490901900837979 0 0 0 -0.018380463568064442 -0.063678522595037479 -0.059639631931148296 0 -0.059639631931148296 -0.0025151792165800657 0 0 0 -0.016548425452904358 -0.034832768335547784 -0.053915121285632805 0 -0.053915121285632805 -0.02170500259219053 0 0 0 -0.014134442731934496 -0.25847484789161956 -0.065355495054522872 0 -0.065355495054522872 0.026271214524878905 0 0 0 -0.058050908341685248 -0.053551545825997415 -0.12557695662539847 0 -0.12557695662539847 0.02364114913373272 0 0 0 -0.0074775991730661184 -0.10362882779824378 -0.051489668884586587 0 -0.051489668884586587 -0.019224491630433604 0 0 0 -0.030713329857169347 -0.13145868253301035 -0.086762757451479766 0 -0.086762757451479766 0.019023334673607249 0 0 0 -0.028108836964850795 -0.093564223848193184 -0.064644512711016844 0 -0.064644512711016844 0.016186487252982218 0 0 0 -0.019344434148802714 0.0022775247313730484 -0.11262987658130863 0 -0.11262987658130863 0.079582674609360568 0 0 0 0.02046504983518338 0.034511670158925867 -0.089743933037998963 0 -0.089743933037998963 0.13802343935858863 0 0 0 0.043133777379378735 0.13557471078659766 -0.12702283893282806 0 -0.12702283893282806 0.023035092722021089 0 0 0 0.039652450877154743 0.16123844841452628 -0.073044923494682279 0 -0.073044923494682279 0.30026409414471478 0 0 0 0.11537563563981024 0.24260833590114694 -0.11424418543935455 0 -0.11424418543935455 0.10972085423891853 0 0 0 0.088082297535016285 0.41536209012241504 -0.21220410419956237 0 -0.21220410419956237 0.4435307481566414 0 0 0 0.21472320956976412 0.75484136227976406 -0.07617631012793058 0 -0.07617631012793058 0.09120476884740869 0 0 0 0.21151153278179335 0.2979512456892574 -0.14783584260628357 0 -0.14783584260628357 0.11879340928655563 0 0 0 0.10418616374395334 0.23779621991906197 0.013105309662083897 0 0.013105309662083897 0.01261350112936066 0 0 0 0.062602430262105768 0.11959445194334062 -0.088622732891162403 0 -0.088622732891162403 0.019612896006009795 0 0 0 0.034801836987337631 0.08864591204591904 -0.066900129380042639 0 -0.066900129380042639 -0.046796641938270767 0 0 0 0.010462317526912013 0.21124550535321718 -0.069929803926589873 0 -0.069929803926589873 0.0024011244798654019 0 0 0 0.053411657458270811 0.087105422343060068 -0.066689897182510505 0 -0.066689897182510505 -0.039072375946370919 0 0 0 0.012008261599172343 0.014475199472069447 -0.099281318684738717 0 -0.099281318684738717 -0.030145561245493904 0 0 0 -0.003917590443356142 0.035004548377568057 -0.11711330422183608 0 -0.11711330422183608 -0.0062368694796703927 0 0 0 0.0071919197244743049 
</DataArray>
</CellData>
</Piece>
</UnstructuredGrid>
</VTKFile>
