<?xml version="1.0"?>
<VTKFile type="UnstructuredGrid" version="0.1" byte_order="LittleEndian">
<UnstructuredGrid>
<Piece NumberOfPoints="880" NumberOfCells="299">
<Points>
<DataArray type="Float64" NumberOfComponents="3" format="ascii">
-0 0 0 0.18653882694645291 0.22249173546702489 0 0 0.25000000000104189 0 -0 0 0 0.18653882694645291 0.22249173546702489 0 0.24999999999941089 0 0 0.24999999999941089 0 0 0.35015135319464608 0.1900339269648805 0 0.49999999999869182 0 0 0.18653882694645291 0.22249173546702489 0 0.24999999999941089 0 0 0.35015135319464608 0.1900339269648805 0 0.35015135319464608 0.1900339269648805 0 0.49924741621175961 0.21507969613896921 0 0.49999999999869182 0 0 0.35015135319464608 0.1900339269648805 0 0.49924741621175961 0.21507969613896921 0 0.40587285776242238 0.32419148732968017 0 0.37764981543668408 0.41341486499350411 0 0.41576443813007791 0.48093483781626972 0 0.45418244162583959 0.41624787166862259 0 0.37764981543668408 0.41341486499350411 0 0.45418244162583959 0.41624787166862259 0 0.40587285776242238 0.32419148732968017 0 0.41576443813007791 0.48093483781626972 0 0.46566719828045178 0.47702825415921918 0 0.45418244162583959 0.41624787166862259 0 0.41576443813007791 0.48093483781626972 0 0.46566719828045178 0.47702825415921918 0 0.4638583922372429 0.51470588235294135 0 0.46566719828045178 0.47702825415921918 0 0.49954900152271581 0.45107191084564019 0 0.5 0.5 0 0.46566719828045178 0.47702825415921918 0 0.4638583922372429 0.51470588235294135 0 0.5 0.5 0 0.46566719828045178 0.47702825415921918 0 0.49954900152271581 0.45107191084564019 0 0.45418244162583959 0.41624787166862259 0 0.45418244162583959 0.41624787166862259 0 0.49435464945626773 0.33318442629318029 0 0.54876010062294855 0.39662628167175101 0 0.45418244162583959 0.41624787166862259 0 0.49435464945626773 0.33318442629318029 0 0.40587285776242238 0.32419148732968017 0 0.49924741621175961 0.21507969613896921 0 0.49435464945626773 0.33318442629318029 0 0.40587285776242238 0.32419148732968017 0 0.35015135319464608 0.1900339269648805 0 0.40587285776242238 0.32419148732968017 0 0.29145599617909779 0.35026601625021492 0 0.37764981543668408 0.41341486499350411 0 0.40587285776242238 0.32419148732968017 0 0.29145599617909779 0.35026601625021492 0 0.18653882694645291 0.22249173546702489 0 0.35015135319464608 0.1900339269648805 0 0.29145599617909779 0.35026601625021492 0 0.29145599617909779 0.35026601625021492 0 0.32540781287085369 0.49175159894608172 0 0.17872124008781709 0.39692711089439497 0 0.37764981543668408 0.41341486499350411 0 0.29145599617909779 0.35026601625021492 0 0.32540781287085369 0.49175159894608172 0 0.37764981543668408 0.41341486499350411 0 0.41576443813007791 0.48093483781626972 0 0.32540781287085369 0.49175159894608172 0 0.17872124008781709 0.39692711089439497 0 0 0.25000000000104189 0 0 0.50000000000206157 0 0.17872124008781709 0.39692711089439497 0 0 0.50000000000206157 0 0.22453074737734591 0.51613635929252633 0 0.32540781287085369 0.49175159894608172 0 0.17872124008781709 0.39692711089439497 0 0.22453074737734591 0.51613635929252633 0 0.18653882694645291 0.22249173546702489 0 0.29145599617909779 0.35026601625021492 0 0.17872124008781709 0.39692711089439497 0 0.18653882694645291 0.22249173546702489 0 0.17872124008781709 0.39692711089439497 0 0 0.25000000000104189 0 0 0.50000000000206157 0 0.18442368612951149 0.62734948407416979 0 0 0.75000000000034772 0 0.18442368612951149 0.62734948407416979 0 0.22727208279115291 0.72949159435386135 0 0 0.75000000000034772 0 0.18442368612951149 0.62734948407416979 0 0.22727208279115291 0.72949159435386135 0 0.31346558946927339 0.67110784456164874 0 0.18442368612951149 0.62734948407416979 0 0.22453074737734591 0.51613635929252633 0 0.31771010312359771 0.58585679504088894 0 0 0.50000000000206157 0 0.18442368612951149 0.62734948407416979 0 0.22453074737734591 0.51613635929252633 0 0 1 0 0.096516139048187316 0.89789944498939644 0 0 0.75000000000034772 0 0 1 0 0.096516139048187316 0.89789944498939644 0 0.1596341872805197 1 0 0.096516139048187316 0.89789944498939644 0 0 0.75000000000034772 0 0.1644705180525495 0.8200994301041713 0 0.1644705180525495 0.8200994301041713 0 0.2386314078659193 0.92924778694987087 0 0.27155609766735261 0.80398965554903801 0 0.22727208279115291 0.72949159435386135 0 0 0.75000000000034772 0 0.1644705180525495 0.8200994301041713 0 0.22727208279115291 0.72949159435386135 0 0.1644705180525495 0.8200994301041713 0 0.27155609766735261 0.80398965554903801 0 0.096516139048187316 0.89789944498939644 0 0.1644705180525495 0.8200994301041713 0 0.2386314078659193 0.92924778694987087 0 0.096516139048187316 0.89789944498939644 0 0.2386314078659193 0.92924778694987087 0 0.1596341872805197 1 0 0.2386314078659193 0.92924778694987087 0 0.1596341872805197 1 0 0.27591592301363282 1 0 0.36061858902161292 1 0 0.32789203369730929 0.94219211037003092 0 0.27591592301363282 1 0 0.36061858902161292 1 0 0.32789203369730929 0.94219211037003092 0 0.39382242252278338 0.95440420122950598 0 0.2386314078659193 0.92924778694987087 0 0.32789203369730929 0.94219211037003092 0 0.27591592301363282 1 0 0.2386314078659193 0.92924778694987087 0 0.32789203369730929 0.94219211037003092 0 0.31834856208730472 0.88134829947972904 0 0.32789203369730929 0.94219211037003092 0 0.37746652222901839 0.8987532801416368 0 0.39382242252278338 0.95440420122950598 0 0.32789203369730929 0.94219211037003092 0 0.31834856208730472 0.88134829947972904 0 0.37746652222901839 0.8987532801416368 0 0.2386314078659193 0.92924778694987087 0 0.31834856208730472 0.88134829947972904 0 0.27155609766735261 0.80398965554903801 0 0.31834856208730472 0.88134829947972904 0 0.36493375430404612 0.82333914183704071 0 0.37746652222901839 0.8987532801416368 0 0.31834856208730472 0.88134829947972904 0 0.36493375430404612 0.82333914183704071 0 0.27155609766735261 0.80398965554903801 0 0.22727208279115291 0.72949159435386135 0 0.27155609766735261 0.80398965554903801 0 0.32984265945580837 0.74432890077789404 0 0.36493375430404612 0.82333914183704071 0 0.27155609766735261 0.80398965554903801 0 0.32984265945580837 0.74432890077789404 0 0.36493375430404612 0.82333914183704071 0 0.39746869305290999 0.7595658224757349 0 0.32984265945580837 0.74432890077789404 0 0.36493375430404612 0.82333914183704071 0 0.39746869305290999 0.7595658224757349 0 0.42893012659725649 0.81084715169569632 0 0.39746869305290999 0.7595658224757349 0 0.42893012659725649 0.81084715169569632 0 0.44651949253391748 0.77225997208621999 0 0.39746869305290999 0.7595658224757349 0 0.44651949253391748 0.77225997208621999 0 0.43412357948152142 0.72128778687215156 0 0.44651949253391748 0.77225997208621999 0 0.47786860714145291 0.77730227330627721 0 0.47220206448452873 0.74892462649306213 0 0.47786860714145291 0.77730227330627721 0 0.47220206448452873 0.74892462649306213 0 0.5 0.76470588235294124 0 0.47786860714145291 0.77730227330627721 0 0.5 0.79411764705882359 0 0.5 0.76470588235294124 0 0.47062147868881782 0.80650323854033878 0 0.5 0.82352941176470584 0 0.5 0.79411764705882359 0 0.47786860714145291 0.77730227330627721 0 0.47062147868881782 0.80650323854033878 0 0.5 0.79411764705882359 0 0.44651949253391748 0.77225997208621999 0 0.47786860714145291 0.77730227330627721 0 0.47062147868881782 0.80650323854033878 0 0.42893012659725649 0.81084715169569632 0 0.44651949253391748 0.77225997208621999 0 0.47062147868881782 0.80650323854033878 0 0.42893012659725649 0.81084715169569632 0 0.47062147868881782 0.80650323854033878 0 0.46181179062043481 0.83858979842637782 0 0.42893012659725649 0.81084715169569632 0 0.46181179062043481 0.83858979842637782 0 0.42880856207355889 0.86677159981903118 0 0.46181179062043481 0.83858979842637782 0 0.5 0.85294117647058831 0 0.5 0.82352941176470584 0 0.47062147868881782 0.80650323854033878 0 0.46181179062043481 0.83858979842637782 0 0.5 0.82352941176470584 0 0.46181179062043481 0.83858979842637782 0 0.47032448519202857 0.86718057681700655 0 0.5 0.85294117647058831 0 0.47032448519202857 0.86718057681700655 0 0.5 0.88235294117647056 0 0.5 0.85294117647058831 0 0.46181179062043481 0.83858979842637782 0 0.47032448519202857 0.86718057681700655 0 0.42880856207355889 0.86677159981903118 0 0.36493375430404612 0.82333914183704071 0 0.42880856207355889 0.86677159981903118 0 0.37746652222901839 0.8987532801416368 0 0.36493375430404612 0.82333914183704071 0 0.42893012659725649 0.81084715169569632 0 0.42880856207355889 0.86677159981903118 0 0.37746652222901839 0.8987532801416368 0 0.42822627495986648 0.92083108049218854 0 0.39382242252278338 0.95440420122950598 0 0.42880856207355889 0.86677159981903118 0 0.37746652222901839 0.8987532801416368 0 0.42822627495986648 0.92083108049218854 0 0.47032448519202857 0.86718057681700655 0 0.42880856207355889 0.86677159981903118 0 0.46100207326614928 0.89524736819256467 0 0.42880856207355889 0.86677159981903118 0 0.42822627495986648 0.92083108049218854 0 0.46100207326614928 0.89524736819256467 0 0.47032448519202857 0.86718057681700655 0 0.46100207326614928 0.89524736819256467 0 0.5 0.88235294117647056 0 0.46100207326614928 0.89524736819256467 0 0.5 0.91176470588235292 0 0.5 0.88235294117647056 0 0.46100207326614928 0.89524736819256467 0 0.46949408183482899 0.92833826413560594 0 0.5 0.91176470588235292 0 0.46949408183482899 0.92833826413560594 0 0.5 0.94117647058823528 0 0.5 0.91176470588235292 0 0.42822627495986648 0.92083108049218854 0 0.46100207326614928 0.89524736819256467 0 0.46949408183482899 0.92833826413560594 0 0.46949408183482899 0.92833826413560594 0 0.44768478605684647 0.9646709673379662 0 0.47596308696979028 0.95620709615192379 0 0.42822627495986648 0.92083108049218854 0 0.46949408183482899 0.92833826413560594 0 0.44768478605684647 0.9646709673379662 0 0.44768478605684647 0.9646709673379662 0 0.47596308696979028 0.95620709615192379 0 0.47818194888216242 0.97829325975680159 0 0.46949408183482899 0.92833826413560594 0 0.47596308696979028 0.95620709615192379 0 0.5 0.94117647058823528 0 0.47596308696979028 0.95620709615192379 0 0.47818194888216242 0.97829325975680159 0 0.5 0.97058823529411764 0 0.47596308696979028 0.95620709615192379 0 0.5 0.97058823529411764 0 0.5 0.94117647058823528 0 0.47818194888216242 0.97829325975680159 0 0.46726187138417491 1 0 0.5 1 0 0.47818194888216242 0.97829325975680159 0 0.5 0.97058823529411764 0 0.5 1 0 0.44768478605684647 0.9646709673379662 0 0.47818194888216242 0.97829325975680159 0 0.46726187138417491 1 0 0.44768478605684647 0.9646709673379662 0 0.46726187138417491 1 0 0.42231823435723009 1 0 0.44768478605684647 0.9646709673379662 0 0.42231823435723009 1 0 0.39382242252278338 0.95440420122950598 0 0.42822627495986648 0.92083108049218854 0 0.44768478605684647 0.9646709673379662 0 0.39382242252278338 0.95440420122950598 0 0.36061858902161292 1 0 0.42231823435723009 1 0 0.39382242252278338 0.95440420122950598 0 0.31771010312359771 0.58585679504088894 0 0.3872154068451229 0.6301386882447304 0 0.41980724897053312 0.55867199730355355 0 0.32540781287085369 0.49175159894608172 0 0.31771010312359771 0.58585679504088894 0 0.41980724897053312 0.55867199730355355 0 0.32540781287085369 0.49175159894608172 0 0.22453074737734591 0.51613635929252633 0 0.31771010312359771 0.58585679504088894 0 0.18442368612951149 0.62734948407416979 0 0.31771010312359771 0.58585679504088894 0 0.31346558946927339 0.67110784456164874 0 0.22727208279115291 0.72949159435386135 0 0.32984265945580837 0.74432890077789404 0 0.31346558946927339 0.67110784456164874 0 0.39746869305290999 0.7595658224757349 0 0.32984265945580837 0.74432890077789404 0 0.38513711431054509 0.69312683393047636 0 0.32984265945580837 0.74432890077789404 0 0.31346558946927339 0.67110784456164874 0 0.38513711431054509 0.69312683393047636 0 0.31771010312359771 0.58585679504088894 0 0.31346558946927339 0.67110784456164874 0 0.3872154068451229 0.6301386882447304 0 0.31346558946927339 0.67110784456164874 0 0.3872154068451229 0.6301386882447304 0 0.38513711431054509 0.69312683393047636 0 0.3872154068451229 0.6301386882447304 0 0.38513711431054509 0.69312683393047636 0 0.4390556798454946 0.66199025953586599 0 0.3872154068451229 0.6301386882447304 0 0.4390556798454946 0.66199025953586599 0 0.44702869549010399 0.61002701911053991 0 0.39746869305290999 0.7595658224757349 0 0.38513711431054509 0.69312683393047636 0 0.43412357948152142 0.72128778687215156 0 0.38513711431054509 0.69312683393047636 0 0.43412357948152142 0.72128778687215156 0 0.4390556798454946 0.66199025953586599 0 0.43412357948152142 0.72128778687215156 0 0.47636314644728822 0.72058823529411908 0 0.47220206448452873 0.74892462649306213 0 0.44651949253391748 0.77225997208621999 0 0.43412357948152142 0.72128778687215156 0 0.47220206448452873 0.74892462649306213 0 0.43412357948152142 0.72128778687215156 0 0.46330219403010409 0.69594601192744354 0 0.4390556798454946 0.66199025953586599 0 0.43412357948152142 0.72128778687215156 0 0.46330219403010409 0.69594601192744354 0 0.47636314644728822 0.72058823529411908 0 0.46330219403010409 0.69594601192744354 0 0.47636314644728822 0.72058823529411908 0 0.5 0.70588235294117663 0 0.46330219403010409 0.69594601192744354 0 0.5 0.67647058823529438 0 0.5 0.70588235294117663 0 0.47636314644728822 0.72058823529411908 0 0.5 0.73529411764705888 0 0.5 0.70588235294117663 0 0.47220206448452873 0.74892462649306213 0 0.5 0.73529411764705888 0 0.5 0.76470588235294124 0 0.47636314644728822 0.72058823529411908 0 0.47220206448452873 0.74892462649306213 0 0.5 0.73529411764705888 0 0.4390556798454946 0.66199025953586599 0 0.47501372853621993 0.66300743809067952 0 0.47271076880550111 0.63357150722538136 0 0.4390556798454946 0.66199025953586599 0 0.47271076880550111 0.63357150722538136 0 0.44702869549010399 0.61002701911053991 0 0.46330219403010409 0.69594601192744354 0 0.4390556798454946 0.66199025953586599 0 0.47501372853621993 0.66300743809067952 0 0.46330219403010409 0.69594601192744354 0 0.47501372853621993 0.66300743809067952 0 0.5 0.67647058823529438 0 0.47501372853621993 0.66300743809067952 0 0.5 0.64705882352941191 0 0.5 0.67647058823529438 0 0.47501372853621993 0.66300743809067952 0 0.47271076880550111 0.63357150722538136 0 0.5 0.64705882352941191 0 0.47271076880550111 0.63357150722538136 0 0.5 0.61764705882352966 0 0.5 0.64705882352941191 0 0.47784843225772261 0.60532339797118362 0 0.5 0.5882352941176473 0 0.5 0.61764705882352966 0 0.47271076880550111 0.63357150722538136 0 0.47784843225772261 0.60532339797118362 0 0.5 0.61764705882352966 0 0.46950269699300751 0.57713611057881953 0 0.5 0.55882352941176494 0 0.5 0.5882352941176473 0 0.47784843225772261 0.60532339797118362 0 0.46950269699300751 0.57713611057881953 0 0.5 0.5882352941176473 0 0.46950269699300751 0.57713611057881953 0 0.44702869549010399 0.61002701911053991 0 0.41980724897053312 0.55867199730355355 0 0.47784843225772261 0.60532339797118362 0 0.46950269699300751 0.57713611057881953 0 0.44702869549010399 0.61002701911053991 0 0.47271076880550111 0.63357150722538136 0 0.47784843225772261 0.60532339797118362 0 0.44702869549010399 0.61002701911053991 0 0.3872154068451229 0.6301386882447304 0 0.44702869549010399 0.61002701911053991 0 0.41980724897053312 0.55867199730355355 0 0.41576443813007791 0.48093483781626972 0 0.32540781287085369 0.49175159894608172 0 0.41980724897053312 0.55867199730355355 0 0.41576443813007791 0.48093483781626972 0 0.41980724897053312 0.55867199730355355 0 0.4638583922372429 0.51470588235294135 0 0.41980724897053312 0.55867199730355355 0 0.4638583922372429 0.51470588235294135 0 0.47063366764015668 0.5477498568705923 0 0.46950269699300751 0.57713611057881953 0 0.41980724897053312 0.55867199730355355 0 0.47063366764015668 0.5477498568705923 0 0.46950269699300751 0.57713611057881953 0 0.47063366764015668 0.5477498568705923 0 0.5 0.55882352941176494 0 0.47063366764015668 0.5477498568705923 0 0.5 0.52941176470588269 0 0.5 0.55882352941176494 0 0.4638583922372429 0.51470588235294135 0 0.47063366764015668 0.5477498568705923 0 0.5 0.52941176470588269 0 0.4638583922372429 0.51470588235294135 0 0.5 0.5 0 0.5 0.52941176470588269 0 0.5 0.52941176470588269 0 0.52629893369322589 0.51330452493555312 0 0.52820848765230954 0.54540076010342464 0 0.5 0.5 0 0.5 0.52941176470588269 0 0.52629893369322589 0.51330452493555312 0 0.5 0.5 0 0.5 0.52941176470588269 0 0.5 0.52941176470588269 0 0.5 0.55882352941176494 0 0.52820848765230954 0.54540076010342464 0 0.5 0.52941176470588269 0 0.5 0.55882352941176494 0 0.5 0.55882352941176494 0 0.52820848765230954 0.54540076010342464 0 0.52246722155046366 0.57417151085839346 0 0.52820848765230954 0.54540076010342464 0 0.56199650931215228 0.51957997397013023 0 0.55931585964581554 0.57571189932143541 0 0.52629893369322589 0.51330452493555312 0 0.56199650931215228 0.51957997397013023 0 0.54128967150166729 0.47213012589832831 0 0.52629893369322589 0.51330452493555312 0 0.52820848765230954 0.54540076010342464 0 0.56199650931215228 0.51957997397013023 0 0.56199650931215228 0.51957997397013023 0 0.61174067805461174 0.54148194547208961 0 0.60345082206666756 0.47575908627627911 0 0.56199650931215228 0.51957997397013023 0 0.61174067805461174 0.54148194547208961 0 0.55931585964581554 0.57571189932143541 0 0.61174067805461174 0.54148194547208961 0 0.61264973759093866 0.60999664295093947 0 0.55931585964581554 0.57571189932143541 0 0.61264973759093866 0.60999664295093947 0 0.55931585964581554 0.57571189932143541 0 0.55828304378107996 0.63546085023637511 0 0.55931585964581554 0.57571189932143541 0 0.52754891270107895 0.60396918438229519 0 0.55828304378107996 0.63546085023637511 0 0.52754891270107895 0.60396918438229519 0 0.52222323737415433 0.63323059203007803 0 0.55828304378107996 0.63546085023637511 0 0.52820848765230954 0.54540076010342464 0 0.55931585964581554 0.57571189932143541 0 0.52246722155046366 0.57417151085839346 0 0.55931585964581554 0.57571189932143541 0 0.52246722155046366 0.57417151085839346 0 0.52754891270107895 0.60396918438229519 0 0.52246722155046366 0.57417151085839346 0 0.5 0.5882352941176473 0 0.52754891270107895 0.60396918438229519 0 0.5 0.55882352941176494 0 0.52246722155046366 0.57417151085839346 0 0.5 0.5882352941176473 0 0.5 0.55882352941176494 0 0.5 0.5882352941176473 0 0.52754891270107895 0.60396918438229519 0 0.5 0.61764705882352966 0 0.52222323737415433 0.63323059203007803 0 0.5 0.5882352941176473 0 0.5 0.61764705882352966 0 0.5 0.5882352941176473 0 0.52754891270107895 0.60396918438229519 0 0.5 0.61764705882352966 0 0.5 0.61764705882352966 0 0.52222323737415433 0.63323059203007803 0 0.5 0.64705882352941191 0 0.5 0.61764705882352966 0 0.5 0.64705882352941191 0 0.52222323737415433 0.63323059203007803 0 0.5 0.64705882352941191 0 0.52736180768426655 0.66304505109048573 0 0.5 0.64705882352941191 0 0.5 0.67647058823529438 0 0.52736180768426655 0.66304505109048573 0 0.5 0.64705882352941191 0 0.5 0.67647058823529438 0 0.5 0.67647058823529438 0 0.52736180768426655 0.66304505109048573 0 0.52189318962165776 0.69193883095305098 0 0.52736180768426655 0.66304505109048573 0 0.52189318962165776 0.69193883095305098 0 0.55852327729743823 0.69498827241231187 0 0.52736180768426655 0.66304505109048573 0 0.55828304378107996 0.63546085023637511 0 0.55852327729743823 0.69498827241231187 0 0.52222323737415433 0.63323059203007803 0 0.52736180768426655 0.66304505109048573 0 0.55828304378107996 0.63546085023637511 0 0.5 0.73529411764705888 0 0.52547133540542634 0.72058823529411897 0 0.5211984712236245 0.75134107022269114 0 0.5 0.73529411764705888 0 0.52547133540542634 0.72058823529411897 0 0.5 0.70588235294117663 0 0.5 0.73529411764705888 0 0.5 0.70588235294117663 0 0.52547133540542634 0.72058823529411897 0 0.5 0.70588235294117663 0 0.52189318962165776 0.69193883095305098 0 0.5 0.67647058823529438 0 0.5 0.70588235294117663 0 0.52189318962165776 0.69193883095305098 0 0.5 0.67647058823529438 0 0.5 0.70588235294117663 0 0.52547133540542634 0.72058823529411897 0 0.52189318962165776 0.69193883095305098 0 0.55852327729743823 0.69498827241231187 0 0.52547133540542634 0.72058823529411897 0 0.5211984712236245 0.75134107022269114 0 0.55458114032207428 0.75544804615062711 0 0.52547133540542634 0.72058823529411897 0 0.55852327729743823 0.69498827241231187 0 0.55458114032207428 0.75544804615062711 0 0.55852327729743823 0.69498827241231187 0 0.6088970477846376 0.72715446211577472 0 0.55458114032207428 0.75544804615062711 0 0.55852327729743823 0.69498827241231187 0 0.6088970477846376 0.72715446211577472 0 0.60110770968787908 0.67045598539422102 0 0.61264973759093866 0.60999664295093947 0 0.55828304378107996 0.63546085023637511 0 0.60110770968787908 0.67045598539422102 0 0.55828304378107996 0.63546085023637511 0 0.55852327729743823 0.69498827241231187 0 0.60110770968787908 0.67045598539422102 0 0.61264973759093866 0.60999664295093947 0 0.60110770968787908 0.67045598539422102 0 0.66621429167335955 0.68470300534742679 0 0.6088970477846376 0.72715446211577472 0 0.66621429167335955 0.68470300534742679 0 0.6817340940367822 0.76923101696744944 0 0.6088970477846376 0.72715446211577472 0 0.60110770968787908 0.67045598539422102 0 0.66621429167335955 0.68470300534742679 0 0.66621429167335955 0.68470300534742679 0 0.6817340940367822 0.76923101696744944 0 0.7828103453665094 0.69876044407634474 0 0.66621429167335955 0.68470300534742679 0 0.69354174170208815 0.57892485983477626 0 0.7828103453665094 0.69876044407634474 0 0.69354174170208815 0.57892485983477626 0 0.77935529174931761 0.49004815756283893 0 0.66681557370681976 0.49435464945626773 0 0.61174067805461174 0.54148194547208961 0 0.69354174170208815 0.57892485983477626 0 0.66681557370681976 0.49435464945626773 0 0.61174067805461174 0.54148194547208961 0 0.60345082206666756 0.47575908627627911 0 0.66681557370681976 0.49435464945626773 0 0.61174067805461174 0.54148194547208961 0 0.61264973759093866 0.60999664295093947 0 0.69354174170208815 0.57892485983477626 0 0.61264973759093866 0.60999664295093947 0 0.66621429167335955 0.68470300534742679 0 0.69354174170208815 0.57892485983477626 0 0.60145933092659498 0.94808652648958736 0 0.57768176564240026 1 0 0.63938141097836054 1 0 0.60145933092659498 0.94808652648958736 0 0.55381003699196441 0.97073734537240042 0 0.55652711631508067 0.93435010280744335 0 0.60145933092659498 0.94808652648958736 0 0.57768176564240026 1 0 0.55381003699196441 0.97073734537240042 0 0.57768176564240026 1 0 0.53273812861558045 1 0 0.55381003699196441 0.97073734537240042 0 0.53273812861558045 1 0 0.55381003699196441 0.97073734537240042 0 0.52191028766292435 0.97912620202886635 0 0.53273812861558045 1 0 0.52191028766292435 0.97912620202886635 0 0.5 1 0 0.52191028766292435 0.97912620202886635 0 0.5 0.97058823529411764 0 0.5 1 0 0.5 0.97058823529411764 0 0.5 1 0 0.5 0.97058823529411764 0 0.5 0.94117647058823528 0 0.5 0.97058823529411764 0 0.5 0.94117647058823528 0 0.52554900427979434 0.95492408164812537 0 0.52191028766292435 0.97912620202886635 0 0.5 0.97058823529411764 0 0.52554900427979434 0.95492408164812537 0 0.5 0.94117647058823528 0 0.52554900427979434 0.95492408164812537 0 0.52149395742518578 0.9280464911497236 0 0.55381003699196441 0.97073734537240042 0 0.52554900427979434 0.95492408164812537 0 0.55652711631508067 0.93435010280744335 0 0.55381003699196441 0.97073734537240042 0 0.52191028766292435 0.97912620202886635 0 0.52554900427979434 0.95492408164812537 0 0.52554900427979434 0.95492408164812537 0 0.55652711631508067 0.93435010280744335 0 0.52149395742518578 0.9280464911497236 0 0.55652711631508067 0.93435010280744335 0 0.52982914238326484 0.89727189043838895 0 0.57507719038536997 0.89743529736491356 0 0.55652711631508067 0.93435010280744335 0 0.52149395742518578 0.9280464911497236 0 0.52982914238326484 0.89727189043838895 0 0.52149395742518578 0.9280464911497236 0 0.5 0.91176470588235292 0 0.52982914238326484 0.89727189043838895 0 0.5 0.94117647058823528 0 0.5 0.91176470588235292 0 0.5 0.94117647058823528 0 0.52149395742518578 0.9280464911497236 0 0.5 0.91176470588235292 0 0.5 0.91176470588235292 0 0.5 0.88235294117647056 0 0.52982914238326484 0.89727189043838895 0 0.5 0.91176470588235292 0 0.5 0.88235294117647056 0 0.5 0.88235294117647056 0 0.52982914238326484 0.89727189043838895 0 0.51991574276818808 0.86764705882352966 0 0.52982914238326484 0.89727189043838895 0 0.57507719038536997 0.89743529736491356 0 0.54799184932697576 0.8599032232094268 0 0.60145933092659498 0.94808652648958736 0 0.55652711631508067 0.93435010280744335 0 0.57507719038536997 0.89743529736491356 0 0.60145933092659498 0.94808652648958736 0 0.57507719038536997 0.89743529736491356 0 0.63427031498547037 0.88927276979110648 0 0.57507719038536997 0.89743529736491356 0 0.58994607995897996 0.84812355238296233 0 0.63427031498547037 0.88927276979110648 0 0.58994607995897996 0.84812355238296233 0 0.64153141236229239 0.83072478436463804 0 0.63427031498547037 0.88927276979110648 0 0.58994607995897996 0.84812355238296233 0 0.60049020024666178 0.78900583008989877 0 0.64153141236229239 0.83072478436463804 0 0.58994607995897996 0.84812355238296233 0 0.54799184932697576 0.8599032232094268 0 0.55206941203846505 0.81091931303809783 0 0.58994607995897996 0.84812355238296233 0 0.55206941203846505 0.81091931303809783 0 0.60049020024666178 0.78900583008989877 0 0.57507719038536997 0.89743529736491356 0 0.58994607995897996 0.84812355238296233 0 0.54799184932697576 0.8599032232094268 0 0.52982914238326484 0.89727189043838895 0 0.54799184932697576 0.8599032232094268 0 0.51991574276818808 0.86764705882352966 0 0.54799184932697576 0.8599032232094268 0 0.51991574276818808 0.86764705882352966 0 0.52395085592512047 0.83729395211968571 0 0.51991574276818808 0.86764705882352966 0 0.5 0.85294117647058831 0 0.52395085592512047 0.83729395211968571 0 0.5 0.88235294117647056 0 0.5 0.85294117647058831 0 0.5 0.88235294117647056 0 0.51991574276818808 0.86764705882352966 0 0.5 0.85294117647058831 0 0.5 0.82352941176470584 0 0.52395085592512047 0.83729395211968571 0 0.52039202967084142 0.80930587873000437 0 0.5 0.85294117647058831 0 0.5 0.82352941176470584 0 0.5 0.85294117647058831 0 0.5 0.82352941176470584 0 0.52395085592512047 0.83729395211968571 0 0.52395085592512047 0.83729395211968571 0 0.55206941203846505 0.81091931303809783 0 0.52039202967084142 0.80930587873000437 0 0.54799184932697576 0.8599032232094268 0 0.52395085592512047 0.83729395211968571 0 0.55206941203846505 0.81091931303809783 0 0.55206941203846505 0.81091931303809783 0 0.52039202967084142 0.80930587873000437 0 0.52593988039062167 0.78066906966870908 0 0.55206941203846505 0.81091931303809783 0 0.52593988039062167 0.78066906966870908 0 0.55458114032207428 0.75544804615062711 0 0.52039202967084142 0.80930587873000437 0 0.5 0.79411764705882359 0 0.52593988039062167 0.78066906966870908 0 0.5 0.82352941176470584 0 0.5 0.79411764705882359 0 0.5 0.82352941176470584 0 0.52039202967084142 0.80930587873000437 0 0.5 0.79411764705882359 0 0.5 0.73529411764705888 0 0.5 0.76470588235294124 0 0.5 0.73529411764705888 0 0.5 0.76470588235294124 0 0.5211984712236245 0.75134107022269114 0 0.5 0.79411764705882359 0 0.5 0.76470588235294124 0 0.52593988039062167 0.78066906966870908 0 0.5 0.79411764705882359 0 0.5 0.76470588235294124 0 0.5 0.76470588235294124 0 0.52593988039062167 0.78066906966870908 0 0.5211984712236245 0.75134107022269114 0 0.52593988039062167 0.78066906966870908 0 0.5211984712236245 0.75134107022269114 0 0.55458114032207428 0.75544804615062711 0 0.6088970477846376 0.72715446211577472 0 0.55458114032207428 0.75544804615062711 0 0.60049020024666178 0.78900583008989877 0 0.55206941203846505 0.81091931303809783 0 0.55458114032207428 0.75544804615062711 0 0.60049020024666178 0.78900583008989877 0 0.6817340940367822 0.76923101696744944 0 0.70916369539323409 0.86041409043207073 0 0.80987878298654392 0.8110307373443908 0 0.6088970477846376 0.72715446211577472 0 0.60049020024666178 0.78900583008989877 0 0.6817340940367822 0.76923101696744944 0 0.60049020024666178 0.78900583008989877 0 0.6817340940367822 0.76923101696744944 0 0.64153141236229239 0.83072478436463804 0 0.70916369539323409 0.86041409043207073 0 0.64153141236229239 0.83072478436463804 0 0.63427031498547037 0.88927276979110648 0 0.6817340940367822 0.76923101696744944 0 0.70916369539323409 0.86041409043207073 0 0.64153141236229239 0.83072478436463804 0 0.70916369539323409 0.86041409043207073 0 0.68173274398262862 0.93660593960145366 0 0.63427031498547037 0.88927276979110648 0 0.60145933092659498 0.94808652648958736 0 0.68173274398262862 0.93660593960145366 0 0.63427031498547037 0.88927276979110648 0 0.70916369539323409 0.86041409043207073 0 0.68173274398262862 0.93660593960145366 0 0.78222494485339233 0.91531439423588867 0 0.68173274398262862 0.93660593960145366 0 0.72408407698689681 1 0 0.78222494485339233 0.91531439423588867 0 0.60145933092659498 0.94808652648958736 0 0.68173274398262862 0.93660593960145366 0 0.63938141097836054 1 0 0.68173274398262862 0.93660593960145366 0 0.72408407698689681 1 0 0.63938141097836054 1 0 1 1 0 0.89611933618281592 0.89173516444576184 0 1 0.74999999999934008 0 0.72408407698689681 1 0 0.84036581271988753 1 0 0.78222494485339233 0.91531439423588867 0 0.84036581271988753 1 0 0.78222494485339233 0.91531439423588867 0 0.89611933618281592 0.89173516444576184 0 0.6817340940367822 0.76923101696744944 0 0.80987878298654392 0.8110307373443908 0 0.7828103453665094 0.69876044407634474 0 0.80987878298654392 0.8110307373443908 0 0.7828103453665094 0.69876044407634474 0 1 0.74999999999934008 0 0.78222494485339233 0.91531439423588867 0 0.80987878298654392 0.8110307373443908 0 0.89611933618281592 0.89173516444576184 0 0.70916369539323409 0.86041409043207073 0 0.78222494485339233 0.91531439423588867 0 0.80987878298654392 0.8110307373443908 0 0.80987878298654392 0.8110307373443908 0 0.89611933618281592 0.89173516444576184 0 1 0.74999999999934008 0 0.84036581271988753 1 0 1 1 0 0.89611933618281592 0.89173516444576184 0 0.84549316180028322 0.59867304496468476 0 1 0.74999999999934008 0 1 0.49999999999869182 0 0.69354174170208815 0.57892485983477626 0 0.84549316180028322 0.59867304496468476 0 0.77935529174931761 0.49004815756283893 0 0.84549316180028322 0.59867304496468476 0 1 0.49999999999869182 0 0.77935529174931761 0.49004815756283893 0 0.69354174170208815 0.57892485983477626 0 0.84549316180028322 0.59867304496468476 0 0.7828103453665094 0.69876044407634474 0 0.84549316180028322 0.59867304496468476 0 0.7828103453665094 0.69876044407634474 0 1 0.74999999999934008 0 1 0.49999999999869182 0 0.77935529174931761 0.49004815756283893 0 0.80451351819826811 0.35479918680564199 0 0.80451351819826811 0.35479918680564199 0 1 0.24999999999941089 0 0.79923457477009219 0.1751534052300894 0 1 0.49999999999869182 0 0.80451351819826811 0.35479918680564199 0 1 0.24999999999941089 0 1 0 0 0.79923457477009219 0.1751534052300894 0 0.74999999999934008 0 0 1 0.24999999999941089 0 1 0 0 0.79923457477009219 0.1751534052300894 0 0.49999999999869182 0 0 0.62537763927714929 0.14286513648320209 0 0.74999999999934008 0 0 0.79923457477009219 0.1751534052300894 0 0.62537763927714929 0.14286513648320209 0 0.6197279975813802 0.30020319976287241 0 0.79923457477009219 0.1751534052300894 0 0.62537763927714929 0.14286513648320209 0 0.74999999999934008 0 0 0.49924741621175961 0.21507969613896921 0 0.49999999999869182 0 0 0.62537763927714929 0.14286513648320209 0 0.49924741621175961 0.21507969613896921 0 0.62537763927714929 0.14286513648320209 0 0.6197279975813802 0.30020319976287241 0 0.49924741621175961 0.21507969613896921 0 0.49435464945626773 0.33318442629318029 0 0.6197279975813802 0.30020319976287241 0 0.49435464945626773 0.33318442629318029 0 0.6197279975813802 0.30020319976287241 0 0.54876010062294855 0.39662628167175101 0 0.6197279975813802 0.30020319976287241 0 0.54876010062294855 0.39662628167175101 0 0.66576775508844777 0.41353720431697111 0 0.49954900152271581 0.45107191084564019 0 0.45418244162583959 0.41624787166862259 0 0.54876010062294855 0.39662628167175101 0 0.49954900152271581 0.45107191084564019 0 0.54876010062294855 0.39662628167175101 0 0.54128967150166729 0.47213012589832831 0 0.49954900152271581 0.45107191084564019 0 0.5 0.5 0 0.54128967150166729 0.47213012589832831 0 0.5 0.5 0 0.52629893369322589 0.51330452493555312 0 0.54128967150166729 0.47213012589832831 0 0.54876010062294855 0.39662628167175101 0 0.54128967150166729 0.47213012589832831 0 0.60345082206666756 0.47575908627627911 0 0.56199650931215228 0.51957997397013023 0 0.54128967150166729 0.47213012589832831 0 0.60345082206666756 0.47575908627627911 0 0.54876010062294855 0.39662628167175101 0 0.60345082206666756 0.47575908627627911 0 0.66576775508844777 0.41353720431697111 0 0.77935529174931761 0.49004815756283893 0 0.80451351819826811 0.35479918680564199 0 0.66576775508844777 0.41353720431697111 0 0.60345082206666756 0.47575908627627911 0 0.66576775508844777 0.41353720431697111 0 0.66681557370681976 0.49435464945626773 0 0.77935529174931761 0.49004815756283893 0 0.66576775508844777 0.41353720431697111 0 0.66681557370681976 0.49435464945626773 0 0.80451351819826811 0.35479918680564199 0 0.79923457477009219 0.1751534052300894 0 0.6197279975813802 0.30020319976287241 0 0.80451351819826811 0.35479918680564199 0 0.6197279975813802 0.30020319976287241 0 0.66576775508844777 0.41353720431697111 0 
</DataArray>
</Points>
<Cells>
<DataArray type="UInt32" Name="connectivity" format="ascii">
0 1 2 3 4 5 6 7 8 9 10 11 12 13 14 15 16 17 18 19 20 21 22 23 24 25 26 27 28 29 30 31 32 33 34 35 36 37 38 39 40 41 42 43 44 45 46 47 48 49 50 51 52 53 54 55 56 57 58 59 60 61 62 63 64 65 66 67 68 69 70 71 72 73 74 75 76 77 78 79 80 81 82 83 84 85 86 87 88 89 90 91 92 93 94 95 96 97 98 99 100 101 102 103 104 105 106 107 108 109 110 111 112 113 114 115 116 117 118 119 120 121 122 123 124 125 126 127 128 129 130 131 132 133 134 135 136 137 138 139 140 141 142 143 144 145 146 147 148 149 150 151 152 153 154 155 156 157 158 159 160 161 162 163 164 165 166 167 168 169 170 171 172 173 174 175 176 177 178 179 180 181 182 183 184 185 186 187 188 189 190 191 192 193 194 195 196 197 198 199 200 201 202 203 204 205 206 207 208 209 210 211 212 213 214 215 216 217 218 219 220 221 222 223 224 225 226 227 228 229 230 231 232 233 234 235 236 237 238 239 240 241 242 243 244 245 246 247 248 249 250 251 252 253 254 255 256 257 258 259 260 261 262 263 264 265 266 267 268 269 270 271 272 273 274 275 276 277 278 279 280 281 282 283 284 285 286 287 288 289 290 291 292 293 294 295 296 297 298 299 300 301 302 303 304 305 306 307 308 309 310 311 312 313 314 315 316 317 318 319 320 321 322 323 324 325 326 327 328 329 330 331 332 333 334 335 336 337 338 339 340 341 342 343 344 345 346 347 348 349 350 351 352 353 354 355 356 357 358 359 360 361 362 363 364 365 366 367 368 369 370 371 372 373 374 375 376 377 378 379 380 381 382 383 384 385 386 387 388 389 390 391 392 393 394 395 396 397 398 399 400 401 402 403 404 405 406 407 408 409 410 411 412 413 414 415 416 417 418 419 420 421 422 423 424 425 426 427 428 429 430 431 432 433 434 435 436 437 438 439 440 441 442 443 444 445 446 447 448 449 450 451 452 453 454 455 456 457 458 459 460 461 462 463 464 465 466 467 468 469 470 471 472 473 474 475 476 477 478 479 480 481 482 483 484 485 486 487 488 489 490 491 492 493 494 495 496 497 498 499 500 501 502 503 504 505 506 507 508 509 510 511 512 513 514 515 516 517 518 519 520 521 522 523 524 525 526 527 528 529 530 531 532 533 534 535 536 537 538 539 540 541 542 543 544 545 546 547 548 549 550 551 552 553 554 555 556 557 558 559 560 561 562 563 564 565 566 567 568 569 570 571 572 573 574 575 576 577 578 579 580 581 582 583 584 585 586 587 588 589 590 591 592 593 594 595 596 597 598 599 600 601 602 603 604 605 606 607 608 609 610 611 612 613 614 615 616 617 618 619 620 621 622 623 624 625 626 627 628 629 630 631 632 633 634 635 636 637 638 639 640 641 642 643 644 645 646 647 648 649 650 651 652 653 654 655 656 657 658 659 660 661 662 663 664 665 666 667 668 669 670 671 672 673 674 675 676 677 678 679 680 681 682 683 684 685 686 687 688 689 690 691 692 693 694 695 696 697 698 699 700 701 702 703 704 705 706 707 708 709 710 711 712 713 714 715 716 717 718 719 720 721 722 723 724 725 726 727 728 729 730 731 732 733 734 735 736 737 738 739 740 741 742 743 744 745 746 747 748 749 750 751 752 753 754 755 756 757 758 759 760 761 762 763 764 765 766 767 768 769 770 771 772 773 774 775 776 777 778 779 780 781 782 783 784 785 786 787 788 789 790 791 792 793 794 795 796 797 798 799 800 801 802 803 804 805 806 807 808 809 810 811 812 813 814 815 816 817 818 819 820 821 822 823 824 825 826 827 828 829 830 831 832 833 834 835 836 837 838 839 840 841 842 843 844 845 846 847 848 849 850 851 852 853 854 855 856 857 858 859 860 861 862 863 864 865 866 867 868 869 870 871 872 873 874 875 876 877 878 879 
</DataArray>
<DataArray type="UInt32" Name="offsets" format="ascii">
3 6 9 12 15 18 21 24 27 30 33 36 39 42 45 48 51 54 57 60 63 66 69 72 75 78 81 84 87 90 93 96 99 102 105 108 111 114 117 120 123 126 129 132 135 138 141 144 147 150 153 156 159 162 165 168 171 174 177 180 183 186 189 192 195 198 201 204 207 210 213 216 219 222 225 228 231 234 237 240 243 246 249 252 255 258 261 264 267 270 273 276 279 282 285 288 291 294 297 300 303 306 309 312 315 318 321 324 327 330 333 336 339 342 345 348 351 354 357 360 363 366 369 372 375 378 381 384 387 390 393 396 399 402 405 408 411 414 417 420 423 425 428 430 433 436 439 442 445 448 451 454 457 460 463 466 469 472 474 477 479 482 485 487 490 493 495 498 501 504 507 510 513 515 518 521 523 526 529 532 535 538 541 544 547 550 553 556 559 562 565 568 571 574 577 580 583 586 589 592 595 597 599 602 605 608 611 614 617 620 623 626 628 631 634 636 639 642 645 648 651 654 657 660 663 666 669 672 675 677 680 683 685 688 691 694 697 700 703 705 708 710 713 716 718 721 724 727 730 733 736 739 742 745 748 751 754 757 760 763 766 769 772 775 778 781 784 787 790 793 796 799 802 805 808 811 814 817 820 823 826 829 832 835 838 841 844 847 850 853 856 859 862 865 868 871 874 877 880 
</DataArray>
<DataArray type="UInt32" Name="types" format="ascii">
5 5 5 5 5 5 5 5 5 5 5 5 5 5 5 5 5 5 5 5 5 5 5 5 5 5 5 5 5 5 5 5 5 5 5 5 5 5 5 5 5 5 5 5 5 5 5 5 5 5 5 5 5 5 5 5 5 5 5 5 5 5 5 5 5 5 5 5 5 5 5 5 5 5 5 5 5 5 5 5 5 5 5 5 5 5 5 5 5 5 5 5 5 5 5 5 5 5 5 5 5 5 5 5 5 5 5 5 5 5 5 5 5 5 5 5 5 5 5 5 5 5 5 5 5 5 5 5 5 5 5 5 5 5 5 5 5 5 5 5 5 3 5 3 5 5 5 5 5 5 5 5 5 5 5 5 5 5 3 5 3 5 5 3 5 5 3 5 5 5 5 5 5 3 5 5 3 5 5 5 5 5 5 5 5 5 5 5 5 5 5 5 5 5 5 5 5 5 5 5 5 3 3 5 5 5 5 5 5 5 5 5 3 5 5 3 5 5 5 5 5 5 5 5 5 5 5 5 5 3 5 5 3 5 5 5 5 5 5 3 5 3 5 5 3 5 5 5 5 5 5 5 5 5 5 5 5 5 5 5 5 5 5 5 5 5 5 5 5 5 5 5 5 5 5 5 5 5 5 5 5 5 5 5 5 5 5 5 5 5 5 5 5 5 5 5 5 5 5 
</DataArray>
</Cells>
<PointData Scalars="" Vectors="displacement," Tensors="">
<DataArray type="Float64" Name="displacement" NumberOfComponents="3" format="ascii">
-3.508138505029805e-11 -1.3128284833508716e-11 0 -2.6739394332667121e-09 -2.9367821102542213e-08 0 3.284516077061925e-12 -1.3010510645590754e-11 0 -3.508138505029805e-11 -1.3128284833508716e-11 0 -2.6739394332667105e-09 -2.9367821102542213e-08 0 -1.0143610662852756e-08 -3.7743843778666334e-08 0 -1.0143610662852756e-08 -3.7743843778666334e-08 0 -2.8350647963421273e-09 -5.0112409861846899e-08 0 1.0448944197515222e-11 -5.388117997135718e-08 0 -2.6739394332667121e-09 -2.9367821102542213e-08 0 -1.0143610662852756e-08 -3.7743843778666334e-08 0 -2.8350647963421281e-09 -5.0112409861846892e-08 0 -2.8350647963421281e-09 -5.0112409861846892e-08 0 4.5749469726303729e-10 -5.7402678101296509e-08 0 1.0448944197515222e-11 -5.388117997135718e-08 0 -2.8350647963421281e-09 -5.0112409861846892e-08 0 4.5749469726303729e-10 -5.7402678101296509e-08 0 -2.7003005323283682e-09 -5.9510518546222148e-08 0 -3.9805658453921639e-09 -6.2658291039780506e-08 0 -3.9758642321989889e-09 -7.360827440327966e-08 0 -1.613695667049551e-09 -6.9534399029037716e-08 0 -3.9805658453921639e-09 -6.2658291039780506e-08 0 -1.613695667049551e-09 -6.9534399029037716e-08 0 -2.7003005323283682e-09 -5.9510518546222148e-08 0 -3.9758642321989889e-09 -7.360827440327966e-08 0 -1.8056469740330496e-09 -7.645914925180767e-08 0 -1.613695667049551e-09 -6.9534399029037716e-08 0 -3.9758642321989889e-09 -7.360827440327966e-08 0 -1.8056469740330492e-09 -7.6459149251807683e-08 0 -2.7610342020524717e-09 -8.1501817021429492e-08 0 -1.8056469740330498e-09 -7.6459149251807683e-08 0 1.3904416089689456e-10 -7.3444474467807275e-08 0 -1.4266890893811282e-10 -7.9755369440908737e-08 0 -1.8056469740330498e-09 -7.6459149251807683e-08 0 -2.7610342020524717e-09 -8.1501817021429479e-08 0 -1.4266890893811282e-10 -7.9755369440908737e-08 0 -1.8056469740330498e-09 -7.6459149251807683e-08 0 1.3904416089689456e-10 -7.3444474467807275e-08 0 -1.613695667049551e-09 -6.9534399029037716e-08 0 -1.613695667049551e-09 -6.9534399029037716e-08 0 -1.6825233729721779e-10 -6.3559510648457525e-08 0 1.963068443963701e-09 -6.7338593566988447e-08 0 -1.613695667049551e-09 -6.9534399029037716e-08 0 -1.6825233729721779e-10 -6.3559510648457525e-08 0 -2.7003005323283682e-09 -5.9510518546222148e-08 0 4.5749469726303729e-10 -5.7402678101296509e-08 0 -1.6825233729721836e-10 -6.3559510648457525e-08 0 -2.7003005323283682e-09 -5.9510518546222148e-08 0 -2.8350647963421281e-09 -5.0112409861846892e-08 0 -2.7003005323283682e-09 -5.9510518546222148e-08 0 -4.01308688487978e-09 -4.8446303089112951e-08 0 -3.9805658453921639e-09 -6.2658291039780506e-08 0 -2.7003005323283682e-09 -5.9510518546222148e-08 0 -4.01308688487978e-09 -4.8446303089112951e-08 0 -2.6739394332667121e-09 -2.9367821102542213e-08 0 -2.8350647963421281e-09 -5.0112409861846892e-08 0 -4.01308688487978e-09 -4.8446303089112951e-08 0 -4.01308688487978e-09 -4.8446303089112951e-08 0 -6.6900519036349367e-09 -6.1512728242447652e-08 0 -4.4330807767041372e-09 -3.207928682648333e-08 0 -3.9805658453921639e-09 -6.2658291039780506e-08 0 -4.01308688487978e-09 -4.8446303089112951e-08 0 -6.6900519036349367e-09 -6.1512728242447652e-08 0 -3.9805658453921639e-09 -6.2658291039780506e-08 0 -3.9758642321989889e-09 -7.360827440327966e-08 0 -6.6900519036349367e-09 -6.1512728242447652e-08 0 -4.4330807767041372e-09 -3.207928682648333e-08 0 3.284516077061925e-12 -1.3010510645590754e-11 0 -1.1683773505522459e-11 -2.0653480734188122e-11 0 -4.4330807767041372e-09 -3.207928682648333e-08 0 -1.1683773505522459e-11 -2.0653480734188122e-11 0 -6.5252033317425597e-09 -4.3462383406085623e-08 0 -6.6900519036349367e-09 -6.1512728242447652e-08 0 -4.4330807767041372e-09 -3.207928682648333e-08 0 -6.5252033317425597e-09 -4.3462383406085623e-08 0 -2.6739394332667121e-09 -2.9367821102542213e-08 0 -4.01308688487978e-09 -4.8446303089112951e-08 0 -4.4330807767041372e-09 -3.207928682648333e-08 0 -2.6739394332667121e-09 -2.9367821102542213e-08 0 -4.4330807767041372e-09 -3.207928682648333e-08 0 3.284516077061925e-12 -1.3010510645590754e-11 0 -1.1683773505522459e-11 -2.0653480734188122e-11 0 -5.4527424993118444e-09 -3.6365548025005257e-08 0 -4.3888337166968629e-12 1.3424283495255534e-12 0 -5.4527424993118444e-09 -3.6365548025005257e-08 0 -2.8321155487560123e-09 -4.634611075598779e-08 0 -4.3888337166968629e-12 1.3424283495255534e-12 0 -5.4527424993118444e-09 -3.6365548025005257e-08 0 -2.8321155487560123e-09 -4.634611075598779e-08 0 -8.6614478880670042e-09 -7.2501566288013738e-08 0 -5.4527424993118444e-09 -3.6365548025005257e-08 0 -6.5252033317425597e-09 -4.3462383406085623e-08 0 -8.63335475748525e-09 -6.8024514915595989e-08 0 -1.1683773505522459e-11 -2.0653480734188122e-11 0 -5.4527424993118452e-09 -3.6365548025005264e-08 0 -6.5252033317425597e-09 -4.3462383406085623e-08 0 7.8266534250502815e-11 -2.176195466215265e-11 0 1.2245556132135919e-08 -1.2929094345227696e-08 0 -4.3888337166968629e-12 1.3424283495255534e-12 0 7.8266534250502815e-11 -2.176195466215265e-11 0 1.2245556132135922e-08 -1.2929094345227698e-08 0 4.5300544192658858e-08 -3.4028160048322373e-08 0 1.2245556132135919e-08 -1.2929094345227696e-08 0 -4.3888337166968629e-12 1.3424283495255534e-12 0 6.8267929201059804e-09 -2.9340057837588991e-08 0 6.8267929201059804e-09 -2.9340057837588991e-08 0 4.1482739850674548e-08 -5.2259134030226352e-08 0 6.2788198634237599e-09 -6.2954879207411642e-08 0 -2.8321155487560123e-09 -4.634611075598779e-08 0 -4.3888337167009172e-12 1.3424283495276001e-12 0 6.8267929201059804e-09 -2.9340057837588991e-08 0 -2.8321155487560123e-09 -4.634611075598779e-08 0 6.8267929201059804e-09 -2.9340057837588991e-08 0 6.2788198634237599e-09 -6.2954879207411642e-08 0 1.2245556132135919e-08 -1.2929094345227696e-08 0 6.826792920105982e-09 -2.9340057837588995e-08 0 4.1482739850674548e-08 -5.2259134030226352e-08 0 1.2245556132135919e-08 -1.2929094345227696e-08 0 4.1482739850674548e-08 -5.2259134030226352e-08 0 4.5300544192658858e-08 -3.4028160048322373e-08 0 4.1482739850674548e-08 -5.2259134030226352e-08 0 4.5300544192658858e-08 -3.4028160048322373e-08 0 8.009171775037891e-08 -7.1372425342370775e-08 0 1.1423549665541841e-07 -1.1628751462212693e-07 0 6.2951668576132336e-08 -9.1005295680924279e-08 0 8.009171775037891e-08 -7.1372425342370775e-08 0 1.1423549665541841e-07 -1.1628751462212693e-07 0 6.2951668576132336e-08 -9.1005295680924279e-08 0 8.2925154461594151e-08 -1.3826026637155326e-07 0 4.1482739850674548e-08 -5.2259134030226352e-08 0 6.2951668576132336e-08 -9.1005295680924279e-08 0 8.009171775037891e-08 -7.1372425342370775e-08 0 4.1482739850674548e-08 -5.2259134030226352e-08 0 6.2951668576132336e-08 -9.1005295680924279e-08 0 3.0401355536214412e-08 -8.4566823745521698e-08 0 6.2951668576132336e-08 -9.1005295680924279e-08 0 3.8825195858144151e-08 -1.2261228014518332e-07 0 8.2925154461594151e-08 -1.3826026637155326e-07 0 6.2951668576132336e-08 -9.1005295680924279e-08 0 3.0401355536214405e-08 -8.4566823745521685e-08 0 3.8825195858144151e-08 -1.2261228014518332e-07 0 4.1482739850674548e-08 -5.2259134030226352e-08 0 3.0401355536214412e-08 -8.4566823745521698e-08 0 6.2788198634237599e-09 -6.2954879207411642e-08 0 3.0401355536214412e-08 -8.4566823745521698e-08 0 8.5725309896696584e-09 -1.0769027414244954e-07 0 3.8825195858144151e-08 -1.2261228014518332e-07 0 3.0401355536214412e-08 -8.4566823745521698e-08 0 8.5725309896696584e-09 -1.0769027414244954e-07 0 6.2788198634237599e-09 -6.2954879207411642e-08 0 -2.8321155487560123e-09 -4.634611075598779e-08 0 6.2788198634237599e-09 -6.2954879207411642e-08 0 -3.9567063329008344e-09 -8.4075898165853675e-08 0 8.5725309896696584e-09 -1.0769027414244954e-07 0 6.2788198634237599e-09 -6.2954879207411642e-08 0 -3.9567063329008344e-09 -8.4075898165853675e-08 0 8.5725309896696584e-09 -1.0769027414244954e-07 0 -1.9978688089788378e-09 -1.1502426565127358e-07 0 -3.9567063329008344e-09 -8.4075898165853675e-08 0 8.5725309896696584e-09 -1.0769027414244954e-07 0 -1.9978688089788378e-09 -1.1502426565127358e-07 0 7.7798587060057834e-09 -1.4484012810058702e-07 0 -1.9978688089788378e-09 -1.1502426565127358e-07 0 7.7798587060057834e-09 -1.4484012810058702e-07 0 3.3813553403213728e-09 -1.3981991919619508e-07 0 -1.9978688089788378e-09 -1.1502426565127358e-07 0 3.3813553403213728e-09 -1.3981991919619508e-07 0 -3.1068788204093051e-09 -1.1950759668224253e-07 0 3.3813553403213728e-09 -1.3981991919619508e-07 0 8.1779820957259178e-09 -1.5295870977899176e-07 0 3.4717018241299575e-09 -1.3956065222351232e-07 0 8.1779820957259178e-09 -1.5295870977899176e-07 0 3.4717018241299575e-09 -1.3956065222351232e-07 0 9.6459205830954941e-09 -1.5224592635741569e-07 0 8.1779820957259178e-09 -1.5295870977899176e-07 0 1.4150362340415921e-08 -1.6715449834084854e-07 0 9.6459205830954941e-09 -1.5224592635741569e-07 0 1.1516668095026203e-08 -1.6388471035930295e-07 0 1.9901242856292644e-08 -1.8464314778479834e-07 0 1.4150362340415921e-08 -1.6715449834084854e-07 0 8.1779820957259178e-09 -1.5295870977899176e-07 0 1.1516668095026203e-08 -1.6388471035930295e-07 0 1.4150362340415921e-08 -1.6715449834084854e-07 0 3.3813553403213728e-09 -1.3981991919619508e-07 0 8.1779820957259178e-09 -1.5295870977899173e-07 0 1.1516668095026203e-08 -1.6388471035930295e-07 0 7.7798587060057834e-09 -1.4484012810058702e-07 0 3.3813553403213728e-09 -1.3981991919619508e-07 0 1.1516668095026203e-08 -1.6388471035930295e-07 0 7.7798587060057834e-09 -1.4484012810058702e-07 0 1.1516668095026203e-08 -1.6388471035930293e-07 0 1.6659375484856665e-08 -1.7513135450671056e-07 0 7.7798587060057834e-09 -1.4484012810058702e-07 0 1.6659375484856665e-08 -1.7513135450671054e-07 0 2.2187799049669918e-08 -1.6135554086060308e-07 0 1.6659375484856665e-08 -1.7513135450671056e-07 0 2.9184783474805235e-08 -2.0482692790187993e-07 0 1.9901242856292644e-08 -1.8464314778479834e-07 0 1.1516668095026203e-08 -1.6388471035930295e-07 0 1.6659375484856665e-08 -1.7513135450671056e-07 0 1.9901242856292644e-08 -1.8464314778479834e-07 0 1.6659375484856665e-08 -1.7513135450671056e-07 0 2.775459017026309e-08 -1.9690614709758715e-07 0 2.9184783474805235e-08 -2.0482692790187993e-07 0 2.775459017026309e-08 -1.9690614709758715e-07 0 4.075048165074293e-08 -2.3065444146712978e-07 0 2.9184783474805235e-08 -2.0482692790187993e-07 0 1.6659375484856665e-08 -1.7513135450671056e-07 0 2.775459017026309e-08 -1.9690614709758715e-07 0 2.2187799049669918e-08 -1.6135554086060308e-07 0 8.5725309896696584e-09 -1.0769027414244954e-07 0 2.2187799049669918e-08 -1.6135554086060308e-07 0 3.8825195858144151e-08 -1.2261228014518332e-07 0 8.5725309896696584e-09 -1.0769027414244954e-07 0 7.779858706005785e-09 -1.4484012810058702e-07 0 2.2187799049669918e-08 -1.6135554086060308e-07 0 3.8825195858144151e-08 -1.2261228014518332e-07 0 5.2674583263557607e-08 -1.7417474727846626e-07 0 8.2925154461594151e-08 -1.3826026637155326e-07 0 2.2187799049669918e-08 -1.6135554086060308e-07 0 3.8825195858144158e-08 -1.2261228014518332e-07 0 5.2674583263557607e-08 -1.7417474727846626e-07 0 2.775459017026309e-08 -1.9690614709758715e-07 0 2.2187799049669918e-08 -1.6135554086060308e-07 0 3.7366025812053051e-08 -2.0612839999424303e-07 0 2.2187799049669918e-08 -1.6135554086060308e-07 0 5.2674583263557613e-08 -1.7417474727846623e-07 0 3.7366025812053051e-08 -2.0612839999424303e-07 0 2.775459017026309e-08 -1.9690614709758715e-07 0 3.7366025812053051e-08 -2.0612839999424303e-07 0 4.075048165074293e-08 -2.3065444146712978e-07 0 3.7366025812053051e-08 -2.0612839999424303e-07 0 5.6535055850599403e-08 -2.6058952137524771e-07 0 4.075048165074293e-08 -2.3065444146712978e-07 0 3.7366025812053051e-08 -2.0612839999424303e-07 0 5.9477780743700051e-08 -2.3849712175101145e-07 0 5.6535055850599403e-08 -2.6058952137524771e-07 0 5.9477780743700051e-08 -2.3849712175101145e-07 0 8.3149361604781708e-08 -3.0395140021442222e-07 0 5.6535055850599403e-08 -2.6058952137524771e-07 0 5.2674583263557607e-08 -1.7417474727846626e-07 0 3.7366025812053051e-08 -2.0612839999424303e-07 0 5.9477780743700051e-08 -2.3849712175101145e-07 0 5.9477780743700051e-08 -2.3849712175101145e-07 0 1.0242538847894698e-07 -2.1069444009688141e-07 0 9.3343595083100634e-08 -2.7343960356207961e-07 0 5.2674583263557607e-08 -1.7417474727846626e-07 0 5.9477780743700051e-08 -2.3849712175101145e-07 0 1.0242538847894698e-07 -2.1069444009688143e-07 0 1.0242538847894698e-07 -2.1069444009688143e-07 0 9.3343595083100634e-08 -2.7343960356207961e-07 0 1.3720605061880676e-07 -2.9751064942450506e-07 0 5.9477780743700051e-08 -2.3849712175101145e-07 0 9.3343595083100634e-08 -2.7343960356207961e-07 0 8.3149361604781708e-08 -3.0395140021442222e-07 0 9.3343595083100634e-08 -2.7343960356207961e-07 0 1.3720605061880676e-07 -2.9751064942450506e-07 0 1.2963966815874475e-07 -3.7162041764317209e-07 0 9.3343595083100634e-08 -2.7343960356207961e-07 0 1.2963966815874475e-07 -3.7162041764317209e-07 0 8.3149361604781708e-08 -3.0395140021442222e-07 0 1.3720605061880676e-07 -2.9751064942450506e-07 0 1.9515154610664417e-07 -2.6428064261248453e-07 0 2.2624972788847323e-07 -4.3392236544677448e-07 0 1.3720605061880676e-07 -2.9751064942450506e-07 0 1.2963966815874472e-07 -3.7162041764317204e-07 0 2.2624972788847323e-07 -4.3392236544677448e-07 0 1.0242538847894698e-07 -2.1069444009688143e-07 0 1.3720605061880676e-07 -2.9751064942450506e-07 0 1.9515154610664417e-07 -2.6428064261248453e-07 0 1.0242538847894698e-07 -2.1069444009688143e-07 0 1.9515154610664417e-07 -2.6428064261248453e-07 0 1.522347270637143e-07 -1.7603990206124066e-07 0 1.0242538847894698e-07 -2.1069444009688143e-07 0 1.522347270637143e-07 -1.7603990206124064e-07 0 8.2925154461594151e-08 -1.3826026637155326e-07 0 5.2674583263557607e-08 -1.7417474727846626e-07 0 1.0242538847894698e-07 -2.1069444009688143e-07 0 8.2925154461594151e-08 -1.3826026637155326e-07 0 1.1423549665541841e-07 -1.1628751462212693e-07 0 1.522347270637143e-07 -1.7603990206124066e-07 0 8.2925154461594151e-08 -1.3826026637155326e-07 0 -8.63335475748525e-09 -6.8024514915595989e-08 0 -8.3979997956576493e-09 -8.8457865338547525e-08 0 -6.1007370217273605e-09 -8.4106172878920258e-08 0 -6.6900519036349367e-09 -6.1512728242447652e-08 0 -8.63335475748525e-09 -6.8024514915595989e-08 0 -6.1007370217273605e-09 -8.4106172878920258e-08 0 -6.6900519036349367e-09 -6.1512728242447652e-08 0 -6.5252033317425605e-09 -4.3462383406085623e-08 0 -8.63335475748525e-09 -6.8024514915595989e-08 0 -5.4527424993118444e-09 -3.6365548025005257e-08 0 -8.63335475748525e-09 -6.8024514915595989e-08 0 -8.6614478880670042e-09 -7.2501566288013738e-08 0 -2.8321155487560123e-09 -4.634611075598779e-08 0 -3.9567063329008344e-09 -8.4075898165853675e-08 0 -8.6614478880670042e-09 -7.2501566288013738e-08 0 -1.9978688089788378e-09 -1.1502426565127358e-07 0 -3.9567063329008344e-09 -8.4075898165853675e-08 0 -7.2221162684467504e-09 -9.807280445980024e-08 0 -3.9567063329008344e-09 -8.4075898165853675e-08 0 -8.6614478880670042e-09 -7.2501566288013738e-08 0 -7.2221162684467504e-09 -9.807280445980024e-08 0 -8.63335475748525e-09 -6.8024514915595989e-08 0 -8.6614478880670042e-09 -7.2501566288013738e-08 0 -8.3979997956576493e-09 -8.8457865338547525e-08 0 -8.6614478880670042e-09 -7.2501566288013738e-08 0 -8.3979997956576493e-09 -8.8457865338547525e-08 0 -7.2221162684467504e-09 -9.807280445980024e-08 0 -8.3979997956576493e-09 -8.8457865338547525e-08 0 -7.2221162684467504e-09 -9.807280445980024e-08 0 -5.4817956680643839e-09 -1.0612245385307926e-07 0 -8.3979997956576493e-09 -8.8457865338547525e-08 0 -5.4817956680643831e-09 -1.0612245385307926e-07 0 -5.5016400153179908e-09 -9.6552363902549508e-08 0 -1.9978688089788378e-09 -1.1502426565127358e-07 0 -7.2221162684467504e-09 -9.807280445980024e-08 0 -3.1068788204093051e-09 -1.1950759668224253e-07 0 -7.2221162684467504e-09 -9.807280445980024e-08 0 -3.1068788204093051e-09 -1.1950759668224253e-07 0 -5.4817956680643839e-09 -1.0612245385307926e-07 0 -3.1068788204093051e-09 -1.1950759668224253e-07 0 1.2011936503850615e-09 -1.3039551184885375e-07 0 3.4717018241299575e-09 -1.3956065222351232e-07 0 3.3813553403213728e-09 -1.3981991919619508e-07 0 -3.1068788204093051e-09 -1.1950759668224253e-07 0 3.4717018241299575e-09 -1.3956065222351232e-07 0 -3.1068788204093051e-09 -1.1950759668224253e-07 0 -2.1834682159474569e-09 -1.1975089041775826e-07 0 -5.4817956680643839e-09 -1.0612245385307926e-07 0 -3.1068788204093051e-09 -1.1950759668224253e-07 0 -2.1834682159474569e-09 -1.1975089041775826e-07 0 1.2011936503850604e-09 -1.3039551184885375e-07 0 -2.1834682159474569e-09 -1.1975089041775826e-07 0 1.2011936503850606e-09 -1.3039551184885375e-07 0 2.8469841111918059e-09 -1.2848339820101139e-07 0 -2.1834682159474569e-09 -1.1975089041775826e-07 0 4.1382371504355554e-10 -1.1868219145244983e-07 0 2.8469841111918059e-09 -1.2848339820101139e-07 0 1.2011936503850604e-09 -1.3039551184885375e-07 0 5.4294563955268034e-09 -1.3960428157983225e-07 0 2.8469841111918059e-09 -1.2848339820101139e-07 0 3.4717018241299575e-09 -1.3956065222351232e-07 0 5.4294563955268042e-09 -1.3960428157983225e-07 0 9.6459205830954941e-09 -1.5224592635741569e-07 0 1.2011936503850604e-09 -1.3039551184885375e-07 0 3.471701824129957e-09 -1.3956065222351232e-07 0 5.4294563955268034e-09 -1.3960428157983225e-07 0 -5.4817956680643839e-09 -1.0612245385307926e-07 0 -2.4253259762993778e-09 -1.1219452361248088e-07 0 -3.633268001092718e-09 -1.0449511410514284e-07 0 -5.4817956680643839e-09 -1.0612245385307926e-07 0 -3.633268001092718e-09 -1.0449511410514282e-07 0 -5.5016400153179908e-09 -9.6552363902549508e-08 0 -2.1834682159474569e-09 -1.1975089041775826e-07 0 -5.4817956680643847e-09 -1.0612245385307926e-07 0 -2.4253259762993778e-09 -1.1219452361248088e-07 0 -2.1834682159474569e-09 -1.1975089041775826e-07 0 -2.4253259762993778e-09 -1.1219452361248088e-07 0 4.138237150435545e-10 -1.1868219145244983e-07 0 -2.4253259762993778e-09 -1.1219452361248088e-07 0 -8.5179044100385875e-10 -1.0991201851602205e-07 0 4.138237150435545e-10 -1.1868219145244983e-07 0 -2.4253259762993778e-09 -1.1219452361248088e-07 0 -3.633268001092718e-09 -1.0449511410514284e-07 0 -8.5179044100385875e-10 -1.0991201851602205e-07 0 -3.633268001092718e-09 -1.0449511410514284e-07 0 -1.6535771209698151e-09 -1.0216498568997421e-07 0 -8.5179044100385875e-10 -1.0991201851602205e-07 0 -3.330590663552561e-09 -9.8437291123016944e-08 0 -1.5780342160799766e-09 -9.5369043707186334e-08 0 -1.6535771209698151e-09 -1.0216498568997421e-07 0 -3.633268001092718e-09 -1.0449511410514284e-07 0 -3.330590663552561e-09 -9.8437291123016944e-08 0 -1.6535771209698151e-09 -1.0216498568997421e-07 0 -3.5313320138468354e-09 -9.2209442408619405e-08 0 -1.5492188807990043e-09 -8.9533051062084893e-08 0 -1.5780342160799766e-09 -9.5369043707186334e-08 0 -3.330590663552561e-09 -9.8437291123016944e-08 0 -3.5313320138468354e-09 -9.2209442408619405e-08 0 -1.5780342160799766e-09 -9.5369043707186334e-08 0 -3.5313320138468354e-09 -9.2209442408619405e-08 0 -5.5016400153179908e-09 -9.6552363902549508e-08 0 -6.1007370217273605e-09 -8.4106172878920258e-08 0 -3.330590663552561e-09 -9.8437291123016944e-08 0 -3.5313320138468354e-09 -9.2209442408619405e-08 0 -5.5016400153179908e-09 -9.6552363902549508e-08 0 -3.633268001092718e-09 -1.0449511410514284e-07 0 -3.330590663552561e-09 -9.8437291123016944e-08 0 -5.5016400153179908e-09 -9.6552363902549508e-08 0 -8.3979997956576493e-09 -8.8457865338547525e-08 0 -5.5016400153179916e-09 -9.6552363902549508e-08 0 -6.1007370217273605e-09 -8.4106172878920258e-08 0 -3.9758642321989889e-09 -7.360827440327966e-08 0 -6.6900519036349367e-09 -6.1512728242447652e-08 0 -6.1007370217273605e-09 -8.4106172878920258e-08 0 -3.9758642321989889e-09 -7.360827440327966e-08 0 -6.1007370217273605e-09 -8.4106172878920258e-08 0 -2.7610342020524717e-09 -8.1501817021429492e-08 0 -6.1007370217273605e-09 -8.4106172878920258e-08 0 -2.7610342020524717e-09 -8.1501817021429492e-08 0 -3.1582140241635323e-09 -8.7050135686619785e-08 0 -3.5313320138468354e-09 -9.2209442408619405e-08 0 -6.1007370217273605e-09 -8.4106172878920258e-08 0 -3.1582140241635323e-09 -8.7050135686619785e-08 0 -3.5313320138468354e-09 -9.2209442408619405e-08 0 -3.1582140241635323e-09 -8.7050135686619785e-08 0 -1.5492188807990043e-09 -8.9533051062084906e-08 0 -3.1582140241635323e-09 -8.7050135686619785e-08 0 -1.0819884431851104e-09 -8.431464024744023e-08 0 -1.5492188807990043e-09 -8.9533051062084906e-08 0 -2.7610342020524717e-09 -8.1501817021429492e-08 0 -3.1582140241635318e-09 -8.7050135686619785e-08 0 -1.0819884431851104e-09 -8.431464024744023e-08 0 -2.7610342020524717e-09 -8.1501817021429492e-08 0 -1.4266890893811272e-10 -7.9755369440908724e-08 0 -1.0819884431851104e-09 -8.431464024744023e-08 0 8.9825991494170888e-10 -8.4233243131434439e-08 0 1.9258492147910544e-09 -8.1435784133234457e-08 0 2.6691157434034069e-09 -8.6330727793369899e-08 0 -1.4266890893811282e-10 -7.9755369440908737e-08 0 8.9825991494170878e-10 -8.4233243131434439e-08 0 1.9258492147910544e-09 -8.1435784133234457e-08 0 -1.3100929467179465e-10 -8.0968014108489077e-08 0 -9.7469565527784918e-11 -8.4184787107008786e-08 0 8.9825991494170888e-10 -8.4233243131434439e-08 0 1.0347965913883287e-09 -8.9444844232359925e-08 0 2.6691157434034069e-09 -8.6330727793369899e-08 0 -9.7469565527784918e-11 -8.4184787107008786e-08 0 -2.5334659064725561e-10 -8.955340051161914e-08 0 1.0347965913883287e-09 -8.9444844232359925e-08 0 2.6691157434034074e-09 -8.6330727793369899e-08 0 2.568288875782996e-09 -9.1875514086333362e-08 0 2.6691157434034069e-09 -8.6330727793369899e-08 0 3.8929641298860933e-09 -7.9782089248195792e-08 0 4.9434594757593523e-09 -8.8937450518353156e-08 0 1.9258492147910544e-09 -8.1435784133234457e-08 0 3.8929641298860933e-09 -7.9782089248195792e-08 0 2.0637651748194433e-09 -7.5238454529296867e-08 0 1.9258492147910544e-09 -8.1435784133234457e-08 0 2.6691157434034069e-09 -8.6330727793369899e-08 0 3.8929641298860933e-09 -7.9782089248195792e-08 0 3.8929641298860933e-09 -7.9782089248195792e-08 0 6.5309164379809066e-09 -7.6527268875396481e-08 0 4.5032441601168101e-09 -6.9843428583677966e-08 0 3.8929641298860933e-09 -7.9782089248195792e-08 0 6.5309164379809066e-09 -7.6527268875396468e-08 0 4.9434594757593523e-09 -8.8937450518353156e-08 0 6.5309164379809066e-09 -7.6527268875396481e-08 0 7.6867830030563578e-09 -8.5505309203826415e-08 0 4.9434594757593523e-09 -8.8937450518353156e-08 0 7.6867830030563578e-09 -8.5505309203826415e-08 0 4.9434594757593523e-09 -8.8937450518353156e-08 0 4.5478445690052237e-09 -1.0066214220369573e-07 0 4.9434594757593523e-09 -8.8937450518353156e-08 0 2.8366091751343121e-09 -9.757471632755504e-08 0 4.5478445690052237e-09 -1.0066214220369573e-07 0 2.8366091751343121e-09 -9.757471632755504e-08 0 1.8572778408473968e-09 -1.0475987547122524e-07 0 4.5478445690052237e-09 -1.0066214220369573e-07 0 2.6691157434034069e-09 -8.6330727793369899e-08 0 4.9434594757593523e-09 -8.8937450518353156e-08 0 2.568288875782996e-09 -9.1875514086333362e-08 0 4.9434594757593523e-09 -8.8937450518353156e-08 0 2.568288875782996e-09 -9.1875514086333362e-08 0 2.8366091751343121e-09 -9.757471632755504e-08 0 2.568288875782996e-09 -9.1875514086333362e-08 0 1.0596805333282239e-09 -9.5429270159920694e-08 0 2.8366091751343121e-09 -9.757471632755504e-08 0 1.0347965913883287e-09 -8.9444844232359925e-08 0 2.568288875782996e-09 -9.1875514086333362e-08 0 1.0596805333282239e-09 -9.5429270159920694e-08 0 -2.5334659064725561e-10 -8.955340051161914e-08 0 -2.7793141991621137e-10 -9.5589354257795917e-08 0 2.8366091751343121e-09 -9.757471632755504e-08 0 4.1475476179212567e-10 -1.0214117680839577e-07 0 1.8572778408473966e-09 -1.0475987547122524e-07 0 -2.7793141991621137e-10 -9.5589354257795917e-08 0 -5.9274930282478501e-10 -1.0248294928765835e-07 0 1.0596805333282239e-09 -9.5429270159920694e-08 0 2.8366091751343121e-09 -9.757471632755504e-08 0 4.1475476179212557e-10 -1.0214117680839577e-07 0 4.1475476179212557e-10 -1.0214117680839577e-07 0 1.8572778408473966e-09 -1.0475987547122524e-07 0 -3.0105761315943708e-10 -1.0965630256963613e-07 0 -5.9274930282478501e-10 -1.0248294928765835e-07 0 -5.7179979926052852e-10 -1.1031435554449453e-07 0 1.8572778408473966e-09 -1.0475987547122524e-07 0 -3.0105761315943708e-10 -1.0965630256963613e-07 0 1.5945870923804035e-09 -1.1181628332558452e-07 0 -3.0105761315943708e-10 -1.0965630256963613e-07 0 -1.7174812859307645e-09 -1.1814482615347019e-07 0 1.5945870923804035e-09 -1.1181628332558452e-07 0 -5.7179979926052852e-10 -1.1031435554449453e-07 0 -6.1737126944148587e-10 -1.1916801180250348e-07 0 -1.7174812859307645e-09 -1.1814482615347019e-07 0 1.5945870923804035e-09 -1.1181628332558452e-07 0 -2.3904303134416466e-10 -1.2094097666850089e-07 0 1.5945870923804035e-09 -1.1181628332558452e-07 0 -2.3904303134416466e-10 -1.2094097666850089e-07 0 3.0890154003818641e-09 -1.1484997011798266e-07 0 1.5945870923804035e-09 -1.1181628332558452e-07 0 4.5478445690052237e-09 -1.0066214220369573e-07 0 3.0890154003818641e-09 -1.1484997011798266e-07 0 1.8572778408473966e-09 -1.0475987547122524e-07 0 1.5945870923804035e-09 -1.1181628332558452e-07 0 4.5478445690052237e-09 -1.0066214220369573e-07 0 -5.8774427819198452e-09 -1.3873866797095667e-07 0 -1.3979080316172714e-09 -1.2957076152153073e-07 0 -4.6711354136608575e-09 -1.4181776969984508e-07 0 -5.8774427819198452e-09 -1.3873866797095667e-07 0 -1.3979080316172714e-09 -1.2957076152153073e-07 0 -3.2868312722048462e-09 -1.2774893378142515e-07 0 -1.9897111943722075e-10 -1.4051944253885627e-07 0 -2.3107692665391824e-10 -1.2913108097833895e-07 0 -1.3979080316172714e-09 -1.2957076152153073e-07 0 -3.2868312722048458e-09 -1.2774893378142515e-07 0 -2.3904303134416466e-10 -1.2094097666850089e-07 0 -1.7174812859307645e-09 -1.1814482615347019e-07 0 -3.2868312722048462e-09 -1.2774893378142515e-07 0 -2.3904303134416466e-10 -1.2094097666850089e-07 0 -6.1737126944148587e-10 -1.1916801180250348e-07 0 -2.3107692665391824e-10 -1.2913108097833895e-07 0 -1.3979080316172714e-09 -1.2957076152153073e-07 0 -2.390430313441643e-10 -1.2094097666850089e-07 0 3.0890154003818641e-09 -1.1484997011798266e-07 0 -1.3979080316172714e-09 -1.2957076152153073e-07 0 -4.6711354136608583e-09 -1.4181776969984508e-07 0 -9.1726928562981015e-10 -1.3365739067576649e-07 0 -1.3979080316172714e-09 -1.2957076152153073e-07 0 3.0890154003818641e-09 -1.1484997011798266e-07 0 -9.1726928562981015e-10 -1.3365739067576649e-07 0 3.0890154003818641e-09 -1.1484997011798266e-07 0 4.6111050913320342e-09 -1.0654624841331659e-07 0 -9.1726928562981015e-10 -1.3365739067576649e-07 0 3.0890154003818641e-09 -1.1484997011798266e-07 0 4.6111050913320334e-09 -1.0654624841331659e-07 0 5.9820521866512433e-09 -9.8269946202809104e-08 0 7.6867830030563578e-09 -8.5505309203826415e-08 0 4.5478445690052237e-09 -1.0066214220369573e-07 0 5.9820521866512433e-09 -9.8269946202809104e-08 0 4.5478445690052237e-09 -1.0066214220369573e-07 0 3.0890154003818641e-09 -1.1484997011798266e-07 0 5.9820521866512433e-09 -9.8269946202809104e-08 0 7.6867830030563578e-09 -8.5505309203826415e-08 0 5.9820521866512433e-09 -9.8269946202809104e-08 0 7.1990239400833649e-09 -7.9805696302110238e-08 0 4.6111050913320342e-09 -1.0654624841331659e-07 0 7.1990239400833649e-09 -7.9805696302110238e-08 0 9.5097096807325177e-10 -8.0381079800213471e-08 0 4.6111050913320342e-09 -1.0654624841331659e-07 0 5.9820521866512433e-09 -9.8269946202809104e-08 0 7.1990239400833649e-09 -7.9805696302110238e-08 0 7.1990239400833649e-09 -7.9805696302110238e-08 0 9.5097096807325177e-10 -8.0381079800213471e-08 0 4.8426662352585631e-09 -4.3680846446923385e-08 0 7.1990239400833649e-09 -7.9805696302110238e-08 0 8.9659322479966825e-09 -6.3835499888856522e-08 0 4.8426662352585631e-09 -4.3680846446923385e-08 0 8.9659322479966825e-09 -6.3835499888856522e-08 0 6.0964664388358976e-09 -4.1961229578084268e-08 0 6.158438561035154e-09 -6.24542160875232e-08 0 6.5309164379809066e-09 -7.6527268875396481e-08 0 8.9659322479966825e-09 -6.3835499888856508e-08 0 6.158438561035154e-09 -6.24542160875232e-08 0 6.5309164379809066e-09 -7.6527268875396481e-08 0 4.5032441601168101e-09 -6.9843428583677966e-08 0 6.158438561035154e-09 -6.24542160875232e-08 0 6.5309164379809066e-09 -7.6527268875396481e-08 0 7.6867830030563578e-09 -8.5505309203826415e-08 0 8.9659322479966825e-09 -6.3835499888856522e-08 0 7.6867830030563578e-09 -8.5505309203826415e-08 0 7.1990239400833649e-09 -7.9805696302110238e-08 0 8.9659322479966825e-09 -6.3835499888856522e-08 0 -7.6968153260470907e-08 -1.4197990094755544e-07 0 -1.4998471499519936e-07 -1.7570160833199697e-07 0 -1.1392665283019692e-07 -1.1634095583930351e-07 0 -7.6968153260470907e-08 -1.4197990094755544e-07 0 -1.1403384027965939e-07 -2.0811918659796743e-07 0 -6.4292073346042914e-08 -1.9816898750640477e-07 0 -7.6968153260470907e-08 -1.4197990094755544e-07 0 -1.4998471499519936e-07 -1.7570160833199697e-07 0 -1.140338402796594e-07 -2.0811918659796743e-07 0 -1.4998471499519936e-07 -1.7570160833199697e-07 0 -1.9770578832381962e-07 -2.6364508391470507e-07 0 -1.140338402796594e-07 -2.0811918659796743e-07 0 -1.9770578832381962e-07 -2.6364508391470507e-07 0 -1.140338402796594e-07 -2.0811918659796743e-07 0 -1.3905725312156544e-07 -2.9768221323692749e-07 0 -1.9770578832381962e-07 -2.6364508391470507e-07 0 -1.3905725312156544e-07 -2.9768221323692749e-07 0 -2.2874690705692735e-07 -4.358240964972971e-07 0 -1.3905725312156544e-07 -2.9768221323692749e-07 0 -1.280973479137153e-07 -3.7252240128743733e-07 0 -2.2874690705692735e-07 -4.358240964972971e-07 0 4.4862484261748954e-10 -0.00066077580170663137 0 -1.9272273171412366e-12 -0.099900735136724678 0 4.4862484261748954e-10 -0.00066077580170663137 0 8.1465248412469891e-11 -4.6867398613460765e-06 0 -1.280973479137153e-07 -3.7252240128743733e-07 0 -8.3143451936655624e-08 -3.0661513248276166e-07 0 -8.8897198509351069e-08 -2.6813913604658232e-07 0 -1.3905725312156544e-07 -2.9768221323692749e-07 0 -1.280973479137153e-07 -3.7252240128743733e-07 0 -8.8897198509351069e-08 -2.6813913604658232e-07 0 -8.3143451936655624e-08 -3.0661513248276172e-07 0 -8.8897198509351069e-08 -2.6813913604658232e-07 0 -6.3172772227633248e-08 -2.5244637161046912e-07 0 -1.140338402796594e-07 -2.0811918659796743e-07 0 -8.8897198509351069e-08 -2.6813913604658232e-07 0 -6.4292073346042914e-08 -1.9816898750640477e-07 0 -1.140338402796594e-07 -2.0811918659796743e-07 0 -1.3905725312156544e-07 -2.9768221323692749e-07 0 -8.8897198509351069e-08 -2.6813913604658232e-07 0 -8.8897198509351069e-08 -2.6813913604658232e-07 0 -6.4292073346042914e-08 -1.9816898750640477e-07 0 -6.3172772227633248e-08 -2.5244637161046912e-07 0 -6.4292073346042914e-08 -1.9816898750640477e-07 0 -3.8930479775455224e-08 -2.1678756383972152e-07 0 -3.6794064477053885e-08 -1.6577078100958048e-07 0 -6.4292073346042914e-08 -1.9816898750640477e-07 0 -6.3172772227633248e-08 -2.5244637161046912e-07 0 -3.8930479775455224e-08 -2.1678756383972152e-07 0 -6.3172772227633248e-08 -2.5244637161046912e-07 0 -5.7516088259494637e-08 -2.6098442224668336e-07 0 -3.8930479775455224e-08 -2.1678756383972152e-07 0 8.1465248412469891e-11 -4.6867398613460765e-06 0 -6.0514812593945936e-10 -2.9933374467825284e-07 0 -8.3143451936655624e-08 -3.0661513248276172e-07 0 -6.3172772227633248e-08 -2.5244637161046912e-07 0 -5.7516088259494637e-08 -2.6098442224668336e-07 0 -5.7516088259494637e-08 -2.6098442224668336e-07 0 -3.9884962361271123e-08 -2.2953877773149298e-07 0 -3.8930479775455224e-08 -2.1678756383972152e-07 0 -6.0514812593945936e-10 -2.9933374467825284e-07 0 3.6133990620656256e-10 -2.3591280977734664e-07 0 -3.9884962361271123e-08 -2.2953877773149298e-07 0 -3.8930479775455218e-08 -2.1678756383972152e-07 0 -2.9119571986011825e-08 -2.0388250242226897e-07 0 -3.8930479775455224e-08 -2.1678756383972152e-07 0 -3.6794064477053885e-08 -1.6577078100958048e-07 0 -2.1196503994432871e-08 -1.7838706045917386e-07 0 -7.6968153260470907e-08 -1.4197990094755544e-07 0 -6.4292073346042914e-08 -1.9816898750640477e-07 0 -3.6794064477053885e-08 -1.6577078100958048e-07 0 -7.6968153260470907e-08 -1.4197990094755544e-07 0 -3.6794064477053885e-08 -1.6577078100958048e-07 0 -3.3671756789357865e-08 -1.1349408978017549e-07 0 -3.6794064477053885e-08 -1.6577078100958048e-07 0 -1.5657088996181818e-08 -1.4234562663650052e-07 0 -3.3671756789357865e-08 -1.1349408978017549e-07 0 -1.5657088996181818e-08 -1.4234562663650052e-07 0 -1.1629544117555546e-08 -1.053753435358739e-07 0 -3.3671756789357865e-08 -1.1349408978017549e-07 0 -1.5657088996181818e-08 -1.4234562663650052e-07 0 -2.3349848658303291e-09 -1.2221551252769598e-07 0 -1.1629544117555548e-08 -1.053753435358739e-07 0 -1.5657088996181818e-08 -1.4234562663650052e-07 0 -2.1196503994432871e-08 -1.7838706045917386e-07 0 -8.9453069133913231e-09 -1.547175156998338e-07 0 -1.5657088996181818e-08 -1.4234562663650052e-07 0 -8.9453069133913231e-09 -1.547175156998338e-07 0 -2.3349848658303291e-09 -1.2221551252769598e-07 0 -3.6794064477053885e-08 -1.6577078100958048e-07 0 -1.5657088996181815e-08 -1.4234562663650052e-07 0 -2.1196503994432871e-08 -1.7838706045917386e-07 0 -3.8930479775455224e-08 -2.1678756383972152e-07 0 -2.1196503994432871e-08 -1.7838706045917386e-07 0 -2.9119571986011825e-08 -2.0388250242226897e-07 0 -2.1196503994432871e-08 -1.7838706045917386e-07 0 -2.9119571986011825e-08 -2.0388250242226897e-07 0 -1.8489083387446007e-08 -1.8204854386762141e-07 0 -2.9119571986011825e-08 -2.0388250242226897e-07 0 -2.8646533571182747e-08 -2.0353213323049519e-07 0 -1.8489083387446007e-08 -1.8204854386762141e-07 0 3.6133990620656256e-10 -2.3591280977734664e-07 0 2.586107992136577e-10 -2.0861367707057736e-07 0 -3.9884962361271123e-08 -2.2953877773149298e-07 0 -2.9119571986011825e-08 -2.0388250242226897e-07 0 -2.8646533571182743e-08 -2.0353213323049519e-07 0 -1.990921076006523e-08 -1.8300266450704328e-07 0 -1.8489083387446007e-08 -1.8204854386762141e-07 0 -1.3399686697674506e-08 -1.6844510176662212e-07 0 2.586107992136577e-10 -2.0861367707057736e-07 0 2.5516684010429807e-12 -1.8687981917871002e-07 0 -2.8646533571182743e-08 -2.0353213323049519e-07 0 -1.990921076006523e-08 -1.8300266450704328e-07 0 -1.8489083387446007e-08 -1.8204854386762141e-07 0 -1.8489083387446007e-08 -1.8204854386762141e-07 0 -8.9453069133913231e-09 -1.547175156998338e-07 0 -1.3399686697674506e-08 -1.6844510176662212e-07 0 -2.1196503994432871e-08 -1.7838706045917386e-07 0 -1.8489083387446007e-08 -1.8204854386762141e-07 0 -8.9453069133913231e-09 -1.547175156998338e-07 0 -8.9453069133913231e-09 -1.547175156998338e-07 0 -1.3399686697674506e-08 -1.6844510176662212e-07 0 -7.4415341629652109e-09 -1.5280314273468004e-07 0 -8.9453069133913231e-09 -1.547175156998338e-07 0 -7.44153416296521e-09 -1.5280314273468004e-07 0 -9.1726928562981015e-10 -1.3365739067576649e-07 0 -1.3399686697674506e-08 -1.6844510176662212e-07 0 -1.4068672186289496e-08 -1.6596333479900346e-07 0 -7.4415341629652109e-09 -1.5280314273468004e-07 0 2.5516684010429807e-12 -1.8687981917871002e-07 0 8.1560106258315759e-11 -1.6879294097548755e-07 0 -1.990921076006523e-08 -1.8300266450704328e-07 0 -1.3399686697674506e-08 -1.6844510176662212e-07 0 -1.4068672186289496e-08 -1.6596333479900346e-07 0 -1.9897111943722075e-10 -1.4051944253885627e-07 0 2.6417598637260708e-10 -1.5362387155135308e-07 0 -5.8774427819198452e-09 -1.3873866797095667e-07 0 -9.0750541661164761e-09 -1.514064071358433e-07 0 -4.6711354136608575e-09 -1.4181776969984508e-07 0 -1.4068672186289496e-08 -1.6596333479900346e-07 0 -9.0750541661164761e-09 -1.514064071358433e-07 0 -7.4415341629652109e-09 -1.5280314273468004e-07 0 8.1560106258315759e-11 -1.6879294097548755e-07 0 2.6417598637260708e-10 -1.5362387155135308e-07 0 -9.0750541661164761e-09 -1.514064071358433e-07 0 -7.4415341629652109e-09 -1.5280314273468004e-07 0 -4.6711354136608575e-09 -1.4181776969984508e-07 0 -7.4415341629652109e-09 -1.5280314273468004e-07 0 -4.6711354136608575e-09 -1.4181776969984508e-07 0 -9.1726928562981015e-10 -1.3365739067576649e-07 0 4.6111050913320342e-09 -1.0654624841331659e-07 0 -9.1726928562981015e-10 -1.3365739067576649e-07 0 -2.3349848658303291e-09 -1.2221551252769598e-07 0 -8.9453069133913231e-09 -1.547175156998338e-07 0 -9.1726928562981077e-10 -1.3365739067576651e-07 0 -2.3349848658303291e-09 -1.2221551252769598e-07 0 9.5097096807325177e-10 -8.0381079800213471e-08 0 -2.0590793274550211e-08 -7.1522619662240169e-08 0 -6.4179951383637758e-09 -3.5160950695075644e-08 0 4.6111050913320342e-09 -1.0654624841331659e-07 0 -2.3349848658303295e-09 -1.2221551252769598e-07 0 9.5097096807325177e-10 -8.0381079800213471e-08 0 -2.3349848658303291e-09 -1.2221551252769598e-07 0 9.5097096807325177e-10 -8.0381079800213471e-08 0 -1.1629544117555548e-08 -1.053753435358739e-07 0 -2.0590793274550211e-08 -7.1522619662240169e-08 0 -1.1629544117555548e-08 -1.053753435358739e-07 0 -3.3671756789357865e-08 -1.1349408978017549e-07 0 9.5097096807325177e-10 -8.0381079800213471e-08 0 -2.0590793274550211e-08 -7.1522619662240169e-08 0 -1.1629544117555548e-08 -1.053753435358739e-07 0 -2.0590793274550211e-08 -7.1522619662240169e-08 0 -5.7769317733432916e-08 -8.5479755647984896e-08 0 -3.3671756789357865e-08 -1.1349408978017549e-07 0 -7.6968153260470907e-08 -1.4197990094755544e-07 0 -5.776931773343291e-08 -8.5479755647984909e-08 0 -3.3671756789357865e-08 -1.1349408978017549e-07 0 -2.0590793274550211e-08 -7.1522619662240169e-08 0 -5.776931773343291e-08 -8.5479755647984909e-08 0 -3.3893745588553935e-08 -4.4717065821926481e-08 0 -5.776931773343291e-08 -8.5479755647984909e-08 0 -7.9795131287512516e-08 -7.1086598545352201e-08 0 -3.3893745588553935e-08 -4.4717065821926481e-08 0 -7.6968153260470907e-08 -1.4197990094755544e-07 0 -5.776931773343291e-08 -8.5479755647984909e-08 0 -1.1392665283019692e-07 -1.1634095583930351e-07 0 -5.776931773343291e-08 -8.5479755647984909e-08 0 -7.9795131287512516e-08 -7.1086598545352201e-08 0 -1.1392665283019692e-07 -1.1634095583930351e-07 0 -7.8637697070714515e-11 -2.1149148169805383e-11 0 -1.2526452175119141e-08 -1.4132256909807301e-08 0 4.9212172383130817e-12 1.0890754694161397e-12 0 -7.9795131287512516e-08 -7.1086598545352201e-08 0 -4.5309011305768345e-08 -3.3885054652148963e-08 0 -3.3893745588553935e-08 -4.4717065821926481e-08 0 -4.5309011305768345e-08 -3.3885054652148963e-08 0 -3.3893745588553935e-08 -4.4717065821926481e-08 0 -1.2526452175119141e-08 -1.4132256909807301e-08 0 9.5097096807325177e-10 -8.0381079800213471e-08 0 -6.4179951383637758e-09 -3.5160950695075644e-08 0 4.8426662352585631e-09 -4.3680846446923385e-08 0 -6.4179951383637758e-09 -3.5160950695075644e-08 0 4.8426662352585631e-09 -4.3680846446923385e-08 0 4.9212172383130817e-12 1.0890754694161397e-12 0 -3.3893745588553935e-08 -4.4717065821926481e-08 0 -6.4179951383637758e-09 -3.5160950695075644e-08 0 -1.2526452175119141e-08 -1.4132256909807301e-08 0 -2.0590793274550211e-08 -7.1522619662240169e-08 0 -3.3893745588553935e-08 -4.4717065821926481e-08 0 -6.4179951383637758e-09 -3.5160950695075644e-08 0 -6.4179951383637758e-09 -3.5160950695075644e-08 0 -1.2526452175119141e-08 -1.4132256909807299e-08 0 4.9212172383130817e-12 1.0890754694161397e-12 0 -4.5309011305768345e-08 -3.3885054652148963e-08 0 -7.8637697070714515e-11 -2.1149148169805383e-11 0 -1.2526452175119141e-08 -1.4132256909807301e-08 0 4.4798429959002503e-09 -2.9864961924710812e-08 0 4.9212172383130817e-12 1.0890754694161397e-12 0 1.0983782697048513e-11 -2.1101010958599865e-11 0 8.9659322479966825e-09 -6.3835499888856522e-08 0 4.4798429959002495e-09 -2.9864961924710806e-08 0 6.0964664388358976e-09 -4.1961229578084268e-08 0 4.4798429959002503e-09 -2.9864961924710812e-08 0 1.0983782697048513e-11 -2.1101010958599865e-11 0 6.0964664388358976e-09 -4.1961229578084268e-08 0 8.9659322479966825e-09 -6.3835499888856522e-08 0 4.4798429959002503e-09 -2.9864961924710812e-08 0 4.8426662352585631e-09 -4.3680846446923385e-08 0 4.4798429959002503e-09 -2.9864961924710812e-08 0 4.8426662352585631e-09 -4.3680846446923385e-08 0 4.9212172383130817e-12 1.0890754694161397e-12 0 1.0983782697048513e-11 -2.1101010958599865e-11 0 6.0964664388358976e-09 -4.1961229578084268e-08 0 4.2781685536692841e-09 -3.4317837153686202e-08 0 4.2781685536692841e-09 -3.4317837153686202e-08 0 -1.9306487606512252e-12 -1.2719440037886391e-11 0 3.1034751644469156e-09 -3.0733391435178678e-08 0 1.0983782697048513e-11 -2.1101010958599865e-11 0 4.2781685536692841e-09 -3.4317837153686202e-08 0 -1.9306487606512252e-12 -1.2719440037886391e-11 0 3.3080031665857667e-11 -1.2384461770510288e-11 0 3.1034751644469156e-09 -3.0733391435178678e-08 0 1.1434977457114234e-08 -3.779346424590661e-08 0 -1.9306487606512252e-12 -1.2719440037886391e-11 0 3.3080031665857667e-11 -1.2384461770510288e-11 0 3.1034751644469156e-09 -3.0733391435178678e-08 0 1.0448944197515222e-11 -5.388117997135718e-08 0 3.1140802992116561e-09 -5.0754592719118838e-08 0 1.1434977457114234e-08 -3.779346424590661e-08 0 3.1034751644469156e-09 -3.0733391435178678e-08 0 3.1140802992116561e-09 -5.0754592719118838e-08 0 2.9122652295499939e-09 -5.6283256982665928e-08 0 3.1034751644469156e-09 -3.0733391435178678e-08 0 3.1140802992116561e-09 -5.0754592719118838e-08 0 1.1434977457114234e-08 -3.779346424590661e-08 0 4.5749469726303729e-10 -5.7402678101296509e-08 0 1.0448944197515222e-11 -5.388117997135718e-08 0 3.1140802992116561e-09 -5.0754592719118838e-08 0 4.5749469726303729e-10 -5.7402678101296509e-08 0 3.1140802992116561e-09 -5.0754592719118838e-08 0 2.9122652295499939e-09 -5.6283256982665928e-08 0 4.5749469726303729e-10 -5.7402678101296509e-08 0 -1.6825233729721779e-10 -6.3559510648457525e-08 0 2.9122652295499939e-09 -5.6283256982665928e-08 0 -1.6825233729721779e-10 -6.3559510648457525e-08 0 2.9122652295499939e-09 -5.6283256982665928e-08 0 1.963068443963701e-09 -6.7338593566988447e-08 0 2.9122652295499939e-09 -5.6283256982665928e-08 0 1.963068443963701e-09 -6.7338593566988447e-08 0 4.9102942857089818e-09 -5.711283134493268e-08 0 1.3904416089689456e-10 -7.3444474467807275e-08 0 -1.613695667049551e-09 -6.9534399029037716e-08 0 1.963068443963701e-09 -6.7338593566988447e-08 0 1.3904416089689456e-10 -7.3444474467807275e-08 0 1.963068443963701e-09 -6.7338593566988447e-08 0 2.0637651748194433e-09 -7.5238454529296867e-08 0 1.3904416089689456e-10 -7.3444474467807275e-08 0 -1.4266890893811282e-10 -7.9755369440908737e-08 0 2.0637651748194433e-09 -7.5238454529296867e-08 0 -1.4266890893811282e-10 -7.9755369440908737e-08 0 1.9258492147910544e-09 -8.1435784133234457e-08 0 2.0637651748194433e-09 -7.5238454529296867e-08 0 1.963068443963701e-09 -6.7338593566988447e-08 0 2.0637651748194433e-09 -7.5238454529296867e-08 0 4.5032441601168101e-09 -6.9843428583677966e-08 0 3.8929641298860933e-09 -7.9782089248195792e-08 0 2.0637651748194433e-09 -7.5238454529296867e-08 0 4.5032441601168101e-09 -6.9843428583677966e-08 0 1.963068443963701e-09 -6.7338593566988447e-08 0 4.5032441601168101e-09 -6.9843428583677966e-08 0 4.9102942857089818e-09 -5.711283134493268e-08 0 6.0964664388358976e-09 -4.1961229578084268e-08 0 4.2781685536692841e-09 -3.4317837153686202e-08 0 4.9102942857089818e-09 -5.711283134493268e-08 0 4.5032441601168101e-09 -6.9843428583677966e-08 0 4.9102942857089818e-09 -5.711283134493268e-08 0 6.158438561035154e-09 -6.24542160875232e-08 0 6.0964664388358976e-09 -4.1961229578084268e-08 0 4.9102942857089827e-09 -5.7112831344932687e-08 0 6.158438561035154e-09 -6.24542160875232e-08 0 4.2781685536692841e-09 -3.4317837153686202e-08 0 3.1034751644469156e-09 -3.0733391435178678e-08 0 2.9122652295499939e-09 -5.6283256982665928e-08 0 4.2781685536692841e-09 -3.4317837153686202e-08 0 2.9122652295499943e-09 -5.6283256982665928e-08 0 4.9102942857089818e-09 -5.711283134493268e-08 0 
</DataArray>
</PointData>
<CellData Scalars="region_id," Vectors="" Tensors="stress,">
<DataArray type="Float64" Name="region_id" format="ascii">
1 1 1 1 1 1 1 1 1 1 1 1 1 1 1 1 1 1 1 1 1 1 1 1 1 1 1 1 1 1 1 1 1 1 1 1 1 1 1 1 1 1 1 1 1 1 1 1 1 1 1 1 1 1 1 1 1 1 1 1 1 1 1 1 1 1 1 1 1 1 1 1 1 1 1 1 1 1 1 1 1 1 1 1 1 1 1 1 1 1 1 1 1 1 1 1 1 1 1 1 1 1 1 1 1 1 1 1 1 1 1 1 1 1 1 1 1 1 1 1 1 1 1 1 1 1 1 1 1 1 1 1 1 1 1 1 1 1 1 1 1 6 1 6 1 1 1 1 1 1 1 1 1 1 1 1 1 1 6 1 6 1 1 6 1 1 6 1 1 1 1 1 1 6 1 1 6 1 1 1 1 1 1 1 1 1 1 1 1 1 1 1 1 1 1 1 1 1 1 1 1 6 6 1 1 1 1 1 1 1 1 1 6 1 1 6 1 1 1 1 1 1 1 1 1 1 1 1 1 6 1 1 6 1 1 1 1 1 1 6 1 6 1 1 6 1 1 1 1 1 1 1 1 1 1 1 1 1 1 1 1 1 1 1 1 1 1 1 1 1 1 1 1 1 1 1 1 1 1 1 1 1 1 1 1 1 1 1 1 1 1 1 1 1 1 1 1 1 1 
</DataArray>
<DataArray type="Float64" Name="stress" NumberOfComponents="9" format="ascii">
-1.7195174965285366e-08 -6.2884861435301649e-08 0 -6.2884861435301649e-08 -5.7312224852266328e-09 0 0 0 -5.7315993626279999e-09 -5.0681414823256324e-08 -5.1553222318280375e-08 0 -5.1553222318280375e-08 -2.265506971359262e-08 0 0 0 -1.8334121134212231e-08 3.6312522253796008e-08 -1.8998272545906319e-08 0 -1.8998272545906319e-08 -2.1034396209229217e-08 0 0 0 3.8195315111416845e-09 7.847351172968694e-09 -3.6476253078733413e-08 0 -3.6476253078733413e-08 4.2913316321095781e-09 0 0 0 3.0346707012695631e-09 1.9452116263235041e-08 -1.7585768681647486e-08 0 -1.7585768681647486e-08 -1.1152618713848304e-08 0 0 0 2.0748743873467009e-09 6.8801415393372191e-09 -1.9477534029910766e-08 0 -1.9477534029910766e-08 -5.4746558487392279e-08 0 0 0 -1.1966604237013778e-08 -7.6337673831200456e-09 -4.1356307407186729e-08 0 -4.1356307407186729e-08 -1.2396907986631116e-07 0 0 0 -3.2900711812357849e-08 1.2127137490261539e-08 -3.6811337120613961e-08 0 -3.6811337120613961e-08 -6.3117366755761414e-08 0 0 0 -1.2747557316374942e-08 1.0480622839112665e-08 -3.0517817200768951e-08 0 -3.0517817200768951e-08 -1.0491454575313572e-07 0 0 0 -2.3608480728505803e-08 -4.8454606559065164e-09 -3.6487123148167659e-08 0 -3.6487123148167659e-08 -1.4784983728933114e-07 0 0 0 -3.8173824486309493e-08 1.1579480544750203e-08 -6.4037925387205204e-09 0 -6.4037925387205204e-09 -1.3362608255274473e-07 0 0 0 -3.0511650501998711e-08 2.2386078181315427e-08 -1.1428997234291065e-08 0 -1.1428997234291065e-08 -1.3561808516563508e-07 0 0 0 -2.8308001746079889e-08 1.194583687776503e-08 -4.3005883724388725e-09 0 -4.3005883724388725e-09 -1.1784265339450347e-07 0 0 0 -2.6474204129184649e-08 1.8638515545192942e-08 4.0824701052149725e-09 0 4.0824701052149725e-09 -6.5758578213877677e-08 0 0 0 -1.178001566717121e-08 -1.1084348841968339e-09 -1.6017332921554711e-08 0 -1.6017332921554711e-08 -9.6002564130847264e-08 0 0 0 -2.4277749753761031e-08 1.3319619851368502e-08 -1.7755301640755195e-08 0 -1.7755301640755195e-08 -5.294626223323442e-08 0 0 0 -9.9066605954664795e-09 1.9071826967731044e-09 -4.2543638989823615e-08 0 -4.2543638989823615e-08 -2.8488776810038617e-08 0 0 0 -6.6453985283163451e-09 -1.7784784233053083e-08 -4.9772059318514173e-08 0 -4.9772059318514173e-08 -8.1645646941487393e-08 0 0 0 -2.4857607793635097e-08 -1.8710580880070316e-08 -5.7127850263449771e-08 0 -5.7127850263449771e-08 -4.7700483977041641e-08 0 0 0 -1.6602766214278006e-08 -2.5408352269033961e-08 -7.3943912950035306e-08 0 -7.3943912950035306e-08 -6.4273893972747002e-08 0 0 0 -2.2420561560445261e-08 -4.8860696746541129e-09 -5.6411519811680086e-08 0 -5.6411519811680086e-08 -6.9942872752655311e-08 0 0 0 -1.8707235606827363e-08 1.3235884236104217e-09 -6.375772937065241e-08 0 -6.375772937065241e-08 -8.6093246780219539e-08 0 0 0 -2.119241458915222e-08 -2.9740547336539315e-08 -7.1782145350218448e-08 0 -7.1782145350218448e-08 -9.9461257845576999e-09 0 0 0 -9.9216682802742533e-09 -4.2939326856523915e-08 -7.9399858257807763e-08 0 -7.9399858257807763e-08 -3.7501835679838382e-08 0 0 0 -2.0110290634090577e-08 -1.6234864911897879e-08 -8.0131818501696921e-08 0 -8.0131818501696921e-08 -3.1498199251474939e-08 0 0 0 -1.1933266040843178e-08 -9.5355103046603169e-09 -6.5834498306527591e-08 0 -6.5834498306527591e-08 -2.7143882393554023e-08 0 0 0 -9.1698481745535718e-09 -2.8232438909343449e-08 -6.8607797101179984e-08 0 -6.8607797101179984e-08 -3.3674449972429295e-08 0 0 0 -1.5476722220443174e-08 -3.5392629515601219e-08 -7.8841755176054908e-08 0 -7.8841755176054908e-08 -1.1703693959775944e-08 0 0 0 -1.1774080868844291e-08 -1.6397336981444767e-08 -7.0094846160165676e-08 0 -7.0094846160165676e-08 -1.7968067582520553e-08 0 0 0 -8.5913511409913241e-09 -3.7743834422406202e-08 -9.8309103504888295e-08 0 -9.8309103504888295e-08 1.1992623813542458e-08 0 0 0 -6.4378026522159427e-09 -3.8042748731677626e-08 -9.7607247305027765e-08 0 -9.7607247305027765e-08 -3.8930947867478191e-08 0 0 0 -1.9243424149788934e-08 -3.7066915790288019e-08 -7.7543218009066129e-08 0 -7.7543218009066129e-08 -1.8553891825195429e-08 0 0 0 -1.3905201903870849e-08 1.5166051720880076e-07 -5.3399806875805518e-08 0 -5.3399806875805518e-08 5.045492703541696e-08 0 0 0 5.0528861061054433e-08 3.0996125821755254e-07 -2.5761695045382822e-08 0 -2.5761695045382822e-08 2.3365622293410126e-08 0 0 0 8.3331720127740653e-08 2.6426560604588197e-08 -4.7330281738929892e-08 0 -4.7330281738929892e-08 5.1649749872673328e-08 0 0 0 1.9519077619315371e-08 4.7631086185143025e-08 -8.8934218832774515e-09 0 -8.8934218832774515e-09 1.9073196437643313e-08 0 0 0 1.6676070655696568e-08 1.6160488978990149e-08 -3.7981704130383226e-08 0 -3.7981704130383226e-08 5.8116504261169709e-08 0 0 0 1.8569248310039958e-08 1.283901630912767e-09 -8.1549708506392439e-08 0 -8.1549708506392439e-08 -3.5159240098011083e-08 0 0 0 -8.4688346167745592e-09 1.8120969542566786e-07 -2.4795972700094499e-08 0 -2.4795972700094499e-08 3.2868688445033448e-08 0 0 0 5.3519595967675339e-08 1.7015420740971594e-07 -1.6022903914487325e-08 0 -1.6022903914487325e-08 1.2790954086620306e-08 0 0 0 4.5736290374084054e-08 3.1867471616771812e-07 2.674825809852034e-08 0 2.674825809852034e-08 -1.4069964896413375e-09 0 0 0 7.9316929919519197e-08 4.2886168643263395e-07 5.1467328661318081e-08 0 5.1467328661318081e-08 -3.3400120786319935e-09 0 0 0 1.063804185885004e-07 1.7172434198991229e-07 3.5705787215157867e-08 0 3.5705787215157867e-08 1.960583300578595e-08 0 0 0 4.7832543748924389e-08 1.917573813644265e-07 1.0412550367495949e-08 0 1.0412550367495949e-08 1.6109662098140673e-08 0 0 0 5.1966760865641845e-08 1.8463196969397772e-07 3.2139947667941411e-08 0 3.2139947667941411e-08 2.0358071736828557e-08 0 0 0 5.124751035770149e-08 1.6835332718196835e-07 1.638983402534665e-08 0 1.638983402534665e-08 -2.3445390602287192e-08 0 0 0 3.6226984144920262e-08 -2.093244968212972e-08 -4.1838355525709488e-08 0 -4.1838355525709488e-08 -1.2431852628552506e-08 0 0 0 -8.3410755776706094e-09 3.2519054738840409e-08 -5.1996002557124822e-08 0 -5.1996002557124822e-08 -1.5938954941560752e-08 0 0 0 4.1450249493199274e-09 -7.4670904197106277e-09 -8.7405956737513818e-08 0 -8.7405956737513818e-08 -1.0445753483653643e-07 0 0 0 -2.7981156314061739e-08 -5.0188940524228447e-08 -5.6808449613474308e-08 0 -5.6808449613474308e-08 -4.0328440673199655e-09 0 0 0 -1.3555446147887103e-08 -3.9496229728459593e-08 -9.0492208391769335e-08 0 -9.0492208391769335e-08 -1.8166296028303838e-08 0 0 0 -1.4415631439190871e-08 -4.8896186947919392e-08 -1.1871782085378355e-07 0 -1.1871782085378355e-07 -1.1744981062898463e-07 0 0 0 -4.1586499394225912e-08 -5.1521666435343736e-08 -1.0871341543511704e-07 0 -1.0871341543511704e-07 -1.3051491040264383e-07 0 0 0 -4.5509144209496878e-08 -5.386227311994285e-08 -1.7708285403608448e-07 0 -1.7708285403608448e-07 -2.3255075729753207e-07 0 0 0 -7.1603257604368849e-08 -4.2945574590376018e-08 -1.1015046042860597e-07 0 -1.1015046042860597e-07 -3.5830034716272447e-07 0 0 0 -1.0031148043827523e-07 -1.9375597960422781e-08 -1.2881090778028094e-07 0 -1.2881090778028094e-07 -3.2013450099502857e-07 0 0 0 -8.4877524738862838e-08 -3.9051456107260057e-09 -8.5911513922201287e-08 0 -8.5911513922201287e-08 -4.2939183550554208e-07 0 0 0 -1.0832424527906692e-07 1.292317772807418e-09 -3.0140426248562071e-08 0 -3.0140426248562071e-08 -4.5794355551058618e-07 0 0 0 -1.1416280943444456e-07 -1.856092737293331e-08 -4.1258569690207428e-08 0 -4.1258569690207428e-08 -5.4687118639014177e-07 0 0 0 -1.4135802844076909e-07 -3.1349949937601786e-08 -6.6579996867131547e-08 0 -6.6579996867131547e-08 -6.4470500314644902e-07 0 0 0 -1.6901373827101249e-07 5.2531972327528226e-09 -5.9174810207881047e-08 0 -5.9174810207881047e-08 -4.7690438431091791e-07 0 0 0 -1.179127967695414e-07 -2.8591143766061028e-08 -7.9476132307276043e-08 0 -7.9476132307276043e-08 -5.0001139062109485e-07 0 0 0 -1.3215063359678908e-07 -1.4195880930785863e-08 -1.3249663830277202e-07 0 -1.3249663830277202e-07 -3.836067219881039e-07 0 0 0 -9.9450650729722678e-08 -6.4624246889039696e-08 -1.2700718735559183e-07 0 -1.2700718735559183e-07 -5.4414856455581285e-07 0 0 0 -1.5219320286121324e-07 -5.5612858845758372e-08 -1.6523222065806128e-07 0 -1.6523222065806128e-07 -3.3509730380978302e-07 0 0 0 -9.7677540663885348e-08 -2.3253267842962364e-08 -8.1629597851870979e-08 0 -8.1629597851870979e-08 -7.3974951486047676e-07 0 0 0 -1.9075069567585978e-07 1.1395941766144268e-08 -9.1384684310650193e-08 0 -9.1384684310650193e-08 -4.9728007132833571e-07 0 0 0 -1.2147103239054781e-07 7.3789191213662689e-09 -9.0522235255662178e-08 0 -9.0522235255662178e-08 -6.3418958583934572e-07 0 0 0 -1.5670266667949433e-07 -6.6995354612080658e-08 -1.1801634629964106e-07 0 -1.1801634629964106e-07 -9.5900961017042427e-07 0 0 0 -2.5650124119562623e-07 -4.6474555100499901e-08 -2.0085472460137871e-07 0 -2.0085472460137871e-07 -5.5749851855965466e-07 0 0 0 -1.5099326841503884e-07 -1.0691584487426439e-07 -1.5327647660097018e-07 0 -1.5327647660097018e-07 -1.0568048510203564e-07 0 0 0 -5.3149082494074981e-08 -7.3178558152196079e-08 -1.5228036526417969e-07 0 -1.5228036526417969e-07 -3.4087738619690457e-07 0 0 0 -1.0351398608727537e-07 -9.0859841552287253e-08 -8.3132970285430785e-08 0 -8.3132970285430785e-08 -9.0449938393028058e-09 0 0 0 -2.4976208847897409e-08 -6.5855852014067546e-08 -1.3766968036338496e-07 0 -1.3766968036338496e-07 -2.8532933450261023e-07 0 0 0 -8.7796296629169657e-08 -8.805731306919296e-08 -1.8582775922674743e-07 0 -1.8582775922674743e-07 -6.8109448420007345e-07 0 0 0 -1.9228794931731681e-07 -1.3240901316130358e-07 -2.4247673107157872e-07 0 -2.4247673107157872e-07 -3.1051737652850215e-07 0 0 0 -1.1073159742245127e-07 2.8114926587599388e-08 -1.6458558692666685e-07 0 -1.6458558692666685e-07 -6.3466461951313226e-07 0 0 0 -1.5163742323138343e-07 -9.0036255176312341e-08 -1.7150309322292982e-07 0 -1.7150309322292982e-07 -1.115657649726513e-06 0 0 0 -3.0142347622570656e-07 2.5909805336798649e-09 -1.9752660333383459e-07 0 -1.9752660333383459e-07 -7.4087039851043259e-07 0 0 0 -1.8456985449418837e-07 -1.1553962728723296e-07 -2.4811540415912825e-07 0 -2.4811540415912825e-07 -1.6111040149964725e-06 0 0 0 -4.3166091057092594e-07 -1.8809697973009803e-07 -3.1670807883676156e-07 0 -3.1670807883676156e-07 -7.0962862086322822e-07 0 0 0 -2.2443140014833146e-07 -2.2856378162681754e-07 -4.8786011754226803e-07 0 -4.8786011754226803e-07 -8.1302112717558122e-07 0 0 0 -2.6039622720059948e-07 -1.1573130295788399e-07 -1.5032169788677536e-07 0 -1.5032169788677536e-07 -2.0242879787652338e-07 0 0 0 -7.9540025208601419e-08 -1.8324903513704008e-08 -2.0457459628013209e-07 0 -2.0457459628013209e-07 -9.0386642385187861e-07 0 0 0 -2.3054783184139523e-07 1.6811353146118677e-08 -2.5840195180371644e-07 0 -2.5840195180371644e-07 -8.8782764563924095e-07 0 0 0 -2.1775407312328015e-07 1.2169211362330308e-07 -6.8018564017702593e-07 0 -6.8018564017702593e-07 -7.3060640988621595e-07 0 0 0 -1.5222857406572795e-07 -2.4312856432525484e-07 -4.5095673783310569e-07 0 -4.5095673783310569e-07 -2.5351725535244173e-06 0 0 0 -6.9457527946241719e-07 7.0950770601527449e-07 -8.1377413715519109e-07 0 -8.1377413715519109e-07 -9.1117969666392125e-07 0 0 0 -5.0417997662162009e-08 1.2854429389096534e-07 -3.4401590984950926e-07 0 -3.4401590984950926e-07 -2.2166358757136599e-06 0 0 0 -5.2202289545567321e-07 -1.8622677340753004e-08 -9.3831600391235539e-08 0 -9.3831600391235539e-08 7.9811434977458483e-08 0 0 0 1.5297189409176582e-08 9.7436193503704629e-07 5.2853640695487023e-08 0 5.2853640695487023e-08 -1.3260416619760377e-07 0 0 0 2.1043944220986084e-07 1.0387668109277105e-07 4.8569962277838386e-08 0 4.8569962277838386e-08 4.9008330115278025e-08 0 0 0 3.8221252802012428e-08 8.7853632662950535e-08 -9.2585006379673625e-08 0 -9.2585006379673625e-08 -2.4586485535412895e-07 0 0 0 -3.9502805672794684e-08 6.4971505635085215e-07 6.669868556162807e-08 0 6.669868556162807e-08 -2.1652825735147957e-08 0 0 0 1.5701555765392589e-07 -3.8236057476218752e-08 -8.857933922237344e-08 0 -8.857933922237344e-08 -1.7388428592115998e-07 0 0 0 -5.3030085849344589e-08 -9.8786589603022615e-09 -7.9556413138073587e-08 0 -7.9556413138073587e-08 -9.279567185626336e-08 0 0 0 -2.5668582704141446e-08 -4.2321312923929264e-08 -8.8324390390239344e-08 0 -8.8324390390239344e-08 -1.0533334155628391e-07 0 0 0 -3.6913663620053294e-08 -5.5353479584839983e-08 -1.0376508049078478e-07 0 -1.0376508049078478e-07 -8.8163244335015009e-08 0 0 0 -3.5879180979963774e-08 -5.6457057159612436e-08 -1.1502965560577389e-07 0 -1.1502965560577389e-07 -1.0237574907749979e-07 0 0 0 -3.9708201559278082e-08 -5.6964180189904281e-08 -1.3646578885028256e-07 0 -1.3646578885028256e-07 -2.0846034974514065e-07 0 0 0 -6.6356132483761286e-08 -3.3178592811374618e-08 -1.067161956229353e-07 0 -1.067161956229353e-07 -1.0071155565206813e-07 0 0 0 -3.34725371158607e-08 -2.1852721877028208e-08 -1.010682915873473e-07 0 -1.010682915873473e-07 -7.6711857233621748e-08 0 0 0 -2.4641144777662492e-08 -4.8063897900748094e-08 -1.1505632537137194e-07 0 -1.1505632537137194e-07 -1.896414913383434e-07 0 0 0 -5.9426347309772847e-08 -1.1580972894164783e-08 -8.8775094524349575e-08 0 -8.8775094524349575e-08 -1.7520259801297645e-07 0 0 0 -4.6695892726785254e-08 -2.5001660346297944e-08 -7.9899428227345665e-08 0 -7.9899428227345665e-08 -2.3882215168736653e-07 0 0 0 -6.5955953008416093e-08 -2.57541138941816e-08 -1.0202673425546835e-07 0 -1.0202673425546835e-07 -2.1626757031403941e-07 0 0 0 -6.0505421052055247e-08 -3.0223908887341925e-08 -9.9545158005364974e-08 0 -9.9545158005364974e-08 -2.769137802675369e-07 0 0 0 -7.6784422288719839e-08 -2.0584946689205812e-08 -6.737124833411093e-08 0 -6.737124833411093e-08 -3.9317981233135244e-07 0 0 0 -1.0344118975513978e-07 -1.4228462304239645e-08 -7.3892013818536408e-08 0 -7.3892013818536408e-08 -3.5502627744961389e-07 0 0 0 -9.2313684938463517e-08 -1.1696294385627031e-08 -6.9716761524386102e-08 0 -6.9716761524386102e-08 -2.6422083857039489e-07 0 0 0 -6.8979283239005506e-08 6.9206837627394587e-09 -7.2018026253980359e-08 0 -7.2018026253980359e-08 -3.0998634763688759e-07 0 0 0 -7.5766415968537085e-08 -2.8859842200059935e-09 -2.6293190899888157e-08 0 -2.6293190899888157e-08 -3.8185772426454031e-07 0 0 0 -9.618592712113684e-08 4.3176180629407585e-09 -2.600041256990585e-08 0 -2.600041256990585e-08 -3.5401789206018722e-07 0 0 0 -8.7425068499311403e-08 -2.1365231554622877e-09 -2.6618033329062104e-08 0 -2.6618033329062104e-08 -4.0402954492372446e-07 0 0 0 -1.01541517019797e-07 -3.05823050168397e-09 -2.7586697611521663e-08 0 -2.7586697611521663e-08 -4.5948972743425527e-07 0 0 0 -1.1563698948398449e-07 2.3629338849054591e-09 -3.0042050719490109e-08 0 -3.0042050719490109e-08 -3.7125002859460521e-07 0 0 0 -9.222177367742491e-08 1.2695587485064939e-09 -5.0944792185575374e-08 0 -5.0944792185575374e-08 -2.6507490315381136e-07 0 0 0 -6.5951336101326271e-08 -5.0580857604923937e-09 -4.5196940729371202e-08 0 -4.5196940729371202e-08 -2.1828370615986526e-07 0 0 0 -5.5835447980089439e-08 -1.3888008187825957e-08 -4.9427081178684339e-08 0 -4.9427081178684339e-08 -3.1030058129158062e-07 0 0 0 -8.1047147369851723e-08 2.4465092187144032e-09 -2.9639693127107873e-08 0 -2.9639693127107873e-08 -2.8718523480488267e-07 0 0 0 -7.1184681396541829e-08 -1.0743466305064927e-08 -2.2379734232814159e-08 0 -2.2379734232814159e-08 -3.2164609392946772e-07 0 0 0 -8.3097390058633055e-08 -4.5872665826411406e-10 -1.504698376120832e-08 0 -1.504698376120832e-08 -2.7314625678757336e-07 0 0 0 -6.8401245861459262e-08 7.834643251064952e-10 -1.6423070029107973e-08 0 -1.6423070029107973e-08 -2.8069790238296809e-07 0 0 0 -6.9978609514465133e-08 1.3746962085638702e-10 -1.6920877194754077e-08 0 -1.6920877194754077e-08 -2.4642033936882109e-07 0 0 0 -6.1570717436991439e-08 -1.9883712606934479e-11 -1.6680598892072137e-08 0 -1.6680598892072137e-08 -2.3738212819879706e-07 0 0 0 -5.9350502977851078e-08 -2.0837712669268133e-09 -1.2947224084062523e-08 0 -1.2947224084062523e-08 -2.1234659035131992e-07 0 0 0 -5.360759040456179e-08 -2.6456603673333276e-09 -1.5705855816310293e-08 0 -1.5705855816310293e-08 -2.2834784756573587e-07 0 0 0 -5.7748376983267327e-08 -6.8829101939529563e-09 -4.4207314979511436e-08 0 -4.4207314979511436e-08 -2.0940202938570292e-07 0 0 0 -5.4071234894913956e-08 4.4983616032801097e-09 -4.1567716663051403e-08 0 -4.1567716663051403e-08 -2.055060611114429e-07 0 0 0 -5.0251924877040791e-08 -7.8784919412765797e-09 -3.7764872635458867e-08 0 -3.7764872635458867e-08 -2.5010797835213815e-07 0 0 0 -6.4496617573353755e-08 -4.6120124642036805e-09 -7.8362024450884457e-08 0 -7.8362024450884457e-08 -1.5600428121536854e-07 0 0 0 -4.0154073419893082e-08 -1.8994753461846378e-08 -7.1128010756493129e-08 0 -7.1128010756493129e-08 -1.4210678894396882e-07 0 0 0 -4.0275385601453772e-08 2.8445708832404015e-09 -4.0664679811889313e-08 0 -4.0664679811889313e-08 -1.3910812688479207e-07 0 0 0 -3.4065889000387971e-08 3.7932648454992794e-09 -4.5167389668766054e-08 0 -4.5167389668766054e-08 -1.5814485356140178e-07 0 0 0 -3.8587897178975492e-08 -4.9620888058428633e-09 -4.2801564970300588e-08 0 -4.2801564970300588e-08 -1.9288670738843369e-07 0 0 0 -4.9462199048568979e-08 -3.4560077470313642e-11 -1.1407771451626461e-08 0 -1.1407771451626461e-08 -1.8802714088940389e-07 0 0 0 -4.7015425241718342e-08 1.9665934733122565e-09 -1.3412189219661913e-08 0 -1.3412189219661913e-08 -1.8859883438667646e-07 0 0 0 -4.665806022834105e-08 9.1434706694510891e-10 -1.3551533942553926e-08 0 -1.3551533942553926e-08 -1.7652761988625211e-07 0 0 0 -4.3903318204826577e-08 9.3368038256568528e-09 -1.867584255381101e-08 0 -1.867584255381101e-08 -1.6223728664165483e-07 0 0 0 -3.8225120703999336e-08 3.6004271421302422e-10 1.3043885012269776e-08 0 1.3043885012269776e-08 -1.6334940823855991e-07 0 0 0 -4.0747341381086668e-08 1.2000449793916897e-08 1.94065589502717e-08 0 1.94065589502717e-08 -1.5839740257842428e-07 0 0 0 -3.6599238196127057e-08 7.5066788707740407e-14 2.084082636474725e-15 0 2.084082636474725e-15 -9.1639371177069834e-14 0 0 0 -4.1431456173323567e-15 1.2975638886682282e-09 1.2288884969142687e-08 0 1.2288884969142687e-08 -1.8857487863067597e-07 0 0 0 -4.6819328685501828e-08 2.008426875161464e-13 1.2721513729906535e-15 0 1.2721513729906535e-15 -1.2775415030182496e-13 0 0 0 1.8272134303580297e-14 -8.3288893709958407e-10 1.1821650096933722e-08 0 1.1821650096933722e-08 -2.0145300746436633e-07 0 0 0 -5.0571474100366478e-08 -9.4610130104801289e-10 3.720404991161001e-08 0 3.720404991161001e-08 -1.7063629990159729e-07 0 0 0 -4.28956003006613e-08 1.2568897398713266e-08 3.3645673411079503e-08 0 3.3645673411079503e-08 -1.2979305631486864e-07 0 0 0 -2.930603972903879e-08 -8.7406659360886821e-10 3.759895920225707e-08 0 3.759895920225707e-08 -1.6765721319501e-07 0 0 0 -4.2132819947154825e-08 3.5530130331163674e-09 5.6908739508174376e-08 0 5.6908739508174376e-08 -1.2299232948813169e-07 0 0 0 -2.9859829113753817e-08 -1.0032388820676853e-08 6.2091251107500797e-08 0 6.2091251107500797e-08 -1.7047483256921172e-07 0 0 0 -4.5126805347472117e-08 -4.0812228375202328e-09 6.647717261041589e-08 0 6.647717261041589e-08 -1.4325544770434098e-07 0 0 0 -3.6834167635465301e-08 -1.1093017738599139e-08 7.3093589375664112e-08 0 7.3093589375664112e-08 -2.0953860339098598e-07 0 0 0 -5.5157905282396334e-08 -4.1581941608216646e-09 3.7320802909017988e-08 0 3.7320802909017988e-08 -2.0887797705916342e-07 0 0 0 -5.3259042804996245e-08 2.0503645821661603e-09 4.308928270891823e-08 0 4.308928270891823e-08 -2.3650615176418937e-07 0 0 0 -5.8613946795506068e-08 6.7436965247263028e-09 3.8537669460837051e-08 0 3.8537669460837051e-08 -1.8479138560457897e-07 0 0 0 -4.451192226996338e-08 -5.0833816851602119e-09 3.4542608307680749e-08 0 3.4542608307680749e-08 -2.2178192402446592e-07 0 0 0 -5.6716326427406639e-08 4.077097630529551e-11 1.3012383875086411e-08 0 1.3012383875086411e-08 -2.1032042432394002e-07 0 0 0 -5.2569913336908786e-08 -1.7617129819527494e-10 1.2661998338182143e-08 0 1.2661998338182143e-08 -2.1709390407226919e-07 0 0 0 -5.4317518842616169e-08 2.3121484234772606e-13 2.2525386175405624e-16 0 2.2525386175405624e-16 -1.4183230841210682e-13 0 0 0 2.2345633483904771e-14 -6.5936500023476712e-10 1.159828089094592e-08 0 1.159828089094592e-08 -2.5278327980694579e-07 0 0 0 -6.3360661201795457e-08 1.8860990552408115e-13 -5.0098746306752912e-15 0 -5.0098746306752912e-15 -1.8713774457497868e-13 0 0 0 3.6804023727550352e-16 1.1471176371373404e-09 1.2211376963139396e-08 0 1.2211376963139396e-08 -2.4303610857231661e-07 0 0 0 -6.0472247733794922e-08 -3.8335873637483901e-09 1.4799928620139082e-08 0 1.4799928620139082e-08 -2.7382642339556656e-07 0 0 0 -6.9415002689829056e-08 5.063675754340796e-14 5.8754098077615163e-15 0 5.8754098077615163e-15 -2.6714008106679485e-13 0 0 0 -5.4125830880846528e-14 9.5036848501702469e-11 1.716289552888091e-08 0 1.716289552888091e-08 -2.6455448932734769e-07 0 0 0 -6.6114863119711285e-08 1.4569487752981052e-09 1.6608554717553039e-08 0 1.6608554717553039e-08 -3.0736480571528151e-07 0 0 0 -7.6476964234995903e-08 -2.1524405549671459e-13 1.5241852912849583e-14 0 1.5241852912849583e-14 -3.9284061878936083e-13 0 0 0 -1.520211685715187e-13 -1.0137695674870285e-09 1.5780212693983862e-08 0 1.5780212693983862e-08 -3.2020353799859291e-07 0 0 0 -8.0304326891519879e-08 1.609690954567525e-09 5.7615972471013431e-08 0 5.7615972471013431e-08 -2.9804349538138226e-07 0 0 0 -7.4108451106703373e-08 -7.5152914796466156e-09 4.9109632020603954e-08 0 4.9109632020603954e-08 -2.5737082195611279e-07 0 0 0 -6.6221528358939903e-08 -1.2447110001975077e-08 4.3101317982727488e-08 0 4.3101317982727488e-08 -2.8044135735222403e-07 0 0 0 -7.3222116838549584e-08 -2.1687478563973e-09 2.0876664209374191e-08 0 2.0876664209374191e-08 -4.0456422162955642e-07 0 0 0 -1.0168324237148811e-07 5.5431718518684436e-10 2.2448826544153522e-08 0 2.2448826544153522e-08 -3.9837625421194788e-07 0 0 0 -9.94554842566901e-08 -1.2013245908736333e-12 3.2438199547383553e-14 0 3.2438199547383553e-14 -8.1345944288597252e-13 0 0 0 -5.0369600843990138e-13 1.0786580861370662e-10 2.2706585366597629e-08 0 2.2706585366597629e-08 -3.3596555452901615e-07 0 0 0 -8.3964422180100452e-08 -4.341461410142727e-09 1.9854020346210827e-08 0 1.9854020346210827e-08 -3.4975612377721519e-07 0 0 0 -8.8524396296839586e-08 -6.3140496385362105e-13 3.069019743322772e-14 0 3.069019743322772e-14 -5.7179563006150792e-13 0 0 0 -3.0080014847878227e-13 -1.5892609883504551e-08 5.6411928919909828e-08 0 5.6411928919909828e-08 -3.5236031614703639e-07 0 0 0 -9.2063231507635117e-08 4.859654045714574e-09 7.9690314927364568e-08 0 7.9690314927364568e-08 -3.804104924459505e-07 0 0 0 -9.3887709600059081e-08 -1.2108708154290749e-08 6.1941583126502844e-08 0 6.1941583126502844e-08 -3.208723658647696e-07 0 0 0 -8.3245268504765139e-08 -3.1772880442788211e-08 1.1489037979646708e-07 0 1.1489037979646708e-07 -3.1813320445433336e-07 0 0 0 -8.747652122428042e-08 -1.3877095980862366e-08 1.0072444259529209e-07 0 1.0072444259529209e-07 -2.0177887977313108e-07 0 0 0 -5.3913993938498281e-08 -1.068134392283132e-08 7.1482544881791757e-08 0 7.1482544881791757e-08 -1.8853216684354527e-07 0 0 0 -4.9803377691594041e-08 -3.1310000081331899e-08 9.0692675235912482e-08 0 9.0692675235912482e-08 -2.6574955818266424e-07 0 0 0 -7.4264889565998961e-08 -3.1638485686737422e-08 1.1717410850524426e-07 0 1.1717410850524426e-07 -1.7128382431406641e-07 0 0 0 -5.0730577500201033e-08 -4.269447812221686e-08 1.3355362246711086e-07 0 1.3355362246711086e-07 -1.0105470161967626e-07 0 0 0 -3.5937294935473319e-08 -4.6593778443050604e-08 1.1909840325767079e-07 0 1.1909840325767079e-07 -2.1890603199167115e-07 0 0 0 -6.6374952608680386e-08 -3.991829440591347e-08 9.8354590155831568e-08 0 9.8354590155831568e-08 -8.2783626660451589e-08 0 0 0 -3.0675480266591281e-08 -4.8692102638931824e-08 1.1874413407647779e-07 0 1.1874413407647779e-07 -8.9608982737166136e-08 0 0 0 -3.4575271344024503e-08 -2.8345396691219556e-08 8.490989938229518e-08 0 8.490989938229518e-08 -8.7311613379235583e-08 0 0 0 -2.8914252517613739e-08 -1.0124043550277378e-08 8.7178813610629307e-08 0 8.7178813610629307e-08 -8.4889042383090007e-08 0 0 0 -2.3753271483341873e-08 -2.7083884116264248e-08 7.228198123157658e-08 0 7.228198123157658e-08 -1.3796750557938505e-07 0 0 0 -4.1262847423912261e-08 -2.6947831138206511e-08 9.3209985326533237e-08 0 9.3209985326533237e-08 -1.51819976905095e-07 0 0 0 -4.4691952010825536e-08 -2.3793230740632474e-08 8.7602896004484497e-08 0 8.7602896004484497e-08 -1.0476228743732642e-07 0 0 0 -3.2138879544489724e-08 6.1772911796364343e-07 -7.0695946548955518e-08 0 -7.0695946548955518e-08 -1.6933589263952807e-08 0 0 0 1.501988821749225e-07 8.890003472356691e-08 -2.1097774394609855e-08 0 -2.1097774394609855e-08 -1.5815904259926893e-07 0 0 0 -1.7314751968925716e-08 1.6057113699801202e-07 1.4850182176691472e-08 0 1.4850182176691472e-08 3.468019296219978e-08 0 0 0 4.8812832490052845e-08 1.0787766149579619e-06 -5.5198341515079036e-08 0 -5.5198341515079036e-08 -1.6142442589102258e-07 0 0 0 2.2933804726673504e-07 1.0943286962942327e-07 6.9935137310586485e-09 0 6.9935137310586485e-09 1.9999656497377324e-07 0 0 0 7.7357358650798281e-08 6.9878670709099436e-07 7.8310732647173792e-07 0 7.8310732647173792e-07 -9.3776504551103857e-07 0 0 0 -5.974458460501063e-08 1.3905147204123633e-07 3.3294360067601826e-07 0 3.3294360067601826e-07 -2.249390988930497e-06 0 0 0 -5.2758487922231537e-07 -1.3497062109753062e-06 -6.2201802046870246e-14 0 -6.2201802046870246e-14 -4.0490045955417559e-06 0 0 0 -1.3496777016292655e-06 -8.9482530308727112e-09 -6.6320947770908402e-14 0 -6.6320947770908402e-14 -2.6776914319879909e-08 0 0 0 -8.9312918376881563e-09 -1.7966677118658866e-07 4.7332355464793265e-07 0 4.7332355464793265e-07 -2.4501258723784301e-06 0 0 0 -6.5744816089125574e-07 8.1277067695576149e-08 6.5886874457537664e-07 0 6.5886874457537664e-07 -6.854375309428957e-07 0 0 0 -1.5104011581182925e-07 2.5391116470996233e-08 3.9050944061052129e-07 0 3.9050944061052129e-07 -9.3311383387419401e-07 0 0 0 -2.2693067935079902e-07 -1.875631066343433e-07 3.2381144700995147e-07 0 3.2381144700995147e-07 -1.8013332984691126e-07 0 0 0 -9.1924109120313852e-08 -3.3455667776752918e-08 2.2156876079104205e-07 0 2.2156876079104205e-07 -8.9801470780947615e-07 0 0 0 -2.3286759389655769e-07 -1.6315627723781983e-07 2.8867445196163148e-07 0 2.8867445196163148e-07 -9.5083519786854499e-07 0 0 0 -2.7849786877659142e-07 -6.4424939574034559e-08 1.634963313265271e-07 0 1.634963313265271e-07 -3.5268393885989302e-07 0 0 0 -1.0427721960848163e-07 -1.5626965179972045e-07 3.6669495407647631e-07 0 3.6669495407647631e-07 -8.0381064479004108e-07 0 0 0 -2.4002007414744091e-07 -1.6762011415391246e-08 1.3805261663216807e-07 0 1.3805261663216807e-07 -9.3591068809036193e-07 0 0 0 -2.3816817487643861e-07 -7.6489360645774273e-11 -5.1834720904316266e-14 0 -5.1834720904316266e-14 -1.8461304871307782e-10 0 0 0 -6.5275602339713023e-11 -1.4434353833436605e-07 2.8045078980120614e-07 0 2.8045078980120614e-07 -1.7029882706732282e-06 0 0 0 -4.618329522518975e-07 -2.9482227224706841e-08 1.4509985571471888e-07 0 1.4509985571471888e-07 -1.1502561168258066e-06 0 0 0 -2.9493458601262791e-07 -1.2543720001978815e-11 1.2710200468403106e-15 0 1.2710200468403106e-15 -6.4813059063991533e-12 0 0 0 -4.7562564770944922e-12 6.8387678071925419e-09 1.4578665856946346e-07 0 1.4578665856946346e-07 -7.3903004489223081e-07 0 0 0 -1.8304781927125988e-07 -1.3289346566196402e-07 2.7135693963458293e-07 0 2.7135693963458293e-07 -5.5498035248982271e-07 0 0 0 -1.7196845453794652e-07 -1.4299499970506166e-07 2.1919401776709364e-07 0 2.1919401776709364e-07 -2.7812114183834182e-07 0 0 0 -1.0527903538585077e-07 -5.9776225422477681e-08 4.7507515358515078e-08 0 4.7507515358515078e-08 -1.027111582190007e-08 0 0 0 -1.7511835311094332e-08 -9.5084083255899946e-08 1.6899195911158044e-07 0 1.6899195911158044e-07 -2.6401685233563847e-07 0 0 0 -8.9775233897884537e-08 -8.2031165357991055e-08 1.2653848093626163e-07 0 1.2653848093626163e-07 -8.2766700805560718e-08 0 0 0 -4.1199466540887917e-08 -8.7876167215176633e-08 1.6616023443099689e-07 0 1.6616023443099689e-07 -2.7067469201155385e-07 0 0 0 -8.9637714806682594e-08 -9.2672317810108276e-08 1.9834657148533397e-07 0 1.9834657148533397e-07 -4.805464657261014e-07 0 0 0 -1.4330469588405247e-07 -5.099062228740875e-08 1.3755920675745953e-07 0 1.3755920675745953e-07 -2.7318275413433233e-07 0 0 0 -8.1043344105435535e-08 -7.9078257012303068e-08 1.4720601051420812e-07 0 1.4720601051420812e-07 -2.7808058843632936e-07 0 0 0 -8.9289711362157709e-08 -6.112545535704773e-08 1.3268508930325392e-07 0 1.3268508930325392e-07 -7.4251309221834025e-07 0 0 0 -2.0090963689384726e-07 -1.7359715563686573e-08 1.6483104208729473e-07 0 1.6483104208729473e-07 -6.6860978846841957e-07 0 0 0 -1.7149237600802675e-07 -6.2277794877974999e-09 5.8344978646479511e-08 0 5.8344978646479511e-08 -7.0304850105608751e-07 0 0 0 -1.7731907013597115e-07 -8.6792738682921883e-12 4.9606283995534734e-14 0 4.9606283995534734e-14 -3.8831398355962388e-12 0 0 0 -3.1406034259721062e-12 -4.3613495465968313e-08 1.0128704277327077e-07 0 1.0128704277327077e-07 -9.5771213905817872e-07 0 0 0 -2.5033140863103697e-07 1.2223286994643309e-10 5.6006665453646821e-08 0 5.6006665453646821e-08 -5.6510838424973985e-07 0 0 0 -1.4124653784494857e-07 -6.1540867070701451e-12 6.2187963161844854e-14 0 6.2187963161844854e-14 -2.839576815235101e-12 0 0 0 -2.2484158805763111e-12 -3.1783080148505085e-09 5.7563541619631998e-08 0 5.7563541619631998e-08 -7.4559483504213577e-07 0 0 0 -1.871932857642471e-07 -3.684307799154407e-08 1.0402979204306342e-07 0 1.0402979204306342e-07 -5.9326794357372863e-07 0 0 0 -1.5752775539131796e-07 -3.8115129233155386e-08 1.2881721561669337e-07 0 1.2881721561669337e-07 -4.7816748925246754e-07 0 0 0 -1.2907065462140605e-07 -3.4148538560583254e-09 1.1104805203349048e-07 0 1.1104805203349048e-07 -4.8940193581312776e-07 0 0 0 -1.232041974172961e-07 -2.0138170581983632e-08 8.3212641736223369e-08 0 8.3212641736223369e-08 -3.9487255140491296e-07 0 0 0 -1.0375268049672388e-07 -2.2660240727111706e-09 2.916169904207652e-08 0 2.916169904207652e-08 -5.3189765811605931e-07 0 0 0 -1.3354092054719267e-07 -4.3277508321476249e-12 5.5558421637142574e-14 0 5.5558421637142574e-14 -2.0985343935527512e-12 0 0 0 -1.6065713064250939e-12 -1.4883166089052579e-08 4.4486517743538082e-08 0 4.4486517743538082e-08 -6.2292074610793071e-07 0 0 0 -1.5945097804924582e-07 -1.9798926701694719e-12 4.040145724797356e-14 0 4.040145724797356e-14 -1.135218182243038e-12 0 0 0 -7.7877771310312749e-13 -5.2364186709101796e-09 2.8826586654106931e-08 0 2.8826586654106931e-08 -4.6116214660352695e-07 0 0 0 -1.1659964131860886e-07 2.9734198816969707e-09 3.2380443874072987e-08 0 3.2380443874072987e-08 -5.2694010329004302e-07 0 0 0 -1.3099167085208651e-07 -3.0226999007232709e-12 3.8130079298794235e-14 0 3.8130079298794235e-14 -1.5576982180230297e-12 0 0 0 -1.1450995296865753e-12 -1.1326986088639094e-09 3.1990053148331448e-08 0 3.1990053148331448e-08 -4.3374876523995125e-07 0 0 0 -1.0872036596220358e-07 -1.7090389165756391e-08 7.259985180820193e-08 0 7.259985180820193e-08 -4.5635538589563414e-07 0 0 0 -1.1836144376534774e-07 -2.3954978501848656e-08 1.1567134725773544e-07 0 1.1567134725773544e-07 -2.2092208952533561e-07 0 0 0 -6.1219267006796119e-08 -5.5619994649405049e-08 1.473713195208701e-07 0 1.473713195208701e-07 -3.9888290631662514e-07 0 0 0 -1.1362572524150749e-07 2.2028259634280383e-08 4.5347716894851973e-08 0 4.5347716894851973e-08 -3.3061722284481395e-09 0 0 0 4.6805218514581156e-09 -5.9577370251920155e-08 1.4332398898853928e-07 0 1.4332398898853928e-07 -2.2212271168987696e-07 0 0 0 -7.042502048544917e-08 -4.6551809751892196e-08 1.1314603968542074e-07 0 1.1314603968542074e-07 -1.0407410026348363e-07 0 0 0 -3.7656477503843956e-08 8.2373096120046032e-09 6.3920036531248931e-08 0 6.3920036531248931e-08 -7.4733534350338111e-08 0 0 0 -1.6624056184583297e-08 -6.4426180596405363e-08 1.2051658249608175e-07 0 1.2051658249608175e-07 -8.7128560106036274e-08 0 0 0 -3.7888685175610363e-08 -9.9914204493342114e-09 3.0073169025374578e-08 0 3.0073169025374578e-08 1.9679998399305487e-08 0 0 0 2.4221444874928586e-09 1.3473934394813411e-07 1.3841448004288986e-08 0 1.3841448004288986e-08 -6.1355501592249884e-08 0 0 0 1.8345960588970978e-08 1.5825398133386896e-07 -1.5417518548644083e-08 0 -1.5417518548644083e-08 9.8556647834442825e-09 0 0 0 4.2027411529328284e-08 1.5697097268007647e-07 -1.837208298127558e-08 0 -1.837208298127558e-08 1.1261485290728227e-08 0 0 0 4.205811449270118e-08 1.4188741414566399e-07 -4.0618062973464566e-08 0 -4.0618062973464566e-08 2.7718075453960735e-08 0 0 0 4.2401372399906393e-08 4.3159371912470073e-07 -3.2948399982645943e-08 0 -3.2948399982645943e-08 5.3191595004703869e-09 0 0 0 1.092282196562928e-07 1.441760554002823e-07 5.4239228332168768e-08 0 5.4239228332168768e-08 4.79638020459003e-08 0 0 0 4.8034964361545639e-08 3.1919400004539895e-07 -7.3930083328025327e-09 0 -7.3930083328025327e-09 8.5457370812420019e-09 0 0 0 8.1934934281660211e-08 1.4801910047329439e-07 1.1004073496589143e-08 0 1.1004073496589143e-08 -3.3851093158251268e-09 0 0 0 3.6158497789367323e-08 -3.6275943282782775e-08 1.0493001537567486e-07 0 1.0493001537567486e-07 -2.2734906250988569e-08 0 0 0 -1.4752712383442829e-08 1.3386113521955057e-08 3.744630603368367e-08 0 3.744630603368367e-08 3.5447287372317642e-08 0 0 0 1.2208350223568141e-08 1.6030288291586869e-07 1.5170193019237324e-08 0 1.5170193019237324e-08 3.0381486579464995e-08 0 0 0 4.7671092373833425e-08 1.7796697240135134e-08 4.1356839429659715e-08 0 4.1356839429659715e-08 1.0963010249943276e-08 0 0 0 7.1899268725196092e-09 2.7219353514457273e-08 4.6700089008689843e-08 0 4.6700089008689843e-08 5.9055331463036799e-08 0 0 0 2.1568671244373525e-08 3.1072305812558211e-07 2.20984420063885e-08 0 2.20984420063885e-08 2.5488731960862609e-08 0 0 0 8.4052947521611185e-08 -3.4691130196954944e-08 7.727521366393198e-08 0 7.727521366393198e-08 -1.1469032363559025e-08 0 0 0 -1.1540040640128493e-08 -4.6707026769714785e-08 9.2166056945960504e-08 0 9.2166056945960504e-08 -4.4250037163303364e-08 0 0 0 -2.2739265983254544e-08 -3.5002194902867758e-08 7.6898758201157555e-08 0 7.6898758201157555e-08 -1.6465632717335287e-08 0 0 0 -1.2866956905050751e-08 -3.2553779512471669e-08 8.3831461911929868e-08 0 8.3831461911929868e-08 -8.9038644819832085e-09 0 0 0 -1.0364410998613733e-08 -2.8391826723683504e-08 7.784417574741084e-08 0 7.784417574741084e-08 -2.0689066842121482e-08 0 0 0 -1.2270223391451251e-08 -4.1934749340567835e-08 7.9708295669546219e-08 0 7.9708295669546219e-08 -3.6356829183194355e-08 0 0 0 -1.9572894630940547e-08 -3.1612755370245689e-08 6.7721796592029421e-08 0 6.7721796592029421e-08 -3.690572635024128e-08 0 0 0 -1.7129620430121736e-08 -2.6253703808675692e-08 7.020782666345639e-08 0 7.020782666345639e-08 -8.7869959721537355e-09 0 0 0 -8.7601749452073576e-09 -5.5597988904030193e-08 4.6550981011441743e-08 0 4.6550981011441743e-08 -2.0849679666736669e-08 0 0 0 -1.9111917142691709e-08 -1.849928347907754e-08 6.1151279432401673e-08 0 6.1151279432401673e-08 -6.1678570669666681e-09 0 0 0 -6.1667851365110508e-09 4.1002109372764116e-08 1.8388263697293239e-08 0 1.8388263697293239e-08 -2.3227636846662507e-08 0 0 0 4.4436181315254172e-09 -1.2108060600125091e-08 4.7840990378960636e-08 0 4.7840990378960636e-08 -3.6887521627484987e-08 0 0 0 -1.2248895556902519e-08 1.445729909848564e-08 2.5373998384562665e-08 0 2.5373998384562665e-08 1.3752011170242363e-08 0 0 0 7.0523275671820073e-09 2.0267909837598778e-08 1.8230975669785415e-08 0 1.8230975669785415e-08 -1.0546492083862299e-08 0 0 0 2.4303544384340995e-09 1.1327859069714728e-08 1.3094559273231019e-08 0 1.3094559273231019e-08 -3.2430951801942461e-08 0 0 0 -5.2757731830569464e-09 8.0092683279835254e-09 1.6193576101691139e-08 0 1.6193576101691139e-08 -5.0955694198046883e-08 0 0 0 -1.0736606467515826e-08 -2.9741533371270108e-09 1.7914720609767308e-08 0 1.7914720609767308e-08 -9.6150951114745627e-08 0 0 0 -2.4781276112968212e-08 1.0665890511176359e-08 4.0731061537691491e-08 0 4.0731061537691491e-08 -4.4970368786301767e-08 0 0 0 -8.5761195687813453e-09 7.0987448040980125e-10 3.1067558588760169e-10 0 3.1067558588760169e-10 -1.1944497573229753e-07 0 0 0 -2.9683775312971971e-08 1.0452158534855709e-08 5.9822051335804403e-09 0 5.9822051335804403e-09 -1.0713407860998395e-07 0 0 0 -2.4170480018782087e-08 7.4191453280538852e-09 6.3938064789342745e-09 0 6.3938064789342745e-09 -1.3532712330138679e-07 0 0 0 -3.1976994493333198e-08 2.2722167441822715e-08 1.2678602379915654e-08 0 1.2678602379915654e-08 -1.4895772636495827e-07 0 0 0 -3.1558889730783809e-08 8.5340304947367957e-09 3.9020894138451296e-08 0 3.9020894138451296e-08 -9.9011151805589667e-08 0 0 0 -2.2619280327713139e-08 -9.296855700192623e-09 4.6712201787092306e-08 0 4.6712201787092306e-08 -1.4936575538551929e-07 0 0 0 -3.9665652771427939e-08 -1.3512520092755536e-08 4.739880129402195e-08 0 4.739880129402195e-08 -1.1359128426700141e-07 0 0 0 -3.1775951089939216e-08 -9.7892851838893348e-09 6.641616236461041e-08 0 6.641616236461041e-08 -3.3312233644619389e-08 0 0 0 -1.0775379707127159e-08 -1.1386597938480942e-09 6.0676935784038297e-08 0 6.0676935784038297e-08 -7.2765808665537526e-08 0 0 0 -1.8476117114846432e-08 -2.7319222056821027e-08 7.796836662070019e-08 0 7.796836662070019e-08 -8.2086618193252661e-08 0 0 0 -2.7351460062518435e-08 -2.851271726524565e-09 5.2893920648463925e-08 0 5.2893920648463925e-08 -2.6178389038213348e-08 0 0 0 -7.257415191184455e-09 -2.2300176855636219e-08 6.1664925444906023e-08 0 6.1664925444906023e-08 -7.4839180398178585e-08 0 0 0 -2.4284839313453708e-08 
</DataArray>
</CellData>
</Piece>
</UnstructuredGrid>
</VTKFile>
