<?xml version="1.0"?>
<VTKFile type="UnstructuredGrid" version="0.1" byte_order="LittleEndian">
<UnstructuredGrid>
<Piece NumberOfPoints="880" NumberOfCells="299">
<Points>
<DataArray type="Float64" NumberOfComponents="3" format="ascii">
-0 0 0 0.18653882694645291 0.22249173546702489 0 0 0.25000000000104189 0 -0 0 0 0.18653882694645291 0.22249173546702489 0 0.24999999999941089 0 0 0.24999999999941089 0 0 0.35015135319464608 0.1900339269648805 0 0.49999999999869182 0 0 0.18653882694645291 0.22249173546702489 0 0.24999999999941089 0 0 0.35015135319464608 0.1900339269648805 0 0.35015135319464608 0.1900339269648805 0 0.49924741621175961 0.21507969613896921 0 0.49999999999869182 0 0 0.35015135319464608 0.1900339269648805 0 0.49924741621175961 0.21507969613896921 0 0.40587285776242238 0.32419148732968017 0 0.37764981543668408 0.41341486499350411 0 0.41576443813007791 0.48093483781626972 0 0.45418244162583959 0.41624787166862259 0 0.37764981543668408 0.41341486499350411 0 0.45418244162583959 0.41624787166862259 0 0.40587285776242238 0.32419148732968017 0 0.41576443813007791 0.48093483781626972 0 0.46566719828045178 0.47702825415921918 0 0.45418244162583959 0.41624787166862259 0 0.41576443813007791 0.48093483781626972 0 0.46566719828045178 0.47702825415921918 0 0.4638583922372429 0.51470588235294135 0 0.46566719828045178 0.47702825415921918 0 0.49954900152271581 0.45107191084564019 0 0.5 0.5 0 0.46566719828045178 0.47702825415921918 0 0.4638583922372429 0.51470588235294135 0 0.5 0.5 0 0.46566719828045178 0.47702825415921918 0 0.49954900152271581 0.45107191084564019 0 0.45418244162583959 0.41624787166862259 0 0.45418244162583959 0.41624787166862259 0 0.49435464945626773 0.33318442629318029 0 0.54876010062294855 0.39662628167175101 0 0.45418244162583959 0.41624787166862259 0 0.49435464945626773 0.33318442629318029 0 0.40587285776242238 0.32419148732968017 0 0.49924741621175961 0.21507969613896921 0 0.49435464945626773 0.33318442629318029 0 0.40587285776242238 0.32419148732968017 0 0.35015135319464608 0.1900339269648805 0 0.40587285776242238 0.32419148732968017 0 0.29145599617909779 0.35026601625021492 0 0.37764981543668408 0.41341486499350411 0 0.40587285776242238 0.32419148732968017 0 0.29145599617909779 0.35026601625021492 0 0.18653882694645291 0.22249173546702489 0 0.35015135319464608 0.1900339269648805 0 0.29145599617909779 0.35026601625021492 0 0.29145599617909779 0.35026601625021492 0 0.32540781287085369 0.49175159894608172 0 0.17872124008781709 0.39692711089439497 0 0.37764981543668408 0.41341486499350411 0 0.29145599617909779 0.35026601625021492 0 0.32540781287085369 0.49175159894608172 0 0.37764981543668408 0.41341486499350411 0 0.41576443813007791 0.48093483781626972 0 0.32540781287085369 0.49175159894608172 0 0.17872124008781709 0.39692711089439497 0 0 0.25000000000104189 0 0 0.50000000000206157 0 0.17872124008781709 0.39692711089439497 0 0 0.50000000000206157 0 0.22453074737734591 0.51613635929252633 0 0.32540781287085369 0.49175159894608172 0 0.17872124008781709 0.39692711089439497 0 0.22453074737734591 0.51613635929252633 0 0.18653882694645291 0.22249173546702489 0 0.29145599617909779 0.35026601625021492 0 0.17872124008781709 0.39692711089439497 0 0.18653882694645291 0.22249173546702489 0 0.17872124008781709 0.39692711089439497 0 0 0.25000000000104189 0 0 0.50000000000206157 0 0.18442368612951149 0.62734948407416979 0 0 0.75000000000034772 0 0.18442368612951149 0.62734948407416979 0 0.22727208279115291 0.72949159435386135 0 0 0.75000000000034772 0 0.18442368612951149 0.62734948407416979 0 0.22727208279115291 0.72949159435386135 0 0.31346558946927339 0.67110784456164874 0 0.18442368612951149 0.62734948407416979 0 0.22453074737734591 0.51613635929252633 0 0.31771010312359771 0.58585679504088894 0 0 0.50000000000206157 0 0.18442368612951149 0.62734948407416979 0 0.22453074737734591 0.51613635929252633 0 0 1 0 0.096516139048187316 0.89789944498939644 0 0 0.75000000000034772 0 0 1 0 0.096516139048187316 0.89789944498939644 0 0.1596341872805197 1 0 0.096516139048187316 0.89789944498939644 0 0 0.75000000000034772 0 0.1644705180525495 0.8200994301041713 0 0.1644705180525495 0.8200994301041713 0 0.2386314078659193 0.92924778694987087 0 0.27155609766735261 0.80398965554903801 0 0.22727208279115291 0.72949159435386135 0 0 0.75000000000034772 0 0.1644705180525495 0.8200994301041713 0 0.22727208279115291 0.72949159435386135 0 0.1644705180525495 0.8200994301041713 0 0.27155609766735261 0.80398965554903801 0 0.096516139048187316 0.89789944498939644 0 0.1644705180525495 0.8200994301041713 0 0.2386314078659193 0.92924778694987087 0 0.096516139048187316 0.89789944498939644 0 0.2386314078659193 0.92924778694987087 0 0.1596341872805197 1 0 0.2386314078659193 0.92924778694987087 0 0.1596341872805197 1 0 0.27591592301363282 1 0 0.36061858902161292 1 0 0.32789203369730929 0.94219211037003092 0 0.27591592301363282 1 0 0.36061858902161292 1 0 0.32789203369730929 0.94219211037003092 0 0.39382242252278338 0.95440420122950598 0 0.2386314078659193 0.92924778694987087 0 0.32789203369730929 0.94219211037003092 0 0.27591592301363282 1 0 0.2386314078659193 0.92924778694987087 0 0.32789203369730929 0.94219211037003092 0 0.31834856208730472 0.88134829947972904 0 0.32789203369730929 0.94219211037003092 0 0.37746652222901839 0.8987532801416368 0 0.39382242252278338 0.95440420122950598 0 0.32789203369730929 0.94219211037003092 0 0.31834856208730472 0.88134829947972904 0 0.37746652222901839 0.8987532801416368 0 0.2386314078659193 0.92924778694987087 0 0.31834856208730472 0.88134829947972904 0 0.27155609766735261 0.80398965554903801 0 0.31834856208730472 0.88134829947972904 0 0.36493375430404612 0.82333914183704071 0 0.37746652222901839 0.8987532801416368 0 0.31834856208730472 0.88134829947972904 0 0.36493375430404612 0.82333914183704071 0 0.27155609766735261 0.80398965554903801 0 0.22727208279115291 0.72949159435386135 0 0.27155609766735261 0.80398965554903801 0 0.32984265945580837 0.74432890077789404 0 0.36493375430404612 0.82333914183704071 0 0.27155609766735261 0.80398965554903801 0 0.32984265945580837 0.74432890077789404 0 0.36493375430404612 0.82333914183704071 0 0.39746869305290999 0.7595658224757349 0 0.32984265945580837 0.74432890077789404 0 0.36493375430404612 0.82333914183704071 0 0.39746869305290999 0.7595658224757349 0 0.42893012659725649 0.81084715169569632 0 0.39746869305290999 0.7595658224757349 0 0.42893012659725649 0.81084715169569632 0 0.44651949253391748 0.77225997208621999 0 0.39746869305290999 0.7595658224757349 0 0.44651949253391748 0.77225997208621999 0 0.43412357948152142 0.72128778687215156 0 0.44651949253391748 0.77225997208621999 0 0.47786860714145291 0.77730227330627721 0 0.47220206448452873 0.74892462649306213 0 0.47786860714145291 0.77730227330627721 0 0.47220206448452873 0.74892462649306213 0 0.5 0.76470588235294124 0 0.47786860714145291 0.77730227330627721 0 0.5 0.79411764705882359 0 0.5 0.76470588235294124 0 0.47062147868881782 0.80650323854033878 0 0.5 0.82352941176470584 0 0.5 0.79411764705882359 0 0.47786860714145291 0.77730227330627721 0 0.47062147868881782 0.80650323854033878 0 0.5 0.79411764705882359 0 0.44651949253391748 0.77225997208621999 0 0.47786860714145291 0.77730227330627721 0 0.47062147868881782 0.80650323854033878 0 0.42893012659725649 0.81084715169569632 0 0.44651949253391748 0.77225997208621999 0 0.47062147868881782 0.80650323854033878 0 0.42893012659725649 0.81084715169569632 0 0.47062147868881782 0.80650323854033878 0 0.46181179062043481 0.83858979842637782 0 0.42893012659725649 0.81084715169569632 0 0.46181179062043481 0.83858979842637782 0 0.42880856207355889 0.86677159981903118 0 0.46181179062043481 0.83858979842637782 0 0.5 0.85294117647058831 0 0.5 0.82352941176470584 0 0.47062147868881782 0.80650323854033878 0 0.46181179062043481 0.83858979842637782 0 0.5 0.82352941176470584 0 0.46181179062043481 0.83858979842637782 0 0.47032448519202857 0.86718057681700655 0 0.5 0.85294117647058831 0 0.47032448519202857 0.86718057681700655 0 0.5 0.88235294117647056 0 0.5 0.85294117647058831 0 0.46181179062043481 0.83858979842637782 0 0.47032448519202857 0.86718057681700655 0 0.42880856207355889 0.86677159981903118 0 0.36493375430404612 0.82333914183704071 0 0.42880856207355889 0.86677159981903118 0 0.37746652222901839 0.8987532801416368 0 0.36493375430404612 0.82333914183704071 0 0.42893012659725649 0.81084715169569632 0 0.42880856207355889 0.86677159981903118 0 0.37746652222901839 0.8987532801416368 0 0.42822627495986648 0.92083108049218854 0 0.39382242252278338 0.95440420122950598 0 0.42880856207355889 0.86677159981903118 0 0.37746652222901839 0.8987532801416368 0 0.42822627495986648 0.92083108049218854 0 0.47032448519202857 0.86718057681700655 0 0.42880856207355889 0.86677159981903118 0 0.46100207326614928 0.89524736819256467 0 0.42880856207355889 0.86677159981903118 0 0.42822627495986648 0.92083108049218854 0 0.46100207326614928 0.89524736819256467 0 0.47032448519202857 0.86718057681700655 0 0.46100207326614928 0.89524736819256467 0 0.5 0.88235294117647056 0 0.46100207326614928 0.89524736819256467 0 0.5 0.91176470588235292 0 0.5 0.88235294117647056 0 0.46100207326614928 0.89524736819256467 0 0.46949408183482899 0.92833826413560594 0 0.5 0.91176470588235292 0 0.46949408183482899 0.92833826413560594 0 0.5 0.94117647058823528 0 0.5 0.91176470588235292 0 0.42822627495986648 0.92083108049218854 0 0.46100207326614928 0.89524736819256467 0 0.46949408183482899 0.92833826413560594 0 0.46949408183482899 0.92833826413560594 0 0.44768478605684647 0.9646709673379662 0 0.47596308696979028 0.95620709615192379 0 0.42822627495986648 0.92083108049218854 0 0.46949408183482899 0.92833826413560594 0 0.44768478605684647 0.9646709673379662 0 0.44768478605684647 0.9646709673379662 0 0.47596308696979028 0.95620709615192379 0 0.47818194888216242 0.97829325975680159 0 0.46949408183482899 0.92833826413560594 0 0.47596308696979028 0.95620709615192379 0 0.5 0.94117647058823528 0 0.47596308696979028 0.95620709615192379 0 0.47818194888216242 0.97829325975680159 0 0.5 0.97058823529411764 0 0.47596308696979028 0.95620709615192379 0 0.5 0.97058823529411764 0 0.5 0.94117647058823528 0 0.47818194888216242 0.97829325975680159 0 0.46726187138417491 1 0 0.5 1 0 0.47818194888216242 0.97829325975680159 0 0.5 0.97058823529411764 0 0.5 1 0 0.44768478605684647 0.9646709673379662 0 0.47818194888216242 0.97829325975680159 0 0.46726187138417491 1 0 0.44768478605684647 0.9646709673379662 0 0.46726187138417491 1 0 0.42231823435723009 1 0 0.44768478605684647 0.9646709673379662 0 0.42231823435723009 1 0 0.39382242252278338 0.95440420122950598 0 0.42822627495986648 0.92083108049218854 0 0.44768478605684647 0.9646709673379662 0 0.39382242252278338 0.95440420122950598 0 0.36061858902161292 1 0 0.42231823435723009 1 0 0.39382242252278338 0.95440420122950598 0 0.31771010312359771 0.58585679504088894 0 0.3872154068451229 0.6301386882447304 0 0.41980724897053312 0.55867199730355355 0 0.32540781287085369 0.49175159894608172 0 0.31771010312359771 0.58585679504088894 0 0.41980724897053312 0.55867199730355355 0 0.32540781287085369 0.49175159894608172 0 0.22453074737734591 0.51613635929252633 0 0.31771010312359771 0.58585679504088894 0 0.18442368612951149 0.62734948407416979 0 0.31771010312359771 0.58585679504088894 0 0.31346558946927339 0.67110784456164874 0 0.22727208279115291 0.72949159435386135 0 0.32984265945580837 0.74432890077789404 0 0.31346558946927339 0.67110784456164874 0 0.39746869305290999 0.7595658224757349 0 0.32984265945580837 0.74432890077789404 0 0.38513711431054509 0.69312683393047636 0 0.32984265945580837 0.74432890077789404 0 0.31346558946927339 0.67110784456164874 0 0.38513711431054509 0.69312683393047636 0 0.31771010312359771 0.58585679504088894 0 0.31346558946927339 0.67110784456164874 0 0.3872154068451229 0.6301386882447304 0 0.31346558946927339 0.67110784456164874 0 0.3872154068451229 0.6301386882447304 0 0.38513711431054509 0.69312683393047636 0 0.3872154068451229 0.6301386882447304 0 0.38513711431054509 0.69312683393047636 0 0.4390556798454946 0.66199025953586599 0 0.3872154068451229 0.6301386882447304 0 0.4390556798454946 0.66199025953586599 0 0.44702869549010399 0.61002701911053991 0 0.39746869305290999 0.7595658224757349 0 0.38513711431054509 0.69312683393047636 0 0.43412357948152142 0.72128778687215156 0 0.38513711431054509 0.69312683393047636 0 0.43412357948152142 0.72128778687215156 0 0.4390556798454946 0.66199025953586599 0 0.43412357948152142 0.72128778687215156 0 0.47636314644728822 0.72058823529411908 0 0.47220206448452873 0.74892462649306213 0 0.44651949253391748 0.77225997208621999 0 0.43412357948152142 0.72128778687215156 0 0.47220206448452873 0.74892462649306213 0 0.43412357948152142 0.72128778687215156 0 0.46330219403010409 0.69594601192744354 0 0.4390556798454946 0.66199025953586599 0 0.43412357948152142 0.72128778687215156 0 0.46330219403010409 0.69594601192744354 0 0.47636314644728822 0.72058823529411908 0 0.46330219403010409 0.69594601192744354 0 0.47636314644728822 0.72058823529411908 0 0.5 0.70588235294117663 0 0.46330219403010409 0.69594601192744354 0 0.5 0.67647058823529438 0 0.5 0.70588235294117663 0 0.47636314644728822 0.72058823529411908 0 0.5 0.73529411764705888 0 0.5 0.70588235294117663 0 0.47220206448452873 0.74892462649306213 0 0.5 0.73529411764705888 0 0.5 0.76470588235294124 0 0.47636314644728822 0.72058823529411908 0 0.47220206448452873 0.74892462649306213 0 0.5 0.73529411764705888 0 0.4390556798454946 0.66199025953586599 0 0.47501372853621993 0.66300743809067952 0 0.47271076880550111 0.63357150722538136 0 0.4390556798454946 0.66199025953586599 0 0.47271076880550111 0.63357150722538136 0 0.44702869549010399 0.61002701911053991 0 0.46330219403010409 0.69594601192744354 0 0.4390556798454946 0.66199025953586599 0 0.47501372853621993 0.66300743809067952 0 0.46330219403010409 0.69594601192744354 0 0.47501372853621993 0.66300743809067952 0 0.5 0.67647058823529438 0 0.47501372853621993 0.66300743809067952 0 0.5 0.64705882352941191 0 0.5 0.67647058823529438 0 0.47501372853621993 0.66300743809067952 0 0.47271076880550111 0.63357150722538136 0 0.5 0.64705882352941191 0 0.47271076880550111 0.63357150722538136 0 0.5 0.61764705882352966 0 0.5 0.64705882352941191 0 0.47784843225772261 0.60532339797118362 0 0.5 0.5882352941176473 0 0.5 0.61764705882352966 0 0.47271076880550111 0.63357150722538136 0 0.47784843225772261 0.60532339797118362 0 0.5 0.61764705882352966 0 0.46950269699300751 0.57713611057881953 0 0.5 0.55882352941176494 0 0.5 0.5882352941176473 0 0.47784843225772261 0.60532339797118362 0 0.46950269699300751 0.57713611057881953 0 0.5 0.5882352941176473 0 0.46950269699300751 0.57713611057881953 0 0.44702869549010399 0.61002701911053991 0 0.41980724897053312 0.55867199730355355 0 0.47784843225772261 0.60532339797118362 0 0.46950269699300751 0.57713611057881953 0 0.44702869549010399 0.61002701911053991 0 0.47271076880550111 0.63357150722538136 0 0.47784843225772261 0.60532339797118362 0 0.44702869549010399 0.61002701911053991 0 0.3872154068451229 0.6301386882447304 0 0.44702869549010399 0.61002701911053991 0 0.41980724897053312 0.55867199730355355 0 0.41576443813007791 0.48093483781626972 0 0.32540781287085369 0.49175159894608172 0 0.41980724897053312 0.55867199730355355 0 0.41576443813007791 0.48093483781626972 0 0.41980724897053312 0.55867199730355355 0 0.4638583922372429 0.51470588235294135 0 0.41980724897053312 0.55867199730355355 0 0.4638583922372429 0.51470588235294135 0 0.47063366764015668 0.5477498568705923 0 0.46950269699300751 0.57713611057881953 0 0.41980724897053312 0.55867199730355355 0 0.47063366764015668 0.5477498568705923 0 0.46950269699300751 0.57713611057881953 0 0.47063366764015668 0.5477498568705923 0 0.5 0.55882352941176494 0 0.47063366764015668 0.5477498568705923 0 0.5 0.52941176470588269 0 0.5 0.55882352941176494 0 0.4638583922372429 0.51470588235294135 0 0.47063366764015668 0.5477498568705923 0 0.5 0.52941176470588269 0 0.4638583922372429 0.51470588235294135 0 0.5 0.5 0 0.5 0.52941176470588269 0 0.5 0.52941176470588269 0 0.52629893369322589 0.51330452493555312 0 0.52820848765230954 0.54540076010342464 0 0.5 0.5 0 0.5 0.52941176470588269 0 0.52629893369322589 0.51330452493555312 0 0.5 0.5 0 0.5 0.52941176470588269 0 0.5 0.52941176470588269 0 0.5 0.55882352941176494 0 0.52820848765230954 0.54540076010342464 0 0.5 0.52941176470588269 0 0.5 0.55882352941176494 0 0.5 0.55882352941176494 0 0.52820848765230954 0.54540076010342464 0 0.52246722155046366 0.57417151085839346 0 0.52820848765230954 0.54540076010342464 0 0.56199650931215228 0.51957997397013023 0 0.55931585964581554 0.57571189932143541 0 0.52629893369322589 0.51330452493555312 0 0.56199650931215228 0.51957997397013023 0 0.54128967150166729 0.47213012589832831 0 0.52629893369322589 0.51330452493555312 0 0.52820848765230954 0.54540076010342464 0 0.56199650931215228 0.51957997397013023 0 0.56199650931215228 0.51957997397013023 0 0.61174067805461174 0.54148194547208961 0 0.60345082206666756 0.47575908627627911 0 0.56199650931215228 0.51957997397013023 0 0.61174067805461174 0.54148194547208961 0 0.55931585964581554 0.57571189932143541 0 0.61174067805461174 0.54148194547208961 0 0.61264973759093866 0.60999664295093947 0 0.55931585964581554 0.57571189932143541 0 0.61264973759093866 0.60999664295093947 0 0.55931585964581554 0.57571189932143541 0 0.55828304378107996 0.63546085023637511 0 0.55931585964581554 0.57571189932143541 0 0.52754891270107895 0.60396918438229519 0 0.55828304378107996 0.63546085023637511 0 0.52754891270107895 0.60396918438229519 0 0.52222323737415433 0.63323059203007803 0 0.55828304378107996 0.63546085023637511 0 0.52820848765230954 0.54540076010342464 0 0.55931585964581554 0.57571189932143541 0 0.52246722155046366 0.57417151085839346 0 0.55931585964581554 0.57571189932143541 0 0.52246722155046366 0.57417151085839346 0 0.52754891270107895 0.60396918438229519 0 0.52246722155046366 0.57417151085839346 0 0.5 0.5882352941176473 0 0.52754891270107895 0.60396918438229519 0 0.5 0.55882352941176494 0 0.52246722155046366 0.57417151085839346 0 0.5 0.5882352941176473 0 0.5 0.55882352941176494 0 0.5 0.5882352941176473 0 0.52754891270107895 0.60396918438229519 0 0.5 0.61764705882352966 0 0.52222323737415433 0.63323059203007803 0 0.5 0.5882352941176473 0 0.5 0.61764705882352966 0 0.5 0.5882352941176473 0 0.52754891270107895 0.60396918438229519 0 0.5 0.61764705882352966 0 0.5 0.61764705882352966 0 0.52222323737415433 0.63323059203007803 0 0.5 0.64705882352941191 0 0.5 0.61764705882352966 0 0.5 0.64705882352941191 0 0.52222323737415433 0.63323059203007803 0 0.5 0.64705882352941191 0 0.52736180768426655 0.66304505109048573 0 0.5 0.64705882352941191 0 0.5 0.67647058823529438 0 0.52736180768426655 0.66304505109048573 0 0.5 0.64705882352941191 0 0.5 0.67647058823529438 0 0.5 0.67647058823529438 0 0.52736180768426655 0.66304505109048573 0 0.52189318962165776 0.69193883095305098 0 0.52736180768426655 0.66304505109048573 0 0.52189318962165776 0.69193883095305098 0 0.55852327729743823 0.69498827241231187 0 0.52736180768426655 0.66304505109048573 0 0.55828304378107996 0.63546085023637511 0 0.55852327729743823 0.69498827241231187 0 0.52222323737415433 0.63323059203007803 0 0.52736180768426655 0.66304505109048573 0 0.55828304378107996 0.63546085023637511 0 0.5 0.73529411764705888 0 0.52547133540542634 0.72058823529411897 0 0.5211984712236245 0.75134107022269114 0 0.5 0.73529411764705888 0 0.52547133540542634 0.72058823529411897 0 0.5 0.70588235294117663 0 0.5 0.73529411764705888 0 0.5 0.70588235294117663 0 0.52547133540542634 0.72058823529411897 0 0.5 0.70588235294117663 0 0.52189318962165776 0.69193883095305098 0 0.5 0.67647058823529438 0 0.5 0.70588235294117663 0 0.52189318962165776 0.69193883095305098 0 0.5 0.67647058823529438 0 0.5 0.70588235294117663 0 0.52547133540542634 0.72058823529411897 0 0.52189318962165776 0.69193883095305098 0 0.55852327729743823 0.69498827241231187 0 0.52547133540542634 0.72058823529411897 0 0.5211984712236245 0.75134107022269114 0 0.55458114032207428 0.75544804615062711 0 0.52547133540542634 0.72058823529411897 0 0.55852327729743823 0.69498827241231187 0 0.55458114032207428 0.75544804615062711 0 0.55852327729743823 0.69498827241231187 0 0.6088970477846376 0.72715446211577472 0 0.55458114032207428 0.75544804615062711 0 0.55852327729743823 0.69498827241231187 0 0.6088970477846376 0.72715446211577472 0 0.60110770968787908 0.67045598539422102 0 0.61264973759093866 0.60999664295093947 0 0.55828304378107996 0.63546085023637511 0 0.60110770968787908 0.67045598539422102 0 0.55828304378107996 0.63546085023637511 0 0.55852327729743823 0.69498827241231187 0 0.60110770968787908 0.67045598539422102 0 0.61264973759093866 0.60999664295093947 0 0.60110770968787908 0.67045598539422102 0 0.66621429167335955 0.68470300534742679 0 0.6088970477846376 0.72715446211577472 0 0.66621429167335955 0.68470300534742679 0 0.6817340940367822 0.76923101696744944 0 0.6088970477846376 0.72715446211577472 0 0.60110770968787908 0.67045598539422102 0 0.66621429167335955 0.68470300534742679 0 0.66621429167335955 0.68470300534742679 0 0.6817340940367822 0.76923101696744944 0 0.7828103453665094 0.69876044407634474 0 0.66621429167335955 0.68470300534742679 0 0.69354174170208815 0.57892485983477626 0 0.7828103453665094 0.69876044407634474 0 0.69354174170208815 0.57892485983477626 0 0.77935529174931761 0.49004815756283893 0 0.66681557370681976 0.49435464945626773 0 0.61174067805461174 0.54148194547208961 0 0.69354174170208815 0.57892485983477626 0 0.66681557370681976 0.49435464945626773 0 0.61174067805461174 0.54148194547208961 0 0.60345082206666756 0.47575908627627911 0 0.66681557370681976 0.49435464945626773 0 0.61174067805461174 0.54148194547208961 0 0.61264973759093866 0.60999664295093947 0 0.69354174170208815 0.57892485983477626 0 0.61264973759093866 0.60999664295093947 0 0.66621429167335955 0.68470300534742679 0 0.69354174170208815 0.57892485983477626 0 0.60145933092659498 0.94808652648958736 0 0.57768176564240026 1 0 0.63938141097836054 1 0 0.60145933092659498 0.94808652648958736 0 0.55381003699196441 0.97073734537240042 0 0.55652711631508067 0.93435010280744335 0 0.60145933092659498 0.94808652648958736 0 0.57768176564240026 1 0 0.55381003699196441 0.97073734537240042 0 0.57768176564240026 1 0 0.53273812861558045 1 0 0.55381003699196441 0.97073734537240042 0 0.53273812861558045 1 0 0.55381003699196441 0.97073734537240042 0 0.52191028766292435 0.97912620202886635 0 0.53273812861558045 1 0 0.52191028766292435 0.97912620202886635 0 0.5 1 0 0.52191028766292435 0.97912620202886635 0 0.5 0.97058823529411764 0 0.5 1 0 0.5 0.97058823529411764 0 0.5 1 0 0.5 0.97058823529411764 0 0.5 0.94117647058823528 0 0.5 0.97058823529411764 0 0.5 0.94117647058823528 0 0.52554900427979434 0.95492408164812537 0 0.52191028766292435 0.97912620202886635 0 0.5 0.97058823529411764 0 0.52554900427979434 0.95492408164812537 0 0.5 0.94117647058823528 0 0.52554900427979434 0.95492408164812537 0 0.52149395742518578 0.9280464911497236 0 0.55381003699196441 0.97073734537240042 0 0.52554900427979434 0.95492408164812537 0 0.55652711631508067 0.93435010280744335 0 0.55381003699196441 0.97073734537240042 0 0.52191028766292435 0.97912620202886635 0 0.52554900427979434 0.95492408164812537 0 0.52554900427979434 0.95492408164812537 0 0.55652711631508067 0.93435010280744335 0 0.52149395742518578 0.9280464911497236 0 0.55652711631508067 0.93435010280744335 0 0.52982914238326484 0.89727189043838895 0 0.57507719038536997 0.89743529736491356 0 0.55652711631508067 0.93435010280744335 0 0.52149395742518578 0.9280464911497236 0 0.52982914238326484 0.89727189043838895 0 0.52149395742518578 0.9280464911497236 0 0.5 0.91176470588235292 0 0.52982914238326484 0.89727189043838895 0 0.5 0.94117647058823528 0 0.5 0.91176470588235292 0 0.5 0.94117647058823528 0 0.52149395742518578 0.9280464911497236 0 0.5 0.91176470588235292 0 0.5 0.91176470588235292 0 0.5 0.88235294117647056 0 0.52982914238326484 0.89727189043838895 0 0.5 0.91176470588235292 0 0.5 0.88235294117647056 0 0.5 0.88235294117647056 0 0.52982914238326484 0.89727189043838895 0 0.51991574276818808 0.86764705882352966 0 0.52982914238326484 0.89727189043838895 0 0.57507719038536997 0.89743529736491356 0 0.54799184932697576 0.8599032232094268 0 0.60145933092659498 0.94808652648958736 0 0.55652711631508067 0.93435010280744335 0 0.57507719038536997 0.89743529736491356 0 0.60145933092659498 0.94808652648958736 0 0.57507719038536997 0.89743529736491356 0 0.63427031498547037 0.88927276979110648 0 0.57507719038536997 0.89743529736491356 0 0.58994607995897996 0.84812355238296233 0 0.63427031498547037 0.88927276979110648 0 0.58994607995897996 0.84812355238296233 0 0.64153141236229239 0.83072478436463804 0 0.63427031498547037 0.88927276979110648 0 0.58994607995897996 0.84812355238296233 0 0.60049020024666178 0.78900583008989877 0 0.64153141236229239 0.83072478436463804 0 0.58994607995897996 0.84812355238296233 0 0.54799184932697576 0.8599032232094268 0 0.55206941203846505 0.81091931303809783 0 0.58994607995897996 0.84812355238296233 0 0.55206941203846505 0.81091931303809783 0 0.60049020024666178 0.78900583008989877 0 0.57507719038536997 0.89743529736491356 0 0.58994607995897996 0.84812355238296233 0 0.54799184932697576 0.8599032232094268 0 0.52982914238326484 0.89727189043838895 0 0.54799184932697576 0.8599032232094268 0 0.51991574276818808 0.86764705882352966 0 0.54799184932697576 0.8599032232094268 0 0.51991574276818808 0.86764705882352966 0 0.52395085592512047 0.83729395211968571 0 0.51991574276818808 0.86764705882352966 0 0.5 0.85294117647058831 0 0.52395085592512047 0.83729395211968571 0 0.5 0.88235294117647056 0 0.5 0.85294117647058831 0 0.5 0.88235294117647056 0 0.51991574276818808 0.86764705882352966 0 0.5 0.85294117647058831 0 0.5 0.82352941176470584 0 0.52395085592512047 0.83729395211968571 0 0.52039202967084142 0.80930587873000437 0 0.5 0.85294117647058831 0 0.5 0.82352941176470584 0 0.5 0.85294117647058831 0 0.5 0.82352941176470584 0 0.52395085592512047 0.83729395211968571 0 0.52395085592512047 0.83729395211968571 0 0.55206941203846505 0.81091931303809783 0 0.52039202967084142 0.80930587873000437 0 0.54799184932697576 0.8599032232094268 0 0.52395085592512047 0.83729395211968571 0 0.55206941203846505 0.81091931303809783 0 0.55206941203846505 0.81091931303809783 0 0.52039202967084142 0.80930587873000437 0 0.52593988039062167 0.78066906966870908 0 0.55206941203846505 0.81091931303809783 0 0.52593988039062167 0.78066906966870908 0 0.55458114032207428 0.75544804615062711 0 0.52039202967084142 0.80930587873000437 0 0.5 0.79411764705882359 0 0.52593988039062167 0.78066906966870908 0 0.5 0.82352941176470584 0 0.5 0.79411764705882359 0 0.5 0.82352941176470584 0 0.52039202967084142 0.80930587873000437 0 0.5 0.79411764705882359 0 0.5 0.73529411764705888 0 0.5 0.76470588235294124 0 0.5 0.73529411764705888 0 0.5 0.76470588235294124 0 0.5211984712236245 0.75134107022269114 0 0.5 0.79411764705882359 0 0.5 0.76470588235294124 0 0.52593988039062167 0.78066906966870908 0 0.5 0.79411764705882359 0 0.5 0.76470588235294124 0 0.5 0.76470588235294124 0 0.52593988039062167 0.78066906966870908 0 0.5211984712236245 0.75134107022269114 0 0.52593988039062167 0.78066906966870908 0 0.5211984712236245 0.75134107022269114 0 0.55458114032207428 0.75544804615062711 0 0.6088970477846376 0.72715446211577472 0 0.55458114032207428 0.75544804615062711 0 0.60049020024666178 0.78900583008989877 0 0.55206941203846505 0.81091931303809783 0 0.55458114032207428 0.75544804615062711 0 0.60049020024666178 0.78900583008989877 0 0.6817340940367822 0.76923101696744944 0 0.70916369539323409 0.86041409043207073 0 0.80987878298654392 0.8110307373443908 0 0.6088970477846376 0.72715446211577472 0 0.60049020024666178 0.78900583008989877 0 0.6817340940367822 0.76923101696744944 0 0.60049020024666178 0.78900583008989877 0 0.6817340940367822 0.76923101696744944 0 0.64153141236229239 0.83072478436463804 0 0.70916369539323409 0.86041409043207073 0 0.64153141236229239 0.83072478436463804 0 0.63427031498547037 0.88927276979110648 0 0.6817340940367822 0.76923101696744944 0 0.70916369539323409 0.86041409043207073 0 0.64153141236229239 0.83072478436463804 0 0.70916369539323409 0.86041409043207073 0 0.68173274398262862 0.93660593960145366 0 0.63427031498547037 0.88927276979110648 0 0.60145933092659498 0.94808652648958736 0 0.68173274398262862 0.93660593960145366 0 0.63427031498547037 0.88927276979110648 0 0.70916369539323409 0.86041409043207073 0 0.68173274398262862 0.93660593960145366 0 0.78222494485339233 0.91531439423588867 0 0.68173274398262862 0.93660593960145366 0 0.72408407698689681 1 0 0.78222494485339233 0.91531439423588867 0 0.60145933092659498 0.94808652648958736 0 0.68173274398262862 0.93660593960145366 0 0.63938141097836054 1 0 0.68173274398262862 0.93660593960145366 0 0.72408407698689681 1 0 0.63938141097836054 1 0 1 1 0 0.89611933618281592 0.89173516444576184 0 1 0.74999999999934008 0 0.72408407698689681 1 0 0.84036581271988753 1 0 0.78222494485339233 0.91531439423588867 0 0.84036581271988753 1 0 0.78222494485339233 0.91531439423588867 0 0.89611933618281592 0.89173516444576184 0 0.6817340940367822 0.76923101696744944 0 0.80987878298654392 0.8110307373443908 0 0.7828103453665094 0.69876044407634474 0 0.80987878298654392 0.8110307373443908 0 0.7828103453665094 0.69876044407634474 0 1 0.74999999999934008 0 0.78222494485339233 0.91531439423588867 0 0.80987878298654392 0.8110307373443908 0 0.89611933618281592 0.89173516444576184 0 0.70916369539323409 0.86041409043207073 0 0.78222494485339233 0.91531439423588867 0 0.80987878298654392 0.8110307373443908 0 0.80987878298654392 0.8110307373443908 0 0.89611933618281592 0.89173516444576184 0 1 0.74999999999934008 0 0.84036581271988753 1 0 1 1 0 0.89611933618281592 0.89173516444576184 0 0.84549316180028322 0.59867304496468476 0 1 0.74999999999934008 0 1 0.49999999999869182 0 0.69354174170208815 0.57892485983477626 0 0.84549316180028322 0.59867304496468476 0 0.77935529174931761 0.49004815756283893 0 0.84549316180028322 0.59867304496468476 0 1 0.49999999999869182 0 0.77935529174931761 0.49004815756283893 0 0.69354174170208815 0.57892485983477626 0 0.84549316180028322 0.59867304496468476 0 0.7828103453665094 0.69876044407634474 0 0.84549316180028322 0.59867304496468476 0 0.7828103453665094 0.69876044407634474 0 1 0.74999999999934008 0 1 0.49999999999869182 0 0.77935529174931761 0.49004815756283893 0 0.80451351819826811 0.35479918680564199 0 0.80451351819826811 0.35479918680564199 0 1 0.24999999999941089 0 0.79923457477009219 0.1751534052300894 0 1 0.49999999999869182 0 0.80451351819826811 0.35479918680564199 0 1 0.24999999999941089 0 1 0 0 0.79923457477009219 0.1751534052300894 0 0.74999999999934008 0 0 1 0.24999999999941089 0 1 0 0 0.79923457477009219 0.1751534052300894 0 0.49999999999869182 0 0 0.62537763927714929 0.14286513648320209 0 0.74999999999934008 0 0 0.79923457477009219 0.1751534052300894 0 0.62537763927714929 0.14286513648320209 0 0.6197279975813802 0.30020319976287241 0 0.79923457477009219 0.1751534052300894 0 0.62537763927714929 0.14286513648320209 0 0.74999999999934008 0 0 0.49924741621175961 0.21507969613896921 0 0.49999999999869182 0 0 0.62537763927714929 0.14286513648320209 0 0.49924741621175961 0.21507969613896921 0 0.62537763927714929 0.14286513648320209 0 0.6197279975813802 0.30020319976287241 0 0.49924741621175961 0.21507969613896921 0 0.49435464945626773 0.33318442629318029 0 0.6197279975813802 0.30020319976287241 0 0.49435464945626773 0.33318442629318029 0 0.6197279975813802 0.30020319976287241 0 0.54876010062294855 0.39662628167175101 0 0.6197279975813802 0.30020319976287241 0 0.54876010062294855 0.39662628167175101 0 0.66576775508844777 0.41353720431697111 0 0.49954900152271581 0.45107191084564019 0 0.45418244162583959 0.41624787166862259 0 0.54876010062294855 0.39662628167175101 0 0.49954900152271581 0.45107191084564019 0 0.54876010062294855 0.39662628167175101 0 0.54128967150166729 0.47213012589832831 0 0.49954900152271581 0.45107191084564019 0 0.5 0.5 0 0.54128967150166729 0.47213012589832831 0 0.5 0.5 0 0.52629893369322589 0.51330452493555312 0 0.54128967150166729 0.47213012589832831 0 0.54876010062294855 0.39662628167175101 0 0.54128967150166729 0.47213012589832831 0 0.60345082206666756 0.47575908627627911 0 0.56199650931215228 0.51957997397013023 0 0.54128967150166729 0.47213012589832831 0 0.60345082206666756 0.47575908627627911 0 0.54876010062294855 0.39662628167175101 0 0.60345082206666756 0.47575908627627911 0 0.66576775508844777 0.41353720431697111 0 0.77935529174931761 0.49004815756283893 0 0.80451351819826811 0.35479918680564199 0 0.66576775508844777 0.41353720431697111 0 0.60345082206666756 0.47575908627627911 0 0.66576775508844777 0.41353720431697111 0 0.66681557370681976 0.49435464945626773 0 0.77935529174931761 0.49004815756283893 0 0.66576775508844777 0.41353720431697111 0 0.66681557370681976 0.49435464945626773 0 0.80451351819826811 0.35479918680564199 0 0.79923457477009219 0.1751534052300894 0 0.6197279975813802 0.30020319976287241 0 0.80451351819826811 0.35479918680564199 0 0.6197279975813802 0.30020319976287241 0 0.66576775508844777 0.41353720431697111 0 
</DataArray>
</Points>
<Cells>
<DataArray type="UInt32" Name="connectivity" format="ascii">
0 1 2 3 4 5 6 7 8 9 10 11 12 13 14 15 16 17 18 19 20 21 22 23 24 25 26 27 28 29 30 31 32 33 34 35 36 37 38 39 40 41 42 43 44 45 46 47 48 49 50 51 52 53 54 55 56 57 58 59 60 61 62 63 64 65 66 67 68 69 70 71 72 73 74 75 76 77 78 79 80 81 82 83 84 85 86 87 88 89 90 91 92 93 94 95 96 97 98 99 100 101 102 103 104 105 106 107 108 109 110 111 112 113 114 115 116 117 118 119 120 121 122 123 124 125 126 127 128 129 130 131 132 133 134 135 136 137 138 139 140 141 142 143 144 145 146 147 148 149 150 151 152 153 154 155 156 157 158 159 160 161 162 163 164 165 166 167 168 169 170 171 172 173 174 175 176 177 178 179 180 181 182 183 184 185 186 187 188 189 190 191 192 193 194 195 196 197 198 199 200 201 202 203 204 205 206 207 208 209 210 211 212 213 214 215 216 217 218 219 220 221 222 223 224 225 226 227 228 229 230 231 232 233 234 235 236 237 238 239 240 241 242 243 244 245 246 247 248 249 250 251 252 253 254 255 256 257 258 259 260 261 262 263 264 265 266 267 268 269 270 271 272 273 274 275 276 277 278 279 280 281 282 283 284 285 286 287 288 289 290 291 292 293 294 295 296 297 298 299 300 301 302 303 304 305 306 307 308 309 310 311 312 313 314 315 316 317 318 319 320 321 322 323 324 325 326 327 328 329 330 331 332 333 334 335 336 337 338 339 340 341 342 343 344 345 346 347 348 349 350 351 352 353 354 355 356 357 358 359 360 361 362 363 364 365 366 367 368 369 370 371 372 373 374 375 376 377 378 379 380 381 382 383 384 385 386 387 388 389 390 391 392 393 394 395 396 397 398 399 400 401 402 403 404 405 406 407 408 409 410 411 412 413 414 415 416 417 418 419 420 421 422 423 424 425 426 427 428 429 430 431 432 433 434 435 436 437 438 439 440 441 442 443 444 445 446 447 448 449 450 451 452 453 454 455 456 457 458 459 460 461 462 463 464 465 466 467 468 469 470 471 472 473 474 475 476 477 478 479 480 481 482 483 484 485 486 487 488 489 490 491 492 493 494 495 496 497 498 499 500 501 502 503 504 505 506 507 508 509 510 511 512 513 514 515 516 517 518 519 520 521 522 523 524 525 526 527 528 529 530 531 532 533 534 535 536 537 538 539 540 541 542 543 544 545 546 547 548 549 550 551 552 553 554 555 556 557 558 559 560 561 562 563 564 565 566 567 568 569 570 571 572 573 574 575 576 577 578 579 580 581 582 583 584 585 586 587 588 589 590 591 592 593 594 595 596 597 598 599 600 601 602 603 604 605 606 607 608 609 610 611 612 613 614 615 616 617 618 619 620 621 622 623 624 625 626 627 628 629 630 631 632 633 634 635 636 637 638 639 640 641 642 643 644 645 646 647 648 649 650 651 652 653 654 655 656 657 658 659 660 661 662 663 664 665 666 667 668 669 670 671 672 673 674 675 676 677 678 679 680 681 682 683 684 685 686 687 688 689 690 691 692 693 694 695 696 697 698 699 700 701 702 703 704 705 706 707 708 709 710 711 712 713 714 715 716 717 718 719 720 721 722 723 724 725 726 727 728 729 730 731 732 733 734 735 736 737 738 739 740 741 742 743 744 745 746 747 748 749 750 751 752 753 754 755 756 757 758 759 760 761 762 763 764 765 766 767 768 769 770 771 772 773 774 775 776 777 778 779 780 781 782 783 784 785 786 787 788 789 790 791 792 793 794 795 796 797 798 799 800 801 802 803 804 805 806 807 808 809 810 811 812 813 814 815 816 817 818 819 820 821 822 823 824 825 826 827 828 829 830 831 832 833 834 835 836 837 838 839 840 841 842 843 844 845 846 847 848 849 850 851 852 853 854 855 856 857 858 859 860 861 862 863 864 865 866 867 868 869 870 871 872 873 874 875 876 877 878 879 
</DataArray>
<DataArray type="UInt32" Name="offsets" format="ascii">
3 6 9 12 15 18 21 24 27 30 33 36 39 42 45 48 51 54 57 60 63 66 69 72 75 78 81 84 87 90 93 96 99 102 105 108 111 114 117 120 123 126 129 132 135 138 141 144 147 150 153 156 159 162 165 168 171 174 177 180 183 186 189 192 195 198 201 204 207 210 213 216 219 222 225 228 231 234 237 240 243 246 249 252 255 258 261 264 267 270 273 276 279 282 285 288 291 294 297 300 303 306 309 312 315 318 321 324 327 330 333 336 339 342 345 348 351 354 357 360 363 366 369 372 375 378 381 384 387 390 393 396 399 402 405 408 411 414 417 420 423 425 428 430 433 436 439 442 445 448 451 454 457 460 463 466 469 472 474 477 479 482 485 487 490 493 495 498 501 504 507 510 513 515 518 521 523 526 529 532 535 538 541 544 547 550 553 556 559 562 565 568 571 574 577 580 583 586 589 592 595 597 599 602 605 608 611 614 617 620 623 626 628 631 634 636 639 642 645 648 651 654 657 660 663 666 669 672 675 677 680 683 685 688 691 694 697 700 703 705 708 710 713 716 718 721 724 727 730 733 736 739 742 745 748 751 754 757 760 763 766 769 772 775 778 781 784 787 790 793 796 799 802 805 808 811 814 817 820 823 826 829 832 835 838 841 844 847 850 853 856 859 862 865 868 871 874 877 880 
</DataArray>
<DataArray type="UInt32" Name="types" format="ascii">
5 5 5 5 5 5 5 5 5 5 5 5 5 5 5 5 5 5 5 5 5 5 5 5 5 5 5 5 5 5 5 5 5 5 5 5 5 5 5 5 5 5 5 5 5 5 5 5 5 5 5 5 5 5 5 5 5 5 5 5 5 5 5 5 5 5 5 5 5 5 5 5 5 5 5 5 5 5 5 5 5 5 5 5 5 5 5 5 5 5 5 5 5 5 5 5 5 5 5 5 5 5 5 5 5 5 5 5 5 5 5 5 5 5 5 5 5 5 5 5 5 5 5 5 5 5 5 5 5 5 5 5 5 5 5 5 5 5 5 5 5 3 5 3 5 5 5 5 5 5 5 5 5 5 5 5 5 5 3 5 3 5 5 3 5 5 3 5 5 5 5 5 5 3 5 5 3 5 5 5 5 5 5 5 5 5 5 5 5 5 5 5 5 5 5 5 5 5 5 5 5 3 3 5 5 5 5 5 5 5 5 5 3 5 5 3 5 5 5 5 5 5 5 5 5 5 5 5 5 3 5 5 3 5 5 5 5 5 5 3 5 3 5 5 3 5 5 5 5 5 5 5 5 5 5 5 5 5 5 5 5 5 5 5 5 5 5 5 5 5 5 5 5 5 5 5 5 5 5 5 5 5 5 5 5 5 5 5 5 5 5 5 5 5 5 5 5 5 5 
</DataArray>
</Cells>
<PointData Scalars="" Vectors="displacement," Tensors="">
<DataArray type="Float64" Name="displacement" NumberOfComponents="3" format="ascii">
-1.2044151452869226e-05 4.2984071642121069e-05 0 0.032737985663218089 0.026307862605802125 0 5.4737131809389725e-05 1.8862150821987461e-05 0 -1.2044151452869226e-05 4.2984071642121069e-05 0 0.032737985663218096 0.026307862605802129 0 -0.013496928606210849 0.025676770469450296 0 -0.013496928606210849 0.025676770469450296 0 0.046866220447735876 0.014704564217729765 0 -0.085322328948140486 -0.075374501348140388 0 0.032737985663218089 0.026307862605802125 0 -0.013496928606210849 0.025676770469450296 0 0.046866220447735883 0.014704564217729772 0 0.046866220447735883 0.014704564217729772 0 0.070764582931702347 -0.066748235192166133 0 -0.085322328948140486 -0.075374501348140388 0 0.046866220447735883 0.014704564217729772 0 0.070764582931702347 -0.066748235192166133 0 0.13192845008959156 0.0011732046469623721 0 0.16178048295627087 0.0028920184987839379 0 0.20014810047679046 -0.0075629218783627699 0 0.21131770369382208 -0.0015633034884562111 0 0.16178048295627087 0.0028920184987839379 0 0.21131770369382208 -0.0015633034884562111 0 0.13192845008959156 0.0011732046469623721 0 0.20014810047679046 -0.0075629218783627699 0 0.25047426722413013 -0.00058520241207381382 0 0.21131770369382208 -0.0015633034884562111 0 0.20014810047679046 -0.0075629218783627699 0 0.25047426722413013 -0.00058520241207381035 0 0.21928533059583258 -0.011498647350891502 0 0.25047426722413008 -0.00058520241207381469 0 0.26210371937082361 -0.016349454769890366 0 0.30345487288723416 0.020295600302519361 0 0.25047426722413008 -0.00058520241207381469 0 0.21928533059583258 -0.011498647350891504 0 0.30345487288723416 0.020295600302519361 0 0.25047426722413008 -0.00058520241207381469 0 0.26210371937082361 -0.016349454769890366 0 0.21131770369382208 -0.0015633034884562111 0 0.21131770369382208 -0.0015633034884562111 0 0.16181501494172384 -0.047441984261242652 0 0.23349344758613297 -0.085722506840125529 0 0.21131770369382208 -0.0015633034884562111 0 0.16181501494172384 -0.047441984261242652 0 0.13192845008959156 0.0011732046469623721 0 0.070764582931702347 -0.066748235192166133 0 0.16181501494172384 -0.047441984261242638 0 0.13192845008959156 0.0011732046469623721 0 0.046866220447735883 0.014704564217729772 0 0.13192845008959156 0.0011732046469623721 0 0.10093051052361553 0.014377166734129206 0 0.16178048295627087 0.0028920184987839379 0 0.13192845008959156 0.0011732046469623717 0 0.10093051052361553 0.014377166734129206 0 0.032737985663218089 0.026307862605802125 0 0.046866220447735883 0.014704564217729772 0 0.10093051052361553 0.014377166734129206 0 0.10093051052361553 0.014377166734129206 0 0.13424713784819003 -0.012711130856706871 0 0.057977596221740375 0.0081634140754372718 0 0.16178048295627087 0.0028920184987839379 0 0.10093051052361553 0.014377166734129206 0 0.13424713784819003 -0.012711130856706871 0 0.16178048295627087 0.0028920184987839379 0 0.20014810047679046 -0.0075629218783627708 0 0.13424713784819003 -0.012711130856706871 0 0.057977596221740375 0.0081634140754372718 0 5.4737131809389725e-05 1.8862150821987461e-05 0 8.0640870126134597e-05 -9.0122417183566032e-06 0 0.057977596221740375 0.0081634140754372718 0 8.0640870126134597e-05 -9.0122417183566032e-06 0 0.079135016625585114 -0.01310370976245819 0 0.13424713784819003 -0.012711130856706871 0 0.057977596221740375 0.0081634140754372718 0 0.079135016625585114 -0.01310370976245819 0 0.032737985663218089 0.026307862605802125 0 0.10093051052361553 0.014377166734129206 0 0.057977596221740375 0.0081634140754372718 0 0.032737985663218089 0.026307862605802125 0 0.057977596221740375 0.0081634140754372718 0 5.4737131809389725e-05 1.8862150821987461e-05 0 8.0640870126134597e-05 -9.0122417183566032e-06 0 0.043158500307738303 -0.023166296382210336 0 2.6226379962520197e-05 -2.5962144641436625e-05 0 0.043158500307738303 -0.023166296382210336 0 0.033096254869655124 -0.026458744029817037 0 2.6226379962520197e-05 -2.5962144641436625e-05 0 0.043158500307738303 -0.023166296382210336 0 0.033096254869655124 -0.026458744029817037 0 0.058891008733736691 -0.026038429262903333 0 0.043158500307738303 -0.023166296382210336 0 0.079135016625585114 -0.01310370976245819 0 0.093771113447076324 -0.024156282185325197 0 8.0640870126134597e-05 -9.0122417183566032e-06 0 0.043158500307738323 -0.023166296382210332 0 0.079135016625585114 -0.01310370976245819 0 2.2168720990111206e-05 -1.0759600566510232e-05 0 0.0064600094425299077 -0.013539968457504768 0 2.6226379962520197e-05 -2.5962144641436625e-05 0 2.2168720990111206e-05 -1.0759600566510232e-05 0 0.0064600094425299069 -0.013539968457504766 0 0.0090747837831349227 -0.019383923889603326 0 0.0064600094425299077 -0.013539968457504768 0 2.6226379962520197e-05 -2.5962144641436625e-05 0 0.01528156066017762 -0.020652284477929158 0 0.01528156066017762 -0.020652284477929158 0 0.0097596691065746574 -0.022829746054848742 0 0.023197699857976165 -0.02383040479823147 0 0.033096254869655124 -0.026458744029817037 0 2.6226379962521491e-05 -2.5962144641433572e-05 0 0.01528156066017762 -0.020652284477929158 0 0.033096254869655124 -0.026458744029817037 0 0.01528156066017762 -0.020652284477929158 0 0.023197699857976165 -0.02383040479823147 0 0.0064600094425299077 -0.013539968457504768 0 0.01528156066017762 -0.020652284477929158 0 0.0097596691065746574 -0.022829746054848742 0 0.0064600094425299077 -0.013539968457504768 0 0.0097596691065746574 -0.022829746054848742 0 0.0090747837831349227 -0.019383923889603326 0 0.0097596691065746574 -0.022829746054848742 0 0.0090747837831349227 -0.019383923889603326 0 0.0057672757080755336 -0.020837782198918034 0 0.0021210732987283656 -0.012577106862691307 0 0.0087162913655686527 -0.01697398488244603 0 0.0057672757080755336 -0.020837782198918034 0 0.0021210732987283656 -0.012577106862691307 0 0.0087162913655686527 -0.01697398488244603 0 0.0065050486338155272 -0.0084569105819763263 0 0.0097596691065746574 -0.022829746054848742 0 0.0087162913655686527 -0.01697398488244603 0 0.0057672757080755336 -0.020837782198918034 0 0.0097596691065746574 -0.022829746054848742 0 0.0087162913655686527 -0.01697398488244603 0 0.014889894134126683 -0.018365566232801646 0 0.0087162913655686527 -0.01697398488244603 0 0.012766575502607177 -0.011154668106086283 0 0.0065050486338155272 -0.0084569105819763263 0 0.0087162913655686527 -0.01697398488244603 0 0.014889894134126684 -0.018365566232801649 0 0.012766575502607177 -0.011154668106086283 0 0.0097596691065746574 -0.022829746054848742 0 0.014889894134126683 -0.018365566232801646 0 0.023197699857976165 -0.02383040479823147 0 0.014889894134126683 -0.018365566232801646 0 0.022523341623158489 -0.014409293391564285 0 0.012766575502607177 -0.011154668106086283 0 0.014889894134126683 -0.018365566232801646 0 0.022523341623158489 -0.014409293391564285 0 0.023197699857976165 -0.02383040479823147 0 0.033096254869655124 -0.026458744029817037 0 0.023197699857976165 -0.02383040479823147 0 0.03797314212515724 -0.021630570136260581 0 0.022523341623158489 -0.014409293391564285 0 0.023197699857976165 -0.02383040479823147 0 0.03797314212515724 -0.021630570136260581 0 0.022523341623158489 -0.014409293391564285 0 0.03582235293331297 -0.010393794860211535 0 0.03797314212515724 -0.021630570136260581 0 0.022523341623158489 -0.014409293391564285 0 0.03582235293331297 -0.010393794860211535 0 0.025113261953735363 -0.0027918435972425818 0 0.03582235293331297 -0.010393794860211535 0 0.025113261953735363 -0.0027918435972425796 0 0.03327766155422162 0.0014787198495701589 0 0.03582235293331297 -0.010393794860211535 0 0.03327766155422162 0.0014787198495701589 0 0.047375902615266224 -0.0018734496945775629 0 0.03327766155422162 0.0014787198495701589 0 0.03270523717516307 0.0092987377718347971 0 0.039759585088011029 0.0092662050048110556 0 0.03270523717516307 0.0092987377718347971 0 0.039759585088011029 0.0092662050048110556 0 0.036272867826144188 0.015887552963080052 0 0.03270523717516307 0.0092987377718347971 0 0.029502708301948472 0.013258540863932897 0 0.036272867826144188 0.015887552963080052 0 0.026389059032209762 0.0062835039115776859 0 0.023917026889039131 0.011137006095386162 0 0.029502708301948472 0.013258540863932897 0 0.03270523717516307 0.0092987377718347971 0 0.026389059032209762 0.0062835039115776859 0 0.029502708301948472 0.013258540863932897 0 0.03327766155422162 0.0014787198495701589 0 0.032705237175163077 0.0092987377718347988 0 0.026389059032209762 0.0062835039115776859 0 0.025113261953735363 -0.0027918435972425818 0 0.03327766155422162 0.0014787198495701589 0 0.026389059032209762 0.0062835039115776859 0 0.025113261953735363 -0.0027918435972425818 0 0.026389059032209759 0.0062835039115776859 0 0.020879904581904366 0.0034715450486498037 0 0.025113261953735363 -0.0027918435972425818 0 0.020879904581904363 0.0034715450486498055 0 0.01663852320254092 -0.002967355365704387 0 0.020879904581904366 0.0034715450486498037 0 0.019234560004099416 0.009600731206824361 0 0.023917026889039131 0.011137006095386162 0 0.026389059032209762 0.0062835039115776859 0 0.020879904581904366 0.0034715450486498037 0 0.023917026889039131 0.011137006095386162 0 0.020879904581904366 0.0034715450486498037 0 0.016894371277176096 0.0042273103002858792 0 0.019234560004099416 0.009600731206824361 0 0.016894371277176096 0.0042273103002858792 0 0.01516241519190179 0.0083578212267631027 0 0.019234560004099416 0.009600731206824361 0 0.020879904581904366 0.0034715450486498037 0 0.016894371277176096 0.0042273103002858792 0 0.01663852320254092 -0.002967355365704387 0 0.022523341623158489 -0.014409293391564285 0 0.01663852320254092 -0.002967355365704387 0 0.012766575502607177 -0.011154668106086283 0 0.022523341623158489 -0.014409293391564285 0 0.025113261953735363 -0.0027918435972425831 0 0.01663852320254092 -0.002967355365704387 0 0.012766575502607177 -0.011154668106086283 0 0.010083733212466448 -0.0032576211556450407 0 0.0065050486338155272 -0.0084569105819763263 0 0.01663852320254092 -0.002967355365704387 0 0.012766575502607177 -0.011154668106086283 0 0.010083733212466448 -0.0032576211556450407 0 0.016894371277176096 0.0042273103002858792 0 0.01663852320254092 -0.002967355365704387 0 0.013165708526635258 0.0021510726521321534 0 0.01663852320254092 -0.002967355365704387 0 0.010083733212466446 -0.003257621155645042 0 0.013165708526635258 0.0021510726521321534 0 0.016894371277176096 0.0042273103002858792 0 0.013165708526635258 0.0021510726521321534 0 0.01516241519190179 0.0083578212267631027 0 0.013165708526635258 0.0021510726521321534 0 0.011307142444431413 0.0075901682321992698 0 0.01516241519190179 0.0083578212267631027 0 0.013165708526635258 0.0021510726521321534 0 0.0091610649155088528 0.0030400419337279897 0 0.011307142444431413 0.0075901682321992698 0 0.0091610649155088528 0.0030400419337279897 0 0.0076754477095601426 0.0071278347094992419 0 0.011307142444431413 0.0075901682321992698 0 0.010083733212466448 -0.0032576211556450407 0 0.013165708526635258 0.0021510726521321534 0 0.0091610649155088528 0.0030400419337279897 0 0.0091610649155088528 0.0030400419337279897 0 0.0047799173179629258 -0.0004014373071192314 0 0.0057809901573917738 0.0037454792920687896 0 0.010083733212466448 -0.0032576211556450407 0 0.0091610649155088528 0.0030400419337279897 0 0.0047799173179629258 -0.00040143730711923042 0 0.0047799173179629258 -0.00040143730711923042 0 0.0057809901573917738 0.0037454792920687896 0 0.0029021810234421659 0.0039974068080405331 0 0.0091610649155088528 0.0030400419337279897 0 0.0057809901573917738 0.0037454792920687901 0 0.0076754477095601426 0.0071278347094992419 0 0.0057809901573917738 0.0037454792920687896 0 0.0029021810234421659 0.0039974068080405331 0 0.0039240033667665231 0.0069775119999592843 0 0.0057809901573917738 0.0037454792920687896 0 0.0039240033667665231 0.0069775119999592843 0 0.0076754477095601426 0.0071278347094992419 0 0.0029021810234421659 0.0039974068080405331 0 2.0419955147481177e-05 0.0024516251396727558 0 -4.1940745323233579e-06 0.0069589638577379114 0 0.0029021810234421659 0.0039974068080405331 0 0.0039240033667665231 0.0069775119999592834 0 -4.1940745323233579e-06 0.0069589638577379114 0 0.0047799173179629258 -0.00040143730711923042 0 0.0029021810234421659 0.0039974068080405331 0 2.0419955147481268e-05 0.0024516251396727554 0 0.0047799173179629258 -0.00040143730711923042 0 2.0419955147481268e-05 0.0024516251396727554 0 0.00043017410361662035 -0.0041057404056139323 0 0.0047799173179629258 -0.00040143730711923042 0 0.00043017410361662051 -0.0041057404056139331 0 0.0065050486338155272 -0.0084569105819763263 0 0.010083733212466448 -0.0032576211556450407 0 0.0047799173179629258 -0.00040143730711923042 0 0.0065050486338155272 -0.0084569105819763263 0 0.0021210732987283656 -0.012577106862691307 0 0.00043017410361662035 -0.0041057404056139323 0 0.0065050486338155272 -0.0084569105819763263 0 0.093771113447076324 -0.024156282185325197 0 0.086686440634990508 -0.020929044556012261 0 0.14681516231789485 -0.020374341789614194 0 0.13424713784819003 -0.012711130856706871 0 0.093771113447076324 -0.024156282185325197 0 0.14681516231789485 -0.020374341789614194 0 0.13424713784819003 -0.012711130856706871 0 0.0791350166255851 -0.013103709762458192 0 0.093771113447076324 -0.024156282185325197 0 0.043158500307738303 -0.023166296382210336 0 0.093771113447076324 -0.024156282185325197 0 0.058891008733736691 -0.026038429262903333 0 0.033096254869655124 -0.026458744029817037 0 0.03797314212515724 -0.021630570136260581 0 0.058891008733736691 -0.026038429262903333 0 0.03582235293331297 -0.010393794860211535 0 0.03797314212515724 -0.021630570136260581 0 0.05633390806418908 -0.016337667620642725 0 0.03797314212515724 -0.021630570136260581 0 0.058891008733736691 -0.026038429262903336 0 0.05633390806418908 -0.016337667620642725 0 0.093771113447076324 -0.024156282185325197 0 0.058891008733736691 -0.026038429262903333 0 0.086686440634990494 -0.020929044556012261 0 0.058891008733736691 -0.026038429262903333 0 0.086686440634990494 -0.020929044556012261 0 0.05633390806418908 -0.016337667620642725 0 0.086686440634990494 -0.020929044556012261 0 0.05633390806418908 -0.016337667620642725 0 0.071683580503277208 -0.0018453592146313231 0 0.086686440634990494 -0.020929044556012261 0 0.071683580503277208 -0.0018453592146313216 0 0.10470868779233074 -0.001621642499718935 0 0.03582235293331297 -0.010393794860211535 0 0.05633390806418908 -0.016337667620642725 0 0.047375902615266224 -0.0018734496945775629 0 0.05633390806418908 -0.016337667620642725 0 0.047375902615266224 -0.0018734496945775618 0 0.071683580503277208 -0.0018453592146313231 0 0.047375902615266224 -0.0018734496945775629 0 0.048572777590708466 0.011903136779504962 0 0.039759585088011029 0.0092662050048110556 0 0.03327766155422162 0.0014787198495701589 0 0.047375902615266224 -0.0018734496945775629 0 0.039759585088011029 0.0092662050048110556 0 0.047375902615266224 -0.0018734496945775629 0 0.057393851196666505 0.0081849311413672247 0 0.071683580503277208 -0.0018453592146313231 0 0.047375902615266224 -0.0018734496945775629 0 0.057393851196666505 0.0081849311413672247 0 0.048572777590708466 0.011903136779504964 0 0.057393851196666505 0.0081849311413672247 0 0.048572777590708466 0.011903136779504966 0 0.054606969568746097 0.021967329326178585 0 0.057393851196666505 0.0081849311413672247 0 0.066514923211528298 0.024830315522792367 0 0.054606969568746097 0.021967329326178585 0 0.048572777590708466 0.011903136779504964 0 0.044417666269159016 0.018663215991694775 0 0.054606969568746097 0.021967329326178585 0 0.039759585088011029 0.0092662050048110556 0 0.044417666269159016 0.018663215991694775 0 0.036272867826144188 0.015887552963080052 0 0.048572777590708466 0.011903136779504964 0 0.039759585088011029 0.0092662050048110556 0 0.044417666269159016 0.018663215991694775 0 0.071683580503277208 -0.0018453592146313231 0 0.072267548967832801 0.0141895615417706 0 0.08899123992542439 0.013384549278019168 0 0.071683580503277208 -0.0018453592146313231 0 0.08899123992542439 0.013384549278019166 0 0.10470868779233074 -0.001621642499718935 0 0.057393851196666505 0.0081849311413672247 0 0.071683580503277208 -0.0018453592146313261 0 0.072267548967832801 0.0141895615417706 0 0.057393851196666505 0.0081849311413672247 0 0.072267548967832801 0.0141895615417706 0 0.066514923211528298 0.024830315522792367 0 0.072267548967832801 0.0141895615417706 0 0.081488226125632182 0.028457847438818507 0 0.066514923211528298 0.024830315522792367 0 0.072267548967832801 0.0141895615417706 0 0.08899123992542439 0.013384549278019168 0 0.081488226125632182 0.028457847438818507 0 0.08899123992542439 0.013384549278019168 0 0.099819104074529555 0.031460012926937723 0 0.081488226125632182 0.028457847438818507 0 0.10870272127408219 0.015959712565288577 0 0.12394639993827725 0.03469720089490945 0 0.099819104074529555 0.031460012926937723 0 0.08899123992542439 0.013384549278019168 0 0.10870272127408219 0.015959712565288577 0 0.099819104074529555 0.031460012926937723 0 0.13457292834419865 0.0067509677694972958 0 0.1552772167388459 0.035343858106480081 0 0.12394639993827725 0.03469720089490945 0 0.10870272127408219 0.015959712565288577 0 0.13457292834419865 0.0067509677694972958 0 0.12394639993827725 0.03469720089490945 0 0.13457292834419865 0.0067509677694972958 0 0.10470868779233074 -0.001621642499718935 0 0.14681516231789485 -0.020374341789614194 0 0.10870272127408219 0.015959712565288577 0 0.13457292834419865 0.0067509677694972958 0 0.10470868779233074 -0.001621642499718935 0 0.08899123992542439 0.013384549278019168 0 0.10870272127408219 0.015959712565288577 0 0.10470868779233074 -0.001621642499718935 0 0.086686440634990494 -0.020929044556012261 0 0.10470868779233074 -0.0016216424997189392 0 0.14681516231789485 -0.020374341789614194 0 0.20014810047679046 -0.0075629218783627699 0 0.13424713784819003 -0.012711130856706871 0 0.14681516231789485 -0.020374341789614194 0 0.20014810047679046 -0.0075629218783627699 0 0.14681516231789485 -0.020374341789614194 0 0.21928533059583258 -0.011498647350891502 0 0.14681516231789485 -0.020374341789614194 0 0.21928533059583258 -0.011498647350891502 0 0.16945979148352483 0.0031307695232292644 0 0.13457292834419865 0.0067509677694972958 0 0.14681516231789485 -0.020374341789614194 0 0.16945979148352483 0.0031307695232292644 0 0.13457292834419865 0.0067509677694972958 0 0.16945979148352483 0.0031307695232292644 0 0.1552772167388459 0.035343858106480081 0 0.16945979148352483 0.0031307695232292644 0 0.20119563841311405 0.031669706913298325 0 0.1552772167388459 0.035343858106480081 0 0.21928533059583258 -0.011498647350891502 0 0.16945979148352483 0.0031307695232292692 0 0.20119563841311405 0.031669706913298325 0 0.21928533059583258 -0.011498647350891502 0 0.30345487288723416 0.020295600302519354 0 0.20119563841311405 0.031669706913298325 0 0.45894387307061985 0.048372970966353977 0 0.39417403140831697 -0.040687142721370299 0 0.51525527392294168 -0.029566782608509111 0 0.30345487288723416 0.020295600302519361 0 0.45894387307061979 0.048372970966353977 0 0.39417403140831697 -0.040687142721370299 0 0.30606914555924064 0.070713542638578389 0 0.33050498328428957 0.072616627048600016 0 0.45894387307061985 0.048372970966353977 0 0.56216369744344863 0.060634549314253113 0 0.51525527392294168 -0.029566782608509111 0 0.33050498328428957 0.072616627048600016 0 0.35915132917074716 0.069978936820185106 0 0.56216369744344863 0.060634549314253113 0 0.51525527392294179 -0.029566782608509118 0 0.60841188684224234 -0.00062212108973521806 0 0.51525527392294168 -0.029566782608509111 0 0.4445162658713811 -0.10587840150259079 0 0.61259237033460467 -0.089225867870807177 0 0.39417403140831697 -0.040687142721370299 0 0.4445162658713811 -0.10587840150259079 0 0.31733309128816167 -0.066503297106699527 0 0.39417403140831697 -0.040687142721370299 0 0.51525527392294168 -0.029566782608509111 0 0.4445162658713811 -0.10587840150259079 0 0.4445162658713811 -0.10587840150259079 0 0.53138727134429031 -0.1976123018601981 0 0.37518633909075877 -0.1742237260303735 0 0.4445162658713811 -0.10587840150259079 0 0.53138727134429031 -0.1976123018601981 0 0.61259237033460467 -0.089225867870807177 0 0.53138727134429031 -0.1976123018601981 0 0.71199390904875959 -0.1933793118786831 0 0.61259237033460467 -0.089225867870807177 0 0.71199390904875959 -0.1933793118786831 0 0.61259237033460467 -0.089225867870807177 0 0.77686829314404915 -0.071656224604971369 0 0.61259237033460467 -0.089225867870807177 0 0.6923035981891914 -0.0045371495479947762 0 0.77686829314404915 -0.071656224604971369 0 0.6923035981891914 -0.0045371495479947762 0 0.77194619795976926 0.015301949602704789 0 0.77686829314404915 -0.071656224604971369 0 0.51525527392294168 -0.029566782608509111 0 0.61259237033460467 -0.089225867870807163 0 0.60841188684224234 -0.00062212108973521806 0 0.61259237033460467 -0.089225867870807177 0 0.60841188684224234 -0.00062212108973521806 0 0.6923035981891914 -0.0045371495479947762 0 0.60841188684224234 -0.00062212108973521806 0 0.6509529880145527 0.066293189078599227 0 0.6923035981891914 -0.0045371495479947762 0 0.56216369744344863 0.060634549314253113 0 0.60841188684224223 -0.00062212108973521861 0 0.6509529880145527 0.066293189078599227 0 0.35915132917074716 0.069978936820185106 0 0.38782601687704205 0.069294669772669099 0 0.6923035981891914 -0.0045371495479947762 0 0.73124682130887164 0.071141147314604206 0 0.77194619795976926 0.015301949602704796 0 0.38782601687704205 0.069294669772669099 0 0.41598338405517821 0.068148226420136515 0 0.6509529880145527 0.066293189078599227 0 0.69230359818919152 -0.0045371495479947753 0 0.73124682130887164 0.071141147314604219 0 0.73124682130887164 0.071141147314604219 0 0.77194619795976926 0.015301949602704796 0 0.80863325011042031 0.073807236838361254 0 0.41598338405517821 0.068148226420136515 0 0.44536195036084886 0.066720597464847958 0 0.77194619795976926 0.015301949602704796 0 0.80863325011042031 0.073807236838361254 0 0.84798481268374315 0.0072898097224704641 0 0.80863325011042031 0.073807236838361254 0 0.88227237341655584 0.076151222854733733 0 0.84798481268374315 0.0072898097224704641 0 0.44536195036084886 0.066720597464847958 0 0.47471408442349849 0.06514127425001702 0 0.88227237341655584 0.076151222854733733 0 0.84798481268374315 0.0072898097224704641 0 0.91979914265380602 0.023883990934496502 0 0.84798481268374315 0.0072898097224704641 0 0.91979914265380602 0.023883990934496502 0 0.9264347372675753 -0.061580773279193243 0 0.84798481268374315 0.0072898097224704641 0 0.77686829314404915 -0.071656224604971369 0 0.9264347372675753 -0.061580773279193243 0 0.77194619795976926 0.015301949602704796 0 0.84798481268374315 0.0072898097224704641 0 0.77686829314404915 -0.071656224604971369 0 1.0242948097670901 0.07911340648775908 0 0.98878787794557021 0.017947733163414761 0 1.0619495705379065 0.029980800213881689 0 1.0242948097670901 0.07911340648775908 0 0.98878787794557021 0.017947733163414761 0 0.95412663102735717 0.077700614256715164 0 0.53461866195346264 0.062309120967395638 0 0.50461220983703836 0.06373585902782708 0 0.98878787794557021 0.017947733163414761 0 0.95412663102735717 0.07770061425671515 0 0.91979914265380602 0.023883990934496502 0 0.88227237341655584 0.076151222854733733 0 0.95412663102735717 0.07770061425671515 0 0.91979914265380602 0.023883990934496502 0 0.47471408442349849 0.06514127425001702 0 0.50461220983703836 0.06373585902782708 0 0.98878787794557021 0.017947733163414761 0 0.91979914265380602 0.023883990934496498 0 0.9264347372675753 -0.061580773279193243 0 0.98878787794557021 0.017947733163414761 0 1.0619495705379065 0.029980800213881695 0 1.0711418264115073 -0.046489670380080748 0 0.98878787794557021 0.017947733163414761 0 0.9264347372675753 -0.061580773279193243 0 1.0711418264115073 -0.046489670380080748 0 0.9264347372675753 -0.061580773279193243 0 1.002934806990238 -0.16928113010697154 0 1.0711418264115073 -0.046489670380080748 0 0.9264347372675753 -0.061580773279193243 0 1.002934806990238 -0.16928113010697152 0 0.86507155080718101 -0.15921410305378775 0 0.71199390904875959 -0.1933793118786831 0 0.77686829314404915 -0.071656224604971369 0 0.86507155080718101 -0.15921410305378775 0 0.77686829314404915 -0.071656224604971369 0 0.9264347372675753 -0.061580773279193243 0 0.86507155080718101 -0.15921410305378775 0 0.71199390904875959 -0.1933793118786831 0 0.86507155080718101 -0.15921410305378778 0 0.90266079009716638 -0.292177685955823 0 1.002934806990238 -0.16928113010697154 0 0.90266079009716638 -0.292177685955823 0 1.1044627398250855 -0.32001937156425886 0 1.002934806990238 -0.16928113010697154 0 0.86507155080718101 -0.15921410305378775 0 0.90266079009716638 -0.292177685955823 0 0.90266079009716638 -0.292177685955823 0 1.1044627398250855 -0.32001937156425886 0 0.95050485448295108 -0.5190212502174657 0 0.90266079009716638 -0.292177685955823 0 0.6521183242690316 -0.3473040867130609 0 0.95050485448295108 -0.5190212502174657 0 0.6521183242690316 -0.3473040867130609 0 0.4980867576547533 -0.48443641728714482 0 0.45484688736155371 -0.28877761551556136 0 0.53138727134429031 -0.1976123018601981 0 0.6521183242690316 -0.34730408671306096 0 0.45484688736155371 -0.28877761551556136 0 0.53138727134429031 -0.1976123018601981 0 0.37518633909075877 -0.1742237260303735 0 0.45484688736155371 -0.28877761551556136 0 0.53138727134429031 -0.1976123018601981 0 0.71199390904875959 -0.1933793118786831 0 0.6521183242690316 -0.3473040867130609 0 0.71199390904875959 -0.1933793118786831 0 0.90266079009716638 -0.292177685955823 0 0.6521183242690316 -0.3473040867130609 0 1.5107238737879931 -0.14448579367492223 0 1.6249218776126055 -0.092100322468270351 0 1.624674926623227 -0.22692605457005721 0 1.5107238737879931 -0.14448579367492223 0 1.5604871007980279 -0.039438000123598778 0 1.4799655992416583 -0.04546579262515793 0 1.5107238737879931 -0.14448579367492223 0 1.6249218776126058 -0.092100322468270351 0 1.5604871007980281 -0.039438000123598792 0 1.6249218776126058 -0.092100322468270351 0 1.6252355544586736 0.0072903030742630668 0 1.5604871007980281 -0.039438000123598792 0 1.6252355544586736 0.0072903030742630668 0 1.5604871007980281 -0.039438000123598792 0 1.5790507894681518 0.031317914401444498 0 1.6252355544586736 0.0072903030742630668 0 1.5790507894681518 0.031317914401444498 0 1.6252865378804691 0.079900558194436658 0 1.5790507894681518 0.031317914401444498 0 1.5601389384320496 0.079940898231760552 0 1.6252865378804691 0.079900558194436658 0 0.7838444187730953 0.053409731193250064 0 0.80434794338708315 -0.21748766400264175 0 0.7838444187730953 0.053409731193250064 0 0.75091472158606232 0.055376113146276239 0 1.5601389384320496 0.079940898231760552 0 1.4949543681739164 0.0801014588287315 0 1.525475388436571 0.023277109545042161 0 1.5790507894681518 0.031317914401444498 0 1.5601389384320496 0.079940898231760552 0 1.525475388436571 0.023277109545042161 0 1.4949543681739164 0.0801014588287315 0 1.525475388436571 0.023277109545042168 0 1.4658331455928597 0.032347981861379299 0 1.5604871007980281 -0.039438000123598792 0 1.525475388436571 0.023277109545042161 0 1.4799655992416583 -0.04546579262515793 0 1.5604871007980281 -0.039438000123598792 0 1.579050789468152 0.031317914401444498 0 1.525475388436571 0.023277109545042161 0 1.525475388436571 0.023277109545042161 0 1.4799655992416583 -0.04546579262515793 0 1.4658331455928597 0.032347981861379299 0 1.4799655992416583 -0.04546579262515793 0 1.3971310468647036 0.013726484774633793 0 1.3975653316829726 -0.086885292490912522 0 1.4799655992416583 -0.04546579262515793 0 1.4658331455928597 0.032347981861379299 0 1.3971310468647036 0.013726484774633793 0 1.4658331455928597 0.032347981861379299 0 1.4294799756537562 0.080406302781897754 0 1.3971310468647036 0.013726484774633793 0 0.75091472158606232 0.055376113146276239 0 0.72049667854557664 0.055829238074308299 0 1.4949543681739164 0.0801014588287315 0 1.4658331455928597 0.032347981861379299 0 1.4294799756537562 0.080406302781897754 0 1.4294799756537562 0.080406302781897754 0 1.3635276587706204 0.080669258820543585 0 1.3971310468647036 0.013726484774633793 0 0.72049667854557664 0.055829238074308299 0 0.68936255466804841 0.056489479372803797 0 1.3635276587706204 0.080669258820543585 0 1.3971310468647036 0.013726484774633788 0 1.3303234736548279 0.035845256523068698 0 1.3971310468647036 0.013726484774633793 0 1.3975653316829726 -0.086885292490912522 0 1.3128101330750541 -0.027252074428415981 0 1.5107238737879931 -0.14448579367492223 0 1.4799655992416583 -0.04546579262515793 0 1.3975653316829726 -0.086885292490912522 0 1.5107238737879931 -0.14448579367492223 0 1.3975653316829726 -0.086885292490912522 0 1.3799681606344065 -0.21608369274985709 0 1.3975653316829726 -0.086885292490912522 0 1.2860967979264899 -0.12050116612074564 0 1.3799681606344065 -0.21608369274985709 0 1.2860967979264899 -0.12050116612074564 0 1.2467560754618505 -0.23245664427313151 0 1.3799681606344065 -0.21608369274985709 0 1.2860967979264899 -0.12050116612074564 0 1.1496289186779904 -0.14642736253051233 0 1.2467560754618505 -0.23245664427313154 0 1.2860967979264899 -0.12050116612074564 0 1.3128101330750541 -0.027252074428415981 0 1.2007343748260872 -0.03775628767874583 0 1.2860967979264899 -0.12050116612074564 0 1.2007343748260872 -0.03775628767874583 0 1.1496289186779904 -0.14642736253051233 0 1.3975653316829726 -0.086885292490912522 0 1.2860967979264899 -0.12050116612074563 0 1.3128101330750541 -0.027252074428415981 0 1.3971310468647036 0.013726484774633793 0 1.3128101330750539 -0.02725207442841597 0 1.3303234736548279 0.035845256523068698 0 1.3128101330750541 -0.027252074428415981 0 1.3303234736548279 0.035845256523068698 0 1.2613244801761636 0.026474349111198503 0 1.3303234736548279 0.035845256523068698 0 1.2969648035770138 0.080900132947685929 0 1.2613244801761636 0.026474349111198503 0 0.68936255466804841 0.056489479372803797 0 0.65817857380993505 0.057356922385310503 0 1.3635276587706204 0.080669258820543585 0 1.3303234736548279 0.035845256523068698 0 1.2969648035770138 0.080900132947685929 0 1.2299238759951587 0.080896727486910722 0 1.2613244801761636 0.026474349111198503 0 1.1971294230070129 0.034016323086164951 0 0.65817857380993505 0.057356922385310503 0 0.62702462889264876 0.05838902536338425 0 1.2969648035770138 0.080900132947685929 0 1.2299238759951587 0.080896727486910708 0 1.2613244801761636 0.026474349111198503 0 1.2613244801761636 0.026474349111198503 0 1.2007343748260872 -0.03775628767874583 0 1.1971294230070129 0.034016323086164951 0 1.3128101330750541 -0.027252074428415981 0 1.2613244801761636 0.026474349111198503 0 1.2007343748260872 -0.03775628767874583 0 1.2007343748260872 -0.03775628767874583 0 1.1971294230070129 0.034016323086164951 0 1.1305998753047928 0.020419853126411282 0 1.2007343748260872 -0.03775628767874583 0 1.1305998753047928 0.020419853126411269 0 1.0711418264115073 -0.046489670380080748 0 1.1971294230070129 0.034016323086164951 0 1.1620772531280357 0.08069940406956469 0 1.1305998753047928 0.020419853126411282 0 0.62702462889264876 0.05838902536338425 0 0.5959607386874779 0.059617040919757447 0 1.2299238759951587 0.080896727486910722 0 1.1971294230070129 0.034016323086164951 0 1.1620772531280357 0.08069940406956469 0 0.53461866195346264 0.062309120967395638 0 0.56515478651752382 0.06093192692731042 0 1.0242948097670901 0.07911340648775908 0 1.0936434960654646 0.080035496485908283 0 1.0619495705379065 0.029980800213881689 0 1.1620772531280357 0.08069940406956469 0 1.0936434960654646 0.080035496485908283 0 1.1305998753047928 0.020419853126411282 0 0.5959607386874779 0.059617040919757447 0 0.56515478651752382 0.06093192692731042 0 1.0936434960654646 0.080035496485908283 0 1.1305998753047928 0.020419853126411279 0 1.0619495705379065 0.029980800213881689 0 1.1305998753047928 0.020419853126411282 0 1.0619495705379065 0.029980800213881689 0 1.0711418264115073 -0.046489670380080748 0 1.002934806990238 -0.16928113010697154 0 1.0711418264115073 -0.046489670380080721 0 1.1496289186779904 -0.14642736253051233 0 1.2007343748260872 -0.03775628767874583 0 1.0711418264115073 -0.046489670380080741 0 1.1496289186779904 -0.14642736253051233 0 1.1044627398250855 -0.32001937156425886 0 1.3178461433937585 -0.37601844807307067 0 1.2144098832872972 -0.58174202326842661 0 1.002934806990238 -0.16928113010697154 0 1.1496289186779904 -0.14642736253051236 0 1.1044627398250855 -0.32001937156425886 0 1.1496289186779904 -0.14642736253051233 0 1.1044627398250855 -0.32001937156425886 0 1.2467560754618505 -0.23245664427313154 0 1.3178461433937585 -0.37601844807307067 0 1.2467560754618505 -0.23245664427313154 0 1.3799681606344065 -0.21608369274985709 0 1.1044627398250855 -0.32001937156425886 0 1.3178461433937585 -0.37601844807307067 0 1.2467560754618505 -0.23245664427313154 0 1.3178461433937585 -0.37601844807307067 0 1.4871779101247784 -0.31798385621551989 0 1.3799681606344065 -0.21608369274985709 0 1.5107238737879931 -0.14448579367492223 0 1.4871779101247784 -0.31798385621551989 0 1.3799681606344065 -0.21608369274985709 0 1.3178461433937585 -0.37601844807307067 0 1.4871779101247784 -0.31798385621551989 0 1.4462795119029475 -0.52778229509370789 0 1.4871779101247784 -0.31798385621551989 0 1.6262270684201825 -0.40771890696144381 0 1.4462795119029475 -0.52778229509370789 0 1.5107238737879931 -0.14448579367492223 0 1.4871779101247784 -0.31798385621551989 0 1.624674926623227 -0.22692605457005721 0 1.4871779101247784 -0.31798385621551989 0 1.6262270684201825 -0.40771890696144381 0 1.624674926623227 -0.22692605457005721 0 1.6660331786420612 -0.99608431783172768 0 1.4061702262686016 -0.76337787936408752 0 1.1085586776140746 -0.96360636881074779 0 1.6262270684201825 -0.40771890696144381 0 1.6367000349055258 -0.65128745043195946 0 1.4462795119029475 -0.52778229509370789 0 1.6367000349055258 -0.65128745043195935 0 1.4462795119029475 -0.52778229509370789 0 1.4061702262686016 -0.76337787936408752 0 1.1044627398250855 -0.32001937156425886 0 1.2144098832872972 -0.58174202326842661 0 0.95050485448295108 -0.5190212502174657 0 1.2144098832872972 -0.58174202326842661 0 0.95050485448295108 -0.5190212502174657 0 1.1085586776140746 -0.96360636881074779 0 1.4462795119029475 -0.52778229509370789 0 1.2144098832872972 -0.58174202326842661 0 1.4061702262686016 -0.76337787936408752 0 1.3178461433937585 -0.37601844807307067 0 1.4462795119029475 -0.52778229509370789 0 1.2144098832872972 -0.58174202326842661 0 1.2144098832872972 -0.58174202326842661 0 1.4061702262686016 -0.76337787936408752 0 1.1085586776140746 -0.96360636881074779 0 1.6367000349055258 -0.65128745043195935 0 1.6660331786420612 -0.99608431783172768 0 1.4061702262686016 -0.76337787936408752 0 0.73935149064626171 -0.62468954349714634 0 1.1085586776140746 -0.96360636881074779 0 0.58267873275021753 -0.87538702888114484 0 0.6521183242690316 -0.3473040867130609 0 0.73935149064626171 -0.62468954349714634 0 0.4980867576547533 -0.48443641728714482 0 0.73935149064626171 -0.62468954349714634 0 0.58267873275021753 -0.87538702888114484 0 0.4980867576547533 -0.48443641728714482 0 0.6521183242690316 -0.3473040867130609 0 0.73935149064626171 -0.62468954349714634 0 0.95050485448295108 -0.5190212502174657 0 0.73935149064626171 -0.62468954349714634 0 0.95050485448295108 -0.5190212502174657 0 1.1085586776140746 -0.96360636881074779 0 0.58267873275021753 -0.87538702888114484 0 0.4980867576547533 -0.48443641728714482 0 0.28646712797163043 -0.49392445035184368 0 0.28646712797163043 -0.49392445035184368 0 0.2011265344514315 -0.77422319119727823 0 0.065902205730282201 -0.45706500064245797 0 0.58267873275021753 -0.87538702888114484 0 0.28646712797163043 -0.49392445035184368 0 0.2011265344514315 -0.77422319119727823 0 -0.12546425492970203 -0.7360745514553011 0 0.065902205730282201 -0.45706500064245797 0 -0.14867343737613298 -0.37693037363349063 0 0.2011265344514315 -0.77422319119727823 0 -0.12546425492970203 -0.7360745514553011 0 0.065902205730282201 -0.45706500064245797 0 -0.085322328948140486 -0.075374501348140388 0 0.017067112805266273 -0.20438397380484835 0 -0.14867343737613298 -0.37693037363349063 0 0.065902205730282201 -0.45706500064245797 0 0.017067112805266273 -0.20438397380484835 0 0.16189406545820983 -0.19026884552017273 0 0.065902205730282201 -0.45706500064245797 0 0.017067112805266273 -0.20438397380484835 0 -0.14867343737613298 -0.37693037363349063 0 0.070764582931702347 -0.066748235192166133 0 -0.085322328948140486 -0.075374501348140388 0 0.017067112805266273 -0.20438397380484835 0 0.070764582931702347 -0.066748235192166133 0 0.017067112805266273 -0.20438397380484835 0 0.16189406545820983 -0.19026884552017273 0 0.070764582931702347 -0.066748235192166133 0 0.16181501494172384 -0.047441984261242652 0 0.16189406545820983 -0.19026884552017273 0 0.16181501494172384 -0.047441984261242652 0 0.16189406545820983 -0.19026884552017273 0 0.23349344758613297 -0.085722506840125529 0 0.16189406545820983 -0.19026884552017273 0 0.23349344758613294 -0.085722506840125515 0 0.31610841816841767 -0.27200276389680428 0 0.26210371937082361 -0.016349454769890366 0 0.21131770369382208 -0.0015633034884562111 0 0.23349344758613297 -0.085722506840125529 0 0.26210371937082361 -0.016349454769890366 0 0.23349344758613297 -0.085722506840125529 0 0.31733309128816167 -0.066503297106699527 0 0.26210371937082361 -0.016349454769890366 0 0.30345487288723416 0.020295600302519361 0 0.31733309128816167 -0.066503297106699527 0 0.30345487288723416 0.020295600302519361 0 0.39417403140831697 -0.040687142721370299 0 0.31733309128816167 -0.066503297106699527 0 0.23349344758613297 -0.085722506840125529 0 0.31733309128816167 -0.066503297106699527 0 0.37518633909075877 -0.1742237260303735 0 0.4445162658713811 -0.10587840150259079 0 0.31733309128816167 -0.066503297106699527 0 0.37518633909075877 -0.1742237260303735 0 0.23349344758613297 -0.085722506840125529 0 0.37518633909075877 -0.1742237260303735 0 0.31610841816841767 -0.27200276389680428 0 0.4980867576547533 -0.48443641728714482 0 0.28646712797163043 -0.49392445035184368 0 0.31610841816841767 -0.27200276389680428 0 0.37518633909075877 -0.1742237260303735 0 0.31610841816841767 -0.27200276389680428 0 0.45484688736155371 -0.28877761551556136 0 0.4980867576547533 -0.48443641728714482 0 0.31610841816841767 -0.27200276389680428 0 0.45484688736155371 -0.28877761551556136 0 0.28646712797163043 -0.49392445035184368 0 0.065902205730282201 -0.45706500064245797 0 0.16189406545820983 -0.19026884552017273 0 0.28646712797163043 -0.49392445035184368 0 0.16189406545820986 -0.1902688455201727 0 0.31610841816841767 -0.27200276389680428 0 
</DataArray>
</PointData>
<CellData Scalars="region_id," Vectors="" Tensors="stress,">
<DataArray type="Float64" Name="region_id" format="ascii">
1 1 1 1 1 1 1 1 1 1 1 1 1 1 1 1 1 1 1 1 1 1 1 1 1 1 1 1 1 1 1 1 1 1 1 1 1 1 1 1 1 1 1 1 1 1 1 1 1 1 1 1 1 1 1 1 1 1 1 1 1 1 1 1 1 1 1 1 1 1 1 1 1 1 1 1 1 1 1 1 1 1 1 1 1 1 1 1 1 1 1 1 1 1 1 1 1 1 1 1 1 1 1 1 1 1 1 1 1 1 1 1 1 1 1 1 1 1 1 1 1 1 1 1 1 1 1 1 1 1 1 1 1 1 1 1 1 1 1 1 1 6 1 6 1 1 1 1 1 1 1 1 1 1 1 1 1 1 6 1 6 1 1 6 1 1 6 1 1 1 1 1 1 6 1 1 6 1 1 1 1 1 1 1 1 1 1 1 1 1 1 1 1 1 1 1 1 1 1 1 1 6 6 1 1 1 1 1 1 1 1 1 6 1 1 6 1 1 1 1 1 1 1 1 1 1 1 1 1 6 1 1 6 1 1 1 1 1 1 6 1 6 1 1 6 1 1 1 1 1 1 1 1 1 1 1 1 1 1 1 1 1 1 1 1 1 1 1 1 1 1 1 1 1 1 1 1 1 1 1 1 1 1 1 1 1 1 1 1 1 1 1 1 1 1 1 1 1 1 
</DataArray>
<DataArray type="Float64" Name="stress" NumberOfComponents="9" format="ascii">
0.21025926440416584 0.05647333777389052 0 0.05647333777389052 0.069983501272556453 0 0 0 0.070060691419180587 -0.051894442413672838 0.11798203699881349 0 0.11798203699881349 0.016923193780290419 0 0 0 -0.0087428121583455996 -0.28264779143775759 0.025940869337614497 0 0.025940869337614497 0.071421750066071099 0 0 0 -0.052806510342921623 0.15490014906493577 0.068719865978495207 0 0.068719865978495207 0.031969442992359931 0 0 0 0.046717398014323917 0.06129764504907842 0.069250989259852222 0 0.069250989259852222 0.061150703994051925 0 0 0 0.0306120872607826 0.12357414674301616 0.016385112305457087 0 0.016385112305457087 0.18572367963403028 0 0 0 0.077324456594261584 0.71768623618709892 0.061435119083575365 0 0.061435119083575365 0.10633953595073371 0 0 0 0.20600644303445803 0.75337962746141651 0.18993288866322866 0 0.18993288866322866 0.25202246442064463 0 0 0 0.25135052297051524 1.2481074293522545 0.23443547195480241 0 0.23443547195480241 0.40517933294311792 0 0 0 0.41332169057384327 1.02308773692497 -0.26588648873149928 0 -0.26588648873149928 0.038087547589584325 0 0 0 0.26529382112863847 1.4796731503842466 0.37752243885945214 0 0.37752243885945214 1.2910530566847807 0 0 0 0.69268155176725688 2.3371578835672815 0.018715201788979174 0 0.018715201788979174 0.50987947754880647 0 0 0 0.71175934027902199 0.91349497958822079 0.044177234699511979 0 0.044177234699511979 0.40141132074841679 0 0 0 0.32872657508415964 0.53189455493696358 -0.029296288913168489 0 -0.029296288913168489 0.32191654385812507 0 0 0 0.21345277469877216 0.42632641821211997 0.058616826254205903 0 0.058616826254205903 0.43349987863994788 0 0 0 0.21495657421301692 0.36604084490810612 0.087181392108872879 0 0.087181392108872879 0.27147017215474878 0 0 0 0.15937775426571377 0.4360517670434671 0.14000206412326571 0 0.14000206412326571 0.093773717871426035 0 0 0 0.13245637122872334 0.44153404322235068 0.13331482969221387 0 0.13331482969221387 0.12736037447426446 0 0 0 0.1422236044241538 0.18627381275082316 0.12842016053341737 0 0.12842016053341737 0.029858707883118368 0 0 0 0.05403313015848539 0.447816231305534 0.04363492249382081 0 0.04363492249382081 -0.049330524423428737 0 0 0 0.099621426720526374 0.69928450888270977 0.035471796392932686 0 0.035471796392932686 0.026694642322441314 0 0 0 0.18149478780128786 0.82620734757473602 0.073051950806623564 0 0.073051950806623564 0.088556734214975966 0 0 0 0.22869102044742801 0.38876851719079225 0.018306614545402718 0 0.018306614545402718 0.12947057498875908 0 0 0 0.12955977304488783 0.35459508858618344 -0.0013645196029244307 0 -0.0013645196029244307 -0.052917097949410456 0 0 0 0.075419497659193244 0.58113700340155416 -0.026240156776778843 0 -0.026240156776778843 0.018131862480307459 0 0 0 0.14981721647046553 0.4976896122451262 0.070847687948175503 0 0.070847687948175503 0.055531485066685364 0 0 0 0.13830527432795284 0.19808376228769406 0.11199483573517054 0 0.11199483573517054 -0.038881051402501664 0 0 0 0.039800677721298076 0.28045037610777879 -0.050294605134522441 0 -0.050294605134522441 0.093411139116787292 0 0 0 0.09346537880614153 0.16434396237816673 -0.10743935938367455 0 -0.10743935938367455 0.071796455593648278 0 0 0 0.059035104492953766 0.20662186966009929 -0.075072557769014572 0 -0.075072557769014572 0.040399907911172761 0 0 0 0.061755444392818014 0.33519631227204938 -0.10009480006766611 0 -0.10009480006766611 -0.00020397084536694088 0 0 0 0.083748085356670623 0.39554600611168611 -0.096824681331615065 0 -0.096824681331615065 0.015907040804503045 0 0 0 0.10286326172904731 0.080046384149743507 -0.056051005586726814 0 -0.056051005586726814 0.026746992237967629 0 0 0 0.026698344096927784 0.075164889405929761 -0.052322742952352126 0 -0.052322742952352126 0.044027473174171966 0 0 0 0.029798090645025435 0.11808782724409284 -0.057348652707046831 0 -0.057348652707046831 0.025276600389643772 0 0 0 0.035841106908434159 0.072273897955142247 -0.048446987674410441 0 -0.048446987674410441 0.024299740164755029 0 0 0 0.024143409529974319 0.15649650943074978 -0.088017432163265408 0 -0.088017432163265408 0.033358371460331881 0 0 0 0.047463720222770414 0.078840329405668541 -0.073867642032961978 0 -0.073867642032961978 0.078096911452432582 0 0 0 0.039234310214525281 0.060037227755182526 -0.059912970068883006 0 -0.059912970068883006 0.050708709949112724 0 0 0 0.027686484426073826 0.01661815895493321 -0.019214509951244282 0 -0.019214509951244282 -0.015243618239118156 0 0 0 0.00034363517895377726 -0.020235590719516222 -0.021576615318308907 0 -0.021576615318308907 0.030313763211530731 0 0 0 0.0025195431230036341 -0.043317134017403031 0.0031228377386617462 0 0.0031228377386617462 0.0077992527950853929 0 0 0 -0.0088794703055793955 -0.015324519858580826 0.0089341373554648051 0 0.0089341373554648051 -0.0016210108079750402 0 0 0 -0.0042363826666389631 -0.0073346107885261663 0.0048732804965477133 0 0.0048732804965477133 -0.0098559297225663256 0 0 0 -0.0042976351277731056 0.0088645079743667476 -0.015286398700145511 0 -0.015286398700145511 0.016687377973550355 0 0 0 0.0063879714869792825 -0.011669549464551121 0.007422691591589814 0 0.007422691591589814 0.0079655325545460731 0 0 0 -0.00092600422750126893 -0.0060355318054383846 0.0081392005350433005 0 0.0081392005350433005 0.0021699513079467686 0 0 0 -0.00096639512437290097 0.010634175380195468 -0.01404469608863048 0 -0.01404469608863048 0.03231065796196389 0 0 0 0.010736208335539829 0.01236721064635464 -0.0059461450482362205 0 -0.0059461450482362205 0.029790213375677915 0 0 0 0.010539356005508135 0.025020568053246983 -0.0076697004724927964 0 -0.0076697004724927964 0.020066272079374892 0 0 0 0.011271710033155455 0.090852311754581486 -0.052150255483721618 0 -0.052150255483721618 0.038802976888732688 0 0 0 0.03241382216082854 0.064531130326117819 -0.048627595088120562 0 -0.048627595088120562 0.076240014463564543 0 0 0 0.035192786197420597 0.024161922940584973 -0.015933960454604407 0 -0.015933960454604407 0.028913960074272299 0 0 0 0.013268970753714304 0.012855627483022587 -0.0082837801137395257 0 -0.0082837801137395257 0.039405713537493878 0 0 0 0.013065335255129108 0.0029675407191268426 0.012685774598707367 0 0.012685774598707367 0.00066426974120596671 0 0 0 0.00090795261508323441 0.028175012421105428 -0.016624244523555272 0 -0.016624244523555272 0.017247985947628722 0 0 0 0.011355749592183507 0.006822284783058491 0.0017865674461354543 0 0.0017865674461354543 -0.051357181181013345 0 0 0 -0.011133724099488623 0.00030260046405969354 0.0063173893372029943 0 0.0063173893372029943 -0.055741329592345235 0 0 0 -0.013859682282071489 0.00047225940372622177 0.0066610351210266983 0 0.0066610351210266983 -0.095188085661161437 0 0 0 -0.023678956564358783 0.0022499459200008287 0.006838590029632538 0 0.006838590029632538 -0.076191012299295091 0 0 0 -0.018485266594823496 2.1747689958794003e-05 0.0017379542413196447 0 0.0017379542413196447 -0.052809586611971354 0 0 0 -0.013196959730503201 0.0031706774339309574 0.01739588885063803 0 0.01739588885063803 -0.041356065629488542 0 0 0 -0.0095463470488894031 0.0059714877246591705 0.0035753595436329166 0 0.0035753595436329166 -0.010828866691465697 0 0 0 -0.0012143447417016159 0.0042265337251690752 0.018634475069704889 0 0.018634475069704889 -0.029195280933361323 0 0 0 -0.0062421868020480498 -0.002153698104275667 0.016494418122252979 0 0.016494418122252979 -0.0036185159247611662 0 0 0 -0.0014430535072592066 -0.00079968919143294515 0.0083700785288272628 0 0.0083700785288272628 -0.055982132355652081 0 0 0 -0.014195455386771277 0.0013138975940279185 0.0073144835579073003 0 0.0073144835579073003 -0.038467636127872559 0 0 0 -0.0092884346334611567 0.0029511614526982546 0.010807012360721818 0 0.010807012360721818 -0.02466323632901897 0 0 0 -0.0054280187190801563 -0.0019942289157272308 0.0089368918540573272 0 0.0089368918540573272 -0.045740944915464155 0 0 0 -0.011933793457797839 -0.0010257916519873529 0.012759183909575002 0 0.012759183909575002 -0.027263141537342623 0 0 0 -0.007072233297332477 0.00040956285112327129 0.016108561583055774 0 0.016108561583055774 0.016235977134065355 0 0 0 0.00416138499629716 0.011975109979155119 0.011792699625501085 0 0.011792699625501085 0.0010637733688710072 0 0 0 0.0032597208370065307 -0.0041257079098473565 0.017203891393307049 0 0.017203891393307049 0.0019905913191843594 0 0 0 -0.00053377914766573886 -0.0016088524981942645 0.014369317714803039 0 0.014369317714803039 -0.0044577768838078707 0 0 0 -0.0015166573455005355 0.0023924181675813276 0.017233603322011602 0 0.017233603322011602 -0.016653131701130794 0 0 0 -0.0035651783833873796 -0.0021905993051989942 0.016374149098049563 0 0.016374149098049563 -0.0045940449276121445 0 0 0 -0.0016961610582027795 0.00031998799626847124 0.0084716374627069879 0 0.0084716374627069879 -0.025190032712627625 0 0 0 -0.0062175111790897866 -0.0010083626863162248 0.0077786855847015862 0 0.0077786855847015862 -0.028176336164953908 0 0 0 -0.007296174712817502 0.00083894686722645745 0.0086632111198171324 0 0.0086632111198171324 -0.010404431546901169 0 0 0 -0.0023913711699186727 -0.0023692575070586308 0.0068550987544459888 0 0.0068550987544459888 -0.017557048258940555 0 0 0 -0.0049815764414997965 -0.0055917796696272198 0.013609717544254395 0 0.013609717544254395 -0.015624164818271086 0 0 0 -0.005303986121974566 -0.0042747172977468939 0.0092458013397124228 0 0.0092458013397124228 -0.010129301586174033 0 0 0 -0.0036010047209802248 -0.0015810415407396337 0.012921394229765884 0 0.012921394229765884 -0.0035252451330251549 0 0 0 -0.0012765716684412006 -0.005499670930332462 0.0062751872903379358 0 0.0062751872903379358 -0.0052775076463724424 0 0 0 -0.00269429464417624 0.00054808316615394606 0.0059253997753549448 0 0.0059253997753549448 -0.0066640082654727678 0 0 0 -0.0015289812748296959 3.5791456062412089e-05 0.0021507445557728683 0 0.0021507445557728683 -0.0023734993592869902 0 0 0 -0.00058442697580614843 -0.0031769132773734055 0.0039879913211467236 0 0.0039879913211467236 -0.0065106746917735214 0 0 0 -0.0024218969922867317 -0.0016820838621856501 0.001816609238885547 0 0.001816609238885547 -0.0026403445202225206 0 0 0 -0.0010806070956020444 -0.00065105153992676967 0.0011230204161817026 0 0.0011230204161817026 -0.00088969647120401563 0 0 0 -0.00038518700278269979 -0.0017841556883287091 0.0040215056522357878 0 0.0040215056522357878 0.00058116434635552272 0 0 0 -0.00030074783549330353 -0.010977538015965065 0.0064939676145280879 0 0.0064939676145280879 -0.0037579997567745577 0 0 0 -0.0036838844431849038 -0.008145046416309025 0.0082419328042752371 0 0.0082419328042752371 -0.00033989089166146236 0 0 0 -0.0021212343269926132 -0.012294226424171693 0.013271937897915718 0 0.013271937897915718 -0.0055324592527685734 0 0 0 -0.0044566714192350691 -0.029037859736853119 0.0084777073898471157 0 0.0084777073898471157 0.00058347958005364187 0 0 0 -0.007113595039199852 0.40779783187323515 -0.25925820143989342 0 -0.25925820143989342 0.14701882114556003 0 0 0 0.13870416325469881 0.44835386714799536 -0.1565934650898908 0 -0.1565934650898908 0.020137999397209779 0 0 0 0.11712296663630128 0.49203892793219811 -0.16768888156104728 0 -0.16768888156104728 0.032013623011435066 0 0 0 0.13101313773590828 0.29847828154868594 -0.1643635663068706 0 -0.1643635663068706 0.075171797309244504 0 0 0 0.093412519714482584 0.13074462202474085 -0.10663076360719717 0 -0.10663076360719717 0.098335454378588982 0 0 0 0.057270019100832473 0.071756909140398589 -0.065466279349620501 0 -0.065466279349620501 0.089179304299818463 0 0 0 0.040234053360054249 0.079972688198152786 -0.069085293341288254 0 -0.069085293341288254 0.060933998967070024 0 0 0 0.03522667179130573 0.1769648648410288 -0.1371392805749127 0 -0.1371392805749127 0.03855282806493289 0 0 0 0.053879423226490378 0.1641173339226504 -0.14655361297962619 0 -0.14655361297962619 0.13639356391040347 0 0 0 0.075127724458263434 0.041182440073452516 -0.065899120904227823 0 -0.065899120904227823 0.10263336546011739 0 0 0 0.035953951383392531 0.12992590187502415 -0.11301841990940173 0 -0.11301841990940173 0.094170435964116589 0 0 0 0.056024084459785177 0.0082817944232614522 -0.013857239619295324 0 -0.013857239619295324 0.044146456444043664 0 0 0 0.01310706271682623 0.069650456517231243 -0.049472606584261607 0 -0.049472606584261607 0.047735621075243179 0 0 0 0.029346519398118637 0.0097795667841734241 0.0071185350375599088 0 0.0071185350375599088 -0.045032342331904229 0 0 0 -0.0088131938869326631 -0.0015538967308659953 0.0081935796855857335 0 0.0081935796855857335 -0.0074855441059261674 0 0 0 -0.0022598602091980675 -0.0042588412082116243 -0.015980146217724523 0 -0.015980146217724523 0.031000583680766206 0 0 0 0.0066854356181386184 0.017938299768011881 -0.017578384232344132 0 -0.017578384232344132 -0.017263382584494114 0 0 0 0.00016872929587946617 0.0069003505262576481 0.0079370499255499438 0 0.0079370499255499438 -0.057690967386370196 0 0 0 -0.012697654215028054 0.001481574171993405 -0.0011797918290734621 0 -0.0011797918290734621 -0.10333710800652884 0 0 0 -0.025463883458633818 0.0027628097296298337 0.003781747049404649 0 0.003781747049404649 -0.11890824035406999 0 0 0 -0.029036357656110012 0.00038954637248650448 0.0059396269921870859 0 0.0059396269921870859 -0.10053419704693167 0 0 0 -0.025036162668611278 0.00076347845685038884 0.0025876425037906214 0 0.0025876425037906214 -0.049650728910029224 0 0 0 -0.012221812613294733 0.035837271140288063 -0.0498097397601618 0 -0.0498097397601618 0.0038849195390679991 0 0 0 0.0099305476698389461 -0.00094905559574429144 -0.049514006354988371 0 -0.049514006354988371 0.079494992343759868 0 0 0 0.019636484187003839 0.025067422482133533 0.0021015189994625927 0 0.0021015189994625927 -0.016717773554537962 0 0 0 0.0020874122318987332 0.0028049118007929391 -0.0031316126020003998 0 -0.0031316126020003998 -0.026706915627397243 0 0 0 -0.0059755009566510725 0.0035599069933009986 -0.0067088388429963897 0 -0.0067088388429963897 -0.13037185515678029 0 0 0 -0.031702987040869934 0.00070109772365986589 -0.0032417689467083011 0 -0.0032417689467083011 -0.017370928756312659 0 0 0 -0.0041674577581634342 -0.0011234994944400722 -0.0081792235592653695 0 -0.0081792235592653695 -0.10925303486727067 0 0 0 -0.027594133590427672 0.022380067693722472 -0.023742897227126303 0 -0.023742897227126303 -0.10994199440720021 0 0 0 -0.021890481678369378 -0.00086606293555643865 -0.0073675615097225089 0 -0.0073675615097225089 0.034683160796862844 0 0 0 0.0084542744653265667 0.038298889989826945 -0.056358038602331684 0 -0.056358038602331684 -0.010685804876353178 0 0 0 0.0069032712783682615 0.0054369974312670766 -0.0077008037122583417 0 -0.0077008037122583417 0.06802310279232876 0 0 0 0.01836502505589882 0.12487182706327701 -0.13905499813345054 0 -0.13905499813345054 0.1423493794819416 0 0 0 0.066805301636304576 0.048359528341166545 -0.12853189633627704 0 -0.12853189633627704 0.17715923422340715 0 0 0 0.056379690641143475 0.033688117435371902 -0.048417365299429291 0 -0.048417365299429291 0.025042598314482883 0 0 0 0.014682678937463538 0.091975430950323178 -0.18130488663700955 0 -0.18130488663700955 0.20634024979988833 0 0 0 0.074578920187552966 0.70515784035363505 -0.27300048449708275 0 -0.27300048449708275 0.057207880086262819 0 0 0 0.19059143010997459 1.0289509591494344 -0.27935005204489449 0 -0.27935005204489449 0.16524115042504142 0 0 0 0.29854802739361874 0.27294057856543019 -0.39906087029142345 0 -0.39906087029142345 0.44641700744465007 0 0 0 0.17983939650252001 0.28726910224922364 -0.27471380864770856 0 -0.27471380864770856 0.24740194941108767 0 0 0 0.13366776291507776 0.023485293861156196 -0.061225651683688431 0 -0.061225651683688431 0.18174267799984878 0 0 0 0.051306992965251569 0.17688663320730869 -0.20455722609052479 0 -0.20455722609052479 0.19221142767516142 0 0 0 0.092274515220617692 0.23429837984821045 -0.17061423559902333 0 -0.17061423559902333 0.30831816174256377 0 0 0 0.13565413539769355 1.251703520196332 -0.97589843223852402 0 -0.97589843223852402 0.82973543981635589 0 0 0 0.52035974000317209 0.035099925599007042 0.28741378075739488 0 0.28741378075739488 0.57562613720712741 0 0 0 0.15268151570153254 1.3119178277451604 0.99394109101332495 0 0.99394109101332495 1.4555785853234444 0 0 0 0.69187410326715115 1.5490776027426644e-05 6.6639267412177685e-07 0 6.6639267412177685e-07 5.2326105370789978e-06 0 0 0 5.1808466411264075e-06 0.17519904222867258 0.20407319292429454 0 0.20407319292429454 0.50308625549336816 0 0 0 0.16957132443051073 3.9842210334620071e-05 1.2294694092724047e-06 0 1.2294694092724047e-06 1.3185076545922844e-05 0 0 0 1.3256821720135728e-05 0.00060054145225184492 0.082694436037206179 0 0.082694436037206179 0.43385050668068492 0 0 0 0.10861276203323332 0.32079164106844005 0.35806558498816543 0 0.35806558498816543 0.31595453620494363 0 0 0 0.15918654431834522 1.2062431345714264 0.16663052962726338 0 0.16663052962726338 0.36409672338261356 0 0 0 0.39258496448851071 1.0899265361824297 0.72818586766901938 0 0.72818586766901938 0.85390011981596781 0 0 0 0.4859566639995988 0.83710041969793314 0.19861345750892434 0 0.19861345750892434 0.13982271868564089 0 0 0 0.24423078459589409 0.5847285868251223 0.43210239294775904 0 0.43210239294775904 0.41283380302046768 0 0 0 0.24939059746139713 0.24020901159859259 0.24961959528623612 0 0.24961959528623612 0.17441345068540168 0 0 0 0.10365561557099863 0.21730556433604148 0.25309400207510319 0 0.25309400207510319 0.3470380317459123 0 0 0 0.14108589902048901 0.023255729056973262 0.1225617138037064 0 0.1225617138037064 0.27638870914253566 0 0 0 0.074911109549875565 0.056790720252661381 0.11596408687764181 0 0.11596408687764181 0.27112543934535172 0 0 0 0.081979039899503697 0.18267742236421911 0.32288411146807505 0 0.32288411146807505 0.61754493704508373 0 0 0 0.20005558985232594 0.10714673863386476 0.15993621800351049 0 0.15993621800351049 0.33511035331348205 0 0 0 0.11056427298683602 -0.006094899362912562 0.028079905720608783 0 0.028079905720608783 0.36087106946072345 0 0 0 0.088694042524451386 0.072425689753007783 0.064366274740263463 0 0.064366274740263463 0.22936189870461865 0 0 0 0.075446897114404665 5.6024278095006473e-05 1.5277093406348688e-06 0 1.5277093406348688e-06 1.8649943280078912e-05 0 0 0 1.8668555343771347e-05 -0.0038558841862727788 0.023768008616870534 0 0.023768008616870534 0.20746929970283179 0 0 0 0.05090335387913883 6.9490466689042609e-05 1.8084826450497773e-06 0 1.8084826450497773e-06 2.3121911217429017e-05 0 0 0 2.3153094476617908e-05 -0.0038821298171326513 0.025910284963424512 0 0.025910284963424512 0.17452524208673781 0 0 0 0.04266077806740165 0.019894391504640119 0.021970125438049548 0 0.021970125438049548 0.10332164389646659 0 0 0 0.030804008850275011 8.1494948719355899e-05 2.1001589775013092e-06 0 2.1001589775013092e-06 2.7113207563006831e-05 0 0 0 2.7152039070590676e-05 -0.0023975513133163151 0.012674470368566469 0 0.012674470368566469 0.17742348788922796 0 0 0 0.043756484143978147 0.0023346339672025603 0.01045436937756454 0 0.01045436937756454 0.08578677084951189 0 0 0 0.022030351204180388 9.255266965566724e-05 2.3325949578817119e-06 0 2.3325949578817119e-06 3.0793613096631211e-05 0 0 0 3.0836570688074611e-05 -0.0012180174617268391 0.0059030028625458308 0 0.0059030028625458308 0.11481779261046676 0 0 0 0.028399943787183857 0.021830862447208166 0.054638793167404387 0 0.054638793167404387 0.1466526726171396 0 0 0 0.042120883766088302 0.0015967520829023307 0.047709560416623498 0 0.047709560416623498 0.19137684467665439 0 0 0 0.048243399189888958 0.033626334417186807 0.053365037805729543 0 0.053365037805729543 0.16958215433308738 0 0 0 0.050802122187569007 -0.0016372624777135081 0.0043019831291276622 0 0.0043019831291276622 0.066292207528285463 0 0 0 0.016163736262645612 -0.00070688704615240461 0.0048391356349826165 0 0.0048391356349826165 0.051001635897142794 0 0 0 0.01257368721274843 0.00011274440465977063 2.7317572573153852e-06 0 2.7317572573153852e-06 3.7529725186265231e-05 0 0 0 3.756853246150897e-05 -0.0011509555248940262 0.0050955186907217231 0 0.0050955186907217231 0.098230428347326093 0 0 0 0.024269868205608891 0.0066650477721823531 0.0073804489419776464 0 0.0073804489419776464 0.058412944102590014 0 0 0 0.016269497968694813 0.00010289751305279651 2.5476983508737025e-06 0 2.5476983508737025e-06 3.4248201292207418e-05 0 0 0 3.4286428586250985e-05 0.010609692345854613 0.028081524530078616 0 0.028081524530078616 0.094291193118836603 0 0 0 0.026225221366172322 0.0082714553031545818 0.030840690819845529 0 0.030840690819845529 0.07932058211803486 0 0 0 0.021898009355297773 -0.0022776517637123628 0.024265245239221578 0 0.024265245239221578 0.10339933807750779 0 0 0 0.025280421578449286 0.031160084210485939 0.074902885358816645 0 0.074902885358816645 0.12323575858513491 0 0 0 0.038598960698904283 0.0062183411414622469 0.086918474812041069 0 0.086918474812041069 0.13790539883710196 0 0 0 0.036030934994641939 0.050748332519939376 0.14489964226439445 0 0.14489964226439445 0.17818420887032715 0 0 0 0.057233135347566799 0.078990736253434141 0.12897446038006311 0 0.12897446038006311 0.21629915692772839 0 0 0 0.073822473295290597 0.094116852779492721 0.18285232301062893 0 0.18285232301062893 0.21077677632879532 0 0 0 0.076223407277072941 0.042443201030392785 0.11285706167730192 0 0.11285706167730192 0.074522864381336262 0 0 0 0.029241516352932262 0.098490413395226351 0.14384736332489956 0 0.14384736332489956 0.14611691649079528 0 0 0 0.061151832471506462 0.16171772619050162 0.1661652041730175 0 0.1661652041730175 0.084269262098148667 0 0 0 0.061496747072162128 0.15239126632937722 0.18084390372178483 0 0.18084390372178483 0.06995936107579781 0 0 0 0.055587656851293687 0.50502299011619411 0.17632973178342815 0 0.17632973178342815 0.018035625868127791 0 0 0 0.13076465399608062 0.51947701650366862 0.16509562007934764 0 0.16509562007934764 0.031319641194620829 0 0 0 0.13769916442457242 0.64435622465026299 0.21378374073316708 0 0.21378374073316708 0.073185138786408421 0 0 0 0.17938534085916794 0.35979150027389845 0.30513972304552039 0 0.30513972304552039 0.21229106109097504 0 0 0 0.14302064034121836 0.23907808243964135 0.2107888080514162 0 0.2107888080514162 0.11469425952629608 0 0 0 0.088443085491484275 -0.0015139233700890431 0.0050991972346516867 0 0.0050991972346516867 0.008266134403760006 0 0 0 0.0016880527584194338 0.0098526129162985754 0.0037594015044193074 0 0.0037594015044193074 0.0044303385999855394 0 0 0 0.0035707378790688082 0.0017030899533277966 -0.0017810630698689156 0 -0.0017810630698689156 -0.00034186592370388791 0 0 0 0.00034030600740597716 -0.0066142952215715312 -0.0015244625021960804 0 -0.0015244625021960804 0.0024909968116597625 0 0 0 -0.0010308246024774981 -0.00027113993731414654 -0.0022316616738315975 0 -0.0022316616738315975 -0.00057104732118928858 0 0 0 -0.00021054681462412406 -0.002106849146081724 -0.0018127710878408365 0 -0.0018127710878408365 -0.0013371547812850437 0 0 0 -0.00086100098184338503 -0.00054326920606984075 -0.0014528987529582871 0 -0.0014528987529582871 -0.0016440884223025698 0 0 0 -0.00054683940709177037 0.00018720613544655294 3.1969475461202572e-06 0 3.1969475461202572e-06 5.2577499616413299e-05 0 0 0 5.9945908765741555e-05 0.0001825828885372172 3.3665840887643185e-06 0 3.3665840887643185e-06 6.0789648726909306e-05 0 0 0 6.0843134316031618e-05 0.00028355067548546664 -0.0019675264294879979 0 -0.0019675264294879979 -0.0057284807583224406 0 0 0 -0.0013612325207128517 6.8976756306904363e-05 -0.0019696471544445038 0 -0.0019696471544445038 -0.0014000943711289793 0 0 0 -0.00033277940370779469 -9.3177960788004555e-05 -0.0016248650927873642 0 -0.0016248650927873642 -0.0022733669934309475 0 0 0 -0.00059163623855784664 0.00073387203454283734 -0.0024637537528066078 0 -0.0024637537528066078 0.00019455516513433579 0 0 0 0.00023210679992063943 -0.00026640936451866049 -0.0018859400020395101 0 -0.0018859400020395101 -0.0014712846798807799 0 0 0 -0.00043442351109984623 0.0041096144962345371 -0.00092532566369163405 0 -0.00092532566369163405 -0.0012417131930118064 0 0 0 0.00071697532580433654 0.0037041515255944457 0.0037469322910864689 0 0.0037469322910864689 0.0062039607054538148 0 0 0 0.0024770280577628423 0.0032990845390623302 0.0044496074002195983 0 0.0044496074002195983 0.0046635076723339219 0 0 0 0.0019906480528464054 7.9823212580543146e-05 -0.0012426176576031123 0 -0.0012426176576031123 -0.00040869766696532972 0 0 0 -8.2218613595308465e-05 0.00017432094272139959 3.3294805587292247e-06 0 3.3294805587292247e-06 5.8090547576409902e-05 0 0 0 5.8102872574452377e-05 0.001873113702945739 -0.0007673935865019077 0 -0.0007673935865019077 -0.010431302800517184 0 0 0 -0.0021395472743941379 0.0024361573230564453 0.001057283188132474 0 0.001057283188132474 -0.0087244865605363188 0 0 0 -0.0015720823093701348 0.00016598330532562305 3.3259755276039568e-06 0 3.3259755276039568e-06 5.530382369078225e-05 0 0 0 5.5321782254101326e-05 0.00012733894302630056 0.0035386512444173235 0 0.0035386512444173235 0.0056186757823586397 0 0 0 0.0014365036813426268 0.0080687474111080237 0.01341821398916347 0 0.01341821398916347 0.019577626423136207 0 0 0 0.0069115934585615157 0.007294308687363138 0.01018772408145302 0 0.01018772408145302 0.015944858016919916 0 0 0 0.0058097916760702084 0.011949508538894871 0.018451282040000905 0 0.018451282040000905 0.0036435109379659991 0 0 0 0.0038982548692158003 0.027902308676721499 0.034303225202532595 0 0.034303225202532595 0.035530152871955378 0 0 0 0.015858115387168747 0.010353269880555072 0.04371072966270606 0 0.04371072966270606 0.01512979900729583 0 0 0 0.0063707672219615041 0.042266643899627698 0.063842881984414346 0 0.063842881984414346 0.07249542145653054 0 0 0 0.028690516339039351 0.019041471126982901 0.029726805009577292 0 0.029726805009577292 0.03848303466865366 0 0 0 0.014381126448908044 0.0026253209739517391 0.03234194978578353 0 0.03234194978578353 0.045271504218270309 0 0 0 0.011974206298055678 0.0023577433269970222 0.016283048375863585 0 0.016283048375863585 0.014201822118263319 0 0 0 0.0041398913613146654 2.2613047615138715e-05 0.0038662323355387329 0 0.0038662323355387329 0.0052909440935681173 0 0 0 0.0013283892852940515 0.0081327397549372793 0.011655538335014259 0 0.011655538335014259 0.01374687795740881 0 0 0 0.0054699044280869802 -0.00098117409248349441 0.0020542642123517751 0 0.0020542642123517751 0.0074290658268155729 0 0 0 0.0016119729335834498 0.00015755393200412787 3.2963189263631911e-06 0 3.2963189263631911e-06 5.2486518068122383e-05 0 0 0 5.2510112518062566e-05 0.0015142680472712833 0.0026635512793342642 0 0.0026635512793342642 -0.0078682789952710941 0 0 0 -0.0015885027369990645 -0.00082147557090417322 0.0041274824157796486 0 0.0041274824157796486 0.022116990713025642 0 0 0 0.0053238787855316438 0.00014901018896024021 3.2448761135228143e-06 0 3.2448761135228143e-06 4.9632632052075271e-05 0 0 0 4.9660705253078873e-05 0.0013403327085246275 0.0028292300988546626 0 0.0028292300988546626 0.00057028228028821459 0 0 0 0.00047765374720221132 0.0038507044695063053 0.010940995565100309 0 0.010940995565100309 0.021284025203681445 0 0 0 0.0062836824182973539 -0.00078403765167894823 0.011064824543486951 0 0.011064824543486951 0.027844731645141563 0 0 0 0.0067651734983652512 0.0088186220011373107 0.0219218989930859 0 0.0219218989930859 0.040801135160315471 0 0 0 0.012404939290362627 -0.0018862286947998186 0.01863363020869141 0 0.01863363020869141 0.056764231023945011 0 0 0 0.013719500582285882 -0.0010671907263015701 0.0046546644723806097 0 0.0046546644723806097 0.028806283627344498 0 0 0 0.0069347732252624805 0.00014029818262436571 3.1664805987334482e-06 0 3.1664805987334482e-06 4.6721524843944105e-05 0 0 0 4.6754926867077453e-05 0.003635863924303484 0.0050029941262383915 0 0.0050029941262383915 0.008368217243848175 0 0 0 0.0030010202920356388 0.00012221613646528991 2.9072539744490793e-06 0 2.9072539744490793e-06 4.0688765917909554e-05 0 0 0 4.072622559579987e-05 0.0022586283968623741 0.0065520423768371527 0 0.0065520423768371527 0.034194006731833024 0 0 0 0.0091131587821737369 0.00042783410783520104 0.0058532260722923279 0 0.0058532260722923279 0.024220326403216141 0 0 0 0.0061620401277620029 0.00013137882793422173 3.0507370840805754e-06 0 3.0507370840805754e-06 4.3745256112199986e-05 0 0 0 4.3781021011605426e-05 -0.000823661943087306 0.0057050614185443216 0 0.0057050614185443216 0.053679236194693392 0 0 0 0.013213893562902423 0.002644438141304134 0.018627774151293797 0 0.018627774151293797 0.049133841633611897 0 0 0 0.012944569943731749 0.00056998044666101144 0.057176498319228886 0 0.057176498319228886 0.071616773838473424 0 0 0 0.01804668857128422 0.025047368932627913 0.047111542905199588 0 0.047111542905199588 0.069133928107489973 0 0 0 0.023545324260029511 0.12605029773941345 0.1064411863745196 0 0.1064411863745196 0.042316758561460999 0 0 0 0.042091764075217974 0.059203365948324121 0.10317945625720504 0 0.10317945625720504 0.10696967665730617 0 0 0 0.041543260651407815 0.023254457409311202 0.076303212881789595 0 0.076303212881789595 0.042047542004064908 0 0 0 0.016325499853344416 0.065771537012097925 0.060764183395586868 0 0.060764183395586868 0.038509942782456008 0 0 0 0.026070369948638428 0.044204305161818502 0.07875132642571403 0 0.07875132642571403 0.0447262164603075 0 0 0 0.022232630405531473 0.034162688823340059 0.037995777303815537 0 0.037995777303815537 0.0025420014921302414 0 0 0 0.0091761725788687132 0.037172846901359247 0.031447103633778228 0 0.031447103633778228 0.025837079044305433 0 0 0 0.015752481486414949 0.087361124209241248 0.064776671516442175 0 0.064776671516442175 0.040741206564618881 0 0 0 0.03202558269346556 0.053415512057937153 0.027220137059499772 0 0.027220137059499772 -0.0016188284683615883 0 0 0 0.012949170897393447 0.019055405984440332 0.007543688827379269 0 0.007543688827379269 -0.0025367091739987302 0 0 0 0.0041296742026089017 0.026162617141795019 0.018690702451286789 0 0.018690702451286789 0.019849156986217142 0 0 0 0.011502943532003096 0.1610883481736658 0.050064083941306903 0 0.050064083941306903 -0.084876466431260233 0 0 0 0.019052970435601502 0.099950195654546548 0.036832988045095237 0 0.036832988045095237 0.011641157152112669 0 0 0 0.027897838201664804 0.10570161969926484 0.041978690537215702 0 0.041978690537215702 -0.00047741463148032182 0 0 0 0.02630605126694685 0.090077002797731121 0.12311860314383249 0 0.12311860314383249 -0.046655453173864991 0 0 0 0.010855387405966477 0.19270431836318203 0.11026243037207029 0 0.11026243037207029 -0.0094249431115547289 0 0 0 0.045819843812906491 0.12415850536943351 0.071375913132024404 0 0.071375913132024404 0.0062832892958977205 0 0 0 0.032610448666332226 0.07603460327826661 0.074571973862841201 0 0.074571973862841201 -0.0043634261083482784 0 0 0 0.01791779429247975 0.15298150625560125 0.071487786986977442 0 0.071487786986977442 -0.031859129773393668 0 0 0 0.030280594120552173 0.18971654878339139 0.025609058647411451 0 0.025609058647411451 -0.018857606709008934 0 0 0 0.042714735518595948 0.25407772934001094 0.10223811892506784 0 0.10223811892506784 -0.29170994058532607 0 0 0 -0.0094080528113287265 0.29388868604795437 0.092894101714989297 0 0.092894101714989297 -0.11018137660281457 0 0 0 0.04592682736128495 0.26210684398623352 0.11270798818181338 0 0.11270798818181338 -0.14553226803737829 0 0 0 0.029143643987213697 0.30042708447254207 0.18736203968020895 0 0.18736203968020895 0.01382637745939963 0 0 0 0.07856336548298537 0.16163003012000043 0.093881687177836737 0 0.093881687177836737 -0.15637119716576775 0 0 0 0.0013147082385578379 0.26934132828092294 -0.055152316811792126 0 -0.055152316811792126 -0.18465093307794422 0 0 0 0.021172598800744735 0.19764767450323872 -0.11941569873728841 0 -0.11941569873728841 -0.10533415871340113 0 0 0 0.023078378947459566 0.29610209057813863 -0.04983077057303531 0 -0.04983077057303531 -0.33293167725969175 0 0 0 -0.0092073966703889454 0.089924884993172083 -0.095039971637548293 0 -0.095039971637548293 -0.027302880334015622 0 0 0 0.015655501164789309 0.16279052617097781 -0.086597485717930245 0 -0.086597485717930245 -0.1085040208424928 0 0 0 0.013571626332121419 -0.24186165525227299 -0.10686047809752591 0 -0.10686047809752591 0.085309222119382078 0 0 0 -0.039138108283222839 0.14596762294804355 -0.21436132969464089 0 -0.21436132969464089 0.088416805806980969 0 0 0 0.058596107188756186 0.046909572592974347 -0.093818313779262474 0 -0.093818313779262474 -0.039478940139771712 0 0 0 0.0018576581133006309 0.0022455237138416843 -0.13788798401673208 0 -0.13788798401673208 0.039534502443868788 0 0 0 0.010445006539427598 0.14472587258476005 -0.054994594630848714 0 -0.054994594630848714 0.10327083828825456 0 0 0 0.06199917771825364 0.29383256737549879 -0.1315351711981394 0 -0.1315351711981394 0.22333487092388954 0 0 0 0.12929185957484704 0.41354493486319654 -0.055044617436741022 0 -0.055044617436741022 0.46296042417841821 0 0 0 0.21912633976040385 0.6177781051610518 -0.17589622772425062 0 -0.17589622772425062 0.12156631886634628 0 0 0 0.18483610600684941 0.73865276151497605 0.055098457072413731 0 0.055098457072413731 0.86310076122648016 0 0 0 0.40043838068536397 0.92370438224609175 -0.033778061631934919 0 -0.033778061631934919 0.44572857165344248 0 0 0 0.34235823847488328 1.3865973450524514 -0.2999801515948548 0 -0.2999801515948548 1.2766884440471267 0 0 0 0.66582144727489478 2.4654955488324988 0.16420107658023608 0 0.16420107658023608 0.62614906363509681 0 0 0 0.77291115311689906 1.0661246949058514 -0.21686570578365005 0 -0.21686570578365005 0.44349416523681334 0 0 0 0.37740471503566608 0.92314493411511778 0.24206396822865961 0 0.24206396822865961 0.22716840351219192 0 0 0 0.28757833440682734 0.5882539017532461 -0.056794939309704917 0 -0.056794939309704917 0.1746446937713757 0 0 0 0.19072464888115548 0.48582586196006672 -0.019476912585164374 0 -0.019476912585164374 -0.10132262468066339 0 0 0 0.096125809319850847 0.83357749309008744 -0.01868912089691066 0 -0.01868912089691066 0.080708473646895484 0 0 0 0.22857149168424606 0.46565188934181645 -0.013917166596334907 0 -0.013917166596334907 -0.042043410482571986 0 0 0 0.10590211971481112 0.31364162358661091 -0.15119220351659529 0 -0.15119220351659529 -0.064267817542481911 0 0 0 0.062343451511032294 0.34670818164823114 -0.15607870352910164 0 -0.15607870352910164 0.050569200889804655 0 0 0 0.099319345634508949 
</DataArray>
</CellData>
</Piece>
</UnstructuredGrid>
</VTKFile>
