<?xml version="1.0"?>
<VTKFile type="UnstructuredGrid" version="0.1" byte_order="LittleEndian">
<UnstructuredGrid>
<Piece NumberOfPoints="880" NumberOfCells="299">
<Points>
<DataArray type="Float64" NumberOfComponents="3" format="ascii">
-0 0 0 0.18653882694645291 0.22249173546702489 0 0 0.25000000000104189 0 -0 0 0 0.18653882694645291 0.22249173546702489 0 0.24999999999941089 0 0 0.24999999999941089 0 0 0.35015135319464608 0.1900339269648805 0 0.49999999999869182 0 0 0.18653882694645291 0.22249173546702489 0 0.24999999999941089 0 0 0.35015135319464608 0.1900339269648805 0 0.35015135319464608 0.1900339269648805 0 0.49924741621175961 0.21507969613896921 0 0.49999999999869182 0 0 0.35015135319464608 0.1900339269648805 0 0.49924741621175961 0.21507969613896921 0 0.40587285776242238 0.32419148732968017 0 0.37764981543668408 0.41341486499350411 0 0.41576443813007791 0.48093483781626972 0 0.45418244162583959 0.41624787166862259 0 0.37764981543668408 0.41341486499350411 0 0.45418244162583959 0.41624787166862259 0 0.40587285776242238 0.32419148732968017 0 0.41576443813007791 0.48093483781626972 0 0.46566719828045178 0.47702825415921918 0 0.45418244162583959 0.41624787166862259 0 0.41576443813007791 0.48093483781626972 0 0.46566719828045178 0.47702825415921918 0 0.4638583922372429 0.51470588235294135 0 0.46566719828045178 0.47702825415921918 0 0.49954900152271581 0.45107191084564019 0 0.5 0.5 0 0.46566719828045178 0.47702825415921918 0 0.4638583922372429 0.51470588235294135 0 0.5 0.5 0 0.46566719828045178 0.47702825415921918 0 0.49954900152271581 0.45107191084564019 0 0.45418244162583959 0.41624787166862259 0 0.45418244162583959 0.41624787166862259 0 0.49435464945626773 0.33318442629318029 0 0.54876010062294855 0.39662628167175101 0 0.45418244162583959 0.41624787166862259 0 0.49435464945626773 0.33318442629318029 0 0.40587285776242238 0.32419148732968017 0 0.49924741621175961 0.21507969613896921 0 0.49435464945626773 0.33318442629318029 0 0.40587285776242238 0.32419148732968017 0 0.35015135319464608 0.1900339269648805 0 0.40587285776242238 0.32419148732968017 0 0.29145599617909779 0.35026601625021492 0 0.37764981543668408 0.41341486499350411 0 0.40587285776242238 0.32419148732968017 0 0.29145599617909779 0.35026601625021492 0 0.18653882694645291 0.22249173546702489 0 0.35015135319464608 0.1900339269648805 0 0.29145599617909779 0.35026601625021492 0 0.29145599617909779 0.35026601625021492 0 0.32540781287085369 0.49175159894608172 0 0.17872124008781709 0.39692711089439497 0 0.37764981543668408 0.41341486499350411 0 0.29145599617909779 0.35026601625021492 0 0.32540781287085369 0.49175159894608172 0 0.37764981543668408 0.41341486499350411 0 0.41576443813007791 0.48093483781626972 0 0.32540781287085369 0.49175159894608172 0 0.17872124008781709 0.39692711089439497 0 0 0.25000000000104189 0 0 0.50000000000206157 0 0.17872124008781709 0.39692711089439497 0 0 0.50000000000206157 0 0.22453074737734591 0.51613635929252633 0 0.32540781287085369 0.49175159894608172 0 0.17872124008781709 0.39692711089439497 0 0.22453074737734591 0.51613635929252633 0 0.18653882694645291 0.22249173546702489 0 0.29145599617909779 0.35026601625021492 0 0.17872124008781709 0.39692711089439497 0 0.18653882694645291 0.22249173546702489 0 0.17872124008781709 0.39692711089439497 0 0 0.25000000000104189 0 0 0.50000000000206157 0 0.18442368612951149 0.62734948407416979 0 0 0.75000000000034772 0 0.18442368612951149 0.62734948407416979 0 0.22727208279115291 0.72949159435386135 0 0 0.75000000000034772 0 0.18442368612951149 0.62734948407416979 0 0.22727208279115291 0.72949159435386135 0 0.31346558946927339 0.67110784456164874 0 0.18442368612951149 0.62734948407416979 0 0.22453074737734591 0.51613635929252633 0 0.31771010312359771 0.58585679504088894 0 0 0.50000000000206157 0 0.18442368612951149 0.62734948407416979 0 0.22453074737734591 0.51613635929252633 0 0 1 0 0.096516139048187316 0.89789944498939644 0 0 0.75000000000034772 0 0 1 0 0.096516139048187316 0.89789944498939644 0 0.1596341872805197 1 0 0.096516139048187316 0.89789944498939644 0 0 0.75000000000034772 0 0.1644705180525495 0.8200994301041713 0 0.1644705180525495 0.8200994301041713 0 0.2386314078659193 0.92924778694987087 0 0.27155609766735261 0.80398965554903801 0 0.22727208279115291 0.72949159435386135 0 0 0.75000000000034772 0 0.1644705180525495 0.8200994301041713 0 0.22727208279115291 0.72949159435386135 0 0.1644705180525495 0.8200994301041713 0 0.27155609766735261 0.80398965554903801 0 0.096516139048187316 0.89789944498939644 0 0.1644705180525495 0.8200994301041713 0 0.2386314078659193 0.92924778694987087 0 0.096516139048187316 0.89789944498939644 0 0.2386314078659193 0.92924778694987087 0 0.1596341872805197 1 0 0.2386314078659193 0.92924778694987087 0 0.1596341872805197 1 0 0.27591592301363282 1 0 0.36061858902161292 1 0 0.32789203369730929 0.94219211037003092 0 0.27591592301363282 1 0 0.36061858902161292 1 0 0.32789203369730929 0.94219211037003092 0 0.39382242252278338 0.95440420122950598 0 0.2386314078659193 0.92924778694987087 0 0.32789203369730929 0.94219211037003092 0 0.27591592301363282 1 0 0.2386314078659193 0.92924778694987087 0 0.32789203369730929 0.94219211037003092 0 0.31834856208730472 0.88134829947972904 0 0.32789203369730929 0.94219211037003092 0 0.37746652222901839 0.8987532801416368 0 0.39382242252278338 0.95440420122950598 0 0.32789203369730929 0.94219211037003092 0 0.31834856208730472 0.88134829947972904 0 0.37746652222901839 0.8987532801416368 0 0.2386314078659193 0.92924778694987087 0 0.31834856208730472 0.88134829947972904 0 0.27155609766735261 0.80398965554903801 0 0.31834856208730472 0.88134829947972904 0 0.36493375430404612 0.82333914183704071 0 0.37746652222901839 0.8987532801416368 0 0.31834856208730472 0.88134829947972904 0 0.36493375430404612 0.82333914183704071 0 0.27155609766735261 0.80398965554903801 0 0.22727208279115291 0.72949159435386135 0 0.27155609766735261 0.80398965554903801 0 0.32984265945580837 0.74432890077789404 0 0.36493375430404612 0.82333914183704071 0 0.27155609766735261 0.80398965554903801 0 0.32984265945580837 0.74432890077789404 0 0.36493375430404612 0.82333914183704071 0 0.39746869305290999 0.7595658224757349 0 0.32984265945580837 0.74432890077789404 0 0.36493375430404612 0.82333914183704071 0 0.39746869305290999 0.7595658224757349 0 0.42893012659725649 0.81084715169569632 0 0.39746869305290999 0.7595658224757349 0 0.42893012659725649 0.81084715169569632 0 0.44651949253391748 0.77225997208621999 0 0.39746869305290999 0.7595658224757349 0 0.44651949253391748 0.77225997208621999 0 0.43412357948152142 0.72128778687215156 0 0.44651949253391748 0.77225997208621999 0 0.47786860714145291 0.77730227330627721 0 0.47220206448452873 0.74892462649306213 0 0.47786860714145291 0.77730227330627721 0 0.47220206448452873 0.74892462649306213 0 0.5 0.76470588235294124 0 0.47786860714145291 0.77730227330627721 0 0.5 0.79411764705882359 0 0.5 0.76470588235294124 0 0.47062147868881782 0.80650323854033878 0 0.5 0.82352941176470584 0 0.5 0.79411764705882359 0 0.47786860714145291 0.77730227330627721 0 0.47062147868881782 0.80650323854033878 0 0.5 0.79411764705882359 0 0.44651949253391748 0.77225997208621999 0 0.47786860714145291 0.77730227330627721 0 0.47062147868881782 0.80650323854033878 0 0.42893012659725649 0.81084715169569632 0 0.44651949253391748 0.77225997208621999 0 0.47062147868881782 0.80650323854033878 0 0.42893012659725649 0.81084715169569632 0 0.47062147868881782 0.80650323854033878 0 0.46181179062043481 0.83858979842637782 0 0.42893012659725649 0.81084715169569632 0 0.46181179062043481 0.83858979842637782 0 0.42880856207355889 0.86677159981903118 0 0.46181179062043481 0.83858979842637782 0 0.5 0.85294117647058831 0 0.5 0.82352941176470584 0 0.47062147868881782 0.80650323854033878 0 0.46181179062043481 0.83858979842637782 0 0.5 0.82352941176470584 0 0.46181179062043481 0.83858979842637782 0 0.47032448519202857 0.86718057681700655 0 0.5 0.85294117647058831 0 0.47032448519202857 0.86718057681700655 0 0.5 0.88235294117647056 0 0.5 0.85294117647058831 0 0.46181179062043481 0.83858979842637782 0 0.47032448519202857 0.86718057681700655 0 0.42880856207355889 0.86677159981903118 0 0.36493375430404612 0.82333914183704071 0 0.42880856207355889 0.86677159981903118 0 0.37746652222901839 0.8987532801416368 0 0.36493375430404612 0.82333914183704071 0 0.42893012659725649 0.81084715169569632 0 0.42880856207355889 0.86677159981903118 0 0.37746652222901839 0.8987532801416368 0 0.42822627495986648 0.92083108049218854 0 0.39382242252278338 0.95440420122950598 0 0.42880856207355889 0.86677159981903118 0 0.37746652222901839 0.8987532801416368 0 0.42822627495986648 0.92083108049218854 0 0.47032448519202857 0.86718057681700655 0 0.42880856207355889 0.86677159981903118 0 0.46100207326614928 0.89524736819256467 0 0.42880856207355889 0.86677159981903118 0 0.42822627495986648 0.92083108049218854 0 0.46100207326614928 0.89524736819256467 0 0.47032448519202857 0.86718057681700655 0 0.46100207326614928 0.89524736819256467 0 0.5 0.88235294117647056 0 0.46100207326614928 0.89524736819256467 0 0.5 0.91176470588235292 0 0.5 0.88235294117647056 0 0.46100207326614928 0.89524736819256467 0 0.46949408183482899 0.92833826413560594 0 0.5 0.91176470588235292 0 0.46949408183482899 0.92833826413560594 0 0.5 0.94117647058823528 0 0.5 0.91176470588235292 0 0.42822627495986648 0.92083108049218854 0 0.46100207326614928 0.89524736819256467 0 0.46949408183482899 0.92833826413560594 0 0.46949408183482899 0.92833826413560594 0 0.44768478605684647 0.9646709673379662 0 0.47596308696979028 0.95620709615192379 0 0.42822627495986648 0.92083108049218854 0 0.46949408183482899 0.92833826413560594 0 0.44768478605684647 0.9646709673379662 0 0.44768478605684647 0.9646709673379662 0 0.47596308696979028 0.95620709615192379 0 0.47818194888216242 0.97829325975680159 0 0.46949408183482899 0.92833826413560594 0 0.47596308696979028 0.95620709615192379 0 0.5 0.94117647058823528 0 0.47596308696979028 0.95620709615192379 0 0.47818194888216242 0.97829325975680159 0 0.5 0.97058823529411764 0 0.47596308696979028 0.95620709615192379 0 0.5 0.97058823529411764 0 0.5 0.94117647058823528 0 0.47818194888216242 0.97829325975680159 0 0.46726187138417491 1 0 0.5 1 0 0.47818194888216242 0.97829325975680159 0 0.5 0.97058823529411764 0 0.5 1 0 0.44768478605684647 0.9646709673379662 0 0.47818194888216242 0.97829325975680159 0 0.46726187138417491 1 0 0.44768478605684647 0.9646709673379662 0 0.46726187138417491 1 0 0.42231823435723009 1 0 0.44768478605684647 0.9646709673379662 0 0.42231823435723009 1 0 0.39382242252278338 0.95440420122950598 0 0.42822627495986648 0.92083108049218854 0 0.44768478605684647 0.9646709673379662 0 0.39382242252278338 0.95440420122950598 0 0.36061858902161292 1 0 0.42231823435723009 1 0 0.39382242252278338 0.95440420122950598 0 0.31771010312359771 0.58585679504088894 0 0.3872154068451229 0.6301386882447304 0 0.41980724897053312 0.55867199730355355 0 0.32540781287085369 0.49175159894608172 0 0.31771010312359771 0.58585679504088894 0 0.41980724897053312 0.55867199730355355 0 0.32540781287085369 0.49175159894608172 0 0.22453074737734591 0.51613635929252633 0 0.31771010312359771 0.58585679504088894 0 0.18442368612951149 0.62734948407416979 0 0.31771010312359771 0.58585679504088894 0 0.31346558946927339 0.67110784456164874 0 0.22727208279115291 0.72949159435386135 0 0.32984265945580837 0.74432890077789404 0 0.31346558946927339 0.67110784456164874 0 0.39746869305290999 0.7595658224757349 0 0.32984265945580837 0.74432890077789404 0 0.38513711431054509 0.69312683393047636 0 0.32984265945580837 0.74432890077789404 0 0.31346558946927339 0.67110784456164874 0 0.38513711431054509 0.69312683393047636 0 0.31771010312359771 0.58585679504088894 0 0.31346558946927339 0.67110784456164874 0 0.3872154068451229 0.6301386882447304 0 0.31346558946927339 0.67110784456164874 0 0.3872154068451229 0.6301386882447304 0 0.38513711431054509 0.69312683393047636 0 0.3872154068451229 0.6301386882447304 0 0.38513711431054509 0.69312683393047636 0 0.4390556798454946 0.66199025953586599 0 0.3872154068451229 0.6301386882447304 0 0.4390556798454946 0.66199025953586599 0 0.44702869549010399 0.61002701911053991 0 0.39746869305290999 0.7595658224757349 0 0.38513711431054509 0.69312683393047636 0 0.43412357948152142 0.72128778687215156 0 0.38513711431054509 0.69312683393047636 0 0.43412357948152142 0.72128778687215156 0 0.4390556798454946 0.66199025953586599 0 0.43412357948152142 0.72128778687215156 0 0.47636314644728822 0.72058823529411908 0 0.47220206448452873 0.74892462649306213 0 0.44651949253391748 0.77225997208621999 0 0.43412357948152142 0.72128778687215156 0 0.47220206448452873 0.74892462649306213 0 0.43412357948152142 0.72128778687215156 0 0.46330219403010409 0.69594601192744354 0 0.4390556798454946 0.66199025953586599 0 0.43412357948152142 0.72128778687215156 0 0.46330219403010409 0.69594601192744354 0 0.47636314644728822 0.72058823529411908 0 0.46330219403010409 0.69594601192744354 0 0.47636314644728822 0.72058823529411908 0 0.5 0.70588235294117663 0 0.46330219403010409 0.69594601192744354 0 0.5 0.67647058823529438 0 0.5 0.70588235294117663 0 0.47636314644728822 0.72058823529411908 0 0.5 0.73529411764705888 0 0.5 0.70588235294117663 0 0.47220206448452873 0.74892462649306213 0 0.5 0.73529411764705888 0 0.5 0.76470588235294124 0 0.47636314644728822 0.72058823529411908 0 0.47220206448452873 0.74892462649306213 0 0.5 0.73529411764705888 0 0.4390556798454946 0.66199025953586599 0 0.47501372853621993 0.66300743809067952 0 0.47271076880550111 0.63357150722538136 0 0.4390556798454946 0.66199025953586599 0 0.47271076880550111 0.63357150722538136 0 0.44702869549010399 0.61002701911053991 0 0.46330219403010409 0.69594601192744354 0 0.4390556798454946 0.66199025953586599 0 0.47501372853621993 0.66300743809067952 0 0.46330219403010409 0.69594601192744354 0 0.47501372853621993 0.66300743809067952 0 0.5 0.67647058823529438 0 0.47501372853621993 0.66300743809067952 0 0.5 0.64705882352941191 0 0.5 0.67647058823529438 0 0.47501372853621993 0.66300743809067952 0 0.47271076880550111 0.63357150722538136 0 0.5 0.64705882352941191 0 0.47271076880550111 0.63357150722538136 0 0.5 0.61764705882352966 0 0.5 0.64705882352941191 0 0.47784843225772261 0.60532339797118362 0 0.5 0.5882352941176473 0 0.5 0.61764705882352966 0 0.47271076880550111 0.63357150722538136 0 0.47784843225772261 0.60532339797118362 0 0.5 0.61764705882352966 0 0.46950269699300751 0.57713611057881953 0 0.5 0.55882352941176494 0 0.5 0.5882352941176473 0 0.47784843225772261 0.60532339797118362 0 0.46950269699300751 0.57713611057881953 0 0.5 0.5882352941176473 0 0.46950269699300751 0.57713611057881953 0 0.44702869549010399 0.61002701911053991 0 0.41980724897053312 0.55867199730355355 0 0.47784843225772261 0.60532339797118362 0 0.46950269699300751 0.57713611057881953 0 0.44702869549010399 0.61002701911053991 0 0.47271076880550111 0.63357150722538136 0 0.47784843225772261 0.60532339797118362 0 0.44702869549010399 0.61002701911053991 0 0.3872154068451229 0.6301386882447304 0 0.44702869549010399 0.61002701911053991 0 0.41980724897053312 0.55867199730355355 0 0.41576443813007791 0.48093483781626972 0 0.32540781287085369 0.49175159894608172 0 0.41980724897053312 0.55867199730355355 0 0.41576443813007791 0.48093483781626972 0 0.41980724897053312 0.55867199730355355 0 0.4638583922372429 0.51470588235294135 0 0.41980724897053312 0.55867199730355355 0 0.4638583922372429 0.51470588235294135 0 0.47063366764015668 0.5477498568705923 0 0.46950269699300751 0.57713611057881953 0 0.41980724897053312 0.55867199730355355 0 0.47063366764015668 0.5477498568705923 0 0.46950269699300751 0.57713611057881953 0 0.47063366764015668 0.5477498568705923 0 0.5 0.55882352941176494 0 0.47063366764015668 0.5477498568705923 0 0.5 0.52941176470588269 0 0.5 0.55882352941176494 0 0.4638583922372429 0.51470588235294135 0 0.47063366764015668 0.5477498568705923 0 0.5 0.52941176470588269 0 0.4638583922372429 0.51470588235294135 0 0.5 0.5 0 0.5 0.52941176470588269 0 0.5 0.52941176470588269 0 0.52629893369322589 0.51330452493555312 0 0.52820848765230954 0.54540076010342464 0 0.5 0.5 0 0.5 0.52941176470588269 0 0.52629893369322589 0.51330452493555312 0 0.5 0.5 0 0.5 0.52941176470588269 0 0.5 0.52941176470588269 0 0.5 0.55882352941176494 0 0.52820848765230954 0.54540076010342464 0 0.5 0.52941176470588269 0 0.5 0.55882352941176494 0 0.5 0.55882352941176494 0 0.52820848765230954 0.54540076010342464 0 0.52246722155046366 0.57417151085839346 0 0.52820848765230954 0.54540076010342464 0 0.56199650931215228 0.51957997397013023 0 0.55931585964581554 0.57571189932143541 0 0.52629893369322589 0.51330452493555312 0 0.56199650931215228 0.51957997397013023 0 0.54128967150166729 0.47213012589832831 0 0.52629893369322589 0.51330452493555312 0 0.52820848765230954 0.54540076010342464 0 0.56199650931215228 0.51957997397013023 0 0.56199650931215228 0.51957997397013023 0 0.61174067805461174 0.54148194547208961 0 0.60345082206666756 0.47575908627627911 0 0.56199650931215228 0.51957997397013023 0 0.61174067805461174 0.54148194547208961 0 0.55931585964581554 0.57571189932143541 0 0.61174067805461174 0.54148194547208961 0 0.61264973759093866 0.60999664295093947 0 0.55931585964581554 0.57571189932143541 0 0.61264973759093866 0.60999664295093947 0 0.55931585964581554 0.57571189932143541 0 0.55828304378107996 0.63546085023637511 0 0.55931585964581554 0.57571189932143541 0 0.52754891270107895 0.60396918438229519 0 0.55828304378107996 0.63546085023637511 0 0.52754891270107895 0.60396918438229519 0 0.52222323737415433 0.63323059203007803 0 0.55828304378107996 0.63546085023637511 0 0.52820848765230954 0.54540076010342464 0 0.55931585964581554 0.57571189932143541 0 0.52246722155046366 0.57417151085839346 0 0.55931585964581554 0.57571189932143541 0 0.52246722155046366 0.57417151085839346 0 0.52754891270107895 0.60396918438229519 0 0.52246722155046366 0.57417151085839346 0 0.5 0.5882352941176473 0 0.52754891270107895 0.60396918438229519 0 0.5 0.55882352941176494 0 0.52246722155046366 0.57417151085839346 0 0.5 0.5882352941176473 0 0.5 0.55882352941176494 0 0.5 0.5882352941176473 0 0.52754891270107895 0.60396918438229519 0 0.5 0.61764705882352966 0 0.52222323737415433 0.63323059203007803 0 0.5 0.5882352941176473 0 0.5 0.61764705882352966 0 0.5 0.5882352941176473 0 0.52754891270107895 0.60396918438229519 0 0.5 0.61764705882352966 0 0.5 0.61764705882352966 0 0.52222323737415433 0.63323059203007803 0 0.5 0.64705882352941191 0 0.5 0.61764705882352966 0 0.5 0.64705882352941191 0 0.52222323737415433 0.63323059203007803 0 0.5 0.64705882352941191 0 0.52736180768426655 0.66304505109048573 0 0.5 0.64705882352941191 0 0.5 0.67647058823529438 0 0.52736180768426655 0.66304505109048573 0 0.5 0.64705882352941191 0 0.5 0.67647058823529438 0 0.5 0.67647058823529438 0 0.52736180768426655 0.66304505109048573 0 0.52189318962165776 0.69193883095305098 0 0.52736180768426655 0.66304505109048573 0 0.52189318962165776 0.69193883095305098 0 0.55852327729743823 0.69498827241231187 0 0.52736180768426655 0.66304505109048573 0 0.55828304378107996 0.63546085023637511 0 0.55852327729743823 0.69498827241231187 0 0.52222323737415433 0.63323059203007803 0 0.52736180768426655 0.66304505109048573 0 0.55828304378107996 0.63546085023637511 0 0.5 0.73529411764705888 0 0.52547133540542634 0.72058823529411897 0 0.5211984712236245 0.75134107022269114 0 0.5 0.73529411764705888 0 0.52547133540542634 0.72058823529411897 0 0.5 0.70588235294117663 0 0.5 0.73529411764705888 0 0.5 0.70588235294117663 0 0.52547133540542634 0.72058823529411897 0 0.5 0.70588235294117663 0 0.52189318962165776 0.69193883095305098 0 0.5 0.67647058823529438 0 0.5 0.70588235294117663 0 0.52189318962165776 0.69193883095305098 0 0.5 0.67647058823529438 0 0.5 0.70588235294117663 0 0.52547133540542634 0.72058823529411897 0 0.52189318962165776 0.69193883095305098 0 0.55852327729743823 0.69498827241231187 0 0.52547133540542634 0.72058823529411897 0 0.5211984712236245 0.75134107022269114 0 0.55458114032207428 0.75544804615062711 0 0.52547133540542634 0.72058823529411897 0 0.55852327729743823 0.69498827241231187 0 0.55458114032207428 0.75544804615062711 0 0.55852327729743823 0.69498827241231187 0 0.6088970477846376 0.72715446211577472 0 0.55458114032207428 0.75544804615062711 0 0.55852327729743823 0.69498827241231187 0 0.6088970477846376 0.72715446211577472 0 0.60110770968787908 0.67045598539422102 0 0.61264973759093866 0.60999664295093947 0 0.55828304378107996 0.63546085023637511 0 0.60110770968787908 0.67045598539422102 0 0.55828304378107996 0.63546085023637511 0 0.55852327729743823 0.69498827241231187 0 0.60110770968787908 0.67045598539422102 0 0.61264973759093866 0.60999664295093947 0 0.60110770968787908 0.67045598539422102 0 0.66621429167335955 0.68470300534742679 0 0.6088970477846376 0.72715446211577472 0 0.66621429167335955 0.68470300534742679 0 0.6817340940367822 0.76923101696744944 0 0.6088970477846376 0.72715446211577472 0 0.60110770968787908 0.67045598539422102 0 0.66621429167335955 0.68470300534742679 0 0.66621429167335955 0.68470300534742679 0 0.6817340940367822 0.76923101696744944 0 0.7828103453665094 0.69876044407634474 0 0.66621429167335955 0.68470300534742679 0 0.69354174170208815 0.57892485983477626 0 0.7828103453665094 0.69876044407634474 0 0.69354174170208815 0.57892485983477626 0 0.77935529174931761 0.49004815756283893 0 0.66681557370681976 0.49435464945626773 0 0.61174067805461174 0.54148194547208961 0 0.69354174170208815 0.57892485983477626 0 0.66681557370681976 0.49435464945626773 0 0.61174067805461174 0.54148194547208961 0 0.60345082206666756 0.47575908627627911 0 0.66681557370681976 0.49435464945626773 0 0.61174067805461174 0.54148194547208961 0 0.61264973759093866 0.60999664295093947 0 0.69354174170208815 0.57892485983477626 0 0.61264973759093866 0.60999664295093947 0 0.66621429167335955 0.68470300534742679 0 0.69354174170208815 0.57892485983477626 0 0.60145933092659498 0.94808652648958736 0 0.57768176564240026 1 0 0.63938141097836054 1 0 0.60145933092659498 0.94808652648958736 0 0.55381003699196441 0.97073734537240042 0 0.55652711631508067 0.93435010280744335 0 0.60145933092659498 0.94808652648958736 0 0.57768176564240026 1 0 0.55381003699196441 0.97073734537240042 0 0.57768176564240026 1 0 0.53273812861558045 1 0 0.55381003699196441 0.97073734537240042 0 0.53273812861558045 1 0 0.55381003699196441 0.97073734537240042 0 0.52191028766292435 0.97912620202886635 0 0.53273812861558045 1 0 0.52191028766292435 0.97912620202886635 0 0.5 1 0 0.52191028766292435 0.97912620202886635 0 0.5 0.97058823529411764 0 0.5 1 0 0.5 0.97058823529411764 0 0.5 1 0 0.5 0.97058823529411764 0 0.5 0.94117647058823528 0 0.5 0.97058823529411764 0 0.5 0.94117647058823528 0 0.52554900427979434 0.95492408164812537 0 0.52191028766292435 0.97912620202886635 0 0.5 0.97058823529411764 0 0.52554900427979434 0.95492408164812537 0 0.5 0.94117647058823528 0 0.52554900427979434 0.95492408164812537 0 0.52149395742518578 0.9280464911497236 0 0.55381003699196441 0.97073734537240042 0 0.52554900427979434 0.95492408164812537 0 0.55652711631508067 0.93435010280744335 0 0.55381003699196441 0.97073734537240042 0 0.52191028766292435 0.97912620202886635 0 0.52554900427979434 0.95492408164812537 0 0.52554900427979434 0.95492408164812537 0 0.55652711631508067 0.93435010280744335 0 0.52149395742518578 0.9280464911497236 0 0.55652711631508067 0.93435010280744335 0 0.52982914238326484 0.89727189043838895 0 0.57507719038536997 0.89743529736491356 0 0.55652711631508067 0.93435010280744335 0 0.52149395742518578 0.9280464911497236 0 0.52982914238326484 0.89727189043838895 0 0.52149395742518578 0.9280464911497236 0 0.5 0.91176470588235292 0 0.52982914238326484 0.89727189043838895 0 0.5 0.94117647058823528 0 0.5 0.91176470588235292 0 0.5 0.94117647058823528 0 0.52149395742518578 0.9280464911497236 0 0.5 0.91176470588235292 0 0.5 0.91176470588235292 0 0.5 0.88235294117647056 0 0.52982914238326484 0.89727189043838895 0 0.5 0.91176470588235292 0 0.5 0.88235294117647056 0 0.5 0.88235294117647056 0 0.52982914238326484 0.89727189043838895 0 0.51991574276818808 0.86764705882352966 0 0.52982914238326484 0.89727189043838895 0 0.57507719038536997 0.89743529736491356 0 0.54799184932697576 0.8599032232094268 0 0.60145933092659498 0.94808652648958736 0 0.55652711631508067 0.93435010280744335 0 0.57507719038536997 0.89743529736491356 0 0.60145933092659498 0.94808652648958736 0 0.57507719038536997 0.89743529736491356 0 0.63427031498547037 0.88927276979110648 0 0.57507719038536997 0.89743529736491356 0 0.58994607995897996 0.84812355238296233 0 0.63427031498547037 0.88927276979110648 0 0.58994607995897996 0.84812355238296233 0 0.64153141236229239 0.83072478436463804 0 0.63427031498547037 0.88927276979110648 0 0.58994607995897996 0.84812355238296233 0 0.60049020024666178 0.78900583008989877 0 0.64153141236229239 0.83072478436463804 0 0.58994607995897996 0.84812355238296233 0 0.54799184932697576 0.8599032232094268 0 0.55206941203846505 0.81091931303809783 0 0.58994607995897996 0.84812355238296233 0 0.55206941203846505 0.81091931303809783 0 0.60049020024666178 0.78900583008989877 0 0.57507719038536997 0.89743529736491356 0 0.58994607995897996 0.84812355238296233 0 0.54799184932697576 0.8599032232094268 0 0.52982914238326484 0.89727189043838895 0 0.54799184932697576 0.8599032232094268 0 0.51991574276818808 0.86764705882352966 0 0.54799184932697576 0.8599032232094268 0 0.51991574276818808 0.86764705882352966 0 0.52395085592512047 0.83729395211968571 0 0.51991574276818808 0.86764705882352966 0 0.5 0.85294117647058831 0 0.52395085592512047 0.83729395211968571 0 0.5 0.88235294117647056 0 0.5 0.85294117647058831 0 0.5 0.88235294117647056 0 0.51991574276818808 0.86764705882352966 0 0.5 0.85294117647058831 0 0.5 0.82352941176470584 0 0.52395085592512047 0.83729395211968571 0 0.52039202967084142 0.80930587873000437 0 0.5 0.85294117647058831 0 0.5 0.82352941176470584 0 0.5 0.85294117647058831 0 0.5 0.82352941176470584 0 0.52395085592512047 0.83729395211968571 0 0.52395085592512047 0.83729395211968571 0 0.55206941203846505 0.81091931303809783 0 0.52039202967084142 0.80930587873000437 0 0.54799184932697576 0.8599032232094268 0 0.52395085592512047 0.83729395211968571 0 0.55206941203846505 0.81091931303809783 0 0.55206941203846505 0.81091931303809783 0 0.52039202967084142 0.80930587873000437 0 0.52593988039062167 0.78066906966870908 0 0.55206941203846505 0.81091931303809783 0 0.52593988039062167 0.78066906966870908 0 0.55458114032207428 0.75544804615062711 0 0.52039202967084142 0.80930587873000437 0 0.5 0.79411764705882359 0 0.52593988039062167 0.78066906966870908 0 0.5 0.82352941176470584 0 0.5 0.79411764705882359 0 0.5 0.82352941176470584 0 0.52039202967084142 0.80930587873000437 0 0.5 0.79411764705882359 0 0.5 0.73529411764705888 0 0.5 0.76470588235294124 0 0.5 0.73529411764705888 0 0.5 0.76470588235294124 0 0.5211984712236245 0.75134107022269114 0 0.5 0.79411764705882359 0 0.5 0.76470588235294124 0 0.52593988039062167 0.78066906966870908 0 0.5 0.79411764705882359 0 0.5 0.76470588235294124 0 0.5 0.76470588235294124 0 0.52593988039062167 0.78066906966870908 0 0.5211984712236245 0.75134107022269114 0 0.52593988039062167 0.78066906966870908 0 0.5211984712236245 0.75134107022269114 0 0.55458114032207428 0.75544804615062711 0 0.6088970477846376 0.72715446211577472 0 0.55458114032207428 0.75544804615062711 0 0.60049020024666178 0.78900583008989877 0 0.55206941203846505 0.81091931303809783 0 0.55458114032207428 0.75544804615062711 0 0.60049020024666178 0.78900583008989877 0 0.6817340940367822 0.76923101696744944 0 0.70916369539323409 0.86041409043207073 0 0.80987878298654392 0.8110307373443908 0 0.6088970477846376 0.72715446211577472 0 0.60049020024666178 0.78900583008989877 0 0.6817340940367822 0.76923101696744944 0 0.60049020024666178 0.78900583008989877 0 0.6817340940367822 0.76923101696744944 0 0.64153141236229239 0.83072478436463804 0 0.70916369539323409 0.86041409043207073 0 0.64153141236229239 0.83072478436463804 0 0.63427031498547037 0.88927276979110648 0 0.6817340940367822 0.76923101696744944 0 0.70916369539323409 0.86041409043207073 0 0.64153141236229239 0.83072478436463804 0 0.70916369539323409 0.86041409043207073 0 0.68173274398262862 0.93660593960145366 0 0.63427031498547037 0.88927276979110648 0 0.60145933092659498 0.94808652648958736 0 0.68173274398262862 0.93660593960145366 0 0.63427031498547037 0.88927276979110648 0 0.70916369539323409 0.86041409043207073 0 0.68173274398262862 0.93660593960145366 0 0.78222494485339233 0.91531439423588867 0 0.68173274398262862 0.93660593960145366 0 0.72408407698689681 1 0 0.78222494485339233 0.91531439423588867 0 0.60145933092659498 0.94808652648958736 0 0.68173274398262862 0.93660593960145366 0 0.63938141097836054 1 0 0.68173274398262862 0.93660593960145366 0 0.72408407698689681 1 0 0.63938141097836054 1 0 1 1 0 0.89611933618281592 0.89173516444576184 0 1 0.74999999999934008 0 0.72408407698689681 1 0 0.84036581271988753 1 0 0.78222494485339233 0.91531439423588867 0 0.84036581271988753 1 0 0.78222494485339233 0.91531439423588867 0 0.89611933618281592 0.89173516444576184 0 0.6817340940367822 0.76923101696744944 0 0.80987878298654392 0.8110307373443908 0 0.7828103453665094 0.69876044407634474 0 0.80987878298654392 0.8110307373443908 0 0.7828103453665094 0.69876044407634474 0 1 0.74999999999934008 0 0.78222494485339233 0.91531439423588867 0 0.80987878298654392 0.8110307373443908 0 0.89611933618281592 0.89173516444576184 0 0.70916369539323409 0.86041409043207073 0 0.78222494485339233 0.91531439423588867 0 0.80987878298654392 0.8110307373443908 0 0.80987878298654392 0.8110307373443908 0 0.89611933618281592 0.89173516444576184 0 1 0.74999999999934008 0 0.84036581271988753 1 0 1 1 0 0.89611933618281592 0.89173516444576184 0 0.84549316180028322 0.59867304496468476 0 1 0.74999999999934008 0 1 0.49999999999869182 0 0.69354174170208815 0.57892485983477626 0 0.84549316180028322 0.59867304496468476 0 0.77935529174931761 0.49004815756283893 0 0.84549316180028322 0.59867304496468476 0 1 0.49999999999869182 0 0.77935529174931761 0.49004815756283893 0 0.69354174170208815 0.57892485983477626 0 0.84549316180028322 0.59867304496468476 0 0.7828103453665094 0.69876044407634474 0 0.84549316180028322 0.59867304496468476 0 0.7828103453665094 0.69876044407634474 0 1 0.74999999999934008 0 1 0.49999999999869182 0 0.77935529174931761 0.49004815756283893 0 0.80451351819826811 0.35479918680564199 0 0.80451351819826811 0.35479918680564199 0 1 0.24999999999941089 0 0.79923457477009219 0.1751534052300894 0 1 0.49999999999869182 0 0.80451351819826811 0.35479918680564199 0 1 0.24999999999941089 0 1 0 0 0.79923457477009219 0.1751534052300894 0 0.74999999999934008 0 0 1 0.24999999999941089 0 1 0 0 0.79923457477009219 0.1751534052300894 0 0.49999999999869182 0 0 0.62537763927714929 0.14286513648320209 0 0.74999999999934008 0 0 0.79923457477009219 0.1751534052300894 0 0.62537763927714929 0.14286513648320209 0 0.6197279975813802 0.30020319976287241 0 0.79923457477009219 0.1751534052300894 0 0.62537763927714929 0.14286513648320209 0 0.74999999999934008 0 0 0.49924741621175961 0.21507969613896921 0 0.49999999999869182 0 0 0.62537763927714929 0.14286513648320209 0 0.49924741621175961 0.21507969613896921 0 0.62537763927714929 0.14286513648320209 0 0.6197279975813802 0.30020319976287241 0 0.49924741621175961 0.21507969613896921 0 0.49435464945626773 0.33318442629318029 0 0.6197279975813802 0.30020319976287241 0 0.49435464945626773 0.33318442629318029 0 0.6197279975813802 0.30020319976287241 0 0.54876010062294855 0.39662628167175101 0 0.6197279975813802 0.30020319976287241 0 0.54876010062294855 0.39662628167175101 0 0.66576775508844777 0.41353720431697111 0 0.49954900152271581 0.45107191084564019 0 0.45418244162583959 0.41624787166862259 0 0.54876010062294855 0.39662628167175101 0 0.49954900152271581 0.45107191084564019 0 0.54876010062294855 0.39662628167175101 0 0.54128967150166729 0.47213012589832831 0 0.49954900152271581 0.45107191084564019 0 0.5 0.5 0 0.54128967150166729 0.47213012589832831 0 0.5 0.5 0 0.52629893369322589 0.51330452493555312 0 0.54128967150166729 0.47213012589832831 0 0.54876010062294855 0.39662628167175101 0 0.54128967150166729 0.47213012589832831 0 0.60345082206666756 0.47575908627627911 0 0.56199650931215228 0.51957997397013023 0 0.54128967150166729 0.47213012589832831 0 0.60345082206666756 0.47575908627627911 0 0.54876010062294855 0.39662628167175101 0 0.60345082206666756 0.47575908627627911 0 0.66576775508844777 0.41353720431697111 0 0.77935529174931761 0.49004815756283893 0 0.80451351819826811 0.35479918680564199 0 0.66576775508844777 0.41353720431697111 0 0.60345082206666756 0.47575908627627911 0 0.66576775508844777 0.41353720431697111 0 0.66681557370681976 0.49435464945626773 0 0.77935529174931761 0.49004815756283893 0 0.66576775508844777 0.41353720431697111 0 0.66681557370681976 0.49435464945626773 0 0.80451351819826811 0.35479918680564199 0 0.79923457477009219 0.1751534052300894 0 0.6197279975813802 0.30020319976287241 0 0.80451351819826811 0.35479918680564199 0 0.6197279975813802 0.30020319976287241 0 0.66576775508844777 0.41353720431697111 0 
</DataArray>
</Points>
<Cells>
<DataArray type="UInt32" Name="connectivity" format="ascii">
0 1 2 3 4 5 6 7 8 9 10 11 12 13 14 15 16 17 18 19 20 21 22 23 24 25 26 27 28 29 30 31 32 33 34 35 36 37 38 39 40 41 42 43 44 45 46 47 48 49 50 51 52 53 54 55 56 57 58 59 60 61 62 63 64 65 66 67 68 69 70 71 72 73 74 75 76 77 78 79 80 81 82 83 84 85 86 87 88 89 90 91 92 93 94 95 96 97 98 99 100 101 102 103 104 105 106 107 108 109 110 111 112 113 114 115 116 117 118 119 120 121 122 123 124 125 126 127 128 129 130 131 132 133 134 135 136 137 138 139 140 141 142 143 144 145 146 147 148 149 150 151 152 153 154 155 156 157 158 159 160 161 162 163 164 165 166 167 168 169 170 171 172 173 174 175 176 177 178 179 180 181 182 183 184 185 186 187 188 189 190 191 192 193 194 195 196 197 198 199 200 201 202 203 204 205 206 207 208 209 210 211 212 213 214 215 216 217 218 219 220 221 222 223 224 225 226 227 228 229 230 231 232 233 234 235 236 237 238 239 240 241 242 243 244 245 246 247 248 249 250 251 252 253 254 255 256 257 258 259 260 261 262 263 264 265 266 267 268 269 270 271 272 273 274 275 276 277 278 279 280 281 282 283 284 285 286 287 288 289 290 291 292 293 294 295 296 297 298 299 300 301 302 303 304 305 306 307 308 309 310 311 312 313 314 315 316 317 318 319 320 321 322 323 324 325 326 327 328 329 330 331 332 333 334 335 336 337 338 339 340 341 342 343 344 345 346 347 348 349 350 351 352 353 354 355 356 357 358 359 360 361 362 363 364 365 366 367 368 369 370 371 372 373 374 375 376 377 378 379 380 381 382 383 384 385 386 387 388 389 390 391 392 393 394 395 396 397 398 399 400 401 402 403 404 405 406 407 408 409 410 411 412 413 414 415 416 417 418 419 420 421 422 423 424 425 426 427 428 429 430 431 432 433 434 435 436 437 438 439 440 441 442 443 444 445 446 447 448 449 450 451 452 453 454 455 456 457 458 459 460 461 462 463 464 465 466 467 468 469 470 471 472 473 474 475 476 477 478 479 480 481 482 483 484 485 486 487 488 489 490 491 492 493 494 495 496 497 498 499 500 501 502 503 504 505 506 507 508 509 510 511 512 513 514 515 516 517 518 519 520 521 522 523 524 525 526 527 528 529 530 531 532 533 534 535 536 537 538 539 540 541 542 543 544 545 546 547 548 549 550 551 552 553 554 555 556 557 558 559 560 561 562 563 564 565 566 567 568 569 570 571 572 573 574 575 576 577 578 579 580 581 582 583 584 585 586 587 588 589 590 591 592 593 594 595 596 597 598 599 600 601 602 603 604 605 606 607 608 609 610 611 612 613 614 615 616 617 618 619 620 621 622 623 624 625 626 627 628 629 630 631 632 633 634 635 636 637 638 639 640 641 642 643 644 645 646 647 648 649 650 651 652 653 654 655 656 657 658 659 660 661 662 663 664 665 666 667 668 669 670 671 672 673 674 675 676 677 678 679 680 681 682 683 684 685 686 687 688 689 690 691 692 693 694 695 696 697 698 699 700 701 702 703 704 705 706 707 708 709 710 711 712 713 714 715 716 717 718 719 720 721 722 723 724 725 726 727 728 729 730 731 732 733 734 735 736 737 738 739 740 741 742 743 744 745 746 747 748 749 750 751 752 753 754 755 756 757 758 759 760 761 762 763 764 765 766 767 768 769 770 771 772 773 774 775 776 777 778 779 780 781 782 783 784 785 786 787 788 789 790 791 792 793 794 795 796 797 798 799 800 801 802 803 804 805 806 807 808 809 810 811 812 813 814 815 816 817 818 819 820 821 822 823 824 825 826 827 828 829 830 831 832 833 834 835 836 837 838 839 840 841 842 843 844 845 846 847 848 849 850 851 852 853 854 855 856 857 858 859 860 861 862 863 864 865 866 867 868 869 870 871 872 873 874 875 876 877 878 879 
</DataArray>
<DataArray type="UInt32" Name="offsets" format="ascii">
3 6 9 12 15 18 21 24 27 30 33 36 39 42 45 48 51 54 57 60 63 66 69 72 75 78 81 84 87 90 93 96 99 102 105 108 111 114 117 120 123 126 129 132 135 138 141 144 147 150 153 156 159 162 165 168 171 174 177 180 183 186 189 192 195 198 201 204 207 210 213 216 219 222 225 228 231 234 237 240 243 246 249 252 255 258 261 264 267 270 273 276 279 282 285 288 291 294 297 300 303 306 309 312 315 318 321 324 327 330 333 336 339 342 345 348 351 354 357 360 363 366 369 372 375 378 381 384 387 390 393 396 399 402 405 408 411 414 417 420 423 425 428 430 433 436 439 442 445 448 451 454 457 460 463 466 469 472 474 477 479 482 485 487 490 493 495 498 501 504 507 510 513 515 518 521 523 526 529 532 535 538 541 544 547 550 553 556 559 562 565 568 571 574 577 580 583 586 589 592 595 597 599 602 605 608 611 614 617 620 623 626 628 631 634 636 639 642 645 648 651 654 657 660 663 666 669 672 675 677 680 683 685 688 691 694 697 700 703 705 708 710 713 716 718 721 724 727 730 733 736 739 742 745 748 751 754 757 760 763 766 769 772 775 778 781 784 787 790 793 796 799 802 805 808 811 814 817 820 823 826 829 832 835 838 841 844 847 850 853 856 859 862 865 868 871 874 877 880 
</DataArray>
<DataArray type="UInt32" Name="types" format="ascii">
5 5 5 5 5 5 5 5 5 5 5 5 5 5 5 5 5 5 5 5 5 5 5 5 5 5 5 5 5 5 5 5 5 5 5 5 5 5 5 5 5 5 5 5 5 5 5 5 5 5 5 5 5 5 5 5 5 5 5 5 5 5 5 5 5 5 5 5 5 5 5 5 5 5 5 5 5 5 5 5 5 5 5 5 5 5 5 5 5 5 5 5 5 5 5 5 5 5 5 5 5 5 5 5 5 5 5 5 5 5 5 5 5 5 5 5 5 5 5 5 5 5 5 5 5 5 5 5 5 5 5 5 5 5 5 5 5 5 5 5 5 3 5 3 5 5 5 5 5 5 5 5 5 5 5 5 5 5 3 5 3 5 5 3 5 5 3 5 5 5 5 5 5 3 5 5 3 5 5 5 5 5 5 5 5 5 5 5 5 5 5 5 5 5 5 5 5 5 5 5 5 3 3 5 5 5 5 5 5 5 5 5 3 5 5 3 5 5 5 5 5 5 5 5 5 5 5 5 5 3 5 5 3 5 5 5 5 5 5 3 5 3 5 5 3 5 5 5 5 5 5 5 5 5 5 5 5 5 5 5 5 5 5 5 5 5 5 5 5 5 5 5 5 5 5 5 5 5 5 5 5 5 5 5 5 5 5 5 5 5 5 5 5 5 5 5 5 5 5 
</DataArray>
</Cells>
<PointData Scalars="" Vectors="displacement," Tensors="">
<DataArray type="Float64" Name="displacement" NumberOfComponents="3" format="ascii">
-2.7007289884437868e-06 1.1634635922972019e-05 0 0.00082986769396433378 -0.0023146528274624579 0 0.0046454816035601098 0.0087994633214557791 0 -2.7007289884437868e-06 1.1634635922972019e-05 0 0.000829867693964334 -0.0023146528274624583 0 -3.8537140359793457e-06 -9.0497343525176693e-06 0 -3.8537140359793457e-06 -9.0497343525176693e-06 0 -0.0014085940834914692 -0.011891589143846625 0 -4.6842801242508934e-06 -2.9985856144874032e-05 0 0.00082986769396433378 -0.0023146528274624579 0 -3.8537140359793457e-06 -9.0497343525176693e-06 0 -0.0014085940834914692 -0.011891589143846625 0 -0.0014085940834914692 -0.011891589143846625 0 0.0014704574545362111 -0.025279358579795942 0 -4.6842801242508934e-06 -2.9985856144874032e-05 0 -0.0014085940834914692 -0.011891589143846625 0 0.0014704574545362111 -0.025279358579795942 0 0.0089354972628864424 -0.026161957701404597 0 0.020276513038925362 -0.026989301874343442 0 0.0317416073904839 -0.036640923729239321 0 0.021122511576209719 -0.041830145759637193 0 0.020276513038925362 -0.026989301874343442 0 0.021122511576209719 -0.041830145759637193 0 0.0089354972628864424 -0.026161957701404597 0 0.0317416073904839 -0.036640923729239321 0 0.031423718934169682 -0.048691238567749179 0 0.021122511576209719 -0.041830145759637193 0 0.0317416073904839 -0.036640923729239321 0 0.031423718934169668 -0.048691238567749179 0 0.03940039271439727 -0.048985507599383374 0 0.031423718934169675 -0.048691238567749179 0 0.027610286399425709 -0.057218239201673293 0 0.03681448266069258 -0.064046595734551903 0 0.031423718934169675 -0.048691238567749179 0 0.03940039271439727 -0.048985507599383374 0 0.03681448266069258 -0.064046595734551903 0 0.031423718934169675 -0.048691238567749179 0 0.027610286399425709 -0.057218239201673293 0 0.021122511576209719 -0.041830145759637193 0 0.021122511576209719 -0.041830145759637193 0 0.012035518371983214 -0.040678177650405614 0 0.022315133266048205 -0.061135362637098956 0 0.021122511576209719 -0.041830145759637193 0 0.012035518371983214 -0.040678177650405614 0 0.0089354972628864424 -0.026161957701404597 0 0.0014704574545362111 -0.025279358579795942 0 0.012035518371983212 -0.040678177650405614 0 0.0089354972628864424 -0.026161957701404597 0 -0.0014085940834914692 -0.011891589143846625 0 0.0089354972628864424 -0.026161957701404597 0 0.011485422512348818 -0.013543236498301525 0 0.020276513038925362 -0.026989301874343442 0 0.0089354972628864424 -0.026161957701404597 0 0.011485422512348818 -0.013543236498301525 0 0.00082986769396433378 -0.0023146528274624579 0 -0.0014085940834914692 -0.011891589143846625 0 0.011485422512348818 -0.013543236498301525 0 0.011485422512348818 -0.013543236498301525 0 0.031970130685257267 -0.021383704748590283 0 0.01735563487347299 -0.002348888662177917 0 0.020276513038925362 -0.026989301874343442 0 0.011485422512348818 -0.013543236498301525 0 0.031970130685257267 -0.021383704748590283 0 0.020276513038925362 -0.026989301874343442 0 0.0317416073904839 -0.036640923729239321 0 0.031970130685257267 -0.021383704748590283 0 0.01735563487347299 -0.002348888662177917 0 0.0046454816035601098 0.0087994633214557791 0 0.031880371562913429 0.01818151987916878 0 0.01735563487347299 -0.002348888662177917 0 0.031880371562913429 0.01818151987916878 0 0.035045394674927031 -0.0089600349342400729 0 0.031970130685257267 -0.021383704748590283 0 0.01735563487347299 -0.002348888662177917 0 0.035045394674927031 -0.0089600349342400729 0 0.00082986769396433378 -0.0023146528274624579 0 0.011485422512348818 -0.013543236498301525 0 0.01735563487347299 -0.002348888662177917 0 0.00082986769396433378 -0.0023146528274624579 0 0.01735563487347299 -0.0023488886621779166 0 0.0046454816035601098 0.0087994633214557791 0 0.031880371562913429 0.01818151987916878 0 0.05116520719683592 -0.0048171202327481804 0 0.069498080214220964 0.020665909898834177 0 0.05116520719683592 -0.0048171202327481804 0 0.067061328855225408 -0.011436223919954028 0 0.069498080214220964 0.020665909898834177 0 0.05116520719683592 -0.0048171202327481804 0 0.067061328855225408 -0.011436223919954028 0 0.059284300645905626 -0.02338690596315306 0 0.05116520719683592 -0.0048171202327481804 0 0.035045394674927031 -0.0089600349342400729 0 0.046911567348116474 -0.022674555005450042 0 0.031880371562913429 0.01818151987916878 0 0.05116520719683592 -0.0048171202327481847 0 0.035045394674927031 -0.0089600349342400729 0 0.10635292672530496 0.021038219161216357 0 0.091332261401844347 0.006922865115532183 0 0.069498080214220964 0.020665909898834177 0 0.10635292672530496 0.021038219161216357 0 0.091332261401844361 0.006922865115532183 0 0.10631819406098349 -0.0022554516757729774 0 0.091332261401844347 0.006922865115532183 0 0.069498080214220964 0.020665909898834177 0 0.080112458397870179 -0.0027157741065564037 0 0.080112458397870179 -0.0027157741065564037 0 0.096148865665942732 -0.013601846029041005 0 0.078146532905327151 -0.018151986105063134 0 0.067061328855225408 -0.011436223919954028 0 0.06949808021422095 0.020665909898834177 0 0.080112458397870179 -0.0027157741065564037 0 0.067061328855225408 -0.011436223919954028 0 0.080112458397870179 -0.0027157741065564037 0 0.078146532905327151 -0.018151986105063134 0 0.091332261401844347 0.006922865115532183 0 0.080112458397870179 -0.002715774106556405 0 0.096148865665942732 -0.013601846029041005 0 0.091332261401844347 0.006922865115532183 0 0.096148865665942732 -0.013601846029041005 0 0.10631819406098349 -0.0022554516757729774 0 0.096148865665942732 -0.013601846029041005 0 0.10631819406098349 -0.0022554516757729774 0 0.10641835241884746 -0.019020071389936992 0 0.10647958744565716 -0.03125397262764272 0 0.098132704784245683 -0.026513229187547407 0 0.10641835241884746 -0.019020071389936992 0 0.10647958744565716 -0.03125397262764272 0 0.098132704784245683 -0.026513229187547407 0 0.09993423353449167 -0.036039199828278981 0 0.096148865665942732 -0.013601846029041005 0 0.098132704784245683 -0.026513229187547407 0 0.10641835241884746 -0.019020071389936992 0 0.096148865665942732 -0.013601846029041005 0 0.098132704784245683 -0.026513229187547407 0 0.089411776976365806 -0.025099375924187206 0 0.098132704784245683 -0.026513229187547407 0 0.091964296755420921 -0.033665023576993337 0 0.09993423353449167 -0.036039199828278981 0 0.098132704784245683 -0.026513229187547407 0 0.089411776976365792 -0.025099375924187206 0 0.091964296755420921 -0.033665023576993337 0 0.096148865665942732 -0.013601846029041005 0 0.089411776976365806 -0.025099375924187206 0 0.078146532905327151 -0.018151986105063134 0 0.089411776976365806 -0.025099375924187206 0 0.081238173332688526 -0.03181522195560306 0 0.091964296755420921 -0.033665023576993337 0 0.089411776976365806 -0.025099375924187206 0 0.081238173332688526 -0.03181522195560306 0 0.078146532905327151 -0.018151986105063134 0 0.067061328855225408 -0.011436223919954028 0 0.078146532905327151 -0.018151986105063134 0 0.069946969598688902 -0.026414522320748843 0 0.081238173332688526 -0.03181522195560306 0 0.078146532905327151 -0.018151986105063134 0 0.069946969598688902 -0.026414522320748843 0 0.081238173332688526 -0.03181522195560306 0 0.072341741357733302 -0.036615737395244742 0 0.069946969598688902 -0.026414522320748843 0 0.081238173332688526 -0.03181522195560306 0 0.072341741357733302 -0.036615737395244742 0 0.079538767257490081 -0.041164950272179687 0 0.072341741357733302 -0.036615737395244742 0 0.079538767257490081 -0.041164950272179687 0 0.074136077238823567 -0.043801152716133301 0 0.072341741357733302 -0.036615737395244742 0 0.074136077238823567 -0.043801152716133301 0 0.067134370300683352 -0.042172128386301654 0 0.074136077238823567 -0.043801152716133301 0 0.074829284417519876 -0.048266897963848504 0 0.070916613166609688 -0.047550365111982636 0 0.074829284417519876 -0.048266897963848504 0 0.070916613166609688 -0.047550365111982636 0 0.073070437502076938 -0.051393528827704538 0 0.074829284417519876 -0.048266897963848504 0 0.07716468627548459 -0.051350008401314852 0 0.073070437502076938 -0.051393528827704538 0 0.078918344348456362 -0.047176530001131263 0 0.081311084079024307 -0.05132229402546036 0 0.07716468627548459 -0.051350008401314852 0 0.074829284417519876 -0.048266897963848504 0 0.078918344348456362 -0.047176530001131263 0 0.07716468627548459 -0.051350008401314852 0 0.074136077238823567 -0.043801152716133301 0 0.074829284417519862 -0.048266897963848504 0 0.078918344348456362 -0.047176530001131263 0 0.079538767257490081 -0.041164950272179687 0 0.074136077238823567 -0.043801152716133301 0 0.078918344348456362 -0.047176530001131263 0 0.079538767257490081 -0.041164950272179687 0 0.078918344348456348 -0.047176530001131256 0 0.083460115641331128 -0.045870621837201073 0 0.079538767257490081 -0.041164950272179687 0 0.083460115641331115 -0.045870621837201066 0 0.087451082514515027 -0.041107462302877672 0 0.083460115641331128 -0.045870621837201073 0 0.085484464621349066 -0.051299302288572615 0 0.081311084079024307 -0.05132229402546036 0 0.078918344348456362 -0.047176530001131263 0 0.083460115641331128 -0.045870621837201073 0 0.081311084079024307 -0.05132229402546036 0 0.083460115641331128 -0.045870621837201073 0 0.087508448232957947 -0.047064098354134186 0 0.085484464621349066 -0.051299302288572615 0 0.087508448232957947 -0.047064098354134186 0 0.089661714652335606 -0.051290403892311688 0 0.085484464621349066 -0.051299302288572615 0 0.083460115641331128 -0.045870621837201073 0 0.087508448232957947 -0.047064098354134186 0 0.087451082514515027 -0.041107462302877672 0 0.081238173332688526 -0.03181522195560306 0 0.087451082514515027 -0.041107462302877672 0 0.091964296755420921 -0.033665023576993337 0 0.081238173332688526 -0.03181522195560306 0 0.079538767257490081 -0.041164950272179687 0 0.087451082514515027 -0.041107462302877672 0 0.091964296755420921 -0.033665023576993337 0 0.095141740881151793 -0.041002858858004317 0 0.09993423353449167 -0.036039199828278981 0 0.087451082514515027 -0.041107462302877672 0 0.091964296755420921 -0.033665023576993337 0 0.095141740881151793 -0.041002858858004317 0 0.087508448232957947 -0.047064098354134186 0 0.087451082514515027 -0.041107462302877672 0 0.09150123203772248 -0.045715170767381172 0 0.087451082514515027 -0.041107462302877672 0 0.095141740881151807 -0.041002858858004317 0 0.09150123203772248 -0.045715170767381172 0 0.087508448232957947 -0.047064098354134186 0 0.09150123203772248 -0.045715170767381172 0 0.089661714652335606 -0.051290403892311688 0 0.09150123203772248 -0.045715170767381172 0 0.093855782683819958 -0.051286617714345242 0 0.089661714652335606 -0.051290403892311688 0 0.09150123203772248 -0.045715170767381172 0 0.096220346288810571 -0.046924833286417215 0 0.093855782683819958 -0.051286617714345242 0 0.096220346288810571 -0.046924833286417215 0 0.098057095519645601 -0.051288982285175429 0 0.093855782683819958 -0.051286617714345242 0 0.095141740881151793 -0.041002858858004317 0 0.09150123203772248 -0.045715170767381172 0 0.096220346288810571 -0.046924833286417215 0 0.096220346288810571 -0.046924833286417215 0 0.10141825008999468 -0.043794006960496519 0 0.10020779849479305 -0.047848918989475284 0 0.095141740881151793 -0.041002858858004317 0 0.096220346288810571 -0.046924833286417215 0 0.10141825008999468 -0.043794006960496526 0 0.10141825008999468 -0.043794006960496526 0 0.10020779849479305 -0.047848918989475284 0 0.10337381235429573 -0.048167325203858906 0 0.096220346288810571 -0.046924833286417215 0 0.10020779849479305 -0.047848918989475284 0 0.098057095519645601 -0.051288982285175429 0 0.10020779849479305 -0.047848918989475284 0 0.10337381235429573 -0.048167325203858906 0 0.10226951445151218 -0.05129298486653671 0 0.10020779849479305 -0.047848918989475284 0 0.10226951445151218 -0.05129298486653671 0 0.098057095519645601 -0.051288982285175429 0 0.10337381235429573 -0.048167325203858906 0 0.10648813435271941 -0.046601748483145911 0 0.10648643781835998 -0.051294539094520877 0 0.10337381235429573 -0.048167325203858906 0 0.10226951445151218 -0.051292984866536703 0 0.10648643781835998 -0.051294539094520877 0 0.10141825008999468 -0.043794006960496526 0 0.10337381235429573 -0.048167325203858906 0 0.10648813435271941 -0.046601748483145911 0 0.10141825008999468 -0.043794006960496526 0 0.10648813435271941 -0.046601748483145911 0 0.10649198138120897 -0.040144698475842976 0 0.10141825008999468 -0.043794006960496526 0 0.10649198138120897 -0.040144698475842969 0 0.09993423353449167 -0.036039199828278981 0 0.095141740881151793 -0.041002858858004317 0 0.10141825008999468 -0.043794006960496526 0 0.09993423353449167 -0.036039199828278981 0 0.10647958744565716 -0.03125397262764272 0 0.10649198138120897 -0.040144698475842976 0 0.09993423353449167 -0.036039199828278981 0 0.046911567348116474 -0.022674555005450042 0 0.054535973936144268 -0.034784489129336488 0 0.045211824364883982 -0.039523555356896431 0 0.031970130685257267 -0.021383704748590283 0 0.046911567348116474 -0.022674555005450042 0 0.045211824364883982 -0.039523555356896431 0 0.031970130685257267 -0.021383704748590283 0 0.035045394674927031 -0.0089600349342400729 0 0.046911567348116474 -0.022674555005450042 0 0.05116520719683592 -0.0048171202327481804 0 0.046911567348116474 -0.022674555005450042 0 0.059284300645905626 -0.02338690596315306 0 0.067061328855225408 -0.011436223919954028 0 0.069946969598688902 -0.026414522320748843 0 0.059284300645905626 -0.02338690596315306 0 0.072341741357733302 -0.036615737395244742 0 0.069946969598688902 -0.026414522320748843 0 0.063111731200480428 -0.034719748851734851 0 0.069946969598688902 -0.026414522320748843 0 0.059284300645905626 -0.02338690596315306 0 0.063111731200480428 -0.034719748851734851 0 0.046911567348116474 -0.022674555005450042 0 0.059284300645905626 -0.02338690596315306 0 0.054535973936144268 -0.034784489129336488 0 0.059284300645905626 -0.02338690596315306 0 0.054535973936144268 -0.034784489129336488 0 0.063111731200480428 -0.034719748851734851 0 0.054535973936144268 -0.034784489129336488 0 0.063111731200480428 -0.034719748851734851 0 0.059238122011552145 -0.043164804241178023 0 0.054535973936144268 -0.034784489129336488 0 0.059238122011552138 -0.043164804241178023 0 0.052617209980559965 -0.044690154806353882 0 0.072341741357733302 -0.036615737395244742 0 0.063111731200480428 -0.034719748851734851 0 0.067134370300683352 -0.042172128386301654 0 0.063111731200480428 -0.034719748851734851 0 0.067134370300683352 -0.042172128386301654 0 0.059238122011552145 -0.043164804241178023 0 0.067134370300683352 -0.042172128386301654 0 0.067034454186930575 -0.048260732456694572 0 0.070916613166609688 -0.047550365111982636 0 0.074136077238823567 -0.043801152716133301 0 0.067134370300683352 -0.042172128386301654 0 0.070916613166609688 -0.047550365111982636 0 0.067134370300683352 -0.042172128386301654 0 0.063761988778380713 -0.046554282491279346 0 0.059238122011552145 -0.043164804241178023 0 0.067134370300683352 -0.042172128386301654 0 0.063761988778380713 -0.046554282491279346 0 0.067034454186930575 -0.048260732456694572 0 0.063761988778380713 -0.046554282491279346 0 0.067034454186930575 -0.048260732456694572 0 0.065022729108948768 -0.051627353317124758 0 0.063761988778380713 -0.046554282491279346 0 0.061065104683402482 -0.051861598804153745 0 0.065022729108948768 -0.051627353317124758 0 0.067034454186930575 -0.048260732456694572 0 0.069010080686627354 -0.051482678465944391 0 0.065022729108948768 -0.051627353317124758 0 0.070916613166609688 -0.047550365111982636 0 0.069010080686627354 -0.051482678465944391 0 0.073070437502076938 -0.051393528827704538 0 0.067034454186930575 -0.048260732456694572 0 0.070916613166609688 -0.047550365111982636 0 0.069010080686627354 -0.051482678465944391 0 0.059238122011552145 -0.043164804241178023 0 0.05937930235574311 -0.048542445001887945 0 0.055660619771832454 -0.048583497637767502 0 0.059238122011552145 -0.043164804241178023 0 0.055660619771832447 -0.048583497637767502 0 0.052617209980559965 -0.044690154806353882 0 0.063761988778380713 -0.046554282491279346 0 0.059238122011552145 -0.043164804241178016 0 0.05937930235574311 -0.048542445001887945 0 0.063761988778380713 -0.046554282491279346 0 0.05937930235574311 -0.048542445001887945 0 0.061065104683402482 -0.051861598804153752 0 0.05937930235574311 -0.048542445001887945 0 0.057249401000123837 -0.052239630963920418 0 0.061065104683402482 -0.051861598804153752 0 0.05937930235574311 -0.048542445001887945 0 0.055660619771832454 -0.048583497637767502 0 0.057249401000123837 -0.052239630963920418 0 0.055660619771832454 -0.048583497637767502 0 0.053368277628762034 -0.052927478096812801 0 0.057249401000123837 -0.052239630963920418 0 0.051938545424547081 -0.0499762907318358 0 0.049497917561048564 -0.054092879957375509 0 0.053368277628762034 -0.052927478096812801 0 0.055660619771832454 -0.048583497637767502 0 0.051938545424547081 -0.0499762907318358 0 0.053368277628762034 -0.052927478096812801 0 0.048358970903396616 -0.049339651540500559 0 0.045642159570074448 -0.055854980083212935 0 0.049497917561048564 -0.054092879957375509 0 0.051938545424547081 -0.0499762907318358 0 0.048358970903396616 -0.049339651540500559 0 0.049497917561048564 -0.054092879957375509 0 0.048358970903396616 -0.049339651540500559 0 0.052617209980559965 -0.044690154806353882 0 0.045211824364883982 -0.039523555356896431 0 0.051938545424547081 -0.0499762907318358 0 0.048358970903396616 -0.049339651540500559 0 0.052617209980559965 -0.044690154806353882 0 0.055660619771832454 -0.048583497637767502 0 0.051938545424547081 -0.0499762907318358 0 0.052617209980559965 -0.044690154806353882 0 0.054535973936144268 -0.034784489129336488 0 0.052617209980559965 -0.044690154806353882 0 0.045211824364883982 -0.039523555356896431 0 0.0317416073904839 -0.036640923729239321 0 0.031970130685257267 -0.021383704748590283 0 0.045211824364883982 -0.039523555356896431 0 0.0317416073904839 -0.036640923729239321 0 0.045211824364883982 -0.039523555356896431 0 0.03940039271439727 -0.048985507599383374 0 0.045211824364883982 -0.039523555356896431 0 0.03940039271439727 -0.048985507599383374 0 0.044476693074455446 -0.050219836236009056 0 0.048358970903396616 -0.049339651540500559 0 0.045211824364883982 -0.039523555356896438 0 0.044476693074455446 -0.050219836236009056 0 0.048358970903396616 -0.049339651540500559 0 0.044476693074455446 -0.050219836236009056 0 0.045642159570074448 -0.055854980083212942 0 0.044476693074455446 -0.050219836236009056 0 0.041500451056886149 -0.059102086596342439 0 0.045642159570074448 -0.055854980083212942 0 0.03940039271439727 -0.048985507599383374 0 0.044476693074455446 -0.050219836236009056 0 0.041500451056886149 -0.059102086596342439 0 0.03940039271439727 -0.048985507599383374 0 0.036814482660692573 -0.064046595734551903 0 0.041500451056886149 -0.059102086596342439 0 0.043502887605688781 -0.077774214664355384 0 0.043207090705290579 -0.080339472490137148 0 0.049185619609518255 -0.090688430069482365 0 0.03681448266069258 -0.064046595734551903 0 0.043502887605688781 -0.077774214664355384 0 0.043207090705290579 -0.080339472490137148 0 0.036064314121400598 -0.065209073660522254 0 0.041450232279903902 -0.068123127051264165 0 0.043502887605688781 -0.077774214664355384 0 0.048391671482619338 -0.088736703760844707 0 0.049185619609518255 -0.090688430069482365 0 0.041450232279903902 -0.068123127051264165 0 0.046323713365526882 -0.072181021229254072 0 0.048391671482619338 -0.088736703760844707 0 0.049185619609518255 -0.090688430069482365 0 0.053239978314853657 -0.098435118497253435 0 0.049185619609518255 -0.090688430069482365 0 0.04679044041722142 -0.092366165409283191 0 0.056883771031838837 -0.10699155224531409 0 0.043207090705290579 -0.080339472490137148 0 0.04679044041722142 -0.092366165409283191 0 0.034588666252783833 -0.075202696807935426 0 0.043207090705290579 -0.080339472490137148 0 0.049185619609518255 -0.090688430069482365 0 0.04679044041722142 -0.092366165409283191 0 0.04679044041722142 -0.092366165409283191 0 0.054566106244579214 -0.10927497741672258 0 0.040554715314967744 -0.090827423602402563 0 0.04679044041722142 -0.092366165409283191 0 0.054566106244579214 -0.10927497741672258 0 0.056883771031838837 -0.10699155224531409 0 0.054566106244579214 -0.10927497741672258 0 0.066801669177571091 -0.12750274337964321 0 0.056883771031838837 -0.10699155224531409 0 0.066801669177571091 -0.12750274337964321 0 0.056883771031838837 -0.10699155224531409 0 0.066540840954692038 -0.12377820922266959 0 0.056883771031838837 -0.10699155224531409 0 0.058666984882455919 -0.10859516998926397 0 0.066540840954692038 -0.12377820922266959 0 0.058666984882455919 -0.10859516998926397 0 0.062778964172193294 -0.1163711012187338 0 0.066540840954692038 -0.12377820922266959 0 0.049185619609518255 -0.090688430069482365 0 0.056883771031838837 -0.10699155224531409 0 0.053239978314853657 -0.098435118497253435 0 0.056883771031838837 -0.10699155224531409 0 0.053239978314853657 -0.098435118497253435 0 0.058666984882455919 -0.10859516998926397 0 0.053239978314853657 -0.098435118497253435 0 0.053234623572214715 -0.098610177618659631 0 0.058666984882455919 -0.10859516998926397 0 0.048391671482619338 -0.088736703760844707 0 0.053239978314853657 -0.098435118497253435 0 0.053234623572214715 -0.098610177618659631 0 0.046323713365526882 -0.072181021229254072 0 0.050744518561352391 -0.076178149396974773 0 0.058666984882455919 -0.10859516998926397 0 0.05808968644102934 -0.10781434323097382 0 0.062778964172193308 -0.1163711012187338 0 0.050744518561352391 -0.076178149396974773 0 0.055168709480586386 -0.080217476617614747 0 0.053234623572214715 -0.098610177618659631 0 0.058666984882455919 -0.10859516998926397 0 0.05808968644102934 -0.10781434323097382 0 0.05808968644102934 -0.10781434323097382 0 0.062778964172193308 -0.1163711012187338 0 0.062878771257464827 -0.11662893877244629 0 0.055168709480586386 -0.080217476617614747 0 0.059542908746762047 -0.084273278761026221 0 0.062778964172193308 -0.1163711012187338 0 0.062878771257464827 -0.11662893877244629 0 0.068225647277568774 -0.12606312779514528 0 0.062878771257464827 -0.11662893877244629 0 0.067807273543092475 -0.12525845442036643 0 0.068225647277568774 -0.12606312779514528 0 0.059542908746762047 -0.084273278761026221 0 0.063936742055171011 -0.088383406231413775 0 0.067807273543092475 -0.12525845442036643 0 0.068225647277568774 -0.12606312779514528 0 0.072488947619628971 -0.13348875665107793 0 0.068225647277568774 -0.12606312779514528 0 0.072488947619628971 -0.13348875665107793 0 0.076474609455037298 -0.14091866501351305 0 0.068225647277568774 -0.12606312779514528 0 0.066540840954692038 -0.12377820922266959 0 0.076474609455037298 -0.14091866501351305 0 0.062778964172193308 -0.1163711012187338 0 0.068225647277568774 -0.12606312779514528 0 0.066540840954692038 -0.12377820922266959 0 0.077731832159760719 -0.14218646006542252 0 0.077675067730128652 -0.14235395869463324 0 0.08245184311605061 -0.15038813517416016 0 0.077731832159760719 -0.14218646006542252 0 0.077675067730128652 -0.14235395869463324 0 0.072742323871921116 -0.13375426041799673 0 0.072889472587517448 -0.096669108584247446 0 0.068393356243601169 -0.092524726545343883 0 0.077675067730128652 -0.14235395869463324 0 0.072742323871921102 -0.13375426041799673 0 0.072488947619628971 -0.13348875665107793 0 0.067807273543092475 -0.12525845442036643 0 0.072742323871921116 -0.13375426041799673 0 0.072488947619628971 -0.13348875665107793 0 0.063936742055171011 -0.088383406231413775 0 0.068393356243601169 -0.092524726545343883 0 0.077675067730128652 -0.14235395869463324 0 0.072488947619628971 -0.13348875665107793 0 0.076474609455037298 -0.14091866501351305 0 0.077675067730128652 -0.14235395869463324 0 0.082451843116050597 -0.15038813517416014 0 0.086292457129569344 -0.15739859286030525 0 0.077675067730128652 -0.14235395869463324 0 0.076474609455037298 -0.14091866501351305 0 0.086292457129569344 -0.15739859286030525 0 0.076474609455037298 -0.14091866501351305 0 0.086512793197289869 -0.15919168402299458 0 0.086292457129569344 -0.15739859286030525 0 0.076474609455037298 -0.14091866501351305 0 0.086512793197289869 -0.15919168402299458 0 0.076222634516432533 -0.14193288844528951 0 0.066801669177571091 -0.12750274337964321 0 0.066540840954692038 -0.12377820922266959 0 0.076222634516432533 -0.14193288844528951 0 0.066540840954692038 -0.12377820922266959 0 0.076474609455037298 -0.14091866501351305 0 0.076222634516432533 -0.14193288844528951 0 0.066801669177571091 -0.12750274337964321 0 0.076222634516432547 -0.14193288844528953 0 0.084247479097488684 -0.15791890555939489 0 0.086512793197289869 -0.15919168402299458 0 0.084247479097488684 -0.15791890555939489 0 0.10015828195840701 -0.18395854654035851 0 0.086512793197289869 -0.15919168402299458 0 0.076222634516432533 -0.14193288844528951 0 0.084247479097488684 -0.15791890555939489 0 0.084247479097488684 -0.15791890555939489 0 0.10015828195840701 -0.18395854654035851 0 0.096493578604531935 -0.18228311531014485 0 0.084247479097488684 -0.15791890555939489 0 0.067449847055749412 -0.13451966864534878 0 0.096493578604531935 -0.18228311531014485 0 0.067449847055749412 -0.13451966864534878 0 0.058361307798562301 -0.12478526009506777 0 0.049610883034011455 -0.10802309260327664 0 0.054566106244579214 -0.10927497741672258 0 0.067449847055749412 -0.13451966864534878 0 0.049610883034011455 -0.10802309260327664 0 0.054566106244579214 -0.10927497741672258 0 0.040554715314967744 -0.090827423602402563 0 0.049610883034011455 -0.10802309260327664 0 0.054566106244579214 -0.10927497741672258 0 0.066801669177571091 -0.12750274337964321 0 0.067449847055749412 -0.13451966864534878 0 0.066801669177571091 -0.12750274337964321 0 0.084247479097488684 -0.15791890555939489 0 0.067449847055749412 -0.13451966864534878 0 0.12396440259423414 -0.2199386209243876 0 0.13083845346958958 -0.23037146765413311 0 0.13662814020220523 -0.24120527541228109 0 0.12396440259423414 -0.2199386209243876 0 0.12347097988421495 -0.21795881735195538 0 0.11735679182545201 -0.20820056982697674 0 0.12396440259423414 -0.2199386209243876 0 0.13083845346958958 -0.23037146765413311 0 0.12347097988421495 -0.21795881735195538 0 0.13083845346958958 -0.23037146765413311 0 0.12661831987959213 -0.22250216401452844 0 0.12347097988421495 -0.21795881735195538 0 0.12661831987959213 -0.22250216401452844 0 0.12347097988421495 -0.21795881735195538 0 0.1219489558011794 -0.214737318733312 0 0.12661831987959213 -0.22250216401452844 0 0.1219489558011794 -0.214737318733312 0 0.12354794425646985 -0.21677464338891145 0 0.1219489558011794 -0.214737318733312 0 0.11840067207173563 -0.20850355172054386 0 0.12354794425646985 -0.21677464338891145 0 0.10672180088178952 -0.12974938358531493 0 0.12890481365592824 -0.13532343634952934 0 0.10672180088178952 -0.12974938358531493 0 0.1058766159313649 -0.12560347916689568 0 0.11840067207173563 -0.20850355172054386 0 0.11325427786130172 -0.20023510231826344 0 0.11805403475690081 -0.20856765524546361 0 0.1219489558011794 -0.214737318733312 0 0.11840067207173563 -0.20850355172054386 0 0.11805403475690081 -0.20856765524546361 0 0.11325427786130172 -0.20023510231826344 0 0.11805403475690081 -0.20856765524546361 0 0.11297264702234977 -0.20030010090087047 0 0.12347097988421495 -0.21795881735195538 0 0.11805403475690081 -0.20856765524546361 0 0.11735679182545201 -0.20820056982697674 0 0.12347097988421495 -0.21795881735195538 0 0.1219489558011794 -0.214737318733312 0 0.11805403475690081 -0.20856765524546361 0 0.11805403475690081 -0.20856765524546361 0 0.11735679182545201 -0.20820056982697674 0 0.11297264702234977 -0.20030010090087047 0 0.11735679182545201 -0.20820056982697674 0 0.10838186445248124 -0.19309826115656906 0 0.1126478123360312 -0.20106091043901667 0 0.11735679182545201 -0.20820056982697674 0 0.11297264702234977 -0.20030010090087047 0 0.10838186445248124 -0.19309826115656906 0 0.11297264702234977 -0.20030010090087047 0 0.10811517216403294 -0.19197045118235787 0 0.10838186445248124 -0.19309826115656906 0 0.1058766159313649 -0.12560347916689568 0 0.10036633036944742 -0.12147013457362579 0 0.11325427786130172 -0.20023510231826344 0 0.11297264702234977 -0.20030010090087047 0 0.10811517216403294 -0.19197045118235787 0 0.10811517216403294 -0.19197045118235787 0 0.10298977197681883 -0.18370508365581828 0 0.10838186445248124 -0.19309826115656906 0 0.10036633036944742 -0.12147013457362579 0 0.095890631785566199 -0.11734020686565122 0 0.10298977197681883 -0.18370508365581828 0 0.10838186445248124 -0.19309826115656906 0 0.10230238806334069 -0.18303314685221023 0 0.10838186445248124 -0.19309826115656906 0 0.1126478123360312 -0.20106091043901667 0 0.10358929888401998 -0.18574777978367757 0 0.12396440259423414 -0.2199386209243876 0 0.11735679182545201 -0.20820056982697674 0 0.1126478123360312 -0.20106091043901667 0 0.12396440259423414 -0.2199386209243876 0 0.1126478123360312 -0.20106091043901667 0 0.11673846318957096 -0.20917214771791307 0 0.1126478123360312 -0.20106091043901667 0 0.10546898715904889 -0.18979638524690032 0 0.11673846318957096 -0.20917214771791307 0 0.10546898715904889 -0.18979638524690032 0 0.10722873571176859 -0.19401649912930388 0 0.11673846318957096 -0.20917214771791307 0 0.10546898715904889 -0.18979638524690032 0 0.096244962578748108 -0.17502420416106942 0 0.10722873571176859 -0.19401649912930388 0 0.10546898715904889 -0.18979638524690032 0 0.10358929888401998 -0.18574777978367757 0 0.095513042890195063 -0.17264212740802354 0 0.10546898715904889 -0.18979638524690032 0 0.095513042890195063 -0.17264212740802354 0 0.096244962578748108 -0.17502420416106942 0 0.1126478123360312 -0.20106091043901667 0 0.10546898715904889 -0.18979638524690032 0 0.10358929888401998 -0.18574777978367757 0 0.10838186445248124 -0.19309826115656906 0 0.10358929888401998 -0.18574777978367754 0 0.10230238806334069 -0.18303314685221023 0 0.10358929888401998 -0.18574777978367757 0 0.10230238806334069 -0.18303314685221023 0 0.097426024734969016 -0.17518595452386981 0 0.10230238806334069 -0.18303314685221023 0 0.097886284388638445 -0.1754386653419529 0 0.097426024734969016 -0.17518595452386981 0 0.095890631785566199 -0.11734020686565122 0 0.091208555175735437 -0.11321297590647918 0 0.10298977197681883 -0.18370508365581828 0 0.10230238806334069 -0.18303314685221023 0 0.097886284388638445 -0.1754386653419529 0 0.092800182370559314 -0.16716169340159867 0 0.097426024734969016 -0.17518595452386981 0 0.092268212286135201 -0.16667287191230637 0 0.091208555175735437 -0.11321297590647918 0 0.08658724793991171 -0.10908703368840883 0 0.097886284388638445 -0.1754386653419529 0 0.092800182370559314 -0.16716169340159867 0 0.097426024734969016 -0.17518595452386981 0 0.097426024734969016 -0.17518595452386981 0 0.095513042890195063 -0.17264212740802354 0 0.092268212286135201 -0.16667287191230637 0 0.10358929888401998 -0.18574777978367757 0 0.097426024734969016 -0.17518595452386981 0 0.095513042890195063 -0.17264212740802354 0 0.095513042890195063 -0.17264212740802354 0 0.092268212286135201 -0.16667287191230637 0 0.087898848342161218 -0.15953629490029739 0 0.095513042890195063 -0.17264212740802354 0 0.087898848342161218 -0.15953629490029739 0 0.086292457129569344 -0.15739859286030525 0 0.092268212286135201 -0.16667287191230637 0 0.087751570364541204 -0.15887235893442817 0 0.087898848342161218 -0.15953629490029739 0 0.08658724793991171 -0.10908703368840883 0 0.081985903950130584 -0.10495305476627706 0 0.092800182370559314 -0.16716169340159867 0 0.092268212286135201 -0.16667287191230637 0 0.087751570364541204 -0.15887235893442817 0 0.072889472587517448 -0.096669108584247446 0 0.077419948830011451 -0.10081238122161315 0 0.077731832159760719 -0.14218646006542252 0 0.082720134145452595 -0.15054639941873493 0 0.08245184311605061 -0.15038813517416016 0 0.087751570364541204 -0.15887235893442817 0 0.082720134145452595 -0.15054639941873493 0 0.087898848342161218 -0.15953629490029739 0 0.081985903950130584 -0.10495305476627706 0 0.077419948830011451 -0.10081238122161315 0 0.082720134145452595 -0.15054639941873493 0 0.087898848342161218 -0.15953629490029739 0 0.08245184311605061 -0.15038813517416016 0 0.087898848342161218 -0.15953629490029739 0 0.08245184311605061 -0.15038813517416016 0 0.086292457129569344 -0.15739859286030525 0 0.086512793197289869 -0.15919168402299458 0 0.086292457129569344 -0.15739859286030525 0 0.096244962578748108 -0.17502420416106942 0 0.095513042890195063 -0.17264212740802354 0 0.086292457129569344 -0.15739859286030525 0 0.096244962578748108 -0.17502420416106942 0 0.10015828195840701 -0.18395854654035851 0 0.118596332784275 -0.21429912844338281 0 0.119048556119697 -0.21833220801724351 0 0.086512793197289869 -0.15919168402299458 0 0.096244962578748122 -0.17502420416106942 0 0.10015828195840701 -0.18395854654035851 0 0.096244962578748108 -0.17502420416106942 0 0.10015828195840701 -0.18395854654035851 0 0.10722873571176859 -0.19401649912930388 0 0.118596332784275 -0.21429912844338281 0 0.10722873571176859 -0.19401649912930388 0 0.11673846318957096 -0.20917214771791307 0 0.10015828195840701 -0.18395854654035851 0 0.118596332784275 -0.21429912844338281 0 0.10722873571176859 -0.19401649912930388 0 0.118596332784275 -0.21429912844338281 0 0.1294360797877844 -0.23084156993983596 0 0.11673846318957096 -0.20917214771791307 0 0.12396440259423414 -0.2199386209243876 0 0.1294360797877844 -0.23084156993983596 0 0.11673846318957096 -0.20917214771791307 0 0.118596332784275 -0.21429912844338281 0 0.1294360797877844 -0.23084156993983596 0 0.13499486724319587 -0.24261182154240513 0 0.1294360797877844 -0.23084156993983596 0 0.14454829169128833 -0.25613073513636386 0 0.13499486724319587 -0.24261182154240513 0 0.12396440259423414 -0.2199386209243876 0 0.1294360797877844 -0.23084156993983596 0 0.13662814020220523 -0.24120527541228109 0 0.1294360797877844 -0.23084156993983596 0 0.14454829169128833 -0.25613073513636386 0 0.13662814020220523 -0.24120527541228109 0 0.17039449384328226 -0.30498544635971742 0 0.14129843724825658 -0.25604304580341136 0 0.12557897451668279 -0.2344032681893263 0 0.14454829169128833 -0.25613073513636386 0 0.15537785677087879 -0.27661943823111468 0 0.13499486724319587 -0.24261182154240513 0 0.15537785677087879 -0.27661943823111468 0 0.13499486724319587 -0.24261182154240513 0 0.14129843724825658 -0.25604304580341136 0 0.10015828195840701 -0.18395854654035851 0 0.119048556119697 -0.21833220801724351 0 0.096493578604531935 -0.18228311531014485 0 0.119048556119697 -0.21833220801724351 0 0.096493578604531935 -0.18228311531014485 0 0.12557897451668279 -0.2344032681893263 0 0.13499486724319587 -0.24261182154240513 0 0.119048556119697 -0.21833220801724351 0 0.14129843724825658 -0.25604304580341136 0 0.118596332784275 -0.21429912844338281 0 0.13499486724319587 -0.24261182154240513 0 0.119048556119697 -0.21833220801724351 0 0.119048556119697 -0.21833220801724351 0 0.14129843724825658 -0.25604304580341136 0 0.12557897451668279 -0.2344032681893263 0 0.15537785677087879 -0.27661943823111468 0 0.17039449384328226 -0.30498544635971742 0 0.14129843724825658 -0.25604304580341136 0 0.083751206672222828 -0.16530318547840619 0 0.12557897451668279 -0.2344032681893263 0 0.080593836109414924 -0.16168971361808496 0 0.067449847055749412 -0.13451966864534878 0 0.083751206672222828 -0.16530318547840619 0 0.058361307798562301 -0.12478526009506777 0 0.083751206672222828 -0.16530318547840619 0 0.080593836109414924 -0.16168971361808496 0 0.058361307798562301 -0.12478526009506777 0 0.067449847055749412 -0.13451966864534878 0 0.083751206672222828 -0.16530318547840619 0 0.096493578604531935 -0.18228311531014485 0 0.083751206672222828 -0.16530318547840619 0 0.096493578604531935 -0.18228311531014485 0 0.12557897451668279 -0.2344032681893263 0 0.080593836109414924 -0.16168971361808496 0 0.058361307798562301 -0.12478526009506777 0 0.037635624214975835 -0.091004626767261662 0 0.037635624214975835 -0.091004626767261662 0 0.041461694768395133 -0.084655942427031131 0 0.011581900706344855 -0.04140414608202251 0 0.080593836109414924 -0.16168971361808496 0 0.037635624214975835 -0.091004626767261662 0 0.041461694768395133 -0.084655942427031131 0 3.7139181757291033e-05 -9.7717519529730407e-05 0 0.011581900706344855 -0.04140414608202251 0 -8.6812322241929837e-06 -4.29229676992292e-05 0 0.041461694768395133 -0.084655942427031131 0 3.7139181757291033e-05 -9.7717519529730407e-05 0 0.011581900706344855 -0.04140414608202251 0 -4.6842801242508934e-06 -2.9985856144874032e-05 0 0.0018007810358982631 -0.023379749159174408 0 -8.6812322241929837e-06 -4.29229676992292e-05 0 0.011581900706344855 -0.04140414608202251 0 0.0018007810358982631 -0.023379749159174408 0 0.013965714786340221 -0.053891999512009577 0 0.011581900706344855 -0.04140414608202251 0 0.0018007810358982631 -0.023379749159174408 0 -8.6812322241929837e-06 -4.29229676992292e-05 0 0.0014704574545362111 -0.025279358579795942 0 -4.6842801242508934e-06 -2.9985856144874032e-05 0 0.0018007810358982631 -0.023379749159174408 0 0.0014704574545362111 -0.025279358579795942 0 0.0018007810358982631 -0.023379749159174408 0 0.013965714786340221 -0.053891999512009577 0 0.0014704574545362111 -0.025279358579795942 0 0.012035518371983214 -0.040678177650405614 0 0.013965714786340221 -0.053891999512009577 0 0.012035518371983214 -0.040678177650405614 0 0.013965714786340221 -0.053891999512009577 0 0.022315133266048205 -0.061135362637098956 0 0.013965714786340221 -0.053891999512009577 0 0.022315133266048202 -0.061135362637098956 0 0.034599539371031766 -0.087541524610911886 0 0.027610286399425709 -0.057218239201673293 0 0.021122511576209719 -0.041830145759637193 0 0.022315133266048205 -0.061135362637098956 0 0.027610286399425709 -0.057218239201673293 0 0.022315133266048205 -0.061135362637098956 0 0.034588666252783833 -0.075202696807935426 0 0.027610286399425709 -0.057218239201673293 0 0.03681448266069258 -0.064046595734551903 0 0.034588666252783833 -0.075202696807935426 0 0.03681448266069258 -0.064046595734551903 0 0.043207090705290579 -0.080339472490137148 0 0.034588666252783833 -0.075202696807935426 0 0.022315133266048205 -0.061135362637098956 0 0.034588666252783833 -0.075202696807935426 0 0.040554715314967744 -0.090827423602402563 0 0.04679044041722142 -0.092366165409283191 0 0.034588666252783833 -0.075202696807935426 0 0.040554715314967744 -0.090827423602402563 0 0.022315133266048205 -0.061135362637098956 0 0.040554715314967744 -0.090827423602402563 0 0.034599539371031766 -0.087541524610911886 0 0.058361307798562301 -0.12478526009506777 0 0.037635624214975835 -0.091004626767261662 0 0.034599539371031766 -0.087541524610911886 0 0.040554715314967744 -0.090827423602402563 0 0.034599539371031766 -0.087541524610911886 0 0.049610883034011455 -0.10802309260327664 0 0.058361307798562301 -0.12478526009506777 0 0.034599539371031773 -0.087541524610911886 0 0.049610883034011455 -0.10802309260327664 0 0.037635624214975835 -0.091004626767261662 0 0.011581900706344855 -0.04140414608202251 0 0.013965714786340221 -0.053891999512009577 0 0.037635624214975835 -0.091004626767261662 0 0.013965714786340226 -0.053891999512009583 0 0.034599539371031766 -0.087541524610911886 0 
</DataArray>
</PointData>
<CellData Scalars="region_id," Vectors="" Tensors="stress,">
<DataArray type="Float64" Name="region_id" format="ascii">
1 1 1 1 1 1 1 1 1 1 1 1 1 1 1 1 1 1 1 1 1 1 1 1 1 1 1 1 1 1 1 1 1 1 1 1 1 1 1 1 1 1 1 1 1 1 1 1 1 1 1 1 1 1 1 1 1 1 1 1 1 1 1 1 1 1 1 1 1 1 1 1 1 1 1 1 1 1 1 1 1 1 1 1 1 1 1 1 1 1 1 1 1 1 1 1 1 1 1 1 1 1 1 1 1 1 1 1 1 1 1 1 1 1 1 1 1 1 1 1 1 1 1 1 1 1 1 1 1 1 1 1 1 1 1 1 1 1 1 1 1 6 1 6 1 1 1 1 1 1 1 1 1 1 1 1 1 1 6 1 6 1 1 6 1 1 6 1 1 1 1 1 1 6 1 1 6 1 1 1 1 1 1 1 1 1 1 1 1 1 1 1 1 1 1 1 1 1 1 1 1 6 6 1 1 1 1 1 1 1 1 1 6 1 1 6 1 1 1 1 1 1 1 1 1 1 1 1 1 6 1 1 6 1 1 1 1 1 1 6 1 6 1 1 6 1 1 1 1 1 1 1 1 1 1 1 1 1 1 1 1 1 1 1 1 1 1 1 1 1 1 1 1 1 1 1 1 1 1 1 1 1 1 1 1 1 1 1 1 1 1 1 1 1 1 1 1 1 1 
</DataArray>
<DataArray type="Float64" Name="stress" NumberOfComponents="9" format="ascii">
-0.0071950609224929706 -0.014321733817317429 0 -0.014321733817317429 0.035096382083952722 0 0 0 0.006975330290364937 -0.0041600323923751412 0.0014652595008015489 0 0.0014652595008015489 -0.012465338968516933 0 0 0 -0.0041563428402230183 -0.024997739096978194 -0.0029896176048729455 0 -0.0029896176048729455 -0.074982586045004684 0 0 0 -0.02499508128549572 -0.027929427472633238 -0.025755424278502023 0 -0.025755424278502023 -0.03990313522543578 0 0 0 -0.016958140674517255 -0.025279495651238323 -0.025243639888374792 0 -0.025243639888374792 -0.1339096690971672 0 0 0 -0.039797291187101382 -0.021500913168927549 -0.0012214887118199673 0 -0.0012214887118199673 -0.086373620165860338 0 0 0 -0.026968633333696965 -0.0078337731180014303 -0.010238272862855446 0 -0.010238272862855446 -0.03908616393315395 0 0 0 -0.011729984262788873 -0.020387281515959366 -0.0248954039091655 0 -0.0248954039091655 -0.081243287639045203 0 0 0 -0.025407642288751087 -0.018353507828814619 -0.031386431079762134 0 -0.031386431079762134 -0.076811079633046564 0 0 0 -0.023791146865465351 0.0044996388412421595 -0.012320163567878829 0 -0.012320163567878829 -0.019274533326050891 0 0 0 -0.0036937236212022384 -0.016901433451962711 -0.067296332765197531 0 -0.067296332765197531 -0.15099587602908549 0 0 0 -0.041974327370262077 0.0065136018886666272 -0.086338009254850467 0 -0.086338009254850467 -0.028090377082013812 0 0 0 -0.0053941937983367702 -0.0047061519205479074 -0.051503659350655567 0 -0.051503659350655567 -0.062441540899630166 0 0 0 -0.016786923205044546 -0.0029650404035454492 -0.04068220859956212 0 -0.04068220859956212 -0.13447572229397303 0 0 0 -0.03436019067437962 -0.0081826231005383901 -0.013842255275521964 0 -0.013842255275521964 -0.097496188257203381 0 0 0 -0.026419702839435434 -0.023639563623579045 -0.023859856406340044 0 -0.023859856406340044 -0.1535908913769832 0 0 0 -0.044307613750140577 -0.02729926074531297 -0.017601016357025122 0 -0.017601016357025122 -0.068114470705374408 0 0 0 -0.023853432862671838 -0.010396328889410424 0.0033012248719861276 0 0.0033012248719861276 -0.054227248563038885 0 0 0 -0.016155894363112329 -0.010741499136989595 0.0064184325726961118 0 0.0064184325726961118 -0.040100895464148259 0 0 0 -0.012710598650284465 -0.0029190187721492315 0.012751022587142464 0 0.012751022587142464 -0.031621781988444383 0 0 0 -0.00863520019014841 -0.014668989621818007 0.0023827642263745466 0 0.0023827642263745466 -0.028160630900178119 0 0 0 -0.010707405130499018 0.0021612305456840536 -0.0055216867783687007 0 -0.0055216867783687007 -0.046865727017477349 0 0 0 -0.011176124117948313 -0.0071194076875695858 0.0062836345285923016 0 0.0062836345285923016 0.037656972083555645 0 0 0 0.0076343910989965097 0.00053007775690418896 0.010728302937033037 0 0.010728302937033037 -0.0097028894338266891 0 0 0 -0.0022932029192306164 0.002936757803699494 0.0086175116322310848 0 0.0086175116322310848 -0.0069579245608855506 0 0 0 -0.0010052916892965003 -0.017615597468910983 -0.0028424710719271553 0 -0.0028424710719271553 -0.010921766135512621 0 0 0 -0.0071343409011059029 -0.0089867867915335419 0.013775946339131661 0 0.013775946339131661 -0.006073501984638385 0 0 0 -0.0037650721940429822 0.004771792482348259 0.0075612906028651415 0 0.0075612906028651415 0.012190661578094439 0 0 0 0.004240613515110684 0.0017020027124415305 0.0050210615545853918 0 0.0050210615545853918 -0.0051356145641543866 0 0 0 -0.00085840296292820362 0.012124329286373019 0.0034057234792489316 0 0.0034057234792489316 -0.001473794508724105 0 0 0 0.0026626336944122128 0.012869209313793331 0.0049812295148609353 0 0.0049812295148609353 -0.0090052443675995575 0 0 0 0.000965991236548433 0.0018311350203183072 0.01032064936960421 0 0.01032064936960421 -0.0059831767582091411 0 0 0 -0.0010380104344727067 0.00098032451571019447 0.0010984602082197981 0 0.0010984602082197981 0.0019152943580696413 0 0 0 0.00072390471844498844 -0.00013647129529933012 0.0003966617995227106 0 0.0003966617995227106 0.00028683124631396703 0 0 0 3.7589987753698477e-05 0.0026031710529089667 0.0016370018339505223 0 0.0016370018339505223 0.00064807540468646632 0 0 0 0.00081281161439883051 0.0034252456231033748 8.8595094219427739e-05 0 8.8595094219427739e-05 -0.0005951734332348968 0 0 0 0.00070751804746711083 0.002205846019290714 0.0017252456071422762 0 0.0017252456071422762 -0.0011516225543453038 0 0 0 0.00026355586623633999 0.0027975212360173973 0.00073488245829871068 0 0.00073488245829871068 -0.0034347440331793655 0 0 0 -0.00015930569929045735 0.0013371765619834032 0.00069270584941126534 0 0.00069270584941126534 -0.0015721424197370631 0 0 0 -5.874146443842973e-05 0.0018220541495335852 0.00056995386994902362 0 0.00056995386994902362 -0.00015014835306333477 0 0 0 0.00041797644911756478 0.00079148988976339429 0.00020835513029104913 0 0.00020835513029104913 -0.00038182514471507556 0 0 0 0.00010241618626209703 0.00077112014352320735 -0.00018109406238889236 0 -0.00018109406238889236 -5.0646392218967051e-08 0 0 0 0.00019276737428275403 0.00068262878195879395 -0.00016724883248228628 0 -0.00016724883248228628 -2.4724049347946142e-05 0 0 0 0.00016447618315262869 0.0013749107329390081 -4.6587565969435224e-05 0 -4.6587565969435224e-05 4.875034162710179e-05 0 0 0 0.00035591526864156564 0.0015428548508356343 -0.00058586774589858628 0 -0.00058586774589858628 -8.5028342805770762e-05 0 0 0 0.0003644566270074312 0.00092892282082318589 -0.0005926161881985581 0 -0.0005926161881985581 8.6878601761819496e-05 0 0 0 0.00025395035564618196 0.0010159845549231536 -0.00062433299865938263 0 -0.00062433299865938263 -0.00023281244662133604 0 0 0 0.00019579302707541796 0.00187692884117871 -0.00042489990379789011 0 -0.00042489990379789011 -0.0013823636806835626 0 0 0 0.00012364129012379377 0.0014545645609119751 -0.0010998333460383036 0 -0.0010998333460383036 -1.9580616343550794e-05 0 0 0 0.00035874598614205055 0.0034295290417506938 -0.00096764615051631031 0 -0.00096764615051631031 -0.00044285596154966522 0 0 0 0.00074666827005025888 0.0072139306878673329 -0.0003998912753365863 0 -0.0003998912753365863 -0.0014960030191409346 0 0 0 0.0014294819171816048 0.0031366840221825065 -0.0017422650081010231 0 -0.0017422650081010231 -0.002910854162384624 0 0 0 5.6457464949449809e-05 0.0036809081325379633 -0.0036740396990014301 0 -0.0036740396990014301 -0.00038265492620673247 0 0 0 0.00082456330158287017 0.0012294274780350334 -0.0024214331715488036 0 -0.0024214331715488036 0.0012871957345104157 0 0 0 0.00062915580313652186 0.00092406845036901997 -0.0026770643754387424 0 -0.0026770643754387424 0.0017804455444252465 0 0 0 0.00067612849869852498 0.002886433817212597 -0.0041624744990269719 0 -0.0041624744990269719 0.0051347292582364368 0 0 0 0.002005290768862189 0.0012407435678000178 -0.0020364521582547646 0 -0.0020364521582547646 0.0039351022985907314 0 0 0 0.0012939614665977706 -1.1370835726276507e-05 -0.00068211801446793618 0 -0.00068211801446793618 0.0028318252854074855 0 0 0 0.00070511361242037163 0.00030053763778459253 -0.00049167261083182812 0 -0.00049167261083182812 0.0016785200096611774 0 0 0 0.00049476441186147024 6.779023473812984e-05 -0.00027361982005974506 0 -0.00027361982005974506 0.0010277047759026381 0 0 0 0.00027387375266019198 5.1250583157080865e-05 -0.00049117066557913258 0 -0.00049117066557913258 0.0024995589189893419 0 0 0 0.00063770237553656406 0.00029008635912852743 -0.0011302352505639518 0 -0.0011302352505639518 0.0021340114802053112 0 0 0 0.00060602445983348741 0.00071845611969956202 -0.0016147449772839217 0 -0.0016147449772839217 0.003140115734901916 0 0 0 0.00096464296365039726 0.00029255290203367146 -0.0010254408595505096 0 -0.0010254408595505096 0.0013164287095508431 0 0 0 0.00040224540289623967 0.00014987865692261959 -0.00089241730676919984 0 -0.00089241730676919984 0.00081322863399913015 0 0 0 0.00024077682273049295 -6.5615240167571365e-05 -0.00022190700612628733 0 -0.00022190700612628733 0.00081196191107313354 0 0 0 0.0001865866677264183 6.5956506784148328e-05 -0.00027386929925321546 0 -0.00027386929925321546 0.0018209257896550923 0 0 0 0.00047172057410976853 -1.1693852563138263e-05 -0.0002954675671253959 0 -0.0002954675671253959 0.00069569171051897527 0 0 0 0.00017099946448898007 5.5857265056191707e-05 -0.0002181776227729304 0 -0.0002181776227729304 0.00034133425941496043 0 0 0 9.9297881117843545e-05 0.00037587472975297853 -0.00075533449576725697 0 -0.00075533449576725697 0.0011696540581231929 0 0 0 0.00038638219696907061 0.00059349635487590535 -0.0012320675821804183 0 -0.0012320675821804183 -0.00022612273862354648 0 0 0 9.1843404063124412e-05 0.0015596701039666261 -0.00178981140213786 0 -0.00178981140213786 0.0012779513457575886 0 0 0 0.00070940536243108143 0.00034279165070982831 -0.0005452950226274289 0 -0.0005452950226274289 -0.00010034763930466539 0 0 0 6.0611002851429507e-05 0.0010114827911875679 -0.00098122863734365073 0 -0.00098122863734365073 0.0007383526107062055 0 0 0 0.00043745885047347111 0.0001379274407096176 -0.00049150069862134455 0 -0.00049150069862134455 0.00047642586047857982 0 0 0 0.00015358832529699384 0.00012277299308163445 -0.0004829618192786489 0 -0.0004829618192786489 0.00045652007723502933 0 0 0 0.00014482326757905492 8.0746164541178889e-05 -0.00021499906016453352 0 -0.00021499906016453352 0.00071744476011381675 0 0 0 0.00019954773116365176 2.7064725415915092e-05 -0.00012856744182981883 0 -0.00012856744182981883 0.00014633362938853978 0 0 0 4.3349588701002695e-05 1.3703623754385275e-05 -0.00011926831415687289 0 -0.00011926831415687289 0.00013295700484988737 0 0 0 3.6665157151033467e-05 8.1143046007148278e-05 -7.2249285878733804e-05 0 -7.2249285878733804e-05 -5.8707420106163255e-05 0 0 0 5.608906475496056e-06 0.0003575328635010977 -0.00039768760871855546 0 -0.00039768760871855546 0.00042179671702013977 0 0 0 0.000194832395130351 6.9243427366194599e-05 -0.00011305334747302442 0 -0.00011305334747302442 0.00014922434045150368 0 0 0 5.4616941954466203e-05 0.00013212444366172971 -0.00015280232918776782 0 -0.00015280232918776782 7.4984085338458684e-05 0 0 0 5.1777132250019342e-05 0.00011241821689589315 -2.3056015044098377e-05 0 -2.3056015044098377e-05 2.6369201182596669e-05 0 0 0 3.4696854519511433e-05 1.5946960539331423e-05 -6.1624616121136455e-07 0 -6.1624616121136455e-07 6.3187213780846463e-05 0 0 0 1.9783543580370599e-05 1.5506851174240666e-06 3.156755557021107e-05 0 3.156755557021107e-05 -2.4271887935745085e-05 0 0 0 -5.6803007046912768e-06 4.6257127010895793e-05 8.5174905997686956e-06 0 8.5174905997686956e-06 -0.00012974124169851109 0 0 0 -2.0871028671765046e-05 -5.7449110020368899e-05 4.1293050133894837e-05 0 4.1293050133894837e-05 -6.5189770167561889e-06 0 0 0 -1.599202175917025e-05 1.5786792048055887e-06 3.8589341666728227e-05 0 3.8589341666728227e-05 -5.5840441824273057e-05 0 0 0 -1.3565440655005645e-05 3.0937005981224175e-05 3.7323222537077871e-05 0 3.7323222537077871e-05 -4.5887211381767656e-06 0 0 0 6.5870712107063412e-06 -4.7268041444226139e-05 -4.7103448427288086e-05 0 -4.7103448427288086e-05 0.00013210542062092046 0 0 0 2.1209344794159701e-05 0.00015935282146126162 -9.4093341509532413e-05 0 -9.4093341509532413e-05 -2.1993881222703848e-05 0 0 0 3.4339735059701892e-05 0.00044748836337080156 -0.00039285517856868513 0 -0.00039285517856868513 0.00042509733767870372 0 0 0 0.00021814642526238326 0.00024682880793425177 -0.00015956033194081552 0 -0.00015956033194081552 9.7685423083415657e-05 0 0 0 8.6128557754472368e-05 0.020635103244086045 -0.011152905659122539 0 -0.011152905659122539 -0.003986205960563538 0 0 0 0.0041622243208806198 0.020308745908758946 -0.0046081733718700557 0 -0.0046081733718700557 -0.022907522079038421 0 0 0 -0.00064969404256987225 -4.3669322373762753e-05 0.012163620309288452 0 0.012163620309288452 -0.02590372159188048 0 0 0 -0.0064868477285635467 0.010065865509952143 0.002829800048943211 0 0.002829800048943211 -0.012925280407593442 0 0 0 -0.0007148537244103248 0.0051743547510866017 -0.00029652659277400184 0 -0.00029652659277400184 -0.0078513942022926941 0 0 0 -0.0006692598628015578 0.0049231463685470434 -0.0050369651303063256 0 -0.0050369651303063256 0.0010411792081667093 0 0 0 0.0014910813941784451 0.008594333746118496 -0.0050425024758711523 0 -0.0050425024758711523 -0.0039873519161194304 0 0 0 0.0011517454574997282 0.013438700708081348 -0.0070997256131031805 0 -0.0070997256131031805 -0.013127864221106005 0 0 0 7.7709121743825549e-05 0.012091246260778954 -0.0081283962416751621 0 -0.0081283962416751621 -0.00039344955748044086 0 0 0 0.0029244491758246283 0.0066064915875988037 -0.00907460401281035 0 -0.00907460401281035 -0.0022996753986656016 0 0 0 0.0010767040472333209 0.0152815840637337 -0.014021982427999125 0 -0.014021982427999125 0.0095296028631305374 0 0 0 0.006202796731716087 0.002892594150525854 -0.0053926413257133765 0 -0.0053926413257133765 0.00060531936253413465 0 0 0 0.00087447837826511166 0.0079340855855658532 -0.0083074772765213134 0 -0.0083074772765213134 0.0068052168992761564 0 0 0 0.0036848256212104746 0.0014485533593024957 -0.0028365596577023377 0 -0.0028365596577023377 0.0046551838712822757 0 0 0 0.0015259343076463594 0.00062308196631880031 -0.0023497477475573625 0 -0.0023497477475573625 0.0033024508473677994 0 0 0 0.00098138320342169849 0.0019299065179231856 -0.0052144686758868186 0 -0.0052144686758868186 0.0055284507366868407 0 0 0 0.001864589313652576 0.0026378970899065823 -0.0044563115311520018 0 -0.0044563115311520018 0.0084406081585193249 0 0 0 0.0027696263121065323 -0.00036692625971473936 -0.0022878400530474963 0 -0.0022878400530474963 0.0048852968097503613 0 0 0 0.0011295926375090581 0.00069122208571359423 -0.0023345129481419646 0 -0.0023345129481419646 0.008725710358155947 0 0 0 0.0023542331109672743 0.0010512484433384817 -0.0015202750108461172 0 -0.0015202750108461172 0.0055972907505874581 0 0 0 0.0016621347984815404 0.00014134788609032611 -0.00076888919681383783 0 -0.00076888919681383783 0.003280276175528396 0 0 0 0.00085540601540479155 3.2134512937168069e-05 -0.00096426435557317447 0 -0.00096426435557317447 0.004948868687888075 0 0 0 0.001245250800206224 0.0056737302357131592 -0.0094482727454726322 0 -0.0094482727454726322 0.015890373609547259 0 0 0 0.0053910259613150213 0.0039181179376346353 -0.011540960971933467 0 -0.011540960971933467 0.0070046299157018321 0 0 0 0.0027306869633340614 0.0030382961065830716 -0.0066563630273362984 0 -0.0066563630273362984 0.0086004985377265974 0 0 0 0.0029096986610775422 0.00015248962565481139 -0.0027918400373864172 0 -0.0027918400373864172 0.011802473839086725 0 0 0 0.0029887408661853632 0.0022200338629537741 -0.0040122809909026724 0 -0.0040122809909026724 0.01444997761518918 0 0 0 0.0041675028695357108 -0.00032278691928329384 -0.0053633656392899631 0 -0.0053633656392899631 0.013070249635981718 0 0 0 0.0031868656791745192 0.00095665305820946678 -0.0054310192214803155 0 -0.0054310192214803155 0.025264807038966719 0 0 0 0.0065553650242941019 0.0054502395900833944 -0.0094715008724624017 0 -0.0094715008724624017 0.044081987339768425 0 0 0 0.012383056732462872 -0.00043927316877309663 -0.0062314399568470513 0 -0.0062314399568470513 0.024142453271019437 0 0 0 0.0059257950255617031 0.011526371745734454 -0.018626284644834734 0 -0.018626284644834734 0.067747621812282777 0 0 0 0.019818498389504113 -0.0013695892239466989 -0.014212373877344087 0 -0.014212373877344087 0.027709679985008839 0 0 0 0.0065850226902655074 0.016612039959315039 -0.024662725471526481 0 -0.024662725471526481 0.010977065129283647 0 0 0 0.0068972762721496439 0.0077611348757321286 -0.015864157665197443 0 -0.015864157665197443 0.031363760972684007 0 0 0 0.0097812239621042074 0.0050923495833899851 -0.014907522583118227 0 -0.014907522583118227 0.02156701760764429 0 0 0 0.0066648417977586 0.012356909633259305 -0.012980019796979866 0 -0.012980019796979866 -0.0074887393412521597 0 0 0 0.0012170425730017587 0.010472019723165138 4.6046638778090426e-05 0 4.6046638778090426e-05 -0.026509479269996805 0 0 0 -0.0040093648867079168 0.036941907924366725 -0.027251493779382574 0 -0.027251493779382574 -0.013960754414290261 0 0 0 0.0057452883775191213 0.023539327512578367 -0.023709796627832791 0 -0.023709796627832791 0.013767524466452352 0 0 0 0.0093267129947577354 0.02566476624514058 -0.029223855917183544 0 -0.029223855917183544 0.032059075781487367 0 0 0 0.014430960506656931 -0.003085138595585929 -0.027420640199773194 0 -0.027420640199773194 0.022698801766640339 0 0 0 0.0049034157927636268 0.028064382556122092 -0.037081708409983372 0 -0.037081708409983372 0.12711652372820437 0 0 0 0.038795226571081587 0.0029819803641983056 -0.053681498144986461 0 -0.053681498144986461 0.024314702167422264 0 0 0 0.0068241706329052187 0.059179522983727639 -0.075598705303087599 0 -0.075598705303087599 0.19904737240697035 0 0 0 0.064556723847674524 -0.0031352215561879504 -0.041714133806014186 0 -0.041714133806014186 -0.3269117777394559 0 0 0 -0.082511749823910963 -0.033058255354426962 -0.062399583827810634 0 -0.062399583827810634 -0.50887439830567582 0 0 0 -0.13548316341502564 8.0515066814066985e-08 -3.0019407440461366e-07 0 -3.0019407440461366e-07 -7.8844647366218141e-08 0 0 0 4.1760486196247569e-10 -0.020402509849066143 -0.032131410426716966 0 -0.032131410426716966 -0.40437377451570311 0 0 0 -0.10619407109119221 2.2992954686018942e-07 -9.6479769214842066e-07 0 -9.6479769214842066e-07 -7.052311323504242e-08 0 0 0 3.9851608406286168e-08 0.0011228464724308829 -0.022441480383770696 0 -0.022441480383770696 -0.3332372875180889 0 0 0 -0.083028610261414393 -0.026299032654564014 -0.030032329792422874 0 -0.030032329792422874 -0.29984273382889048 0 0 0 -0.08153544162086368 -0.021302151000439196 -0.025981808427977371 0 -0.025981808427977371 -0.25513667983603705 0 0 0 -0.06910970770911895 -0.040214287602955819 -0.040392802285565521 0 -0.040392802285565521 -0.33936454594594473 0 0 0 -0.094894708387224969 -0.021374801145188749 -0.0096810259390599507 0 -0.0096810259390599507 -0.27570725966546172 0 0 0 -0.074270515202662479 -0.01777044999935784 -0.0148541761917374 0 -0.0148541761917374 -0.29508276767565844 0 0 0 -0.07821330441875407 -0.019147246432467156 -0.015106837335766898 0 -0.015106837335766898 -0.28711177176742064 0 0 0 -0.076564754549971942 -0.016387100478758132 -0.015481255846242714 0 -0.015481255846242714 -0.30886537087928101 0 0 0 -0.081313117839509785 -0.0069758861324011878 -0.015752295673445271 0 -0.015752295673445271 -0.30574329436666758 0 0 0 -0.078179795124767359 -0.0064197595138218155 -0.011654074684212423 0 -0.011654074684212423 -0.32187494145068063 0 0 0 -0.082073675241125771 -0.014522485224168102 -0.023919224924083826 0 -0.023919224924083826 -0.33868810234091962 0 0 0 -0.088302646891271985 -0.011099993734902558 -0.021226013530271225 0 -0.021226013530271225 -0.32746710518501665 0 0 0 -0.084641774729979913 0.00015854737858855827 -0.0085134486931985887 0 -0.0085134486931985887 -0.32984609402042242 0 0 0 -0.08242188666045891 -0.010306504505988912 -0.015073787665110805 0 -0.015073787665110805 -0.36151348674541772 0 0 0 -0.092954997812851881 3.3481213234165934e-07 -1.4878574761150898e-06 0 -1.4878574761150898e-06 -3.3358470768786463e-08 0 0 0 7.5363415393218642e-08 0.00056198424624120946 -0.0070103141174903127 0 -0.0070103141174903127 -0.3174765861572153 0 0 0 -0.079228650477743301 4.5255203920530543e-07 -1.9279142594073207e-06 0 -1.9279142594073207e-06 4.3577458665607027e-09 0 0 0 1.1422744626796643e-07 -0.0016813502861829921 -0.0074579376859617019 0 -0.0074579376859617019 -0.3343648563019892 0 0 0 -0.084011551647042992 -0.0036850729305228924 -0.0048210188125827891 0 -0.0048210188125827891 -0.32090435594757682 0 0 0 -0.081147357219524929 5.658878350261013e-07 -2.3260343488337476e-06 0 -2.3260343488337476e-06 4.1538853940974574e-08 0 0 0 1.5185667224176876e-07 0.00017108228954598736 -0.0026064884457611681 0 -0.0026064884457611681 -0.31503410269377952 0 0 0 -0.078715755101058216 -0.00034815217928567524 -0.0023211991856775249 0 -0.0023211991856775249 -0.3130798182243314 0 0 0 -0.078356992600903827 6.8639461342458855e-07 -2.6959671355004093e-06 0 -2.6959671355004093e-06 7.9737581548809704e-08 0 0 0 1.9153304874334956e-07 0.00022165384842542935 -0.0022329982534194937 0 -0.0022329982534194937 -0.30866551953573484 0 0 0 -0.077110966421827243 -0.0022891099767350376 -0.0052361787177330754 0 -0.0052361787177330754 -0.31095558098028642 0 0 0 -0.078311172739255364 -0.0020320229111718824 -0.0063273972896155106 0 -0.0063273972896155106 -0.30703084713551254 0 0 0 -0.077265717511670995 -0.0042864829046362629 -0.0083289301538334026 0 -0.0083289301538334026 -0.31374471942034576 0 0 0 -0.079507800581245264 8.1160635762689282e-05 -0.0010395356987349391 0 -0.0010395356987349391 -0.30400290455749612 0 0 0 -0.075980435980433469 0.00018012464955741159 -0.00098239879873007752 0 -0.00098239879873007752 -0.30574773233012298 0 0 0 -0.076391901920141336 9.3011717843725286e-07 -3.3954665917297405e-06 0 -3.3954665917297405e-06 1.5973613753485095e-07 0 0 0 2.7246332899302701e-07 7.2981413049344468e-05 -0.0009205396222904394 0 -0.0009205396222904394 -0.3072187530470627 0 0 0 -0.076786442908503005 -0.0011933652945985695 -0.0016204134306119222 0 -0.0016204134306119222 -0.30851235261225973 0 0 0 -0.077426429476714631 8.1138386109029052e-07 -3.0498653013790418e-06 0 -3.0498653013790418e-06 1.2026940364489744e-07 0 0 0 2.3291331618379678e-07 -0.0011676742939778217 -0.0038985441678862642 0 -0.0038985441678862642 -0.30661800050219101 0 0 0 -0.076946418699042202 -0.0010274233789354104 -0.0025755986754305571 0 -0.0025755986754305571 -0.30492610246630203 0 0 0 -0.076488381461309374 -0.00058273435895594972 -0.0032342143166430581 0 -0.0032342143166430581 -0.30322623565084772 0 0 0 -0.075952242502451028 -0.0036414366667173459 -0.0051131424508343848 0 -0.0051131424508343848 -0.30456138765736451 0 0 0 -0.077050706081020714 -0.0019331395842898669 -0.0062542137714118873 0 -0.0062542137714118873 -0.29828690775296218 0 0 0 -0.075055011834312957 -0.0080863175148062627 -0.010348968902246014 0 -0.010348968902246014 -0.29760212087943083 0 0 0 -0.076422109598559218 -0.0068602654679321739 -0.0090968933324147017 0 -0.0090968933324147017 -0.30861038647443306 0 0 0 -0.078867662985591336 -0.0069392383866296037 -0.0053578307818513693 0 -0.0053578307818513693 -0.29468523438217453 0 0 0 -0.075406118192201027 -0.0043905281831497778 -0.0036858256544557433 0 -0.0036858256544557433 -0.29455307821381638 0 0 0 -0.074735901599241594 -0.0082630058559659825 -0.0059263274817799028 0 -0.0059263274817799028 -0.30041087887750478 0 0 0 -0.077168471183367698 -0.0092792769844673439 -0.001175735316811255 0 -0.001175735316811255 -0.29727744705566034 0 0 0 -0.07663918101003192 -0.0068050138897923773 0.0014130074845445373 0 0.0014130074845445373 -0.28694306146718968 0 0 0 -0.073437018839245527 -0.0034625255613130457 0.010050837609785424 0 0.010050837609785424 -0.28174884806803302 0 0 0 -0.071302843407336558 -0.015401850736889711 -0.0018878172439609764 0 -0.0018878172439609764 -0.27422469970998575 0 0 0 -0.072406637611718949 -0.0022374515017670876 0.0025581855229788175 0 0.0025581855229788175 -0.27373890642118903 0 0 0 -0.068994089480738888 -0.013954151942739051 -0.0041620206224622924 0 -0.0041620206224622924 -0.28576882066015258 0 0 0 -0.074930743150722984 -0.01624805984748906 -0.0048153754032860263 0 -0.0048153754032860263 -0.2939062893176636 0 0 0 -0.077538587291288208 4.7920952382929372e-05 -7.8604851430519318e-05 0 -7.8604851430519318e-05 -0.30013345013960002 0 0 0 -0.075021382296804218 -0.00024300045866132436 -9.4356673125073343e-05 0 -9.4356673125073343e-05 -0.30009597591885129 0 0 0 -0.075084744094378042 -4.9235630545707565e-05 3.8253997935999706e-05 0 3.8253997935999706e-05 -0.29999289403032048 0 0 0 -0.075010532415216602 0.00014026067048300561 3.1162548207385727e-05 0 3.1162548207385727e-05 -0.30005395437744298 0 0 0 -0.074978423426740548 4.442468649390463e-06 4.6635828414132163e-05 0 4.6635828414132163e-05 -0.29998762241077515 0 0 0 -0.074995794985531994 4.7634726473733124e-05 3.8394728119950372e-05 0 3.8394728119950372e-05 -0.29997205075161215 0 0 0 -0.074981104006284438 1.2504061984053294e-05 3.1303276130989488e-05 0 3.1303276130989488e-05 -0.29996075648547027 0 0 0 -0.074987063105871332 1.91575272590668e-06 -6.1521244492396663e-06 0 -6.1521244492396663e-06 4.3643192838670988e-07 0 0 0 5.8804616357334726e-07 1.8233160976222738e-06 -6.1116392224161298e-06 0 -6.1116392224161298e-06 4.574138989660871e-07 0 0 0 5.7018249914708918e-07 2.8927409236878532e-06 4.3430173156000507e-05 0 4.3430173156000507e-05 -0.2998681340757301 0 0 0 -0.074966310333701269 1.3093936166441722e-06 3.9933845364048537e-05 0 3.9933845364048537e-05 -0.2999699013271222 0 0 0 -0.074992147983377055 5.0625642722401665e-06 3.8883706369841065e-05 0 3.8883706369841065e-05 -0.29997233213482311 0 0 0 -0.074991817392637383 -1.0230744707406814e-05 3.8377946106615823e-05 0 3.8377946106615823e-05 -0.29999306206911491 0 0 0 -0.075000823203455802 -1.2978992733891914e-06 3.3282746765506133e-05 0 3.3282746765506133e-05 -0.29997340447849297 0 0 0 -0.074993675594440923 -8.2664931919218532e-05 3.9450871434087986e-06 0 3.9450871434087986e-06 -0.29998562202098888 0 0 0 -0.075017071738226804 -0.00015344411303552796 -0.0001355839923666835 0 -0.0001355839923666835 -0.30013563736575222 0 0 0 -0.075072270369697103 -7.4178836424021455e-05 -0.00012873839526084119 0 -0.00012873839526084119 -0.30016926836360103 0 0 0 -0.075060861800007039 -1.5395435957188397e-06 3.9740388576792185e-05 0 3.9740388576792185e-05 -0.30002517555683994 0 0 0 -0.075006678775109137 1.7111808228436769e-06 -5.7176591863799318e-06 0 -5.7176591863799318e-06 4.2049097703196726e-07 0 0 0 5.3291794996891104e-07 -3.8459681741542795e-05 2.1067932364227104e-05 0 2.1067932364227104e-05 -0.29974416775608592 0 0 0 -0.074945656859457532 -7.8746090603490728e-05 -3.3299199863279227e-05 0 -3.3299199863279227e-05 -0.29978357765936986 0 0 0 -0.074965580937492671 1.5990797914533157e-06 -5.4011007638895974e-06 0 -5.4011007638895974e-06 3.8324788560855754e-07 0 0 0 4.9558191926546788e-07 3.202070771202159e-06 -0.00011893287808084629 0 -0.00011893287808084629 -0.30025356493910493 0 0 0 -0.075062590717083655 -0.00031390546624643356 -0.00047633516167430116 0 -0.00047633516167430116 -0.30062688315029451 0 0 0 -0.07523519715413518 -0.00017560493112211972 -0.00022533655652978712 0 -0.00022533655652978712 -0.30026891776552311 0 0 0 -0.075111130674161419 -0.00058918601906743362 -0.00037214411261476954 0 -0.00037214411261476954 -0.30007294460895739 0 0 0 -0.075165532657005985 -0.00092138729296431521 -0.00088159080223326747 0 -0.00088159080223326747 -0.30052713379671436 0 0 0 -0.075362130272419892 -0.00096617630556572465 -0.001026803236518381 0 -0.001026803236518381 -0.29978656409498594 0 0 0 -0.075188185100138138 -0.001809853314940546 -0.0016917309528670099 0 -0.0016917309528670099 -0.30075952696628738 0 0 0 -0.075642345070306649 -0.00093981694905975743 -0.0012354737762330648 0 -0.0012354737762330648 -0.30130349678331392 0 0 0 -0.075560828433093308 -0.00063808707914447815 -0.0015475619284154307 0 -0.0015475619284154307 -0.30033312255565692 0 0 0 -0.075242802408700626 -0.00021715035885505607 -0.00067703619101067147 0 -0.00067703619101067147 -0.30018146350074448 0 0 0 -0.075099653464899996 -3.0394234641129003e-05 -0.00019053824853321188 0 -0.00019053824853321188 -0.30019491541241372 0 0 0 -0.075056327411763935 -0.00039075063873506011 -0.0005178310467639502 0 -0.0005178310467639502 -0.30062441126821859 0 0 0 -0.075253790476738303 4.0049003287467855e-05 -0.00010866683984711578 0 -0.00010866683984711578 -0.30034170903830493 0 0 0 -0.075075415008754032 1.4876622844616162e-06 -5.0674046144440367e-06 0 -5.0674046144440367e-06 3.4620651870122755e-07 0 0 0 4.5846720079070987e-07 -8.8445082333521441e-05 -0.00011088691948302198 0 -0.00011088691948302198 -0.2998249192102973 0 0 0 -0.074978341073157484 5.2678622352697602e-05 -0.00021468414744152398 0 -0.00021468414744152398 -0.30098363748883195 0 0 0 -0.075232739716619701 1.3773422693637052e-06 -4.7367254701831685e-06 0 -4.7367254701831685e-06 3.0947991867921831e-07 0 0 0 4.2170554701073151e-07 -5.7674605455471095e-05 -0.00014903768201701695 0 -0.00014903768201701695 -0.30019740723866395 0 0 0 -0.075063770461029744 -0.00042882965939883277 -0.00067864344916612751 0 -0.00067864344916612751 -0.30097901064232602 0 0 0 -0.075351960075431546 -7.2574099983846452e-05 -0.0005537505353188088 0 -0.0005537505353188088 -0.30086808993799474 0 0 0 -0.075235166009494758 -0.0006850324874867475 -0.0013161076822767875 0 -0.0013161076822767875 -0.3020147606899144 0 0 0 -0.075674948294350397 -0.00023404582868558066 -0.0015266963793341137 0 -0.0015266963793341137 -0.30161689634085009 0 0 0 -0.075462735542383808 7.9332412540766839e-05 -0.00049801296093399117 0 -0.00049801296093399117 -0.30135779962769416 0 0 0 -0.075319616803787737 1.2683368294945045e-06 -4.4046567199240077e-06 0 -4.4046567199240077e-06 2.7285330758885528e-07 0 0 0 3.8529753427083973e-07 -0.00036520423687713688 -0.00038353263376289526 0 -0.00038353263376289526 -0.30074826475501126 0 0 0 -0.075278367247971989 1.0459383791223692e-06 -3.7355185669122522e-06 0 -3.7355185669122522e-06 1.9838343872566237e-07 0 0 0 3.110804544620081e-07 -0.000569390329379757 -0.00085314850169604384 0 -0.00085314850169604384 -0.30337693065659121 0 0 0 -0.075986580246492755 9.2798280073580486e-06 -0.00051641733735063866 0 -0.00051641733735063866 -0.30195170515980507 0 0 0 -0.075485606332949207 1.1578816837385061e-06 -4.0714074328492542e-06 0 -4.0714074328492542e-06 2.3579213402635965e-07 0 0 0 3.4841845444121708e-07 6.5330386600503942e-05 -0.00051474597862810612 0 -0.00051474597862810612 -0.3030915249923174 0 0 0 -0.07575654865142889 -0.00056280042561202004 -0.0018365552160046761 0 -0.0018365552160046761 -0.30271131969146636 0 0 0 -0.07581853002926936 -0.0010345574696122295 -0.0036390891674775716 0 -0.0036390891674775716 -0.29934262909036091 0 0 0 -0.07509429663999323 -0.0024508678396317346 -0.0027168175621890001 0 -0.0027168175621890001 -0.30249559502273693 0 0 0 -0.076236615715592218 -0.0034095380526252272 -0.00081543006662865292 0 -0.00081543006662865292 -0.29924313399088132 0 0 0 -0.075663168010876691 -0.0047680291526849827 -0.0034665671900193651 0 -0.0034665671900193651 -0.30046251152454617 0 0 0 -0.076307635169307664 -0.0033274797550257862 -0.0015751875308539498 0 -0.0015751875308539498 -0.29978949429265622 0 0 0 -0.075779243511920447 -0.0021696269353994602 -0.0011343429670579441 0 -0.0011343429670579441 -0.30020692479253164 0 0 0 -0.075594137931982663 -0.0021148688255101522 -0.0010045926862660703 0 -0.0010045926862660703 -0.29876249360715379 0 0 0 -0.075219340608166152 -0.001337343134029112 -0.00042637721338900647 0 -0.00042637721338900647 -0.29986274339956553 0 0 0 -0.075300021633398773 -0.00070841780536845533 -0.00048492579033090899 0 -0.00048492579033090899 -0.30026308915940447 0 0 0 -0.075242876741193454 -0.0012593755394027517 -0.00040825022969981362 0 -0.00040825022969981362 -0.29982795398078133 0 0 0 -0.075271832380046033 -0.0011225372569985126 -7.5468121127242327e-05 0 -7.5468121127242327e-05 -0.30001249300137389 0 0 0 -0.075283757564592935 -0.00046596808551369051 -9.555997556270901e-05 0 -9.555997556270901e-05 -0.29996808935696784 0 0 0 -0.075108514360620715 -0.00027375456165934509 -0.00011694110876070418 0 -0.00011694110876070418 -0.30003834809778462 0 0 0 -0.075078025664860881 -0.001015250596521744 0.00094621914446713085 0 0.00094621914446713085 -0.3014890437250477 0 0 0 -0.075626073580392361 -0.00048373757789743621 0.00022060086528527827 0 0.00022060086528527827 -0.29947401086481351 0 0 0 -0.074989437110677848 -0.0017815055867519414 0.00057037744950105829 0 0.00057037744950105829 -0.30002124744748881 0 0 0 -0.075450688258560272 -0.0046768559960083111 0.00080484431244889909 0 0.00080484431244889909 -0.29841902788536823 0 0 0 -0.075773970970344218 -0.0015571127968138088 0.0018612225477226962 0 0.0018612225477226962 -0.29823610067454487 0 0 0 -0.074948303367839642 -0.0013061072584961697 0.00061865911230085668 0 0.00061865911230085668 -0.29849975900307568 0 0 0 -0.074951466565392921 -0.0023170124462027486 -4.6104723145146131e-05 0 -4.6104723145146131e-05 -0.29925338950724623 0 0 0 -0.075392600488362049 -0.002499589405926872 0.0013289040536216823 0 0.0013289040536216823 -0.30020940705047217 0 0 0 -0.075677249114099843 0.00025738115324536182 0.00031814149269944085 0 0.00031814149269944085 -0.30024883112242851 0 0 0 -0.074997862492295786 -0.0029648663520876473 0.0070315243978161801 0 0.0070315243978161801 -0.31123278828718792 0 0 0 -0.078549413659818879 -0.0082321433561163282 0.0062157788676219933 0 0.0062157788676219933 -0.29193055289906722 0 0 0 -0.075040674063795887 -0.00021098930963958651 0.0090302217568542509 0 0.0090302217568542509 -0.29748662371175738 0 0 0 -0.07442440325534927 -0.0089979196798189998 0.0051638941076752598 0 0.0051638941076752598 -0.29548891138028188 0 0 0 -0.076121707765025248 -0.0028921869296695268 0.0039140920935946677 0 0.0039140920935946677 -0.29830380230881426 0 0 0 -0.075298997309620974 0.00026631252752973289 0.0063435886734555906 0 0.0063435886734555906 -0.2970222670739161 0 0 0 -0.07418898863659662 0.0058702421828474155 0.011385851563337303 0 0.011385851563337303 -0.28898622447126188 0 0 0 -0.070778995572103626 0.00092930641977878592 0.0095261759934579943 0 0.0095261759934579943 -0.32836765494284881 0 0 0 -0.081859587130767519 -0.094212555435822354 0.026361276435700645 0 0.026361276435700645 -0.28322416760642855 0 0 0 -0.094359180760562711 -0.030825891107992574 0.030543622704115876 0 0.030543622704115876 -0.3710570566421868 0 0 0 -0.10047073693754485 -0.065376698839437961 0.0050399329750458162 0 0.0050399329750458162 -0.19607893553143477 0 0 0 -0.065363908592718178 -0.02858907868467736 0.0046408117731073888 0 0.0046408117731073888 -0.21896042175417185 0 0 0 -0.061887375109712303 -0.031690767726186737 -0.0039916716748601457 0 -0.0039916716748601457 -0.24352600466512556 0 0 0 -0.068804193097828065 -0.03916068111354723 -0.018150400546591595 0 -0.018150400546591595 -0.13847039317021748 0 0 0 -0.044407768570941177 -0.021534312929797156 -0.0075796464422090148 0 -0.0075796464422090148 -0.21778758005665216 0 0 0 -0.059830473246612323 -0.0072651921916573273 -0.020059401104520758 0 -0.020059401104520758 -0.14773767369425189 0 0 0 -0.038750716471477327 -0.018933118909310376 -0.013509502057189371 0 -0.013509502057189371 -0.20828937482392262 0 0 0 -0.05680562343330825 0.013087034750518256 -0.0184236540965384 0 -0.0184236540965384 -0.22820190354170228 0 0 0 -0.053778717197796033 -0.0069852799520855879 -0.039651705295052075 0 -0.039651705295052075 -0.15008994962161926 0 0 0 -0.039268807393426142 0.010127351558076314 -0.060107771740373572 0 -0.060107771740373572 -0.22921959492786148 0 0 0 -0.054773060842446375 0.03265167618736415 -0.069876252113294957 0 -0.069876252113294957 -0.13441849858759863 0 0 0 -0.025441705600058592 0.020684687686300496 -0.087350700585047236 0 -0.087350700585047236 -0.30865284065851517 0 0 0 -0.071992038243053558 0.019200726727048409 -0.027214929897815265 0 -0.027214929897815265 -0.21756739749583423 0 0 0 -0.049591667692196431 -0.0037485721553247586 -0.0061462794503845952 0 -0.0061462794503845952 -0.27710595594636522 0 0 0 -0.070213632025422412 -0.0018752598508355867 -0.0060063222600275079 0 -0.0060063222600275079 -0.2604391548759265 0 0 0 -0.065578603681690495 0.0025450442994559147 0.011555066168792816 0 0.011555066168792816 -0.29371834024108212 0 0 0 -0.072793323985406541 0.0061522636409446774 -0.0052645692862772764 0 -0.0052645692862772764 -0.26553974870390817 0 0 0 -0.064846871265740846 0.0012340398144808917 0.010432197131675869 0 0.010432197131675869 -0.26772115225852677 0 0 0 -0.066621778111011443 -0.0058372096798858259 0.0088764435305126455 0 0.0088764435305126455 -0.29268302399685797 0 0 0 -0.074630058419185949 0.0034501501644718102 0.0076853540878269871 0 0.0076853540878269871 -0.25984809271130649 0 0 0 -0.064099485636708642 
</DataArray>
</CellData>
</Piece>
</UnstructuredGrid>
</VTKFile>
