<?xml version="1.0"?>
<VTKFile type="UnstructuredGrid" version="0.1" byte_order="LittleEndian">
<UnstructuredGrid>
<Piece NumberOfPoints="902" NumberOfCells="306">
<Points>
<DataArray type="Float64" NumberOfComponents="3" format="ascii">
0 0 0 0.073205080756622284 0.073205080756783406 0 0.099999999999814668 0 0 0 0 0 0 0.10000000000041601 0 0.073205080756622284 0.073205080756783406 0 0 0.10000000000041601 0 0.073205080756622284 0.073205080756783406 0 0.091402515083494409 0.15708578875639231 0 0.073205080756622284 0.073205080756783406 0 0.091402515083494409 0.15708578875639231 0 0.15027753147047779 0.085031708671012771 0 0.073205080756622284 0.073205080756783406 0 0.099999999999814668 0 0 0.15027753147047779 0.085031708671012771 0 0 0.20000000000083221 0 0.091402515083494409 0.15708578875639231 0 0.081883829897837504 0.25483250623203502 0 0 0.10000000000041601 0 0 0.20000000000083221 0 0.091402515083494409 0.15708578875639231 0 0.091402515083494409 0.15708578875639231 0 0.15549563120825899 0.22728761896597441 0 0.081883829897837504 0.25483250623203502 0 0.091402515083494409 0.15708578875639231 0 0.15549563120825899 0.22728761896597441 0 0.19770415439635231 0.16188916215834151 0 0.091402515083494409 0.15708578875639231 0 0.19770415439635231 0.16188916215834151 0 0.15027753147047779 0.085031708671012771 0 0.19770415439635231 0.16188916215834151 0 0.24865572115759171 0.085435742792086475 0 0.29474128210898343 0.16200542811217281 0 0.15549563120825899 0.22728761896597441 0 0.19770415439635231 0.16188916215834151 0 0.25 0.25 0 0.19770415439635231 0.16188916215834151 0 0.29474128210898343 0.16200542811217281 0 0.25 0.25 0 0.099999999999814668 0 0 0.15027753147047779 0.085031708671012771 0 0.19999999999955789 0 0 0.19770415439635231 0.16188916215834151 0 0.15027753147047779 0.085031708671012771 0 0.24865572115759171 0.085435742792086475 0 0.15027753147047779 0.085031708671012771 0 0.24865572115759171 0.085435742792086475 0 0.19999999999955789 0 0 0.24865572115759171 0.085435742792086475 0 0.19999999999955789 0 0 0.29999999999926641 0 0 0.24865572115759171 0.085435742792086475 0 0.29999999999926641 0 0 0.34895628004087342 0.081718455239699395 0 0.29999999999926641 0 0 0.34895628004087342 0.081718455239699395 0 0.3999999999989749 0 0 0.24865572115759171 0.085435742792086475 0 0.34895628004087342 0.081718455239699395 0 0.29474128210898343 0.16200542811217281 0 0.29474128210898343 0.16200542811217281 0 0.3464199946918517 0.23853139853342401 0 0.25 0.25 0 0.29474128210898343 0.16200542811217281 0 0.3464199946918517 0.23853139853342401 0 0.40494618262236548 0.1650662896072117 0 0.34895628004087342 0.081718455239699395 0 0.29474128210898343 0.16200542811217281 0 0.40494618262236548 0.1650662896072117 0 0.3464199946918517 0.23853139853342401 0 0.40494618262236548 0.1650662896072117 0 0.42061435012922882 0.23794897811370561 0 0.42061435012922882 0.23794897811370561 0 0.49638486706945439 0.2121184447907791 0 0.48197160777613701 0.29296902118871587 0 0.40494618262236548 0.1650662896072117 0 0.42061435012922882 0.23794897811370561 0 0.49638486706945439 0.2121184447907791 0 0.40494618262236548 0.1650662896072117 0 0.49638486706945439 0.2121184447907791 0 0.49677298727352631 0.1419426259588793 0 0.40494618262236548 0.1650662896072117 0 0.49677298727352631 0.1419426259588793 0 0.44949959448178062 0.082308188761819806 0 0.49677298727352631 0.1419426259588793 0 0.44949959448178062 0.082308188761819806 0 0.54912436800118414 0.07923269986872096 0 0.44949959448178062 0.082308188761819806 0 0.49999999999869432 0 0 0.54912436800118414 0.07923269986872096 0 0.44949959448178062 0.082308188761819806 0 0.49999999999869432 0 0 0.3999999999989749 0 0 0.34895628004087342 0.081718455239699395 0 0.44949959448178062 0.082308188761819806 0 0.3999999999989749 0 0 0.34895628004087342 0.081718455239699395 0 0.40494618262236548 0.1650662896072117 0 0.44949959448178062 0.082308188761819806 0 0.4375 0.4375 0 0.375 0.375 0 0.37209049300057639 0.44668163221273938 0 0.4375 0.4375 0 0.45958432544769412 0.36572680929244022 0 0.375 0.375 0 0.4375 0.4375 0 0.375 0.375 0 0.4375 0.4375 0 0.37209049300057639 0.44668163221273938 0 0.41666666666666657 0.5 0 0.4375 0.4375 0 0.5 0.5 0 0.51443730641548846 0.4230626935845116 0 0.4375 0.4375 0 0.41666666666666657 0.5 0 0.5 0.5 0 0.4375 0.4375 0 0.5 0.5 0 0.4375 0.4375 0 0.45958432544769412 0.36572680929244022 0 0.51443730641548846 0.4230626935845116 0 0.45958432544769412 0.36572680929244022 0 0.48197160777613701 0.29296902118871587 0 0.53795066522196777 0.35232980433802918 0 0.45958432544769412 0.36572680929244022 0 0.48197160777613701 0.29296902118871587 0 0.39571815329053278 0.30366769536745408 0 0.3464199946918517 0.23853139853342401 0 0.42061435012922882 0.23794897811370561 0 0.39571815329053278 0.30366769536745408 0 0.42061435012922882 0.23794897811370561 0 0.48197160777613701 0.29296902118871587 0 0.39571815329053278 0.30366769536745408 0 0.45958432544769412 0.36572680929244022 0 0.39571815329053278 0.30366769536745408 0 0.375 0.375 0 0.375 0.375 0 0.3125 0.3125 0 0.29795246500288208 0.42090816106369688 0 0.39571815329053278 0.30366769536745408 0 0.375 0.375 0 0.3125 0.3125 0 0.375 0.375 0 0.3125 0.3125 0 0.3464199946918517 0.23853139853342401 0 0.39571815329053278 0.30366769536745408 0 0.3125 0.3125 0 0.3464199946918517 0.23853139853342401 0 0.3125 0.3125 0 0.25 0.25 0 0.3125 0.3125 0 0.25 0.25 0 0.2364851416377855 0.35196809740109009 0 0.3125 0.3125 0 0.25 0.25 0 0.3125 0.3125 0 0.29795246500288208 0.42090816106369688 0 0.2364851416377855 0.35196809740109009 0 0.375 0.375 0 0.29795246500288208 0.42090816106369688 0 0.37209049300057639 0.44668163221273938 0 0.37209049300057639 0.44668163221273938 0 0.33333333333333331 0.5 0 0.41666666666666657 0.5 0 0.29795246500288208 0.42090816106369688 0 0.37209049300057639 0.44668163221273938 0 0.33333333333333331 0.5 0 0.29795246500288208 0.42090816106369688 0 0.33333333333333331 0.5 0 0.25 0.5 0 0.20086089844078761 0.43409067997123951 0 0.16586218125878449 0.51810759034366505 0 0.25 0.5 0 0.29795246500288208 0.42090816106369688 0 0.20086089844078761 0.43409067997123951 0 0.25 0.5 0 0.29795246500288208 0.42090816106369688 0 0.20086089844078761 0.43409067997123951 0 0.2364851416377855 0.35196809740109009 0 0.20086089844078761 0.43409067997123951 0 0.2364851416377855 0.35196809740109009 0 0.15692990060445861 0.37320329292197801 0 0.20086089844078761 0.43409067997123951 0 0.15692990060445861 0.37320329292197801 0 0.097900886736469753 0.44336704329953031 0 0.20086089844078761 0.43409067997123951 0 0.097900886736469753 0.44336704329953031 0 0.16586218125878449 0.51810759034366505 0 0.25 0.25 0 0.2364851416377855 0.35196809740109009 0 0.16831836545025089 0.3000279332226779 0 0.15549563120825899 0.22728761896597441 0 0.25 0.25 0 0.16831836545025089 0.3000279332226779 0 0.15692990060445861 0.37320329292197801 0 0.16831836545025089 0.3000279332226779 0 0.08278240412540934 0.34553853769174547 0 0.2364851416377855 0.35196809740109009 0 0.15692990060445861 0.37320329292197801 0 0.16831836545025089 0.3000279332226779 0 0.15549563120825899 0.22728761896597441 0 0.16831836545025089 0.3000279332226779 0 0.081883829897837504 0.25483250623203502 0 0.16831836545025089 0.3000279332226779 0 0.081883829897837504 0.25483250623203502 0 0.08278240412540934 0.34553853769174547 0 0.08278240412540934 0.34553853769174547 0 0 0.30000000000124832 0 0 0.40000000000166441 0 0.081883829897837504 0.25483250623203502 0 0.08278240412540934 0.34553853769174547 0 0 0.30000000000124832 0 0 0.20000000000083221 0 0.081883829897837504 0.25483250623203502 0 0 0.30000000000124832 0 0.15692990060445861 0.37320329292197801 0 0.08278240412540934 0.34553853769174547 0 0.097900886736469753 0.44336704329953031 0 0.08278240412540934 0.34553853769174547 0 0.097900886736469753 0.44336704329953031 0 0 0.40000000000166441 0 0.097900886736469753 0.44336704329953031 0 0 0.50000000000205869 0 0.080137041737376596 0.54953170839333398 0 0.097900886736469753 0.44336704329953031 0 0 0.40000000000166441 0 0 0.50000000000205869 0 0 0.50000000000205869 0 0.080137041737376596 0.54953170839333398 0 0 0.60000000000138687 0 0.097900886736469753 0.44336704329953031 0 0.080137041737376596 0.54953170839333398 0 0.16586218125878449 0.51810759034366505 0 0.080137041737376596 0.54953170839333398 0 0.092210585188327809 0.65716922645417974 0 0.14738305403764121 0.59655284915259177 0 0.080137041737376596 0.54953170839333398 0 0 0.60000000000138687 0 0.092210585188327809 0.65716922645417974 0 0 0.60000000000138687 0 0 0.7000000000006934 0 0.092210585188327809 0.65716922645417974 0 0 0.7000000000006934 0 0.066835488316682207 0.74715275320363728 0 0.092210585188327809 0.65716922645417974 0 0 0.7000000000006934 0 0.066835488316682207 0.74715275320363728 0 0 0.79999999999999982 0 0.066835488316682207 0.74715275320363728 0 0.092210585188327809 0.65716922645417974 0 0.15793426029988769 0.74398998676447015 0 0.092210585188327809 0.65716922645417974 0 0.18829732063548599 0.66099398255167208 0 0.14738305403764121 0.59655284915259177 0 0.092210585188327809 0.65716922645417974 0 0.15793426029988769 0.74398998676447015 0 0.18829732063548599 0.66099398255167208 0 0.15793426029988769 0.74398998676447015 0 0.24021577238288039 0.73972629863776906 0 0.18829732063548599 0.66099398255167208 0 0.24021577238288039 0.73972629863776906 0 0.18829732063548599 0.66099398255167208 0 0.27431461370666999 0.65461381660647655 0 0.18829732063548599 0.66099398255167208 0 0.22112359218785299 0.58198260946245006 0 0.27431461370666999 0.65461381660647655 0 0.22112359218785299 0.58198260946245006 0 0.16586218125878449 0.51810759034366505 0 0.25 0.5 0 0.080137041737376596 0.54953170839333398 0 0.16586218125878449 0.51810759034366505 0 0.14738305403764121 0.59655284915259177 0 0.18829732063548599 0.66099398255167208 0 0.22112359218785299 0.58198260946245006 0 0.14738305403764121 0.59655284915259177 0 0.22112359218785299 0.58198260946245006 0 0.16586218125878449 0.51810759034366505 0 0.14738305403764121 0.59655284915259177 0 0.10000000000041601 1 0 0.073205080757192453 0.92679491924280732 0 0.1501309503580549 0.91511756570841429 0 0 1 0 0 0.89999999999958358 0 0.073205080757192453 0.92679491924280732 0 0.10000000000041601 1 0 0 1 0 0.073205080757192453 0.92679491924280732 0 0 0.89999999999958358 0 0.073205080757192453 0.92679491924280732 0 0.08856781640825595 0.84116524500979684 0 0.073205080757192453 0.92679491924280732 0 0.08856781640825595 0.84116524500979684 0 0.1501309503580549 0.91511756570841429 0 0 0.89999999999958358 0 0.08856781640825595 0.84116524500979684 0 0 0.79999999999999982 0 0.066835488316682207 0.74715275320363728 0 0.08856781640825595 0.84116524500979684 0 0 0.79999999999999982 0 0.066835488316682207 0.74715275320363728 0 0.15793426029988769 0.74398998676447015 0 0.08856781640825595 0.84116524500979684 0 0.15793426029988769 0.74398998676447015 0 0.08856781640825595 0.84116524500979684 0 0.19698204704958311 0.82984289029900649 0 0.24021577238288039 0.73972629863776906 0 0.19698204704958311 0.82984289029900649 0 0.29272065835002509 0.81966004122186487 0 0.15793426029988769 0.74398998676447015 0 0.24021577238288039 0.73972629863776906 0 0.19698204704958311 0.82984289029900649 0 0.19698204704958311 0.82984289029900649 0 0.25000279730609037 0.91142898934179428 0 0.29272065835002509 0.81966004122186487 0 0.08856781640825595 0.84116524500979684 0 0.19698204704958311 0.82984289029900649 0 0.1501309503580549 0.91511756570841429 0 0.19698204704958311 0.82984289029900649 0 0.1501309503580549 0.91511756570841429 0 0.25000279730609037 0.91142898934179428 0 0.1501309503580549 0.91511756570841429 0 0.20000000000083221 1 0 0.25000279730609037 0.91142898934179428 0 0.10000000000041601 1 0 0.1501309503580549 0.91511756570841429 0 0.20000000000083221 1 0 0.30000000000124832 1 0 0.36018312807679881 0.90395343882148016 0 0.40000000000166441 1 0 0.20000000000083221 1 0 0.30000000000124832 1 0 0.25000279730609037 0.91142898934179428 0 0.30000000000124832 1 0 0.25000279730609037 0.91142898934179428 0 0.36018312807679881 0.90395343882148016 0 0.25000279730609037 0.91142898934179428 0 0.36018312807679881 0.90395343882148016 0 0.29272065835002509 0.81966004122186487 0 0.36018312807679881 0.90395343882148016 0 0.29272065835002509 0.81966004122186487 0 0.3859831055955032 0.7911562468105291 0 0.24021577238288039 0.73972629863776906 0 0.29272065835002509 0.81966004122186487 0 0.32850465968734038 0.72497571723197574 0 0.29272065835002509 0.81966004122186487 0 0.3859831055955032 0.7911562468105291 0 0.32850465968734038 0.72497571723197574 0 0.3859831055955032 0.7911562468105291 0 0.46922011776697548 0.77351369004258919 0 0.44913734244298342 0.8579011037016615 0 0.3859831055955032 0.7911562468105291 0 0.46922011776697548 0.77351369004258919 0 0.41400456169167021 0.70705979958180076 0 0.46922011776697548 0.77351369004258919 0 0.44913734244298342 0.8579011037016615 0 0.52379080970865055 0.82526472814768648 0 0.36018312807679881 0.90395343882148016 0 0.3859831055955032 0.7911562468105291 0 0.44913734244298342 0.8579011037016615 0 0.36018312807679881 0.90395343882148016 0 0.44913734244298342 0.8579011037016615 0 0.45000000000186152 0.93710401158983114 0 0.44913734244298342 0.8579011037016615 0 0.45000000000186152 0.93710401158983114 0 0.53853961848507526 0.91052613143614081 0 0.45000000000186152 0.93710401158983114 0 0.50000000000205869 1 0 0.53853961848507526 0.91052613143614081 0 0.45000000000186152 0.93710401158983114 0 0.40000000000166441 1 0 0.50000000000205869 1 0 0.36018312807679881 0.90395343882148016 0 0.45000000000186152 0.93710401158983114 0 0.40000000000166441 1 0 0.30438298808748598 0.57540927256642327 0 0.35694548412345278 0.64361853624604293 0 0.38429639916174169 0.5696787164162832 0 0.33333333333333331 0.5 0 0.41666666666666657 0.5 0 0.33333333333333331 0.5 0 0.30438298808748598 0.57540927256642327 0 0.38429639916174169 0.5696787164162832 0 0.22112359218785299 0.58198260946245006 0 0.25 0.5 0 0.30438298808748598 0.57540927256642327 0 0.33333333333333331 0.5 0 0.25 0.5 0 0.30438298808748598 0.57540927256642327 0 0.33333333333333331 0.5 0 0.25 0.5 0 0.30438298808748598 0.57540927256642327 0 0.27431461370666999 0.65461381660647655 0 0.35694548412345278 0.64361853624604293 0 0.22112359218785299 0.58198260946245006 0 0.30438298808748598 0.57540927256642327 0 0.27431461370666999 0.65461381660647655 0 0.24021577238288039 0.73972629863776906 0 0.27431461370666999 0.65461381660647655 0 0.32850465968734038 0.72497571723197574 0 0.32850465968734038 0.72497571723197574 0 0.35694548412345278 0.64361853624604293 0 0.41400456169167021 0.70705979958180076 0 0.27431461370666999 0.65461381660647655 0 0.32850465968734038 0.72497571723197574 0 0.35694548412345278 0.64361853624604293 0 0.35694548412345278 0.64361853624604293 0 0.43190667360534168 0.6338044761171725 0 0.41400456169167021 0.70705979958180076 0 0.3859831055955032 0.7911562468105291 0 0.32850465968734038 0.72497571723197574 0 0.41400456169167021 0.70705979958180076 0 0.46922011776697548 0.77351369004258919 0 0.41400456169167021 0.70705979958180076 0 0.48992236780659748 0.69705563000365345 0 0.43190667360534168 0.6338044761171725 0 0.48992236780659748 0.69705563000365345 0 0.50325413700727362 0.62834294463932405 0 0.43190667360534168 0.6338044761171725 0 0.41400456169167021 0.70705979958180076 0 0.48992236780659748 0.69705563000365345 0 0.43190667360534168 0.6338044761171725 0 0.45932917084445313 0.56578811481719171 0 0.50325413700727362 0.62834294463932405 0 0.45932917084445313 0.56578811481719171 0 0.51061056534295712 0.57312092011422733 0 0.50325413700727362 0.62834294463932405 0 0.35694548412345278 0.64361853624604293 0 0.43190667360534168 0.6338044761171725 0 0.38429639916174169 0.5696787164162832 0 0.43190667360534168 0.6338044761171725 0 0.45932917084445313 0.56578811481719171 0 0.38429639916174169 0.5696787164162832 0 0.33333333333333331 0.5 0 0.38429639916174169 0.5696787164162832 0 0.41666666666666657 0.5 0 0.45932917084445313 0.56578811481719171 0 0.38429639916174169 0.5696787164162832 0 0.41666666666666657 0.5 0 0.45932917084445313 0.56578811481719171 0 0.41666666666666657 0.5 0 0.5 0.5 0 0.41666666666666657 0.5 0 0.5 0.5 0 0.45932917084445313 0.56578811481719171 0 0.5 0.5 0 0.51061056534295712 0.57312092011422733 0 0.5 0.5 0 0.59999999999999976 0.5 0 0.5 0.5 0 0.59999999999999976 0.5 0 0.5625 0.5625 0 0.5 0.5 0 0.5625 0.5625 0 0.51061056534295712 0.57312092011422733 0 0.5 0.5 0 0.5625 0.5625 0 0.59999999999999976 0.5 0 0.5625 0.5625 0 0.65313871162836923 0.56208240931645903 0 0.5625 0.5625 0 0.625 0.625 0 0.65313871162836923 0.56208240931645903 0 0.5625 0.5625 0 0.625 0.625 0 0.5625 0.5625 0 0.56828204399108151 0.61921795600891838 0 0.625 0.625 0 0.56828204399108151 0.61921795600891838 0 0.51061056534295712 0.57312092011422733 0 0.50325413700727362 0.62834294463932405 0 0.5625 0.5625 0 0.56828204399108151 0.61921795600891838 0 0.51061056534295712 0.57312092011422733 0 0.48992236780659748 0.69705563000365345 0 0.55991272404133086 0.6760277657225735 0 0.50325413700727362 0.62834294463932405 0 0.56828204399108151 0.61921795600891838 0 0.55991272404133086 0.6760277657225735 0 0.50325413700727362 0.62834294463932405 0 0.46922011776697548 0.77351369004258919 0 0.48992236780659748 0.69705563000365345 0 0.55970163348305024 0.75080633321688517 0 0.48992236780659748 0.69705563000365345 0 0.55991272404133086 0.6760277657225735 0 0.55970163348305024 0.75080633321688517 0 0.61911758580022647 0.70002807341198925 0 0.55970163348305024 0.75080633321688517 0 0.64846471110503368 0.7610277027090997 0 0.55991272404133086 0.6760277657225735 0 0.61911758580022647 0.70002807341198925 0 0.55970163348305024 0.75080633321688517 0 0.56828204399108151 0.61921795600891838 0 0.55991272404133086 0.6760277657225735 0 0.625 0.625 0 0.55991272404133086 0.6760277657225735 0 0.61911758580022647 0.70002807341198925 0 0.625 0.625 0 0.625 0.625 0 0.6875 0.6875 0 0.69201159065998896 0.62048840934001104 0 0.61911758580022647 0.70002807341198925 0 0.625 0.625 0 0.6875 0.6875 0 0.625 0.625 0 0.6875 0.6875 0 0.61911758580022647 0.70002807341198925 0 0.6875 0.6875 0 0.64846471110503368 0.7610277027090997 0 0.6875 0.6875 0 0.64846471110503368 0.7610277027090997 0 0.75 0.75 0 0.6875 0.6875 0 0.75 0.75 0 0.75989579748454794 0.66142208951066328 0 0.6875 0.6875 0 0.75 0.75 0 0.6875 0.6875 0 0.69201159065998896 0.62048840934001104 0 0.75989579748454794 0.66142208951066328 0 0.69201159065998896 0.62048840934001104 0 0.74685358701831439 0.58150382891824492 0 0.75989579748454794 0.66142208951066328 0 0.69201159065998896 0.62048840934001104 0 0.74685358701831439 0.58150382891824492 0 0.65313871162836923 0.56208240931645903 0 0.69999999999999984 0.5 0 0.79999999999999982 0.5 0 0.74685358701831439 0.58150382891824492 0 0.69999999999999984 0.5 0 0.79999999999999982 0.5 0 0.74685358701831439 0.58150382891824492 0 0.69999999999999984 0.5 0 0.65313871162836923 0.56208240931645903 0 0.59999999999999976 0.5 0 0.69999999999999984 0.5 0 0.59999999999999976 0.5 0 0.69999999999999984 0.5 0 0.65313871162836923 0.56208240931645903 0 0.625 0.625 0 0.69201159065998896 0.62048840934001104 0 0.65313871162836923 0.56208240931645903 0 0.60000000000138687 1 0 0.53853961848507526 0.91052613143614081 0 0.64926043220195895 0.91383679218108282 0 0.60000000000138687 1 0 0.50000000000205869 1 0 0.53853961848507526 0.91052613143614081 0 0.53853961848507526 0.91052613143614081 0 0.60235533636516836 0.83357638234115594 0 0.64926043220195895 0.91383679218108282 0 0.53853961848507526 0.91052613143614081 0 0.60235533636516836 0.83357638234115594 0 0.52379080970865055 0.82526472814768648 0 0.44913734244298342 0.8579011037016615 0 0.53853961848507526 0.91052613143614081 0 0.52379080970865055 0.82526472814768648 0 0.60235533636516836 0.83357638234115594 0 0.52379080970865055 0.82526472814768648 0 0.55970163348305024 0.75080633321688517 0 0.46922011776697548 0.77351369004258919 0 0.52379080970865055 0.82526472814768648 0 0.55970163348305024 0.75080633321688517 0 0.60235533636516836 0.83357638234115594 0 0.55970163348305024 0.75080633321688517 0 0.64846471110503368 0.7610277027090997 0 0.60235533636516836 0.83357638234115594 0 0.64846471110503368 0.7610277027090997 0 0.7000020149222177 0.83415812519521837 0 0.64846471110503368 0.7610277027090997 0 0.7000020149222177 0.83415812519521837 0 0.75 0.75 0 0.60235533636516836 0.83357638234115594 0 0.7000020149222177 0.83415812519521837 0 0.64926043220195895 0.91383679218108282 0 0.7000020149222177 0.83415812519521837 0 0.64926043220195895 0.91383679218108282 0 0.74990398477387488 0.91482605081002355 0 0.74990398477387488 0.91482605081002355 0 0.7000000000006934 1 0 0.79999999999999982 1 0 0.64926043220195895 0.91383679218108282 0 0.74990398477387488 0.91482605081002355 0 0.7000000000006934 1 0 0.60000000000138687 1 0 0.64926043220195895 0.91383679218108282 0 0.7000000000006934 1 0 0.79999999999999982 1 0 0.84972343667254391 0.91496957197099094 0 0.89999999999958358 1 0 0.74990398477387488 0.91482605081002355 0 0.79999999999999982 1 0 0.84972343667254391 0.91496957197099094 0 0.74990398477387488 0.91482605081002355 0 0.84972343667254391 0.91496957197099094 0 0.80157081937057084 0.83842482832452347 0 0.84972343667254391 0.91496957197099094 0 0.80157081937057084 0.83842482832452347 0 0.90849008766191841 0.84288279534025123 0 0.80157081937057084 0.83842482832452347 0 0.84418394508769212 0.773149552060308 0 0.90849008766191841 0.84288279534025123 0 0.7000020149222177 0.83415812519521837 0 0.74990398477387488 0.91482605081002355 0 0.80157081937057084 0.83842482832452347 0 0.7000020149222177 0.83415812519521837 0 0.80157081937057084 0.83842482832452347 0 0.75 0.75 0 0.80157081937057084 0.83842482832452347 0 0.75 0.75 0 0.84418394508769212 0.773149552060308 0 0.84418394508769212 0.773149552060308 0 0.90849008766191841 0.84288279534025123 0 0.91774987785492024 0.74446742543575928 0 1 0.79999999999999982 0 0.90849008766191841 0.84288279534025123 0 0.91774987785492024 0.74446742543575928 0 1 0.79999999999999982 0 0.90849008766191841 0.84288279534025123 0 1 0.89999999999999991 0 0.84972343667254391 0.91496957197099094 0 0.90849008766191841 0.84288279534025123 0 0.92679491924305324 0.92679491924316471 0 0.90849008766191841 0.84288279534025123 0 0.92679491924305324 0.92679491924316471 0 1 0.89999999999999991 0 0.92679491924305324 0.92679491924316471 0 1 0.89999999999999991 0 1 1 0 0.92679491924305324 0.92679491924316471 0 1 1 0 0.89999999999958358 1 0 0.84972343667254391 0.91496957197099094 0 0.92679491924305324 0.92679491924316471 0 0.89999999999958358 1 0 0.79999999999999982 0.5 0 0.89999999999999991 0.5 0 0.84123805554876707 0.59680309078067073 0 0.79999999999999982 0.5 0 0.89999999999999991 0.5 0 0.74685358701831439 0.58150382891824492 0 0.84123805554876707 0.59680309078067073 0 0.79999999999999982 0.5 0 0.74685358701831439 0.58150382891824492 0 0.84123805554876707 0.59680309078067073 0 0.75989579748454794 0.66142208951066328 0 0.75 0.75 0 0.84418394508769212 0.773149552060308 0 0.83890624185782958 0.69626544663594958 0 0.75 0.75 0 0.75989579748454794 0.66142208951066328 0 0.83890624185782958 0.69626544663594958 0 0.84418394508769212 0.773149552060308 0 0.83890624185782958 0.69626544663594958 0 0.91774987785492024 0.74446742543575928 0 0.84123805554876707 0.59680309078067073 0 0.75989579748454794 0.66142208951066328 0 0.83890624185782958 0.69626544663594958 0 0.84123805554876707 0.59680309078067073 0 0.83890624185782958 0.69626544663594958 0 0.91502196414490444 0.65023695573082385 0 0.83890624185782958 0.69626544663594958 0 0.91502196414490444 0.65023695573082385 0 0.91774987785492024 0.74446742543575928 0 1 0.79999999999999982 0 0.91774987785492024 0.74446742543575928 0 1 0.69999999999999984 0 0.91502196414490444 0.65023695573082385 0 0.91774987785492024 0.74446742543575928 0 1 0.69999999999999984 0 0.91502196414490444 0.65023695573082385 0 1 0.69999999999999984 0 1 0.59999999999999976 0 0.91502196414490444 0.65023695573082385 0 1 0.59999999999999976 0 0.9267949192431123 0.57320508075688748 0 0.84123805554876707 0.59680309078067073 0 0.91502196414490444 0.65023695573082385 0 0.9267949192431123 0.57320508075688748 0 0.84123805554876707 0.59680309078067073 0 0.9267949192431123 0.57320508075688748 0 0.89999999999999991 0.5 0 0.89999999999999991 0.5 0 1 0.5 0 0.9267949192431123 0.57320508075688748 0 0.89999999999999991 0.5 0 1 0.5 0 1 0.59999999999999976 0 0.9267949192431123 0.57320508075688748 0 1 0.5 0 1 0.5 0 1 0.39999999999973668 0 0.92692772226615627 0.42692772226608527 0 0.89999999999999991 0.5 0 1 0.5 0 0.92692772226615627 0.42692772226608527 0 1 0.39999999999973668 0 0.92692772226615627 0.42692772226608527 0 0.9390432307803237 0.34999999999960513 0 0.92692772226615627 0.42692772226608527 0 0.84999999999999998 0.44473470008005372 0 0.86315719642252953 0.37137843546999749 0 0.92692772226615627 0.42692772226608527 0 0.86315719642252953 0.37137843546999749 0 0.9390432307803237 0.34999999999960513 0 0.89999999999999991 0.5 0 0.92692772226615627 0.42692772226608527 0 0.84999999999999998 0.44473470008005372 0 0.79999999999999982 0.5 0 0.89999999999999991 0.5 0 0.84999999999999998 0.44473470008005372 0 0.84999999999999998 0.44473470008005372 0 0.77037265046857561 0.40537414349831652 0 0.86315719642252953 0.37137843546999749 0 0.69999999999999984 0.5 0 0.79999999999999982 0.5 0 0.77037265046857561 0.40537414349831652 0 0.79999999999999982 0.5 0 0.84999999999999998 0.44473470008005372 0 0.77037265046857561 0.40537414349831652 0 0.77037265046857561 0.40537414349831652 0 0.80098314916214353 0.29821695223768352 0 0.70429891134180211 0.31826793154456973 0 0.77037265046857561 0.40537414349831652 0 0.80098314916214353 0.29821695223768352 0 0.86315719642252953 0.37137843546999749 0 0.80098314916214353 0.29821695223768352 0 0.86315719642252953 0.37137843546999749 0 0.90612513992130683 0.2689611572755029 0 0.80098314916214353 0.29821695223768352 0 0.90612513992130683 0.2689611572755029 0 0.82804875980116233 0.20223501309006731 0 0.86315719642252953 0.37137843546999749 0 0.90612513992130683 0.2689611572755029 0 0.9390432307803237 0.34999999999960513 0 1 0.39999999999973668 0 0.9390432307803237 0.34999999999960513 0 1 0.29999999999947341 0 0.90612513992130683 0.2689611572755029 0 0.9390432307803237 0.34999999999960513 0 1 0.29999999999947341 0 0.90612513992130683 0.2689611572755029 0 1 0.29999999999947341 0 1 0.19999999999948739 0 0.90612513992130683 0.2689611572755029 0 1 0.19999999999948739 0 0.91622867597293034 0.15490381056726649 0 1 0.19999999999948739 0 0.91622867597293034 0.15490381056726649 0 1 0.099999999999778932 0 0.90612513992130683 0.2689611572755029 0 0.91622867597293034 0.15490381056726649 0 0.82804875980116233 0.20223501309006731 0 1 0 0 1 0.099999999999778932 0 0.92679491924283741 0.073205080757032887 0 1 0 0 0.92679491924283741 0.073205080757032887 0 0.89999999999973679 0 0 0.91622867597293034 0.15490381056726649 0 1 0.099999999999778932 0 0.92679491924283741 0.073205080757032887 0 0.91622867597293034 0.15490381056726649 0 0.92679491924283741 0.073205080757032887 0 0.84086402007378613 0.097558427428716066 0 0.92679491924283741 0.073205080757032887 0 0.89999999999973679 0 0 0.84086402007378613 0.097558427428716066 0 0.89999999999973679 0 0 0.84086402007378613 0.097558427428716066 0 0.79999999999947335 0 0 0.84086402007378613 0.097558427428716066 0 0.76667895216258231 0.15605762470516529 0 0.73928714325231959 0.084329337206986266 0 0.84086402007378613 0.097558427428716066 0 0.79999999999947335 0 0 0.73928714325231959 0.084329337206986266 0 0.91622867597293034 0.15490381056726649 0 0.84086402007378613 0.097558427428716066 0 0.82804875980116233 0.20223501309006731 0 0.84086402007378613 0.097558427428716066 0 0.82804875980116233 0.20223501309006731 0 0.76667895216258231 0.15605762470516529 0 0.82804875980116233 0.20223501309006731 0 0.76667895216258231 0.15605762470516529 0 0.73785529459718069 0.23276325864008299 0 0.80098314916214353 0.29821695223768352 0 0.82804875980116233 0.20223501309006731 0 0.73785529459718069 0.23276325864008299 0 0.73785529459718069 0.23276325864008299 0 0.68733954308846279 0.16340208715997401 0 0.65013787896763531 0.24738705877289749 0 0.76667895216258231 0.15605762470516529 0 0.73785529459718069 0.23276325864008299 0 0.68733954308846279 0.16340208715997401 0 0.76667895216258231 0.15605762470516529 0 0.68733954308846279 0.16340208715997401 0 0.73928714325231959 0.084329337206986266 0 0.68733954308846279 0.16340208715997401 0 0.64661073844116768 0.083938889182861035 0 0.58390992419284726 0.17098750676586491 0 0.68733954308846279 0.16340208715997401 0 0.65013787896763531 0.24738705877289749 0 0.58390992419284726 0.17098750676586491 0 0.79999999999947335 0 0 0.69999999999921003 0 0 0.73928714325231959 0.084329337206986266 0 0.69999999999921003 0 0 0.73928714325231959 0.084329337206986266 0 0.64661073844116768 0.083938889182861035 0 0.68733954308846279 0.16340208715997401 0 0.73928714325231959 0.084329337206986266 0 0.64661073844116768 0.083938889182861035 0 0.69999999999921003 0 0 0.64661073844116768 0.083938889182861035 0 0.59999999999894682 0 0 0.64661073844116768 0.083938889182861035 0 0.59999999999894682 0 0 0.54912436800118414 0.07923269986872096 0 0.64661073844116768 0.083938889182861035 0 0.54912436800118414 0.07923269986872096 0 0.58390992419284726 0.17098750676586491 0 0.49999999999869432 0 0 0.59999999999894682 0 0 0.54912436800118414 0.07923269986872096 0 0.65013787896763531 0.24738705877289749 0 0.58390992419284726 0.17098750676586491 0 0.56331152681373342 0.26926005188416458 0 0.49677298727352631 0.1419426259588793 0 0.54912436800118414 0.07923269986872096 0 0.58390992419284726 0.17098750676586491 0 0.49638486706945439 0.2121184447907791 0 0.49677298727352631 0.1419426259588793 0 0.58390992419284726 0.17098750676586491 0 0.49638486706945439 0.2121184447907791 0 0.58390992419284726 0.17098750676586491 0 0.56331152681373342 0.26926005188416458 0 0.48197160777613701 0.29296902118871587 0 0.56331152681373342 0.26926005188416458 0 0.53795066522196777 0.35232980433802918 0 0.49638486706945439 0.2121184447907791 0 0.48197160777613701 0.29296902118871587 0 0.56331152681373342 0.26926005188416458 0 0.65013787896763531 0.24738705877289749 0 0.56331152681373342 0.26926005188416458 0 0.61953310281942287 0.33623578723476061 0 0.61953310281942287 0.33623578723476061 0 0.53795066522196777 0.35232980433802918 0 0.59493019080807719 0.41959199530426949 0 0.56331152681373342 0.26926005188416458 0 0.61953310281942287 0.33623578723476061 0 0.53795066522196777 0.35232980433802918 0 0.53795066522196777 0.35232980433802918 0 0.51443730641548846 0.4230626935845116 0 0.59493019080807719 0.41959199530426949 0 0.51443730641548846 0.4230626935845116 0 0.55234187430589132 0.46066367222219529 0 0.59493019080807719 0.41959199530426949 0 0.45958432544769412 0.36572680929244022 0 0.53795066522196777 0.35232980433802918 0 0.51443730641548846 0.4230626935845116 0 0.5 0.5 0 0.51443730641548846 0.4230626935845116 0 0.55234187430589132 0.46066367222219529 0 0.5 0.5 0 0.59999999999999976 0.5 0 0.55234187430589132 0.46066367222219529 0 0.59999999999999976 0.5 0 0.59493019080807719 0.41959199530426949 0 0.6422748717904081 0.45615324511504501 0 0.59999999999999976 0.5 0 0.55234187430589132 0.46066367222219529 0 0.59493019080807719 0.41959199530426949 0 0.59493019080807719 0.41959199530426949 0 0.67416929635355571 0.4050209851559104 0 0.6422748717904081 0.45615324511504501 0 0.61953310281942287 0.33623578723476061 0 0.59493019080807719 0.41959199530426949 0 0.67416929635355571 0.4050209851559104 0 0.69999999999999984 0.5 0 0.67416929635355571 0.4050209851559104 0 0.6422748717904081 0.45615324511504501 0 0.59999999999999976 0.5 0 0.69999999999999984 0.5 0 0.6422748717904081 0.45615324511504501 0 0.69999999999999984 0.5 0 0.77037265046857561 0.40537414349831652 0 0.67416929635355571 0.4050209851559104 0 0.77037265046857561 0.40537414349831652 0 0.67416929635355571 0.4050209851559104 0 0.70429891134180211 0.31826793154456973 0 0.73785529459718069 0.23276325864008299 0 0.65013787896763531 0.24738705877289749 0 0.70429891134180211 0.31826793154456973 0 0.80098314916214353 0.29821695223768352 0 0.73785529459718069 0.23276325864008299 0 0.70429891134180211 0.31826793154456973 0 0.65013787896763531 0.24738705877289749 0 0.61953310281942287 0.33623578723476061 0 0.70429891134180211 0.31826793154456973 0 0.61953310281942287 0.33623578723476061 0 0.67416929635355571 0.4050209851559104 0 0.70429891134180211 0.31826793154456973 0 
</DataArray>
</Points>
<Cells>
<DataArray type="UInt32" Name="connectivity" format="ascii">
0 1 2 3 4 5 6 7 8 9 10 11 12 13 14 15 16 17 18 19 20 21 22 23 24 25 26 27 28 29 30 31 32 33 34 35 36 37 38 39 40 41 42 43 44 45 46 47 48 49 50 51 52 53 54 55 56 57 58 59 60 61 62 63 64 65 66 67 68 69 70 71 72 73 74 75 76 77 78 79 80 81 82 83 84 85 86 87 88 89 90 91 92 93 94 95 96 97 98 99 100 101 102 103 104 105 106 107 108 109 110 111 112 113 114 115 116 117 118 119 120 121 122 123 124 125 126 127 128 129 130 131 132 133 134 135 136 137 138 139 140 141 142 143 144 145 146 147 148 149 150 151 152 153 154 155 156 157 158 159 160 161 162 163 164 165 166 167 168 169 170 171 172 173 174 175 176 177 178 179 180 181 182 183 184 185 186 187 188 189 190 191 192 193 194 195 196 197 198 199 200 201 202 203 204 205 206 207 208 209 210 211 212 213 214 215 216 217 218 219 220 221 222 223 224 225 226 227 228 229 230 231 232 233 234 235 236 237 238 239 240 241 242 243 244 245 246 247 248 249 250 251 252 253 254 255 256 257 258 259 260 261 262 263 264 265 266 267 268 269 270 271 272 273 274 275 276 277 278 279 280 281 282 283 284 285 286 287 288 289 290 291 292 293 294 295 296 297 298 299 300 301 302 303 304 305 306 307 308 309 310 311 312 313 314 315 316 317 318 319 320 321 322 323 324 325 326 327 328 329 330 331 332 333 334 335 336 337 338 339 340 341 342 343 344 345 346 347 348 349 350 351 352 353 354 355 356 357 358 359 360 361 362 363 364 365 366 367 368 369 370 371 372 373 374 375 376 377 378 379 380 381 382 383 384 385 386 387 388 389 390 391 392 393 394 395 396 397 398 399 400 401 402 403 404 405 406 407 408 409 410 411 412 413 414 415 416 417 418 419 420 421 422 423 424 425 426 427 428 429 430 431 432 433 434 435 436 437 438 439 440 441 442 443 444 445 446 447 448 449 450 451 452 453 454 455 456 457 458 459 460 461 462 463 464 465 466 467 468 469 470 471 472 473 474 475 476 477 478 479 480 481 482 483 484 485 486 487 488 489 490 491 492 493 494 495 496 497 498 499 500 501 502 503 504 505 506 507 508 509 510 511 512 513 514 515 516 517 518 519 520 521 522 523 524 525 526 527 528 529 530 531 532 533 534 535 536 537 538 539 540 541 542 543 544 545 546 547 548 549 550 551 552 553 554 555 556 557 558 559 560 561 562 563 564 565 566 567 568 569 570 571 572 573 574 575 576 577 578 579 580 581 582 583 584 585 586 587 588 589 590 591 592 593 594 595 596 597 598 599 600 601 602 603 604 605 606 607 608 609 610 611 612 613 614 615 616 617 618 619 620 621 622 623 624 625 626 627 628 629 630 631 632 633 634 635 636 637 638 639 640 641 642 643 644 645 646 647 648 649 650 651 652 653 654 655 656 657 658 659 660 661 662 663 664 665 666 667 668 669 670 671 672 673 674 675 676 677 678 679 680 681 682 683 684 685 686 687 688 689 690 691 692 693 694 695 696 697 698 699 700 701 702 703 704 705 706 707 708 709 710 711 712 713 714 715 716 717 718 719 720 721 722 723 724 725 726 727 728 729 730 731 732 733 734 735 736 737 738 739 740 741 742 743 744 745 746 747 748 749 750 751 752 753 754 755 756 757 758 759 760 761 762 763 764 765 766 767 768 769 770 771 772 773 774 775 776 777 778 779 780 781 782 783 784 785 786 787 788 789 790 791 792 793 794 795 796 797 798 799 800 801 802 803 804 805 806 807 808 809 810 811 812 813 814 815 816 817 818 819 820 821 822 823 824 825 826 827 828 829 830 831 832 833 834 835 836 837 838 839 840 841 842 843 844 845 846 847 848 849 850 851 852 853 854 855 856 857 858 859 860 861 862 863 864 865 866 867 868 869 870 871 872 873 874 875 876 877 878 879 880 881 882 883 884 885 886 887 888 889 890 891 892 893 894 895 896 897 898 899 900 901 
</DataArray>
<DataArray type="UInt32" Name="offsets" format="ascii">
3 6 9 12 15 18 21 24 27 30 33 36 39 42 45 48 51 54 57 60 63 66 69 72 75 78 81 84 87 90 93 96 99 102 105 107 110 113 116 118 121 124 127 130 133 136 139 142 144 147 150 153 155 158 161 164 167 170 173 176 179 182 185 188 191 194 197 200 203 206 209 212 215 218 221 224 227 230 233 236 239 242 245 248 251 254 257 260 263 266 269 272 275 278 281 284 287 290 293 296 299 302 305 308 311 314 317 320 323 326 329 332 335 338 341 344 347 350 353 356 359 362 365 368 371 374 377 379 382 385 388 390 393 396 399 402 405 408 411 414 417 420 423 426 429 432 435 438 441 443 446 448 451 454 456 459 462 464 467 470 473 476 479 482 485 488 491 494 497 500 503 505 508 511 514 516 519 522 525 527 530 533 535 538 541 544 547 550 553 556 559 562 565 568 571 574 577 580 583 586 589 592 595 598 601 604 607 610 613 616 619 622 625 628 631 634 636 639 642 645 648 651 654 657 660 663 666 669 672 675 678 681 683 686 689 692 695 698 701 704 707 710 713 716 719 722 725 728 731 734 737 740 743 746 749 752 755 758 761 764 767 770 773 776 779 782 785 788 791 794 797 800 803 806 809 812 815 818 821 824 827 830 833 836 839 842 845 848 851 854 857 860 863 866 869 872 875 878 881 884 887 890 893 896 899 902 
</DataArray>
<DataArray type="UInt32" Name="types" format="ascii">
5 5 5 5 5 5 5 5 5 5 5 5 5 5 5 5 5 5 5 5 5 5 5 5 5 5 5 5 5 5 5 5 5 5 5 3 5 5 5 3 5 5 5 5 5 5 5 5 3 5 5 5 3 5 5 5 5 5 5 5 5 5 5 5 5 5 5 5 5 5 5 5 5 5 5 5 5 5 5 5 5 5 5 5 5 5 5 5 5 5 5 5 5 5 5 5 5 5 5 5 5 5 5 5 5 5 5 5 5 5 5 5 5 5 5 5 5 5 5 5 5 5 5 5 5 5 5 3 5 5 5 3 5 5 5 5 5 5 5 5 5 5 5 5 5 5 5 5 5 3 5 3 5 5 3 5 5 3 5 5 5 5 5 5 5 5 5 5 5 5 5 3 5 5 5 3 5 5 5 3 5 5 3 5 5 5 5 5 5 5 5 5 5 5 5 5 5 5 5 5 5 5 5 5 5 5 5 5 5 5 5 5 5 5 5 5 3 5 5 5 5 5 5 5 5 5 5 5 5 5 5 5 3 5 5 5 5 5 5 5 5 5 5 5 5 5 5 5 5 5 5 5 5 5 5 5 5 5 5 5 5 5 5 5 5 5 5 5 5 5 5 5 5 5 5 5 5 5 5 5 5 5 5 5 5 5 5 5 5 5 5 5 5 5 5 5 5 5 5 5 5 5 5 5 5 5 
</DataArray>
</Cells>
<PointData Scalars="" Vectors="displacement," Tensors="">
<DataArray type="Float64" Name="displacement" NumberOfComponents="3" format="ascii">
-4.3543027842327838e-07 -9.376297740076605e-07 0 -0.00024790852885968659 -0.0004681376340426537 0 -3.6865959274284936e-08 -5.2311683799948469e-07 0 -4.3543027842327838e-07 -9.376297740076605e-07 0 -0.00051800730502620743 -0.00075780448544977873 0 -0.00024790852885968654 -0.00046813763404265359 0 -0.00051800730502620754 -0.00075780448544977884 0 -0.00024790852885968654 -0.00046813763404265359 0 -0.00048463598759235937 -0.0010433093701577901 0 -0.00024790852885968654 -0.00046813763404265359 0 -0.00048463598759235937 -0.0010433093701577901 0 -0.0001659367404643341 -0.00053908882721997607 0 -0.00024790852885968654 -0.00046813763404265359 0 -3.6865959274284936e-08 -5.2311683799948469e-07 0 -0.0001659367404643341 -0.00053908882721997607 0 -0.00076787331935598835 -0.0013034105213191526 0 -0.00048463598759235937 -0.0010433093701577901 0 -0.00069120669380331285 -0.0016751283948644956 0 -0.00051800730502620754 -0.00075780448544977884 0 -0.00076787331935598835 -0.0013034105213191526 0 -0.00048463598759235937 -0.0010433093701577901 0 -0.00048463598759235937 -0.0010433093701577901 0 -0.0004456713341680001 -0.0016705645312451983 0 -0.00069120669380331285 -0.0016751283948644956 0 -0.00048463598759235937 -0.0010433093701577901 0 -0.0004456713341680001 -0.0016705645312451985 0 -0.00017960589300747477 -0.0011346735526966438 0 -0.00048463598759235937 -0.0010433093701577901 0 -0.00017960589300747477 -0.0011346735526966438 0 -0.0001659367404643341 -0.00053908882721997607 0 -0.00017960589300747477 -0.0011346735526966438 0 1.4160870331233371e-05 -0.0004949052660924209 0 0.00018409386155758219 -0.0009402904317394571 0 -0.0004456713341680001 -0.0016705645312451983 0 -0.00017960589300747477 -0.0011346735526966438 0 -0.00014256195170988669 -0.0019195209363099327 0 -0.00017960589300747477 -0.0011346735526966438 0 0.00018409386155758219 -0.00094029043173945721 0 -0.00014256195170988669 -0.0019195209363099327 0 -3.6865959274284936e-08 -5.2311683799948469e-07 0 -0.0001659367404643341 -0.00053908882721997607 0 -2.5701943985977223e-08 -5.591028292231366e-07 0 -0.00017960589300747477 -0.0011346735526966438 0 -0.0001659367404643341 -0.00053908882721997607 0 1.4160870331233371e-05 -0.0004949052660924209 0 -0.0001659367404643341 -0.00053908882721997607 0 1.4160870331233391e-05 -0.00049490526609242079 0 -2.5701943985977223e-08 -5.591028292231366e-07 0 1.4160870331233371e-05 -0.0004949052660924209 0 -2.5701943985977223e-08 -5.591028292231366e-07 0 5.4863673808093876e-08 -5.1365282232955544e-07 0 1.4160870331233371e-05 -0.0004949052660924209 0 5.4863673808105774e-08 -5.1365282232954877e-07 0 0.00011109975301836397 -0.0004410437931143264 0 5.4863673808093876e-08 -5.1365282232955544e-07 0 0.00011109975301836397 -0.0004410437931143264 0 3.721048542824344e-08 -5.3725787626566331e-07 0 1.4160870331233371e-05 -0.0004949052660924209 0 0.00011109975301836397 -0.0004410437931143264 0 0.00018409386155758219 -0.0009402904317394571 0 0.00018409386155758219 -0.0009402904317394571 0 0.00052201252796225733 -0.001284772441268469 0 -0.00014256195170988669 -0.0019195209363099327 0 0.00018409386155758219 -0.0009402904317394571 0 0.00052201252796225733 -0.001284772441268469 0 0.0003810453780269975 -0.00092708723979707071 0 0.00011109975301836397 -0.0004410437931143264 0 0.00018409386155758219 -0.0009402904317394571 0 0.0003810453780269975 -0.00092708723979707071 0 0.00052201252796225733 -0.001284772441268469 0 0.0003810453780269975 -0.00092708723979707071 0 0.00082521338917588411 -0.001465846474844434 0 0.00082521338917588411 -0.001465846474844434 0 0.00084388982287286621 -0.0015146859646254535 0 0.0015385231417814305 -0.0020983891484740464 0 0.0003810453780269975 -0.00092708723979707071 0 0.00082521338917588411 -0.001465846474844434 0 0.00084388982287286621 -0.0015146859646254535 0 0.0003810453780269975 -0.00092708723979707071 0 0.00084388982287286621 -0.0015146859646254535 0 0.00044448274403382902 -0.00098088482633173829 0 0.0003810453780269975 -0.00092708723979707071 0 0.00044448274403382902 -0.00098088482633173829 0 0.00016768125467746833 -0.00049408856648723966 0 0.00044448274403382902 -0.00098088482633173829 0 0.00016768125467746836 -0.00049408856648723966 0 0.0002302245846537067 -0.00059340408697511945 0 0.00016768125467746833 -0.00049408856648723966 0 3.6741309315115361e-08 -6.4507513259836872e-07 0 0.0002302245846537067 -0.00059340408697511945 0 0.00016768125467746833 -0.00049408856648723966 0 3.6741309315123177e-08 -6.4507513259838111e-07 0 3.721048542824344e-08 -5.3725787626566331e-07 0 0.00011109975301836397 -0.0004410437931143264 0 0.00016768125467746833 -0.00049408856648723966 0 3.721048542824344e-08 -5.3725787626566331e-07 0 0.00011109975301836397 -0.0004410437931143264 0 0.0003810453780269975 -0.00092708723979707071 0 0.00016768125467746833 -0.00049408856648723966 0 -0.00042412811327359934 -0.0066966333960819949 0 -0.00066354815558897521 -0.0052957412554787376 0 3.4164709388430702e-05 -0.0058373557374150307 0 0.0036442482331053754 -0.0026282570487352465 0 0.0024520831810566582 -0.0024656772062149053 0 0.0026221548968385264 -0.0020100382011696868 0 0.0011901193952655283 -0.0047709172472678108 0 0.0010520771664038798 -0.003599914925150913 0 -0.00042412811327359934 -0.0066966333960819949 0 3.4164709388430702e-05 -0.0058373557374150307 0 0.0004497125841120484 -0.0067846521238123791 0 0.0036442482331053754 -0.0026282570487352465 0 0.0044932885724537214 -0.0033028347483629776 0 0.0032440765672024498 -0.0031372982090238323 0 -0.00042412811327359934 -0.0066966333960819949 0 0.0004497125841120484 -0.0067846521238123791 0 -0.00021669829242433865 -0.0080128216119426787 0 0.0011901193952655283 -0.0047709172472678108 0 0.0041132708074346691 -0.0054565204075887374 0 0.0036442482331053754 -0.0026282570487352465 0 0.0024520831810566587 -0.0024656772062149053 0 0.0032440765672024498 -0.0031372982090238323 0 0.0024520831810566587 -0.0024656772062149053 0 0.0015385231417814305 -0.0020983891484740464 0 0.0023206956487746271 -0.0028353770139816358 0 0.0024520831810566587 -0.0024656772062149053 0 0.0015385231417814308 -0.0020983891484740464 0 0.0014688037338513877 -0.0017964117589076326 0 0.00052201252796225733 -0.001284772441268469 0 0.00082521338917588411 -0.001465846474844434 0 0.0014688037338513877 -0.0017964117589076326 0 0.00082521338917588411 -0.001465846474844434 0 0.0015385231417814305 -0.0020983891484740464 0 0.0014688037338513877 -0.0017964117589076326 0 0.0024520831810566587 -0.0024656772062149053 0 0.0014688037338513877 -0.0017964117589076326 0 0.0026221548968385264 -0.0020100382011696868 0 -0.00066354815558897521 -0.0052957412554787376 0 -0.00075414289868593065 -0.0037472751529350067 0 -3.2044521553960165e-06 -0.0046417899090907561 0 0.0014688037338513877 -0.0017964117589076326 0 0.0026221548968385264 -0.0020100382011696868 0 0.0013310230644812549 -0.0016621091882995955 0 0.0010520771664038798 -0.003599914925150913 0 0.0002714229754668218 -0.0027157956836992218 0 0.00052201252796225733 -0.001284772441268469 0 0.0014688037338513875 -0.0017964117589076326 0 0.0013310230644812549 -0.0016621091882995955 0 0.00052201252796225733 -0.001284772441268469 0 0.0013310230644812549 -0.0016621091882995955 0 -0.00014256195170988669 -0.0019195209363099327 0 -0.00075414289868593065 -0.0037472751529350067 0 -0.00014256195170988669 -0.0019195209363099327 0 -0.00051855992333372668 -0.0031811214889169237 0 0.0002714229754668218 -0.0027157956836992218 0 -0.00013767554407524685 -0.0019214423717106503 0 -0.00075414289868593065 -0.0037472751529350067 0 -3.2044521553960165e-06 -0.0046417899090907561 0 -0.00051855992333372668 -0.0031811214889169237 0 -0.00066354815558897521 -0.0052957412554787376 0 -3.2044521553960165e-06 -0.0046417899090907561 0 3.4164709388430702e-05 -0.0058373557374150307 0 3.4164709388430702e-05 -0.0058373557374150307 0 0.00094562188211900166 -0.0057149186282981846 0 0.0004497125841120484 -0.0067846521238123791 0 -3.2044521553960165e-06 -0.0046417899090907561 0 3.4164709388430702e-05 -0.0058373557374150307 0 0.00094562188211900166 -0.0057149186282981846 0 -3.2044521553960165e-06 -0.0046417899090907561 0 0.00094562188211900166 -0.0057149186282981846 0 0.0014152469330022889 -0.0047425541978495687 0 0.00027666297020131095 -0.0035999201306397021 0 0.0015121599883795083 -0.0039641788688023179 0 0.0014152469330022889 -0.0047425541978495687 0 -3.2044521553960165e-06 -0.0046417899090907561 0 0.00027666297020131111 -0.0035999201306397026 0 0.0014152469330022889 -0.0047425541978495687 0 -3.2044521553960165e-06 -0.0046417899090907561 0 0.00027666297020131089 -0.0035999201306397017 0 -0.00051855992333372668 -0.0031811214889169237 0 0.00027666297020131095 -0.0035999201306397021 0 -0.00051855992333372668 -0.0031811214889169237 0 -0.00031417301687836443 -0.0028019285660060367 0 0.00027666297020131095 -0.0035999201306397021 0 -0.00031417301687836443 -0.0028019285660060367 0 0.00029706534021721318 -0.0027973772293609393 0 0.00027666297020131095 -0.0035999201306397021 0 0.00029706534021721302 -0.0027973772293609393 0 0.0015121599883795083 -0.0039641788688023179 0 -0.00014256195170988669 -0.0019195209363099327 0 -0.00051855992333372668 -0.0031811214889169237 0 -0.00056213413311265365 -0.0023512400112841729 0 -0.0004456713341680001 -0.0016705645312451983 0 -0.00014256195170988669 -0.0019195209363099327 0 -0.00056213413311265365 -0.0023512400112841729 0 -0.00031417301687836443 -0.0028019285660060367 0 -0.00056213413311265365 -0.0023512400112841729 0 -0.00052934200917462073 -0.0021768311614725052 0 -0.00051855992333372668 -0.0031811214889169237 0 -0.00031417301687836443 -0.0028019285660060367 0 -0.00056213413311265365 -0.0023512400112841729 0 -0.0004456713341680001 -0.0016705645312451983 0 -0.00056213413311265365 -0.0023512400112841729 0 -0.00069120669380331285 -0.0016751283948644956 0 -0.00056213413311265365 -0.0023512400112841729 0 -0.00069120669380331285 -0.0016751283948644956 0 -0.00052934200917462073 -0.0021768311614725052 0 -0.00052934200917462073 -0.0021768311614725052 0 -0.0007592803266775937 -0.0016262428497964808 0 -0.00021647149109222237 -0.0017892120629962502 0 -0.00069120669380331285 -0.0016751283948644956 0 -0.00052934200917462073 -0.0021768311614725052 0 -0.0007592803266775937 -0.0016262428497964808 0 -0.00076787331935598835 -0.0013034105213191526 0 -0.00069120669380331285 -0.0016751283948644956 0 -0.0007592803266775937 -0.0016262428497964808 0 -0.00031417301687836443 -0.0028019285660060367 0 -0.00052934200917462073 -0.0021768311614725052 0 0.00029706534021721318 -0.0027973772293609393 0 -0.00052934200917462073 -0.0021768311614725052 0 0.00029706534021721318 -0.0027973772293609393 0 -0.00021647149109222237 -0.0017892120629962502 0 0.00029706534021721318 -0.0027973772293609393 0 0.00091168732933626648 -0.0020534206888274246 0 0.0018076741321462334 -0.0032915986934107105 0 0.00029706534021721318 -0.0027973772293609393 0 -0.00021647149109222237 -0.0017892120629962502 0 0.00091168732933626638 -0.0020534206888274246 0 0.00091168732933626638 -0.0020534206888274246 0 0.0018076741321462334 -0.0032915986934107105 0 0.0024421623197697514 -0.0025331443254665606 0 0.00029706534021721318 -0.0027973772293609393 0 0.0018076741321462334 -0.0032915986934107105 0 0.0015121599883795083 -0.0039641788688023179 0 0.0018076741321462334 -0.0032915986934107105 0 0.0036259886100112474 -0.0042680433061053165 0 0.002805460775709446 -0.0044497980593387523 0 0.0018076741321462334 -0.0032915986934107105 0 0.0024421623197697514 -0.0025331443254665606 0 0.0036259886100112474 -0.0042680433061053165 0 0.0024421623197697514 -0.0025331443254665606 0 0.0040652145378082139 -0.0032538554994719715 0 0.0036259886100112474 -0.0042680433061053165 0 0.0040652145378082139 -0.0032538554994719715 0 0.0050151656621197169 -0.0046514105783327124 0 0.0036259886100112474 -0.0042680433061053165 0 0.0040652145378082139 -0.0032538554994719715 0 0.0050151656621197169 -0.0046514105783327124 0 0.0056605540139577238 -0.0040639981763381169 0 0.0050151656621197169 -0.0046514105783327124 0 0.0036259886100112474 -0.0042680433061053165 0 0.0052604544135877711 -0.0059364557272303352 0 0.0036259886100112474 -0.0042680433061053165 0 0.0040522843173667585 -0.005565763811069404 0 0.002805460775709446 -0.0044497980593387523 0 0.0036259886100112474 -0.0042680433061053165 0 0.0052604544135877711 -0.0059364557272303361 0 0.0040522843173667585 -0.005565763811069404 0 0.0052604544135877711 -0.0059364557272303352 0 0.0055221253013045249 -0.0070143069503663408 0 0.0040522843173667585 -0.005565763811069404 0 0.0055221253013045249 -0.0070143069503663408 0 0.0040522843173667585 -0.005565763811069404 0 0.0043499737431401207 -0.0066125558919663671 0 0.0040522843173667585 -0.005565763811069404 0 0.0028692580435530127 -0.0052020765145094896 0 0.0043499737431401207 -0.0066125558919663671 0 0.0028692580435530127 -0.0052020765145094896 0 0.0015121599883795083 -0.0039641788688023179 0 0.0014152469330022889 -0.0047425541978495687 0 0.0018076741321462334 -0.0032915986934107105 0 0.0015121599883795083 -0.0039641788688023179 0 0.002805460775709446 -0.0044497980593387523 0 0.0040522843173667585 -0.005565763811069404 0 0.0028692580435530127 -0.0052020765145094896 0 0.002805460775709446 -0.0044497980593387523 0 0.0028692580435530127 -0.0052020765145094896 0 0.0015121599883795083 -0.0039641788688023179 0 0.002805460775709446 -0.0044497980593387523 0 0.0092333659095413072 -0.0074127292078315097 0 0.0079154554780380641 -0.0063269256697774476 0 0.0079223958179761144 -0.007398313069653847 0 0.0089881031052676391 -0.0057951748080413042 0 0.0072587215743722087 -0.0049104709907216585 0 0.0079154554780380641 -0.0063269256697774476 0 0.0092333659095413072 -0.0074127292078315097 0 0.0089881031052676391 -0.0057951748080413042 0 0.0079154554780380641 -0.0063269256697774476 0 0.0072587215743722087 -0.0049104709907216585 0 0.0079154554780380658 -0.0063269256697774476 0 0.0065671492760273759 -0.0058037232634024207 0 0.0079154554780380641 -0.0063269256697774476 0 0.0065671492760273759 -0.0058037232634024207 0 0.0079223958179761144 -0.007398313069653847 0 0.0072587215743722087 -0.0049104709907216585 0 0.0065671492760273759 -0.0058037232634024207 0 0.0056605540139577238 -0.0040639981763381169 0 0.0050151656621197169 -0.0046514105783327124 0 0.0065671492760273759 -0.0058037232634024207 0 0.0056605540139577238 -0.0040639981763381169 0 0.0050151656621197169 -0.0046514105783327124 0 0.0052604544135877711 -0.0059364557272303352 0 0.0065671492760273759 -0.0058037232634024207 0 0.0052604544135877711 -0.0059364557272303352 0 0.0065671492760273759 -0.0058037232634024207 0 0.0067341975522787513 -0.0072883988011500141 0 0.0055221253013045249 -0.0070143069503663408 0 0.0067341975522787513 -0.0072883988011500141 0 0.0069159032039441577 -0.0084772316983548202 0 0.0052604544135877711 -0.0059364557272303352 0 0.0055221253013045249 -0.0070143069503663408 0 0.0067341975522787513 -0.0072883988011500141 0 0.0067341975522787513 -0.0072883988011500141 0 0.0081071218004250024 -0.0087761944904355821 0 0.0069159032039441577 -0.0084772316983548202 0 0.0065671492760273759 -0.0058037232634024207 0 0.0067341975522787513 -0.0072883988011500141 0 0.0079223958179761144 -0.007398313069653847 0 0.0067341975522787513 -0.0072883988011500141 0 0.0079223958179761144 -0.007398313069653847 0 0.0081071218004250024 -0.0087761944904355821 0 0.0079223958179761144 -0.007398313069653847 0 0.0093929127881346598 -0.0088793011126687797 0 0.0081071218004250024 -0.0087761944904355821 0 0.0092333659095413072 -0.0074127292078315097 0 0.0079223958179761144 -0.007398313069653847 0 0.0093929127881346598 -0.0088793011126687797 0 0.0094943030985111861 -0.010220629542680387 0 0.0082551289231455553 -0.010109177644376133 0 0.009534704510314438 -0.011388073067981581 0 0.0093929127881346598 -0.0088793011126687797 0 0.0094943030985111861 -0.010220629542680387 0 0.0081071218004250024 -0.0087761944904355821 0 0.0094943030985111861 -0.010220629542680387 0 0.0081071218004250024 -0.0087761944904355821 0 0.0082551289231455553 -0.010109177644376133 0 0.0081071218004250024 -0.0087761944904355821 0 0.0082551289231455535 -0.010109177644376133 0 0.0069159032039441577 -0.0084772316983548202 0 0.0082551289231455553 -0.010109177644376133 0 0.0069159032039441577 -0.0084772316983548202 0 0.0069018585928831621 -0.0093185536483743683 0 0.0055221253013045249 -0.0070143069503663408 0 0.0069159032039441577 -0.0084772316983548202 0 0.0057004588651374663 -0.0079817508044695163 0 0.0069159032039441577 -0.0084772316983548202 0 0.0069018585928831621 -0.0093185536483743683 0 0.0057004588651374663 -0.0079817508044695163 0 0.0069018585928831621 -0.0093185536483743683 0 0.0070859838990916107 -0.010021690560759595 0 0.0079645919176104165 -0.010647363474961036 0 0.0069018585928831621 -0.0093185536483743683 0 0.0070859838990916107 -0.010021690560759595 0 0.0058795327927330335 -0.0087860207788106326 0 0.0070859838990916107 -0.010021690560759595 0 0.0079645919176104165 -0.010647363474961036 0 0.0079157958409502207 -0.010973568969955352 0 0.0082551289231455553 -0.010109177644376133 0 0.0069018585928831621 -0.0093185536483743683 0 0.0079645919176104165 -0.010647363474961036 0 0.0082551289231455553 -0.010109177644376133 0 0.0079645919176104165 -0.010647363474961036 0 0.0088052712196344703 -0.011366465459066485 0 0.0079645919176104165 -0.010647363474961036 0 0.0088052712196344703 -0.011366465459066485 0 0.0086978098742982544 -0.011855426808799195 0 0.0088052712196344703 -0.011366465459066485 0 0.0094174360577691067 -0.012323342873449543 0 0.0086978098742982544 -0.011855426808799195 0 0.0088052712196344703 -0.011366465459066485 0 0.009534704510314438 -0.011388073067981581 0 0.0094174360577691067 -0.012323342873449543 0 0.0082551289231455553 -0.010109177644376133 0 0.0088052712196344703 -0.011366465459066485 0 0.009534704510314438 -0.011388073067981581 0 0.0031912084251088622 -0.0062098593904293294 0 0.0045946795996460897 -0.0075032865682562446 0 0.0035628348456104436 -0.0070713965328923437 0 0.001404061796088429 -0.0054771640461899118 0 0.00086944040515678916 -0.0074644486665050884 0 0.0021815558813672695 -0.0057149186281528954 0 0.0031912084251088627 -0.0062098593904293294 0 0.0035628348456104436 -0.0070713965328923437 0 0.0028692580435530127 -0.0052020765145094896 0 0.0014152469330022889 -0.0047425541978495678 0 0.0031912084251088622 -0.0062098593904293294 0 0.0021815558813672695 -0.0057149186281528954 0 0.0014152469330022889 -0.0047425541978495687 0 0.0031912084251088622 -0.0062098593904293294 0 0.001404061796088429 -0.0054771640461899118 0 0.0014921562166049084 -0.0048636401748043704 0 0.0031912084251088622 -0.0062098593904293294 0 0.0043499737431401207 -0.0066125558919663671 0 0.0045946795996460897 -0.0075032865682562446 0 0.0028692580435530127 -0.0052020765145094896 0 0.0031912084251088627 -0.0062098593904293302 0 0.0043499737431401207 -0.0066125558919663671 0 0.0055221253013045249 -0.0070143069503663408 0 0.0043499737431401207 -0.0066125558919663671 0 0.0057004588651374663 -0.0079817508044695163 0 0.0057004588651374663 -0.0079817508044695163 0 0.0045946795996460897 -0.0075032865682562446 0 0.0058795327927330335 -0.0087860207788106326 0 0.0043499737431401207 -0.0066125558919663671 0 0.0057004588651374663 -0.0079817508044695163 0 0.0045946795996460897 -0.0075032865682562446 0 0.0045946795996460897 -0.0075032865682562446 0 0.0048509401671631867 -0.0082569114282811315 0 0.0058795327927330335 -0.0087860207788106326 0 0.0069018585928831621 -0.0093185536483743683 0 0.0057004588651374663 -0.0079817508044695163 0 0.0058795327927330335 -0.0087860207788106326 0 0.0070859838990916107 -0.010021690560759595 0 0.0058795327927330335 -0.0087860207788106326 0 0.0061687060824513187 -0.0094747711528832441 0 0.0048509401671631876 -0.0082569114282811315 0 0.0061687060824513187 -0.0094747711528832441 0 0.005119216557002323 -0.0090136376738315788 0 0.0048509401671631876 -0.0082569114282811315 0 0.0058795327927330335 -0.0087860207788106326 0 0.0061687060824513187 -0.0094747711528832441 0 0.0048509401671631876 -0.0082569114282811315 0 0.0038666344353053893 -0.0079595355480217862 0 0.005119216557002323 -0.0090136376738315788 0 0.0038666344353053893 -0.0079595355480217862 0 0.004151515074573257 -0.0087070005251688488 0 0.005119216557002323 -0.0090136376738315788 0 0.0045946795996460897 -0.0075032865682562446 0 0.0048509401671631876 -0.0082569114282811315 0 0.0035628348456104436 -0.0070713965328923437 0 0.0048509401671631876 -0.0082569114282811315 0 0.0038666344353053893 -0.0079595355480217862 0 0.0035628348456104436 -0.0070713965328923437 0 0.0021815558813672695 -0.0057149186281528954 0 0.0035628348456104436 -0.0070713965328923437 0 0.002667114768257236 -0.0067846521242286495 0 0.0038666344353053893 -0.0079595355480217862 0 0.0035628348456104436 -0.0070713965328923437 0 0.002667114768257236 -0.0067846521242286495 0 0.0038666344353053893 -0.0079595355480217862 0 0.002667114768257236 -0.0067846521242286495 0 0.002949957290104264 -0.0080128216135494958 0 0.00086944040515678916 -0.0074644486665050884 0 0.0041132708074346691 -0.0054565204075887374 0 0.0038666344353053893 -0.0079595355480217862 0 0.002949957290104264 -0.0080128216135494958 0 0.004151515074573257 -0.0087070005251688488 0 0.0041132708074346691 -0.0054565204075887374 0 0.0069369973529813701 -0.0039038853063093184 0 0.0081686111271649983 -0.003232423515924265 0 0.0083486931137252817 -0.0044411504885286841 0 0.009206925678033745 -0.0042932360027269807 0 0.002949957290104264 -0.0080128216135494958 0 0.0040122526799252481 -0.0094879090004638157 0 0.004151515074573257 -0.0087070005251688488 0 0.0041132708074346691 -0.0054565204075887374 0 0.0070366495418701016 -0.0070041754532764577 0 0.0083486931137252817 -0.0044411504885286841 0 0.009206925678033745 -0.0042932360027269807 0 0.0092006578815729319 -0.0056945298435142127 0 0.009206925678033745 -0.0042932360027269807 0 0.0099750393520707283 -0.005766737683651357 0 0.0092006578815729319 -0.0056945298435142127 0 0.0070366495418701016 -0.0070041754532764577 0 0.0076528069477307991 -0.0080304869425884343 0 0.0040122526799252481 -0.0094879090004638157 0 0.005190560404158588 -0.0097477386852008203 0 0.0054658426481408373 -0.010275934385911971 0 0.005190560404158588 -0.0097477386852008203 0 0.004151515074573257 -0.0087070005251688488 0 0.005119216557002323 -0.0090136376738315788 0 0.0040122526799252481 -0.0094879090004638157 0 0.005190560404158588 -0.0097477386852008203 0 0.004151515074573257 -0.0087070005251688488 0 0.0061687060824513187 -0.0094747711528832441 0 0.0062307413663053226 -0.0099685919472545775 0 0.005119216557002323 -0.0090136376738315788 0 0.005190560404158588 -0.0097477386852008203 0 0.0062307413663053226 -0.0099685919472545775 0 0.005119216557002323 -0.0090136376738315788 0 0.0070859838990916107 -0.010021690560759595 0 0.0061687060824513187 -0.0094747711528832441 0 0.0073500784361172798 -0.010576935736464489 0 0.0061687060824513187 -0.0094747711528832441 0 0.0062307413663053226 -0.0099685919472545775 0 0.0073500784361172798 -0.010576935736464489 0 0.0069658577765373359 -0.010533112526957829 0 0.0073500784361172798 -0.010576935736464489 0 0.008088979225033625 -0.011031942959257619 0 0.0062307413663053226 -0.0099685919472545775 0 0.0069658577765373359 -0.010533112526957829 0 0.0073500784361172798 -0.010576935736464489 0 0.005190560404158588 -0.0097477386852008203 0 0.0062307413663053226 -0.0099685919472545775 0 0.0054658426481408373 -0.010275934385911971 0 0.0062307413663053226 -0.0099685919472545775 0 0.0069658577765373359 -0.010533112526957829 0 0.0054658426481408373 -0.010275934385911971 0 0.0099750393520707283 -0.005766737683651357 0 0.010044182830096251 -0.0076243312515975612 0 0.0097976501891769967 -0.0068705126447875017 0 0.0069658577765373359 -0.010533112526957829 0 0.0054658426481408373 -0.010275934385911971 0 0.0072062796825815923 -0.010462234397656677 0 0.0076528069477307991 -0.0080304869425884343 0 0.0086415007919607625 -0.0090436547558965658 0 0.0069658577765373359 -0.010533112526957829 0 0.0072062796825815923 -0.010462234397656677 0 0.008088979225033625 -0.011031942959257619 0 0.0072062796825815923 -0.010462234397656677 0 0.008088979225033625 -0.011031942959257619 0 0.0091723479011841871 -0.0098351013647910816 0 0.010044182830096251 -0.0076243312515975612 0 0.0091723479011841871 -0.0098351013647910816 0 0.010042504324049042 -0.0082129769655840488 0 0.0086415007919607625 -0.0090436547558965658 0 0.0091658763236078904 -0.0098290609075352212 0 0.010044182830096251 -0.0076243312515975612 0 0.0097976501891769967 -0.0068705126447875017 0 0.010042504324049042 -0.0082129769655840488 0 0.0097976501891769967 -0.0068705126447875017 0 0.0096673640644897724 -0.006965473739461811 0 0.010042504324049042 -0.0082129769655840488 0 0.0097976501891769967 -0.0068705126447875017 0 0.0096673640644897724 -0.006965473739461811 0 0.0092006578815729319 -0.0056945298435142127 0 0.006031212757926627 -0.0054929059225129325 0 0.0068961786369870623 -0.0061336606678663525 0 0.0096673640644897724 -0.006965473739461811 0 0.0087981134269323573 -0.005455096232660616 0 0.0094335414399706555 -0.0061513821059940854 0 0.0096673640644897724 -0.006965473739461811 0 0.0087981134269323573 -0.005455096232660616 0 0.0092006578815729319 -0.0056945298435142127 0 0.0069369973529813701 -0.0039038853063093184 0 0.006031212757926627 -0.0054929059225129325 0 0.0083486931137252817 -0.0044411504885286841 0 0.0087981134269323573 -0.005455096232660616 0 0.0092006578815729319 -0.0056945298435142127 0 0.0099750393520707283 -0.005766737683651357 0 0.0097976501891769967 -0.0068705126447875017 0 0.0092006578815729319 -0.0056945298435142127 0 0.0092644149321463448 -0.012797901154518234 0 0.0086978098742982544 -0.011855426808799195 0 0.0088797779891634128 -0.012147988462361248 0 0.0092644149321463448 -0.012797901154518234 0 0.0094174360577691067 -0.012323342873449543 0 0.0086978098742982544 -0.011855426808799195 0 0.0086978098742982544 -0.011855426808799195 0 0.008327428821448905 -0.011493736258234889 0 0.0088797779891634128 -0.012147988462361248 0 0.0086978098742982544 -0.011855426808799195 0 0.008327428821448905 -0.011493736258234889 0 0.0079157958409502207 -0.010973568969955352 0 0.0079645919176104165 -0.010647363474961036 0 0.0086978098742982544 -0.011855426808799197 0 0.0079157958409502207 -0.010973568969955352 0 0.008327428821448905 -0.011493736258234889 0 0.0079157958409502207 -0.010973568969955352 0 0.0073500784361172798 -0.010576935736464489 0 0.0070859838990916107 -0.010021690560759595 0 0.0079157958409502207 -0.010973568969955352 0 0.0073500784361172798 -0.010576935736464489 0 0.008327428821448905 -0.011493736258234889 0 0.0073500784361172798 -0.010576935736464489 0 0.008088979225033625 -0.011031942959257619 0 0.008327428821448905 -0.011493736258234889 0 0.008088979225033625 -0.011031942959257619 0 0.0086985696265763739 -0.011324760548946365 0 0.008088979225033625 -0.011031942959257619 0 0.0086985696265763739 -0.011324760548946365 0 0.0091723479011841871 -0.0098351013647910816 0 0.008327428821448905 -0.011493736258234889 0 0.0086985696265763739 -0.011324760548946365 0 0.0088797779891634128 -0.012147988462361248 0 0.0086985696265763739 -0.011324760548946365 0 0.0088797779891634128 -0.012147988462361248 0 0.009129782014842585 -0.011812482015898091 0 0.009129782014842585 -0.011812482015898091 0 0.0091584829039749391 -0.012764503706873067 0 0.009288743694823692 -0.012357405902360773 0 0.0088797779891634128 -0.012147988462361248 0 0.009129782014842585 -0.011812482015898091 0 0.0091584829039749391 -0.012764503706873067 0 0.0092644149321463448 -0.012797901154518234 0 0.0088797779891634128 -0.012147988462361248 0 0.0091584829039749391 -0.012764503706873067 0 0.009288743694823692 -0.012357405902360773 0 0.0095279777335316156 -0.011259050320023898 0 0.0096468173334111618 -0.011877230168115236 0 0.009129782014842585 -0.011812482015898091 0 0.009288743694823692 -0.012357405902360773 0 0.0095279777335316156 -0.011259050320023898 0 0.009129782014842585 -0.011812482015898091 0 0.0095279777335316156 -0.011259050320023898 0 0.0093366925008704551 -0.010642471535737162 0 0.0095279777335316156 -0.011259050320023898 0 0.0093366925008704551 -0.010642471535737162 0 0.0098600340305671063 -0.010246942141034308 0 0.0093366925008704551 -0.010642471535737162 0 0.0097270714348818964 -0.0096360787218423682 0 0.0098600340305671063 -0.010246942141034308 0 0.0086985696265763739 -0.011324760548946365 0 0.009129782014842585 -0.011812482015898091 0 0.0093366925008704551 -0.010642471535737162 0 0.0086985696265763739 -0.011324760548946365 0 0.0093366925008704551 -0.010642471535737162 0 0.0091723479011841871 -0.0098351013647910816 0 0.0093366925008704551 -0.010642471535737162 0 0.0091723479011841889 -0.0098351013647910799 0 0.0097270714348818964 -0.0096360787218423682 0 0.0097270714348818964 -0.0096360787218423682 0 0.0098600340305671063 -0.010246942141034308 0 0.010201268362296741 -0.00911940564115187 0 0.010340431041310636 -0.0095736589224265384 0 0.0098600340305671063 -0.010246942141034308 0 0.010201268362296741 -0.00911940564115187 0 0.010340431041310636 -0.0095736589224265384 0 0.0098600340305671063 -0.010246942141034308 0 0.010092414219290555 -0.010650655654457582 0 0.0095279777335316156 -0.011259050320023898 0 0.0098600340305671063 -0.010246942141034308 0 0.009805001529131635 -0.011074737195451538 0 0.0098600340305671063 -0.010246942141034308 0 0.009805001529131635 -0.011074737195451538 0 0.010092414219290555 -0.010650655654457582 0 0.009805001529131635 -0.011074737195451538 0 0.010092414219290555 -0.010650655654457582 0 0.010021419148266203 -0.011651937736450992 0 0.009805001529131635 -0.011074737195451538 0 0.010021419148266203 -0.011651937736450992 0 0.0096468173334111618 -0.011877230168115236 0 0.0095279777335316156 -0.011259050320023898 0 0.009805001529131635 -0.011074737195451538 0 0.0096468173334111618 -0.011877230168115236 0 0.0068961786369870623 -0.0061336606678663525 0 0.0069688526432819496 -0.0063563138188825917 0 0.010100094687709289 -0.0074832181957977121 0 0.0094335414399706555 -0.0061513821059940854 0 0.0099090552032178817 -0.0064331194527396879 0 0.0096673640644897724 -0.006965473739461811 0 0.010100094687709289 -0.0074832181957977121 0 0.0094335414399706555 -0.0061513821059940854 0 0.0096673640644897724 -0.006965473739461811 0 0.010100094687709289 -0.0074832181957977121 0 0.010042504324049042 -0.0082129769655840488 0 0.0091723479011841871 -0.0098351013647910816 0 0.0097270714348818964 -0.0096360787218423682 0 0.01011797990322741 -0.0086151935516961039 0 0.0091723479011841871 -0.0098351013647910816 0 0.010042504324049042 -0.0082129769655840488 0 0.01011797990322741 -0.0086151935516961039 0 0.0097270714348818964 -0.0096360787218423682 0 0.01011797990322741 -0.0086151935516961039 0 0.010201268362296741 -0.00911940564115187 0 0.010100094687709289 -0.0074832181957977121 0 0.010042504324049042 -0.0082129769655840488 0 0.01011797990322741 -0.0086151935516961039 0 0.010100094687709289 -0.0074832181957977121 0 0.01011797990322741 -0.0086151935516961039 0 0.010368129628323631 -0.0081322822763311535 0 0.01011797990322741 -0.0086151935516961039 0 0.010368129628323631 -0.0081322822763311535 0 0.010201268362296741 -0.00911940564115187 0 0.010340431041310636 -0.0095736589224265384 0 0.010201268362296741 -0.00911940564115187 0 0.010572220412198166 -0.0085986673520831863 0 0.010368129628323631 -0.0081322822763311535 0 0.010201268362296741 -0.00911940564115187 0 0.010572220412198166 -0.0085986673520831863 0 0.010368129628323631 -0.0081322822763311535 0 0.010572220412198166 -0.0085986673520831863 0 0.010593045641599052 -0.007730336670739091 0 0.010368129628323631 -0.0081322822763311535 0 0.010593045641599052 -0.007730336670739091 0 0.010309260784815508 -0.0073346655213501841 0 0.010100094687709289 -0.0074832181957977121 0 0.010368129628323631 -0.0081322822763311535 0 0.010309260784815508 -0.0073346655213501841 0 0.010100094687709289 -0.0074832181957977121 0 0.010309260784815508 -0.0073346655213501841 0 0.0099090552032178817 -0.0064331194527396879 0 0.0069688526432819496 -0.0063563138188825917 0 0.007067632704169398 -0.0067840698525051726 0 0.010309260784815508 -0.0073346655213501841 0 0.0099090552032178817 -0.0064331194527396879 0 0.010271879506275354 -0.0068729347572862934 0 0.010593045641599052 -0.007730336670739091 0 0.010309260784815508 -0.0073346655213501841 0 0.010271879506275354 -0.0068729347572862934 0 0.0046857751645371856 -0.0068025235273718836 0 0.0041213845872550454 -0.005854651113386994 0 0.0040476897091436311 -0.0057683894610706422 0 0.0043438209687610349 -0.0065035306829421668 0 0.0046857751645371856 -0.0068025235273718836 0 0.0040476897091436311 -0.0057683894610706422 0 0.0041213845872550454 -0.005854651113386994 0 0.0040476897091436311 -0.0057683894610706422 0 0.003507109644782608 -0.0049288109421993008 0 0.0040476897091436311 -0.0057683894610706422 0 0.0038826940331241136 -0.0056454738857273081 0 0.003379683968896909 -0.0048054301314489761 0 0.0040476897091436311 -0.0057683894610706422 0 0.003379683968896909 -0.0048054301314489761 0 0.003507109644782608 -0.0049288109421993008 0 0.0043438209687610349 -0.0065035306829421668 0 0.0040476897091436311 -0.0057683894610706422 0 0.0038826940331241136 -0.0056454738857273081 0 0.0041188081165589689 -0.00608097087542775 0 0.0043438209687610349 -0.0065035306829421668 0 0.0038826940331241136 -0.0056454738857273081 0 0.0038826940331241136 -0.0056454738857273081 0 0.0033365633515428385 -0.0048044479794371805 0 0.003379683968896909 -0.0048054301314489761 0 0.0039804783417424616 -0.0055255074625620969 0 0.0041188081165589689 -0.00608097087542775 0 0.0033365633515428385 -0.0048044479794371805 0 0.0041188081165589689 -0.00608097087542775 0 0.0038826940331241132 -0.0056454738857273081 0 0.0033365633515428385 -0.0048044479794371805 0 0.0033365633515428385 -0.0048044479794371805 0 0.0024872299736978247 -0.0036034464483372564 0 0.0023262500056077024 -0.0034225567505784212 0 0.0033365633515428385 -0.0048044479794371805 0 0.0024872299736978247 -0.0036034464483372564 0 0.003379683968896909 -0.0048054301314489761 0 0.0024872299736978247 -0.0036034464483372564 0 0.003379683968896909 -0.0048054301314489761 0 0.0026466322390429819 -0.0037071289119868676 0 0.0024872299736978247 -0.0036034464483372564 0 0.0026466322390429819 -0.0037071289119868676 0 0.0016932060884681062 -0.0024815728627720418 0 0.003379683968896909 -0.0048054301314489761 0 0.0026466322390429819 -0.0037071289119868676 0 0.003507109644782608 -0.0049288109421993008 0 0.0041213845872550454 -0.005854651113386994 0 0.003507109644782608 -0.0049288109421993008 0 0.0033163503389082886 -0.0047563917666010392 0 0.0026466322390429819 -0.0037071289119868676 0 0.003507109644782608 -0.0049288109421993008 0 0.0033163503389082886 -0.0047563917666010392 0 0.0026466322390429819 -0.0037071289119868676 0 0.0033163503389082886 -0.0047563917666010392 0 0.0024071174854530079 -0.0034655995496953966 0 0.0026466322390429819 -0.0037071289119868676 0 0.0024071174854530079 -0.0034655995496953966 0 0.0015745625102830826 -0.0022061576543817812 0 0.0024071174854530079 -0.0034655995496953966 0 0.0015745625102830826 -0.0022061576543817812 0 0.0014173039652594589 -0.0019770150230575705 0 0.0026466322390429819 -0.0037071289119868676 0 0.0015745625102830826 -0.0022061576543817812 0 0.0016932060884681062 -0.0024815728627720418 0 1.0108251446292985e-06 -2.5489784877207455e-06 0 0.0014173039652594589 -0.0019770150230575705 0 0.00071640304233262818 -0.0010403060836366614 0 1.0108251446292985e-06 -2.5489784877207455e-06 0 0.00071640304233262808 -0.0010403060836366611 0 8.2159681008199077e-08 -1.0026192028347083e-06 0 0.0015745625102830826 -0.0022061576543817812 0 0.0014173039652594589 -0.0019770150230575705 0 0.00071640304233262818 -0.0010403060836366614 0 0.0015745625102830826 -0.0022061576543817812 0 0.00071640304233262818 -0.0010403060836366614 0 0.0007441811271932928 -0.0011558158290046223 0 0.00071640304233262818 -0.0010403060836366614 0 8.2159681008198693e-08 -1.0026192028347066e-06 0 0.0007441811271932928 -0.0011558158290046223 0 8.2159681008199077e-08 -1.0026192028347083e-06 0 0.0007441811271932928 -0.0011558158290046223 0 2.0591808412995991e-07 -1.1175655363559654e-06 0 0.0007441811271932928 -0.0011558158290046223 0 0.0010748287174206493 -0.0017210409085445461 0 0.00048505978815367924 -0.0008660519778619423 0 0.0007441811271932928 -0.0011558158290046223 0 2.0591808412995991e-07 -1.1175655363559654e-06 0 0.00048505978815367924 -0.0008660519778619423 0 0.0015745625102830826 -0.0022061576543817812 0 0.0007441811271932928 -0.0011558158290046223 0 0.0016932060884681062 -0.0024815728627720418 0 0.0007441811271932928 -0.0011558158290046223 0 0.0016932060884681062 -0.0024815728627720418 0 0.0010748287174206493 -0.0017210409085445461 0 0.0016932060884681062 -0.0024815728627720418 0 0.0010748287174206493 -0.0017210409085445463 0 0.0016519317560002669 -0.0025493785160886481 0 0.0024872299736978247 -0.0036034464483372564 0 0.0016932060884681062 -0.0024815728627720418 0 0.0016519317560002669 -0.0025493785160886481 0 0.0016519317560002669 -0.0025493785160886481 0 0.00093366897373363389 -0.0016196655360690548 0 0.0015107067271205722 -0.0023983237608509204 0 0.0010748287174206493 -0.0017210409085445461 0 0.0016519317560002669 -0.0025493785160886481 0 0.00093366897373363389 -0.0016196655360690548 0 0.0010748287174206493 -0.0017210409085445461 0 0.00093366897373363389 -0.0016196655360690548 0 0.00048505978815367924 -0.0008660519778619423 0 0.00093366897373363389 -0.0016196655360690548 0 0.00035686844262770699 -0.00074970991829542569 0 0.00075107855853137682 -0.0014332390785467769 0 0.00093366897373363389 -0.0016196655360690548 0 0.0015107067271205722 -0.0023983237608509204 0 0.00075107855853137682 -0.0014332390785467769 0 2.0591808412995991e-07 -1.1175655363559654e-06 0 1.2796013228204179e-07 -9.1247093210311648e-07 0 0.00048505978815367924 -0.0008660519778619423 0 1.2796013228210093e-07 -9.1247093210322204e-07 0 0.00048505978815367924 -0.0008660519778619423 0 0.00035686844262770699 -0.00074970991829542569 0 0.00093366897373363389 -0.0016196655360690548 0 0.00048505978815367924 -0.0008660519778619423 0 0.00035686844262770699 -0.00074970991829542569 0 1.2796013228210093e-07 -9.1247093210322204e-07 0 0.00035686844262770699 -0.00074970991829542569 0 7.6920331537034466e-08 -7.9066218146999215e-07 0 0.00035686844262770699 -0.00074970991829542569 0 7.6920331537034466e-08 -7.9066218146999215e-07 0 0.0002302245846537067 -0.00059340408697511945 0 0.00035686844262770699 -0.00074970991829542569 0 0.0002302245846537067 -0.00059340408697511945 0 0.00075107855853137682 -0.0014332390785467769 0 3.6741309315123177e-08 -6.4507513259838111e-07 0 7.6920331537034466e-08 -7.9066218146999215e-07 0 0.0002302245846537067 -0.00059340408697511945 0 0.0015107067271205722 -0.0023983237608509204 0 0.00075107855853137682 -0.0014332390785467769 0 0.00148422561391106 -0.0022631683295726208 0 0.00044448274403382902 -0.00098088482633173829 0 0.0002302245846537067 -0.00059340408697511945 0 0.00075107855853137682 -0.0014332390785467769 0 0.00084388982287286621 -0.0015146859646254535 0 0.00044448274403382902 -0.00098088482633173829 0 0.00075107855853137682 -0.0014332390785467769 0 0.00084388982287286621 -0.0015146859646254535 0 0.00075107855853137682 -0.0014332390785467772 0 0.00148422561391106 -0.0022631683295726208 0 0.0015385231417814305 -0.0020983891484740464 0 0.00148422561391106 -0.0022631683295726208 0 0.0023206956487746271 -0.0028353770139816358 0 0.00084388982287286621 -0.0015146859646254535 0 0.0015385231417814305 -0.0020983891484740464 0 0.00148422561391106 -0.0022631683295726208 0 0.0015107067271205722 -0.0023983237608509204 0 0.00148422561391106 -0.0022631683295726208 0 0.0022726033408922365 -0.0031725512994279681 0 0.0022726033408922365 -0.0031725512994279681 0 0.0023206956487746276 -0.0028353770139816358 0 0.0031538624530667359 -0.0037627587737774242 0 0.00148422561391106 -0.0022631683295726208 0 0.0022726033408922365 -0.0031725512994279681 0 0.0023206956487746271 -0.0028353770139816358 0 0.0023206956487746271 -0.0028353770139816358 0 0.0032440765672024498 -0.0031372982090238323 0 0.0031538624530667359 -0.0037627587737774242 0 0.0032440765672024498 -0.0031372982090238323 0 0.0037060187912758016 -0.0036852562948786198 0 0.0031538624530667359 -0.0037627587737774242 0 0.0024520831810566587 -0.0024656772062149053 0 0.0023206956487746271 -0.0028353770139816358 0 0.0032440765672024498 -0.0031372982090238323 0 0.0044932885724537214 -0.0033028347483629776 0 0.0032440765672024498 -0.0031372982090238323 0 0.0037060187912758016 -0.0036852562948786198 0 0.0044932885724537214 -0.0033028347483629776 0 0.0040736219025713288 -0.004370739258920211 0 0.0037060187912758016 -0.0036852562948786198 0 0.0040736219025713288 -0.004370739258920211 0 0.0031538624530667359 -0.0037627587737774242 0 0.0035280659055615671 -0.0044760207451795845 0 0.0040736219025713288 -0.004370739258920211 0 0.0037060187912758016 -0.0036852562948786198 0 0.0031538624530667359 -0.0037627587737774242 0 0.0031538624530667359 -0.0037627587737774242 0 0.0030845685067333864 -0.0042279379611716121 0 0.0035280659055615671 -0.0044760207451795845 0 0.0022726033408922365 -0.0031725512994279681 0 0.0031538624530667359 -0.0037627587737774242 0 0.0030845685067333864 -0.0042279379611716121 0 0.0039804783417424616 -0.0055255074625620969 0 0.0030845685067333864 -0.0042279379611716121 0 0.0035280659055615671 -0.0044760207451795845 0 0.0040736219025713288 -0.004370739258920211 0 0.0039804783417424616 -0.0055255074625620969 0 0.0035280659055615671 -0.0044760207451795845 0 0.0039804783417424616 -0.0055255074625620969 0 0.0033365633515428385 -0.0048044479794371805 0 0.0030845685067333864 -0.0042279379611716121 0 0.0033365633515428385 -0.0048044479794371805 0 0.0030845685067333864 -0.0042279379611716112 0 0.0023262500056077024 -0.0034225567505784212 0 0.0016519317560002669 -0.0025493785160886481 0 0.0015107067271205722 -0.0023983237608509204 0 0.0023262500056077024 -0.0034225567505784212 0 0.0024872299736978247 -0.0036034464483372564 0 0.0016519317560002669 -0.0025493785160886481 0 0.0023262500056077024 -0.0034225567505784212 0 0.0015107067271205722 -0.0023983237608509204 0 0.0022726033408922365 -0.0031725512994279681 0 0.0023262500056077024 -0.0034225567505784212 0 0.0022726033408922365 -0.0031725512994279681 0 0.0030845685067333864 -0.0042279379611716121 0 0.0023262500056077024 -0.0034225567505784212 0 
</DataArray>
</PointData>
<CellData Scalars="region_id,cross_section_updated," Vectors="" Tensors="stress,">
<DataArray type="Float64" Name="region_id" format="ascii">
8 8 8 8 8 8 8 8 8 8 8 8 8 8 8 8 8 8 8 8 8 8 8 8 8 8 8 8 8 8 8 8 8 8 8 7 8 8 8 7 8 8 8 8 8 8 8 8 7 8 8 8 7 8 8 8 8 8 8 8 8 8 8 8 8 8 8 8 8 8 8 8 8 8 8 8 8 8 8 8 8 8 8 8 8 8 8 8 8 8 8 8 8 8 8 8 8 8 8 8 8 8 8 8 8 8 8 8 8 8 8 8 8 8 8 8 8 8 8 8 8 8 8 8 8 8 8 6 8 8 8 6 8 8 8 8 8 8 8 8 8 8 8 8 8 8 8 8 8 6 8 6 8 8 7 8 8 7 8 8 8 8 8 8 8 8 8 8 8 8 8 7 8 8 8 7 8 8 8 6 8 8 6 8 8 8 8 8 8 8 8 8 8 8 8 8 8 8 8 8 8 8 8 8 8 8 8 8 8 8 8 8 8 8 8 8 6 8 8 8 8 8 8 8 8 8 8 8 8 8 8 8 6 8 8 8 8 8 8 8 8 8 8 8 8 8 8 8 8 8 8 8 8 8 8 8 8 8 8 8 8 8 8 8 8 8 8 8 8 8 8 8 8 8 8 8 8 8 8 8 8 8 8 8 8 8 8 8 8 8 8 8 8 8 8 8 8 8 8 8 8 8 8 8 8 8 
</DataArray>
<DataArray type="Float64" Name="stress" NumberOfComponents="9" format="ascii">
-2549703.5778345461 -1352154.3631955115 0 -1352154.3631955115 -7661864.7917164313 0 0 0 -2552892.0923877442 -873259.39872703236 -1595648.3742113011 0 -1595648.3742113011 -8364332.9267503163 0 0 0 -2309398.0813693367 94281.324027295224 -806203.38586431672 0 -806203.38586431672 -7592958.1139676254 0 0 0 -1874669.1974850823 -896823.75238852075 -1208762.2758211703 0 -1208762.2758211703 -7644603.0109642725 0 0 0 -2135356.6908381986 -748087.78949778574 -1112358.8471140268 0 -1112358.8471140268 -7040909.5317087499 0 0 0 -1947249.330301634 55740.146883223206 -838630.87032327242 0 -838630.87032327242 -6896771.0252781473 0 0 0 -1710257.719598732 128356.50477632806 -885862.70031411294 0 -885862.70031411294 -5777012.2143236566 0 0 0 -1412163.9273868327 488382.15931232087 -1720792.1120141037 0 -1720792.1120141037 -6986024.2078097649 0 0 0 -1624410.5121243605 159732.09640839975 -1051577.1628019614 0 -1051577.1628019614 -9014530.608857492 0 0 0 -2213699.6281122733 581695.23488603253 -1011338.7990171012 0 -1011338.7990171012 -7727070.789257329 0 0 0 -1786343.8885928239 1686722.2359092194 790014.54596075788 0 790014.54596075788 -6933725.1839011461 0 0 0 -1311750.7369979816 921431.83828189503 -922276.54122025799 0 -922276.54122025799 -8829717.2827911247 0 0 0 -1977071.3611273086 458803.84058250859 83950.103957974177 0 83950.103957974177 -10624262.323749982 0 0 0 -2541364.6207918692 -2533262.6949251313 -780584.51179234975 0 -780584.51179234975 -7600145.33326462 0 0 0 -2533352.0070474381 -1015438.2994463539 -331463.75710967858 0 -331463.75710967858 -8921673.409414785 0 0 0 -2484277.9272152847 -221316.31594899579 -161831.75051630853 0 -161831.75051630853 -6533626.6568758823 0 0 0 -1688735.7432062195 -2313606.7675675321 66418.117664818303 0 66418.117664818303 -6943398.4024720127 0 0 0 -2314251.2925098864 -1041671.6647352376 437124.32166622952 0 437124.32166622952 -6308244.320342144 0 0 0 -1837478.9962693455 -2156486.4905091533 543496.529285928 0 543496.529285928 -6468894.5694993036 0 0 0 -2156345.2650021147 -1171363.8129134607 766519.23165171756 0 766519.23165171756 -6796818.7887438629 0 0 0 -1992045.6504143309 4926666.7222923432 2150800.6450165985 0 2150800.6450165985 -7191843.8685850184 0 0 0 -566294.28657316975 167573.29571760865 1407885.8958675461 0 1407885.8958675461 -4925478.0187762175 0 0 0 -1189476.1807646519 -334413.04161704285 945653.09114827588 0 945653.09114827588 -6537485.8101460831 0 0 0 -1717974.7129407818 2210575.6836035047 1085048.533868161 0 1085048.533868161 -6576113.7327133231 0 0 0 -1091384.5122774532 933424.78609434329 2355029.3970108 0 2355029.3970108 -8018476.8181158639 0 0 0 -1771263.0080053806 -104873.59861315042 1072111.9378362987 0 1072111.9378362987 -7243789.9609435303 0 0 0 -1837165.8898891704 -495757.76548426971 1279379.6991249667 0 1279379.6991249667 -8293762.9371495899 0 0 0 -2197380.1756584654 -706731.31296443287 484334.57102758542 0 484334.57102758542 -7080923.0118717551 0 0 0 -1946913.5812090472 -1975460.0373420985 1130371.3265487188 0 1130371.3265487188 -8334894.2917238399 0 0 0 -2577588.5822664858 -1848908.3789565158 505577.54454011237 0 505577.54454011237 -7799526.6102002114 0 0 0 -2412108.7472891817 -2398298.907757319 814283.66495255462 0 814283.66495255462 -7194881.7096363362 0 0 0 -2398295.1543484135 -1616367.8151741168 484082.05759319273 0 484082.05759319273 -6617937.4232066888 0 0 0 -2058576.3095952014 -1544411.7218412485 950693.1445935166 0 950693.1445935166 -6380151.940113402 0 0 0 -1981140.915488662 -10061198.434323914 -1910247.8460849188 0 -1910247.8460849188 -12031495.897506163 0 0 0 -5523173.5829575174 -1859392.6574176992 4287162.8309291862 0 4287162.8309291862 -4950071.7555460539 0 0 0 -1702366.1032409365 205582.77441721613 -3305.4722581212991 0 -3305.4722581212991 -218804.66377206543 0 0 0 -3305.4723387123086 -8778352.3467692137 -708609.0268766908 0 -708609.0268766908 -9402218.9070097357 0 0 0 -4545142.8134447336 -4086473.4809719548 3416577.7569295429 0 3416577.7569295429 -5113593.9698984772 0 0 0 -2300016.8627176061 -12124707.6606069 -1368890.4822155088 0 -1368890.4822155088 -10783945.322823487 0 0 0 -5727163.2458575983 274157.92962440656 7160.1544012390659 0 7160.1544012390659 -245517.31198204879 0 0 0 7160.154410589399 -4480331.0234360024 3382667.7423526458 0 3382667.7423526458 -6362303.0200484376 0 0 0 -2710658.5108711123 -2148978.3921540836 2727356.1007149946 0 2727356.1007149946 -8034247.7244296204 0 0 0 -2545806.5291459253 404182.84654515423 3608811.5377915176 0 3608811.5377915176 -6658239.6316335099 0 0 0 -1563514.1962720864 2622119.0221927725 3555051.9686658243 0 3555051.9686658243 -5496424.2929742038 0 0 0 -718576.31769535877 -120559.24893776793 2507572.862812914 0 2507572.862812914 -7154539.5106501766 0 0 0 -1818774.689896985 -2178802.6401025206 4077676.6174211046 0 4077676.6174211046 -5749558.4251704924 0 0 0 -1982090.2663182523 -9877814.4455761053 -3316061.7984455135 0 -3316061.7984455135 -14179445.162479315 0 0 0 -6014314.9020138551 2745262.0139703136 6074399.884331027 0 6074399.884331027 -2896869.3724226104 0 0 0 -37901.839613072574 156576.21468464614 -331.08811427389446 0 -331.08811427389446 -157900.56752072534 0 0 0 -331.0882090197847 1096582.7279862016 4011719.323688738 0 4011719.323688738 -6184050.966925323 0 0 0 -1271867.0597347803 9518289.4606157523 8492973.277893845 0 8492973.277893845 823334.59136673249 0 0 0 2585406.0129956217 -12199895.063469175 -7719255.8921628352 0 -7719255.8921628352 -19370061.556068115 0 0 0 -7892489.1548843207 60362.814866672365 -1232.8153150649887 0 -1232.8153150649887 -65294.076293043152 0 0 0 -1232.8153565927059 -3335855.4799772943 -2244848.4992862418 0 -2244848.4992862418 -11718495.599750873 0 0 0 -3763587.7699320405 -6646039.7565952688 -1477368.7303764075 0 -1477368.7303764075 -10851233.934667587 0 0 0 -4374318.422815714 -9954990.0332392044 -27162.007523711771 0 -27162.007523711771 -10822053.056250617 0 0 0 -5194260.7723724507 -8219704.3320264891 171307.5099458769 0 171307.5099458769 -10765923.046567619 0 0 0 -4746406.8446485251 -10101966.985888377 1139648.0412624627 0 1139648.0412624627 -12272299.00374689 0 0 0 -5593566.4974088185 -944885.84909551404 1775696.147267323 0 1775696.147267323 -9910446.7243796028 0 0 0 -2713833.143368775 -3976320.4589388892 2302682.9458871265 0 2302682.9458871265 -10368486.187851548 0 0 0 -3586201.6616976112 -6145096.1464274917 -1270956.5284489952 0 -1270956.5284489952 -13104482.630904913 0 0 0 -4812394.6943331007 -3221183.7958805636 1104380.5073938761 0 1104380.5073938761 -9720016.2150649466 0 0 0 -3235300.0027363785 -2048324.440343882 327212.65011249483 0 327212.65011249483 -8176491.0007467195 0 0 0 -2556203.8602726487 -1746478.3855943941 2675398.6849408178 0 2675398.6849408178 -8985618.7575155273 0 0 0 -2683024.2857774831 -1322247.7923180379 -2306887.0637374725 0 -2306887.0637374725 -13990817.923496358 0 0 0 -3828266.4289535983 786612.11835404485 -1065910.7982054227 0 -1065910.7982054227 -9643570.8137698397 0 0 0 -2214239.6738539506 -967140.72622436425 -866592.52654694393 0 -866592.52654694393 -7854175.9230631096 0 0 0 -2205329.1623218707 -4964099.5898649096 -1427981.6969054141 0 -1427981.6969054141 -9334623.9201836586 0 0 0 -3574680.8775121421 -435000.1128549492 -2112120.7445802521 0 -2112120.7445802521 -9519725.3568830043 0 0 0 -2488681.3674344877 -1517044.7385765305 -1270745.1773486165 0 -1270745.1773486165 -6353138.4187257662 0 0 0 -1967545.7893255753 -901913.88216691837 -130579.97763712564 0 -130579.97763712564 -2038976.2348459475 0 0 0 -735222.52925321646 -31081.276569430527 -744619.40443527885 0 -744619.40443527885 -5871846.1108158492 0 0 0 -1475731.8468463204 -236837.27468239143 -916735.5539850574 0 -916735.5539850574 -3522490.5953046381 0 0 0 -939831.9674967574 -2457731.8368420638 821472.53252345882 0 821472.53252345882 -6524590.988603048 0 0 0 -2245580.7063612789 -103610.32353311614 63936.096271165647 0 63936.096271165647 -5475568.5038047517 0 0 0 -1394794.7068344655 -29951.61878070049 1278315.4036988178 0 1278315.4036988178 -7009319.2668510303 0 0 0 -1759817.721407935 -759132.92372818477 861654.26613253867 0 861654.26613253867 -3071269.6500974745 0 0 0 -957600.64345641527 146313.61013700441 1127641.7755216016 0 1127641.7755216016 -5068280.9208061658 0 0 0 -1230491.8276672922 -282140.28750780225 1747113.4043050669 0 1747113.4043050669 -6875900.6640427522 0 0 0 -1789510.2378876396 840822.85797183448 1887444.4990392588 0 1887444.4990392588 -7983546.0043130107 0 0 0 -1785680.7865852914 57403.866422003135 972691.88724570163 0 972691.88724570163 -7961117.5537207499 0 0 0 -1975928.4218246844 447877.80270209908 753718.11304635182 0 753718.11304635182 -7538293.2552103288 0 0 0 -1772603.8631270565 -64146.974584454671 514316.02084911615 0 514316.02084911615 -9057804.0300607607 0 0 0 -2280487.7511613052 309123.80387669429 303446.13997165859 0 303446.13997165859 -8538480.6186732501 0 0 0 -2057339.2036991362 584656.43945825472 785063.05714808032 0 785063.05714808032 -8679503.119518932 0 0 0 -2023711.6700151674 926016.9258691296 1524548.4745797571 0 1524548.4745797571 -9258660.9394610971 0 0 0 -2083161.0033979863 853215.93884013966 1124464.3698662855 0 1124464.3698662855 -9606003.1657289639 0 0 0 -2188196.8067222051 1037602.2138967253 974230.41822418035 0 974230.41822418035 -9720908.2832693458 0 0 0 -2170826.5173431523 1587641.7564759664 1087780.1560304873 0 1087780.1560304873 -10019734.99967318 0 0 0 -2108023.3107993118 1673658.5615378786 1609488.9555977993 0 1609488.9555977993 -10072604.332677729 0 0 0 -2099736.4427849595 -375816.36084495112 2974435.6871307306 0 2974435.6871307306 -10355285.275413454 0 0 0 -2682775.4090646021 -109439.91139286384 2434011.7156290021 0 2434011.7156290021 -9421568.7409736514 0 0 0 -2382752.1630916335 1145842.0557439756 1839446.8956827968 0 1839446.8956827968 -9892292.2113439664 0 0 0 -2186612.5388999972 1583480.003198985 2209059.8910316117 0 2209059.8910316117 -9086314.1599349454 0 0 0 -1875708.5391839892 -479475.8027222082 678646.64210788906 0 678646.64210788906 -9996749.6265727133 0 0 0 -2619056.3573237285 -369403.79578826058 473170.11183780432 0 473170.11183780432 -9559975.3166330233 0 0 0 -2482344.7781053209 -621523.20541086048 371889.25035106763 0 371889.25035106763 -9712979.3529573232 0 0 0 -2583625.6395920441 15734.334071569145 91057.990625448525 0 91057.990625448525 -9585200.0007632077 0 0 0 -2392366.4166729078 -480069.32222737651 372928.68941199034 0 372928.68941199034 -9599812.2164216265 0 0 0 -2519970.384662251 -16193.140451923013 109247.95353674702 0 109247.95353674702 -9034441.066945985 0 0 0 -2262658.5518494789 -11790.320850982331 87876.608567032963 0 87876.608567032963 -9225417.4896185193 0 0 0 -2309301.9526173687 317800.66773056611 537384.57655184274 0 537384.57655184274 -9413612.1375523433 0 0 0 -2273952.8674554415 184081.59328905493 429998.14320242777 0 429998.14320242777 -9631465.5473493338 0 0 0 -2361845.9885150753 415872.47253703326 682674.86354149878 0 682674.86354149878 -9976286.9865800589 0 0 0 -2390103.6285107583 945656.38324500993 704961.36822403339 0 704961.36822403339 -9886205.9115180373 0 0 0 -2235137.3820682503 335684.75927462801 462969.04489621148 0 462969.04489621148 -10030849.794490449 0 0 0 -2423791.2588039637 74341.241948671639 403660.98130502878 0 403660.98130502878 -9947837.1722578108 0 0 0 -2468373.9825772867 -725190.30030558258 451517.83274682611 0 451517.83274682611 -9897860.7200387493 0 0 0 -2655762.7550860867 -733517.50274578109 703379.40451497585 0 703379.40451497585 -9997655.5630737841 0 0 0 -2682793.2664549015 -1617959.0109825246 688437.01683031768 0 688437.01683031768 -9959377.1479136124 0 0 0 -2894334.0397240408 -2905438.4526399598 592211.30785804987 0 592211.30785804987 -10009160.535618544 0 0 0 -3228649.7470646277 -2277951.1567483991 670471.43885450496 0 670471.43885450496 -10078343.402280599 0 0 0 -3089073.6397572383 -871080.7056468688 654467.29154510051 0 654467.29154510051 -10028270.413495265 0 0 0 -2724837.7797855251 -915852.24299224466 531466.8160814424 0 531466.8160814424 -10096558.99580811 0 0 0 -2753102.8097000942 634721.02751367912 343913.2545260787 0 343913.2545260787 -10193250.705706686 0 0 0 -2389632.4195482545 1331874.95362214 754944.39031163231 0 754944.39031163231 -10229120.699648276 0 0 0 -2224311.4365065321 1210127.4165620655 976614.88159577176 0 976614.88159577176 -10018903.224062771 0 0 0 -2202193.9518751726 1614200.4725804329 387180.11656827107 0 387180.11656827107 -10048899.894200653 0 0 0 -2108674.8554050624 2246249.1487470418 1335978.6812757123 0 1335978.6812757123 -9749642.0074347258 0 0 0 -1875848.2146719173 1446439.8932342399 1180914.6921440139 0 1180914.6921440139 -9582798.412734963 0 0 0 -2034089.6298751812 200504.84213741682 712998.74715122581 0 712998.74715122581 -10088321.343338251 0 0 0 -2471954.1253002156 -925386.2757556811 -40061.624596633017 0 -40061.624596633017 -9868783.7993296683 0 0 0 -2698542.5187713355 -1236612.6277063992 948714.70136903226 0 948714.70136903226 -10001212.887601534 0 0 0 -2809456.3788269814 -1840620.1160019562 196496.64533361793 0 196496.64533361793 -9934314.4058130383 0 0 0 -2943733.6304537505 -4518660.0072472617 525005.66758140177 0 525005.66758140177 -9803389.5403059721 0 0 0 -3580512.3868883029 -1836315.3657557815 802582.68381500244 0 802582.68381500244 -10072728.505471885 0 0 0 -2977260.967806913 2927338.2216801941 1839045.0740021802 0 1839045.0740021802 -9794208.1529913843 0 0 0 -1716717.4828277975 -7698.5480348352576 59527.757490356234 0 59527.757490356234 -2566.1826927306829 0 0 0 -2566.1826818915142 2521070.7067921497 1613519.7230400667 0 1613519.7230400667 -10898579.866851203 0 0 0 -2094377.2900147699 2440950.0970001016 2695330.7500306144 0 2695330.7500306144 -10013855.172058254 0 0 0 -1893226.268764535 6617650.9948125072 2100367.2434629449 0 2100367.2434629449 -9573310.6327777505 0 0 0 -738914.90949131176 -1268.5596525315486 21773.765402314777 0 21773.765402314777 -422.85320976166986 0 0 0 -422.85321557332645 2337273.8513136897 1810713.0161097124 0 1810713.0161097124 -9529970.3961496577 0 0 0 -1798174.1362089943 2221085.4639307931 1481385.1871496155 0 1481385.1871496155 -9903282.0815099776 0 0 0 -1920549.1543948017 1651349.0001125801 1215220.0956886634 0 1215220.0956886634 -9864255.2307686284 0 0 0 -2053226.5576640088 2442089.8320558984 1590432.9372174963 0 1590432.9372174963 -9739768.4143938795 0 0 0 -1824419.6455845032 1955210.8320739195 1285695.861092601 0 1285695.861092601 -10143070.287412629 0 0 0 -2046964.8638346791 2516903.6305312142 1602252.4639234524 0 1602252.4639234524 -9827298.473089397 0 0 0 -1827598.7106395438 1917274.9653465524 912029.39095618576 0 912029.39095618576 -10216762.905130386 0 0 0 -2074871.9849459603 2721189.0525385663 1250023.563545242 0 1250023.563545242 -9722521.8841258436 0 0 0 -1750333.2078968212 2443915.8090660051 1982732.3268384486 0 1982732.3268384486 -8679842.0227978528 0 0 0 -1558981.5534329638 3115566.3845528867 2045032.048947528 0 2045032.048947528 -9365759.0712565631 0 0 0 -1562548.1716759223 2458048.3780684993 2082968.046476841 0 2082968.046476841 -8699251.3651452363 0 0 0 -1560300.7467691861 649205.75632699579 1759337.6816184595 0 1759337.6816184595 -7628322.3978049457 0 0 0 -1744779.1603694782 2596493.346773386 1850200.6664063865 0 1850200.6664063865 -9850796.6132204533 0 0 0 -1813575.8166117668 2146246.2395837549 1650761.7161141858 0 1650761.7161141858 -9246852.24904906 0 0 0 -1775151.5023663249 2960543.6157593466 1090032.979059618 0 1090032.979059618 -9763830.4092966914 0 0 0 -1700821.6983843334 1857631.6778152287 1100882.6579869837 0 1100882.6579869837 -9889000.6928968579 0 0 0 -2007842.2537704036 752442.0182541348 517606.92340444773 0 517606.92340444773 -8603826.7841634452 0 0 0 -1962846.1914773323 46711.15775233967 117319.21097627432 0 117319.21097627432 15570.385809548432 0 0 0 15570.385890472098 914220.22376696765 983651.37621564418 0 983651.37621564418 -7732415.2654128373 0 0 0 -1704548.7604114711 33884.718603165296 165218.4157224223 0 165218.4157224223 11294.906352001242 0 0 0 11294.90623879162 206691.81360371411 1089977.2889011502 0 1089977.2889011502 -5142548.1291179359 0 0 0 -1233964.0788785554 -2047528.3133065477 -66319.444105669856 0 -66319.444105669856 -8254669.0358601809 0 0 0 -2575549.3372916803 323843.17260901129 -1795.5563062386937 0 -1795.5563062386937 -281442.42095211486 0 0 0 10600.187914224109 -2778543.3051320482 -705582.40233241767 0 -705582.40233241767 -8316740.4429142773 0 0 0 -2773820.9370115791 -3246404.2198539041 -1278056.8740183264 0 -1278056.8740183264 -9699301.2603900135 0 0 0 -3236426.3700609766 277097.79716180847 -1312.4930959073827 0 -1312.4930959073827 -282347.76931453228 0 0 0 -1312.4930381808663 1849326.2000676049 4621798.813949734 0 4621798.813949734 -3298068.1370202303 0 0 0 -362185.48423815239 1472223.1378949806 2283395.7047573775 0 2283395.7047573775 -7179768.3966343105 0 0 0 -1426886.3146848455 649822.14579224866 1983146.9407040626 0 1983146.9407040626 -2966972.0866715834 0 0 0 -579287.48521984834 3544800.6657242849 2707312.6648160648 0 2707312.6648160648 -7970530.1414222717 0 0 0 -1106432.368924506 2225458.8540215129 2710830.7135135382 0 2710830.7135135382 -5303917.4415940046 0 0 0 -769614.64689312782 3851297.3499228507 2083886.3046808988 0 2083886.3046808988 -8804144.1099129468 0 0 0 -1238211.6899975389 3200870.1036419868 2190449.5952234007 0 2190449.5952234007 -7639292.4969867468 0 0 0 -1109605.59833619 5463157.072985284 4328872.9431022555 0 4328872.9431022555 -4628435.4083320796 0 0 0 208680.41616330296 4348374.5201892033 3502613.6921931766 0 3502613.6921931766 -7246921.592235297 0 0 0 -724636.76801152527 1458613.9971949104 3983595.1400840282 0 3983595.1400840282 -5040971.0754455663 0 0 0 -895589.26956265233 3396197.8586524874 4970311.5908611305 0 4970311.5908611305 -3184432.3305930197 0 0 0 52941.382014870644 -7858173.190147914 -5516210.9825563096 0 -5516210.9825563096 -15861305.181596309 0 0 0 -5929869.5929360613 7381791.0174890542 8391283.5955941603 0 8391283.5955941603 -1161017.6188468598 0 0 0 1555193.349660554 214056.68902665772 -78.316745241871104 0 -78.316745241871104 -214369.9556540919 0 0 0 -78.316656858485658 4407814.4071202874 5976712.4672861658 0 5976712.4672861658 -7035762.8360953331 0 0 0 -656987.10724375397 14615037.7613267 12146554.134507895 0 12146554.134507895 3184697.7382273972 0 0 0 4449933.8748885319 -12464271.769964498 -10233303.735664111 0 -10233303.735664111 -25517202.365281999 0 0 0 -9495368.5338116102 82788.727837483748 -835.29800455726217 0 -835.29800455726217 -86129.919691037387 0 0 0 -835.2979633884388 -3234616.4258587374 -3486803.5147642344 0 -3486803.5147642344 -13973876.039101725 0 0 0 -4302123.1162401158 -4460121.7159423381 -2776333.6895167492 0 -2776333.6895167492 -16136230.398450941 0 0 0 -5149088.0285983086 -1170685.0386415459 -1151765.9319440275 0 -1151765.9319440275 -14134994.057144582 0 0 0 -3826419.7739465348 10379.590535427735 200084.34919061809 0 200084.34919061809 3459.8634763504378 0 0 0 3459.8635029445286 1813666.3643816505 19779.063632432371 0 19779.063632432371 -14892697.324080564 0 0 0 -3269757.7399247251 -1101506.8834576942 -871457.66318922117 0 -871457.66318922117 -13366714.563958295 0 0 0 -3617055.3618539907 -10869.415134796727 175498.04346206249 0 175498.04346206249 -3623.1383626384195 0 0 0 -3623.138374358794 788959.23399019986 -105236.5311553275 0 -105236.5311553275 -12014572.320655838 0 0 0 -2806403.2716664001 -5761357.6444848925 -2237237.6310547707 0 -2237237.6310547707 -11284191.291357934 0 0 0 -4261387.2339607179 -1778966.0214083232 1174659.6799022704 0 1174659.6799022704 -10087705.429317042 0 0 0 -2966667.8626813218 -4745746.6415194422 1055265.7511322242 0 1055265.7511322242 -9340563.904597044 0 0 0 -3521577.6365291253 -934033.99118165672 1434220.5777330399 0 1434220.5777330399 -7484593.6847241968 0 0 0 -2104656.9189764597 1470746.3472598195 1116006.8517297655 0 1116006.8517297655 -9503507.3819586635 0 0 0 -2008190.2586747184 178922.59535200149 146433.66372810304 0 146433.66372810304 -9447649.0118091404 0 0 0 -2317181.6041142866 1821749.9755022302 1547965.098454643 0 1547965.098454643 -8039685.4969646931 0 0 0 -1554483.8803656101 2816957.3378038257 697213.20094007999 0 697213.20094007999 -9117150.6918830276 0 0 0 -1575048.3385197967 5298070.9333197735 1559599.1553095058 0 1559599.1553095058 -7798753.0238167942 0 0 0 -625170.52262425795 2422173.718720071 2977065.301793091 0 2977065.301793091 -4787909.1882763207 0 0 0 -591433.86738904566 8328376.9734105356 4521458.3074837327 0 4521458.3074837327 -9421987.4631656706 0 0 0 -273402.62243878469 849610.82046862692 2584898.1227115998 0 2584898.1227115998 -9524737.5433412194 0 0 0 -2168781.6807181463 -327475.42795381695 2898385.2599024475 0 2898385.2599024475 -8810862.8938123435 0 0 0 -2284584.580441542 -1953737.6820776165 2068461.0528142154 0 2068461.0528142154 -10029558.353421852 0 0 0 -2995824.0088748634 -708706.73258861899 2082355.1131666563 0 2082355.1131666563 -10019038.393822968 0 0 0 -2681936.2816028967 -4211933.5563826412 1676960.2220316306 0 1676960.2220316306 -9245975.7676393837 0 0 0 -3364477.3310055062 253174.95724697784 1632864.706834726 0 1632864.706834726 -10698831.563105777 0 0 0 -2611414.151464697 921056.36077554524 2031147.6525282636 0 2031147.6525282636 -10004351.557179317 0 0 0 -2270823.7991009429 165646.97310321033 2220174.1919418736 0 2220174.1919418736 -12268417.929719567 0 0 0 -3025692.7391540855 1638707.3906663582 1419230.3729920834 0 1419230.3729920834 -10826524.489410654 0 0 0 -2296954.2746860683 946088.85154956207 606316.83404031396 0 606316.83404031396 -13186638.333301783 0 0 0 -3060137.3704380505 3274196.7682182156 3462167.2669765279 0 3462167.2669765279 -10080580.447380453 0 0 0 -1701595.9197905585 2282082.4259100705 2171394.027136622 0 2171394.027136622 -13507095.247356296 0 0 0 -2806253.2053615451 2771681.5345404632 1298498.172364898 0 1298498.172364898 -11979683.791861743 0 0 0 -2302000.5643303208 1862737.9366792366 -126394.89013434201 0 -126394.89013434201 -11333461.613636941 0 0 0 -2367680.9192394316 45989.523832403123 -412059.7120619528 0 -412059.7120619528 -11996592.441262245 0 0 0 -2987650.7293574512 596930.42988240719 -67853.030684676021 0 -67853.030684676021 -11288988.331703663 0 0 0 -2673014.4754553065 288993.97099748254 1020210.7762636542 0 1020210.7762636542 -11366483.301744327 0 0 0 -2769372.3326867297 -26116.317645788193 248154.01151763648 0 248154.01151763648 -11001621.170037821 0 0 0 -2756934.3719208986 394396.1110868156 567265.63553917035 0 567265.63553917035 -10548876.837567434 0 0 0 -2538620.1816201508 440169.64325142652 585290.32949531823 0 585290.32949531823 -10666749.145557135 0 0 0 -2556644.8755764291 640370.26608577371 1222628.7370419912 0 1222628.7370419912 -9973806.3645279706 0 0 0 -2333359.0246105492 872.08806826139335 216708.73855330568 0 216708.73855330568 290.69600334821735 0 0 0 290.69601790243178 682965.68693587184 817040.68240346387 0 817040.68240346387 -13167543.363103684 0 0 0 -3121144.4190419614 -436323.60739206895 720645.03815371357 0 720645.03815371357 -13231904.271700531 0 0 0 -3417056.9697731547 -1332402.6254237741 407014.95681219827 0 407014.95681219827 -16566117.925600767 0 0 0 -4474630.1377561465 3252949.8976964802 -45525.914494726807 0 -45525.914494726807 -13479585.57608521 0 0 0 -2556658.9195971787 -1151028.2696823673 -2566217.8000284359 0 -2566217.8000284359 -19578466.027881764 0 0 0 -5182373.5743910344 -144012.55332144722 -1433848.6222050861 0 -1433848.6222050861 -14343119.039212633 0 0 0 -3621782.89813352 -3512645.6912677735 51665.003136962652 0 51665.003136962652 -13312328.997247994 0 0 0 -4206243.6721289493 -424686.71838091593 -113996.2288248688 0 -113996.2288248688 -12294876.945748426 0 0 0 -3179890.9160323432 -1577361.3391607627 -729735.70722029358 0 -729735.70722029358 -11700083.13623631 0 0 0 -3319361.1188492775 8326.286433160305 -503159.86629416794 0 -503159.86629416794 -10397134.654851362 0 0 0 -2597202.0921045616 -318.1729617761448 -485873.16949541867 0 -485873.16949541867 -11194408.269970147 0 0 0 -2798681.6107329773 -444953.57314780354 -244647.52462741733 0 -244647.52462741733 -9410511.7920529395 0 0 0 -2463866.341300182 -147687.0936204195 -97856.047076608986 0 -97856.047076608986 -11343225.479786828 0 0 0 -2872728.1433518231 -886312.22449366003 7620.0606215000153 0 7620.0606215000153 -11530653.499600753 0 0 0 -3104241.4310236052 -397109.88856376335 1057840.78283103 0 1057840.78283103 -12679894.622854218 0 0 0 -3269251.1278544851 1185.3607364110067 221315.74738940998 0 221315.74738940998 395.12026083399542 0 0 0 395.12024931126507 71686.604822950438 -103708.90150935203 0 -103708.90150935203 -11395317.883370299 0 0 0 -2830907.8196368422 -188379.34326828271 378000.70116390474 0 378000.70116390474 -9208413.5245859623 0 0 0 -2349198.2169635706 -85475.628323001598 388168.80458870158 0 388168.80458870158 -10139130.958586538 0 0 0 -2556151.6467273887 -361461.43343016133 929112.15750146285 0 929112.15750146285 -12026918.565127313 0 0 0 -3097094.9996393658 -129760.02949504927 842329.13437769935 0 842329.13437769935 -12612502.273036614 0 0 0 -3185565.5756329149 -226163.84779506922 1249142.4911690513 0 1249142.4911690513 -13138422.346083298 0 0 0 -3341146.5484695919 -80960.124089557678 1084549.8205395713 0 1084549.8205395713 -12494744.864938274 0 0 0 -3143926.247256957 -612483.18197787553 400740.13335837796 0 400740.13335837796 -12622697.669536211 0 0 0 -3308795.2128785253 -1981097.078785032 833011.41757025372 0 833011.41757025372 -13143702.506821185 0 0 0 -3781199.8964015618 -1079782.4804484211 1170552.7325249631 0 1170552.7325249631 -13436283.984938651 0 0 0 -3629016.616346769 -3040465.3995516635 911587.23469528009 0 911587.23469528009 -13547948.992783226 0 0 0 -4147103.5980837233 -883280.94370897301 1053253.5950027332 0 1053253.5950027332 -13145490.411617957 0 0 0 -3507192.838831732 -772149.50617762096 1788511.1027692687 0 1788511.1027692687 -13571239.614521297 0 0 0 -3585847.2801747266 -493437.01864443254 1761007.7858869582 0 1761007.7858869582 -13520653.759588182 0 0 0 -3503522.6945581557 -278318.65197790787 1731547.7643559724 0 1731547.7643559724 -13542897.517944109 0 0 0 -3455304.0424805079 -222524.21490462869 1936648.5277303997 0 1936648.5277303997 -13925181.973842382 0 0 0 -3536926.5471867546 -144795.53791811503 1458378.2474602871 0 1458378.2474602871 -13845243.712840308 0 0 0 -3497509.812689608 -224355.46366757154 748152.32216262072 0 748152.32216262072 -11789551.520241879 0 0 0 -3003476.7459773682 154841.16898380034 705758.18645204976 0 705758.18645204976 -12929180.54833883 0 0 0 -3193584.8448387589 -209730.92913651839 873184.49383984972 0 873184.49383984972 -13838360.623374283 0 0 0 -3512022.8881276976 54946.622001441196 889475.30009141285 0 889475.30009141285 -14735794.851426546 0 0 0 -3670212.0573562803 -422323.90631633531 1150908.8425976345 0 1150908.8425976345 -16019009.586288542 0 0 0 -4110333.3731512194 -749207.83193281759 2242600.0006624479 0 2242600.0006624479 -14677747.619772064 0 0 0 -3856738.8629262196 -2629273.8050491866 3437718.6565326937 0 3437718.6565326937 -21937395.74380802 0 0 0 -6141667.3872143012 -5665451.7259298796 3906504.9941011267 0 3906504.9941011267 -17026072.472625427 0 0 0 -5672881.0496388273 482860.2728655925 1592525.7842529221 0 1592525.7842529221 -16057951.734046083 0 0 0 -3893772.8652951224 -2547539.8989271158 3222979.9962188653 0 3222979.9962188653 -16457304.262024548 0 0 0 -4751211.0402379138 -2659863.8612522809 2618060.0736185261 0 2618060.0736185261 -15082475.191936597 0 0 0 -4435584.7632972188 -4736064.2267866516 3051045.1683816011 0 3051045.1683816011 -14204232.411460072 0 0 0 -4735074.1595616806 -2689785.8057887531 2503654.3365035402 0 2503654.3365035402 -13053712.551652974 0 0 0 -3935874.5893604332 -2524799.4678735444 2219582.0315298084 0 2219582.0315298084 -12847008.096359931 0 0 0 -3842951.8910583686 -736461.54188166279 2237727.2840860207 0 2237727.2840860207 -14268754.09312126 0 0 0 -3751303.9087507306 -1618611.1050749591 2723940.0831739735 0 2723940.0831739735 -14391459.865488362 0 0 0 -4002517.7426408306 -689219.76565093547 2196205.6266344562 0 2196205.6266344562 -13081903.311461423 0 0 0 -3442780.7692780886 -753202.96984921023 2298251.364873359 0 2298251.364873359 -13784228.899109762 0 0 0 -3634357.9672397412 -763520.05153589603 1864117.9107895875 0 1864117.9107895875 -11811072.68977231 0 0 0 -3143648.1853270521 -1596370.910791975 2451172.9101461414 0 2451172.9101461414 -12996693.360053433 0 0 0 -3648266.0677113519 -1472315.0504338285 1994167.835471608 0 1994167.835471608 -12268426.476805292 0 0 0 -3435185.3818097794 -1207007.3956976677 1445088.9026530683 0 1445088.9026530683 -10707307.355703551 0 0 0 -2978578.6878503039 -1348632.4228404034 2137561.0257952446 0 2137561.0257952446 -11551320.956093658 0 0 0 -3224988.3447335148 -4102305.2498267828 2299215.2515511857 0 2299215.2515511857 -12309410.403939478 0 0 0 -4102928.9134415649 -2243303.5519367578 1560626.1068087528 0 1560626.1068087528 -11087223.579157272 0 0 0 -3332631.7827735078 -2504036.4192697592 2140828.0982080163 0 2140828.0982080163 -11849902.920326184 0 0 0 -3588484.8348989859 -3567995.529696947 1699643.5898928228 0 1699643.5898928228 -10705619.862714684 0 0 0 -3568403.8481029072 -1952410.4753602804 968602.80233808816 0 968602.80233808816 -9454111.3212067783 0 0 0 -2851630.4491417645 -2228797.9873777907 1639031.6150918463 0 1639031.6150918463 -10027718.604987554 0 0 0 -3064129.1480913358 -2991653.6446919586 1161403.0746666226 0 1161403.0746666226 -8976246.6627869755 0 0 0 -2991975.0768697332 -936799.03546229471 1621700.1017664233 0 1621700.1017664233 -10190059.910490774 0 0 0 -2781714.7364882687 -1055693.5694946623 1008333.2949260697 0 1008333.2949260697 -9124395.8884133417 0 0 0 -2545022.3644770007 -1106381.023390692 1219811.9870264735 0 1219811.9870264735 -8498165.9628989343 0 0 0 -2401136.7465724065 -405425.28689221852 1863545.6308475174 0 1863545.6308475174 -9896807.5694293641 0 0 0 -2575558.2140803952 -309199.04299711995 2560704.6444508983 0 2560704.6444508983 -8892425.3226680607 0 0 0 -2300406.0914162956 -873582.39807469421 1832166.6360139977 0 1832166.6360139977 -8820443.3271886036 0 0 0 -2423506.4313158244 -812289.63112468272 2158701.4091336797 0 2158701.4091336797 -11075184.504281193 0 0 0 -2971868.5338514671 -1619089.3412604183 2067794.3016636786 0 2067794.3016636786 -9940842.3464096412 0 0 0 -2889982.9219175167 -1685181.1281260643 1871820.8425777778 0 1871820.8425777778 -9812250.2376525551 0 0 0 -2874357.8414446581 -3459668.8037503045 1918488.2973801903 0 1918488.2973801903 -8567806.0592012703 0 0 0 -3006868.7157378923 -3263354.8277351335 1922997.0699979439 0 1922997.0699979439 -7977491.908363767 0 0 0 -2810211.6840247214 -1769065.1035637371 2989849.2118155509 0 2989849.2118155509 -7190640.3481712043 0 0 0 -2239926.3629337363 -5605873.0765570318 2091386.8975235336 0 2091386.8975235336 -6242940.6728532203 0 0 0 -2962203.4373525651 -6831182.2539126649 1500231.1606814102 0 1500231.1606814102 -7064213.3255013824 0 0 0 -3473848.89485351 -3952397.880555457 720703.90958432108 0 720703.90958432108 -8730471.5529583246 0 0 0 -3170717.3583784425 -4995241.2944957502 1185656.2380940057 0 1185656.2380940057 -9152675.0366291627 0 0 0 -3536979.0827812254 -2870115.3993081078 616878.55240266025 0 616878.55240266025 -11214503.337864935 0 0 0 -3521154.6842932627 -2370448.9829044128 1328717.5874149352 0 1328717.5874149352 -10730480.616744008 0 0 0 -3275232.3999121031 -3377640.1447227672 -253293.91960501671 0 -253293.91960501671 -12845106.530153908 0 0 0 -4055686.6687191725 -4610754.698321484 -1356.6126141659915 0 -1356.6126141659915 -10851670.148440704 0 0 0 -3865606.2116905525 -1712736.4890858829 1112257.9923852049 0 1112257.9923852049 -13417741.420174204 0 0 0 -3782619.4773150198 -1439338.5048142821 1475040.3151506712 0 1475040.3151506712 -12586863.495671421 0 0 0 -3506550.5001214258 -904614.73619510233 2180083.3896520413 0 2180083.3896520413 -12728326.465449482 0 0 0 -3408235.3004111461 -454917.14898573421 1981684.7380188815 0 1981684.7380188815 -12862192.492077965 0 0 0 -3329277.4102659253 -1026214.9560138145 1724617.5896117501 0 1724617.5896117501 -11538152.238339238 0 0 0 -3141091.7985882657 -1230900.7354232315 1746018.3278829418 0 1746018.3278829418 -12279191.384911485 0 0 0 -3377523.0300836768 
</DataArray>
<DataArray type="Float64" Name="cross_section_updated" format="ascii">
1 1 1 1 1 1 1 1 1 1 1 1 1 1 1 1 1 1 1 1 1 1 1 1 1 1 1 1 1 1 1 1 1 1 1 0.0099999999989926116 1 1 1 0.010000000000116879 1 1 1 1 1 1 1 1 0.0099999999988156767 1 1 1 0.0099999999994809033 1 1 1 1 1 1 1 1 1 1 1 1 1 1 1 1 1 1 1 1 1 1 1 1 1 1 1 1 1 1 1 1 1 1 1 1 1 1 1 1 1 1 1 1 1 1 1 1 1 1 1 1 1 1 1 1 1 1 1 1 1 1 1 1 1 1 1 1 1 1 1 1 1 1 0.0099999999998645079 1 1 1 0.010000000000072645 1 1 1 1 1 1 1 1 1 1 1 1 1 1 1 1 1 0.0099999999989884552 1 0.01000000000141512 1 1 0.010154946802755787 1 1 0.010000000000721576 1 1 1 1 1 1 1 1 1 1 1 1 1 0.01000000000110479 1 1 1 0.010000000000514613 1 1 1 0.0099999999996675699 1 1 0.010000000000146505 1 1 1 1 1 1 1 1 1 1 1 1 1 1 1 1 1 1 1 1 1 1 1 1 1 1 1 1 1 1 1 1 1 0.0099999999998180711 1 1 1 1 1 1 1 1 1 1 1 1 1 1 1 0.010000000000144036 1 1 1 1 1 1 1 1 1 1 1 1 1 1 1 1 1 1 1 1 1 1 1 1 1 1 1 1 1 1 1 1 1 1 1 1 1 1 1 1 1 1 1 1 1 1 1 1 1 1 1 1 1 1 1 1 1 1 1 1 1 1 1 1 1 1 1 1 1 1 1 1 1 
</DataArray>
</CellData>
</Piece>
</UnstructuredGrid>
</VTKFile>
