<?xml version="1.0"?>
<VTKFile type="UnstructuredGrid" version="0.1" byte_order="LittleEndian">
<UnstructuredGrid>
<Piece NumberOfPoints="84" NumberOfCells="28">
<Points>
<DataArray type="Float64" NumberOfComponents="3" format="ascii">
0 0 0 0.29166666666652658 0.2916666666668038 0 0 0.33333333333472032 0 0 0 0 0.33333333333250248 0 0 0.29166666666652658 0.2916666666668038 0 0.49999999999981742 0.1726190476194705 0 0.33333333333250248 0 0 0.66666666666578889 0 0 0.49999999999981742 0.1726190476194705 0 0.33333333333250248 0 0 0.29166666666652658 0.2916666666668038 0 0.29166666666652658 0.2916666666668038 0 0.17261904761971569 0.50000000000021494 0 0.50000000000004996 0.49999999999997519 0 0.49999999999981742 0.1726190476194705 0 0.29166666666652658 0.2916666666668038 0 0.50000000000004996 0.49999999999997519 0 0.29166666666652658 0.2916666666668038 0 0 0.33333333333472032 0 0.17261904761971569 0.50000000000021494 0 0 0.33333333333472032 0 0.17261904761971569 0.50000000000021494 0 0 0.66666666666759111 0 0.17261904761971569 0.50000000000021494 0 0 0.66666666666759111 0 0.29166666666684449 0.7083333333334445 0 0 1 0 0.33333333333472032 1 0 0.29166666666684449 0.7083333333334445 0 0 0.66666666666759111 0 0 1 0 0.29166666666684449 0.7083333333334445 0 0.33333333333472032 1 0 0.29166666666684449 0.7083333333334445 0 0.50000000000021227 0.82738095238030207 0 0.17261904761971569 0.50000000000021494 0 0.29166666666684449 0.7083333333334445 0 0.50000000000004996 0.49999999999997519 0 0.29166666666684449 0.7083333333334445 0 0.50000000000021227 0.82738095238030207 0 0.50000000000004996 0.49999999999997519 0 0.70833333333346027 0.70833333333323512 0 0.82738095238054699 0.49999999999982031 0 0.50000000000004996 0.49999999999997519 0 0.70833333333346027 0.70833333333323512 0 0.50000000000021227 0.82738095238030207 0 0.50000000000004996 0.49999999999997519 0 0.70833333333346027 0.70833333333323512 0 0.66666666666759111 1 0 0.50000000000021227 0.82738095238030207 0 0.33333333333472032 1 0 0.66666666666759111 1 0 0.50000000000021227 0.82738095238030207 0 0.70833333333346027 0.70833333333323512 0 1 1 0 1 0.66666666666578889 0 0.70833333333346027 0.70833333333323512 0 0.66666666666759111 1 0 1 1 0 0.70833333333346027 0.70833333333323512 0 1 0.66666666666578889 0 0.82738095238054699 0.49999999999982031 0 1 0.66666666666578889 0 1 0.33333333333250248 0 0.82738095238054699 0.49999999999982031 0 1 0.33333333333250248 0 0.82738095238054699 0.49999999999982031 0 0.70833333333327586 0.2916666666665107 0 1 0 0 0.66666666666578889 0 0 0.70833333333327586 0.2916666666665107 0 1 0.33333333333250248 0 1 0 0 0.70833333333327586 0.2916666666665107 0 0.49999999999981742 0.1726190476194705 0 0.66666666666578889 0 0 0.70833333333327586 0.2916666666665107 0 0.82738095238054699 0.49999999999982031 0 0.50000000000004996 0.49999999999997519 0 0.70833333333327586 0.2916666666665107 0 0.49999999999981742 0.1726190476194705 0 0.50000000000004996 0.49999999999997519 0 0.70833333333327586 0.2916666666665107 0 
</DataArray>
</Points>
<Cells>
<DataArray type="UInt32" Name="connectivity" format="ascii">
0 1 2 3 4 5 6 7 8 9 10 11 12 13 14 15 16 17 18 19 20 21 22 23 24 25 26 27 28 29 30 31 32 33 34 35 36 37 38 39 40 41 42 43 44 45 46 47 48 49 50 51 52 53 54 55 56 57 58 59 60 61 62 63 64 65 66 67 68 69 70 71 72 73 74 75 76 77 78 79 80 81 82 83 
</DataArray>
<DataArray type="UInt32" Name="offsets" format="ascii">
3 6 9 12 15 18 21 24 27 30 33 36 39 42 45 48 51 54 57 60 63 66 69 72 75 78 81 84 
</DataArray>
<DataArray type="UInt32" Name="types" format="ascii">
5 5 5 5 5 5 5 5 5 5 5 5 5 5 5 5 5 5 5 5 5 5 5 5 5 5 5 5 
</DataArray>
</Cells>
<PointData Scalars="" Vectors="displacement," Tensors="">
<DataArray type="Float64" Name="displacement" NumberOfComponents="3" format="ascii">
4.1107529487976386e-09 -1.3571286268183651e-08 0 1.3261678602588463e-06 -8.5526478754387599e-06 0 -6.0902302529293493e-09 -1.0921106889513278e-05 0 4.1107529487976386e-09 -1.3571286268183651e-08 0 4.1217545111157961e-06 -5.4480563222427063e-09 0 1.3261678602588463e-06 -8.5526478754387599e-06 0 4.9803368182801823e-06 -1.9067935934448442e-06 0 4.1217545111157961e-06 -5.4480563222427063e-09 0 6.2622230827388775e-06 -2.1260907297228798e-09 0 4.9803368182801823e-06 -1.9067935934448442e-06 0 4.1217545111157961e-06 -5.4480563222427063e-09 0 1.3261678602588463e-06 -8.5526478754387599e-06 0 1.3261678602588463e-06 -8.5526478754387599e-06 0 -3.7303530569448456e-06 -1.5204184287092587e-05 0 -8.1517456830087406e-06 -5.9671328346652498e-06 0 4.9803368182801823e-06 -1.9067935934448442e-06 0 1.3261678602588463e-06 -8.5526478754387599e-06 0 -8.1517456830087406e-06 -5.9671328346652498e-06 0 1.3261678602588463e-06 -8.5526478754387599e-06 0 -6.0902302529293493e-09 -1.0921106889513278e-05 0 -3.7303530569448456e-06 -1.5204184287092587e-05 0 -6.0902302529293493e-09 -1.0921106889513278e-05 0 -3.7303530569448456e-06 -1.5204184287092587e-05 0 -9.172557866156415e-09 -1.6395655099283025e-05 0 -3.7303530569448456e-06 -1.5204184287092587e-05 0 -9.172557866156415e-09 -1.6395655099283025e-05 0 -1.8926671131849159e-05 -1.5686378677583152e-05 0 -5.6918510043920906e-08 -1.3785523357389846e-05 0 -4.4286334022566153e-05 -6.1221209277064081e-06 0 -1.8926671131849159e-05 -1.5686378677583152e-05 0 -9.172557866156415e-09 -1.6395655099283025e-05 0 -5.6918510043920906e-08 -1.3785523357389846e-05 0 -1.8926671131849159e-05 -1.5686378677583152e-05 0 -4.4286334022566153e-05 -6.1221209277064081e-06 0 -1.8926671131849159e-05 -1.5686378677583152e-05 0 -4.3464886475900941e-05 -5.732830421999247e-06 0 -3.7303530569448456e-06 -1.5204184287092587e-05 0 -1.8926671131849159e-05 -1.5686378677583152e-05 0 -8.1517456830087406e-06 -5.9671328346652498e-06 0 -1.8926671131849159e-05 -1.5686378677583152e-05 0 -4.3464886475900941e-05 -5.732830421999247e-06 0 -8.1517456830087406e-06 -5.9671328346652498e-06 0 -3.4932638813597381e-05 9.2706510300923974e-06 0 -1.2895181881980474e-05 1.7336491325877323e-05 0 -8.1517456830087406e-06 -5.9671328346652498e-06 0 -3.4932638813597381e-05 9.2706510300923974e-06 0 -4.3464886475900941e-05 -5.732830421999247e-06 0 -8.1517456830087406e-06 -5.9671328346652498e-06 0 -3.4932638813597381e-05 9.2706510300923974e-06 0 -9.2543084112775554e-05 1.2273059351306251e-05 0 -4.3464886475900941e-05 -5.732830421999247e-06 0 -4.4286334022566153e-05 -6.1221209277064081e-06 0 -9.2543084112775554e-05 1.2273059351306251e-05 0 -4.3464886475900941e-05 -5.732830421999247e-06 0 -3.4932638813597381e-05 9.2706510300923974e-06 0 -0.00011137581889886609 5.8386097222105122e-05 0 -3.5335173280145291e-05 4.6475192826608879e-05 0 -3.4932638813597381e-05 9.2706510300923974e-06 0 -9.2543084112775554e-05 1.2273059351306251e-05 0 -0.00011137581889886609 5.8386097222105122e-05 0 -3.4932638813597381e-05 9.2706510300923974e-06 0 -3.5335173280145291e-05 4.6475192826608879e-05 0 -1.2895181881980474e-05 1.7336491325877323e-05 0 -3.5335173280145291e-05 4.6475192826608879e-05 0 -4.3934444368338489e-06 1.9535363451075282e-05 0 -1.2895181881980474e-05 1.7336491325877323e-05 0 -4.3934444368338489e-06 1.9535363451075282e-05 0 -1.2895181881980474e-05 1.7336491325877323e-05 0 1.9134634120716715e-06 5.406082377226902e-06 0 5.1538383782566109e-06 2.7052913705450682e-08 0 6.2622230827388775e-06 -2.1260907297228798e-09 0 1.9134634120716715e-06 5.406082377226902e-06 0 -4.3934444368338489e-06 1.9535363451075282e-05 0 5.1538383782566109e-06 2.7052913705450682e-08 0 1.9134634120716715e-06 5.406082377226902e-06 0 4.9803368182801823e-06 -1.9067935934448442e-06 0 6.2622230827388775e-06 -2.1260907297228798e-09 0 1.9134634120716715e-06 5.406082377226902e-06 0 -1.2895181881980474e-05 1.7336491325877323e-05 0 -8.1517456830087406e-06 -5.9671328346652498e-06 0 1.9134634120716715e-06 5.406082377226902e-06 0 4.9803368182801823e-06 -1.9067935934448442e-06 0 -8.1517456830087406e-06 -5.9671328346652498e-06 0 1.9134634120716715e-06 5.406082377226902e-06 0 
</DataArray>
</PointData>
<CellData Scalars="displacement_divergence," Vectors="" Tensors="stress,">
<DataArray type="Float64" Name="stress" NumberOfComponents="9" format="ascii">
-761.29985142353144 136.60679359990809 0 136.60679359990809 -3744.1780101650843 0 0 0 -1126.369465397154 310.30360455031473 -311.83177438485114 0 -311.83177438485114 -3022.0271941992282 0 0 0 -677.93089741222843 329.59614048016005 -48.646236423186608 0 -48.646236423186608 -1066.0614073179665 0 0 0 -184.11631670945155 498.33226275120103 351.72912367583535 0 351.72912367583535 -2708.2687793498158 0 0 0 -552.48412914965365 -2252.8222231216332 -150.94586925950659 0 -150.94586925950659 -2436.7563497638798 0 0 0 -1172.3946432213788 -1141.8726822844765 -611.98319776726066 0 -611.98319776726066 -1703.5565765712968 0 0 0 -711.35731471394331 -1044.7186929105919 -788.43329076712257 0 -788.43329076712257 -3517.5890130111638 0 0 0 -1140.5769264804389 -3244.8791894311235 -358.56981472635448 0 -358.56981472635448 -2833.4818236057918 0 0 0 -1519.590253259229 -7274.7849568625752 -1442.4302024493259 0 -1442.4302024493259 -2855.1568395490458 0 0 0 -2532.4854491029046 -14742.292563256049 -1800.0697817933808 0 -1800.0697817933808 -1766.6387979234632 0 0 0 -4127.232840294877 -7467.5280981511096 46.79756514004066 0 46.79756514004066 -1653.9338753089028 0 0 0 -2280.3654933650032 -7767.3117810790691 -1789.363132739081 0 -1789.363132739081 426.85122695312123 0 0 0 -1835.1151385314865 -2358.1368305955834 -1480.3997350282593 0 -1480.3997350282593 -2752.7001721779425 0 0 0 -1277.7092506933816 -6708.8866900771645 -2419.9010511687784 0 -2419.9010511687784 -2159.9555772709637 0 0 0 -2217.2105668370323 -1660.3096458007419 -1715.0906516867922 0 -1715.0906516867922 -344.43566361995954 0 0 0 -501.18632735517559 -2453.2957050583555 -1417.5967405440647 0 -1417.5967405440647 -741.42524893268501 0 0 0 -798.68023849776057 -8500.3846407103429 -4955.3966688270029 0 -4955.3966688270029 -442.89188825503243 0 0 0 -2235.8191322413436 -15331.334393238885 -3574.0544980721183 0 -3574.0544980721183 332.47690694865014 0 0 0 -3749.7143715725588 -2646.967427808499 -3818.3533810575345 0 -3818.3533810575345 2929.166930612595 0 0 0 70.549875701024575 -5577.5164469017145 -2690.1434071295798 0 -2690.1434071295798 1346.8760539919131 0 0 0 -1057.6600982274499 -666.40236000704999 673.33120779759724 0 673.33120779759724 3747.1704723153325 0 0 0 770.19202807707052 -1611.9652972581277 -82.171344534369382 0 -82.171344534369382 8083.4236344192523 0 0 0 1617.8645842902808 -210.08791874992573 -804.1535466034444 0 -804.1535466034444 3366.1098383664548 0 0 0 789.00547990413281 342.17845620298544 -573.8989650824368 0 -573.8989650824368 2090.5846849091299 0 0 0 608.19078527802878 237.15829428170906 457.62785739199444 0 457.62785739199444 6321.7121367344735 0 0 0 1639.7176077540457 -221.04595580085504 509.56065525207418 0 509.56065525207418 1497.5568651002814 0 0 0 319.12772732485644 -1075.0631281855071 335.19736468974037 0 335.19736468974037 1411.303889217987 0 0 0 84.060190258120201 487.95565826398513 83.055973231134544 0 83.055973231134544 -1160.2804630564588 0 0 0 -168.08120119811838 
</DataArray>
<DataArray type="Float64" Name="displacement_divergence" format="ascii">
-2.8159236634928848e-05 -1.6948272435305714e-05 -4.6029079177362921e-06 -1.381210322874134e-05 -2.9309866080534462e-05 -1.7783932867848584e-05 -2.8514423162010971e-05 -3.7989756331480726e-05 -6.3312136227572618e-05 -0.00010318082100737192 -5.7009137334125079e-05 -4.5877878463287174e-05 -3.1942731267334548e-05 -5.5430264170925785e-05 -1.2529658183879389e-05 -1.996700596244405e-05 -5.5895478306033594e-05 -9.3742859289313991e-05 1.7637468925256407e-06 -2.6441502455686229e-05 1.9254800701926734e-05 4.044661460725702e-05 1.97251369976033e-05 1.5204769631950722e-05 4.0992940193851148e-05 7.9781931831214099e-06 2.1015047564529831e-06 -4.2020300299529605e-06 
</DataArray>
</CellData>
</Piece>
</UnstructuredGrid>
</VTKFile>
