<?xml version="1.0"?>
<VTKFile type="UnstructuredGrid" version="0.1" byte_order="LittleEndian">
<UnstructuredGrid>
<Piece NumberOfPoints="84" NumberOfCells="28">
<Points>
<DataArray type="Float64" NumberOfComponents="3" format="ascii">
0 0 0 0.29166666666652658 0.2916666666668038 0 0 0.33333333333472032 0 0 0 0 0.33333333333250248 0 0 0.29166666666652658 0.2916666666668038 0 0.49999999999981742 0.1726190476194705 0 0.33333333333250248 0 0 0.66666666666578889 0 0 0.49999999999981742 0.1726190476194705 0 0.33333333333250248 0 0 0.29166666666652658 0.2916666666668038 0 0.29166666666652658 0.2916666666668038 0 0.17261904761971569 0.50000000000021494 0 0.50000000000004996 0.49999999999997519 0 0.49999999999981742 0.1726190476194705 0 0.29166666666652658 0.2916666666668038 0 0.50000000000004996 0.49999999999997519 0 0.29166666666652658 0.2916666666668038 0 0 0.33333333333472032 0 0.17261904761971569 0.50000000000021494 0 0 0.33333333333472032 0 0.17261904761971569 0.50000000000021494 0 0 0.66666666666759111 0 0.17261904761971569 0.50000000000021494 0 0 0.66666666666759111 0 0.29166666666684449 0.7083333333334445 0 0 1 0 0.33333333333472032 1 0 0.29166666666684449 0.7083333333334445 0 0 0.66666666666759111 0 0 1 0 0.29166666666684449 0.7083333333334445 0 0.33333333333472032 1 0 0.29166666666684449 0.7083333333334445 0 0.50000000000021227 0.82738095238030207 0 0.17261904761971569 0.50000000000021494 0 0.29166666666684449 0.7083333333334445 0 0.50000000000004996 0.49999999999997519 0 0.29166666666684449 0.7083333333334445 0 0.50000000000021227 0.82738095238030207 0 0.50000000000004996 0.49999999999997519 0 0.70833333333346027 0.70833333333323512 0 0.82738095238054699 0.49999999999982031 0 0.50000000000004996 0.49999999999997519 0 0.70833333333346027 0.70833333333323512 0 0.50000000000021227 0.82738095238030207 0 0.50000000000004996 0.49999999999997519 0 0.70833333333346027 0.70833333333323512 0 0.66666666666759111 1 0 0.50000000000021227 0.82738095238030207 0 0.33333333333472032 1 0 0.66666666666759111 1 0 0.50000000000021227 0.82738095238030207 0 0.70833333333346027 0.70833333333323512 0 1 1 0 1 0.66666666666578889 0 0.70833333333346027 0.70833333333323512 0 0.66666666666759111 1 0 1 1 0 0.70833333333346027 0.70833333333323512 0 1 0.66666666666578889 0 0.82738095238054699 0.49999999999982031 0 1 0.66666666666578889 0 1 0.33333333333250248 0 0.82738095238054699 0.49999999999982031 0 1 0.33333333333250248 0 0.82738095238054699 0.49999999999982031 0 0.70833333333327586 0.2916666666665107 0 1 0 0 0.66666666666578889 0 0 0.70833333333327586 0.2916666666665107 0 1 0.33333333333250248 0 1 0 0 0.70833333333327586 0.2916666666665107 0 0.49999999999981742 0.1726190476194705 0 0.66666666666578889 0 0 0.70833333333327586 0.2916666666665107 0 0.82738095238054699 0.49999999999982031 0 0.50000000000004996 0.49999999999997519 0 0.70833333333327586 0.2916666666665107 0 0.49999999999981742 0.1726190476194705 0 0.50000000000004996 0.49999999999997519 0 0.70833333333327586 0.2916666666665107 0 
</DataArray>
</Points>
<Cells>
<DataArray type="UInt32" Name="connectivity" format="ascii">
0 1 2 3 4 5 6 7 8 9 10 11 12 13 14 15 16 17 18 19 20 21 22 23 24 25 26 27 28 29 30 31 32 33 34 35 36 37 38 39 40 41 42 43 44 45 46 47 48 49 50 51 52 53 54 55 56 57 58 59 60 61 62 63 64 65 66 67 68 69 70 71 72 73 74 75 76 77 78 79 80 81 82 83 
</DataArray>
<DataArray type="UInt32" Name="offsets" format="ascii">
3 6 9 12 15 18 21 24 27 30 33 36 39 42 45 48 51 54 57 60 63 66 69 72 75 78 81 84 
</DataArray>
<DataArray type="UInt32" Name="types" format="ascii">
5 5 5 5 5 5 5 5 5 5 5 5 5 5 5 5 5 5 5 5 5 5 5 5 5 5 5 5 
</DataArray>
</Cells>
<PointData Scalars="" Vectors="displacement," Tensors="">
<DataArray type="Float64" Name="displacement" NumberOfComponents="3" format="ascii">
4.1111019531451274e-09 -1.357091328371444e-08 0 1.3310509098282442e-06 -8.5475170057828961e-06 0 -6.0900597662762314e-09 -1.0915397225219317e-05 0 4.1111019531451274e-09 -1.357091328371444e-08 0 4.1273797126224919e-06 -5.4477024674791069e-09 0 1.3310509098282442e-06 -8.5475170057828961e-06 0 4.9889924366805682e-06 -1.903603622177462e-06 0 4.1273797126224919e-06 -5.4477024674791069e-09 0 6.2741391847051977e-06 -2.1262863821705555e-09 0 4.9889924366805682e-06 -1.903603622177462e-06 0 4.1273797126224919e-06 -5.4477024674791069e-09 0 1.3310509098282442e-06 -8.5475170057828961e-06 0 1.3310509098282442e-06 -8.5475170057828961e-06 0 -3.7275533596295411e-06 -1.5195571641364606e-05 0 -8.1432721662699202e-06 -5.9579132195687131e-06 0 4.9889924366805682e-06 -1.903603622177462e-06 0 1.3310509098282442e-06 -8.5475170057828961e-06 0 -8.1432721662699202e-06 -5.9579132195687131e-06 0 1.3310509098282442e-06 -8.5475170057828961e-06 0 -6.0900597662762314e-09 -1.0915397225219317e-05 0 -3.7275533596295411e-06 -1.5195571641364606e-05 0 -6.0900597662762314e-09 -1.0915397225219317e-05 0 -3.7275533596295411e-06 -1.5195571641364606e-05 0 -9.1722531331285842e-09 -1.6384333240178468e-05 0 -3.7275533596295411e-06 -1.5195571641364606e-05 0 -9.1722531331285842e-09 -1.6384333240178468e-05 0 -1.8922080299344017e-05 -1.5673990461912886e-05 0 -5.6919809487668702e-08 -1.3768673604133434e-05 0 -4.4281669368970677e-05 -6.104469262712914e-06 0 -1.8922080299344017e-05 -1.5673990461912886e-05 0 -9.1722531331285842e-09 -1.6384333240178468e-05 0 -5.6919809487668702e-08 -1.3768673604133434e-05 0 -1.8922080299344017e-05 -1.5673990461912886e-05 0 -4.4281669368970677e-05 -6.104469262712914e-06 0 -1.8922080299344017e-05 -1.5673990461912886e-05 0 -4.3456965840710807e-05 -5.717529583192524e-06 0 -3.7275533596295411e-06 -1.5195571641364606e-05 0 -1.8922080299344017e-05 -1.5673990461912886e-05 0 -8.1432721662699202e-06 -5.9579132195687131e-06 0 -1.8922080299344017e-05 -1.5673990461912886e-05 0 -4.3456965840710807e-05 -5.717529583192524e-06 0 -8.1432721662699202e-06 -5.9579132195687131e-06 0 -3.4920468527657194e-05 9.2845324595986337e-06 0 -1.288009318418889e-05 1.7346576207862582e-05 0 -8.1432721662699202e-06 -5.9579132195687131e-06 0 -3.4920468527657194e-05 9.2845324595986337e-06 0 -4.3456965840710807e-05 -5.717529583192524e-06 0 -8.1432721662699202e-06 -5.9579132195687131e-06 0 -3.4920468527657194e-05 9.2845324595986337e-06 0 -9.2532892002821448e-05 1.2292689462736417e-05 0 -4.3456965840710807e-05 -5.717529583192524e-06 0 -4.4281669368970677e-05 -6.104469262712914e-06 0 -9.2532892002821448e-05 1.2292689462736417e-05 0 -4.3456965840710807e-05 -5.717529583192524e-06 0 -3.4920468527657194e-05 9.2845324595986337e-06 0 -0.00011135844473412102 5.8407601232049374e-05 0 -3.5316378982250135e-05 4.6489326197910874e-05 0 -3.4920468527657194e-05 9.2845324595986337e-06 0 -9.2532892002821448e-05 1.2292689462736417e-05 0 -0.00011135844473412102 5.8407601232049374e-05 0 -3.4920468527657194e-05 9.2845324595986337e-06 0 -3.5316378982250135e-05 4.6489326197910874e-05 0 -1.288009318418889e-05 1.7346576207862582e-05 0 -3.5316378982250135e-05 4.6489326197910874e-05 0 -4.3741247278258967e-06 1.9542274271099813e-05 0 -1.288009318418889e-05 1.7346576207862582e-05 0 -4.3741247278258967e-06 1.9542274271099813e-05 0 -1.288009318418889e-05 1.7346576207862582e-05 0 1.9261637200290231e-06 5.4118013383003087e-06 0 5.1731535156625389e-06 2.7052224316326782e-08 0 6.2741391847051977e-06 -2.1262863821705555e-09 0 1.9261637200290231e-06 5.4118013383003087e-06 0 -4.3741247278258967e-06 1.9542274271099813e-05 0 5.1731535156625389e-06 2.7052224316326782e-08 0 1.9261637200290231e-06 5.4118013383003087e-06 0 4.9889924366805682e-06 -1.903603622177462e-06 0 6.2741391847051977e-06 -2.1262863821705555e-09 0 1.9261637200290231e-06 5.4118013383003087e-06 0 -1.288009318418889e-05 1.7346576207862582e-05 0 -8.1432721662699202e-06 -5.9579132195687131e-06 0 1.9261637200290231e-06 5.4118013383003087e-06 0 4.9889924366805682e-06 -1.903603622177462e-06 0 -8.1432721662699202e-06 -5.9579132195687131e-06 0 1.9261637200290231e-06 5.4118013383003087e-06 0 
</DataArray>
</PointData>
<CellData Scalars="displacement_divergence," Vectors="" Tensors="stress,">
<DataArray type="Float64" Name="stress" NumberOfComponents="9" format="ascii">
-758.60578968183222 136.62526819272534 0 136.62526819272534 -3741.4530163654886 0 0 0 -1125.0147015118303 313.03216471880637 -311.83713147463493 0 -311.83713147463493 -3019.2413720960212 0 0 0 -676.55230184430377 332.60003965793464 -48.672958364701003 0 -48.672958364701003 -1063.088974225883 0 0 0 -182.62223364198701 501.21661588714039 351.76299656755668 0 351.76299656755668 -2705.4188246749177 0 0 0 -551.05055219694441 -2250.0316318984496 -150.87557651514862 0 -150.87557651514862 -2433.9304766799441 0 0 0 -1170.9905271445987 -1139.0011118125417 -611.95712100079152 0 -611.95712100079152 -1700.6348188245561 0 0 0 -709.90898265927467 -1042.0392986017951 -788.43462221725213 0 -788.43462221725213 -3514.8864606637126 0 0 0 -1139.2314398163769 -3242.2596188930947 -358.54734824875072 0 -358.54734824875072 -2830.8127310870559 0 0 0 -1518.2680874950377 -7272.1905360713536 -1442.4009819306507 0 -1442.4009819306507 -2852.4297657857678 0 0 0 -2531.1550754642803 -14739.90472274167 -1800.0434161160745 0 -1800.0434161160745 -1763.9545912979656 0 0 0 -4125.9648285099083 -7464.9759940689837 46.848851925237341 0 46.848851925237341 -1651.3142478195955 0 0 0 -2279.0725604721451 -7764.5432089462347 -1789.2917741616377 0 -1789.2917741616377 429.63813256519961 0 0 0 -1833.7262690952589 -2355.3745859447909 -1480.3778122068934 0 -1480.3778122068934 -2749.9593388111807 0 0 0 -1276.3334811889931 -6706.1099052074569 -2419.8339595821103 0 -2419.8339595821103 -2157.0486090619083 0 0 0 -2215.7896285673414 -1657.0955327698673 -1715.0834069670836 0 -1715.0834069670836 -341.25936331637354 0 0 0 -499.58872402156027 -2450.2206948101139 -1417.5122392199419 0 -1417.5122392199419 -738.41887226411791 0 0 0 -797.15989176855817 -8497.4095960028208 -4955.3713505187752 0 -4955.3713505187752 -439.72400186044217 0 0 0 -2234.2833994658149 -15328.570538880733 -3573.9311514980354 0 -3573.9311514980354 335.46211191881139 0 0 0 -3748.2771067404806 -2643.4306788148183 -3818.3628912125441 0 -3818.3628912125441 2932.7044513093388 0 0 0 72.318443123630459 -5574.1103925385833 -2690.0667110752811 0 -2690.0667110752811 1350.1994444819688 0 0 0 -1055.9777370141537 -662.88106178481894 673.4373277074817 0 673.4373277074817 3750.5181865715203 0 0 0 771.90928119667524 -1608.3399344805291 -82.133080905274255 0 -82.133080905274255 8086.9433050872403 0 0 0 1619.6508426516773 -206.52536357359827 -804.17148069294797 0 -804.17148069294797 3369.4601920513842 0 0 0 790.73370711944676 345.62645891912666 -573.91831668817758 0 -573.91831668817758 2093.8256190355478 0 0 0 609.86301948866867 240.71085101834976 457.67337790758791 0 457.67337790758791 6325.1080053257301 0 0 0 1641.45471408602 -217.93135500224014 509.59765471347322 0 509.59765471347322 1500.6711406789866 0 0 0 320.68494641918659 -1071.8605181855007 335.29979550608869 0 335.29979550608869 1414.4456804289694 0 0 0 85.646290560867101 491.06025431558226 83.098310992625557 0 83.098310992625557 -1157.2810301164975 0 0 0 -166.55519395022895 
</DataArray>
<DataArray type="Float64" Name="displacement_divergence" format="ascii">
-2.8125367537795757e-05 -1.6913807546107596e-05 -4.5655558410496778e-06 -1.3776263804923613e-05 -2.9274763178614968e-05 -1.7747724566481861e-05 -2.8480785995409422e-05 -3.795670218737594e-05 -6.3278876886607014e-05 -0.0001031491207127477 -5.6976814011803605e-05 -4.5843156727381461e-05 -3.1908337029724814e-05 -5.5394740714183523e-05 -1.2489718100539009e-05 -1.9928997294213964e-05 -5.5857084986645377e-05 -9.3706927668512008e-05 1.8079610780908002e-06 -2.6399443425353838e-05 1.9297732029916856e-05 4.049127106629194e-05 1.9768342677986164e-05 1.5246575487216718e-05 4.1036367852150499e-05 8.017123660479666e-06 2.1411572640216755e-06 -4.1638798487557234e-06 
</DataArray>
</CellData>
</Piece>
</UnstructuredGrid>
</VTKFile>
