<?xml version="1.0"?>
<VTKFile type="UnstructuredGrid" version="0.1" byte_order="LittleEndian">
<UnstructuredGrid>
<Piece NumberOfPoints="84" NumberOfCells="28">
<Points>
<DataArray type="Float64" NumberOfComponents="3" format="ascii">
0 0 0 0.29166666666652658 0.2916666666668038 0 0 0.33333333333472032 0 0 0 0 0.33333333333250248 0 0 0.29166666666652658 0.2916666666668038 0 0.49999999999981742 0.1726190476194705 0 0.33333333333250248 0 0 0.66666666666578889 0 0 0.49999999999981742 0.1726190476194705 0 0.33333333333250248 0 0 0.29166666666652658 0.2916666666668038 0 0.29166666666652658 0.2916666666668038 0 0.17261904761971569 0.50000000000021494 0 0.50000000000004996 0.49999999999997519 0 0.49999999999981742 0.1726190476194705 0 0.29166666666652658 0.2916666666668038 0 0.50000000000004996 0.49999999999997519 0 0.29166666666652658 0.2916666666668038 0 0 0.33333333333472032 0 0.17261904761971569 0.50000000000021494 0 0 0.33333333333472032 0 0.17261904761971569 0.50000000000021494 0 0 0.66666666666759111 0 0.17261904761971569 0.50000000000021494 0 0 0.66666666666759111 0 0.29166666666684449 0.7083333333334445 0 0 1 0 0.33333333333472032 1 0 0.29166666666684449 0.7083333333334445 0 0 0.66666666666759111 0 0 1 0 0.29166666666684449 0.7083333333334445 0 0.33333333333472032 1 0 0.29166666666684449 0.7083333333334445 0 0.50000000000021227 0.82738095238030207 0 0.17261904761971569 0.50000000000021494 0 0.29166666666684449 0.7083333333334445 0 0.50000000000004996 0.49999999999997519 0 0.29166666666684449 0.7083333333334445 0 0.50000000000021227 0.82738095238030207 0 0.50000000000004996 0.49999999999997519 0 0.70833333333346027 0.70833333333323512 0 0.82738095238054699 0.49999999999982031 0 0.50000000000004996 0.49999999999997519 0 0.70833333333346027 0.70833333333323512 0 0.50000000000021227 0.82738095238030207 0 0.50000000000004996 0.49999999999997519 0 0.70833333333346027 0.70833333333323512 0 0.66666666666759111 1 0 0.50000000000021227 0.82738095238030207 0 0.33333333333472032 1 0 0.66666666666759111 1 0 0.50000000000021227 0.82738095238030207 0 0.70833333333346027 0.70833333333323512 0 1 1 0 1 0.66666666666578889 0 0.70833333333346027 0.70833333333323512 0 0.66666666666759111 1 0 1 1 0 0.70833333333346027 0.70833333333323512 0 1 0.66666666666578889 0 0.82738095238054699 0.49999999999982031 0 1 0.66666666666578889 0 1 0.33333333333250248 0 0.82738095238054699 0.49999999999982031 0 1 0.33333333333250248 0 0.82738095238054699 0.49999999999982031 0 0.70833333333327586 0.2916666666665107 0 1 0 0 0.66666666666578889 0 0 0.70833333333327586 0.2916666666665107 0 1 0.33333333333250248 0 1 0 0 0.70833333333327586 0.2916666666665107 0 0.49999999999981742 0.1726190476194705 0 0.66666666666578889 0 0 0.70833333333327586 0.2916666666665107 0 0.82738095238054699 0.49999999999982031 0 0.50000000000004996 0.49999999999997519 0 0.70833333333327586 0.2916666666665107 0 0.49999999999981742 0.1726190476194705 0 0.50000000000004996 0.49999999999997519 0 0.70833333333327586 0.2916666666665107 0 
</DataArray>
</Points>
<Cells>
<DataArray type="UInt32" Name="connectivity" format="ascii">
0 1 2 3 4 5 6 7 8 9 10 11 12 13 14 15 16 17 18 19 20 21 22 23 24 25 26 27 28 29 30 31 32 33 34 35 36 37 38 39 40 41 42 43 44 45 46 47 48 49 50 51 52 53 54 55 56 57 58 59 60 61 62 63 64 65 66 67 68 69 70 71 72 73 74 75 76 77 78 79 80 81 82 83 
</DataArray>
<DataArray type="UInt32" Name="offsets" format="ascii">
3 6 9 12 15 18 21 24 27 30 33 36 39 42 45 48 51 54 57 60 63 66 69 72 75 78 81 84 
</DataArray>
<DataArray type="UInt32" Name="types" format="ascii">
5 5 5 5 5 5 5 5 5 5 5 5 5 5 5 5 5 5 5 5 5 5 5 5 5 5 5 5 
</DataArray>
</Cells>
<PointData Scalars="" Vectors="displacement," Tensors="">
<DataArray type="Float64" Name="displacement" NumberOfComponents="3" format="ascii">
4.1107141259867279e-09 -1.3570999362228408e-08 0 1.3308392634916447e-06 -8.5474911715488606e-06 0 -6.0901796771386912e-09 -1.0915307762028137e-05 0 4.1107141259867279e-09 -1.3570999362228408e-08 0 4.1270756954542285e-06 -5.4474867457042893e-09 0 1.3308392634916447e-06 -8.5474911715488606e-06 0 4.9886124227742003e-06 -1.9036623639590658e-06 0 4.1270756954542285e-06 -5.4474867457042893e-09 0 6.2734441292333926e-06 -2.1276945057846758e-09 0 4.9886124227742003e-06 -1.9036623639590658e-06 0 4.1270756954542285e-06 -5.4474867457042893e-09 0 1.3308392634916447e-06 -8.5474911715488606e-06 0 1.3308392634916447e-06 -8.5474911715488606e-06 0 -3.7275837107964745e-06 -1.5195475302120403e-05 0 -8.1433403580840626e-06 -5.9581939610756472e-06 0 4.9886124227742003e-06 -1.9036623639590658e-06 0 1.3308392634916447e-06 -8.5474911715488606e-06 0 -8.1433403580840626e-06 -5.9581939610756472e-06 0 1.3308392634916447e-06 -8.5474911715488606e-06 0 -6.0901796771386912e-09 -1.0915307762028137e-05 0 -3.7275837107964745e-06 -1.5195475302120403e-05 0 -6.0901796771386912e-09 -1.0915307762028137e-05 0 -3.7275837107964745e-06 -1.5195475302120403e-05 0 -9.1722941150201545e-09 -1.6384216578479046e-05 0 -3.7275837107964745e-06 -1.5195475302120403e-05 0 -9.1722941150201545e-09 -1.6384216578479046e-05 0 -1.8921923202616761e-05 -1.5674007340562077e-05 0 -5.6919099875009542e-08 -1.3768601094715512e-05 0 -4.4281162846843952e-05 -6.1046468606513964e-06 0 -1.8921923202616761e-05 -1.5674007340562077e-05 0 -9.1722941150201545e-09 -1.6384216578479046e-05 0 -5.6919099875009542e-08 -1.3768601094715512e-05 0 -1.8921923202616761e-05 -1.5674007340562077e-05 0 -4.4281162846843952e-05 -6.1046468606513964e-06 0 -1.8921923202616761e-05 -1.5674007340562077e-05 0 -4.3456521644731512e-05 -5.7179464072121168e-06 0 -3.7275837107964745e-06 -1.5195475302120403e-05 0 -1.8921923202616761e-05 -1.5674007340562077e-05 0 -8.1433403580840626e-06 -5.9581939610756472e-06 0 -1.8921923202616761e-05 -1.5674007340562077e-05 0 -4.3456521644731512e-05 -5.7179464072121168e-06 0 -8.1433403580840626e-06 -5.9581939610756472e-06 0 -3.4920191083223738e-05 9.2836196882352784e-06 0 -1.288019713028091e-05 1.7345475324910173e-05 0 -8.1433403580840626e-06 -5.9581939610756472e-06 0 -3.4920191083223738e-05 9.2836196882352784e-06 0 -4.3456521644731512e-05 -5.7179464072121168e-06 0 -8.1433403580840626e-06 -5.9581939610756472e-06 0 -3.4920191083223738e-05 9.2836196882352784e-06 0 -9.2531717167914287e-05 1.229165158169282e-05 0 -4.3456521644731512e-05 -5.7179464072121168e-06 0 -4.4281162846843952e-05 -6.1046468606513964e-06 0 -9.2531717167914287e-05 1.229165158169282e-05 0 -4.3456521644731512e-05 -5.7179464072121168e-06 0 -3.4920191083223738e-05 9.2836196882352784e-06 0 -0.00011135751943591607 5.8403288283954966e-05 0 -3.5317691239563399e-05 4.648736370918542e-05 0 -3.4920191083223738e-05 9.2836196882352784e-06 0 -9.2531717167914287e-05 1.229165158169282e-05 0 -0.00011135751943591607 5.8403288283954966e-05 0 -3.4920191083223738e-05 9.2836196882352784e-06 0 -3.5317691239563399e-05 4.648736370918542e-05 0 -1.288019713028091e-05 1.7345475324910173e-05 0 -3.5317691239563399e-05 4.648736370918542e-05 0 -4.3759961296352111e-06 1.9540837105900676e-05 0 -1.288019713028091e-05 1.7345475324910173e-05 0 -4.3759961296352111e-06 1.9540837105900676e-05 0 -1.288019713028091e-05 1.7345475324910173e-05 0 1.9259834912991739e-06 5.4112117486910245e-06 0 5.1719241388869067e-06 2.7054695198590681e-08 0 6.2734441292333926e-06 -2.1276945057846758e-09 0 1.9259834912991739e-06 5.4112117486910245e-06 0 -4.3759961296352111e-06 1.9540837105900676e-05 0 5.1719241388869067e-06 2.7054695198590681e-08 0 1.9259834912991739e-06 5.4112117486910245e-06 0 4.9886124227742003e-06 -1.9036623639590658e-06 0 6.2734441292333926e-06 -2.1276945057846758e-09 0 1.9259834912991739e-06 5.4112117486910245e-06 0 -1.288019713028091e-05 1.7345475324910173e-05 0 -8.1433403580840626e-06 -5.9581939610756472e-06 0 1.9259834912991739e-06 5.4112117486910245e-06 0 4.9886124227742003e-06 -1.9036623639590658e-06 0 -8.1433403580840626e-06 -5.9581939610756472e-06 0 1.9259834912991739e-06 5.4112117486910245e-06 0 
</DataArray>
</PointData>
<CellData Scalars="displacement_divergence," Vectors="" Tensors="stress,">
<DataArray type="Float64" Name="stress" NumberOfComponents="9" format="ascii">
-758.682058006077 136.61810921603865 0 136.61810921603865 -3741.4497833739347 0 0 0 -1125.0329603450032 312.92637672569481 -311.82963233324807 0 -311.82963233324807 -3019.2672519078947 0 0 0 -676.58521879554996 332.44579213410088 -48.645456997877247 0 -48.645456997877247 -1063.1763200259838 0 0 0 -182.68263197297065 501.13596237445131 351.75626612104475 0 351.75626612104475 -2705.4422433280433 0 0 0 -551.07657023839795 -2250.058292346172 -150.88948221953501 0 -150.88948221953501 -2433.9734705104938 0 0 0 -1171.0079407141666 -1139.0599033082153 -611.95076022280364 0 -611.95076022280364 -1700.7267475366518 0 0 0 -709.94666271121685 -1042.108507816873 -788.42216587007329 0 -788.42216587007329 -3514.8847021982074 0 0 0 -1139.24830250377 -3242.2773984419819 -358.5488967052529 0 -358.5488967052529 -2830.8099540807143 0 0 0 -1518.271838130674 -7272.1492083534722 -1442.3917624930632 0 -1442.3917624930632 -2852.4487222651351 0 0 0 -2531.1494826546514 -14739.740384184457 -1800.0341788728711 0 -1800.0341788728711 -1763.9471556398275 0 0 0 -4125.9218849560712 -7464.9166800015773 46.831384787885327 0 46.831384787885327 -1651.3086051938731 0 0 0 -2279.0563212988627 -7764.4646489097549 -1789.3180685323966 0 -1789.3180685323966 429.63217067832591 0 0 0 -1833.7081195578567 -2355.3838670051109 -1480.3852526577971 0 -1480.3852526577971 -2749.9501944795229 0 0 0 -1276.3335153711587 -6706.0684847994726 -2419.8386435873999 0 -2419.8386435873999 -2157.0791404160977 0 0 0 -2215.7869063038925 -1657.1297816973627 -1715.1128826578401 0 -1715.1128826578401 -341.32716191742747 0 0 0 -499.61423590369776 -2450.226048556965 -1417.5543576713389 0 -1417.5543576713389 -738.46499500325444 0 0 0 -797.17276089005577 -8497.3179459506882 -4955.35668260492 0 -4955.35668260492 -439.78277274861637 0 0 0 -2234.2751796748244 -15328.374186002819 -3573.9425108964074 0 -3573.9425108964074 335.40959028334964 0 0 0 -3748.2411489298679 -2644.2517083739481 -3818.2786393777724 0 -3818.2786393777724 2931.6786277915671 0 0 0 71.856729854404875 -5574.2735276569711 -2690.3409261998786 0 -2690.3409261998786 1349.9495943609377 0 0 0 -1056.0809833240073 -663.60932359494836 673.23026967767476 0 673.23026967767476 3750.1414379183279 0 0 0 771.63302858084444 -1609.4373088464574 -82.204773350107644 0 -82.204773350107644 8086.4094101035098 0 0 0 1619.2430253142627 -207.3244119821486 -804.12251976025561 0 -804.12251976025561 3369.1016613962638 0 0 0 790.44431235352863 345.3533718630419 -573.83808660336695 0 -573.83808660336695 2093.5193063189681 0 0 0 609.71816954550263 239.87531619476147 457.50477544118939 0 457.50477544118939 6324.3688101718171 0 0 0 1641.0610315916447 -218.00982583220775 509.60777749060321 0 509.60777749060321 1500.4530358776913 0 0 0 320.61080251137076 -1071.9145312908613 335.21673169825084 0 335.21673169825084 1414.3185892943211 0 0 0 85.601014500864721 491.08289369259057 83.049986817075023 0 83.049986817075023 -1157.3458152043656 0 0 0 -166.56573037794377 
</DataArray>
<DataArray type="Float64" Name="displacement_divergence" format="ascii">
-2.8125824008625076e-05 -1.6914630469888754e-05 -4.5670657993242688e-06 -1.3776914255959957e-05 -2.9275198517854167e-05 -1.774866656778042e-05 -2.8481207562594256e-05 -3.7956795953266852e-05 -6.3278737066366301e-05 -0.00010314804712390177 -5.6976408032471558e-05 -4.5842702988946439e-05 -3.1908337884278967e-05 -5.5394672657597298e-05 -1.2490355897592434e-05 -1.9929319022251418e-05 -5.585687949187065e-05 -9.3706028723246668e-05 1.7964182463601336e-06 -2.6402024583100193e-05 1.9290825714521131e-05 4.0481075632856566e-05 1.9761107808838204e-05 1.5242954238637564e-05 4.1026525789791117e-05 8.0152700627842731e-06 2.1400253625216157e-06 -4.1641432594485912e-06 
</DataArray>
</CellData>
</Piece>
</UnstructuredGrid>
</VTKFile>
