<?xml version="1.0"?>
<VTKFile type="UnstructuredGrid" version="0.1" byte_order="LittleEndian">
<UnstructuredGrid>
<Piece NumberOfPoints="84" NumberOfCells="28">
<Points>
<DataArray type="Float64" NumberOfComponents="3" format="ascii">
0 0 0 0.29166666666652658 0.2916666666668038 0 0 0.33333333333472032 0 0 0 0 0.33333333333250248 0 0 0.29166666666652658 0.2916666666668038 0 0.49999999999981742 0.1726190476194705 0 0.33333333333250248 0 0 0.66666666666578889 0 0 0.49999999999981742 0.1726190476194705 0 0.33333333333250248 0 0 0.29166666666652658 0.2916666666668038 0 0.29166666666652658 0.2916666666668038 0 0.17261904761971569 0.50000000000021494 0 0.50000000000004996 0.49999999999997519 0 0.49999999999981742 0.1726190476194705 0 0.29166666666652658 0.2916666666668038 0 0.50000000000004996 0.49999999999997519 0 0.29166666666652658 0.2916666666668038 0 0 0.33333333333472032 0 0.17261904761971569 0.50000000000021494 0 0 0.33333333333472032 0 0.17261904761971569 0.50000000000021494 0 0 0.66666666666759111 0 0.17261904761971569 0.50000000000021494 0 0 0.66666666666759111 0 0.29166666666684449 0.7083333333334445 0 0 1 0 0.33333333333472032 1 0 0.29166666666684449 0.7083333333334445 0 0 0.66666666666759111 0 0 1 0 0.29166666666684449 0.7083333333334445 0 0.33333333333472032 1 0 0.29166666666684449 0.7083333333334445 0 0.50000000000021227 0.82738095238030207 0 0.17261904761971569 0.50000000000021494 0 0.29166666666684449 0.7083333333334445 0 0.50000000000004996 0.49999999999997519 0 0.29166666666684449 0.7083333333334445 0 0.50000000000021227 0.82738095238030207 0 0.50000000000004996 0.49999999999997519 0 0.70833333333346027 0.70833333333323512 0 0.82738095238054699 0.49999999999982031 0 0.50000000000004996 0.49999999999997519 0 0.70833333333346027 0.70833333333323512 0 0.50000000000021227 0.82738095238030207 0 0.50000000000004996 0.49999999999997519 0 0.70833333333346027 0.70833333333323512 0 0.66666666666759111 1 0 0.50000000000021227 0.82738095238030207 0 0.33333333333472032 1 0 0.66666666666759111 1 0 0.50000000000021227 0.82738095238030207 0 0.70833333333346027 0.70833333333323512 0 1 1 0 1 0.66666666666578889 0 0.70833333333346027 0.70833333333323512 0 0.66666666666759111 1 0 1 1 0 0.70833333333346027 0.70833333333323512 0 1 0.66666666666578889 0 0.82738095238054699 0.49999999999982031 0 1 0.66666666666578889 0 1 0.33333333333250248 0 0.82738095238054699 0.49999999999982031 0 1 0.33333333333250248 0 0.82738095238054699 0.49999999999982031 0 0.70833333333327586 0.2916666666665107 0 1 0 0 0.66666666666578889 0 0 0.70833333333327586 0.2916666666665107 0 1 0.33333333333250248 0 1 0 0 0.70833333333327586 0.2916666666665107 0 0.49999999999981742 0.1726190476194705 0 0.66666666666578889 0 0 0.70833333333327586 0.2916666666665107 0 0.82738095238054699 0.49999999999982031 0 0.50000000000004996 0.49999999999997519 0 0.70833333333327586 0.2916666666665107 0 0.49999999999981742 0.1726190476194705 0 0.50000000000004996 0.49999999999997519 0 0.70833333333327586 0.2916666666665107 0 
</DataArray>
</Points>
<Cells>
<DataArray type="UInt32" Name="connectivity" format="ascii">
0 1 2 3 4 5 6 7 8 9 10 11 12 13 14 15 16 17 18 19 20 21 22 23 24 25 26 27 28 29 30 31 32 33 34 35 36 37 38 39 40 41 42 43 44 45 46 47 48 49 50 51 52 53 54 55 56 57 58 59 60 61 62 63 64 65 66 67 68 69 70 71 72 73 74 75 76 77 78 79 80 81 82 83 
</DataArray>
<DataArray type="UInt32" Name="offsets" format="ascii">
3 6 9 12 15 18 21 24 27 30 33 36 39 42 45 48 51 54 57 60 63 66 69 72 75 78 81 84 
</DataArray>
<DataArray type="UInt32" Name="types" format="ascii">
5 5 5 5 5 5 5 5 5 5 5 5 5 5 5 5 5 5 5 5 5 5 5 5 5 5 5 5 
</DataArray>
</Cells>
<PointData Scalars="" Vectors="displacement," Tensors="">
<DataArray type="Float64" Name="displacement" NumberOfComponents="3" format="ascii">
4.1100575193320606e-09 -1.3571423515476813e-08 0 1.3303980076990822e-06 -8.5483961858613463e-06 0 -6.0904665751250628e-09 -1.0916029617126189e-05 0 4.1100575193320606e-09 -1.3571423515476813e-08 0 4.1265938212802738e-06 -5.4486773269507208e-09 0 1.3303980076990822e-06 -8.5483961858613463e-06 0 4.9875989174449046e-06 -1.9045316969287339e-06 0 4.1265938212802738e-06 -5.4486773269507208e-09 0 6.2716389660622124e-06 -2.1264414814002674e-09 0 4.9875989174449046e-06 -1.9045316969287339e-06 0 4.1265938212802738e-06 -5.4486773269507208e-09 0 1.3303980076990822e-06 -8.5483961858613463e-06 0 1.3303980076990822e-06 -8.5483961858613463e-06 0 -3.727740187022629e-06 -1.5196641261826236e-05 0 -8.1441748523630507e-06 -5.9605299302356097e-06 0 4.9875989174449046e-06 -1.9045316969287339e-06 0 1.3303980076990822e-06 -8.5483961858613463e-06 0 -8.1441748523630507e-06 -5.9605299302356097e-06 0 1.3303980076990822e-06 -8.5483961858613463e-06 0 -6.0904665751250628e-09 -1.0916029617126189e-05 0 -3.727740187022629e-06 -1.5196641261826236e-05 0 -6.0904665751250628e-09 -1.0916029617126189e-05 0 -3.727740187022629e-06 -1.5196641261826236e-05 0 -9.1728935053171083e-09 -1.638545999664448e-05 0 -3.727740187022629e-06 -1.5196641261826236e-05 0 -9.1728935053171083e-09 -1.638545999664448e-05 0 -1.8921866387447418e-05 -1.5675976659023313e-05 0 -5.691667069175582e-08 -1.3770197525564133e-05 0 -4.4279903125577463e-05 -6.1076394092929742e-06 0 -1.8921866387447418e-05 -1.5675976659023313e-05 0 -9.1728935053171083e-09 -1.638545999664448e-05 0 -5.691667069175582e-08 -1.3770197525564133e-05 0 -1.8921866387447418e-05 -1.5675976659023313e-05 0 -4.4279903125577463e-05 -6.1076394092929742e-06 0 -1.8921866387447418e-05 -1.5675976659023313e-05 0 -4.3456294130381047e-05 -5.721884874771039e-06 0 -3.727740187022629e-06 -1.5196641261826236e-05 0 -1.8921866387447418e-05 -1.5675976659023313e-05 0 -8.1441748523630507e-06 -5.9605299302356097e-06 0 -1.8921866387447418e-05 -1.5675976659023313e-05 0 -4.3456294130381047e-05 -5.721884874771039e-06 0 -8.1441748523630507e-06 -5.9605299302356097e-06 0 -3.4921629474398069e-05 9.2786807611558259e-06 0 -1.2883755307630303e-05 1.7341575748537332e-05 0 -8.1441748523630507e-06 -5.9605299302356097e-06 0 -3.4921629474398069e-05 9.2786807611558259e-06 0 -4.3456294130381047e-05 -5.721884874771039e-06 0 -8.1441748523630507e-06 -5.9605299302356097e-06 0 -3.4921629474398069e-05 9.2786807611558259e-06 0 -9.2530535258466981e-05 1.2284488509262349e-05 0 -4.3456294130381047e-05 -5.721884874771039e-06 0 -4.4279903125577463e-05 -6.1076394092929742e-06 0 -9.2530535258466981e-05 1.2284488509262349e-05 0 -4.3456294130381047e-05 -5.721884874771039e-06 0 -3.4921629474398069e-05 9.2786807611558259e-06 0 -0.00011136055037027536 5.8393486715974762e-05 0 -3.5322811985083106e-05 4.6480642212411555e-05 0 -3.4921629474398069e-05 9.2786807611558259e-06 0 -9.2530535258466981e-05 1.2284488509262349e-05 0 -0.00011136055037027536 5.8393486715974762e-05 0 -3.4921629474398069e-05 9.2786807611558259e-06 0 -3.5322811985083106e-05 4.6480642212411555e-05 0 -1.2883755307630303e-05 1.7341575748537332e-05 0 -3.5322811985083106e-05 4.6480642212411555e-05 0 -4.3820271555382802e-06 1.9538362016895978e-05 0 -1.2883755307630303e-05 1.7341575748537332e-05 0 -4.3820271555382802e-06 1.9538362016895978e-05 0 -1.2883755307630303e-05 1.7341575748537332e-05 0 1.923580511336321e-06 5.4093000130971614e-06 0 5.1655493753303073e-06 2.7054994465521236e-08 0 6.2716389660622124e-06 -2.1264414814002674e-09 0 1.923580511336321e-06 5.4093000130971614e-06 0 -4.3820271555382802e-06 1.9538362016895978e-05 0 5.1655493753303073e-06 2.7054994465521236e-08 0 1.923580511336321e-06 5.4093000130971614e-06 0 4.9875989174449046e-06 -1.9045316969287339e-06 0 6.2716389660622124e-06 -2.1264414814002674e-09 0 1.923580511336321e-06 5.4093000130971614e-06 0 -1.2883755307630303e-05 1.7341575748537332e-05 0 -8.1441748523630507e-06 -5.9605299302356097e-06 0 1.923580511336321e-06 5.4093000130971614e-06 0 4.9875989174449046e-06 -1.9045316969287339e-06 0 -8.1441748523630507e-06 -5.9605299302356097e-06 0 1.923580511336321e-06 5.4093000130971614e-06 0 
</DataArray>
</PointData>
<CellData Scalars="displacement_divergence," Vectors="" Tensors="stress,">
<DataArray type="Float64" Name="stress" NumberOfComponents="9" format="ascii">
-758.95003790820419 136.5806672154738 0 136.5806672154738 -3741.7699679103134 0 0 0 -1125.1800014546293 312.62917229384493 -311.83240322774191 0 -311.83240322774191 -3019.6968963388344 0 0 0 -676.76693101124738 331.7679554273376 -48.615036535311873 0 -48.615036535311873 -1063.939472708937 0 0 0 -183.04287932039983 500.65354044289006 351.67557410084225 0 351.67557410084225 -2705.9601315125892 0 0 0 -551.32664776742467 -2250.4386062298581 -151.02509641286906 0 -151.02509641286906 -2434.4516803339088 0 0 0 -1171.2225716409416 -1139.531220639542 -612.02443538157627 0 -612.02443538157627 -1701.3617100506717 0 0 0 -710.22323267255342 -1042.3507302023604 -788.43540264616354 0 -788.43540264616354 -3515.1526018463483 0 0 0 -1139.3758330121777 -3242.4484559043221 -358.59141458563658 0 -358.59141458563658 -2831.0338734163906 0 0 0 -1518.370582330178 -7272.2486095850109 -1442.4364772104125 0 -1442.4364772104125 -2852.7645547962384 0 0 0 -2531.2532910953123 -14739.404154297063 -1800.0582966075592 0 -1800.0582966075592 -1764.1454663775403 0 0 0 -4125.8874051686498 -7464.9355752885185 46.738247822141602 0 46.738247822141602 -1651.4278676814738 0 0 0 -2279.0908607424981 -7764.759520798103 -1789.4679005667338 0 -1789.4679005667338 429.28323883853193 0 0 0 -1833.8690704898936 -2355.7049483887176 -1480.4399166045694 0 -1480.4399166045694 -2750.2507068026989 0 0 0 -1276.4889137978541 -6706.3884007739143 -2419.9750785443034 0 -2419.9750785443034 -2157.7079021889626 0 0 0 -2216.0240757407196 -1658.4368588947925 -1715.0870906842435 0 -1715.0870906842435 -342.58611711217054 0 0 0 -500.25574400174054 -2451.1589637725156 -1417.7285712785915 0 -1417.7285712785915 -739.29808985648606 0 0 0 -797.61426340725086 -8498.0540243667929 -4955.4140958974749 0 -4955.4140958974749 -440.99351736758126 0 0 0 -2234.7618854335938 -15328.666211526894 -3574.212801931656 0 -3574.212801931656 334.60821305752825 0 0 0 -3748.5144996173412 -2646.0288667039827 -3818.3251299601507 0 -3818.3251299601507 2930.1006188955253 0 0 0 71.017938047886673 -5576.1404084277656 -2690.3704103315649 0 -2690.3704103315649 1348.3932821028834 0 0 0 -1056.936781581222 -665.43849170204294 673.061979721066 0 673.061979721066 3748.5466320115611 0 0 0 770.77703507737897 -1611.349532971092 -82.257449186536178 0 -82.257449186536178 8084.4131515758336 0 0 0 1618.2659046511847 -209.21378929866387 -804.07919703839127 0 -804.07919703839127 3367.491819834403 0 0 0 789.56950763393479 343.44597934963502 -573.84185135051075 0 -573.84185135051075 2092.1839451487372 0 0 0 608.90748112459312 238.06790990743821 457.51119929078322 0 457.51119929078322 6322.974217162453 0 0 0 1640.2605317674729 -218.98280309898962 509.5053125455612 0 509.5053125455612 1499.4499371213446 0 0 0 320.11678350558873 -1073.1853821568252 334.99405202766764 0 334.99405202766764 1413.1683130939787 0 0 0 84.995732734288367 490.06586534914709 82.974115281025888 0 82.974115281025888 -1158.1626813890916 0 0 0 -167.02420400998608 
</DataArray>
<DataArray type="Float64" Name="displacement_divergence" format="ascii">
-2.8129500036365739e-05 -1.6919173275281186e-05 -4.5760719830099956e-06 -1.3783166194185619e-05 -2.9280564291023543e-05 -1.7755580816813836e-05 -2.8484395825304432e-05 -3.7959264558254454e-05 -6.3281332277382807e-05 -0.00010314718512921626 -5.6977271518562449e-05 -4.5846726762247315e-05 -3.1912222844946362e-05 -5.5400601893517969e-05 -1.2506393600043529e-05 -1.994035658518129e-05 -5.5869047135839872e-05 -9.3712862490433565e-05 1.7754484511972135e-06 -2.642341953953046e-05 1.9269425876934461e-05 4.04566476162796e-05 1.973923769084837e-05 1.5222687028114826e-05 4.1006513294186825e-05 8.0029195876397166e-06 2.1248933183572093e-06 -4.1756051002496525e-06 
</DataArray>
</CellData>
</Piece>
</UnstructuredGrid>
</VTKFile>
