<?xml version="1.0"?>
<VTKFile type="UnstructuredGrid" version="0.1" byte_order="LittleEndian">
<UnstructuredGrid>
<Piece NumberOfPoints="84" NumberOfCells="28">
<Points>
<DataArray type="Float64" NumberOfComponents="3" format="ascii">
0 0 0 0.29166666666652658 0.2916666666668038 0 0 0.33333333333472032 0 0 0 0 0.33333333333250248 0 0 0.29166666666652658 0.2916666666668038 0 0.49999999999981742 0.1726190476194705 0 0.33333333333250248 0 0 0.66666666666578889 0 0 0.49999999999981742 0.1726190476194705 0 0.33333333333250248 0 0 0.29166666666652658 0.2916666666668038 0 0.29166666666652658 0.2916666666668038 0 0.17261904761971569 0.50000000000021494 0 0.50000000000004996 0.49999999999997519 0 0.49999999999981742 0.1726190476194705 0 0.29166666666652658 0.2916666666668038 0 0.50000000000004996 0.49999999999997519 0 0.29166666666652658 0.2916666666668038 0 0 0.33333333333472032 0 0.17261904761971569 0.50000000000021494 0 0 0.33333333333472032 0 0.17261904761971569 0.50000000000021494 0 0 0.66666666666759111 0 0.17261904761971569 0.50000000000021494 0 0 0.66666666666759111 0 0.29166666666684449 0.7083333333334445 0 0 1 0 0.33333333333472032 1 0 0.29166666666684449 0.7083333333334445 0 0 0.66666666666759111 0 0 1 0 0.29166666666684449 0.7083333333334445 0 0.33333333333472032 1 0 0.29166666666684449 0.7083333333334445 0 0.50000000000021227 0.82738095238030207 0 0.17261904761971569 0.50000000000021494 0 0.29166666666684449 0.7083333333334445 0 0.50000000000004996 0.49999999999997519 0 0.29166666666684449 0.7083333333334445 0 0.50000000000021227 0.82738095238030207 0 0.50000000000004996 0.49999999999997519 0 0.70833333333346027 0.70833333333323512 0 0.82738095238054699 0.49999999999982031 0 0.50000000000004996 0.49999999999997519 0 0.70833333333346027 0.70833333333323512 0 0.50000000000021227 0.82738095238030207 0 0.50000000000004996 0.49999999999997519 0 0.70833333333346027 0.70833333333323512 0 0.66666666666759111 1 0 0.50000000000021227 0.82738095238030207 0 0.33333333333472032 1 0 0.66666666666759111 1 0 0.50000000000021227 0.82738095238030207 0 0.70833333333346027 0.70833333333323512 0 1 1 0 1 0.66666666666578889 0 0.70833333333346027 0.70833333333323512 0 0.66666666666759111 1 0 1 1 0 0.70833333333346027 0.70833333333323512 0 1 0.66666666666578889 0 0.82738095238054699 0.49999999999982031 0 1 0.66666666666578889 0 1 0.33333333333250248 0 0.82738095238054699 0.49999999999982031 0 1 0.33333333333250248 0 0.82738095238054699 0.49999999999982031 0 0.70833333333327586 0.2916666666665107 0 1 0 0 0.66666666666578889 0 0 0.70833333333327586 0.2916666666665107 0 1 0.33333333333250248 0 1 0 0 0.70833333333327586 0.2916666666665107 0 0.49999999999981742 0.1726190476194705 0 0.66666666666578889 0 0 0.70833333333327586 0.2916666666665107 0 0.82738095238054699 0.49999999999982031 0 0.50000000000004996 0.49999999999997519 0 0.70833333333327586 0.2916666666665107 0 0.49999999999981742 0.1726190476194705 0 0.50000000000004996 0.49999999999997519 0 0.70833333333327586 0.2916666666665107 0 
</DataArray>
</Points>
<Cells>
<DataArray type="UInt32" Name="connectivity" format="ascii">
0 1 2 3 4 5 6 7 8 9 10 11 12 13 14 15 16 17 18 19 20 21 22 23 24 25 26 27 28 29 30 31 32 33 34 35 36 37 38 39 40 41 42 43 44 45 46 47 48 49 50 51 52 53 54 55 56 57 58 59 60 61 62 63 64 65 66 67 68 69 70 71 72 73 74 75 76 77 78 79 80 81 82 83 
</DataArray>
<DataArray type="UInt32" Name="offsets" format="ascii">
3 6 9 12 15 18 21 24 27 30 33 36 39 42 45 48 51 54 57 60 63 66 69 72 75 78 81 84 
</DataArray>
<DataArray type="UInt32" Name="types" format="ascii">
5 5 5 5 5 5 5 5 5 5 5 5 5 5 5 5 5 5 5 5 5 5 5 5 5 5 5 5 
</DataArray>
</Cells>
<PointData Scalars="" Vectors="displacement," Tensors="">
<DataArray type="Float64" Name="displacement" NumberOfComponents="3" format="ascii">
4.1105267899915026e-09 -1.357099628611532e-08 0 1.3307390797640968e-06 -8.5475778678927088e-06 0 -6.0902526225097539e-09 -1.0915333662652622e-05 0 4.1105267899915026e-09 -1.357099628611532e-08 0 4.1269806594192863e-06 -5.4477363446089551e-09 0 1.3307390797640968e-06 -8.5475778678927088e-06 0 4.9884875133103458e-06 -1.9037953521827043e-06 0 4.1269806594192863e-06 -5.4477363446089551e-09 0 6.2733309016698979e-06 -2.1276938930108885e-09 0 4.9884875133103458e-06 -1.9037953521827043e-06 0 4.1269806594192863e-06 -5.4477363446089551e-09 0 1.3307390797640968e-06 -8.5475778678927088e-06 0 1.3307390797640968e-06 -8.5475778678927088e-06 0 -3.7276172305364892e-06 -1.5195529676800228e-05 0 -8.1434451192425425e-06 -5.9585258368846953e-06 0 4.9884875133103458e-06 -1.9037953521827043e-06 0 1.3307390797640968e-06 -8.5475778678927088e-06 0 -8.1434451192425425e-06 -5.9585258368846953e-06 0 1.3307390797640968e-06 -8.5475778678927088e-06 0 -6.0902526225097539e-09 -1.0915333662652622e-05 0 -3.7276172305364892e-06 -1.5195529676800228e-05 0 -6.0902526225097539e-09 -1.0915333662652622e-05 0 -3.7276172305364892e-06 -1.5195529676800228e-05 0 -9.1724019149222407e-09 -1.6384246770874545e-05 0 -3.7276172305364892e-06 -1.5195529676800228e-05 0 -9.1724019149222407e-09 -1.6384246770874545e-05 0 -1.8921860565061852e-05 -1.5674153628180519e-05 0 -5.6918551048550268e-08 -1.3768641916320425e-05 0 -4.4280800838025597e-05 -6.1049125537261434e-06 0 -1.8921860565061852e-05 -1.5674153628180519e-05 0 -9.1724019149222407e-09 -1.6384246770874545e-05 0 -5.6918551048550268e-08 -1.3768641916320425e-05 0 -1.8921860565061852e-05 -1.5674153628180519e-05 0 -4.4280800838025597e-05 -6.1049125537261434e-06 0 -1.8921860565061852e-05 -1.5674153628180519e-05 0 -4.3456273972523384e-05 -5.7184802989674258e-06 0 -3.7276172305364892e-06 -1.5195529676800228e-05 0 -1.8921860565061852e-05 -1.5674153628180519e-05 0 -8.1434451192425425e-06 -5.9585258368846953e-06 0 -1.8921860565061852e-05 -1.5674153628180519e-05 0 -4.3456273972523384e-05 -5.7184802989674258e-06 0 -8.1434451192425425e-06 -5.9585258368846953e-06 0 -3.4920108860680823e-05 9.2827459284306856e-06 0 -1.2880476971949103e-05 1.7344706325133854e-05 0 -8.1434451192425425e-06 -5.9585258368846953e-06 0 -3.4920108860680823e-05 9.2827459284306856e-06 0 -4.3456273972523384e-05 -5.7184802989674258e-06 0 -8.1434451192425425e-06 -5.9585258368846953e-06 0 -3.4920108860680823e-05 9.2827459284306856e-06 0 -9.2530942787922259e-05 1.2290439175039259e-05 0 -4.3456273972523384e-05 -5.7184802989674258e-06 0 -4.4280800838025597e-05 -6.1049125537261434e-06 0 -9.2530942787922259e-05 1.2290439175039259e-05 0 -4.3456273972523384e-05 -5.7184802989674258e-06 0 -3.4920108860680823e-05 9.2827459284306856e-06 0 -0.00011135755856078954 5.8400993890313491e-05 0 -3.5318609400208921e-05 4.6485725026188466e-05 0 -3.4920108860680823e-05 9.2827459284306856e-06 0 -9.2530942787922259e-05 1.2290439175039259e-05 0 -0.00011135755856078954 5.8400993890313491e-05 0 -3.4920108860680823e-05 9.2827459284306856e-06 0 -3.5318609400208921e-05 4.6485725026188466e-05 0 -1.2880476971949103e-05 1.7344706325133854e-05 0 -3.5318609400208921e-05 4.6485725026188466e-05 0 -4.3771814622685561e-06 1.9540462124036492e-05 0 -1.2880476971949103e-05 1.7344706325133854e-05 0 -4.3771814622685561e-06 1.9540462124036492e-05 0 -1.2880476971949103e-05 1.7344706325133854e-05 0 1.9258087338226109e-06 5.4108492624960489e-06 0 5.1708788357990404e-06 2.7055190094630128e-08 0 6.2733309016698979e-06 -2.1276938930108885e-09 0 1.9258087338226109e-06 5.4108492624960489e-06 0 -4.3771814622685561e-06 1.9540462124036492e-05 0 5.1708788357990404e-06 2.7055190094630128e-08 0 1.9258087338226109e-06 5.4108492624960489e-06 0 4.9884875133103458e-06 -1.9037953521827043e-06 0 6.2733309016698979e-06 -2.1276938930108885e-09 0 1.9258087338226109e-06 5.4108492624960489e-06 0 -1.2880476971949103e-05 1.7344706325133854e-05 0 -8.1434451192425425e-06 -5.9585258368846953e-06 0 1.9258087338226109e-06 5.4108492624960489e-06 0 4.9884875133103458e-06 -1.9037953521827043e-06 0 -8.1434451192425425e-06 -5.9585258368846953e-06 0 1.9258087338226109e-06 5.4108492624960489e-06 0 
</DataArray>
</PointData>
<CellData Scalars="displacement_divergence," Vectors="" Tensors="stress,">
<DataArray type="Float64" Name="stress" NumberOfComponents="9" format="ascii">
-758.72634900329786 136.60934118081923 0 136.60934118081923 -3741.4728362238661 0 0 0 -1125.0497963067912 312.88037130890962 -311.83199460121796 0 -311.83199460121796 -3019.31421340726 0 0 0 -676.60846052458771 332.40845545039286 -48.650241658901962 0 -48.650241658901962 -1063.2708662096979 0 0 0 -182.71560268982626 501.10484461861154 351.7377040457211 0 351.7377040457211 -2705.4907278192472 0 0 0 -551.09647080015884 -2250.0975744290881 -150.91556227275203 0 -150.91556227275203 -2434.0216815109379 0 0 0 -1171.029813985007 -1139.0942256249832 -611.97107247673875 0 -611.97107247673875 -1700.8029895003724 0 0 0 -709.9743037813389 -1042.1458148728325 -788.42488492621806 0 -788.42488492621806 -3514.8929526003994 0 0 0 -1139.2596918683078 -3242.3011526285154 -358.55500176025453 0 -358.55500176025453 -2830.8192455096164 0 0 0 -1518.2800995345331 -7272.1390232674839 -1442.3916052317409 0 -1442.3916052317409 -2852.4701516080522 0 0 0 -2531.1522937188838 -14739.62277925333 -1800.0263032758401 0 -1800.0263032758401 -1763.9413424386585 0 0 0 -4125.8910304229958 -7464.8921740443684 46.81572416749168 0 46.81572416749168 -1651.303837888483 0 0 0 -2279.0490029832126 -7764.4314889899561 -1789.3497346313081 0 -1789.3497346313081 429.6265445949175 0 0 0 -1833.7012360987587 -2355.408252883145 -1480.3957221033804 0 -1480.3957221033804 -2749.9537168653219 0 0 0 -1276.3404924371164 -6706.06040628544 -2419.8558982460913 0 -2419.8558982460913 -2157.1422680463957 0 0 0 -2215.8006685829587 -1657.2445897884295 -1715.1089987332593 0 -1715.1089987332593 -341.50045295058908 0 0 0 -499.68626068475476 -2450.2722114691378 -1417.5906557733481 0 -1417.5906557733481 -738.54620310895461 0 0 0 -797.20460364452435 -8497.3052456622481 -4955.3582148004689 0 -4955.3582148004689 -439.9404646218527 0 0 0 -2234.311427571025 -15328.273272466204 -3573.9818437960639 0 -3573.9818437960639 335.3164545664572 0 0 0 -3748.2392044749377 -2644.6967723233988 -3818.2892995911279 0 -3818.2892995911279 2931.3204457355059 0 0 0 71.655918353026209 -5574.6313807533443 -2690.3897859859599 0 -2690.3897859859599 1349.6569997426936 0 0 0 -1056.243595252663 -664.11222958571079 673.1032418404277 0 673.1032418404277 3749.7413351863179 0 0 0 771.40727640015075 -1610.1255600244669 -82.227824278346816 0 -82.227824278346816 8085.7756086816889 0 0 0 1618.9125121643049 -207.85165625111665 -804.04797842951325 0 -804.04797842951325 3368.7021209271397 0 0 0 790.21261616900586 344.96810372435033 -573.83048723989214 0 -573.83048723989214 2093.2582944062874 0 0 0 609.55659953265945 239.4216810099405 457.49269494841587 0 457.49269494841587 6324.0974458802721 0 0 0 1640.8797817225532 -218.0726158719126 509.58302964928492 0 509.58302964928492 1500.3060338007763 0 0 0 320.5583544822158 -1072.02623766287 335.15537073522603 0 335.15537073522603 1414.1546034183352 0 0 0 85.532091438866019 491.02566063632776 83.022270932761899 0 83.022270932761899 -1157.4296940812512 0 0 0 -166.6010083612309 
</DataArray>
<DataArray type="Float64" Name="displacement_divergence" format="ascii">
-2.8126244907669778e-05 -1.6915211513114698e-05 -4.5678900672456569e-06 -1.3777411770003972e-05 -2.9275745349625166e-05 -1.7749357594533475e-05 -2.8481492296707699e-05 -3.7957002488363332e-05 -6.3278807342972098e-05 -0.00010314727576057489 -5.6976225074580316e-05 -4.5842530902468993e-05 -3.1908512310927906e-05 -5.5395016714573973e-05 -1.2492156517118873e-05 -1.993011509111312e-05 -5.5857785689275641e-05 -9.3705980111873414e-05 1.79139795882568e-06 -2.6406089881316498e-05 1.9285181910003773e-05 4.0472812804107624e-05 1.975531540422514e-05 1.5238914988316487e-05 4.1021994543063829e-05 8.013958862055395e-06 2.1383022859716502e-06 -4.1650252090307729e-06 
</DataArray>
</CellData>
</Piece>
</UnstructuredGrid>
</VTKFile>
