<?xml version="1.0"?>
<VTKFile type="UnstructuredGrid" version="0.1" byte_order="LittleEndian">
<UnstructuredGrid>
<Piece NumberOfPoints="3142" NumberOfCells="1054">
<Points>
<DataArray type="Float64" NumberOfComponents="3" format="ascii">
0.5 0.29999999999999999 0 0.54999999999999993 0.29999999999999999 0 0.54999999999999993 0.29999999999999999 0 0.59999999999999976 0.29999999999999999 0 0.59999999999999976 0.29999999999999999 0 0.6499999999999998 0.29999999999999999 0 0.6499999999999998 0.29999999999999999 0 0.69999999999999984 0.29999999999999999 0 0.69999999999999984 0.29999999999999999 0 0.74999999999999989 0.29999999999999999 0 0.74999999999999989 0.29999999999999999 0 0.79999999999999982 0.29999999999999999 0 0.79999999999999982 0.29999999999999999 0 0.84999999999999987 0.29999999999999999 0 0.84999999999999987 0.29999999999999999 0 0.89999999999999991 0.29999999999999999 0 0.89999999999999991 0.29999999999999999 0 0.94999999999999996 0.29999999999999999 0 0.94999999999999996 0.29999999999999999 0 1 0.29999999999999999 0 0.5 0.69999999999999996 0 0.54999999999999993 0.69999999999999996 0 0.54999999999999993 0.69999999999999996 0 0.59999999999999976 0.69999999999999996 0 0.59999999999999976 0.69999999999999996 0 0.6499999999999998 0.69999999999999996 0 0.6499999999999998 0.69999999999999996 0 0.69999999999999984 0.69999999999999996 0 0.69999999999999984 0.69999999999999996 0 0.74999999999999989 0.69999999999999996 0 0.74999999999999989 0.69999999999999996 0 0.79999999999999982 0.69999999999999996 0 0.79999999999999982 0.69999999999999996 0 0.84999999999999987 0.69999999999999996 0 0.84999999999999987 0.69999999999999996 0 0.89999999999999991 0.69999999999999996 0 0.89999999999999991 0.69999999999999996 0 0.94999999999999996 0.69999999999999996 0 0.94999999999999996 0.69999999999999996 0 1 0.69999999999999996 0 0.40076539126862748 0.34589349467022118 0 0.33277555741076909 0.36432196682010132 0 0.36575549820117997 0.31677992835137742 0 0.38083244760691543 0.38531983672244652 0 0.33277555741076909 0.36432196682010132 0 0.40076539126862748 0.34589349467022118 0 0.56836770495988642 0.3523062350852913 0 0.52289427570932567 0.3932284363388488 0 0.52752007115234678 0.33170632466418198 0 0.52752007115234678 0.33170632466418198 0 0.52289427570932567 0.3932284363388488 0 0.49077833859261139 0.35229981449445641 0 0.10000000000041601 1 0 0.053064897599294662 0.95186845269532028 0 0.10266856499240549 0.95548163909968886 0 0.099999999999814668 0 0 0.10266856499169109 0.044518360900210059 0 0.053064897599215843 0.048131547304697528 0 0.050000000000207989 1 0 0.053064897599294662 0.95186845269532028 0 0.10000000000041601 1 0 0.049999999999899652 0 0 0.099999999999814668 0 0 0.053064897599215843 0.048131547304697528 0 0.24999999999941211 0 0 0.29999999999926641 0 0 0.27499999999933927 0.060310814194988557 0 0.30000000000124832 1 0 0.25000000000104028 1 0 0.27609987656793722 0.94991445621608572 0 0.15720202157091859 0.60665697304410315 0 0.19914261668318661 0.62286739485272158 0 0.16500388252850301 0.66612077714085194 0 0.2236846579037573 0.67380363126050236 0 0.16500388252850301 0.66612077714085194 0 0.19914261668318661 0.62286739485272158 0 0.1247745017231483 0.27198077544791172 0 0.168349569971391 0.28054490850913671 0 0.14223753364722069 0.3341983344262433 0 0 0.75000000000034661 0 0 0.7000000000006934 0 0.049706944316475897 0.72477277076253799 0 0 0.30000000000124832 0 0 0.25000000000104028 0 0.049706944316556423 0.27522722923869108 0 0.59999999999999976 0.29999999999999999 0 0.61959173890754571 0.33832250091341232 0 0.56836770495988642 0.3523062350852913 0 0.5 0.69999999999999996 0 0.43323420005758778 0.6913544522562407 0 0.47913475093885149 0.66010775372412711 0 1 0.14999999999961891 0 0.95391631417672862 0.19584263333809451 0 0.93677536231883773 0.14999999999999089 0 1 0.84999999999982645 0 0.95391631417670719 0.89584263333814784 0 0.93677536231884972 0.85000000000000286 0 1 0.84999999999982645 0 0.93677536231884972 0.85000000000000286 0 0.95386563387742829 0.80414874155775029 0 1 0.14999999999961891 0 0.93677536231883773 0.14999999999999089 0 0.95386563387744361 0.1041487415577465 0 0.90416666666660628 0.9041666666666166 0 0.88088768115933802 0.84674609810493673 0 0.93677536231884972 0.85000000000000286 0 0.90416666666668166 0.20416666666667119 0 0.88088768115941807 0.14674609810479519 0 0.93677536231883773 0.14999999999999089 0 0.1247745017231483 0.27198077544791172 0 0.14223753364722069 0.3341983344262433 0 0.093851963071650835 0.30582068233324772 0 0.5 0.69999999999999996 0 0.45582236402875981 0.73896743678908217 0 0.43323420005758778 0.6913544522562407 0 0.55000000000173355 1 0 0.50000000000205869 1 0 0.52122150208832174 0.94089974453840242 0 0.49999999999869432 0 0 0.5499999999988151 0 0 0.52375890611712683 0.059318771819432882 0 0.54999999999999993 0.29999999999999999 0 0.59999999999999976 0.29999999999999999 0 0.56836770495988642 0.3523062350852913 0 0.50202631463681879 0.87892870825713787 0 0.44003836461056539 0.88093474584252718 0 0.45677673713123867 0.84253684404072415 0 0.33403534827021109 0.84402799729020661 0 0.35864759629805099 0.87963482415279515 0 0.30864387279288652 0.89906554525974958 0 0.53245488764484505 0.55078124999999989 0 0.47793794143994173 0.52940715638744962 0 0.53330375813596242 0.50827942741749099 0 0.82709327591102189 0.14937141670914489 0 0.81283102246527783 0.1881007222486438 0 0.77144070960558853 0.14311854477243749 0 0.82709327591091286 0.84937141670920724 0 0.81159157511211755 0.88795995483179491 0 0.76901770135486491 0.84293557325473656 0 0.77144070960558853 0.14311854477243749 0 0.81283102246527783 0.1881007222486438 0 0.76587607630038135 0.18880039518954719 0 0.76901770135486491 0.84293557325473656 0 0.81159157511211755 0.88795995483179491 0 0.76891166905518427 0.88835469571185499 0 0.33403534827021109 0.84402799729020661 0 0.30864387279288652 0.89906554525974958 0 0.29209212897034281 0.84715728365233667 0 0.57412547362576272 0.58273804879550706 0 0.5166924242153631 0.59825134841919447 0 0.53245488764484505 0.55078124999999989 0 0.50202631463681879 0.87892870825713787 0 0.47401147028110507 0.91529957330468115 0 0.44003836461056539 0.88093474584252718 0 0.5 0.69999999999999996 0 0.54999999999999993 0.69999999999999996 0 0.55363780716230748 0.74348740161571747 0 1 0.34999999999993492 0 0.95871855522754235 0.40006508612975411 0 0.95780851984364423 0.34215720972155339 0 1 0.64999999999986979 0 0.9578014258160763 0.65787212321113708 0 0.95867599106212187 0.60011091146651041 0 0.46666084890304671 0.57634471035397938 0 0.47793794143994173 0.52940715638744962 0 0.53245488764484505 0.55078124999999989 0 0.94999999999999996 0.29999999999999999 0 0.89898474358614167 0.25391965591104898 0 0.94399509803921056 0.24399509803922639 0 0.94999999999979179 1 0 0.89898474358632463 0.95391965591118966 0 0.94399509803919068 0.9439950980391687 0 0 0.65000000000104008 0 0.050069554451969707 0.61308520079857043 0 0.046634677244967337 0.671418230738282 0 0 0.35000000000145642 0 0.046389130980076937 0.32668781832131749 0 0.050583896093752537 0.38543522283434112 0 0.50202631463681879 0.87892870825713787 0 0.50627822638148745 0.8263979829520941 0 0.55899371797446828 0.85003102233514438 0 0.54782696902220018 0.79245182748204157 0 0.55899371797446828 0.85003102233514438 0 0.50627822638148745 0.8263979829520941 0 0.50945740445113552 0.75476055527778108 0 0.5 0.69999999999999996 0 0.55363780716230748 0.74348740161571747 0 0.84999999999965292 1 0 0.85170973911348691 0.93569607295217616 0 0.89898474358632463 0.95391965591118966 0 0.84999999999999987 0.29999999999999999 0 0.8517097391133297 0.2356960729520409 0 0.89898474358614167 0.25391965591104898 0 0.86956835336234861 0.571283299838105 0 0.82862096804812391 0.55037090955459045 0 0.86907294890112186 0.52008116128001669 0 0.49102375406324739 0.49123754822244059 0 0.53330375813596242 0.50827942741749099 0 0.47793794143994173 0.52940715638744962 0 0.57611405284611883 0.50165903596042916 0 0.61547661924074692 0.48539576058873962 0 0.62042975506801734 0.54295974692364424 0 0.71406021706547751 0.63292083137662503 0 0.67529834988829951 0.61613270668143583 0 0.71809016091162536 0.58185040402320831 0 0.65000000000104008 1 0 0.62065498684670595 0.95224934003983619 0 0.68015064798562208 0.95924320340003011 0 0.84999999999960507 0 0 0.899991664607802 0.045289349238254978 0 0.85491058998398861 0.060047533455626502 0 0.84999999999999987 0.69999999999999996 0 0.89999166460796554 0.74528934923809909 0 0.85491058998424563 0.76004753345552634 0 0.89999999999999991 0.29999999999999999 0 0.89898474358614167 0.25391965591104898 0 0.94999999999999996 0.29999999999999999 0 0.94999999999979179 1 0 0.89999999999958358 1 0 0.89898474358632463 0.95391965591118966 0 0.86411095495256451 0.42388805655111889 0 0.81308179852519835 0.39754945808726527 0 0.86844634540301924 0.38530937474099819 0 0.5 0.29999999999999999 0 0.49695729691142171 0.25014895411178018 0 0.54248833945060504 0.2520322959927106 0 0.86411095495256451 0.42388805655111889 0 0.81973119833356312 0.43505687159469048 0 0.81308179852519835 0.39754945808726527 0 0.67323294229744413 0.57556450033612505 0 0.71809016091162536 0.58185040402320831 0 0.67529834988829951 0.61613270668143583 0 0.6236733212988993 0.14864538214901801 0 0.68391457121233579 0.14440470121196541 0 0.64011864159029941 0.18789607982138171 0 0 0.050000000000207989 0 0.053064897599215843 0.048131547304697528 0 0.044310582753132287 0.101412518374475 0 0 0.94999999999979179 0 0.0443105827531413 0.89858748162559932 0 0.053064897599294662 0.95186845269532028 0 1 0.34999999999993492 0 1 0.39999999999978308 0 0.95871855522754235 0.40006508612975411 0 1 0.59999999999973963 0 1 0.64999999999986979 0 0.95867599106212187 0.60011091146651041 0 0 0.84999999999965292 0 0.065374659239661639 0.8551091961254178 0 0.0443105827531413 0.89858748162559932 0 0 0.15000000000062411 0 0.044310582753132287 0.101412518374475 0 0.065374659239632718 0.1448908038746782 0 0.16500388252850301 0.66612077714085194 0 0.1020579365089687 0.69352219419301997 0 0.1241190223511371 0.64391885572885044 0 0.14999999999970359 0 0 0.14618258501891079 0.062070108745602003 0 0.10266856499169109 0.044518360900210059 0 0.15000000000062411 1 0 0.10266856499240549 0.95548163909968886 0 0.14617343800780541 0.93808063414349496 0 0.7152569930854884 0.5237994455134295 0 0.67569444444444449 0.53500863336860327 0 0.69385896817107129 0.48377516041410151 0 0.6541250972820879 0.49999999999999989 0 0.62042975506801734 0.54295974692364424 0 0.61547661924074692 0.48539576058873962 0 0.94999999999999996 0.69999999999999996 0 0.94399509803918602 0.75600490196082126 0 0.89999166460796554 0.74528934923809909 0 0.94999999999986839 0 0 0.94399509803922566 0.056004901960802607 0 0.899991664607802 0.045289349238254978 0 0.6541250972820879 0.49999999999999989 0 0.69385896817107129 0.48377516041410151 0 0.67569444444444449 0.53500863336860327 0 0.82862096804812391 0.55037090955459045 0 0.81723410853263523 0.59419663659258926 0 0.77151014687832564 0.54436834383023036 0 0.7250000000005199 0.89375000000045834 0 0.66412543161245952 0.88015090885499059 0 0.68697391633157634 0.84450604838764298 0 0 0.94999999999979179 0 0 0.89999999999958358 0 0.0443105827531413 0.89858748162559932 0 0 0.10000000000041601 0 0 0.050000000000207989 0 0.044310582753132287 0.101412518374475 0 0.16500388252850301 0.66612077714085194 0 0.15332765547575641 0.71200081858233666 0 0.1020579365089687 0.69352219419301997 0 0.90299850604011456 0.79563452813489832 0 0.93677536231884972 0.85000000000000286 0 0.88088768115933802 0.84674609810493673 0 0.90299850604006393 0.09563452813493091 0 0.93677536231883773 0.14999999999999089 0 0.88088768115941807 0.14674609810479519 0 0.68391457121233579 0.14440470121196541 0 0.6865991819015953 0.189116534044597 0 0.64011864159029941 0.18789607982138171 0 0.085622222639554768 0.53333248912060549 0 0.1216098864341134 0.50637075089503902 0 0.1154888278694548 0.56733818459978413 0 0.21858834311891909 0.81980263716112767 0 0.22556077506376701 0.77837424984191617 0 0.26104540868854792 0.81401944968719064 0 0.81723410853263523 0.59419663659258926 0 0.77293540622714185 0.59448302402785813 0 0.77151014687832564 0.54436834383023036 0 0.1154888278694548 0.56733818459978413 0 0.1216098864341134 0.50637075089503902 0 0.14934928745814749 0.55042914607228977 0 0.1216098864341134 0.50637075089503902 0 0.068743045408989428 0.48853989837882689 0 0.113541300460994 0.46208784312094731 0 0.078358742472063481 0.43365249433908948 0 0.113541300460994 0.46208784312094731 0 0.068743045408989428 0.48853989837882689 0 0.83573492347052902 0.36590755630746369 0 0.81308179852519835 0.39754945808726527 0 0.78145581580700685 0.34881365920033602 0 0.57611405284611883 0.50165903596042916 0 0.62042975506801734 0.54295974692364424 0 0.57435499076887508 0.54267261987897775 0 0.86956835336234861 0.571283299838105 0 0.81723410853263523 0.59419663659258926 0 0.82862096804812391 0.55037090955459045 0 0.46666084890304671 0.57634471035397938 0 0.53245488764484505 0.55078124999999989 0 0.5166924242153631 0.59825134841919447 0 0.89999999999999991 0.69999999999999996 0 0.94999999999999996 0.69999999999999996 0 0.89999166460796554 0.74528934923809909 0 0.89999999999973679 0 0 0.94999999999986839 0 0 0.899991664607802 0.045289349238254978 0 0.84999999999960507 0 0 0.89999999999973679 0 0 0.899991664607802 0.045289349238254978 0 0.84999999999999987 0.69999999999999996 0 0.89999999999999991 0.69999999999999996 0 0.89999166460796554 0.74528934923809909 0 0.43545892161006339 0.61093128915313821 0 0.4089290844030305 0.58728915500154233 0 0.46666084890304671 0.57634471035397938 0 0.1650278706801647 0.38791388161335733 0 0.1117088112799664 0.38831403004970022 0 0.14223753364722069 0.3341983344262433 0 0.087545339447545459 0.35122518864182262 0 0.14223753364722069 0.3341983344262433 0 0.1117088112799664 0.38831403004970022 0 0.6916490518212759 0.75387992374886192 0 0.72501250972655151 0.74067302935308721 0 0.72500000000000064 0.7952620967744265 0 0.72501250972655151 0.74067302935308721 0 0.75841349681148107 0.75422312624214749 0 0.72500000000000064 0.7952620967744265 0 0.57412547362576272 0.58273804879550706 0 0.53245488764484505 0.55078124999999989 0 0.57435499076887508 0.54267261987897775 0 1 0.54999999999963112 0 0.95867599106212187 0.60011091146651041 0 0.93732437411268477 0.55911392101136159 0 1 0.44999999999963131 0 0.93814194660195893 0.44426664081746747 0 0.95871855522754235 0.40006508612975411 0 0.4089290844030305 0.58728915500154233 0 0.42644501560315817 0.54603747078095544 0 0.46666084890304671 0.57634471035397938 0 0.89999999999958358 1 0 0.84999999999965292 1 0 0.89898474358632463 0.95391965591118966 0 0.84999999999999987 0.29999999999999999 0 0.89898474358614167 0.25391965591104898 0 0.89999999999999991 0.29999999999999999 0 0.29999999999926641 0 0 0.32541448401678508 0.046215317981507749 0 0.27499999999933927 0.060310814194988557 0 0.30000000000124832 1 0 0.27609987656793722 0.94991445621608572 0 0.32544832635163229 0.95485394099568932 0 0.57412547362576272 0.58273804879550706 0 0.62042975506801734 0.54295974692364424 0 0.63065402604362242 0.59661356661633302 0 0.5 0.29999999999999999 0 0.54248833945060504 0.2520322959927106 0 0.54999999999999993 0.29999999999999999 0 0.67323294229744413 0.57556450033612505 0 0.62042975506801734 0.54295974692364424 0 0.67569444444444449 0.53500863336860327 0 0.6541250972820879 0.49999999999999989 0 0.67569444444444449 0.53500863336860327 0 0.62042975506801734 0.54295974692364424 0 1 0.14999999999961891 0 1 0.19999999999974799 0 0.95391631417672862 0.19584263333809451 0 1 0.84999999999982645 0 1 0.8999999999998336 0 0.95391631417670719 0.89584263333814784 0 1 0.7999999999998193 0 1 0.84999999999982645 0 0.95386563387742829 0.80414874155775029 0 1 0.099999999999753911 0 1 0.14999999999961891 0 0.95386563387744361 0.1041487415577465 0 0.4656888918609538 0.78493261229743638 0 0.50627822638148745 0.8263979829520941 0 0.45677673713123867 0.84253684404072415 0 0.6879972333610942 0.43038561374960838 0 0.72622533758026719 0.40265885511101601 0 0.73483647259922602 0.44789725365921768 0 0.67323294229744413 0.57556450033612505 0 0.67569444444444449 0.53500863336860327 0 0.71809016091162536 0.58185040402320831 0 0.7152569930854884 0.5237994455134295 0 0.71809016091162536 0.58185040402320831 0 0.67569444444444449 0.53500863336860327 0 0.65394964615507722 0.22666784374016369 0 0.59814117807200873 0.23398510860739519 0 0.64011864159029941 0.18789607982138171 0 0.55000000000173355 1 0 0.52122150208832174 0.94089974453840242 0 0.57382506491224949 0.9629411906298494 0 0.39801143831225599 0.16651381068160659 0 0.44288491854585582 0.14116182884956319 0 0.42905200079338551 0.19982395548231649 0 0.47357141910802508 0.1873585799078378 0 0.42905200079338551 0.19982395548231649 0 0.44288491854585582 0.14116182884956319 0 0.90594285160987287 0.4141265964174129 0 0.88594198078881503 0.46167788676578442 0 0.86411095495256451 0.42388805655111889 0 0.65507451745379841 0.92229208810758578 0 0.68015064798562208 0.95924320340003011 0 0.62065498684670595 0.95224934003983619 0 0.35312867752657662 0.084946736076730367 0 0.39591832466117061 0.056982757562006353 0 0.39823268594401579 0.1116623613130045 0 0.43698630808430822 0.080423614171545449 0 0.39823268594401579 0.1116623613130045 0 0.39591832466117061 0.056982757562006353 0 0.4367309254023824 0.92065556789053882 0 0.39641108128798319 0.94356127926187128 0 0.39767323751400468 0.89584229130535065 0 0.35752321586431363 0.9185439911803448 0 0.39767323751400468 0.89584229130535065 0 0.39641108128798319 0.94356127926187128 0 0.77354604466818633 0.40378688774472771 0 0.77972660463949339 0.45529290596363098 0 0.73483647259922602 0.44789725365921768 0 0.5499999999988151 0 0 0.57396793757665954 0.037011367187645222 0 0.52375890611712683 0.059318771819432882 0 0.64753070846764316 0.77332939069435502 0 0.60294066490120068 0.80851322453934582 0 0.59636844454254345 0.75937156204589151 0 0.49102375406324739 0.49123754822244059 0 0.48858720058566618 0.43964267759203868 0 0.53823865529665704 0.45873898050322898 0 0.28307294598219601 0.50789252727458634 0 0.29110487519241501 0.56588143995431495 0 0.25115337790845271 0.54719303014923271 0 0.79680861578988083 0.92656778056766709 0 0.81159157511211755 0.88795995483179491 0 0.85170973911348691 0.93569607295217616 0 0.79680861578956375 0.22656778056752541 0 0.81283102246527783 0.1881007222486438 0 0.8517097391133297 0.2356960729520409 0 0.57412547362576272 0.58273804879550706 0 0.57435499076887508 0.54267261987897775 0 0.62042975506801734 0.54295974692364424 0 0.93814194660195893 0.44426664081746747 0 0.88594198078881503 0.46167788676578442 0 0.90594285160987287 0.4141265964174129 0 0.7152569930854884 0.5237994455134295 0 0.73947346780852752 0.49062440112282169 0 0.77151014687832564 0.54436834383023036 0 0 0.7000000000006934 0 0.046634677244967337 0.671418230738282 0 0.049706944316475897 0.72477277076253799 0 0 0.30000000000124832 0 0.049706944316556423 0.27522722923869108 0 0.046389130980076937 0.32668781832131749 0 0.59814117807200873 0.23398510860739519 0 0.59443395090188023 0.18455690917515069 0 0.64011864159029941 0.18789607982138171 0 0.21858834311891909 0.81980263716112767 0 0.26104540868854792 0.81401944968719064 0 0.2401283238295133 0.85648409884788523 0 0.39536230704883951 0.84069429572832477 0 0.45677673713123867 0.84253684404072415 0 0.44003836461056539 0.88093474584252718 0 0.086179601630648681 0.64647209519980475 0 0.050069554451969707 0.61308520079857043 0 0.1024350934457823 0.60772393977513839 0 0.077693244765132896 0.56932317963405099 0 0.1024350934457823 0.60772393977513839 0 0.050069554451969707 0.61308520079857043 0 0.078358742472063481 0.43365249433908948 0 0.050583896093752537 0.38543522283434112 0 0.1117088112799664 0.38831403004970022 0 0.087545339447545459 0.35122518864182262 0 0.1117088112799664 0.38831403004970022 0 0.050583896093752537 0.38543522283434112 0 0.33403534827021109 0.84402799729020661 0 0.35642984951668422 0.80994399665655703 0 0.39536230704883951 0.84069429572832477 0 0.28307294598219601 0.50789252727458634 0 0.33190227185843768 0.52715113583864037 0 0.29110487519241501 0.56588143995431495 0 0.2236846579037573 0.67380363126050236 0 0.19068556247388771 0.71028988922845504 0 0.16500388252850301 0.66612077714085194 0 0.26104540868854792 0.81401944968719064 0 0.22556077506376701 0.77837424984191617 0 0.2792923945214143 0.77665808831789485 0 0.38244435121258652 0.51653317813019495 0 0.37272913873093971 0.56192925302619479 0 0.33190227185843768 0.52715113583864037 0 0.25195515620380449 0.25883339815888678 0 0.29132859388405002 0.27203693976649962 0 0.24432083401701241 0.3006253385567515 0 0.29348325746214782 0.31350119524708198 0 0.24432083401701241 0.3006253385567515 0 0.29132859388405002 0.27203693976649962 0 0 0.89999999999958358 0 0 0.84999999999965292 0 0.0443105827531413 0.89858748162559932 0 0 0.15000000000062411 0 0 0.10000000000041601 0 0.044310582753132287 0.101412518374475 0 0.59999999999999976 0.69999999999999996 0 0.59636844454254345 0.75937156204589151 0 0.55363780716230748 0.74348740161571747 0 0.1650278706801647 0.38791388161335733 0 0.22033343844674469 0.36963382230740238 0 0.191953871957803 0.42546416763755879 0 0.52289427570932567 0.3932284363388488 0 0.46655310992796922 0.39650496622958609 0 0.49077833859261139 0.35229981449445641 0 0.91696753777131557 0.497780560203536 0 0.88594198078881503 0.46167788676578442 0 0.93814194660195893 0.44426664081746747 0 0.24999999999941211 0 0 0.27499999999933927 0.060310814194988557 0 0.22668068146512929 0.045875643423131329 0 0.25000000000104028 1 0 0.22850979588452081 0.95594428570238643 0 0.27609987656793722 0.94991445621608572 0 0.77846603114747959 0.49850927265137401 0 0.77151014687832564 0.54436834383023036 0 0.73947346780852752 0.49062440112282169 0 0.27499999999933927 0.060310814194988557 0 0.27474541102162192 0.11822029332053539 0 0.24218496799700481 0.089025544070598317 0 0.27270076654418179 0.87751467830216623 0 0.29209212897034281 0.84715728365233667 0 0.30864387279288652 0.89906554525974958 0 0.3096713403101819 0.085471541595262421 0 0.27474541102162192 0.11822029332053539 0 0.27499999999933927 0.060310814194988557 0 0.17933913398461551 0.2350063570234002 0 0.18124454140915969 0.18790916706335251 0 0.224700362040408 0.22206622194729711 0 0.18269480424590959 0.75905448272264375 0 0.22556077506376701 0.77837424984191617 0 0.17777405986036951 0.81832336108265358 0 0.35864759629805099 0.87963482415279515 0 0.33403534827021109 0.84402799729020661 0 0.39536230704883951 0.84069429572832477 0 0.77354604466818633 0.40378688774472771 0 0.73483647259922602 0.44789725365921768 0 0.72622533758026719 0.40265885511101601 0 0.80185942888539485 0.77452061303608133 0 0.85491058998424563 0.76004753345552634 0 0.84725310900444062 0.80779732082917555 0 0.80185942888501827 0.074520613036224564 0 0.85491058998398861 0.060047533455626502 0 0.84725310900442086 0.10779732082922661 0 0.086179601630648681 0.64647209519980475 0 0.046634677244967337 0.671418230738282 0 0.050069554451969707 0.61308520079857043 0 0.087545339447545459 0.35122518864182262 0 0.050583896093752537 0.38543522283434112 0 0.046389130980076937 0.32668781832131749 0 0 0.75000000000034661 0 0.049706944316475897 0.72477277076253799 0 0.04408157711937423 0.7728941757575627 0 0 0.25000000000104028 0 0.044081577119474857 0.2271058242433576 0 0.049706944316556423 0.27522722923869108 0 0.52289427570932567 0.3932284363388488 0 0.56836770495988642 0.3523062350852913 0 0.57744073070774993 0.41535148636609359 0 0.6084546825910605 0.37989672713932537 0 0.57744073070774993 0.41535148636609359 0 0.56836770495988642 0.3523062350852913 0 0.61343887413683884 0.856862479058357 0 0.55899371797446828 0.85003102233514438 0 0.60294066490120068 0.80851322453934582 0 0.54782696902220018 0.79245182748204157 0 0.60294066490120068 0.80851322453934582 0 0.55899371797446828 0.85003102233514438 0 0.40326160981139969 0.73346192995102844 0 0.36622285152418499 0.69092437780804039 0 0.43323420005758778 0.6913544522562407 0 0.52289427570932567 0.3932284363388488 0 0.48858720058566618 0.43964267759203868 0 0.46655310992796922 0.39650496622958609 0 0.15720202157091859 0.60665697304410315 0 0.1154888278694548 0.56733818459978413 0 0.14934928745814749 0.55042914607228977 0 0.6879972333610942 0.43038561374960838 0 0.73483647259922602 0.44789725365921768 0 0.69385896817107129 0.48377516041410151 0 0.7250000000005199 0.89375000000045834 0 0.68987011941058407 0.92105047536677087 0 0.66412543161245952 0.88015090885499059 0 0.83573492347052902 0.36590755630746369 0 0.78145581580700685 0.34881365920033602 0 0.82500000000000062 0.33010209762754811 0 0.82862096804812391 0.55037090955459045 0 0.81441713509985358 0.51161854125224959 0 0.86907294890112186 0.52008116128001669 0 0.19670163708476801 0.31472518408333222 0 0.14223753364722069 0.3341983344262433 0 0.168349569971391 0.28054490850913671 0 0.50202631463681879 0.87892870825713787 0 0.45677673713123867 0.84253684404072415 0 0.50627822638148745 0.8263979829520941 0 0.099999999999814668 0 0 0.14999999999970359 0 0 0.10266856499169109 0.044518360900210059 0 0.15000000000062411 1 0 0.10000000000041601 1 0 0.10266856499240549 0.95548163909968886 0 0.67323294229744413 0.57556450033612505 0 0.63065402604362242 0.59661356661633302 0 0.62042975506801734 0.54295974692364424 0 0.083105206071467416 0.20007701332709979 0 0.13737030665753211 0.20313708640667491 0 0.095326043202144745 0.24554465089224409 0 0.083105206071452636 0.79992298667296435 0 0.090953281884486245 0.7564451946902494 0 0.1382744753146134 0.79650574229207483 0 0.50000000000205869 1 0 0.47135117303824892 0.95556877749289892 0 0.52122150208832174 0.94089974453840242 0 0.49999999999869432 0 0 0.52375890611712683 0.059318771819432882 0 0.47040171442036788 0.044141676406503738 0 0.4656888918609538 0.78493261229743638 0 0.45582236402875981 0.73896743678908217 0 0.50945740445113552 0.75476055527778108 0 0.5 0.69999999999999996 0 0.50945740445113552 0.75476055527778108 0 0.45582236402875981 0.73896743678908217 0 0.55306006949600994 0.20198184231352201 0 0.56202748619534593 0.15054058349222879 0 0.59443395090188023 0.18455690917515069 0 0.6236733212988993 0.14864538214901801 0 0.59443395090188023 0.18455690917515069 0 0.56202748619534593 0.15054058349222879 0 0.57412547362576272 0.58273804879550706 0 0.5498280205245758 0.6290146943450976 0 0.5166924242153631 0.59825134841919447 0 0.91696753777131557 0.497780560203536 0 0.93814194660195893 0.44426664081746747 0 0.96228564064454991 0.48206450662049471 0 0.15720202157091859 0.60665697304410315 0 0.16500388252850301 0.66612077714085194 0 0.1241190223511371 0.64391885572885044 0 0.44288491854585582 0.14116182884956319 0 0.47881186583059909 0.093591717165689425 0 0.48466639505193998 0.1421439844745814 0 1 0.54999999999963112 0 0.93732437411268477 0.55911392101136159 0 0.95631871884947484 0.51827533208233789 0 0.57724883562309992 0.92155686857100794 0 0.57382506491224949 0.9629411906298494 0 0.52122150208832174 0.94089974453840242 0 0.85170973911348691 0.93569607295217616 0 0.81159157511211755 0.88795995483179491 0 0.85600844944837662 0.88483418979512773 0 0.8517097391133297 0.2356960729520409 0 0.81283102246527783 0.1881007222486438 0 0.85600844944842547 0.1848341897950983 0 0.27866744612395528 0.38416094670951489 0 0.29124338931648802 0.43334555462578611 0 0.24049127783545701 0.41270748208749802 0 0.6084546825910605 0.37989672713932537 0 0.56836770495988642 0.3523062350852913 0 0.61959173890754571 0.33832250091341232 0 0.20050006573841939 0.53248514016039872 0 0.25115337790845271 0.54719303014923271 0 0.22549374774072969 0.58452645269293457 0 0.26573297623774761 0.59828298563722948 0 0.22549374774072969 0.58452645269293457 0 0.25115337790845271 0.54719303014923271 0 0.26104540868854792 0.81401944968719064 0 0.29209212897034281 0.84715728365233667 0 0.2401283238295133 0.85648409884788523 0 0.6236733212988993 0.14864538214901801 0 0.65290632656860115 0.11434202593454081 0 0.68391457121233579 0.14440470121196541 0 0.19901705110390991 0.9175543425573498 0 0.19741632902693801 0.86755867406447229 0 0.24536017905392571 0.90704567837671446 0 0.72500000000000064 0.7952620967744265 0 0.76901770135486491 0.84293557325473656 0 0.72863726579783861 0.85390518901155588 0 0.72500000000000064 0.7952620967744265 0 0.72863726579783861 0.85390518901155588 0 0.68697391633157634 0.84450604838764298 0 0.7250000000005199 0.89375000000045834 0 0.68697391633157634 0.84450604838764298 0 0.72863726579783861 0.85390518901155588 0 0.72525833953073282 0.1032114801687094 0 0.77144070960558853 0.14311854477243749 0 0.72634814642510737 0.16106886917518889 0 0.72525833953073282 0.1032114801687094 0 0.72634814642510737 0.16106886917518889 0 0.68391457121233579 0.14440470121196541 0 0.36622285152418499 0.69092437780804039 0 0.3977710372045391 0.65868194622830212 0 0.43323420005758778 0.6913544522562407 0 0 0.65000000000104008 0 0 0.60000000000138687 0 0.050069554451969707 0.61308520079857043 0 0 0.40000000000166441 0 0 0.35000000000145642 0 0.050583896093752537 0.38543522283434112 0 0.22033343844674469 0.36963382230740238 0 0.24049127783545701 0.41270748208749802 0 0.191953871957803 0.42546416763755879 0 0.5 0.29999999999999999 0 0.4604742573284204 0.27846934318264788 0 0.49695729691142171 0.25014895411178018 0 0.19741632902693801 0.86755867406447229 0 0.2401283238295133 0.85648409884788523 0 0.24536017905392571 0.90704567837671446 0 0 0.50000000000205869 0 0.068743045408989428 0.48853989837882689 0 0.044576108720083309 0.53509043209532614 0 0.15000000000062411 1 0 0.14617343800780541 0.93808063414349496 0 0.18474005699953849 0.96231585248064622 0 0.14999999999970359 0 0 0.184418230509967 0.038773194583122873 0 0.14618258501891079 0.062070108745602003 0 0.57667858002728545 0.078486105337742612 0 0.52375890611712683 0.059318771819432882 0 0.57396793757665954 0.037011367187645222 0 0.113541300460994 0.46208784312094731 0 0.078358742472063481 0.43365249433908948 0 0.13773355295499351 0.42497777642586831 0 0.77354604466818633 0.40378688774472771 0 0.78145581580700685 0.34881365920033602 0 0.81308179852519835 0.39754945808726527 0 0.38244435121258652 0.51653317813019495 0 0.33190227185843768 0.52715113583864037 0 0.35024835142131061 0.48654922671676981 0 0.64753070846764316 0.77332939069435502 0 0.65005442820240822 0.82644988530054031 0 0.60294066490120068 0.80851322453934582 0 0.15720202157091859 0.60665697304410315 0 0.1024350934457823 0.60772393977513839 0 0.1154888278694548 0.56733818459978413 0 0.90416666666660628 0.9041666666666166 0 0.85600844944837662 0.88483418979512773 0 0.88088768115933802 0.84674609810493673 0 0.90416666666668166 0.20416666666667119 0 0.85600844944842547 0.1848341897950983 0 0.88088768115941807 0.14674609810479519 0 0.078358742472063481 0.43365249433908948 0 0.1117088112799664 0.38831403004970022 0 0.13773355295499351 0.42497777642586831 0 0.38244435121258652 0.51653317813019495 0 0.3908716102680424 0.47010282357248828 0 0.43507373378304309 0.49699695397193322 0 0.90299850604011456 0.79563452813489832 0 0.95386563387742829 0.80414874155775029 0 0.93677536231884972 0.85000000000000286 0 0.90416666666660628 0.9041666666666166 0 0.93677536231884972 0.85000000000000286 0 0.95391631417670719 0.89584263333814784 0 0.90299850604006393 0.09563452813493091 0 0.95386563387744361 0.1041487415577465 0 0.93677536231883773 0.14999999999999089 0 0.90416666666668166 0.20416666666667119 0 0.93677536231883773 0.14999999999999089 0 0.95391631417672862 0.19584263333809451 0 0.39536230704883951 0.84069429572832477 0 0.44003836461056539 0.88093474584252718 0 0.39767323751400468 0.89584229130535065 0 0.51076801031701946 0.1202837388510348 0 0.52375890611712683 0.059318771819432882 0 0.54979595918804436 0.1060565713905809 0 0.57667858002728545 0.078486105337742612 0 0.54979595918804436 0.1060565713905809 0 0.52375890611712683 0.059318771819432882 0 0.57724883562309992 0.92155686857100794 0 0.52122150208832174 0.94089974453840242 0 0.54783390826260769 0.89287767010860219 0 0.50202631463681879 0.87892870825713787 0 0.54783390826260769 0.89287767010860219 0 0.52122150208832174 0.94089974453840242 0 0.087545339447545459 0.35122518864182262 0 0.093851963071650835 0.30582068233324772 0 0.14223753364722069 0.3341983344262433 0 0.54999999999999993 0.69999999999999996 0 0.59999999999999976 0.69999999999999996 0 0.55363780716230748 0.74348740161571747 0 0.083105206071452636 0.79992298667296435 0 0.1074251789111534 0.83564394292147814 0 0.065374659239661639 0.8551091961254178 0 0.083105206071467416 0.20007701332709979 0 0.065374659239632718 0.1448908038746782 0 0.106902708054812 0.16453234188234539 0 0.52289427570932567 0.3932284363388488 0 0.53823865529665704 0.45873898050322898 0 0.48858720058566618 0.43964267759203868 0 0.13737030665753211 0.20313708640667491 0 0.14377654328998779 0.2442024734791064 0 0.095326043202144745 0.24554465089224409 0 0.1382744753146134 0.79650574229207483 0 0.090953281884486245 0.7564451946902494 0 0.14335651144331049 0.75565258250209677 0 0.27270076654418179 0.87751467830216623 0 0.30864387279288652 0.89906554525974958 0 0.24536017905392571 0.90704567837671446 0 0.27609987656793722 0.94991445621608572 0 0.24536017905392571 0.90704567837671446 0 0.30864387279288652 0.89906554525974958 0 0.90299850604011456 0.79563452813489832 0 0.84725310900444062 0.80779732082917555 0 0.85491058998424563 0.76004753345552634 0 0.90299850604006393 0.09563452813493091 0 0.84725310900442086 0.10779732082922661 0 0.85491058998398861 0.060047533455626502 0 1 0.54999999999963112 0 1 0.59999999999973963 0 0.95867599106212187 0.60011091146651041 0 1 0.39999999999978308 0 1 0.44999999999963131 0 0.95871855522754235 0.40006508612975411 0 0.28040350263641872 0.23054717217092141 0 0.25195515620380449 0.25883339815888678 0 0.224700362040408 0.22206622194729711 0 0.84999999999999987 0.29999999999999999 0 0.87430060258887643 0.34056085888204451 0 0.82500000000000062 0.33010209762754811 0 0.84999999999999987 0.69999999999999996 0 0.82457059160610424 0.66831947184359608 0 0.87712158428786946 0.65709029563313581 0 0.86956835336234861 0.571283299838105 0 0.87159648282691515 0.61285406320581504 0 0.81723410853263523 0.59419663659258926 0 0.43698630808430822 0.080423614171545449 0 0.47881186583059909 0.093591717165689425 0 0.44288491854585582 0.14116182884956319 0 1 0.44999999999963131 0 0.96228564064454991 0.48206450662049471 0 0.93814194660195893 0.44426664081746747 0 0.35752321586431363 0.9185439911803448 0 0.30864387279288652 0.89906554525974958 0 0.35864759629805099 0.87963482415279515 0 0.29124338931648802 0.43334555462578611 0 0.25982634974572738 0.46097799597715272 0 0.24049127783545701 0.41270748208749802 0 0.51076801031701946 0.1202837388510348 0 0.56202748619534593 0.15054058349222879 0 0.51729576145820033 0.1683240575987815 0 0.55306006949600994 0.20198184231352201 0 0.51729576145820033 0.1683240575987815 0 0.56202748619534593 0.15054058349222879 0 0.26429849586623999 0.19346700179430079 0 0.28040350263641872 0.23054717217092141 0 0.224700362040408 0.22206622194729711 0 0.51076801031701946 0.1202837388510348 0 0.48466639505193998 0.1421439844745814 0 0.47881186583059909 0.093591717165689425 0 0.2185883431182947 0.18019736283949719 0 0.26429849586623999 0.19346700179430079 0 0.224700362040408 0.22206622194729711 0 0.18269480424590959 0.75905448272264375 0 0.2248999640082178 0.72584299459689172 0 0.22556077506376701 0.77837424984191617 0 0.51076801031701946 0.1202837388510348 0 0.47881186583059909 0.093591717165689425 0 0.52375890611712683 0.059318771819432882 0 0.50202631463681879 0.87892870825713787 0 0.52122150208832174 0.94089974453840242 0 0.47401147028110507 0.91529957330468115 0 0 0.84999999999965292 0 0.038512288486097702 0.8155852717111195 0 0.065374659239661639 0.8551091961254178 0 0 0.15000000000062411 0 0.065374659239632718 0.1448908038746782 0 0.038512288486115001 0.1844147282893184 0 0.2185883431182947 0.18019736283949719 0 0.224700362040408 0.22206622194729711 0 0.18124454140915969 0.18790916706335251 0 0.21858834311891909 0.81980263716112767 0 0.17777405986036951 0.81832336108265358 0 0.22556077506376701 0.77837424984191617 0 0.1215415378367805 0.72939333680004137 0 0.1020579365089687 0.69352219419301997 0 0.15332765547575641 0.71200081858233666 0 0.49695729691142171 0.25014895411178018 0 0.50760557329222289 0.20700468884612061 0 0.54248833945060504 0.2520322959927106 0 0.15720202157091859 0.60665697304410315 0 0.14934928745814749 0.55042914607228977 0 0.18381867841758909 0.57774125163628387 0 0.90416666666660628 0.9041666666666166 0 0.85170973911348691 0.93569607295217616 0 0.85600844944837662 0.88483418979512773 0 0.90416666666668166 0.20416666666667119 0 0.8517097391133297 0.2356960729520409 0 0.85600844944842547 0.1848341897950983 0 0.17933913398461551 0.2350063570234002 0 0.13737030665753211 0.20313708640667491 0 0.18124454140915969 0.18790916706335251 0 0.18269480424590959 0.75905448272264375 0 0.17777405986036951 0.81832336108265358 0 0.1382744753146134 0.79650574229207483 0 0.1216098864341134 0.50637075089503902 0 0.15801167086041079 0.46008690540259539 0 0.16618607197337229 0.50652878253548905 0 0.50760557329222289 0.20700468884612061 0 0.55306006949600994 0.20198184231352201 0 0.54248833945060504 0.2520322959927106 0 0.75000000000034661 1 0 0.7000000000006934 1 0 0.7250000000005199 0.94981617647078953 0 0.69999999999999984 0.29999999999999999 0 0.72500000000000064 0.2498161764706 0 0.74999999999999989 0.29999999999999999 0 0.72525833953073282 0.1032114801687094 0 0.68391457121233579 0.14440470121196541 0 0.68330259535470161 0.10038702501083881 0 0.43249999999999988 0.43937499999999979 0 0.46655310992796922 0.39650496622958609 0 0.48858720058566618 0.43964267759203868 0 0.19901705110390991 0.9175543425573498 0 0.14617343800780541 0.93808063414349496 0 0.16206583317966519 0.89685560785156404 0 0.19922788606653311 0.085920220746880993 0 0.16141998738593399 0.10404039647458049 0 0.14618258501891079 0.062070108745602003 0 0.31378396441836959 0.70157213313026345 0 0.26439878998046262 0.7048065392091396 0 0.27820712747429932 0.65530134213254643 0 0.1216098864341134 0.50637075089503902 0 0.113541300460994 0.46208784312094731 0 0.15801167086041079 0.46008690540259539 0 0.6084546825910605 0.37989672713932537 0 0.65481233915350323 0.35652751921065562 0 0.63912439215427275 0.41063340167983359 0 0.19901705110390991 0.9175543425573498 0 0.18474005699953849 0.96231585248064622 0 0.14617343800780541 0.93808063414349496 0 0.19922788606653311 0.085920220746880993 0 0.14618258501891079 0.062070108745602003 0 0.184418230509967 0.038773194583122873 0 0.38244435121258652 0.51653317813019495 0 0.35024835142131061 0.48654922671676981 0 0.3908716102680424 0.47010282357248828 0 0.82709327591102189 0.14937141670914489 0 0.77144070960558853 0.14311854477243749 0 0.80076557130237269 0.1154587552654202 0 0.82709327591091286 0.84937141670920724 0 0.76901770135486491 0.84293557325473656 0 0.80041942726660109 0.81543261647703358 0 0.43698630808430822 0.080423614171545449 0 0.44288491854585582 0.14116182884956319 0 0.39823268594401579 0.1116623613130045 0 0.39801143831225599 0.16651381068160659 0 0.39823268594401579 0.1116623613130045 0 0.44288491854585582 0.14116182884956319 0 0.36575549820117997 0.31677992835137742 0 0.3786248352540974 0.27082301512024259 0 0.41914690343363781 0.30688979866601612 0 0.42377727103934271 0.25099357235810238 0 0.41914690343363781 0.30688979866601612 0 0.3786248352540974 0.27082301512024259 0 0.049706944316475897 0.72477277076253799 0 0.1020579365089687 0.69352219419301997 0 0.090953281884486245 0.7564451946902494 0 0.1215415378367805 0.72939333680004137 0 0.090953281884486245 0.7564451946902494 0 0.1020579365089687 0.69352219419301997 0 0.1247745017231483 0.27198077544791172 0 0.093851963071650835 0.30582068233324772 0 0.095326043202144745 0.24554465089224409 0 0.049706944316556423 0.27522722923869108 0 0.095326043202144745 0.24554465089224409 0 0.093851963071650835 0.30582068233324772 0 0.77354604466818633 0.40378688774472771 0 0.81973119833356312 0.43505687159469048 0 0.77972660463949339 0.45529290596363098 0 0.43249999999999988 0.43937499999999979 0 0.43507373378304309 0.49699695397193322 0 0.3908716102680424 0.47010282357248828 0 0.26573297623774761 0.59828298563722948 0 0.2459498854893499 0.63248470766216769 0 0.22549374774072969 0.58452645269293457 0 0.72500000000000064 0.7952620967744265 0 0.77094201086366854 0.79647480515688507 0 0.76901770135486491 0.84293557325473656 0 0.72525833953073282 0.1032114801687094 0 0.76878382444651716 0.097147941686331368 0 0.77144070960558853 0.14311854477243749 0 0.72500000000000064 0.7952620967744265 0 0.68697391633157634 0.84450604838764298 0 0.68024162096458085 0.79868546898116533 0 0.31378396441836959 0.70157213313026345 0 0.29904318922293632 0.74132814928635593 0 0.26439878998046262 0.7048065392091396 0 0.31378396441836959 0.70157213313026345 0 0.35415581127540569 0.73730480045900215 0 0.29904318922293632 0.74132814928635593 0 0.61343887413683884 0.856862479058357 0 0.65005442820240822 0.82644988530054031 0 0.66412543161245952 0.88015090885499059 0 0.68697391633157634 0.84450604838764298 0 0.66412543161245952 0.88015090885499059 0 0.65005442820240822 0.82644988530054031 0 0.083411279318375747 0.91030024466934134 0 0.065374659239661639 0.8551091961254178 0 0.10562472963403439 0.87143394428979881 0 0.083411279318303222 0.089699755330707398 0 0.1053400320299198 0.12877248826361379 0 0.065374659239632718 0.1448908038746782 0 0.55306006949600994 0.20198184231352201 0 0.59443395090188023 0.18455690917515069 0 0.59814117807200873 0.23398510860739519 0 0.84999999999999987 0.29999999999999999 0 0.89999999999999991 0.29999999999999999 0 0.87430060258887643 0.34056085888204451 0 0.84999999999999987 0.69999999999999996 0 0.87712158428786946 0.65709029563313581 0 0.89999999999999991 0.69999999999999996 0 0.34258405725730701 0.4444034294386992 0 0.3908716102680424 0.47010282357248828 0 0.35024835142131061 0.48654922671676981 0 0.26573297623774761 0.59828298563722948 0 0.31502927232353312 0.6134992213375432 0 0.27820712747429932 0.65530134213254643 0 0.91696753777131557 0.497780560203536 0 0.86907294890112186 0.52008116128001669 0 0.88594198078881503 0.46167788676578442 0 0.84723782639812573 0.48638347960178252 0 0.88594198078881503 0.46167788676578442 0 0.86907294890112186 0.52008116128001669 0 0.7152569930854884 0.5237994455134295 0 0.77151014687832564 0.54436834383023036 0 0.71809016091162536 0.58185040402320831 0 0.90416666666660628 0.9041666666666166 0 0.89898474358632463 0.95391965591118966 0 0.85170973911348691 0.93569607295217616 0 0.90416666666668166 0.20416666666667119 0 0.89898474358614167 0.25391965591104898 0 0.8517097391133297 0.2356960729520409 0 0.91750694127107502 0.36982372220068471 0 0.95780851984364423 0.34215720972155339 0 0.95871855522754235 0.40006508612975411 0 0.91750694127105259 0.63017627779935648 0 0.95867599106212187 0.60011091146651041 0 0.9578014258160763 0.65787212321113708 0 0.90299850604011456 0.79563452813489832 0 0.88088768115933802 0.84674609810493673 0 0.84725310900444062 0.80779732082917555 0 0.90299850604006393 0.09563452813493091 0 0.88088768115941807 0.14674609810479519 0 0.84725310900442086 0.10779732082922661 0 0.1216098864341134 0.50637075089503902 0 0.16618607197337229 0.50652878253548905 0 0.14934928745814749 0.55042914607228977 0 0.20050006573841939 0.53248514016039872 0 0.14934928745814749 0.55042914607228977 0 0.16618607197337229 0.50652878253548905 0 0.80185942888539485 0.77452061303608133 0 0.84725310900444062 0.80779732082917555 0 0.80041942726660109 0.81543261647703358 0 0.80185942888501827 0.074520613036224564 0 0.84725310900442086 0.10779732082922661 0 0.80076557130237269 0.1154587552654202 0 0.083105206071452636 0.79992298667296435 0 0.065374659239661639 0.8551091961254178 0 0.038512288486097702 0.8155852717111195 0 0.083105206071467416 0.20007701332709979 0 0.038512288486115001 0.1844147282893184 0 0.065374659239632718 0.1448908038746782 0 0.54782696902220018 0.79245182748204157 0 0.59636844454254345 0.75937156204589151 0 0.60294066490120068 0.80851322453934582 0 0.083411279318375747 0.91030024466934134 0 0.0443105827531413 0.89858748162559932 0 0.065374659239661639 0.8551091961254178 0 0.083411279318303222 0.089699755330707398 0 0.065374659239632718 0.1448908038746782 0 0.044310582753132287 0.101412518374475 0 0.84999999999965292 1 0 0.81486180804382891 0.96321394949790495 0 0.85170973911348691 0.93569607295217616 0 0.84999999999999987 0.29999999999999999 0 0.81486180804364938 0.26321394949780091 0 0.8517097391133297 0.2356960729520409 0 0.4656888918609538 0.78493261229743638 0 0.45677673713123867 0.84253684404072415 0 0.42609163930740518 0.80361684430568059 0 0.39536230704883951 0.84069429572832477 0 0.42609163930740518 0.80361684430568059 0 0.45677673713123867 0.84253684404072415 0 0.6236733212988993 0.14864538214901801 0 0.56202748619534593 0.15054058349222879 0 0.58516465772821369 0.11653801664834119 0 0.57412547362576272 0.58273804879550706 0 0.63065402604362242 0.59661356661633302 0 0.5991018319127801 0.62925360607495295 0 0.61343887413683884 0.856862479058357 0 0.5832743223239254 0.88483152652961872 0 0.55899371797446828 0.85003102233514438 0 0.50202631463681879 0.87892870825713787 0 0.55899371797446828 0.85003102233514438 0 0.54783390826260769 0.89287767010860219 0 0.51076801031701946 0.1202837388510348 0 0.54979595918804436 0.1060565713905809 0 0.56202748619534593 0.15054058349222879 0 0.55306006949600994 0.20198184231352201 0 0.59814117807200873 0.23398510860739519 0 0.54248833945060504 0.2520322959927106 0 0.83573492347052902 0.36590755630746369 0 0.82500000000000062 0.33010209762754811 0 0.87430060258887643 0.34056085888204451 0 0.83758014339878906 0.63222013025741819 0 0.87712158428786946 0.65709029563313581 0 0.82457059160610424 0.66831947184359608 0 0.49102375406324739 0.49123754822244059 0 0.53823865529665704 0.45873898050322898 0 0.53330375813596242 0.50827942741749099 0 0.52289427570932567 0.3932284363388488 0 0.57744073070774993 0.41535148636609359 0 0.53823865529665704 0.45873898050322898 0 0.4089290844030305 0.58728915500154233 0 0.37272913873093971 0.56192925302619479 0 0.42644501560315817 0.54603747078095544 0 0.49695729691142171 0.25014895411178018 0 0.4604742573284204 0.27846934318264788 0 0.46429753744194407 0.22870891180733599 0 0.90299850604011456 0.79563452813489832 0 0.85491058998424563 0.76004753345552634 0 0.89999166460796554 0.74528934923809909 0 0.90299850604006393 0.09563452813493091 0 0.85491058998398861 0.060047533455626502 0 0.899991664607802 0.045289349238254978 0 0.38244435121258652 0.51653317813019495 0 0.42644501560315817 0.54603747078095544 0 0.37272913873093971 0.56192925302619479 0 0.71406021706547751 0.63292083137662503 0 0.71809016091162536 0.58185040402320831 0 0.74994237037456724 0.62775548192980357 0 0.84723782639812573 0.48638347960178252 0 0.86907294890112186 0.52008116128001669 0 0.81441713509985358 0.51161854125224959 0 0.33122374654748771 0.57588941099433744 0 0.33190227185843768 0.52715113583864037 0 0.37272913873093971 0.56192925302619479 0 0.086179601630648681 0.64647209519980475 0 0.1241190223511371 0.64391885572885044 0 0.1020579365089687 0.69352219419301997 0 0.59999999999894682 0 0 0.64999999999907843 0 0 0.61940220174112337 0.047251958781050582 0 0.18269480424590959 0.75905448272264375 0 0.14335651144331049 0.75565258250209677 0 0.15332765547575641 0.71200081858233666 0 0.22549374774072969 0.58452645269293457 0 0.2459498854893499 0.63248470766216769 0 0.19914261668318661 0.62286739485272158 0 0.38244435121258652 0.51653317813019495 0 0.43507373378304309 0.49699695397193322 0 0.42644501560315817 0.54603747078095544 0 0.65000000000104008 1 0 0.60000000000138687 1 0 0.62065498684670595 0.95224934003983619 0 0.078358742472063481 0.43365249433908948 0 0.068743045408989428 0.48853989837882689 0 0.033550201249889847 0.46247875832467239 0 0.2236846579037573 0.67380363126050236 0 0.27820712747429932 0.65530134213254643 0 0.26439878998046262 0.7048065392091396 0 0.6879972333610942 0.43038561374960838 0 0.68128176404677243 0.38629093627004979 0 0.72622533758026719 0.40265885511101601 0 0.72525833953073282 0.1032114801687094 0 0.7010294155333181 0.056779085686491267 0 0.7527966693318906 0.053051678021508272 0 0.18269480424590959 0.75905448272264375 0 0.15332765547575641 0.71200081858233666 0 0.19068556247388771 0.71028988922845504 0 0.1216098864341134 0.50637075089503902 0 0.085622222639554768 0.53333248912060549 0 0.068743045408989428 0.48853989837882689 0 0.25676291524611189 0.7436741304886243 0 0.26439878998046262 0.7048065392091396 0 0.29904318922293632 0.74132814928635593 0 0.65481233915350323 0.35652751921065562 0 0.68128176404677243 0.38629093627004979 0 0.63912439215427275 0.41063340167983359 0 0.83573492347052902 0.36590755630746369 0 0.86844634540301924 0.38530937474099819 0 0.81308179852519835 0.39754945808726527 0 0.27270076654418179 0.87751467830216623 0 0.2401283238295133 0.85648409884788523 0 0.29209212897034281 0.84715728365233667 0 0.84999999999999987 0.69999999999999996 0 0.85491058998424563 0.76004753345552634 0 0.81864958914779962 0.73589050177899629 0 0.84999999999960507 0 0 0.85491058998398861 0.060047533455626502 0 0.81864958914740749 0.035890501779055867 0 0.18381867841758909 0.57774125163628387 0 0.19914261668318661 0.62286739485272158 0 0.15720202157091859 0.60665697304410315 0 0.22549374774072969 0.58452645269293457 0 0.19914261668318661 0.62286739485272158 0 0.18381867841758909 0.57774125163628387 0 0.79680861578988083 0.92656778056766709 0 0.85170973911348691 0.93569607295217616 0 0.81486180804382891 0.96321394949790495 0 0.79680861578956375 0.22656778056752541 0 0.8517097391133297 0.2356960729520409 0 0.81486180804364938 0.26321394949780091 0 0.20050006573841939 0.53248514016039872 0 0.23975172658309729 0.49475499200540818 0 0.25115337790845271 0.54719303014923271 0 0.28307294598219601 0.50789252727458634 0 0.25115337790845271 0.54719303014923271 0 0.23975172658309729 0.49475499200540818 0 0.20050006573841939 0.53248514016039872 0 0.18381867841758909 0.57774125163628387 0 0.14934928745814749 0.55042914607228977 0 0.19922788606653311 0.085920220746880993 0 0.22985637510995899 0.1298347970200906 0 0.18652628422869419 0.14162325200928061 0 0.33758650185219202 0.23837101504325639 0 0.38831533174504851 0.2189834941785925 0 0.3786248352540974 0.27082301512024259 0 0.42377727103934271 0.25099357235810238 0 0.3786248352540974 0.27082301512024259 0 0.38831533174504851 0.2189834941785925 0 0.19922788606653311 0.085920220746880993 0 0.18652628422869419 0.14162325200928061 0 0.16141998738593399 0.10404039647458049 0 0.54782696902220018 0.79245182748204157 0 0.55363780716230748 0.74348740161571747 0 0.59636844454254345 0.75937156204589151 0 0.82709327591091286 0.84937141670920724 0 0.88088768115933802 0.84674609810493673 0 0.85600844944837662 0.88483418979512773 0 0.82709327591102189 0.14937141670914489 0 0.88088768115941807 0.14674609810479519 0 0.85600844944842547 0.1848341897950983 0 0.27866744612395528 0.38416094670951489 0 0.22033343844674469 0.36963382230740238 0 0.25966125648670141 0.34351016742083729 0 0 0.50000000000205869 0 0.033550201249889847 0.46247875832467239 0 0.068743045408989428 0.48853989837882689 0 0.31378396441836959 0.70157213313026345 0 0.36622285152418499 0.69092437780804039 0 0.35415581127540569 0.73730480045900215 0 0.77293540622714185 0.59448302402785813 0 0.71809016091162536 0.58185040402320831 0 0.77151014687832564 0.54436834383023036 0 0.7152569930854884 0.5237994455134295 0 0.69385896817107129 0.48377516041410151 0 0.73947346780852752 0.49062440112282169 0 0.15801167086041079 0.46008690540259539 0 0.191953871957803 0.42546416763755879 0 0.19604738184454831 0.47787523520405789 0 0.57667858002728545 0.078486105337742612 0 0.61940220174112337 0.047251958781050582 0 0.61956000905586006 0.1043312481793135 0 0.65408113592120842 0.073941773121567966 0 0.61956000905586006 0.1043312481793135 0 0.61940220174112337 0.047251958781050582 0 0 0.55000000000173355 0 0 0.50000000000205869 0 0.044576108720083309 0.53509043209532614 0 0.65507451745379841 0.92229208810758578 0 0.62065498684670595 0.95224934003983619 0 0.61885627562261258 0.90282959257498208 0 0.57724883562309992 0.92155686857100794 0 0.61885627562261258 0.90282959257498208 0 0.62065498684670595 0.95224934003983619 0 0.91750694127107502 0.36982372220068471 0 0.86844634540301924 0.38530937474099819 0 0.87430060258887643 0.34056085888204451 0 0.91750694127105259 0.63017627779935648 0 0.87712158428786946 0.65709029563313581 0 0.87159648282691515 0.61285406320581504 0 0.33123028043633618 0.77629643437932982 0 0.29904318922293632 0.74132814928635593 0 0.35415581127540569 0.73730480045900215 0 0.86411095495256451 0.42388805655111889 0 0.84925632466077294 0.45359738909549091 0 0.81973119833356312 0.43505687159469048 0 0.43846182030517877 0.64845797726506715 0 0.47913475093885149 0.66010775372412711 0 0.43323420005758778 0.6913544522562407 0 0.18269480424590959 0.75905448272264375 0 0.19068556247388771 0.71028988922845504 0 0.2248999640082178 0.72584299459689172 0 0.39536230704883951 0.84069429572832477 0 0.38586766253264881 0.78219501014812498 0 0.42609163930740518 0.80361684430568059 0 0.59999999999999976 0.69999999999999996 0 0.63221990677827677 0.73442891067859706 0 0.59636844454254345 0.75937156204589151 0 0.27866744612395528 0.38416094670951489 0 0.24049127783545701 0.41270748208749802 0 0.22033343844674469 0.36963382230740238 0 0.82709327591091286 0.84937141670920724 0 0.84725310900444062 0.80779732082917555 0 0.88088768115933802 0.84674609810493673 0 0.82709327591102189 0.14937141670914489 0 0.84725310900442086 0.10779732082922661 0 0.88088768115941807 0.14674609810479519 0 0.1650278706801647 0.38791388161335733 0 0.18434624290945251 0.35208838264196463 0 0.22033343844674469 0.36963382230740238 0 0.4409427642593301 0.35743108089689513 0 0.49077833859261139 0.35229981449445641 0 0.46655310992796922 0.39650496622958609 0 0.80185942888539485 0.77452061303608133 0 0.81864958914779962 0.73589050177899629 0 0.85491058998424563 0.76004753345552634 0 0.80185942888501827 0.074520613036224564 0 0.81864958914740749 0.035890501779055867 0 0.85491058998398861 0.060047533455626502 0 0.29999999999926641 0 0 0.34999999999912063 0 0 0.32541448401678508 0.046215317981507749 0 0.35000000000145642 1 0 0.30000000000124832 1 0 0.32544832635163229 0.95485394099568932 0 0.4656888918609538 0.78493261229743638 0 0.50731287292894423 0.78963574450233831 0 0.50627822638148745 0.8263979829520941 0 0.2185883431182947 0.18019736283949719 0 0.25557216766470708 0.15874861286892261 0 0.26429849586623999 0.19346700179430079 0 1 0.29999999999999999 0 1 0.34999999999993492 0 0.95780851984364423 0.34215720972155339 0 1 0.29999999999999999 0 0.95780851984364423 0.34215720972155339 0 0.94999999999999996 0.29999999999999999 0 1 0.69999999999999996 0 0.94999999999999996 0.69999999999999996 0 0.9578014258160763 0.65787212321113708 0 1 0.69999999999999996 0 0.9578014258160763 0.65787212321113708 0 1 0.64999999999986979 0 0.91750694127107502 0.36982372220068471 0 0.90594285160987287 0.4141265964174129 0 0.86844634540301924 0.38530937474099819 0 0.91750694127105259 0.63017627779935648 0 0.87159648282691515 0.61285406320581504 0 0.91143117093204207 0.58709913730335972 0 0.74999999999999989 0.69999999999999996 0 0.7750489929959945 0.66593931409600093 0 0.79999999999999982 0.69999999999999996 0 0.74999999999999989 0.29999999999999999 0 0.79999999999999982 0.29999999999999999 0 0.78145581580700685 0.34881365920033602 0 0.54999999999999993 0.69999999999999996 0 0.57484956128872922 0.66573805030881994 0 0.59999999999999976 0.69999999999999996 0 0.90299850604011456 0.79563452813489832 0 0.94399509803918602 0.75600490196082126 0 0.95386563387742829 0.80414874155775029 0 0.90416666666660628 0.9041666666666166 0 0.95391631417670719 0.89584263333814784 0 0.94399509803919068 0.9439950980391687 0 0.90299850604006393 0.09563452813493091 0 0.94399509803922566 0.056004901960802607 0 0.95386563387744361 0.1041487415577465 0 0.90416666666668166 0.20416666666667119 0 0.95391631417672862 0.19584263333809451 0 0.94399509803921056 0.24399509803922639 0 0.22278230690790279 0.44824268025881547 0 0.19604738184454831 0.47787523520405789 0 0.191953871957803 0.42546416763755879 0 0.90299850604011456 0.79563452813489832 0 0.89999166460796554 0.74528934923809909 0 0.94399509803918602 0.75600490196082126 0 0.90299850604006393 0.09563452813493091 0 0.899991664607802 0.045289349238254978 0 0.94399509803922566 0.056004901960802607 0 0.49102375406324739 0.49123754822244059 0 0.47793794143994173 0.52940715638744962 0 0.43507373378304309 0.49699695397193322 0 0.90416666666660628 0.9041666666666166 0 0.94399509803919068 0.9439950980391687 0 0.89898474358632463 0.95391965591118966 0 0.90416666666668166 0.20416666666667119 0 0.94399509803921056 0.24399509803922639 0 0.89898474358614167 0.25391965591104898 0 0.65394964615507722 0.22666784374016369 0 0.62657463266645097 0.26524202571255862 0 0.59814117807200873 0.23398510860739519 0 0.6084546825910605 0.37989672713932537 0 0.63912439215427275 0.41063340167983359 0 0.57744073070774993 0.41535148636609359 0 0.61209567303293111 0.44669033081290321 0 0.57744073070774993 0.41535148636609359 0 0.63912439215427275 0.41063340167983359 0 0.25676291524611189 0.7436741304886243 0 0.22556077506376701 0.77837424984191617 0 0.2248999640082178 0.72584299459689172 0 0.61343887413683884 0.856862479058357 0 0.60294066490120068 0.80851322453934582 0 0.65005442820240822 0.82644988530054031 0 0.64999999999907843 0 0 0.66369801598854572 0.036327466368102787 0 0.61940220174112337 0.047251958781050582 0 0.40326160981139969 0.73346192995102844 0 0.38586766253264881 0.78219501014812498 0 0.35415581127540569 0.73730480045900215 0 0.33123028043633618 0.77629643437932982 0 0.35415581127540569 0.73730480045900215 0 0.38586766253264881 0.78219501014812498 0 0.26573297623774761 0.59828298563722948 0 0.29110487519241501 0.56588143995431495 0 0.31502927232353312 0.6134992213375432 0 0.77846603114747959 0.49850927265137401 0 0.81441713509985358 0.51161854125224959 0 0.77151014687832564 0.54436834383023036 0 0.82862096804812391 0.55037090955459045 0 0.77151014687832564 0.54436834383023036 0 0.81441713509985358 0.51161854125224959 0 0.50000000000205869 1 0 0.45000000000187229 1 0 0.47135117303824892 0.95556877749289892 0 0.44999999999882923 0 0 0.49999999999869432 0 0 0.47040171442036788 0.044141676406503738 0 0 0.7000000000006934 0 0 0.65000000000104008 0 0.046634677244967337 0.671418230738282 0 0 0.35000000000145642 0 0 0.30000000000124832 0 0.046389130980076937 0.32668781832131749 0 0.31378396441836959 0.70157213313026345 0 0.27820712747429932 0.65530134213254643 0 0.32263089806001177 0.66003674931826484 0 0.33122374654748771 0.57588941099433744 0 0.31502927232353312 0.6134992213375432 0 0.29110487519241501 0.56588143995431495 0 0.26573297623774761 0.59828298563722948 0 0.27820712747429932 0.65530134213254643 0 0.2459498854893499 0.63248470766216769 0 0.14474682429600511 0.85524784522713515 0 0.16206583317966519 0.89685560785156404 0 0.1241151115713819 0.9045666525468371 0 0.14332333627550789 0.14578431753966009 0 0.12372429750337779 0.095814237875728972 0 0.16141998738593399 0.10404039647458049 0 0.64753070846764316 0.77332939069435502 0 0.59636844454254345 0.75937156204589151 0 0.63221990677827677 0.73442891067859706 0 0.14474682429600511 0.85524784522713515 0 0.1241151115713819 0.9045666525468371 0 0.10562472963403439 0.87143394428979881 0 0.14332333627550789 0.14578431753966009 0 0.1053400320299198 0.12877248826361379 0 0.12372429750337779 0.095814237875728972 0 0.77354604466818633 0.40378688774472771 0 0.81308179852519835 0.39754945808726527 0 0.81973119833356312 0.43505687159469048 0 0.54782696902220018 0.79245182748204157 0 0.50945740445113552 0.75476055527778108 0 0.55363780716230748 0.74348740161571747 0 0.2236846579037573 0.67380363126050236 0 0.2459498854893499 0.63248470766216769 0 0.27820712747429932 0.65530134213254643 0 0.77293540622714185 0.59448302402785813 0 0.74994237037456724 0.62775548192980357 0 0.71809016091162536 0.58185040402320831 0 0 0.79999999999999982 0 0 0.75000000000034661 0 0.04408157711937423 0.7728941757575627 0 0 0.25000000000104028 0 0 0.20000000000083221 0 0.044081577119474857 0.2271058242433576 0 0.19999999999955789 0 0 0.24999999999941211 0 0 0.22668068146512929 0.045875643423131329 0 0.25000000000104028 1 0 0.20000000000083221 1 0 0.22850979588452081 0.95594428570238643 0 0.47357141910802508 0.1873585799078378 0 0.44288491854585582 0.14116182884956319 0 0.48466639505193998 0.1421439844745814 0 0.59999999999999976 0.29999999999999999 0 0.5794309697024993 0.27124795968204829 0 0.62657463266645097 0.26524202571255862 0 0.43249999999999988 0.43937499999999979 0 0.42161023666869668 0.39493916313643851 0 0.46655310992796922 0.39650496622958609 0 0.31068898841644388 0.47541502461811092 0 0.33190227185843768 0.52715113583864037 0 0.28307294598219601 0.50789252727458634 0 0.35024835142131061 0.48654922671676981 0 0.33190227185843768 0.52715113583864037 0 0.31068898841644388 0.47541502461811092 0 0.35864735590330371 0.63903383440414463 0 0.36622285152418499 0.69092437780804039 0 0.32263089806001177 0.66003674931826484 0 0.31378396441836959 0.70157213313026345 0 0.32263089806001177 0.66003674931826484 0 0.36622285152418499 0.69092437780804039 0 0.86956835336234861 0.571283299838105 0 0.90900154012161016 0.53607784105648792 0 0.91143117093204207 0.58709913730335972 0 0.6499999999999998 0.29999999999999999 0 0.65481233915350323 0.35652751921065562 0 0.61959173890754571 0.33832250091341232 0 0.4409427642593301 0.35743108089689513 0 0.46226845272279993 0.31901800744800313 0 0.49077833859261139 0.35229981449445641 0 0.5 0.29999999999999999 0 0.49077833859261139 0.35229981449445641 0 0.46226845272279993 0.31901800744800313 0 0.14999999999970359 0 0 0.19999999999955789 0 0 0.184418230509967 0.038773194583122873 0 0.20000000000083221 1 0 0.15000000000062411 1 0 0.18474005699953849 0.96231585248064622 0 1 0.49999999999950101 0 1 0.54999999999963112 0 0.95631871884947484 0.51827533208233789 0 0.38586766253264881 0.78219501014812498 0 0.42676259796334498 0.76772545931379299 0 0.42609163930740518 0.80361684430568059 0 0.20050006573841939 0.53248514016039872 0 0.22549374774072969 0.58452645269293457 0 0.18381867841758909 0.57774125163628387 0 0.065374659239661639 0.8551091961254178 0 0.1074251789111534 0.83564394292147814 0 0.10562472963403439 0.87143394428979881 0 0.065374659239632718 0.1448908038746782 0 0.1053400320299198 0.12877248826361379 0 0.106902708054812 0.16453234188234539 0 0.1650278706801647 0.38791388161335733 0 0.14223753364722069 0.3341983344262433 0 0.18434624290945251 0.35208838264196463 0 0.43249999999999988 0.43937499999999979 0 0.46111841286828259 0.46690301029591341 0 0.43507373378304309 0.49699695397193322 0 0.83758014339878906 0.63222013025741819 0 0.81723410853263523 0.59419663659258926 0 0.87159648282691515 0.61285406320581504 0 0.19670163708476801 0.31472518408333222 0 0.18434624290945251 0.35208838264196463 0 0.14223753364722069 0.3341983344262433 0 0.75000000000034661 1 0 0.7250000000005199 0.94981617647078953 0 0.770759834363826 0.95919399014344442 0 0.74999999999999989 0.29999999999999999 0 0.72500000000000064 0.2498161764706 0 0.77075983436335049 0.25919399014334171 0 0.69999999999999984 0.29999999999999999 0 0.67933712972090698 0.25920070958121938 0 0.72500000000000064 0.2498161764706 0 0.57611405284611883 0.50165903596042916 0 0.53330375813596242 0.50827942741749099 0 0.53823865529665704 0.45873898050322898 0 0.6499999999999998 0.29999999999999999 0 0.68887083591306764 0.33632058575757479 0 0.65481233915350323 0.35652751921065562 0 0.27866744612395528 0.38416094670951489 0 0.33277555741076909 0.36432196682010132 0 0.31778888742534622 0.40581751814196781 0 0.49102375406324739 0.49123754822244059 0 0.43507373378304309 0.49699695397193322 0 0.46111841286828259 0.46690301029591341 0 0.94999999999999996 0.69999999999999996 0 0.97166519676947294 0.73337114490064459 0 0.94399509803918602 0.75600490196082126 0 0.94999999999986839 0 0 0.97166519676946894 0.033371144900598393 0 0.94399509803922566 0.056004901960802607 0 0.94999999999999996 0.29999999999999999 0 0.94399509803921056 0.24399509803922639 0 0.97166519676951801 0.26662885509932011 0 0.94999999999979179 1 0 0.94399509803919068 0.9439950980391687 0 0.97166519676946206 0.96662885509935492 0 0.34258405725730701 0.4444034294386992 0 0.29124338931648802 0.43334555462578611 0 0.31778888742534622 0.40581751814196781 0 0.27866744612395528 0.38416094670951489 0 0.31778888742534622 0.40581751814196781 0 0.29124338931648802 0.43334555462578611 0 0.36575549820117997 0.31677992835137742 0 0.33277555741076909 0.36432196682010132 0 0.32752639306529541 0.32610012995269699 0 0.35752321586431363 0.9185439911803448 0 0.32544832635163229 0.95485394099568932 0 0.30864387279288652 0.89906554525974958 0 0.27609987656793722 0.94991445621608572 0 0.30864387279288652 0.89906554525974958 0 0.32544832635163229 0.95485394099568932 0 0.33123028043633618 0.77629643437932982 0 0.30857225866488791 0.81101973481716805 0 0.2792923945214143 0.77665808831789485 0 0.33758650185219202 0.23837101504325639 0 0.29132859388405002 0.27203693976649962 0 0.28040350263641872 0.23054717217092141 0 0.4409427642593301 0.35743108089689513 0 0.41914690343363781 0.30688979866601612 0 0.46226845272279993 0.31901800744800313 0 0.14332333627550789 0.14578431753966009 0 0.13737030665753211 0.20313708640667491 0 0.106902708054812 0.16453234188234539 0 0.083105206071467416 0.20007701332709979 0 0.106902708054812 0.16453234188234539 0 0.13737030665753211 0.20313708640667491 0 0.083105206071452636 0.79992298667296435 0 0.1382744753146134 0.79650574229207483 0 0.1074251789111534 0.83564394292147814 0 0.14474682429600511 0.85524784522713515 0 0.1074251789111534 0.83564394292147814 0 0.1382744753146134 0.79650574229207483 0 0.65408113592120842 0.073941773121567966 0 0.7010294155333181 0.056779085686491267 0 0.68330259535470161 0.10038702501083881 0 0.72525833953073282 0.1032114801687094 0 0.68330259535470161 0.10038702501083881 0 0.7010294155333181 0.056779085686491267 0 0.049706944316475897 0.72477277076253799 0 0.046634677244967337 0.671418230738282 0 0.1020579365089687 0.69352219419301997 0 0.086179601630648681 0.64647209519980475 0 0.1020579365089687 0.69352219419301997 0 0.046634677244967337 0.671418230738282 0 0.087545339447545459 0.35122518864182262 0 0.046389130980076937 0.32668781832131749 0 0.093851963071650835 0.30582068233324772 0 0.049706944316556423 0.27522722923869108 0 0.093851963071650835 0.30582068233324772 0 0.046389130980076937 0.32668781832131749 0 0.82709327591091286 0.84937141670920724 0 0.80041942726660109 0.81543261647703358 0 0.84725310900444062 0.80779732082917555 0 0.82709327591102189 0.14937141670914489 0 0.80076557130237269 0.1154587552654202 0 0.84725310900442086 0.10779732082922661 0 0.17933913398461551 0.2350063570234002 0 0.14377654328998779 0.2442024734791064 0 0.13737030665753211 0.20313708640667491 0 0.18269480424590959 0.75905448272264375 0 0.1382744753146134 0.79650574229207483 0 0.14335651144331049 0.75565258250209677 0 0.33758650185219202 0.23837101504325639 0 0.3786248352540974 0.27082301512024259 0 0.33402499257867951 0.28911035184473982 0 0.14332333627550789 0.14578431753966009 0 0.18124454140915969 0.18790916706335251 0 0.13737030665753211 0.20313708640667491 0 0.14474682429600511 0.85524784522713515 0 0.1382744753146134 0.79650574229207483 0 0.17777405986036951 0.81832336108265358 0 0.5 0.29999999999999999 0 0.52752007115234678 0.33170632466418198 0 0.49077833859261139 0.35229981449445641 0 0.27866744612395528 0.38416094670951489 0 0.29644548887253103 0.34914008784168082 0 0.33277555741076909 0.36432196682010132 0 0 0.84999999999965292 0 0 0.79999999999999982 0 0.038512288486097702 0.8155852717111195 0 0 0.20000000000083221 0 0 0.15000000000062411 0 0.038512288486115001 0.1844147282893184 0 0.40326160981139969 0.73346192995102844 0 0.35415581127540569 0.73730480045900215 0 0.36622285152418499 0.69092437780804039 0 0.91696753777131557 0.497780560203536 0 0.96228564064454991 0.48206450662049471 0 0.95631871884947484 0.51827533208233789 0 0.33758650185219202 0.23837101504325639 0 0.31255190597181792 0.19850845631528771 0 0.3572130504031617 0.1874703368446563 0 0.59814117807200873 0.23398510860739519 0 0.62657463266645097 0.26524202571255862 0 0.5794309697024993 0.27124795968204829 0 0.34258405725730701 0.4444034294386992 0 0.31068898841644388 0.47541502461811092 0 0.29124338931648802 0.43334555462578611 0 0.38083244760691543 0.38531983672244652 0 0.35221190152536241 0.40457127605439203 0 0.33277555741076909 0.36432196682010132 0 0.083411279318375747 0.91030024466934134 0 0.10266856499240549 0.95548163909968886 0 0.053064897599294662 0.95186845269532028 0 0.083411279318303222 0.089699755330707398 0 0.053064897599215843 0.048131547304697528 0 0.10266856499169109 0.044518360900210059 0 0.42377727103934271 0.25099357235810238 0 0.4604742573284204 0.27846934318264788 0 0.41914690343363781 0.30688979866601612 0 0.28307294598219601 0.50789252727458634 0 0.25982634974572738 0.46097799597715272 0 0.31068898841644388 0.47541502461811092 0 0.29348325746214782 0.31350119524708198 0 0.29132859388405002 0.27203693976649962 0 0.33402499257867951 0.28911035184473982 0 0.35312867752657662 0.084946736076730367 0 0.39823268594401579 0.1116623613130045 0 0.36246644853392812 0.1399454205365751 0 0.7000000000006934 1 0 0.68015064798562208 0.95924320340003011 0 0.7250000000005199 0.94981617647078953 0 0.42377727103934271 0.25099357235810238 0 0.38831533174504851 0.2189834941785925 0 0.42905200079338551 0.19982395548231649 0 0.53823865529665704 0.45873898050322898 0 0.57744073070774993 0.41535148636609359 0 0.57975577671020095 0.46172033326338591 0 0.33758650185219202 0.23837101504325639 0 0.3572130504031617 0.1874703368446563 0 0.38831533174504851 0.2189834941785925 0 0.29124338931648802 0.43334555462578611 0 0.31068898841644388 0.47541502461811092 0 0.25982634974572738 0.46097799597715272 0 0.6084546825910605 0.37989672713932537 0 0.61959173890754571 0.33832250091341232 0 0.65481233915350323 0.35652751921065562 0 0.40326160981139969 0.73346192995102844 0 0.43323420005758778 0.6913544522562407 0 0.45582236402875981 0.73896743678908217 0 0.33758650185219202 0.23837101504325639 0 0.28040350263641872 0.23054717217092141 0 0.31255190597181792 0.19850845631528771 0 0.79999999999999982 1 0 0.75000000000034661 1 0 0.770759834363826 0.95919399014344442 0 0.74999999999999989 0.29999999999999999 0 0.77075983436335049 0.25919399014334171 0 0.79999999999999982 0.29999999999999999 0 0.6499999999999998 0.29999999999999999 0 0.67933712972090698 0.25920070958121938 0 0.69999999999999984 0.29999999999999999 0 0.39536230704883951 0.84069429572832477 0 0.39767323751400468 0.89584229130535065 0 0.35864759629805099 0.87963482415279515 0 0.54999999999999993 0.69999999999999996 0 0.52584555706968406 0.66664215091846768 0 0.57484956128872922 0.66573805030881994 0 0.35312867752657662 0.084946736076730367 0 0.32541448401678508 0.046215317981507749 0 0.3615861437013822 0.03582617922508851 0 0.35752321586431363 0.9185439911803448 0 0.36184234618600131 0.96443954459096326 0 0.32544832635163229 0.95485394099568932 0 0.35312867752657662 0.084946736076730367 0 0.3615861437013822 0.03582617922508851 0 0.39591832466117061 0.056982757562006353 0 0.35752321586431363 0.9185439911803448 0 0.39641108128798319 0.94356127926187128 0 0.36184234618600131 0.96443954459096326 0 0.083411279318303222 0.089699755330707398 0 0.044310582753132287 0.101412518374475 0 0.053064897599215843 0.048131547304697528 0 0.083411279318375747 0.91030024466934134 0 0.053064897599294662 0.95186845269532028 0 0.0443105827531413 0.89858748162559932 0 0.38083244760691543 0.38531983672244652 0 0.40076539126862748 0.34589349467022118 0 0.42161023666869668 0.39493916313643851 0 0.4409427642593301 0.35743108089689513 0 0.42161023666869668 0.39493916313643851 0 0.40076539126862748 0.34589349467022118 0 0.79999999999999982 0.29999999999999999 0 0.82500000000000062 0.33010209762754811 0 0.78145581580700685 0.34881365920033602 0 0.79999999999999982 0.69999999999999996 0 0.7750489929959945 0.66593931409600093 0 0.82457059160610424 0.66831947184359608 0 0.59999999999999976 0.69999999999999996 0 0.57484956128872922 0.66573805030881994 0 0.62460753523532009 0.66851202781000296 0 0.74999999999999989 0.69999999999999996 0 0.72500000000000064 0.67022701834392062 0 0.7750489929959945 0.66593931409600093 0 0.74999999999999989 0.29999999999999999 0 0.78145581580700685 0.34881365920033602 0 0.73090396928863699 0.33699297293167962 0 0.33758650185219202 0.23837101504325639 0 0.33402499257867951 0.28911035184473982 0 0.29132859388405002 0.27203693976649962 0 0.36575549820117997 0.31677992835137742 0 0.41914690343363781 0.30688979866601612 0 0.40076539126862748 0.34589349467022118 0 0.4409427642593301 0.35743108089689513 0 0.40076539126862748 0.34589349467022118 0 0.41914690343363781 0.30688979866601612 0 0.34258405725730701 0.4444034294386992 0 0.38707855792647411 0.42299362914874578 0 0.3908716102680424 0.47010282357248828 0 0.7000000000006934 1 0 0.65000000000104008 1 0 0.68015064798562208 0.95924320340003011 0 0.49102375406324739 0.49123754822244059 0 0.46111841286828259 0.46690301029591341 0 0.48858720058566618 0.43964267759203868 0 0.4656888918609538 0.78493261229743638 0 0.42676259796334498 0.76772545931379299 0 0.45582236402875981 0.73896743678908217 0 0.40326160981139969 0.73346192995102844 0 0.45582236402875981 0.73896743678908217 0 0.42676259796334498 0.76772545931379299 0 0.59999999999999976 0.29999999999999999 0 0.62657463266645097 0.26524202571255862 0 0.6499999999999998 0.29999999999999999 0 0.40000000000166441 1 0 0.36184234618600131 0.96443954459096326 0 0.39641108128798319 0.94356127926187128 0 0.3999999999989749 0 0 0.39591832466117061 0.056982757562006353 0 0.3615861437013822 0.03582617922508851 0 0.43249999999999988 0.43937499999999979 0 0.48858720058566618 0.43964267759203868 0 0.46111841286828259 0.46690301029591341 0 0.7250000000005199 0.89375000000045834 0 0.7250000000005199 0.94981617647078953 0 0.68987011941058407 0.92105047536677087 0 0.7250000000005199 0.89375000000045834 0 0.75729602384198635 0.92353652857884294 0 0.7250000000005199 0.94981617647078953 0 0.72500000000001008 0.19776155966387679 0 0.75668890529066124 0.2244279804069782 0 0.72500000000000064 0.2498161764706 0 0.72500000000001008 0.19776155966387679 0 0.72500000000000064 0.2498161764706 0 0.69397719155551807 0.2245125647000914 0 0.79999999999999982 0.29999999999999999 0 0.81486180804364938 0.26321394949780091 0 0.84999999999999987 0.29999999999999999 0 0.84999999999965292 1 0 0.79999999999999982 1 0 0.81486180804382891 0.96321394949790495 0 0.1247745017231483 0.27198077544791172 0 0.095326043202144745 0.24554465089224409 0 0.14377654328998779 0.2442024734791064 0 0.1215415378367805 0.72939333680004137 0 0.14335651144331049 0.75565258250209677 0 0.090953281884486245 0.7564451946902494 0 0.72500000000001008 0.19776155966387679 0 0.72634814642510737 0.16106886917518889 0 0.76587607630038135 0.18880039518954719 0 0.72500000000001008 0.19776155966387679 0 0.6865991819015953 0.189116534044597 0 0.72634814642510737 0.16106886917518889 0 0.77144070960558853 0.14311854477243749 0 0.76587607630038135 0.18880039518954719 0 0.72634814642510737 0.16106886917518889 0 0.68391457121233579 0.14440470121196541 0 0.72634814642510737 0.16106886917518889 0 0.6865991819015953 0.189116534044597 0 0.7250000000005199 0.89375000000045834 0 0.72863726579783861 0.85390518901155588 0 0.76891166905518427 0.88835469571185499 0 0.76901770135486491 0.84293557325473656 0 0.76891166905518427 0.88835469571185499 0 0.72863726579783861 0.85390518901155588 0 0 0.20000000000083221 0 0.038512288486115001 0.1844147282893184 0 0.044081577119474857 0.2271058242433576 0 0 0.79999999999999982 0 0.04408157711937423 0.7728941757575627 0 0.038512288486097702 0.8155852717111195 0 0.52375890611712683 0.059318771819432882 0 0.47881186583059909 0.093591717165689425 0 0.47040171442036788 0.044141676406503738 0 0.52122150208832174 0.94089974453840242 0 0.47135117303824892 0.95556877749289892 0 0.47401147028110507 0.91529957330468115 0 0.27474541102162192 0.11822029332053539 0 0.3096713403101819 0.085471541595262421 0 0.32215584939770009 0.1218492143506909 0 0.22278230690790279 0.44824268025881547 0 0.24049127783545701 0.41270748208749802 0 0.25982634974572738 0.46097799597715272 0 0.93732437411268477 0.55911392101136159 0 0.91143117093204207 0.58709913730335972 0 0.90900154012161016 0.53607784105648792 0 0.19901705110390991 0.9175543425573498 0 0.24536017905392571 0.90704567837671446 0 0.22850979588452081 0.95594428570238643 0 0.27609987656793722 0.94991445621608572 0 0.22850979588452081 0.95594428570238643 0 0.24536017905392571 0.90704567837671446 0 0.15720202157091859 0.60665697304410315 0 0.1241190223511371 0.64391885572885044 0 0.1024350934457823 0.60772393977513839 0 0.6499999999999998 0.69999999999999996 0 0.675261390228442 0.65996937624687813 0 0.69999999999999984 0.69999999999999996 0 0.3999999999989749 0 0 0.4320097814748517 0.037406712692169303 0 0.39591832466117061 0.056982757562006353 0 0.40000000000166441 1 0 0.39641108128798319 0.94356127926187128 0 0.4308986359464303 0.96395712492906194 0 0.54999999999999993 0.29999999999999999 0 0.56836770495988642 0.3523062350852913 0 0.52752007115234678 0.33170632466418198 0 0.14474682429600511 0.85524784522713515 0 0.17777405986036951 0.81832336108265358 0 0.19741632902693801 0.86755867406447229 0 0.21858834311891909 0.81980263716112767 0 0.19741632902693801 0.86755867406447229 0 0.17777405986036951 0.81832336108265358 0 0.54782696902220018 0.79245182748204157 0 0.50731287292894423 0.78963574450233831 0 0.50945740445113552 0.75476055527778108 0 0.20000000000083221 1 0 0.18474005699953849 0.96231585248064622 0 0.22850979588452081 0.95594428570238643 0 0.19999999999955789 0 0 0.22668068146512929 0.045875643423131329 0 0.184418230509967 0.038773194583122873 0 0.77846603114747959 0.49850927265137401 0 0.73947346780852752 0.49062440112282169 0 0.77972660463949339 0.45529290596363098 0 0.73483647259922602 0.44789725365921768 0 0.77972660463949339 0.45529290596363098 0 0.73947346780852752 0.49062440112282169 0 0.34258405725730701 0.4444034294386992 0 0.35024835142131061 0.48654922671676981 0 0.31068898841644388 0.47541502461811092 0 0.33123028043633618 0.77629643437932982 0 0.2792923945214143 0.77665808831789485 0 0.29904318922293632 0.74132814928635593 0 0.26573297623774761 0.59828298563722948 0 0.25115337790845271 0.54719303014923271 0 0.29110487519241501 0.56588143995431495 0 0.4656888918609538 0.78493261229743638 0 0.50945740445113552 0.75476055527778108 0 0.50731287292894423 0.78963574450233831 0 0.35312867752657662 0.084946736076730367 0 0.36246644853392812 0.1399454205365751 0 0.32215584939770009 0.1218492143506909 0 0.29348325746214782 0.31350119524708198 0 0.25966125648670141 0.34351016742083729 0 0.24432083401701241 0.3006253385567515 0 0.59999999999999976 0.69999999999999996 0 0.6499999999999998 0.69999999999999996 0 0.63221990677827677 0.73442891067859706 0 0.69999999999921003 0 0 0.7010294155333181 0.056779085686491267 0 0.66369801598854572 0.036327466368102787 0 0.40000000000166441 1 0 0.35000000000145642 1 0 0.36184234618600131 0.96443954459096326 0 0.34999999999912063 0 0 0.3999999999989749 0 0 0.3615861437013822 0.03582617922508851 0 0.43507373378304309 0.49699695397193322 0 0.47793794143994173 0.52940715638744962 0 0.42644501560315817 0.54603747078095544 0 0.14474682429600511 0.85524784522713515 0 0.19741632902693801 0.86755867406447229 0 0.16206583317966519 0.89685560785156404 0 0.19901705110390991 0.9175543425573498 0 0.16206583317966519 0.89685560785156404 0 0.19741632902693801 0.86755867406447229 0 0.35864735590330371 0.63903383440414463 0 0.3977710372045391 0.65868194622830212 0 0.36622285152418499 0.69092437780804039 0 0.7527966693318906 0.053051678021508272 0 0.7010294155333181 0.056779085686491267 0 0.72683645290270404 0.027797073151180601 0 0.71508799138962864 0.36622814920737751 0 0.72622533758026719 0.40265885511101601 0 0.68128176404677243 0.38629093627004979 0 0.79999999999999982 0.69999999999999996 0 0.84999999999999987 0.69999999999999996 0 0.81864958914779962 0.73589050177899629 0 0.79999999999947335 0 0 0.84999999999960507 0 0 0.81864958914740749 0.035890501779055867 0 0.39536230704883951 0.84069429572832477 0 0.35642984951668422 0.80994399665655703 0 0.38586766253264881 0.78219501014812498 0 0.42377727103934271 0.25099357235810238 0 0.46429753744194407 0.22870891180733599 0 0.4604742573284204 0.27846934318264788 0 0.39801143831225599 0.16651381068160659 0 0.42905200079338551 0.19982395548231649 0 0.38831533174504851 0.2189834941785925 0 0.79999999999999982 1 0 0.770759834363826 0.95919399014344442 0 0.81486180804382891 0.96321394949790495 0 0.79999999999999982 0.29999999999999999 0 0.77075983436335049 0.25919399014334171 0 0.81486180804364938 0.26321394949780091 0 0.25195515620380449 0.25883339815888678 0 0.21049769590865089 0.26857363548218488 0 0.224700362040408 0.22206622194729711 0 0.40326160981139969 0.73346192995102844 0 0.42676259796334498 0.76772545931379299 0 0.38586766253264881 0.78219501014812498 0 0.35312867752657662 0.084946736076730367 0 0.3096713403101819 0.085471541595262421 0 0.32541448401678508 0.046215317981507749 0 0.59999999999999976 0.29999999999999999 0 0.6499999999999998 0.29999999999999999 0 0.61959173890754571 0.33832250091341232 0 0.2185883431182947 0.18019736283949719 0 0.18652628422869419 0.14162325200928061 0 0.22985637510995899 0.1298347970200906 0 0.64999999999907843 0 0 0.69999999999921003 0 0 0.66369801598854572 0.036327466368102787 0 0.27499999999933927 0.060310814194988557 0 0.24218496799700481 0.089025544070598317 0 0.22668068146512929 0.045875643423131329 0 0.19922788606653311 0.085920220746880993 0 0.22668068146512929 0.045875643423131329 0 0.24218496799700481 0.089025544070598317 0 0.65507451745379841 0.92229208810758578 0 0.66412543161245952 0.88015090885499059 0 0.68987011941058407 0.92105047536677087 0 0.049706944316475897 0.72477277076253799 0 0.090953281884486245 0.7564451946902494 0 0.04408157711937423 0.7728941757575627 0 0.083105206071452636 0.79992298667296435 0 0.04408157711937423 0.7728941757575627 0 0.090953281884486245 0.7564451946902494 0 0.083105206071467416 0.20007701332709979 0 0.095326043202144745 0.24554465089224409 0 0.044081577119474857 0.2271058242433576 0 0.049706944316556423 0.27522722923869108 0 0.044081577119474857 0.2271058242433576 0 0.095326043202144745 0.24554465089224409 0 0.36575549820117997 0.31677992835137742 0 0.33402499257867951 0.28911035184473982 0 0.3786248352540974 0.27082301512024259 0 0.53245488764484505 0.55078124999999989 0 0.53330375813596242 0.50827942741749099 0 0.57435499076887508 0.54267261987897775 0 0.57611405284611883 0.50165903596042916 0 0.57435499076887508 0.54267261987897775 0 0.53330375813596242 0.50827942741749099 0 0.6499999999999998 0.29999999999999999 0 0.69999999999999984 0.29999999999999999 0 0.68887083591306764 0.33632058575757479 0 0.57611405284611883 0.50165903596042916 0 0.53823865529665704 0.45873898050322898 0 0.57975577671020095 0.46172033326338591 0 0.7750489929959945 0.66593931409600093 0 0.72500000000000064 0.67022701834392062 0 0.74994237037456724 0.62775548192980357 0 0.78145581580700685 0.34881365920033602 0 0.74764719760526988 0.3719647154012321 0 0.73090396928863699 0.33699297293167962 0 0.3999999999989749 0 0 0.44999999999882923 0 0 0.4320097814748517 0.037406712692169303 0 0.45000000000187229 1 0 0.40000000000166441 1 0 0.4308986359464303 0.96395712492906194 0 0.57484956128872922 0.66573805030881994 0 0.5991018319127801 0.62925360607495295 0 0.62460753523532009 0.66851202781000296 0 0.7750489929959945 0.66593931409600093 0 0.79884539758237771 0.62875045078114233 0 0.82457059160610424 0.66831947184359608 0 0.39801143831225599 0.16651381068160659 0 0.36246644853392812 0.1399454205365751 0 0.39823268594401579 0.1116623613130045 0 0.078358742472063481 0.43365249433908948 0 0.033550201249889847 0.46247875832467239 0 0.035463093262830522 0.42673416072819947 0 0.25676291524611189 0.7436741304886243 0 0.2792923945214143 0.77665808831789485 0 0.22556077506376701 0.77837424984191617 0 0.2236846579037573 0.67380363126050236 0 0.2248999640082178 0.72584299459689172 0 0.19068556247388771 0.71028988922845504 0 0.50715858906372158 0.63295939104129484 0 0.5166924242153631 0.59825134841919447 0 0.5498280205245758 0.6290146943450976 0 0.14618258501891079 0.062070108745602003 0 0.12372429750337779 0.095814237875728972 0 0.10266856499169109 0.044518360900210059 0 0.083411279318303222 0.089699755330707398 0 0.10266856499169109 0.044518360900210059 0 0.12372429750337779 0.095814237875728972 0 0.083411279318375747 0.91030024466934134 0 0.1241151115713819 0.9045666525468371 0 0.10266856499240549 0.95548163909968886 0 0.14617343800780541 0.93808063414349496 0 0.10266856499240549 0.95548163909968886 0 0.1241151115713819 0.9045666525468371 0 0.5499999999988151 0 0 0.59999999999894682 0 0 0.57396793757665954 0.037011367187645222 0 0.54782696902220018 0.79245182748204157 0 0.50627822638148745 0.8263979829520941 0 0.50731287292894423 0.78963574450233831 0 0.6499999999999998 0.29999999999999999 0 0.62657463266645097 0.26524202571255862 0 0.67933712972090698 0.25920070958121938 0 0.86956835336234861 0.571283299838105 0 0.86907294890112186 0.52008116128001669 0 0.90900154012161016 0.53607784105648792 0 0.17933913398461551 0.2350063570234002 0 0.224700362040408 0.22206622194729711 0 0.21049769590865089 0.26857363548218488 0 0.43249999999999988 0.43937499999999979 0 0.3908716102680424 0.47010282357248828 0 0.38707855792647411 0.42299362914874578 0 0.27474541102162192 0.11822029332053539 0 0.22985637510995899 0.1298347970200906 0 0.24218496799700481 0.089025544070598317 0 0.64753070846764316 0.77332939069435502 0 0.66427993341343905 0.73232764502436276 0 0.6916490518212759 0.75387992374886192 0 0 0.40000000000166441 0 0.050583896093752537 0.38543522283434112 0 0.035463093262830522 0.42673416072819947 0 0.73483647259922602 0.44789725365921768 0 0.73947346780852752 0.49062440112282169 0 0.69385896817107129 0.48377516041410151 0 0.57484956128872922 0.66573805030881994 0 0.52584555706968406 0.66664215091846768 0 0.5498280205245758 0.6290146943450976 0 0.60000000000138687 1 0 0.55000000000173355 1 0 0.57382506491224949 0.9629411906298494 0 0.068743045408989428 0.48853989837882689 0 0.085622222639554768 0.53333248912060549 0 0.044576108720083309 0.53509043209532614 0 0.083105206071467416 0.20007701332709979 0 0.044081577119474857 0.2271058242433576 0 0.038512288486115001 0.1844147282893184 0 0.083105206071452636 0.79992298667296435 0 0.038512288486097702 0.8155852717111195 0 0.04408157711937423 0.7728941757575627 0 0.28307294598219601 0.50789252727458634 0 0.23975172658309729 0.49475499200540818 0 0.25982634974572738 0.46097799597715272 0 0.43698630808430822 0.080423614171545449 0 0.39591832466117061 0.056982757562006353 0 0.4320097814748517 0.037406712692169303 0 0.4367309254023824 0.92065556789053882 0 0.4308986359464303 0.96395712492906194 0 0.39641108128798319 0.94356127926187128 0 0.80185942888539485 0.77452061303608133 0 0.75841349681148107 0.75422312624214749 0 0.78578450296893509 0.73292684821144505 0 0.80185942888501827 0.074520613036224564 0 0.7527966693318906 0.053051678021508272 0 0.78393852574753176 0.032039079577822822 0 0.6499999999999998 0.69999999999999996 0 0.62460753523532009 0.66851202781000296 0 0.675261390228442 0.65996937624687813 0 0.33123028043633618 0.77629643437932982 0 0.38586766253264881 0.78219501014812498 0 0.35642984951668422 0.80994399665655703 0 0.6405463747586706 0.63290524857395714 0 0.675261390228442 0.65996937624687813 0 0.62460753523532009 0.66851202781000296 0 0.22278230690790279 0.44824268025881547 0 0.191953871957803 0.42546416763755879 0 0.24049127783545701 0.41270748208749802 0 0.077693244765132896 0.56932317963405099 0 0.050069554451969707 0.61308520079857043 0 0.034381862692950467 0.57372682250960894 0 0.25195515620380449 0.25883339815888678 0 0.24432083401701241 0.3006253385567515 0 0.21049769590865089 0.26857363548218488 0 0.46666084890304671 0.57634471035397938 0 0.5166924242153631 0.59825134841919447 0 0.47095389620662098 0.61892551373708504 0 0.50715858906372158 0.63295939104129484 0 0.47095389620662098 0.61892551373708504 0 0.5166924242153631 0.59825134841919447 0 0.72525833953073282 0.1032114801687094 0 0.7527966693318906 0.053051678021508272 0 0.76878382444651716 0.097147941686331368 0 0.80185942888501827 0.074520613036224564 0 0.76878382444651716 0.097147941686331368 0 0.7527966693318906 0.053051678021508272 0 0.72500000000000064 0.7952620967744265 0 0.75841349681148107 0.75422312624214749 0 0.77094201086366854 0.79647480515688507 0 0.80185942888539485 0.77452061303608133 0 0.77094201086366854 0.79647480515688507 0 0.75841349681148107 0.75422312624214749 0 0.72500000000000064 0.7952620967744265 0 0.68024162096458085 0.79868546898116533 0 0.6916490518212759 0.75387992374886192 0 0.64753070846764316 0.77332939069435502 0 0.6916490518212759 0.75387992374886192 0 0.68024162096458085 0.79868546898116533 0 0 0.50000000000205869 0 0 0.45000000000187229 0 0.033550201249889847 0.46247875832467239 0 0.69999999999999984 0.69999999999999996 0 0.675261390228442 0.65996937624687813 0 0.72500000000000064 0.67022701834392062 0 0.71406021706547751 0.63292083137662503 0 0.72500000000000064 0.67022701834392062 0 0.675261390228442 0.65996937624687813 0 0.65408113592120842 0.073941773121567966 0 0.61940220174112337 0.047251958781050582 0 0.66369801598854572 0.036327466368102787 0 0.59999999999894682 0 0 0.61940220174112337 0.047251958781050582 0 0.57396793757665954 0.037011367187645222 0 0.60000000000138687 1 0 0.57382506491224949 0.9629411906298494 0 0.62065498684670595 0.95224934003983619 0 0.33122374654748771 0.57588941099433744 0 0.35765792684946668 0.6000687869219653 0 0.31502927232353312 0.6134992213375432 0 0.35864735590330371 0.63903383440414463 0 0.31502927232353312 0.6134992213375432 0 0.35765792684946668 0.6000687869219653 0 0.15801167086041079 0.46008690540259539 0 0.19604738184454831 0.47787523520405789 0 0.16618607197337229 0.50652878253548905 0 0.078358742472063481 0.43365249433908948 0 0.035463093262830522 0.42673416072819947 0 0.050583896093752537 0.38543522283434112 0 0.19901705110390991 0.9175543425573498 0 0.22850979588452081 0.95594428570238643 0 0.18474005699953849 0.96231585248064622 0 0.19922788606653311 0.085920220746880993 0 0.184418230509967 0.038773194583122873 0 0.22668068146512929 0.045875643423131329 0 0.19922788606653311 0.085920220746880993 0 0.24218496799700481 0.089025544070598317 0 0.22985637510995899 0.1298347970200906 0 0.74999999999999989 0.69999999999999996 0 0.78578450296893509 0.73292684821144505 0 0.75841349681148107 0.75422312624214749 0 0.74999999999934175 0 0 0.78393852574753176 0.032039079577822822 0 0.7527966693318906 0.053051678021508272 0 0 0.60000000000138687 0 0.034381862692950467 0.57372682250960894 0 0.050069554451969707 0.61308520079857043 0 0.2236846579037573 0.67380363126050236 0 0.26439878998046262 0.7048065392091396 0 0.2248999640082178 0.72584299459689172 0 0.6236733212988993 0.14864538214901801 0 0.58516465772821369 0.11653801664834119 0 0.61956000905586006 0.1043312481793135 0 0.26104540868854792 0.81401944968719064 0 0.2792923945214143 0.77665808831789485 0 0.30857225866488791 0.81101973481716805 0 0.42377727103934271 0.25099357235810238 0 0.42905200079338551 0.19982395548231649 0 0.46429753744194407 0.22870891180733599 0 0.27820712747429932 0.65530134213254643 0 0.31502927232353312 0.6134992213375432 0 0.32263089806001177 0.66003674931826484 0 0.61343887413683884 0.856862479058357 0 0.61885627562261258 0.90282959257498208 0 0.5832743223239254 0.88483152652961872 0 0.43698630808430822 0.080423614171545449 0 0.47040171442036788 0.044141676406503738 0 0.47881186583059909 0.093591717165689425 0 0.4367309254023824 0.92065556789053882 0 0.47401147028110507 0.91529957330468115 0 0.47135117303824892 0.95556877749289892 0 0.91696753777131557 0.497780560203536 0 0.95631871884947484 0.51827533208233789 0 0.90900154012161016 0.53607784105648792 0 0.93732437411268477 0.55911392101136159 0 0.90900154012161016 0.53607784105648792 0 0.95631871884947484 0.51827533208233789 0 0.27474541102162192 0.11822029332053539 0 0.25557216766470708 0.15874861286892261 0 0.22985637510995899 0.1298347970200906 0 0.2185883431182947 0.18019736283949719 0 0.22985637510995899 0.1298347970200906 0 0.25557216766470708 0.15874861286892261 0 0.29348325746214782 0.31350119524708198 0 0.33402499257867951 0.28911035184473982 0 0.32752639306529541 0.32610012995269699 0 0.27499999999933927 0.060310814194988557 0 0.32541448401678508 0.046215317981507749 0 0.3096713403101819 0.085471541595262421 0 0.27270076654418179 0.87751467830216623 0 0.24536017905392571 0.90704567837671446 0 0.2401283238295133 0.85648409884788523 0 1 0.44999999999963131 0 1 0.49999999999950101 0 0.96228564064454991 0.48206450662049471 0 0.61343887413683884 0.856862479058357 0 0.66412543161245952 0.88015090885499059 0 0.61885627562261258 0.90282959257498208 0 0 0.45000000000187229 0 0 0.40000000000166441 0 0.035463093262830522 0.42673416072819947 0 0.69999999999999984 0.69999999999999996 0 0.6916490518212759 0.75387992374886192 0 0.66427993341343905 0.73232764502436276 0 0.43846182030517877 0.64845797726506715 0 0.43323420005758778 0.6913544522562407 0 0.3977710372045391 0.65868194622830212 0 0.4367309254023824 0.92065556789053882 0 0.44003836461056539 0.88093474584252718 0 0.47401147028110507 0.91529957330468115 0 0.43846182030517877 0.64845797726506715 0 0.39743091024207589 0.6239520004230239 0 0.43545892161006339 0.61093128915313821 0 0.43846182030517877 0.64845797726506715 0 0.3977710372045391 0.65868194622830212 0 0.39743091024207589 0.6239520004230239 0 0.26429849586623999 0.19346700179430079 0 0.29336099386129338 0.15892013001050981 0 0.31255190597181792 0.19850845631528771 0 0.19670163708476801 0.31472518408333222 0 0.21049769590865089 0.26857363548218488 0 0.24432083401701241 0.3006253385567515 0 0.57724883562309992 0.92155686857100794 0 0.62065498684670595 0.95224934003983619 0 0.57382506491224949 0.9629411906298494 0 0.4409427642593301 0.35743108089689513 0 0.46655310992796922 0.39650496622958609 0 0.42161023666869668 0.39493916313643851 0 0.46666084890304671 0.57634471035397938 0 0.47095389620662098 0.61892551373708504 0 0.43545892161006339 0.61093128915313821 0 0.6879972333610942 0.43038561374960838 0 0.65178832218679827 0.45929119821019959 0 0.63912439215427275 0.41063340167983359 0 0.43698630808430822 0.080423614171545449 0 0.4320097814748517 0.037406712692169303 0 0.47040171442036788 0.044141676406503738 0 0.4367309254023824 0.92065556789053882 0 0.47135117303824892 0.95556877749289892 0 0.4308986359464303 0.96395712492906194 0 0.79680861578988083 0.92656778056766709 0 0.81486180804382891 0.96321394949790495 0 0.770759834363826 0.95919399014344442 0 0.79680861578956375 0.22656778056752541 0 0.81486180804364938 0.26321394949780091 0 0.77075983436335049 0.25919399014334171 0 0.71508799138962864 0.36622814920737751 0 0.68128176404677243 0.38629093627004979 0 0.68887083591306764 0.33632058575757479 0 0.35864735590330371 0.63903383440414463 0 0.32263089806001177 0.66003674931826484 0 0.31502927232353312 0.6134992213375432 0 0.21858834311891909 0.81980263716112767 0 0.2401283238295133 0.85648409884788523 0 0.19741632902693801 0.86755867406447229 0 0.35312867752657662 0.084946736076730367 0 0.32215584939770009 0.1218492143506909 0 0.3096713403101819 0.085471541595262421 0 0.35752321586431363 0.9185439911803448 0 0.35864759629805099 0.87963482415279515 0 0.39767323751400468 0.89584229130535065 0 0.41914690343363781 0.30688979866601612 0 0.4604742573284204 0.27846934318264788 0 0.46226845272279993 0.31901800744800313 0 0.33084213324567391 0.16272720141332131 0 0.32215584939770009 0.1218492143506909 0 0.36246644853392812 0.1399454205365751 0 0.46666084890304671 0.57634471035397938 0 0.42644501560315817 0.54603747078095544 0 0.47793794143994173 0.52940715638744962 0 0 0.60000000000138687 0 0 0.55000000000173355 0 0.034381862692950467 0.57372682250960894 0 0.77354604466818633 0.40378688774472771 0 0.74764719760526988 0.3719647154012321 0 0.78145581580700685 0.34881365920033602 0 0.34999999999912063 0 0 0.3615861437013822 0.03582617922508851 0 0.32541448401678508 0.046215317981507749 0 0.35000000000145642 1 0 0.32544832635163229 0.95485394099568932 0 0.36184234618600131 0.96443954459096326 0 0.57667858002728545 0.078486105337742612 0 0.57396793757665954 0.037011367187645222 0 0.61940220174112337 0.047251958781050582 0 0.47357141910802508 0.1873585799078378 0 0.50760557329222289 0.20700468884612061 0 0.46429753744194407 0.22870891180733599 0 0.49695729691142171 0.25014895411178018 0 0.46429753744194407 0.22870891180733599 0 0.50760557329222289 0.20700468884612061 0 0.33084213324567391 0.16272720141332131 0 0.3572130504031617 0.1874703368446563 0 0.31255190597181792 0.19850845631528771 0 0.6879972333610942 0.43038561374960838 0 0.63912439215427275 0.41063340167983359 0 0.68128176404677243 0.38629093627004979 0 0.65408113592120842 0.073941773121567966 0 0.65290632656860115 0.11434202593454081 0 0.61956000905586006 0.1043312481793135 0 0.33084213324567391 0.16272720141332131 0 0.31255190597181792 0.19850845631528771 0 0.29336099386129338 0.15892013001050981 0 0.61209567303293111 0.44669033081290321 0 0.63912439215427275 0.41063340167983359 0 0.65178832218679827 0.45929119821019959 0 0.086179601630648681 0.64647209519980475 0 0.1024350934457823 0.60772393977513839 0 0.1241190223511371 0.64391885572885044 0 0.44999999999882923 0 0 0.47040171442036788 0.044141676406503738 0 0.4320097814748517 0.037406712692169303 0 0.45000000000187229 1 0 0.4308986359464303 0.96395712492906194 0 0.47135117303824892 0.95556877749289892 0 0.74999999999934175 0 0 0.7527966693318906 0.053051678021508272 0 0.72683645290270404 0.027797073151180601 0 0.74999999999999989 0.69999999999999996 0 0.75841349681148107 0.75422312624214749 0 0.72501250972655151 0.74067302935308721 0 0.69999999999999984 0.69999999999999996 0 0.72501250972655151 0.74067302935308721 0 0.6916490518212759 0.75387992374886192 0 0.74999999999934175 0 0 0.79999999999947335 0 0 0.78393852574753176 0.032039079577822822 0 0.74999999999999989 0.69999999999999996 0 0.79999999999999982 0.69999999999999996 0 0.78578450296893509 0.73292684821144505 0 0.6405463747586706 0.63290524857395714 0 0.5991018319127801 0.62925360607495295 0 0.63065402604362242 0.59661356661633302 0 0.65481233915350323 0.35652751921065562 0 0.68887083591306764 0.33632058575757479 0 0.68128176404677243 0.38629093627004979 0 0.89999999999999991 0.29999999999999999 0 0.94999999999999996 0.29999999999999999 0 0.92012390126144183 0.33123581297173937 0 0.89999999999999991 0.69999999999999996 0 0.92057473616084773 0.66770436535372446 0 0.94999999999999996 0.69999999999999996 0 0.4367309254023824 0.92065556789053882 0 0.39767323751400468 0.89584229130535065 0 0.44003836461056539 0.88093474584252718 0 0.2185883431182947 0.18019736283949719 0 0.18124454140915969 0.18790916706335251 0 0.18652628422869419 0.14162325200928061 0 0.20050006573841939 0.53248514016039872 0 0.19604738184454831 0.47787523520405789 0 0.23975172658309729 0.49475499200540818 0 0.65507451745379841 0.92229208810758578 0 0.61885627562261258 0.90282959257498208 0 0.66412543161245952 0.88015090885499059 0 0.65394964615507722 0.22666784374016369 0 0.67933712972090698 0.25920070958121938 0 0.62657463266645097 0.26524202571255862 0 0.077693244765132896 0.56932317963405099 0 0.034381862692950467 0.57372682250960894 0 0.044576108720083309 0.53509043209532614 0 0.39801143831225599 0.16651381068160659 0 0.38831533174504851 0.2189834941785925 0 0.3572130504031617 0.1874703368446563 0 0.6499999999999998 0.69999999999999996 0 0.69999999999999984 0.69999999999999996 0 0.66427993341343905 0.73232764502436276 0 0.1215415378367805 0.72939333680004137 0 0.15332765547575641 0.71200081858233666 0 0.14335651144331049 0.75565258250209677 0 0.6405463747586706 0.63290524857395714 0 0.63065402604362242 0.59661356661633302 0 0.67529834988829951 0.61613270668143583 0 0.67323294229744413 0.57556450033612505 0 0.67529834988829951 0.61613270668143583 0 0.63065402604362242 0.59661356661633302 0 0.91750694127107502 0.36982372220068471 0 0.87430060258887643 0.34056085888204451 0 0.92012390126144183 0.33123581297173937 0 0.89999999999999991 0.29999999999999999 0 0.92012390126144183 0.33123581297173937 0 0.87430060258887643 0.34056085888204451 0 0.89999999999999991 0.69999999999999996 0 0.87712158428786946 0.65709029563313581 0 0.92057473616084773 0.66770436535372446 0 0.91750694127105259 0.63017627779935648 0 0.92057473616084773 0.66770436535372446 0 0.87712158428786946 0.65709029563313581 0 0.33122374654748771 0.57588941099433744 0 0.29110487519241501 0.56588143995431495 0 0.33190227185843768 0.52715113583864037 0 0.57484956128872922 0.66573805030881994 0 0.5498280205245758 0.6290146943450976 0 0.5991018319127801 0.62925360607495295 0 0.57412547362576272 0.58273804879550706 0 0.5991018319127801 0.62925360607495295 0 0.5498280205245758 0.6290146943450976 0 0.65408113592120842 0.073941773121567966 0 0.66369801598854572 0.036327466368102787 0 0.7010294155333181 0.056779085686491267 0 0.27474541102162192 0.11822029332053539 0 0.32215584939770009 0.1218492143506909 0 0.29336099386129338 0.15892013001050981 0 0.33084213324567391 0.16272720141332131 0 0.29336099386129338 0.15892013001050981 0 0.32215584939770009 0.1218492143506909 0 0.5 0.29999999999999999 0 0.54999999999999993 0.29999999999999999 0 0.52752007115234678 0.33170632466418198 0 0.83573492347052902 0.36590755630746369 0 0.87430060258887643 0.34056085888204451 0 0.86844634540301924 0.38530937474099819 0 0.83758014339878906 0.63222013025741819 0 0.87159648282691515 0.61285406320581504 0 0.87712158428786946 0.65709029563313581 0 0.22278230690790279 0.44824268025881547 0 0.23975172658309729 0.49475499200540818 0 0.19604738184454831 0.47787523520405789 0 1 0.49999999999950101 0 0.95631871884947484 0.51827533208233789 0 0.96228564064454991 0.48206450662049471 0 0.1650278706801647 0.38791388161335733 0 0.13773355295499351 0.42497777642586831 0 0.1117088112799664 0.38831403004970022 0 0.61209567303293111 0.44669033081290321 0 0.57975577671020095 0.46172033326338591 0 0.57744073070774993 0.41535148636609359 0 0.077693244765132896 0.56932317963405099 0 0.1154888278694548 0.56733818459978413 0 0.1024350934457823 0.60772393977513839 0 0.68697391633157634 0.84450604838764298 0 0.65005442820240822 0.82644988530054031 0 0.68024162096458085 0.79868546898116533 0 0.76901770135486491 0.84293557325473656 0 0.77094201086366854 0.79647480515688507 0 0.80041942726660109 0.81543261647703358 0 0.77144070960558853 0.14311854477243749 0 0.76878382444651716 0.097147941686331368 0 0.80076557130237269 0.1154587552654202 0 0.5 0.69999999999999996 0 0.52584555706968406 0.66664215091846768 0 0.54999999999999993 0.69999999999999996 0 0.077693244765132896 0.56932317963405099 0 0.044576108720083309 0.53509043209532614 0 0.085622222639554768 0.53333248912060549 0 0.69999999999921003 0 0 0.72683645290270404 0.027797073151180601 0 0.7010294155333181 0.056779085686491267 0 1 0 0 0.97166519676946894 0.033371144900598393 0 0.94999999999986839 0 0 1 0.69999999999999996 0 0.97166519676947294 0.73337114490064459 0 0.94999999999999996 0.69999999999999996 0 1 0.69999999999999996 0 1 0.74999999999993494 0 0.97166519676947294 0.73337114490064459 0 1 0.29999999999999999 0 0.97166519676951801 0.26662885509932011 0 1 0.24999999999987299 0 1 1 0 0.94999999999979179 1 0 0.97166519676946206 0.96662885509935492 0 1 0 0 1 0.049999999999896842 0 0.97166519676946894 0.033371144900598393 0 1 0.29999999999999999 0 0.94999999999999996 0.29999999999999999 0 0.97166519676951801 0.26662885509932011 0 1 1 0 0.97166519676946206 0.96662885509935492 0 1 0.94999999999997109 0 0 0.55000000000173355 0 0.044576108720083309 0.53509043209532614 0 0.034381862692950467 0.57372682250960894 0 0.6879972333610942 0.43038561374960838 0 0.69385896817107129 0.48377516041410151 0 0.65178832218679827 0.45929119821019959 0 0.33084213324567391 0.16272720141332131 0 0.36246644853392812 0.1399454205365751 0 0.3572130504031617 0.1874703368446563 0 0.65408113592120842 0.073941773121567966 0 0.68330259535470161 0.10038702501083881 0 0.65290632656860115 0.11434202593454081 0 0.16500388252850301 0.66612077714085194 0 0.19068556247388771 0.71028988922845504 0 0.15332765547575641 0.71200081858233666 0 0.82709327591091286 0.84937141670920724 0 0.85600844944837662 0.88483418979512773 0 0.81159157511211755 0.88795995483179491 0 0.82709327591102189 0.14937141670914489 0 0.85600844944842547 0.1848341897950983 0 0.81283102246527783 0.1881007222486438 0 0.79999999999999982 0.29999999999999999 0 0.84999999999999987 0.29999999999999999 0 0.82500000000000062 0.33010209762754811 0 0.79999999999999982 0.69999999999999996 0 0.82457059160610424 0.66831947184359608 0 0.84999999999999987 0.69999999999999996 0 0.59999999999999976 0.69999999999999996 0 0.62460753523532009 0.66851202781000296 0 0.6499999999999998 0.69999999999999996 0 0.39801143831225599 0.16651381068160659 0 0.3572130504031617 0.1874703368446563 0 0.36246644853392812 0.1399454205365751 0 0.69999999999999984 0.29999999999999999 0 0.74999999999999989 0.29999999999999999 0 0.73090396928863699 0.33699297293167962 0 0.69999999999999984 0.69999999999999996 0 0.72500000000000064 0.67022701834392062 0 0.74999999999999989 0.69999999999999996 0 0.6236733212988993 0.14864538214901801 0 0.64011864159029941 0.18789607982138171 0 0.59443395090188023 0.18455690917515069 0 0.20050006573841939 0.53248514016039872 0 0.16618607197337229 0.50652878253548905 0 0.19604738184454831 0.47787523520405789 0 0.79680861578956375 0.22656778056752541 0 0.76587607630038135 0.18880039518954719 0 0.81283102246527783 0.1881007222486438 0 0.79680861578988083 0.92656778056766709 0 0.76891166905518427 0.88835469571185499 0 0.81159157511211755 0.88795995483179491 0 0.71406021706547751 0.63292083137662503 0 0.675261390228442 0.65996937624687813 0 0.67529834988829951 0.61613270668143583 0 0.6405463747586706 0.63290524857395714 0 0.67529834988829951 0.61613270668143583 0 0.675261390228442 0.65996937624687813 0 0.19670163708476801 0.31472518408333222 0 0.168349569971391 0.28054490850913671 0 0.21049769590865089 0.26857363548218488 0 0.47357141910802508 0.1873585799078378 0 0.46429753744194407 0.22870891180733599 0 0.42905200079338551 0.19982395548231649 0 0.59814117807200873 0.23398510860739519 0 0.5794309697024993 0.27124795968204829 0 0.54248833945060504 0.2520322959927106 0 0.6541250972820879 0.49999999999999989 0 0.65178832218679827 0.45929119821019959 0 0.69385896817107129 0.48377516041410151 0 0.54999999999999993 0.29999999999999999 0 0.5794309697024993 0.27124795968204829 0 0.59999999999999976 0.29999999999999999 0 0.7750489929959945 0.66593931409600093 0 0.74994237037456724 0.62775548192980357 0 0.79884539758237771 0.62875045078114233 0 0.77293540622714185 0.59448302402785813 0 0.79884539758237771 0.62875045078114233 0 0.74994237037456724 0.62775548192980357 0 0.14332333627550789 0.14578431753966009 0 0.16141998738593399 0.10404039647458049 0 0.18652628422869419 0.14162325200928061 0 0.38083244760691543 0.38531983672244652 0 0.42161023666869668 0.39493916313643851 0 0.38707855792647411 0.42299362914874578 0 0.43249999999999988 0.43937499999999979 0 0.38707855792647411 0.42299362914874578 0 0.42161023666869668 0.39493916313643851 0 0.43846182030517877 0.64845797726506715 0 0.47095389620662098 0.61892551373708504 0 0.47913475093885149 0.66010775372412711 0 0.50715858906372158 0.63295939104129484 0 0.47913475093885149 0.66010775372412711 0 0.47095389620662098 0.61892551373708504 0 0.69999999999999984 0.69999999999999996 0 0.74999999999999989 0.69999999999999996 0 0.72501250972655151 0.74067302935308721 0 0.4089290844030305 0.58728915500154233 0 0.35765792684946668 0.6000687869219653 0 0.37272913873093971 0.56192925302619479 0 0.69999999999921003 0 0 0.74999999999934175 0 0 0.72683645290270404 0.027797073151180601 0 0.17933913398461551 0.2350063570234002 0 0.21049769590865089 0.26857363548218488 0 0.168349569971391 0.28054490850913671 0 0.14474682429600511 0.85524784522713515 0 0.10562472963403439 0.87143394428979881 0 0.1074251789111534 0.83564394292147814 0 0.14332333627550789 0.14578431753966009 0 0.106902708054812 0.16453234188234539 0 0.1053400320299198 0.12877248826361379 0 0.2236846579037573 0.67380363126050236 0 0.19914261668318661 0.62286739485272158 0 0.2459498854893499 0.63248470766216769 0 0.049999999999899652 0 0 0.053064897599215843 0.048131547304697528 0 0.02576622439977887 0.024532886826226379 0 0 0.050000000000207989 0 0.02576622439977887 0.024532886826226379 0 0.053064897599215843 0.048131547304697528 0 0.050000000000207989 1 0 0.025766224399875661 0.97546711317377799 0 0.053064897599294662 0.95186845269532028 0 0 0.94999999999979179 0 0.053064897599294662 0.95186845269532028 0 0.025766224399875661 0.97546711317377799 0 0.47357141910802508 0.1873585799078378 0 0.48466639505193998 0.1421439844745814 0 0.51729576145820033 0.1683240575987815 0 0.077693244765132896 0.56932317963405099 0 0.085622222639554768 0.53333248912060549 0 0.1154888278694548 0.56733818459978413 0 0.64753070846764316 0.77332939069435502 0 0.63221990677827677 0.73442891067859706 0 0.66427993341343905 0.73232764502436276 0 0.4656888918609538 0.78493261229743638 0 0.42609163930740518 0.80361684430568059 0 0.42676259796334498 0.76772545931379299 0 0.4089290844030305 0.58728915500154233 0 0.39743091024207589 0.6239520004230239 0 0.35765792684946668 0.6000687869219653 0 0.55306006949600994 0.20198184231352201 0 0.50760557329222289 0.20700468884612061 0 0.51729576145820033 0.1683240575987815 0 1 0.8999999999998336 0 1 0.94999999999997109 0 0.97435614836744289 0.92499999999990257 0 1 0.19999999999974799 0 1 0.24999999999987299 0 0.97435614836740092 0.22499999999981049 0 1 0.74999999999993494 0 1 0.7999999999998193 0 0.97435614836745565 0.77499999999987745 0 1 0.049999999999896842 0 1 0.099999999999753911 0 0.97435614836748241 0.074999999999825387 0 0.86411095495256451 0.42388805655111889 0 0.86844634540301924 0.38530937474099819 0 0.90594285160987287 0.4141265964174129 0 0.86956835336234861 0.571283299838105 0 0.91143117093204207 0.58709913730335972 0 0.87159648282691515 0.61285406320581504 0 0 0 0 0.02576622439977887 0.024532886826226379 0 0 0.050000000000207989 0 0 1 0 0 0.94999999999979179 0 0.025766224399875661 0.97546711317377799 0 0 1 0 0.025766224399875661 0.97546711317377799 0 0.050000000000207989 1 0 0 0 0 0.049999999999899652 0 0 0.02576622439977887 0.024532886826226379 0 0.65394964615507722 0.22666784374016369 0 0.64011864159029941 0.18789607982138171 0 0.6865991819015953 0.189116534044597 0 0.25195515620380449 0.25883339815888678 0 0.28040350263641872 0.23054717217092141 0 0.29132859388405002 0.27203693976649962 0 0.61209567303293111 0.44669033081290321 0 0.65178832218679827 0.45929119821019959 0 0.61547661924074692 0.48539576058873962 0 0.6541250972820879 0.49999999999999989 0 0.61547661924074692 0.48539576058873962 0 0.65178832218679827 0.45929119821019959 0 0.19670163708476801 0.31472518408333222 0 0.24432083401701241 0.3006253385567515 0 0.22615676742807109 0.33458786033114157 0 0.15801167086041079 0.46008690540259539 0 0.13773355295499351 0.42497777642586831 0 0.191953871957803 0.42546416763755879 0 0.1650278706801647 0.38791388161335733 0 0.191953871957803 0.42546416763755879 0 0.13773355295499351 0.42497777642586831 0 0.50715858906372158 0.63295939104129484 0 0.52584555706968406 0.66664215091846768 0 0.47913475093885149 0.66010775372412711 0 0.5 0.69999999999999996 0 0.47913475093885149 0.66010775372412711 0 0.52584555706968406 0.66664215091846768 0 0.51076801031701946 0.1202837388510348 0 0.51729576145820033 0.1683240575987815 0 0.48466639505193998 0.1421439844745814 0 0.71406021706547751 0.63292083137662503 0 0.74994237037456724 0.62775548192980357 0 0.72500000000000064 0.67022701834392062 0 0.71508799138962864 0.36622814920737751 0 0.73090396928863699 0.33699297293167962 0 0.74764719760526988 0.3719647154012321 0 0.22278230690790279 0.44824268025881547 0 0.25982634974572738 0.46097799597715272 0 0.23975172658309729 0.49475499200540818 0 0.80185942888539485 0.77452061303608133 0 0.78578450296893509 0.73292684821144505 0 0.81864958914779962 0.73589050177899629 0 0.80185942888501827 0.074520613036224564 0 0.78393852574753176 0.032039079577822822 0 0.81864958914740749 0.035890501779055867 0 0.5 0.29999999999999999 0 0.46226845272279993 0.31901800744800313 0 0.4604742573284204 0.27846934318264788 0 0.6405463747586706 0.63290524857395714 0 0.62460753523532009 0.66851202781000296 0 0.5991018319127801 0.62925360607495295 0 0.79680861578988083 0.92656778056766709 0 0.770759834363826 0.95919399014344442 0 0.75729602384198635 0.92353652857884294 0 0.79680861578956375 0.22656778056752541 0 0.77075983436335049 0.25919399014334171 0 0.75668890529066124 0.2244279804069782 0 0.65394964615507722 0.22666784374016369 0 0.69397719155551807 0.2245125647000914 0 0.67933712972090698 0.25920070958121938 0 0.81973119833356312 0.43505687159469048 0 0.84925632466077294 0.45359738909549091 0 0.81400510706333218 0.47357325943904899 0 0.83758014339878906 0.63222013025741819 0 0.82457059160610424 0.66831947184359608 0 0.79884539758237771 0.62875045078114233 0 0.25676291524611189 0.7436741304886243 0 0.2248999640082178 0.72584299459689172 0 0.26439878998046262 0.7048065392091396 0 0.91696753777131557 0.497780560203536 0 0.90900154012161016 0.53607784105648792 0 0.86907294890112186 0.52008116128001669 0 0.17933913398461551 0.2350063570234002 0 0.168349569971391 0.28054490850913671 0 0.14377654328998779 0.2442024734791064 0 0.1247745017231483 0.27198077544791172 0 0.14377654328998779 0.2442024734791064 0 0.168349569971391 0.28054490850913671 0 0.34258405725730701 0.4444034294386992 0 0.35221190152536241 0.40457127605439203 0 0.38707855792647411 0.42299362914874578 0 0.47357141910802508 0.1873585799078378 0 0.51729576145820033 0.1683240575987815 0 0.50760557329222289 0.20700468884612061 0 0.19670163708476801 0.31472518408333222 0 0.22615676742807109 0.33458786033114157 0 0.18434624290945251 0.35208838264196463 0 0.22033343844674469 0.36963382230740238 0 0.18434624290945251 0.35208838264196463 0 0.22615676742807109 0.33458786033114157 0 0.24432083401701241 0.3006253385567515 0 0.25966125648670141 0.34351016742083729 0 0.22615676742807109 0.33458786033114157 0 0.93814194660195893 0.44426664081746747 0 0.90594285160987287 0.4141265964174129 0 0.95871855522754235 0.40006508612975411 0 0.91750694127107502 0.36982372220068471 0 0.95871855522754235 0.40006508612975411 0 0.90594285160987287 0.4141265964174129 0 0.91750694127105259 0.63017627779935648 0 0.91143117093204207 0.58709913730335972 0 0.95867599106212187 0.60011091146651041 0 0.93732437411268477 0.55911392101136159 0 0.95867599106212187 0.60011091146651041 0 0.91143117093204207 0.58709913730335972 0 0.50715858906372158 0.63295939104129484 0 0.5498280205245758 0.6290146943450976 0 0.52584555706968406 0.66664215091846768 0 0.94399509803918602 0.75600490196082126 0 0.97435614836745565 0.77499999999987745 0 0.95386563387742829 0.80414874155775029 0 0.94399509803922566 0.056004901960802607 0 0.97435614836748241 0.074999999999825387 0 0.95386563387744361 0.1041487415577465 0 0.94399509803921056 0.24399509803922639 0 0.95391631417672862 0.19584263333809451 0 0.97435614836740092 0.22499999999981049 0 0.94399509803919068 0.9439950980391687 0 0.95391631417670719 0.89584263333814784 0 0.97435614836744289 0.92499999999990257 0 0.79680861578988083 0.92656778056766709 0 0.75729602384198635 0.92353652857884294 0 0.76891166905518427 0.88835469571185499 0 0.79680861578956375 0.22656778056752541 0 0.75668890529066124 0.2244279804069782 0 0.76587607630038135 0.18880039518954719 0 0.65394964615507722 0.22666784374016369 0 0.6865991819015953 0.189116534044597 0 0.69397719155551807 0.2245125647000914 0 0.38083244760691543 0.38531983672244652 0 0.38707855792647411 0.42299362914874578 0 0.35221190152536241 0.40457127605439203 0 1 0.7999999999998193 0 0.95386563387742829 0.80414874155775029 0 0.97435614836745565 0.77499999999987745 0 1 0.099999999999753911 0 0.95386563387744361 0.1041487415577465 0 0.97435614836748241 0.074999999999825387 0 1 0.8999999999998336 0 0.97435614836744289 0.92499999999990257 0 0.95391631417670719 0.89584263333814784 0 1 0.19999999999974799 0 0.97435614836740092 0.22499999999981049 0 0.95391631417672862 0.19584263333809451 0 0.84723782639812573 0.48638347960178252 0 0.81400510706333218 0.47357325943904899 0 0.84925632466077294 0.45359738909549091 0 0.54999999999999993 0.29999999999999999 0 0.54248833945060504 0.2520322959927106 0 0.5794309697024993 0.27124795968204829 0 0.94999999999999996 0.29999999999999999 0 0.95780851984364423 0.34215720972155339 0 0.92012390126144183 0.33123581297173937 0 0.94999999999999996 0.69999999999999996 0 0.92057473616084773 0.66770436535372446 0 0.9578014258160763 0.65787212321113708 0 0.15801167086041079 0.46008690540259539 0 0.113541300460994 0.46208784312094731 0 0.13773355295499351 0.42497777642586831 0 0.7250000000005199 0.94981617647078953 0 0.68015064798562208 0.95924320340003011 0 0.68987011941058407 0.92105047536677087 0 0.65507451745379841 0.92229208810758578 0 0.68987011941058407 0.92105047536677087 0 0.68015064798562208 0.95924320340003011 0 0.77846603114747959 0.49850927265137401 0 0.77972660463949339 0.45529290596363098 0 0.81400510706333218 0.47357325943904899 0 0.27866744612395528 0.38416094670951489 0 0.25966125648670141 0.34351016742083729 0 0.29644548887253103 0.34914008784168082 0 0.61209567303293111 0.44669033081290321 0 0.61547661924074692 0.48539576058873962 0 0.57975577671020095 0.46172033326338591 0 0.57611405284611883 0.50165903596042916 0 0.57975577671020095 0.46172033326338591 0 0.61547661924074692 0.48539576058873962 0 0.7250000000005199 0.89375000000045834 0 0.76891166905518427 0.88835469571185499 0 0.75729602384198635 0.92353652857884294 0 0.72500000000001008 0.19776155966387679 0 0.76587607630038135 0.18880039518954719 0 0.75668890529066124 0.2244279804069782 0 0.72500000000001008 0.19776155966387679 0 0.69397719155551807 0.2245125647000914 0 0.6865991819015953 0.189116534044597 0 0.083411279318303222 0.089699755330707398 0 0.12372429750337779 0.095814237875728972 0 0.1053400320299198 0.12877248826361379 0 0.083411279318375747 0.91030024466934134 0 0.10562472963403439 0.87143394428979881 0 0.1241151115713819 0.9045666525468371 0 0.14617343800780541 0.93808063414349496 0 0.1241151115713819 0.9045666525468371 0 0.16206583317966519 0.89685560785156404 0 0.14618258501891079 0.062070108745602003 0 0.16141998738593399 0.10404039647458049 0 0.12372429750337779 0.095814237875728972 0 0.33277555741076909 0.36432196682010132 0 0.35221190152536241 0.40457127605439203 0 0.31778888742534622 0.40581751814196781 0 0.7250000000005199 0.94981617647078953 0 0.75729602384198635 0.92353652857884294 0 0.770759834363826 0.95919399014344442 0 0.72500000000000064 0.2498161764706 0 0.75668890529066124 0.2244279804069782 0 0.77075983436335049 0.25919399014334171 0 0.72500000000000064 0.2498161764706 0 0.67933712972090698 0.25920070958121938 0 0.69397719155551807 0.2245125647000914 0 0.6236733212988993 0.14864538214901801 0 0.61956000905586006 0.1043312481793135 0 0.65290632656860115 0.11434202593454081 0 0.81973119833356312 0.43505687159469048 0 0.81400510706333218 0.47357325943904899 0 0.77972660463949339 0.45529290596363098 0 0.25676291524611189 0.7436741304886243 0 0.29904318922293632 0.74132814928635593 0 0.2792923945214143 0.77665808831789485 0 0.36575549820117997 0.31677992835137742 0 0.32752639306529541 0.32610012995269699 0 0.33402499257867951 0.28911035184473982 0 0.14332333627550789 0.14578431753966009 0 0.18652628422869419 0.14162325200928061 0 0.18124454140915969 0.18790916706335251 0 0.57724883562309992 0.92155686857100794 0 0.5832743223239254 0.88483152652961872 0 0.61885627562261258 0.90282959257498208 0 0.57667858002728545 0.078486105337742612 0 0.61956000905586006 0.1043312481793135 0 0.58516465772821369 0.11653801664834119 0 0.80185942888539485 0.77452061303608133 0 0.80041942726660109 0.81543261647703358 0 0.77094201086366854 0.79647480515688507 0 0.80185942888501827 0.074520613036224564 0 0.80076557130237269 0.1154587552654202 0 0.76878382444651716 0.097147941686331368 0 0.64753070846764316 0.77332939069435502 0 0.68024162096458085 0.79868546898116533 0 0.65005442820240822 0.82644988530054031 0 0.26429849586623999 0.19346700179430079 0 0.25557216766470708 0.15874861286892261 0 0.29336099386129338 0.15892013001050981 0 0.29348325746214782 0.31350119524708198 0 0.29644548887253103 0.34914008784168082 0 0.25966125648670141 0.34351016742083729 0 0.68391457121233579 0.14440470121196541 0 0.65290632656860115 0.11434202593454081 0 0.68330259535470161 0.10038702501083881 0 0.91750694127107502 0.36982372220068471 0 0.92012390126144183 0.33123581297173937 0 0.95780851984364423 0.34215720972155339 0 0.91750694127105259 0.63017627779935648 0 0.9578014258160763 0.65787212321113708 0 0.92057473616084773 0.66770436535372446 0 0.22033343844674469 0.36963382230740238 0 0.22615676742807109 0.33458786033114157 0 0.25966125648670141 0.34351016742083729 0 1 0.94999999999997109 0 0.97166519676946206 0.96662885509935492 0 0.97435614836744289 0.92499999999990257 0 0.94399509803919068 0.9439950980391687 0 0.97435614836744289 0.92499999999990257 0 0.97166519676946206 0.96662885509935492 0 0.94399509803921056 0.24399509803922639 0 0.97435614836740092 0.22499999999981049 0 0.97166519676951801 0.26662885509932011 0 1 0.24999999999987299 0 0.97166519676951801 0.26662885509932011 0 0.97435614836740092 0.22499999999981049 0 1 0.74999999999993494 0 0.97435614836745565 0.77499999999987745 0 0.97166519676947294 0.73337114490064459 0 1 0.049999999999896842 0 0.97435614836748241 0.074999999999825387 0 0.97166519676946894 0.033371144900598393 0 0.94399509803918602 0.75600490196082126 0 0.97166519676947294 0.73337114490064459 0 0.97435614836745565 0.77499999999987745 0 0.94399509803922566 0.056004901960802607 0 0.97166519676946894 0.033371144900598393 0 0.97435614836748241 0.074999999999825387 0 0.77846603114747959 0.49850927265137401 0 0.81400510706333218 0.47357325943904899 0 0.81441713509985358 0.51161854125224959 0 0.77354604466818633 0.40378688774472771 0 0.72622533758026719 0.40265885511101601 0 0.74764719760526988 0.3719647154012321 0 0.71508799138962864 0.36622814920737751 0 0.74764719760526988 0.3719647154012321 0 0.72622533758026719 0.40265885511101601 0 0.84723782639812573 0.48638347960178252 0 0.84925632466077294 0.45359738909549091 0 0.88594198078881503 0.46167788676578442 0 0.86411095495256451 0.42388805655111889 0 0.88594198078881503 0.46167788676578442 0 0.84925632466077294 0.45359738909549091 0 0.43846182030517877 0.64845797726506715 0 0.43545892161006339 0.61093128915313821 0 0.47095389620662098 0.61892551373708504 0 0.33123028043633618 0.77629643437932982 0 0.35642984951668422 0.80994399665655703 0 0.30857225866488791 0.81101973481716805 0 0.33403534827021109 0.84402799729020661 0 0.30857225866488791 0.81101973481716805 0 0.35642984951668422 0.80994399665655703 0 0.26429849586623999 0.19346700179430079 0 0.31255190597181792 0.19850845631528771 0 0.28040350263641872 0.23054717217092141 0 0.57724883562309992 0.92155686857100794 0 0.54783390826260769 0.89287767010860219 0 0.5832743223239254 0.88483152652961872 0 0.55899371797446828 0.85003102233514438 0 0.5832743223239254 0.88483152652961872 0 0.54783390826260769 0.89287767010860219 0 0.4089290844030305 0.58728915500154233 0 0.43545892161006339 0.61093128915313821 0 0.39743091024207589 0.6239520004230239 0 0.77293540622714185 0.59448302402785813 0 0.81723410853263523 0.59419663659258926 0 0.79884539758237771 0.62875045078114233 0 0.83758014339878906 0.63222013025741819 0 0.79884539758237771 0.62875045078114233 0 0.81723410853263523 0.59419663659258926 0 0.35864735590330371 0.63903383440414463 0 0.39743091024207589 0.6239520004230239 0 0.3977710372045391 0.65868194622830212 0 0.56202748619534593 0.15054058349222879 0 0.54979595918804436 0.1060565713905809 0 0.58516465772821369 0.11653801664834119 0 0.57667858002728545 0.078486105337742612 0 0.58516465772821369 0.11653801664834119 0 0.54979595918804436 0.1060565713905809 0 0.33122374654748771 0.57588941099433744 0 0.37272913873093971 0.56192925302619479 0 0.35765792684946668 0.6000687869219653 0 0.35864735590330371 0.63903383440414463 0 0.35765792684946668 0.6000687869219653 0 0.39743091024207589 0.6239520004230239 0 0.71508799138962864 0.36622814920737751 0 0.68887083591306764 0.33632058575757479 0 0.73090396928863699 0.33699297293167962 0 0.29348325746214782 0.31350119524708198 0 0.32752639306529541 0.32610012995269699 0 0.29644548887253103 0.34914008784168082 0 0.33277555741076909 0.36432196682010132 0 0.29644548887253103 0.34914008784168082 0 0.32752639306529541 0.32610012995269699 0 0.34258405725730701 0.4444034294386992 0 0.31778888742534622 0.40581751814196781 0 0.35221190152536241 0.40457127605439203 0 0.79999999999999982 0.69999999999999996 0 0.81864958914779962 0.73589050177899629 0 0.78578450296893509 0.73292684821144505 0 0.79999999999947335 0 0 0.81864958914740749 0.035890501779055867 0 0.78393852574753176 0.032039079577822822 0 0.27474541102162192 0.11822029332053539 0 0.29336099386129338 0.15892013001050981 0 0.25557216766470708 0.15874861286892261 0 0 0.45000000000187229 0 0.035463093262830522 0.42673416072819947 0 0.033550201249889847 0.46247875832467239 0 0.6499999999999998 0.69999999999999996 0 0.66427993341343905 0.73232764502436276 0 0.63221990677827677 0.73442891067859706 0 0.84723782639812573 0.48638347960178252 0 0.81441713509985358 0.51161854125224959 0 0.81400510706333218 0.47357325943904899 0 0.26104540868854792 0.81401944968719064 0 0.30857225866488791 0.81101973481716805 0 0.29209212897034281 0.84715728365233667 0 0.33403534827021109 0.84402799729020661 0 0.29209212897034281 0.84715728365233667 0 0.30857225866488791 0.81101973481716805 0 0.69999999999999984 0.29999999999999999 0 0.73090396928863699 0.33699297293167962 0 0.68887083591306764 0.33632058575757479 0 
</DataArray>
</Points>
<Cells>
<DataArray type="UInt32" Name="connectivity" format="ascii">
0 1 2 3 4 5 6 7 8 9 10 11 12 13 14 15 16 17 18 19 20 21 22 23 24 25 26 27 28 29 30 31 32 33 34 35 36 37 38 39 40 41 42 43 44 45 46 47 48 49 50 51 52 53 54 55 56 57 58 59 60 61 62 63 64 65 66 67 68 69 70 71 72 73 74 75 76 77 78 79 80 81 82 83 84 85 86 87 88 89 90 91 92 93 94 95 96 97 98 99 100 101 102 103 104 105 106 107 108 109 110 111 112 113 114 115 116 117 118 119 120 121 122 123 124 125 126 127 128 129 130 131 132 133 134 135 136 137 138 139 140 141 142 143 144 145 146 147 148 149 150 151 152 153 154 155 156 157 158 159 160 161 162 163 164 165 166 167 168 169 170 171 172 173 174 175 176 177 178 179 180 181 182 183 184 185 186 187 188 189 190 191 192 193 194 195 196 197 198 199 200 201 202 203 204 205 206 207 208 209 210 211 212 213 214 215 216 217 218 219 220 221 222 223 224 225 226 227 228 229 230 231 232 233 234 235 236 237 238 239 240 241 242 243 244 245 246 247 248 249 250 251 252 253 254 255 256 257 258 259 260 261 262 263 264 265 266 267 268 269 270 271 272 273 274 275 276 277 278 279 280 281 282 283 284 285 286 287 288 289 290 291 292 293 294 295 296 297 298 299 300 301 302 303 304 305 306 307 308 309 310 311 312 313 314 315 316 317 318 319 320 321 322 323 324 325 326 327 328 329 330 331 332 333 334 335 336 337 338 339 340 341 342 343 344 345 346 347 348 349 350 351 352 353 354 355 356 357 358 359 360 361 362 363 364 365 366 367 368 369 370 371 372 373 374 375 376 377 378 379 380 381 382 383 384 385 386 387 388 389 390 391 392 393 394 395 396 397 398 399 400 401 402 403 404 405 406 407 408 409 410 411 412 413 414 415 416 417 418 419 420 421 422 423 424 425 426 427 428 429 430 431 432 433 434 435 436 437 438 439 440 441 442 443 444 445 446 447 448 449 450 451 452 453 454 455 456 457 458 459 460 461 462 463 464 465 466 467 468 469 470 471 472 473 474 475 476 477 478 479 480 481 482 483 484 485 486 487 488 489 490 491 492 493 494 495 496 497 498 499 500 501 502 503 504 505 506 507 508 509 510 511 512 513 514 515 516 517 518 519 520 521 522 523 524 525 526 527 528 529 530 531 532 533 534 535 536 537 538 539 540 541 542 543 544 545 546 547 548 549 550 551 552 553 554 555 556 557 558 559 560 561 562 563 564 565 566 567 568 569 570 571 572 573 574 575 576 577 578 579 580 581 582 583 584 585 586 587 588 589 590 591 592 593 594 595 596 597 598 599 600 601 602 603 604 605 606 607 608 609 610 611 612 613 614 615 616 617 618 619 620 621 622 623 624 625 626 627 628 629 630 631 632 633 634 635 636 637 638 639 640 641 642 643 644 645 646 647 648 649 650 651 652 653 654 655 656 657 658 659 660 661 662 663 664 665 666 667 668 669 670 671 672 673 674 675 676 677 678 679 680 681 682 683 684 685 686 687 688 689 690 691 692 693 694 695 696 697 698 699 700 701 702 703 704 705 706 707 708 709 710 711 712 713 714 715 716 717 718 719 720 721 722 723 724 725 726 727 728 729 730 731 732 733 734 735 736 737 738 739 740 741 742 743 744 745 746 747 748 749 750 751 752 753 754 755 756 757 758 759 760 761 762 763 764 765 766 767 768 769 770 771 772 773 774 775 776 777 778 779 780 781 782 783 784 785 786 787 788 789 790 791 792 793 794 795 796 797 798 799 800 801 802 803 804 805 806 807 808 809 810 811 812 813 814 815 816 817 818 819 820 821 822 823 824 825 826 827 828 829 830 831 832 833 834 835 836 837 838 839 840 841 842 843 844 845 846 847 848 849 850 851 852 853 854 855 856 857 858 859 860 861 862 863 864 865 866 867 868 869 870 871 872 873 874 875 876 877 878 879 880 881 882 883 884 885 886 887 888 889 890 891 892 893 894 895 896 897 898 899 900 901 902 903 904 905 906 907 908 909 910 911 912 913 914 915 916 917 918 919 920 921 922 923 924 925 926 927 928 929 930 931 932 933 934 935 936 937 938 939 940 941 942 943 944 945 946 947 948 949 950 951 952 953 954 955 956 957 958 959 960 961 962 963 964 965 966 967 968 969 970 971 972 973 974 975 976 977 978 979 980 981 982 983 984 985 986 987 988 989 990 991 992 993 994 995 996 997 998 999 1000 1001 1002 1003 1004 1005 1006 1007 1008 1009 1010 1011 1012 1013 1014 1015 1016 1017 1018 1019 1020 1021 1022 1023 1024 1025 1026 1027 1028 1029 1030 1031 1032 1033 1034 1035 1036 1037 1038 1039 1040 1041 1042 1043 1044 1045 1046 1047 1048 1049 1050 1051 1052 1053 1054 1055 1056 1057 1058 1059 1060 1061 1062 1063 1064 1065 1066 1067 1068 1069 1070 1071 1072 1073 1074 1075 1076 1077 1078 1079 1080 1081 1082 1083 1084 1085 1086 1087 1088 1089 1090 1091 1092 1093 1094 1095 1096 1097 1098 1099 1100 1101 1102 1103 1104 1105 1106 1107 1108 1109 1110 1111 1112 1113 1114 1115 1116 1117 1118 1119 1120 1121 1122 1123 1124 1125 1126 1127 1128 1129 1130 1131 1132 1133 1134 1135 1136 1137 1138 1139 1140 1141 1142 1143 1144 1145 1146 1147 1148 1149 1150 1151 1152 1153 1154 1155 1156 1157 1158 1159 1160 1161 1162 1163 1164 1165 1166 1167 1168 1169 1170 1171 1172 1173 1174 1175 1176 1177 1178 1179 1180 1181 1182 1183 1184 1185 1186 1187 1188 1189 1190 1191 1192 1193 1194 1195 1196 1197 1198 1199 1200 1201 1202 1203 1204 1205 1206 1207 1208 1209 1210 1211 1212 1213 1214 1215 1216 1217 1218 1219 1220 1221 1222 1223 1224 1225 1226 1227 1228 1229 1230 1231 1232 1233 1234 1235 1236 1237 1238 1239 1240 1241 1242 1243 1244 1245 1246 1247 1248 1249 1250 1251 1252 1253 1254 1255 1256 1257 1258 1259 1260 1261 1262 1263 1264 1265 1266 1267 1268 1269 1270 1271 1272 1273 1274 1275 1276 1277 1278 1279 1280 1281 1282 1283 1284 1285 1286 1287 1288 1289 1290 1291 1292 1293 1294 1295 1296 1297 1298 1299 1300 1301 1302 1303 1304 1305 1306 1307 1308 1309 1310 1311 1312 1313 1314 1315 1316 1317 1318 1319 1320 1321 1322 1323 1324 1325 1326 1327 1328 1329 1330 1331 1332 1333 1334 1335 1336 1337 1338 1339 1340 1341 1342 1343 1344 1345 1346 1347 1348 1349 1350 1351 1352 1353 1354 1355 1356 1357 1358 1359 1360 1361 1362 1363 1364 1365 1366 1367 1368 1369 1370 1371 1372 1373 1374 1375 1376 1377 1378 1379 1380 1381 1382 1383 1384 1385 1386 1387 1388 1389 1390 1391 1392 1393 1394 1395 1396 1397 1398 1399 1400 1401 1402 1403 1404 1405 1406 1407 1408 1409 1410 1411 1412 1413 1414 1415 1416 1417 1418 1419 1420 1421 1422 1423 1424 1425 1426 1427 1428 1429 1430 1431 1432 1433 1434 1435 1436 1437 1438 1439 1440 1441 1442 1443 1444 1445 1446 1447 1448 1449 1450 1451 1452 1453 1454 1455 1456 1457 1458 1459 1460 1461 1462 1463 1464 1465 1466 1467 1468 1469 1470 1471 1472 1473 1474 1475 1476 1477 1478 1479 1480 1481 1482 1483 1484 1485 1486 1487 1488 1489 1490 1491 1492 1493 1494 1495 1496 1497 1498 1499 1500 1501 1502 1503 1504 1505 1506 1507 1508 1509 1510 1511 1512 1513 1514 1515 1516 1517 1518 1519 1520 1521 1522 1523 1524 1525 1526 1527 1528 1529 1530 1531 1532 1533 1534 1535 1536 1537 1538 1539 1540 1541 1542 1543 1544 1545 1546 1547 1548 1549 1550 1551 1552 1553 1554 1555 1556 1557 1558 1559 1560 1561 1562 1563 1564 1565 1566 1567 1568 1569 1570 1571 1572 1573 1574 1575 1576 1577 1578 1579 1580 1581 1582 1583 1584 1585 1586 1587 1588 1589 1590 1591 1592 1593 1594 1595 1596 1597 1598 1599 1600 1601 1602 1603 1604 1605 1606 1607 1608 1609 1610 1611 1612 1613 1614 1615 1616 1617 1618 1619 1620 1621 1622 1623 1624 1625 1626 1627 1628 1629 1630 1631 1632 1633 1634 1635 1636 1637 1638 1639 1640 1641 1642 1643 1644 1645 1646 1647 1648 1649 1650 1651 1652 1653 1654 1655 1656 1657 1658 1659 1660 1661 1662 1663 1664 1665 1666 1667 1668 1669 1670 1671 1672 1673 1674 1675 1676 1677 1678 1679 1680 1681 1682 1683 1684 1685 1686 1687 1688 1689 1690 1691 1692 1693 1694 1695 1696 1697 1698 1699 1700 1701 1702 1703 1704 1705 1706 1707 1708 1709 1710 1711 1712 1713 1714 1715 1716 1717 1718 1719 1720 1721 1722 1723 1724 1725 1726 1727 1728 1729 1730 1731 1732 1733 1734 1735 1736 1737 1738 1739 1740 1741 1742 1743 1744 1745 1746 1747 1748 1749 1750 1751 1752 1753 1754 1755 1756 1757 1758 1759 1760 1761 1762 1763 1764 1765 1766 1767 1768 1769 1770 1771 1772 1773 1774 1775 1776 1777 1778 1779 1780 1781 1782 1783 1784 1785 1786 1787 1788 1789 1790 1791 1792 1793 1794 1795 1796 1797 1798 1799 1800 1801 1802 1803 1804 1805 1806 1807 1808 1809 1810 1811 1812 1813 1814 1815 1816 1817 1818 1819 1820 1821 1822 1823 1824 1825 1826 1827 1828 1829 1830 1831 1832 1833 1834 1835 1836 1837 1838 1839 1840 1841 1842 1843 1844 1845 1846 1847 1848 1849 1850 1851 1852 1853 1854 1855 1856 1857 1858 1859 1860 1861 1862 1863 1864 1865 1866 1867 1868 1869 1870 1871 1872 1873 1874 1875 1876 1877 1878 1879 1880 1881 1882 1883 1884 1885 1886 1887 1888 1889 1890 1891 1892 1893 1894 1895 1896 1897 1898 1899 1900 1901 1902 1903 1904 1905 1906 1907 1908 1909 1910 1911 1912 1913 1914 1915 1916 1917 1918 1919 1920 1921 1922 1923 1924 1925 1926 1927 1928 1929 1930 1931 1932 1933 1934 1935 1936 1937 1938 1939 1940 1941 1942 1943 1944 1945 1946 1947 1948 1949 1950 1951 1952 1953 1954 1955 1956 1957 1958 1959 1960 1961 1962 1963 1964 1965 1966 1967 1968 1969 1970 1971 1972 1973 1974 1975 1976 1977 1978 1979 1980 1981 1982 1983 1984 1985 1986 1987 1988 1989 1990 1991 1992 1993 1994 1995 1996 1997 1998 1999 2000 2001 2002 2003 2004 2005 2006 2007 2008 2009 2010 2011 2012 2013 2014 2015 2016 2017 2018 2019 2020 2021 2022 2023 2024 2025 2026 2027 2028 2029 2030 2031 2032 2033 2034 2035 2036 2037 2038 2039 2040 2041 2042 2043 2044 2045 2046 2047 2048 2049 2050 2051 2052 2053 2054 2055 2056 2057 2058 2059 2060 2061 2062 2063 2064 2065 2066 2067 2068 2069 2070 2071 2072 2073 2074 2075 2076 2077 2078 2079 2080 2081 2082 2083 2084 2085 2086 2087 2088 2089 2090 2091 2092 2093 2094 2095 2096 2097 2098 2099 2100 2101 2102 2103 2104 2105 2106 2107 2108 2109 2110 2111 2112 2113 2114 2115 2116 2117 2118 2119 2120 2121 2122 2123 2124 2125 2126 2127 2128 2129 2130 2131 2132 2133 2134 2135 2136 2137 2138 2139 2140 2141 2142 2143 2144 2145 2146 2147 2148 2149 2150 2151 2152 2153 2154 2155 2156 2157 2158 2159 2160 2161 2162 2163 2164 2165 2166 2167 2168 2169 2170 2171 2172 2173 2174 2175 2176 2177 2178 2179 2180 2181 2182 2183 2184 2185 2186 2187 2188 2189 2190 2191 2192 2193 2194 2195 2196 2197 2198 2199 2200 2201 2202 2203 2204 2205 2206 2207 2208 2209 2210 2211 2212 2213 2214 2215 2216 2217 2218 2219 2220 2221 2222 2223 2224 2225 2226 2227 2228 2229 2230 2231 2232 2233 2234 2235 2236 2237 2238 2239 2240 2241 2242 2243 2244 2245 2246 2247 2248 2249 2250 2251 2252 2253 2254 2255 2256 2257 2258 2259 2260 2261 2262 2263 2264 2265 2266 2267 2268 2269 2270 2271 2272 2273 2274 2275 2276 2277 2278 2279 2280 2281 2282 2283 2284 2285 2286 2287 2288 2289 2290 2291 2292 2293 2294 2295 2296 2297 2298 2299 2300 2301 2302 2303 2304 2305 2306 2307 2308 2309 2310 2311 2312 2313 2314 2315 2316 2317 2318 2319 2320 2321 2322 2323 2324 2325 2326 2327 2328 2329 2330 2331 2332 2333 2334 2335 2336 2337 2338 2339 2340 2341 2342 2343 2344 2345 2346 2347 2348 2349 2350 2351 2352 2353 2354 2355 2356 2357 2358 2359 2360 2361 2362 2363 2364 2365 2366 2367 2368 2369 2370 2371 2372 2373 2374 2375 2376 2377 2378 2379 2380 2381 2382 2383 2384 2385 2386 2387 2388 2389 2390 2391 2392 2393 2394 2395 2396 2397 2398 2399 2400 2401 2402 2403 2404 2405 2406 2407 2408 2409 2410 2411 2412 2413 2414 2415 2416 2417 2418 2419 2420 2421 2422 2423 2424 2425 2426 2427 2428 2429 2430 2431 2432 2433 2434 2435 2436 2437 2438 2439 2440 2441 2442 2443 2444 2445 2446 2447 2448 2449 2450 2451 2452 2453 2454 2455 2456 2457 2458 2459 2460 2461 2462 2463 2464 2465 2466 2467 2468 2469 2470 2471 2472 2473 2474 2475 2476 2477 2478 2479 2480 2481 2482 2483 2484 2485 2486 2487 2488 2489 2490 2491 2492 2493 2494 2495 2496 2497 2498 2499 2500 2501 2502 2503 2504 2505 2506 2507 2508 2509 2510 2511 2512 2513 2514 2515 2516 2517 2518 2519 2520 2521 2522 2523 2524 2525 2526 2527 2528 2529 2530 2531 2532 2533 2534 2535 2536 2537 2538 2539 2540 2541 2542 2543 2544 2545 2546 2547 2548 2549 2550 2551 2552 2553 2554 2555 2556 2557 2558 2559 2560 2561 2562 2563 2564 2565 2566 2567 2568 2569 2570 2571 2572 2573 2574 2575 2576 2577 2578 2579 2580 2581 2582 2583 2584 2585 2586 2587 2588 2589 2590 2591 2592 2593 2594 2595 2596 2597 2598 2599 2600 2601 2602 2603 2604 2605 2606 2607 2608 2609 2610 2611 2612 2613 2614 2615 2616 2617 2618 2619 2620 2621 2622 2623 2624 2625 2626 2627 2628 2629 2630 2631 2632 2633 2634 2635 2636 2637 2638 2639 2640 2641 2642 2643 2644 2645 2646 2647 2648 2649 2650 2651 2652 2653 2654 2655 2656 2657 2658 2659 2660 2661 2662 2663 2664 2665 2666 2667 2668 2669 2670 2671 2672 2673 2674 2675 2676 2677 2678 2679 2680 2681 2682 2683 2684 2685 2686 2687 2688 2689 2690 2691 2692 2693 2694 2695 2696 2697 2698 2699 2700 2701 2702 2703 2704 2705 2706 2707 2708 2709 2710 2711 2712 2713 2714 2715 2716 2717 2718 2719 2720 2721 2722 2723 2724 2725 2726 2727 2728 2729 2730 2731 2732 2733 2734 2735 2736 2737 2738 2739 2740 2741 2742 2743 2744 2745 2746 2747 2748 2749 2750 2751 2752 2753 2754 2755 2756 2757 2758 2759 2760 2761 2762 2763 2764 2765 2766 2767 2768 2769 2770 2771 2772 2773 2774 2775 2776 2777 2778 2779 2780 2781 2782 2783 2784 2785 2786 2787 2788 2789 2790 2791 2792 2793 2794 2795 2796 2797 2798 2799 2800 2801 2802 2803 2804 2805 2806 2807 2808 2809 2810 2811 2812 2813 2814 2815 2816 2817 2818 2819 2820 2821 2822 2823 2824 2825 2826 2827 2828 2829 2830 2831 2832 2833 2834 2835 2836 2837 2838 2839 2840 2841 2842 2843 2844 2845 2846 2847 2848 2849 2850 2851 2852 2853 2854 2855 2856 2857 2858 2859 2860 2861 2862 2863 2864 2865 2866 2867 2868 2869 2870 2871 2872 2873 2874 2875 2876 2877 2878 2879 2880 2881 2882 2883 2884 2885 2886 2887 2888 2889 2890 2891 2892 2893 2894 2895 2896 2897 2898 2899 2900 2901 2902 2903 2904 2905 2906 2907 2908 2909 2910 2911 2912 2913 2914 2915 2916 2917 2918 2919 2920 2921 2922 2923 2924 2925 2926 2927 2928 2929 2930 2931 2932 2933 2934 2935 2936 2937 2938 2939 2940 2941 2942 2943 2944 2945 2946 2947 2948 2949 2950 2951 2952 2953 2954 2955 2956 2957 2958 2959 2960 2961 2962 2963 2964 2965 2966 2967 2968 2969 2970 2971 2972 2973 2974 2975 2976 2977 2978 2979 2980 2981 2982 2983 2984 2985 2986 2987 2988 2989 2990 2991 2992 2993 2994 2995 2996 2997 2998 2999 3000 3001 3002 3003 3004 3005 3006 3007 3008 3009 3010 3011 3012 3013 3014 3015 3016 3017 3018 3019 3020 3021 3022 3023 3024 3025 3026 3027 3028 3029 3030 3031 3032 3033 3034 3035 3036 3037 3038 3039 3040 3041 3042 3043 3044 3045 3046 3047 3048 3049 3050 3051 3052 3053 3054 3055 3056 3057 3058 3059 3060 3061 3062 3063 3064 3065 3066 3067 3068 3069 3070 3071 3072 3073 3074 3075 3076 3077 3078 3079 3080 3081 3082 3083 3084 3085 3086 3087 3088 3089 3090 3091 3092 3093 3094 3095 3096 3097 3098 3099 3100 3101 3102 3103 3104 3105 3106 3107 3108 3109 3110 3111 3112 3113 3114 3115 3116 3117 3118 3119 3120 3121 3122 3123 3124 3125 3126 3127 3128 3129 3130 3131 3132 3133 3134 3135 3136 3137 3138 3139 3140 3141 
</DataArray>
<DataArray type="UInt32" Name="offsets" format="ascii">
2 4 6 8 10 12 14 16 18 20 22 24 26 28 30 32 34 36 38 40 43 46 49 52 55 58 61 64 67 70 73 76 79 82 85 88 91 94 97 100 103 106 109 112 115 118 121 124 127 130 133 136 139 142 145 148 151 154 157 160 163 166 169 172 175 178 181 184 187 190 193 196 199 202 205 208 211 214 217 220 223 226 229 232 235 238 241 244 247 250 253 256 259 262 265 268 271 274 277 280 283 286 289 292 295 298 301 304 307 310 313 316 319 322 325 328 331 334 337 340 343 346 349 352 355 358 361 364 367 370 373 376 379 382 385 388 391 394 397 400 403 406 409 412 415 418 421 424 427 430 433 436 439 442 445 448 451 454 457 460 463 466 469 472 475 478 481 484 487 490 493 496 499 502 505 508 511 514 517 520 523 526 529 532 535 538 541 544 547 550 553 556 559 562 565 568 571 574 577 580 583 586 589 592 595 598 601 604 607 610 613 616 619 622 625 628 631 634 637 640 643 646 649 652 655 658 661 664 667 670 673 676 679 682 685 688 691 694 697 700 703 706 709 712 715 718 721 724 727 730 733 736 739 742 745 748 751 754 757 760 763 766 769 772 775 778 781 784 787 790 793 796 799 802 805 808 811 814 817 820 823 826 829 832 835 838 841 844 847 850 853 856 859 862 865 868 871 874 877 880 883 886 889 892 895 898 901 904 907 910 913 916 919 922 925 928 931 934 937 940 943 946 949 952 955 958 961 964 967 970 973 976 979 982 985 988 991 994 997 1000 1003 1006 1009 1012 1015 1018 1021 1024 1027 1030 1033 1036 1039 1042 1045 1048 1051 1054 1057 1060 1063 1066 1069 1072 1075 1078 1081 1084 1087 1090 1093 1096 1099 1102 1105 1108 1111 1114 1117 1120 1123 1126 1129 1132 1135 1138 1141 1144 1147 1150 1153 1156 1159 1162 1165 1168 1171 1174 1177 1180 1183 1186 1189 1192 1195 1198 1201 1204 1207 1210 1213 1216 1219 1222 1225 1228 1231 1234 1237 1240 1243 1246 1249 1252 1255 1258 1261 1264 1267 1270 1273 1276 1279 1282 1285 1288 1291 1294 1297 1300 1303 1306 1309 1312 1315 1318 1321 1324 1327 1330 1333 1336 1339 1342 1345 1348 1351 1354 1357 1360 1363 1366 1369 1372 1375 1378 1381 1384 1387 1390 1393 1396 1399 1402 1405 1408 1411 1414 1417 1420 1423 1426 1429 1432 1435 1438 1441 1444 1447 1450 1453 1456 1459 1462 1465 1468 1471 1474 1477 1480 1483 1486 1489 1492 1495 1498 1501 1504 1507 1510 1513 1516 1519 1522 1525 1528 1531 1534 1537 1540 1543 1546 1549 1552 1555 1558 1561 1564 1567 1570 1573 1576 1579 1582 1585 1588 1591 1594 1597 1600 1603 1606 1609 1612 1615 1618 1621 1624 1627 1630 1633 1636 1639 1642 1645 1648 1651 1654 1657 1660 1663 1666 1669 1672 1675 1678 1681 1684 1687 1690 1693 1696 1699 1702 1705 1708 1711 1714 1717 1720 1723 1726 1729 1732 1735 1738 1741 1744 1747 1750 1753 1756 1759 1762 1765 1768 1771 1774 1777 1780 1783 1786 1789 1792 1795 1798 1801 1804 1807 1810 1813 1816 1819 1822 1825 1828 1831 1834 1837 1840 1843 1846 1849 1852 1855 1858 1861 1864 1867 1870 1873 1876 1879 1882 1885 1888 1891 1894 1897 1900 1903 1906 1909 1912 1915 1918 1921 1924 1927 1930 1933 1936 1939 1942 1945 1948 1951 1954 1957 1960 1963 1966 1969 1972 1975 1978 1981 1984 1987 1990 1993 1996 1999 2002 2005 2008 2011 2014 2017 2020 2023 2026 2029 2032 2035 2038 2041 2044 2047 2050 2053 2056 2059 2062 2065 2068 2071 2074 2077 2080 2083 2086 2089 2092 2095 2098 2101 2104 2107 2110 2113 2116 2119 2122 2125 2128 2131 2134 2137 2140 2143 2146 2149 2152 2155 2158 2161 2164 2167 2170 2173 2176 2179 2182 2185 2188 2191 2194 2197 2200 2203 2206 2209 2212 2215 2218 2221 2224 2227 2230 2233 2236 2239 2242 2245 2248 2251 2254 2257 2260 2263 2266 2269 2272 2275 2278 2281 2284 2287 2290 2293 2296 2299 2302 2305 2308 2311 2314 2317 2320 2323 2326 2329 2332 2335 2338 2341 2344 2347 2350 2353 2356 2359 2362 2365 2368 2371 2374 2377 2380 2383 2386 2389 2392 2395 2398 2401 2404 2407 2410 2413 2416 2419 2422 2425 2428 2431 2434 2437 2440 2443 2446 2449 2452 2455 2458 2461 2464 2467 2470 2473 2476 2479 2482 2485 2488 2491 2494 2497 2500 2503 2506 2509 2512 2515 2518 2521 2524 2527 2530 2533 2536 2539 2542 2545 2548 2551 2554 2557 2560 2563 2566 2569 2572 2575 2578 2581 2584 2587 2590 2593 2596 2599 2602 2605 2608 2611 2614 2617 2620 2623 2626 2629 2632 2635 2638 2641 2644 2647 2650 2653 2656 2659 2662 2665 2668 2671 2674 2677 2680 2683 2686 2689 2692 2695 2698 2701 2704 2707 2710 2713 2716 2719 2722 2725 2728 2731 2734 2737 2740 2743 2746 2749 2752 2755 2758 2761 2764 2767 2770 2773 2776 2779 2782 2785 2788 2791 2794 2797 2800 2803 2806 2809 2812 2815 2818 2821 2824 2827 2830 2833 2836 2839 2842 2845 2848 2851 2854 2857 2860 2863 2866 2869 2872 2875 2878 2881 2884 2887 2890 2893 2896 2899 2902 2905 2908 2911 2914 2917 2920 2923 2926 2929 2932 2935 2938 2941 2944 2947 2950 2953 2956 2959 2962 2965 2968 2971 2974 2977 2980 2983 2986 2989 2992 2995 2998 3001 3004 3007 3010 3013 3016 3019 3022 3025 3028 3031 3034 3037 3040 3043 3046 3049 3052 3055 3058 3061 3064 3067 3070 3073 3076 3079 3082 3085 3088 3091 3094 3097 3100 3103 3106 3109 3112 3115 3118 3121 3124 3127 3130 3133 3136 3139 3142 
</DataArray>
<DataArray type="UInt32" Name="types" format="ascii">
3 3 3 3 3 3 3 3 3 3 3 3 3 3 3 3 3 3 3 3 5 5 5 5 5 5 5 5 5 5 5 5 5 5 5 5 5 5 5 5 5 5 5 5 5 5 5 5 5 5 5 5 5 5 5 5 5 5 5 5 5 5 5 5 5 5 5 5 5 5 5 5 5 5 5 5 5 5 5 5 5 5 5 5 5 5 5 5 5 5 5 5 5 5 5 5 5 5 5 5 5 5 5 5 5 5 5 5 5 5 5 5 5 5 5 5 5 5 5 5 5 5 5 5 5 5 5 5 5 5 5 5 5 5 5 5 5 5 5 5 5 5 5 5 5 5 5 5 5 5 5 5 5 5 5 5 5 5 5 5 5 5 5 5 5 5 5 5 5 5 5 5 5 5 5 5 5 5 5 5 5 5 5 5 5 5 5 5 5 5 5 5 5 5 5 5 5 5 5 5 5 5 5 5 5 5 5 5 5 5 5 5 5 5 5 5 5 5 5 5 5 5 5 5 5 5 5 5 5 5 5 5 5 5 5 5 5 5 5 5 5 5 5 5 5 5 5 5 5 5 5 5 5 5 5 5 5 5 5 5 5 5 5 5 5 5 5 5 5 5 5 5 5 5 5 5 5 5 5 5 5 5 5 5 5 5 5 5 5 5 5 5 5 5 5 5 5 5 5 5 5 5 5 5 5 5 5 5 5 5 5 5 5 5 5 5 5 5 5 5 5 5 5 5 5 5 5 5 5 5 5 5 5 5 5 5 5 5 5 5 5 5 5 5 5 5 5 5 5 5 5 5 5 5 5 5 5 5 5 5 5 5 5 5 5 5 5 5 5 5 5 5 5 5 5 5 5 5 5 5 5 5 5 5 5 5 5 5 5 5 5 5 5 5 5 5 5 5 5 5 5 5 5 5 5 5 5 5 5 5 5 5 5 5 5 5 5 5 5 5 5 5 5 5 5 5 5 5 5 5 5 5 5 5 5 5 5 5 5 5 5 5 5 5 5 5 5 5 5 5 5 5 5 5 5 5 5 5 5 5 5 5 5 5 5 5 5 5 5 5 5 5 5 5 5 5 5 5 5 5 5 5 5 5 5 5 5 5 5 5 5 5 5 5 5 5 5 5 5 5 5 5 5 5 5 5 5 5 5 5 5 5 5 5 5 5 5 5 5 5 5 5 5 5 5 5 5 5 5 5 5 5 5 5 5 5 5 5 5 5 5 5 5 5 5 5 5 5 5 5 5 5 5 5 5 5 5 5 5 5 5 5 5 5 5 5 5 5 5 5 5 5 5 5 5 5 5 5 5 5 5 5 5 5 5 5 5 5 5 5 5 5 5 5 5 5 5 5 5 5 5 5 5 5 5 5 5 5 5 5 5 5 5 5 5 5 5 5 5 5 5 5 5 5 5 5 5 5 5 5 5 5 5 5 5 5 5 5 5 5 5 5 5 5 5 5 5 5 5 5 5 5 5 5 5 5 5 5 5 5 5 5 5 5 5 5 5 5 5 5 5 5 5 5 5 5 5 5 5 5 5 5 5 5 5 5 5 5 5 5 5 5 5 5 5 5 5 5 5 5 5 5 5 5 5 5 5 5 5 5 5 5 5 5 5 5 5 5 5 5 5 5 5 5 5 5 5 5 5 5 5 5 5 5 5 5 5 5 5 5 5 5 5 5 5 5 5 5 5 5 5 5 5 5 5 5 5 5 5 5 5 5 5 5 5 5 5 5 5 5 5 5 5 5 5 5 5 5 5 5 5 5 5 5 5 5 5 5 5 5 5 5 5 5 5 5 5 5 5 5 5 5 5 5 5 5 5 5 5 5 5 5 5 5 5 5 5 5 5 5 5 5 5 5 5 5 5 5 5 5 5 5 5 5 5 5 5 5 5 5 5 5 5 5 5 5 5 5 5 5 5 5 5 5 5 5 5 5 5 5 5 5 5 5 5 5 5 5 5 5 5 5 5 5 5 5 5 5 5 5 5 5 5 5 5 5 5 5 5 5 5 5 5 5 5 5 5 5 5 5 5 5 5 5 5 5 5 5 5 5 5 5 5 5 5 5 5 5 5 5 5 5 5 5 5 5 5 5 5 5 5 5 5 5 5 5 5 5 5 5 5 5 5 5 5 5 5 5 5 5 5 5 5 5 5 5 5 5 5 5 5 5 5 5 5 5 5 5 5 5 5 5 5 5 5 5 5 5 5 5 5 5 5 5 5 5 5 5 5 5 5 5 5 5 5 5 5 5 5 5 5 5 5 5 5 5 5 5 5 5 5 5 5 5 5 5 5 5 5 5 5 5 5 5 5 5 5 5 5 5 5 5 5 5 5 5 5 5 5 5 5 5 5 5 5 5 5 5 5 5 5 5 5 5 
</DataArray>
</Cells>
<PointData Scalars="" Vectors="displacement," Tensors="">
<DataArray type="Float64" Name="displacement" NumberOfComponents="3" format="ascii">
8.866470939570892e-06 -2.0249613007213921e-05 0 1.3852351696127826e-05 -2.9612732092235108e-05 0 1.3852351696127826e-05 -2.9612732092235108e-05 0 1.4922960197711988e-05 -4.0309020423158495e-05 0 1.4922960197711988e-05 -4.0309020423158495e-05 0 1.6737211430927439e-05 -5.2769032654459326e-05 0 1.6737211430927439e-05 -5.2769032654459326e-05 0 1.8633317305175722e-05 -6.6132854676117107e-05 0 1.8633317305175722e-05 -6.6132854676117107e-05 0 2.0995712591977712e-05 -8.0043369653108042e-05 0 2.0995712591977712e-05 -8.0043369653108042e-05 0 2.3912005790844798e-05 -9.432291509122748e-05 0 2.3912005790844798e-05 -9.432291509122748e-05 0 2.7128767349889625e-05 -0.0001087733293373706 0 2.7128767349889625e-05 -0.0001087733293373706 0 3.2025998511002288e-05 -0.00012341666117671719 0 3.2025998511002288e-05 -0.00012341666117671719 0 3.4594250559949424e-05 -0.00013664776759916549 0 3.4594250559949424e-05 -0.00013664776759916549 0 5.0990495254261366e-05 -0.00015048752325605536 0 2.2434106965956531e-05 2.3827613722592346e-05 0 6.3391328536317566e-05 4.0118880325716855e-05 0 6.3391328536317566e-05 4.0118880325716855e-05 0 6.0281604890365689e-05 4.8625172396493094e-05 0 6.0281604890365689e-05 4.8625172396493094e-05 0 6.7220374139228967e-05 6.4307455669055473e-05 0 6.7220374139228967e-05 6.4307455669055473e-05 0 7.1577939217000583e-05 7.8939627713750117e-05 0 7.1577939217000583e-05 7.8939627713750117e-05 0 7.6655567314965598e-05 9.5239942529678505e-05 0 7.6655567314965598e-05 9.5239942529678505e-05 0 8.2320342276652413e-05 0.00011191212107300596 0 8.2320342276652413e-05 0.00011191212107300596 0 8.7344733042585585e-05 0.00012827635315719297 0 8.7344733042585585e-05 0.00012827635315719297 0 9.8117384667610911e-05 0.00014630342659929181 0 9.8117384667610911e-05 0.00014630342659929181 0 9.1565040304211745e-05 0.00016070275062676887 0 9.1565040304211745e-05 0.00016070275062676887 0 0.00015727210092074533 0.00017865140801200368 0 8.8758159425161321e-06 -6.3572903905712172e-06 0 8.7089271121283355e-06 -7.7921062459641357e-07 0 6.7540638082782353e-06 -4.2680177041510559e-06 0 1.0407489171742027e-05 -3.3775215093861956e-06 0 8.7089271121283355e-06 -7.7921062459641357e-07 0 8.8758159425161321e-06 -6.3572903905712172e-06 0 8.7774567226407141e-06 -1.6685271258122189e-05 0 1.0373023102459999e-05 -1.2642706472929396e-05 0 7.8083646351904793e-06 -1.5545185592820241e-05 0 7.8083646351904793e-06 -1.5545185592820241e-05 0 1.0373023102459999e-05 -1.2642706472929397e-05 0 8.7942866511647384e-06 -1.3793898834886564e-05 0 -7.0505943230928693e-06 -1.4401924654410836e-06 0 -3.108681970162405e-06 -1.7073793945173048e-06 0 -6.7948329280497816e-06 -2.8193283266598504e-06 0 -5.3542698366971843e-06 4.9716113116288021e-07 0 -5.1745770108221139e-06 1.4799229852895244e-06 0 -2.4093244548823677e-06 9.2330514843473262e-07 0 -3.0285240937668383e-06 -3.7980319505452795e-07 0 -3.108681970162405e-06 -1.7073793945173048e-06 0 -7.0505943230928693e-06 -1.4401924654410836e-06 0 -2.4016691397347411e-06 -4.4900313739880866e-08 0 -5.3542698366971843e-06 4.9716113116288021e-07 0 -2.4093244548823677e-06 9.2330514843473262e-07 0 -1.8017317445421343e-05 -1.9913079580362803e-06 0 -2.3108573998686221e-05 -5.0266623406840899e-06 0 -1.6038645833086461e-05 -1.4791779808180739e-06 0 -3.4661672104658941e-05 6.7344495680010415e-06 0 -2.6004724746614597e-05 1.7946386392996585e-06 0 -2.3871225368648726e-05 1.4913490355874649e-06 0 7.9936731837858603e-06 -2.6461813677547149e-07 0 1.0450666419801765e-05 1.1203410940294078e-07 0 7.3626630709192551e-06 -1.801565838256294e-06 0 1.078118556670046e-05 -6.1038471510067902e-07 0 7.3626630709192551e-06 -1.801565838256294e-06 0 1.0450666419801765e-05 1.1203410940294078e-07 0 7.3549322123824407e-07 3.6320234268099394e-06 0 1.4679009630967589e-06 3.7361745669271464e-06 0 2.9108349906631021e-06 3.5698932421250637e-06 0 5.1055799319845347e-10 -1.1561611093647262e-09 0 1.1595653547728968e-09 -7.7819195843935454e-10 0 1.0335288276300307e-06 -2.1685566392646053e-06 0 5.5104903219284287e-10 8.2972898552592941e-10 0 -1.8930095821179045e-11 9.4664103812458988e-10 0 2.9979430342880297e-07 2.0961631592902962e-06 0 5.3975409045495267e-06 -2.1551520553844375e-05 0 8.2603489443824904e-06 -2.284590874393437e-05 0 8.7774567226407141e-06 -1.6685271258122189e-05 0 4.424203804126888e-05 2.7514427081397192e-05 0 3.0588495817372022e-05 1.6443978698685596e-05 0 3.3198746885193188e-05 1.7541162737667184e-05 0 -1.1283850198157356e-05 -0.00022841145340170497 0 6.9913449698804986e-06 -0.00020735742518907357 0 -1.3157473084044164e-05 -0.00020011413641156245 0 1.9204632188002522e-07 0.00044206332861962145 0 -3.9856623635037192e-05 0.00040302030850000763 0 -2.7626974259361054e-06 0.00038778214487259009 0 1.9204632188002522e-07 0.00044206332861962145 0 -2.7626974259361054e-06 0.00038778214487259009 0 3.6547128287740268e-05 0.00040121803611702111 0 -1.1283850198157356e-05 -0.00022841145340170497 0 -1.3157473084044164e-05 -0.00020011413641156245 0 -3.20504134694519e-05 -0.00020795671920703851 0 -4.7752054960707053e-05 0.00036076108502438312 0 -2.772352922563055e-06 0.00034029396920577708 0 -2.7626974259361054e-06 0.00038778214487259009 0 7.9730846772825449e-06 -0.0001846957869217706 0 -1.5944599390738379e-05 -0.0001750692777890538 0 -1.3157473084044164e-05 -0.00020011413641156245 0 7.3549322123824407e-07 3.6320234268099394e-06 0 2.9108349906631021e-06 3.5698932421250637e-06 0 1.2643539374837462e-06 3.1348045311134572e-06 0 4.424203804126888e-05 2.7514427081397192e-05 0 2.6599149725667412e-05 2.3312291426800955e-05 0 3.0588495817372022e-05 1.6443978698685596e-05 0 -9.23307951266752e-05 9.1761654108110942e-05 0 -8.1540996770829445e-05 6.4848955566413228e-05 0 -5.6563234333527057e-05 7.1406893069860021e-05 0 -4.8716136586451377e-05 -3.5205372850115141e-05 0 -5.466231545802501e-05 -4.8425232425773999e-05 0 -3.6691479161302783e-05 -3.8900264868757309e-05 0 7.0723244373273499e-06 -1.6547270208098937e-05 0 5.3975409045495267e-06 -2.1551520553844375e-05 0 8.7774567226407141e-06 -1.6685271258122189e-05 0 -2.6900465176176302e-05 5.7295489452572445e-05 0 -2.3012162096591086e-05 3.1054059435172249e-05 0 -1.0142437678135949e-05 3.460270492461854e-05 0 -6.9598051790513837e-06 4.9909854620345125e-06 0 -1.6836544147493153e-05 9.9937742566357513e-06 0 -1.7991811625643827e-05 2.959734865630076e-06 0 2.1884006600864948e-05 -7.0314797589948554e-06 0 1.9147749878491443e-05 -1.0052432432538752e-06 0 1.8629728570203988e-05 -9.1832120979961113e-06 0 -1.5970578567305987e-05 -0.00015120731845879706 0 -1.9152510704136895e-06 -0.0001445421022401472 0 -1.9091004208563064e-05 -0.00012719145016489177 0 -7.2776614147930293e-06 0.00029540132696831894 0 -3.6585437845830809e-05 0.00028298650975277069 0 -4.9543232187269062e-06 0.0002477984475319564 0 -1.9091004208563064e-05 -0.00012719145016489177 0 -1.9152510704136895e-06 -0.0001445421022401472 0 -2.9691351030305288e-06 -0.00012439808996625912 0 -4.9543232187269062e-06 0.0002477984475319564 0 -3.6585437845830809e-05 0.00028298650975277069 0 -3.7523121736150504e-05 0.00024803422716006642 0 -6.9598051790513837e-06 4.9909854620345125e-06 0 -1.7991811625643827e-05 2.959734865630076e-06 0 -6.545774550182906e-06 4.0348929397487642e-07 0 2.6723649786853364e-05 -1.4060386947923264e-05 0 2.5279795977462436e-05 -8.9139488245216812e-07 0 2.1884006600864948e-05 -7.0314797589948554e-06 0 -2.6900465176176302e-05 5.7295489452572445e-05 0 -3.9418537263370749e-05 4.7007233102887672e-05 0 -2.3012162096591093e-05 3.1054059435172249e-05 0 4.424203804126888e-05 2.7514427081397192e-05 0 6.3529503456793447e-05 8.0817912356758551e-05 0 3.5046287207440606e-05 8.2500887575637309e-05 0 2.9968095683151959e-05 -7.3616581449906921e-05 0 2.900067099929462e-05 -7.0760806489033156e-05 0 2.5333863773114866e-05 -7.1244577784218389e-05 0 7.8898209799599693e-05 -8.3081010033348582e-05 0 7.4848441250214222e-05 -7.179256784968533e-05 0 6.0498049626190597e-05 -7.4724182361719839e-05 0 2.2795898121262329e-05 4.4277326322407469e-06 0 1.9147749878491443e-05 -1.0052432432538752e-06 0 2.1884006600864948e-05 -7.0314797589948554e-06 0 5.1639284917440089e-05 -0.00020103192984384123 0 2.7922477781226296e-05 -0.00018091721792237825 0 2.7218114055025535e-05 -0.00020163894566350651 0 -0.00012611360816487023 0.00040067268308083666 0 -8.8008600563434312e-05 0.00035706213226021141 0 -7.962510388434859e-05 0.00039500643361999548 0 1.567399799563513e-09 -6.1211189822876679e-10 0 2.05386587316299e-06 -7.0420703256506527e-07 0 1.5910519073230919e-06 -1.3736832477931182e-06 0 9.2419101094241694e-10 8.3530425975033606e-10 0 7.8904791495742733e-07 1.8189596971401656e-06 0 1.3578615431642207e-06 1.7126002472945119e-06 0 -2.6900465176176302e-05 5.7295489452572445e-05 0 -5.2966547037167476e-06 5.5655644159455988e-05 0 -1.6356711256676305e-05 8.9204771719921306e-05 0 1.0094421686939213e-05 7.935355399324395e-05 0 -1.6356711256676305e-05 8.9204771719921306e-05 0 -5.2966547037167467e-06 5.5655644159455988e-05 0 2.4040266654981601e-05 4.7644619538323001e-05 0 4.424203804126888e-05 2.7514427081397192e-05 0 3.5046287207440606e-05 8.2500887575637309e-05 0 -0.00012515497602062144 0.00031651599904179706 0 -7.3155915470292089e-05 0.00031698991587336548 0 -8.8008600563434312e-05 0.00035706213226021141 0 4.2935381383742487e-05 -0.00015668619276523778 0 1.7720000339495454e-05 -0.00016056115343169076 0 2.79224777812263e-05 -0.00018091721792237825 0 4.765445151756997e-05 -5.9576146455389781e-05 0 4.1523591551561298e-05 -5.3833316913956636e-05 0 3.9046137787310667e-05 -5.978279629307744e-05 0 1.6594007887647303e-05 -4.9510550392824092e-06 0 1.8629728570203988e-05 -9.1832120979961113e-06 0 1.9147749878491443e-05 -1.0052432432538752e-06 0 1.9592546710132191e-05 -1.5633308128567055e-05 0 2.0217216764963543e-05 -2.1722451498215415e-05 0 2.5919455090788947e-05 -2.2850851015577767e-05 0 4.5714275389025484e-05 -3.7738310798810201e-05 0 4.0109011607708953e-05 -3.2766382241531177e-05 0 3.8571140246701792e-05 -3.8609799220586022e-05 0 -0.00011030026319068771 0.00015826559658480669 0 -7.4850374363184404e-05 0.00013506047509185932 0 -8.4858366686769944e-05 0.00017909933780855614 0 -7.5882118603202512e-05 -0.00016268875849187347 0 -5.7117934392091697e-05 -0.00018435666350032136 0 -5.0719648762777129e-05 -0.00016426612881672827 0 0.00010936349319224901 0.00030605187382972489 0 7.9833457415346288e-05 0.00035190610314998072 0 6.3054969326812633e-05 0.00031564314565691665 0 4.6930915569681945e-05 -0.00017846384128020003 0 2.79224777812263e-05 -0.00018091721792237825 0 5.1639284917440089e-05 -0.00020103192984384123 0 -0.00012611360816487023 0.00040067268308083666 0 -0.00012597364171181442 0.00035860094027819362 0 -8.8008600563434312e-05 0.00035706213226021141 0 2.6090759263884142e-05 -5.89739775331253e-05 0 2.0638212909796633e-05 -5.1753295328761789e-05 0 2.2121424869280241e-05 -6.005735393160482e-05 0 1.0737501364569068e-05 -2.0516351638692016e-05 0 3.7258366823746717e-06 -2.4545946794519738e-05 0 5.7220668353254189e-06 -3.8717300979396234e-05 0 2.6090759263884142e-05 -5.89739775331253e-05 0 2.528473813184494e-05 -5.2434434016980348e-05 0 2.0638212909796633e-05 -5.1753295328761789e-05 0 3.4189778996823008e-05 -3.2055166352154529e-05 0 3.8571140246701792e-05 -3.8609799220586022e-05 0 4.0109011607708953e-05 -3.2766382241531177e-05 0 -1.7770289454998172e-05 -6.8559938824599786e-05 0 -1.9008422109001329e-05 -9.1296397167811607e-05 0 -6.3842906298805668e-06 -7.4250708181895452e-05 0 -1.8945126023508518e-09 6.041967125011891e-10 0 -2.4093244548823677e-06 9.2330514843473262e-07 0 -1.5282001924179118e-06 1.3675210685765976e-06 0 -2.5354530667871385e-09 -9.7777937159734842e-10 0 -1.8496617729909202e-06 -2.1897313926040284e-06 0 -3.108681970162405e-06 -1.7073793945173048e-06 0 2.9968095683151959e-05 -7.3616581449906921e-05 0 3.2308103231853245e-05 -7.4204178245377845e-05 0 2.900067099929462e-05 -7.0760806489033156e-05 0 6.4828426352458434e-05 -8.4425758388185116e-05 0 7.8898209799599693e-05 -8.3081010033348582e-05 0 6.0498049626190597e-05 -7.4724182361719839e-05 0 -9.7784790667816931e-10 -1.6256709379673417e-09 0 -1.8064511502821789e-06 -3.3655164971334363e-06 0 -1.8496617729909198e-06 -2.1897313926040284e-06 0 -9.747662018259656e-10 1.0893484313663088e-09 0 -1.5282001924179118e-06 1.3675210685765976e-06 0 -1.7585245552510981e-06 2.2758657681243538e-06 0 7.3626630709192551e-06 -1.801565838256294e-06 0 3.4102597389334867e-06 -2.7184223625768389e-06 0 5.5168968449022837e-06 -1.4556773097290405e-06 0 -8.9541846493520043e-06 6.3938603213276343e-07 0 -7.3732223352643668e-06 1.9805540103609995e-06 0 -5.1745770108221139e-06 1.4799229852895244e-06 0 -1.2200711431530644e-05 -1.8410606971489451e-06 0 -6.7948329280497824e-06 -2.8193283266598508e-06 0 -9.6874137700183403e-06 -3.6990930989799223e-06 0 3.0519493989503854e-05 -3.7518213081924761e-05 0 2.9178563176222224e-05 -3.1735431159432261e-05 0 2.4486773725706642e-05 -3.366054863017965e-05 0 2.3836074972744738e-05 -2.7726384514683367e-05 0 2.5919455090788947e-05 -2.2850851015577767e-05 0 2.0217216764963543e-05 -2.1722451498215415e-05 0 0.00012446075196950347 0.00038862860152277492 0 7.6495848254431924e-05 0.00039002583806275342 0 7.9833457415346288e-05 0.00035190610314998072 0 -7.6633370072980571e-05 -0.00020675894325329492 0 -5.2512436547694391e-05 -0.00020374752065969892 0 -5.7117934392091697e-05 -0.00018435666350032136 0 2.3836074972744738e-05 -2.7726384514683367e-05 0 2.4486773725706642e-05 -3.366054863017965e-05 0 2.9178563176222224e-05 -3.1735431159432261e-05 0 4.1523591551561298e-05 -5.3833316913956636e-05 0 4.7745418963380425e-05 -5.174290511621068e-05 0 3.7023516731914359e-05 -4.5821882190093221e-05 0 -4.1504098906907229e-05 0.00021285983301945523 0 -3.2586942274351566e-05 0.00016532900280689488 0 -9.7629538782757805e-06 0.00018271156073362466 0 -2.5354530667871385e-09 -9.7777937159734842e-10 0 -2.2488554530340681e-09 -5.8557907375662044e-10 0 -1.8496617729909198e-06 -2.1897313926040284e-06 0 -1.8661892619380082e-09 3.4885489773007216e-10 0 -1.8945126023508518e-09 6.041967125011891e-10 0 -1.5282001924179118e-06 1.3675210685765976e-06 0 7.3626630709192551e-06 -1.801565838256294e-06 0 5.1033820504779248e-06 -3.0543036518951926e-06 0 3.4102597389334867e-06 -2.7184223625768389e-06 0 3.9458598492175856e-05 0.00035742288508654337 0 -2.7626974259361054e-06 0.00038778214487259009 0 -2.772352922563055e-06 0.00034029396920577708 0 -3.6261597482326178e-05 -0.0001852882963079944 0 -1.3157473084044164e-05 -0.00020011413641156245 0 -1.5944599390738379e-05 -0.0001750692777890538 0 -1.9008422109001329e-05 -9.1296397167811607e-05 0 -4.946648019580758e-06 -9.2102541432664023e-05 0 -6.3842906298805668e-06 -7.4250708181895452e-05 0 3.888416490347786e-06 6.3475090546932607e-07 0 5.6236472307506917e-06 1.4851927129667416e-06 0 5.6228349716859363e-06 2.5093637144385629e-07 0 -1.7978514097620711e-06 -3.8011495314764299e-06 0 2.98742082010392e-06 -3.2304862622637895e-06 0 -8.9394995903785982e-07 -1.8662574014753801e-06 0 4.7745418963380425e-05 -5.174290511621068e-05 0 4.4498981215044206e-05 -4.5908334811150628e-05 0 3.7023516731914359e-05 -4.5821882190093221e-05 0 5.6228349716859363e-06 2.5093637144385629e-07 0 5.6236472307506917e-06 1.4851927129667416e-06 0 7.4958253721505817e-06 9.3406109092662342e-07 0 5.6236472307506917e-06 1.4851927129667416e-06 0 2.8847657042197945e-06 1.1106982241838222e-06 0 4.6429093668927248e-06 2.0288759928949275e-06 0 2.8084025062641113e-06 1.8842044092174595e-06 0 4.6429093668927248e-06 2.0288759928949275e-06 0 2.8847657042197945e-06 1.1106982241838222e-06 0 1.8306624474934088e-05 -5.5801187548120246e-05 0 2.0638212909796633e-05 -5.1753295328761789e-05 0 1.3685366138970812e-05 -4.7947598676877712e-05 0 1.9592546710132191e-05 -1.5633308128567055e-05 0 2.5919455090788947e-05 -2.2850851015577764e-05 0 2.3145774460917512e-05 -1.4774347876663022e-05 0 4.765445151756997e-05 -5.9576146455389781e-05 0 4.7745418963380425e-05 -5.174290511621068e-05 0 4.1523591551561298e-05 -5.3833316913956636e-05 0 2.2795898121262329e-05 4.4277326322407469e-06 0 2.1884006600864951e-05 -7.0314797589948537e-06 0 2.5279795977462436e-05 -8.9139488245216812e-07 0 0.00011640061254926604 0.00034656097342883622 0 0.00012446075196950347 0.00038862860152277492 0 7.9833457415346288e-05 0.00035190610314998072 0 -7.6503403553544093e-05 -0.00018476939035310042 0 -7.6633370072980571e-05 -0.00020675894325329492 0 -5.7117934392091697e-05 -0.00018435666350032136 0 -7.5882118603202512e-05 -0.00016268875849187347 0 -7.6503403553544093e-05 -0.00018476939035310042 0 -5.7117934392091697e-05 -0.00018435666350032136 0 0.00010936349319224901 0.00030605187382972489 0 0.00011640061254926604 0.00034656097342883622 0 7.9833457415346288e-05 0.00035190610314998072 0 2.544437288120683e-05 9.144229030501408e-06 0 2.2684812608993439e-05 7.3066611130030414e-06 0 2.2795898121262329e-05 4.4277326322407469e-06 0 5.0955076035686246e-06 3.2599120846942071e-06 0 3.372530877848749e-06 2.8682194391936832e-06 0 2.9108349906631021e-06 3.5698932421250637e-06 0 1.9647131470050635e-06 2.7573395896376009e-06 0 2.9108349906631021e-06 3.5698932421250637e-06 0 3.372530877848749e-06 2.8682194391936832e-06 0 5.032564914794751e-05 0.00018660833620254237 0 6.3485293755635898e-05 0.0002116858657763654 0 2.5477419695633339e-05 0.00021248128533943111 0 6.3485293755635898e-05 0.0002116858657763654 0 5.7585090603988923e-05 0.00023790650002905708 0 2.5477419695633339e-05 0.00021248128533943111 0 2.6723649786853364e-05 -1.4060386947923264e-05 0 2.1884006600864945e-05 -7.0314797589948563e-06 0 2.3145774460917512e-05 -1.4774347876663022e-05 0 5.2393892608501969e-05 -8.2799481646992138e-05 0 6.0498049626190597e-05 -7.4724182361719839e-05 0 5.0010861481804788e-05 -7.069271824366232e-05 0 3.6161001752467937e-05 -7.6674205393751911e-05 0 3.209353053492468e-05 -6.9077134152001508e-05 0 2.900067099929462e-05 -7.0760806489033156e-05 0 2.2684812608993439e-05 7.3066611130030414e-06 0 2.0054698503070063e-05 3.7097485603756686e-06 0 2.2795898121262329e-05 4.4277326322407469e-06 0 -0.00012597364171181442 0.00035860094027819362 0 -0.00012515497602062144 0.00031651599904179706 0 -8.8008600563434312e-05 0.00035706213226021141 0 4.2935381383742487e-05 -0.00015668619276523778 0 2.79224777812263e-05 -0.00018091721792237825 0 4.6930915569681945e-05 -0.00017846384128020003 0 -2.3108573998686221e-05 -5.0266623406840899e-06 0 -2.150593814833977e-05 -5.4162015500308767e-06 0 -1.6038645833086461e-05 -1.4791779808180739e-06 0 -3.4661672104658941e-05 6.7344495680010415e-06 0 -2.3871225368648726e-05 1.4913490355874649e-06 0 -3.1359738257748888e-05 7.6303041683911728e-06 0 2.6723649786853364e-05 -1.4060386947923264e-05 0 2.5919455090788947e-05 -2.2850851015577767e-05 0 3.3438426636364855e-05 -2.5527408505805031e-05 0 1.0737501364569068e-05 -2.0516351638692016e-05 0 5.7220668353254189e-06 -3.8717300979396234e-05 0 1.9198137663089527e-05 -4.2194671533406766e-05 0 3.4189778996823008e-05 -3.2055166352154529e-05 0 2.5919455090788947e-05 -2.2850851015577767e-05 0 2.9178563176222224e-05 -3.1735431159432261e-05 0 2.3836074972744738e-05 -2.7726384514683367e-05 0 2.9178563176222224e-05 -3.1735431159432261e-05 0 2.5919455090788947e-05 -2.2850851015577767e-05 0 -1.1283850198157356e-05 -0.00022841145340170497 0 1.118816406273577e-05 -0.00022829659926490149 0 6.9913449698804986e-06 -0.00020735742518907357 0 1.9204632188002522e-07 0.00044206332861962145 0 -4.196431598248255e-05 0.00044226964474424342 0 -3.9856623635037186e-05 0.00040302030850000763 0 4.3762419898719275e-05 0.00044136450418591049 0 1.9204632188002522e-07 0.00044206332861962145 0 3.6547128287740268e-05 0.00040121803611702111 0 -3.2983574506655877e-05 -0.00022838662838741647 0 -1.1283850198157356e-05 -0.00022841145340170497 0 -3.20504134694519e-05 -0.00020795671920703851 0 1.111907596385121e-05 3.2794580706960977e-05 0 -5.2966547037167467e-06 5.5655644159455988e-05 0 -1.0142437678135949e-05 3.460270492461854e-05 0 1.8638034149603413e-05 -3.2242987784344195e-05 0 1.7407313713353415e-05 -3.8214121497472711e-05 0 2.2748560064183368e-05 -3.9551984759384099e-05 0 3.4189778996823008e-05 -3.2055166352154529e-05 0 2.9178563176222224e-05 -3.1735431159432261e-05 0 3.8571140246701792e-05 -3.8609799220586022e-05 0 3.0519493989503854e-05 -3.7518213081924761e-05 0 3.8571140246701792e-05 -3.8609799220586022e-05 0 2.9178563176222224e-05 -3.1735431159432261e-05 0 5.5196679306005762e-06 -7.925859855903348e-05 0 4.8227661494349173e-06 -5.8626030489189573e-05 0 -6.3842906298805668e-06 -7.4250708181895452e-05 0 -9.23307951266752e-05 9.1761654108110942e-05 0 -5.6563234333527057e-05 7.1406893069860021e-05 0 -7.5620815176597798e-05 0.00010409080944370532 0 -9.4818151321843286e-06 -1.0427100881243169e-05 0 -1.5059819066425895e-05 -1.8117257138416472e-05 0 -4.8891941180011263e-06 -1.4003091662470242e-05 0 -7.638583036142293e-06 -2.2579591296368831e-05 0 -4.8891941180011263e-06 -1.4003091662470242e-05 0 -1.5059819066425895e-05 -1.8117257138416472e-05 0 2.7121714035748266e-05 -6.4737506891925041e-05 0 3.1620639814202682e-05 -6.2068489707299372e-05 0 2.6090759263884142e-05 -5.89739775331253e-05 0 -5.8826127998352066e-05 0.00015928871677384202 0 -8.4858366686769944e-05 0.00017909933780855614 0 -7.4850374363184404e-05 0.00013506047509185932 0 -1.8989303398824087e-05 -6.9703286579565307e-06 0 -2.6278336135060268e-05 -1.3148018502693859e-05 0 -1.791605080146997e-05 -1.1844563996377821e-05 0 -2.5600355883312727e-05 -1.8918758560060554e-05 0 -1.791605080146997e-05 -1.1844563996377821e-05 0 -2.6278336135060268e-05 -1.3148018502693859e-05 0 -3.7010837850057251e-05 3.2446477811902377e-05 0 -3.9209393487701945e-05 2.160892253234537e-05 0 -2.4573895089963584e-05 1.9379619444328844e-05 0 -2.7082237355996104e-05 1.1240405458574211e-05 0 -2.4573895089963584e-05 1.9379619444328844e-05 0 -3.9209393487701945e-05 2.160892253234537e-05 0 1.9578627894189165e-05 -4.5593767629858436e-05 0 2.5787629822290596e-05 -4.6441624778003169e-05 0 2.2748560064183368e-05 -3.9551984759384099e-05 0 -5.466231545802501e-05 -4.8425232425773999e-05 0 -4.6775184610649134e-05 -5.4301702241743333e-05 0 -3.6691479161302783e-05 -3.8900264868757309e-05 0 3.1974298291571771e-05 0.00015329869803724146 0 6.4499318982106666e-06 0.0001195259749445899 0 3.3258064206686082e-05 0.00011494822515362952 0 1.6594007887647303e-05 -4.9510550392824092e-06 0 1.3194758218508491e-05 -7.6810273698331182e-06 0 1.4991160703554894e-05 -1.1616287506773518e-05 0 1.3853233320545667e-05 3.0577394920148308e-06 0 1.6164814851868523e-05 3.6853005435475065e-06 0 1.3442984773778635e-05 2.6852885423617933e-06 0 -6.5874456670135165e-05 0.00027126205743291685 0 -3.6585437845830809e-05 0.00028298650975277069 0 -7.3155915470292089e-05 0.00031698991587336548 0 1.1697099989496909e-05 -0.00013689830278384768 0 -1.9152510704136895e-06 -0.0001445421022401472 0 1.7720000339495457e-05 -0.00016056115343169076 0 2.6723649786853364e-05 -1.4060386947923264e-05 0 2.3145774460917512e-05 -1.4774347876663022e-05 0 2.5919455090788947e-05 -2.2850851015577767e-05 0 3.209353053492468e-05 -6.9077134152001508e-05 0 3.1620639814202682e-05 -6.2068489707299372e-05 0 2.7121714035748266e-05 -6.4737506891925041e-05 0 3.0519493989503854e-05 -3.7518213081924761e-05 0 2.7908634834650334e-05 -4.0628072799386607e-05 0 3.7023516731914359e-05 -4.5821882190093221e-05 0 1.1595653547728968e-09 -7.7819195843935454e-10 0 1.5910519073230919e-06 -1.3736832477931182e-06 0 1.0335288276300307e-06 -2.1685566392646053e-06 0 5.5104903219284287e-10 8.2972898552592941e-10 0 2.9979430342880297e-07 2.0961631592902962e-06 0 7.8904791495742733e-07 1.8189596971401656e-06 0 4.8227661494349173e-06 -5.8626030489189573e-05 0 -8.3060671740870306e-06 -5.7907126627375103e-05 0 -6.3842906298805668e-06 -7.4250708181895452e-05 0 -1.7978514097620711e-06 -3.8011495314764299e-06 0 -8.9394995903785982e-07 -1.8662574014753801e-06 0 -6.938033159180036e-06 -2.9833941347000683e-06 0 -7.3600158890494288e-06 1.5682209695650363e-05 0 -1.0142437678135944e-05 3.460270492461854e-05 0 -2.3012162096591093e-05 3.1054059435172249e-05 0 3.5189699664473738e-06 -1.5552941776118455e-06 0 2.05386587316299e-06 -7.0420703256506527e-07 0 4.7766035145672308e-06 -7.4335377490560334e-07 0 3.5524100570669889e-06 -1.8184333053635873e-08 0 4.7766035145672308e-06 -7.4335377490560334e-07 0 2.05386587316299e-06 -7.0420703256506527e-07 0 2.8084025062641113e-06 1.8842044092174595e-06 0 1.3578615431642207e-06 1.7126002472945119e-06 0 3.372530877848749e-06 2.8682194391936832e-06 0 1.9647131470050635e-06 2.7573395896376009e-06 0 3.372530877848749e-06 2.8682194391936832e-06 0 1.3578615431642207e-06 1.7126002472945119e-06 0 -6.9598051790513837e-06 4.9909854620345125e-06 0 1.1916229252163644e-06 7.6889492054258008e-06 0 -7.3600158890494288e-06 1.5682209695650363e-05 0 1.3853233320545667e-05 3.0577394920148308e-06 0 1.6661670937266704e-05 3.7933751170395376e-06 0 1.6164814851868523e-05 3.6853005435475065e-06 0 1.078118556670046e-05 -6.1038471510067902e-07 0 6.9840964045604197e-06 -2.4810836477468882e-06 0 7.3626630709192551e-06 -1.801565838256294e-06 0 -8.9394995903785982e-07 -1.8662574014753801e-06 0 2.98742082010392e-06 -3.2304862622637895e-06 0 4.9767635385091973e-06 -3.3174573683935304e-07 0 1.7418711245636275e-05 2.9669173061692239e-06 0 1.991973510001425e-05 5.3979653018352711e-06 0 1.6661670937266704e-05 3.7933751170395376e-06 0 9.4276465256990843e-07 2.059181401491373e-06 0 2.266941382818262e-06 3.969743108847742e-07 0 3.4412198196191508e-06 2.4790429603186812e-06 0 5.0774816396914754e-06 5.2510639824766172e-07 0 3.4412198196191508e-06 2.4790429603186812e-06 0 2.266941382818262e-06 3.969743108847742e-07 0 -2.2488554530340334e-09 -5.8557907375657949e-10 0 -9.7784790667816931e-10 -1.6256709379673417e-09 0 -1.8496617729909198e-06 -2.1897313926040284e-06 0 -9.747662018259656e-10 1.0893484313663088e-09 0 -1.8661892619380082e-09 3.4885489773007216e-10 0 -1.5282001924179118e-06 1.3675210685765976e-06 0 7.3506894936674311e-05 0.00011900309458344055 0 3.3258064206686082e-05 0.00011494822515362952 0 3.5046287207440606e-05 8.2500887575637309e-05 0 5.0955076035686246e-06 3.2599120846942071e-06 0 6.2235713806593711e-06 3.0138641530820059e-06 0 7.2400514745469015e-06 2.9896567187440581e-06 0 1.0373023102459999e-05 -1.2642706472929396e-05 0 1.1006140485552488e-05 -8.8783814957660997e-06 0 8.7942866511647384e-06 -1.3793898834886564e-05 0 3.8067990063146775e-05 -6.6849226726440529e-05 0 3.1620639814202682e-05 -6.2068489707299372e-05 0 3.209353053492468e-05 -6.9077134152001508e-05 0 -1.8017317445421343e-05 -1.9913079580362803e-06 0 -1.6038645833086461e-05 -1.4791779808180739e-06 0 -1.3312545390286441e-05 3.1042560912855532e-07 0 -2.6004724746614597e-05 1.7946386392996585e-06 0 -1.8872232072398779e-05 -1.4973155192401689e-06 0 -2.3871225368648726e-05 1.4913490355874649e-06 0 3.1144326095187351e-05 -4.6556200294365152e-05 0 3.7023516731914359e-05 -4.5821882190093221e-05 0 2.7908634834650334e-05 -4.0628072799386607e-05 0 -1.6038645833086461e-05 -1.4791779808180739e-06 0 -1.0912188763247603e-05 -2.1848792198788131e-07 0 -1.1586308341265505e-05 7.1148918935974744e-07 0 -1.1536730603474649e-05 -7.5586796514343368e-07 0 -6.545774550182906e-06 4.0348929397487642e-07 0 -1.7991811625643827e-05 2.959734865630076e-06 0 -1.6033392212145456e-05 -3.1463679335422731e-06 0 -1.0912188763247603e-05 -2.1848792198788137e-07 0 -1.6038645833086461e-05 -1.4791779808180739e-06 0 -5.7761656707586699e-07 3.6728544212197099e-06 0 -3.0292132031910007e-06 3.4635857448307612e-06 0 -1.4980561968096964e-06 2.8621992939703615e-06 0 3.4868400872632765e-06 -3.9485517047023241e-06 0 2.98742082010392e-06 -3.2304862622637895e-06 0 -1.5547875767354742e-06 -4.8824629760392132e-06 0 -1.6836544147493153e-05 9.9937742566357513e-06 0 -6.9598051790513837e-06 4.9909854620345125e-06 0 -7.3600158890494288e-06 1.5682209695650363e-05 0 1.9578627894189165e-05 -4.5593767629858436e-05 0 2.2748560064183368e-05 -3.9551984759384099e-05 0 1.7407313713353415e-05 -3.8214121497472711e-05 0 4.6985662128716444e-05 0.00027308116083367201 0 6.3054969326812633e-05 0.00031564314565691665 0 2.5579708817678048e-05 0.00031129958063029142 0 -4.4508153391184575e-05 -0.00014087383413680964 0 -5.0719648762777129e-05 -0.00016426612881672827 0 -3.1761196016770723e-05 -0.00016045880357877396 0 3.5189699664473738e-06 -1.5552941776118455e-06 0 1.5910519073230921e-06 -1.3736832477931182e-06 0 2.05386587316299e-06 -7.0420703256506527e-07 0 1.9647131470050635e-06 2.7573395896376009e-06 0 1.3578615431642207e-06 1.7126002472945117e-06 0 7.8904791495742733e-07 1.8189596971401656e-06 0 5.1055799319845347e-10 -1.1561611093647262e-09 0 1.0335288276300307e-06 -2.1685566392646053e-06 0 2.4059464211376872e-07 -2.3549365427071276e-06 0 -1.8930095821179045e-11 9.4664103812458988e-10 0 -2.3817504123370371e-07 1.9200340084728891e-06 0 2.9979430342880297e-07 2.0961631592902962e-06 0 1.0373023102459999e-05 -1.2642706472929396e-05 0 8.7774567226407141e-06 -1.6685271258122189e-05 0 1.2890305939326863e-05 -1.6714767186870682e-05 0 1.1287314718158685e-05 -2.0798665943357059e-05 0 1.2890305939326863e-05 -1.6714767186870682e-05 0 8.7774567226407141e-06 -1.6685271258122189e-05 0 -1.9191501311664506e-05 0.00012760629057203193 0 -1.6356711256676305e-05 8.9204771719921306e-05 0 6.4499318982106666e-06 0.0001195259749445899 0 1.0094421686939213e-05 7.935355399324395e-05 0 6.449931898210664e-06 0.00011952597494458991 0 -1.6356711256676305e-05 8.9204771719921306e-05 0 2.1165347522025823e-05 1.362250284603156e-05 0 2.1999048670056128e-05 8.3988389770559289e-06 0 3.0588495817372022e-05 1.6443978698685596e-05 0 1.0373023102459999e-05 -1.2642706472929396e-05 0 1.3194758218508491e-05 -7.6810273698331182e-06 0 1.1006140485552488e-05 -8.8783814957660997e-06 0 7.9936731837858603e-06 -2.6461813677547149e-07 0 5.6228349716859363e-06 2.5093637144385629e-07 0 7.4958253721505817e-06 9.3406109092662342e-07 0 1.8638034149603413e-05 -3.2242987784344195e-05 0 2.2748560064183368e-05 -3.9551984759384099e-05 0 2.4486773725706642e-05 -3.366054863017965e-05 0 -4.1504098906907229e-05 0.00021285983301945523 0 -5.9484665956408605e-05 0.00018567309661635481 0 -3.2586942274351566e-05 0.00016532900280689488 0 1.8306624474934088e-05 -5.5801187548120246e-05 0 1.3685366138970812e-05 -4.7947598676877712e-05 0 1.3717529357855109e-05 -5.5522277952192974e-05 0 4.1523591551561298e-05 -5.3833316913956636e-05 0 3.4918994826524341e-05 -5.180025944419759e-05 0 3.9046137787310667e-05 -5.978279629307744e-05 0 3.313076834035783e-06 3.4395470338717677e-06 0 2.9108349906631021e-06 3.5698932421250637e-06 0 1.4679009630967589e-06 3.7361745669271464e-06 0 -2.6900465176176302e-05 5.7295489452572445e-05 0 -1.0142437678135949e-05 3.460270492461854e-05 0 -5.2966547037167467e-06 5.5655644159455988e-05 0 -5.3542698366971843e-06 4.9716113116288021e-07 0 -8.9541846493520043e-06 6.3938603213276343e-07 0 -5.1745770108221139e-06 1.4799229852895244e-06 0 -1.2200711431530644e-05 -1.8410606971489451e-06 0 -7.0505943230928693e-06 -1.4401924654410836e-06 0 -6.7948329280497816e-06 -2.8193283266598504e-06 0 3.4189778996823008e-05 -3.2055166352154529e-05 0 3.3438426636364855e-05 -2.5527408505805031e-05 0 2.5919455090788947e-05 -2.2850851015577767e-05 0 -1.0797392296146703e-06 2.9625743370190373e-06 0 -1.639460934627855e-06 3.7099026661879663e-06 0 -5.7127213998561839e-08 3.3000340310252654e-06 0 -3.6206576687854549e-07 -3.8751208936093198e-06 0 1.3055431046024733e-06 -3.6501541402330352e-06 0 -6.7156404348382491e-11 -4.8089859641472774e-06 0 -8.1540996770829445e-05 6.4848955566413228e-05 0 -5.5487743950032186e-05 4.8212095231824053e-05 0 -5.6563234333527057e-05 7.1406893069860021e-05 0 -4.8716136586451377e-05 -3.5205372850115141e-05 0 -3.6691479161302783e-05 -3.8900264868757309e-05 0 -3.5398703834910163e-05 -2.6636029648474194e-05 0 1.111907596385121e-05 3.2794580706960977e-05 0 2.6599149725667412e-05 2.3312291426800955e-05 0 2.4040266654981601e-05 4.7644619538323001e-05 0 4.424203804126888e-05 2.7514427081397192e-05 0 2.4040266654981601e-05 4.7644619538323001e-05 0 2.6599149725667412e-05 2.3312291426800955e-05 0 -4.7114058971731014e-06 -4.3440999679850446e-05 0 -1.674976162297959e-05 -4.7528997816966398e-05 0 -8.3060671740870306e-06 -5.7907126627375103e-05 0 -1.7770289454998172e-05 -6.8559938824599786e-05 0 -8.3060671740870306e-06 -5.7907126627375103e-05 0 -1.674976162297959e-05 -4.7528997816966398e-05 0 2.6723649786853364e-05 -1.4060386947923264e-05 0 3.0122918896313387e-05 -6.6855964785078777e-06 0 2.5279795977462436e-05 -8.9139488245216812e-07 0 3.8067990063146775e-05 -6.6849226726440529e-05 0 3.209353053492468e-05 -6.9077134152001508e-05 0 3.8117962420516553e-05 -7.3229461144135803e-05 0 7.9936731837858603e-06 -2.6461813677547149e-07 0 7.3626630709192551e-06 -1.801565838256294e-06 0 5.5168968449022837e-06 -1.4556773097290405e-06 0 -1.5059819066425895e-05 -1.8117257138416472e-05 0 -2.5871757267067128e-05 -2.6837617056900812e-05 0 -1.6512012689464009e-05 -2.6720093549637348e-05 0 5.2393892608501969e-05 -8.2799481646992138e-05 0 5.0010861481804788e-05 -7.069271824366232e-05 0 4.3425997720316343e-05 -7.3423703924265264e-05 0 -5.3094509449050772e-05 0.00010415659669774656 0 -7.5620815176597798e-05 0.00010409080944370532 0 -5.6563234333527057e-05 7.1406893069860021e-05 0 -7.3155915470292089e-05 0.00031698991587336548 0 -3.6585437845830809e-05 0.00028298650975277069 0 -3.3463245479839636e-05 0.00032000373881600221 0 1.7720000339495457e-05 -0.00016056115343169076 0 -1.9152510704136895e-06 -0.0001445421022401472 0 -1.6659790998708654e-06 -0.00016355175828003152 0 8.4799357868893989e-06 1.8193349362554158e-06 0 1.1021527404740984e-05 2.0591403590536531e-06 0 8.5367869492882277e-06 2.728586763982678e-06 0 1.1287314718158685e-05 -2.0798665943357059e-05 0 8.7774567226407141e-06 -1.6685271258122189e-05 0 8.2603489443824904e-06 -2.284590874393437e-05 0 1.0276598275601013e-05 1.9753249932188186e-06 0 1.3442984773778635e-05 2.6852885423617933e-06 0 1.2379523784784115e-05 1.6600867331300518e-06 0 1.5096146452796775e-05 2.6330394116750107e-06 0 1.2379523784784115e-05 1.6600867331300518e-06 0 1.3442984773778635e-05 2.6852885423617933e-06 0 -8.9394995903785982e-07 -1.8662574014753801e-06 0 -6.545774550182906e-06 4.0348929397487648e-07 0 -6.938033159180036e-06 -2.9833941347000683e-06 0 -1.7770289454998172e-05 -6.8559938824599786e-05 0 -2.8078035137690329e-05 -7.9820865393547951e-05 0 -1.9008422109001329e-05 -9.1296397167811607e-05 0 -1.2210327897622957e-05 -3.6372229938543364e-06 0 -6.8563678444558714e-06 -4.5778526221583351e-06 0 -1.4380303330578265e-05 -2.2005041001588297e-06 0 2.5477419695633339e-05 0.00021248128533943111 0 -4.9543232187269062e-06 0.0002477984475319564 0 -1.4399374053769023e-05 0.00021567101963047481 0 2.5477419695633339e-05 0.00021248128533943111 0 -1.4399374053769023e-05 0.00021567101963047481 0 -9.7629538782757805e-06 0.00018271156073362466 0 -4.1504098906907229e-05 0.00021285983301945523 0 -9.7629538782757822e-06 0.00018271156073362466 0 -1.4399374053769023e-05 0.00021567101963047481 0 -3.2924628890216703e-05 -0.00010827795576911601 0 -1.9091004208563064e-05 -0.00012719145016489177 0 -1.3289783732026972e-05 -0.00010824923197499282 0 -3.2924628890216703e-05 -0.00010827795576911601 0 -1.3289783732026972e-05 -0.00010824923197499282 0 -1.9008422109001329e-05 -9.1296397167811607e-05 0 2.1999048670056128e-05 8.3988389770559289e-06 0 2.6127616462600655e-05 1.1191603536790716e-05 0 3.0588495817372022e-05 1.6443978698685596e-05 0 1.567399799563513e-09 -6.1211189822876679e-10 0 2.0083548207348387e-09 2.3834593806255688e-11 0 2.05386587316299e-06 -7.0420703256506527e-07 0 1.4453763867468296e-09 5.5471062346858039e-10 0 9.2419101094241694e-10 8.3530425975033606e-10 0 1.3578615431642207e-06 1.7126002472945119e-06 0 6.2235713806593711e-06 3.0138641530820059e-06 0 8.5367869492882277e-06 2.728586763982678e-06 0 7.2400514745469015e-06 2.9896567187440581e-06 0 1.0737501364569068e-05 -2.0516351638692016e-05 0 6.6063486844102347e-06 -1.5885551750426741e-05 0 3.7258366823746717e-06 -2.4545946794519738e-05 0 -6.8563678444558714e-06 -4.5778526221583351e-06 0 -6.938033159180036e-06 -2.9833941347000687e-06 0 -1.4380303330578265e-05 -2.2005041001588297e-06 0 1.8342581895784717e-09 3.9216225295600433e-10 0 2.8847657042197945e-06 1.1106982241838222e-06 0 1.8798935217362217e-06 3.2756885099076721e-07 0 -1.2200711431530644e-05 -1.8410606971489451e-06 0 -9.6874137700183403e-06 -3.6990930989799223e-06 0 -1.4537145129778587e-05 -2.6726560755727699e-06 0 -8.9541846493520043e-06 6.3938603213276343e-07 0 -1.056409528675536e-05 1.1723970429955626e-06 0 -7.373222335264366e-06 1.9805540103609995e-06 0 -3.5509092023824306e-05 -5.3906576791571755e-05 0 -3.6691479161302776e-05 -3.8900264868757309e-05 0 -4.6775184610649134e-05 -5.4301702241743333e-05 0 4.6429093668927248e-06 2.0288759928949275e-06 0 2.8084025062641113e-06 1.8842044092174595e-06 0 5.0453234896085828e-06 2.775831056114209e-06 0 1.9578627894189165e-05 -4.5593767629858436e-05 0 1.3685366138970812e-05 -4.7947598676877712e-05 0 2.0638212909796633e-05 -5.1753295328761789e-05 0 1.7418711245636275e-05 2.9669173061692239e-06 0 1.6661670937266704e-05 3.7933751170395376e-06 0 1.5114404561656315e-05 2.2013578575308717e-06 0 3.1974298291571771e-05 0.00015329869803724146 0 -3.7731398262792964e-07 0.00015465058630124724 0 6.4499318982106666e-06 0.0001195259749445899 0 7.9936731837858603e-06 -2.6461813677547149e-07 0 4.7766035145672308e-06 -7.4335377490560334e-07 0 5.6228349716859363e-06 2.5093637144385629e-07 0 -4.7752054960707053e-05 0.00036076108502438312 0 -3.3463245479839636e-05 0.00032000373881600221 0 -2.772352922563055e-06 0.00034029396920577708 0 7.9730846772825449e-06 -0.0001846957869217706 0 -1.6659790998708654e-06 -0.00016355175828003152 0 -1.5944599390738379e-05 -0.0001750692777890538 0 2.8084025062641113e-06 1.8842044092174595e-06 0 3.372530877848749e-06 2.8682194391936832e-06 0 5.0453234896085828e-06 2.775831056114209e-06 0 1.7418711245636275e-05 2.9669173061692239e-06 0 1.4836035408844659e-05 1.4137906643992211e-07 0 1.6696343829544281e-05 -2.3494896865178652e-07 0 3.9458598492175856e-05 0.00035742288508654337 0 3.6547128287740268e-05 0.00040121803611702111 0 -2.7626974259361054e-06 0.00038778214487259009 0 -4.7752054960707053e-05 0.00036076108502438312 0 -2.7626974259360973e-06 0.00038778214487259009 0 -3.9856623635037186e-05 0.00040302030850000763 0 -3.6261597482326178e-05 -0.0001852882963079944 0 -3.20504134694519e-05 -0.00020795671920703851 0 -1.3157473084044164e-05 -0.00020011413641156245 0 7.9730846772825449e-06 -0.0001846957869217706 0 -1.3157473084044164e-05 -0.00020011413641156245 0 6.9913449698804986e-06 -0.00020735742518907357 0 -7.3600158890494288e-06 1.5682209695650363e-05 0 -2.3012162096591093e-05 3.1054059435172249e-05 0 -2.4573895089963584e-05 1.9379619444328844e-05 0 -2.2014741327160757e-05 -3.3650278345641415e-05 0 -3.6691479161302783e-05 -3.8900264868757309e-05 0 -2.7090219646873118e-05 -4.5119207615307426e-05 0 -3.5509092023824306e-05 -5.3906576791571755e-05 0 -2.7090219646873118e-05 -4.5119207615307426e-05 0 -3.6691479161302783e-05 -3.8900264868757309e-05 0 -5.3094509449050772e-05 0.00010415659669774656 0 -5.6563234333527057e-05 7.1406893069860021e-05 0 -3.6306088560866344e-05 8.4699778481667012e-05 0 -2.6900465176176302e-05 5.7295489452572445e-05 0 -3.6306088560866344e-05 8.4699778481667012e-05 0 -5.6563234333527057e-05 7.1406893069860021e-05 0 1.9647131470050635e-06 2.7573395896376009e-06 0 1.2643539374837462e-06 3.1348045311134572e-06 0 2.9108349906631021e-06 3.5698932421250637e-06 0 6.3529503456793447e-05 8.0817912356758551e-05 0 7.3506894936674311e-05 0.00011900309458344055 0 3.5046287207440606e-05 8.2500887575637309e-05 0 -3.6206576687854549e-07 -3.8751208936093198e-06 0 -2.0627103789538073e-06 -4.6097859743626864e-06 0 -1.8064511502821789e-06 -3.3655164971334359e-06 0 -1.0797392296146703e-06 2.9625743370190373e-06 0 -1.7585245552510981e-06 2.2758657681243538e-06 0 -2.4181986622451479e-06 3.2031741461906528e-06 0 1.0373023102459999e-05 -1.2642706472929396e-05 0 1.4991160703554894e-05 -1.1616287506773518e-05 0 1.3194758218508491e-05 -7.6810273698331182e-06 0 -1.639460934627855e-06 3.7099026661879663e-06 0 -1.6435814531658454e-07 3.7513090911447609e-06 0 -5.7127213998561839e-08 3.3000340310252654e-06 0 -6.7156404348382491e-11 -4.8089859641472774e-06 0 1.3055431046024733e-06 -3.6501541402330352e-06 0 2.4945644733693699e-06 -4.035057397952481e-06 0 -1.1536730603474649e-05 -7.5586796514343368e-07 0 -1.7991811625643827e-05 2.959734865630076e-06 0 -1.4380303330578265e-05 -2.2005041001588297e-06 0 -2.3871225368648726e-05 1.4913490355874649e-06 0 -1.4380303330578265e-05 -2.2005041001588297e-06 0 -1.7991811625643827e-05 2.959734865630076e-06 0 3.9458598492175856e-05 0.00035742288508654337 0 2.5579708817678048e-05 0.00031129958063029142 0 6.3054969326812633e-05 0.00031564314565691665 0 -3.6261597482326178e-05 -0.0001852882963079944 0 -3.1761196016770723e-05 -0.00016045880357877396 0 -5.0719648762777129e-05 -0.00016426612881672827 0 5.2393892608501969e-05 -8.2799481646992138e-05 0 6.4828426352458434e-05 -8.4425758388185116e-05 0 6.0498049626190597e-05 -7.4724182361719839e-05 0 3.2308103231853245e-05 -7.4204178245377845e-05 0 3.6161001752467937e-05 -7.6674205393751911e-05 0 2.900067099929462e-05 -7.0760806489033156e-05 0 -1.0609422221292942e-06 7.4499509249740427e-07 0 9.4276465256990843e-07 2.059181401491373e-06 0 -1.4980561968096964e-06 2.8621992939703615e-06 0 1.1974766335433825e-05 -6.1027389621492693e-05 0 1.8103265553098912e-05 -6.2162852213955877e-05 0 1.3717529357855109e-05 -5.5522277952192974e-05 0 6.8106563925893993e-05 -4.8688205930777875e-05 0 6.0413477481575104e-05 -4.90002733601295e-05 0 6.4253701681527738e-05 -5.7043756437642778e-05 0 4.765445151756997e-05 -5.9576146455389781e-05 0 5.5306942985303187e-05 -5.8816816823449801e-05 0 4.7745418963380425e-05 -5.174290511621068e-05 0 -2.5600355883312727e-05 -1.8918758560060554e-05 0 -2.5871757267067128e-05 -2.6837617056900812e-05 0 -1.5059819066425895e-05 -1.8117257138416472e-05 0 3.6161001752467937e-05 -7.6674205393751911e-05 0 3.8117962420516553e-05 -7.3229461144135803e-05 0 3.209353053492468e-05 -6.9077134152001508e-05 0 -2.7082237355996104e-05 1.1240405458574211e-05 0 -1.7991811625643827e-05 2.959734865630076e-06 0 -1.6836544147493153e-05 9.9937742566357513e-06 0 1.1021527404740984e-05 2.0591403590536531e-06 0 1.1110494489244696e-05 2.7253834894012957e-06 0 8.5367869492882277e-06 2.728586763982678e-06 0 -2.2014741327160757e-05 -3.3650278345641415e-05 0 -1.674976162297959e-05 -4.7528997816966398e-05 0 -1.2037179921768187e-05 -3.3860824910179645e-05 0 -4.7114058971731014e-06 -4.3440999679850446e-05 0 -1.2037179921768189e-05 -3.3860824910179645e-05 0 -1.674976162297959e-05 -4.7528997816966398e-05 0 -3.973295812173055e-06 1.2348249906207405e-06 0 -1.0609422221292942e-06 7.4499509249740427e-07 0 -1.4980561968096964e-06 2.8621992939703615e-06 0 -2.2014741327160757e-05 -3.3650278345641415e-05 0 -1.6512012689464009e-05 -2.6720093549637348e-05 0 -2.5871757267067128e-05 -2.6837617056900812e-05 0 -4.1854838974605381e-06 2.7141506971724995e-06 0 -3.973295812173055e-06 1.2348249906207405e-06 0 -1.4980561968096964e-06 2.8621992939703615e-06 0 3.4868400872632765e-06 -3.9485517047023241e-06 0 7.8867817357281476e-06 -2.0424694685492887e-06 0 2.98742082010392e-06 -3.2304862622637895e-06 0 -2.2014741327160757e-05 -3.3650278345641415e-05 0 -2.5871757267067128e-05 -2.6837617056900812e-05 0 -3.6691479161302783e-05 -3.8900264868757309e-05 0 -2.6900465176176302e-05 5.7295489452572445e-05 0 -5.6563234333527057e-05 7.1406893069860021e-05 0 -3.9418537263370749e-05 4.7007233102887672e-05 0 -9.7784790667816931e-10 -1.6256709379673417e-09 0 -4.2218143310862276e-07 -2.1970940599447368e-06 0 -1.8064511502821789e-06 -3.3655164971334359e-06 0 -9.747662018259656e-10 1.0893484313663088e-09 0 -1.7585245552510981e-06 2.2758657681243538e-06 0 -6.135955516883067e-07 1.6027700396040128e-06 0 -4.1854838974605381e-06 2.7141506971724995e-06 0 -1.4980561968096964e-06 2.8621992939703615e-06 0 -3.0292132031910007e-06 3.4635857448307612e-06 0 -1.7978514097620711e-06 -3.8011495314764299e-06 0 -1.5547875767354742e-06 -4.8824629760392132e-06 0 2.98742082010392e-06 -3.2304862622637895e-06 0 3.0510270143221483e-06 -3.5294448482433404e-06 0 3.4102597389334867e-06 -2.7184223625768389e-06 0 5.1033820504779248e-06 -3.0543036518951926e-06 0 3.7258366823746717e-06 -2.4545946794519738e-05 0 -4.2573587119418218e-06 -2.9749244509301297e-05 0 5.7220668353254189e-06 -3.8717300979396234e-05 0 7.9936731837858603e-06 -2.6461813677547149e-07 0 7.4958253721505826e-06 9.3406109092662352e-07 0 9.6961304108454661e-06 8.5796033361005524e-07 0 -4.7752054960707053e-05 0.00036076108502438312 0 -7.3155915470292089e-05 0.00031698991587336548 0 -3.3463245479839636e-05 0.00032000373881600221 0 7.9730846772825449e-06 -0.0001846957869217706 0 1.7720000339495457e-05 -0.00016056115343169076 0 -1.6659790998708654e-06 -0.00016355175828003152 0 -5.7761656707586699e-07 3.6728544212197099e-06 0 -1.639460934627855e-06 3.7099026661879663e-06 0 -3.0292132031910007e-06 3.4635857448307612e-06 0 3.4868400872632765e-06 -3.9485517047023241e-06 0 -1.5547875767354742e-06 -4.8824629760392132e-06 0 -6.7156404348382491e-11 -4.8089859641472774e-06 0 5.6236472307506917e-06 1.4851927129667416e-06 0 6.677099700503125e-06 2.5235985409383444e-06 0 7.9556855233979581e-06 1.9355975458085048e-06 0 -4.2573587119418218e-06 -2.9749244509301297e-05 0 -4.7114058971731014e-06 -4.3440999679850446e-05 0 5.7220668353254189e-06 -3.8717300979396234e-05 0 -0.00012043480433988828 0.00023495576597888131 0 -0.00011635289448380221 0.0001958573305628776 0 -8.0927240581662495e-05 0.00021374636304220137 0 3.2519866916423926e-05 -9.5484392951691405e-05 0 1.6530533457427581e-05 -0.00010668319517736693 0 3.590282095093671e-05 -0.00011500487530485872 0 -3.2924628890216703e-05 -0.00010827795576911601 0 -1.9008422109001329e-05 -9.1296397167811593e-05 0 -3.3112656161160112e-05 -9.1643922514345516e-05 0 1.3304554384683269e-05 -3.794245420977908e-06 0 1.1006140485552488e-05 -8.878381495766098e-06 0 1.3194758218508491e-05 -7.6810273698331182e-06 0 -1.2210327897622957e-05 -3.6372229938543364e-06 0 -9.6874137700183387e-06 -3.6990930989799223e-06 0 -7.9111949646641853e-06 -4.5564121245675422e-06 0 -9.3657039618096748e-06 1.9297747094037512e-06 0 -6.5741177462158376e-06 2.6617577607342562e-06 0 -7.373222335264366e-06 1.9805540103609995e-06 0 1.606510189235357e-05 3.6411870935515083e-06 0 1.1922479913462549e-05 3.4868131532765408e-07 0 1.5527710222629174e-05 2.2951664636178602e-06 0 5.6236472307506917e-06 1.4851927129667416e-06 0 4.6429093668927248e-06 2.0288759928949275e-06 0 6.6770997005031242e-06 2.5235985409383444e-06 0 1.1287314718158685e-05 -2.0798665943357059e-05 0 1.0482656025720073e-05 -2.7585300807388338e-05 0 1.4770835203015092e-05 -2.4837838494561106e-05 0 -1.2210327897622957e-05 -3.6372229938543364e-06 0 -1.4537145129778587e-05 -2.6726560755727699e-06 0 -9.6874137700183403e-06 -3.6990930989799223e-06 0 -9.3657039618096748e-06 1.9297747094037512e-06 0 -7.3732223352643651e-06 1.9805540103609999e-06 0 -1.0564095286755361e-05 1.1723970429955624e-06 0 1.7418711245636275e-05 2.9669173061692239e-06 0 1.5114404561656315e-05 2.2013578575308717e-06 0 1.4836035408844659e-05 1.4137906643992211e-07 0 -1.5970578567305987e-05 -0.00015120731845879706 0 -1.9091004208563064e-05 -0.00012719145016489174 0 -2.8989441976554472e-05 -0.00014005767547563822 0 -7.2776614147930293e-06 0.00029540132696831894 0 -4.9543232187269104e-06 0.0002477984475319564 0 1.6617226832734609e-05 0.00027299934499054411 0 -2.5600355883312727e-05 -1.8918758560060554e-05 0 -1.5059819066425894e-05 -1.8117257138416469e-05 0 -1.791605080146997e-05 -1.1844563996377821e-05 0 -9.4818151321843286e-06 -1.0427100881243169e-05 0 -1.791605080146997e-05 -1.1844563996377821e-05 0 -1.5059819066425895e-05 -1.8117257138416472e-05 0 6.7540638082782353e-06 -4.2680177041510559e-06 0 3.4569359805685763e-06 -6.2103002026199741e-06 0 7.5293083308756207e-06 -9.5969192240166144e-06 0 2.3266716963501443e-06 -1.1695775289709563e-05 0 7.5293083308756207e-06 -9.5969192240166144e-06 0 3.4569359805685763e-06 -6.2103002026199741e-06 0 1.0335288276300307e-06 -2.1685566392646053e-06 0 3.4102597389334867e-06 -2.7184223625768389e-06 0 1.3055431046024733e-06 -3.6501541402330352e-06 0 3.0510270143221483e-06 -3.5294448482433404e-06 0 1.3055431046024733e-06 -3.6501541402330352e-06 0 3.4102597389334867e-06 -2.7184223625768389e-06 0 7.3549322123824407e-07 3.6320234268099394e-06 0 1.2643539374837462e-06 3.1348045311134572e-06 0 -5.7127213998561839e-08 3.3000340310252654e-06 0 2.9979430342880297e-07 2.0961631592902962e-06 0 -5.7127213998561839e-08 3.3000340310252654e-06 0 1.2643539374837462e-06 3.1348045311134572e-06 0 1.9578627894189165e-05 -4.5593767629858436e-05 0 2.5284738131844943e-05 -5.2434434016980348e-05 0 2.5787629822290596e-05 -4.6441624778003169e-05 0 1.3304554384683269e-05 -3.794245420977908e-06 0 1.6696343829544281e-05 -2.3494896865178652e-07 0 1.4836035408844659e-05 1.4137906643992211e-07 0 1.5096146452796775e-05 2.6330394116750107e-06 0 1.3524705101789525e-05 1.3865102634061807e-06 0 1.2379523784784115e-05 1.6600867331300518e-06 0 2.5477419695633339e-05 0.00021248128533943111 0 2.8242204533349589e-05 0.00024899256987210444 0 -4.9543232187269062e-06 0.0002477984475319564 0 -3.2924628890216703e-05 -0.00010827795576911601 0 -3.56157273565001e-05 -0.00012659629963250444 0 -1.9091004208563064e-05 -0.00012719145016489177 0 2.5477419695633339e-05 0.00021248128533943111 0 -9.7629538782757805e-06 0.00018271156073362466 0 1.9338393596330706e-05 0.0001778641604326402 0 1.606510189235357e-05 3.6411870935515083e-06 0 1.084146924223035e-05 1.7238935530592408e-06 0 1.1922479913462549e-05 3.4868131532765397e-07 0 1.606510189235357e-05 3.6411870935515083e-06 0 1.5730109134697529e-05 7.0092410620726905e-06 0 1.0841469242230352e-05 1.723893553059241e-06 0 -1.9191501311664506e-05 0.00012760629057203193 0 -3.7731398262792704e-07 0.00015465058630124726 0 -3.2586942274351566e-05 0.00016532900280689488 0 -9.7629538782757805e-06 0.00018271156073362466 0 -3.2586942274351566e-05 0.00016532900280689488 0 -3.7731398262792704e-07 0.00015465058630124726 0 -4.1113117712150595e-06 -3.3606067962172323e-06 0 -1.8064511502821789e-06 -3.3655164971334359e-06 0 -3.7221629700897951e-06 -4.4136211194941281e-06 0 -3.3409408639327224e-06 2.0241812489878549e-06 0 -3.3937590552504459e-06 2.8481354169268095e-06 0 -1.7585245552510981e-06 2.2758657681243538e-06 0 -4.7114058971731014e-06 -4.3440999679850446e-05 0 -8.3060671740870306e-06 -5.7907126627375103e-05 0 4.8227661494349173e-06 -5.8626030489189573e-05 0 1.1974766335433825e-05 -6.1027389621492693e-05 0 1.646944892905233e-05 -6.78964154322139e-05 0 1.8103265553098912e-05 -6.2162852213955877e-05 0 6.8106563925893993e-05 -4.8688205930777875e-05 0 6.4253701681527738e-05 -5.7043756437642778e-05 0 7.522081469350076e-05 -5.5605144653105866e-05 0 1.2838885628004402e-05 8.9406181300557592e-07 0 1.4836035408844659e-05 1.4137906643992211e-07 0 1.5114404561656315e-05 2.2013578575308717e-06 0 1.5096146452796775e-05 2.6330394116750107e-06 0 1.8685260378339158e-05 4.725811417018378e-06 0 1.5527710222629174e-05 2.2951664636178602e-06 0 3.8067990063146775e-05 -6.6849226726440529e-05 0 3.9046137787310667e-05 -5.978279629307744e-05 0 3.1620639814202682e-05 -6.2068489707299372e-05 0 3.315321519476942e-05 -5.649134018258044e-05 0 3.1620639814202682e-05 -6.2068489707299372e-05 0 3.9046137787310667e-05 -5.978279629307744e-05 0 3.0519493989503854e-05 -3.7518213081924761e-05 0 3.7023516731914359e-05 -4.5821882190093221e-05 0 3.8571140246701792e-05 -3.8609799220586022e-05 0 -4.7752054960707053e-05 0.00036076108502438312 0 -8.8008600563434312e-05 0.00035706213226021141 0 -7.3155915470292089e-05 0.00031698991587336548 0 7.9730846772825449e-06 -0.0001846957869217706 0 2.79224777812263e-05 -0.00018091721792237825 0 1.7720000339495457e-05 -0.00016056115343169076 0 2.3806243357720005e-05 -6.6617387804671747e-05 0 2.5333863773114866e-05 -7.1244577784218389e-05 0 2.900067099929462e-05 -7.0760806489033156e-05 0 6.3269701097467876e-05 -6.5459486251514013e-05 0 6.0498049626190597e-05 -7.4724182361719839e-05 0 7.4848441250214222e-05 -7.179256784968533e-05 0 3.9458598492175856e-05 0.00035742288508654337 0 -2.772352922563055e-06 0.00034029396920577708 0 2.5579708817678048e-05 0.00031129958063029142 0 -3.6261597482326178e-05 -0.0001852882963079944 0 -1.5944599390738379e-05 -0.0001750692777890538 0 -3.1761196016770723e-05 -0.00016045880357877396 0 5.6236472307506917e-06 1.4851927129667416e-06 0 7.9556855233979581e-06 1.9355975458085048e-06 0 7.4958253721505817e-06 9.3406109092662342e-07 0 1.0276598275601013e-05 1.9753249932188186e-06 0 7.4958253721505817e-06 9.3406109092662342e-07 0 7.9556855233979581e-06 1.9355975458085048e-06 0 4.6985662128716444e-05 0.00027308116083367201 0 2.5579708817678048e-05 0.00031129958063029142 0 1.6617226832734609e-05 0.00027299934499054411 0 -4.4508153391184575e-05 -0.00014087383413680964 0 -3.1761196016770723e-05 -0.00016045880357877396 0 -2.8989441976554472e-05 -0.00014005767547563822 0 -3.6206576687854549e-07 -3.8751208936093198e-06 0 -1.8064511502821793e-06 -3.3655164971334359e-06 0 -4.2218143310862276e-07 -2.1970940599447368e-06 0 -1.0797392296146703e-06 2.9625743370190373e-06 0 -6.135955516883067e-07 1.6027700396040128e-06 0 -1.7585245552510981e-06 2.2758657681243538e-06 0 1.0094421686939213e-05 7.935355399324395e-05 0 3.3258064206686082e-05 0.00011494822515362952 0 6.4499318982106666e-06 0.0001195259749445899 0 -4.1113117712150595e-06 -3.3606067962172323e-06 0 -1.8496617729909198e-06 -2.1897313926040284e-06 0 -1.8064511502821789e-06 -3.3655164971334359e-06 0 -3.3409408639327224e-06 2.0241812489878549e-06 0 -1.7585245552510981e-06 2.2758657681243538e-06 0 -1.5282001924179118e-06 1.3675210685765976e-06 0 -0.00012515497602062144 0.00031651599904179706 0 -9.4590862104454787e-05 0.00028670852549713506 0 -7.3155915470292089e-05 0.00031698991587336548 0 4.2935381383742487e-05 -0.00015668619276523778 0 2.6286690168563551e-05 -0.00014349560393643945 0 1.7720000339495457e-05 -0.00016056115343169076 0 1.111907596385121e-05 3.2794580706960977e-05 0 -1.0142437678135949e-05 3.460270492461854e-05 0 4.0431775963813903e-06 2.1747515478972648e-05 0 -7.3600158890494288e-06 1.5682209695650363e-05 0 4.0431775963813903e-06 2.1747515478972652e-05 0 -1.0142437678135949e-05 3.460270492461854e-05 0 -1.7770289454998172e-05 -6.8559938824599786e-05 0 -1.674976162297959e-05 -4.7528997816966398e-05 0 -2.5797284913794245e-05 -5.5884825598881851e-05 0 2.6723649786853364e-05 -1.4060386947923264e-05 0 3.3438426636364855e-05 -2.5527408505805031e-05 0 3.5180881629950954e-05 -1.9860678099308895e-05 0 -1.9191501311664506e-05 0.00012760629057203193 0 -3.4116349340969885e-05 0.00010692633175509036 0 -1.6356711256676305e-05 8.9204771719921306e-05 0 -2.6900465176176302e-05 5.7295489452572445e-05 0 -1.6356711256676305e-05 8.9204771719921306e-05 0 -3.6306088560866344e-05 8.4699778481667012e-05 0 -2.2014741327160757e-05 -3.3650278345641415e-05 0 -2.7090219646873118e-05 -4.5119207615307426e-05 0 -1.674976162297959e-05 -4.7528997816966398e-05 0 -4.7114058971731014e-06 -4.3440999679850446e-05 0 4.8227661494349173e-06 -5.8626030489189573e-05 0 5.7220668353254189e-06 -3.8717300979396234e-05 0 1.8306624474934088e-05 -5.5801187548120246e-05 0 1.3717529357855109e-05 -5.5522277952192974e-05 0 1.8103265553098912e-05 -6.2162852213955877e-05 0 5.5746677315457753e-05 -5.3140535085079933e-05 0 6.4253701681527738e-05 -5.7043756437642778e-05 0 6.0413477481575104e-05 -4.90002733601295e-05 0 1.6594007887647303e-05 -4.9510550392824092e-06 0 1.4991160703554894e-05 -1.1616287506773518e-05 0 1.8629728570203988e-05 -9.1832120979961113e-06 0 1.0373023102459999e-05 -1.2642706472929396e-05 0 1.2890305939326863e-05 -1.6714767186870682e-05 0 1.4991160703554894e-05 -1.1616287506773518e-05 0 2.2684812608993439e-05 7.3066611130030414e-06 0 1.991973510001425e-05 5.3979653018352711e-06 0 2.0054698503070063e-05 3.7097485603756682e-06 0 3.7258366823746717e-06 -2.4545946794519738e-05 0 6.6063486844102347e-06 -1.5885551750426741e-05 0 -3.241060209460859e-07 -1.8877983112814304e-05 0 3.9458598492175856e-05 0.00035742288508654337 0 6.3054969326812633e-05 0.00031564314565691665 0 7.9833457415346288e-05 0.00035190610314998072 0 -3.6261597482326178e-05 -0.0001852882963079944 0 -5.0719648762777129e-05 -0.00016426612881672827 0 -5.7117934392091697e-05 -0.00018435666350032136 0 1.7418711245636275e-05 2.9669173061692239e-06 0 2.0054698503070063e-05 3.7097485603756682e-06 0 1.991973510001425e-05 5.3979653018352711e-06 0 4.5714275389025484e-05 -3.7738310798810201e-05 0 3.8571140246701792e-05 -3.8609799220586022e-05 0 4.7793177081135089e-05 -4.234215854135023e-05 0 3.315321519476942e-05 -5.649134018258044e-05 0 3.9046137787310667e-05 -5.978279629307744e-05 0 3.4918994826524341e-05 -5.180025944419759e-05 0 1.8662268251144396e-05 4.9314531240883116e-06 0 1.6661670937266704e-05 3.7933751170395376e-06 0 1.991973510001425e-05 5.3979653018352711e-06 0 3.5189699664473738e-06 -1.5552941776118455e-06 0 5.5168968449022837e-06 -1.4556773097290405e-06 0 3.4102597389334867e-06 -2.7184223625768389e-06 0 -6.0531328930035614e-05 -6.3940252031391702e-05 0 -6.5237169808251972e-05 -8.1212498704835899e-05 0 -4.7125975162273821e-05 -6.900019521627092e-05 0 3.4868400872632765e-06 -3.9485517047023241e-06 0 2.4945644733693699e-06 -4.035057397952481e-06 0 5.1033820504779248e-06 -3.0543036518951926e-06 0 1.2379523784784115e-05 1.6600867331300518e-06 0 1.3524705101789525e-05 1.3865102634061807e-06 0 1.0450666419801765e-05 1.1203410940294078e-07 0 1.7418711245636275e-05 2.9669173061692239e-06 0 1.6696343829544281e-05 -2.3494896865178652e-07 0 2.0054698503070063e-05 3.7097485603756682e-06 0 -0.00011030026319068771 0.00015826559658480669 0 -0.00010260239242233819 0.00012344226298233597 0 -7.4850374363184404e-05 0.00013506047509185932 0 2.8084025062641113e-06 1.8842044092174595e-06 0 2.8847657042197945e-06 1.1106982241838222e-06 0 1.2287081617881672e-06 7.8609614742082331e-07 0 1.078118556670046e-05 -6.1038471510067902e-07 0 1.5527710222629174e-05 2.2951664636178602e-06 0 1.1922479913462549e-05 3.4868131532765397e-07 0 1.8638034149603413e-05 -3.2242987784344195e-05 0 1.4052992787277091e-05 -3.1264519116368399e-05 0 1.7407313713353415e-05 -3.8214121497472711e-05 0 -3.2924628890216703e-05 -0.00010827795576911601 0 -4.8453170374321115e-05 -9.921925908713338e-05 0 -5.1579161926453293e-05 -0.00012029926273561361 0 3.4868400872632765e-06 -3.9485517047023241e-06 0 5.1033820504779248e-06 -3.0543036518951926e-06 0 6.9840964045604197e-06 -2.4810836477468882e-06 0 5.6236472307506917e-06 1.4851927129667416e-06 0 3.888416490347786e-06 6.3475090546932607e-07 0 2.8847657042197945e-06 1.1106982241838222e-06 0 7.9285711252523946e-06 -9.9571067817185498e-07 0 1.1922479913462549e-05 3.4868131532765397e-07 0 1.0841469242230352e-05 1.723893553059241e-06 0 1.0482656025720074e-05 -2.7585300807388338e-05 0 1.4052992787277091e-05 -3.1264519116368399e-05 0 1.4770835203015092e-05 -2.4837838494561106e-05 0 1.8306624474934088e-05 -5.5801187548120246e-05 0 2.2121424869280241e-05 -6.005735393160482e-05 0 2.0638212909796633e-05 -5.1753295328761789e-05 0 -1.1536730603474649e-05 -7.5586796514343368e-07 0 -6.938033159180036e-06 -2.9833941347000683e-06 0 -6.545774550182906e-06 4.0348929397487642e-07 0 0.00010936349319224901 0.00030605187382972489 0 6.3054969326812633e-05 0.00031564314565691665 0 7.7766967194531795e-05 0.00028449725257959627 0 -7.5882118603202512e-05 -0.00016268875849187347 0 -5.0719648762777129e-05 -0.00016426612881672827 0 -6.0169219298091818e-05 -0.00014859684416787509 0 9.6961304108454661e-06 8.5796033361005524e-07 0 1.0450666419801765e-05 1.1203410940294078e-07 0 7.9936731837858603e-06 -2.6461813677547149e-07 0 1.2379523784784115e-05 1.6600867331300518e-06 0 1.0450666419801765e-05 1.1203410940294078e-07 0 9.6961304108454661e-06 8.5796033361005524e-07 0 -6.5874456670135165e-05 0.00027126205743291685 0 -7.3155915470292089e-05 0.00031698991587336548 0 -9.4590862104454801e-05 0.00028670852549713506 0 1.1697099989496909e-05 -0.00013689830278384768 0 1.7720000339495454e-05 -0.00016056115343169076 0 2.6286690168563551e-05 -0.00014349560393643945 0 1.0276598275601013e-05 1.9753249932188186e-06 0 1.1410017262725899e-05 2.7516029792268663e-06 0 1.3442984773778635e-05 2.6852885423617933e-06 0 1.3853233320545667e-05 3.0577394920148308e-06 0 1.3442984773778637e-05 2.6852885423617933e-06 0 1.1410017262725899e-05 2.7516029792268663e-06 0 1.0276598275601013e-05 1.9753249932188186e-06 0 9.6961304108454661e-06 8.5796033361005524e-07 0 7.4958253721505817e-06 9.3406109092662342e-07 0 -9.3657039618096748e-06 1.9297747094037512e-06 0 -8.046910335402233e-06 1.8482205460677488e-06 0 -5.6915737745313563e-06 2.9495429984263686e-06 0 -1.7297059903772266e-07 -2.8966272114991405e-06 0 -2.0818631359548625e-06 -8.0852784716134236e-06 0 3.4569359805685763e-06 -6.2103002026199741e-06 0 2.3266716963501443e-06 -1.1695775289709563e-05 0 3.4569359805685763e-06 -6.2103002026199741e-06 0 -2.0818631359548625e-06 -8.0852784716134236e-06 0 -9.3657039618096748e-06 1.9297747094037512e-06 0 -5.6915737745313563e-06 2.9495429984263686e-06 0 -6.5741177462158376e-06 2.6617577607342562e-06 0 1.0094421686939213e-05 7.935355399324395e-05 0 3.5046287207440606e-05 8.2500887575637309e-05 0 3.3258064206686082e-05 0.00011494822515362952 0 -7.2776614147930293e-06 0.00029540132696831894 0 -2.7723529225630495e-06 0.00034029396920577708 0 -3.3463245479839636e-05 0.00032000373881600221 0 -1.5970578567305987e-05 -0.00015120731845879706 0 -1.5944599390738379e-05 -0.0001750692777890538 0 -1.6659790998708654e-06 -0.00016355175828003152 0 8.4799357868893989e-06 1.8193349362554158e-06 0 6.2235713806593702e-06 3.0138641530820059e-06 0 6.0719495798004798e-06 2.0762126774879006e-06 0 1.8342581895784717e-09 3.9216225295600433e-10 0 1.2287081617881672e-06 7.8609614742082331e-07 0 2.8847657042197945e-06 1.1106982241838222e-06 0 1.606510189235357e-05 3.6411870935515083e-06 0 2.1999048670056128e-05 8.3988389770559289e-06 0 1.5730109134697529e-05 7.0092410620726905e-06 0 4.4498981215044206e-05 -4.5908334811150628e-05 0 3.8571140246701792e-05 -3.8609799220586022e-05 0 3.7023516731914359e-05 -4.5821882190093221e-05 0 3.0519493989503854e-05 -3.7518213081924761e-05 0 2.4486773725706642e-05 -3.366054863017965e-05 0 2.7908634834650334e-05 -4.0628072799386607e-05 0 6.6770997005031242e-06 2.5235985409383444e-06 0 7.2400514745469015e-06 2.9896567187440581e-06 0 8.8598804160140537e-06 2.5416027726026718e-06 0 -3.5509092023824306e-05 -5.3906576791571755e-05 0 -4.7125975162273821e-05 -6.900019521627092e-05 0 -3.0176057771332091e-05 -6.7848556515892104e-05 0 -4.0739640476902692e-05 -8.0854783004184841e-05 0 -3.0176057771332091e-05 -6.7848556515892104e-05 0 -4.7125975162273821e-05 -6.900019521627092e-05 0 1.9747371206862995e-09 -1.1915211938229497e-10 0 1.8342581895785741e-09 3.9216225295602221e-10 0 1.8798935217362217e-06 3.2756885099076721e-07 0 -5.8826127998352066e-05 0.00015928871677384202 0 -7.4850374363184404e-05 0.00013506047509185932 0 -4.5284139404471597e-05 0.00013225373099450558 0 -5.3094509449050772e-05 0.00010415659669774656 0 -4.5284139404471597e-05 0.00013225373099450558 0 -7.4850374363184404e-05 0.00013506047509185932 0 2.3806243357720005e-05 -6.6617387804671747e-05 0 2.2121424869280241e-05 -6.005735393160482e-05 0 1.8103265553098912e-05 -6.2162852213955877e-05 0 6.3269701097467876e-05 -6.5459486251514013e-05 0 6.4253701681527738e-05 -5.7043756437642778e-05 0 5.5306942985303187e-05 -5.8816816823449801e-05 0 7.4007212174079018e-06 4.2510951295080481e-06 0 1.0841469242230352e-05 1.723893553059241e-06 0 1.5730109134697529e-05 7.0092410620726905e-06 0 2.6090759263884142e-05 -5.89739775331253e-05 0 2.8941592416481007e-05 -5.6746866100055141e-05 0 2.528473813184494e-05 -5.2434434016980348e-05 0 2.9172168118545159e-05 1.3108634201053946e-05 0 3.3198746885193188e-05 1.7541162737667184e-05 0 3.0588495817372022e-05 1.6443978698685596e-05 0 3.4868400872632765e-06 -3.9485517047023241e-06 0 6.9840964045604197e-06 -2.4810836477468882e-06 0 7.8867817357281476e-06 -2.0424694685492887e-06 0 -7.3600158890494288e-06 1.5682209695650363e-05 0 9.2264645706611877e-06 1.1777169871458059e-05 0 4.0431775963813903e-06 2.1747515478972648e-05 0 7.3506894936674311e-05 0.00011900309458344055 0 5.5609236053040893e-05 0.00014235894022236465 0 3.3258064206686082e-05 0.00011494822515362952 0 8.4799357868893989e-06 1.8193349362554158e-06 0 8.5367869492882294e-06 2.7285867639826776e-06 0 6.2235713806593711e-06 3.0138641530820059e-06 0 -7.2776614147930293e-06 0.00029540132696831894 0 2.5579708817678048e-05 0.00031129958063029142 0 -2.772352922563055e-06 0.00034029396920577708 0 -1.5970578567305987e-05 -0.00015120731845879706 0 -3.1761196016770723e-05 -0.00016045880357877396 0 -1.5944599390738379e-05 -0.0001750692777890538 0 5.0955076035686246e-06 3.2599120846942071e-06 0 4.5263732618649476e-06 3.386398149297986e-06 0 6.2235713806593711e-06 3.0138641530820059e-06 0 9.6895845848397742e-06 -9.6012124682094488e-06 0 8.7942866511647384e-06 -1.3793898834886564e-05 0 1.1006140485552488e-05 -8.8783814957660997e-06 0 4.6985662128716444e-05 0.00027308116083367201 0 7.7766967194531795e-05 0.00028449725257959627 0 6.3054969326812633e-05 0.00031564314565691665 0 -4.4508153391184575e-05 -0.00014087383413680964 0 -6.0169219298091818e-05 -0.00014859684416787506 0 -5.0719648762777129e-05 -0.00016426612881672827 0 -2.3108573998686221e-05 -5.0266623406840899e-06 0 -2.8974870408119648e-05 -9.5267914689827039e-06 0 -2.150593814833977e-05 -5.4162015500308767e-06 0 -4.4834504841607251e-05 1.475954473405893e-05 0 -3.4661672104658941e-05 6.7344495680010415e-06 0 -3.1359738257748888e-05 7.6303041683911728e-06 0 1.111907596385121e-05 3.2794580706960977e-05 0 1.0133248874337613e-05 5.2426014248611706e-05 0 -5.2966547037167467e-06 5.5655644159455988e-05 0 -4.1854838974605381e-06 2.7141506971724995e-06 0 -6.6679765196923558e-06 1.2356799049003319e-06 0 -3.973295812173055e-06 1.2348249906207405e-06 0 2.9042051699094557e-05 -7.6087712819330775e-05 0 2.9968095683151959e-05 -7.3616581449906921e-05 0 2.5333863773114866e-05 -7.1244577784218389e-05 0 2.9042051699094557e-05 -7.6087712819330775e-05 0 2.5333863773114866e-05 -7.1244577784218389e-05 0 2.2337343158996508e-05 -7.3212137584754777e-05 0 9.4115561386808245e-05 -7.7309821391397703e-05 0 8.4120076338451905e-05 -6.4727059975393987e-05 0 7.4848441250214222e-05 -7.179256784968533e-05 0 9.4115561386808245e-05 -7.7309821391397703e-05 0 7.4848441250214222e-05 -7.179256784968533e-05 0 7.8898209799599693e-05 -8.3081010033348582e-05 0 2.3806243357720005e-05 -6.6617387804671747e-05 0 2.7121714035748266e-05 -6.4737506891925041e-05 0 2.2121424869280241e-05 -6.005735393160482e-05 0 6.3269701097467876e-05 -6.5459486251514013e-05 0 5.5306942985303187e-05 -5.8816816823449801e-05 0 5.3623703044999114e-05 -6.5929722960203529e-05 0 5.7775885627344337e-05 -3.7784495615210658e-05 0 5.5423431273263176e-05 -4.3432071516543806e-05 0 6.2376697839254007e-05 -4.2933636928085527e-05 0 6.2778870324176813e-06 -4.5059115575608095e-05 0 8.6528190388827492e-06 -5.3249844509585423e-05 0 1.3685366138970812e-05 -4.7947598676877712e-05 0 4.8454640760044464e-05 -6.5662626320345684e-06 0 3.975543853265139e-05 -1.4538981970003263e-05 0 4.9565871607267776e-05 -1.9253914813497534e-05 0 3.9458598492175856e-05 0.00035742288508654337 0 7.6495848254431924e-05 0.00039002583806275348 0 3.6547128287740268e-05 0.00040121803611702111 0 -4.7752054960707053e-05 0.00036076108502438312 0 -3.9856623635037186e-05 0.00040302030850000763 0 -7.962510388434859e-05 0.00039500643361999548 0 -3.6261597482326178e-05 -0.0001852882963079944 0 -5.2512436547694391e-05 -0.00020374752065969892 0 -3.20504134694519e-05 -0.00020795671920703851 0 7.9730846772825449e-06 -0.0001846957869217706 0 6.9913449698804969e-06 -0.00020735742518907357 0 2.7218114055025535e-05 -0.00020163894566350651 0 9.1858576304983258e-06 2.8214295994238101e-06 0 8.8598804160140537e-06 2.5416027726026718e-06 0 7.2400514745469015e-06 2.9896567187440581e-06 0 3.9458598492175856e-05 0.00035742288508654337 0 7.9833457415346302e-05 0.00035190610314998072 0 7.6495848254431938e-05 0.00039002583806275348 0 -3.6261597482326178e-05 -0.0001852882963079944 0 -5.7117934392091697e-05 -0.00018435666350032136 0 -5.2512436547694391e-05 -0.00020374752065969892 0 1.6594007887647303e-05 -4.9510550392824092e-06 0 1.9147749878491443e-05 -1.0052432432538752e-06 0 1.6696343829544281e-05 -2.3494896865178652e-07 0 -4.7752054960707053e-05 0.00036076108502438312 0 -7.962510388434859e-05 0.00039500643361999548 0 -8.8008600563434312e-05 0.00035706213226021141 0 7.9730846772825449e-06 -0.0001846957869217706 0 2.7218114055025535e-05 -0.00020163894566350651 0 2.79224777812263e-05 -0.00018091721792237825 0 5.5196679306005762e-06 -7.925859855903348e-05 0 1.5858376408148353e-05 -6.8858732569191435e-05 0 4.8227661494349173e-06 -5.8626030489189573e-05 0 1.1287314718158685e-05 -2.0798665943357059e-05 0 1.4770835203015092e-05 -2.4837838494561106e-05 0 1.2890305939326863e-05 -1.6714767186870682e-05 0 1.672683886537932e-05 -2.1160576087851286e-05 0 1.2890305939326863e-05 -1.6714767186870682e-05 0 1.4770835203015092e-05 -2.4837838494561106e-05 0 7.9285711252523946e-06 -9.9571067817185498e-07 0 2.98742082010392e-06 -3.2304862622637895e-06 0 7.8867817357281476e-06 -2.0424694685492887e-06 0 -1.9191501311664506e-05 0.00012760629057203193 0 6.4499318982106666e-06 0.0001195259749445899 0 -3.7731398262792704e-07 0.00015465058630124726 0 -6.5237169808251972e-05 -8.1212498704835899e-05 0 -5.3676371032446282e-05 -8.5292333085120584e-05 0 -4.7125975162273821e-05 -6.900019521627092e-05 0 2.1165347522025823e-05 1.362250284603156e-05 0 9.2264645706611894e-06 1.1777169871458057e-05 0 1.5730109134697529e-05 7.0092410620726905e-06 0 7.4007212174079018e-06 4.2510951295080481e-06 0 1.5730109134697529e-05 7.0092410620726905e-06 0 9.2264645706611894e-06 1.1777169871458057e-05 0 1.5096146452796775e-05 2.6330394116750107e-06 0 1.6164814851868523e-05 3.6853005435475065e-06 0 1.8685260378339158e-05 4.725811417018378e-06 0 3.1144326095187351e-05 -4.6556200294365152e-05 0 3.4918994826524341e-05 -5.180025944419759e-05 0 3.7023516731914359e-05 -4.5821882190093221e-05 0 4.1523591551561298e-05 -5.3833316913956636e-05 0 3.7023516731914359e-05 -4.5821882190093221e-05 0 3.4918994826524341e-05 -5.180025944419759e-05 0 -8.1540996770829445e-05 6.4848955566413228e-05 0 -6.9232123545194559e-05 4.2913392030616663e-05 0 -5.5487743950032186e-05 4.8212095231824053e-05 0 -4.2102338970189602e-05 -2.4313901481543561e-05 0 -4.8716136586451377e-05 -3.5205372850115141e-05 0 -3.5398703834910163e-05 -2.6636029648474194e-05 0 1.1595653547728968e-09 -7.7819195843935454e-10 0 1.567399799563513e-09 -6.1211189822876679e-10 0 1.5910519073230919e-06 -1.3736832477931182e-06 0 9.2419101094241694e-10 8.3530425975033606e-10 0 5.5104903219284287e-10 8.2972898552592941e-10 0 7.8904791495742733e-07 1.8189596971401656e-06 0 1.606510189235357e-05 3.6411870935515083e-06 0 1.5527710222629174e-05 2.2951664636178602e-06 0 1.8957530155480437e-05 4.9645261632411814e-06 0 1.8662268251144396e-05 4.9314531240883116e-06 0 1.8685260378339158e-05 4.725811417018378e-06 0 1.6164814851868523e-05 3.6853005435475065e-06 0 1.5096146452796775e-05 2.6330394116750107e-06 0 1.5527710222629171e-05 2.2951664636178598e-06 0 1.3524705101789525e-05 1.3865102634061807e-06 0 -4.070227751833095e-06 -5.0392452175662796e-06 0 -7.9111949646641853e-06 -4.5564121245675422e-06 0 -6.3418695411509325e-06 -4.31008491374868e-06 0 -4.0987180311038574e-06 3.2999206296796365e-06 0 -5.1493663695047889e-06 2.5620651578616681e-06 0 -6.5741177462158376e-06 2.6617577607342562e-06 0 3.1974298291571771e-05 0.00015329869803724146 0 3.3258064206686082e-05 0.00011494822515362952 0 5.5609236053040893e-05 0.00014235894022236465 0 -4.070227751833095e-06 -5.0392452175662796e-06 0 -6.3418695411509317e-06 -4.3100849137486791e-06 0 -3.7221629700897951e-06 -4.4136211194941281e-06 0 -4.0987180311038574e-06 3.2999206296796365e-06 0 -3.3937590552504459e-06 2.8481354169268095e-06 0 -5.1493663695047889e-06 2.5620651578616681e-06 0 1.9578627894189165e-05 -4.5593767629858436e-05 0 2.0638212909796633e-05 -5.1753295328761789e-05 0 2.528473813184494e-05 -5.2434434016980348e-05 0 1.0094421686939213e-05 7.935355399324395e-05 0 2.4040266654981601e-05 4.7644619538323001e-05 0 3.5046287207440606e-05 8.2500887575637309e-05 0 1.078118556670046e-05 -6.1038471510067902e-07 0 1.3524705101789525e-05 1.3865102634061807e-06 0 1.5527710222629174e-05 2.2951664636178602e-06 0 4.4498981215044206e-05 -4.5908334811150628e-05 0 4.7793177081135089e-05 -4.234215854135023e-05 0 3.8571140246701792e-05 -3.8609799220586022e-05 0 -3.1315434389210584e-10 -1.0529998793576631e-09 0 5.1055799319845347e-10 -1.1561611093647262e-09 0 2.4059464211376872e-07 -2.3549365427071276e-06 0 -1.8930095821179045e-11 9.4664103812458988e-10 0 -6.0483306477682882e-10 7.6303131215281907e-10 0 -2.3817504123370371e-07 1.9200340084728891e-06 0 -1.3206278113760368e-05 -1.6586493170836905e-07 0 -1.8017317445421343e-05 -1.9913079580362803e-06 0 -1.3312545390286441e-05 3.1042560912855532e-07 0 -2.6004724746614597e-05 1.7946386392996585e-06 0 -1.8487703533147244e-05 -8.1390257726596674e-07 0 -1.8872232072398779e-05 -1.4973155192401689e-06 0 -7.638583036142293e-06 -2.2579591296368831e-05 0 -1.5059819066425895e-05 -1.8117257138416472e-05 0 -1.6512012689464009e-05 -2.6720093549637348e-05 0 2.4728378241102428e-05 -5.9182215432607866e-05 0 1.4109185699277504e-05 -5.2000805992973938e-05 0 1.5858376408148357e-05 -6.8858732569191422e-05 0 1.3304554384683269e-05 -3.794245420977908e-06 0 1.1161950946984791e-05 -5.7381907559706845e-06 0 1.1006140485552488e-05 -8.8783814957660997e-06 0 1.3526596259495424e-05 2.5096294564999085e-06 0 1.6661670937266704e-05 3.7933751170395376e-06 0 1.3853233320545667e-05 3.0577394920148308e-06 0 1.5114404561656315e-05 2.2013578575308717e-06 0 1.6661670937266704e-05 3.7933751170395376e-06 0 1.3526596259495424e-05 2.5096294564999085e-06 0 2.235682071147142e-05 7.4825435373968085e-06 0 2.1999048670056128e-05 8.3988389770559289e-06 0 1.8957530155480437e-05 4.9645261632411814e-06 0 1.606510189235357e-05 3.6411870935515083e-06 0 1.8957530155480437e-05 4.9645261632411814e-06 0 2.1999048670056128e-05 8.3988389770559289e-06 0 4.765445151756997e-05 -5.9576146455389781e-05 0 4.3939880644280942e-05 -6.5908669266755967e-05 0 5.3623703044999114e-05 -6.5929722960203529e-05 0 4.5446808711302242e-06 -2.857152845768855e-05 0 1.0482656025720073e-05 -2.7585300807388338e-05 0 8.2603489443824904e-06 -2.284590874393437e-05 0 9.6895845848397742e-06 -9.6012124682094488e-06 0 9.3260698405831409e-06 -1.4233026469701582e-05 0 8.7942866511647384e-06 -1.3793898834886564e-05 0 1.0737501364569068e-05 -2.0516351638692016e-05 0 8.7942866511647384e-06 -1.3793898834886564e-05 0 9.3260698405831409e-06 -1.4233026469701582e-05 0 -8.9541846493520043e-06 6.3938603213276343e-07 0 -1.3206278113760369e-05 -1.6586493170836928e-07 0 -1.0564095286755361e-05 1.1723970429955624e-06 0 -1.8487703533147244e-05 -8.1390257726596674e-07 0 -1.2200711431530644e-05 -1.8410606971489451e-06 0 -1.4537145129778587e-05 -2.6726560755727699e-06 0 4.3054012608103395e-05 -7.9940586220552526e-05 0 5.2393892608501969e-05 -8.2799481646992138e-05 0 4.3425997720316343e-05 -7.3423703924265264e-05 0 9.2264645706611894e-06 1.1777169871458057e-05 0 1.5464651068025166e-05 1.9293709585517731e-05 0 4.0431775963813903e-06 2.1747515478972648e-05 0 1.0276598275601013e-05 1.9753249932188186e-06 0 1.2379523784784115e-05 1.6600867331300516e-06 0 9.6961304108454661e-06 8.5796033361005524e-07 0 -1.8064511502821789e-06 -3.3655164971334359e-06 0 -2.0627103789538069e-06 -4.6097859743626864e-06 0 -3.7221629700897951e-06 -4.4136211194941281e-06 0 -1.7585245552510981e-06 2.2758657681243538e-06 0 -3.3937590552504463e-06 2.8481354169268095e-06 0 -2.4181986622451479e-06 3.2031741461906528e-06 0 5.0955076035686246e-06 3.2599120846942071e-06 0 2.9108349906631021e-06 3.5698932421250637e-06 0 4.5263732618649476e-06 3.386398149297986e-06 0 1.3304554384683269e-05 -3.794245420977908e-06 0 1.4879691407677672e-05 -4.0611768327384543e-06 0 1.6696343829544281e-05 -2.3494896865178652e-07 0 5.5746677315457753e-05 -5.3140535085079933e-05 0 4.7745418963380425e-05 -5.174290511621068e-05 0 5.5306942985303187e-05 -5.8816816823449801e-05 0 3.313076834035783e-06 3.4395470338717677e-06 0 4.5263732618649467e-06 3.386398149297986e-06 0 2.9108349906631021e-06 3.5698932421250637e-06 0 -0.00012043480433988828 0.00023495576597888131 0 -8.0927240581662495e-05 0.00021374636304220137 0 -9.0065683158004056e-05 0.00025058868909728823 0 3.590282095093671e-05 -0.00011500487530485872 0 1.6530533457427581e-05 -0.00010668319517736693 0 2.2310671729526049e-05 -0.00012505466536072662 0 3.2519866916423926e-05 -9.5484392951691405e-05 0 1.7232356315484476e-05 -8.8567952283831456e-05 0 1.6530533457427581e-05 -0.00010668319517736693 0 1.9592546710132191e-05 -1.5633308128567055e-05 0 1.8629728570203988e-05 -9.1832120979961113e-06 0 1.4991160703554894e-05 -1.1616287506773518e-05 0 4.5446808711302242e-06 -2.857152845768855e-05 0 9.110665449722892e-06 -3.3386043087423632e-05 0 1.0482656025720074e-05 -2.7585300807388338e-05 0 8.4799357868893989e-06 1.8193349362554158e-06 0 8.7089271121283355e-06 -7.7921062459641357e-07 0 1.0422829143217975e-05 7.1405043821858698e-07 0 1.6594007887647303e-05 -4.9510550392824092e-06 0 1.6696343829544281e-05 -2.3494896865178652e-07 0 1.4879691407677672e-05 -4.0611768327384535e-06 0 0.00012446075196950347 0.00038862860152277492 0 9.9758507555288491e-05 0.00041181931185279989 0 7.6495848254431938e-05 0.00039002583806275348 0 -7.6633370072980571e-05 -0.00020675894325329492 0 -6.2128610731906236e-05 -0.0002160698960967581 0 -5.2512436547694391e-05 -0.00020374752065969892 0 5.1639284917440089e-05 -0.00020103192984384123 0 2.7218114055025535e-05 -0.00020163894566350651 0 3.9581560269872596e-05 -0.00021320140519431711 0 -0.00012611360816487023 0.00040067268308083666 0 -7.962510388434859e-05 0.00039500643361999548 0 -9.8183522532912777e-05 0.00041860862361342235 0 1.2838885628004402e-05 8.9406181300557592e-07 0 1.1021527404740984e-05 2.0591403590536531e-06 0 1.0422829143217975e-05 7.1405043821858698e-07 0 8.4799357868893989e-06 1.8193349362554158e-06 0 1.0422829143217975e-05 7.1405043821858698e-07 0 1.1021527404740984e-05 2.0591403590536531e-06 0 6.7540638082782353e-06 -4.2680177041510559e-06 0 8.7089271121283338e-06 -7.7921062459641304e-07 0 6.5137601000439685e-06 -1.2438240839869828e-06 0 -2.7082237355996104e-05 1.1240405458574211e-05 0 -3.1359738257748888e-05 7.6303041683911728e-06 0 -1.7991811625643827e-05 2.959734865630076e-06 0 -2.3871225368648726e-05 1.4913490355874649e-06 0 -1.7991811625643827e-05 2.9597348656300752e-06 0 -3.1359738257748888e-05 7.6303041683911728e-06 0 7.4007212174079018e-06 4.2510951295080481e-06 0 1.4058790256583977e-07 1.7597616991915054e-06 0 4.9767635385091973e-06 -3.3174573683935304e-07 0 -1.7297059903772266e-07 -2.8966272114991405e-06 0 2.266941382818262e-06 3.969743108847742e-07 0 -1.0609422221292942e-06 7.4499509249740427e-07 0 9.6895845848397742e-06 -9.6012124682094488e-06 0 7.5293083308756207e-06 -9.5969192240166144e-06 0 9.3260698405831409e-06 -1.4233026469701582e-05 0 -4.0987180311038574e-06 3.2999206296796365e-06 0 -1.639460934627855e-06 3.7099026661879659e-06 0 -2.4181986622451479e-06 3.2031741461906528e-06 0 -1.0797392296146703e-06 2.9625743370190373e-06 0 -2.4181986622451479e-06 3.2031741461906528e-06 0 -1.639460934627855e-06 3.7099026661879663e-06 0 -3.6206576687854549e-07 -3.8751208936093198e-06 0 -6.7156404348382491e-11 -4.8089859641472774e-06 0 -2.0627103789538073e-06 -4.6097859743626864e-06 0 -4.070227751833095e-06 -5.0392452175662796e-06 0 -2.0627103789538073e-06 -4.6097859743626856e-06 0 -6.7156404348382491e-11 -4.8089859641472774e-06 0 -4.0739640476902692e-05 -8.0854783004184841e-05 0 -4.8453170374321122e-05 -9.921925908713338e-05 0 -3.3112656161160112e-05 -9.1643922514345516e-05 0 -3.2924628890216703e-05 -0.00010827795576911601 0 -3.3112656161160112e-05 -9.1643922514345516e-05 0 -4.8453170374321122e-05 -9.921925908713338e-05 0 1.0335288276300307e-06 -2.1685566392646053e-06 0 1.5910519073230919e-06 -1.3736832477931182e-06 0 3.4102597389334867e-06 -2.7184223625768389e-06 0 3.5189699664473738e-06 -1.5552941776118455e-06 0 3.4102597389334867e-06 -2.7184223625768389e-06 0 1.5910519073230919e-06 -1.3736832477931182e-06 0 1.9647131470050635e-06 2.7573395896376009e-06 0 7.8904791495742733e-07 1.8189596971401656e-06 0 1.2643539374837462e-06 3.1348045311134572e-06 0 2.9979430342880297e-07 2.0961631592902962e-06 0 1.2643539374837462e-06 3.1348045311134572e-06 0 7.8904791495742733e-07 1.8189596971401656e-06 0 -7.2776614147930293e-06 0.00029540132696831894 0 1.6617226832734609e-05 0.00027299934499054411 0 2.5579708817678048e-05 0.00031129958063029142 0 -1.5970578567305987e-05 -0.00015120731845879706 0 -2.8989441976554476e-05 -0.00014005767547563822 0 -3.1761196016770723e-05 -0.00016045880357877396 0 -5.7761656707586699e-07 3.6728544212197099e-06 0 -1.643581453165843e-07 3.7513090911447609e-06 0 -1.639460934627855e-06 3.7099026661879663e-06 0 3.4868400872632765e-06 -3.9485517047023241e-06 0 -6.7156404348382491e-11 -4.8089859641472774e-06 0 2.4945644733693699e-06 -4.035057397952481e-06 0 -1.7297059903772266e-07 -2.8966272114991405e-06 0 3.4569359805685763e-06 -6.2103002026199741e-06 0 4.1566697905804254e-06 -2.1534646932162974e-06 0 -4.0987180311038574e-06 3.2999206296796365e-06 0 -3.0292132031910007e-06 3.4635857448307612e-06 0 -1.639460934627855e-06 3.7099026661879663e-06 0 -4.070227751833095e-06 -5.0392452175662796e-06 0 -6.7156404348382491e-11 -4.8089859641472774e-06 0 -1.5547875767354742e-06 -4.8824629760392132e-06 0 1.0737501364569068e-05 -2.0516351638692016e-05 0 7.8083646351904793e-06 -1.5545185592820241e-05 0 8.7942866511647384e-06 -1.3793898834886564e-05 0 8.4799357868893989e-06 1.8193349362554158e-06 0 7.1440024958972298e-06 6.7492446723663815e-07 0 8.7089271121283355e-06 -7.7921062459641357e-07 0 -9.7784790667816931e-10 -1.6256709379673417e-09 0 -3.1315434389210584e-10 -1.0529998793576631e-09 0 -4.2218143310862276e-07 -2.1970940599447368e-06 0 -6.0483306477682882e-10 7.6303131215281907e-10 0 -9.747662018259656e-10 1.0893484313663088e-09 0 -6.135955516883067e-07 1.6027700396040128e-06 0 2.1165347522025823e-05 1.362250284603156e-05 0 1.5730109134697529e-05 7.0092410620726905e-06 0 2.1999048670056128e-05 8.3988389770559289e-06 0 3.8067990063146775e-05 -6.6849226726440529e-05 0 3.8117962420516553e-05 -7.3229461144135803e-05 0 4.3425997720316343e-05 -7.3423703924265264e-05 0 -1.7297059903772266e-07 -2.8966272114991405e-06 0 -4.1517562004633924e-06 -1.4884833711367884e-06 0 -5.860772425677856e-06 -5.3385251463053428e-06 0 4.8227661494349173e-06 -5.8626030489189573e-05 0 1.5858376408148357e-05 -6.8858732569191422e-05 0 1.4109185699277504e-05 -5.2000805992973938e-05 0 1.2838885628004402e-05 8.9406181300557592e-07 0 1.3526596259495424e-05 2.5096294564999085e-06 0 1.1021527404740984e-05 2.0591403590536531e-06 0 1.0407489171742027e-05 -3.3775215093861956e-06 0 1.1015660067823176e-05 -8.8792828979868888e-07 0 8.7089271121283355e-06 -7.7921062459641357e-07 0 -4.1113117712150595e-06 -3.3606067962172323e-06 0 -6.7948329280497816e-06 -2.8193283266598504e-06 0 -3.108681970162405e-06 -1.7073793945173048e-06 0 -3.3409408639327224e-06 2.0241812489878549e-06 0 -2.4093244548823677e-06 9.2330514843473262e-07 0 -5.1745770108221139e-06 1.4799229852895244e-06 0 2.3266716963501443e-06 -1.1695775289709563e-05 0 6.6063486844102339e-06 -1.5885551750426741e-05 0 7.5293083308756207e-06 -9.5969192240166144e-06 0 1.3853233320545667e-05 3.0577394920148308e-06 0 1.1110494489244696e-05 2.7253834894012957e-06 0 1.3526596259495424e-05 2.5096294564999085e-06 0 5.0774816396914754e-06 5.2510639824766172e-07 0 2.266941382818262e-06 3.9697431088477399e-07 0 4.1566697905804254e-06 -2.1534646932162974e-06 0 -1.8989303398824087e-05 -6.9703286579565307e-06 0 -1.791605080146997e-05 -1.1844563996377821e-05 0 -1.2160929340468881e-05 -6.7609156095282548e-06 0 -0.00011635289448380221 0.0001958573305628776 0 -8.4858366686769944e-05 0.00017909933780855614 0 -8.0927240581662495e-05 0.00021374636304220137 0 2.3266716963501443e-06 -1.1695775289709563e-05 0 -2.0818631359548625e-06 -8.0852784716134236e-06 0 -4.8891941180011263e-06 -1.4003091662470242e-05 0 1.4991160703554894e-05 -1.1616287506773518e-05 0 1.2890305939326863e-05 -1.6714767186870682e-05 0 1.6672695963345811e-05 -1.6617645035018281e-05 0 -1.7297059903772266e-07 -2.8966272114991405e-06 0 -5.860772425677856e-06 -5.3385251463053428e-06 0 -2.0818631359548625e-06 -8.0852784716134236e-06 0 1.1021527404740984e-05 2.0591403590536531e-06 0 1.3526596259495424e-05 2.5096294564999085e-06 0 1.1110494489244696e-05 2.7253834894012957e-06 0 1.1287314718158685e-05 -2.0798665943357059e-05 0 8.2603489443824888e-06 -2.284590874393437e-05 0 1.0482656025720074e-05 -2.7585300807388338e-05 0 2.1165347522025823e-05 1.362250284603156e-05 0 3.0588495817372022e-05 1.6443978698685596e-05 0 2.6599149725667412e-05 2.3312291426800955e-05 0 -1.7297059903772266e-07 -2.8966272114991405e-06 0 -1.0609422221292946e-06 7.4499509249740416e-07 0 -4.1517562004633924e-06 -1.4884833711367884e-06 0 -0.00012338868753249347 0.00027525621304174211 0 -0.00012043480433988828 0.00023495576597888131 0 -9.0065683158004056e-05 0.00025058868909728823 0 3.590282095093671e-05 -0.00011500487530485872 0 2.2310671729526049e-05 -0.00012505466536072662 0 3.9349626989122424e-05 -0.00013537228465603218 0 2.8871087836683224e-05 -7.6896881479809409e-05 0 1.7232356315484476e-05 -8.8567952283831456e-05 0 3.2519866916423926e-05 -9.5484392951691405e-05 0 -7.3600158890494288e-06 1.5682209695650363e-05 0 -2.4573895089963584e-05 1.9379619444328844e-05 0 -1.6836544147493153e-05 9.9937742566357513e-06 0 4.8454640760044464e-05 -6.5662626320345684e-06 0 3.3985209386159623e-05 4.8000558945259281e-06 0 3.975543853265139e-05 -1.4538981970003263e-05 0 -1.8989303398824087e-05 -6.9703286579565307e-06 0 -2.150593814833977e-05 -5.4162015500308767e-06 0 -2.6081448564831682e-05 -9.4441858651139319e-06 0 -2.7082237355996104e-05 1.1240405458574211e-05 0 -3.9313939752816507e-05 1.4667864235865647e-05 0 -3.1359738257748888e-05 7.6303041683911728e-06 0 -1.8989303398824087e-05 -6.9703286579565307e-06 0 -2.6081448564831682e-05 -9.4441858651139319e-06 0 -2.6278336135060268e-05 -1.3148018502693859e-05 0 -2.7082237355996104e-05 1.1240405458574211e-05 0 -3.9209393487701945e-05 2.160892253234537e-05 0 -3.9313939752816507e-05 1.4667864235865647e-05 0 -3.3409408639327224e-06 2.0241812489878549e-06 0 -1.5282001924179118e-06 1.3675210685765976e-06 0 -2.4093244548823677e-06 9.2330514843473262e-07 0 -4.1113117712150595e-06 -3.3606067962172323e-06 0 -3.108681970162405e-06 -1.7073793945173048e-06 0 -1.8496617729909198e-06 -2.1897313926040284e-06 0 1.0407489171742027e-05 -3.3775215093861956e-06 0 8.8758159425161321e-06 -6.3572903905712172e-06 0 1.1161950946984791e-05 -5.7381907559706845e-06 0 9.6895845848397742e-06 -9.6012124682094488e-06 0 1.1161950946984791e-05 -5.7381907559706845e-06 0 8.8758159425161321e-06 -6.3572903905712172e-06 0 8.6528190388827492e-06 -5.3249844509585423e-05 0 1.3717529357855109e-05 -5.5522277952192974e-05 0 1.3685366138970812e-05 -4.7947598676877712e-05 0 6.2376697839254007e-05 -4.2933636928085527e-05 0 5.5423431273263176e-05 -4.3432071516543806e-05 0 6.0413477481575104e-05 -4.90002733601295e-05 0 4.9565871607267776e-05 -1.9253914813497534e-05 0 3.975543853265139e-05 -1.4538981970003262e-05 0 4.4524100177463461e-05 -2.4746143667522672e-05 0 5.7775885627344337e-05 -3.7784495615210658e-05 0 5.1914868220581975e-05 -3.7585826158454467e-05 0 5.5423431273263176e-05 -4.3432071516543806e-05 0 6.2778870324176813e-06 -4.5059115575608095e-05 0 1.3685366138970812e-05 -4.7947598676877712e-05 0 1.0309868264026589e-05 -4.0224744173593522e-05 0 -1.7297059903772266e-07 -2.8966272114991405e-06 0 4.1566697905804254e-06 -2.153464693216297e-06 0 2.266941382818262e-06 3.969743108847742e-07 0 6.7540638082782353e-06 -4.2680177041510559e-06 0 7.5293083308756207e-06 -9.5969192240166144e-06 0 8.8758159425161321e-06 -6.3572903905712172e-06 0 9.6895845848397742e-06 -9.6012124682094488e-06 0 8.8758159425161321e-06 -6.3572903905712172e-06 0 7.5293083308756207e-06 -9.5969192240166144e-06 0 1.2838885628004402e-05 8.9406181300557592e-07 0 1.2340063195766544e-05 -2.0256027220078372e-06 0 1.4836035408844659e-05 1.4137906643992211e-07 0 -0.00011635289448380221 0.0001958573305628776 0 -0.00011030026319068771 0.00015826559658480669 0 -8.4858366686769944e-05 0.00017909933780855614 0 1.6594007887647303e-05 -4.9510550392824092e-06 0 1.4879691407677672e-05 -4.0611768327384535e-06 0 1.3194758218508491e-05 -7.6810273698331182e-06 0 1.111907596385121e-05 3.2794580706960977e-05 0 1.5464651068025166e-05 1.9293709585517731e-05 0 2.6599149725667412e-05 2.3312291426800955e-05 0 2.1165347522025823e-05 1.362250284603156e-05 0 2.6599149725667412e-05 2.3312291426800955e-05 0 1.5464651068025166e-05 1.9293709585517731e-05 0 2.4728378241102428e-05 -5.9182215432607866e-05 0 1.5858376408148357e-05 -6.8858732569191422e-05 0 2.8871087836683224e-05 -7.6896881479809409e-05 0 -5.6587607547745808e-05 2.6186565286158804e-05 0 -3.9313939752816507e-05 1.4667864235865647e-05 0 -3.9209393487701945e-05 2.160892253234537e-05 0 -3.5404452675184834e-05 -1.5729921170117488e-05 0 -2.6278336135060268e-05 -1.3148018502693859e-05 0 -2.6081448564831682e-05 -9.4441858651139319e-06 0 1.3304554384683269e-05 -3.794245420977908e-06 0 1.3194758218508493e-05 -7.6810273698331182e-06 0 1.4879691407677672e-05 -4.0611768327384535e-06 0 -4.1504098906907229e-05 0.00021285983301945523 0 -8.0927240581662495e-05 0.00021374636304220137 0 -5.9484665956408598e-05 0.00018567309661635481 0 -4.1504098906907229e-05 0.00021285983301945523 0 -6.3073271799181453e-05 0.00023903061917845563 0 -8.0927240581662495e-05 0.00021374636304220137 0 -1.0805101380788204e-06 -0.00010742526345201309 0 9.2411229256775886e-06 -0.00012005281174204062 0 1.6530533457427581e-05 -0.00010668319517736693 0 -1.0805101380788204e-06 -0.00010742526345201309 0 1.6530533457427577e-05 -0.00010668319517736693 0 6.6026674917797618e-06 -9.4740647051866058e-05 0 3.9349626989122424e-05 -0.00013537228465603218 0 2.6286690168563551e-05 -0.00014349560393643945 0 4.2935381383742487e-05 -0.00015668619276523778 0 -0.00012515497602062144 0.00031651599904179706 0 -0.00012338868753249347 0.00027525621304174211 0 -9.4590862104454801e-05 0.00028670852549713506 0 7.3549322123824407e-07 3.6320234268099394e-06 0 -5.7127213998561865e-08 3.3000340310252654e-06 0 -1.6435814531658454e-07 3.7513090911447609e-06 0 3.0510270143221483e-06 -3.5294448482433404e-06 0 2.4945644733693699e-06 -4.035057397952481e-06 0 1.3055431046024733e-06 -3.6501541402330352e-06 0 -1.0805101380788204e-06 -0.00010742526345201309 0 -1.3289783732026972e-05 -0.00010824923197499282 0 -2.9691351030305288e-06 -0.00012439808996625912 0 -1.0805101380788204e-06 -0.00010742526345201309 0 -4.946648019580758e-06 -9.2102541432664023e-05 0 -1.3289783732026972e-05 -0.00010824923197499282 0 -1.9091004208563064e-05 -0.00012719145016489177 0 -2.9691351030305288e-06 -0.00012439808996625912 0 -1.3289783732026972e-05 -0.00010824923197499282 0 -1.9008422109001329e-05 -9.1296397167811607e-05 0 -1.3289783732026972e-05 -0.00010824923197499282 0 -4.946648019580758e-06 -9.2102541432664023e-05 0 -4.1504098906907229e-05 0.00021285983301945523 0 -1.4399374053769023e-05 0.00021567101963047481 0 -3.7523121736150504e-05 0.00024803422716006642 0 -4.9543232187269062e-06 0.0002477984475319564 0 -3.7523121736150504e-05 0.00024803422716006642 0 -1.4399374053769023e-05 0.00021567101963047481 0 -6.0483306477682882e-10 7.6303131215281907e-10 0 -6.135955516883067e-07 1.6027700396040128e-06 0 -2.3817504123370371e-07 1.9200340084728891e-06 0 -3.1315434389210584e-10 -1.0529998793576631e-09 0 2.4059464211376872e-07 -2.3549365427071276e-06 0 -4.2218143310862276e-07 -2.1970940599447368e-06 0 -3.6691479161302783e-05 -3.8900264868757309e-05 0 -2.5871757267067128e-05 -2.6837617056900812e-05 0 -3.5398703834910163e-05 -2.6636029648474194e-05 0 -5.6563234333527057e-05 7.1406893069860021e-05 0 -5.5487743950032186e-05 4.8212095231824053e-05 0 -3.9418537263370749e-05 4.7007233102887672e-05 0 -1.0912188763247603e-05 -2.1848792198788131e-07 0 -1.6033392212145456e-05 -3.1463679335422736e-06 0 -1.2688513182839112e-05 -3.3084926575874941e-06 0 9.1858576304983258e-06 2.8214295994238101e-06 0 8.5367869492882277e-06 2.728586763982678e-06 0 1.1110494489244696e-05 2.7253834894012957e-06 0 5.0010861481804788e-05 -7.069271824366232e-05 0 5.3623703044999114e-05 -6.5929722960203529e-05 0 4.3939880644280942e-05 -6.5908669266755967e-05 0 -1.2210327897622957e-05 -3.6372229938543364e-06 0 -1.4380303330578264e-05 -2.2005041001588297e-06 0 -1.8872232072398779e-05 -1.4973155192401689e-06 0 -2.3871225368648726e-05 1.4913490355874649e-06 0 -1.8872232072398779e-05 -1.4973155192401689e-06 0 -1.4380303330578265e-05 -2.2005041001588297e-06 0 7.9936731837858603e-06 -2.6461813677547149e-07 0 5.5168968449022837e-06 -1.4556773097290405e-06 0 4.7766035145672308e-06 -7.4335377490560334e-07 0 5.1309491982070642e-05 -2.6907056756601062e-05 0 4.6780497821836599e-05 -3.2233111620896887e-05 0 5.4213333221910992e-05 -3.2658457944402178e-05 0 -3.5404452675184834e-05 -1.5729921170117488e-05 0 -3.2931492405171813e-05 -1.9507755577205401e-05 0 -2.6278336135060268e-05 -1.3148018502693859e-05 0 -5.6587607547745808e-05 2.6186565286158804e-05 0 -3.9209393487701945e-05 2.160892253234537e-05 0 -5.1589777616659111e-05 3.3263221748172751e-05 0 7.0723244373273499e-06 -1.6547270208098937e-05 0 8.7774567226407141e-06 -1.6685271258122186e-05 0 7.8083646351904793e-06 -1.5545185592820241e-05 0 -4.070227751833095e-06 -5.0392452175662796e-06 0 -1.5547875767354742e-06 -4.8824629760392132e-06 0 -6.8563678444558714e-06 -4.5778526221583351e-06 0 -1.7978514097620711e-06 -3.8011495314764299e-06 0 -6.8563678444558714e-06 -4.5778526221583351e-06 0 -1.5547875767354742e-06 -4.8824629760392132e-06 0 1.0094421686939213e-05 7.935355399324395e-05 0 1.0133248874337613e-05 5.2426014248611713e-05 0 2.4040266654981601e-05 4.7644619538323001e-05 0 -1.8487703533147244e-05 -8.1390257726596674e-07 0 -1.4537145129778587e-05 -2.6726560755727699e-06 0 -1.8872232072398779e-05 -1.4973155192401689e-06 0 -1.3206278113760368e-05 -1.6586493170836905e-07 0 -1.3312545390286441e-05 3.1042560912855532e-07 0 -1.0564095286755361e-05 1.1723970429955624e-06 0 3.1144326095187351e-05 -4.6556200294365152e-05 0 2.7908634834650334e-05 -4.0628072799386607e-05 0 2.5787629822290596e-05 -4.6441624778003169e-05 0 2.2748560064183368e-05 -3.9551984759384099e-05 0 2.5787629822290596e-05 -4.6441624778003169e-05 0 2.7908634834650334e-05 -4.0628072799386607e-05 0 1.2838885628004402e-05 8.9406181300557592e-07 0 1.5114404561656315e-05 2.2013578575308717e-06 0 1.3526596259495424e-05 2.5096294564999085e-06 0 7.4007212174079018e-06 4.2510951295080481e-06 0 4.9767635385091964e-06 -3.3174573683935362e-07 0 1.0841469242230352e-05 1.723893553059241e-06 0 1.5096146452796775e-05 2.6330394116750107e-06 0 1.3442984773778635e-05 2.6852885423617933e-06 0 1.6164814851868523e-05 3.6853005435475065e-06 0 1.111907596385121e-05 3.2794580706960977e-05 0 2.4040266654981601e-05 4.7644619538323001e-05 0 1.0133248874337616e-05 5.2426014248611713e-05 0 -1.8989303398824087e-05 -6.9703286579565307e-06 0 -1.2160929340468881e-05 -6.7609156095282548e-06 0 -1.2688513182839112e-05 -3.3084926575874941e-06 0 5.0774816396914754e-06 5.2510639824766172e-07 0 6.0719495798004798e-06 2.0762126774879006e-06 0 3.4412198196191508e-06 2.4790429603186812e-06 0 7.3506894936674311e-05 0.00011900309458344055 0 8.1813239178679098e-05 0.00015455657268664843 0 5.5609236053040893e-05 0.00014235894022236465 0 -6.9146480130668206e-05 -0.00010004513207970333 0 -4.8453170374321122e-05 -9.921925908713338e-05 0 -5.3676371032446282e-05 -8.5292333085120584e-05 0 -5.6587607547745808e-05 2.6186565286158804e-05 0 -4.4834504841607251e-05 1.475954473405893e-05 0 -3.9313939752816507e-05 1.4667864235865647e-05 0 -2.8974870408119648e-05 -9.5267914689827039e-06 0 -3.5404452675184834e-05 -1.5729921170117488e-05 0 -2.6081448564831682e-05 -9.4441858651139319e-06 0 1.6696343829544281e-05 -2.3494896865178652e-07 0 1.9147749878491443e-05 -1.0052432432538752e-06 0 2.0054698503070063e-05 3.7097485603756682e-06 0 -4.070227751833095e-06 -5.0392452175662796e-06 0 -6.8563678444558714e-06 -4.5778526221583351e-06 0 -7.9111949646641853e-06 -4.5564121245675422e-06 0 -1.2210327897622957e-05 -3.6372229938543364e-06 0 -7.9111949646641853e-06 -4.5564121245675422e-06 0 -6.8563678444558714e-06 -4.5778526221583351e-06 0 2.235682071147142e-05 7.4825435373968085e-06 0 2.6127616462600655e-05 1.1191603536790716e-05 0 2.1999048670056128e-05 8.3988389770559289e-06 0 -5.1579161926453293e-05 -0.00012029926273561361 0 -4.8453170374321122e-05 -9.921925908713338e-05 0 -6.0312614991423239e-05 -0.00011006001207158531 0 1.307622216942668e-05 -3.6884952478989087e-05 0 1.7407313713353415e-05 -3.8214121497472711e-05 0 1.4052992787277091e-05 -3.1264519116368399e-05 0 0.00010258018990003611 0.00026640482137333098 0 0.00010936349319224901 0.00030605187382972489 0 7.7766967194531795e-05 0.00028449725257959627 0 -7.4539408934304102e-05 -0.00014112599373044394 0 -7.5882118603202512e-05 -0.00016268875849187347 0 -6.0169219298091818e-05 -0.00014859684416787509 0 -7.3600158890494288e-06 1.5682209695650363e-05 0 1.1916229252163644e-06 7.6889492054258008e-06 0 9.2264645706611894e-06 1.1777169871458057e-05 0 2.3266716963501443e-06 -1.1695775289709563e-05 0 -3.241060209460859e-07 -1.8877983112814304e-05 0 6.6063486844102347e-06 -1.5885551750426741e-05 0 -9.4818151321843286e-06 -1.0427100881243169e-05 0 -4.8891941180011263e-06 -1.4003091662470242e-05 0 -2.0818631359548625e-06 -8.0852784716134236e-06 0 -0.00012338868753249347 0.00027525621304174211 0 -9.0065683158004056e-05 0.00025058868909728823 0 -9.4590862104454801e-05 0.00028670852549713506 0 3.9349626989122424e-05 -0.00013537228465603218 0 2.2310671729526049e-05 -0.00012505466536072662 0 2.6286690168563551e-05 -0.00014349560393643945 0 9.4276465256990843e-07 2.059181401491373e-06 0 1.2658925201786835e-06 3.2646123781296247e-06 0 -1.4980561968096964e-06 2.8621992939703615e-06 0 2.1165347522025823e-05 1.362250284603156e-05 0 1.5464651068025166e-05 1.9293709585517731e-05 0 9.2264645706611894e-06 1.1777169871458057e-05 0 -1.8989303398824087e-05 -6.9703286579565307e-06 0 -1.6033392212145456e-05 -3.1463679335422731e-06 0 -2.150593814833977e-05 -5.4162015500308767e-06 0 5.3975409045495267e-06 -2.1551520553844375e-05 0 4.5446808711302242e-06 -2.857152845768855e-05 0 8.2603489443824904e-06 -2.284590874393437e-05 0 -4.1854838974605381e-06 2.7141506971724995e-06 0 -5.6915737745313563e-06 2.9495429984263686e-06 0 -8.046910335402233e-06 1.8482205460677488e-06 0 -6.5237169808251972e-05 -8.1212498704835899e-05 0 -6.9146480130668206e-05 -0.00010004513207970334 0 -5.3676371032446282e-05 -8.5292333085120584e-05 0 -1.6038645833086461e-05 -1.4791779808180739e-06 0 -1.1586308341265505e-05 7.1148918935974744e-07 0 -1.3312545390286441e-05 3.1042560912855532e-07 0 -9.3657039618096748e-06 1.9297747094037512e-06 0 -1.3312545390286441e-05 3.1042560912855532e-07 0 -1.1586308341265505e-05 7.1148918935974744e-07 0 -5.8826127998352066e-05 0.00015928871677384202 0 -3.2586942274351566e-05 0.00016532900280689488 0 -5.9484665956408598e-05 0.00018567309661635481 0 1.0335288276300307e-06 -2.1685566392646053e-06 0 1.3055431046024733e-06 -3.6501541402330352e-06 0 2.4059464211376872e-07 -2.3549365427071276e-06 0 -3.6206576687854549e-07 -3.8751208936093198e-06 0 2.4059464211376872e-07 -2.3549365427071276e-06 0 1.3055431046024733e-06 -3.6501541402330352e-06 0 -1.0797392296146703e-06 2.9625743370190373e-06 0 -5.7127213998561839e-08 3.3000340310252654e-06 0 -2.3817504123370371e-07 1.9200340084728891e-06 0 2.9979430342880297e-07 2.0961631592902962e-06 0 -2.3817504123370371e-07 1.9200340084728891e-06 0 -5.7127213998561839e-08 3.3000340310252654e-06 0 6.7540638082782353e-06 -4.2680177041510559e-06 0 4.1566697905804254e-06 -2.1534646932162974e-06 0 3.4569359805685763e-06 -6.2103002026199741e-06 0 2.1884006600864948e-05 -7.0314797589948554e-06 0 1.8629728570203988e-05 -9.1832120979961113e-06 0 2.3145774460917512e-05 -1.4774347876663022e-05 0 1.9592546710132191e-05 -1.5633308128567055e-05 0 2.3145774460917512e-05 -1.4774347876663022e-05 0 1.8629728570203988e-05 -9.1832120979961113e-06 0 4.5446808711302242e-06 -2.857152845768855e-05 0 4.8681607874704535e-06 -3.6762103351817384e-05 0 9.110665449722892e-06 -3.3386043087423632e-05 0 1.9592546710132191e-05 -1.5633308128567055e-05 0 1.4991160703554894e-05 -1.1616287506773518e-05 0 1.6672695963345811e-05 -1.6617645035018281e-05 0 5.5423431273263176e-05 -4.3432071516543806e-05 0 5.1914868220581975e-05 -3.7585826158454467e-05 0 4.7793177081135089e-05 -4.234215854135023e-05 0 1.3685366138970812e-05 -4.7947598676877712e-05 0 1.490402777119247e-05 -4.1969005871548233e-05 0 1.0309868264026589e-05 -4.0224744173593522e-05 0 -3.5404452675184834e-05 -1.5729921170117488e-05 0 -4.2102338970189602e-05 -2.4313901481543561e-05 0 -3.2931492405171813e-05 -1.9507755577205401e-05 0 -6.9232123545194559e-05 4.2913392030616663e-05 0 -5.6587607547745808e-05 2.6186565286158804e-05 0 -5.1589777616659111e-05 3.3263221748172751e-05 0 3.975543853265139e-05 -1.4538981970003263e-05 0 3.5180881629950954e-05 -1.9860678099308895e-05 0 4.4524100177463461e-05 -2.4746143667522672e-05 0 5.5423431273263176e-05 -4.3432071516543806e-05 0 5.1857667544805737e-05 -4.8319432197538964e-05 0 6.0413477481575104e-05 -4.90002733601295e-05 0 -9.4818151321843286e-06 -1.0427100881243169e-05 0 -1.2160929340468881e-05 -6.7609156095282548e-06 0 -1.791605080146997e-05 -1.1844563996377821e-05 0 2.8084025062641113e-06 1.8842044092174595e-06 0 1.2287081617881672e-06 7.8609614742082331e-07 0 1.1623683269601717e-06 1.0500780080924572e-06 0 7.9285711252523946e-06 -9.9571067817185498e-07 0 4.9767635385091973e-06 -3.3174573683935314e-07 0 2.98742082010392e-06 -3.2304862622637895e-06 0 1.078118556670046e-05 -6.1038471510067902e-07 0 7.8867817357281476e-06 -2.0424694685492887e-06 0 6.9840964045604197e-06 -2.4810836477468882e-06 0 2.8828946589549897e-05 5.1706616044918766e-06 0 2.5279795977462436e-05 -8.9139488245216812e-07 0 3.0122918896313387e-05 -6.6855964785078802e-06 0 -7.373222335264366e-06 1.9805540103609995e-06 0 -5.1493663695047889e-06 2.5620651578616681e-06 0 -5.1745770108221139e-06 1.4799229852895244e-06 0 -3.3409408639327224e-06 2.0241812489878549e-06 0 -5.1745770108221139e-06 1.4799229852895244e-06 0 -5.1493663695047889e-06 2.5620651578616681e-06 0 -4.1113117712150595e-06 -3.3606067962172323e-06 0 -6.3418695411509325e-06 -4.31008491374868e-06 0 -6.7948329280497816e-06 -2.8193283266598504e-06 0 -9.6874137700183403e-06 -3.6990930989799223e-06 0 -6.7948329280497816e-06 -2.8193283266598504e-06 0 -6.3418695411509325e-06 -4.31008491374868e-06 0 -5.466231545802501e-05 -4.8425232425773999e-05 0 -6.0531328930035614e-05 -6.3940252031391702e-05 0 -4.6775184610649134e-05 -5.4301702241743333e-05 0 1.0094421686939213e-05 7.935355399324395e-05 0 -5.2966547037167493e-06 5.5655644159455995e-05 0 1.0133248874337616e-05 5.2426014248611713e-05 0 2.8871087836683224e-05 -7.6896881479809409e-05 0 1.5858376408148357e-05 -6.8858732569191422e-05 0 1.7232356315484476e-05 -8.8567952283831456e-05 0 4.765445151756997e-05 -5.9576146455389781e-05 0 3.9046137787310667e-05 -5.978279629307744e-05 0 4.3939880644280942e-05 -6.5908669266755967e-05 0 -5.7761656707586699e-07 3.6728544212197099e-06 0 -1.4980561968096964e-06 2.8621992939703615e-06 0 1.2658925201786835e-06 3.2646123781296247e-06 0 1.3304554384683269e-05 -3.794245420977908e-06 0 1.4836035408844659e-05 1.4137906643992211e-07 0 1.2340063195766544e-05 -2.0256027220078372e-06 0 -1.0912188763247603e-05 -2.1848792198788131e-07 0 -8.046910335402233e-06 1.8482205460677488e-06 0 -1.1586308341265505e-05 7.1148918935974744e-07 0 3.1974298291571771e-05 0.00015329869803724146 0 6.1595706453094288e-05 0.00016587931810832298 0 5.032564914794751e-05 0.00018660833620254237 0 1.4453763867468296e-09 5.5471062346858039e-10 0 1.3578615431642207e-06 1.7126002472945119e-06 0 1.1623683269601717e-06 1.0500780080924572e-06 0 2.2748560064183368e-05 -3.9551984759384099e-05 0 2.7908634834650334e-05 -4.0628072799386607e-05 0 2.4486773725706642e-05 -3.366054863017965e-05 0 3.975543853265139e-05 -1.4538981970003263e-05 0 3.3985209386159623e-05 4.8000558945259281e-06 0 3.0122918896313387e-05 -6.6855964785078802e-06 0 -0.00010260239242233819 0.00012344226298233597 0 -9.23307951266752e-05 9.1761654108110942e-05 0 -7.5620815176597798e-05 0.00010409080944370532 0 2.8847657042197945e-06 1.1106982241838222e-06 0 3.8884164903477869e-06 6.3475090546932607e-07 0 1.8798935217362217e-06 3.2756885099076721e-07 0 -1.0797392296146703e-06 2.9625743370190373e-06 0 -2.3817504123370371e-07 1.9200340084728891e-06 0 -6.135955516883067e-07 1.6027700396040128e-06 0 -3.6206576687854549e-07 -3.8751208936093198e-06 0 -4.2218143310862276e-07 -2.1970940599447368e-06 0 2.4059464211376872e-07 -2.3549365427071276e-06 0 1.3853233320545667e-05 3.0577394920148308e-06 0 1.1410017262725899e-05 2.7516029792268663e-06 0 1.1110494489244696e-05 2.7253834894012957e-06 0 -2.5600355883312727e-05 -1.8918758560060554e-05 0 -2.6278336135060268e-05 -1.3148018502693859e-05 0 -3.2931492405171813e-05 -1.9507755577205401e-05 0 -3.7010837850057251e-05 3.2446477811902377e-05 0 -5.1589777616659111e-05 3.3263221748172751e-05 0 -3.9209393487701945e-05 2.160892253234537e-05 0 4.6985662128716444e-05 0.00027308116083367201 0 5.7585090603988923e-05 0.00023790650002905708 0 7.6265802493577858e-05 0.00025824802105213935 0 -4.4508153391184575e-05 -0.00014087383413680964 0 -5.1579161926453293e-05 -0.00012029926273561361 0 -6.0831247094643074e-05 -0.00013378395648407359 0 5.1309491982070642e-05 -2.6907056756601062e-05 0 4.4524100177463461e-05 -2.4746143667522669e-05 0 4.6780497821836599e-05 -3.2233111620896887e-05 0 7.4007212174079018e-06 4.2510951295080481e-06 0 9.226464570661186e-06 1.1777169871458057e-05 0 1.1916229252163644e-06 7.6889492054258008e-06 0 3.9674883007193995e-05 -2.756837584185244e-05 0 4.6780497821836599e-05 -3.2233111620896887e-05 0 4.4524100177463461e-05 -2.4746143667522672e-05 0 9.1858576304983258e-06 2.8214295994238101e-06 0 7.2400514745469015e-06 2.9896567187440581e-06 0 8.5367869492882277e-06 2.728586763982678e-06 0 3.5524100570669889e-06 -1.8184333053635873e-08 0 2.05386587316299e-06 -7.0420703256506527e-07 0 1.4338140698778953e-06 -1.2789882889546085e-07 0 9.4276465256990843e-07 2.059181401491373e-06 0 3.4412198196191508e-06 2.4790429603186808e-06 0 1.2658925201786835e-06 3.2646123781296247e-06 0 2.2795898121262329e-05 4.4277326322407469e-06 0 2.5279795977462436e-05 -8.9139488245216812e-07 0 2.7123118458984661e-05 9.5605801059721343e-06 0 2.8828946589549897e-05 5.1706616044918766e-06 0 2.7123118458984661e-05 9.5605801059721343e-06 0 2.5279795977462436e-05 -8.9139488245216812e-07 0 -3.2924628890216703e-05 -0.00010827795576911601 0 -5.1579161926453293e-05 -0.00012029926273561361 0 -3.56157273565001e-05 -0.00012659629963250444 0 -4.4508153391184575e-05 -0.00014087383413680964 0 -3.56157273565001e-05 -0.00012659629963250444 0 -5.1579161926453293e-05 -0.00012029926273561361 0 2.5477419695633339e-05 0.00021248128533943111 0 5.7585090603988923e-05 0.00023790650002905708 0 2.8242204533349589e-05 0.00024899256987210444 0 4.6985662128716444e-05 0.00027308116083367201 0 2.8242204533349589e-05 0.00024899256987210444 0 5.7585090603988923e-05 0.00023790650002905708 0 2.5477419695633339e-05 0.00021248128533943111 0 1.9338393596330706e-05 0.0001778641604326402 0 5.032564914794751e-05 0.00018660833620254237 0 3.1974298291571771e-05 0.00015329869803724146 0 5.032564914794751e-05 0.00018660833620254237 0 1.9338393596330706e-05 0.0001778641604326402 0 1.8342581895784717e-09 3.9216225295600433e-10 0 1.7029328366517527e-09 4.6820342982012634e-10 0 1.2287081617881672e-06 7.8609614742082331e-07 0 5.4213333221910992e-05 -3.2658457944402178e-05 0 4.6780497821836599e-05 -3.2233111620896887e-05 0 5.1914868220581975e-05 -3.7585826158454467e-05 0 4.5714275389025484e-05 -3.7738310798810201e-05 0 5.1914868220581975e-05 -3.7585826158454467e-05 0 4.6780497821836599e-05 -3.2233111620896887e-05 0 -4.0739640476902692e-05 -8.0854783004184841e-05 0 -4.7125975162273821e-05 -6.900019521627092e-05 0 -5.3676371032446282e-05 -8.5292333085120584e-05 0 -6.0531328930035614e-05 -6.3940252031391702e-05 0 -4.7125975162273821e-05 -6.900019521627092e-05 0 -4.6775184610649134e-05 -5.4301702241743333e-05 0 -0.00010260239242233819 0.00012344226298233597 0 -7.5620815176597798e-05 0.00010409080944370532 0 -7.4850374363184404e-05 0.00013506047509185932 0 1.8662268251144396e-05 4.9314531240883116e-06 0 2.1084311522555019e-05 6.5485816952633557e-06 0 1.8685260378339158e-05 4.725811417018378e-06 0 2.235682071147142e-05 7.4825435373968085e-06 0 1.8685260378339158e-05 4.725811417018378e-06 0 2.1084311522555019e-05 6.5485816952633557e-06 0 6.6770997005031242e-06 2.5235985409383444e-06 0 8.8598804160140537e-06 2.5416027726026718e-06 0 7.9556855233979581e-06 1.9355975458085048e-06 0 2.8084025062641113e-06 1.8842044092174595e-06 0 1.1623683269601715e-06 1.050078008092457e-06 0 1.3578615431642207e-06 1.7126002472945119e-06 0 -1.2210327897622957e-05 -3.6372229938543364e-06 0 -1.8872232072398779e-05 -1.4973155192401689e-06 0 -1.4537145129778587e-05 -2.6726560755727699e-06 0 -9.3657039618096748e-06 1.9297747094037512e-06 0 -1.0564095286755361e-05 1.1723970429955624e-06 0 -1.3312545390286441e-05 3.1042560912855532e-07 0 -9.3657039618096748e-06 1.9297747094037512e-06 0 -1.1586308341265505e-05 7.1148918935974754e-07 0 -8.046910335402233e-06 1.8482205460677488e-06 0 9.5937823912978763e-05 0.00022822306149292409 0 7.6265802493577858e-05 0.00025824802105213935 0 5.7585090603988923e-05 0.00023790650002905708 0 -7.2316928789443538e-05 -0.00012005841471547285 0 -6.0831247094643074e-05 -0.00013378395648407359 0 -5.1579161926453293e-05 -0.00012029926273561361 0 2.0083548207348387e-09 2.3834593806255688e-11 0 1.4338140698778953e-06 -1.278988288954609e-07 0 2.05386587316299e-06 -7.0420703256506527e-07 0 1.078118556670046e-05 -6.1038471510067902e-07 0 1.1922479913462549e-05 3.4868131532765434e-07 0 7.8867817357281476e-06 -2.0424694685492887e-06 0 -1.7770289454998172e-05 -6.8559938824599786e-05 0 -2.5797284913794245e-05 -5.5884825598881851e-05 0 -3.0176057771332091e-05 -6.7848556515892104e-05 0 -8.9394995903785982e-07 -1.8662574014753801e-06 0 4.9767635385091981e-06 -3.3174573683935314e-07 0 1.4058790256583977e-07 1.7597616991915054e-06 0 2.3266716963501443e-06 -1.1695775289709563e-05 0 -4.8891941180011263e-06 -1.4003091662470242e-05 0 -3.241060209460859e-07 -1.8877983112814304e-05 0 1.5527710222629174e-05 2.2951664636178602e-06 0 1.8685260378339158e-05 4.725811417018378e-06 0 1.8957530155480437e-05 4.9645261632411814e-06 0 -1.9191501311664506e-05 0.00012760629057203193 0 -4.5284139404471597e-05 0.00013225373099450558 0 -3.4116349340969885e-05 0.00010692633175509036 0 -2.5600355883312727e-05 -1.8918758560060554e-05 0 -3.5398703834910163e-05 -2.6636029648474194e-05 0 -2.5871757267067128e-05 -2.6837617056900812e-05 0 -3.7010837850057251e-05 3.2446477811902377e-05 0 -3.9418537263370749e-05 4.7007233102887672e-05 0 -5.5487743950032186e-05 4.8212095231824053e-05 0 3.8067990063146775e-05 -6.6849226726440529e-05 0 4.3425997720316343e-05 -7.3423703924265264e-05 0 4.3939880644280942e-05 -6.5908669266755967e-05 0 5.0010861481804788e-05 -7.069271824366232e-05 0 4.3939880644280942e-05 -6.5908669266755967e-05 0 4.3425997720316343e-05 -7.3423703924265264e-05 0 -1.0912188763247603e-05 -2.1848792198788131e-07 0 -6.6679765196923558e-06 1.2356799049003321e-06 0 -8.046910335402233e-06 1.8482205460677488e-06 0 -4.1854838974605381e-06 2.7141506971724995e-06 0 -8.046910335402233e-06 1.8482205460677488e-06 0 -6.6679765196923558e-06 1.2356799049003321e-06 0 5.0774816396914754e-06 5.2510639824766172e-07 0 4.1566697905804254e-06 -2.1534646932162974e-06 0 6.5137601000439685e-06 -1.2438240839869828e-06 0 -1.6038645833086461e-05 -1.4791779808180739e-06 0 -2.150593814833977e-05 -5.4162015500308767e-06 0 -1.6033392212145456e-05 -3.1463679335422731e-06 0 -1.1536730603474649e-05 -7.5586796514343368e-07 0 -1.4380303330578265e-05 -2.2005041001588297e-06 0 -6.938033159180036e-06 -2.9833941347000683e-06 0 3.6161001752467937e-05 -7.6674205393751911e-05 0 4.3054012608103395e-05 -7.9940586220552526e-05 0 3.8117962420516553e-05 -7.3229461144135803e-05 0 -1.9191501311664506e-05 0.00012760629057203193 0 -3.2586942274351566e-05 0.00016532900280689488 0 -4.5284139404471597e-05 0.00013225373099450558 0 1.7029328366517527e-09 4.6820342982012634e-10 0 1.4453763867468296e-09 5.5471062346858039e-10 0 1.1623683269601717e-06 1.0500780080924572e-06 0 8.9114736756925556e-05 0.00019091454508080393 0 5.032564914794751e-05 0.00018660833620254237 0 6.1595706453094288e-05 0.00016587931810832298 0 2.9172168118545159e-05 1.3108634201053946e-05 0 3.0588495817372022e-05 1.6443978698685596e-05 0 2.6127616462600655e-05 1.1191603536790716e-05 0 -3.7010837850057251e-05 3.2446477811902377e-05 0 -2.3012162096591093e-05 3.1054059435172249e-05 0 -3.9418537263370749e-05 4.7007233102887672e-05 0 2.9172168118545159e-05 1.3108634201053946e-05 0 2.4647607871633759e-05 9.3364107487792277e-06 0 2.544437288120683e-05 9.144229030501408e-06 0 2.9172168118545159e-05 1.3108634201053946e-05 0 2.6127616462600652e-05 1.1191603536790714e-05 0 2.4647607871633759e-05 9.3364107487792277e-06 0 -3.973295812173055e-06 1.2348249906207405e-06 0 -7.7114702821446743e-06 -7.0254454047217052e-07 0 -4.1517562004633924e-06 -1.4884833711367884e-06 0 3.313076834035783e-06 3.4395470338717677e-06 0 1.2658925201786835e-06 3.2646123781296247e-06 0 3.4412198196191508e-06 2.4790429603186812e-06 0 -5.3094509449050772e-05 0.00010415659669774656 0 -7.4850374363184404e-05 0.00013506047509185932 0 -7.5620815176597798e-05 0.00010409080944370532 0 9.6895845848397742e-06 -9.6012124682094488e-06 0 1.100614048555249e-05 -8.8783814957660997e-06 0 1.1161950946984791e-05 -5.7381907559706845e-06 0 2.2795898121262329e-05 4.4277326322407469e-06 0 2.7123118458984661e-05 9.5605801059721343e-06 0 2.544437288120683e-05 9.144229030501408e-06 0 1.8638034149603413e-05 -3.2242987784344195e-05 0 1.9702669512532015e-05 -2.6931637571072828e-05 0 1.4770835203015092e-05 -2.4837838494561106e-05 0 -2.5600355883312727e-05 -1.8918758560060554e-05 0 -3.2931492405171813e-05 -1.9507755577205401e-05 0 -3.5398703834910163e-05 -2.6636029648474194e-05 0 -3.7010837850057251e-05 3.2446477811902377e-05 0 -5.5487743950032186e-05 4.8212095231824053e-05 0 -5.1589777616659111e-05 3.3263221748172751e-05 0 -6.5874456670135165e-05 0.00027126205743291685 0 -9.4590862104454801e-05 0.00028670852549713506 0 -9.0065683158004056e-05 0.00025058868909728823 0 1.1697099989496909e-05 -0.00013689830278384768 0 2.6286690168563551e-05 -0.00014349560393643945 0 2.2310671729526049e-05 -0.00012505466536072662 0 1.307622216942668e-05 -3.6884952478989087e-05 0 1.4052992787277091e-05 -3.1264519116368399e-05 0 9.110665449722892e-06 -3.3386043087423632e-05 0 2.235682071147142e-05 7.4825435373968085e-06 0 1.8957530155480437e-05 4.9645261632411814e-06 0 1.8685260378339158e-05 4.725811417018378e-06 0 -1.7978514097620711e-06 -3.8011495314764299e-06 0 -6.938033159180036e-06 -2.9833941347000683e-06 0 -6.8563678444558714e-06 -4.5778526221583351e-06 0 -1.8989303398824087e-05 -6.9703286579565307e-06 0 -1.2688513182839112e-05 -3.3084926575874941e-06 0 -1.6033392212145456e-05 -3.1463679335422731e-06 0 -2.7082237355996104e-05 1.1240405458574211e-05 0 -1.6836544147493153e-05 9.9937742566357496e-06 0 -2.4573895089963584e-05 1.9379619444328844e-05 0 7.5293083308756207e-06 -9.5969192240166144e-06 0 6.6063486844102347e-06 -1.5885551750426741e-05 0 9.3260698405831409e-06 -1.4233026469701582e-05 0 -8.3249191738308128e-06 -3.3722606199427518e-06 0 -1.268851318283911e-05 -3.3084926575874941e-06 0 -1.2160929340468881e-05 -6.7609156095282548e-06 0 2.2795898121262329e-05 4.4277326322407469e-06 0 2.0054698503070063e-05 3.7097485603756682e-06 0 1.9147749878491443e-05 -1.0052432432538752e-06 0 2.0083548207348387e-09 2.3834593806255688e-11 0 1.9747371206860369e-09 -1.1915211938227153e-10 0 1.4338140698778953e-06 -1.2789882889546085e-07 0 1.9578627894189165e-05 -4.5593767629858436e-05 0 1.490402777119247e-05 -4.1969005871548233e-05 0 1.3685366138970812e-05 -4.7947598676877712e-05 0 -2.8974870408119648e-05 -9.5267914689827039e-06 0 -2.6081448564831682e-05 -9.4441858651139319e-06 0 -2.150593814833977e-05 -5.4162015500308767e-06 0 -4.4834504841607251e-05 1.475954473405893e-05 0 -3.1359738257748888e-05 7.6303041683911728e-06 0 -3.9313939752816507e-05 1.4667864235865647e-05 0 -3.5509092023824306e-05 -5.3906576791571755e-05 0 -4.6775184610649134e-05 -5.4301702241743333e-05 0 -4.7125975162273821e-05 -6.900019521627092e-05 0 -7.638583036142293e-06 -2.2579591296368831e-05 0 -4.2573587119418218e-06 -2.9749244509301297e-05 0 -3.241060209460859e-07 -1.8877983112814304e-05 0 3.7258366823746717e-06 -2.4545946794519738e-05 0 -3.241060209460859e-07 -1.8877983112814304e-05 0 -4.2573587119418218e-06 -2.9749244509301297e-05 0 -8.3249191738308128e-06 -3.3722606199427518e-06 0 -5.860772425677856e-06 -5.3385251463053428e-06 0 -4.1517562004633924e-06 -1.4884833711367884e-06 0 1.8638034149603413e-05 -3.2242987784344195e-05 0 1.4770835203015092e-05 -2.4837838494561106e-05 0 1.4052992787277091e-05 -3.1264519116368399e-05 0 -4.0739640476902692e-05 -8.0854783004184841e-05 0 -2.8078035137690329e-05 -7.9820865393547951e-05 0 -3.0176057771332091e-05 -6.7848556515892104e-05 0 -8.3249191738308128e-06 -3.3722606199427518e-06 0 -4.1517562004633924e-06 -1.4884833711367884e-06 0 -7.7114702821446743e-06 -7.0254454047217052e-07 0 1.672683886537932e-05 -2.1160576087851286e-05 0 1.4770835203015092e-05 -2.4837838494561106e-05 0 1.9702669512532015e-05 -2.6931637571072828e-05 0 3.5189699664473738e-06 -1.5552941776118455e-06 0 4.7766035145672317e-06 -7.4335377490560334e-07 0 5.5168968449022837e-06 -1.4556773097290405e-06 0 -4.2102338970189602e-05 -2.4313901481543561e-05 0 -3.5398703834910163e-05 -2.6636029648474194e-05 0 -3.2931492405171813e-05 -1.9507755577205401e-05 0 -6.9232123545194559e-05 4.2913392030616663e-05 0 -5.1589777616659111e-05 3.3263221748172751e-05 0 -5.5487743950032186e-05 4.8212095231824053e-05 0 -7.2316928789443538e-05 -0.00012005841471547285 0 -5.1579161926453293e-05 -0.00012029926273561361 0 -6.0312614991423239e-05 -0.00011006001207158531 0 9.5937823912978763e-05 0.00022822306149292409 0 5.7585090603988923e-05 0.00023790650002905708 0 6.3485293755635898e-05 0.0002116858657763654 0 8.9114736756925556e-05 0.00019091454508080393 0 6.3485293755635898e-05 0.0002116858657763654 0 5.032564914794751e-05 0.00018660833620254237 0 -7.2316928789443538e-05 -0.00012005841471547285 0 -7.4539408934304102e-05 -0.00014112599373044394 0 -6.0831247094643074e-05 -0.00013378395648407359 0 9.5937823912978763e-05 0.00022822306149292409 0 0.00010258018990003611 0.00026640482137333098 0 7.6265802493577858e-05 0.00025824802105213935 0 3.9674883007193995e-05 -2.756837584185244e-05 0 3.5180881629950954e-05 -1.9860678099308895e-05 0 3.3438426636364855e-05 -2.5527408505805031e-05 0 1.0482656025720074e-05 -2.7585300807388338e-05 0 9.110665449722892e-06 -3.3386043087423632e-05 0 1.4052992787277091e-05 -3.1264519116368399e-05 0 1.646944892905233e-05 -6.78964154322139e-05 0 2.2337343158996508e-05 -7.3212137584754777e-05 0 2.1059985915141217e-05 -6.8232128228896448e-05 0 7.522081469350076e-05 -5.5605144653105866e-05 0 7.1879946840457581e-05 -6.3168918111134958e-05 0 8.4120076338451905e-05 -6.4727059975393987e-05 0 -3.7010837850057251e-05 3.2446477811902377e-05 0 -2.4573895089963584e-05 1.9379619444328844e-05 0 -2.3012162096591093e-05 3.1054059435172249e-05 0 -4.1854838974605381e-06 2.7141506971724995e-06 0 -3.0292132031910007e-06 3.4635857448307612e-06 0 -5.6915737745313563e-06 2.9495429984263686e-06 0 1.0276598275601013e-05 1.9753249932188186e-06 0 8.8598804160140537e-06 2.5416027726026718e-06 0 1.1410017262725899e-05 2.7516029792268663e-06 0 -5.8826127998352066e-05 0.00015928871677384202 0 -4.5284139404471597e-05 0.00013225373099450558 0 -3.2586942274351566e-05 0.00016532900280689488 0 5.5196679306005762e-06 -7.925859855903348e-05 0 1.7232356315484476e-05 -8.8567952283831456e-05 0 1.5858376408148357e-05 -6.8858732569191422e-05 0 3.5524100570669889e-06 -1.8184333053635873e-08 0 1.4338140698778953e-06 -1.2789882889546085e-07 0 1.8798935217362217e-06 3.2756885099076721e-07 0 -9.4818151321843286e-06 -1.0427100881243169e-05 0 -2.0818631359548625e-06 -8.0852784716134236e-06 0 -5.860772425677856e-06 -5.3385251463053428e-06 0 8.1813239178679098e-05 0.00015455657268664843 0 8.911473675692557e-05 0.00019091454508080393 0 6.1595706453094288e-05 0.00016587931810832298 0 3.0510270143221483e-06 -3.5294448482433404e-06 0 5.1033820504779248e-06 -3.0543036518951926e-06 0 2.4945644733693699e-06 -4.035057397952481e-06 0 3.9674883007193995e-05 -2.756837584185244e-05 0 3.3438426636364855e-05 -2.5527408505805031e-05 0 4.0109011607708953e-05 -3.2766382241531177e-05 0 3.4189778996823008e-05 -3.2055166352154529e-05 0 4.0109011607708953e-05 -3.2766382241531177e-05 0 3.3438426636364855e-05 -2.5527408505805031e-05 0 2.3806243357720005e-05 -6.6617387804671747e-05 0 1.8103265553098912e-05 -6.2162852213955877e-05 0 2.1059985915141217e-05 -6.8232128228896448e-05 0 1.646944892905233e-05 -6.78964154322139e-05 0 2.1059985915141217e-05 -6.8232128228896448e-05 0 1.8103265553098912e-05 -6.2162852213955877e-05 0 7.522081469350076e-05 -5.5605144653105866e-05 0 6.4253701681527738e-05 -5.7043756437642778e-05 0 7.1879946840457581e-05 -6.3168918111134958e-05 0 6.3269701097467876e-05 -6.5459486251514013e-05 0 7.1879946840457581e-05 -6.3168918111134958e-05 0 6.4253701681527738e-05 -5.7043756437642778e-05 0 1.8662268251144396e-05 4.9314531240883116e-06 0 1.6164814851868523e-05 3.6853005435475065e-06 0 1.6661670937266704e-05 3.7933751170395376e-06 0 3.975543853265139e-05 -1.4538981970003263e-05 0 3.0122918896313387e-05 -6.6855964785078802e-06 0 3.5180881629950954e-05 -1.9860678099308895e-05 0 2.6723649786853364e-05 -1.4060386947923264e-05 0 3.5180881629950948e-05 -1.9860678099308895e-05 0 3.0122918896313387e-05 -6.6855964785078802e-06 0 -4.0739640476902692e-05 -8.0854783004184841e-05 0 -5.3676371032446282e-05 -8.5292333085120584e-05 0 -4.8453170374321122e-05 -9.921925908713338e-05 0 -1.0912188763247603e-05 -2.1848792198788131e-07 0 -1.2688513182839112e-05 -3.3084926575874941e-06 0 -7.7114702821446743e-06 -7.0254454047217052e-07 0 -8.3249191738308128e-06 -3.3722606199427518e-06 0 -7.7114702821446743e-06 -7.0254454047217052e-07 0 -1.2688513182839112e-05 -3.3084926575874941e-06 0 1.0737501364569068e-05 -2.0516351638692016e-05 0 7.0723244373273499e-06 -1.6547270208098937e-05 0 7.8083646351904793e-06 -1.5545185592820241e-05 0 1.8306624474934088e-05 -5.5801187548120246e-05 0 1.8103265553098912e-05 -6.2162852213955877e-05 0 2.2121424869280241e-05 -6.005735393160482e-05 0 5.5746677315457753e-05 -5.3140535085079933e-05 0 5.5306942985303187e-05 -5.8816816823449801e-05 0 6.4253701681527738e-05 -5.7043756437642778e-05 0 9.1858576304983258e-06 2.8214295994238101e-06 0 1.1410017262725899e-05 2.7516029792268663e-06 0 8.8598804160140537e-06 2.5416027726026718e-06 0 4.3054012608103395e-05 -7.9940586220552526e-05 0 4.3425997720316343e-05 -7.3423703924265264e-05 0 3.8117962420516553e-05 -7.3229461144135803e-05 0 5.0955076035686246e-06 3.2599120846942071e-06 0 5.0453234896085828e-06 2.775831056114209e-06 0 3.372530877848749e-06 2.8682194391936832e-06 0 1.672683886537932e-05 -2.1160576087851286e-05 0 1.6672695963345811e-05 -1.6617645035018281e-05 0 1.2890305939326863e-05 -1.6714767186870682e-05 0 3.5524100570669889e-06 -1.8184333053635873e-08 0 5.6228349716859363e-06 2.5093637144385629e-07 0 4.7766035145672308e-06 -7.4335377490560334e-07 0 -9.7629538782757805e-06 0.00018271156073362466 0 -3.7731398262792704e-07 0.00015465058630124726 0 1.9338393596330706e-05 0.0001778641604326402 0 -4.9543232187269062e-06 0.0002477984475319564 0 2.8242204533349592e-05 0.00024899256987210444 0 1.6617226832734609e-05 0.00027299934499054411 0 -1.9091004208563064e-05 -0.00012719145016489177 0 -3.56157273565001e-05 -0.00012659629963250444 0 -2.8989441976554472e-05 -0.00014005767547563822 0 4.424203804126888e-05 2.7514427081397192e-05 0 3.3985209386159623e-05 4.8000558945259281e-06 0 4.8454640760044464e-05 -6.5662626320345684e-06 0 3.5524100570669889e-06 -1.8184333053635873e-08 0 1.8798935217362217e-06 3.2756885099076721e-07 0 3.888416490347786e-06 6.3475090546932607e-07 0 -6.9146480130668206e-05 -0.00010004513207970333 0 -6.0312614991423239e-05 -0.00011006001207158529 0 -4.8453170374321122e-05 -9.921925908713338e-05 0 -7.6439490678425494e-05 -0.00022860805136236937 0 -6.2128610731906236e-05 -0.00021606989609675807 0 -7.6633370072980571e-05 -0.00020675894325329492 0 0.00013462327585222052 0.00043232729045257864 0 9.9758507555288491e-05 0.00041181931185279989 0 0.00012446075196950347 0.00038862860152277492 0 0.00013462327585222052 0.00043232729045257864 0 8.9177157162111467e-05 0.00043880556499258018 0 9.9758507555288491e-05 0.00041181931185279989 0 5.8110361517348925e-05 -0.00022388143455011442 0 3.9581560269872596e-05 -0.00021320140519431711 0 3.4786770903722398e-05 -0.00022719348213742625 0 -0.00012579109863702662 0.00044269519440713341 0 -0.00012611360816487023 0.00040067268308083666 0 -9.8183522532912777e-05 0.00041860862361342235 0 -7.6439490678425494e-05 -0.00022860805136236937 0 -5.4733458059619619e-05 -0.00022839203171634939 0 -6.2128610731906236e-05 -0.00021606989609675807 0 5.8110361517348925e-05 -0.00022388143455011442 0 5.1639284917440089e-05 -0.00020103192984384123 0 3.9581560269872596e-05 -0.00021320140519431711 0 -0.00012579109863702662 0.00044269519440713341 0 -9.8183522532912777e-05 0.00041860862361342235 0 -8.3973111464357184e-05 0.00044233832093004281 0 1.9747371206862995e-09 -1.1915211938229497e-10 0 1.8798935217362217e-06 3.2756885099076721e-07 0 1.4338140698778953e-06 -1.2789882889546085e-07 0 1.8638034149603413e-05 -3.2242987784344195e-05 0 2.4486773725706642e-05 -3.366054863017965e-05 0 1.9702669512532015e-05 -2.6931637571072828e-05 0 -8.3249191738308128e-06 -3.3722606199427518e-06 0 -1.2160929340468881e-05 -6.7609156095282548e-06 0 -5.860772425677856e-06 -5.3385251463053428e-06 0 -4.0739640476902692e-05 -8.0854783004184841e-05 0 -3.3112656161160112e-05 -9.1643922514345516e-05 0 -2.8078035137690329e-05 -7.9820865393547951e-05 0 7.3626630709192551e-06 -1.801565838256294e-06 0 6.9840964045604197e-06 -2.4810836477468882e-06 0 5.1033820504779248e-06 -3.0543036518951926e-06 0 -7.2776614147930293e-06 0.00029540132696831894 0 -3.3463245479839636e-05 0.00032000373881600221 0 -3.6585437845830809e-05 0.00028298650975277069 0 -1.5970578567305987e-05 -0.00015120731845879706 0 -1.6659790998708654e-06 -0.00016355175828003152 0 -1.9152510704136895e-06 -0.0001445421022401472 0 8.6528190388827492e-06 -5.3249844509585423e-05 0 1.1974766335433825e-05 -6.1027389621492693e-05 0 1.3717529357855109e-05 -5.5522277952192974e-05 0 6.2376697839254007e-05 -4.2933636928085527e-05 0 6.0413477481575104e-05 -4.90002733601295e-05 0 6.8106563925893993e-05 -4.8688205930777875e-05 0 4.9565871607267776e-05 -1.9253914813497534e-05 0 4.4524100177463461e-05 -2.4746143667522672e-05 0 5.1309491982070642e-05 -2.6907056756601062e-05 0 -9.4818151321843286e-06 -1.0427100881243169e-05 0 -5.860772425677856e-06 -5.3385251463053428e-06 0 -1.2160929340468881e-05 -6.7609156095282548e-06 0 4.8681607874704535e-06 -3.6762103351817384e-05 0 6.2778870324176813e-06 -4.5059115575608095e-05 0 1.0309868264026589e-05 -4.0224744173593522e-05 0 5.4213333221910992e-05 -3.2658457944402178e-05 0 5.1914868220581975e-05 -3.7585826158454467e-05 0 5.7775885627344337e-05 -3.7784495615210658e-05 0 -1.7770289454998172e-05 -6.8559938824599786e-05 0 -6.3842906298805668e-06 -7.4250708181895452e-05 0 -8.3060671740870306e-06 -5.7907126627375103e-05 0 1.0276598275601013e-05 1.9753249932188186e-06 0 7.9556855233979564e-06 1.9355975458085048e-06 0 8.8598804160140537e-06 2.5416027726026718e-06 0 1.1697099989496909e-05 -0.00013689830278384768 0 -2.9691351030305288e-06 -0.00012439808996625912 0 -1.9152510704136895e-06 -0.0001445421022401472 0 -6.5874456670135165e-05 0.00027126205743291685 0 -3.7523121736150504e-05 0.00024803422716006642 0 -3.6585437845830809e-05 0.00028298650975277069 0 4.5714275389025484e-05 -3.7738310798810201e-05 0 4.6780497821836599e-05 -3.2233111620896887e-05 0 4.0109011607708953e-05 -3.2766382241531177e-05 0 3.9674883007193995e-05 -2.756837584185244e-05 0 4.0109011607708953e-05 -3.2766382241531177e-05 0 4.6780497821836599e-05 -3.2233111620896887e-05 0 3.313076834035783e-06 3.4395470338717677e-06 0 1.4679009630967589e-06 3.7361745669271464e-06 0 1.2658925201786835e-06 3.2646123781296247e-06 0 -7.638583036142293e-06 -2.2579591296368831e-05 0 -3.2410602094608574e-07 -1.8877983112814304e-05 0 -4.8891941180011263e-06 -1.4003091662470242e-05 0 4.8227661494349173e-06 -5.8626030489189573e-05 0 1.4109185699277504e-05 -5.2000805992973938e-05 0 5.7220668353254189e-06 -3.8717300979396234e-05 0 2.3836074972744738e-05 -2.7726384514683367e-05 0 1.9702669512532015e-05 -2.6931637571072828e-05 0 2.4486773725706642e-05 -3.366054863017965e-05 0 1.9198137663089527e-05 -4.2194671533406766e-05 0 1.4109185699277504e-05 -5.2000805992973938e-05 0 2.4728378241102428e-05 -5.9182215432607866e-05 0 5.5423431273263176e-05 -4.3432071516543806e-05 0 4.7793177081135089e-05 -4.234215854135023e-05 0 5.1857667544805737e-05 -4.8319432197538964e-05 0 4.4498981215044206e-05 -4.5908334811150628e-05 0 5.1857667544805737e-05 -4.8319432197538964e-05 0 4.7793177081135089e-05 -4.234215854135023e-05 0 -4.0987180311038574e-06 3.2999206296796365e-06 0 -6.5741177462158376e-06 2.6617577607342562e-06 0 -5.6915737745313563e-06 2.9495429984263686e-06 0 1.0407489171742027e-05 -3.3775215093861956e-06 0 1.1161950946984791e-05 -5.7381907559706845e-06 0 1.2340063195766544e-05 -2.0256027220078372e-06 0 1.3304554384683269e-05 -3.794245420977908e-06 0 1.2340063195766544e-05 -2.0256027220078372e-06 0 1.1161950946984791e-05 -5.7381907559706845e-06 0 2.9172168118545159e-05 1.3108634201053946e-05 0 2.7123118458984661e-05 9.5605801059721343e-06 0 3.3198746885193188e-05 1.7541162737667184e-05 0 2.8828946589549897e-05 5.1706616044918766e-06 0 3.3198746885193188e-05 1.7541162737667184e-05 0 2.7123118458984661e-05 9.5605801059721343e-06 0 8.9114736756925556e-05 0.00019091454508080393 0 9.5937823912978763e-05 0.00022822306149292409 0 6.3485293755635898e-05 0.0002116858657763654 0 2.2684812608993439e-05 7.3066611130030414e-06 0 2.1084311522555019e-05 6.5485816952633557e-06 0 1.991973510001425e-05 5.3979653018352711e-06 0 -6.9146480130668206e-05 -0.00010004513207970333 0 -7.2316928789443538e-05 -0.00012005841471547285 0 -6.0312614991423239e-05 -0.00011006001207158531 0 -5.7761656707586699e-07 3.6728544212197099e-06 0 1.2658925201786835e-06 3.2646123781296247e-06 0 1.4679009630967589e-06 3.7361745669271464e-06 0 -4.070227751833095e-06 -5.0392452175662796e-06 0 -3.7221629700897951e-06 -4.4136211194941281e-06 0 -2.0627103789538073e-06 -4.6097859743626864e-06 0 -4.0987180311038574e-06 3.2999206296796365e-06 0 -2.4181986622451479e-06 3.2031741461906528e-06 0 -3.3937590552504459e-06 2.8481354169268095e-06 0 1.078118556670046e-05 -6.1038471510067902e-07 0 1.0450666419801765e-05 1.1203410940294078e-07 0 1.3524705101789525e-05 1.3865102634061807e-06 0 -2.4016691397347411e-06 -4.4900313739880866e-08 0 -2.4093244548823677e-06 9.2330514843473262e-07 0 -1.0809882402079661e-06 2.2796273924113823e-07 0 -1.8945126023508518e-09 6.041967125011891e-10 0 -1.0809882402079661e-06 2.2796273924113831e-07 0 -2.4093244548823677e-06 9.2330514843473262e-07 0 -3.0285240937668383e-06 -3.7980319505452795e-07 0 -1.3709422367736432e-06 -5.2331856249838246e-07 0 -3.108681970162405e-06 -1.7073793945173048e-06 0 -2.5354530667871385e-09 -9.7777937159734842e-10 0 -3.108681970162405e-06 -1.7073793945173048e-06 0 -1.3709422367736432e-06 -5.2331856249838246e-07 0 -7.638583036142293e-06 -2.2579591296368831e-05 0 -1.6512012689464009e-05 -2.6720093549637348e-05 0 -1.2037179921768187e-05 -3.3860824910179645e-05 0 3.5524100570669889e-06 -1.8184333053635873e-08 0 3.888416490347786e-06 6.3475090546932607e-07 0 5.6228349716859363e-06 2.5093637144385629e-07 0 3.1974298291571771e-05 0.00015329869803724146 0 5.5609236053040893e-05 0.00014235894022236465 0 6.1595706453094288e-05 0.00016587931810832298 0 1.111907596385121e-05 3.2794580706960977e-05 0 4.043177596381392e-06 2.1747515478972645e-05 0 1.5464651068025166e-05 1.9293709585517731e-05 0 2.2684812608993439e-05 7.3066611130030414e-06 0 2.4647607871633759e-05 9.3364107487792277e-06 0 2.1084311522555019e-05 6.5485816952633557e-06 0 -4.7114058971731014e-06 -4.3440999679850446e-05 0 -4.2573587119418218e-06 -2.9749244509301297e-05 0 -1.2037179921768187e-05 -3.3860824910179645e-05 0 -4.196431598248255e-05 0.00044226964474424342 0 -8.3973111464357184e-05 0.00044233832093004281 0 -6.3492706216650461e-05 0.00042056302739257578 0 1.118816406273577e-05 -0.00022829659926490149 0 3.4786770903722398e-05 -0.00022719348213742625 0 2.1097950981639022e-05 -0.0002160131664482495 0 8.9177157162111467e-05 0.00043880556499258018 0 4.3762419898719275e-05 0.00044136450418591049 0 6.3589998957223288e-05 0.00041757031427416895 0 -5.4733458059619612e-05 -0.00022839203171634939 0 -3.2983574506655877e-05 -0.00022838662838741647 0 -4.4165455793186466e-05 -0.00021707766153231757 0 2.6090759263884142e-05 -5.89739775331253e-05 0 2.2121424869280241e-05 -6.005735393160482e-05 0 2.7121714035748266e-05 -6.4737506891925041e-05 0 4.765445151756997e-05 -5.9576146455389781e-05 0 5.3623703044999114e-05 -6.5929722960203529e-05 0 5.5306942985303187e-05 -5.8816816823449801e-05 0 -2.1114172103254942e-09 -8.6884558929132527e-10 0 -1.0809882402079663e-06 2.2796273924113828e-07 0 -1.8945126023508518e-09 6.041967125011891e-10 0 -2.376356089128011e-09 9.7211190051567665e-10 0 -2.5354530667871385e-09 -9.7777937159734842e-10 0 -1.3709422367736432e-06 -5.2331856249838246e-07 0 -2.376356089128011e-09 9.7211190051567665e-10 0 -1.3709422367736432e-06 -5.2331856249838246e-07 0 -3.0285240937668383e-06 -3.7980319505452795e-07 0 -2.1114172103254942e-09 -8.6884558929132527e-10 0 -2.4016691397347411e-06 -4.4900313739880866e-08 0 -1.0809882402079661e-06 2.2796273924113823e-07 0 5.5196679306005762e-06 -7.925859855903348e-05 0 -6.3842906298805685e-06 -7.4250708181895439e-05 0 -4.946648019580758e-06 -9.2102541432664023e-05 0 9.4276465256990843e-07 2.059181401491373e-06 0 -1.0609422221292942e-06 7.4499509249740427e-07 0 2.266941382818262e-06 3.969743108847742e-07 0 1.672683886537932e-05 -2.1160576087851286e-05 0 1.9702669512532019e-05 -2.6931637571072828e-05 0 2.0217216764963543e-05 -2.1722451498215415e-05 0 2.3836074972744738e-05 -2.7726384514683367e-05 0 2.0217216764963543e-05 -2.1722451498215415e-05 0 1.9702669512532015e-05 -2.6931637571072828e-05 0 3.313076834035783e-06 3.4395470338717677e-06 0 3.4412198196191508e-06 2.4790429603186812e-06 0 4.8256326602824909e-06 2.9146900697214702e-06 0 6.6770997005031242e-06 2.5235985409383444e-06 0 5.0453234896085828e-06 2.775831056114209e-06 0 7.2400514745469015e-06 2.9896567187440581e-06 0 5.0955076035686246e-06 3.2599120846942071e-06 0 7.2400514745469015e-06 2.9896567187440581e-06 0 5.0453234896085828e-06 2.775831056114209e-06 0 2.8828946589549897e-05 5.1706616044918766e-06 0 3.3985209386159623e-05 4.800055894525929e-06 0 3.3198746885193188e-05 1.7541162737667184e-05 0 4.424203804126888e-05 2.7514427081397192e-05 0 3.3198746885193188e-05 1.7541162737667187e-05 0 3.3985209386159623e-05 4.8000558945259281e-06 0 -2.2014741327160757e-05 -3.3650278345641415e-05 0 -1.2037179921768187e-05 -3.3860824910179645e-05 0 -1.6512012689464009e-05 -2.6720093549637348e-05 0 4.5714275389025484e-05 -3.7738310798810201e-05 0 4.7793177081135089e-05 -4.234215854135023e-05 0 5.1914868220581975e-05 -3.7585826158454467e-05 0 1.307622216942668e-05 -3.6884952478989087e-05 0 1.0309868264026589e-05 -4.0224744173593522e-05 0 1.490402777119247e-05 -4.1969005871548233e-05 0 9.1858576304983258e-06 2.8214295994238101e-06 0 1.1110494489244696e-05 2.7253834894012957e-06 0 1.1410017262725899e-05 2.7516029792268663e-06 0 4.6985662128716444e-05 0.00027308116083367201 0 7.6265802493577858e-05 0.00025824802105213935 0 7.7766967194531795e-05 0.00028449725257959627 0 -4.4508153391184575e-05 -0.00014087383413680964 0 -6.0831247094643074e-05 -0.00013378395648407359 0 -6.0169219298091818e-05 -0.00014859684416787509 0 1.0737501364569068e-05 -2.0516351638692016e-05 0 9.3260698405831409e-06 -1.4233026469701582e-05 0 6.6063486844102347e-06 -1.5885551750426741e-05 0 3.9674883007193995e-05 -2.756837584185244e-05 0 4.4524100177463461e-05 -2.4746143667522672e-05 0 3.5180881629950954e-05 -1.9860678099308895e-05 0 -6.5874456670135165e-05 0.00027126205743291685 0 -9.0065683158004056e-05 0.00025058868909728823 0 -6.3073271799181453e-05 0.00023903061917845563 0 1.1697099989496909e-05 -0.00013689830278384768 0 2.2310671729526049e-05 -0.00012505466536072665 0 9.2411229256775886e-06 -0.00012005281174204062 0 5.5196679306005762e-06 -7.925859855903348e-05 0 6.6026674917797627e-06 -9.4740647051866058e-05 0 1.7232356315484476e-05 -8.8567952283831456e-05 0 2.528473813184494e-05 -5.2434434016980348e-05 0 2.8941592416481007e-05 -5.6746866100055141e-05 0 2.9789421327536372e-05 -5.1598845280562887e-05 0 5.5746677315457753e-05 -5.3140535085079933e-05 0 6.0413477481575104e-05 -4.90002733601295e-05 0 5.1857667544805737e-05 -4.8319432197538964e-05 0 7.9285711252523946e-06 -9.9571067817185498e-07 0 7.8867817357281476e-06 -2.0424694685492887e-06 0 1.1922479913462549e-05 3.4868131532765397e-07 0 3.8067990063146775e-05 -6.6849226726440529e-05 0 4.3939880644280942e-05 -6.5908669266755967e-05 0 3.9046137787310667e-05 -5.978279629307744e-05 0 -5.7761656707586699e-07 3.6728544212197099e-06 0 1.4679009630967589e-06 3.7361745669271464e-06 0 -1.6435814531658454e-07 3.7513090911447609e-06 0 7.3549322123824407e-07 3.6320234268099394e-06 0 -1.6435814531658454e-07 3.7513090911447609e-06 0 1.4679009630967589e-06 3.7361745669271464e-06 0 1.2838885628004402e-05 8.9406181300557592e-07 0 1.1015660067823176e-05 -8.8792828979868867e-07 0 1.2340063195766544e-05 -2.0256027220078372e-06 0 -7.638583036142293e-06 -2.2579591296368831e-05 0 -1.2037179921768187e-05 -3.3860824910179645e-05 0 -4.2573587119418218e-06 -2.9749244509301297e-05 0 3.313076834035783e-06 3.4395470338717677e-06 0 4.8256326602824909e-06 2.9146900697214702e-06 0 4.5263732618649476e-06 3.386398149297986e-06 0 6.2235713806593711e-06 3.0138641530820059e-06 0 4.5263732618649476e-06 3.386398149297986e-06 0 4.8256326602824909e-06 2.9146900697214702e-06 0 3.4412198196191508e-06 2.4790429603186812e-06 0 6.0719495798004798e-06 2.0762126774879006e-06 0 4.8256326602824909e-06 2.9146900697214702e-06 0 3.209353053492468e-05 -6.9077134152001508e-05 0 2.7121714035748266e-05 -6.4737506891925041e-05 0 2.900067099929462e-05 -7.0760806489033156e-05 0 2.3806243357720005e-05 -6.6617387804671747e-05 0 2.900067099929462e-05 -7.0760806489033156e-05 0 2.7121714035748266e-05 -6.4737506891925041e-05 0 6.3269701097467876e-05 -6.5459486251514013e-05 0 5.3623703044999114e-05 -6.5929722960203529e-05 0 6.0498049626190597e-05 -7.4724182361719839e-05 0 5.0010861481804788e-05 -7.069271824366232e-05 0 6.0498049626190597e-05 -7.4724182361719839e-05 0 5.3623703044999114e-05 -6.5929722960203529e-05 0 2.8828946589549897e-05 5.1706616044918766e-06 0 3.0122918896313387e-05 -6.6855964785078794e-06 0 3.3985209386159623e-05 4.8000558945259281e-06 0 7.6495848254431938e-05 0.00039002583806275348 0 6.3589998957223288e-05 0.00041757031427416895 0 3.6547128287740268e-05 0.00040121803611702111 0 -5.2512436547694391e-05 -0.00020374752065969892 0 -4.4165455793186466e-05 -0.00021707766153231757 0 -3.20504134694519e-05 -0.00020795671920703851 0 2.7218114055025535e-05 -0.00020163894566350651 0 6.9913449698804986e-06 -0.00020735742518907357 0 2.1097950981639022e-05 -0.0002160131664482495 0 -7.962510388434859e-05 0.00039500643361999548 0 -3.9856623635037186e-05 0.00040302030850000763 0 -6.3492706216650461e-05 0.00042056302739257578 0 -6.5874456670135165e-05 0.00027126205743291685 0 -6.3073271799181439e-05 0.00023903061917845563 0 -3.7523121736150504e-05 0.00024803422716006642 0 1.1697099989496909e-05 -0.00013689830278384768 0 9.2411229256775886e-06 -0.00012005281174204062 0 -2.9691351030305288e-06 -0.00012439808996625912 0 5.5196679306005762e-06 -7.925859855903348e-05 0 -4.946648019580758e-06 -9.2102541432664023e-05 0 6.6026674917797618e-06 -9.4740647051866058e-05 0 1.0407489171742027e-05 -3.3775215093861956e-06 0 1.2340063195766544e-05 -2.0256027220078372e-06 0 1.1015660067823176e-05 -8.8792828979868867e-07 0 4.3762419898719275e-05 0.00044136450418591049 0 3.6547128287740268e-05 0.00040121803611702111 0 6.3589998957223288e-05 0.00041757031427416895 0 -3.2983574506655877e-05 -0.00022838662838741647 0 -3.20504134694519e-05 -0.00020795671920703851 0 -4.4165455793186466e-05 -0.00021707766153231757 0 -4.196431598248255e-05 0.00044226964474424342 0 -6.3492706216650461e-05 0.00042056302739257578 0 -3.9856623635037186e-05 0.00040302030850000763 0 1.118816406273577e-05 -0.00022829659926490149 0 2.1097950981639026e-05 -0.00021601316644824953 0 6.9913449698804986e-06 -0.00020735742518907357 0 3.315321519476942e-05 -5.649134018258044e-05 0 2.9789421327536376e-05 -5.1598845280562887e-05 0 2.8941592416481007e-05 -5.6746866100055141e-05 0 1.9198137663089527e-05 -4.2194671533406766e-05 0 5.7220668353254189e-06 -3.8717300979396234e-05 0 1.4109185699277504e-05 -5.2000805992973938e-05 0 2.2337343158996508e-05 -7.3212137584754777e-05 0 2.5333863773114866e-05 -7.1244577784218389e-05 0 2.1059985915141217e-05 -6.8232128228896448e-05 0 8.4120076338451905e-05 -6.4727059975393987e-05 0 7.1879946840457581e-05 -6.3168918111134958e-05 0 7.4848441250214222e-05 -7.179256784968533e-05 0 6.6770997005031242e-06 2.5235985409383444e-06 0 4.6429093668927248e-06 2.0288759928949275e-06 0 5.0453234896085828e-06 2.775831056114209e-06 0 -8.0927240581662495e-05 0.00021374636304220137 0 -8.4858366686769944e-05 0.00017909933780855614 0 -5.9484665956408598e-05 0.00018567309661635481 0 -5.8826127998352066e-05 0.00015928871677384202 0 -5.9484665956408598e-05 0.00018567309661635481 0 -8.4858366686769944e-05 0.00017909933780855614 0 3.1144326095187351e-05 -4.6556200294365152e-05 0 2.5787629822290596e-05 -4.6441624778003169e-05 0 2.9789421327536372e-05 -5.1598845280562887e-05 0 8.4799357868893989e-06 1.8193349362554158e-06 0 6.0719495798004798e-06 2.0762126774879006e-06 0 7.1440024958972289e-06 6.7492446723663826e-07 0 1.672683886537932e-05 -2.1160576087851286e-05 0 2.0217216764963543e-05 -2.1722451498215415e-05 0 1.6672695963345811e-05 -1.6617645035018281e-05 0 1.9592546710132191e-05 -1.5633308128567055e-05 0 1.6672695963345811e-05 -1.6617645035018281e-05 0 2.0217216764963543e-05 -2.1722451498215415e-05 0 -4.1504098906907229e-05 0.00021285983301945523 0 -3.7523121736150504e-05 0.00024803422716006642 0 -6.3073271799181453e-05 0.00023903061917845563 0 -1.0805101380788204e-06 -0.00010742526345201309 0 -2.9691351030305288e-06 -0.00012439808996625912 0 9.2411229256775886e-06 -0.00012005281174204062 0 -1.0805101380788204e-06 -0.00010742526345201309 0 6.6026674917797618e-06 -9.4740647051866058e-05 0 -4.946648019580758e-06 -9.2102541432664023e-05 0 -3.3409408639327224e-06 2.0241812489878549e-06 0 -5.1493663695047889e-06 2.5620651578616681e-06 0 -3.3937590552504459e-06 2.8481354169268095e-06 0 -4.1113117712150595e-06 -3.3606067962172323e-06 0 -3.7221629700897951e-06 -4.4136211194941281e-06 0 -6.3418695411509325e-06 -4.31008491374868e-06 0 -9.6874137700183403e-06 -3.6990930989799223e-06 0 -6.3418695411509325e-06 -4.31008491374868e-06 0 -7.9111949646641853e-06 -4.5564121245675422e-06 0 -7.373222335264366e-06 1.9805540103609995e-06 0 -6.5741177462158376e-06 2.6617577607342562e-06 0 -5.1493663695047889e-06 2.5620651578616681e-06 0 8.7089271121283355e-06 -7.7921062459641357e-07 0 1.1015660067823176e-05 -8.8792828979868867e-07 0 1.0422829143217975e-05 7.1405043821858698e-07 0 -8.0927240581662495e-05 0.00021374636304220137 0 -6.3073271799181453e-05 0.00023903061917845563 0 -9.0065683158004056e-05 0.00025058868909728823 0 1.6530533457427581e-05 -0.00010668319517736693 0 9.2411229256775886e-06 -0.00012005281174204062 0 2.2310671729526049e-05 -0.00012505466536072662 0 1.6530533457427581e-05 -0.00010668319517736693 0 1.7232356315484476e-05 -8.8567952283831456e-05 0 6.6026674917797618e-06 -9.4740647051866058e-05 0 -1.7770289454998172e-05 -6.8559938824599786e-05 0 -3.0176057771332091e-05 -6.7848556515892104e-05 0 -2.8078035137690329e-05 -7.9820865393547951e-05 0 2.528473813184494e-05 -5.2434434016980348e-05 0 2.9789421327536372e-05 -5.1598845280562887e-05 0 2.5787629822290596e-05 -4.6441624778003169e-05 0 7.9285711252523946e-06 -9.9571067817185498e-07 0 1.0841469242230352e-05 1.723893553059241e-06 0 4.9767635385091973e-06 -3.3174573683935304e-07 0 6.7540638082782353e-06 -4.2680177041510559e-06 0 6.5137601000439677e-06 -1.2438240839869826e-06 0 4.1566697905804254e-06 -2.1534646932162974e-06 0 -4.0987180311038574e-06 3.2999206296796365e-06 0 -5.6915737745313563e-06 2.9495429984263686e-06 0 -3.0292132031910007e-06 3.4635857448307612e-06 0 -5.3094509449050772e-05 0.00010415659669774656 0 -3.4116349340969885e-05 0.00010692633175509036 0 -4.5284139404471597e-05 0.00013225373099450558 0 -3.5509092023824306e-05 -5.3906576791571755e-05 0 -3.0176057771332091e-05 -6.7848556515892104e-05 0 -2.5797284913794245e-05 -5.5884825598881851e-05 0 4.6985662128716444e-05 0.00027308116083367201 0 1.6617226832734609e-05 0.00027299934499054411 0 2.8242204533349589e-05 0.00024899256987210444 0 -4.4508153391184575e-05 -0.00014087383413680964 0 -2.8989441976554472e-05 -0.00014005767547563822 0 -3.56157273565001e-05 -0.00012659629963250444 0 3.1974298291571771e-05 0.00015329869803724146 0 1.9338393596330706e-05 0.0001778641604326402 0 -3.7731398262792704e-07 0.00015465058630124726 0 -3.973295812173055e-06 1.2348249906207405e-06 0 -6.667976519692355e-06 1.2356799049003321e-06 0 -7.7114702821446743e-06 -7.0254454047217052e-07 0 5.0774816396914754e-06 5.2510639824766172e-07 0 7.1440024958972289e-06 6.7492446723663826e-07 0 6.0719495798004798e-06 2.0762126774879006e-06 0 -1.9008422109001329e-05 -9.1296397167811607e-05 0 -2.8078035137690329e-05 -7.9820865393547951e-05 0 -3.3112656161160112e-05 -9.1643922514345516e-05 0 2.3806243357720005e-05 -6.6617387804671747e-05 0 2.1059985915141217e-05 -6.8232128228896448e-05 0 2.5333863773114866e-05 -7.1244577784218389e-05 0 6.3269701097467876e-05 -6.5459486251514013e-05 0 7.4848441250214222e-05 -7.179256784968533e-05 0 7.1879946840457581e-05 -6.3168918111134958e-05 0 6.2235713806593711e-06 3.0138641530820059e-06 0 4.8256326602824909e-06 2.9146900697214702e-06 0 6.0719495798004798e-06 2.0762126774879006e-06 0 -8.3973111464357184e-05 0.00044233832093004281 0 -9.8183522532912777e-05 0.00041860862361342235 0 -6.3492706216650461e-05 0.00042056302739257578 0 -7.962510388434859e-05 0.00039500643361999548 0 -6.3492706216650461e-05 0.00042056302739257578 0 -9.8183522532912777e-05 0.00041860862361342235 0 2.7218114055025535e-05 -0.00020163894566350651 0 2.1097950981639022e-05 -0.0002160131664482495 0 3.9581560269872596e-05 -0.00021320140519431711 0 3.4786770903722398e-05 -0.00022719348213742625 0 3.9581560269872596e-05 -0.00021320140519431711 0 2.1097950981639022e-05 -0.0002160131664482495 0 8.9177157162111467e-05 0.00043880556499258018 0 6.3589998957223288e-05 0.00041757031427416895 0 9.9758507555288491e-05 0.00041181931185279989 0 -5.4733458059619612e-05 -0.00022839203171634939 0 -4.4165455793186466e-05 -0.00021707766153231757 0 -6.2128610731906236e-05 -0.00021606989609675807 0 7.6495848254431938e-05 0.00039002583806275348 0 9.9758507555288491e-05 0.00041181931185279989 0 6.3589998957223288e-05 0.00041757031427416895 0 -5.2512436547694391e-05 -0.00020374752065969892 0 -6.2128610731906236e-05 -0.00021606989609675807 0 -4.4165455793186466e-05 -0.00021707766153231757 0 3.1144326095187351e-05 -4.6556200294365152e-05 0 2.9789421327536372e-05 -5.1598845280562887e-05 0 3.4918994826524341e-05 -5.180025944419759e-05 0 1.9578627894189165e-05 -4.5593767629858436e-05 0 1.7407313713353415e-05 -3.8214121497472711e-05 0 1.490402777119247e-05 -4.1969005871548233e-05 0 1.307622216942668e-05 -3.6884952478989087e-05 0 1.490402777119247e-05 -4.1969005871548233e-05 0 1.7407313713353415e-05 -3.8214121497472711e-05 0 3.315321519476942e-05 -5.649134018258044e-05 0 2.8941592416481007e-05 -5.6746866100055141e-05 0 3.1620639814202682e-05 -6.2068489707299372e-05 0 2.6090759263884142e-05 -5.89739775331253e-05 0 3.1620639814202682e-05 -6.2068489707299372e-05 0 2.8941592416481007e-05 -5.6746866100055141e-05 0 2.9172168118545159e-05 1.3108634201053946e-05 0 2.544437288120683e-05 9.144229030501408e-06 0 2.7123118458984661e-05 9.5605801059721343e-06 0 7.4007212174079018e-06 4.2510951295080481e-06 0 1.1916229252163644e-06 7.6889492054258008e-06 0 1.4058790256583977e-07 1.7597616991915054e-06 0 -6.9598051790513837e-06 4.9909854620345125e-06 0 1.4058790256583977e-07 1.7597616991915054e-06 0 1.1916229252163644e-06 7.6889492054258008e-06 0 -3.973295812173055e-06 1.2348249906207405e-06 0 -4.1517562004633924e-06 -1.4884833711367886e-06 0 -1.0609422221292942e-06 7.4499509249740427e-07 0 -5.3094509449050772e-05 0.00010415659669774656 0 -3.6306088560866344e-05 8.4699778481667012e-05 0 -3.4116349340969885e-05 0.00010692633175509036 0 -1.6356711256676305e-05 8.9204771719921306e-05 0 -3.4116349340969885e-05 0.00010692633175509036 0 -3.6306088560866344e-05 8.4699778481667012e-05 0 2.2684812608993439e-05 7.3066611130030414e-06 0 2.544437288120683e-05 9.144229030501408e-06 0 2.4647607871633759e-05 9.3364107487792277e-06 0 4.4498981215044206e-05 -4.5908334811150628e-05 0 4.7745418963380425e-05 -5.174290511621068e-05 0 5.1857667544805737e-05 -4.8319432197538964e-05 0 5.5746677315457753e-05 -5.3140535085079933e-05 0 5.1857667544805737e-05 -4.8319432197538964e-05 0 4.7745418963380425e-05 -5.174290511621068e-05 0 2.235682071147142e-05 7.4825435373968085e-06 0 2.4647607871633759e-05 9.3364107487792277e-06 0 2.6127616462600655e-05 1.1191603536790716e-05 0 -1.674976162297959e-05 -4.7528997816966398e-05 0 -2.7090219646873118e-05 -4.5119207615307426e-05 0 -2.5797284913794245e-05 -5.5884825598881851e-05 0 -3.5509092023824306e-05 -5.3906576791571755e-05 0 -2.5797284913794245e-05 -5.5884825598881851e-05 0 -2.7090219646873118e-05 -4.5119207615307426e-05 0 1.8662268251144396e-05 4.9314531240883116e-06 0 1.991973510001425e-05 5.3979653018352711e-06 0 2.1084311522555019e-05 6.5485816952633557e-06 0 2.235682071147142e-05 7.4825435373968085e-06 0 2.1084311522555019e-05 6.5485816952633557e-06 0 2.4647607871633759e-05 9.3364107487792277e-06 0 1.307622216942668e-05 -3.6884952478989087e-05 0 9.110665449722892e-06 -3.3386043087423632e-05 0 1.0309868264026589e-05 -4.0224744173593522e-05 0 5.0774816396914754e-06 5.2510639824766172e-07 0 6.5137601000439685e-06 -1.2438240839869828e-06 0 7.1440024958972289e-06 6.7492446723663826e-07 0 8.7089271121283355e-06 -7.7921062459641357e-07 0 7.1440024958972289e-06 6.7492446723663826e-07 0 6.5137601000439685e-06 -1.2438240839869828e-06 0 1.2838885628004402e-05 8.9406181300557592e-07 0 1.0422829143217975e-05 7.1405043821858698e-07 0 1.1015660067823176e-05 -8.8792828979868867e-07 0 0.00010258018990003611 0.00026640482137333098 0 7.7766967194531795e-05 0.00028449725257959627 0 7.6265802493577858e-05 0.00025824802105213935 0 -7.4539408934304102e-05 -0.00014112599373044394 0 -6.0169219298091818e-05 -0.00014859684416787509 0 -6.0831247094643074e-05 -0.00013378395648407359 0 -1.0912188763247603e-05 -2.1848792198788131e-07 0 -7.7114702821446743e-06 -7.0254454047217052e-07 0 -6.6679765196923558e-06 1.2356799049003321e-06 0 1.7029328366517527e-09 4.6820342982012634e-10 0 1.1623683269601717e-06 1.0500780080924574e-06 0 1.2287081617881672e-06 7.8609614742082331e-07 0 8.1813239178679098e-05 0.00015455657268664843 0 6.1595706453094288e-05 0.00016587931810832298 0 5.5609236053040893e-05 0.00014235894022236465 0 3.315321519476942e-05 -5.649134018258044e-05 0 3.4918994826524341e-05 -5.180025944419759e-05 0 2.9789421327536372e-05 -5.1598845280562887e-05 0 -8.9394995903785982e-07 -1.8662574014753801e-06 0 1.4058790256583853e-07 1.759761699191505e-06 0 -6.545774550182906e-06 4.0348929397487642e-07 0 -6.9598051790513837e-06 4.9909854620345125e-06 0 -6.5457745501829052e-06 4.0348929397487616e-07 0 1.4058790256583977e-07 1.7597616991915054e-06 0 4.8681607874704535e-06 -3.6762103351817384e-05 0 1.0309868264026589e-05 -4.0224744173593522e-05 0 9.110665449722892e-06 -3.3386043087423632e-05 0 
</DataArray>
</PointData>
<CellData Scalars="region_id,cross_section_updated,displacement_divergence," Vectors="" Tensors="stress,">
<DataArray type="Float64" Name="region_id" format="ascii">
2 2 2 2 2 2 2 2 2 2 3 3 3 3 3 3 3 3 3 3 1 1 1 1 1 1 1 1 1 1 1 1 1 1 1 1 1 1 1 1 1 1 1 1 1 1 1 1 1 1 1 1 1 1 1 1 1 1 1 1 1 1 1 1 1 1 1 1 1 1 1 1 1 1 1 1 1 1 1 1 1 1 1 1 1 1 1 1 1 1 1 1 1 1 1 1 1 1 1 1 1 1 1 1 1 1 1 1 1 1 1 1 1 1 1 1 1 1 1 1 1 1 1 1 1 1 1 1 1 1 1 1 1 1 1 1 1 1 1 1 1 1 1 1 1 1 1 1 1 1 1 1 1 1 1 1 1 1 1 1 1 1 1 1 1 1 1 1 1 1 1 1 1 1 1 1 1 1 1 1 1 1 1 1 1 1 1 1 1 1 1 1 1 1 1 1 1 1 1 1 1 1 1 1 1 1 1 1 1 1 1 1 1 1 1 1 1 1 1 1 1 1 1 1 1 1 1 1 1 1 1 1 1 1 1 1 1 1 1 1 1 1 1 1 1 1 1 1 1 1 1 1 1 1 1 1 1 1 1 1 1 1 1 1 1 1 1 1 1 1 1 1 1 1 1 1 1 1 1 1 1 1 1 1 1 1 1 1 1 1 1 1 1 1 1 1 1 1 1 1 1 1 1 1 1 1 1 1 1 1 1 1 1 1 1 1 1 1 1 1 1 1 1 1 1 1 1 1 1 1 1 1 1 1 1 1 1 1 1 1 1 1 1 1 1 1 1 1 1 1 1 1 1 1 1 1 1 1 1 1 1 1 1 1 1 1 1 1 1 1 1 1 1 1 1 1 1 1 1 1 1 1 1 1 1 1 1 1 1 1 1 1 1 1 1 1 1 1 1 1 1 1 1 1 1 1 1 1 1 1 1 1 1 1 1 1 1 1 1 1 1 1 1 1 1 1 1 1 1 1 1 1 1 1 1 1 1 1 1 1 1 1 1 1 1 1 1 1 1 1 1 1 1 1 1 1 1 1 1 1 1 1 1 1 1 1 1 1 1 1 1 1 1 1 1 1 1 1 1 1 1 1 1 1 1 1 1 1 1 1 1 1 1 1 1 1 1 1 1 1 1 1 1 1 1 1 1 1 1 1 1 1 1 1 1 1 1 1 1 1 1 1 1 1 1 1 1 1 1 1 1 1 1 1 1 1 1 1 1 1 1 1 1 1 1 1 1 1 1 1 1 1 1 1 1 1 1 1 1 1 1 1 1 1 1 1 1 1 1 1 1 1 1 1 1 1 1 1 1 1 1 1 1 1 1 1 1 1 1 1 1 1 1 1 1 1 1 1 1 1 1 1 1 1 1 1 1 1 1 1 1 1 1 1 1 1 1 1 1 1 1 1 1 1 1 1 1 1 1 1 1 1 1 1 1 1 1 1 1 1 1 1 1 1 1 1 1 1 1 1 1 1 1 1 1 1 1 1 1 1 1 1 1 1 1 1 1 1 1 1 1 1 1 1 1 1 1 1 1 1 1 1 1 1 1 1 1 1 1 1 1 1 1 1 1 1 1 1 1 1 1 1 1 1 1 1 1 1 1 1 1 1 1 1 1 1 1 1 1 1 1 1 1 1 1 1 1 1 1 1 1 1 1 1 1 1 1 1 1 1 1 1 1 1 1 1 1 1 1 1 1 1 1 1 1 1 1 1 1 1 1 1 1 1 1 1 1 1 1 1 1 1 1 1 1 1 1 1 1 1 1 1 1 1 1 1 1 1 1 1 1 1 1 1 1 1 1 1 1 1 1 1 1 1 1 1 1 1 1 1 1 1 1 1 1 1 1 1 1 1 1 1 1 1 1 1 1 1 1 1 1 1 1 1 1 1 1 1 1 1 1 1 1 1 1 1 1 1 1 1 1 1 1 1 1 1 1 1 1 1 1 1 1 1 1 1 1 1 1 1 1 1 1 1 1 1 1 1 1 1 1 1 1 1 1 1 1 1 1 1 1 1 1 1 1 1 1 1 1 1 1 1 1 1 1 1 1 1 1 1 1 1 1 1 1 1 1 1 1 1 1 1 1 1 1 1 1 1 1 1 1 1 1 1 1 1 1 1 1 1 1 1 1 1 1 1 1 1 1 1 1 1 1 1 1 1 1 1 1 1 1 1 1 1 1 1 1 1 1 1 1 1 1 1 1 1 1 1 1 1 1 1 1 1 1 1 1 1 1 1 1 1 1 1 1 1 1 1 1 1 1 1 1 1 1 1 1 1 1 1 1 1 1 1 1 1 1 1 1 1 1 1 1 1 1 1 1 1 1 1 1 1 1 1 1 1 1 1 1 1 1 1 1 1 1 1 1 1 1 1 1 1 1 1 
</DataArray>
<DataArray type="Float64" Name="stress" NumberOfComponents="9" format="ascii">
0.0052491414032189336 -0.0025000675978326054 0 -0.0025000675978326054 0.015428327841237155 0 0 0 0.0051693673111140228 0.012681313844852287 -0.0063769004191104048 0 -0.0063769004191104048 0.037975422590455464 0 0 0 0.012664184108826939 0.017234751609774043 -0.0088311289582715894 0 -0.0088311289582715894 0.051588142750396346 0 0 0 0.017205723590042594 0.021455035065380938 -0.010502533195074557 0 -0.010502533195074557 0.064243754420190924 0 0 0 0.021424697371392964 0.025790307352708181 -0.011566612129310431 0 -0.011566612129310431 0.077219728759769207 0 0 0 0.025752509028119343 0.030483631011912295 -0.012178584737256703 0 -0.012178584737256703 0.091264250271009359 0 0 0 0.030436970320730415 0.03563345093545546 -0.012447087913678816 0 -0.012447087913678816 0.10669448006658747 0 0 0 0.035581982750510735 0.041362779346212949 -0.012401562992502417 0 -0.012401562992502417 0.12377491524432765 0 0 0 0.041284423647635161 0.047739081670589247 -0.012058530531194229 0 -0.012058530531194229 0.14305287688063512 0 0 0 0.047697989637806096 0.055516212670637513 -0.011784768360594718 0 -0.011784768360594718 0.16549927835147657 0 0 0 0.055253872755528517 0.0097213908165679815 0.0016378164024998976 0 0.0016378164024998976 0.026542910269200824 0 0 0 0.0090660752714422001 0.022489485071070271 0.003969638939181762 0 0.003969638939181762 0.06766747752655175 0 0 0 0.022539240649405504 0.032138594345991478 0.0055699353187819997 0 0.0055699353187819997 0.095971701806047194 0 0 0 0.032027574038009668 0.040608244808712085 0.0066575724495198533 0 0.0066575724495198533 0.12154585026115886 0 0 0 0.040538523767467742 0.049079919087685241 0.007436736700592324 0 0.007436736700592324 0.14691478906478597 0 0 0 0.048998677038117805 0.057670556140035606 0.0079699204629882694 0 0.0079699204629882694 0.1726491228225589 0 0 0 0.057579919740648626 0.066528439184574337 0.0082769559893872136 0 0.0082769559893872136 0.19926375654470327 0 0 0 0.066448048932319398 0.075949163423245092 0.0083878892997488203 0 0.0083878892997488203 0.22715804056573363 0 0 0 0.075776800997244695 0.085394921693289522 0.0082672419409015041 0 0.0082672419409015041 0.25660411511912612 0 0 0 0.085499759203103917 0.097876246789011342 0.0082284282687282717 0 0.0082284282687282717 0.28942348848757582 0 0 0 0.096824933819146808 0.028212517188068272 -0.0095229681821728546 0 -0.0095229681821728546 0.031040917749112121 0 0 0 0.014813358734295099 0.033861365755444663 -0.0099506289578607 0 -0.0099506289578607 0.053435579616693041 0 0 0 0.021824236343034424 0.020496255736018765 -0.003172648567677433 0 -0.003172648567677433 0.053159915026463778 0 0 0 0.018414042690620622 0.013859214375822635 0.0077035393871081603 0 0.0077035393871081603 0.053165824565494388 0 0 0 0.016756259735329269 -0.076484225489005797 -0.013888471111971636 0 -0.013888471111971636 0.0059788343187676257 0 0 0 -0.017626347792559546 -0.05773032396033688 0.0080477881135259475 0 0.0080477881135259475 0.0034869519484317414 0 0 0 -0.013560843002976296 -0.086036970603628582 -0.0098658811897188309 0 -0.0098658811897188309 -0.00069841713509077516 0 0 0 -0.021683846934679847 -0.063092226420787642 0.0057769859569065879 0 0.0057769859569065879 -0.00031023465644531775 0 0 0 -0.015850615269308241 -0.10872784743836091 0.0057237231280624148 0 0.0057237231280624148 -0.00034312290518123678 0 0 0 -0.027267742585885546 -0.18475124352942646 -0.013609852807563832 0 -0.013609852807563832 -0.00020909967574690019 0 0 0 -0.046240085801293337 0.06785188026968815 0.00028345575634353137 0 0.00028345575634353137 -0.0077493781589639613 0 0 0 0.015025625527681054 0.063295523757947364 0.00024598003421975813 0 0.00024598003421975813 -0.0061834900808258805 0 0 0 0.014278008419280369 0.011912965438237675 0.013899667249579674 0 0.013899667249579674 0.0020862666608893465 0 0 0 0.0034998080247817566 0.02492767751650915 -0.017448156700958343 0 -0.017448156700958343 0.0083011624969499247 0 0 0 0.0083072100033647674 0.0072300620886040891 0.016865588282099827 0 0.016865588282099827 0.0024075265724126053 0 0 0 0.0024093971652541734 0.020570680448485403 -0.017419017146739851 0 -0.017419017146739851 0.032793461753184983 0 0 0 0.013341035550417636 0.28714259021179689 0.13013536684878729 0 0.13013536684878729 0.28253216979620288 0 0 0 0.14241869000199989 0.039299702465125375 -0.0076508134177533105 0 -0.0076508134177533105 0.023069094045466532 0 0 0 0.015592199127647977 0.06063460704783008 0.012765077689047111 0 0.012765077689047111 0.032354842464819455 0 0 0 0.02324736237816305 0.066871170519994472 0.007452195724186479 0 0.007452195724186479 0.051064532881431646 0 0 0 0.029483925850356751 0.037249550667568299 -0.0097894850225689837 0 -0.0097894850225689837 0.016918638652896334 0 0 0 0.013542047330116214 0.061164469629281681 0.018659111205405754 0 0.018659111205405754 0.033454650470503111 0 0 0 0.02365478002494581 0.03723208851887827 -0.017226759380999823 0 -0.017226759380999823 0.027735059775498838 0 0 0 0.01624178707359436 0.01773810149075828 0.016754070583799022 0 0.016754070583799022 0.001415009875042287 0 0 0 0.0047882778414501444 0.30328609676980678 -0.014350774276370104 0 -0.014350774276370104 0.17563799685050874 0 0 0 0.11973102340507884 -0.22603063103783766 0.015253200910214648 0 0.015253200910214648 0.012455201665106275 0 0 0 -0.053393857343182749 -0.12526426329148199 -0.0056209197247999998 0 -0.0056209197247999998 0.004762657905346912 0 0 0 -0.030125401346533853 -0.027191912683075151 -0.02228949580564028 0 -0.02228949580564028 0.025610408048555577 0 0 0 -0.00039537615862988984 -0.052175928341635369 0.023462662898114838 0 0.023462662898114838 0.082275775120777439 0 0 0 0.0075249616947855591 -0.066462024487904808 -0.030927391149014761 0 -0.030927391149014761 0.014225282350940123 0 0 0 -0.01305918553424118 0.043234822806140188 -0.020962766844256346 0 -0.020962766844256346 0.06565734812415705 0 0 0 0.027223042732574282 0.022688269033821151 -0.025853611529925269 0 -0.025853611529925269 0.021066656863853117 0 0 0 0.010938731474418595 0.053626733112456693 0.030543800670113752 0 0.030543800670113752 0.025589326123588885 0 0 0 0.019804014809011283 0.036866785239000333 -0.029030998351040838 0 -0.029030998351040838 0.021788383000961531 0 0 0 0.014663792059990355 0.021247321661253427 0.040787650344904947 0 0.040787650344904947 0.014659177256526768 0 0 0 0.0089766247294456036 -0.025238732706924841 -0.040754252835217553 0 -0.040754252835217553 0.0065587922717692693 0 0 0 -0.0046699851087888874 0.081992476871394632 -0.050300271788927542 0 -0.050300271788927542 0.089679808491979776 0 0 0 0.042918071340843585 -0.073181278034085251 0.0088948353156887427 0 0.0088948353156887427 0.022866591439319406 0 0 0 -0.012578671648691475 0.44270775167878113 0.15152989579224202 0 0.15152989579224202 0.093725468442769966 0 0 0 0.13410830503038773 0.12173174474325754 0.0015334291936061062 0 0.0015334291936061062 0.050459624338375919 0 0 0 0.043047842270408421 0.18999771212304012 -0.0032664485797874732 0 -0.0032664485797874732 0.1132909479130555 0 0 0 0.075822165009024001 0.054230337048407309 -0.024177580270528264 0 -0.024177580270528264 0.10502403772897762 0 0 0 0.039813593694346214 0.11789171955941069 -0.0079148728438696025 0 -0.0079148728438696025 0.10202824690768697 0 0 0 0.05497999161677436 0.0079995865395852128 0.0059674189205733974 0 0.0059674189205733974 0.013905354476980492 0 0 0 0.0054762352541417592 0.03893598206193518 -0.011722620936710202 0 -0.011722620936710202 -0.00074151398528567516 0 0 0 0.0095486170191623754 0.023537970535461347 0.018053139599890911 0 0.018053139599890911 0.0031000629639500038 0 0 0 0.0066595083748528395 0.0024819470035836524 0.074952710694204061 0 0.074952710694204061 0.085982116623591232 0 0 0 0.022116015906793719 0.01581167604534045 0.06177905505361192 0 0.06177905505361192 0.060954187364313739 0 0 0 0.019191465852413658 0.26676365173528732 0.18037805710062849 0 0.18037805710062849 0.32527675434583242 0 0 0 0.14801010152027999 0.0030839842354359326 0.013257327085030912 0 0.013257327085030912 0.017042486795817241 0 0 0 0.0050316177578133003 0.096123643368098727 -0.022153402516853271 0 -0.022153402516853271 0.083578523837385316 0 0 0 0.044925541801371177 0.079182881161788066 0.0097944904662638499 0 0.0097944904662638499 0.0321753242509768 0 0 0 0.027839551353191216 0.046601027711710784 -0.020507756791865759 0 -0.020507756791865759 0.080252973693394375 0 0 0 0.031713500351276312 0.0633868266506383 -0.02514573702873743 0 -0.02514573702873743 0.014648104614883029 0 0 0 0.019508732816380325 0.10018834426584247 0.0060414951943330575 0 0.0060414951943330575 0.040557065576708573 0 0 0 0.035186352460637671 -0.091297431746589885 0.01899462834365484 0 0.01899462834365484 0.0052953319417188283 0 0 0 -0.02150052495121757 -0.001583014276976602 -0.0091953410994729534 0 -0.0091953410994729534 0.010043837557834667 0 0 0 0.0021152058202145163 0.17651419440503613 0.021445836242523164 0 0.021445836242523164 0.15643423539321244 0 0 0 0.083237107449561698 0.13827519450148179 -0.016372030385330527 0 -0.016372030385330527 0.11348994524792294 0 0 0 0.06294128493735146 0.0025829125269076769 0.0070434246924125131 0 0.0070434246924125131 0.016706590576255564 0 0 0 0.0048223757757916985 0.065563881930241319 -0.015538182410996693 0 -0.015538182410996693 0.034135024818880977 0 0 0 0.024924726687280518 0.085778937872841313 -0.070824107246317214 0 -0.070824107246317214 0.13534771392006936 0 0 0 0.055281662948227658 0.059727115432161582 -0.011970485801031938 0 -0.011970485801031938 0.028040315093676549 0 0 0 0.021941857631459505 0.089272724402196524 -0.0010998597108531419 0 -0.0010998597108531419 0.018915429028852015 0 0 0 0.027047038357762121 0.004954253384557683 -0.034554587662993658 0 -0.034554587662993658 0.015274461178897081 0 0 0 0.0050571786408636354 -0.049551429574909024 0.010768264225041225 0 0.010768264225041225 -0.0045071921110337934 0 0 0 -0.013514655421485704 -0.063878356494818045 -0.018703371412097197 0 -0.018703371412097197 -0.0059115173854237119 0 0 0 -0.017447468470060429 0.091530691124353247 -0.014652188700515656 0 -0.014652188700515656 0.017974832071366704 0 0 0 0.027376380798929963 0.13741327062421971 0.018679737245516859 0 0.018679737245516859 0.074492388444511226 0 0 0 0.052976414767182733 -0.03102713876845491 -0.026185643628270545 0 -0.026185643628270545 -0.0081695254423653912 0 0 0 -0.0097991660527050727 -0.030008069980407844 0.017018052337755947 0 0.017018052337755947 -0.0058565508152029211 0 0 0 -0.0089661551989026929 0.056513058289169346 -0.0054859775715330166 0 -0.0054859775715330166 -0.006266670779516384 0 0 0 0.012561596877413239 -0.062485236437336736 0.0098175104366903816 0 0.0098175104366903816 0.0023979537121820702 0 0 0 -0.015021820681288661 -0.084672697919156936 -0.017449031499850696 0 -0.017449031499850696 0.0043123245450220754 0 0 0 -0.020090093343533701 0.073491578644360067 -0.014197525187856816 0 -0.014197525187856816 0.007602607854981569 0 0 0 0.020273546624835437 0.067132605396160033 -0.023540489000913573 0 -0.023540489000913573 0.01550274079773406 0 0 0 0.02065883654847353 0.20113186326247012 -0.0016992731556331186 0 -0.0016992731556331186 0.1895342124392525 0 0 0 0.09766651892542999 0.0022867704076814377 -0.0046177141929570897 0 -0.0046177141929570897 0.0075419809335277588 0 0 0 0.0024571878353023546 0.06825651115949638 -0.01712832886455129 0 -0.01712832886455129 0.0035759932111543158 0 0 0 0.017958126092662674 0.078992202849408499 0.0066769411566389159 0 0.0066769411566389159 0.038012645185575122 0 0 0 0.029251212008745975 0.00087976379181964326 0.054418286047509257 0 0.054418286047509257 0.012269675269746649 0 0 0 0.0032873597653915176 -0.050034192918932123 -0.019764225550143268 0 -0.019764225550143268 -0.016686431245997939 0 0 0 -0.016680156041232512 -0.041337580435868382 0.012342013511945565 0 0.012342013511945565 -0.013784640770671215 0 0 0 -0.013780555301634899 0.045192440619050492 -0.013757663302517275 0 -0.013757663302517275 -0.013242760247941568 0 0 0 0.0079874200927772358 0.069174255148976682 0.016794470535640649 0 0.016794470535640649 0.056826022211553529 0 0 0 0.031500069340132386 0.033654542467978721 -0.015877069754805628 0 -0.015877069754805628 0.017539520548968124 0 0 0 0.012798515754236628 0.029265010502470594 -0.028427617429889307 0 -0.028427617429889307 0.015129684763462464 0 0 0 0.011098673816483266 0.054823846331273823 0.0057492724840348848 0 0.0057492724840348848 -0.0023393373474127075 0 0 0 0.013121127245965274 0.0043247578450342095 -0.027931264309013961 0 -0.027931264309013961 -0.0052229106905914823 0 0 0 -0.00022453821138931776 0.089891184876817187 0.0061436886223369489 0 0.0061436886223369489 0.032118770396843521 0 0 0 0.030502488818415219 0.062200924271362507 0.0065716180404245556 0 0.0065716180404245556 0.00027427666230869351 0 0 0 0.015618800233417801 0.050906017921282104 0.010199699101732042 0 0.010199699101732042 0.0015482911299624577 0 0 0 0.013113577262811142 0.048942852976942022 0.0091199214806133126 0 0.0091199214806133126 0.0038197202689745219 0 0 0 0.01319064331147914 0.068591604615958313 -0.016430514021893161 0 -0.016430514021893161 0.044051832073324304 0 0 0 0.028160859172320751 0.076941085929626146 -0.034472560044156747 0 -0.034472560044156747 0.039963324260609223 0 0 0 0.029226102547558835 0.085784960018217449 0.0057421108189944781 0 0.0057421108189944781 0.039197291696352998 0 0 0 0.031245562928642667 0.052040786069930033 -0.026167505777129944 0 -0.026167505777129944 0.10492748150318751 0 0 0 0.039242066893279394 0.24071399858678966 0.013588171061831744 0 0.013588171061831744 0.20629307286517573 0 0 0 0.1117517678629909 0.00049367083077944685 -0.0047022386648283288 0 -0.0047022386648283288 0.0097988697362509924 0 0 0 0.0025731351417574988 -0.011298105613759768 -0.005431593760554152 0 -0.005431593760554152 0.0058679199804760884 0 0 0 -0.0013575464083204203 0.21615922232316898 0.0011184368288361668 0 0.0011184368288361668 0.19810202812041844 0 0 0 0.10356531261089685 0.067892319860340986 0.026198804376845214 0 0.026198804376845214 0.1402124191029786 0 0 0 0.052026184740829914 0.035475620331045378 0.01366198394769849 0 0.01366198394769849 0.002375164215346004 0 0 0 0.0094626961365978507 0.026823080939778504 0.014125124865158161 0 0.014125124865158161 0.0030086019939338932 0 0 0 0.0074579207334280959 0.14849627038118962 0.024502461848421087 0 0.024502461848421087 0.065226359589569682 0 0 0 0.053430657492689937 0.13285829669019322 0.033124822329767767 0 0.033124822329767767 0.060018971530028331 0 0 0 0.048219317055055333 0.063649637083416741 -0.036789448888493267 0 -0.036789448888493267 0.039115080749150377 0 0 0 0.025691179458141769 0.084751211604762122 0.010611188499990876 0 0.010611188499990876 0.030498048129090627 0 0 0 0.028812314933463312 0.060864692495174011 -0.0098790467239877888 0 -0.0098790467239877888 0.00077642257727217334 0 0 0 0.015410278768111407 0.047004883269623321 0.013588715696175053 0 0.013588715696175053 0.092254558740817297 0 0 0 0.034814860502610137 -0.013708195524309907 0.0072686386589144092 0 0.0072686386589144092 0.011270017663491672 0 0 0 -0.00060954446520389283 0.12102782885797136 -0.0099228667552728744 0 -0.0099228667552728744 0.10736929867378819 0 0 0 0.05709928188293989 -0.090743276294781128 0.0048067130079158266 0 0.0048067130079158266 0.001662749896346398 0 0 0 -0.022270131599608667 -0.14501829266637761 -0.012226557133460006 0 -0.012226557133460006 0.0024276621004872267 0 0 0 -0.035647657641472583 0.10152121690269236 -0.030677260463353256 0 -0.030677260463353256 0.021274054192644387 0 0 0 0.030698817773834181 0.20121597573045347 -0.071649728081693509 0 -0.071649728081693509 0.062167204086050698 0 0 0 0.065845794954126069 0.085792854512090649 -0.014024802981427498 0 -0.014024802981427498 0.0096145121466949535 0 0 0 0.023851841664696338 0.083523719612871514 -0.022401851327709915 0 -0.022401851327709915 0.01268672675682625 0 0 0 0.024052611592424486 0.061547604246638077 -0.0020559031816529405 0 -0.0020559031816529405 0.022966089667347152 0 0 0 0.021128423478496309 0.038040762947138429 0.0032789954551941669 0 0.0032789954551941669 0.017081664974314847 0 0 0 0.01378060698036343 0.099231345890538947 2.2729905618135149e-05 0 2.2729905618135149e-05 0.047985369882677986 0 0 0 0.036804178943304233 0.02236254021764365 -0.003554040477920406 0 -0.003554040477920406 0.006924579767724647 0 0 0 0.0073217799963422401 0.012576876358931788 0.034366051452737939 0 0.034366051452737939 0.11336663465132313 0 0 0 0.031485877752563701 0.056405246587178937 -0.018786398069865207 0 -0.018786398069865207 0.018950390223284375 0 0 0 0.018838909202615883 0.088972329566891911 -0.0061579810263116541 0 -0.0061579810263116541 0.011938731293667917 0 0 0 0.025227765215139999 0.082027414930150935 -0.0057012958628581689 0 -0.0057012958628581689 0.015064021373893434 0 0 0 0.024272859076011136 0.061502934604280468 -0.032124052929248997 0 -0.032124052929248997 0.023273114611840562 0 0 0 0.021194012304030285 -0.14284186856115899 0.024234869774574785 0 0.024234869774574785 0.0084827316970876865 0 0 0 -0.033589784216017882 -0.022768572346885327 0.0056822287369952054 0 0.0056822287369952054 0.028986827339631704 0 0 0 0.0015545637481865909 -0.0063941035010400826 -0.0060795820033702277 0 -0.0060795820033702277 0.026084659533403332 0 0 0 0.0049226390080908122 0.061361026951165631 -0.0087386498842044746 0 -0.0087386498842044746 0.018297920417054137 0 0 0 0.01991473684205497 -0.096665819088671889 0.037742734606869499 0 0.037742734606869499 0.0069646495131050479 0 0 0 -0.022425292393891572 -0.070550190733048107 0.012201567765799025 0 0.012201567765799025 0.0075687719511730589 0 0 0 -0.015745354695468769 -0.074832436966321289 -0.00077446387024535102 0 -0.00077446387024535102 0.0076136461034757019 0 0 0 -0.016804697715711372 -0.12398364821025457 -0.004032511984632059 0 -0.004032511984632059 0.01696319558277265 0 0 0 -0.026755113156870486 -0.11400323722038425 -0.030826748804016688 0 -0.030826748804016688 0.018393480226917558 0 0 0 -0.023902439248366714 0.059363449360498373 -0.015645534608352496 0 -0.015645534608352496 0.021915788509294237 0 0 0 0.020319809467448165 -0.086540600555314678 -0.010602103599649138 0 -0.010602103599649138 0.0041782749745808978 0 0 0 -0.020590581395183521 0.15116026769866642 0.075556598944182318 0 0.075556598944182318 0.042531520937447276 0 0 0 0.048422947159028285 0.036330930525162085 -0.014435405422434419 0 -0.014435405422434419 0.073659830054418951 0 0 0 0.027497690144895247 0.066637474716501027 0.021554313130792237 0 0.021554313130792237 0.030601507465158512 0 0 0 0.024309745545414877 -0.0015932584008887529 0.027825587424906928 0 0.027825587424906928 0.014754095087198493 0 0 0 0.0032902091715777404 0.064264264671421545 -0.024122552731962621 0 -0.024122552731962621 0.040560394754337148 0 0 0 0.026206164856439562 0.078295160940197714 -0.034301428755426633 0 -0.034301428755426633 0.044034502616197145 0 0 0 0.030582415889098664 0.056533853826415625 -0.007965971093394586 0 -0.007965971093394586 0.018416545613712865 0 0 0 0.018737599860032206 0.077834231920206387 -0.005932802208080068 0 -0.005932802208080068 0.014148791262918459 0 0 0 0.022995755795781198 0.026992139442810831 -0.019697973001251104 0 -0.019697973001251104 -0.0046055001821441593 0 0 0 0.0055966598151666672 0.012235641374508024 0.020401375347060251 0 0.020401375347060251 0.0011371658125431741 0 0 0 0.0033432017967628003 0.03227420042095145 -0.037897834592241719 0 -0.037897834592241719 0.02393694178951547 0 0 0 0.014052785552616721 0.00079225106960898947 -0.038527299309504423 0 -0.038527299309504423 -0.0041485822877311146 0 0 0 -0.00083908280453053388 -0.025218297203598583 -0.017398573622239219 0 -0.017398573622239219 0.035688963743084945 0 0 0 0.0026176666348715627 0.052138477147761639 -0.0056577272792349559 0 -0.0056577272792349559 -0.0063243819342991697 0 0 0 0.011453523803365621 0.0553014418846874 -0.0016143695645804944 0 -0.0016143695645804944 1.911581781918921e-05 0 0 0 0.013830139425626645 0.035892805420216556 0.012267051631395178 0 0.012267051631395178 0.0039259630731951489 0 0 0 0.0099546921233529279 0.034741540508823998 0.014546177263536445 0 0.014546177263536445 0.0013160766893087691 0 0 0 0.0090144042995331936 -0.0096206850385431586 -0.030454147656205979 0 -0.030454147656205979 0.03593648024444801 0 0 0 0.0065789488014761921 0.056746154418314293 0.018064126266387537 0 0.018064126266387537 0.028771575295931197 0 0 0 0.021379432428561374 0.065354314600267208 -0.0087153778810325714 0 -0.0087153778810325714 -0.0096045532508529131 0 0 0 0.013937440337353573 0.033031514644955996 -0.035113551084541221 0 -0.035113551084541221 -0.0049441249006272883 0 0 0 0.0070218474360821768 0.054326511967487973 0.022280657436803533 0 0.022280657436803533 0.074011505752493906 0 0 0 0.03208450442999547 0.016239191343585795 0.0076668581735635424 0 0.0076668581735635424 0.0077595625076422939 0 0 0 0.0059996884628070249 0.020984144328121651 0.010340280193469636 0 0.010340280193469636 0.012569768266933665 0 0 0 0.0083884781487638289 -0.050023487718442811 -0.019771735564447099 0 -0.019771735564447099 -0.016652307279711075 0 0 0 -0.016668948749538469 -0.041330274079786143 0.012348664350375179 0 0.012348664350375179 -0.01376096083121121 0 0 0 -0.013772808727749339 0.23802883314127185 0.040776700424349999 0 0.040776700424349999 0.056554536693627089 0 0 0 0.073645842458724714 0.036803066125976426 0.011530243916946894 0 0.011530243916946894 0.0088124587419791539 0 0 0 0.011403881216988893 0.02049354028552719 -0.0068042120980490346 0 -0.0068042120980490346 0.08900535471332488 0 0 0 0.027374723749713004 0.058707836592607421 -0.0023737892476753397 0 -0.0023737892476753397 0.0054450743170715299 0 0 0 0.016038227727419641 -0.079809172918796162 0.0075879021449753656 0 0.0075879021449753656 0.0024253781250516198 0 0 0 -0.019345948698436144 -0.12528781050380242 -0.014462122077042601 0 -0.014462122077042601 0.0025280999536885645 0 0 0 -0.030689927637528432 0.063696916655198624 -0.0056205081059929052 0 -0.0056205081059929052 0.013938480490851834 0 0 0 0.019408849286512667 -0.061505054569877017 0.016150381744869713 0 0.016150381744869713 0.0024950736554858952 0 0 0 -0.014752495228597768 -0.062243645794864258 -0.044208803809460046 0 -0.044208803809460046 0.00072604787917460167 0 0 0 -0.015379399478922428 -0.068068168645171859 0.0098255136711687622 0 0.0098255136711687622 0.00023333141511729799 0 0 0 -0.01695870930751369 -0.0051010929782892957 0.014013534484586665 0 0.014013534484586665 0.0023143182631736813 0 0 0 -0.00069669367877890371 0.025330723515152968 -0.023974011846705522 0 -0.023974011846705522 -0.0063278772140522438 0 0 0 0.0047507115752751794 -0.017276406046470724 -0.035044564896992272 0 -0.035044564896992272 0.014800836551424584 0 0 0 -0.0006188923737615315 0.051965012560917068 -0.018447709855007821 0 -0.018447709855007821 0.017441048306990448 0 0 0 0.017351515216976809 0.12719149042509725 0.017240301078390807 0 0.017240301078390807 0.084443936484154491 0 0 0 0.052908856727313047 -0.0072283712273817358 -0.017118858544799054 0 -0.017118858544799054 0.0076554499707750523 0 0 0 0.00010676968584855118 0.049642230359677152 -0.0070189989102888194 0 -0.0070189989102888194 0.00353363508889009 0 0 0 0.01329396636214181 0.02713157094515424 0.013169640685852142 0 0.013169640685852142 0.005213061612524772 0 0 0 0.0080861581394197531 0.012028765156256286 -0.025351095309972108 0 -0.025351095309972108 -0.0061622725241762336 0 0 0 0.0014666231580200105 -8.242395931620447e-05 0.021588047242103441 0 0.021588047242103441 -0.0014646043760948232 0 0 0 -0.00038675708385275606 0.029458459452900987 -0.0067407881977091383 0 -0.0067407881977091383 0.021459638618894106 0 0 0 0.012729524517948801 0.029937371245337248 -0.020451177796279599 0 -0.020451177796279599 0.02690858032587215 0 0 0 0.014211487892802327 0.023605110887463976 0.067981235431441106 0 0.067981235431441106 0.023192252728635676 0 0 0 0.011699340904024913 0.098772979233104574 0.098562024534024878 0 0.098562024534024878 0.066534710007012832 0 0 0 0.041326922310029324 0.16217780943549009 -0.0048029743011140658 0 -0.0048029743011140658 0.073650826834478544 0 0 0 0.058957159067492146 0.014382232994526616 -0.0033887239697784899 0 -0.0033887239697784899 0.068899075449689373 0 0 0 0.020820327111054006 0.057985421753573664 0.0039851803911759749 0 0.0039851803911759749 -0.0047379744321819246 0 0 0 0.013311861830347936 0.05463714298177913 -0.019272861193728022 0 -0.019272861193728022 0.0077355117230616388 0 0 0 0.01559316367621022 0.0033653919993890113 0.048514959200315344 0 0.048514959200315344 0.0084858032322920884 0 0 0 0.0029627988079199419 0.075053062893537525 -0.017488897582818685 0 -0.017488897582818685 0.066938436370052035 0 0 0 0.03549787481589739 0.062947429605735766 0.0020464384696159965 0 0.0020464384696159965 0.022191360117434278 0 0 0 0.021284697430792449 0.022634177218036233 0.013068707843683509 0 0.013068707843683509 0.0020383989309553929 0 0 0 0.0061681440372479066 -0.017637783612235169 0.013204332990237599 0 0.013204332990237599 0.066035790474852529 0 0 0 0.012099501715654326 -0.077635987573610357 0.0044786675705004771 0 0.0044786675705004771 -0.0025134147104107427 0 0 0 -0.020037350571005277 -0.1114034306143193 -0.0079746850849715129 0 -0.0079746850849715129 -0.0046027969043122563 0 0 0 -0.029001556879657889 0.087772165049712469 -0.015059297039895489 0 -0.015059297039895489 0.009106604813239938 0 0 0 0.024219692465738102 -0.012602308707638395 0.015684373914961035 0 0.015684373914961035 -0.00017129393230262691 0 0 0 -0.0031934006599852564 0.0017506434507610748 -0.022013638626032006 0 -0.022013638626032006 -0.0082941587029039289 0 0 0 -0.0016358788130357111 -0.17066475431676789 0.00093277783335848907 0 0.00093277783335848907 0.009951930355823202 0 0 0 -0.040178205990236193 -0.097460777534106702 0.00012768616959826784 0 0.00012768616959826784 0.00335490886269596 0 0 0 -0.023526467167852672 0.11241895105412855 0.028344879660628153 0 0.028344879660628153 0.16148479931749005 0 0 0 0.068475937592904629 0.19891969291672315 -0.0064266290275216686 0 -0.0064266290275216686 0.39137496396215382 0 0 0 0.14757366421971921 0.023117558767042606 -0.042003423738466883 0 -0.042003423738466883 0.029023610667553434 0 0 0 0.013035292358649059 -0.0026624185606760609 -0.033631437425664434 0 -0.033631437425664434 0.019755169432083997 0 0 0 0.0042731877178519562 0.081062832675475149 -0.046420265845945566 0 -0.046420265845945566 0.075462577883386436 0 0 0 0.039131352639715407 0.048858305661411139 -0.0066160596814091033 0 -0.0066160596814091033 -0.0011145860941095265 0 0 0 0.011935929891825514 0.055122216497253934 -0.0047199967692816737 0 -0.0047199967692816737 -0.010035998887444159 0 0 0 0.011271554402452441 -0.036349808264969252 -0.0036061820234648823 0 -0.0036061820234648823 0.017031058782650432 0 0 0 -0.004829687370579705 0.069258221208919224 -0.0019373498266923028 0 -0.0019373498266923028 -0.0031926379384539239 0 0 0 0.016516395817616436 -0.13639977125867778 0.018440377831448695 0 0.018440377831448695 0.005887348275568971 0 0 0 -0.032628105745777368 0.023058155136884029 0.022040903489596531 0 0.022040903489596531 0.019684981902350351 0 0 0 0.010685784259808706 0.050488407318981521 -0.021812533791607525 0 -0.021812533791607525 0.040005112391349407 0 0 0 0.022623379927583009 0.041107696057221456 0.010706514954765062 0 0.010706514954765062 0.023521669301269837 0 0 0 0.016157341339622832 0.020010812909681291 -0.015847369405016756 0 -0.015847369405016756 0.026263221470821274 0 0 0 0.011568508595125621 0.064862926699121151 0.012160565972994138 0 0.012160565972994138 0.0057688315804163698 0 0 0 0.017657939569884387 0.071550968638985163 0.016675126882156256 0 0.016675126882156256 0.014485806431649734 0 0 0 0.021509193767658724 -0.021148370278350957 -0.0342952360237221 0 -0.0342952360237221 -0.00026562106059364876 0 0 0 -0.0053534978347361453 0.0035905210696538514 -0.030357784079686589 0 -0.030357784079686589 0.0087292478029799003 0 0 0 0.0030799422181584379 -0.077636392581314301 -0.027925759475160086 0 -0.027925759475160086 -0.007006075378419541 0 0 0 -0.021160616989933444 0.060019694868213902 0.045590207867167054 0 0.045590207867167054 0.025298789827678192 0 0 0 0.021329621173973079 0.053423442473683969 0.042892203705882981 0 0.042892203705882981 0.023569437950958061 0 0 0 0.019248220106160618 0.050247526996530345 0.04569526542360558 0 0.04569526542360558 0.018486095855434037 0 0 0 0.017183405712991151 0.011012165228251547 -0.031002313334248854 0 -0.031002313334248854 0.01257357848129681 0 0 0 0.0058964359273870892 0.0050383863793960829 -0.025340181826449926 0 -0.025340181826449926 0.010299763010166066 0 0 0 0.0038345373473906499 0.16609934685270161 0.04689895164111036 0 0.04689895164111036 0.08807161613989381 0 0 0 0.063542740748148904 0.049173850179799729 -0.0056282186933591565 0 -0.0056282186933591565 0.016377716534769732 0 0 0 0.016387891678642366 0.03217957018838543 0.013541788632170714 0 0.013541788632170714 0.010720537398554495 0 0 0 0.010725026896734983 0.042167993941716546 0.012139488302345913 0 0.012139488302345913 0.010156106389261309 0 0 0 0.013081025082744472 0.071036713871953455 -0.011137381143250871 0 -0.011137381143250871 0.12075568572898931 0 0 0 0.047948099900235658 -0.042308492021079822 -0.041155482014675303 0 -0.041155482014675303 -0.0020308484726082807 0 0 0 -0.011084835123422031 0.046670957595491343 0.0059258583168954673 0 0.0059258583168954673 0.0057036001550210495 0 0 0 0.013093639437628098 -0.11334822037412534 -0.010429230087854711 0 -0.010429230087854711 -0.00630703298004985 0 0 0 -0.029913813338543812 -0.076254905973052553 0.0051394623243208818 0 0.0051394623243208818 -0.0029137707511143959 0 0 0 -0.019792169181041736 -0.081968169860119011 -0.0068997887206612152 0 -0.0068997887206612152 0.0033335067908986105 0 0 0 -0.019658665767304906 0.04329670355051024 0.011403138497907141 0 0.011403138497907141 0.002243620984957527 0 0 0 0.01138508113386694 0.062024822035934984 -0.015545927039271712 0 -0.015545927039271712 0.042941627522671805 0 0 0 0.026241612389651808 0.044537574535681662 0.016246961439633584 0 0.016246961439633584 0.052349104245281761 0 0 0 0.024221669695240842 0.10220191676898077 0.05446518550883539 0 0.05446518550883539 0.023236679360611079 0 0 0 0.031359649032398018 0.06167004064357634 0.0025338103531791227 0 0.0025338103531791227 -0.0028379947062118901 0 0 0 0.014708011484341114 0.03181756490509402 0.019197503854865738 0 0.019197503854865738 0.027592554747226217 0 0 0 0.014852529913079948 0.052157778468537641 -0.017372339812421367 0 -0.017372339812421367 0.030569812745062208 0 0 0 0.020681897803399796 0.04343266146755706 0.012152426888675169 0 0.012152426888675169 0.0017406072789791158 0 0 0 0.011293317186634042 0.030271868714815447 0.0063842374380112445 0 0.0063842374380112445 0.06706311748879866 0 0 0 0.024333746550903517 0.10793610437672729 0.011804365497675495 0 0.011804365497675495 0.06397126931079633 0 0 0 0.042976843421881128 0.031899621621452656 0.013761539085971108 0 0.013761539085971108 0.025479933854849257 0 0 0 0.014344888869075145 0.01746830878633765 -0.011808588645650986 0 -0.011808588645650986 0.010782011718841744 0 0 0 0.0070625801262949039 0.065402828277371317 -0.013194700018232863 0 -0.013194700018232863 0.034165596621337446 0 0 0 0.024892106224677413 -0.06441841871722101 -0.0057256515861234814 0 -0.0057256515861234814 0.036864654063218927 0 0 0 -0.0068884411635005138 -0.044829852576531812 -0.021443015701315293 0 -0.021443015701315293 0.01222970755100089 0 0 0 -0.0081500362563827616 -0.065783584729883493 -0.021243464148057944 0 -0.021243464148057944 0.011361822852984149 0 0 0 -0.01360544046922485 -0.10092614026766122 0.050178286757568302 0 0.050178286757568302 0.028512769750718814 0 0 0 -0.018103342629235519 -0.060203273211509312 0.050283392487901923 0 0.050283392487901923 0.029875722120236148 0 0 0 -0.0075818877728183187 0.02510712281472707 0.012582664945504684 0 0.012582664945504684 0.0014013041861322319 0 0 0 0.0066271067502148232 0.2293833848529564 0.036813920201561462 0 0.036813920201561462 0.04959709984649141 0 0 0 0.069745121174861868 -0.025797154717016317 -0.025113442741608635 0 -0.025113442741608635 -0.0089405442965857992 0 0 0 -0.0086844247534005325 -0.028224231030181797 0.015965180521909133 0 0.015965180521909133 -0.0027803884618820759 0 0 0 -0.00775115487301597 0.027006926318872481 -0.010226707453140194 0 -0.010226707453140194 0.049131903824156102 0 0 0 0.019034707535757128 -0.001632579842775846 0.018164768507822456 0 0.018164768507822456 -0.0010165098378922544 0 0 0 -0.00066227242016702638 0.018210620714926351 -0.026398618826011761 0 -0.026398618826011761 -0.015151438434978112 0 0 0 0.00076479556998705622 -0.081996479960853783 -0.033401139963995741 0 -0.033401139963995741 0.0047599747995517652 0 0 0 -0.019309126290325513 -0.083384365639292385 -0.032307375254023801 0 -0.032307375254023801 -0.00074775342637878328 0 0 0 -0.021033029766417792 0.11395441345593271 0.025966833700601599 0 0.025966833700601599 0.084100918150529225 0 0 0 0.049513832901615373 0.010774818276512388 -0.018205443093257834 0 -0.018205443093257834 0.012772711368001843 0 0 0 0.0058868824111284468 0.11353973567509601 0.0055339470192171669 0 0.0055339470192171669 0.0031526747463240658 0 0 0 0.029173102605354991 0.076528495261680485 -0.0025728043008769186 0 -0.0025728043008769186 -0.027184414078246455 0 0 0 0.012336020295858452 -0.00020116777470608957 0.011671451788182827 0 0.011671451788182827 0.0075493407220055195 0 0 0 0.0018370432368248549 0.10238071564469714 -0.014186986251569444 0 -0.014186986251569444 0.098530058940555443 0 0 0 0.050227693646313132 0.1733151989544634 0.011342765303648916 0 0.011342765303648916 0.17860361215751996 0 0 0 0.087979702777995938 0.10266455789190088 0.016639947297942714 0 0.016639947297942714 0.06092400995951585 0 0 0 0.0408971419628541 -0.062632193403063502 -0.0079694866865232319 0 -0.0079694866865232319 0.013873545519961838 0 0 0 -0.012189661970775409 0.05167501895580584 0.0020202141971003562 0 0.0020202141971003562 -0.018384328463561195 0 0 0 0.0083226726230610781 -0.081537795338135904 -0.044311716423428328 0 -0.044311716423428328 0.011769623837828314 0 0 0 -0.017442042875076905 0.04159392871173722 0.0098167043439208769 0 0.0098167043439208769 0.020512466583849587 0 0 0 0.015526598823896696 -0.011844587853049149 -0.032369189849661917 0 -0.032369189849661917 0.033634206708354375 0 0 0 0.0054474047138262649 -0.0046165890107127683 -0.025060414127264841 0 -0.025060414127264841 0.028492487728188576 0 0 0 0.0059689746793689658 -0.0038698342348488478 0.016763048037906559 0 0.016763048037906559 0.0024773355611874583 0 0 0 -0.00034812466841535258 -0.041296657476140614 -0.016451751395604841 0 -0.016451751395604841 0.019596990879913179 0 0 0 -0.0054249166490568934 -0.014082261640463129 0.012580942237388567 0 0.012580942237388567 0.0045069107072344128 0 0 0 -0.0023938377333071817 0.027486496325960629 -0.026620870336302928 0 -0.026620870336302928 -0.015324556607047936 0 0 0 0.0030404849297281759 -0.06807270777610544 -0.0063353436548354014 0 -0.0063353436548354014 0.014151246320728283 0 0 0 -0.013480365363844227 -0.11690877090760021 0.013069013530457696 0 0.013069013530457696 0.047723625434589911 0 0 0 -0.017296286368252534 -0.029245888473916126 -0.027626926192781176 0 -0.027626926192781176 -0.0036550525712097243 0 0 0 -0.0082252352612814609 -0.028405629816575524 0.018655385352490898 0 0.018655385352490898 -0.0020122711925078668 0 0 0 -0.0076044752522708495 -0.018116902117376522 0.019169490531079053 0 0.019169490531079053 0.00065586267132271975 0 0 0 -0.0043652598615134593 -0.0058135600354366143 -0.035589555005085247 0 -0.035589555005085247 -0.011814473931368585 0 0 0 -0.0044070084917013017 0.045185147569172052 -0.013107598748858258 0 -0.013107598748858258 -0.01020579470943199 0 0 0 0.0087448382149350259 0.060325490694686373 -0.047664937483722358 0 -0.047664937483722358 0.066340343562190818 0 0 0 0.031666458564219263 0.067215678115890021 0.0065770520796247147 0 0.0065770520796247147 -0.0027938927819977349 0 0 0 0.016105446333473078 0.023987039669923771 0.02500406245683906 0 0.02500406245683906 0.020658127398713866 0 0 0 0.011161291767159742 0.063111143727746066 -0.024988709349459848 0 -0.024988709349459848 0.043414798433065727 0 0 0 0.026631485540202782 -0.014852709086683078 0.018946249321271175 0 0.018946249321271175 -0.00038956798316626406 0 0 0 -0.0038105692674623368 0.0026626842067843473 -0.031166063523726445 0 -0.031166063523726445 -0.015340650586795563 0 0 0 -0.0031694915950027983 0.056921551346572785 0.011395765589319816 0 0.011395765589319816 0.0035621241917199106 0 0 0 0.015120918884573172 0.028625574985734648 -0.034583447935041298 0 -0.034583447935041298 0.043131003463268591 0 0 0 0.017939144612250824 -0.08473300483385926 0.01415253529062163 0 0.01415253529062163 0.007043216289742027 0 0 0 -0.019422447136029364 0.092657229585903556 -0.015235494003598027 0 -0.015235494003598027 0.061462630548893449 0 0 0 0.038529965033699265 -0.015158363577501444 -0.03068388933749655 0 -0.03068388933749655 0.0092616055956575849 0 0 0 -0.0014741894954608536 0.022676954194424226 -0.0070956443402007269 0 -0.0070956443402007269 0.075087214472510988 0 0 0 0.02444104216673379 -0.081006027454639654 -0.024577183724768931 0 -0.024577183724768931 -0.00034662149026748468 0 0 0 -0.020338162236226781 -0.058219124688273977 0.011674401569739501 0 0.011674401569739501 0.0017266394594138146 0 0 0 -0.014123121307215044 0.088260434760805584 0.0059759688423806348 0 0.0059759688423806348 0.0069045543951588781 0 0 0 0.023791247288991124 0.049955578327483402 0.009674640832631299 0 0.009674640832631299 0.0015178099940989058 0 0 0 0.012868347080395571 0.035659444680720354 -0.021819942572782178 0 -0.021819942572782178 0.022294887858476553 0 0 0 0.014488583134799254 -0.083041127933135228 -0.026329831112466957 0 -0.026329831112466957 -0.00098958625499193098 0 0 0 -0.021007678547031786 -0.060834237561557793 0.013524944909386997 0 0.013524944909386997 4.8553925067133796e-05 0 0 0 -0.015196420909122675 0.042591055257638982 0.012221701633491028 0 0.012221701633491028 0.073661517680000038 0 0 0 0.029063143234409755 0.019742556942917933 -0.02376386734450503 0 -0.02376386734450503 0.013872612960620145 0 0 0 0.0084037924758846305 0.056921400200665939 0.032383304766585075 0 0.032383304766585075 0.037502584254248461 0 0 0 0.023605996113728711 -0.053518083921570918 0.0077498647671462306 0 0.0077498647671462306 0.012751189118058517 0 0 0 -0.010191723700878083 -0.034939147595040118 -0.0014075166324573896 0 -0.0014075166324573896 0.015242201072854556 0 0 0 -0.0049242366305463766 0.041236212226443802 -0.0068216722161146964 0 -0.0068216722161146964 0.029848745796855272 0 0 0 0.017771239505824772 0.031139761109003544 -0.0058091367854059134 0 -0.0058091367854059134 0.040804372902446789 0 0 0 0.01798603350286257 0.026663793843875763 -0.020021017896004814 0 -0.020021017896004814 -0.010976657520764099 0 0 0 0.0039217840807779202 0.032389062640843277 -0.015417391500785159 0 -0.015417391500785159 -0.0070391423968652125 0 0 0 0.0063374800609945093 0.0075296690853885045 0.01421451285881534 0 0.01421451285881534 -6.3495155405782211e-05 0 0 0 0.0018665434824956806 0.0070023254253185341 0.018835112343700951 0 0.018835112343700951 6.2394893041689548e-05 0 0 0 0.0017661800795900524 0.055336548791941942 -0.013603229673652351 0 -0.013603229673652351 0.019968606233071284 0 0 0 0.018826288756253307 0.033291408803600986 0.0044761450382656944 0 0.0044761450382656944 0.079242485720162306 0 0 0 0.028133473630940823 0.075875117779713452 0.0099330841916689446 0 0.0099330841916689446 0.0052891795411277656 0 0 0 0.020291074330210289 0.097627359748522213 0.033319471213141293 0 0.033319471213141293 0.040229152434610782 0 0 0 0.034464128045783138 -0.0094742260212785645 -0.023662336712144239 0 -0.023662336712144239 0.0088811842915115236 0 0 0 -0.00014826043244164921 0.10201369845629982 0.049937228801332223 0 0.049937228801332223 0.02572854435834282 0 0 0 0.031935560703660659 0.082945914540419663 -0.015077453021455203 0 -0.015077453021455203 0.0019509377606440493 0 0 0 0.02122421307526591 0.092365776893424331 -0.002517241460849081 0 -0.002517241460849081 0.016899813408694196 0 0 0 0.027316397575529654 0.017165294244894769 0.055626575827965818 0 0.055626575827965818 0.01037997108545996 0 0 0 0.0068863163325889598 0.053706897130576081 0.059470608291707361 0 0.059470608291707361 0.017529333236335543 0 0 0 0.017809057591728017 -0.038445192365688052 -0.024108761825825699 0 -0.024108761825825699 -0.0022414594857058864 0 0 0 -0.010171662962848483 -0.03631369161212683 0.014493629658364822 0 0.014493629658364822 -0.00075257923099113222 0 0 0 -0.0092665677107794855 0.033590574762379699 -0.032431101919185967 0 -0.032431101919185967 0.023273704908553405 0 0 0 0.014216069917733332 0.12959743241823918 -0.016057277562085106 0 -0.016057277562085106 0.10113261126313366 0 0 0 0.057682510920343266 0.21365616890071754 0.016553657438247327 0 0.016553657438247327 0.18565645757532112 0 0 0 0.099828156619009623 0.031764756552903853 0.0063658290544050637 0 0.0063658290544050637 0.050567532880271118 0 0 0 0.020583072358293739 0.084162945064414907 0.015409619292335131 0 0.015409619292335131 0.010651614643208365 0 0 0 0.023703639926905849 0.052154506502736009 -0.0037322539163645307 0 -0.0037322539163645307 0.013097263466977926 0 0 0 0.016312942492428484 0.059926876240344651 -0.0016726949060961727 0 -0.0016726949060961727 0.016726904208398619 0 0 0 0.019163445112185817 0.074577256887250476 -0.0031278545688722403 0 -0.0031278545688722403 0.012261231933185068 0 0 0 0.021709622205108914 0.0027373216773655673 0.013247771071669856 0 0.013247771071669856 0.015205753914914411 0 0 0 0.0044857688980696753 0.082617626569236574 -0.014004955955919218 0 -0.014004955955919218 0.059431572843035185 0 0 0 0.035512299853067836 0.10062665605400789 -0.018343459487715041 0 -0.018343459487715041 0.044262283026452964 0 0 0 0.036222234770115214 0.1576161166430099 0.024045445476021887 0 0.024045445476021887 0.10360651470815552 0 0 0 0.065305657837791298 0.10109542783467096 0.015779774916919287 0 0.015779774916919287 0.060554662978622886 0 0 0 0.040412522703323184 0.011150499352173937 -0.017317487373373686 0 -0.017317487373373686 0.0122585317604198 0 0 0 0.0058522577781483509 0.055173021005024678 0.0078989565300163819 0 0.0078989565300163819 -0.0017828215822623637 0 0 0 0.013347549855690578 0.063347715752882477 0.010504656595689353 0 0.010504656595689353 0.0026204770946076719 0 0 0 0.016492048211872539 0.095686818349217884 0.032955315762758453 0 0.032955315762758453 0.060630606943750998 0 0 0 0.039079356323242553 0.0067345987185611911 -0.023335544411324349 0 -0.023335544411324349 0.011041337206789237 0 0 0 0.0044439839813372739 -0.01189843404330195 -0.027109738057133646 0 -0.027109738057133646 -0.0073996582900120352 0 0 0 -0.0048245230833284924 -0.018789888279921237 0.018838475193741454 0 0.018838475193741454 -0.003081556539483353 0 0 0 -0.0054678612048511439 0.1141399146264811 0.068705742589111884 0 0.068705742589111884 0.033241472594461641 0 0 0 0.036845346805235657 -0.055922757029318509 -0.023425400073209174 0 -0.023425400073209174 -0.0069643723456445511 0 0 0 -0.015721782343740765 -0.04578971677006223 0.014047526946206543 0 0.014047526946206543 -0.0033815707886701574 0 0 0 -0.012292821889683099 -0.021244584650233378 0.0094318066731866601 0 0.0094318066731866601 0.0086769527670220725 0 0 0 -0.0031419079708028264 0.093456460422441823 -0.013135160569798687 0 -0.013135160569798687 0.083330705219726742 0 0 0 0.044196791410542224 0.038041016937002771 -0.020562278705301196 0 -0.020562278705301196 0.098464513548480181 0 0 0 0.03412638262137075 -0.0064353534396649203 -0.012533383336365667 0 -0.012533383336365667 0.093344295977403069 0 0 0 0.021727235634434544 -0.0047080755536370589 -0.032186844608260615 0 -0.032186844608260615 0.013246383143857621 0 0 0 0.0021345768975551405 0.095230170041494366 -0.024976762490116731 0 -0.024976762490116731 0.01236328033833467 0 0 0 0.026898362594957259 0.023242599488008331 0.073397425352757617 0 0.073397425352757617 0.027763042148726713 0 0 0 0.012751410409183928 -0.051872956994912234 0.041206022517569829 0 0.041206022517569829 0.03279218612654633 0 0 0 -0.0047701927170914482 -0.039736000590978371 -0.01650575789995698 0 -0.01650575789995698 0.012572449203183123 0 0 0 -0.0067908878469488121 0.074348215168108189 -0.052422480150393247 0 -0.052422480150393247 0.046331624594841858 0 0 0 0.030169959940737567 0.093080910364776392 -0.01347576659535743 0 -0.01347576659535743 0.068155199504611907 0 0 0 0.040309027467347103 0.15672102586265585 0.011726499372514743 0 0.011726499372514743 0.12103742344652546 0 0 0 0.069439612327295286 0.036446564842980783 -0.016017549073537952 0 -0.016017549073537952 0.052288411706179122 0 0 0 0.022183744137289962 0.037934910764897856 -0.0094243431298379615 0 -0.0094243431298379615 0.051721217610689652 0 0 0 0.022414032093896877 0.063119047978826073 0.027078547792308439 0 0.027078547792308439 0.11112949173359404 0 0 0 0.043562134928105053 0.055033687758427582 -0.024454333909109144 0 -0.024454333909109144 0.065870192994623766 0 0 0 0.030225970188262813 0.15319591207499128 0.0063078026633776041 0 0.0063078026633776041 0.11544609637147119 0 0 0 0.067160502111615727 -0.0042443520117354527 -0.011364967402259341 0 -0.011364967402259341 0.0070715870652140467 0 0 0 0.00070680876336948195 0.044096549982631877 0.017101045989336636 0 0.017101045989336636 0.068022653802095795 0 0 0 0.028029800946181932 0.09757001499993069 0.0075222127739405509 0 0.0075222127739405509 0.040011040072096757 0 0 0 0.034395263768006848 0.063251779878562564 -0.0022143344585457969 0 -0.0022143344585457969 0.017480582562781954 0 0 0 0.020183090610336185 0.062619379929047689 0.024339284409078447 0 0.024339284409078447 0.046065527786615219 0 0 0 0.027171226928915725 0.051591982380419385 -0.0074783119260600018 0 -0.0074783119260600018 -0.0095104098776816609 0 0 0 0.010520393125684431 -0.099036426418259993 -0.0092400191317997885 0 -0.0092400191317997885 0.004064536950273645 0 0 0 -0.023742972366996629 0.027148530922451487 -0.019557861048497091 0 -0.019557861048497091 -0.013926354965003593 0 0 0 0.0033055439893619719 0.07233368730445669 0.010638853251565094 0 0.010638853251565094 0.0038638056802305053 0 0 0 0.019049373246171807 0.044856895906259867 0.015015480571001171 0 0.015015480571001171 0.094531816620974013 0 0 0 0.034847178131808487 -0.16156766624702501 0.019473965674763827 0 0.019473965674763827 0.0079607304367113052 0 0 0 -0.038401733952578621 0.044471582921937251 0.010372206013322857 0 0.010372206013322857 0.0030436186957818268 0 0 0 0.011878800404429764 0.071828580748272114 -0.0037974178274197109 0 -0.0037974178274197109 -0.0048691579108791089 0 0 0 0.016739855709348245 0.047284519403057362 -0.02283995834358149 0 -0.02283995834358149 0.01729664775148218 0 0 0 0.016145291788634913 -0.035284242539541266 -0.021323455809927339 0 -0.021323455809927339 0.0061170767790692526 0 0 0 -0.0072917914401181561 0.045782495153759276 -0.019950479824777094 0 -0.019950479824777094 -0.014378746592700671 0 0 0 0.0078509371402646598 0.054739045548453699 0.0062099229282060403 0 0.0062099229282060403 0.0020002547842826179 0 0 0 0.014184825083184079 0.067790133280267034 -0.010845324441076942 0 -0.010845324441076942 -0.0010769938828291848 0 0 0 0.016678284849359477 0.04457750073502037 -0.023448073248639817 0 -0.023448073248639817 0.023286757728216145 0 0 0 0.016966064615809073 0.071182640275089915 -0.013705194343000382 0 -0.013705194343000382 0.049766868254295549 0 0 0 0.030237377132346477 -0.028209026790508723 -0.045749909598359104 0 -0.045749909598359104 -0.0052545967631073293 0 0 0 -0.0083659058884040134 0.17498241538544662 0.0061374013061881172 0 0.0061374013061881172 0.15927862462252118 0 0 0 0.08356526000199177 -0.019727060669401858 -0.0071468193782122658 0 -0.0071468193782122658 0.0036561917686610546 0 0 0 -0.0040177172251850413 0.062978206243708632 0.0056157112159454115 0 0.0056157112159454115 -0.0030472692472769476 0 0 0 0.014982734249107923 0.068563806151197032 0.007110720445502196 0 0.007110720445502196 -0.0031887427507172206 0 0 0 0.016343765850119953 0.001814100014407849 0.019412178582602246 0 0.019412178582602246 0.013594791026465103 0 0 0 0.0038522227602175718 0.070943978249744521 -0.024833980065863792 0 -0.024833980065863792 0.061178540843054741 0 0 0 0.033030629773199705 0.063808223147427345 0.016890556799721228 0 0.016890556799721228 0.016359801092121602 0 0 0 0.020042006059887225 0.056150793306035313 0.014541438922118642 0 0.014541438922118642 0.015518130752468225 0 0 0 0.017917231014625893 0.060828683546465812 0.008686309581361483 0 0.008686309581361483 -0.00077834401907267946 0 0 0 0.015012584881848291 -0.041249991918902537 0.014127632133136826 0 0.014127632133136826 0.00047833033009413162 0 0 0 -0.010192915397202101 0.011485784995140198 0.0048901048665466323 0 0.0048901048665466323 0.02341340971304165 0 0 0 0.0087247986770454602 0.034483156885047883 -0.0014981780836177995 0 -0.0014981780836177995 0.027134451689014932 0 0 0 0.015404402143515697 -0.050646410272738293 0.017305824770680059 0 0.017305824770680059 -0.00024524503708393472 0 0 0 -0.012722913827455558 0.17951247205334381 0.10293190486034121 0 0.10293190486034121 0.086232738242752238 0 0 0 0.066436302574023928 0.060187076646495807 0.02373390678890222 0 0.02373390678890222 0.033717498996182371 0 0 0 0.023476143910669212 0.028500995143178942 -0.022154171457438532 0 -0.022154171457438532 0.023433657916119621 0 0 0 0.012983663264824585 0.033971518835386016 0.010071650354050717 0 0.010071650354050717 0.01525341878575992 0 0 0 0.012306234405286481 0.048399524442150461 0.0082083039222660952 0 0.0082083039222660952 0.0079876574102233852 0 0 0 0.014096795463093465 0.10590984877605361 -0.0089015627106172092 0 -0.0089015627106172092 0.028145628163949832 0 0 0 0.03351386923500084 0.089882680564399242 0.0054016014306652593 0 0.0054016014306652593 0.03217223672714975 0 0 0 0.030513729322887206 0.061946408208319259 -0.012027592642635698 0 -0.012027592642635698 0.0035769665695569719 0 0 0 0.016380843694469127 0.04990904412371143 0.012826708712542463 0 0.012826708712542463 0.0071309418317686002 0 0 0 0.014259996488870018 -0.057198057145392389 -0.016298736985108864 0 -0.016298736985108864 0.0034515088928306348 0 0 0 -0.013436637063140466 -0.044912029532679643 -0.024420605022691666 0 -0.024420605022691666 0.007606646927804217 0 0 0 -0.0093263456512188148 0.050551080713936408 0.0029402366700306028 0 0.0029402366700306028 0.016839452198035509 0 0 0 0.016847633227992979 -0.052060186984306478 0.053554842615507026 0 0.053554842615507026 0.014877903570922335 0 0 0 -0.0092955708533462023 -0.083617363436951697 0.037684228610669779 0 0.037684228610669779 0.00593706503003677 0 0 0 -0.019420074601728787 0.090794218812810912 -0.010253109182765785 0 -0.010253109182765785 0.063152095888838744 0 0 0 0.038486578675412386 0.1467338036163503 0.0087215323627833907 0 0.0087215323627833907 0.11400897546355004 0 0 0 0.0651856947699751 0.085666192989426626 -0.029560529306552674 0 -0.029560529306552674 0.012561180201491773 0 0 0 0.024556843297729607 0.058670412914627323 -0.010730269064759823 0 -0.010730269064759823 0.021126528605693751 0 0 0 0.019949235380080255 0.13901178392198177 0.05093844680147655 0 0.05093844680147655 0.14016536815138869 0 0 0 0.069794288018342657 0.055453484107501512 -0.015223880795552603 0 -0.015223880795552603 -0.0093039570604385759 0 0 0 0.011537381761765733 0.040693306458005285 -0.022022941405123786 0 -0.022022941405123786 0.04453279492254246 0 0 0 0.02130652534513694 0.18125915504397594 0.032280616677136886 0 0.032280616677136886 0.036432808066016786 0 0 0 0.054422990777498237 0.035713513045128098 0.0075946963424243785 0 0.0075946963424243785 0.01547848402571185 0 0 0 0.01279799926770999 0.0646513891438949 0.027096812910827328 0 0.027096812910827328 0.045873707261420815 0 0 0 0.027631274101329373 0.026421722036630624 -0.021576218130830105 0 -0.021576218130830105 0.016928665706809287 0 0 0 0.010837596935859839 0.034566368207989945 0.010352897512685547 0 0.010352897512685547 0.0038253992865334221 0 0 0 0.0095979418736308452 0.011298949174022618 -0.013773201249232637 0 -0.013773201249232637 0.077350775876109057 0 0 0 0.022162431262532922 0.14056106866224649 0.025636092439819791 0 0.025636092439819791 0.11121012249858042 0 0 0 0.062942797790206839 -0.005072377963834418 -0.014465605748487986 0 -0.014465605748487986 0.0083207710516759459 0 0 0 0.00081209827196038198 -0.12436513153602696 0.0036777053431607887 0 0.0036777053431607887 0.0023475755967528322 0 0 0 -0.030504388984818543 -0.2158961268480718 -0.010929297701173216 0 -0.010929297701173216 0.003372914617767564 0 0 0 -0.053130803057576032 0.068720492287845381 0.01647680207029649 0 0.01647680207029649 0.13043233698332801 0 0 0 0.04978820731779332 -0.019658085670770754 0.019025223248101714 0 0.019025223248101714 0.002778543875975252 0 0 0 -0.0042198854486988763 0.14744344924505198 -0.018754418023981256 0 -0.018754418023981256 0.10186528562946136 0 0 0 0.062327183718628283 0.18384279127524966 -0.0045077076716051323 0 -0.0045077076716051323 0.1224270272594743 0 0 0 0.076567454633680976 0.28833688614544395 0.0021792253092249858 0 0.0021792253092249858 0.22529961534152632 0 0 0 0.12840912537174276 0.22946364189436286 0.02334864456392749 0 0.02334864456392749 0.19960657165941931 0 0 0 0.10726755338844574 0.079083707679567739 -0.015919154863529683 0 -0.015919154863529683 0.035114740100346931 0 0 0 0.028549611944978626 0.12597782546689962 0.021400795769632275 0 0.021400795769632275 0.077282282997451768 0 0 0 0.050815027116087763 0.14644882985665936 0.013501817504194102 0 0.013501817504194102 0.14489450800775872 0 0 0 0.072835834466104588 0.075554142495972199 -0.01706914350017158 0 -0.01706914350017158 0.074666779074151979 0 0 0 0.037555230392531114 0.046132151692349854 0.0065075128355242262 0 0.0065075128355242262 0.067277680854757771 0 0 0 0.028352458136776892 0.12464313830739027 0.0016635110360598837 0 0.0016635110360598837 0.10335539215805234 0 0 0 0.056999632616360429 0.02905795063098271 0.011767037350091325 0 0.011767037350091325 0.019174652328288744 0 0 0 0.012058150739818085 0.016104408428659456 -0.0095106303164385064 0 -0.0095106303164385064 0.0097160100739985822 0 0 0 0.006455104625664454 0.073143046480731888 -0.008141578160869023 0 -0.008141578160869023 0.051894721619873074 0 0 0 0.031259442025151074 0.047849835776542088 0.011391908354539806 0 0.011391908354539806 0.0067551726772450554 0 0 0 0.01365125211344681 0.16892296871890325 0.017118960402375816 0 0.017118960402375816 0.1189146309071103 0 0 0 0.071959399906503269 0.0077764103235223869 -0.011424051479790753 0 -0.011424051479790753 0.011049769701103274 0 0 0 0.0047065450061564151 0.037172642281733427 -0.0030566819125664823 0 -0.0030566819125664823 0.094740078523612811 0 0 0 0.032978180201336561 0.015148294378039218 0.015103158209157197 0 0.015103158209157197 0.019739825144990064 0 0 0 0.0087220298807570984 0.10082955395441551 -0.018133322089629589 0 -0.018133322089629589 0.064175189861252147 0 0 0 0.04125118595391708 0.066210813425551185 -0.025346680797482368 0 -0.025346680797482368 0.030583999060207923 0 0 0 0.024198703121439846 0.043651042452877223 -0.021862090234857481 0 -0.021862090234857481 0.014540565305627307 0 0 0 0.014547901939626143 0.045478382774386705 -0.019853405465852542 0 -0.019853405465852542 0.01885855361322214 0 0 0 0.016084234096902184 0.055384202353451747 -0.019245153727651471 0 -0.019245153727651471 -0.006276677251638621 0 0 0 0.012276881275453302 0.07684427156173268 0.079808927601195956 0 0.079808927601195956 0.031714035881943881 0 0 0 0.027139576860919168 -0.066531757899904287 -0.0078689596971143194 0 -0.0078689596971143194 0.0035678242081954581 0 0 0 -0.015740983422927401 0.11716845685990851 -0.030355480974993541 0 -0.030355480974993541 0.050250979589591974 0 0 0 0.041854859112375124 0.067584260066239146 -0.018276026785996657 0 -0.018276026785996657 0.032811094190367221 0 0 0 0.025098838564151585 0.080447461913204982 0.024645634642135462 0 0.024645634642135462 0.027474654284912386 0 0 0 0.026980529049529342 0.063916290321985758 -0.002872512733383098 0 -0.002872512733383098 0.015127180027654008 0 0 0 0.019760867587409914 0.075550878979364411 0.0028228735195569427 0 0.0028228735195569427 0.024022429317840821 0 0 0 0.024893327074301252 -0.25878738806661683 0.0044286051124654982 0 0.0044286051124654982 0.011405722237845195 0 0 0 -0.061845416457192937 -0.13950246118488063 -0.0019307355112145686 0 -0.0019307355112145686 0.0047756638872531454 0 0 0 -0.0336816993244069 0.040903662321965302 -0.011779906788364332 0 -0.011779906788364332 0.01363101106603725 0 0 0 0.013633668347000638 0.020391830756335685 0.015680166009059724 0 0.015680166009059724 0.0067973958579620082 0 0 0 0.0067973066535744232 0.091845912218072812 0.0040253785878812468 0 0.0040253785878812468 0.010734101304855845 0 0 0 0.02564500338073214 0.070146656640458036 0.021614934105603556 0 0.021614934105603556 0.030998335492867457 0 0 0 0.02528624803333139 0.074834230690431158 0.012467085732347692 0 0.012467085732347692 0.0096898606693184234 0 0 0 0.021131022839937414 -0.061229275913121654 -0.029222202007021157 0 -0.029222202007021157 -0.0063398551356539656 0 0 0 -0.0168922827621939 -0.049616623197297254 0.015429487917740408 0 0.015429487917740408 -0.00052425043744677019 0 0 0 -0.012535218408686013 0.18291516639823535 0.033682518134069639 0 0.033682518134069639 0.044475929111467138 0 0 0 0.056847773877425345 -0.036649615210518627 -0.028857347940032266 0 -0.028857347940032266 -0.0017748361507812505 0 0 0 -0.0096061128403249728 -0.035824645402340101 0.016297212377125121 0 0.016297212377125121 0.0011286092871378578 0 0 0 -0.0086740090288005625 0.057782144189883589 -0.015381739544312739 0 -0.015381739544312739 0.029076656504350318 0 0 0 0.021714700173558588 0.15947388178471023 0.120663381294568 0 0.120663381294568 0.085443125068728643 0 0 0 0.0612292517133598 0.085155523673156472 0.0085191223685613486 0 0.0085191223685613486 0.0027837621019459954 0 0 0 0.021984821443775622 0.09353401205869577 0.005498925812066513 0 0.005498925812066513 0.045182557687234115 0 0 0 0.034679142436482513 0.0065467230766575726 -0.021365422764493394 0 -0.021365422764493394 0.0021844417984593517 0 0 0 0.0021827912187792307 -0.0064743748112372672 0.017419412963712827 0 0.017419412963712827 -0.0021542079295917105 0 0 0 -0.0021571456852072439 -0.10281882753765825 0.0068541941304442223 0 0.0068541941304442223 -0.00054996538577445006 0 0 0 -0.025842198230858152 -0.1606989887631049 -0.014556325905735905 0 -0.014556325905735905 -0.0010076086294058331 0 0 0 -0.040426649348127668 -0.030647580914787587 -0.0080856523979832007 0 -0.0080856523979832007 0.033319201328686709 0 0 0 0.0006679051034747252 0.094767586709767426 -0.017087717097804878 0 -0.017087717097804878 0.037498186846790293 0 0 0 0.033066443389139277 0.018328480961214109 -0.009007844085827596 0 -0.009007844085827596 0.071596908181031427 0 0 0 0.022481347285561372 0.0570128770313552 0.020180972776856258 0 0.020180972776856258 0.042717648507747667 0 0 0 0.024932631384775708 0.043976806017052554 0.01327769758250226 0 0.01327769758250226 0.048432324064051194 0 0 0 0.023102282520275942 0.102672863158303 0.021946354480424875 0 0.021946354480424875 0.041549122365541362 0 0 0 0.036055496380961095 0.11895349916908901 0.01618946445521139 0 0.01618946445521139 0.025675217659604996 0 0 0 0.036157179207173498 0.089395198203924997 0.012787659706609167 0 0.012787659706609167 0.037200581126402454 0 0 0 0.031648944832581904 0.023139464715729332 -0.018371185264825618 0 -0.018371185264825618 0.039961623330422733 0 0 0 0.015775272011537996 0.0097156378883538758 -0.030641703517853433 0 -0.030641703517853433 0.086813360150892166 0 0 0 0.024132249509811535 0.068141192791697225 -0.058081740673668308 0 -0.058081740673668308 0.13881816539319813 0 0 0 0.051739839546223826 -0.090833037152144483 0.0071455239533292003 0 0.0071455239533292003 -0.00036512973350541489 0 0 0 -0.022799541721412485 -0.13448551809219242 -0.013349104081725306 0 -0.013349104081725306 -0.0010890597747895969 0 0 0 -0.033893644466745518 0.060692403775651937 0.0054735658476705584 0 0.0054735658476705584 -0.040758967838668773 0 0 0 0.0049833589842456817 0.077168506029583944 -0.043238156198293964 0 -0.043238156198293964 0.10282326447748313 0 0 0 0.04499794262676679 0.068616128401940521 0.012895782591390742 0 0.012895782591390742 0.0051662750316219894 0 0 0 0.018445600858390625 -0.032221941439561939 -0.030193364541119479 0 -0.030193364541119479 -0.0063805003728385767 0 0 0 -0.0096506104531001377 -0.031618136485479474 0.01862857782506043 0 0.01862857782506043 -0.00078837125896318028 0 0 0 -0.0081016269361106619 0.02895435173631844 0.010972901573603873 0 0.010972901573603873 0.004548153697206056 0 0 0 0.0083756263583811101 0.024009188874525366 -0.0051572229625455428 0 -0.0051572229625455428 0.077313067998785651 0 0 0 0.025330564218327741 0.11440876051162224 0.0090602686786578346 0 0.0090602686786578346 0.081087286436775874 0 0 0 0.048874011737099543 0.024847273289318038 0.014522397951126198 0 0.014522397951126198 0.0056042856513401351 0 0 0 0.0076128897351645432 -0.041677207491780832 0.013694255121009746 0 0.013694255121009746 0.011704296718928919 0 0 0 -0.0074932276932135888 0.078311437604768663 -0.019775812382122115 0 -0.019775812382122115 0.066706279957937875 0 0 0 0.036254429390676801 0.078366568049852869 -0.017778650035703447 0 -0.017778650035703447 0.056452723416996253 0 0 0 0.03370482286671217 0.055108854819591505 -0.027375768203738479 0 -0.027375768203738479 0.055316857079038023 0 0 0 0.027606427974657385 0.037340936687961762 -0.019605968943475688 0 -0.019605968943475688 0.044884735835256317 0 0 0 0.020556418130804499 0.035394894539166673 0.003688952837279397 0 0.003688952837279397 0.034717169206372411 0 0 0 0.017528015936384773 0.029573825020164493 -0.0054540654003020954 0 -0.0054540654003020954 0.073317404631503436 0 0 0 0.025722807412916993 0.23232442040327683 0.018295327696874697 0 0.018295327696874697 0.20535065146529696 0 0 0 0.10941876796714389 0.0089167468243207537 -0.0034713951326439396 0 -0.0034713951326439396 0.010012980357133827 0 0 0 0.0047324317953636452 0.14295050436452783 -0.016919153443442081 0 -0.016919153443442081 0.11270854697296495 0 0 0 0.063914762834373473 0.015164836288838579 0.0052880169508870978 0 0.0052880169508870978 0.016415271607580717 0 0 0 0.007895026974104713 0.039453889647059967 0.0075072066217653291 0 0.0075072066217653291 0.036980202943939222 0 0 0 0.019108523147749801 0.035073145753693108 0.0037390645686110769 0 0.0037390645686110769 0.026725142268462988 0 0 0 0.015449572005539019 0.032466244113369222 -0.0075761552050100482 0 -0.0075761552050100482 0.034581055970051622 0 0 0 0.016761825020855194 -0.10853907831581251 -0.021614812929907745 0 -0.021614812929907745 0.0034460782899038145 0 0 0 -0.026273250006477161 -0.13900794297522903 -0.032124131253461259 0 -0.032124131253461259 0.0045286161528091118 0 0 0 -0.033619831705605015 0.048810740735169951 -0.036523620826295927 0 -0.036523620826295927 0.0010856819910375331 0 0 0 0.012474105681551873 0.0091470256857456023 0.0056369959314166813 0 0.0056369959314166813 0.012322943280182068 0 0 0 0.0053674922414819158 0.061552487143024644 -0.037652910313936083 0 -0.037652910313936083 0.076696538852178836 0 0 0 0.03456225649880084 -0.027376052109335473 0.018773573213893863 0 0.018773573213893863 -0.00075925187227872566 0 0 0 -0.0070338259954035526 -0.013437734806482558 0.017307948114831082 0 0.017307948114831082 -0.0019595330924596574 0 0 0 -0.0038493169747355546 0.00068923584074512267 -0.02697356559526053 0 -0.02697356559526053 -0.0090249344769308681 0 0 0 -0.0020839246590464364 -0.023281559709922198 -0.030913100033605295 0 -0.030913100033605295 -0.010763057407113003 0 0 0 -0.0085111542792588035 -0.043407085858582883 -0.020044872110915213 0 -0.020044872110915213 0.0039537120795931635 0 0 0 -0.0098633434447473745 -0.017540712267373415 -0.021241213922392109 0 -0.021241213922392109 0.0071825266054026393 0 0 0 -0.0025895464154926939 0.039905717195297827 -0.012552646166171647 0 -0.012552646166171647 -0.0014374717488815497 0 0 0 0.0096170613616040675 0.039150758221135167 -0.012845583360091214 0 -0.012845583360091214 -0.0073274523296699492 0 0 0 0.0079558264728663113 0.019564757273300561 0.017417451714458552 0 0.017417451714458552 0.0014518895552180222 0 0 0 0.0052541617071296468 0.016048226781735394 0.014617710410641586 0 0.014617710410641586 0.0013981688951084786 0 0 0 0.0043615989192109707 0.087610846688056299 0.025153689330048579 0 0.025153689330048579 0.045593534055804241 0 0 0 0.033301095185965135 0.0081052240492197614 -0.022289650303192188 0 -0.022289650303192188 0.013976166273644175 0 0 0 0.0055203475807158453 -0.0021696989809617262 0.013760225249663744 0 0.013760225249663744 0.00066345028268978423 0 0 0 -0.00037656217456798202 0.02882741439298029 -0.021405039633054943 0 -0.021405039633054943 -0.010094208083227502 0 0 0 0.0046833015774381953 0.027248105195415352 -0.00029874992353872906 0 -0.00029874992353872906 0.018156584609270131 0 0 0 0.011351172451171374 -0.018180479472903049 0.0151284403654822 0 0.0151284403654822 0.0012049812252368231 0 0 0 -0.0042438745619165566 -0.0029734748997150579 -0.027534486610123268 0 -0.027534486610123268 -0.0052104734585232682 0 0 0 -0.0020459870895595828 -0.010140107492626657 -0.0077709810287706627 0 -0.0077709810287706627 0.13881395966503768 0 0 0 0.032168463043102738 0.03094094379951947 0.0020895886390091987 0 0.0020895886390091987 0.021189670363716578 0 0 0 0.013032653540809012 -0.013143071136107487 -0.022812194435883951 0 -0.022812194435883951 -0.0043932406946195941 0 0 0 -0.0043840779576817699 -0.0190991254171444 0.01664082084848377 0 0.01664082084848377 -0.0063733365709246516 0 0 0 -0.0063681154970172621 0.12469820262268451 0.01060101049024845 0 0.01060101049024845 0.047095077818561815 0 0 0 0.042948320110311591 0.053985437857610785 0.0017481534030313606 0 0.0017481534030313606 -0.01431935380006033 0 0 0 0.0099165210143875582 -0.0076099613329934125 0.010009688378491789 0 0.010009688378491789 0.014835311477374505 0 0 0 0.0018063375360952809 0.08752046141699743 -0.028670602859857397 0 -0.028670602859857397 0.027176834354000201 0 0 0 0.02867432394274938 0.03949877225448746 0.0080780824247289103 0 0.0080780824247289103 0.038276877923939238 0 0 0 0.019443912544606663 0.027537657669950373 -0.0064101291910812919 0 -0.0064101291910812919 0.040824851085878994 0 0 0 0.01709062718895734 -0.077783935080607963 -0.02105788966307956 0 -0.02105788966307956 -0.0022217587141383811 0 0 0 -0.020001423448686578 -0.058431472544013069 0.011939512273104552 0 0.011939512273104552 -0.00095123864927963708 0 0 0 -0.014845677798323175 0.063611494925896309 -0.014895539238873851 0 -0.014895539238873851 0.049417944085164561 0 0 0 0.028257359752765207 0.047436197975598761 0.013345763625741079 0 0.013345763625741079 0.027214366285130152 0 0 0 0.018662641065182242 0.023553044578518693 0.0018432330996205337 0 0.0018432330996205337 0.014598407217532109 0 0 0 0.0095378629490126942 -0.056513267106771611 0.0043553527564029887 0 0.0043553527564029887 0.0074368668502721724 0 0 0 -0.01226910006412487 -0.068718335028646549 0.015789361189762818 0 0.015789361189762818 0.010900586450456551 0 0 0 -0.014454437144547527 0.0093949612681847317 0.0041418007110693988 0 0.0041418007110693988 0.036892905242705998 0 0 0 0.011571966627722696 0.044978280651389313 -0.016485384325942154 0 -0.016485384325942154 0.023673460834629789 0 0 0 0.017162935371504762 0.011148993289953061 0.0062330486566900822 0 0.0062330486566900822 0.014394185548974828 0 0 0 0.0063857947097319713 0.048099047773008129 0.013953850813891798 0 0.013953850813891798 0.031587258529353089 0 0 0 0.019921576575590315 0.03147568047349962 -0.024701603995085253 0 -0.024701603995085253 0.022855512131153305 0 0 0 0.013582798151163242 0.16553219377141948 0.015326377681655373 0 0.015326377681655373 0.11892455113218961 0 0 0 0.071114186225902251 0.0045012489629524394 0.013657478205978679 0 0.013657478205978679 0.0069497978642908895 0 0 0 0.0028627617068108305 -0.060113519790530034 0.012688769209717997 0 0.012688769209717997 0.0087079649564527628 0 0 0 -0.012851388708519096 0.098341722411795951 -0.015674185937524454 0 -0.015674185937524454 0.074429580791501637 0 0 0 0.043192825800824397 0.0950706920693698 -0.013603373342311098 0 -0.013603373342311098 0.051690215104705173 0 0 0 0.036690226793518743 -0.060625054629779455 -0.037114363926426697 0 -0.037114363926426697 0.041632752346761392 0 0 0 -0.0047480755707545088 0.12721264119338543 -0.020694542591017009 0 -0.020694542591017009 -0.015466298438520931 0 0 0 0.027936585688716195 -0.094213407493331236 0.010819274149388949 0 0.010819274149388949 0.0035953683419396587 0 0 0 -0.022654509787847922 -0.1593936947083533 -0.029631159365728535 0 -0.029631159365728535 0.0086472789509043219 0 0 0 -0.037686603939362295 -0.091252170477869599 0.0016192089218911299 0 0.0016192089218911299 0.00023735430708682337 0 0 0 -0.022753704042695718 -0.15822060690641623 -0.0079113463109041632 0 -0.0079113463109041632 0.0035622296598093461 0 0 0 -0.038664594311651701 -0.047592178999038622 0.011868775664149222 0 0.011868775664149222 -0.0034149876069465082 0 0 0 -0.012751791651496282 -0.058190721654195955 -0.019681970742091728 0 -0.019681970742091728 -0.0037206989535868221 0 0 0 -0.015477855151945689 0.02656114011736458 -0.0098338428707779174 0 -0.0098338428707779174 0.052987413920786555 0 0 0 0.019887138509537793 0.030773831766516931 -0.021122266750394622 0 -0.021122266750394622 0.067285404242459643 0 0 0 0.02451480900224413 0.08492850641416072 -0.011424951771551839 0 -0.011424951771551839 0.082535065932596963 0 0 0 0.041865893086689421 0.1533433425774442 0.0071249652151010867 0 0.0071249652151010867 0.15835811198830574 0 0 0 0.077925363641437428 0.10534755646998439 0.007724637417846264 0 0.007724637417846264 0.049539383536894521 0 0 0 0.03872173500171977 0.13146807448167885 0.0076909645753325262 0 0.0076909645753325262 0.13478478822884032 0 0 0 0.066563215677629739 0.062704198997599742 -0.014229323035924613 0 -0.014229323035924613 0.070224649424945995 0 0 0 0.033232212105636455 0.015900266098742608 0.0088891102360708941 0 0.0088891102360708941 0.016146358488506537 0 0 0 0.0080116561468122852 0.043285587809396731 -0.018870096515986524 0 -0.018870096515986524 0.056527481426824622 0 0 0 0.024953267309055338 0.026787077914311806 -0.02132373626188655 0 -0.02132373626188655 0.051215470849048483 0 0 0 0.019500637190840067 0.03624854027994126 0.0040050730945910117 0 0.0040050730945910117 0.064743929578991305 0 0 0 0.025248117464733127 -0.12725818798165278 0.015218678869139397 0 0.015218678869139397 0.0055938388170542197 0 0 0 -0.03041608729114964 0.027230126373902146 -0.0040081879962555467 0 -0.0040081879962555467 0.069330179878939496 0 0 0 0.024140076563210398 0.10763270487220297 -0.025267249503021533 0 -0.025267249503021533 0.19125504293910334 0 0 0 0.074721936952826556 0.17302992704712566 -0.030283388213721212 0 -0.030283388213721212 0.10257807357334103 0 0 0 0.068902000155116633 0.10243213622201092 -0.014301139432661647 0 -0.014301139432661647 0.042162994548861743 0 0 0 0.036148782692718207 -0.18508830674101787 -0.022468598668047901 0 -0.022468598668047901 0.0085038356249063085 0 0 0 -0.044146117779027938 -0.10561828394891894 0.009171607658113215 0 0.009171607658113215 0.0031873407729482439 0 0 0 -0.025607735793992628 0.022373057687998327 -0.0040191676346775914 0 -0.0040191676346775914 0.074292938108298234 0 0 0 0.024166498949074147 -0.035207770820574469 0.033210591266440659 0 0.033210591266440659 0.0051304311866235963 0 0 0 -0.0075193349084878847 -0.016885302430184268 0.037041407289809758 0 0.037041407289809758 0.011237920650085442 0 0 0 -0.0014118454450247064 0.05492656144825292 -0.028864968969783855 0 -0.028864968969783855 0.033514795988144108 0 0 0 0.022110339359099229 0.058586576860807399 -0.023307668254834324 0 -0.023307668254834324 0.034734801125665044 0 0 0 0.023330344496618111 0.10550085658351183 -0.016879630079857044 0 -0.016879630079857044 0.087014288494852376 0 0 0 0.048128786269591051 -0.033565970529465972 0.011231009351992912 0 0.011231009351992912 0.012344551652576641 0 0 0 -0.0053053547192227768 -0.00076254519929976755 0.016339739706914925 0 0.016339739706914925 0.0020043371268507193 0 0 0 0.0003104479818877362 0.021314277627184044 -0.01883416302635546 0 -0.01883416302635546 -0.0067507267139636506 0 0 0 0.0036408877283051026 0.035255524345311387 -0.031960240206876156 0 -0.031960240206876156 0.019494062150824498 0 0 0 0.013687396624034023 0.033761860499595064 -0.026831274194155763 0 -0.026831274194155763 0.019500716690672881 0 0 0 0.01331564429756682 0.01912223935150896 -0.024587264917733664 0 -0.024587264917733664 0.017559393232372655 0 0 0 0.0091704081459705183 0.016278848029583681 -0.035242212906790138 0 -0.035242212906790138 0.011935049183073421 0 0 0 0.0070534743031642755 0.0096284820176130714 0.048696563012629923 0 0.048696563012629923 0.0059807629967669751 0 0 0 0.0039023112535953586 0.049775975109216108 0.032221452405541751 0 0.032221452405541751 0.024115261981762219 0 0 0 0.018472809272744584 -0.013324189900665136 0.021077286659574319 0 0.021077286659574319 -0.0024099517855136199 0 0 0 -0.0039335354215446899 -0.0067461819197858 -0.028674966286618232 0 -0.028674966286618232 -0.0060395273146485809 0 0 0 -0.0031964273086085987 -0.084937698909615778 -0.013414274381331526 0 -0.013414274381331526 0.010935578892326325 0 0 0 -0.018500530004322391 -0.14529543108817689 0.029955591981006474 0 0.029955591981006474 0.017539362924643198 0 0 0 -0.031939017040883422 -0.047489007652556654 0.0164203541016095 0 0.0164203541016095 0.0037908157567543149 0 0 0 -0.0109245479739506 0.047244951749823329 0.01388734759320292 0 0.01388734759320292 0.016950920015963621 0 0 0 0.016048967941446751 0.078048656759865442 0.0045841720303840816 0 0.0045841720303840816 0.034483809285814848 0 0 0 0.028133116511420198 -0.077191769575183769 -0.03199400077164033 0 -0.03199400077164033 0.0032701574658986973 0 0 0 -0.018480403027321242 -0.13134460063786485 -0.02653347853922593 0 -0.02653347853922593 -0.0036045272626187147 0 0 0 -0.033737281975120909 0.060296916075703241 -0.0025226327126614875 0 -0.0025226327126614875 -0.0061725690256215944 0 0 0 0.013531086762520418 0.09387654505290205 0.013903874825373419 0 0.013903874825373419 0.095783795808924266 0 0 0 0.047415085215456593 -0.10809184111443759 -0.0019493410953773382 0 -0.0019493410953773382 0.00024623334689610754 0 0 0 -0.026961401941885323 -0.19577339019834095 0.0020262127500076943 0 0.0020262127500076943 0.00082134852326484764 0 0 0 -0.048738010418768921 0.014104253432777186 -0.0011239043982584074 0 -0.0011239043982584074 0.013985839811780587 0 0 0 0.0070225233111394503 -0.035510619632039366 -0.034964673362255234 0 -0.034964673362255234 -0.0086701162905101353 0 0 0 -0.011045183980637377 -0.004278116679666065 -0.032077125340055114 0 -0.032077125340055114 -0.0061694762976969991 0 0 0 -0.0026118982443407643 0.10285966445230632 0.10208057995099852 0 0.10208057995099852 0.22331364821662092 0 0 0 0.081543328167231865 -0.11500482233594936 -0.011594012537793224 0 -0.011594012537793224 0.00039601948895678224 0 0 0 -0.028652200711748142 -0.076114029454523641 0.0059252963008174179 0 0.0059252963008174179 0.00092594060405942064 0 0 0 -0.018797022212616043 0.066275893792075824 -0.009991071363235654 0 -0.009991071363235654 0.014578077426227631 0 0 0 0.020213492804575794 0.054935043919726534 -0.014624573877483699 0 -0.014624573877483699 0.0090486556152404862 0 0 0 0.015995924883741741 0.045217959088321324 0.012718832047056507 0 0.012718832047056507 0.051536904993331273 0 0 0 0.024188716020413142 0.051274440074504782 -0.020911752538940013 0 -0.020911752538940013 0.0076079406581118295 0 0 0 0.014720595183154165 0.069617463266458207 0.017737841947220119 0 0.017737841947220119 0.013153892145376773 0 0 0 0.020692838852958757 0.091452667401304644 0.022215548190093304 0 0.022215548190093304 0.20643709861800619 0 0 0 0.074472441504827791 -0.047454708933895903 0.014972491235879497 0 0.014972491235879497 0.005368468711845386 0 0 0 -0.010521560055512649 0.024924379562414299 0.0053641697487170556 0 0.0053641697487170556 0.013985382200368136 0 0 0 0.0097274404406956089 0.2045252472737682 0.014303081773591731 0 0.014303081773591731 0.081969710333000378 0 0 0 0.071623739401691644 -0.063807012452890707 -0.0077223666618031483 0 -0.0077223666618031483 0.0016886827946786948 0 0 0 -0.015529582414553086 -0.25059978183859571 -0.0019937901303494487 0 -0.0019937901303494487 0.00039922767395139669 0 0 0 -0.062550138541161093 -0.13733900313512237 -0.00068537147750932445 0 -0.00068537147750932445 -0.00052374431199625482 0 0 0 -0.034465686861779685 0.033011052551505306 -8.7057419948046583e-05 0 -8.7057419948046583e-05 0.083752553569026875 0 0 0 0.029190901530133061 -0.0381102661009632 -0.028468655892110634 0 -0.028468655892110634 -0.0032999716998936002 0 0 0 -0.010352559450214203 -0.061527281902865702 -0.036261016122307789 0 -0.036261016122307789 -0.00093915434844034362 0 0 0 -0.015616609062826491 0.1309400599057115 0.028044078929550867 0 0.028044078929550867 0.048041300457955322 0 0 0 0.044745340090916685 -0.034753026038592871 -0.010618628130875996 0 -0.010618628130875996 0.0014694312628451556 0 0 0 -0.0083208986939369289 0.047171641855395269 -0.020378038814587607 0 -0.020378038814587607 0.028672075158223176 0 0 0 0.018960929253404618 0.19962692151253814 0.012434632944788375 0 0.012434632944788375 0.1647493538359921 0 0 0 0.091094068837132003 -0.025851383226247027 -0.0067645711360123598 0 -0.0067645711360123598 0.0083792691305308864 0 0 0 -0.004368028523928924 0.021246029933638028 -0.043723489820028799 0 -0.043723489820028799 0.047985178785027616 0 0 0 0.017307802179666404 0.033434008163667123 -0.0041458610758256104 0 -0.0041458610758256104 0.062953074059478309 0 0 0 0.024096770555786379 0.0043978794473106056 0.0017608877208713652 0 0.0017608877208713652 0.022244528115338308 0 0 0 0.0066606018906622058 -0.028620644741155887 0.0089057946692991941 0 0.0089057946692991941 0.010585006702123145 0 0 0 -0.004508909509758352 0.086901232406273898 -0.018033038623992415 0 -0.018033038623992415 0.082354096088908424 0 0 0 0.042313832123795692 0.00787682644031883 0.012930387030404162 0 0.012930387030404162 0.0023649772697737215 0 0 0 0.002560450927523137 0.10315438011102418 -0.0092186842377118272 0 -0.0092186842377118272 0.06824700164968725 0 0 0 0.042850345440177864 -0.070932751849614478 0.0099814295691547459 0 0.0099814295691547459 0.00050736539942983216 0 0 0 -0.017606346612546141 -0.005268223138081396 -0.022790756054846133 0 -0.022790756054846133 0.03877837272459117 0 0 0 0.0083775373966274713 -0.037902263145782426 0.018643378565396072 0 0.018643378565396072 0.00043578910786622183 0 0 0 -0.0093666185094790459 -0.081936465357888899 -0.011572978070005679 0 -0.011572978070005679 0.0043864645603135521 0 0 0 -0.019387500199393726 -0.081781564106300206 0.0091697751156657199 0 0.0091697751156657199 -0.00025200378770072127 0 0 0 -0.020508391973500243 -0.059247561707867928 0.012134087902002315 0 0.012134087902002315 0.0015889959868773933 0 0 0 -0.014414641430247632 -0.041884434638865153 0.050966072373013205 0 0.050966072373013205 0.007024069391053489 0 0 0 -0.0087150913119529161 0.018231996104622387 -0.017858320555683135 0 -0.017858320555683135 -0.001823799353003655 0 0 0 0.0041020491879046883 0.0075239222082545375 -0.027204640391144234 0 -0.027204640391144234 -0.0090649232626840576 0 0 0 -0.00038525026360738263 -0.0059761014268782994 0.020281719313172325 0 0.020281719313172325 -0.0017750204846310354 0 0 0 -0.0019377804778773298 -0.0003994708459350107 0.01519062853123471 0 0.01519062853123471 0.00043698777060156326 0 0 0 9.3792311666360782e-06 0.026198380044850506 -0.0028383426053714411 0 -0.0028383426053714411 0.028966849339005424 0 0 0 0.013791307345963968 0.072974112979379599 -0.039282500902629858 0 -0.039282500902629858 0.074584056408858262 0 0 0 0.036889542347059413 0.049184391290968098 -0.024091056329878333 0 -0.024091056329878333 0.031944595163216516 0 0 0 0.020282246613546155 0.024866493538847345 -0.018008780852020068 0 -0.018008780852020068 0.053896765970767424 0 0 0 0.019690814877403706 0.047456751428531549 -0.018055129257750657 0 -0.018055129257750657 0.030296766142876352 0 0 0 0.019438379392852007 0.11736005170491043 0.013056461765685125 0 0.013056461765685125 0.087853624835762423 0 0 0 0.051303419135168171 0.059199266795414041 -0.01878680675717978 0 -0.01878680675717978 0.047677486471118913 0 0 0 0.026719188316633169 -0.14238259677480036 0.0036244628130624595 0 0.0036244628130624595 0.0015169325571535719 0 0 0 -0.035216416054411642 -0.26728851611852544 -0.0083693359756059661 0 -0.0083693359756059661 0.0073834754777788447 0 0 0 -0.06497626016018665 0.10647164923987115 -0.0093257755441251977 0 -0.0093257755441251977 0.045263900428852699 0 0 0 0.037933887417180984 0.13502416123138888 0.016144982094982663 0 0.016144982094982663 0.10655209639040908 0 0 0 0.060394064405449532 -0.037190077398456145 0.012606494025647078 0 0.012606494025647078 0.01464266214458268 0 0 0 -0.0056368538134683593 0.042781299592271796 0.0097344128987234494 0 0.0097344128987234494 0.0075507841185602706 0 0 0 0.012583020927708018 0.033578179732010424 -0.02356180009667946 0 -0.02356180009667946 -0.0062603735571555713 0 0 0 0.0068294515437137097 0.051418307300141554 -0.012495221858639802 0 -0.012495221858639802 -0.012852174952161856 0 0 0 0.0096415330869949138 0.089336721659146467 -0.062026688695938262 0 -0.062026688695938262 0.13740071856564767 0 0 0 0.056684360056198535 -0.065099712286799796 0.011613895700086278 0 0.011613895700086278 -0.00076934729175359706 0 0 0 -0.016467264894638348 -0.050838420401315046 0.012390713453732129 0 0.012390713453732129 0.00082050725042653178 0 0 0 -0.012504478287722132 -0.063233885398916723 -0.021763950020797326 0 -0.021763950020797326 0.00098150033179153495 0 0 0 -0.015563096266781292 -0.091100575779796217 -0.021846310090637571 0 -0.021846310090637571 -0.0037344785585302492 0 0 0 -0.023708763584581599 -0.12398809357968182 -0.0084746713489697693 0 -0.0084746713489697693 0.0036525814686438896 0 0 0 -0.030083878027759359 0.076332932209310589 0.095329990980424717 0 0.095329990980424717 0.13888406089524241 0 0 0 0.053804248276138278 0.084375208003841906 -0.016040271330140743 0 -0.016040271330140743 0.048418512696235538 0 0 0 0.033198430175019222 0.06872226761547523 0.0047787668952352647 0 0.0047787668952352647 0.028818739470944422 0 0 0 0.024385251771604884 -0.0029875037748916221 0.016576422940441267 0 0.016576422940441267 0.002737507689871313 0 0 0 -6.2499021255078141e-05 0.022868891711272814 -0.0017529904611237237 0 -0.0017529904611237237 0.061600304563499214 0 0 0 0.021117299068693009 -0.047827960027293039 0.012415972383170411 0 0.012415972383170411 0.000194228085801499 0 0 0 -0.011908432985372898 0.14342969459376398 0.032792132214592762 0 0.032792132214592762 0.049877192892575639 0 0 0 0.048326721871584932 0.032509802980139099 0.015341676687453792 0 0.015341676687453792 0.006484243426210963 0 0 0 0.0097485116015875173 0.065890168331477067 -0.014776616502372053 0 -0.014776616502372053 0.01262939531894422 0 0 0 0.019629890912605336 0.16702280692147659 -0.085531715599805963 0 -0.085531715599805963 0.11365221842138994 0 0 0 0.070168756335716606 -0.21665557406245028 0.02025433127368681 0 0.02025433127368681 0.0074155047396380347 0 0 0 -0.052310017330703173 0.0536277791557161 0.0043284806239476219 0 0.0043284806239476219 0.0037616272222969417 0 0 0 0.014347351594503257 -0.015582952294875611 0.01594713595107132 0 0.01594713595107132 -0.0013336419581315706 0 0 0 -0.0042291485632517944 -0.0056701160007248744 -0.021664815055374424 0 -0.021664815055374424 -0.0032445956242569823 0 0 0 -0.0022286779062454659 0.05629441208533343 0.016680623235362936 0 0.016680623235362936 0.023262141400925196 0 0 0 0.019889138371564648 -0.090945867291878896 0.0086438417559715208 0 0.0086438417559715208 0.0038880798807858774 0 0 0 -0.021764446852773317 -0.15383592272528873 -0.021585512847577176 0 -0.021585512847577176 0.012324144223021152 0 0 0 -0.035377944625566884 0.14568858958311282 0.016275844856355581 0 0.016275844856355581 0.10547592278921059 0 0 0 0.062791128093080406 -0.030429916214562036 -0.011224368949788066 0 -0.011224368949788066 0.0029527570815686133 0 0 0 -0.0068692897832483002 0.10324990897349956 0.007108842468788068 0 0.007108842468788068 0.081897530503352967 0 0 0 0.046286859869213159 0.069204900374613104 -0.036052459670449857 0 -0.036052459670449857 0.021920378857627543 0 0 0 0.022781319808060169 0.093298280334872807 0.0093839536567631165 0 0.0093839536567631165 0.046211176918884544 0 0 0 0.034877364313439352 0.043489126368861264 0.012375986511977681 0 0.012375986511977681 0.014413163127517004 0 0 0 0.014475572374094577 0.052242595192300796 -0.0010374076106435647 0 -0.0010374076106435647 0.001368710878970079 0 0 0 0.013402826517817721 0.0098172199073061871 0.013224962687009345 0 0.013224962687009345 0.0085495240951977622 0 0 0 0.004591686000625989 0.061395346586639837 -0.026145358359753568 0 -0.026145358359753568 0.16694487195755076 0 0 0 0.057085054636047614 0.059210686101211163 -0.026663194365071984 0 -0.026663194365071984 0.1560033491531653 0 0 0 0.053803508813594136 -0.0092926656925889084 -0.021448452888460867 0 -0.021448452888460867 0.0068359327353775257 0 0 0 -0.00061418323930273466 -0.015988903373594376 -0.022393804219536406 0 -0.022393804219536406 0.0063779314865901604 0 0 0 -0.0024027429717511373 0.10573317376815949 0.030428683585657534 0 0.030428683585657534 0.063980140417511322 0 0 0 0.042428328546417537 0.12247333467945465 0.030134745451453782 0 0.030134745451453782 0.06845179957551295 0 0 0 0.047731283563742011 0.10383831972907087 0.041537573915657433 0 0.041537573915657433 0.036520761309773775 0 0 0 0.035089770259711273 0.14881237050605001 0.037523367398141882 0 0.037523367398141882 0.046078010319019924 0 0 0 0.048722595206267316 0.043884879364655863 0.0093678727703411808 0 0.0093678727703411808 0.014626670909778859 0 0 0 0.01462788756860868 0.11492002588398859 0.0075455283112714766 0 0.0075455283112714766 0.10661931909857003 0 0 0 0.055384836245639724 0.10324147501191876 0.01169856104837913 0 0.01169856104837913 0.074882872451120824 0 0 0 0.044531086865760003 -0.070539839480568189 -0.01391094945334137 0 -0.01391094945334137 0.0037395988760122734 0 0 0 -0.016700060151138896 -0.083416740318252608 -0.0055123130695545752 0 -0.0055123130695545752 0.002466049855271768 0 0 0 -0.020237672615745134 -0.13579901358620006 0.014070302198729956 0 0.014070302198729956 0.0053317275176438805 0 0 0 -0.03261682151713885 0.084390720774463274 0.030488375243556583 0 0.030488375243556583 0.044104242569613747 0 0 0 0.032123740836019245 0.088327056910389737 0.032356976010184148 0 0.032356976010184148 0.053657635991856134 0 0 0 0.035496173225561437 0.052650954408653958 0.010384612097522294 0 0.010384612097522294 0.0027369817805698859 0 0 0 0.013846984047305971 0.04097510894815494 0.011840305099859255 0 0.011840305099859255 0.0046716742499254699 0 0 0 0.011411695799520102 -0.12152925683067879 -0.022476936282539536 0 -0.022476936282539536 -0.0068242013274245061 0 0 0 -0.032088364539525821 -0.078311155195787796 0.0096074581541347355 0 0.0096074581541347355 -0.00079907264269067852 0 0 0 -0.019777556959619622 -0.060519395724046077 0.01594748369712741 0 0.01594748369712741 -4.0067090644982373e-05 0 0 0 -0.015139865703672765 0.16409866129686868 0.024596396206900684 0 0.024596396206900684 0.11491792118487343 0 0 0 0.069754145620435581 -0.031572061997703349 -0.011399635624695814 0 -0.011399635624695814 0.0083116942427139406 0 0 0 -0.0058150919387472966 0.045344372970090092 -0.0048305676176049681 0 -0.0048305676176049681 0.0043551119523130497 0 0 0 0.012424871230600787 0.074560070129936942 -0.0047902877494173917 0 -0.0047902877494173917 -0.0056293966088109548 0 0 0 0.017232668380281504 -0.026188657392517856 -0.023916008338232153 0 -0.023916008338232153 0.0080334232028385077 0 0 0 -0.004538808547419837 0.013099237023196299 -0.030046371338118889 0 -0.030046371338118889 0.0001723523665247903 0 0 0 0.0033178973474302723 0.026811801566312195 -0.0077073764454801408 0 -0.0077073764454801408 0.03926464135739758 0 0 0 0.01651911073092744 0.091620912921595812 0.021486529400638939 0 0.021486529400638939 0.025453773363116827 0 0 0 0.02926867157117817 -0.026798267235740303 0.055303632327967644 0 0.055303632327967644 0.010593585499875102 0 0 0 -0.0040511704339665222 -0.073245490725691684 0.002415090467378006 0 0.002415090467378006 0.0072804524269761695 0 0 0 -0.016491259574678896 -0.12519472601421044 -0.003408375149266285 0 -0.003408375149266285 0.01827529565641095 0 0 0 -0.026729857589449901 0.057283440193970914 0.00064337863913027649 0 0.00064337863913027649 0.0092853479653991489 0 0 0 0.016642197039842377 0.069049927364418395 0.010922280980248111 0 0.010922280980248111 0.013970213577939594 0 0 0 0.020755035235589525 -0.043803574283080411 0.017214476794988789 0 0.017214476794988789 0.0025357955484101996 0 0 0 -0.010316944683667565 -0.027451118510557013 0.014547596826789917 0 0.014547596826789917 0.00096141491834589483 0 0 0 -0.0066224258980527775 0.026772727269822043 0.0037830058812068704 0 0.0037830058812068704 0.024410918284648454 0 0 0 0.012795911388617621 -0.081951921341980191 0.015312070993392959 0 0.015312070993392959 0.0045225070822727809 0 0 0 -0.019357353564926842 -0.055738687578653995 -0.031802138147243184 0 -0.031802138147243184 -0.0089694436895069868 0 0 0 -0.016177032817040252 0.052251592309108467 -0.0036074564633322703 0 -0.0036074564633322703 -0.052265593535558839 0 0 0 -3.5003066125652476e-06 0.0012567882723293344 0.068210051303450925 0 0.068210051303450925 0.01552222803894665 0 0 0 0.0041947540778188852 0.039277953971205655 0.011840503800402538 0 0.011840503800402538 0.013090805836937395 0 0 0 0.013092189952035762 0.17926446893171583 0.013041658393511124 0 0.013041658393511124 0.095371975052977565 0 0 0 0.068659110996173223 0.13734449353657979 0.044888086782311085 0 0.044888086782311085 0.13765572108391066 0 0 0 0.068750053655122587 -0.11257444420388137 0.015304874360683729 0 0.015304874360683729 0.035430037602487696 0 0 0 -0.0192861016503484 0.10548635032413174 0.050137724414724236 0 0.050137724414724236 0.14526197708280825 0 0 0 0.062687081851735008 0.1235134317420722 0.040865797521586894 0 0.040865797521586894 0.097519184486506649 0 0 0 0.055258154057144779 -0.013387149149157781 0.01573606061274218 0 0.01573606061274218 0.0039711780763826074 0 0 0 -0.002353992768193796 0.019851665140285073 0.011459982093522192 0 0.011459982093522192 0.0039968924074782579 0 0 0 0.0059621393869408301 -0.11022067031335681 0.048108914197601216 0 0.048108914197601216 0.021014408304399712 0 0 0 -0.022301565502239384 0.020619842776908766 -0.014142513953004553 0 -0.014142513953004553 0.077056965700054866 0 0 0 0.024419202119240917 0.078823243938511561 0.033331344849299491 0 0.033331344849299491 0.15655110198422156 0 0 0 0.058843586480683309 0.049572272680849905 -0.023854884053142261 0 -0.023854884053142261 0.012237372811096714 0 0 0 0.015452411372986669 -0.10097333174208906 -0.0041702460930211349 0 -0.0041702460930211349 0.0046362867752750142 0 0 0 -0.02408426124170357 -0.17689619073604729 0.0097893026408563677 0 0.0097893026408563677 0.016349075736415308 0 0 0 -0.040136778749908009 -0.031623235122020033 0.019902424573424948 0 0.019902424573424948 0.0095964124752589974 0 0 0 -0.0055067056616902033 0.078552367573523019 -0.020113814048485779 0 -0.020113814048485779 0.055182264368681677 0 0 0 0.033433657985551091 0.046871238514971769 -0.020460655466065375 0 -0.020460655466065375 0.035795254433563128 0 0 0 0.020666623237133697 0.10484862627658589 0.023131848121585152 0 0.023131848121585152 0.028823372980638681 0 0 0 0.033417999814306147 -0.039701096344879901 -0.033290039808091795 0 -0.033290039808091795 -0.012889016382168925 0 0 0 -0.013147528181762208 -0.069704297909314039 0.010852962236072666 0 0.010852962236072666 0.004109924846179086 0 0 0 -0.016398593265783769 -0.090009088526683254 -0.016543157778742434 0 -0.016543157778742434 0.011092595525135963 0 0 0 -0.019729123250386789 0.046141961680863264 -0.021769147534259708 0 -0.021769147534259708 0.064537838301890971 0 0 0 0.027669949995688559 -0.038849573420524891 0.0084104730712745296 0 0.0084104730712745296 0.0066701234688510067 0 0 0 -0.0080448624879185041 0.050396846222927165 0.0083731551976392801 0 0.0083731551976392801 0.12521071578003268 0 0 0 0.043901890500739942 0.049974819586153928 -0.001487114453826741 0 -0.001487114453826741 0.016661323578599358 0 0 0 0.016659035791188326 0.057444860380350599 -0.020189251873423075 0 -0.020189251873423075 0.039705860124030767 0 0 0 0.024287680126095224 -0.099397369994171342 0.0040171381673117443 0 0.0040171381673117443 0.0042668548673638271 0 0 0 -0.023782628781701877 -0.17138074810437537 -0.012994759253651372 0 -0.012994759253651372 0.0085519272180360484 0 0 0 -0.040707205221584823 -0.071520803769472369 -0.021726623382106736 0 -0.021726623382106736 0.0093640017575685047 0 0 0 -0.01553920050297599 0.01203679543531827 -0.022369184692246136 0 -0.022369184692246136 0.043934164134218967 0 0 0 0.013992739892384309 0.02938831879774112 -0.012763042149563336 0 -0.012763042149563336 0.081184529554041096 0 0 0 0.027643212087945568 -0.0090383673439137537 0.010931257461051173 0 0.010931257461051173 0.0074644702087549794 0 0 0 -0.00039347428378969443 0.047821327214703335 -0.021575854155665986 0 -0.021575854155665986 0.016947046543997701 0 0 0 0.016192093439675259 -0.031071825579057848 -0.020413232256082159 0 -0.020413232256082159 0.0056645126664393169 0 0 0 -0.0063518282281548252 -0.026010508341510714 0.012049529605896104 0 0.012049529605896104 0.0077948963185979318 0 0 0 -0.0045539030057281825 0.053715869134870226 -0.02175249170944013 0 -0.02175249170944013 0.011870462896267586 0 0 0 0.016396583007784432 0.054160022698139951 -0.0037659011528036832 0 -0.0037659011528036832 -0.0037381890709924093 0 0 0 0.012605458406786889 -0.10425585066317621 0.0022311564002306938 0 0.0022311564002306938 0.0037959740507698125 0 0 0 -0.02511496915310156 -0.18801049400198055 -0.0048130419660569745 0 -0.0048130419660569745 0.0064281476754182165 0 0 0 -0.045395586581640557 -0.048619456320624338 -0.0071007183403433149 0 -0.0071007183403433149 0.0020664946403940454 0 0 0 -0.011638240420057427 0.16548126356491966 0.013947402778829332 0 0.013947402778829332 0.11979085942571999 0 0 0 0.071318030747659522 0.15551735310280101 0.026091190877925774 0 0.026091190877925774 0.093404502181635873 0 0 0 0.062230463821109305 -0.046166911828932955 -0.006310807062617536 0 -0.006310807062617536 0.0037379937839023825 0 0 0 -0.01060722951125781 0.19220040811517691 0.0087248376626261441 0 0.0087248376626261441 0.15148980117386124 0 0 0 0.085922552322259094 0.11243425369842591 -0.015875426141742914 0 -0.015875426141742914 0.031418210755755571 0 0 0 0.035963116113545412 0.031555692405487334 -0.023009594845704001 0 -0.023009594845704001 0.029966212569663919 0 0 0 0.0153804762437878 0.16392792941599621 -0.013983686688720756 0 -0.013983686688720756 0.11623855753156098 0 0 0 0.070041621736889548 0.26077322003791004 0.013759211511741087 0 0.013759211511741087 0.21276691483685861 0 0 0 0.11838503371869213 -0.083834990749347804 -0.02532383900674906 0 -0.02532383900674906 0.035789993474457771 0 0 0 -0.012011249318722494 -0.019842709969170074 0.014834204147433312 0 0.014834204147433312 0.0030161909231188055 0 0 0 -0.0042066297615128215 0.05543735706855759 0.012388071686381379 0 0.012388071686381379 0.0066271756326899472 0 0 0 0.015516133175311864 -0.036198364232352453 0.043218310104343849 0 0.043218310104343849 0.0041759186196408393 0 0 0 -0.0080056114031781256 0.076060430331834017 -0.024456928162487623 0 -0.024456928162487623 0.03059171590201526 0 0 0 0.026663036558462194 0.054298460644209984 0.0011078700986100463 0 0.0011078700986100463 0.0059109705260959756 0 0 0 0.015052357792576488 -0.012087819395683524 0.01009074783048805 0 0.01009074783048805 0.021407569942098623 0 0 0 0.0023299376366037634 0.18685394775793318 0.014903922584763408 0 0.014903922584763408 0.093265998266027772 0 0 0 0.070029986505990127 0.034991733212857958 -0.019364808753992727 0 -0.019364808753992727 -0.01156248749819927 0 0 0 0.0058573114286646563 0.095734208310951766 -0.0029267126591243642 0 -0.0029267126591243642 0.017331323784808839 0 0 0 0.028266383023940203 0.10129191744911359 -0.0066200091466335764 0 -0.0066200091466335764 0.02364420290682815 0 0 0 0.031234030088985447 0.10946474501019532 -0.019626532657465834 0 -0.019626532657465834 0.072032964649451081 0 0 0 0.045374427414911711 0.12655876743218297 -0.010341424364151919 0 -0.010341424364151919 0.11252108266627991 0 0 0 0.059769962524615639 0.20598977584269501 0.0059148774665888082 0 0.0059148774665888082 0.2019506237377422 0 0 0 0.10198509989510923 0.17589043633618984 0.024170094607110393 0 0.024170094607110393 0.13760346124302061 0 0 0 0.078373474394802578 0.071678338708626138 0.026767391375784197 0 0.026767391375784197 0.049173768833893169 0 0 0 0.03021302688562982 0.10934755432118243 -0.029693905129635462 0 -0.029693905129635462 0.0025567449824088206 0 0 0 0.027976074825897812 0.13001103927615143 -0.056179440698387907 0 -0.056179440698387907 0.063523660084836606 0 0 0 0.04838367484024704 -0.043127319762973848 -0.020346267044465294 0 -0.020346267044465294 0.0067635784345488892 0 0 0 -0.0090909353321064201 -0.046650039109934677 0.013062793556777813 0 0.013062793556777813 0.0042549916634123525 0 0 0 -0.010598761861630585 -0.027821623827777614 0.016007430449940178 0 0.016007430449940178 0.0055261411235851821 0 0 0 -0.005573870676048108 -0.052809392983379638 0.020249354956570931 0 0.020249354956570931 0.076143144393331252 0 0 0 0.0058334378524879105 0.081705156892049158 -0.019661856553095436 0 -0.019661856553095436 0.056960229275345053 0 0 0 0.034666346541848525 0.1372688412932217 0.022337263676788732 0 0.022337263676788732 0.10642727351338843 0 0 0 0.060924028701652588 0.054191449004267311 0.014860098470520954 0 0.014860098470520954 0.014023201832330121 0 0 0 0.017053662709149361 0.055201968293380532 -0.0026860717343560325 0 -0.0026860717343560325 -0.015909762500833757 0 0 0 0.009823051448136666 0.035903232357745077 0.011942389834242683 0 0.011942389834242683 0.003761452012139184 0 0 0 0.0099161710924710635 0.049985084178871431 -0.022678911246045166 0 -0.022678911246045166 0.026156572031848235 0 0 0 0.019035414052679916 0.056445763317142301 0.0010497753088412913 0 0.0010497753088412913 -0.0054020506126128444 0 0 0 0.012760928176132363 0.070379250049271924 0.04764617944636651 0 0.04764617944636651 0.01669931543188774 0 0 0 0.021769641370289916 0.079282047269610384 0.039001672973863144 0 0.039001672973863144 0.034769984010837196 0 0 0 0.028513007820112207 0.0064241645502169792 -0.027306600618522969 0 -0.027306600618522969 0.014695673445972612 0 0 0 0.0052799594990475679 0.16222970346261906 -0.1235427394759451 0 -0.1235427394759451 0.21708253638621972 0 0 0 0.094828059962209749 0.052134875841002869 0.0032915530240737291 0 0.0032915530240737291 -0.00038186496087200955 0 0 0 0.012938252720032717 -0.050411785917709784 -0.012133026396377145 0 -0.012133026396377145 0.0063631103272814293 0 0 0 -0.011012168897606811 0.0065271998157296895 -0.0019399324435109833 0 -0.0019399324435109833 0.0071733181956954439 0 0 0 0.0034251295028564499 0.29491346420890174 0.00071678210604808612 0 0.00071678210604808612 0.23433886413281702 0 0 0 0.13231308208542947 0.24380161342486759 -0.013021572638313827 0 -0.013021572638313827 0.21947039466183416 0 0 0 0.11581800202167554 0.15194363864444038 0.0046137078241508256 0 0.0046137078241508256 0.12130489474395389 0 0 0 0.068312133347098625 0.011007470483841431 0.0030738568602555949 0 0.0030738568602555949 0.012381801669615555 0 0 0 0.0058473180383646906 0.0091913428566305234 -0.0013164805594825246 0 -0.0013164805594825246 0.0076722000673128564 0 0 0 0.0042158857309859002 0.18249933201368052 -0.0046580966385462571 0 -0.0046580966385462571 0.13334909364687508 0 0 0 0.078962106415139566 0.015674815697927613 0.0021217229073853261 0 0.0021217229073853261 0.012838239410571717 0 0 0 0.0071282637771248325 0.046043858493043086 0.0013066138621457943 0 0.0013066138621457943 0.0038255421537338012 0 0 0 0.012467350161694219 0.060204653311888318 -0.020265991102472514 0 -0.020265991102472514 0.0098233924009073353 0 0 0 0.017507011428198969 -0.025780130177854309 0.014587296770050259 0 0.014587296770050259 0.012365920508249778 0 0 0 -0.0033535524174011233 -0.020661334866482362 -0.027822308594347533 0 -0.027822308594347533 0.0085521525232485907 0 0 0 -0.0030272955858083872 0.048915727208633838 -0.0090404332993721734 0 -0.0090404332993721734 -0.0089487486604848399 0 0 0 0.0099917446370372497 0.026182089967253575 0.032728229660959673 0 0.032728229660959673 0.023074854420999991 0 0 0 0.012314236097063169 0.045118201793487023 -0.025597387286723228 0 -0.025597387286723228 0.025975034955557863 0 0 0 0.017773309187260944 0.10120482788464802 -0.016991131852006014 0 -0.016991131852006014 0.09100985667467576 0 0 0 0.048053671139830834 0.17840970452274463 0.014302648455620626 0 0.014302648455620626 0.16851768402327449 0 0 0 0.086731847136504669 0.063769287085505721 0.013722789210748959 0 0.013722789210748959 0.07971615726913428 0 0 0 0.035871361088660014 -0.01944003444164577 0.0056839514299763111 0 0.0056839514299763111 0.011774942932083504 0 0 0 -0.0019162728773905457 0.051843027542910536 -0.016957147294919456 0 -0.016957147294919456 0.065306602952109216 0 0 0 0.029287407623754869 0.11726629095360391 0.013803020538373567 0 0.013803020538373567 0.12379551891307727 0 0 0 0.0602654524666702 0.027850715656078939 -0.030820312796319249 0 -0.030820312796319249 0.014680223894103173 0 0 0 0.010632734887545514 0.056942868601951468 0.01254546132223446 0 0.01254546132223446 0.0070857990691289841 0 0 0 0.016007166917770099 0.041526422246244143 -0.025287854396223164 0 -0.025287854396223164 0.035329068073902903 0 0 0 0.019213872580036817 0.021979019042995152 0.026459551843335483 0 0.026459551843335483 0.017915192087433418 0 0 0 0.0099735527826076975 0.099218020128671369 0.0075069560253289147 0 0.0075069560253289147 0.045928563125886557 0 0 0 0.036286645813639551 0.1079926813946992 0.0034001733930164313 0 0.0034001733930164313 0.048844211284655215 0 0 0 0.039209223169838658 0.010431347653131237 0.014343217369115965 0 0.014343217369115965 0.0039969339075775698 0 0 0 0.0036070703901772 0.0041093784415178122 -0.0019383209012429903 0 -0.0019383209012429903 0.054079608391709819 0 0 0 0.01454724670830692 0.091806221947920374 -0.028177792975588867 0 -0.028177792975588867 0.028277236372719061 0 0 0 0.03002086458015979 0.063535667734383863 -0.022169847147858746 0 -0.022169847147858746 0.0097662262567833474 0 0 0 0.018325473497791858 0.1300398658860496 -0.019815944945989261 0 -0.019815944945989261 0.036184200665321908 0 0 0 0.041556016637842863 0.11715350427738763 0.0095414486009023913 0 0.0095414486009023913 0.095078417507978408 0 0 0 0.053057980446341468 0.10492962705797099 0.012636185344725104 0 0.012636185344725104 0.058870599245927524 0 0 0 0.040950056575974669 -0.034104586016051056 0.015310745824062798 0 0.015310745824062798 0.0017354472524093584 0 0 0 -0.0080922846909104243 0.026927345240129824 -0.0075455417189050434 0 -0.0075455417189050434 0.059465527081313405 0 0 0 0.021598218080360818 0.028443041914851155 -0.0051346055766259037 0 -0.0051346055766259037 0.071834516684692484 0 0 0 0.02506938964988592 0.14520839808384922 0.076911498237060755 0 0.076911498237060755 0.24309449126156557 0 0 0 0.09707572233635374 0.081327493636164316 -0.025221697070916982 0 -0.025221697070916982 0.27889602284371851 0 0 0 0.090055879119970733 0.18448260040330355 0.012846979980352407 0 0.012846979980352407 0.11677022322250608 0 0 0 0.075313205906452296 0.067661726501007324 0.028918550765576808 0 0.028918550765576808 0.06516277193372047 0 0 0 0.033206124608681942 -0.065631676061868927 -0.0084998382911616981 0 -0.0084998382911616981 0.006013685975480243 0 0 0 -0.014904497521597282 0.0096993532496518209 0.014157805951144201 0 0.014157805951144201 0.001733514001595951 0 0 0 0.0028582168128119465 -0.032502080443027395 -0.02472984830752234 0 -0.02472984830752234 -0.005739704515731997 0 0 0 -0.0095604462396898446 -0.033832513669761574 0.014499596899878755 0 0.014499596899878755 -0.001041274552831789 0 0 0 -0.0087184470556483443 0.073572081031468506 0.0022144112473225907 0 0.0022144112473225907 -0.0077977220680341998 0 0 0 0.016443589740858567 -0.053789661206853592 0.0046655250485723009 0 0.0046655250485723009 0.0029460348616992937 0 0 0 -0.012710906586288574 -0.051001807467278663 0.0056182937155144497 0 0.0056182937155144497 -0.0074166761759523366 0 0 0 -0.014604620910807749 -0.068503036107179324 -0.0092781742529442213 0 -0.0092781742529442213 0.0051828764292856655 0 0 0 -0.015830039919473418 -0.06549504090063904 -0.010761220092596335 0 -0.010761220092596335 -0.0085321230159421113 0 0 0 -0.018506790979145288 -0.0077160052781593408 -0.020858955128274848 0 -0.020858955128274848 0.031181015771967968 0 0 0 0.0058662526234521534 0.05920283073309205 0.0036016688624040862 0 0.0036016688624040862 0.0018493630293969349 0 0 0 0.015263048440622243 0.16891845754080714 0.027685570416950522 0 0.027685570416950522 0.04847958106884187 0 0 0 0.054349509652412031 0.064248993464894433 -0.0014678830424794259 0 -0.0014678830424794259 0.1006033084867648 0 0 0 0.041213075487914752 0.084042349464752891 0.039882275923150926 0 0.039882275923150926 0.097440940930555955 0 0 0 0.045370822598827215 0.027786758796926214 -0.037372905523926955 0 -0.037372905523926955 0.043089208224267539 0 0 0 0.017718991755298397 0.025069555714278977 0.0030511652529714439 0 0.0030511652529714439 0.0098216105351429835 0 0 0 0.0087227915623554909 0.097244564242457671 0.0057917851608428883 0 0.0057917851608428883 0.055948020133564889 0 0 0 0.038298146094005642 0.15523081325518109 -0.012126967233877295 0 -0.012126967233877295 0.1063343072095666 0 0 0 0.06539128011618682 0.014406412682322543 -0.0024435140967686841 0 -0.0024435140967686841 0.0049174085780104111 0 0 0 0.0048309553150830166 0.065132858187595288 -0.010501981596177767 0 -0.010501981596177767 0.035511809432578256 0 0 0 0.025161166905043442 0.099759446042471334 0.0075204582198765968 0 0.0075204582198765968 0.061149175867350358 0 0 0 0.040227155477455478 -0.050239268303860642 0.0035429420770989929 0 0.0035429420770989929 -0.016714997865515436 0 0 0 -0.01673856654234402 -0.063718433327982146 -0.0081230676325993578 0 -0.0081230676325993578 -0.021197880095522478 0 0 0 -0.021229078355876157 -0.067278516270535549 -0.0061584681124939797 0 -0.0061584681124939797 -0.0081620936010388407 0 0 0 -0.018860152467893597 -0.053488407247214625 0.0022185673010392572 0 0.0022185673010392572 -0.0068935274997730632 0 0 0 -0.01509548368674692 0.030869460172206487 -0.034195002734114244 0 -0.034195002734114244 0.018737902154306929 0 0 0 0.012401840581628409 0.010059938563896986 0.01401797199262908 0 0.01401797199262908 0.0065454023951263662 0 0 0 0.0041513352397558375 0.05645144353195114 -0.023514495840363137 0 -0.023514495840363137 0.0168243220739972 0 0 0 0.018318941401487043 0.063455166398698387 -0.021183090604641824 0 -0.021183090604641824 0.0095884170925782941 0 0 0 0.018260895872819205 0.022014999755428852 0.012275917364991399 0 0.012275917364991399 0.0099231964780618492 0 0 0 0.0079845490583726753 0.044519103712287733 0.010899005580601516 0 0.010899005580601516 0.0046943474202698829 0 0 0 0.012303362783139397 0.044233292905189042 0.012920763263071452 0 0.012920763263071452 0.0039818577485141032 0 0 0 0.012053787663425774 0.054897254923365967 -0.055284378953878194 0 -0.055284378953878194 0.18057410016749614 0 0 0 0.058867838772715529 0.14112864706715775 -0.017141145788352401 0 -0.017141145788352401 0.49895957429152782 0 0 0 0.16002205533967137 -0.02834820909020571 -0.011794112457546968 0 -0.011794112457546968 0.020904019047331746 0 0 0 -0.0018610475107184929 0.11026579827020866 0.0082525459551623104 0 0.0082525459551623104 0.079445792702016238 0 0 0 0.047427897743056224 0.054107712235096472 -0.018727468779750511 0 -0.018727468779750511 0.047021485546917208 0 0 0 0.02528229944550342 0.048477223372690864 0.012251387964980693 0 0.012251387964980693 0.015481786137413883 0 0 0 0.01598975237752618 0.15558778759081138 0.018620985432652226 0 0.018620985432652226 0.10484897435363116 0 0 0 0.065109190486110968 -0.024151649808150322 -0.013443844846686703 0 -0.013443844846686703 0.0066439733031540271 0 0 0 -0.004376919126249379 0.10242196509377677 -0.031524049678467808 0 -0.031524049678467808 0.084351606079125618 0 0 0 0.04669339279322561 0.10979585198172752 -0.0031681968965775464 0 -0.0031681968965775464 0.032505800716446348 0 0 0 0.035575413174543505 -0.0091968571927787401 0.024977685082034462 0 0.024977685082034462 0.014657229240905068 0 0 0 0.0013650930120312488 0.061145957062731626 -0.024960598840913617 0 -0.024960598840913617 0.048800613328685127 0 0 0 0.027486642597854161 0.059502424573702806 -0.024291380691158833 0 -0.024291380691158833 0.035885830579093891 0 0 0 0.023847063788199119 0.055322882021348108 -0.0088954449118222034 0 -0.0088954449118222034 0.018421643900331963 0 0 0 0.018436131480420059 0.13031299956162734 0.011904238974516645 0 0.011904238974516645 0.11559990633027872 0 0 0 0.061478226472976405 0.053449200148203299 -0.018123653056622398 0 -0.018123653056622398 -0.0092216274059479953 0 0 0 0.01105689318556383 0.065004852361872062 0.0057442930880063914 0 0.0057442930880063914 0.014428620229217148 0 0 0 0.019858368147772226 0.00035946299435983022 0.01717903995361908 0 0.01717903995361908 0.0010960337773362611 0 0 0 0.00036387419292402239 0.010107067782848922 0.016616366247031771 0 0.016616366247031771 0.00086870247972077597 0 0 0 0.0027439425656424279 0.027755621225417401 -0.00046573072051043357 0 -0.00046573072051043357 0.044107728460873123 0 0 0 0.017965837421572629 0.001139579433124982 -0.016075775052960012 0 -0.016075775052960012 0.05025660677050392 0 0 0 0.012849046550907239 0.026507245494648494 0.010660543576036755 0 0.010660543576036755 0.0024558562168928016 0 0 0 0.0072407754278853258 0.031174633640823166 0.013318491808763218 0 0.013318491808763218 0.011486556760958819 0 0 0 0.010665297600445503 0.027475781517607718 0.011279848303783958 0 0.011279848303783958 0.0086383528108541704 0 0 0 0.0090285335821154514 0.067444875868211407 -0.00796187416013594 0 -0.00796187416013594 0.0041688410235711792 0 0 0 0.017903429222945577 0.077066956492364169 -0.0080368942275758082 0 -0.0080368942275758082 0.040181516068424017 0 0 0 0.029312118140196963 0.12013531701952034 0.0059296537914074188 0 0.0059296537914074188 0.081296589804729424 0 0 0 0.050357976706062388 0.10449737119697355 0.0097878838457492456 0 0.0097878838457492456 0.033103061649294663 0 0 0 0.034400108211566915 0.10523718840135245 -0.054265350963488321 0 -0.054265350963488321 0.1803266862443364 0 0 0 0.071390968661422249 0.15080964555932042 0.0087905727750681173 0 0.0087905727750681173 0.10713408340184749 0 0 0 0.064485932240291977 0.013596751992653866 -0.0072047030855242333 0 -0.0072047030855242333 0.0076965281661323104 0 0 0 0.0053233200396964886 0.094082044749838611 -0.0094682275543913619 0 -0.0094682275543913619 0.057333552899219153 0 0 0 0.037853899412264469 0.023390067606826603 0.0097459580993231043 0 0.0097459580993231043 0.016375915870887159 0 0 0 0.0099414958694288291 -0.012536715922592201 0.033441408644358489 0 0.033441408644358489 0.0097653692121149049 0 0 0 -0.00069283667761910195 0.056227507549603928 -0.026783955985095476 0 -0.026783955985095476 0.0331476785139726 0 0 0 0.02234379651589391 0.055365389552306632 -0.027748253160984393 0 -0.027748253160984393 0.024880073351334353 0 0 0 0.020061365725910218 0.032414461209594583 -0.0028889689893184627 0 -0.0028889689893184627 0.059081459073381193 0 0 0 0.022873980070743965 0.11513030101400368 0.00083095516824238658 0 0.00083095516824238658 0.096140490204494 0 0 0 0.052817697804625752 0.022656792454452734 -0.0056731503747592948 0 -0.0056731503747592948 0.0093892800498558415 0 0 0 0.008011518126077366 0.037057360412433571 0.0080460127459627273 0 0.0080460127459627273 0.017592319848903415 0 0 0 0.013662420065334135 0.069999152214694993 -0.0032554057839866424 0 -0.0032554057839866424 0.047997410401346308 0 0 0 0.029499140654010603 0.060108866307639119 -0.0060696445780419883 0 -0.0060696445780419883 0.018713105511756645 0 0 0 0.019705492954849135 0.098640455515726838 -0.033302936657417792 0 -0.033302936657417792 0.014084334773968421 0 0 0 0.028181197572423905 0.14367854259139015 -0.018341084136424213 0 -0.018341084136424213 0.1171897230807688 0 0 0 0.065217066418039732 0.22644525063901666 0.019974713242432385 0 0.019974713242432385 0.21546699711935369 0 0 0 0.11047806193959253 0.050640713144935498 0.012030958567783117 0 0.012030958567783117 0.0027310185865388886 0 0 0 0.013342932932868597 -0.055573517496709357 0.039846666607194325 0 0.039846666607194325 0.0090564032675022332 0 0 0 -0.011629278557301781 -0.043212332017940058 0.033484080783120915 0 0.033484080783120915 0.008036419426948882 0 0 0 -0.0087939781477477386 0.057066760508104421 -0.008539485005076175 0 -0.008539485005076175 0.01162827486887285 0 0 0 0.017173758844244304 0.03090191113502876 0.0036542495713797318 0 0.0036542495713797318 0.023503581466462357 0 0 0 0.013601373150372766 0.049397579160492797 -0.021983323604951283 0 -0.021983323604951283 0.014163424381289667 0 0 0 0.01589025088544559 0.061836536197990732 -0.029077640217785805 0 -0.029077640217785805 0.032295840150082966 0 0 0 0.023533094087018425 0.0053518386639024307 0.030552577035342754 0 0.030552577035342754 0.011290264515769977 0 0 0 0.004160525794918879 0.043109139255755879 -0.024456034033217278 0 -0.024456034033217278 0.031204920616483278 0 0 0 0.018578514968059512 0.037902155804169446 -0.032290866487355907 0 -0.032290866487355907 0.022305436694655345 0 0 0 0.015051898124706309 -0.052625421636500309 0.014851821327785992 0 0.014851821327785992 -0.0016860688443923327 0 0 0 -0.013577872620223162 -0.067371433172781894 -0.026467876745321226 0 -0.026467876745321226 -0.0064931737008524643 0 0 0 -0.01846615171840859 -0.057297848112590533 -0.026600547189145646 0 -0.026600547189145646 0.0020725649903689247 0 0 0 -0.013806320780555405 -0.048039136464345697 0.013842490250891994 0 0.013842490250891994 0.0016769838040938678 0 0 0 -0.011590538165062971 0.030531223947663711 0.00092733253066532191 0 0.00092733253066532191 0.030904878230903647 0 0 0 0.01535902554464182 -0.049239284043407938 0.024759730275880187 0 0.024759730275880187 0.0068679756932592539 0 0 0 -0.01059282708753706 0.072597011244651233 -0.020581568427398778 0 -0.020581568427398778 0.04585477554221784 0 0 0 0.029612946696717213 0.067161317125066677 -0.0263655218114002 0 -0.0263655218114002 0.034667876935532416 0 0 0 0.025457298515149773 -0.018971790173761938 -0.032958217477784157 0 -0.032958217477784157 0.012628230191419454 0 0 0 -0.0015858899955855099 0.060204977951822974 -0.010269472618794073 0 -0.010269472618794073 0.019403616534544255 0 0 0 0.019902148621591759 0.064739382723495997 -0.027405464010491643 0 -0.027405464010491643 -0.0028856548991162238 0 0 0 0.015463431956094949 0.031826321545105292 -0.003462126845559914 0 -0.003462126845559914 0.022525748627193129 0 0 0 0.01358801754307461 -0.033895364537878947 0.018714608916666278 0 0.018714608916666278 -0.00031872340213061345 0 0 0 -0.0085535219850023901 -0.042864378431202693 0.067109893921734942 0 0.067109893921734942 0.02645585353862101 0 0 0 -0.0041021312231453722 -0.031359495391418024 -0.030640470428510591 0 -0.030640470428510591 0.014833474510803857 0 0 0 -0.0041315052201535973 0.10784640713663274 0.023285336247559574 0 0.023285336247559574 0.063762407248910746 0 0 0 0.042902203596385746 -0.0082148040324605057 -0.01879618068772837 0 -0.01879618068772837 0.0063912113396055736 0 0 0 -0.00045589817321362719 0.10264613643740539 0.058385643725633929 0 0.058385643725633929 0.022886797636316292 0 0 0 0.031383233518430531 -0.028444912197731997 0.013321263816545345 0 0.013321263816545345 0.0042589966298635607 0 0 0 -0.0060464788919671174 0.027622991913296063 0.0068164613587979178 0 0.0068164613587979178 0.017170446671068713 0 0 0 0.011198359646091184 -0.01680317883631588 -0.024886982226292043 0 -0.024886982226292043 0.0084986848836647866 0 0 0 -0.0020761234881627733 0.12348624793369108 -0.0051804012242511188 0 -0.0051804012242511188 0.07926595790035304 0 0 0 0.050688051458511144 0.19616056157818307 0.0028913906092092878 0 0.0028913906092092878 0.14888841813409703 0 0 0 0.086262244928069998 0.030031012178811795 0.0077722101186548861 0 0.0077722101186548861 0.0086532902610811074 0 0 0 0.0096710756099732346 0.018527201505955659 0.0037443521362510168 0 0.0037443521362510168 0.014144560564080422 0 0 0 0.0081679405175094644 0.015596277971970274 0.0055837057202685614 0 0.0055837057202685614 0.013495992494327425 0 0 0 0.0072730676165742025 0.11070605275085921 -8.5734956675853624e-05 0 -8.5734956675853624e-05 0.077964839731533786 0 0 0 0.04716772312059847 0.12876219906637631 -0.0087736804791085365 0 -0.0087736804791085365 0.08241670301885673 0 0 0 0.052794725521308372 0.20204088950700028 0.011075297593035049 0 0.011075297593035049 0.15225823777947944 0 0 0 0.088574781821620263 0.011293129260282031 -0.0025082702988539207 0 -0.0025082702988539207 0.0080914293512135416 0 0 0 0.0048461396528736156 0.18133252003268119 -0.0085689807318423128 0 -0.0085689807318423128 0.14882342247304514 0 0 0 0.082538985626432027 0.0079368126087060453 -0.0042404922116463517 0 -0.0042404922116463517 0.0072841529636882285 0 0 0 0.0038052413930986795 0.065770685432961273 -0.0041142334490426591 0 -0.0041142334490426591 0.017945891329070651 0 0 0 0.020929144190508064 0.057175084613212079 -0.017818015547208126 0 -0.017818015547208126 0.033215280437123296 0 0 0 0.022597591262583872 0.049390891206076815 -0.020291393561747265 0 -0.020291393561747265 0.02914862258402473 0 0 0 0.019634878447525372 0.052512261728546256 -0.0054552875422690938 0 -0.0054552875422690938 0.016307520502915188 0 0 0 0.017204945557865309 0.056968805178363779 -0.010485522511692325 0 -0.010485522511692325 0.021327828780532521 0 0 0 0.019574158489724103 0.073105945430978828 0.034008737435359399 0 0.034008737435359399 0.13810229284975448 0 0 0 0.052802059570183309 0.024714959689797214 -0.029421576214600224 0 -0.029421576214600224 0.018084465637401764 0 0 0 0.010699856331799736 0.021113269407467161 -0.041660998270050972 0 -0.041660998270050972 0.00946908773120686 0 0 0 0.0076455892846685053 -0.010228396432401794 0.010513453875213154 0 0.010513453875213154 0.0092196185977984416 0 0 0 -0.00025219445865084025 -0.057803518048936575 0.042963750868208805 0 0.042963750868208805 0.011176834430974392 0 0 0 -0.011656670904490407 -0.031270857279394826 0.065376021326580269 0 0.065376021326580269 0.055564344781132924 0 0 0 0.0060733718754346633 0.076909106552257744 0.033165236151784364 0 0.033165236151784364 0.089899981129709677 0 0 0 0.041702271920491869 0.10080580460542055 0.010813752527188126 0 0.010813752527188126 0.064624716571739516 0 0 0 0.04135763029428996 0.11532702176118564 0.014928992747713962 0 0.014928992747713962 0.071877306938957775 0 0 0 0.046801082175035869 0.11152025322977531 0.044075853439570628 0 0.044075853439570628 0.09343864451756384 0 0 0 0.051239724436834805 -0.029382741739452822 -0.028710297171134269 0 -0.028710297171134269 0.024489957350967151 0 0 0 -0.0012231960971214595 -0.043406985870130893 -0.01794745512431517 0 -0.01794745512431517 0.0036834167208635304 0 0 0 -0.0099308922873167782 0.072107921656981711 0.029474896644996522 0 0.029474896644996522 0.066612259075764374 0 0 0 0.034680045183186528 0.094289837119798575 0.034966388916083682 0 0.034966388916083682 0.055465079454521546 0 0 0 0.037438729143580006 0.042539659563818277 -0.021599751076071705 0 -0.021599751076071705 0.04190863374090803 0 0 0 0.021112073326181535 0.02918332260622938 0.00039661558527406609 0 0.00039661558527406609 0.019107182236645627 0 0 0 0.012072626210718748 0.031774545594796658 0.0027206159190351371 0 0.0027206159190351371 0.030567372655681206 0 0 0 0.015585479562619457 0.036368653525563149 0.0020245480580125385 0 0.0020245480580125385 0.048159577059824418 0 0 0 0.021132057646346888 0.17338057794459538 0.016008056592296427 0 0.016008056592296427 0.15748165458287122 0 0 0 0.08271555813186704 -0.026515963386111729 -0.0055914733213398016 0 -0.0055914733213398016 0.0065467296015824239 0 0 0 -0.0049923084461324096 -0.028998519231602522 0.016047432189674422 0 0.016047432189674422 0.0026970793685609541 0 0 0 -0.0065753599657603998 0.039812997538280104 0.011756585895205136 0 0.011756585895205136 0.0068577700525510529 0 0 0 0.011667691897707787 0.18014341145841817 0.018937739945899201 0 0.018937739945899201 0.087191888301138665 0 0 0 0.066833824939889208 0.057858217143455015 -0.0045978344300812157 0 -0.0045978344300812157 0.015323193712835748 0 0 0 0.018295352714072677 0.011338470592439334 -0.041668660345596971 0 -0.041668660345596971 0.0007726809842121523 0 0 0 0.0030277878941628693 -0.024298175822926926 -0.034349975559125001 0 -0.034349975559125001 0.0055356763130817166 0 0 0 -0.0046906248774613059 0.048993033257981378 -0.015378865466004754 0 -0.015378865466004754 0.062078691575504497 0 0 0 0.027767931208371455 
</DataArray>
<DataArray type="Float64" Name="cross_section_updated" format="ascii">
0.0010128237006626539 0.0010316390481020356 0.0010429780239504423 0.0010535238213109975 0.0010643340246645624 0.0010760340999378488 0.001088890621645096 0.0011031131144958657 0.0011191936090535362 0.0011378067569949349 0.0020436920874943964 0.0021128205921928656 0.0021598603194200937 0.0022025183162342277 0.0022447902800666704 0.0022876730077047757 0.0023320392690309596 0.0023784530989212228 0.0024277608897900556 0.0024814963866710725 1 1 1 1 1 1 1 1 1 1 1 1 1 1 1 1 1 1 1 1 1 1 1 1 1 1 1 1 1 1 1 1 1 1 1 1 1 1 1 1 1 1 1 1 1 1 1 1 1 1 1 1 1 1 1 1 1 1 1 1 1 1 1 1 1 1 1 1 1 1 1 1 1 1 1 1 1 1 1 1 1 1 1 1 1 1 1 1 1 1 1 1 1 1 1 1 1 1 1 1 1 1 1 1 1 1 1 1 1 1 1 1 1 1 1 1 1 1 1 1 1 1 1 1 1 1 1 1 1 1 1 1 1 1 1 1 1 1 1 1 1 1 1 1 1 1 1 1 1 1 1 1 1 1 1 1 1 1 1 1 1 1 1 1 1 1 1 1 1 1 1 1 1 1 1 1 1 1 1 1 1 1 1 1 1 1 1 1 1 1 1 1 1 1 1 1 1 1 1 1 1 1 1 1 1 1 1 1 1 1 1 1 1 1 1 1 1 1 1 1 1 1 1 1 1 1 1 1 1 1 1 1 1 1 1 1 1 1 1 1 1 1 1 1 1 1 1 1 1 1 1 1 1 1 1 1 1 1 1 1 1 1 1 1 1 1 1 1 1 1 1 1 1 1 1 1 1 1 1 1 1 1 1 1 1 1 1 1 1 1 1 1 1 1 1 1 1 1 1 1 1 1 1 1 1 1 1 1 1 1 1 1 1 1 1 1 1 1 1 1 1 1 1 1 1 1 1 1 1 1 1 1 1 1 1 1 1 1 1 1 1 1 1 1 1 1 1 1 1 1 1 1 1 1 1 1 1 1 1 1 1 1 1 1 1 1 1 1 1 1 1 1 1 1 1 1 1 1 1 1 1 1 1 1 1 1 1 1 1 1 1 1 1 1 1 1 1 1 1 1 1 1 1 1 1 1 1 1 1 1 1 1 1 1 1 1 1 1 1 1 1 1 1 1 1 1 1 1 1 1 1 1 1 1 1 1 1 1 1 1 1 1 1 1 1 1 1 1 1 1 1 1 1 1 1 1 1 1 1 1 1 1 1 1 1 1 1 1 1 1 1 1 1 1 1 1 1 1 1 1 1 1 1 1 1 1 1 1 1 1 1 1 1 1 1 1 1 1 1 1 1 1 1 1 1 1 1 1 1 1 1 1 1 1 1 1 1 1 1 1 1 1 1 1 1 1 1 1 1 1 1 1 1 1 1 1 1 1 1 1 1 1 1 1 1 1 1 1 1 1 1 1 1 1 1 1 1 1 1 1 1 1 1 1 1 1 1 1 1 1 1 1 1 1 1 1 1 1 1 1 1 1 1 1 1 1 1 1 1 1 1 1 1 1 1 1 1 1 1 1 1 1 1 1 1 1 1 1 1 1 1 1 1 1 1 1 1 1 1 1 1 1 1 1 1 1 1 1 1 1 1 1 1 1 1 1 1 1 1 1 1 1 1 1 1 1 1 1 1 1 1 1 1 1 1 1 1 1 1 1 1 1 1 1 1 1 1 1 1 1 1 1 1 1 1 1 1 1 1 1 1 1 1 1 1 1 1 1 1 1 1 1 1 1 1 1 1 1 1 1 1 1 1 1 1 1 1 1 1 1 1 1 1 1 1 1 1 1 1 1 1 1 1 1 1 1 1 1 1 1 1 1 1 1 1 1 1 1 1 1 1 1 1 1 1 1 1 1 1 1 1 1 1 1 1 1 1 1 1 1 1 1 1 1 1 1 1 1 1 1 1 1 1 1 1 1 1 1 1 1 1 1 1 1 1 1 1 1 1 1 1 1 1 1 1 1 1 1 1 1 1 1 1 1 1 1 1 1 1 1 1 1 1 1 1 1 1 1 1 1 1 1 1 1 1 1 1 1 1 1 1 1 1 1 1 1 1 1 1 1 1 1 1 1 1 1 1 1 1 1 1 1 1 1 1 1 1 1 1 1 1 1 1 1 1 1 1 1 1 1 1 1 1 1 1 1 1 1 1 1 1 1 1 1 1 1 1 1 1 1 1 1 1 1 1 1 1 1 1 1 1 1 1 1 1 1 1 1 1 1 1 1 1 1 1 1 1 1 1 1 1 1 1 1 1 1 1 1 1 1 1 1 1 1 1 1 1 1 1 1 1 1 1 1 1 1 1 1 1 1 1 1 1 1 1 1 1 1 1 1 1 1 1 1 1 1 1 1 1 1 1 1 1 1 1 1 1 1 1 1 1 1 1 1 1 1 1 1 1 1 1 1 1 1 1 1 1 1 1 1 1 1 1 1 1 1 1 1 1 1 1 1 1 1 1 1 1 1 1 1 1 1 1 1 1 1 1 1 1 1 1 1 1 1 
</DataArray>
<DataArray type="Float64" Name="displacement_divergence" format="ascii">
0.012923418277785051 0.031660460272067342 0.043014308975106483 0.053561743428482404 0.064381272570298353 0.076092425801826027 0.088954956876276803 0.10321105911908786 0.1192449740945152 0.13813468188882128 0.022665188178605508 0.056348101623513759 0.080068935095024163 0.10134630941866932 0.12249669259529451 0.14394979935162153 0.16612012233079848 0.18944200249311174 0.21374939800775977 0.24206233454786699 3.7033396835737728e-05 5.4560590857586063e-05 4.6035106726551549e-05 4.1890649338323176e-05 -4.4065869481398852e-05 -3.3902107507440729e-05 -5.4209617336699611e-05 -3.9626538173270586e-05 -6.8169356464713925e-05 -0.00011560021450323339 3.7564063819202623e-05 3.5695021048200946e-05 8.7495200619543915e-06 2.0768025008411922e-05 6.0234929131354347e-06 3.3352588876044012e-05 0.00035604672500499983 3.8980497819119352e-05 5.8118405945405995e-05 7.3709814625890976e-05 3.385511832528984e-05 5.9136950062364281e-05 4.0604467683986014e-05 1.1970694603625349e-05 0.00029932755851269708 -0.00013348464335795709 -7.5313503366334538e-05 -9.8844039657472894e-07 1.8812404236963668e-05 -3.264796383560289e-05 6.8057606831435689e-05 2.7346828686047224e-05 4.9510037022528278e-05 3.6659480149975852e-05 2.2441561823611719e-05 -1.1674962771972281e-05 0.00010729517835210905 -3.1446679121728657e-05 0.00033527076257596953 0.00010761960567602104 0.00018955541252255962 9.9533984235865617e-05 0.00013744997904193606 1.3690588135352282e-05 2.3871542547905944e-05 1.6648770937132089e-05 5.5290039766984486e-05 4.7978664631034054e-05 0.00037002525380069992 1.2579044394532893e-05 0.00011231385450342754 6.9598878382977607e-05 7.9283750878190822e-05 4.8771832040950865e-05 8.7965881151594251e-05 -5.3751312378044324e-05 5.2880145505361173e-06 0.00020809276862390411 0.00015735321234337845 1.205593943947713e-05 6.2311816718201105e-05 0.00013820415737056914 5.4854644078648936e-05 6.7617595894405068e-05 1.2642946602159279e-05 -3.3786638553714264e-05 -4.3618671175151083e-05 6.8440951997324724e-05 0.00013244103691795682 -2.4497915131762693e-05 -2.2415387997256727e-05 3.1403992193533087e-05 -3.7554551703221681e-05 -5.0225233358834265e-05 5.0683866562088514e-05 5.1647091371183828e-05 0.00024416629731357576 6.1429695882554377e-06 4.4895315231656733e-05 7.3128030021865035e-05 8.2183994134779267e-06 -4.1700390103081278e-05 -3.4451388254087245e-05 1.9968550231943093e-05 7.8750173350330011e-05 3.199628938559216e-05 2.7746684541208211e-05 3.2802818114913185e-05 -5.6134552847330508e-07 7.6256222046037938e-05 3.9047000583544546e-05 3.2783943157027861e-05 3.2976608278697842e-05 7.0402147930801622e-05 7.3065256368896956e-05 7.8113907321606616e-05 9.8105167233198491e-05 0.00027937941965747604 6.4328378543950307e-06 -3.3938660208019181e-06 0.00025891328152724113 0.00013006546185207466 2.3656740341494603e-05 1.8644801833570237e-05 0.00013357664373172488 0.00012054829263763878 6.4227948645354362e-05 7.203078733365796e-05 3.8525696920278405e-05 8.7037151256525304e-05 -1.5238611630087606e-06 0.000142748204707349 -5.5675328999021722e-05 -8.9119144103681419e-05 7.6747044434585462e-05 0.00016461448738531526 5.9629604161740989e-05 6.01315289810611e-05 5.282105869624011e-05 3.445151745090809e-05 9.201044735825982e-05 1.8304449990855081e-05 7.871469438140927e-05 4.7097273006539643e-05 6.306941303785014e-05 6.068214769002785e-05 5.2985030760075878e-05 -8.3974460540044366e-05 3.8864093704665446e-06 1.2306597520227104e-05 4.9786842105137047e-05 -5.6063230984728383e-05 -3.9363386738671763e-05 -4.2011744289278485e-05 -6.6887782892176121e-05 -5.9756098120916667e-05 5.0799523668620483e-05 -5.1476453487958834e-05 0.00012105736789757085 6.8744225362238058e-05 6.077436386353726e-05 8.2255229289433622e-06 6.5515412141098741e-05 7.6456039722746781e-05 4.684399965008035e-05 5.7489389489453146e-05 1.3991649537916673e-05 8.3580044919069992e-06 3.5131963881541843e-05 -2.097707011326319e-06 6.5441665871789848e-06 2.8633809508414052e-05 3.4575348564066614e-05 2.4886730308382316e-05 2.2536010748832975e-05 1.644737200369052e-05 5.3448581071403397e-05 3.4843600843383963e-05 1.7554618590205431e-05 8.0211261074988703e-05 1.4999221157017561e-05 2.0971195371909582e-05 -4.167237187384618e-05 -3.4432021819373346e-05 0.00018411460614681149 2.8509703042472255e-05 6.8436809374282555e-05 4.009556931854931e-05 -4.8364871746090353e-05 -7.6724819093821109e-05 4.8522123216281586e-05 -3.6881238071494459e-05 -3.8448498697306068e-05 -4.2396773268784228e-05 -1.7417341969472756e-06 1.1876778938187978e-05 -1.5472309344038602e-06 4.3378788042442232e-05 0.00013227214181828293 2.6692421462156876e-07 3.3234915905354517e-05 2.0215395348549381e-05 3.6665578950500309e-06 -9.6689270963189476e-07 3.1823811294871964e-05 3.5528719732005849e-05 2.9248352260061779e-05 0.00010331730577507292 0.00014739289766873032 5.2050817777634975e-05 3.3279654575869844e-05 3.8982909190525615e-05 7.4069970198010864e-06 8.8744687039743432e-05 5.3211743576981241e-05 1.5420360093119763e-05 3.0248754289136006e-05 -5.0093376427513173e-05 -7.2503892199144704e-05 6.0549231164345118e-05 -7.9835016499631546e-06 -4.0896970325892819e-06 -0.0001004455149755905 -5.8816167919631759e-05 0.00017118984398226155 0.0003689341605492981 3.2588230896622684e-05 1.0682969294630159e-05 9.7828381599288395e-05 2.9839824729563868e-05 2.8178886006131086e-05 -1.2074218426449284e-05 4.1290989544040925e-05 -8.1570264364443592e-05 2.671446064952173e-05 5.6558449818957211e-05 4.0393353349057043e-05 2.8921271487814058e-05 4.4144848924710926e-05 5.3772984419146798e-05 -1.3383744586840369e-05 7.6998555453963637e-06 -5.2901542474833663e-05 5.3324052934932472e-05 4.8120550265401949e-05 4.2958514282477774e-05 1.4741089818467957e-05 9.5863433684767785e-06 0.00015885685187037223 4.0969729196605909e-05 2.6812567241837452e-05 3.2702562706861128e-05 0.00011987024975058919 -2.7712087808555052e-05 3.2734098594070247e-05 -7.4784533346359543e-05 -4.9480422952604337e-05 -4.9146664418262508e-05 2.8462702834667357e-05 6.5604030974129326e-05 6.0554174238102153e-05 7.8399122580995043e-05 3.6770028710852782e-05 3.7131324782699142e-05 5.1704744508499195e-05 2.82332929665851e-05 6.0834366377258895e-05 0.00010744210855470442 3.5862222172687586e-05 1.7656450315736531e-05 6.2230265561692786e-05 -1.7221102908751334e-05 -2.0375090640956973e-05 -3.4013601173062233e-05 -4.5258356573089041e-05 -1.8954719432045684e-05 1.6567766875537037e-05 0.00017436280293715487 -2.1711061883501317e-05 -1.9377887182539927e-05 4.7586768839392855e-05 -1.6556810504175726e-06 1.9119889249676205e-06 -4.8272815725813795e-05 -5.25825744160445e-05 0.00012378458225403843 1.4717206027821134e-05 7.2932756513387524e-05 3.0840050739646286e-05 4.5926080920621434e-06 0.00012556923411578293 0.0002199492569449898 0.00010224285490713535 -3.047415492693831e-05 2.0806681557652713e-05 -4.3605107187692262e-05 3.8816497059741737e-05 1.3618511784565753e-05 1.4922436698422436e-05 -8.7031167103837699e-07 -1.3562291622642325e-05 -5.9845943332679461e-06 7.6012123243204355e-06 -3.3700913409610541e-05 -4.3240715920631534e-05 -2.0563088153203663e-05 -1.9011188130677125e-05 -1.091314965378361e-05 -1.101752122925326e-05 2.1862095537337558e-05 7.9166146410548325e-05 4.0263615833682691e-05 2.790322941789887e-05 6.6578713850507214e-05 -9.5264231686558408e-06 -7.9237289875070037e-06 3.7802297211432902e-05 4.4847861530627206e-05 -4.8556117840073583e-05 9.6324912584247599e-05 -3.6854737386522729e-06 6.1102605416834502e-05 -5.0845405590566983e-05 -3.5307803268037616e-05 5.9478118222477816e-05 3.2170867700988946e-05 3.6221457836998149e-05 -5.2519196367579467e-05 -3.7991052272806651e-05 7.2657858086024374e-05 2.1009481189711125e-05 5.9014990284321153e-05 -2.5479309252195264e-05 -1.2310591576365991e-05 4.4428098764561927e-05 4.4965083757156485e-05 9.8044602019448058e-06 1.5843700152486258e-05 4.6663587062392036e-06 4.4154501989751292e-06 4.7065721890633206e-05 7.0333684077352021e-05 5.0727685825525762e-05 8.6160320114457567e-05 -3.7065108110349854e-07 7.983890175915177e-05 5.3060532688164761e-05 6.829099393882412e-05 1.7215790831472035e-05 4.4522643979319921e-05 -2.5429157407121215e-05 -2.3166419276948722e-05 3.5540174794333442e-05 0.00014420627730085808 0.00024957039154752439 5.1457680895734393e-05 5.9259099817264598e-05 4.0782356231071175e-05 4.7908612780464543e-05 5.4274055512772102e-05 1.1214422245174539e-05 8.8780749632669904e-05 9.0555586925288511e-05 0.00016326414459447831 0.00010103130675830725 1.4630644445370834e-05 3.3368874639226472e-05 4.1230120529681345e-05 9.7698390808106592e-05 1.1109959953344278e-05 -1.2061307708321228e-05 -1.3669653012127859e-05 9.2113367013089194e-05 -3.9304455859351923e-05 -3.0732054724207767e-05 -7.8547699270074128e-06 0.00011049197852635575 8.5315956553426873e-05 5.4318089086086304e-05 5.3364422438876603e-06 6.7245906487393135e-05 3.187852602295994e-05 -1.1925481792728846e-05 -1.6977219617372191e-05 7.5424899851844014e-05 0.00010077256866836772 0.00017359903081823813 5.5459360343224957e-05 5.6035080234742205e-05 0.00010890533732026267 7.5564925470657056e-05 0.00016790125527903817 1.7670219084249018e-06 7.0074502365454839e-05 8.5988159420017515e-05 5.0457726525840094e-05 6.7928067322289349e-05 2.6300982814211087e-05 -5.9357430917491259e-05 8.2638599734049183e-06 4.7623433115429509e-05 8.7117945329521246e-05 -9.6004334881446152e-05 2.9697001011074407e-05 4.1849639273370614e-05 4.0363229471587043e-05 -1.8229478600295277e-05 1.9627342850661639e-05 3.5462062707960197e-05 4.1695712123398701e-05 4.2415161539522826e-05 7.5593442830866045e-05 -2.0914764721010003e-05 0.00020891315000497982 -1.0044293062962963e-05 3.745683562276982e-05 4.0859414625299802e-05 9.6305569005465663e-06 8.2576574432999435e-05 5.0105015149718064e-05 4.4793077536564628e-05 3.7531462204620731e-05 -2.548228849300526e-05 2.1811996692613694e-05 3.8511005358789256e-05 -3.1807284568638878e-05 0.00016609075643505969 5.8690359776673862e-05 3.245915816206188e-05 3.0765586013216205e-05 3.5241988657733653e-05 8.3784673087502207e-05 7.6284323307217942e-05 4.0952109236172866e-05 3.5649991222175015e-05 -3.3591592657851096e-05 -2.3315864128046777e-05 4.2119083069982453e-05 -2.3238927133364517e-05 -4.8550186504321604e-05 9.6216446688531096e-05 0.0001629642369249376 6.1392108244324024e-05 4.9873088450200697e-05 0.00017448572004585648 2.8843454404414332e-05 5.3266313362842349e-05 0.00013605747694374511 3.199499816927497e-05 6.9078185253322426e-05 2.7093992339650291e-05 2.3994854684077127e-05 5.5406078156332268e-05 0.00015735699447551581 2.0302456799012065e-06 -7.626097246204636e-05 -0.00013282700764394014 0.00012447051829448308 -1.0549713621747195e-05 0.00015581795929657101 0.00019141863658420208 0.00032102281342935688 0.00026816888347111359 7.1374029862446362e-05 0.00012703756779021977 0.00018208958616526159 9.3888075981327654e-05 7.088114534194211e-05 0.00014249908154090069 3.0145376849543409e-05 1.6137761564161395e-05 7.8148605062878379e-05 3.4128130283616932e-05 0.00017989849976625773 1.1766362515390667e-05 8.2445450503341433e-05 2.1805074701894585e-05 0.00010312796488479202 6.0496757803599438e-05 3.6369754849065324e-05 4.0210585242255587e-05 3.0692203188633247e-05 6.7848942152298037e-05 -3.9352458557317862e-05 0.00010463714778093778 6.2747096410378989e-05 6.7451322623823302e-05 4.9402168968524867e-05 6.2233317685753435e-05 -0.00015461354114298215 -8.4204248311017305e-05 3.4084170867501593e-05 1.6993266633936059e-05 6.4112508451830307e-05 6.3215620083328458e-05 5.2827557099843458e-05 -4.2230706905484765e-05 -3.1338046021715048e-05 0.00014211943469356371 -2.4015282100812436e-05 -2.1685022572001417e-05 5.4286750433896408e-05 0.00015307312928339941 5.4962053609439011e-05 8.669785609120628e-05 5.456978046948077e-06 -5.3928642130181106e-06 -6.4605495577145438e-05 -0.00010106662337031919 1.6697627586869279e-06 8.2666108472848336e-05 5.6203368213903396e-05 6.2331578461939275e-05 5.7755706300689937e-05 9.0138740952402702e-05 9.0392948017933725e-05 7.9122362081454926e-05 3.943818002884506e-05 6.0330623774528761e-05 0.00012934959886555961 -5.6998854303531209e-05 -8.4734111166863806e-05 1.2458397460614985e-05 0.00011249485656691699 4.6114002145976572e-05 -2.4126526132750342e-05 -2.0254067340276679e-05 2.0939065895952781e-05 6.3326410545819437e-05 0.00012218502934274907 1.9032224337911359e-05 -1.8733069233032446e-05 9.0636073476691803e-05 8.426205716678052e-05 6.9016069936643449e-05 5.1391045327011265e-05 4.3820039840961921e-05 6.4307018532292542e-05 0.00027354691991785841 1.1831079488409252e-05 0.00015978690708593336 1.973756743525951e-05 4.7771307869374417e-05 3.8623930013847535e-05 4.1904562552138049e-05 -6.5683125016192969e-05 -8.4049579264012538e-05 3.1185264203879647e-05 1.3418730603704789e-05 8.6405641247002123e-05 -1.7584564988508895e-05 -9.62329243683887e-06 -5.209811647616098e-06 -2.1277885698146992e-05 -2.4658358611868384e-05 -6.473866038731943e-06 2.404265340401017e-05 1.9889566182165772e-05 1.3135404267824107e-05 1.0903997298027432e-05 8.3252737964912941e-05 1.3800868951789873e-05 -9.4140543641998162e-07 1.1708253943595471e-05 2.8377931127928433e-05 -1.060968640479139e-05 -5.1149677238989434e-06 8.0421157607756769e-05 3.2581633852022537e-05 -1.0960194894204428e-05 -1.5920288742543161e-05 0.00010737080027577896 2.4791302535969069e-05 4.5158438402381973e-06 7.1685809856873446e-05 4.8609781361516689e-05 4.2726567972393351e-05 -5.0003558621716439e-05 -3.7114194495807925e-05 7.064339938191302e-05 4.6656602662955519e-05 2.3844657372531742e-05 -3.0672750160312212e-05 -3.6136092861368749e-05 2.8929916569306693e-05 4.2907338428761917e-05 1.5964486774329922e-05 4.9803941438975778e-05 3.3956995377908188e-05 0.00017778546556475571 7.1569042670270859e-06 -3.2128471771297566e-05 0.00010798206450206098 9.1725566983796684e-05 -1.1870188926886144e-05 6.9841464221790441e-05 -5.6636274469619793e-05 -9.4216509848405865e-05 -5.6884260106739322e-05 -9.6661485779129326e-05 -3.1879479128740708e-05 -3.8694637879864231e-05 4.971784627384443e-05 6.1287022505610424e-05 0.00010466473271672375 0.00019481340910359373 9.6804337504299549e-05 0.00016640803919407447 8.3080530264091016e-05 2.0029140367030693e-05 6.2383168272638366e-05 4.875159297710021e-05 6.3120293661832812e-05 -7.6040218227873581e-05 6.0350191408025948e-05 0.0001868048423820666 0.00017225500038779164 9.0371956731795247e-05 -0.00011036529444756964 -6.4019339484981655e-05 6.0416247372685391e-05 -1.8798337271219191e-05 -3.5296136125613151e-06 5.5275848397748784e-05 5.8325861241544933e-05 0.0001203219656739779 -1.3263386798056595e-05 7.7611995471932858e-07 9.1022193207627452e-06 3.4218491560084822e-05 3.3289110743917223e-05 2.292602036492599e-05 1.7633685757910498e-05 9.7557781339881969e-06 4.6182023181861561e-05 -9.8338385538617164e-06 -7.9910682715214845e-06 -4.6251325010805949e-05 -7.9847542602208468e-05 -2.7311369934876511e-05 4.01224198536169e-05 7.0332791278550051e-05 -4.6201007568303135e-05 -8.4343204937802231e-05 3.3827716906301007e-05 0.00011853771303864136 -6.7403504854713378e-05 -0.00012184502604692221 1.7556308277848594e-05 -2.7612959951593441e-05 -6.5297456108519004e-06 0.00020385832041807978 -7.1630501779370404e-05 -4.6992555531540068e-05 5.053373201143992e-05 3.9989812209354175e-05 6.0471790051032832e-05 3.6801487957885383e-05 5.1732097132396892e-05 0.00018618110376206957 -2.6303900138781582e-05 2.4318601101739015e-05 0.00017905934850423032 -3.8823956036382666e-05 -0.00015637534635290273 -8.6164217154449218e-05 7.2977253825332649e-05 -2.5881398625535499e-05 -3.9041522657066289e-05 0.00011186335022729172 -2.0802246734841212e-05 4.7402323133511503e-05 0.00022773517209283105 -1.0920071309823698e-05 4.3269505449166051e-05 6.0241926389465893e-05 1.6651504726655558e-05 -1.1272273774395186e-05 0.00010578458030948952 6.4011273188078354e-06 0.00010712586360044462 -4.4015866531365357e-05 2.0943843491568631e-05 -2.3416546273697637e-05 -4.8468750498484401e-05 -5.1270979933750561e-05 -3.603660357561911e-05 -2.1787728279882039e-05 1.0255122969761709e-05 -9.6312565901845277e-07 -4.8444511946933199e-06 2.3448077916597514e-08 3.4478268364909956e-05 9.222385586764855e-05 5.0705616533865353e-05 4.9227037193509335e-05 4.8595948482129986e-05 0.00012825854783792066 6.6797970791583139e-05 -8.8041040136029123e-05 -0.00016244065040046669 9.4834718542952427e-05 0.00015098516101362406 -1.4092134533671041e-05 3.1457552319270039e-05 1.7073628859284271e-05 2.4103832717487314e-05 0.00014171090014049634 -4.1168162236595898e-05 -3.1261195719305323e-05 -3.8907740666953231e-05 -5.9271908961453979e-05 -7.5209695069398648e-05 0.00013451062069034527 8.299607543754803e-05 6.0963129429012638e-05 -1.5624755313770077e-07 5.2793247671732577e-05 -2.9771082463432262e-05 0.00012081680467896207 2.4371279003968787e-05 4.9074727281513575e-05 0.00017542189083929153 -0.00013077504332675762 3.586837898625813e-05 -1.0572871408129479e-05 -5.5716947656136702e-06 4.9722845928911605e-05 -5.4411117131933254e-05 -8.8444861563917522e-05 0.00015697782023270032 -1.7173224458121028e-05 0.00011571714967303258 5.6953299520150403e-05 8.7193410783598276e-05 3.6188930935236423e-05 3.3507066294544293e-05 1.1479215001564976e-05 0.00014271263659011919 0.00013450877203398539 -1.535458098256802e-06 -6.0068574293777391e-06 0.0001060708213660444 0.00011932820890935524 8.7724425649277939e-05 0.00012180648801566815 3.6569718921521688e-05 0.00013846209061409945 0.00011132771716439958 -4.1750150377847881e-05 -5.0594181539363346e-05 -8.1542053792847116e-05 8.0309352090048068e-05 8.8740433063903688e-05 3.4617460118264925e-05 2.8529239498800258e-05 -8.0220911348814544e-05 -4.9443892399049108e-05 -3.7849664259181924e-05 0.00017438536405108961 -1.4537729846867634e-05 3.1062178076501971e-05 4.3081670950703758e-05 -1.1347021368549601e-05 8.2947433685756853e-06 4.1297776827318625e-05 7.3171678927945433e-05 -1.0127926084916021e-05 -4.1228148936697101e-05 -6.6824643973624693e-05 4.1605492599605751e-05 5.188758808897403e-05 -2.579236170916892e-05 -1.6556064745131953e-05 3.1989778471544044e-05 -4.8393383912317148e-05 -4.044258204260065e-05 -8.7507665312743408e-09 1.0486885194547525e-05 3.2730474880089408e-05 0.00017164777749043285 0.00017187513413780646 -4.8215254125870939e-05 0.00015671770462933753 0.00013814538514286194 -5.8849819204844834e-06 1.4905348467352074e-05 -5.5753913755598062e-05 6.1048005298102264e-05 0.00014710896620170815 3.863102843246663e-05 -6.0210653104258915e-05 -0.00010034194687477021 -1.3766764154226566e-05 8.3584144963878186e-05 5.1666558092834333e-05 8.3544999535765352e-05 -3.286882045440553e-05 -4.0996483164459314e-05 -4.9322808125966962e-05 6.9174874989221457e-05 -2.0112156219796214e-05 0.00010975472625184983 4.1647589477970813e-05 6.0719200315238232e-05 -5.9456571954254813e-05 -0.00010176801305396179 -3.8848001257439944e-05 3.498184973096068e-05 6.9108030219863954e-05 -9.8368570947420138e-07 4.0480233599188026e-05 -1.587957057038656e-05 -1.1384757514320442e-05 4.0991457519461052e-05 3.151364601696721e-05 -6.27874228827539e-05 -0.00011348896645410161 -2.9095601050143987e-05 0.00017829507686914904 0.00015557615955277392 -2.6518073778144732e-05 0.00021480638080564884 8.9907790283863379e-05 3.8451190609469508e-05 0.00017510405434222401 0.00029596258429673056 -3.0028123296806119e-05 -1.0516574403782059e-05 3.8790332938279674e-05 -2.0014028507945193e-05 6.6657591396155052e-05 3.7630894481441238e-05 5.8248440915094205e-06 0.00017507496626497591 1.4643278571661671e-05 7.0665957559850343e-05 7.8085075222463467e-05 0.0001134360685372789 0.00014942490631153927 0.00025496274973777259 0.00019593368598700662 7.5532567214074613e-05 6.9940187064744552e-05 0.00012095918710061752 -2.2727338330265768e-05 -2.6496904654076485e-05 -1.3934676690120217e-05 1.4583594631219785e-05 8.6665866354621382e-05 0.0001523100717541314 4.2634156772873368e-05 2.4557628620341249e-05 2.4790427731177657e-05 4.758853513169985e-05 3.1902320440330893e-05 5.4424103425724547e-05 7.1282519550280551e-05 1.31998987476183e-05 0.00023707014990552439 3.2345631800081785e-05 -2.7530422244017748e-05 8.5628237571403441e-06 0.00033078270521357499 0.00028954500505419084 0.00017078033336774632 1.4618295095912212e-05 1.0539714327464266e-05 0.00019740526603784746 1.7820659442812845e-05 3.116837540423554e-05 4.3767528570497446e-05 -8.3838810435027931e-06 -7.5682389645210287e-06 2.4979361592593079e-05 3.0785590242657021e-05 4.4433272968152394e-05 0.00012013417784957755 0.00021682961784126164 8.9678402721650235e-05 -4.7906821934763915e-06 7.3218519059387163e-05 0.00015066363116667545 2.6581837218864137e-05 4.0017917294425232e-05 4.8034681450091852e-05 2.4933881956519521e-05 9.0716614534098647e-05 9.8023057924596468e-05 9.0176759754430116e-06 3.6368116770767265e-05 7.5052161450399476e-05 4.5813683744479495e-05 0.00010389004159460724 0.00013264495111585373 0.00010237514143993662 -2.023071172727604e-05 5.3995545200901997e-05 6.2673474124714778e-05 0.00024268930584088425 0.00022513969779992682 0.00018828301476613105 8.3015311521704893e-05 -3.7261243803992858e-05 7.1455420320298694e-06 -2.390111559922461e-05 -2.1796117639120849e-05 4.1108974352146451e-05 -3.1777266465721427e-05 -3.6511552277019381e-05 -3.9575099798683565e-05 -4.6266977447863229e-05 1.4665631558630394e-05 3.8157621101555631e-05 0.00013587377413103088 0.0001030326887197869 0.00011342705649706802 4.4297479388246005e-05 2.1806978905887615e-05 9.5745365235014581e-05 0.00016347820029046615 1.207738828770754e-05 6.2902917262608413e-05 0.00010056788869363862 -4.1846416355860046e-05 -5.3072695889690391e-05 -4.7150381169733995e-05 -3.7738709216867299e-05 3.1004601454071067e-05 1.0378338099389595e-05 4.5797353503717708e-05 4.5652239682047947e-05 1.9961372645931684e-05 3.0758406957848496e-05 3.0134469158564449e-05 0.00014716959693178886 0.00040005513834917843 -4.6526187767962767e-06 0.00011856974435764053 6.3205748613758537e-05 3.9974380943815447e-05 0.00016277297621527641 -1.0942297815623621e-05 0.00011673348198306397 8.8938532936358775e-05 3.4127325300786424e-06 6.8716606494635679e-05 5.9617659470497398e-05 4.6090328701050252e-05 0.00015369556618244085 2.7642232963909574e-05 4.9645920369431021e-05 9.0968548231005854e-07 6.8598564141060644e-06 4.4914593553931629e-05 3.2122616377268333e-05 1.8101938569713331e-05 2.666324400111376e-05 2.2571333955288693e-05 4.4758573057363926e-05 7.3280295350492764e-05 0.00012589494176515619 8.600027052891679e-05 0.00017847742165355562 0.00016121483060073036 1.3308300099240666e-05 9.4634748530660322e-05 2.4853739673574588e-05 -1.7320916940472691e-06 5.5859491289735139e-05 5.0153414314775893e-05 5.7184950176859922e-05 0.00013204424451156334 2.0028795315192235e-05 3.4156050163335755e-05 7.3747851635026264e-05 4.9263732387122431e-05 7.0452993931059699e-05 0.00016304266604509919 0.00027619515484898142 3.3357332332171479e-05 -2.9073196393253342e-05 -2.1984945369369659e-05 4.2934397110610596e-05 3.4003432875931998e-05 3.972562721361399e-05 5.8832735217546181e-05 1.040131448729574e-05 4.6446287420149213e-05 3.7629745311765824e-05 -3.3944681550557919e-05 -4.616537929602146e-05 -3.4515801951388506e-05 -2.8976345412657408e-05 3.8397563861604589e-05 -2.6482067718842234e-05 7.4032366741792668e-05 6.3643246287874589e-05 -3.9647249889640903e-06 4.9755371553979573e-05 3.8658579890237373e-05 3.3970043857686541e-05 -2.1383804962505989e-05 -1.0255328057863456e-05 -1.0328763050383933e-05 0.00010725550899096326 -1.1397454330342729e-06 7.8458083796075981e-05 -1.5116197229917777e-05 2.7995899115227995e-05 -5.1903087204077138e-06 0.00012672012864627785 0.00021565561232017474 2.4177689024933076e-05 2.0419851293774008e-05 1.8182669041435368e-05 0.00011791930780149628 0.00013198681380327103 0.00022143695455405232 1.2115349132184143e-05 0.00020634746406607979 9.513103482745866e-06 5.2322860476270361e-05 5.6493978156459818e-05 4.9087196118813205e-05 4.3012363894663142e-05 4.893539622431004e-05 0.00013200514892545826 2.674964082949934e-05 1.911397321167129e-05 -6.3048614662709372e-07 -2.9141677261227024e-05 1.5183429688587005e-05 0.00010425567980122974 0.00010339407573572447 0.00011700270543759002 0.00012809931109208689 -3.0579902428037116e-06 -2.4827230718291854e-05 8.6700112957966433e-05 9.3596822858950062e-05 5.2780183315453955e-05 3.0181565526796881e-05 3.8963698906548649e-05 5.2830144115867183e-05 0.00020678889532966659 -1.2480771115330053e-05 -1.6438399914401e-05 2.9169229744269475e-05 0.00016708456234972371 4.573838178518184e-05 7.5694697354071689e-06 -1.1726562193653253e-05 6.941982802092855e-05 
</DataArray>
</CellData>
</Piece>
</UnstructuredGrid>
</VTKFile>
