<?xml version="1.0"?>
<VTKFile type="UnstructuredGrid" version="0.1" byte_order="LittleEndian">
<UnstructuredGrid>
<Piece NumberOfPoints="3142" NumberOfCells="1054">
<Points>
<DataArray type="Float64" NumberOfComponents="3" format="ascii">
0.5 0.29999999999999999 0 0.54999999999999993 0.29999999999999999 0 0.54999999999999993 0.29999999999999999 0 0.59999999999999976 0.29999999999999999 0 0.59999999999999976 0.29999999999999999 0 0.6499999999999998 0.29999999999999999 0 0.6499999999999998 0.29999999999999999 0 0.69999999999999984 0.29999999999999999 0 0.69999999999999984 0.29999999999999999 0 0.74999999999999989 0.29999999999999999 0 0.74999999999999989 0.29999999999999999 0 0.79999999999999982 0.29999999999999999 0 0.79999999999999982 0.29999999999999999 0 0.84999999999999987 0.29999999999999999 0 0.84999999999999987 0.29999999999999999 0 0.89999999999999991 0.29999999999999999 0 0.89999999999999991 0.29999999999999999 0 0.94999999999999996 0.29999999999999999 0 0.94999999999999996 0.29999999999999999 0 1 0.29999999999999999 0 0.5 0.69999999999999996 0 0.54999999999999993 0.69999999999999996 0 0.54999999999999993 0.69999999999999996 0 0.59999999999999976 0.69999999999999996 0 0.59999999999999976 0.69999999999999996 0 0.6499999999999998 0.69999999999999996 0 0.6499999999999998 0.69999999999999996 0 0.69999999999999984 0.69999999999999996 0 0.69999999999999984 0.69999999999999996 0 0.74999999999999989 0.69999999999999996 0 0.74999999999999989 0.69999999999999996 0 0.79999999999999982 0.69999999999999996 0 0.79999999999999982 0.69999999999999996 0 0.84999999999999987 0.69999999999999996 0 0.84999999999999987 0.69999999999999996 0 0.89999999999999991 0.69999999999999996 0 0.89999999999999991 0.69999999999999996 0 0.94999999999999996 0.69999999999999996 0 0.94999999999999996 0.69999999999999996 0 1 0.69999999999999996 0 0.40076539126862748 0.34589349467022118 0 0.33277555741076909 0.36432196682010132 0 0.36575549820117997 0.31677992835137742 0 0.38083244760691543 0.38531983672244652 0 0.33277555741076909 0.36432196682010132 0 0.40076539126862748 0.34589349467022118 0 0.56836770495988642 0.3523062350852913 0 0.52289427570932567 0.3932284363388488 0 0.52752007115234678 0.33170632466418198 0 0.52752007115234678 0.33170632466418198 0 0.52289427570932567 0.3932284363388488 0 0.49077833859261139 0.35229981449445641 0 0.10000000000041601 1 0 0.053064897599294662 0.95186845269532028 0 0.10266856499240549 0.95548163909968886 0 0.099999999999814668 0 0 0.10266856499169109 0.044518360900210059 0 0.053064897599215843 0.048131547304697528 0 0.050000000000207989 1 0 0.053064897599294662 0.95186845269532028 0 0.10000000000041601 1 0 0.049999999999899652 0 0 0.099999999999814668 0 0 0.053064897599215843 0.048131547304697528 0 0.24999999999941211 0 0 0.29999999999926641 0 0 0.27499999999933927 0.060310814194988557 0 0.30000000000124832 1 0 0.25000000000104028 1 0 0.27609987656793722 0.94991445621608572 0 0.15720202157091859 0.60665697304410315 0 0.19914261668318661 0.62286739485272158 0 0.16500388252850301 0.66612077714085194 0 0.2236846579037573 0.67380363126050236 0 0.16500388252850301 0.66612077714085194 0 0.19914261668318661 0.62286739485272158 0 0.1247745017231483 0.27198077544791172 0 0.168349569971391 0.28054490850913671 0 0.14223753364722069 0.3341983344262433 0 0 0.75000000000034661 0 0 0.7000000000006934 0 0.049706944316475897 0.72477277076253799 0 0 0.30000000000124832 0 0 0.25000000000104028 0 0.049706944316556423 0.27522722923869108 0 0.59999999999999976 0.29999999999999999 0 0.61959173890754571 0.33832250091341232 0 0.56836770495988642 0.3523062350852913 0 0.5 0.69999999999999996 0 0.43323420005758778 0.6913544522562407 0 0.47913475093885149 0.66010775372412711 0 1 0.14999999999961891 0 0.95391631417672862 0.19584263333809451 0 0.93677536231883773 0.14999999999999089 0 1 0.84999999999982645 0 0.95391631417670719 0.89584263333814784 0 0.93677536231884972 0.85000000000000286 0 1 0.84999999999982645 0 0.93677536231884972 0.85000000000000286 0 0.95386563387742829 0.80414874155775029 0 1 0.14999999999961891 0 0.93677536231883773 0.14999999999999089 0 0.95386563387744361 0.1041487415577465 0 0.90416666666660628 0.9041666666666166 0 0.88088768115933802 0.84674609810493673 0 0.93677536231884972 0.85000000000000286 0 0.90416666666668166 0.20416666666667119 0 0.88088768115941807 0.14674609810479519 0 0.93677536231883773 0.14999999999999089 0 0.1247745017231483 0.27198077544791172 0 0.14223753364722069 0.3341983344262433 0 0.093851963071650835 0.30582068233324772 0 0.5 0.69999999999999996 0 0.45582236402875981 0.73896743678908217 0 0.43323420005758778 0.6913544522562407 0 0.55000000000173355 1 0 0.50000000000205869 1 0 0.52122150208832174 0.94089974453840242 0 0.49999999999869432 0 0 0.5499999999988151 0 0 0.52375890611712683 0.059318771819432882 0 0.54999999999999993 0.29999999999999999 0 0.59999999999999976 0.29999999999999999 0 0.56836770495988642 0.3523062350852913 0 0.50202631463681879 0.87892870825713787 0 0.44003836461056539 0.88093474584252718 0 0.45677673713123867 0.84253684404072415 0 0.33403534827021109 0.84402799729020661 0 0.35864759629805099 0.87963482415279515 0 0.30864387279288652 0.89906554525974958 0 0.53245488764484505 0.55078124999999989 0 0.47793794143994173 0.52940715638744962 0 0.53330375813596242 0.50827942741749099 0 0.82709327591102189 0.14937141670914489 0 0.81283102246527783 0.1881007222486438 0 0.77144070960558853 0.14311854477243749 0 0.82709327591091286 0.84937141670920724 0 0.81159157511211755 0.88795995483179491 0 0.76901770135486491 0.84293557325473656 0 0.77144070960558853 0.14311854477243749 0 0.81283102246527783 0.1881007222486438 0 0.76587607630038135 0.18880039518954719 0 0.76901770135486491 0.84293557325473656 0 0.81159157511211755 0.88795995483179491 0 0.76891166905518427 0.88835469571185499 0 0.33403534827021109 0.84402799729020661 0 0.30864387279288652 0.89906554525974958 0 0.29209212897034281 0.84715728365233667 0 0.57412547362576272 0.58273804879550706 0 0.5166924242153631 0.59825134841919447 0 0.53245488764484505 0.55078124999999989 0 0.50202631463681879 0.87892870825713787 0 0.47401147028110507 0.91529957330468115 0 0.44003836461056539 0.88093474584252718 0 0.5 0.69999999999999996 0 0.54999999999999993 0.69999999999999996 0 0.55363780716230748 0.74348740161571747 0 1 0.34999999999993492 0 0.95871855522754235 0.40006508612975411 0 0.95780851984364423 0.34215720972155339 0 1 0.64999999999986979 0 0.9578014258160763 0.65787212321113708 0 0.95867599106212187 0.60011091146651041 0 0.46666084890304671 0.57634471035397938 0 0.47793794143994173 0.52940715638744962 0 0.53245488764484505 0.55078124999999989 0 0.94999999999999996 0.29999999999999999 0 0.89898474358614167 0.25391965591104898 0 0.94399509803921056 0.24399509803922639 0 0.94999999999979179 1 0 0.89898474358632463 0.95391965591118966 0 0.94399509803919068 0.9439950980391687 0 0 0.65000000000104008 0 0.050069554451969707 0.61308520079857043 0 0.046634677244967337 0.671418230738282 0 0 0.35000000000145642 0 0.046389130980076937 0.32668781832131749 0 0.050583896093752537 0.38543522283434112 0 0.50202631463681879 0.87892870825713787 0 0.50627822638148745 0.8263979829520941 0 0.55899371797446828 0.85003102233514438 0 0.54782696902220018 0.79245182748204157 0 0.55899371797446828 0.85003102233514438 0 0.50627822638148745 0.8263979829520941 0 0.50945740445113552 0.75476055527778108 0 0.5 0.69999999999999996 0 0.55363780716230748 0.74348740161571747 0 0.84999999999965292 1 0 0.85170973911348691 0.93569607295217616 0 0.89898474358632463 0.95391965591118966 0 0.84999999999999987 0.29999999999999999 0 0.8517097391133297 0.2356960729520409 0 0.89898474358614167 0.25391965591104898 0 0.86956835336234861 0.571283299838105 0 0.82862096804812391 0.55037090955459045 0 0.86907294890112186 0.52008116128001669 0 0.49102375406324739 0.49123754822244059 0 0.53330375813596242 0.50827942741749099 0 0.47793794143994173 0.52940715638744962 0 0.57611405284611883 0.50165903596042916 0 0.61547661924074692 0.48539576058873962 0 0.62042975506801734 0.54295974692364424 0 0.71406021706547751 0.63292083137662503 0 0.67529834988829951 0.61613270668143583 0 0.71809016091162536 0.58185040402320831 0 0.65000000000104008 1 0 0.62065498684670595 0.95224934003983619 0 0.68015064798562208 0.95924320340003011 0 0.84999999999960507 0 0 0.899991664607802 0.045289349238254978 0 0.85491058998398861 0.060047533455626502 0 0.84999999999999987 0.69999999999999996 0 0.89999166460796554 0.74528934923809909 0 0.85491058998424563 0.76004753345552634 0 0.89999999999999991 0.29999999999999999 0 0.89898474358614167 0.25391965591104898 0 0.94999999999999996 0.29999999999999999 0 0.94999999999979179 1 0 0.89999999999958358 1 0 0.89898474358632463 0.95391965591118966 0 0.86411095495256451 0.42388805655111889 0 0.81308179852519835 0.39754945808726527 0 0.86844634540301924 0.38530937474099819 0 0.5 0.29999999999999999 0 0.49695729691142171 0.25014895411178018 0 0.54248833945060504 0.2520322959927106 0 0.86411095495256451 0.42388805655111889 0 0.81973119833356312 0.43505687159469048 0 0.81308179852519835 0.39754945808726527 0 0.67323294229744413 0.57556450033612505 0 0.71809016091162536 0.58185040402320831 0 0.67529834988829951 0.61613270668143583 0 0.6236733212988993 0.14864538214901801 0 0.68391457121233579 0.14440470121196541 0 0.64011864159029941 0.18789607982138171 0 0 0.050000000000207989 0 0.053064897599215843 0.048131547304697528 0 0.044310582753132287 0.101412518374475 0 0 0.94999999999979179 0 0.0443105827531413 0.89858748162559932 0 0.053064897599294662 0.95186845269532028 0 1 0.34999999999993492 0 1 0.39999999999978308 0 0.95871855522754235 0.40006508612975411 0 1 0.59999999999973963 0 1 0.64999999999986979 0 0.95867599106212187 0.60011091146651041 0 0 0.84999999999965292 0 0.065374659239661639 0.8551091961254178 0 0.0443105827531413 0.89858748162559932 0 0 0.15000000000062411 0 0.044310582753132287 0.101412518374475 0 0.065374659239632718 0.1448908038746782 0 0.16500388252850301 0.66612077714085194 0 0.1020579365089687 0.69352219419301997 0 0.1241190223511371 0.64391885572885044 0 0.14999999999970359 0 0 0.14618258501891079 0.062070108745602003 0 0.10266856499169109 0.044518360900210059 0 0.15000000000062411 1 0 0.10266856499240549 0.95548163909968886 0 0.14617343800780541 0.93808063414349496 0 0.7152569930854884 0.5237994455134295 0 0.67569444444444449 0.53500863336860327 0 0.69385896817107129 0.48377516041410151 0 0.6541250972820879 0.49999999999999989 0 0.62042975506801734 0.54295974692364424 0 0.61547661924074692 0.48539576058873962 0 0.94999999999999996 0.69999999999999996 0 0.94399509803918602 0.75600490196082126 0 0.89999166460796554 0.74528934923809909 0 0.94999999999986839 0 0 0.94399509803922566 0.056004901960802607 0 0.899991664607802 0.045289349238254978 0 0.6541250972820879 0.49999999999999989 0 0.69385896817107129 0.48377516041410151 0 0.67569444444444449 0.53500863336860327 0 0.82862096804812391 0.55037090955459045 0 0.81723410853263523 0.59419663659258926 0 0.77151014687832564 0.54436834383023036 0 0.7250000000005199 0.89375000000045834 0 0.66412543161245952 0.88015090885499059 0 0.68697391633157634 0.84450604838764298 0 0 0.94999999999979179 0 0 0.89999999999958358 0 0.0443105827531413 0.89858748162559932 0 0 0.10000000000041601 0 0 0.050000000000207989 0 0.044310582753132287 0.101412518374475 0 0.16500388252850301 0.66612077714085194 0 0.15332765547575641 0.71200081858233666 0 0.1020579365089687 0.69352219419301997 0 0.90299850604011456 0.79563452813489832 0 0.93677536231884972 0.85000000000000286 0 0.88088768115933802 0.84674609810493673 0 0.90299850604006393 0.09563452813493091 0 0.93677536231883773 0.14999999999999089 0 0.88088768115941807 0.14674609810479519 0 0.68391457121233579 0.14440470121196541 0 0.6865991819015953 0.189116534044597 0 0.64011864159029941 0.18789607982138171 0 0.085622222639554768 0.53333248912060549 0 0.1216098864341134 0.50637075089503902 0 0.1154888278694548 0.56733818459978413 0 0.21858834311891909 0.81980263716112767 0 0.22556077506376701 0.77837424984191617 0 0.26104540868854792 0.81401944968719064 0 0.81723410853263523 0.59419663659258926 0 0.77293540622714185 0.59448302402785813 0 0.77151014687832564 0.54436834383023036 0 0.1154888278694548 0.56733818459978413 0 0.1216098864341134 0.50637075089503902 0 0.14934928745814749 0.55042914607228977 0 0.1216098864341134 0.50637075089503902 0 0.068743045408989428 0.48853989837882689 0 0.113541300460994 0.46208784312094731 0 0.078358742472063481 0.43365249433908948 0 0.113541300460994 0.46208784312094731 0 0.068743045408989428 0.48853989837882689 0 0.83573492347052902 0.36590755630746369 0 0.81308179852519835 0.39754945808726527 0 0.78145581580700685 0.34881365920033602 0 0.57611405284611883 0.50165903596042916 0 0.62042975506801734 0.54295974692364424 0 0.57435499076887508 0.54267261987897775 0 0.86956835336234861 0.571283299838105 0 0.81723410853263523 0.59419663659258926 0 0.82862096804812391 0.55037090955459045 0 0.46666084890304671 0.57634471035397938 0 0.53245488764484505 0.55078124999999989 0 0.5166924242153631 0.59825134841919447 0 0.89999999999999991 0.69999999999999996 0 0.94999999999999996 0.69999999999999996 0 0.89999166460796554 0.74528934923809909 0 0.89999999999973679 0 0 0.94999999999986839 0 0 0.899991664607802 0.045289349238254978 0 0.84999999999960507 0 0 0.89999999999973679 0 0 0.899991664607802 0.045289349238254978 0 0.84999999999999987 0.69999999999999996 0 0.89999999999999991 0.69999999999999996 0 0.89999166460796554 0.74528934923809909 0 0.43545892161006339 0.61093128915313821 0 0.4089290844030305 0.58728915500154233 0 0.46666084890304671 0.57634471035397938 0 0.1650278706801647 0.38791388161335733 0 0.1117088112799664 0.38831403004970022 0 0.14223753364722069 0.3341983344262433 0 0.087545339447545459 0.35122518864182262 0 0.14223753364722069 0.3341983344262433 0 0.1117088112799664 0.38831403004970022 0 0.6916490518212759 0.75387992374886192 0 0.72501250972655151 0.74067302935308721 0 0.72500000000000064 0.7952620967744265 0 0.72501250972655151 0.74067302935308721 0 0.75841349681148107 0.75422312624214749 0 0.72500000000000064 0.7952620967744265 0 0.57412547362576272 0.58273804879550706 0 0.53245488764484505 0.55078124999999989 0 0.57435499076887508 0.54267261987897775 0 1 0.54999999999963112 0 0.95867599106212187 0.60011091146651041 0 0.93732437411268477 0.55911392101136159 0 1 0.44999999999963131 0 0.93814194660195893 0.44426664081746747 0 0.95871855522754235 0.40006508612975411 0 0.4089290844030305 0.58728915500154233 0 0.42644501560315817 0.54603747078095544 0 0.46666084890304671 0.57634471035397938 0 0.89999999999958358 1 0 0.84999999999965292 1 0 0.89898474358632463 0.95391965591118966 0 0.84999999999999987 0.29999999999999999 0 0.89898474358614167 0.25391965591104898 0 0.89999999999999991 0.29999999999999999 0 0.29999999999926641 0 0 0.32541448401678508 0.046215317981507749 0 0.27499999999933927 0.060310814194988557 0 0.30000000000124832 1 0 0.27609987656793722 0.94991445621608572 0 0.32544832635163229 0.95485394099568932 0 0.57412547362576272 0.58273804879550706 0 0.62042975506801734 0.54295974692364424 0 0.63065402604362242 0.59661356661633302 0 0.5 0.29999999999999999 0 0.54248833945060504 0.2520322959927106 0 0.54999999999999993 0.29999999999999999 0 0.67323294229744413 0.57556450033612505 0 0.62042975506801734 0.54295974692364424 0 0.67569444444444449 0.53500863336860327 0 0.6541250972820879 0.49999999999999989 0 0.67569444444444449 0.53500863336860327 0 0.62042975506801734 0.54295974692364424 0 1 0.14999999999961891 0 1 0.19999999999974799 0 0.95391631417672862 0.19584263333809451 0 1 0.84999999999982645 0 1 0.8999999999998336 0 0.95391631417670719 0.89584263333814784 0 1 0.7999999999998193 0 1 0.84999999999982645 0 0.95386563387742829 0.80414874155775029 0 1 0.099999999999753911 0 1 0.14999999999961891 0 0.95386563387744361 0.1041487415577465 0 0.4656888918609538 0.78493261229743638 0 0.50627822638148745 0.8263979829520941 0 0.45677673713123867 0.84253684404072415 0 0.6879972333610942 0.43038561374960838 0 0.72622533758026719 0.40265885511101601 0 0.73483647259922602 0.44789725365921768 0 0.67323294229744413 0.57556450033612505 0 0.67569444444444449 0.53500863336860327 0 0.71809016091162536 0.58185040402320831 0 0.7152569930854884 0.5237994455134295 0 0.71809016091162536 0.58185040402320831 0 0.67569444444444449 0.53500863336860327 0 0.65394964615507722 0.22666784374016369 0 0.59814117807200873 0.23398510860739519 0 0.64011864159029941 0.18789607982138171 0 0.55000000000173355 1 0 0.52122150208832174 0.94089974453840242 0 0.57382506491224949 0.9629411906298494 0 0.39801143831225599 0.16651381068160659 0 0.44288491854585582 0.14116182884956319 0 0.42905200079338551 0.19982395548231649 0 0.47357141910802508 0.1873585799078378 0 0.42905200079338551 0.19982395548231649 0 0.44288491854585582 0.14116182884956319 0 0.90594285160987287 0.4141265964174129 0 0.88594198078881503 0.46167788676578442 0 0.86411095495256451 0.42388805655111889 0 0.65507451745379841 0.92229208810758578 0 0.68015064798562208 0.95924320340003011 0 0.62065498684670595 0.95224934003983619 0 0.35312867752657662 0.084946736076730367 0 0.39591832466117061 0.056982757562006353 0 0.39823268594401579 0.1116623613130045 0 0.43698630808430822 0.080423614171545449 0 0.39823268594401579 0.1116623613130045 0 0.39591832466117061 0.056982757562006353 0 0.4367309254023824 0.92065556789053882 0 0.39641108128798319 0.94356127926187128 0 0.39767323751400468 0.89584229130535065 0 0.35752321586431363 0.9185439911803448 0 0.39767323751400468 0.89584229130535065 0 0.39641108128798319 0.94356127926187128 0 0.77354604466818633 0.40378688774472771 0 0.77972660463949339 0.45529290596363098 0 0.73483647259922602 0.44789725365921768 0 0.5499999999988151 0 0 0.57396793757665954 0.037011367187645222 0 0.52375890611712683 0.059318771819432882 0 0.64753070846764316 0.77332939069435502 0 0.60294066490120068 0.80851322453934582 0 0.59636844454254345 0.75937156204589151 0 0.49102375406324739 0.49123754822244059 0 0.48858720058566618 0.43964267759203868 0 0.53823865529665704 0.45873898050322898 0 0.28307294598219601 0.50789252727458634 0 0.29110487519241501 0.56588143995431495 0 0.25115337790845271 0.54719303014923271 0 0.79680861578988083 0.92656778056766709 0 0.81159157511211755 0.88795995483179491 0 0.85170973911348691 0.93569607295217616 0 0.79680861578956375 0.22656778056752541 0 0.81283102246527783 0.1881007222486438 0 0.8517097391133297 0.2356960729520409 0 0.57412547362576272 0.58273804879550706 0 0.57435499076887508 0.54267261987897775 0 0.62042975506801734 0.54295974692364424 0 0.93814194660195893 0.44426664081746747 0 0.88594198078881503 0.46167788676578442 0 0.90594285160987287 0.4141265964174129 0 0.7152569930854884 0.5237994455134295 0 0.73947346780852752 0.49062440112282169 0 0.77151014687832564 0.54436834383023036 0 0 0.7000000000006934 0 0.046634677244967337 0.671418230738282 0 0.049706944316475897 0.72477277076253799 0 0 0.30000000000124832 0 0.049706944316556423 0.27522722923869108 0 0.046389130980076937 0.32668781832131749 0 0.59814117807200873 0.23398510860739519 0 0.59443395090188023 0.18455690917515069 0 0.64011864159029941 0.18789607982138171 0 0.21858834311891909 0.81980263716112767 0 0.26104540868854792 0.81401944968719064 0 0.2401283238295133 0.85648409884788523 0 0.39536230704883951 0.84069429572832477 0 0.45677673713123867 0.84253684404072415 0 0.44003836461056539 0.88093474584252718 0 0.086179601630648681 0.64647209519980475 0 0.050069554451969707 0.61308520079857043 0 0.1024350934457823 0.60772393977513839 0 0.077693244765132896 0.56932317963405099 0 0.1024350934457823 0.60772393977513839 0 0.050069554451969707 0.61308520079857043 0 0.078358742472063481 0.43365249433908948 0 0.050583896093752537 0.38543522283434112 0 0.1117088112799664 0.38831403004970022 0 0.087545339447545459 0.35122518864182262 0 0.1117088112799664 0.38831403004970022 0 0.050583896093752537 0.38543522283434112 0 0.33403534827021109 0.84402799729020661 0 0.35642984951668422 0.80994399665655703 0 0.39536230704883951 0.84069429572832477 0 0.28307294598219601 0.50789252727458634 0 0.33190227185843768 0.52715113583864037 0 0.29110487519241501 0.56588143995431495 0 0.2236846579037573 0.67380363126050236 0 0.19068556247388771 0.71028988922845504 0 0.16500388252850301 0.66612077714085194 0 0.26104540868854792 0.81401944968719064 0 0.22556077506376701 0.77837424984191617 0 0.2792923945214143 0.77665808831789485 0 0.38244435121258652 0.51653317813019495 0 0.37272913873093971 0.56192925302619479 0 0.33190227185843768 0.52715113583864037 0 0.25195515620380449 0.25883339815888678 0 0.29132859388405002 0.27203693976649962 0 0.24432083401701241 0.3006253385567515 0 0.29348325746214782 0.31350119524708198 0 0.24432083401701241 0.3006253385567515 0 0.29132859388405002 0.27203693976649962 0 0 0.89999999999958358 0 0 0.84999999999965292 0 0.0443105827531413 0.89858748162559932 0 0 0.15000000000062411 0 0 0.10000000000041601 0 0.044310582753132287 0.101412518374475 0 0.59999999999999976 0.69999999999999996 0 0.59636844454254345 0.75937156204589151 0 0.55363780716230748 0.74348740161571747 0 0.1650278706801647 0.38791388161335733 0 0.22033343844674469 0.36963382230740238 0 0.191953871957803 0.42546416763755879 0 0.52289427570932567 0.3932284363388488 0 0.46655310992796922 0.39650496622958609 0 0.49077833859261139 0.35229981449445641 0 0.91696753777131557 0.497780560203536 0 0.88594198078881503 0.46167788676578442 0 0.93814194660195893 0.44426664081746747 0 0.24999999999941211 0 0 0.27499999999933927 0.060310814194988557 0 0.22668068146512929 0.045875643423131329 0 0.25000000000104028 1 0 0.22850979588452081 0.95594428570238643 0 0.27609987656793722 0.94991445621608572 0 0.77846603114747959 0.49850927265137401 0 0.77151014687832564 0.54436834383023036 0 0.73947346780852752 0.49062440112282169 0 0.27499999999933927 0.060310814194988557 0 0.27474541102162192 0.11822029332053539 0 0.24218496799700481 0.089025544070598317 0 0.27270076654418179 0.87751467830216623 0 0.29209212897034281 0.84715728365233667 0 0.30864387279288652 0.89906554525974958 0 0.3096713403101819 0.085471541595262421 0 0.27474541102162192 0.11822029332053539 0 0.27499999999933927 0.060310814194988557 0 0.17933913398461551 0.2350063570234002 0 0.18124454140915969 0.18790916706335251 0 0.224700362040408 0.22206622194729711 0 0.18269480424590959 0.75905448272264375 0 0.22556077506376701 0.77837424984191617 0 0.17777405986036951 0.81832336108265358 0 0.35864759629805099 0.87963482415279515 0 0.33403534827021109 0.84402799729020661 0 0.39536230704883951 0.84069429572832477 0 0.77354604466818633 0.40378688774472771 0 0.73483647259922602 0.44789725365921768 0 0.72622533758026719 0.40265885511101601 0 0.80185942888539485 0.77452061303608133 0 0.85491058998424563 0.76004753345552634 0 0.84725310900444062 0.80779732082917555 0 0.80185942888501827 0.074520613036224564 0 0.85491058998398861 0.060047533455626502 0 0.84725310900442086 0.10779732082922661 0 0.086179601630648681 0.64647209519980475 0 0.046634677244967337 0.671418230738282 0 0.050069554451969707 0.61308520079857043 0 0.087545339447545459 0.35122518864182262 0 0.050583896093752537 0.38543522283434112 0 0.046389130980076937 0.32668781832131749 0 0 0.75000000000034661 0 0.049706944316475897 0.72477277076253799 0 0.04408157711937423 0.7728941757575627 0 0 0.25000000000104028 0 0.044081577119474857 0.2271058242433576 0 0.049706944316556423 0.27522722923869108 0 0.52289427570932567 0.3932284363388488 0 0.56836770495988642 0.3523062350852913 0 0.57744073070774993 0.41535148636609359 0 0.6084546825910605 0.37989672713932537 0 0.57744073070774993 0.41535148636609359 0 0.56836770495988642 0.3523062350852913 0 0.61343887413683884 0.856862479058357 0 0.55899371797446828 0.85003102233514438 0 0.60294066490120068 0.80851322453934582 0 0.54782696902220018 0.79245182748204157 0 0.60294066490120068 0.80851322453934582 0 0.55899371797446828 0.85003102233514438 0 0.40326160981139969 0.73346192995102844 0 0.36622285152418499 0.69092437780804039 0 0.43323420005758778 0.6913544522562407 0 0.52289427570932567 0.3932284363388488 0 0.48858720058566618 0.43964267759203868 0 0.46655310992796922 0.39650496622958609 0 0.15720202157091859 0.60665697304410315 0 0.1154888278694548 0.56733818459978413 0 0.14934928745814749 0.55042914607228977 0 0.6879972333610942 0.43038561374960838 0 0.73483647259922602 0.44789725365921768 0 0.69385896817107129 0.48377516041410151 0 0.7250000000005199 0.89375000000045834 0 0.68987011941058407 0.92105047536677087 0 0.66412543161245952 0.88015090885499059 0 0.83573492347052902 0.36590755630746369 0 0.78145581580700685 0.34881365920033602 0 0.82500000000000062 0.33010209762754811 0 0.82862096804812391 0.55037090955459045 0 0.81441713509985358 0.51161854125224959 0 0.86907294890112186 0.52008116128001669 0 0.19670163708476801 0.31472518408333222 0 0.14223753364722069 0.3341983344262433 0 0.168349569971391 0.28054490850913671 0 0.50202631463681879 0.87892870825713787 0 0.45677673713123867 0.84253684404072415 0 0.50627822638148745 0.8263979829520941 0 0.099999999999814668 0 0 0.14999999999970359 0 0 0.10266856499169109 0.044518360900210059 0 0.15000000000062411 1 0 0.10000000000041601 1 0 0.10266856499240549 0.95548163909968886 0 0.67323294229744413 0.57556450033612505 0 0.63065402604362242 0.59661356661633302 0 0.62042975506801734 0.54295974692364424 0 0.083105206071467416 0.20007701332709979 0 0.13737030665753211 0.20313708640667491 0 0.095326043202144745 0.24554465089224409 0 0.083105206071452636 0.79992298667296435 0 0.090953281884486245 0.7564451946902494 0 0.1382744753146134 0.79650574229207483 0 0.50000000000205869 1 0 0.47135117303824892 0.95556877749289892 0 0.52122150208832174 0.94089974453840242 0 0.49999999999869432 0 0 0.52375890611712683 0.059318771819432882 0 0.47040171442036788 0.044141676406503738 0 0.4656888918609538 0.78493261229743638 0 0.45582236402875981 0.73896743678908217 0 0.50945740445113552 0.75476055527778108 0 0.5 0.69999999999999996 0 0.50945740445113552 0.75476055527778108 0 0.45582236402875981 0.73896743678908217 0 0.55306006949600994 0.20198184231352201 0 0.56202748619534593 0.15054058349222879 0 0.59443395090188023 0.18455690917515069 0 0.6236733212988993 0.14864538214901801 0 0.59443395090188023 0.18455690917515069 0 0.56202748619534593 0.15054058349222879 0 0.57412547362576272 0.58273804879550706 0 0.5498280205245758 0.6290146943450976 0 0.5166924242153631 0.59825134841919447 0 0.91696753777131557 0.497780560203536 0 0.93814194660195893 0.44426664081746747 0 0.96228564064454991 0.48206450662049471 0 0.15720202157091859 0.60665697304410315 0 0.16500388252850301 0.66612077714085194 0 0.1241190223511371 0.64391885572885044 0 0.44288491854585582 0.14116182884956319 0 0.47881186583059909 0.093591717165689425 0 0.48466639505193998 0.1421439844745814 0 1 0.54999999999963112 0 0.93732437411268477 0.55911392101136159 0 0.95631871884947484 0.51827533208233789 0 0.57724883562309992 0.92155686857100794 0 0.57382506491224949 0.9629411906298494 0 0.52122150208832174 0.94089974453840242 0 0.85170973911348691 0.93569607295217616 0 0.81159157511211755 0.88795995483179491 0 0.85600844944837662 0.88483418979512773 0 0.8517097391133297 0.2356960729520409 0 0.81283102246527783 0.1881007222486438 0 0.85600844944842547 0.1848341897950983 0 0.27866744612395528 0.38416094670951489 0 0.29124338931648802 0.43334555462578611 0 0.24049127783545701 0.41270748208749802 0 0.6084546825910605 0.37989672713932537 0 0.56836770495988642 0.3523062350852913 0 0.61959173890754571 0.33832250091341232 0 0.20050006573841939 0.53248514016039872 0 0.25115337790845271 0.54719303014923271 0 0.22549374774072969 0.58452645269293457 0 0.26573297623774761 0.59828298563722948 0 0.22549374774072969 0.58452645269293457 0 0.25115337790845271 0.54719303014923271 0 0.26104540868854792 0.81401944968719064 0 0.29209212897034281 0.84715728365233667 0 0.2401283238295133 0.85648409884788523 0 0.6236733212988993 0.14864538214901801 0 0.65290632656860115 0.11434202593454081 0 0.68391457121233579 0.14440470121196541 0 0.19901705110390991 0.9175543425573498 0 0.19741632902693801 0.86755867406447229 0 0.24536017905392571 0.90704567837671446 0 0.72500000000000064 0.7952620967744265 0 0.76901770135486491 0.84293557325473656 0 0.72863726579783861 0.85390518901155588 0 0.72500000000000064 0.7952620967744265 0 0.72863726579783861 0.85390518901155588 0 0.68697391633157634 0.84450604838764298 0 0.7250000000005199 0.89375000000045834 0 0.68697391633157634 0.84450604838764298 0 0.72863726579783861 0.85390518901155588 0 0.72525833953073282 0.1032114801687094 0 0.77144070960558853 0.14311854477243749 0 0.72634814642510737 0.16106886917518889 0 0.72525833953073282 0.1032114801687094 0 0.72634814642510737 0.16106886917518889 0 0.68391457121233579 0.14440470121196541 0 0.36622285152418499 0.69092437780804039 0 0.3977710372045391 0.65868194622830212 0 0.43323420005758778 0.6913544522562407 0 0 0.65000000000104008 0 0 0.60000000000138687 0 0.050069554451969707 0.61308520079857043 0 0 0.40000000000166441 0 0 0.35000000000145642 0 0.050583896093752537 0.38543522283434112 0 0.22033343844674469 0.36963382230740238 0 0.24049127783545701 0.41270748208749802 0 0.191953871957803 0.42546416763755879 0 0.5 0.29999999999999999 0 0.4604742573284204 0.27846934318264788 0 0.49695729691142171 0.25014895411178018 0 0.19741632902693801 0.86755867406447229 0 0.2401283238295133 0.85648409884788523 0 0.24536017905392571 0.90704567837671446 0 0 0.50000000000205869 0 0.068743045408989428 0.48853989837882689 0 0.044576108720083309 0.53509043209532614 0 0.15000000000062411 1 0 0.14617343800780541 0.93808063414349496 0 0.18474005699953849 0.96231585248064622 0 0.14999999999970359 0 0 0.184418230509967 0.038773194583122873 0 0.14618258501891079 0.062070108745602003 0 0.57667858002728545 0.078486105337742612 0 0.52375890611712683 0.059318771819432882 0 0.57396793757665954 0.037011367187645222 0 0.113541300460994 0.46208784312094731 0 0.078358742472063481 0.43365249433908948 0 0.13773355295499351 0.42497777642586831 0 0.77354604466818633 0.40378688774472771 0 0.78145581580700685 0.34881365920033602 0 0.81308179852519835 0.39754945808726527 0 0.38244435121258652 0.51653317813019495 0 0.33190227185843768 0.52715113583864037 0 0.35024835142131061 0.48654922671676981 0 0.64753070846764316 0.77332939069435502 0 0.65005442820240822 0.82644988530054031 0 0.60294066490120068 0.80851322453934582 0 0.15720202157091859 0.60665697304410315 0 0.1024350934457823 0.60772393977513839 0 0.1154888278694548 0.56733818459978413 0 0.90416666666660628 0.9041666666666166 0 0.85600844944837662 0.88483418979512773 0 0.88088768115933802 0.84674609810493673 0 0.90416666666668166 0.20416666666667119 0 0.85600844944842547 0.1848341897950983 0 0.88088768115941807 0.14674609810479519 0 0.078358742472063481 0.43365249433908948 0 0.1117088112799664 0.38831403004970022 0 0.13773355295499351 0.42497777642586831 0 0.38244435121258652 0.51653317813019495 0 0.3908716102680424 0.47010282357248828 0 0.43507373378304309 0.49699695397193322 0 0.90299850604011456 0.79563452813489832 0 0.95386563387742829 0.80414874155775029 0 0.93677536231884972 0.85000000000000286 0 0.90416666666660628 0.9041666666666166 0 0.93677536231884972 0.85000000000000286 0 0.95391631417670719 0.89584263333814784 0 0.90299850604006393 0.09563452813493091 0 0.95386563387744361 0.1041487415577465 0 0.93677536231883773 0.14999999999999089 0 0.90416666666668166 0.20416666666667119 0 0.93677536231883773 0.14999999999999089 0 0.95391631417672862 0.19584263333809451 0 0.39536230704883951 0.84069429572832477 0 0.44003836461056539 0.88093474584252718 0 0.39767323751400468 0.89584229130535065 0 0.51076801031701946 0.1202837388510348 0 0.52375890611712683 0.059318771819432882 0 0.54979595918804436 0.1060565713905809 0 0.57667858002728545 0.078486105337742612 0 0.54979595918804436 0.1060565713905809 0 0.52375890611712683 0.059318771819432882 0 0.57724883562309992 0.92155686857100794 0 0.52122150208832174 0.94089974453840242 0 0.54783390826260769 0.89287767010860219 0 0.50202631463681879 0.87892870825713787 0 0.54783390826260769 0.89287767010860219 0 0.52122150208832174 0.94089974453840242 0 0.087545339447545459 0.35122518864182262 0 0.093851963071650835 0.30582068233324772 0 0.14223753364722069 0.3341983344262433 0 0.54999999999999993 0.69999999999999996 0 0.59999999999999976 0.69999999999999996 0 0.55363780716230748 0.74348740161571747 0 0.083105206071452636 0.79992298667296435 0 0.1074251789111534 0.83564394292147814 0 0.065374659239661639 0.8551091961254178 0 0.083105206071467416 0.20007701332709979 0 0.065374659239632718 0.1448908038746782 0 0.106902708054812 0.16453234188234539 0 0.52289427570932567 0.3932284363388488 0 0.53823865529665704 0.45873898050322898 0 0.48858720058566618 0.43964267759203868 0 0.13737030665753211 0.20313708640667491 0 0.14377654328998779 0.2442024734791064 0 0.095326043202144745 0.24554465089224409 0 0.1382744753146134 0.79650574229207483 0 0.090953281884486245 0.7564451946902494 0 0.14335651144331049 0.75565258250209677 0 0.27270076654418179 0.87751467830216623 0 0.30864387279288652 0.89906554525974958 0 0.24536017905392571 0.90704567837671446 0 0.27609987656793722 0.94991445621608572 0 0.24536017905392571 0.90704567837671446 0 0.30864387279288652 0.89906554525974958 0 0.90299850604011456 0.79563452813489832 0 0.84725310900444062 0.80779732082917555 0 0.85491058998424563 0.76004753345552634 0 0.90299850604006393 0.09563452813493091 0 0.84725310900442086 0.10779732082922661 0 0.85491058998398861 0.060047533455626502 0 1 0.54999999999963112 0 1 0.59999999999973963 0 0.95867599106212187 0.60011091146651041 0 1 0.39999999999978308 0 1 0.44999999999963131 0 0.95871855522754235 0.40006508612975411 0 0.28040350263641872 0.23054717217092141 0 0.25195515620380449 0.25883339815888678 0 0.224700362040408 0.22206622194729711 0 0.84999999999999987 0.29999999999999999 0 0.87430060258887643 0.34056085888204451 0 0.82500000000000062 0.33010209762754811 0 0.84999999999999987 0.69999999999999996 0 0.82457059160610424 0.66831947184359608 0 0.87712158428786946 0.65709029563313581 0 0.86956835336234861 0.571283299838105 0 0.87159648282691515 0.61285406320581504 0 0.81723410853263523 0.59419663659258926 0 0.43698630808430822 0.080423614171545449 0 0.47881186583059909 0.093591717165689425 0 0.44288491854585582 0.14116182884956319 0 1 0.44999999999963131 0 0.96228564064454991 0.48206450662049471 0 0.93814194660195893 0.44426664081746747 0 0.35752321586431363 0.9185439911803448 0 0.30864387279288652 0.89906554525974958 0 0.35864759629805099 0.87963482415279515 0 0.29124338931648802 0.43334555462578611 0 0.25982634974572738 0.46097799597715272 0 0.24049127783545701 0.41270748208749802 0 0.51076801031701946 0.1202837388510348 0 0.56202748619534593 0.15054058349222879 0 0.51729576145820033 0.1683240575987815 0 0.55306006949600994 0.20198184231352201 0 0.51729576145820033 0.1683240575987815 0 0.56202748619534593 0.15054058349222879 0 0.26429849586623999 0.19346700179430079 0 0.28040350263641872 0.23054717217092141 0 0.224700362040408 0.22206622194729711 0 0.51076801031701946 0.1202837388510348 0 0.48466639505193998 0.1421439844745814 0 0.47881186583059909 0.093591717165689425 0 0.2185883431182947 0.18019736283949719 0 0.26429849586623999 0.19346700179430079 0 0.224700362040408 0.22206622194729711 0 0.18269480424590959 0.75905448272264375 0 0.2248999640082178 0.72584299459689172 0 0.22556077506376701 0.77837424984191617 0 0.51076801031701946 0.1202837388510348 0 0.47881186583059909 0.093591717165689425 0 0.52375890611712683 0.059318771819432882 0 0.50202631463681879 0.87892870825713787 0 0.52122150208832174 0.94089974453840242 0 0.47401147028110507 0.91529957330468115 0 0 0.84999999999965292 0 0.038512288486097702 0.8155852717111195 0 0.065374659239661639 0.8551091961254178 0 0 0.15000000000062411 0 0.065374659239632718 0.1448908038746782 0 0.038512288486115001 0.1844147282893184 0 0.2185883431182947 0.18019736283949719 0 0.224700362040408 0.22206622194729711 0 0.18124454140915969 0.18790916706335251 0 0.21858834311891909 0.81980263716112767 0 0.17777405986036951 0.81832336108265358 0 0.22556077506376701 0.77837424984191617 0 0.1215415378367805 0.72939333680004137 0 0.1020579365089687 0.69352219419301997 0 0.15332765547575641 0.71200081858233666 0 0.49695729691142171 0.25014895411178018 0 0.50760557329222289 0.20700468884612061 0 0.54248833945060504 0.2520322959927106 0 0.15720202157091859 0.60665697304410315 0 0.14934928745814749 0.55042914607228977 0 0.18381867841758909 0.57774125163628387 0 0.90416666666660628 0.9041666666666166 0 0.85170973911348691 0.93569607295217616 0 0.85600844944837662 0.88483418979512773 0 0.90416666666668166 0.20416666666667119 0 0.8517097391133297 0.2356960729520409 0 0.85600844944842547 0.1848341897950983 0 0.17933913398461551 0.2350063570234002 0 0.13737030665753211 0.20313708640667491 0 0.18124454140915969 0.18790916706335251 0 0.18269480424590959 0.75905448272264375 0 0.17777405986036951 0.81832336108265358 0 0.1382744753146134 0.79650574229207483 0 0.1216098864341134 0.50637075089503902 0 0.15801167086041079 0.46008690540259539 0 0.16618607197337229 0.50652878253548905 0 0.50760557329222289 0.20700468884612061 0 0.55306006949600994 0.20198184231352201 0 0.54248833945060504 0.2520322959927106 0 0.75000000000034661 1 0 0.7000000000006934 1 0 0.7250000000005199 0.94981617647078953 0 0.69999999999999984 0.29999999999999999 0 0.72500000000000064 0.2498161764706 0 0.74999999999999989 0.29999999999999999 0 0.72525833953073282 0.1032114801687094 0 0.68391457121233579 0.14440470121196541 0 0.68330259535470161 0.10038702501083881 0 0.43249999999999988 0.43937499999999979 0 0.46655310992796922 0.39650496622958609 0 0.48858720058566618 0.43964267759203868 0 0.19901705110390991 0.9175543425573498 0 0.14617343800780541 0.93808063414349496 0 0.16206583317966519 0.89685560785156404 0 0.19922788606653311 0.085920220746880993 0 0.16141998738593399 0.10404039647458049 0 0.14618258501891079 0.062070108745602003 0 0.31378396441836959 0.70157213313026345 0 0.26439878998046262 0.7048065392091396 0 0.27820712747429932 0.65530134213254643 0 0.1216098864341134 0.50637075089503902 0 0.113541300460994 0.46208784312094731 0 0.15801167086041079 0.46008690540259539 0 0.6084546825910605 0.37989672713932537 0 0.65481233915350323 0.35652751921065562 0 0.63912439215427275 0.41063340167983359 0 0.19901705110390991 0.9175543425573498 0 0.18474005699953849 0.96231585248064622 0 0.14617343800780541 0.93808063414349496 0 0.19922788606653311 0.085920220746880993 0 0.14618258501891079 0.062070108745602003 0 0.184418230509967 0.038773194583122873 0 0.38244435121258652 0.51653317813019495 0 0.35024835142131061 0.48654922671676981 0 0.3908716102680424 0.47010282357248828 0 0.82709327591102189 0.14937141670914489 0 0.77144070960558853 0.14311854477243749 0 0.80076557130237269 0.1154587552654202 0 0.82709327591091286 0.84937141670920724 0 0.76901770135486491 0.84293557325473656 0 0.80041942726660109 0.81543261647703358 0 0.43698630808430822 0.080423614171545449 0 0.44288491854585582 0.14116182884956319 0 0.39823268594401579 0.1116623613130045 0 0.39801143831225599 0.16651381068160659 0 0.39823268594401579 0.1116623613130045 0 0.44288491854585582 0.14116182884956319 0 0.36575549820117997 0.31677992835137742 0 0.3786248352540974 0.27082301512024259 0 0.41914690343363781 0.30688979866601612 0 0.42377727103934271 0.25099357235810238 0 0.41914690343363781 0.30688979866601612 0 0.3786248352540974 0.27082301512024259 0 0.049706944316475897 0.72477277076253799 0 0.1020579365089687 0.69352219419301997 0 0.090953281884486245 0.7564451946902494 0 0.1215415378367805 0.72939333680004137 0 0.090953281884486245 0.7564451946902494 0 0.1020579365089687 0.69352219419301997 0 0.1247745017231483 0.27198077544791172 0 0.093851963071650835 0.30582068233324772 0 0.095326043202144745 0.24554465089224409 0 0.049706944316556423 0.27522722923869108 0 0.095326043202144745 0.24554465089224409 0 0.093851963071650835 0.30582068233324772 0 0.77354604466818633 0.40378688774472771 0 0.81973119833356312 0.43505687159469048 0 0.77972660463949339 0.45529290596363098 0 0.43249999999999988 0.43937499999999979 0 0.43507373378304309 0.49699695397193322 0 0.3908716102680424 0.47010282357248828 0 0.26573297623774761 0.59828298563722948 0 0.2459498854893499 0.63248470766216769 0 0.22549374774072969 0.58452645269293457 0 0.72500000000000064 0.7952620967744265 0 0.77094201086366854 0.79647480515688507 0 0.76901770135486491 0.84293557325473656 0 0.72525833953073282 0.1032114801687094 0 0.76878382444651716 0.097147941686331368 0 0.77144070960558853 0.14311854477243749 0 0.72500000000000064 0.7952620967744265 0 0.68697391633157634 0.84450604838764298 0 0.68024162096458085 0.79868546898116533 0 0.31378396441836959 0.70157213313026345 0 0.29904318922293632 0.74132814928635593 0 0.26439878998046262 0.7048065392091396 0 0.31378396441836959 0.70157213313026345 0 0.35415581127540569 0.73730480045900215 0 0.29904318922293632 0.74132814928635593 0 0.61343887413683884 0.856862479058357 0 0.65005442820240822 0.82644988530054031 0 0.66412543161245952 0.88015090885499059 0 0.68697391633157634 0.84450604838764298 0 0.66412543161245952 0.88015090885499059 0 0.65005442820240822 0.82644988530054031 0 0.083411279318375747 0.91030024466934134 0 0.065374659239661639 0.8551091961254178 0 0.10562472963403439 0.87143394428979881 0 0.083411279318303222 0.089699755330707398 0 0.1053400320299198 0.12877248826361379 0 0.065374659239632718 0.1448908038746782 0 0.55306006949600994 0.20198184231352201 0 0.59443395090188023 0.18455690917515069 0 0.59814117807200873 0.23398510860739519 0 0.84999999999999987 0.29999999999999999 0 0.89999999999999991 0.29999999999999999 0 0.87430060258887643 0.34056085888204451 0 0.84999999999999987 0.69999999999999996 0 0.87712158428786946 0.65709029563313581 0 0.89999999999999991 0.69999999999999996 0 0.34258405725730701 0.4444034294386992 0 0.3908716102680424 0.47010282357248828 0 0.35024835142131061 0.48654922671676981 0 0.26573297623774761 0.59828298563722948 0 0.31502927232353312 0.6134992213375432 0 0.27820712747429932 0.65530134213254643 0 0.91696753777131557 0.497780560203536 0 0.86907294890112186 0.52008116128001669 0 0.88594198078881503 0.46167788676578442 0 0.84723782639812573 0.48638347960178252 0 0.88594198078881503 0.46167788676578442 0 0.86907294890112186 0.52008116128001669 0 0.7152569930854884 0.5237994455134295 0 0.77151014687832564 0.54436834383023036 0 0.71809016091162536 0.58185040402320831 0 0.90416666666660628 0.9041666666666166 0 0.89898474358632463 0.95391965591118966 0 0.85170973911348691 0.93569607295217616 0 0.90416666666668166 0.20416666666667119 0 0.89898474358614167 0.25391965591104898 0 0.8517097391133297 0.2356960729520409 0 0.91750694127107502 0.36982372220068471 0 0.95780851984364423 0.34215720972155339 0 0.95871855522754235 0.40006508612975411 0 0.91750694127105259 0.63017627779935648 0 0.95867599106212187 0.60011091146651041 0 0.9578014258160763 0.65787212321113708 0 0.90299850604011456 0.79563452813489832 0 0.88088768115933802 0.84674609810493673 0 0.84725310900444062 0.80779732082917555 0 0.90299850604006393 0.09563452813493091 0 0.88088768115941807 0.14674609810479519 0 0.84725310900442086 0.10779732082922661 0 0.1216098864341134 0.50637075089503902 0 0.16618607197337229 0.50652878253548905 0 0.14934928745814749 0.55042914607228977 0 0.20050006573841939 0.53248514016039872 0 0.14934928745814749 0.55042914607228977 0 0.16618607197337229 0.50652878253548905 0 0.80185942888539485 0.77452061303608133 0 0.84725310900444062 0.80779732082917555 0 0.80041942726660109 0.81543261647703358 0 0.80185942888501827 0.074520613036224564 0 0.84725310900442086 0.10779732082922661 0 0.80076557130237269 0.1154587552654202 0 0.083105206071452636 0.79992298667296435 0 0.065374659239661639 0.8551091961254178 0 0.038512288486097702 0.8155852717111195 0 0.083105206071467416 0.20007701332709979 0 0.038512288486115001 0.1844147282893184 0 0.065374659239632718 0.1448908038746782 0 0.54782696902220018 0.79245182748204157 0 0.59636844454254345 0.75937156204589151 0 0.60294066490120068 0.80851322453934582 0 0.083411279318375747 0.91030024466934134 0 0.0443105827531413 0.89858748162559932 0 0.065374659239661639 0.8551091961254178 0 0.083411279318303222 0.089699755330707398 0 0.065374659239632718 0.1448908038746782 0 0.044310582753132287 0.101412518374475 0 0.84999999999965292 1 0 0.81486180804382891 0.96321394949790495 0 0.85170973911348691 0.93569607295217616 0 0.84999999999999987 0.29999999999999999 0 0.81486180804364938 0.26321394949780091 0 0.8517097391133297 0.2356960729520409 0 0.4656888918609538 0.78493261229743638 0 0.45677673713123867 0.84253684404072415 0 0.42609163930740518 0.80361684430568059 0 0.39536230704883951 0.84069429572832477 0 0.42609163930740518 0.80361684430568059 0 0.45677673713123867 0.84253684404072415 0 0.6236733212988993 0.14864538214901801 0 0.56202748619534593 0.15054058349222879 0 0.58516465772821369 0.11653801664834119 0 0.57412547362576272 0.58273804879550706 0 0.63065402604362242 0.59661356661633302 0 0.5991018319127801 0.62925360607495295 0 0.61343887413683884 0.856862479058357 0 0.5832743223239254 0.88483152652961872 0 0.55899371797446828 0.85003102233514438 0 0.50202631463681879 0.87892870825713787 0 0.55899371797446828 0.85003102233514438 0 0.54783390826260769 0.89287767010860219 0 0.51076801031701946 0.1202837388510348 0 0.54979595918804436 0.1060565713905809 0 0.56202748619534593 0.15054058349222879 0 0.55306006949600994 0.20198184231352201 0 0.59814117807200873 0.23398510860739519 0 0.54248833945060504 0.2520322959927106 0 0.83573492347052902 0.36590755630746369 0 0.82500000000000062 0.33010209762754811 0 0.87430060258887643 0.34056085888204451 0 0.83758014339878906 0.63222013025741819 0 0.87712158428786946 0.65709029563313581 0 0.82457059160610424 0.66831947184359608 0 0.49102375406324739 0.49123754822244059 0 0.53823865529665704 0.45873898050322898 0 0.53330375813596242 0.50827942741749099 0 0.52289427570932567 0.3932284363388488 0 0.57744073070774993 0.41535148636609359 0 0.53823865529665704 0.45873898050322898 0 0.4089290844030305 0.58728915500154233 0 0.37272913873093971 0.56192925302619479 0 0.42644501560315817 0.54603747078095544 0 0.49695729691142171 0.25014895411178018 0 0.4604742573284204 0.27846934318264788 0 0.46429753744194407 0.22870891180733599 0 0.90299850604011456 0.79563452813489832 0 0.85491058998424563 0.76004753345552634 0 0.89999166460796554 0.74528934923809909 0 0.90299850604006393 0.09563452813493091 0 0.85491058998398861 0.060047533455626502 0 0.899991664607802 0.045289349238254978 0 0.38244435121258652 0.51653317813019495 0 0.42644501560315817 0.54603747078095544 0 0.37272913873093971 0.56192925302619479 0 0.71406021706547751 0.63292083137662503 0 0.71809016091162536 0.58185040402320831 0 0.74994237037456724 0.62775548192980357 0 0.84723782639812573 0.48638347960178252 0 0.86907294890112186 0.52008116128001669 0 0.81441713509985358 0.51161854125224959 0 0.33122374654748771 0.57588941099433744 0 0.33190227185843768 0.52715113583864037 0 0.37272913873093971 0.56192925302619479 0 0.086179601630648681 0.64647209519980475 0 0.1241190223511371 0.64391885572885044 0 0.1020579365089687 0.69352219419301997 0 0.59999999999894682 0 0 0.64999999999907843 0 0 0.61940220174112337 0.047251958781050582 0 0.18269480424590959 0.75905448272264375 0 0.14335651144331049 0.75565258250209677 0 0.15332765547575641 0.71200081858233666 0 0.22549374774072969 0.58452645269293457 0 0.2459498854893499 0.63248470766216769 0 0.19914261668318661 0.62286739485272158 0 0.38244435121258652 0.51653317813019495 0 0.43507373378304309 0.49699695397193322 0 0.42644501560315817 0.54603747078095544 0 0.65000000000104008 1 0 0.60000000000138687 1 0 0.62065498684670595 0.95224934003983619 0 0.078358742472063481 0.43365249433908948 0 0.068743045408989428 0.48853989837882689 0 0.033550201249889847 0.46247875832467239 0 0.2236846579037573 0.67380363126050236 0 0.27820712747429932 0.65530134213254643 0 0.26439878998046262 0.7048065392091396 0 0.6879972333610942 0.43038561374960838 0 0.68128176404677243 0.38629093627004979 0 0.72622533758026719 0.40265885511101601 0 0.72525833953073282 0.1032114801687094 0 0.7010294155333181 0.056779085686491267 0 0.7527966693318906 0.053051678021508272 0 0.18269480424590959 0.75905448272264375 0 0.15332765547575641 0.71200081858233666 0 0.19068556247388771 0.71028988922845504 0 0.1216098864341134 0.50637075089503902 0 0.085622222639554768 0.53333248912060549 0 0.068743045408989428 0.48853989837882689 0 0.25676291524611189 0.7436741304886243 0 0.26439878998046262 0.7048065392091396 0 0.29904318922293632 0.74132814928635593 0 0.65481233915350323 0.35652751921065562 0 0.68128176404677243 0.38629093627004979 0 0.63912439215427275 0.41063340167983359 0 0.83573492347052902 0.36590755630746369 0 0.86844634540301924 0.38530937474099819 0 0.81308179852519835 0.39754945808726527 0 0.27270076654418179 0.87751467830216623 0 0.2401283238295133 0.85648409884788523 0 0.29209212897034281 0.84715728365233667 0 0.84999999999999987 0.69999999999999996 0 0.85491058998424563 0.76004753345552634 0 0.81864958914779962 0.73589050177899629 0 0.84999999999960507 0 0 0.85491058998398861 0.060047533455626502 0 0.81864958914740749 0.035890501779055867 0 0.18381867841758909 0.57774125163628387 0 0.19914261668318661 0.62286739485272158 0 0.15720202157091859 0.60665697304410315 0 0.22549374774072969 0.58452645269293457 0 0.19914261668318661 0.62286739485272158 0 0.18381867841758909 0.57774125163628387 0 0.79680861578988083 0.92656778056766709 0 0.85170973911348691 0.93569607295217616 0 0.81486180804382891 0.96321394949790495 0 0.79680861578956375 0.22656778056752541 0 0.8517097391133297 0.2356960729520409 0 0.81486180804364938 0.26321394949780091 0 0.20050006573841939 0.53248514016039872 0 0.23975172658309729 0.49475499200540818 0 0.25115337790845271 0.54719303014923271 0 0.28307294598219601 0.50789252727458634 0 0.25115337790845271 0.54719303014923271 0 0.23975172658309729 0.49475499200540818 0 0.20050006573841939 0.53248514016039872 0 0.18381867841758909 0.57774125163628387 0 0.14934928745814749 0.55042914607228977 0 0.19922788606653311 0.085920220746880993 0 0.22985637510995899 0.1298347970200906 0 0.18652628422869419 0.14162325200928061 0 0.33758650185219202 0.23837101504325639 0 0.38831533174504851 0.2189834941785925 0 0.3786248352540974 0.27082301512024259 0 0.42377727103934271 0.25099357235810238 0 0.3786248352540974 0.27082301512024259 0 0.38831533174504851 0.2189834941785925 0 0.19922788606653311 0.085920220746880993 0 0.18652628422869419 0.14162325200928061 0 0.16141998738593399 0.10404039647458049 0 0.54782696902220018 0.79245182748204157 0 0.55363780716230748 0.74348740161571747 0 0.59636844454254345 0.75937156204589151 0 0.82709327591091286 0.84937141670920724 0 0.88088768115933802 0.84674609810493673 0 0.85600844944837662 0.88483418979512773 0 0.82709327591102189 0.14937141670914489 0 0.88088768115941807 0.14674609810479519 0 0.85600844944842547 0.1848341897950983 0 0.27866744612395528 0.38416094670951489 0 0.22033343844674469 0.36963382230740238 0 0.25966125648670141 0.34351016742083729 0 0 0.50000000000205869 0 0.033550201249889847 0.46247875832467239 0 0.068743045408989428 0.48853989837882689 0 0.31378396441836959 0.70157213313026345 0 0.36622285152418499 0.69092437780804039 0 0.35415581127540569 0.73730480045900215 0 0.77293540622714185 0.59448302402785813 0 0.71809016091162536 0.58185040402320831 0 0.77151014687832564 0.54436834383023036 0 0.7152569930854884 0.5237994455134295 0 0.69385896817107129 0.48377516041410151 0 0.73947346780852752 0.49062440112282169 0 0.15801167086041079 0.46008690540259539 0 0.191953871957803 0.42546416763755879 0 0.19604738184454831 0.47787523520405789 0 0.57667858002728545 0.078486105337742612 0 0.61940220174112337 0.047251958781050582 0 0.61956000905586006 0.1043312481793135 0 0.65408113592120842 0.073941773121567966 0 0.61956000905586006 0.1043312481793135 0 0.61940220174112337 0.047251958781050582 0 0 0.55000000000173355 0 0 0.50000000000205869 0 0.044576108720083309 0.53509043209532614 0 0.65507451745379841 0.92229208810758578 0 0.62065498684670595 0.95224934003983619 0 0.61885627562261258 0.90282959257498208 0 0.57724883562309992 0.92155686857100794 0 0.61885627562261258 0.90282959257498208 0 0.62065498684670595 0.95224934003983619 0 0.91750694127107502 0.36982372220068471 0 0.86844634540301924 0.38530937474099819 0 0.87430060258887643 0.34056085888204451 0 0.91750694127105259 0.63017627779935648 0 0.87712158428786946 0.65709029563313581 0 0.87159648282691515 0.61285406320581504 0 0.33123028043633618 0.77629643437932982 0 0.29904318922293632 0.74132814928635593 0 0.35415581127540569 0.73730480045900215 0 0.86411095495256451 0.42388805655111889 0 0.84925632466077294 0.45359738909549091 0 0.81973119833356312 0.43505687159469048 0 0.43846182030517877 0.64845797726506715 0 0.47913475093885149 0.66010775372412711 0 0.43323420005758778 0.6913544522562407 0 0.18269480424590959 0.75905448272264375 0 0.19068556247388771 0.71028988922845504 0 0.2248999640082178 0.72584299459689172 0 0.39536230704883951 0.84069429572832477 0 0.38586766253264881 0.78219501014812498 0 0.42609163930740518 0.80361684430568059 0 0.59999999999999976 0.69999999999999996 0 0.63221990677827677 0.73442891067859706 0 0.59636844454254345 0.75937156204589151 0 0.27866744612395528 0.38416094670951489 0 0.24049127783545701 0.41270748208749802 0 0.22033343844674469 0.36963382230740238 0 0.82709327591091286 0.84937141670920724 0 0.84725310900444062 0.80779732082917555 0 0.88088768115933802 0.84674609810493673 0 0.82709327591102189 0.14937141670914489 0 0.84725310900442086 0.10779732082922661 0 0.88088768115941807 0.14674609810479519 0 0.1650278706801647 0.38791388161335733 0 0.18434624290945251 0.35208838264196463 0 0.22033343844674469 0.36963382230740238 0 0.4409427642593301 0.35743108089689513 0 0.49077833859261139 0.35229981449445641 0 0.46655310992796922 0.39650496622958609 0 0.80185942888539485 0.77452061303608133 0 0.81864958914779962 0.73589050177899629 0 0.85491058998424563 0.76004753345552634 0 0.80185942888501827 0.074520613036224564 0 0.81864958914740749 0.035890501779055867 0 0.85491058998398861 0.060047533455626502 0 0.29999999999926641 0 0 0.34999999999912063 0 0 0.32541448401678508 0.046215317981507749 0 0.35000000000145642 1 0 0.30000000000124832 1 0 0.32544832635163229 0.95485394099568932 0 0.4656888918609538 0.78493261229743638 0 0.50731287292894423 0.78963574450233831 0 0.50627822638148745 0.8263979829520941 0 0.2185883431182947 0.18019736283949719 0 0.25557216766470708 0.15874861286892261 0 0.26429849586623999 0.19346700179430079 0 1 0.29999999999999999 0 1 0.34999999999993492 0 0.95780851984364423 0.34215720972155339 0 1 0.29999999999999999 0 0.95780851984364423 0.34215720972155339 0 0.94999999999999996 0.29999999999999999 0 1 0.69999999999999996 0 0.94999999999999996 0.69999999999999996 0 0.9578014258160763 0.65787212321113708 0 1 0.69999999999999996 0 0.9578014258160763 0.65787212321113708 0 1 0.64999999999986979 0 0.91750694127107502 0.36982372220068471 0 0.90594285160987287 0.4141265964174129 0 0.86844634540301924 0.38530937474099819 0 0.91750694127105259 0.63017627779935648 0 0.87159648282691515 0.61285406320581504 0 0.91143117093204207 0.58709913730335972 0 0.74999999999999989 0.69999999999999996 0 0.7750489929959945 0.66593931409600093 0 0.79999999999999982 0.69999999999999996 0 0.74999999999999989 0.29999999999999999 0 0.79999999999999982 0.29999999999999999 0 0.78145581580700685 0.34881365920033602 0 0.54999999999999993 0.69999999999999996 0 0.57484956128872922 0.66573805030881994 0 0.59999999999999976 0.69999999999999996 0 0.90299850604011456 0.79563452813489832 0 0.94399509803918602 0.75600490196082126 0 0.95386563387742829 0.80414874155775029 0 0.90416666666660628 0.9041666666666166 0 0.95391631417670719 0.89584263333814784 0 0.94399509803919068 0.9439950980391687 0 0.90299850604006393 0.09563452813493091 0 0.94399509803922566 0.056004901960802607 0 0.95386563387744361 0.1041487415577465 0 0.90416666666668166 0.20416666666667119 0 0.95391631417672862 0.19584263333809451 0 0.94399509803921056 0.24399509803922639 0 0.22278230690790279 0.44824268025881547 0 0.19604738184454831 0.47787523520405789 0 0.191953871957803 0.42546416763755879 0 0.90299850604011456 0.79563452813489832 0 0.89999166460796554 0.74528934923809909 0 0.94399509803918602 0.75600490196082126 0 0.90299850604006393 0.09563452813493091 0 0.899991664607802 0.045289349238254978 0 0.94399509803922566 0.056004901960802607 0 0.49102375406324739 0.49123754822244059 0 0.47793794143994173 0.52940715638744962 0 0.43507373378304309 0.49699695397193322 0 0.90416666666660628 0.9041666666666166 0 0.94399509803919068 0.9439950980391687 0 0.89898474358632463 0.95391965591118966 0 0.90416666666668166 0.20416666666667119 0 0.94399509803921056 0.24399509803922639 0 0.89898474358614167 0.25391965591104898 0 0.65394964615507722 0.22666784374016369 0 0.62657463266645097 0.26524202571255862 0 0.59814117807200873 0.23398510860739519 0 0.6084546825910605 0.37989672713932537 0 0.63912439215427275 0.41063340167983359 0 0.57744073070774993 0.41535148636609359 0 0.61209567303293111 0.44669033081290321 0 0.57744073070774993 0.41535148636609359 0 0.63912439215427275 0.41063340167983359 0 0.25676291524611189 0.7436741304886243 0 0.22556077506376701 0.77837424984191617 0 0.2248999640082178 0.72584299459689172 0 0.61343887413683884 0.856862479058357 0 0.60294066490120068 0.80851322453934582 0 0.65005442820240822 0.82644988530054031 0 0.64999999999907843 0 0 0.66369801598854572 0.036327466368102787 0 0.61940220174112337 0.047251958781050582 0 0.40326160981139969 0.73346192995102844 0 0.38586766253264881 0.78219501014812498 0 0.35415581127540569 0.73730480045900215 0 0.33123028043633618 0.77629643437932982 0 0.35415581127540569 0.73730480045900215 0 0.38586766253264881 0.78219501014812498 0 0.26573297623774761 0.59828298563722948 0 0.29110487519241501 0.56588143995431495 0 0.31502927232353312 0.6134992213375432 0 0.77846603114747959 0.49850927265137401 0 0.81441713509985358 0.51161854125224959 0 0.77151014687832564 0.54436834383023036 0 0.82862096804812391 0.55037090955459045 0 0.77151014687832564 0.54436834383023036 0 0.81441713509985358 0.51161854125224959 0 0.50000000000205869 1 0 0.45000000000187229 1 0 0.47135117303824892 0.95556877749289892 0 0.44999999999882923 0 0 0.49999999999869432 0 0 0.47040171442036788 0.044141676406503738 0 0 0.7000000000006934 0 0 0.65000000000104008 0 0.046634677244967337 0.671418230738282 0 0 0.35000000000145642 0 0 0.30000000000124832 0 0.046389130980076937 0.32668781832131749 0 0.31378396441836959 0.70157213313026345 0 0.27820712747429932 0.65530134213254643 0 0.32263089806001177 0.66003674931826484 0 0.33122374654748771 0.57588941099433744 0 0.31502927232353312 0.6134992213375432 0 0.29110487519241501 0.56588143995431495 0 0.26573297623774761 0.59828298563722948 0 0.27820712747429932 0.65530134213254643 0 0.2459498854893499 0.63248470766216769 0 0.14474682429600511 0.85524784522713515 0 0.16206583317966519 0.89685560785156404 0 0.1241151115713819 0.9045666525468371 0 0.14332333627550789 0.14578431753966009 0 0.12372429750337779 0.095814237875728972 0 0.16141998738593399 0.10404039647458049 0 0.64753070846764316 0.77332939069435502 0 0.59636844454254345 0.75937156204589151 0 0.63221990677827677 0.73442891067859706 0 0.14474682429600511 0.85524784522713515 0 0.1241151115713819 0.9045666525468371 0 0.10562472963403439 0.87143394428979881 0 0.14332333627550789 0.14578431753966009 0 0.1053400320299198 0.12877248826361379 0 0.12372429750337779 0.095814237875728972 0 0.77354604466818633 0.40378688774472771 0 0.81308179852519835 0.39754945808726527 0 0.81973119833356312 0.43505687159469048 0 0.54782696902220018 0.79245182748204157 0 0.50945740445113552 0.75476055527778108 0 0.55363780716230748 0.74348740161571747 0 0.2236846579037573 0.67380363126050236 0 0.2459498854893499 0.63248470766216769 0 0.27820712747429932 0.65530134213254643 0 0.77293540622714185 0.59448302402785813 0 0.74994237037456724 0.62775548192980357 0 0.71809016091162536 0.58185040402320831 0 0 0.79999999999999982 0 0 0.75000000000034661 0 0.04408157711937423 0.7728941757575627 0 0 0.25000000000104028 0 0 0.20000000000083221 0 0.044081577119474857 0.2271058242433576 0 0.19999999999955789 0 0 0.24999999999941211 0 0 0.22668068146512929 0.045875643423131329 0 0.25000000000104028 1 0 0.20000000000083221 1 0 0.22850979588452081 0.95594428570238643 0 0.47357141910802508 0.1873585799078378 0 0.44288491854585582 0.14116182884956319 0 0.48466639505193998 0.1421439844745814 0 0.59999999999999976 0.29999999999999999 0 0.5794309697024993 0.27124795968204829 0 0.62657463266645097 0.26524202571255862 0 0.43249999999999988 0.43937499999999979 0 0.42161023666869668 0.39493916313643851 0 0.46655310992796922 0.39650496622958609 0 0.31068898841644388 0.47541502461811092 0 0.33190227185843768 0.52715113583864037 0 0.28307294598219601 0.50789252727458634 0 0.35024835142131061 0.48654922671676981 0 0.33190227185843768 0.52715113583864037 0 0.31068898841644388 0.47541502461811092 0 0.35864735590330371 0.63903383440414463 0 0.36622285152418499 0.69092437780804039 0 0.32263089806001177 0.66003674931826484 0 0.31378396441836959 0.70157213313026345 0 0.32263089806001177 0.66003674931826484 0 0.36622285152418499 0.69092437780804039 0 0.86956835336234861 0.571283299838105 0 0.90900154012161016 0.53607784105648792 0 0.91143117093204207 0.58709913730335972 0 0.6499999999999998 0.29999999999999999 0 0.65481233915350323 0.35652751921065562 0 0.61959173890754571 0.33832250091341232 0 0.4409427642593301 0.35743108089689513 0 0.46226845272279993 0.31901800744800313 0 0.49077833859261139 0.35229981449445641 0 0.5 0.29999999999999999 0 0.49077833859261139 0.35229981449445641 0 0.46226845272279993 0.31901800744800313 0 0.14999999999970359 0 0 0.19999999999955789 0 0 0.184418230509967 0.038773194583122873 0 0.20000000000083221 1 0 0.15000000000062411 1 0 0.18474005699953849 0.96231585248064622 0 1 0.49999999999950101 0 1 0.54999999999963112 0 0.95631871884947484 0.51827533208233789 0 0.38586766253264881 0.78219501014812498 0 0.42676259796334498 0.76772545931379299 0 0.42609163930740518 0.80361684430568059 0 0.20050006573841939 0.53248514016039872 0 0.22549374774072969 0.58452645269293457 0 0.18381867841758909 0.57774125163628387 0 0.065374659239661639 0.8551091961254178 0 0.1074251789111534 0.83564394292147814 0 0.10562472963403439 0.87143394428979881 0 0.065374659239632718 0.1448908038746782 0 0.1053400320299198 0.12877248826361379 0 0.106902708054812 0.16453234188234539 0 0.1650278706801647 0.38791388161335733 0 0.14223753364722069 0.3341983344262433 0 0.18434624290945251 0.35208838264196463 0 0.43249999999999988 0.43937499999999979 0 0.46111841286828259 0.46690301029591341 0 0.43507373378304309 0.49699695397193322 0 0.83758014339878906 0.63222013025741819 0 0.81723410853263523 0.59419663659258926 0 0.87159648282691515 0.61285406320581504 0 0.19670163708476801 0.31472518408333222 0 0.18434624290945251 0.35208838264196463 0 0.14223753364722069 0.3341983344262433 0 0.75000000000034661 1 0 0.7250000000005199 0.94981617647078953 0 0.770759834363826 0.95919399014344442 0 0.74999999999999989 0.29999999999999999 0 0.72500000000000064 0.2498161764706 0 0.77075983436335049 0.25919399014334171 0 0.69999999999999984 0.29999999999999999 0 0.67933712972090698 0.25920070958121938 0 0.72500000000000064 0.2498161764706 0 0.57611405284611883 0.50165903596042916 0 0.53330375813596242 0.50827942741749099 0 0.53823865529665704 0.45873898050322898 0 0.6499999999999998 0.29999999999999999 0 0.68887083591306764 0.33632058575757479 0 0.65481233915350323 0.35652751921065562 0 0.27866744612395528 0.38416094670951489 0 0.33277555741076909 0.36432196682010132 0 0.31778888742534622 0.40581751814196781 0 0.49102375406324739 0.49123754822244059 0 0.43507373378304309 0.49699695397193322 0 0.46111841286828259 0.46690301029591341 0 0.94999999999999996 0.69999999999999996 0 0.97166519676947294 0.73337114490064459 0 0.94399509803918602 0.75600490196082126 0 0.94999999999986839 0 0 0.97166519676946894 0.033371144900598393 0 0.94399509803922566 0.056004901960802607 0 0.94999999999999996 0.29999999999999999 0 0.94399509803921056 0.24399509803922639 0 0.97166519676951801 0.26662885509932011 0 0.94999999999979179 1 0 0.94399509803919068 0.9439950980391687 0 0.97166519676946206 0.96662885509935492 0 0.34258405725730701 0.4444034294386992 0 0.29124338931648802 0.43334555462578611 0 0.31778888742534622 0.40581751814196781 0 0.27866744612395528 0.38416094670951489 0 0.31778888742534622 0.40581751814196781 0 0.29124338931648802 0.43334555462578611 0 0.36575549820117997 0.31677992835137742 0 0.33277555741076909 0.36432196682010132 0 0.32752639306529541 0.32610012995269699 0 0.35752321586431363 0.9185439911803448 0 0.32544832635163229 0.95485394099568932 0 0.30864387279288652 0.89906554525974958 0 0.27609987656793722 0.94991445621608572 0 0.30864387279288652 0.89906554525974958 0 0.32544832635163229 0.95485394099568932 0 0.33123028043633618 0.77629643437932982 0 0.30857225866488791 0.81101973481716805 0 0.2792923945214143 0.77665808831789485 0 0.33758650185219202 0.23837101504325639 0 0.29132859388405002 0.27203693976649962 0 0.28040350263641872 0.23054717217092141 0 0.4409427642593301 0.35743108089689513 0 0.41914690343363781 0.30688979866601612 0 0.46226845272279993 0.31901800744800313 0 0.14332333627550789 0.14578431753966009 0 0.13737030665753211 0.20313708640667491 0 0.106902708054812 0.16453234188234539 0 0.083105206071467416 0.20007701332709979 0 0.106902708054812 0.16453234188234539 0 0.13737030665753211 0.20313708640667491 0 0.083105206071452636 0.79992298667296435 0 0.1382744753146134 0.79650574229207483 0 0.1074251789111534 0.83564394292147814 0 0.14474682429600511 0.85524784522713515 0 0.1074251789111534 0.83564394292147814 0 0.1382744753146134 0.79650574229207483 0 0.65408113592120842 0.073941773121567966 0 0.7010294155333181 0.056779085686491267 0 0.68330259535470161 0.10038702501083881 0 0.72525833953073282 0.1032114801687094 0 0.68330259535470161 0.10038702501083881 0 0.7010294155333181 0.056779085686491267 0 0.049706944316475897 0.72477277076253799 0 0.046634677244967337 0.671418230738282 0 0.1020579365089687 0.69352219419301997 0 0.086179601630648681 0.64647209519980475 0 0.1020579365089687 0.69352219419301997 0 0.046634677244967337 0.671418230738282 0 0.087545339447545459 0.35122518864182262 0 0.046389130980076937 0.32668781832131749 0 0.093851963071650835 0.30582068233324772 0 0.049706944316556423 0.27522722923869108 0 0.093851963071650835 0.30582068233324772 0 0.046389130980076937 0.32668781832131749 0 0.82709327591091286 0.84937141670920724 0 0.80041942726660109 0.81543261647703358 0 0.84725310900444062 0.80779732082917555 0 0.82709327591102189 0.14937141670914489 0 0.80076557130237269 0.1154587552654202 0 0.84725310900442086 0.10779732082922661 0 0.17933913398461551 0.2350063570234002 0 0.14377654328998779 0.2442024734791064 0 0.13737030665753211 0.20313708640667491 0 0.18269480424590959 0.75905448272264375 0 0.1382744753146134 0.79650574229207483 0 0.14335651144331049 0.75565258250209677 0 0.33758650185219202 0.23837101504325639 0 0.3786248352540974 0.27082301512024259 0 0.33402499257867951 0.28911035184473982 0 0.14332333627550789 0.14578431753966009 0 0.18124454140915969 0.18790916706335251 0 0.13737030665753211 0.20313708640667491 0 0.14474682429600511 0.85524784522713515 0 0.1382744753146134 0.79650574229207483 0 0.17777405986036951 0.81832336108265358 0 0.5 0.29999999999999999 0 0.52752007115234678 0.33170632466418198 0 0.49077833859261139 0.35229981449445641 0 0.27866744612395528 0.38416094670951489 0 0.29644548887253103 0.34914008784168082 0 0.33277555741076909 0.36432196682010132 0 0 0.84999999999965292 0 0 0.79999999999999982 0 0.038512288486097702 0.8155852717111195 0 0 0.20000000000083221 0 0 0.15000000000062411 0 0.038512288486115001 0.1844147282893184 0 0.40326160981139969 0.73346192995102844 0 0.35415581127540569 0.73730480045900215 0 0.36622285152418499 0.69092437780804039 0 0.91696753777131557 0.497780560203536 0 0.96228564064454991 0.48206450662049471 0 0.95631871884947484 0.51827533208233789 0 0.33758650185219202 0.23837101504325639 0 0.31255190597181792 0.19850845631528771 0 0.3572130504031617 0.1874703368446563 0 0.59814117807200873 0.23398510860739519 0 0.62657463266645097 0.26524202571255862 0 0.5794309697024993 0.27124795968204829 0 0.34258405725730701 0.4444034294386992 0 0.31068898841644388 0.47541502461811092 0 0.29124338931648802 0.43334555462578611 0 0.38083244760691543 0.38531983672244652 0 0.35221190152536241 0.40457127605439203 0 0.33277555741076909 0.36432196682010132 0 0.083411279318375747 0.91030024466934134 0 0.10266856499240549 0.95548163909968886 0 0.053064897599294662 0.95186845269532028 0 0.083411279318303222 0.089699755330707398 0 0.053064897599215843 0.048131547304697528 0 0.10266856499169109 0.044518360900210059 0 0.42377727103934271 0.25099357235810238 0 0.4604742573284204 0.27846934318264788 0 0.41914690343363781 0.30688979866601612 0 0.28307294598219601 0.50789252727458634 0 0.25982634974572738 0.46097799597715272 0 0.31068898841644388 0.47541502461811092 0 0.29348325746214782 0.31350119524708198 0 0.29132859388405002 0.27203693976649962 0 0.33402499257867951 0.28911035184473982 0 0.35312867752657662 0.084946736076730367 0 0.39823268594401579 0.1116623613130045 0 0.36246644853392812 0.1399454205365751 0 0.7000000000006934 1 0 0.68015064798562208 0.95924320340003011 0 0.7250000000005199 0.94981617647078953 0 0.42377727103934271 0.25099357235810238 0 0.38831533174504851 0.2189834941785925 0 0.42905200079338551 0.19982395548231649 0 0.53823865529665704 0.45873898050322898 0 0.57744073070774993 0.41535148636609359 0 0.57975577671020095 0.46172033326338591 0 0.33758650185219202 0.23837101504325639 0 0.3572130504031617 0.1874703368446563 0 0.38831533174504851 0.2189834941785925 0 0.29124338931648802 0.43334555462578611 0 0.31068898841644388 0.47541502461811092 0 0.25982634974572738 0.46097799597715272 0 0.6084546825910605 0.37989672713932537 0 0.61959173890754571 0.33832250091341232 0 0.65481233915350323 0.35652751921065562 0 0.40326160981139969 0.73346192995102844 0 0.43323420005758778 0.6913544522562407 0 0.45582236402875981 0.73896743678908217 0 0.33758650185219202 0.23837101504325639 0 0.28040350263641872 0.23054717217092141 0 0.31255190597181792 0.19850845631528771 0 0.79999999999999982 1 0 0.75000000000034661 1 0 0.770759834363826 0.95919399014344442 0 0.74999999999999989 0.29999999999999999 0 0.77075983436335049 0.25919399014334171 0 0.79999999999999982 0.29999999999999999 0 0.6499999999999998 0.29999999999999999 0 0.67933712972090698 0.25920070958121938 0 0.69999999999999984 0.29999999999999999 0 0.39536230704883951 0.84069429572832477 0 0.39767323751400468 0.89584229130535065 0 0.35864759629805099 0.87963482415279515 0 0.54999999999999993 0.69999999999999996 0 0.52584555706968406 0.66664215091846768 0 0.57484956128872922 0.66573805030881994 0 0.35312867752657662 0.084946736076730367 0 0.32541448401678508 0.046215317981507749 0 0.3615861437013822 0.03582617922508851 0 0.35752321586431363 0.9185439911803448 0 0.36184234618600131 0.96443954459096326 0 0.32544832635163229 0.95485394099568932 0 0.35312867752657662 0.084946736076730367 0 0.3615861437013822 0.03582617922508851 0 0.39591832466117061 0.056982757562006353 0 0.35752321586431363 0.9185439911803448 0 0.39641108128798319 0.94356127926187128 0 0.36184234618600131 0.96443954459096326 0 0.083411279318303222 0.089699755330707398 0 0.044310582753132287 0.101412518374475 0 0.053064897599215843 0.048131547304697528 0 0.083411279318375747 0.91030024466934134 0 0.053064897599294662 0.95186845269532028 0 0.0443105827531413 0.89858748162559932 0 0.38083244760691543 0.38531983672244652 0 0.40076539126862748 0.34589349467022118 0 0.42161023666869668 0.39493916313643851 0 0.4409427642593301 0.35743108089689513 0 0.42161023666869668 0.39493916313643851 0 0.40076539126862748 0.34589349467022118 0 0.79999999999999982 0.29999999999999999 0 0.82500000000000062 0.33010209762754811 0 0.78145581580700685 0.34881365920033602 0 0.79999999999999982 0.69999999999999996 0 0.7750489929959945 0.66593931409600093 0 0.82457059160610424 0.66831947184359608 0 0.59999999999999976 0.69999999999999996 0 0.57484956128872922 0.66573805030881994 0 0.62460753523532009 0.66851202781000296 0 0.74999999999999989 0.69999999999999996 0 0.72500000000000064 0.67022701834392062 0 0.7750489929959945 0.66593931409600093 0 0.74999999999999989 0.29999999999999999 0 0.78145581580700685 0.34881365920033602 0 0.73090396928863699 0.33699297293167962 0 0.33758650185219202 0.23837101504325639 0 0.33402499257867951 0.28911035184473982 0 0.29132859388405002 0.27203693976649962 0 0.36575549820117997 0.31677992835137742 0 0.41914690343363781 0.30688979866601612 0 0.40076539126862748 0.34589349467022118 0 0.4409427642593301 0.35743108089689513 0 0.40076539126862748 0.34589349467022118 0 0.41914690343363781 0.30688979866601612 0 0.34258405725730701 0.4444034294386992 0 0.38707855792647411 0.42299362914874578 0 0.3908716102680424 0.47010282357248828 0 0.7000000000006934 1 0 0.65000000000104008 1 0 0.68015064798562208 0.95924320340003011 0 0.49102375406324739 0.49123754822244059 0 0.46111841286828259 0.46690301029591341 0 0.48858720058566618 0.43964267759203868 0 0.4656888918609538 0.78493261229743638 0 0.42676259796334498 0.76772545931379299 0 0.45582236402875981 0.73896743678908217 0 0.40326160981139969 0.73346192995102844 0 0.45582236402875981 0.73896743678908217 0 0.42676259796334498 0.76772545931379299 0 0.59999999999999976 0.29999999999999999 0 0.62657463266645097 0.26524202571255862 0 0.6499999999999998 0.29999999999999999 0 0.40000000000166441 1 0 0.36184234618600131 0.96443954459096326 0 0.39641108128798319 0.94356127926187128 0 0.3999999999989749 0 0 0.39591832466117061 0.056982757562006353 0 0.3615861437013822 0.03582617922508851 0 0.43249999999999988 0.43937499999999979 0 0.48858720058566618 0.43964267759203868 0 0.46111841286828259 0.46690301029591341 0 0.7250000000005199 0.89375000000045834 0 0.7250000000005199 0.94981617647078953 0 0.68987011941058407 0.92105047536677087 0 0.7250000000005199 0.89375000000045834 0 0.75729602384198635 0.92353652857884294 0 0.7250000000005199 0.94981617647078953 0 0.72500000000001008 0.19776155966387679 0 0.75668890529066124 0.2244279804069782 0 0.72500000000000064 0.2498161764706 0 0.72500000000001008 0.19776155966387679 0 0.72500000000000064 0.2498161764706 0 0.69397719155551807 0.2245125647000914 0 0.79999999999999982 0.29999999999999999 0 0.81486180804364938 0.26321394949780091 0 0.84999999999999987 0.29999999999999999 0 0.84999999999965292 1 0 0.79999999999999982 1 0 0.81486180804382891 0.96321394949790495 0 0.1247745017231483 0.27198077544791172 0 0.095326043202144745 0.24554465089224409 0 0.14377654328998779 0.2442024734791064 0 0.1215415378367805 0.72939333680004137 0 0.14335651144331049 0.75565258250209677 0 0.090953281884486245 0.7564451946902494 0 0.72500000000001008 0.19776155966387679 0 0.72634814642510737 0.16106886917518889 0 0.76587607630038135 0.18880039518954719 0 0.72500000000001008 0.19776155966387679 0 0.6865991819015953 0.189116534044597 0 0.72634814642510737 0.16106886917518889 0 0.77144070960558853 0.14311854477243749 0 0.76587607630038135 0.18880039518954719 0 0.72634814642510737 0.16106886917518889 0 0.68391457121233579 0.14440470121196541 0 0.72634814642510737 0.16106886917518889 0 0.6865991819015953 0.189116534044597 0 0.7250000000005199 0.89375000000045834 0 0.72863726579783861 0.85390518901155588 0 0.76891166905518427 0.88835469571185499 0 0.76901770135486491 0.84293557325473656 0 0.76891166905518427 0.88835469571185499 0 0.72863726579783861 0.85390518901155588 0 0 0.20000000000083221 0 0.038512288486115001 0.1844147282893184 0 0.044081577119474857 0.2271058242433576 0 0 0.79999999999999982 0 0.04408157711937423 0.7728941757575627 0 0.038512288486097702 0.8155852717111195 0 0.52375890611712683 0.059318771819432882 0 0.47881186583059909 0.093591717165689425 0 0.47040171442036788 0.044141676406503738 0 0.52122150208832174 0.94089974453840242 0 0.47135117303824892 0.95556877749289892 0 0.47401147028110507 0.91529957330468115 0 0.27474541102162192 0.11822029332053539 0 0.3096713403101819 0.085471541595262421 0 0.32215584939770009 0.1218492143506909 0 0.22278230690790279 0.44824268025881547 0 0.24049127783545701 0.41270748208749802 0 0.25982634974572738 0.46097799597715272 0 0.93732437411268477 0.55911392101136159 0 0.91143117093204207 0.58709913730335972 0 0.90900154012161016 0.53607784105648792 0 0.19901705110390991 0.9175543425573498 0 0.24536017905392571 0.90704567837671446 0 0.22850979588452081 0.95594428570238643 0 0.27609987656793722 0.94991445621608572 0 0.22850979588452081 0.95594428570238643 0 0.24536017905392571 0.90704567837671446 0 0.15720202157091859 0.60665697304410315 0 0.1241190223511371 0.64391885572885044 0 0.1024350934457823 0.60772393977513839 0 0.6499999999999998 0.69999999999999996 0 0.675261390228442 0.65996937624687813 0 0.69999999999999984 0.69999999999999996 0 0.3999999999989749 0 0 0.4320097814748517 0.037406712692169303 0 0.39591832466117061 0.056982757562006353 0 0.40000000000166441 1 0 0.39641108128798319 0.94356127926187128 0 0.4308986359464303 0.96395712492906194 0 0.54999999999999993 0.29999999999999999 0 0.56836770495988642 0.3523062350852913 0 0.52752007115234678 0.33170632466418198 0 0.14474682429600511 0.85524784522713515 0 0.17777405986036951 0.81832336108265358 0 0.19741632902693801 0.86755867406447229 0 0.21858834311891909 0.81980263716112767 0 0.19741632902693801 0.86755867406447229 0 0.17777405986036951 0.81832336108265358 0 0.54782696902220018 0.79245182748204157 0 0.50731287292894423 0.78963574450233831 0 0.50945740445113552 0.75476055527778108 0 0.20000000000083221 1 0 0.18474005699953849 0.96231585248064622 0 0.22850979588452081 0.95594428570238643 0 0.19999999999955789 0 0 0.22668068146512929 0.045875643423131329 0 0.184418230509967 0.038773194583122873 0 0.77846603114747959 0.49850927265137401 0 0.73947346780852752 0.49062440112282169 0 0.77972660463949339 0.45529290596363098 0 0.73483647259922602 0.44789725365921768 0 0.77972660463949339 0.45529290596363098 0 0.73947346780852752 0.49062440112282169 0 0.34258405725730701 0.4444034294386992 0 0.35024835142131061 0.48654922671676981 0 0.31068898841644388 0.47541502461811092 0 0.33123028043633618 0.77629643437932982 0 0.2792923945214143 0.77665808831789485 0 0.29904318922293632 0.74132814928635593 0 0.26573297623774761 0.59828298563722948 0 0.25115337790845271 0.54719303014923271 0 0.29110487519241501 0.56588143995431495 0 0.4656888918609538 0.78493261229743638 0 0.50945740445113552 0.75476055527778108 0 0.50731287292894423 0.78963574450233831 0 0.35312867752657662 0.084946736076730367 0 0.36246644853392812 0.1399454205365751 0 0.32215584939770009 0.1218492143506909 0 0.29348325746214782 0.31350119524708198 0 0.25966125648670141 0.34351016742083729 0 0.24432083401701241 0.3006253385567515 0 0.59999999999999976 0.69999999999999996 0 0.6499999999999998 0.69999999999999996 0 0.63221990677827677 0.73442891067859706 0 0.69999999999921003 0 0 0.7010294155333181 0.056779085686491267 0 0.66369801598854572 0.036327466368102787 0 0.40000000000166441 1 0 0.35000000000145642 1 0 0.36184234618600131 0.96443954459096326 0 0.34999999999912063 0 0 0.3999999999989749 0 0 0.3615861437013822 0.03582617922508851 0 0.43507373378304309 0.49699695397193322 0 0.47793794143994173 0.52940715638744962 0 0.42644501560315817 0.54603747078095544 0 0.14474682429600511 0.85524784522713515 0 0.19741632902693801 0.86755867406447229 0 0.16206583317966519 0.89685560785156404 0 0.19901705110390991 0.9175543425573498 0 0.16206583317966519 0.89685560785156404 0 0.19741632902693801 0.86755867406447229 0 0.35864735590330371 0.63903383440414463 0 0.3977710372045391 0.65868194622830212 0 0.36622285152418499 0.69092437780804039 0 0.7527966693318906 0.053051678021508272 0 0.7010294155333181 0.056779085686491267 0 0.72683645290270404 0.027797073151180601 0 0.71508799138962864 0.36622814920737751 0 0.72622533758026719 0.40265885511101601 0 0.68128176404677243 0.38629093627004979 0 0.79999999999999982 0.69999999999999996 0 0.84999999999999987 0.69999999999999996 0 0.81864958914779962 0.73589050177899629 0 0.79999999999947335 0 0 0.84999999999960507 0 0 0.81864958914740749 0.035890501779055867 0 0.39536230704883951 0.84069429572832477 0 0.35642984951668422 0.80994399665655703 0 0.38586766253264881 0.78219501014812498 0 0.42377727103934271 0.25099357235810238 0 0.46429753744194407 0.22870891180733599 0 0.4604742573284204 0.27846934318264788 0 0.39801143831225599 0.16651381068160659 0 0.42905200079338551 0.19982395548231649 0 0.38831533174504851 0.2189834941785925 0 0.79999999999999982 1 0 0.770759834363826 0.95919399014344442 0 0.81486180804382891 0.96321394949790495 0 0.79999999999999982 0.29999999999999999 0 0.77075983436335049 0.25919399014334171 0 0.81486180804364938 0.26321394949780091 0 0.25195515620380449 0.25883339815888678 0 0.21049769590865089 0.26857363548218488 0 0.224700362040408 0.22206622194729711 0 0.40326160981139969 0.73346192995102844 0 0.42676259796334498 0.76772545931379299 0 0.38586766253264881 0.78219501014812498 0 0.35312867752657662 0.084946736076730367 0 0.3096713403101819 0.085471541595262421 0 0.32541448401678508 0.046215317981507749 0 0.59999999999999976 0.29999999999999999 0 0.6499999999999998 0.29999999999999999 0 0.61959173890754571 0.33832250091341232 0 0.2185883431182947 0.18019736283949719 0 0.18652628422869419 0.14162325200928061 0 0.22985637510995899 0.1298347970200906 0 0.64999999999907843 0 0 0.69999999999921003 0 0 0.66369801598854572 0.036327466368102787 0 0.27499999999933927 0.060310814194988557 0 0.24218496799700481 0.089025544070598317 0 0.22668068146512929 0.045875643423131329 0 0.19922788606653311 0.085920220746880993 0 0.22668068146512929 0.045875643423131329 0 0.24218496799700481 0.089025544070598317 0 0.65507451745379841 0.92229208810758578 0 0.66412543161245952 0.88015090885499059 0 0.68987011941058407 0.92105047536677087 0 0.049706944316475897 0.72477277076253799 0 0.090953281884486245 0.7564451946902494 0 0.04408157711937423 0.7728941757575627 0 0.083105206071452636 0.79992298667296435 0 0.04408157711937423 0.7728941757575627 0 0.090953281884486245 0.7564451946902494 0 0.083105206071467416 0.20007701332709979 0 0.095326043202144745 0.24554465089224409 0 0.044081577119474857 0.2271058242433576 0 0.049706944316556423 0.27522722923869108 0 0.044081577119474857 0.2271058242433576 0 0.095326043202144745 0.24554465089224409 0 0.36575549820117997 0.31677992835137742 0 0.33402499257867951 0.28911035184473982 0 0.3786248352540974 0.27082301512024259 0 0.53245488764484505 0.55078124999999989 0 0.53330375813596242 0.50827942741749099 0 0.57435499076887508 0.54267261987897775 0 0.57611405284611883 0.50165903596042916 0 0.57435499076887508 0.54267261987897775 0 0.53330375813596242 0.50827942741749099 0 0.6499999999999998 0.29999999999999999 0 0.69999999999999984 0.29999999999999999 0 0.68887083591306764 0.33632058575757479 0 0.57611405284611883 0.50165903596042916 0 0.53823865529665704 0.45873898050322898 0 0.57975577671020095 0.46172033326338591 0 0.7750489929959945 0.66593931409600093 0 0.72500000000000064 0.67022701834392062 0 0.74994237037456724 0.62775548192980357 0 0.78145581580700685 0.34881365920033602 0 0.74764719760526988 0.3719647154012321 0 0.73090396928863699 0.33699297293167962 0 0.3999999999989749 0 0 0.44999999999882923 0 0 0.4320097814748517 0.037406712692169303 0 0.45000000000187229 1 0 0.40000000000166441 1 0 0.4308986359464303 0.96395712492906194 0 0.57484956128872922 0.66573805030881994 0 0.5991018319127801 0.62925360607495295 0 0.62460753523532009 0.66851202781000296 0 0.7750489929959945 0.66593931409600093 0 0.79884539758237771 0.62875045078114233 0 0.82457059160610424 0.66831947184359608 0 0.39801143831225599 0.16651381068160659 0 0.36246644853392812 0.1399454205365751 0 0.39823268594401579 0.1116623613130045 0 0.078358742472063481 0.43365249433908948 0 0.033550201249889847 0.46247875832467239 0 0.035463093262830522 0.42673416072819947 0 0.25676291524611189 0.7436741304886243 0 0.2792923945214143 0.77665808831789485 0 0.22556077506376701 0.77837424984191617 0 0.2236846579037573 0.67380363126050236 0 0.2248999640082178 0.72584299459689172 0 0.19068556247388771 0.71028988922845504 0 0.50715858906372158 0.63295939104129484 0 0.5166924242153631 0.59825134841919447 0 0.5498280205245758 0.6290146943450976 0 0.14618258501891079 0.062070108745602003 0 0.12372429750337779 0.095814237875728972 0 0.10266856499169109 0.044518360900210059 0 0.083411279318303222 0.089699755330707398 0 0.10266856499169109 0.044518360900210059 0 0.12372429750337779 0.095814237875728972 0 0.083411279318375747 0.91030024466934134 0 0.1241151115713819 0.9045666525468371 0 0.10266856499240549 0.95548163909968886 0 0.14617343800780541 0.93808063414349496 0 0.10266856499240549 0.95548163909968886 0 0.1241151115713819 0.9045666525468371 0 0.5499999999988151 0 0 0.59999999999894682 0 0 0.57396793757665954 0.037011367187645222 0 0.54782696902220018 0.79245182748204157 0 0.50627822638148745 0.8263979829520941 0 0.50731287292894423 0.78963574450233831 0 0.6499999999999998 0.29999999999999999 0 0.62657463266645097 0.26524202571255862 0 0.67933712972090698 0.25920070958121938 0 0.86956835336234861 0.571283299838105 0 0.86907294890112186 0.52008116128001669 0 0.90900154012161016 0.53607784105648792 0 0.17933913398461551 0.2350063570234002 0 0.224700362040408 0.22206622194729711 0 0.21049769590865089 0.26857363548218488 0 0.43249999999999988 0.43937499999999979 0 0.3908716102680424 0.47010282357248828 0 0.38707855792647411 0.42299362914874578 0 0.27474541102162192 0.11822029332053539 0 0.22985637510995899 0.1298347970200906 0 0.24218496799700481 0.089025544070598317 0 0.64753070846764316 0.77332939069435502 0 0.66427993341343905 0.73232764502436276 0 0.6916490518212759 0.75387992374886192 0 0 0.40000000000166441 0 0.050583896093752537 0.38543522283434112 0 0.035463093262830522 0.42673416072819947 0 0.73483647259922602 0.44789725365921768 0 0.73947346780852752 0.49062440112282169 0 0.69385896817107129 0.48377516041410151 0 0.57484956128872922 0.66573805030881994 0 0.52584555706968406 0.66664215091846768 0 0.5498280205245758 0.6290146943450976 0 0.60000000000138687 1 0 0.55000000000173355 1 0 0.57382506491224949 0.9629411906298494 0 0.068743045408989428 0.48853989837882689 0 0.085622222639554768 0.53333248912060549 0 0.044576108720083309 0.53509043209532614 0 0.083105206071467416 0.20007701332709979 0 0.044081577119474857 0.2271058242433576 0 0.038512288486115001 0.1844147282893184 0 0.083105206071452636 0.79992298667296435 0 0.038512288486097702 0.8155852717111195 0 0.04408157711937423 0.7728941757575627 0 0.28307294598219601 0.50789252727458634 0 0.23975172658309729 0.49475499200540818 0 0.25982634974572738 0.46097799597715272 0 0.43698630808430822 0.080423614171545449 0 0.39591832466117061 0.056982757562006353 0 0.4320097814748517 0.037406712692169303 0 0.4367309254023824 0.92065556789053882 0 0.4308986359464303 0.96395712492906194 0 0.39641108128798319 0.94356127926187128 0 0.80185942888539485 0.77452061303608133 0 0.75841349681148107 0.75422312624214749 0 0.78578450296893509 0.73292684821144505 0 0.80185942888501827 0.074520613036224564 0 0.7527966693318906 0.053051678021508272 0 0.78393852574753176 0.032039079577822822 0 0.6499999999999998 0.69999999999999996 0 0.62460753523532009 0.66851202781000296 0 0.675261390228442 0.65996937624687813 0 0.33123028043633618 0.77629643437932982 0 0.38586766253264881 0.78219501014812498 0 0.35642984951668422 0.80994399665655703 0 0.6405463747586706 0.63290524857395714 0 0.675261390228442 0.65996937624687813 0 0.62460753523532009 0.66851202781000296 0 0.22278230690790279 0.44824268025881547 0 0.191953871957803 0.42546416763755879 0 0.24049127783545701 0.41270748208749802 0 0.077693244765132896 0.56932317963405099 0 0.050069554451969707 0.61308520079857043 0 0.034381862692950467 0.57372682250960894 0 0.25195515620380449 0.25883339815888678 0 0.24432083401701241 0.3006253385567515 0 0.21049769590865089 0.26857363548218488 0 0.46666084890304671 0.57634471035397938 0 0.5166924242153631 0.59825134841919447 0 0.47095389620662098 0.61892551373708504 0 0.50715858906372158 0.63295939104129484 0 0.47095389620662098 0.61892551373708504 0 0.5166924242153631 0.59825134841919447 0 0.72525833953073282 0.1032114801687094 0 0.7527966693318906 0.053051678021508272 0 0.76878382444651716 0.097147941686331368 0 0.80185942888501827 0.074520613036224564 0 0.76878382444651716 0.097147941686331368 0 0.7527966693318906 0.053051678021508272 0 0.72500000000000064 0.7952620967744265 0 0.75841349681148107 0.75422312624214749 0 0.77094201086366854 0.79647480515688507 0 0.80185942888539485 0.77452061303608133 0 0.77094201086366854 0.79647480515688507 0 0.75841349681148107 0.75422312624214749 0 0.72500000000000064 0.7952620967744265 0 0.68024162096458085 0.79868546898116533 0 0.6916490518212759 0.75387992374886192 0 0.64753070846764316 0.77332939069435502 0 0.6916490518212759 0.75387992374886192 0 0.68024162096458085 0.79868546898116533 0 0 0.50000000000205869 0 0 0.45000000000187229 0 0.033550201249889847 0.46247875832467239 0 0.69999999999999984 0.69999999999999996 0 0.675261390228442 0.65996937624687813 0 0.72500000000000064 0.67022701834392062 0 0.71406021706547751 0.63292083137662503 0 0.72500000000000064 0.67022701834392062 0 0.675261390228442 0.65996937624687813 0 0.65408113592120842 0.073941773121567966 0 0.61940220174112337 0.047251958781050582 0 0.66369801598854572 0.036327466368102787 0 0.59999999999894682 0 0 0.61940220174112337 0.047251958781050582 0 0.57396793757665954 0.037011367187645222 0 0.60000000000138687 1 0 0.57382506491224949 0.9629411906298494 0 0.62065498684670595 0.95224934003983619 0 0.33122374654748771 0.57588941099433744 0 0.35765792684946668 0.6000687869219653 0 0.31502927232353312 0.6134992213375432 0 0.35864735590330371 0.63903383440414463 0 0.31502927232353312 0.6134992213375432 0 0.35765792684946668 0.6000687869219653 0 0.15801167086041079 0.46008690540259539 0 0.19604738184454831 0.47787523520405789 0 0.16618607197337229 0.50652878253548905 0 0.078358742472063481 0.43365249433908948 0 0.035463093262830522 0.42673416072819947 0 0.050583896093752537 0.38543522283434112 0 0.19901705110390991 0.9175543425573498 0 0.22850979588452081 0.95594428570238643 0 0.18474005699953849 0.96231585248064622 0 0.19922788606653311 0.085920220746880993 0 0.184418230509967 0.038773194583122873 0 0.22668068146512929 0.045875643423131329 0 0.19922788606653311 0.085920220746880993 0 0.24218496799700481 0.089025544070598317 0 0.22985637510995899 0.1298347970200906 0 0.74999999999999989 0.69999999999999996 0 0.78578450296893509 0.73292684821144505 0 0.75841349681148107 0.75422312624214749 0 0.74999999999934175 0 0 0.78393852574753176 0.032039079577822822 0 0.7527966693318906 0.053051678021508272 0 0 0.60000000000138687 0 0.034381862692950467 0.57372682250960894 0 0.050069554451969707 0.61308520079857043 0 0.2236846579037573 0.67380363126050236 0 0.26439878998046262 0.7048065392091396 0 0.2248999640082178 0.72584299459689172 0 0.6236733212988993 0.14864538214901801 0 0.58516465772821369 0.11653801664834119 0 0.61956000905586006 0.1043312481793135 0 0.26104540868854792 0.81401944968719064 0 0.2792923945214143 0.77665808831789485 0 0.30857225866488791 0.81101973481716805 0 0.42377727103934271 0.25099357235810238 0 0.42905200079338551 0.19982395548231649 0 0.46429753744194407 0.22870891180733599 0 0.27820712747429932 0.65530134213254643 0 0.31502927232353312 0.6134992213375432 0 0.32263089806001177 0.66003674931826484 0 0.61343887413683884 0.856862479058357 0 0.61885627562261258 0.90282959257498208 0 0.5832743223239254 0.88483152652961872 0 0.43698630808430822 0.080423614171545449 0 0.47040171442036788 0.044141676406503738 0 0.47881186583059909 0.093591717165689425 0 0.4367309254023824 0.92065556789053882 0 0.47401147028110507 0.91529957330468115 0 0.47135117303824892 0.95556877749289892 0 0.91696753777131557 0.497780560203536 0 0.95631871884947484 0.51827533208233789 0 0.90900154012161016 0.53607784105648792 0 0.93732437411268477 0.55911392101136159 0 0.90900154012161016 0.53607784105648792 0 0.95631871884947484 0.51827533208233789 0 0.27474541102162192 0.11822029332053539 0 0.25557216766470708 0.15874861286892261 0 0.22985637510995899 0.1298347970200906 0 0.2185883431182947 0.18019736283949719 0 0.22985637510995899 0.1298347970200906 0 0.25557216766470708 0.15874861286892261 0 0.29348325746214782 0.31350119524708198 0 0.33402499257867951 0.28911035184473982 0 0.32752639306529541 0.32610012995269699 0 0.27499999999933927 0.060310814194988557 0 0.32541448401678508 0.046215317981507749 0 0.3096713403101819 0.085471541595262421 0 0.27270076654418179 0.87751467830216623 0 0.24536017905392571 0.90704567837671446 0 0.2401283238295133 0.85648409884788523 0 1 0.44999999999963131 0 1 0.49999999999950101 0 0.96228564064454991 0.48206450662049471 0 0.61343887413683884 0.856862479058357 0 0.66412543161245952 0.88015090885499059 0 0.61885627562261258 0.90282959257498208 0 0 0.45000000000187229 0 0 0.40000000000166441 0 0.035463093262830522 0.42673416072819947 0 0.69999999999999984 0.69999999999999996 0 0.6916490518212759 0.75387992374886192 0 0.66427993341343905 0.73232764502436276 0 0.43846182030517877 0.64845797726506715 0 0.43323420005758778 0.6913544522562407 0 0.3977710372045391 0.65868194622830212 0 0.4367309254023824 0.92065556789053882 0 0.44003836461056539 0.88093474584252718 0 0.47401147028110507 0.91529957330468115 0 0.43846182030517877 0.64845797726506715 0 0.39743091024207589 0.6239520004230239 0 0.43545892161006339 0.61093128915313821 0 0.43846182030517877 0.64845797726506715 0 0.3977710372045391 0.65868194622830212 0 0.39743091024207589 0.6239520004230239 0 0.26429849586623999 0.19346700179430079 0 0.29336099386129338 0.15892013001050981 0 0.31255190597181792 0.19850845631528771 0 0.19670163708476801 0.31472518408333222 0 0.21049769590865089 0.26857363548218488 0 0.24432083401701241 0.3006253385567515 0 0.57724883562309992 0.92155686857100794 0 0.62065498684670595 0.95224934003983619 0 0.57382506491224949 0.9629411906298494 0 0.4409427642593301 0.35743108089689513 0 0.46655310992796922 0.39650496622958609 0 0.42161023666869668 0.39493916313643851 0 0.46666084890304671 0.57634471035397938 0 0.47095389620662098 0.61892551373708504 0 0.43545892161006339 0.61093128915313821 0 0.6879972333610942 0.43038561374960838 0 0.65178832218679827 0.45929119821019959 0 0.63912439215427275 0.41063340167983359 0 0.43698630808430822 0.080423614171545449 0 0.4320097814748517 0.037406712692169303 0 0.47040171442036788 0.044141676406503738 0 0.4367309254023824 0.92065556789053882 0 0.47135117303824892 0.95556877749289892 0 0.4308986359464303 0.96395712492906194 0 0.79680861578988083 0.92656778056766709 0 0.81486180804382891 0.96321394949790495 0 0.770759834363826 0.95919399014344442 0 0.79680861578956375 0.22656778056752541 0 0.81486180804364938 0.26321394949780091 0 0.77075983436335049 0.25919399014334171 0 0.71508799138962864 0.36622814920737751 0 0.68128176404677243 0.38629093627004979 0 0.68887083591306764 0.33632058575757479 0 0.35864735590330371 0.63903383440414463 0 0.32263089806001177 0.66003674931826484 0 0.31502927232353312 0.6134992213375432 0 0.21858834311891909 0.81980263716112767 0 0.2401283238295133 0.85648409884788523 0 0.19741632902693801 0.86755867406447229 0 0.35312867752657662 0.084946736076730367 0 0.32215584939770009 0.1218492143506909 0 0.3096713403101819 0.085471541595262421 0 0.35752321586431363 0.9185439911803448 0 0.35864759629805099 0.87963482415279515 0 0.39767323751400468 0.89584229130535065 0 0.41914690343363781 0.30688979866601612 0 0.4604742573284204 0.27846934318264788 0 0.46226845272279993 0.31901800744800313 0 0.33084213324567391 0.16272720141332131 0 0.32215584939770009 0.1218492143506909 0 0.36246644853392812 0.1399454205365751 0 0.46666084890304671 0.57634471035397938 0 0.42644501560315817 0.54603747078095544 0 0.47793794143994173 0.52940715638744962 0 0 0.60000000000138687 0 0 0.55000000000173355 0 0.034381862692950467 0.57372682250960894 0 0.77354604466818633 0.40378688774472771 0 0.74764719760526988 0.3719647154012321 0 0.78145581580700685 0.34881365920033602 0 0.34999999999912063 0 0 0.3615861437013822 0.03582617922508851 0 0.32541448401678508 0.046215317981507749 0 0.35000000000145642 1 0 0.32544832635163229 0.95485394099568932 0 0.36184234618600131 0.96443954459096326 0 0.57667858002728545 0.078486105337742612 0 0.57396793757665954 0.037011367187645222 0 0.61940220174112337 0.047251958781050582 0 0.47357141910802508 0.1873585799078378 0 0.50760557329222289 0.20700468884612061 0 0.46429753744194407 0.22870891180733599 0 0.49695729691142171 0.25014895411178018 0 0.46429753744194407 0.22870891180733599 0 0.50760557329222289 0.20700468884612061 0 0.33084213324567391 0.16272720141332131 0 0.3572130504031617 0.1874703368446563 0 0.31255190597181792 0.19850845631528771 0 0.6879972333610942 0.43038561374960838 0 0.63912439215427275 0.41063340167983359 0 0.68128176404677243 0.38629093627004979 0 0.65408113592120842 0.073941773121567966 0 0.65290632656860115 0.11434202593454081 0 0.61956000905586006 0.1043312481793135 0 0.33084213324567391 0.16272720141332131 0 0.31255190597181792 0.19850845631528771 0 0.29336099386129338 0.15892013001050981 0 0.61209567303293111 0.44669033081290321 0 0.63912439215427275 0.41063340167983359 0 0.65178832218679827 0.45929119821019959 0 0.086179601630648681 0.64647209519980475 0 0.1024350934457823 0.60772393977513839 0 0.1241190223511371 0.64391885572885044 0 0.44999999999882923 0 0 0.47040171442036788 0.044141676406503738 0 0.4320097814748517 0.037406712692169303 0 0.45000000000187229 1 0 0.4308986359464303 0.96395712492906194 0 0.47135117303824892 0.95556877749289892 0 0.74999999999934175 0 0 0.7527966693318906 0.053051678021508272 0 0.72683645290270404 0.027797073151180601 0 0.74999999999999989 0.69999999999999996 0 0.75841349681148107 0.75422312624214749 0 0.72501250972655151 0.74067302935308721 0 0.69999999999999984 0.69999999999999996 0 0.72501250972655151 0.74067302935308721 0 0.6916490518212759 0.75387992374886192 0 0.74999999999934175 0 0 0.79999999999947335 0 0 0.78393852574753176 0.032039079577822822 0 0.74999999999999989 0.69999999999999996 0 0.79999999999999982 0.69999999999999996 0 0.78578450296893509 0.73292684821144505 0 0.6405463747586706 0.63290524857395714 0 0.5991018319127801 0.62925360607495295 0 0.63065402604362242 0.59661356661633302 0 0.65481233915350323 0.35652751921065562 0 0.68887083591306764 0.33632058575757479 0 0.68128176404677243 0.38629093627004979 0 0.89999999999999991 0.29999999999999999 0 0.94999999999999996 0.29999999999999999 0 0.92012390126144183 0.33123581297173937 0 0.89999999999999991 0.69999999999999996 0 0.92057473616084773 0.66770436535372446 0 0.94999999999999996 0.69999999999999996 0 0.4367309254023824 0.92065556789053882 0 0.39767323751400468 0.89584229130535065 0 0.44003836461056539 0.88093474584252718 0 0.2185883431182947 0.18019736283949719 0 0.18124454140915969 0.18790916706335251 0 0.18652628422869419 0.14162325200928061 0 0.20050006573841939 0.53248514016039872 0 0.19604738184454831 0.47787523520405789 0 0.23975172658309729 0.49475499200540818 0 0.65507451745379841 0.92229208810758578 0 0.61885627562261258 0.90282959257498208 0 0.66412543161245952 0.88015090885499059 0 0.65394964615507722 0.22666784374016369 0 0.67933712972090698 0.25920070958121938 0 0.62657463266645097 0.26524202571255862 0 0.077693244765132896 0.56932317963405099 0 0.034381862692950467 0.57372682250960894 0 0.044576108720083309 0.53509043209532614 0 0.39801143831225599 0.16651381068160659 0 0.38831533174504851 0.2189834941785925 0 0.3572130504031617 0.1874703368446563 0 0.6499999999999998 0.69999999999999996 0 0.69999999999999984 0.69999999999999996 0 0.66427993341343905 0.73232764502436276 0 0.1215415378367805 0.72939333680004137 0 0.15332765547575641 0.71200081858233666 0 0.14335651144331049 0.75565258250209677 0 0.6405463747586706 0.63290524857395714 0 0.63065402604362242 0.59661356661633302 0 0.67529834988829951 0.61613270668143583 0 0.67323294229744413 0.57556450033612505 0 0.67529834988829951 0.61613270668143583 0 0.63065402604362242 0.59661356661633302 0 0.91750694127107502 0.36982372220068471 0 0.87430060258887643 0.34056085888204451 0 0.92012390126144183 0.33123581297173937 0 0.89999999999999991 0.29999999999999999 0 0.92012390126144183 0.33123581297173937 0 0.87430060258887643 0.34056085888204451 0 0.89999999999999991 0.69999999999999996 0 0.87712158428786946 0.65709029563313581 0 0.92057473616084773 0.66770436535372446 0 0.91750694127105259 0.63017627779935648 0 0.92057473616084773 0.66770436535372446 0 0.87712158428786946 0.65709029563313581 0 0.33122374654748771 0.57588941099433744 0 0.29110487519241501 0.56588143995431495 0 0.33190227185843768 0.52715113583864037 0 0.57484956128872922 0.66573805030881994 0 0.5498280205245758 0.6290146943450976 0 0.5991018319127801 0.62925360607495295 0 0.57412547362576272 0.58273804879550706 0 0.5991018319127801 0.62925360607495295 0 0.5498280205245758 0.6290146943450976 0 0.65408113592120842 0.073941773121567966 0 0.66369801598854572 0.036327466368102787 0 0.7010294155333181 0.056779085686491267 0 0.27474541102162192 0.11822029332053539 0 0.32215584939770009 0.1218492143506909 0 0.29336099386129338 0.15892013001050981 0 0.33084213324567391 0.16272720141332131 0 0.29336099386129338 0.15892013001050981 0 0.32215584939770009 0.1218492143506909 0 0.5 0.29999999999999999 0 0.54999999999999993 0.29999999999999999 0 0.52752007115234678 0.33170632466418198 0 0.83573492347052902 0.36590755630746369 0 0.87430060258887643 0.34056085888204451 0 0.86844634540301924 0.38530937474099819 0 0.83758014339878906 0.63222013025741819 0 0.87159648282691515 0.61285406320581504 0 0.87712158428786946 0.65709029563313581 0 0.22278230690790279 0.44824268025881547 0 0.23975172658309729 0.49475499200540818 0 0.19604738184454831 0.47787523520405789 0 1 0.49999999999950101 0 0.95631871884947484 0.51827533208233789 0 0.96228564064454991 0.48206450662049471 0 0.1650278706801647 0.38791388161335733 0 0.13773355295499351 0.42497777642586831 0 0.1117088112799664 0.38831403004970022 0 0.61209567303293111 0.44669033081290321 0 0.57975577671020095 0.46172033326338591 0 0.57744073070774993 0.41535148636609359 0 0.077693244765132896 0.56932317963405099 0 0.1154888278694548 0.56733818459978413 0 0.1024350934457823 0.60772393977513839 0 0.68697391633157634 0.84450604838764298 0 0.65005442820240822 0.82644988530054031 0 0.68024162096458085 0.79868546898116533 0 0.76901770135486491 0.84293557325473656 0 0.77094201086366854 0.79647480515688507 0 0.80041942726660109 0.81543261647703358 0 0.77144070960558853 0.14311854477243749 0 0.76878382444651716 0.097147941686331368 0 0.80076557130237269 0.1154587552654202 0 0.5 0.69999999999999996 0 0.52584555706968406 0.66664215091846768 0 0.54999999999999993 0.69999999999999996 0 0.077693244765132896 0.56932317963405099 0 0.044576108720083309 0.53509043209532614 0 0.085622222639554768 0.53333248912060549 0 0.69999999999921003 0 0 0.72683645290270404 0.027797073151180601 0 0.7010294155333181 0.056779085686491267 0 1 0 0 0.97166519676946894 0.033371144900598393 0 0.94999999999986839 0 0 1 0.69999999999999996 0 0.97166519676947294 0.73337114490064459 0 0.94999999999999996 0.69999999999999996 0 1 0.69999999999999996 0 1 0.74999999999993494 0 0.97166519676947294 0.73337114490064459 0 1 0.29999999999999999 0 0.97166519676951801 0.26662885509932011 0 1 0.24999999999987299 0 1 1 0 0.94999999999979179 1 0 0.97166519676946206 0.96662885509935492 0 1 0 0 1 0.049999999999896842 0 0.97166519676946894 0.033371144900598393 0 1 0.29999999999999999 0 0.94999999999999996 0.29999999999999999 0 0.97166519676951801 0.26662885509932011 0 1 1 0 0.97166519676946206 0.96662885509935492 0 1 0.94999999999997109 0 0 0.55000000000173355 0 0.044576108720083309 0.53509043209532614 0 0.034381862692950467 0.57372682250960894 0 0.6879972333610942 0.43038561374960838 0 0.69385896817107129 0.48377516041410151 0 0.65178832218679827 0.45929119821019959 0 0.33084213324567391 0.16272720141332131 0 0.36246644853392812 0.1399454205365751 0 0.3572130504031617 0.1874703368446563 0 0.65408113592120842 0.073941773121567966 0 0.68330259535470161 0.10038702501083881 0 0.65290632656860115 0.11434202593454081 0 0.16500388252850301 0.66612077714085194 0 0.19068556247388771 0.71028988922845504 0 0.15332765547575641 0.71200081858233666 0 0.82709327591091286 0.84937141670920724 0 0.85600844944837662 0.88483418979512773 0 0.81159157511211755 0.88795995483179491 0 0.82709327591102189 0.14937141670914489 0 0.85600844944842547 0.1848341897950983 0 0.81283102246527783 0.1881007222486438 0 0.79999999999999982 0.29999999999999999 0 0.84999999999999987 0.29999999999999999 0 0.82500000000000062 0.33010209762754811 0 0.79999999999999982 0.69999999999999996 0 0.82457059160610424 0.66831947184359608 0 0.84999999999999987 0.69999999999999996 0 0.59999999999999976 0.69999999999999996 0 0.62460753523532009 0.66851202781000296 0 0.6499999999999998 0.69999999999999996 0 0.39801143831225599 0.16651381068160659 0 0.3572130504031617 0.1874703368446563 0 0.36246644853392812 0.1399454205365751 0 0.69999999999999984 0.29999999999999999 0 0.74999999999999989 0.29999999999999999 0 0.73090396928863699 0.33699297293167962 0 0.69999999999999984 0.69999999999999996 0 0.72500000000000064 0.67022701834392062 0 0.74999999999999989 0.69999999999999996 0 0.6236733212988993 0.14864538214901801 0 0.64011864159029941 0.18789607982138171 0 0.59443395090188023 0.18455690917515069 0 0.20050006573841939 0.53248514016039872 0 0.16618607197337229 0.50652878253548905 0 0.19604738184454831 0.47787523520405789 0 0.79680861578956375 0.22656778056752541 0 0.76587607630038135 0.18880039518954719 0 0.81283102246527783 0.1881007222486438 0 0.79680861578988083 0.92656778056766709 0 0.76891166905518427 0.88835469571185499 0 0.81159157511211755 0.88795995483179491 0 0.71406021706547751 0.63292083137662503 0 0.675261390228442 0.65996937624687813 0 0.67529834988829951 0.61613270668143583 0 0.6405463747586706 0.63290524857395714 0 0.67529834988829951 0.61613270668143583 0 0.675261390228442 0.65996937624687813 0 0.19670163708476801 0.31472518408333222 0 0.168349569971391 0.28054490850913671 0 0.21049769590865089 0.26857363548218488 0 0.47357141910802508 0.1873585799078378 0 0.46429753744194407 0.22870891180733599 0 0.42905200079338551 0.19982395548231649 0 0.59814117807200873 0.23398510860739519 0 0.5794309697024993 0.27124795968204829 0 0.54248833945060504 0.2520322959927106 0 0.6541250972820879 0.49999999999999989 0 0.65178832218679827 0.45929119821019959 0 0.69385896817107129 0.48377516041410151 0 0.54999999999999993 0.29999999999999999 0 0.5794309697024993 0.27124795968204829 0 0.59999999999999976 0.29999999999999999 0 0.7750489929959945 0.66593931409600093 0 0.74994237037456724 0.62775548192980357 0 0.79884539758237771 0.62875045078114233 0 0.77293540622714185 0.59448302402785813 0 0.79884539758237771 0.62875045078114233 0 0.74994237037456724 0.62775548192980357 0 0.14332333627550789 0.14578431753966009 0 0.16141998738593399 0.10404039647458049 0 0.18652628422869419 0.14162325200928061 0 0.38083244760691543 0.38531983672244652 0 0.42161023666869668 0.39493916313643851 0 0.38707855792647411 0.42299362914874578 0 0.43249999999999988 0.43937499999999979 0 0.38707855792647411 0.42299362914874578 0 0.42161023666869668 0.39493916313643851 0 0.43846182030517877 0.64845797726506715 0 0.47095389620662098 0.61892551373708504 0 0.47913475093885149 0.66010775372412711 0 0.50715858906372158 0.63295939104129484 0 0.47913475093885149 0.66010775372412711 0 0.47095389620662098 0.61892551373708504 0 0.69999999999999984 0.69999999999999996 0 0.74999999999999989 0.69999999999999996 0 0.72501250972655151 0.74067302935308721 0 0.4089290844030305 0.58728915500154233 0 0.35765792684946668 0.6000687869219653 0 0.37272913873093971 0.56192925302619479 0 0.69999999999921003 0 0 0.74999999999934175 0 0 0.72683645290270404 0.027797073151180601 0 0.17933913398461551 0.2350063570234002 0 0.21049769590865089 0.26857363548218488 0 0.168349569971391 0.28054490850913671 0 0.14474682429600511 0.85524784522713515 0 0.10562472963403439 0.87143394428979881 0 0.1074251789111534 0.83564394292147814 0 0.14332333627550789 0.14578431753966009 0 0.106902708054812 0.16453234188234539 0 0.1053400320299198 0.12877248826361379 0 0.2236846579037573 0.67380363126050236 0 0.19914261668318661 0.62286739485272158 0 0.2459498854893499 0.63248470766216769 0 0.049999999999899652 0 0 0.053064897599215843 0.048131547304697528 0 0.02576622439977887 0.024532886826226379 0 0 0.050000000000207989 0 0.02576622439977887 0.024532886826226379 0 0.053064897599215843 0.048131547304697528 0 0.050000000000207989 1 0 0.025766224399875661 0.97546711317377799 0 0.053064897599294662 0.95186845269532028 0 0 0.94999999999979179 0 0.053064897599294662 0.95186845269532028 0 0.025766224399875661 0.97546711317377799 0 0.47357141910802508 0.1873585799078378 0 0.48466639505193998 0.1421439844745814 0 0.51729576145820033 0.1683240575987815 0 0.077693244765132896 0.56932317963405099 0 0.085622222639554768 0.53333248912060549 0 0.1154888278694548 0.56733818459978413 0 0.64753070846764316 0.77332939069435502 0 0.63221990677827677 0.73442891067859706 0 0.66427993341343905 0.73232764502436276 0 0.4656888918609538 0.78493261229743638 0 0.42609163930740518 0.80361684430568059 0 0.42676259796334498 0.76772545931379299 0 0.4089290844030305 0.58728915500154233 0 0.39743091024207589 0.6239520004230239 0 0.35765792684946668 0.6000687869219653 0 0.55306006949600994 0.20198184231352201 0 0.50760557329222289 0.20700468884612061 0 0.51729576145820033 0.1683240575987815 0 1 0.8999999999998336 0 1 0.94999999999997109 0 0.97435614836744289 0.92499999999990257 0 1 0.19999999999974799 0 1 0.24999999999987299 0 0.97435614836740092 0.22499999999981049 0 1 0.74999999999993494 0 1 0.7999999999998193 0 0.97435614836745565 0.77499999999987745 0 1 0.049999999999896842 0 1 0.099999999999753911 0 0.97435614836748241 0.074999999999825387 0 0.86411095495256451 0.42388805655111889 0 0.86844634540301924 0.38530937474099819 0 0.90594285160987287 0.4141265964174129 0 0.86956835336234861 0.571283299838105 0 0.91143117093204207 0.58709913730335972 0 0.87159648282691515 0.61285406320581504 0 0 0 0 0.02576622439977887 0.024532886826226379 0 0 0.050000000000207989 0 0 1 0 0 0.94999999999979179 0 0.025766224399875661 0.97546711317377799 0 0 1 0 0.025766224399875661 0.97546711317377799 0 0.050000000000207989 1 0 0 0 0 0.049999999999899652 0 0 0.02576622439977887 0.024532886826226379 0 0.65394964615507722 0.22666784374016369 0 0.64011864159029941 0.18789607982138171 0 0.6865991819015953 0.189116534044597 0 0.25195515620380449 0.25883339815888678 0 0.28040350263641872 0.23054717217092141 0 0.29132859388405002 0.27203693976649962 0 0.61209567303293111 0.44669033081290321 0 0.65178832218679827 0.45929119821019959 0 0.61547661924074692 0.48539576058873962 0 0.6541250972820879 0.49999999999999989 0 0.61547661924074692 0.48539576058873962 0 0.65178832218679827 0.45929119821019959 0 0.19670163708476801 0.31472518408333222 0 0.24432083401701241 0.3006253385567515 0 0.22615676742807109 0.33458786033114157 0 0.15801167086041079 0.46008690540259539 0 0.13773355295499351 0.42497777642586831 0 0.191953871957803 0.42546416763755879 0 0.1650278706801647 0.38791388161335733 0 0.191953871957803 0.42546416763755879 0 0.13773355295499351 0.42497777642586831 0 0.50715858906372158 0.63295939104129484 0 0.52584555706968406 0.66664215091846768 0 0.47913475093885149 0.66010775372412711 0 0.5 0.69999999999999996 0 0.47913475093885149 0.66010775372412711 0 0.52584555706968406 0.66664215091846768 0 0.51076801031701946 0.1202837388510348 0 0.51729576145820033 0.1683240575987815 0 0.48466639505193998 0.1421439844745814 0 0.71406021706547751 0.63292083137662503 0 0.74994237037456724 0.62775548192980357 0 0.72500000000000064 0.67022701834392062 0 0.71508799138962864 0.36622814920737751 0 0.73090396928863699 0.33699297293167962 0 0.74764719760526988 0.3719647154012321 0 0.22278230690790279 0.44824268025881547 0 0.25982634974572738 0.46097799597715272 0 0.23975172658309729 0.49475499200540818 0 0.80185942888539485 0.77452061303608133 0 0.78578450296893509 0.73292684821144505 0 0.81864958914779962 0.73589050177899629 0 0.80185942888501827 0.074520613036224564 0 0.78393852574753176 0.032039079577822822 0 0.81864958914740749 0.035890501779055867 0 0.5 0.29999999999999999 0 0.46226845272279993 0.31901800744800313 0 0.4604742573284204 0.27846934318264788 0 0.6405463747586706 0.63290524857395714 0 0.62460753523532009 0.66851202781000296 0 0.5991018319127801 0.62925360607495295 0 0.79680861578988083 0.92656778056766709 0 0.770759834363826 0.95919399014344442 0 0.75729602384198635 0.92353652857884294 0 0.79680861578956375 0.22656778056752541 0 0.77075983436335049 0.25919399014334171 0 0.75668890529066124 0.2244279804069782 0 0.65394964615507722 0.22666784374016369 0 0.69397719155551807 0.2245125647000914 0 0.67933712972090698 0.25920070958121938 0 0.81973119833356312 0.43505687159469048 0 0.84925632466077294 0.45359738909549091 0 0.81400510706333218 0.47357325943904899 0 0.83758014339878906 0.63222013025741819 0 0.82457059160610424 0.66831947184359608 0 0.79884539758237771 0.62875045078114233 0 0.25676291524611189 0.7436741304886243 0 0.2248999640082178 0.72584299459689172 0 0.26439878998046262 0.7048065392091396 0 0.91696753777131557 0.497780560203536 0 0.90900154012161016 0.53607784105648792 0 0.86907294890112186 0.52008116128001669 0 0.17933913398461551 0.2350063570234002 0 0.168349569971391 0.28054490850913671 0 0.14377654328998779 0.2442024734791064 0 0.1247745017231483 0.27198077544791172 0 0.14377654328998779 0.2442024734791064 0 0.168349569971391 0.28054490850913671 0 0.34258405725730701 0.4444034294386992 0 0.35221190152536241 0.40457127605439203 0 0.38707855792647411 0.42299362914874578 0 0.47357141910802508 0.1873585799078378 0 0.51729576145820033 0.1683240575987815 0 0.50760557329222289 0.20700468884612061 0 0.19670163708476801 0.31472518408333222 0 0.22615676742807109 0.33458786033114157 0 0.18434624290945251 0.35208838264196463 0 0.22033343844674469 0.36963382230740238 0 0.18434624290945251 0.35208838264196463 0 0.22615676742807109 0.33458786033114157 0 0.24432083401701241 0.3006253385567515 0 0.25966125648670141 0.34351016742083729 0 0.22615676742807109 0.33458786033114157 0 0.93814194660195893 0.44426664081746747 0 0.90594285160987287 0.4141265964174129 0 0.95871855522754235 0.40006508612975411 0 0.91750694127107502 0.36982372220068471 0 0.95871855522754235 0.40006508612975411 0 0.90594285160987287 0.4141265964174129 0 0.91750694127105259 0.63017627779935648 0 0.91143117093204207 0.58709913730335972 0 0.95867599106212187 0.60011091146651041 0 0.93732437411268477 0.55911392101136159 0 0.95867599106212187 0.60011091146651041 0 0.91143117093204207 0.58709913730335972 0 0.50715858906372158 0.63295939104129484 0 0.5498280205245758 0.6290146943450976 0 0.52584555706968406 0.66664215091846768 0 0.94399509803918602 0.75600490196082126 0 0.97435614836745565 0.77499999999987745 0 0.95386563387742829 0.80414874155775029 0 0.94399509803922566 0.056004901960802607 0 0.97435614836748241 0.074999999999825387 0 0.95386563387744361 0.1041487415577465 0 0.94399509803921056 0.24399509803922639 0 0.95391631417672862 0.19584263333809451 0 0.97435614836740092 0.22499999999981049 0 0.94399509803919068 0.9439950980391687 0 0.95391631417670719 0.89584263333814784 0 0.97435614836744289 0.92499999999990257 0 0.79680861578988083 0.92656778056766709 0 0.75729602384198635 0.92353652857884294 0 0.76891166905518427 0.88835469571185499 0 0.79680861578956375 0.22656778056752541 0 0.75668890529066124 0.2244279804069782 0 0.76587607630038135 0.18880039518954719 0 0.65394964615507722 0.22666784374016369 0 0.6865991819015953 0.189116534044597 0 0.69397719155551807 0.2245125647000914 0 0.38083244760691543 0.38531983672244652 0 0.38707855792647411 0.42299362914874578 0 0.35221190152536241 0.40457127605439203 0 1 0.7999999999998193 0 0.95386563387742829 0.80414874155775029 0 0.97435614836745565 0.77499999999987745 0 1 0.099999999999753911 0 0.95386563387744361 0.1041487415577465 0 0.97435614836748241 0.074999999999825387 0 1 0.8999999999998336 0 0.97435614836744289 0.92499999999990257 0 0.95391631417670719 0.89584263333814784 0 1 0.19999999999974799 0 0.97435614836740092 0.22499999999981049 0 0.95391631417672862 0.19584263333809451 0 0.84723782639812573 0.48638347960178252 0 0.81400510706333218 0.47357325943904899 0 0.84925632466077294 0.45359738909549091 0 0.54999999999999993 0.29999999999999999 0 0.54248833945060504 0.2520322959927106 0 0.5794309697024993 0.27124795968204829 0 0.94999999999999996 0.29999999999999999 0 0.95780851984364423 0.34215720972155339 0 0.92012390126144183 0.33123581297173937 0 0.94999999999999996 0.69999999999999996 0 0.92057473616084773 0.66770436535372446 0 0.9578014258160763 0.65787212321113708 0 0.15801167086041079 0.46008690540259539 0 0.113541300460994 0.46208784312094731 0 0.13773355295499351 0.42497777642586831 0 0.7250000000005199 0.94981617647078953 0 0.68015064798562208 0.95924320340003011 0 0.68987011941058407 0.92105047536677087 0 0.65507451745379841 0.92229208810758578 0 0.68987011941058407 0.92105047536677087 0 0.68015064798562208 0.95924320340003011 0 0.77846603114747959 0.49850927265137401 0 0.77972660463949339 0.45529290596363098 0 0.81400510706333218 0.47357325943904899 0 0.27866744612395528 0.38416094670951489 0 0.25966125648670141 0.34351016742083729 0 0.29644548887253103 0.34914008784168082 0 0.61209567303293111 0.44669033081290321 0 0.61547661924074692 0.48539576058873962 0 0.57975577671020095 0.46172033326338591 0 0.57611405284611883 0.50165903596042916 0 0.57975577671020095 0.46172033326338591 0 0.61547661924074692 0.48539576058873962 0 0.7250000000005199 0.89375000000045834 0 0.76891166905518427 0.88835469571185499 0 0.75729602384198635 0.92353652857884294 0 0.72500000000001008 0.19776155966387679 0 0.76587607630038135 0.18880039518954719 0 0.75668890529066124 0.2244279804069782 0 0.72500000000001008 0.19776155966387679 0 0.69397719155551807 0.2245125647000914 0 0.6865991819015953 0.189116534044597 0 0.083411279318303222 0.089699755330707398 0 0.12372429750337779 0.095814237875728972 0 0.1053400320299198 0.12877248826361379 0 0.083411279318375747 0.91030024466934134 0 0.10562472963403439 0.87143394428979881 0 0.1241151115713819 0.9045666525468371 0 0.14617343800780541 0.93808063414349496 0 0.1241151115713819 0.9045666525468371 0 0.16206583317966519 0.89685560785156404 0 0.14618258501891079 0.062070108745602003 0 0.16141998738593399 0.10404039647458049 0 0.12372429750337779 0.095814237875728972 0 0.33277555741076909 0.36432196682010132 0 0.35221190152536241 0.40457127605439203 0 0.31778888742534622 0.40581751814196781 0 0.7250000000005199 0.94981617647078953 0 0.75729602384198635 0.92353652857884294 0 0.770759834363826 0.95919399014344442 0 0.72500000000000064 0.2498161764706 0 0.75668890529066124 0.2244279804069782 0 0.77075983436335049 0.25919399014334171 0 0.72500000000000064 0.2498161764706 0 0.67933712972090698 0.25920070958121938 0 0.69397719155551807 0.2245125647000914 0 0.6236733212988993 0.14864538214901801 0 0.61956000905586006 0.1043312481793135 0 0.65290632656860115 0.11434202593454081 0 0.81973119833356312 0.43505687159469048 0 0.81400510706333218 0.47357325943904899 0 0.77972660463949339 0.45529290596363098 0 0.25676291524611189 0.7436741304886243 0 0.29904318922293632 0.74132814928635593 0 0.2792923945214143 0.77665808831789485 0 0.36575549820117997 0.31677992835137742 0 0.32752639306529541 0.32610012995269699 0 0.33402499257867951 0.28911035184473982 0 0.14332333627550789 0.14578431753966009 0 0.18652628422869419 0.14162325200928061 0 0.18124454140915969 0.18790916706335251 0 0.57724883562309992 0.92155686857100794 0 0.5832743223239254 0.88483152652961872 0 0.61885627562261258 0.90282959257498208 0 0.57667858002728545 0.078486105337742612 0 0.61956000905586006 0.1043312481793135 0 0.58516465772821369 0.11653801664834119 0 0.80185942888539485 0.77452061303608133 0 0.80041942726660109 0.81543261647703358 0 0.77094201086366854 0.79647480515688507 0 0.80185942888501827 0.074520613036224564 0 0.80076557130237269 0.1154587552654202 0 0.76878382444651716 0.097147941686331368 0 0.64753070846764316 0.77332939069435502 0 0.68024162096458085 0.79868546898116533 0 0.65005442820240822 0.82644988530054031 0 0.26429849586623999 0.19346700179430079 0 0.25557216766470708 0.15874861286892261 0 0.29336099386129338 0.15892013001050981 0 0.29348325746214782 0.31350119524708198 0 0.29644548887253103 0.34914008784168082 0 0.25966125648670141 0.34351016742083729 0 0.68391457121233579 0.14440470121196541 0 0.65290632656860115 0.11434202593454081 0 0.68330259535470161 0.10038702501083881 0 0.91750694127107502 0.36982372220068471 0 0.92012390126144183 0.33123581297173937 0 0.95780851984364423 0.34215720972155339 0 0.91750694127105259 0.63017627779935648 0 0.9578014258160763 0.65787212321113708 0 0.92057473616084773 0.66770436535372446 0 0.22033343844674469 0.36963382230740238 0 0.22615676742807109 0.33458786033114157 0 0.25966125648670141 0.34351016742083729 0 1 0.94999999999997109 0 0.97166519676946206 0.96662885509935492 0 0.97435614836744289 0.92499999999990257 0 0.94399509803919068 0.9439950980391687 0 0.97435614836744289 0.92499999999990257 0 0.97166519676946206 0.96662885509935492 0 0.94399509803921056 0.24399509803922639 0 0.97435614836740092 0.22499999999981049 0 0.97166519676951801 0.26662885509932011 0 1 0.24999999999987299 0 0.97166519676951801 0.26662885509932011 0 0.97435614836740092 0.22499999999981049 0 1 0.74999999999993494 0 0.97435614836745565 0.77499999999987745 0 0.97166519676947294 0.73337114490064459 0 1 0.049999999999896842 0 0.97435614836748241 0.074999999999825387 0 0.97166519676946894 0.033371144900598393 0 0.94399509803918602 0.75600490196082126 0 0.97166519676947294 0.73337114490064459 0 0.97435614836745565 0.77499999999987745 0 0.94399509803922566 0.056004901960802607 0 0.97166519676946894 0.033371144900598393 0 0.97435614836748241 0.074999999999825387 0 0.77846603114747959 0.49850927265137401 0 0.81400510706333218 0.47357325943904899 0 0.81441713509985358 0.51161854125224959 0 0.77354604466818633 0.40378688774472771 0 0.72622533758026719 0.40265885511101601 0 0.74764719760526988 0.3719647154012321 0 0.71508799138962864 0.36622814920737751 0 0.74764719760526988 0.3719647154012321 0 0.72622533758026719 0.40265885511101601 0 0.84723782639812573 0.48638347960178252 0 0.84925632466077294 0.45359738909549091 0 0.88594198078881503 0.46167788676578442 0 0.86411095495256451 0.42388805655111889 0 0.88594198078881503 0.46167788676578442 0 0.84925632466077294 0.45359738909549091 0 0.43846182030517877 0.64845797726506715 0 0.43545892161006339 0.61093128915313821 0 0.47095389620662098 0.61892551373708504 0 0.33123028043633618 0.77629643437932982 0 0.35642984951668422 0.80994399665655703 0 0.30857225866488791 0.81101973481716805 0 0.33403534827021109 0.84402799729020661 0 0.30857225866488791 0.81101973481716805 0 0.35642984951668422 0.80994399665655703 0 0.26429849586623999 0.19346700179430079 0 0.31255190597181792 0.19850845631528771 0 0.28040350263641872 0.23054717217092141 0 0.57724883562309992 0.92155686857100794 0 0.54783390826260769 0.89287767010860219 0 0.5832743223239254 0.88483152652961872 0 0.55899371797446828 0.85003102233514438 0 0.5832743223239254 0.88483152652961872 0 0.54783390826260769 0.89287767010860219 0 0.4089290844030305 0.58728915500154233 0 0.43545892161006339 0.61093128915313821 0 0.39743091024207589 0.6239520004230239 0 0.77293540622714185 0.59448302402785813 0 0.81723410853263523 0.59419663659258926 0 0.79884539758237771 0.62875045078114233 0 0.83758014339878906 0.63222013025741819 0 0.79884539758237771 0.62875045078114233 0 0.81723410853263523 0.59419663659258926 0 0.35864735590330371 0.63903383440414463 0 0.39743091024207589 0.6239520004230239 0 0.3977710372045391 0.65868194622830212 0 0.56202748619534593 0.15054058349222879 0 0.54979595918804436 0.1060565713905809 0 0.58516465772821369 0.11653801664834119 0 0.57667858002728545 0.078486105337742612 0 0.58516465772821369 0.11653801664834119 0 0.54979595918804436 0.1060565713905809 0 0.33122374654748771 0.57588941099433744 0 0.37272913873093971 0.56192925302619479 0 0.35765792684946668 0.6000687869219653 0 0.35864735590330371 0.63903383440414463 0 0.35765792684946668 0.6000687869219653 0 0.39743091024207589 0.6239520004230239 0 0.71508799138962864 0.36622814920737751 0 0.68887083591306764 0.33632058575757479 0 0.73090396928863699 0.33699297293167962 0 0.29348325746214782 0.31350119524708198 0 0.32752639306529541 0.32610012995269699 0 0.29644548887253103 0.34914008784168082 0 0.33277555741076909 0.36432196682010132 0 0.29644548887253103 0.34914008784168082 0 0.32752639306529541 0.32610012995269699 0 0.34258405725730701 0.4444034294386992 0 0.31778888742534622 0.40581751814196781 0 0.35221190152536241 0.40457127605439203 0 0.79999999999999982 0.69999999999999996 0 0.81864958914779962 0.73589050177899629 0 0.78578450296893509 0.73292684821144505 0 0.79999999999947335 0 0 0.81864958914740749 0.035890501779055867 0 0.78393852574753176 0.032039079577822822 0 0.27474541102162192 0.11822029332053539 0 0.29336099386129338 0.15892013001050981 0 0.25557216766470708 0.15874861286892261 0 0 0.45000000000187229 0 0.035463093262830522 0.42673416072819947 0 0.033550201249889847 0.46247875832467239 0 0.6499999999999998 0.69999999999999996 0 0.66427993341343905 0.73232764502436276 0 0.63221990677827677 0.73442891067859706 0 0.84723782639812573 0.48638347960178252 0 0.81441713509985358 0.51161854125224959 0 0.81400510706333218 0.47357325943904899 0 0.26104540868854792 0.81401944968719064 0 0.30857225866488791 0.81101973481716805 0 0.29209212897034281 0.84715728365233667 0 0.33403534827021109 0.84402799729020661 0 0.29209212897034281 0.84715728365233667 0 0.30857225866488791 0.81101973481716805 0 0.69999999999999984 0.29999999999999999 0 0.73090396928863699 0.33699297293167962 0 0.68887083591306764 0.33632058575757479 0 
</DataArray>
</Points>
<Cells>
<DataArray type="UInt32" Name="connectivity" format="ascii">
0 1 2 3 4 5 6 7 8 9 10 11 12 13 14 15 16 17 18 19 20 21 22 23 24 25 26 27 28 29 30 31 32 33 34 35 36 37 38 39 40 41 42 43 44 45 46 47 48 49 50 51 52 53 54 55 56 57 58 59 60 61 62 63 64 65 66 67 68 69 70 71 72 73 74 75 76 77 78 79 80 81 82 83 84 85 86 87 88 89 90 91 92 93 94 95 96 97 98 99 100 101 102 103 104 105 106 107 108 109 110 111 112 113 114 115 116 117 118 119 120 121 122 123 124 125 126 127 128 129 130 131 132 133 134 135 136 137 138 139 140 141 142 143 144 145 146 147 148 149 150 151 152 153 154 155 156 157 158 159 160 161 162 163 164 165 166 167 168 169 170 171 172 173 174 175 176 177 178 179 180 181 182 183 184 185 186 187 188 189 190 191 192 193 194 195 196 197 198 199 200 201 202 203 204 205 206 207 208 209 210 211 212 213 214 215 216 217 218 219 220 221 222 223 224 225 226 227 228 229 230 231 232 233 234 235 236 237 238 239 240 241 242 243 244 245 246 247 248 249 250 251 252 253 254 255 256 257 258 259 260 261 262 263 264 265 266 267 268 269 270 271 272 273 274 275 276 277 278 279 280 281 282 283 284 285 286 287 288 289 290 291 292 293 294 295 296 297 298 299 300 301 302 303 304 305 306 307 308 309 310 311 312 313 314 315 316 317 318 319 320 321 322 323 324 325 326 327 328 329 330 331 332 333 334 335 336 337 338 339 340 341 342 343 344 345 346 347 348 349 350 351 352 353 354 355 356 357 358 359 360 361 362 363 364 365 366 367 368 369 370 371 372 373 374 375 376 377 378 379 380 381 382 383 384 385 386 387 388 389 390 391 392 393 394 395 396 397 398 399 400 401 402 403 404 405 406 407 408 409 410 411 412 413 414 415 416 417 418 419 420 421 422 423 424 425 426 427 428 429 430 431 432 433 434 435 436 437 438 439 440 441 442 443 444 445 446 447 448 449 450 451 452 453 454 455 456 457 458 459 460 461 462 463 464 465 466 467 468 469 470 471 472 473 474 475 476 477 478 479 480 481 482 483 484 485 486 487 488 489 490 491 492 493 494 495 496 497 498 499 500 501 502 503 504 505 506 507 508 509 510 511 512 513 514 515 516 517 518 519 520 521 522 523 524 525 526 527 528 529 530 531 532 533 534 535 536 537 538 539 540 541 542 543 544 545 546 547 548 549 550 551 552 553 554 555 556 557 558 559 560 561 562 563 564 565 566 567 568 569 570 571 572 573 574 575 576 577 578 579 580 581 582 583 584 585 586 587 588 589 590 591 592 593 594 595 596 597 598 599 600 601 602 603 604 605 606 607 608 609 610 611 612 613 614 615 616 617 618 619 620 621 622 623 624 625 626 627 628 629 630 631 632 633 634 635 636 637 638 639 640 641 642 643 644 645 646 647 648 649 650 651 652 653 654 655 656 657 658 659 660 661 662 663 664 665 666 667 668 669 670 671 672 673 674 675 676 677 678 679 680 681 682 683 684 685 686 687 688 689 690 691 692 693 694 695 696 697 698 699 700 701 702 703 704 705 706 707 708 709 710 711 712 713 714 715 716 717 718 719 720 721 722 723 724 725 726 727 728 729 730 731 732 733 734 735 736 737 738 739 740 741 742 743 744 745 746 747 748 749 750 751 752 753 754 755 756 757 758 759 760 761 762 763 764 765 766 767 768 769 770 771 772 773 774 775 776 777 778 779 780 781 782 783 784 785 786 787 788 789 790 791 792 793 794 795 796 797 798 799 800 801 802 803 804 805 806 807 808 809 810 811 812 813 814 815 816 817 818 819 820 821 822 823 824 825 826 827 828 829 830 831 832 833 834 835 836 837 838 839 840 841 842 843 844 845 846 847 848 849 850 851 852 853 854 855 856 857 858 859 860 861 862 863 864 865 866 867 868 869 870 871 872 873 874 875 876 877 878 879 880 881 882 883 884 885 886 887 888 889 890 891 892 893 894 895 896 897 898 899 900 901 902 903 904 905 906 907 908 909 910 911 912 913 914 915 916 917 918 919 920 921 922 923 924 925 926 927 928 929 930 931 932 933 934 935 936 937 938 939 940 941 942 943 944 945 946 947 948 949 950 951 952 953 954 955 956 957 958 959 960 961 962 963 964 965 966 967 968 969 970 971 972 973 974 975 976 977 978 979 980 981 982 983 984 985 986 987 988 989 990 991 992 993 994 995 996 997 998 999 1000 1001 1002 1003 1004 1005 1006 1007 1008 1009 1010 1011 1012 1013 1014 1015 1016 1017 1018 1019 1020 1021 1022 1023 1024 1025 1026 1027 1028 1029 1030 1031 1032 1033 1034 1035 1036 1037 1038 1039 1040 1041 1042 1043 1044 1045 1046 1047 1048 1049 1050 1051 1052 1053 1054 1055 1056 1057 1058 1059 1060 1061 1062 1063 1064 1065 1066 1067 1068 1069 1070 1071 1072 1073 1074 1075 1076 1077 1078 1079 1080 1081 1082 1083 1084 1085 1086 1087 1088 1089 1090 1091 1092 1093 1094 1095 1096 1097 1098 1099 1100 1101 1102 1103 1104 1105 1106 1107 1108 1109 1110 1111 1112 1113 1114 1115 1116 1117 1118 1119 1120 1121 1122 1123 1124 1125 1126 1127 1128 1129 1130 1131 1132 1133 1134 1135 1136 1137 1138 1139 1140 1141 1142 1143 1144 1145 1146 1147 1148 1149 1150 1151 1152 1153 1154 1155 1156 1157 1158 1159 1160 1161 1162 1163 1164 1165 1166 1167 1168 1169 1170 1171 1172 1173 1174 1175 1176 1177 1178 1179 1180 1181 1182 1183 1184 1185 1186 1187 1188 1189 1190 1191 1192 1193 1194 1195 1196 1197 1198 1199 1200 1201 1202 1203 1204 1205 1206 1207 1208 1209 1210 1211 1212 1213 1214 1215 1216 1217 1218 1219 1220 1221 1222 1223 1224 1225 1226 1227 1228 1229 1230 1231 1232 1233 1234 1235 1236 1237 1238 1239 1240 1241 1242 1243 1244 1245 1246 1247 1248 1249 1250 1251 1252 1253 1254 1255 1256 1257 1258 1259 1260 1261 1262 1263 1264 1265 1266 1267 1268 1269 1270 1271 1272 1273 1274 1275 1276 1277 1278 1279 1280 1281 1282 1283 1284 1285 1286 1287 1288 1289 1290 1291 1292 1293 1294 1295 1296 1297 1298 1299 1300 1301 1302 1303 1304 1305 1306 1307 1308 1309 1310 1311 1312 1313 1314 1315 1316 1317 1318 1319 1320 1321 1322 1323 1324 1325 1326 1327 1328 1329 1330 1331 1332 1333 1334 1335 1336 1337 1338 1339 1340 1341 1342 1343 1344 1345 1346 1347 1348 1349 1350 1351 1352 1353 1354 1355 1356 1357 1358 1359 1360 1361 1362 1363 1364 1365 1366 1367 1368 1369 1370 1371 1372 1373 1374 1375 1376 1377 1378 1379 1380 1381 1382 1383 1384 1385 1386 1387 1388 1389 1390 1391 1392 1393 1394 1395 1396 1397 1398 1399 1400 1401 1402 1403 1404 1405 1406 1407 1408 1409 1410 1411 1412 1413 1414 1415 1416 1417 1418 1419 1420 1421 1422 1423 1424 1425 1426 1427 1428 1429 1430 1431 1432 1433 1434 1435 1436 1437 1438 1439 1440 1441 1442 1443 1444 1445 1446 1447 1448 1449 1450 1451 1452 1453 1454 1455 1456 1457 1458 1459 1460 1461 1462 1463 1464 1465 1466 1467 1468 1469 1470 1471 1472 1473 1474 1475 1476 1477 1478 1479 1480 1481 1482 1483 1484 1485 1486 1487 1488 1489 1490 1491 1492 1493 1494 1495 1496 1497 1498 1499 1500 1501 1502 1503 1504 1505 1506 1507 1508 1509 1510 1511 1512 1513 1514 1515 1516 1517 1518 1519 1520 1521 1522 1523 1524 1525 1526 1527 1528 1529 1530 1531 1532 1533 1534 1535 1536 1537 1538 1539 1540 1541 1542 1543 1544 1545 1546 1547 1548 1549 1550 1551 1552 1553 1554 1555 1556 1557 1558 1559 1560 1561 1562 1563 1564 1565 1566 1567 1568 1569 1570 1571 1572 1573 1574 1575 1576 1577 1578 1579 1580 1581 1582 1583 1584 1585 1586 1587 1588 1589 1590 1591 1592 1593 1594 1595 1596 1597 1598 1599 1600 1601 1602 1603 1604 1605 1606 1607 1608 1609 1610 1611 1612 1613 1614 1615 1616 1617 1618 1619 1620 1621 1622 1623 1624 1625 1626 1627 1628 1629 1630 1631 1632 1633 1634 1635 1636 1637 1638 1639 1640 1641 1642 1643 1644 1645 1646 1647 1648 1649 1650 1651 1652 1653 1654 1655 1656 1657 1658 1659 1660 1661 1662 1663 1664 1665 1666 1667 1668 1669 1670 1671 1672 1673 1674 1675 1676 1677 1678 1679 1680 1681 1682 1683 1684 1685 1686 1687 1688 1689 1690 1691 1692 1693 1694 1695 1696 1697 1698 1699 1700 1701 1702 1703 1704 1705 1706 1707 1708 1709 1710 1711 1712 1713 1714 1715 1716 1717 1718 1719 1720 1721 1722 1723 1724 1725 1726 1727 1728 1729 1730 1731 1732 1733 1734 1735 1736 1737 1738 1739 1740 1741 1742 1743 1744 1745 1746 1747 1748 1749 1750 1751 1752 1753 1754 1755 1756 1757 1758 1759 1760 1761 1762 1763 1764 1765 1766 1767 1768 1769 1770 1771 1772 1773 1774 1775 1776 1777 1778 1779 1780 1781 1782 1783 1784 1785 1786 1787 1788 1789 1790 1791 1792 1793 1794 1795 1796 1797 1798 1799 1800 1801 1802 1803 1804 1805 1806 1807 1808 1809 1810 1811 1812 1813 1814 1815 1816 1817 1818 1819 1820 1821 1822 1823 1824 1825 1826 1827 1828 1829 1830 1831 1832 1833 1834 1835 1836 1837 1838 1839 1840 1841 1842 1843 1844 1845 1846 1847 1848 1849 1850 1851 1852 1853 1854 1855 1856 1857 1858 1859 1860 1861 1862 1863 1864 1865 1866 1867 1868 1869 1870 1871 1872 1873 1874 1875 1876 1877 1878 1879 1880 1881 1882 1883 1884 1885 1886 1887 1888 1889 1890 1891 1892 1893 1894 1895 1896 1897 1898 1899 1900 1901 1902 1903 1904 1905 1906 1907 1908 1909 1910 1911 1912 1913 1914 1915 1916 1917 1918 1919 1920 1921 1922 1923 1924 1925 1926 1927 1928 1929 1930 1931 1932 1933 1934 1935 1936 1937 1938 1939 1940 1941 1942 1943 1944 1945 1946 1947 1948 1949 1950 1951 1952 1953 1954 1955 1956 1957 1958 1959 1960 1961 1962 1963 1964 1965 1966 1967 1968 1969 1970 1971 1972 1973 1974 1975 1976 1977 1978 1979 1980 1981 1982 1983 1984 1985 1986 1987 1988 1989 1990 1991 1992 1993 1994 1995 1996 1997 1998 1999 2000 2001 2002 2003 2004 2005 2006 2007 2008 2009 2010 2011 2012 2013 2014 2015 2016 2017 2018 2019 2020 2021 2022 2023 2024 2025 2026 2027 2028 2029 2030 2031 2032 2033 2034 2035 2036 2037 2038 2039 2040 2041 2042 2043 2044 2045 2046 2047 2048 2049 2050 2051 2052 2053 2054 2055 2056 2057 2058 2059 2060 2061 2062 2063 2064 2065 2066 2067 2068 2069 2070 2071 2072 2073 2074 2075 2076 2077 2078 2079 2080 2081 2082 2083 2084 2085 2086 2087 2088 2089 2090 2091 2092 2093 2094 2095 2096 2097 2098 2099 2100 2101 2102 2103 2104 2105 2106 2107 2108 2109 2110 2111 2112 2113 2114 2115 2116 2117 2118 2119 2120 2121 2122 2123 2124 2125 2126 2127 2128 2129 2130 2131 2132 2133 2134 2135 2136 2137 2138 2139 2140 2141 2142 2143 2144 2145 2146 2147 2148 2149 2150 2151 2152 2153 2154 2155 2156 2157 2158 2159 2160 2161 2162 2163 2164 2165 2166 2167 2168 2169 2170 2171 2172 2173 2174 2175 2176 2177 2178 2179 2180 2181 2182 2183 2184 2185 2186 2187 2188 2189 2190 2191 2192 2193 2194 2195 2196 2197 2198 2199 2200 2201 2202 2203 2204 2205 2206 2207 2208 2209 2210 2211 2212 2213 2214 2215 2216 2217 2218 2219 2220 2221 2222 2223 2224 2225 2226 2227 2228 2229 2230 2231 2232 2233 2234 2235 2236 2237 2238 2239 2240 2241 2242 2243 2244 2245 2246 2247 2248 2249 2250 2251 2252 2253 2254 2255 2256 2257 2258 2259 2260 2261 2262 2263 2264 2265 2266 2267 2268 2269 2270 2271 2272 2273 2274 2275 2276 2277 2278 2279 2280 2281 2282 2283 2284 2285 2286 2287 2288 2289 2290 2291 2292 2293 2294 2295 2296 2297 2298 2299 2300 2301 2302 2303 2304 2305 2306 2307 2308 2309 2310 2311 2312 2313 2314 2315 2316 2317 2318 2319 2320 2321 2322 2323 2324 2325 2326 2327 2328 2329 2330 2331 2332 2333 2334 2335 2336 2337 2338 2339 2340 2341 2342 2343 2344 2345 2346 2347 2348 2349 2350 2351 2352 2353 2354 2355 2356 2357 2358 2359 2360 2361 2362 2363 2364 2365 2366 2367 2368 2369 2370 2371 2372 2373 2374 2375 2376 2377 2378 2379 2380 2381 2382 2383 2384 2385 2386 2387 2388 2389 2390 2391 2392 2393 2394 2395 2396 2397 2398 2399 2400 2401 2402 2403 2404 2405 2406 2407 2408 2409 2410 2411 2412 2413 2414 2415 2416 2417 2418 2419 2420 2421 2422 2423 2424 2425 2426 2427 2428 2429 2430 2431 2432 2433 2434 2435 2436 2437 2438 2439 2440 2441 2442 2443 2444 2445 2446 2447 2448 2449 2450 2451 2452 2453 2454 2455 2456 2457 2458 2459 2460 2461 2462 2463 2464 2465 2466 2467 2468 2469 2470 2471 2472 2473 2474 2475 2476 2477 2478 2479 2480 2481 2482 2483 2484 2485 2486 2487 2488 2489 2490 2491 2492 2493 2494 2495 2496 2497 2498 2499 2500 2501 2502 2503 2504 2505 2506 2507 2508 2509 2510 2511 2512 2513 2514 2515 2516 2517 2518 2519 2520 2521 2522 2523 2524 2525 2526 2527 2528 2529 2530 2531 2532 2533 2534 2535 2536 2537 2538 2539 2540 2541 2542 2543 2544 2545 2546 2547 2548 2549 2550 2551 2552 2553 2554 2555 2556 2557 2558 2559 2560 2561 2562 2563 2564 2565 2566 2567 2568 2569 2570 2571 2572 2573 2574 2575 2576 2577 2578 2579 2580 2581 2582 2583 2584 2585 2586 2587 2588 2589 2590 2591 2592 2593 2594 2595 2596 2597 2598 2599 2600 2601 2602 2603 2604 2605 2606 2607 2608 2609 2610 2611 2612 2613 2614 2615 2616 2617 2618 2619 2620 2621 2622 2623 2624 2625 2626 2627 2628 2629 2630 2631 2632 2633 2634 2635 2636 2637 2638 2639 2640 2641 2642 2643 2644 2645 2646 2647 2648 2649 2650 2651 2652 2653 2654 2655 2656 2657 2658 2659 2660 2661 2662 2663 2664 2665 2666 2667 2668 2669 2670 2671 2672 2673 2674 2675 2676 2677 2678 2679 2680 2681 2682 2683 2684 2685 2686 2687 2688 2689 2690 2691 2692 2693 2694 2695 2696 2697 2698 2699 2700 2701 2702 2703 2704 2705 2706 2707 2708 2709 2710 2711 2712 2713 2714 2715 2716 2717 2718 2719 2720 2721 2722 2723 2724 2725 2726 2727 2728 2729 2730 2731 2732 2733 2734 2735 2736 2737 2738 2739 2740 2741 2742 2743 2744 2745 2746 2747 2748 2749 2750 2751 2752 2753 2754 2755 2756 2757 2758 2759 2760 2761 2762 2763 2764 2765 2766 2767 2768 2769 2770 2771 2772 2773 2774 2775 2776 2777 2778 2779 2780 2781 2782 2783 2784 2785 2786 2787 2788 2789 2790 2791 2792 2793 2794 2795 2796 2797 2798 2799 2800 2801 2802 2803 2804 2805 2806 2807 2808 2809 2810 2811 2812 2813 2814 2815 2816 2817 2818 2819 2820 2821 2822 2823 2824 2825 2826 2827 2828 2829 2830 2831 2832 2833 2834 2835 2836 2837 2838 2839 2840 2841 2842 2843 2844 2845 2846 2847 2848 2849 2850 2851 2852 2853 2854 2855 2856 2857 2858 2859 2860 2861 2862 2863 2864 2865 2866 2867 2868 2869 2870 2871 2872 2873 2874 2875 2876 2877 2878 2879 2880 2881 2882 2883 2884 2885 2886 2887 2888 2889 2890 2891 2892 2893 2894 2895 2896 2897 2898 2899 2900 2901 2902 2903 2904 2905 2906 2907 2908 2909 2910 2911 2912 2913 2914 2915 2916 2917 2918 2919 2920 2921 2922 2923 2924 2925 2926 2927 2928 2929 2930 2931 2932 2933 2934 2935 2936 2937 2938 2939 2940 2941 2942 2943 2944 2945 2946 2947 2948 2949 2950 2951 2952 2953 2954 2955 2956 2957 2958 2959 2960 2961 2962 2963 2964 2965 2966 2967 2968 2969 2970 2971 2972 2973 2974 2975 2976 2977 2978 2979 2980 2981 2982 2983 2984 2985 2986 2987 2988 2989 2990 2991 2992 2993 2994 2995 2996 2997 2998 2999 3000 3001 3002 3003 3004 3005 3006 3007 3008 3009 3010 3011 3012 3013 3014 3015 3016 3017 3018 3019 3020 3021 3022 3023 3024 3025 3026 3027 3028 3029 3030 3031 3032 3033 3034 3035 3036 3037 3038 3039 3040 3041 3042 3043 3044 3045 3046 3047 3048 3049 3050 3051 3052 3053 3054 3055 3056 3057 3058 3059 3060 3061 3062 3063 3064 3065 3066 3067 3068 3069 3070 3071 3072 3073 3074 3075 3076 3077 3078 3079 3080 3081 3082 3083 3084 3085 3086 3087 3088 3089 3090 3091 3092 3093 3094 3095 3096 3097 3098 3099 3100 3101 3102 3103 3104 3105 3106 3107 3108 3109 3110 3111 3112 3113 3114 3115 3116 3117 3118 3119 3120 3121 3122 3123 3124 3125 3126 3127 3128 3129 3130 3131 3132 3133 3134 3135 3136 3137 3138 3139 3140 3141 
</DataArray>
<DataArray type="UInt32" Name="offsets" format="ascii">
2 4 6 8 10 12 14 16 18 20 22 24 26 28 30 32 34 36 38 40 43 46 49 52 55 58 61 64 67 70 73 76 79 82 85 88 91 94 97 100 103 106 109 112 115 118 121 124 127 130 133 136 139 142 145 148 151 154 157 160 163 166 169 172 175 178 181 184 187 190 193 196 199 202 205 208 211 214 217 220 223 226 229 232 235 238 241 244 247 250 253 256 259 262 265 268 271 274 277 280 283 286 289 292 295 298 301 304 307 310 313 316 319 322 325 328 331 334 337 340 343 346 349 352 355 358 361 364 367 370 373 376 379 382 385 388 391 394 397 400 403 406 409 412 415 418 421 424 427 430 433 436 439 442 445 448 451 454 457 460 463 466 469 472 475 478 481 484 487 490 493 496 499 502 505 508 511 514 517 520 523 526 529 532 535 538 541 544 547 550 553 556 559 562 565 568 571 574 577 580 583 586 589 592 595 598 601 604 607 610 613 616 619 622 625 628 631 634 637 640 643 646 649 652 655 658 661 664 667 670 673 676 679 682 685 688 691 694 697 700 703 706 709 712 715 718 721 724 727 730 733 736 739 742 745 748 751 754 757 760 763 766 769 772 775 778 781 784 787 790 793 796 799 802 805 808 811 814 817 820 823 826 829 832 835 838 841 844 847 850 853 856 859 862 865 868 871 874 877 880 883 886 889 892 895 898 901 904 907 910 913 916 919 922 925 928 931 934 937 940 943 946 949 952 955 958 961 964 967 970 973 976 979 982 985 988 991 994 997 1000 1003 1006 1009 1012 1015 1018 1021 1024 1027 1030 1033 1036 1039 1042 1045 1048 1051 1054 1057 1060 1063 1066 1069 1072 1075 1078 1081 1084 1087 1090 1093 1096 1099 1102 1105 1108 1111 1114 1117 1120 1123 1126 1129 1132 1135 1138 1141 1144 1147 1150 1153 1156 1159 1162 1165 1168 1171 1174 1177 1180 1183 1186 1189 1192 1195 1198 1201 1204 1207 1210 1213 1216 1219 1222 1225 1228 1231 1234 1237 1240 1243 1246 1249 1252 1255 1258 1261 1264 1267 1270 1273 1276 1279 1282 1285 1288 1291 1294 1297 1300 1303 1306 1309 1312 1315 1318 1321 1324 1327 1330 1333 1336 1339 1342 1345 1348 1351 1354 1357 1360 1363 1366 1369 1372 1375 1378 1381 1384 1387 1390 1393 1396 1399 1402 1405 1408 1411 1414 1417 1420 1423 1426 1429 1432 1435 1438 1441 1444 1447 1450 1453 1456 1459 1462 1465 1468 1471 1474 1477 1480 1483 1486 1489 1492 1495 1498 1501 1504 1507 1510 1513 1516 1519 1522 1525 1528 1531 1534 1537 1540 1543 1546 1549 1552 1555 1558 1561 1564 1567 1570 1573 1576 1579 1582 1585 1588 1591 1594 1597 1600 1603 1606 1609 1612 1615 1618 1621 1624 1627 1630 1633 1636 1639 1642 1645 1648 1651 1654 1657 1660 1663 1666 1669 1672 1675 1678 1681 1684 1687 1690 1693 1696 1699 1702 1705 1708 1711 1714 1717 1720 1723 1726 1729 1732 1735 1738 1741 1744 1747 1750 1753 1756 1759 1762 1765 1768 1771 1774 1777 1780 1783 1786 1789 1792 1795 1798 1801 1804 1807 1810 1813 1816 1819 1822 1825 1828 1831 1834 1837 1840 1843 1846 1849 1852 1855 1858 1861 1864 1867 1870 1873 1876 1879 1882 1885 1888 1891 1894 1897 1900 1903 1906 1909 1912 1915 1918 1921 1924 1927 1930 1933 1936 1939 1942 1945 1948 1951 1954 1957 1960 1963 1966 1969 1972 1975 1978 1981 1984 1987 1990 1993 1996 1999 2002 2005 2008 2011 2014 2017 2020 2023 2026 2029 2032 2035 2038 2041 2044 2047 2050 2053 2056 2059 2062 2065 2068 2071 2074 2077 2080 2083 2086 2089 2092 2095 2098 2101 2104 2107 2110 2113 2116 2119 2122 2125 2128 2131 2134 2137 2140 2143 2146 2149 2152 2155 2158 2161 2164 2167 2170 2173 2176 2179 2182 2185 2188 2191 2194 2197 2200 2203 2206 2209 2212 2215 2218 2221 2224 2227 2230 2233 2236 2239 2242 2245 2248 2251 2254 2257 2260 2263 2266 2269 2272 2275 2278 2281 2284 2287 2290 2293 2296 2299 2302 2305 2308 2311 2314 2317 2320 2323 2326 2329 2332 2335 2338 2341 2344 2347 2350 2353 2356 2359 2362 2365 2368 2371 2374 2377 2380 2383 2386 2389 2392 2395 2398 2401 2404 2407 2410 2413 2416 2419 2422 2425 2428 2431 2434 2437 2440 2443 2446 2449 2452 2455 2458 2461 2464 2467 2470 2473 2476 2479 2482 2485 2488 2491 2494 2497 2500 2503 2506 2509 2512 2515 2518 2521 2524 2527 2530 2533 2536 2539 2542 2545 2548 2551 2554 2557 2560 2563 2566 2569 2572 2575 2578 2581 2584 2587 2590 2593 2596 2599 2602 2605 2608 2611 2614 2617 2620 2623 2626 2629 2632 2635 2638 2641 2644 2647 2650 2653 2656 2659 2662 2665 2668 2671 2674 2677 2680 2683 2686 2689 2692 2695 2698 2701 2704 2707 2710 2713 2716 2719 2722 2725 2728 2731 2734 2737 2740 2743 2746 2749 2752 2755 2758 2761 2764 2767 2770 2773 2776 2779 2782 2785 2788 2791 2794 2797 2800 2803 2806 2809 2812 2815 2818 2821 2824 2827 2830 2833 2836 2839 2842 2845 2848 2851 2854 2857 2860 2863 2866 2869 2872 2875 2878 2881 2884 2887 2890 2893 2896 2899 2902 2905 2908 2911 2914 2917 2920 2923 2926 2929 2932 2935 2938 2941 2944 2947 2950 2953 2956 2959 2962 2965 2968 2971 2974 2977 2980 2983 2986 2989 2992 2995 2998 3001 3004 3007 3010 3013 3016 3019 3022 3025 3028 3031 3034 3037 3040 3043 3046 3049 3052 3055 3058 3061 3064 3067 3070 3073 3076 3079 3082 3085 3088 3091 3094 3097 3100 3103 3106 3109 3112 3115 3118 3121 3124 3127 3130 3133 3136 3139 3142 
</DataArray>
<DataArray type="UInt32" Name="types" format="ascii">
3 3 3 3 3 3 3 3 3 3 3 3 3 3 3 3 3 3 3 3 5 5 5 5 5 5 5 5 5 5 5 5 5 5 5 5 5 5 5 5 5 5 5 5 5 5 5 5 5 5 5 5 5 5 5 5 5 5 5 5 5 5 5 5 5 5 5 5 5 5 5 5 5 5 5 5 5 5 5 5 5 5 5 5 5 5 5 5 5 5 5 5 5 5 5 5 5 5 5 5 5 5 5 5 5 5 5 5 5 5 5 5 5 5 5 5 5 5 5 5 5 5 5 5 5 5 5 5 5 5 5 5 5 5 5 5 5 5 5 5 5 5 5 5 5 5 5 5 5 5 5 5 5 5 5 5 5 5 5 5 5 5 5 5 5 5 5 5 5 5 5 5 5 5 5 5 5 5 5 5 5 5 5 5 5 5 5 5 5 5 5 5 5 5 5 5 5 5 5 5 5 5 5 5 5 5 5 5 5 5 5 5 5 5 5 5 5 5 5 5 5 5 5 5 5 5 5 5 5 5 5 5 5 5 5 5 5 5 5 5 5 5 5 5 5 5 5 5 5 5 5 5 5 5 5 5 5 5 5 5 5 5 5 5 5 5 5 5 5 5 5 5 5 5 5 5 5 5 5 5 5 5 5 5 5 5 5 5 5 5 5 5 5 5 5 5 5 5 5 5 5 5 5 5 5 5 5 5 5 5 5 5 5 5 5 5 5 5 5 5 5 5 5 5 5 5 5 5 5 5 5 5 5 5 5 5 5 5 5 5 5 5 5 5 5 5 5 5 5 5 5 5 5 5 5 5 5 5 5 5 5 5 5 5 5 5 5 5 5 5 5 5 5 5 5 5 5 5 5 5 5 5 5 5 5 5 5 5 5 5 5 5 5 5 5 5 5 5 5 5 5 5 5 5 5 5 5 5 5 5 5 5 5 5 5 5 5 5 5 5 5 5 5 5 5 5 5 5 5 5 5 5 5 5 5 5 5 5 5 5 5 5 5 5 5 5 5 5 5 5 5 5 5 5 5 5 5 5 5 5 5 5 5 5 5 5 5 5 5 5 5 5 5 5 5 5 5 5 5 5 5 5 5 5 5 5 5 5 5 5 5 5 5 5 5 5 5 5 5 5 5 5 5 5 5 5 5 5 5 5 5 5 5 5 5 5 5 5 5 5 5 5 5 5 5 5 5 5 5 5 5 5 5 5 5 5 5 5 5 5 5 5 5 5 5 5 5 5 5 5 5 5 5 5 5 5 5 5 5 5 5 5 5 5 5 5 5 5 5 5 5 5 5 5 5 5 5 5 5 5 5 5 5 5 5 5 5 5 5 5 5 5 5 5 5 5 5 5 5 5 5 5 5 5 5 5 5 5 5 5 5 5 5 5 5 5 5 5 5 5 5 5 5 5 5 5 5 5 5 5 5 5 5 5 5 5 5 5 5 5 5 5 5 5 5 5 5 5 5 5 5 5 5 5 5 5 5 5 5 5 5 5 5 5 5 5 5 5 5 5 5 5 5 5 5 5 5 5 5 5 5 5 5 5 5 5 5 5 5 5 5 5 5 5 5 5 5 5 5 5 5 5 5 5 5 5 5 5 5 5 5 5 5 5 5 5 5 5 5 5 5 5 5 5 5 5 5 5 5 5 5 5 5 5 5 5 5 5 5 5 5 5 5 5 5 5 5 5 5 5 5 5 5 5 5 5 5 5 5 5 5 5 5 5 5 5 5 5 5 5 5 5 5 5 5 5 5 5 5 5 5 5 5 5 5 5 5 5 5 5 5 5 5 5 5 5 5 5 5 5 5 5 5 5 5 5 5 5 5 5 5 5 5 5 5 5 5 5 5 5 5 5 5 5 5 5 5 5 5 5 5 5 5 5 5 5 5 5 5 5 5 5 5 5 5 5 5 5 5 5 5 5 5 5 5 5 5 5 5 5 5 5 5 5 5 5 5 5 5 5 5 5 5 5 5 5 5 5 5 5 5 5 5 5 5 5 5 5 5 5 5 5 5 5 5 5 5 5 5 5 5 5 5 5 5 5 5 5 5 5 5 5 5 5 5 5 5 5 5 5 5 5 5 5 5 5 5 5 5 5 5 5 5 5 5 5 5 5 5 5 5 5 5 5 5 5 5 5 5 5 5 5 5 5 5 5 5 5 5 5 5 5 5 5 5 5 5 5 5 5 5 5 5 5 5 5 5 5 5 5 5 5 5 5 5 5 5 5 5 5 5 5 5 5 5 5 5 5 5 5 5 5 5 5 5 5 5 5 5 5 5 5 5 5 5 5 5 5 5 5 5 5 5 5 5 5 5 5 5 5 5 5 5 5 5 5 5 5 5 5 5 5 5 5 5 5 5 5 5 5 5 5 5 5 
</DataArray>
</Cells>
<PointData Scalars="" Vectors="displacement," Tensors="">
<DataArray type="Float64" Name="displacement" NumberOfComponents="3" format="ascii">
5.5855690137989177e-06 -1.1253526475118687e-05 0 7.9360299074571175e-06 -1.6907921840348355e-05 0 7.9360299074571175e-06 -1.6907921840348355e-05 0 8.6775527567631926e-06 -2.3579068890841456e-05 0 8.6775527567631926e-06 -2.3579068890841456e-05 0 9.682145582148282e-06 -3.1453335653904714e-05 0 9.682145582148282e-06 -3.1453335653904714e-05 0 1.0754866638231934e-05 -4.0000172757717498e-05 0 1.0754866638231934e-05 -4.0000172757717498e-05 0 1.2071215715410932e-05 -4.8987372544468504e-05 0 1.2071215715410932e-05 -4.8987372544468504e-05 0 1.3744270523379711e-05 -5.83443016495966e-05 0 1.3744270523379711e-05 -5.83443016495966e-05 0 1.5559304040841462e-05 -6.7566457357442442e-05 0 1.5559304040841462e-05 -6.7566457357442442e-05 0 1.8667858494536605e-05 -7.7580843590021743e-05 0 1.8667858494536605e-05 -7.7580843590021743e-05 0 1.9882367535384997e-05 -8.5445613393983426e-05 0 1.9882367535384997e-05 -8.5445613393983426e-05 0 3.2297932804555284e-05 -9.4933737806487923e-05 0 1.6975327703649033e-05 1.3666809954497139e-05 0 3.862599333509215e-05 2.4229350590850071e-05 0 3.862599333509215e-05 2.4229350590850071e-05 0 3.7760210262239e-05 2.922084520845846e-05 0 3.7760210262239e-05 2.922084520845846e-05 0 4.1903307878562991e-05 3.9689623911539077e-05 0 4.1903307878562991e-05 3.9689623911539077e-05 0 4.4683850456512457e-05 4.8964480599956398e-05 0 4.4683850456512457e-05 4.8964480599956398e-05 0 4.7730063072991856e-05 5.973816032289081e-05 0 4.7730063072991856e-05 5.973816032289081e-05 0 5.1154214274844177e-05 7.1279218143241446e-05 0 5.1154214274844177e-05 7.1279218143241446e-05 0 5.3867358993842558e-05 8.1294640449578677e-05 0 5.3867358993842558e-05 8.1294640449578677e-05 0 6.1003623973713761e-05 9.5070103744714435e-05 0 6.1003623973713761e-05 9.5070103744714435e-05 0 5.4598649633145402e-05 0.00010258106114918175 0 5.4598649633145402e-05 0.00010258106114918175 0 0.00010469070492353837 0.00011647994668547539 0 5.4602897348968193e-06 -3.0588962774734825e-06 0 5.3897087648264478e-06 1.6676963037849668e-07 0 4.1313909946663635e-06 -1.7769004784249815e-06 0 6.4637472728755542e-06 -1.3790972055782346e-06 0 5.3897087648264478e-06 1.6676963037849668e-07 0 5.4602897348968193e-06 -3.0588962774734825e-06 0 4.8400240310482621e-06 -9.8252937873533739e-06 0 6.1850160506584441e-06 -7.1311143970847954e-06 0 4.5049247025869183e-06 -8.821070677047945e-06 0 4.5049247025869183e-06 -8.821070677047945e-06 0 6.1850160506584449e-06 -7.1311143970847954e-06 0 5.2845502339882998e-06 -7.6070207533812669e-06 0 -4.1565425688282298e-06 -1.1611343098044344e-06 0 -1.8787757071603946e-06 -1.1681058333245008e-06 0 -4.1083598461489259e-06 -2.0098280480398384e-06 0 -3.1182221615112812e-06 5.2258265691224788e-07 0 -3.0954676998672805e-06 1.1219658044838289e-06 0 -1.4413453024235968e-06 6.5768101649514563e-07 0 -1.7420131927522171e-06 -3.6417410270766597e-07 0 -1.8787757071603946e-06 -1.1681058333245008e-06 0 -4.1565425688282298e-06 -1.1611343098044344e-06 0 -1.3667776138118328e-06 7.7449980490558234e-08 0 -3.1182221615112812e-06 5.2258265691224788e-07 0 -1.4413453024235968e-06 6.5768101649514563e-07 0 -1.0836352472122191e-05 -5.2043014338767057e-07 0 -1.4002685039749668e-05 -2.1723125681037241e-06 0 -9.8313688279900774e-06 -9.4033021314279494e-08 0 -2.1293124156558767e-05 2.9445332958527048e-06 0 -1.5843468604072321e-05 1.8789942384860497e-07 0 -1.4776940104034025e-05 -1.6915791455675099e-07 0 4.973687847417688e-06 -2.6607091226951654e-07 0 6.5320358680313432e-06 -1.0109064058559402e-07 0 4.5801586047274115e-06 -1.3373756499124819e-06 0 6.7564607994671872e-06 -7.1791781264347512e-07 0 4.5801586047274115e-06 -1.3373756499124819e-06 0 6.5320358680313432e-06 -1.0109064058559402e-07 0 4.0885577738412982e-07 2.4781331718219644e-06 0 8.5301805260516129e-07 2.6424109404808472e-06 0 1.755551920408812e-06 2.4440920133802786e-06 0 2.9779076770390201e-10 -7.4674876183863038e-10 0 6.9687232721024956e-10 -5.0542313146558463e-10 0 6.253927417412846e-07 -1.4255874082386806e-06 0 3.1737379394710239e-10 5.3871408379086584e-10 0 -3.0980697053476581e-11 6.1123188894236605e-10 0 1.6489851766642903e-07 1.3773781265021213e-06 0 2.3523109247532009e-06 -1.2949187250001928e-05 0 4.0529013927737076e-06 -1.3790926420335834e-05 0 4.8400240310482621e-06 -9.8252937873533739e-06 0 2.7733754853211629e-05 1.60819099284e-05 0 1.9384676188811069e-05 9.4018187301160913e-06 0 2.101331465447961e-05 1.045586753519542e-05 0 -1.039738377993343e-05 -0.00014561017264087903 0 1.8584846608992285e-06 -0.00013241105793388447 0 -1.1155070742807768e-05 -0.00012688226399280411 0 -5.7034012525665162e-06 0.00028695635009536442 0 -3.1369198382506492e-05 0.00026009076908061542 0 -6.8702543998461499e-06 0.0002506287827688625 0 -5.7034012525665162e-06 0.00028695635009536442 0 -6.8702543998461499e-06 0.0002506287827688625 0 1.8913305141544661e-05 0.00026088377277160902 0 -1.039738377993343e-05 -0.00014561017264087903 0 -1.1155070742807768e-05 -0.00012688226399280411 0 -2.3454289453404512e-05 -0.00013164685047806817 0 -3.6053725112817292e-05 0.00023156124883974896 0 -6.1367153063822815e-06 0.00021835182582135003 0 -6.8702543998461499e-06 0.0002506287827688625 0 2.9144968245039178e-06 -0.00011709007325790868 0 -1.2529633105481299e-05 -0.00010997083793318965 0 -1.1155070742807768e-05 -0.00012688226399280411 0 4.0885577738412982e-07 2.4781331718219644e-06 0 1.755551920408812e-06 2.4440920133802786e-06 0 7.4564276304114369e-07 2.0954468074093557e-06 0 2.7733754853211629e-05 1.60819099284e-05 0 1.6863377593746127e-05 1.3073268758026452e-05 0 1.9384676188811069e-05 9.4018187301160913e-06 0 -5.9609047156839521e-05 5.433752788340007e-05 0 -5.2037541108598958e-05 3.7663497878399358e-05 0 -3.6657686138649036e-05 4.1484418949135608e-05 0 -3.0568424818300074e-05 -1.9730630947868682e-05 0 -3.467029710879257e-05 -2.774650343451019e-05 0 -2.3358615443485859e-05 -2.1813365535401196e-05 0 3.7081677295732114e-06 -9.6831812522304659e-06 0 2.3523109247532009e-06 -1.2949187250001928e-05 0 4.8400240310482621e-06 -9.8252937873533739e-06 0 -1.7468273919666452e-05 3.2776945945884387e-05 0 -1.4715265585500277e-05 1.6934789831576902e-05 0 -6.4981529518325572e-06 1.9128922963969826e-05 0 -4.3816472457603813e-06 1.7123529162512994e-06 0 -1.0622808236586439e-05 4.5405936533683356e-06 0 -1.1273253849013524e-05 5.3546420258358648e-07 0 1.3602624345632177e-05 -3.6459052023235519e-06 0 1.2075272763636527e-05 -8.2609294510803738e-08 0 1.1434698185013406e-05 -4.9610698805934184e-06 0 -1.2118191193889258e-05 -9.3922553856183599e-05 0 -2.8481936713077535e-06 -8.9648843168475991e-05 0 -1.3727486361918608e-05 -7.7853441546079893e-05 0 -8.3855561086711993e-06 0.00018773360915437705 0 -2.7494478805826216e-05 0.000179039358098708 0 -6.0761189178777464e-06 0.00015553751870501668 0 -1.3727486361918608e-05 -7.7853441546079893e-05 0 -2.8481936713077535e-06 -8.9648843168475991e-05 0 -3.193433491386938e-06 -7.615650486909909e-05 0 -6.0761189178777464e-06 0.00015553751870501668 0 -2.7494478805826216e-05 0.000179039358098708 0 -2.7510730347845833e-05 0.00015549213621012748 0 -4.3816472457603813e-06 1.7123529162512994e-06 0 -1.1273253849013524e-05 5.3546420258358648e-07 0 -4.1021072180568848e-06 -8.5758353826093671e-07 0 1.6410235946962208e-05 -7.8767115586092963e-06 0 1.5963860997642831e-05 -7.4826321269409772e-08 0 1.3602624345632177e-05 -3.6459052023235519e-06 0 -1.7468273919666452e-05 3.2776945945884387e-05 0 -2.5334728646782222e-05 2.6540607621397926e-05 0 -1.471526558550028e-05 1.6934789831576902e-05 0 2.7733754853211629e-05 1.60819099284e-05 0 3.9726500763463992e-05 4.8054880519946436e-05 0 2.2187857897702018e-05 4.8748266078102119e-05 0 1.4878402381195442e-05 -4.2005670033039518e-05 0 1.3314515066764904e-05 -4.2399596043846243e-05 0 1.2195662154780308e-05 -4.1429563076203088e-05 0 4.5460812401096748e-05 -5.8574373337345283e-05 0 4.328991772483206e-05 -5.0299240201002474e-05 0 3.2755043482074726e-05 -5.022503084498517e-05 0 1.4504955210547028e-05 3.0672442709229897e-06 0 1.2075272763636527e-05 -8.2609294510803738e-08 0 1.3602624345632177e-05 -3.6459052023235519e-06 0 3.2269922904359447e-05 -0.0001296759611233016 0 1.6289041149395804e-05 -0.00011520596769918197 0 1.5508634928657564e-05 -0.00012936831290687897 0 -8.8239757131143798e-05 0.00025774096903182972 0 -6.2532477559044871e-05 0.00022875934836125424 0 -5.7407632583363791e-05 0.00025423717319129858 0 9.4955359933903265e-10 -3.9971688839532901e-10 0 1.2596037128352875e-06 -4.7129038022921361e-07 0 9.7329045969246243e-07 -9.0698903818030483e-07 0 5.4603521226334139e-10 5.4204152945236013e-10 0 4.6802086111489666e-07 1.1941327107397596e-06 0 8.1946854628805694e-07 1.1229698836623175e-06 0 -1.7468273919666452e-05 3.2776945945884387e-05 0 -3.489040036318436e-06 3.1897806651306423e-05 0 -1.1009682194557969e-05 5.2425285320496471e-05 0 6.2839524871925141e-06 4.6509143000104872e-05 0 -1.1009682194557969e-05 5.2425285320496471e-05 0 -3.4890400363184356e-06 3.189780665130643e-05 0 1.5339639809636783e-05 2.7576465580400051e-05 0 2.7733754853211629e-05 1.60819099284e-05 0 2.2187857897702018e-05 4.8748266078102119e-05 0 -8.668850989216619e-05 0.00020133275382996549 0 -5.2137033315769772e-05 0.00020180799130253434 0 -6.2532477559044871e-05 0.00022875934836125424 0 2.6811900324773967e-05 -9.8875797581045226e-05 0 9.7818784190649158e-06 -0.00010096071302125449 0 1.6289041149395807e-05 -0.00011520596769918197 0 2.5572978830477211e-05 -3.8436484631188908e-05 0 2.221166110822321e-05 -3.4040538819034332e-05 0 1.9949121149936723e-05 -3.7828890711489507e-05 0 1.0340471884411587e-05 -2.4269988043938751e-06 0 1.1434698185013406e-05 -4.9610698805934184e-06 0 1.2075272763636527e-05 -8.2609294510803738e-08 0 1.1695346571771528e-05 -8.9205977308648645e-06 0 1.16462610457708e-05 -1.2769054414476976e-05 0 1.5286205118708496e-05 -1.33025635894294e-05 0 2.6874050025290477e-05 -2.3312382006532048e-05 0 2.3712206233740212e-05 -1.9742715566677877e-05 0 2.2049178808887884e-05 -2.3569184731441763e-05 0 -7.3120448530276523e-05 9.6542863714451954e-05 0 -4.9689943201070813e-05 8.1460409220790157e-05 0 -5.7187720950035395e-05 0.00010990587779662907 0 -5.1383723237353293e-05 -0.0001012656286139269 0 -3.939351232606116e-05 -0.00011572763786159243 0 -3.4914336494963409e-05 -0.00010238892193603364 0 6.974080647919585e-05 0.00019755843949366062 0 4.8904738758543371e-05 0.00022861271544125721 0 3.8050091024154268e-05 0.00020312228383392695 0 2.9290294607074327e-05 -0.00011388462003647142 0 1.6289041149395807e-05 -0.00011520596769918197 0 3.2269922904359447e-05 -0.0001296759611233016 0 -8.8239757131143798e-05 0.00025774096903182972 0 -8.7768762626444909e-05 0.00022960981782493934 0 -6.2532477559044871e-05 0.00022875934836125424 0 1.2242576095983429e-05 -3.6292115760875072e-05 0 9.6263729109615578e-06 -3.1751668493936931e-05 0 1.0046502170658501e-05 -3.6536269875560535e-05 0 6.3430254062371084e-06 -1.1370578304523741e-05 0 2.2239455809399692e-06 -1.3461813774054951e-05 0 3.4676917101345517e-06 -2.1703519067299805e-05 0 1.2242576095983429e-05 -3.6292115760875072e-05 0 1.2233043603167075e-05 -3.2386461553068244e-05 0 9.6263729109615561e-06 -3.1751668493936931e-05 0 1.9890118394332679e-05 -1.9177564021217585e-05 0 2.2049178808887884e-05 -2.3569184731441763e-05 0 2.3712206233740212e-05 -1.9742715566677877e-05 0 -1.1869966688165494e-05 -3.9915942270883661e-05 0 -1.3047965091233868e-05 -5.4371663487108365e-05 0 -4.639609297001178e-06 -4.3508601997448118e-05 0 -1.1329422515920866e-09 3.6568387412568609e-10 0 -1.4413453024235968e-06 6.5768101649514563e-07 0 -9.3000255570535551e-07 9.1233867473843235e-07 0 -1.5338621137640678e-09 -5.988795833785886e-10 0 -1.135154634788055e-06 -1.4434350543447887e-06 0 -1.8787757071603946e-06 -1.1681058333245008e-06 0 1.4878402381195442e-05 -4.2005670033039518e-05 0 1.5191154961333374e-05 -4.3838465146917012e-05 0 1.3314515066764904e-05 -4.2399596043846243e-05 0 3.5170270760341533e-05 -5.722614950491314e-05 0 4.5460812401096748e-05 -5.8574373337345283e-05 0 3.2755043482074726e-05 -5.022503084498517e-05 0 -6.1195306356305074e-10 -1.0250238955126006e-09 0 -1.1256184184941977e-06 -2.2238646009229626e-06 0 -1.1351546347880548e-06 -1.4434350543447889e-06 0 -6.0462962384832067e-10 6.844657786624526e-10 0 -9.3000255570535551e-07 9.1233867473843235e-07 0 -1.088588691617847e-06 1.5167939944642198e-06 0 4.5801586047274115e-06 -1.3373756499124819e-06 0 2.0974838275856806e-06 -1.8387088113789902e-06 0 3.4147917371542891e-06 -1.0301505880124728e-06 0 -5.289936014549308e-06 7.450650193238383e-07 0 -4.4612569209106582e-06 1.5496368412917223e-06 0 -3.0954676998672805e-06 1.1219658044838289e-06 0 -7.2994478628771222e-06 -1.5827737033599682e-06 0 -4.1083598461489268e-06 -2.0098280480398388e-06 0 -5.9212420063073352e-06 -2.7090212257146532e-06 0 1.6885004366551305e-05 -2.2807958665112667e-05 0 1.6606123853795638e-05 -1.899464342652813e-05 0 1.3349096592850296e-05 -2.0384867372794831e-05 0 1.3479656288121585e-05 -1.6525901192578392e-05 0 1.5286205118708496e-05 -1.33025635894294e-05 0 1.16462610457708e-05 -1.2769054414476976e-05 0 7.920324319634641e-05 0.00025509077502983249 0 4.610376789221376e-05 0.00025470591698579647 0 4.8904738758543371e-05 0.00022861271544125721 0 -5.2398824020924637e-05 -0.00013040745284095804 0 -3.6633915691736899e-05 -0.00012858407954057487 0 -3.939351232606116e-05 -0.00011572763786159243 0 1.3479656288121585e-05 -1.6525901192578392e-05 0 1.3349096592850296e-05 -2.0384867372794831e-05 0 1.6606123853795638e-05 -1.899464342652813e-05 0 2.221166110822321e-05 -3.4040538819034332e-05 0 2.6531494914411662e-05 -3.3059516109964068e-05 0 2.0176524889619807e-05 -2.8399569169029192e-05 0 -2.9503889187430197e-05 0.00013201881212329832 0 -2.281322922514936e-05 0.00010082415568498202 0 -8.1726332998861236e-06 0.00011222559873926944 0 -1.5338621137640678e-09 -5.988795833785886e-10 0 -1.3826453394511087e-09 -4.0895067285648384e-10 0 -1.1351546347880548e-06 -1.4434350543447889e-06 0 -1.1378507255771351e-09 2.5255660906780933e-10 0 -1.1329422515920866e-09 3.6568387412568609e-10 0 -9.3000255570535551e-07 9.1233867473843235e-07 0 4.5801586047274115e-06 -1.3373756499124819e-06 0 3.1621912289428793e-06 -2.1650626162111722e-06 0 2.0974838275856806e-06 -1.8387088113789902e-06 0 2.1575594001016149e-05 0.00023108227012033622 0 -6.8702543998461499e-06 0.0002506287827688625 0 -6.1367153063822815e-06 0.00021835182582135003 0 -2.5876351719605701e-05 -0.00011652142518517582 0 -1.1155070742807768e-05 -0.00012688226399280411 0 -1.2529633105481299e-05 -0.00010997083793318965 0 -1.3047965091233868e-05 -5.4371663487108365e-05 0 -3.9805680768753013e-06 -5.4934142858957668e-05 0 -4.639609297001178e-06 -4.3508601997448118e-05 0 2.3937805308562526e-06 4.0137681075472254e-07 0 3.4739901657589258e-06 9.6737441624097239e-07 0 3.4791953322507316e-06 1.2977685564558521e-07 0 -1.1346075566954721e-06 -3.0191505863270796e-06 0 1.859308091795157e-06 -2.6231197811224865e-06 0 -5.6534412449847961e-07 -2.017316476769633e-06 0 2.6531494914411662e-05 -3.3059516109964068e-05 0 2.5122688529907647e-05 -2.8825853263327167e-05 0 2.0176524889619807e-05 -2.8399569169029192e-05 0 3.4791953322507316e-06 1.2977685564558521e-07 0 3.4739901657589258e-06 9.6737441624097239e-07 0 4.6541433411385327e-06 5.7125751876854136e-07 0 3.4739901657589258e-06 9.6737441624097239e-07 0 1.769484813935124e-06 7.2254001582759668e-07 0 2.8566659666376313e-06 1.343543110000792e-06 0 1.7156802570181301e-06 1.241209570170436e-06 0 2.8566659666376313e-06 1.343543110000792e-06 0 1.769484813935124e-06 7.2254001582759668e-07 0 8.1738652277377665e-06 -3.3922917693034917e-05 0 9.6263729109615561e-06 -3.1751668493936931e-05 0 5.9377651544481183e-06 -2.9239759744242462e-05 0 1.1695346571771528e-05 -8.9205977308648645e-06 0 1.5286205118708496e-05 -1.3302563589429399e-05 0 1.4028365256922337e-05 -8.3260622375311802e-06 0 2.5572978830477211e-05 -3.8436484631188908e-05 0 2.6531494914411662e-05 -3.3059516109964068e-05 0 2.221166110822321e-05 -3.4040538819034332e-05 0 1.4504955210547028e-05 3.0672442709229897e-06 0 1.3602624345632177e-05 -3.6459052023235515e-06 0 1.5963860997642831e-05 -7.4826321269409772e-08 0 7.411999689535778e-05 0.00022562174853844752 0 7.920324319634641e-05 0.00025509077502983249 0 4.8904738758543371e-05 0.00022861271544125721 0 -5.209504751385967e-05 -0.0001159020581111052 0 -5.2398824020924637e-05 -0.00013040745284095804 0 -3.939351232606116e-05 -0.00011572763786159243 0 -5.1383723237353293e-05 -0.0001012656286139269 0 -5.209504751385967e-05 -0.0001159020581111052 0 -3.939351232606116e-05 -0.00011572763786159243 0 6.974080647919585e-05 0.00019755843949366062 0 7.411999689535778e-05 0.00022562174853844752 0 4.8904738758543371e-05 0.00022861271544125721 0 1.6211882728053296e-05 5.6404598513177506e-06 0 1.4452230698723576e-05 4.5819382293936982e-06 0 1.4504955210547028e-05 3.0672442709229897e-06 0 3.1219619308095616e-06 2.2475327132985478e-06 0 2.0554602441089003e-06 1.9200488738950415e-06 0 1.755551920408812e-06 2.4440920133802786e-06 0 1.1822923827958169e-06 1.8340015237752914e-06 0 1.755551920408812e-06 2.4440920133802786e-06 0 2.0554602441089003e-06 1.9200488738950415e-06 0 3.1173071109394558e-05 0.00011536052680512022 0 3.9649047424996546e-05 0.00013228530482083055 0 1.4500860999372847e-05 0.00013218443233722381 0 3.9649047424996546e-05 0.00013228530482083055 0 3.5446847871596601e-05 0.00014983969957064436 0 1.4500860999372847e-05 0.00013218443233722381 0 1.6410235946962208e-05 -7.8767115586092963e-06 0 1.3602624345632177e-05 -3.6459052023235523e-06 0 1.4028365256922337e-05 -8.3260622375311802e-06 0 2.6749968521867372e-05 -5.4083996490302496e-05 0 3.2755043482074726e-05 -5.022503084498517e-05 0 2.6045872340764222e-05 -4.6105448925266847e-05 0 1.6920935489257772e-05 -4.6945976305120507e-05 0 1.4981523843372862e-05 -4.2545342836583111e-05 0 1.3314515066764904e-05 -4.2399596043846243e-05 0 1.4452230698723576e-05 4.5819382293936982e-06 0 1.2752173907434561e-05 2.6231761868620559e-06 0 1.4504955210547028e-05 3.0672442709229897e-06 0 -8.7768762626444909e-05 0.00022960981782493934 0 -8.668850989216619e-05 0.00020133275382996549 0 -6.2532477559044871e-05 0.00022875934836125424 0 2.6811900324773967e-05 -9.8875797581045226e-05 0 1.6289041149395807e-05 -0.00011520596769918197 0 2.9290294607074327e-05 -0.00011388462003647142 0 -1.4002685039749668e-05 -2.1723125681037241e-06 0 -1.3216685443405455e-05 -2.271629905716594e-06 0 -9.8313688279900774e-06 -9.4033021314279494e-08 0 -2.1293124156558767e-05 2.9445332958527048e-06 0 -1.4776940104034023e-05 -1.6915791455675094e-07 0 -1.9527361665313459e-05 3.2989835927221323e-06 0 1.6410235946962208e-05 -7.8767115586092963e-06 0 1.5286205118708496e-05 -1.33025635894294e-05 0 2.0009012227616547e-05 -1.4972793628126709e-05 0 6.3430254062371084e-06 -1.1370578304523741e-05 0 3.4676917101345517e-06 -2.1703519067299805e-05 0 1.1519126084723629e-05 -2.3893900390757402e-05 0 1.9890118394332679e-05 -1.9177564021217585e-05 0 1.5286205118708496e-05 -1.33025635894294e-05 0 1.6606123853795638e-05 -1.899464342652813e-05 0 1.3479656288121585e-05 -1.6525901192578392e-05 0 1.6606123853795638e-05 -1.899464342652813e-05 0 1.5286205118708496e-05 -1.33025635894294e-05 0 -1.039738377993343e-05 -0.00014561017264087903 0 4.2629962501414946e-06 -0.00014653704478839312 0 1.8584846608992285e-06 -0.00013241105793388447 0 -5.7034012525665162e-06 0.00028695635009536442 0 -3.3136484386441733e-05 0.00028606733215878695 0 -3.1369198382506485e-05 0.00026009076908061542 0 2.3093768946007072e-05 0.00028816502403765257 0 -5.7034012525665162e-06 0.00028695635009536442 0 1.8913305141544661e-05 0.00026088377277160902 0 -2.4280078462619605e-05 -0.00014498277892163497 0 -1.039738377993343e-05 -0.00014561017264087903 0 -2.3454289453404512e-05 -0.00013164685047806817 0 7.1185167901382763e-06 1.8332520632854963e-05 0 -3.4890400363184356e-06 3.189780665130643e-05 0 -6.4981529518325572e-06 1.9128922963969826e-05 0 9.7896853108769374e-06 -1.9622762692790545e-05 0 8.6180688692824721e-06 -2.3408958101410421e-05 0 1.1736254121906748e-05 -2.4247051717493904e-05 0 1.9890118394332679e-05 -1.9177564021217585e-05 0 1.6606123853795638e-05 -1.899464342652813e-05 0 2.2049178808887884e-05 -2.3569184731441763e-05 0 1.6885004366551305e-05 -2.2807958665112667e-05 0 2.2049178808887884e-05 -2.3569184731441763e-05 0 1.6606123853795638e-05 -1.899464342652813e-05 0 2.9271376038374746e-06 -4.6746300944534805e-05 0 2.7090561022940431e-06 -3.3756548498748442e-05 0 -4.639609297001178e-06 -4.3508601997448118e-05 0 -5.9609047156839521e-05 5.433752788340007e-05 0 -3.6657686138649036e-05 4.1484418949135608e-05 0 -4.9457453088627751e-05 6.189161794525678e-05 0 -5.9908851971518545e-06 -5.0237670193823761e-06 0 -9.5154536402896372e-06 -9.436946649607367e-06 0 -3.1276807695736181e-06 -7.1344225253215753e-06 0 -4.8692503539339215e-06 -1.2095003978101555e-05 0 -3.1276807695736181e-06 -7.1344225253215753e-06 0 -9.5154536402896372e-06 -9.436946649607367e-06 0 1.2474879043462666e-05 -3.9519693297753021e-05 0 1.517662380865077e-05 -3.8617570788274643e-05 0 1.2242576095983429e-05 -3.6292115760875072e-05 0 -3.9816256467131691e-05 9.6988670224907556e-05 0 -5.7187720950035395e-05 0.00010990587779662907 0 -4.9689943201070813e-05 8.1460409220790157e-05 0 -1.1793482081380758e-05 -3.0743434161981086e-06 0 -1.6348835250731731e-05 -6.6388941738070149e-06 0 -1.1223401150072128e-05 -5.8251066209178002e-06 0 -1.6070852271106648e-05 -9.9404737114303774e-06 0 -1.1223401150072128e-05 -5.8251066209178002e-06 0 -1.6348835250731731e-05 -6.6388941738070149e-06 0 -2.3589859031582288e-05 1.7791114193556063e-05 0 -2.4750112985852677e-05 1.140858349434208e-05 0 -1.5588556791862244e-05 1.0031200290759246e-05 0 -1.7035317296180831e-05 5.2806573833631444e-06 0 -1.5588556791862244e-05 1.0031200290759246e-05 0 -2.4750112985852677e-05 1.140858349434208e-05 0 9.3886070352245065e-06 -2.8012856761788948e-05 0 1.3017258942799471e-05 -2.8657403003705843e-05 0 1.1736254121906748e-05 -2.4247051717493904e-05 0 -3.467029710879257e-05 -2.774650343451019e-05 0 -3.0010734419091506e-05 -3.1243416793215405e-05 0 -2.3358615443485859e-05 -2.1813365535401196e-05 0 1.955182721832743e-05 9.3320471030773801e-05 0 3.414453730425727e-06 7.1534393753607908e-05 0 2.0821825195616872e-05 6.8886356965072102e-05 0 1.0340471884411587e-05 -2.4269988043938751e-06 0 8.1364546871734745e-06 -4.0758760563986338e-06 0 9.0392389902796513e-06 -6.5080107856759448e-06 0 8.705864207010899e-06 2.0739099130075763e-06 0 1.0196929324401489e-05 2.2791097613937645e-06 0 8.4390599753413437e-06 1.695412859821877e-06 0 -4.6586123608504709e-05 0.00017101111788329738 0 -2.7494478805826216e-05 0.000179039358098708 0 -5.2137033315769772e-05 0.00020180799130253434 0 6.2042667439283636e-06 -8.4770203559184784e-05 0 -2.8481936713077535e-06 -8.9648843168475991e-05 0 9.7818784190649192e-06 -0.00010096071302125449 0 1.6410235946962208e-05 -7.8767115586092963e-06 0 1.4028365256922337e-05 -8.3260622375311785e-06 0 1.5286205118708496e-05 -1.33025635894294e-05 0 1.4981523843372862e-05 -4.2545342836583111e-05 0 1.517662380865077e-05 -3.8617570788274643e-05 0 1.2474879043462666e-05 -3.9519693297753021e-05 0 1.6885004366551305e-05 -2.2807958665112667e-05 0 1.4865523080010192e-05 -2.4894643363650199e-05 0 2.0176524889619807e-05 -2.8399569169029192e-05 0 6.9687232721024956e-10 -5.0542313146558463e-10 0 9.7329045969246243e-07 -9.0698903818030483e-07 0 6.253927417412846e-07 -1.4255874082386806e-06 0 3.1737379394710239e-10 5.3871408379086584e-10 0 1.6489851766642903e-07 1.3773781265021213e-06 0 4.6802086111489666e-07 1.1941327107397596e-06 0 2.7090561022940431e-06 -3.3756548498748442e-05 0 -5.6396080044074169e-06 -3.3297150595019463e-05 0 -4.639609297001178e-06 -4.3508601997448118e-05 0 -1.1346075566954721e-06 -3.0191505863270796e-06 0 -5.6534412449847961e-07 -2.017316476769633e-06 0 -4.3382993712497875e-06 -2.6706758636334501e-06 0 -4.655002097463492e-06 7.8977971966257418e-06 0 -6.4981529518325546e-06 1.9128922963969826e-05 0 -1.471526558550028e-05 1.6934789831576902e-05 0 2.1671832355345261e-06 -1.0545241222695226e-06 0 1.2596037128352875e-06 -4.7129038022921361e-07 0 2.9535983641634202e-06 -5.2815763472580382e-07 0 2.1876031089147285e-06 -3.1050811835412066e-08 0 2.9535983641634202e-06 -5.2815763472580382e-07 0 1.2596037128352875e-06 -4.7129038022921361e-07 0 1.7156802570181301e-06 1.241209570170436e-06 0 8.1946854628805704e-07 1.1229698836623177e-06 0 2.0554602441089003e-06 1.9200488738950415e-06 0 1.1822923827958169e-06 1.8340015237752914e-06 0 2.0554602441089003e-06 1.9200488738950415e-06 0 8.1946854628805694e-07 1.1229698836623175e-06 0 -4.3816472457603813e-06 1.7123529162512994e-06 0 7.6773403314573368e-07 3.3573919172248572e-06 0 -4.655002097463492e-06 7.8977971966257418e-06 0 8.705864207010899e-06 2.0739099130075763e-06 0 1.0530688984809315e-05 2.5385555167143488e-06 0 1.0196929324401489e-05 2.2791097613937645e-06 0 6.7564607994671872e-06 -7.1791781264347512e-07 0 4.3524764754223829e-06 -1.8982039373738919e-06 0 4.5801586047274115e-06 -1.3373756499124819e-06 0 -5.6534412449847961e-07 -2.017316476769633e-06 0 1.859308091795157e-06 -2.6231197811224865e-06 0 3.1356881677151964e-06 -1.0507932396284009e-06 0 1.1041280683551847e-05 2.1659929552928024e-06 0 1.2654344298655063e-05 3.4596906146291025e-06 0 1.0530688984809313e-05 2.5385555167143488e-06 0 5.1477510435823017e-07 1.8718306484214792e-06 0 1.3346376090020888e-06 9.5756881245340286e-07 0 2.0715253548405911e-06 2.0533269442905321e-06 0 3.0951827700427637e-06 9.7133441278873571e-07 0 2.0715253548405911e-06 2.0533269442905321e-06 0 1.3346376090020888e-06 9.5756881245340286e-07 0 -1.3826453394510874e-09 -4.089506728564568e-10 0 -6.1195306356305074e-10 -1.0250238955126006e-09 0 -1.1351546347880548e-06 -1.4434350543447889e-06 0 -6.0462962384832067e-10 6.844657786624526e-10 0 -1.1378507255771351e-09 2.5255660906780933e-10 0 -9.3000255570535551e-07 9.1233867473843235e-07 0 4.6309665671631769e-05 7.1752140845409717e-05 0 2.0821825195616872e-05 6.8886356965072102e-05 0 2.2187857897702018e-05 4.8748266078102119e-05 0 3.1219619308095616e-06 2.2475327132985478e-06 0 3.8251200083572003e-06 2.2282435637061598e-06 0 4.4745084357926173e-06 2.0772722329500813e-06 0 6.1850160506584441e-06 -7.1311143970847954e-06 0 6.765998611945112e-06 -4.7089674635748173e-06 0 5.2845502339882998e-06 -7.6070207533812669e-06 0 1.8687873529247047e-05 -4.2192047667142503e-05 0 1.517662380865077e-05 -3.8617570788274643e-05 0 1.4981523843372862e-05 -4.2545342836583111e-05 0 -1.0836352472122191e-05 -5.2043014338767057e-07 0 -9.8313688279900774e-06 -9.4033021314279494e-08 0 -8.0824580474833027e-06 8.0139177679095798e-07 0 -1.5843468604072321e-05 1.8789942384860497e-07 0 -1.1593970279275235e-05 -1.7319235614127245e-06 0 -1.4776940104034025e-05 -1.6915791455675099e-07 0 1.6342126455044858e-05 -2.8793170010639712e-05 0 2.0176524889619807e-05 -2.8399569169029192e-05 0 1.4865523080010192e-05 -2.4894643363650199e-05 0 -9.8313688279900774e-06 -9.4033021314279494e-08 0 -6.7684517888390239e-06 6.7329149494237035e-07 0 -7.119672701283882e-06 1.1124395642969904e-06 0 -7.2143263266491268e-06 -1.5126642663336822e-06 0 -4.1021072180568848e-06 -8.5758353826093671e-07 0 -1.1273253849013524e-05 5.3546420258358648e-07 0 -9.90921538614934e-06 -9.5451260934312863e-07 0 -6.7684517888390239e-06 6.7329149494237035e-07 0 -9.8313688279900774e-06 -9.4033021314279494e-08 0 -4.1405704289667703e-07 2.6601198405458959e-06 0 -1.9168237747041911e-06 2.5577422483299507e-06 0 -9.9141664266058508e-07 2.3107617331768935e-06 0 2.1577299110065987e-06 -2.8782958241835611e-06 0 1.859308091795157e-06 -2.6231197811224865e-06 0 -9.8635842594657822e-07 -3.5201896199371432e-06 0 -1.0622808236586439e-05 4.5405936533683356e-06 0 -4.3816472457603813e-06 1.7123529162512992e-06 0 -4.655002097463492e-06 7.8977971966257418e-06 0 9.3886070352245065e-06 -2.8012856761788948e-05 0 1.1736254121906748e-05 -2.4247051717493904e-05 0 8.6180688692824721e-06 -2.3408958101410421e-05 0 2.7915841130802324e-05 0.00017353563265245885 0 3.8050091024154268e-05 0.00020312228383392695 0 1.3094806078027632e-05 0.00019915617525763634 0 -3.0469544226044942e-05 -8.684153082284479e-05 0 -3.4914336494963402e-05 -0.00010238892193603364 0 -2.2543016459833348e-05 -9.9961075293632644e-05 0 2.1671832355345261e-06 -1.0545241222695226e-06 0 9.7329045969246243e-07 -9.0698903818030483e-07 0 1.2596037128352875e-06 -4.7129038022921361e-07 0 1.1822923827958169e-06 1.8340015237752914e-06 0 8.1946854628805683e-07 1.1229698836623175e-06 0 4.6802086111489666e-07 1.1941327107397596e-06 0 2.9779076770390201e-10 -7.4674876183863038e-10 0 6.253927417412846e-07 -1.4255874082386806e-06 0 1.3618939625811292e-07 -1.5423240329811398e-06 0 -3.0980697053476581e-11 6.1123188894236605e-10 0 -1.6204903534402894e-07 1.2601232426689803e-06 0 1.6489851766642903e-07 1.3773781265021213e-06 0 6.1850160506584441e-06 -7.1311143970847954e-06 0 4.8400240310482621e-06 -9.8252937873533739e-06 0 7.3817290582141792e-06 -9.8123666256860211e-06 0 6.0792090395533078e-06 -1.2474466238911837e-05 0 7.3817290582141792e-06 -9.8123666256860211e-06 0 4.8400240310482621e-06 -9.8252937873533739e-06 0 -1.3426838526877621e-05 7.6582485519062217e-05 0 -1.1009682194557969e-05 5.2425285320496471e-05 0 3.414453730425727e-06 7.1534393753607908e-05 0 6.2839524871925141e-06 4.6509143000104872e-05 0 3.4144537304257257e-06 7.1534393753607908e-05 0 -1.1009682194557969e-05 5.2425285320496471e-05 0 1.3447732163913241e-05 7.3151477083533672e-06 0 1.3968804291170794e-05 4.5105607576545061e-06 0 1.9384676188811069e-05 9.4018187301160913e-06 0 6.1850160506584441e-06 -7.1311143970847954e-06 0 8.1364546871734745e-06 -4.0758760563986338e-06 0 6.765998611945112e-06 -4.7089674635748173e-06 0 4.973687847417688e-06 -2.6607091226951654e-07 0 3.4791953322507316e-06 1.2977685564558521e-07 0 4.6541433411385327e-06 5.7125751876854136e-07 0 9.7896853108769374e-06 -1.9622762692790545e-05 0 1.1736254121906748e-05 -2.4247051717493904e-05 0 1.3349096592850296e-05 -2.0384867372794831e-05 0 -2.9503889187430197e-05 0.00013201881212329832 0 -4.0772640608202554e-05 0.00011415193631243195 0 -2.281322922514936e-05 0.00010082415568498202 0 8.1738652277377665e-06 -3.3922917693034917e-05 0 5.9377651544481183e-06 -2.9239759744242462e-05 0 5.7506845729149406e-06 -3.3602196930634236e-05 0 2.221166110822321e-05 -3.4040538819034332e-05 0 1.8172491923891881e-05 -3.2343839614041235e-05 0 1.9949121149936723e-05 -3.7828890711489507e-05 0 1.9972647774873056e-06 2.5022129805094209e-06 0 1.7555519204088118e-06 2.4440920133802786e-06 0 8.5301805260516129e-07 2.6424109404808472e-06 0 -1.7468273919666452e-05 3.2776945945884387e-05 0 -6.4981529518325572e-06 1.9128922963969826e-05 0 -3.4890400363184356e-06 3.189780665130643e-05 0 -3.1182221615112812e-06 5.2258265691224788e-07 0 -5.289936014549308e-06 7.450650193238383e-07 0 -3.0954676998672805e-06 1.1219658044838289e-06 0 -7.2994478628771222e-06 -1.5827737033599682e-06 0 -4.1565425688282298e-06 -1.1611343098044344e-06 0 -4.1083598461489259e-06 -2.0098280480398384e-06 0 1.9890118394332679e-05 -1.9177564021217585e-05 0 2.0009012227616547e-05 -1.4972793628126709e-05 0 1.5286205118708496e-05 -1.33025635894294e-05 0 -6.900923087352045e-07 1.9819380216304561e-06 0 -1.053019605362864e-06 2.576100678228637e-06 0 -7.0663997860761226e-08 2.2132970312252387e-06 0 -2.4364932052831225e-07 -2.5783773390065791e-06 0 7.8833431298657357e-07 -2.4390156581631488e-06 0 -2.485057273209477e-08 -3.3128097151976734e-06 0 -5.2037541108598958e-05 3.7663497878399358e-05 0 -3.5451083095729018e-05 2.7359069854816881e-05 0 -3.6657686138649036e-05 4.1484418949135608e-05 0 -3.0568424818300074e-05 -1.9730630947868682e-05 0 -2.3358615443485859e-05 -2.1813365535401196e-05 0 -2.2244456110020079e-05 -1.452519246081533e-05 0 7.1185167901382763e-06 1.8332520632854963e-05 0 1.6863377593746127e-05 1.3073268758026454e-05 0 1.5339639809636783e-05 2.7576465580400051e-05 0 2.7733754853211629e-05 1.60819099284e-05 0 1.5339639809636779e-05 2.7576465580400051e-05 0 1.6863377593746127e-05 1.3073268758026454e-05 0 -3.1678901098589899e-06 -2.4469500805781884e-05 0 -1.0892137370642226e-05 -2.6927202112509849e-05 0 -5.6396080044074169e-06 -3.3297150595019463e-05 0 -1.1869966688165494e-05 -3.9915942270883661e-05 0 -5.6396080044074169e-06 -3.3297150595019463e-05 0 -1.0892137370642226e-05 -2.6927202112509849e-05 0 1.6410235946962208e-05 -7.8767115586092963e-06 0 1.885834102106011e-05 -3.6037143659661057e-06 0 1.5963860997642831e-05 -7.4826321269409772e-08 0 1.8687873529247047e-05 -4.2192047667142503e-05 0 1.498152384337286e-05 -4.2545342836583111e-05 0 1.8271206566181923e-05 -4.5883990041297751e-05 0 4.973687847417688e-06 -2.6607091226951654e-07 0 4.5801586047274115e-06 -1.3373756499124819e-06 0 3.4147917371542891e-06 -1.0301505880124728e-06 0 -9.5154536402896372e-06 -9.436946649607367e-06 0 -1.6374956719256731e-05 -1.4563551388734177e-05 0 -1.0501042336293911e-05 -1.4488922828283026e-05 0 2.6749968521867372e-05 -5.4083996490302496e-05 0 2.6045872340764222e-05 -4.6105448925266847e-05 0 2.1548654166685533e-05 -4.6910255807459345e-05 0 -3.5047736481052696e-05 6.182672517066355e-05 0 -4.9457453088627751e-05 6.189161794525678e-05 0 -3.6657686138649036e-05 4.1484418949135608e-05 0 -5.2137033315769772e-05 0.00020180799130253434 0 -2.7494478805826216e-05 0.000179039358098708 0 -2.6038854836563254e-05 0.00020413730872747527 0 9.7818784190649192e-06 -0.00010096071302125449 0 -2.8481936713077535e-06 -8.9648843168475991e-05 0 -3.0088483809632434e-06 -0.00010249298577819388 0 5.250693322021538e-06 1.5964315500342345e-06 0 6.8798703284748966e-06 1.6661460447911993e-06 0 5.2909290326445106e-06 2.0223326035175933e-06 0 6.0792090395533078e-06 -1.2474466238911837e-05 0 4.8400240310482621e-06 -9.8252937873533739e-06 0 4.0529013927737076e-06 -1.3790926420335834e-05 0 6.4123022592570527e-06 1.2633244575122467e-06 0 8.4390599753413437e-06 1.6954128598218772e-06 0 7.7588838854230974e-06 9.4690008097266484e-07 0 9.5078289971303015e-06 1.5024794300462043e-06 0 7.7588838854230974e-06 9.4690008097266484e-07 0 8.4390599753413437e-06 1.695412859821877e-06 0 -5.6534412449847961e-07 -2.017316476769633e-06 0 -4.1021072180568848e-06 -8.5758353826093671e-07 0 -4.3382993712497875e-06 -2.6706758636334501e-06 0 -1.1869966688165494e-05 -3.9915942270883661e-05 0 -1.8690229812562052e-05 -4.7073917106286192e-05 0 -1.3047965091233868e-05 -5.4371663487108365e-05 0 -7.5345518305449715e-06 -2.8993242769040648e-06 0 -4.2709009031617863e-06 -3.4546534864521362e-06 0 -8.9310100721893354e-06 -2.2536407970123328e-06 0 1.4500860999372847e-05 0.00013218443233722381 0 -6.0761189178777464e-06 0.00015553751870501668 0 -1.1752380112565578e-05 0.0001339874762698118 0 1.4500860999372847e-05 0.00013218443233722381 0 -1.1752380112565578e-05 0.0001339874762698118 0 -8.1726332998861236e-06 0.00011222559873926944 0 -2.9503889187430197e-05 0.00013201881212329832 0 -8.1726332998861236e-06 0.00011222559873926944 0 -1.1752380112565578e-05 0.0001339874762698118 0 -2.2344543085706426e-05 -6.5381592660197519e-05 0 -1.3727486361918608e-05 -7.7853441546079893e-05 0 -9.6353878398024626e-06 -6.5404027017537309e-05 0 -2.2344543085706426e-05 -6.5381592660197519e-05 0 -9.6353878398024626e-06 -6.5404027017537309e-05 0 -1.3047965091233868e-05 -5.4371663487108365e-05 0 1.3968804291170794e-05 4.5105607576545061e-06 0 1.6598597977905862e-05 6.4653359608364016e-06 0 1.9384676188811069e-05 9.4018187301160913e-06 0 9.4955359933903265e-10 -3.9971688839532901e-10 0 1.2269109510048809e-09 1.2646766710038335e-11 0 1.2596037128352875e-06 -4.7129038022921361e-07 0 8.7257258903061988e-10 3.6111621338240595e-10 0 5.4603521226334139e-10 5.4204152945236013e-10 0 8.1946854628805694e-07 1.1229698836623175e-06 0 3.8251200083572003e-06 2.2282435637061598e-06 0 5.2909290326445106e-06 2.0223326035175933e-06 0 4.4745084357926173e-06 2.0772722329500813e-06 0 6.3430254062371084e-06 -1.1370578304523741e-05 0 3.9447249151737768e-06 -8.5137298245891124e-06 0 2.2239455809399692e-06 -1.3461813774054951e-05 0 -4.2709009031617863e-06 -3.4546534864521362e-06 0 -4.3382993712497866e-06 -2.6706758636334501e-06 0 -8.9310100721893354e-06 -2.2536407970123328e-06 0 1.1118096211346905e-09 2.513354082717806e-10 0 1.769484813935124e-06 7.2254001582759668e-07 0 1.1503906537154283e-06 2.0785061549536512e-07 0 -7.2994478628771222e-06 -1.5827737033599682e-06 0 -5.9212420063073352e-06 -2.7090212257146532e-06 0 -8.8625764870919509e-06 -2.24156798240398e-06 0 -5.289936014549308e-06 7.450650193238383e-07 0 -6.3674648220141091e-06 1.1790973164526318e-06 0 -4.4612569209106582e-06 1.549636841291722e-06 0 -2.2931617155569817e-05 -3.0919164916106223e-05 0 -2.3358615443485859e-05 -2.1813365535401196e-05 0 -3.0010734419091506e-05 -3.1243416793215405e-05 0 2.8566659666376313e-06 1.343543110000792e-06 0 1.7156802570181301e-06 1.241209570170436e-06 0 3.1004377495112191e-06 1.8677395260948321e-06 0 9.3886070352245065e-06 -2.8012856761788948e-05 0 5.9377651544481183e-06 -2.9239759744242462e-05 0 9.6263729109615561e-06 -3.1751668493936931e-05 0 1.1041280683551847e-05 2.1659929552928024e-06 0 1.0530688984809313e-05 2.5385555167143488e-06 0 9.5358088820079198e-06 1.7263058082716663e-06 0 1.955182721832743e-05 9.3320471030773801e-05 0 -1.5707404183075754e-06 9.3982596671086612e-05 0 3.414453730425727e-06 7.1534393753607908e-05 0 4.973687847417688e-06 -2.6607091226951654e-07 0 2.9535983641634202e-06 -5.2815763472580382e-07 0 3.4791953322507316e-06 1.2977685564558521e-07 0 -3.6053725112817292e-05 0.00023156124883974896 0 -2.6038854836563254e-05 0.00020413730872747527 0 -6.1367153063822815e-06 0.00021835182582135003 0 2.9144968245039178e-06 -0.00011709007325790868 0 -3.0088483809632434e-06 -0.00010249298577819388 0 -1.2529633105481299e-05 -0.00010997083793318965 0 1.7156802570181301e-06 1.241209570170436e-06 0 2.0554602441089003e-06 1.9200488738950415e-06 0 3.1004377495112191e-06 1.8677395260948321e-06 0 1.1041280683551847e-05 2.1659929552928024e-06 0 9.3534776521408287e-06 5.8248247285064753e-07 0 1.0546457052107833e-05 3.6574297853268112e-07 0 2.1575594001016149e-05 0.00023108227012033622 0 1.8913305141544661e-05 0.00026088377277160902 0 -6.8702543998461499e-06 0.0002506287827688625 0 -3.6053725112817292e-05 0.00023156124883974896 0 -6.8702543998461448e-06 0.0002506287827688625 0 -3.1369198382506485e-05 0.00026009076908061542 0 -2.5876351719605701e-05 -0.00011652142518517582 0 -2.3454289453404512e-05 -0.00013164685047806817 0 -1.1155070742807768e-05 -0.00012688226399280411 0 2.9144968245039178e-06 -0.00011709007325790868 0 -1.1155070742807768e-05 -0.00012688226399280411 0 1.8584846608992285e-06 -0.00013241105793388447 0 -4.655002097463492e-06 7.8977971966257418e-06 0 -1.471526558550028e-05 1.6934789831576902e-05 0 -1.5588556791862244e-05 1.0031200290759246e-05 0 -1.4056794124636808e-05 -1.8597405722246159e-05 0 -2.3358615443485859e-05 -2.1813365535401196e-05 0 -1.7439635405783477e-05 -2.5512149790379376e-05 0 -2.2931617155569817e-05 -3.0919164916106223e-05 0 -1.7439635405783477e-05 -2.5512149790379376e-05 0 -2.3358615443485859e-05 -2.1813365535401196e-05 0 -3.5047736481052696e-05 6.182672517066355e-05 0 -3.6657686138649036e-05 4.1484418949135608e-05 0 -2.3889095158580923e-05 4.9641422632542151e-05 0 -1.7468273919666452e-05 3.2776945945884387e-05 0 -2.3889095158580923e-05 4.9641422632542151e-05 0 -3.6657686138649036e-05 4.1484418949135608e-05 0 1.1822923827958169e-06 1.8340015237752914e-06 0 7.4564276304114369e-07 2.0954468074093557e-06 0 1.755551920408812e-06 2.4440920133802786e-06 0 3.9726500763463992e-05 4.8054880519946436e-05 0 4.6309665671631769e-05 7.1752140845409717e-05 0 2.2187857897702018e-05 4.8748266078102119e-05 0 -2.4364932052831225e-07 -2.5783773390065791e-06 0 -1.2954461454198593e-06 -3.114487830131992e-06 0 -1.1256184184941977e-06 -2.2238646009229626e-06 0 -6.900923087352045e-07 1.9819380216304561e-06 0 -1.088588691617847e-06 1.5167939944642198e-06 0 -1.5098526237584696e-06 2.1884043553227156e-06 0 6.1850160506584441e-06 -7.1311143970847954e-06 0 9.0392389902796513e-06 -6.5080107856759448e-06 0 8.1364546871734745e-06 -4.0758760563986338e-06 0 -1.053019605362864e-06 2.576100678228637e-06 0 -1.5081454036499665e-07 2.6073766508067824e-06 0 -7.0663997860761226e-08 2.2132970312252387e-06 0 -2.485057273209477e-08 -3.3128097151976734e-06 0 7.8833431298657357e-07 -2.4390156581631488e-06 0 1.5313491994150984e-06 -2.807273954886674e-06 0 -7.2143263266491268e-06 -1.5126642663336822e-06 0 -1.1273253849013524e-05 5.3546420258358648e-07 0 -8.9310100721893354e-06 -2.2536407970123328e-06 0 -1.4776940104034025e-05 -1.6915791455675099e-07 0 -8.9310100721893354e-06 -2.2536407970123328e-06 0 -1.1273253849013524e-05 5.3546420258358648e-07 0 2.1575594001016149e-05 0.00023108227012033622 0 1.3094806078027632e-05 0.00019915617525763634 0 3.8050091024154268e-05 0.00020312228383392695 0 -2.5876351719605701e-05 -0.00011652142518517582 0 -2.2543016459833348e-05 -9.9961075293632644e-05 0 -3.4914336494963409e-05 -0.00010238892193603364 0 2.6749968521867372e-05 -5.4083996490302496e-05 0 3.5170270760341533e-05 -5.722614950491314e-05 0 3.2755043482074726e-05 -5.022503084498517e-05 0 1.5191154961333374e-05 -4.3838465146917012e-05 0 1.6920935489257772e-05 -4.6945976305120507e-05 0 1.3314515066764904e-05 -4.2399596043846243e-05 0 -7.3111665131619044e-07 1.1961603337310223e-06 0 5.1477510435823017e-07 1.8718306484214792e-06 0 -9.9141664266058508e-07 2.3107617331768935e-06 0 4.8780107388164681e-06 -3.6742444017166549e-05 0 8.0317564862691157e-06 -3.7282238361840553e-05 0 5.7506845729149406e-06 -3.3602196930634236e-05 0 4.0676515163432416e-05 -3.3096771761791487e-05 0 3.5363442273353438e-05 -3.2544860930612952e-05 0 3.7103047030347384e-05 -3.8688189707784142e-05 0 2.5572978830477211e-05 -3.8436484631188908e-05 0 3.0782560871934364e-05 -3.8763651359956967e-05 0 2.6531494914411662e-05 -3.3059516109964068e-05 0 -1.6070852271106648e-05 -9.9404737114303774e-06 0 -1.6374956719256731e-05 -1.4563551388734177e-05 0 -9.5154536402896372e-06 -9.436946649607367e-06 0 1.6920935489257772e-05 -4.6945976305120507e-05 0 1.8271206566181923e-05 -4.5883990041297751e-05 0 1.4981523843372862e-05 -4.2545342836583111e-05 0 -1.7035317296180831e-05 5.2806573833631444e-06 0 -1.1273253849013524e-05 5.3546420258358648e-07 0 -1.0622808236586439e-05 4.5405936533683356e-06 0 6.8798703284748966e-06 1.666146044791199e-06 0 6.9385325483757638e-06 1.9553896415567039e-06 0 5.2909290326445106e-06 2.0223326035175933e-06 0 -1.4056794124636808e-05 -1.8597405722246159e-05 0 -1.0892137370642226e-05 -2.6927202112509849e-05 0 -7.7289907187649059e-06 -1.8720701451509342e-05 0 -3.1678901098589899e-06 -2.4469500805781884e-05 0 -7.7289907187649076e-06 -1.8720701451509342e-05 0 -1.0892137370642226e-05 -2.6927202112509849e-05 0 -2.526376198115215e-06 1.4764798721625253e-06 0 -7.3111665131619044e-07 1.1961603337310223e-06 0 -9.9141664266058508e-07 2.3107617331768935e-06 0 -1.4056794124636808e-05 -1.8597405722246159e-05 0 -1.0501042336293911e-05 -1.4488922828283026e-05 0 -1.6374956719256731e-05 -1.4563551388734177e-05 0 -2.6384693309994469e-06 2.2244352207173036e-06 0 -2.526376198115215e-06 1.4764798721625253e-06 0 -9.9141664266058508e-07 2.3107617331768935e-06 0 2.1577299110065987e-06 -2.8782958241835611e-06 0 4.9386707176386444e-06 -1.7591318927471018e-06 0 1.859308091795157e-06 -2.6231197811224865e-06 0 -1.4056794124636808e-05 -1.8597405722246159e-05 0 -1.6374956719256731e-05 -1.4563551388734177e-05 0 -2.3358615443485859e-05 -2.1813365535401196e-05 0 -1.7468273919666452e-05 3.2776945945884387e-05 0 -3.6657686138649036e-05 4.1484418949135608e-05 0 -2.5334728646782222e-05 2.6540607621397926e-05 0 -6.1195306356305074e-10 -1.0250238955126006e-09 0 -2.6926338525740877e-07 -1.4382512644489282e-06 0 -1.1256184184941977e-06 -2.2238646009229626e-06 0 -6.0462962384832067e-10 6.844657786624526e-10 0 -1.088588691617847e-06 1.5167939944642198e-06 0 -3.8640838701711573e-07 1.0535971621965246e-06 0 -2.6384693309994469e-06 2.2244352207173036e-06 0 -9.9141664266058508e-07 2.3107617331768935e-06 0 -1.9168237747041911e-06 2.5577422483299507e-06 0 -1.1346075566954721e-06 -3.0191505863270796e-06 0 -9.8635842594657822e-07 -3.5201896199371432e-06 0 1.859308091795157e-06 -2.6231197811224865e-06 0 1.8754083691747709e-06 -2.4156123325317377e-06 0 2.0974838275856806e-06 -1.8387088113789902e-06 0 3.1621912289428793e-06 -2.1650626162111722e-06 0 2.2239455809399692e-06 -1.3461813774054951e-05 0 -2.7551714579584233e-06 -1.6342761139011228e-05 0 3.4676917101345517e-06 -2.1703519067299805e-05 0 4.973687847417688e-06 -2.6607091226951654e-07 0 4.6541433411385327e-06 5.7125751876854136e-07 0 6.0487363823335872e-06 4.7296687217155711e-07 0 -3.6053725112817292e-05 0.00023156124883974896 0 -5.2137033315769772e-05 0.00020180799130253434 0 -2.6038854836563254e-05 0.00020413730872747527 0 2.9144968245039178e-06 -0.00011709007325790868 0 9.7818784190649192e-06 -0.00010096071302125449 0 -3.0088483809632434e-06 -0.00010249298577819388 0 -4.1405704289667703e-07 2.6601198405458959e-06 0 -1.053019605362864e-06 2.576100678228637e-06 0 -1.9168237747041911e-06 2.5577422483299507e-06 0 2.1577299110065987e-06 -2.8782958241835611e-06 0 -9.8635842594657822e-07 -3.5201896199371432e-06 0 -2.485057273209477e-08 -3.3128097151976734e-06 0 3.4739901657589258e-06 9.6737441624097239e-07 0 4.1270465951155677e-06 1.695666675840744e-06 0 4.9399176895194201e-06 1.2701284542820194e-06 0 -2.7551714579584233e-06 -1.6342761139011228e-05 0 -3.1678901098589899e-06 -2.4469500805781884e-05 0 3.4676917101345517e-06 -2.1703519067299805e-05 0 -8.1883265179870428e-05 0.00014677725556478627 0 -7.8164685961578493e-05 0.00012097975833960236 0 -5.5378869445776291e-05 0.00013263235231988064 0 2.0263343087358598e-05 -5.7544583171604563e-05 0 9.7622095894843371e-06 -6.4690579865299134e-05 0 2.2442087514662559e-05 -7.0485979196580455e-05 0 -2.2344543085706426e-05 -6.5381592660197519e-05 0 -1.304796509123387e-05 -5.4371663487108365e-05 0 -2.2146400545279823e-05 -5.4627959886868087e-05 0 8.3202348471073541e-06 -1.6936064564733814e-06 0 6.765998611945112e-06 -4.7089674635748164e-06 0 8.1364546871734745e-06 -4.0758760563986338e-06 0 -7.5345518305449715e-06 -2.8993242769040648e-06 0 -5.9212420063073343e-06 -2.7090212257146532e-06 0 -4.8867126486467819e-06 -3.3009485646935696e-06 0 -5.7310455684643832e-06 1.6929384448947309e-06 0 -4.0306503813913865e-06 2.0162393655437348e-06 0 -4.4612569209106582e-06 1.549636841291722e-06 0 1.0166747041907926e-05 1.6097899439789999e-06 0 7.5070689016981672e-06 -3.1726849075986517e-07 0 9.7940976885865831e-06 1.0584235450601214e-06 0 3.4739901657589258e-06 9.6737441624097239e-07 0 2.8566659666376313e-06 1.343543110000792e-06 0 4.1270465951155677e-06 1.695666675840744e-06 0 6.0792090395533078e-06 -1.2474466238911837e-05 0 5.1281132154908686e-06 -1.6767192264828879e-05 0 7.9445047449082389e-06 -1.4979993415420207e-05 0 -7.5345518305449715e-06 -2.8993242769040648e-06 0 -8.8625764870919509e-06 -2.24156798240398e-06 0 -5.9212420063073352e-06 -2.7090212257146532e-06 0 -5.7310455684643832e-06 1.6929384448947309e-06 0 -4.4612569209106582e-06 1.549636841291722e-06 0 -6.36746482201411e-06 1.1790973164526316e-06 0 1.1041280683551847e-05 2.1659929552928024e-06 0 9.5358088820079198e-06 1.7263058082716663e-06 0 9.3534776521408287e-06 5.8248247285064753e-07 0 -1.2118191193889258e-05 -9.3922553856183599e-05 0 -1.372748636191861e-05 -7.7853441546079879e-05 0 -2.0378973676185736e-05 -8.6362979787064074e-05 0 -8.3855561086711993e-06 0.00018773360915437705 0 -6.0761189178777498e-06 0.00015553751870501668 0 7.7609826406794395e-06 0.00017287789093968522 0 -1.6070852271106648e-05 -9.9404737114303774e-06 0 -9.5154536402896372e-06 -9.4369466496073653e-06 0 -1.1223401150072128e-05 -5.8251066209178002e-06 0 -5.9908851971518545e-06 -5.0237670193823761e-06 0 -1.1223401150072127e-05 -5.8251066209178002e-06 0 -9.5154536402896372e-06 -9.436946649607367e-06 0 4.1313909946663635e-06 -1.7769004784249815e-06 0 2.0628207866253024e-06 -2.8029452766832763e-06 0 4.569017144447325e-06 -4.8799659337007527e-06 0 1.3437609218523015e-06 -5.9414218512694388e-06 0 4.569017144447325e-06 -4.8799659337007527e-06 0 2.0628207866253024e-06 -2.8029452766832763e-06 0 6.253927417412846e-07 -1.4255874082386806e-06 0 2.0974838275856806e-06 -1.8387088113789902e-06 0 7.8833431298657357e-07 -2.4390156581631488e-06 0 1.8754083691747709e-06 -2.4156123325317377e-06 0 7.8833431298657357e-07 -2.4390156581631488e-06 0 2.0974838275856806e-06 -1.8387088113789902e-06 0 4.0885577738412982e-07 2.4781331718219644e-06 0 7.4564276304114369e-07 2.0954468074093557e-06 0 -7.0663997860761226e-08 2.2132970312252387e-06 0 1.6489851766642903e-07 1.3773781265021213e-06 0 -7.0663997860761226e-08 2.2132970312252387e-06 0 7.4564276304114369e-07 2.0954468074093557e-06 0 9.3886070352245065e-06 -2.8012856761788948e-05 0 1.2233043603167077e-05 -3.2386461553068244e-05 0 1.3017258942799471e-05 -2.8657403003705843e-05 0 8.3202348471073541e-06 -1.6936064564733814e-06 0 1.0546457052107833e-05 3.6574297853268112e-07 0 9.3534776521408287e-06 5.8248247285064753e-07 0 9.5078289971303015e-06 1.5024794300462043e-06 0 8.4998553423583675e-06 6.2196330211478748e-07 0 7.7588838854230974e-06 9.4690008097266484e-07 0 1.4500860999372847e-05 0.00013218443233722381 0 1.5819014410088742e-05 0.00015680538148910559 0 -6.0761189178777464e-06 0.00015553751870501668 0 -2.2344543085706426e-05 -6.5381592660197519e-05 0 -2.4426484267744719e-05 -7.7415695015266967e-05 0 -1.3727486361918608e-05 -7.7853441546079893e-05 0 1.4500860999372847e-05 0.00013218443233722381 0 -8.1726332998861236e-06 0.00011222559873926944 0 1.0972876295183182e-05 0.00010925053522633035 0 1.0166747041907926e-05 1.6097899439789999e-06 0 6.8508417254778284e-06 2.7511037413022095e-07 0 7.5070689016981672e-06 -3.1726849075986522e-07 0 1.0166747041907926e-05 1.6097899439789999e-06 0 9.986481561994539e-06 3.3646590809967938e-06 0 6.8508417254778292e-06 2.7511037413022106e-07 0 -1.3426838526877621e-05 7.6582485519062217e-05 0 -1.5707404183075739e-06 9.3982596671086612e-05 0 -2.281322922514936e-05 0.00010082415568498202 0 -8.1726332998861236e-06 0.00011222559873926944 0 -2.281322922514936e-05 0.00010082415568498202 0 -1.5707404183075739e-06 9.3982596671086612e-05 0 -2.5203741276339647e-06 -2.2736479893233845e-06 0 -1.1256184184941977e-06 -2.2238646009229626e-06 0 -2.3061756255828769e-06 -2.9945494658177346e-06 0 -2.0309215548588219e-06 1.4007073883088764e-06 0 -2.0899197333199959e-06 1.9652572327622893e-06 0 -1.088588691617847e-06 1.5167939944642198e-06 0 -3.1678901098589899e-06 -2.4469500805781884e-05 0 -5.6396080044074169e-06 -3.3297150595019463e-05 0 2.7090561022940431e-06 -3.3756548498748442e-05 0 4.8780107388164681e-06 -3.6742444017166549e-05 0 7.6224913977819633e-06 -4.032514928726469e-05 0 8.0317564862691157e-06 -3.7282238361840553e-05 0 4.0676515163432416e-05 -3.3096771761791487e-05 0 3.7103047030347384e-05 -3.8688189707784142e-05 0 4.5002440216908879e-05 -3.8730623633172213e-05 0 8.0537613107468276e-06 1.0241010062335142e-06 0 9.3534776521408287e-06 5.8248247285064753e-07 0 9.5358088820079198e-06 1.7263058082716663e-06 0 9.5078289971303015e-06 1.5024794300462043e-06 0 1.1827886084123088e-05 2.7326971108001941e-06 0 9.7940976885865831e-06 1.0584235450601214e-06 0 1.8687873529247047e-05 -4.2192047667142503e-05 0 1.9949121149936723e-05 -3.7828890711489507e-05 0 1.517662380865077e-05 -3.8617570788274643e-05 0 1.6599633359475179e-05 -3.5303450344419014e-05 0 1.517662380865077e-05 -3.8617570788274643e-05 0 1.9949121149936723e-05 -3.7828890711489507e-05 0 1.6885004366551305e-05 -2.2807958665112667e-05 0 2.0176524889619807e-05 -2.8399569169029192e-05 0 2.2049178808887884e-05 -2.3569184731441763e-05 0 -3.6053725112817292e-05 0.00023156124883974896 0 -6.2532477559044871e-05 0.00022875934836125424 0 -5.2137033315769772e-05 0.00020180799130253434 0 2.9144968245039178e-06 -0.00011709007325790868 0 1.6289041149395807e-05 -0.00011520596769918197 0 9.7818784190649192e-06 -0.00010096071302125449 0 1.0869394946460902e-05 -3.9826745583844787e-05 0 1.2195662154780308e-05 -4.1429563076203088e-05 0 1.3314515066764904e-05 -4.2399596043846243e-05 0 3.5559862528136739e-05 -4.4360041557077565e-05 0 3.2755043482074726e-05 -5.022503084498517e-05 0 4.328991772483206e-05 -5.0299240201002474e-05 0 2.1575594001016149e-05 0.00023108227012033622 0 -6.1367153063822815e-06 0.00021835182582135003 0 1.3094806078027632e-05 0.00019915617525763634 0 -2.5876351719605701e-05 -0.00011652142518517582 0 -1.2529633105481299e-05 -0.00010997083793318965 0 -2.2543016459833348e-05 -9.9961075293632644e-05 0 3.4739901657589258e-06 9.6737441624097239e-07 0 4.9399176895194201e-06 1.2701284542820194e-06 0 4.6541433411385327e-06 5.7125751876854136e-07 0 6.4123022592570527e-06 1.2633244575122467e-06 0 4.6541433411385327e-06 5.7125751876854136e-07 0 4.9399176895194201e-06 1.2701284542820194e-06 0 2.7915841130802324e-05 0.00017353563265245885 0 1.3094806078027632e-05 0.00019915617525763634 0 7.7609826406794395e-06 0.00017287789093968522 0 -3.0469544226044942e-05 -8.684153082284479e-05 0 -2.2543016459833348e-05 -9.9961075293632644e-05 0 -2.0378973676185736e-05 -8.6362979787064074e-05 0 -2.4364932052831225e-07 -2.5783773390065791e-06 0 -1.125618418494198e-06 -2.2238646009229626e-06 0 -2.6926338525740877e-07 -1.4382512644489282e-06 0 -6.900923087352045e-07 1.9819380216304561e-06 0 -3.8640838701711573e-07 1.0535971621965246e-06 0 -1.088588691617847e-06 1.5167939944642198e-06 0 6.2839524871925141e-06 4.6509143000104872e-05 0 2.0821825195616872e-05 6.8886356965072102e-05 0 3.414453730425727e-06 7.1534393753607908e-05 0 -2.5203741276339647e-06 -2.2736479893233845e-06 0 -1.1351546347880548e-06 -1.4434350543447889e-06 0 -1.1256184184941977e-06 -2.2238646009229626e-06 0 -2.0309215548588219e-06 1.4007073883088764e-06 0 -1.088588691617847e-06 1.5167939944642198e-06 0 -9.3000255570535551e-07 9.1233867473843235e-07 0 -8.668850989216619e-05 0.00020133275382996549 0 -6.58594647302477e-05 0.00018134656563782999 0 -5.2137033315769772e-05 0.00020180799130253434 0 2.6811900324773967e-05 -9.8875797581045226e-05 0 1.5771077829415501e-05 -8.9561229168656591e-05 0 9.7818784190649192e-06 -0.00010096071302125449 0 7.1185167901382763e-06 1.8332520632854963e-05 0 -6.4981529518325572e-06 1.9128922963969826e-05 0 2.6011297280094523e-06 1.1627748811141834e-05 0 -4.655002097463492e-06 7.8977971966257418e-06 0 2.6011297280094523e-06 1.1627748811141835e-05 0 -6.4981529518325572e-06 1.9128922963969826e-05 0 -1.1869966688165494e-05 -3.9915942270883661e-05 0 -1.0892137370642226e-05 -2.6927202112509849e-05 0 -1.6799627186859861e-05 -3.2093754270135363e-05 0 1.6410235946962208e-05 -7.8767115586092963e-06 0 2.0009012227616547e-05 -1.4972793628126709e-05 0 2.1520011585521334e-05 -1.1511904721899681e-05 0 -1.3426838526877621e-05 7.6582485519062217e-05 0 -2.2814218717484105e-05 6.353280601727979e-05 0 -1.1009682194557969e-05 5.2425285320496471e-05 0 -1.7468273919666452e-05 3.2776945945884387e-05 0 -1.1009682194557969e-05 5.2425285320496471e-05 0 -2.3889095158580923e-05 4.9641422632542151e-05 0 -1.4056794124636808e-05 -1.8597405722246159e-05 0 -1.7439635405783477e-05 -2.5512149790379376e-05 0 -1.0892137370642226e-05 -2.6927202112509849e-05 0 -3.1678901098589899e-06 -2.4469500805781884e-05 0 2.7090561022940431e-06 -3.3756548498748442e-05 0 3.4676917101345517e-06 -2.1703519067299805e-05 0 8.1738652277377665e-06 -3.3922917693034917e-05 0 5.7506845729149406e-06 -3.3602196930634236e-05 0 8.0317564862691157e-06 -3.7282238361840553e-05 0 3.172285479139212e-05 -3.4901562995897552e-05 0 3.7103047030347384e-05 -3.8688189707784142e-05 0 3.5363442273353438e-05 -3.2544860930612952e-05 0 1.0340471884411587e-05 -2.4269988043938751e-06 0 9.0392389902796513e-06 -6.5080107856759448e-06 0 1.1434698185013406e-05 -4.9610698805934184e-06 0 6.1850160506584441e-06 -7.1311143970847954e-06 0 7.3817290582141792e-06 -9.8123666256860211e-06 0 9.0392389902796513e-06 -6.5080107856759448e-06 0 1.4452230698723576e-05 4.5819382293936982e-06 0 1.2654344298655063e-05 3.4596906146291025e-06 0 1.2752173907434561e-05 2.6231761868620559e-06 0 2.2239455809399692e-06 -1.3461813774054951e-05 0 3.9447249151737768e-06 -8.5137298245891124e-06 0 -2.8655930731519374e-07 -1.0048528082059068e-05 0 2.1575594001016149e-05 0.00023108227012033622 0 3.8050091024154268e-05 0.00020312228383392695 0 4.8904738758543371e-05 0.00022861271544125721 0 -2.5876351719605701e-05 -0.00011652142518517582 0 -3.4914336494963409e-05 -0.00010238892193603364 0 -3.939351232606116e-05 -0.00011572763786159243 0 1.1041280683551847e-05 2.1659929552928024e-06 0 1.2752173907434561e-05 2.6231761868620559e-06 0 1.2654344298655063e-05 3.4596906146291025e-06 0 2.6874050025290477e-05 -2.3312382006532048e-05 0 2.2049178808887884e-05 -2.3569184731441763e-05 0 2.7714007286550713e-05 -2.6592463377571254e-05 0 1.6599633359475179e-05 -3.5303450344419014e-05 0 1.9949121149936723e-05 -3.7828890711489507e-05 0 1.8172491923891881e-05 -3.2343839614041235e-05 0 1.182455345382138e-05 3.042822388345477e-06 0 1.0530688984809313e-05 2.5385555167143483e-06 0 1.2654344298655063e-05 3.4596906146291025e-06 0 2.1671832355345261e-06 -1.0545241222695226e-06 0 3.4147917371542891e-06 -1.0301505880124728e-06 0 2.0974838275856806e-06 -1.8387088113789902e-06 0 -3.8863904961759206e-05 -3.7297124976625964e-05 0 -4.2398394100842119e-05 -4.8144825748220593e-05 0 -3.0616190301345482e-05 -4.0339906477463094e-05 0 2.1577299110065987e-06 -2.8782958241835611e-06 0 1.5313491994150984e-06 -2.807273954886674e-06 0 3.1621912289428793e-06 -2.1650626162111722e-06 0 7.7588838854230974e-06 9.4690008097266484e-07 0 8.4998553423583675e-06 6.2196330211478748e-07 0 6.5320358680313432e-06 -1.0109064058559402e-07 0 1.1041280683551847e-05 2.1659929552928024e-06 0 1.0546457052107833e-05 3.6574297853268112e-07 0 1.2752173907434561e-05 2.6231761868620559e-06 0 -7.3120448530276523e-05 9.6542863714451954e-05 0 -6.7120225795979375e-05 7.4244458092338845e-05 0 -4.9689943201070813e-05 8.1460409220790157e-05 0 1.7156802570181301e-06 1.241209570170436e-06 0 1.769484813935124e-06 7.2254001582759668e-07 0 7.4745844370433951e-07 5.1179449614987947e-07 0 6.7564607994671872e-06 -7.1791781264347512e-07 0 9.7940976885865831e-06 1.0584235450601214e-06 0 7.5070689016981672e-06 -3.1726849075986522e-07 0 9.7896853108769374e-06 -1.9622762692790545e-05 0 7.0621420196146755e-06 -1.906312734609128e-05 0 8.6180688692824721e-06 -2.3408958101410421e-05 0 -2.2344543085706426e-05 -6.5381592660197519e-05 0 -3.2178056478064442e-05 -5.9542158193764539e-05 0 -3.4652627658232788e-05 -7.326350619736978e-05 0 2.1577299110065987e-06 -2.8782958241835611e-06 0 3.1621912289428793e-06 -2.1650626162111722e-06 0 4.352476475422382e-06 -1.8982039373738921e-06 0 3.4739901657589258e-06 9.6737441624097239e-07 0 2.3937805308562526e-06 4.0137681075472254e-07 0 1.769484813935124e-06 7.2254001582759668e-07 0 4.9832733340085511e-06 -1.2646112329659439e-06 0 7.5070689016981672e-06 -3.1726849075986522e-07 0 6.8508417254778292e-06 2.7511037413022106e-07 0 5.1281132154908694e-06 -1.6767192264828879e-05 0 7.0621420196146755e-06 -1.906312734609128e-05 0 7.9445047449082389e-06 -1.4979993415420207e-05 0 8.1738652277377665e-06 -3.3922917693034917e-05 0 1.0046502170658501e-05 -3.6536269875560535e-05 0 9.6263729109615561e-06 -3.1751668493936931e-05 0 -7.2143263266491268e-06 -1.5126642663336822e-06 0 -4.3382993712497875e-06 -2.6706758636334501e-06 0 -4.1021072180568848e-06 -8.5758353826093671e-07 0 6.974080647919585e-05 0.00019755843949366062 0 3.8050091024154268e-05 0.00020312228383392695 0 4.8448930286841668e-05 0.0001820988665502784 0 -5.1383723237353293e-05 -0.0001012656286139269 0 -3.4914336494963409e-05 -0.00010238892193603364 0 -4.0824713552794584e-05 -9.1945178062601977e-05 0 6.0487363823335872e-06 4.7296687217155711e-07 0 6.5320358680313432e-06 -1.0109064058559402e-07 0 4.973687847417688e-06 -2.6607091226951654e-07 0 7.7588838854230974e-06 9.4690008097266484e-07 0 6.5320358680313432e-06 -1.0109064058559402e-07 0 6.0487363823335872e-06 4.7296687217155711e-07 0 -4.6586123608504709e-05 0.00017101111788329738 0 -5.2137033315769772e-05 0.00020180799130253436 0 -6.58594647302477e-05 0.00018134656563782996 0 6.2042667439283636e-06 -8.4770203559184784e-05 0 9.7818784190649175e-06 -0.0001009607130212545 0 1.5771077829415501e-05 -8.9561229168656591e-05 0 6.4123022592570527e-06 1.2633244575122467e-06 0 7.1335067698733662e-06 1.8635776831571518e-06 0 8.4390599753413437e-06 1.695412859821877e-06 0 8.705864207010899e-06 2.0739099130075763e-06 0 8.4390599753413437e-06 1.695412859821877e-06 0 7.1335067698733662e-06 1.8635776831571518e-06 0 6.4123022592570527e-06 1.2633244575122467e-06 0 6.0487363823335872e-06 4.7296687217155711e-07 0 4.6541433411385327e-06 5.7125751876854136e-07 0 -5.7310455684643832e-06 1.6929384448947309e-06 0 -4.9893045818634699e-06 1.7535905451407065e-06 0 -3.5332024866879545e-06 2.2700546401210828e-06 0 -1.8810199802310192e-07 -8.3847845956376247e-07 0 -1.3809925805057519e-06 -3.7671201339782421e-06 0 2.0628207866253024e-06 -2.8029452766832763e-06 0 1.3437609218523015e-06 -5.9414218512694388e-06 0 2.0628207866253024e-06 -2.8029452766832763e-06 0 -1.3809925805057519e-06 -3.7671201339782421e-06 0 -5.7310455684643832e-06 1.6929384448947309e-06 0 -3.5332024866879545e-06 2.2700546401210828e-06 0 -4.0306503813913865e-06 2.0162393655437348e-06 0 6.2839524871925141e-06 4.6509143000104872e-05 0 2.2187857897702018e-05 4.8748266078102119e-05 0 2.0821825195616872e-05 6.8886356965072102e-05 0 -8.3855561086711993e-06 0.00018773360915437705 0 -6.1367153063822781e-06 0.00021835182582135006 0 -2.6038854836563254e-05 0.00020413730872747527 0 -1.2118191193889258e-05 -9.3922553856183599e-05 0 -1.2529633105481299e-05 -0.00010997083793318965 0 -3.0088483809632434e-06 -0.00010249298577819388 0 5.250693322021538e-06 1.5964315500342345e-06 0 3.8251200083572003e-06 2.2282435637061598e-06 0 3.7230167329304182e-06 1.7821913539774891e-06 0 1.1118096211346905e-09 2.513354082717806e-10 0 7.4745844370433951e-07 5.1179449614987947e-07 0 1.769484813935124e-06 7.2254001582759668e-07 0 1.0166747041907926e-05 1.6097899439789999e-06 0 1.3968804291170794e-05 4.5105607576545061e-06 0 9.986481561994539e-06 3.3646590809967938e-06 0 2.5122688529907647e-05 -2.8825853263327167e-05 0 2.2049178808887884e-05 -2.3569184731441763e-05 0 2.0176524889619807e-05 -2.8399569169029192e-05 0 1.6885004366551305e-05 -2.2807958665112667e-05 0 1.3349096592850296e-05 -2.0384867372794831e-05 0 1.4865523080010192e-05 -2.4894643363650199e-05 0 4.1270465951155677e-06 1.695666675840744e-06 0 4.4745084357926173e-06 2.0772722329500813e-06 0 5.5080286088395647e-06 1.7200984403266939e-06 0 -2.2931617155569817e-05 -3.0919164916106223e-05 0 -3.0616190301345482e-05 -4.0339906477463094e-05 0 -1.9814306281475903e-05 -3.9531276514499108e-05 0 -2.6821179854286788e-05 -4.7767089554328341e-05 0 -1.9814306281475903e-05 -3.9531276514499108e-05 0 -3.0616190301345482e-05 -4.0339906477463094e-05 0 1.2032448953709285e-09 -7.9250017134283726e-11 0 1.1118096211347533e-09 2.5133540827179192e-10 0 1.1503906537154283e-06 2.0785061549536512e-07 0 -3.9816256467131691e-05 9.6988670224907556e-05 0 -4.9689943201070813e-05 8.1460409220790157e-05 0 -3.0509427294479668e-05 7.9585389887529642e-05 0 -3.5047736481052696e-05 6.182672517066355e-05 0 -3.0509427294479668e-05 7.9585389887529642e-05 0 -4.9689943201070813e-05 8.1460409220790157e-05 0 1.0869394946460902e-05 -3.9826745583844787e-05 0 1.0046502170658501e-05 -3.6536269875560535e-05 0 8.0317564862691157e-06 -3.7282238361840553e-05 0 3.5559862528136739e-05 -4.4360041557077565e-05 0 3.7103047030347384e-05 -3.8688189707784142e-05 0 3.0782560871934364e-05 -3.8763651359956967e-05 0 4.6939252651164024e-06 1.5376461619745101e-06 0 6.8508417254778292e-06 2.7511037413022106e-07 0 9.986481561994539e-06 3.3646590809967938e-06 0 1.2242576095983429e-05 -3.6292115760875072e-05 0 1.4040680024352195e-05 -3.5193802794147951e-05 0 1.2233043603167075e-05 -3.2386461553068244e-05 0 1.853561793578619e-05 7.7784286126416748e-06 0 2.101331465447961e-05 1.045586753519542e-05 0 1.9384676188811069e-05 9.4018187301160913e-06 0 2.1577299110065987e-06 -2.8782958241835611e-06 0 4.352476475422382e-06 -1.8982039373738921e-06 0 4.9386707176386444e-06 -1.7591318927471018e-06 0 -4.655002097463492e-06 7.8977971966257418e-06 0 5.8810360864757944e-06 5.8738995124560346e-06 0 2.6011297280094523e-06 1.1627748811141834e-05 0 4.6309665671631769e-05 7.1752140845409717e-05 0 3.4925193735712926e-05 8.6531118950637333e-05 0 2.0821825195616872e-05 6.8886356965072102e-05 0 5.250693322021538e-06 1.5964315500342345e-06 0 5.2909290326445115e-06 2.0223326035175929e-06 0 3.8251200083572003e-06 2.2282435637061598e-06 0 -8.3855561086711993e-06 0.00018773360915437705 0 1.3094806078027632e-05 0.00019915617525763634 0 -6.1367153063822815e-06 0.00021835182582135003 0 -1.2118191193889258e-05 -9.3922553856183599e-05 0 -2.2543016459833348e-05 -9.9961075293632644e-05 0 -1.2529633105481299e-05 -0.00010997083793318965 0 3.1219619308095616e-06 2.2475327132985478e-06 0 2.7615370897425844e-06 2.4043771005479716e-06 0 3.8251200083572003e-06 2.2282435637061598e-06 0 5.9380255050314972e-06 -5.0240953336335118e-06 0 5.2845502339882998e-06 -7.6070207533812669e-06 0 6.765998611945112e-06 -4.7089674635748173e-06 0 2.7915841130802324e-05 0.00017353563265245885 0 4.8448930286841668e-05 0.0001820988665502784 0 3.8050091024154268e-05 0.00020312228383392695 0 -3.0469544226044942e-05 -8.684153082284479e-05 0 -4.0824713552794584e-05 -9.1945178062601977e-05 0 -3.4914336494963409e-05 -0.00010238892193603364 0 -1.4002685039749668e-05 -2.1723125681037241e-06 0 -1.7691713993440587e-05 -4.70071064194162e-06 0 -1.3216685443405455e-05 -2.271629905716594e-06 0 -2.7773742687628644e-05 7.5827976814249742e-06 0 -2.1293124156558767e-05 2.9445332958527048e-06 0 -1.9527361665313459e-05 3.2989835927221323e-06 0 7.1185167901382763e-06 1.8332520632854963e-05 0 6.4229102855650479e-06 3.0188269853667349e-05 0 -3.4890400363184356e-06 3.189780665130643e-05 0 -2.6384693309994469e-06 2.2244352207173036e-06 0 -4.1723324626030486e-06 1.4673519722269165e-06 0 -2.526376198115215e-06 1.4764798721625253e-06 0 1.6142523797305442e-05 -4.2799715544467138e-05 0 1.4878402381195442e-05 -4.2005670033039518e-05 0 1.2195662154780308e-05 -4.1429563076203088e-05 0 1.6142523797305442e-05 -4.2799715544467138e-05 0 1.2195662154780308e-05 -4.1429563076203088e-05 0 1.1471012422077624e-05 -4.2533205311625646e-05 0 5.7555360177748995e-05 -5.616737458613659e-05 0 5.0723303267321163e-05 -4.6150754570241472e-05 0 4.328991772483206e-05 -5.0299240201002474e-05 0 5.7555360177748995e-05 -5.616737458613659e-05 0 4.328991772483206e-05 -5.0299240201002474e-05 0 4.5460812401096748e-05 -5.8574373337345283e-05 0 1.0869394946460902e-05 -3.9826745583844787e-05 0 1.2474879043462666e-05 -3.9519693297753021e-05 0 1.0046502170658501e-05 -3.6536269875560535e-05 0 3.5559862528136739e-05 -4.4360041557077565e-05 0 3.0782560871934364e-05 -3.8763651359956967e-05 0 2.8885035095139386e-05 -4.3406515528236674e-05 0 3.4819805752530811e-05 -2.4211907287343612e-05 0 3.2643653638780416e-05 -2.8044385104233128e-05 0 3.738539245007976e-05 -2.8333737358833396e-05 0 1.8590882371327126e-06 -2.748184579069467e-05 0 3.027479981282986e-06 -3.234542889599734e-05 0 5.9377651544481183e-06 -2.9239759744242462e-05 0 2.9940937201986514e-05 -3.7009425725276476e-06 0 2.4590847880597099e-05 -8.3971309960954452e-06 0 3.0457514894871714e-05 -1.1357470248529479e-05 0 2.1575594001016149e-05 0.00023108227012033622 0 4.6103767892213753e-05 0.00025470591698579647 0 1.8913305141544661e-05 0.00026088377277160902 0 -3.6053725112817292e-05 0.00023156124883974896 0 -3.1369198382506485e-05 0.00026009076908061542 0 -5.7407632583363791e-05 0.00025423717319129858 0 -2.5876351719605701e-05 -0.00011652142518517582 0 -3.6633915691736899e-05 -0.00012858407954057487 0 -2.3454289453404512e-05 -0.00013164685047806817 0 2.9144968245039178e-06 -0.00011709007325790868 0 1.858484660899227e-06 -0.00013241105793388447 0 1.5508634928657564e-05 -0.00012936831290687897 0 5.709398620689088e-06 1.9835726199520424e-06 0 5.5080286088395647e-06 1.7200984403266939e-06 0 4.4745084357926173e-06 2.0772722329500813e-06 0 2.1575594001016149e-05 0.00023108227012033622 0 4.8904738758543378e-05 0.00022861271544125721 0 4.610376789221376e-05 0.00025470591698579647 0 -2.5876351719605701e-05 -0.00011652142518517582 0 -3.9393512326061167e-05 -0.00011572763786159243 0 -3.6633915691736899e-05 -0.00012858407954057487 0 1.0340471884411587e-05 -2.4269988043938751e-06 0 1.2075272763636527e-05 -8.2609294510803738e-08 0 1.0546457052107833e-05 3.6574297853268112e-07 0 -3.6053725112817292e-05 0.00023156124883974896 0 -5.7407632583363791e-05 0.00025423717319129858 0 -6.2532477559044871e-05 0.00022875934836125424 0 2.9144968245039178e-06 -0.00011709007325790868 0 1.5508634928657564e-05 -0.00012936831290687897 0 1.6289041149395807e-05 -0.00011520596769918197 0 2.9271376038374746e-06 -4.6746300944534805e-05 0 9.588027686709962e-06 -4.0236568606572958e-05 0 2.7090561022940431e-06 -3.3756548498748442e-05 0 6.0792090395533078e-06 -1.2474466238911837e-05 0 7.9445047449082389e-06 -1.4979993415420207e-05 0 7.3817290582141792e-06 -9.8123666256860211e-06 0 9.4579851194587308e-06 -1.2547606888985847e-05 0 7.3817290582141792e-06 -9.8123666256860211e-06 0 7.9445047449082389e-06 -1.4979993415420207e-05 0 4.9832733340085511e-06 -1.2646112329659439e-06 0 1.859308091795157e-06 -2.6231197811224865e-06 0 4.9386707176386444e-06 -1.7591318927471018e-06 0 -1.3426838526877621e-05 7.6582485519062217e-05 0 3.414453730425727e-06 7.1534393753607908e-05 0 -1.5707404183075739e-06 9.3982596671086612e-05 0 -4.2398394100842119e-05 -4.8144825748220593e-05 0 -3.5189528950885281e-05 -5.065282587475914e-05 0 -3.0616190301345482e-05 -4.0339906477463094e-05 0 1.3447732163913241e-05 7.3151477083533672e-06 0 5.8810360864757944e-06 5.8738995124560346e-06 0 9.986481561994539e-06 3.3646590809967938e-06 0 4.6939252651164024e-06 1.5376461619745101e-06 0 9.986481561994539e-06 3.3646590809967938e-06 0 5.8810360864757944e-06 5.8738995124560346e-06 0 9.5078289971303015e-06 1.5024794300462043e-06 0 1.0196929324401489e-05 2.2791097613937645e-06 0 1.1827886084123088e-05 2.7326971108001941e-06 0 1.6342126455044858e-05 -2.8793170010639712e-05 0 1.8172491923891881e-05 -3.2343839614041235e-05 0 2.0176524889619807e-05 -2.8399569169029192e-05 0 2.221166110822321e-05 -3.4040538819034332e-05 0 2.0176524889619807e-05 -2.8399569169029192e-05 0 1.8172491923891881e-05 -3.2343839614041235e-05 0 -5.2037541108598958e-05 3.7663497878399358e-05 0 -4.3702191992959057e-05 2.4307890616784544e-05 0 -3.5451083095729018e-05 2.7359069854816881e-05 0 -2.615148752932398e-05 -1.3260909037302689e-05 0 -3.0568424818300074e-05 -1.9730630947868682e-05 0 -2.2244456110020079e-05 -1.452519246081533e-05 0 6.9687232721024956e-10 -5.0542313146558463e-10 0 9.4955359933903265e-10 -3.9971688839532901e-10 0 9.7329045969246243e-07 -9.0698903818030483e-07 0 5.4603521226334139e-10 5.4204152945236013e-10 0 3.1737379394710239e-10 5.3871408379086584e-10 0 4.6802086111489666e-07 1.1941327107397596e-06 0 1.0166747041907926e-05 1.6097899439789999e-06 0 9.7940976885865814e-06 1.0584235450601216e-06 0 1.2011290138500286e-05 2.6403099014702246e-06 0 1.182455345382138e-05 3.042822388345477e-06 0 1.1827886084123088e-05 2.7326971108001941e-06 0 1.0196929324401489e-05 2.2791097613937645e-06 0 9.5078289971303015e-06 1.5024794300462043e-06 0 9.7940976885865831e-06 1.0584235450601212e-06 0 8.4998553423583675e-06 6.2196330211478748e-07 0 -2.5378887753356181e-06 -3.5151484989493765e-06 0 -4.8867126486467819e-06 -3.3009485646935696e-06 0 -3.9021056130561026e-06 -3.0007960645574276e-06 0 -2.543773134549659e-06 2.3493992325745197e-06 0 -3.1424937773972451e-06 1.8407859747138622e-06 0 -4.0306503813913865e-06 2.0162393655437348e-06 0 1.955182721832743e-05 9.3320471030773801e-05 0 2.0821825195616872e-05 6.8886356965072102e-05 0 3.4925193735712926e-05 8.6531118950637333e-05 0 -2.5378887753356181e-06 -3.5151484989493765e-06 0 -3.9021056130561026e-06 -3.0007960645574276e-06 0 -2.3061756255828769e-06 -2.9945494658177346e-06 0 -2.543773134549659e-06 2.3493992325745197e-06 0 -2.0899197333199959e-06 1.9652572327622893e-06 0 -3.1424937773972451e-06 1.8407859747138622e-06 0 9.3886070352245065e-06 -2.8012856761788948e-05 0 9.6263729109615561e-06 -3.1751668493936931e-05 0 1.2233043603167075e-05 -3.2386461553068244e-05 0 6.2839524871925141e-06 4.6509143000104872e-05 0 1.5339639809636783e-05 2.7576465580400051e-05 0 2.2187857897702018e-05 4.8748266078102119e-05 0 6.7564607994671872e-06 -7.1791781264347512e-07 0 8.4998553423583675e-06 6.2196330211478748e-07 0 9.7940976885865831e-06 1.0584235450601214e-06 0 2.5122688529907647e-05 -2.8825853263327167e-05 0 2.7714007286550713e-05 -2.6592463377571254e-05 0 2.2049178808887884e-05 -2.3569184731441763e-05 0 -2.0742134127022883e-10 -6.8774731713145714e-10 0 2.9779076770390201e-10 -7.4674876183863038e-10 0 1.3618939625811292e-07 -1.5423240329811398e-06 0 -3.0980697053476581e-11 6.1123188894236605e-10 0 -3.8597974150900494e-10 5.0016699341250753e-10 0 -1.6204903534402894e-07 1.2601232426689803e-06 0 -7.8771755261196528e-06 4.1369773643022995e-07 0 -1.0836352472122191e-05 -5.2043014338767067e-07 0 -8.0824580474833027e-06 8.0139177679095798e-07 0 -1.5843468604072321e-05 1.8789942384860497e-07 0 -1.1166717596559197e-05 -1.1653381394524897e-06 0 -1.1593970279275235e-05 -1.7319235614127245e-06 0 -4.8692503539339215e-06 -1.2095003978101555e-05 0 -9.5154536402896372e-06 -9.436946649607367e-06 0 -1.0501042336293911e-05 -1.4488922828283026e-05 0 1.5118111557916244e-05 -3.4272812340329715e-05 0 8.5273098871045938e-06 -2.9758288266829419e-05 0 9.5880276867099637e-06 -4.0236568606572951e-05 0 8.3202348471073541e-06 -1.6936064564733814e-06 0 6.9233403701705797e-06 -2.7880737571288227e-06 0 6.765998611945112e-06 -4.7089674635748173e-06 0 8.4977498534896616e-06 1.8738233624001238e-06 0 1.0530688984809313e-05 2.5385555167143488e-06 0 8.705864207010899e-06 2.0739099130075763e-06 0 9.5358088820079198e-06 1.7263058082716663e-06 0 1.0530688984809313e-05 2.5385555167143488e-06 0 8.4977498534896616e-06 1.8738233624001238e-06 0 1.419855784947715e-05 4.2998528166409956e-06 0 1.3968804291170794e-05 4.5105607576545061e-06 0 1.2011290138500286e-05 2.6403099014702246e-06 0 1.0166747041907926e-05 1.6097899439789999e-06 0 1.2011290138500286e-05 2.6403099014702246e-06 0 1.3968804291170794e-05 4.5105607576545061e-06 0 2.5572978830477211e-05 -3.8436484631188908e-05 0 2.2491246373959047e-05 -4.2266016529932254e-05 0 2.8885035095139386e-05 -4.3406515528236674e-05 0 1.4935749619438091e-06 -1.7358242398367148e-05 0 5.1281132154908686e-06 -1.6767192264828875e-05 0 4.0529013927737076e-06 -1.3790926420335834e-05 0 5.9380255050314972e-06 -5.0240953336335118e-06 0 5.6093597292413578e-06 -7.6908397141512936e-06 0 5.2845502339882998e-06 -7.6070207533812669e-06 0 6.3430254062371084e-06 -1.1370578304523741e-05 0 5.2845502339882998e-06 -7.6070207533812669e-06 0 5.6093597292413578e-06 -7.6908397141512936e-06 0 -5.289936014549308e-06 7.450650193238383e-07 0 -7.8771755261196528e-06 4.1369773643022984e-07 0 -6.36746482201411e-06 1.1790973164526316e-06 0 -1.1166717596559197e-05 -1.1653381394524897e-06 0 -7.2994478628771222e-06 -1.5827737033599682e-06 0 -8.8625764870919509e-06 -2.24156798240398e-06 0 2.0981485630722635e-05 -5.0544633332160258e-05 0 2.6749968521867372e-05 -5.4083996490302496e-05 0 2.1548654166685533e-05 -4.6910255807459345e-05 0 5.8810360864757944e-06 5.8738995124560346e-06 0 9.8391160724556396e-06 1.0407683130682149e-05 0 2.6011297280094523e-06 1.1627748811141834e-05 0 6.4123022592570527e-06 1.2633244575122467e-06 0 7.7588838854230974e-06 9.4690008097266473e-07 0 6.0487363823335872e-06 4.7296687217155711e-07 0 -1.1256184184941977e-06 -2.2238646009229626e-06 0 -1.2954461454198591e-06 -3.114487830131992e-06 0 -2.3061756255828769e-06 -2.9945494658177346e-06 0 -1.088588691617847e-06 1.5167939944642198e-06 0 -2.0899197333199959e-06 1.9652572327622893e-06 0 -1.5098526237584696e-06 2.1884043553227156e-06 0 3.1219619308095616e-06 2.2475327132985478e-06 0 1.755551920408812e-06 2.4440920133802786e-06 0 2.761537089742584e-06 2.4043771005479716e-06 0 8.3202348471073541e-06 -1.6936064564733814e-06 0 9.315498777818123e-06 -1.8947975603722355e-06 0 1.0546457052107833e-05 3.6574297853268112e-07 0 3.172285479139212e-05 -3.4901562995897552e-05 0 2.6531494914411662e-05 -3.3059516109964068e-05 0 3.0782560871934364e-05 -3.8763651359956967e-05 0 1.9972647774873056e-06 2.5022129805094209e-06 0 2.7615370897425835e-06 2.4043771005479716e-06 0 1.755551920408812e-06 2.4440920133802786e-06 0 -8.1883265179870428e-05 0.00014677725556478627 0 -5.5378869445776291e-05 0.00013263235231988064 0 -6.2169213298615472e-05 0.0001571345938059341 0 2.2442087514662559e-05 -7.0485979196580455e-05 0 9.7622095894843371e-06 -6.4690579865299134e-05 0 1.3363697382287581e-05 -7.7018440372342257e-05 0 2.0263343087358598e-05 -5.7544583171604563e-05 0 1.0368071329224941e-05 -5.2848150224104206e-05 0 9.7622095894843371e-06 -6.4690579865299134e-05 0 1.1695346571771528e-05 -8.9205977308648645e-06 0 1.1434698185013406e-05 -4.9610698805934184e-06 0 9.0392389902796513e-06 -6.5080107856759448e-06 0 1.4935749619438091e-06 -1.7358242398367148e-05 0 3.9853445312943673e-06 -2.0359041614571577e-05 0 5.1281132154908694e-06 -1.6767192264828879e-05 0 5.250693322021538e-06 1.5964315500342345e-06 0 5.3897087648264478e-06 1.6676963037849668e-07 0 6.4921148572228256e-06 9.5752926651915518e-07 0 1.0340471884411587e-05 -2.4269988043938751e-06 0 1.0546457052107833e-05 3.6574297853268112e-07 0 9.315498777818123e-06 -1.8947975603722353e-06 0 7.920324319634641e-05 0.00025509077502983249 0 6.1860535587123324e-05 0.00027055188657618639 0 4.610376789221376e-05 0.00025470591698579647 0 -5.2398824020924637e-05 -0.00013040745284095804 0 -4.3011059025098291e-05 -0.00013659455690226177 0 -3.6633915691736899e-05 -0.00012858407954057487 0 3.2269922904359447e-05 -0.0001296759611233016 0 1.5508634928657561e-05 -0.00012936831290687897 0 2.3839380382565198e-05 -0.00013779385820518076 0 -8.8239757131143798e-05 0.00025774096903182972 0 -5.7407632583363791e-05 0.00025423717319129858 0 -6.987277955827439e-05 0.00026981139632088926 0 8.0537613107468276e-06 1.0241010062335142e-06 0 6.8798703284748966e-06 1.666146044791199e-06 0 6.4921148572228256e-06 9.5752926651915518e-07 0 5.250693322021538e-06 1.5964315500342345e-06 0 6.4921148572228256e-06 9.5752926651915518e-07 0 6.8798703284748966e-06 1.666146044791199e-06 0 4.1313909946663635e-06 -1.7769004784249815e-06 0 5.3897087648264478e-06 1.66769630378497e-07 0 3.9951813684093469e-06 -4.5037665086558375e-08 0 -1.7035317296180831e-05 5.2806573833631444e-06 0 -1.9527361665313459e-05 3.2989835927221323e-06 0 -1.1273253849013524e-05 5.3546420258358648e-07 0 -1.4776940104034025e-05 -1.6915791455675099e-07 0 -1.1273253849013524e-05 5.3546420258358617e-07 0 -1.9527361665313459e-05 3.2989835927221323e-06 0 4.6939252651164024e-06 1.5376461619745101e-06 0 9.5850068754060371e-08 -2.2475103572059388e-08 0 3.1356881677151964e-06 -1.0507932396284009e-06 0 -1.8810199802310192e-07 -8.3847845956376247e-07 0 1.3346376090020888e-06 9.5756881245340286e-07 0 -7.3111665131619044e-07 1.1961603337310223e-06 0 5.9380255050314972e-06 -5.0240953336335118e-06 0 4.569017144447325e-06 -4.8799659337007527e-06 0 5.6093597292413578e-06 -7.6908397141512936e-06 0 -2.543773134549659e-06 2.3493992325745197e-06 0 -1.0530196053628638e-06 2.576100678228637e-06 0 -1.5098526237584696e-06 2.1884043553227156e-06 0 -6.900923087352045e-07 1.9819380216304561e-06 0 -1.5098526237584696e-06 2.1884043553227156e-06 0 -1.053019605362864e-06 2.576100678228637e-06 0 -2.4364932052831225e-07 -2.5783773390065791e-06 0 -2.485057273209477e-08 -3.3128097151976734e-06 0 -1.2954461454198593e-06 -3.114487830131992e-06 0 -2.5378887753356181e-06 -3.5151484989493765e-06 0 -1.2954461454198591e-06 -3.114487830131992e-06 0 -2.485057273209477e-08 -3.3128097151976734e-06 0 -2.6821179854286788e-05 -4.7767089554328341e-05 0 -3.2178056478064442e-05 -5.9542158193764539e-05 0 -2.2146400545279823e-05 -5.4627959886868087e-05 0 -2.2344543085706426e-05 -6.5381592660197519e-05 0 -2.2146400545279823e-05 -5.4627959886868087e-05 0 -3.2178056478064442e-05 -5.9542158193764539e-05 0 6.253927417412846e-07 -1.4255874082386806e-06 0 9.7329045969246243e-07 -9.0698903818030483e-07 0 2.0974838275856806e-06 -1.8387088113789902e-06 0 2.1671832355345261e-06 -1.0545241222695226e-06 0 2.0974838275856806e-06 -1.8387088113789902e-06 0 9.7329045969246243e-07 -9.0698903818030483e-07 0 1.1822923827958169e-06 1.8340015237752914e-06 0 4.6802086111489666e-07 1.1941327107397596e-06 0 7.4564276304114369e-07 2.0954468074093557e-06 0 1.6489851766642903e-07 1.3773781265021213e-06 0 7.4564276304114369e-07 2.0954468074093557e-06 0 4.6802086111489666e-07 1.1941327107397596e-06 0 -8.3855561086711993e-06 0.00018773360915437705 0 7.7609826406794395e-06 0.00017287789093968522 0 1.3094806078027632e-05 0.00019915617525763634 0 -1.2118191193889258e-05 -9.3922553856183599e-05 0 -2.0378973676185736e-05 -8.6362979787064074e-05 0 -2.2543016459833348e-05 -9.9961075293632644e-05 0 -4.1405704289667703e-07 2.6601198405458959e-06 0 -1.5081454036499652e-07 2.607376650806782e-06 0 -1.053019605362864e-06 2.576100678228637e-06 0 2.1577299110065987e-06 -2.8782958241835611e-06 0 -2.485057273209477e-08 -3.3128097151976734e-06 0 1.5313491994150984e-06 -2.807273954886674e-06 0 -1.8810199802310192e-07 -8.3847845956376247e-07 0 2.0628207866253024e-06 -2.8029452766832763e-06 0 2.5118717796905557e-06 -5.0417692019915651e-07 0 -2.543773134549659e-06 2.3493992325745197e-06 0 -1.9168237747041911e-06 2.5577422483299507e-06 0 -1.053019605362864e-06 2.576100678228637e-06 0 -2.5378887753356181e-06 -3.5151484989493765e-06 0 -2.485057273209477e-08 -3.3128097151976734e-06 0 -9.8635842594657822e-07 -3.5201896199371432e-06 0 6.3430254062371084e-06 -1.1370578304523741e-05 0 4.5049247025869183e-06 -8.821070677047945e-06 0 5.2845502339882998e-06 -7.6070207533812669e-06 0 5.250693322021538e-06 1.5964315500342345e-06 0 4.3999321357061089e-06 1.0043852543354318e-06 0 5.3897087648264478e-06 1.6676963037849668e-07 0 -6.1195306356305074e-10 -1.0250238955126006e-09 0 -2.0742134127022883e-10 -6.8774731713145714e-10 0 -2.6926338525740877e-07 -1.4382512644489282e-06 0 -3.8597974150900494e-10 5.0016699341250753e-10 0 -6.0462962384832067e-10 6.844657786624526e-10 0 -3.8640838701711573e-07 1.0535971621965246e-06 0 1.3447732163913241e-05 7.3151477083533672e-06 0 9.986481561994539e-06 3.3646590809967938e-06 0 1.3968804291170794e-05 4.5105607576545061e-06 0 1.8687873529247047e-05 -4.2192047667142503e-05 0 1.8271206566181923e-05 -4.5883990041297751e-05 0 2.1548654166685533e-05 -4.6910255807459345e-05 0 -1.8810199802310192e-07 -8.3847845956376247e-07 0 -2.6533704678393804e-06 -5.7191817804027081e-09 0 -3.7245701800247869e-06 -2.1508195385213604e-06 0 2.7090561022940431e-06 -3.3756548498748442e-05 0 9.5880276867099637e-06 -4.0236568606572951e-05 0 8.5273098871045938e-06 -2.9758288266829419e-05 0 8.0537613107468276e-06 1.0241010062335142e-06 0 8.4977498534896616e-06 1.8738233624001238e-06 0 6.8798703284748966e-06 1.666146044791199e-06 0 6.4637472728755542e-06 -1.3790972055782346e-06 0 6.8675285404975468e-06 4.508408147294817e-08 0 5.3897087648264478e-06 1.6676963037849668e-07 0 -2.5203741276339647e-06 -2.2736479893233845e-06 0 -4.1083598461489259e-06 -2.0098280480398384e-06 0 -1.8787757071603946e-06 -1.1681058333245008e-06 0 -2.0309215548588219e-06 1.4007073883088764e-06 0 -1.4413453024235968e-06 6.5768101649514563e-07 0 -3.0954676998672805e-06 1.1219658044838289e-06 0 1.3437609218523015e-06 -5.9414218512694388e-06 0 3.944724915173776e-06 -8.5137298245891124e-06 0 4.569017144447325e-06 -4.8799659337007527e-06 0 8.705864207010899e-06 2.0739099130075763e-06 0 6.9385325483757638e-06 1.9553896415567039e-06 0 8.4977498534896616e-06 1.8738233624001238e-06 0 3.0951827700427637e-06 9.7133441278873571e-07 0 1.3346376090020888e-06 9.5756881245340286e-07 0 2.5118717796905557e-06 -5.0417692019915651e-07 0 -1.1793482081380758e-05 -3.0743434161981086e-06 0 -1.1223401150072128e-05 -5.8251066209178002e-06 0 -7.6246597849084452e-06 -2.9257478876126132e-06 0 -7.8164685961578507e-05 0.00012097975833960236 0 -5.7187720950035395e-05 0.00010990587779662907 0 -5.5378869445776291e-05 0.00013263235231988064 0 1.3437609218523015e-06 -5.9414218512694388e-06 0 -1.3809925805057519e-06 -3.7671201339782421e-06 0 -3.1276807695736181e-06 -7.1344225253215753e-06 0 9.0392389902796513e-06 -6.5080107856759448e-06 0 7.3817290582141792e-06 -9.8123666256860211e-06 0 9.7497048353239112e-06 -9.640817513899064e-06 0 -1.8810199802310192e-07 -8.3847845956376247e-07 0 -3.7245701800247869e-06 -2.1508195385213604e-06 0 -1.3809925805057519e-06 -3.7671201339782421e-06 0 6.8798703284748966e-06 1.666146044791199e-06 0 8.4977498534896616e-06 1.8738233624001238e-06 0 6.9385325483757638e-06 1.9553896415567039e-06 0 6.0792090395533078e-06 -1.2474466238911837e-05 0 4.0529013927737067e-06 -1.3790926420335834e-05 0 5.1281132154908694e-06 -1.6767192264828879e-05 0 1.3447732163913241e-05 7.3151477083533672e-06 0 1.9384676188811069e-05 9.4018187301160913e-06 0 1.6863377593746127e-05 1.3073268758026454e-05 0 -1.8810199802310192e-07 -8.3847845956376247e-07 0 -7.3111665131619075e-07 1.1961603337310221e-06 0 -2.6533704678393804e-06 -5.7191817804027081e-09 0 -8.477803769898809e-05 0.00017365283490515318 0 -8.1883265179870428e-05 0.00014677725556478627 0 -6.2169213298615472e-05 0.0001571345938059341 0 2.2442087514662559e-05 -7.0485979196580455e-05 0 1.3363697382287581e-05 -7.7018440372342257e-05 0 2.462286213350087e-05 -8.4235386505617058e-05 0 1.7858529994746428e-05 -4.5482679168174441e-05 0 1.0368071329224941e-05 -5.2848150224104206e-05 0 2.0263343087358598e-05 -5.7544583171604563e-05 0 -4.655002097463492e-06 7.8977971966257418e-06 0 -1.5588556791862244e-05 1.0031200290759246e-05 0 -1.0622808236586439e-05 4.5405936533683356e-06 0 2.9940937201986514e-05 -3.7009425725276476e-06 0 2.1455196160284841e-05 2.9796405125291731e-06 0 2.4590847880597099e-05 -8.3971309960954452e-06 0 -1.1793482081380758e-05 -3.0743434161981086e-06 0 -1.3216685443405455e-05 -2.271629905716594e-06 0 -1.6076168472479246e-05 -4.5644886133403711e-06 0 -1.7035317296180831e-05 5.2806573833631444e-06 0 -2.4578347844599435e-05 7.3922878265288281e-06 0 -1.9527361665313459e-05 3.2989835927221323e-06 0 -1.1793482081380758e-05 -3.0743434161981086e-06 0 -1.6076168472479246e-05 -4.5644886133403711e-06 0 -1.6348835250731731e-05 -6.6388941738070149e-06 0 -1.7035317296180831e-05 5.2806573833631444e-06 0 -2.4750112985852677e-05 1.140858349434208e-05 0 -2.4578347844599435e-05 7.3922878265288281e-06 0 -2.0309215548588219e-06 1.4007073883088764e-06 0 -9.3000255570535551e-07 9.1233867473843235e-07 0 -1.4413453024235968e-06 6.5768101649514563e-07 0 -2.5203741276339647e-06 -2.2736479893233845e-06 0 -1.8787757071603946e-06 -1.1681058333245008e-06 0 -1.1351546347880548e-06 -1.4434350543447889e-06 0 6.4637472728755542e-06 -1.3790972055782346e-06 0 5.4602897348968193e-06 -3.0588962774734825e-06 0 6.9233403701705797e-06 -2.7880737571288227e-06 0 5.9380255050314972e-06 -5.0240953336335118e-06 0 6.9233403701705797e-06 -2.7880737571288227e-06 0 5.4602897348968193e-06 -3.0588962774734825e-06 0 3.027479981282986e-06 -3.234542889599734e-05 0 5.7506845729149406e-06 -3.3602196930634236e-05 0 5.9377651544481183e-06 -2.9239759744242462e-05 0 3.738539245007976e-05 -2.8333737358833396e-05 0 3.2643653638780416e-05 -2.8044385104233128e-05 0 3.5363442273353438e-05 -3.2544860930612952e-05 0 3.0457514894871714e-05 -1.1357470248529479e-05 0 2.4590847880597099e-05 -8.3971309960954452e-06 0 2.7153605429934379e-05 -1.4726937855240274e-05 0 3.4819805752530811e-05 -2.4211907287343612e-05 0 3.0953916219779387e-05 -2.3631852387347803e-05 0 3.2643653638780416e-05 -2.8044385104233128e-05 0 1.8590882371327126e-06 -2.748184579069467e-05 0 5.9377651544481183e-06 -2.9239759744242462e-05 0 4.3568581907614944e-06 -2.4559766067369804e-05 0 -1.8810199802310192e-07 -8.3847845956376247e-07 0 2.5118717796905557e-06 -5.041769201991563e-07 0 1.3346376090020888e-06 9.5756881245340286e-07 0 4.1313909946663635e-06 -1.7769004784249815e-06 0 4.569017144447325e-06 -4.8799659337007527e-06 0 5.4602897348968193e-06 -3.0588962774734825e-06 0 5.9380255050314972e-06 -5.0240953336335118e-06 0 5.4602897348968193e-06 -3.0588962774734825e-06 0 4.569017144447325e-06 -4.8799659337007527e-06 0 8.0537613107468276e-06 1.0241010062335142e-06 0 7.7171026317871639e-06 -6.3449427608516505e-07 0 9.3534776521408287e-06 5.8248247285064753e-07 0 -7.8164685961578507e-05 0.00012097975833960236 0 -7.3120448530276523e-05 9.6542863714451954e-05 0 -5.7187720950035395e-05 0.00010990587779662907 0 1.0340471884411587e-05 -2.4269988043938751e-06 0 9.315498777818123e-06 -1.8947975603722349e-06 0 8.1364546871734745e-06 -4.0758760563986338e-06 0 7.1185167901382763e-06 1.8332520632854963e-05 0 9.8391160724556396e-06 1.0407683130682149e-05 0 1.6863377593746127e-05 1.3073268758026454e-05 0 1.3447732163913241e-05 7.3151477083533672e-06 0 1.6863377593746127e-05 1.3073268758026454e-05 0 9.8391160724556396e-06 1.0407683130682149e-05 0 1.5118111557916244e-05 -3.4272812340329715e-05 0 9.5880276867099637e-06 -4.0236568606572951e-05 0 1.7858529994746428e-05 -4.5482679168174441e-05 0 -3.5381347232674965e-05 1.4288599217967015e-05 0 -2.4578347844599435e-05 7.3922878265288281e-06 0 -2.4750112985852677e-05 1.140858349434208e-05 0 -2.1799050739618428e-05 -8.2473459006988046e-06 0 -1.6348835250731728e-05 -6.6388941738070149e-06 0 -1.6076168472479246e-05 -4.5644886133403711e-06 0 8.3202348471073541e-06 -1.6936064564733814e-06 0 8.1364546871734745e-06 -4.0758760563986338e-06 0 9.315498777818123e-06 -1.8947975603722353e-06 0 -2.9503889187430197e-05 0.00013201881212329832 0 -5.5378869445776291e-05 0.00013263235231988064 0 -4.0772640608202554e-05 0.00011415193631243195 0 -2.9503889187430197e-05 0.00013201881212329832 0 -4.4154483694663259e-05 0.0001494205272205181 0 -5.5378869445776291e-05 0.00013263235231988064 0 -1.7014172529865582e-06 -6.4956616520791578e-05 0 4.8445112016455461e-06 -7.3445388680656642e-05 0 9.7622095894843371e-06 -6.4690579865299134e-05 0 -1.7014172529865582e-06 -6.4956616520791578e-05 0 9.7622095894843354e-06 -6.4690579865299121e-05 0 3.4471819547443304e-06 -5.6741161732366829e-05 0 2.462286213350087e-05 -8.4235386505617058e-05 0 1.5771077829415501e-05 -8.9561229168656591e-05 0 2.6811900324773967e-05 -9.8875797581045226e-05 0 -8.668850989216619e-05 0.00020133275382996549 0 -8.477803769898809e-05 0.00017365283490515318 0 -6.58594647302477e-05 0.00018134656563782996 0 4.0885577738412982e-07 2.4781331718219644e-06 0 -7.0663997860761239e-08 2.2132970312252387e-06 0 -1.5081454036499665e-07 2.6073766508067824e-06 0 1.8754083691747709e-06 -2.4156123325317377e-06 0 1.5313491994150984e-06 -2.807273954886674e-06 0 7.8833431298657357e-07 -2.4390156581631488e-06 0 -1.7014172529865582e-06 -6.4956616520791578e-05 0 -9.6353878398024626e-06 -6.5404027017537309e-05 0 -3.193433491386938e-06 -7.615650486909909e-05 0 -1.7014172529865582e-06 -6.4956616520791578e-05 0 -3.9805680768753013e-06 -5.4934142858957668e-05 0 -9.6353878398024626e-06 -6.5404027017537309e-05 0 -1.3727486361918608e-05 -7.7853441546079893e-05 0 -3.193433491386938e-06 -7.615650486909909e-05 0 -9.6353878398024626e-06 -6.5404027017537309e-05 0 -1.3047965091233868e-05 -5.4371663487108365e-05 0 -9.6353878398024626e-06 -6.5404027017537309e-05 0 -3.9805680768753013e-06 -5.4934142858957668e-05 0 -2.9503889187430197e-05 0.00013201881212329832 0 -1.1752380112565578e-05 0.0001339874762698118 0 -2.7510730347845833e-05 0.00015549213621012748 0 -6.0761189178777464e-06 0.00015553751870501668 0 -2.7510730347845833e-05 0.00015549213621012748 0 -1.1752380112565578e-05 0.0001339874762698118 0 -3.8597974150900494e-10 5.0016699341250753e-10 0 -3.8640838701711573e-07 1.0535971621965246e-06 0 -1.6204903534402894e-07 1.2601232426689803e-06 0 -2.0742134127022883e-10 -6.8774731713145714e-10 0 1.3618939625811292e-07 -1.5423240329811398e-06 0 -2.6926338525740877e-07 -1.4382512644489282e-06 0 -2.3358615443485859e-05 -2.1813365535401196e-05 0 -1.6374956719256731e-05 -1.4563551388734177e-05 0 -2.2244456110020079e-05 -1.452519246081533e-05 0 -3.6657686138649036e-05 4.1484418949135608e-05 0 -3.5451083095729018e-05 2.7359069854816881e-05 0 -2.5334728646782222e-05 2.6540607621397926e-05 0 -6.7684517888390239e-06 6.7329149494237035e-07 0 -9.90921538614934e-06 -9.5451260934312863e-07 0 -7.9013627648320467e-06 -1.0023780708196458e-06 0 5.709398620689088e-06 1.9835726199520424e-06 0 5.2909290326445106e-06 2.0223326035175933e-06 0 6.9385325483757638e-06 1.9553896415567039e-06 0 2.6045872340764222e-05 -4.6105448925266847e-05 0 2.8885035095139386e-05 -4.3406515528236674e-05 0 2.2491246373959047e-05 -4.2266016529932254e-05 0 -7.5345518305449715e-06 -2.8993242769040648e-06 0 -8.9310100721893354e-06 -2.2536407970123328e-06 0 -1.1593970279275235e-05 -1.7319235614127245e-06 0 -1.4776940104034025e-05 -1.6915791455675099e-07 0 -1.1593970279275235e-05 -1.7319235614127245e-06 0 -8.9310100721893354e-06 -2.2536407970123328e-06 0 4.973687847417688e-06 -2.6607091226951654e-07 0 3.4147917371542891e-06 -1.0301505880124728e-06 0 2.9535983641634202e-06 -5.2815763472580382e-07 0 3.1344202170888175e-05 -1.6286441336824436e-05 0 2.8097265190290089e-05 -1.9661341974460316e-05 0 3.2895893167160487e-05 -2.0324424529971707e-05 0 -2.1799050739618428e-05 -8.2473459006988046e-06 0 -2.0531643833239696e-05 -1.0357838156156555e-05 0 -1.6348835250731731e-05 -6.6388941738070149e-06 0 -3.5381347232674965e-05 1.4288599217967015e-05 0 -2.4750112985852677e-05 1.140858349434208e-05 0 -3.265335339525362e-05 1.8383387990263134e-05 0 3.7081677295732114e-06 -9.6831812522304659e-06 0 4.8400240310482621e-06 -9.8252937873533722e-06 0 4.5049247025869183e-06 -8.821070677047945e-06 0 -2.5378887753356181e-06 -3.5151484989493765e-06 0 -9.8635842594657822e-07 -3.5201896199371432e-06 0 -4.2709009031617863e-06 -3.4546534864521362e-06 0 -1.1346075566954721e-06 -3.0191505863270796e-06 0 -4.2709009031617863e-06 -3.4546534864521362e-06 0 -9.8635842594657822e-07 -3.5201896199371432e-06 0 6.2839524871925141e-06 4.6509143000104872e-05 0 6.4229102855650496e-06 3.0188269853667349e-05 0 1.5339639809636783e-05 2.7576465580400051e-05 0 -1.1166717596559197e-05 -1.1653381394524897e-06 0 -8.8625764870919509e-06 -2.24156798240398e-06 0 -1.1593970279275235e-05 -1.7319235614127245e-06 0 -7.8771755261196528e-06 4.1369773643022995e-07 0 -8.0824580474833027e-06 8.0139177679095798e-07 0 -6.36746482201411e-06 1.1790973164526316e-06 0 1.6342126455044858e-05 -2.8793170010639712e-05 0 1.4865523080010192e-05 -2.4894643363650199e-05 0 1.3017258942799471e-05 -2.8657403003705843e-05 0 1.1736254121906748e-05 -2.4247051717493904e-05 0 1.3017258942799471e-05 -2.8657403003705843e-05 0 1.4865523080010192e-05 -2.4894643363650199e-05 0 8.0537613107468276e-06 1.0241010062335142e-06 0 9.5358088820079198e-06 1.7263058082716663e-06 0 8.4977498534896616e-06 1.8738233624001238e-06 0 4.6939252651164024e-06 1.5376461619745101e-06 0 3.1356881677151955e-06 -1.0507932396284011e-06 0 6.8508417254778292e-06 2.7511037413022106e-07 0 9.5078289971303015e-06 1.5024794300462043e-06 0 8.4390599753413437e-06 1.695412859821877e-06 0 1.0196929324401489e-05 2.2791097613937645e-06 0 7.1185167901382763e-06 1.8332520632854963e-05 0 1.5339639809636783e-05 2.7576465580400051e-05 0 6.4229102855650505e-06 3.0188269853667349e-05 0 -1.1793482081380758e-05 -3.0743434161981086e-06 0 -7.6246597849084452e-06 -2.9257478876126132e-06 0 -7.9013627648320467e-06 -1.0023780708196458e-06 0 3.0951827700427637e-06 9.7133441278873571e-07 0 3.7230167329304182e-06 1.7821913539774891e-06 0 2.0715253548405911e-06 2.0533269442905321e-06 0 4.6309665671631769e-05 7.1752140845409717e-05 0 5.189380574036962e-05 9.4685211038589171e-05 0 3.4925193735712926e-05 8.6531118950637333e-05 0 -4.5494659558394942e-05 -6.0167985335974246e-05 0 -3.2178056478064442e-05 -5.9542158193764539e-05 0 -3.5189528950885281e-05 -5.065282587475914e-05 0 -3.5381347232674965e-05 1.4288599217967015e-05 0 -2.7773742687628644e-05 7.5827976814249742e-06 0 -2.4578347844599435e-05 7.3922878265288281e-06 0 -1.7691713993440587e-05 -4.70071064194162e-06 0 -2.1799050739618428e-05 -8.2473459006988046e-06 0 -1.6076168472479246e-05 -4.5644886133403711e-06 0 1.0546457052107833e-05 3.6574297853268112e-07 0 1.2075272763636527e-05 -8.2609294510803738e-08 0 1.2752173907434561e-05 2.6231761868620559e-06 0 -2.5378887753356181e-06 -3.5151484989493765e-06 0 -4.2709009031617863e-06 -3.4546534864521362e-06 0 -4.8867126486467819e-06 -3.3009485646935696e-06 0 -7.5345518305449715e-06 -2.8993242769040648e-06 0 -4.8867126486467819e-06 -3.3009485646935696e-06 0 -4.2709009031617863e-06 -3.4546534864521362e-06 0 1.419855784947715e-05 4.2998528166409956e-06 0 1.6598597977905866e-05 6.4653359608364016e-06 0 1.3968804291170794e-05 4.5105607576545061e-06 0 -3.4652627658232788e-05 -7.326350619736978e-05 0 -3.2178056478064442e-05 -5.9542158193764539e-05 0 -4.0080829918623498e-05 -6.6611473395988984e-05 0 6.1393661995073633e-06 -2.2553311431847879e-05 0 8.6180688692824721e-06 -2.3408958101410421e-05 0 7.0621420196146755e-06 -1.906312734609128e-05 0 6.5538295565929338e-05 0.00017002265809423845 0 6.974080647919585e-05 0.00019755843949366062 0 4.8448930286841668e-05 0.0001820988665502784 0 -5.0088742122503768e-05 -8.7007715990173375e-05 0 -5.1383723237353293e-05 -0.0001012656286139269 0 -4.0824713552794584e-05 -9.1945178062601977e-05 0 -4.655002097463492e-06 7.8977971966257418e-06 0 7.6773403314573368e-07 3.3573919172248572e-06 0 5.8810360864757944e-06 5.8738995124560346e-06 0 1.3437609218523015e-06 -5.9414218512694388e-06 0 -2.8655930731519374e-07 -1.0048528082059068e-05 0 3.9447249151737768e-06 -8.5137298245891124e-06 0 -5.9908851971518545e-06 -5.0237670193823761e-06 0 -3.1276807695736181e-06 -7.1344225253215753e-06 0 -1.3809925805057519e-06 -3.7671201339782421e-06 0 -8.477803769898809e-05 0.00017365283490515318 0 -6.2169213298615472e-05 0.0001571345938059341 0 -6.58594647302477e-05 0.00018134656563782996 0 2.462286213350087e-05 -8.4235386505617058e-05 0 1.3363697382287581e-05 -7.7018440372342257e-05 0 1.5771077829415501e-05 -8.9561229168656591e-05 0 5.1477510435823017e-07 1.8718306484214792e-06 0 7.2035098350418448e-07 2.4758825028298337e-06 0 -9.9141664266058508e-07 2.3107617331768935e-06 0 1.3447732163913241e-05 7.3151477083533672e-06 0 9.8391160724556396e-06 1.0407683130682149e-05 0 5.8810360864757944e-06 5.8738995124560346e-06 0 -1.1793482081380758e-05 -3.0743434161981086e-06 0 -9.90921538614934e-06 -9.5451260934312863e-07 0 -1.3216685443405455e-05 -2.271629905716594e-06 0 2.3523109247532009e-06 -1.2949187250001928e-05 0 1.4935749619438091e-06 -1.7358242398367148e-05 0 4.0529013927737076e-06 -1.3790926420335834e-05 0 -2.6384693309994469e-06 2.2244352207173036e-06 0 -3.5332024866879549e-06 2.2700546401210828e-06 0 -4.9893045818634699e-06 1.7535905451407065e-06 0 -4.2398394100842119e-05 -4.8144825748220593e-05 0 -4.5494659558394935e-05 -6.0167985335974246e-05 0 -3.5189528950885281e-05 -5.065282587475914e-05 0 -9.8313688279900774e-06 -9.4033021314279494e-08 0 -7.119672701283882e-06 1.1124395642969904e-06 0 -8.0824580474833027e-06 8.0139177679095798e-07 0 -5.7310455684643832e-06 1.6929384448947309e-06 0 -8.0824580474833027e-06 8.0139177679095798e-07 0 -7.119672701283882e-06 1.1124395642969904e-06 0 -3.9816256467131691e-05 9.6988670224907556e-05 0 -2.281322922514936e-05 0.00010082415568498202 0 -4.0772640608202554e-05 0.00011415193631243195 0 6.253927417412846e-07 -1.4255874082386806e-06 0 7.8833431298657357e-07 -2.4390156581631488e-06 0 1.3618939625811292e-07 -1.5423240329811398e-06 0 -2.4364932052831225e-07 -2.5783773390065791e-06 0 1.3618939625811292e-07 -1.5423240329811398e-06 0 7.8833431298657357e-07 -2.4390156581631488e-06 0 -6.900923087352045e-07 1.9819380216304561e-06 0 -7.0663997860761226e-08 2.2132970312252387e-06 0 -1.6204903534402894e-07 1.2601232426689803e-06 0 1.6489851766642903e-07 1.3773781265021213e-06 0 -1.6204903534402894e-07 1.2601232426689803e-06 0 -7.0663997860761226e-08 2.2132970312252387e-06 0 4.1313909946663635e-06 -1.7769004784249815e-06 0 2.5118717796905562e-06 -5.041769201991564e-07 0 2.0628207866253024e-06 -2.8029452766832763e-06 0 1.3602624345632177e-05 -3.6459052023235519e-06 0 1.1434698185013406e-05 -4.9610698805934184e-06 0 1.4028365256922337e-05 -8.3260622375311802e-06 0 1.1695346571771528e-05 -8.9205977308648645e-06 0 1.4028365256922337e-05 -8.3260622375311802e-06 0 1.1434698185013406e-05 -4.9610698805934184e-06 0 1.4935749619438091e-06 -1.7358242398367148e-05 0 1.3336745130429099e-06 -2.2428320805162619e-05 0 3.9853445312943673e-06 -2.0359041614571577e-05 0 1.1695346571771528e-05 -8.9205977308648645e-06 0 9.0392389902796513e-06 -6.5080107856759448e-06 0 9.7497048353239112e-06 -9.640817513899064e-06 0 3.2643653638780416e-05 -2.8044385104233128e-05 0 3.0953916219779387e-05 -2.3631852387347803e-05 0 2.7714007286550713e-05 -2.6592463377571254e-05 0 5.9377651544481183e-06 -2.9239759744242462e-05 0 6.9141332671212241e-06 -2.5696169414634613e-05 0 4.3568581907614944e-06 -2.4559766067369804e-05 0 -2.1799050739618428e-05 -8.2473459006988046e-06 0 -2.615148752932398e-05 -1.3260909037302689e-05 0 -2.0531643833239696e-05 -1.0357838156156555e-05 0 -4.3702191992959057e-05 2.4307890616784544e-05 0 -3.5381347232674965e-05 1.4288599217967015e-05 0 -3.265335339525362e-05 1.8383387990263134e-05 0 2.4590847880597099e-05 -8.3971309960954452e-06 0 2.1520011585521334e-05 -1.1511904721899681e-05 0 2.7153605429934379e-05 -1.4726937855240274e-05 0 3.2643653638780416e-05 -2.8044385104233128e-05 0 2.9689411649262966e-05 -3.1094656081982827e-05 0 3.5363442273353438e-05 -3.2544860930612952e-05 0 -5.9908851971518545e-06 -5.0237670193823761e-06 0 -7.6246597849084452e-06 -2.9257478876126132e-06 0 -1.1223401150072128e-05 -5.8251066209178002e-06 0 1.7156802570181301e-06 1.241209570170436e-06 0 7.4745844370433951e-07 5.1179449614987947e-07 0 7.0623886486880197e-07 6.8614652542175357e-07 0 4.9832733340085511e-06 -1.2646112329659439e-06 0 3.1356881677151964e-06 -1.0507932396284009e-06 0 1.859308091795157e-06 -2.6231197811224865e-06 0 6.7564607994671872e-06 -7.1791781264347512e-07 0 4.9386707176386444e-06 -1.7591318927471018e-06 0 4.352476475422382e-06 -1.8982039373738921e-06 0 1.827931332286331e-05 3.3609626176562908e-06 0 1.5963860997642831e-05 -7.4826321269409772e-08 0 1.8858341021060113e-05 -3.603714365966107e-06 0 -4.4612569209106582e-06 1.549636841291722e-06 0 -3.1424937773972451e-06 1.8407859747138622e-06 0 -3.0954676998672805e-06 1.1219658044838289e-06 0 -2.0309215548588219e-06 1.4007073883088764e-06 0 -3.0954676998672805e-06 1.1219658044838289e-06 0 -3.1424937773972451e-06 1.8407859747138622e-06 0 -2.5203741276339647e-06 -2.2736479893233845e-06 0 -3.9021056130561026e-06 -3.0007960645574276e-06 0 -4.1083598461489259e-06 -2.0098280480398384e-06 0 -5.9212420063073352e-06 -2.7090212257146532e-06 0 -4.1083598461489259e-06 -2.0098280480398384e-06 0 -3.9021056130561026e-06 -3.0007960645574276e-06 0 -3.467029710879257e-05 -2.774650343451019e-05 0 -3.8863904961759206e-05 -3.7297124976625964e-05 0 -3.0010734419091506e-05 -3.1243416793215405e-05 0 6.2839524871925141e-06 4.6509143000104872e-05 0 -3.4890400363184377e-06 3.189780665130643e-05 0 6.4229102855650505e-06 3.0188269853667349e-05 0 1.7858529994746428e-05 -4.5482679168174441e-05 0 9.5880276867099637e-06 -4.0236568606572951e-05 0 1.0368071329224941e-05 -5.2848150224104206e-05 0 2.5572978830477211e-05 -3.8436484631188908e-05 0 1.9949121149936723e-05 -3.7828890711489507e-05 0 2.2491246373959047e-05 -4.2266016529932254e-05 0 -4.1405704289667703e-07 2.6601198405458959e-06 0 -9.9141664266058508e-07 2.3107617331768935e-06 0 7.2035098350418459e-07 2.4758825028298337e-06 0 8.3202348471073541e-06 -1.6936064564733814e-06 0 9.3534776521408287e-06 5.8248247285064753e-07 0 7.7171026317871639e-06 -6.3449427608516505e-07 0 -6.7684517888390239e-06 6.7329149494237035e-07 0 -4.9893045818634699e-06 1.7535905451407065e-06 0 -7.119672701283882e-06 1.1124395642969904e-06 0 1.955182721832743e-05 9.3320471030773801e-05 0 3.8699652123127935e-05 0.00010188670782241683 0 3.1173071109394558e-05 0.00011536052680512022 0 8.7257258903061988e-10 3.6111621338240595e-10 0 8.1946854628805694e-07 1.1229698836623175e-06 0 7.0623886486880197e-07 6.8614652542175357e-07 0 1.1736254121906748e-05 -2.4247051717493904e-05 0 1.4865523080010192e-05 -2.4894643363650199e-05 0 1.3349096592850296e-05 -2.0384867372794831e-05 0 2.4590847880597099e-05 -8.3971309960954452e-06 0 2.1455196160284841e-05 2.9796405125291731e-06 0 1.8858341021060113e-05 -3.603714365966107e-06 0 -6.7120225795979375e-05 7.4244458092338845e-05 0 -5.9609047156839521e-05 5.433752788340007e-05 0 -4.9457453088627751e-05 6.189161794525678e-05 0 1.769484813935124e-06 7.2254001582759668e-07 0 2.3937805308562531e-06 4.0137681075472254e-07 0 1.1503906537154283e-06 2.0785061549536512e-07 0 -6.900923087352045e-07 1.9819380216304561e-06 0 -1.6204903534402894e-07 1.2601232426689803e-06 0 -3.8640838701711573e-07 1.0535971621965246e-06 0 -2.4364932052831225e-07 -2.5783773390065791e-06 0 -2.6926338525740877e-07 -1.4382512644489282e-06 0 1.3618939625811292e-07 -1.5423240329811398e-06 0 8.705864207010899e-06 2.0739099130075763e-06 0 7.1335067698733662e-06 1.8635776831571518e-06 0 6.9385325483757638e-06 1.9553896415567039e-06 0 -1.6070852271106648e-05 -9.9404737114303774e-06 0 -1.6348835250731731e-05 -6.6388941738070149e-06 0 -2.0531643833239696e-05 -1.0357838156156555e-05 0 -2.3589859031582288e-05 1.7791114193556063e-05 0 -3.265335339525362e-05 1.8383387990263134e-05 0 -2.4750112985852677e-05 1.140858349434208e-05 0 2.7915841130802324e-05 0.00017353563265245885 0 3.5446847871596601e-05 0.00014983969957064436 0 4.7762421818736808e-05 0.00016405902493934734 0 -3.0469544226044942e-05 -8.684153082284479e-05 0 -3.4652627658232788e-05 -7.326350619736978e-05 0 -4.0959563172299226e-05 -8.2152430729511095e-05 0 3.1344202170888175e-05 -1.6286441336824436e-05 0 2.7153605429934379e-05 -1.4726937855240274e-05 0 2.8097265190290089e-05 -1.9661341974460316e-05 0 4.6939252651164024e-06 1.5376461619745101e-06 0 5.8810360864757927e-06 5.8738995124560346e-06 0 7.6773403314573368e-07 3.3573919172248572e-06 0 2.3889374206100701e-05 -1.6392706738960603e-05 0 2.8097265190290089e-05 -1.9661341974460316e-05 0 2.7153605429934379e-05 -1.4726937855240274e-05 0 5.709398620689088e-06 1.9835726199520424e-06 0 4.4745084357926173e-06 2.0772722329500813e-06 0 5.2909290326445106e-06 2.0223326035175933e-06 0 2.1876031089147285e-06 -3.1050811835412066e-08 0 1.2596037128352875e-06 -4.7129038022921361e-07 0 8.7791376661506022e-07 -8.9440845800258882e-08 0 5.1477510435823017e-07 1.8718306484214792e-06 0 2.0715253548405911e-06 2.0533269442905321e-06 0 7.2035098350418459e-07 2.4758825028298337e-06 0 1.4504955210547028e-05 3.0672442709229897e-06 0 1.5963860997642831e-05 -7.4826321269409772e-08 0 1.7257146566934466e-05 5.9591275836895772e-06 0 1.827931332286331e-05 3.3609626176562908e-06 0 1.7257146566934466e-05 5.9591275836895772e-06 0 1.5963860997642831e-05 -7.4826321269409772e-08 0 -2.2344543085706426e-05 -6.5381592660197519e-05 0 -3.4652627658232788e-05 -7.326350619736978e-05 0 -2.4426484267744719e-05 -7.7415695015266967e-05 0 -3.0469544226044942e-05 -8.684153082284479e-05 0 -2.4426484267744719e-05 -7.7415695015266967e-05 0 -3.4652627658232788e-05 -7.326350619736978e-05 0 1.4500860999372847e-05 0.00013218443233722381 0 3.5446847871596601e-05 0.00014983969957064436 0 1.5819014410088742e-05 0.00015680538148910559 0 2.7915841130802324e-05 0.00017353563265245885 0 1.5819014410088742e-05 0.00015680538148910559 0 3.5446847871596601e-05 0.00014983969957064436 0 1.4500860999372847e-05 0.00013218443233722381 0 1.0972876295183182e-05 0.00010925053522633035 0 3.1173071109394558e-05 0.00011536052680512022 0 1.955182721832743e-05 9.3320471030773801e-05 0 3.1173071109394558e-05 0.00011536052680512022 0 1.0972876295183182e-05 0.00010925053522633035 0 1.1118096211346905e-09 2.513354082717806e-10 0 1.0323770956311662e-09 3.0400635350241418e-10 0 7.4745844370433951e-07 5.1179449614987947e-07 0 3.2895893167160487e-05 -2.0324424529971707e-05 0 2.8097265190290089e-05 -1.9661341974460319e-05 0 3.0953916219779387e-05 -2.3631852387347803e-05 0 2.6874050025290477e-05 -2.3312382006532048e-05 0 3.0953916219779387e-05 -2.3631852387347803e-05 0 2.8097265190290089e-05 -1.9661341974460316e-05 0 -2.6821179854286788e-05 -4.7767089554328341e-05 0 -3.0616190301345482e-05 -4.0339906477463094e-05 0 -3.5189528950885281e-05 -5.065282587475914e-05 0 -3.8863904961759206e-05 -3.7297124976625964e-05 0 -3.0616190301345482e-05 -4.0339906477463094e-05 0 -3.0010734419091506e-05 -3.1243416793215405e-05 0 -6.7120225795979375e-05 7.4244458092338845e-05 0 -4.9457453088627751e-05 6.189161794525678e-05 0 -4.9689943201070813e-05 8.1460409220790157e-05 0 1.182455345382138e-05 3.042822388345477e-06 0 1.3394925438441495e-05 3.9493175390658829e-06 0 1.1827886084123088e-05 2.7326971108001941e-06 0 1.419855784947715e-05 4.2998528166409956e-06 0 1.1827886084123088e-05 2.7326971108001941e-06 0 1.3394925438441495e-05 3.9493175390658829e-06 0 4.1270465951155677e-06 1.695666675840744e-06 0 5.5080286088395647e-06 1.7200984403266939e-06 0 4.9399176895194201e-06 1.2701284542820194e-06 0 1.7156802570181301e-06 1.241209570170436e-06 0 7.0623886486880176e-07 6.8614652542175346e-07 0 8.1946854628805694e-07 1.1229698836623175e-06 0 -7.5345518305449715e-06 -2.8993242769040648e-06 0 -1.1593970279275235e-05 -1.7319235614127245e-06 0 -8.8625764870919509e-06 -2.24156798240398e-06 0 -5.7310455684643832e-06 1.6929384448947309e-06 0 -6.36746482201411e-06 1.1790973164526316e-06 0 -8.0824580474833027e-06 8.0139177679095798e-07 0 -5.7310455684643832e-06 1.6929384448947309e-06 0 -7.119672701283882e-06 1.1124395642969904e-06 0 -4.9893045818634699e-06 1.7535905451407065e-06 0 6.1255797161780009e-05 0.00014388470402447104 0 4.7762421818736808e-05 0.00016405902493934734 0 3.5446847871596601e-05 0.00014983969957064436 0 -4.8122574170524098e-05 -7.3159797226489463e-05 0 -4.0959563172299226e-05 -8.2152430729511095e-05 0 -3.4652627658232788e-05 -7.326350619736978e-05 0 1.2269109510048809e-09 1.2646766710038335e-11 0 8.7791376661506033e-07 -8.9440845800258934e-08 0 1.2596037128352875e-06 -4.7129038022921361e-07 0 6.7564607994671872e-06 -7.1791781264347512e-07 0 7.5070689016981672e-06 -3.1726849075986501e-07 0 4.9386707176386444e-06 -1.7591318927471018e-06 0 -1.1869966688165494e-05 -3.9915942270883661e-05 0 -1.6799627186859861e-05 -3.2093754270135363e-05 0 -1.9814306281475903e-05 -3.9531276514499108e-05 0 -5.6534412449847961e-07 -2.017316476769633e-06 0 3.1356881677151972e-06 -1.0507932396284009e-06 0 9.5850068754060371e-08 -2.2475103572059388e-08 0 1.3437609218523015e-06 -5.9414218512694388e-06 0 -3.1276807695736181e-06 -7.1344225253215753e-06 0 -2.8655930731519374e-07 -1.0048528082059068e-05 0 9.7940976885865831e-06 1.0584235450601214e-06 0 1.1827886084123088e-05 2.7326971108001941e-06 0 1.2011290138500286e-05 2.6403099014702246e-06 0 -1.3426838526877621e-05 7.6582485519062217e-05 0 -3.0509427294479668e-05 7.9585389887529642e-05 0 -2.2814218717484105e-05 6.353280601727979e-05 0 -1.6070852271106648e-05 -9.9404737114303774e-06 0 -2.2244456110020079e-05 -1.452519246081533e-05 0 -1.6374956719256731e-05 -1.4563551388734177e-05 0 -2.3589859031582288e-05 1.7791114193556063e-05 0 -2.5334728646782222e-05 2.6540607621397926e-05 0 -3.5451083095729018e-05 2.7359069854816881e-05 0 1.8687873529247047e-05 -4.2192047667142503e-05 0 2.1548654166685533e-05 -4.6910255807459345e-05 0 2.2491246373959047e-05 -4.2266016529932254e-05 0 2.6045872340764222e-05 -4.6105448925266847e-05 0 2.2491246373959047e-05 -4.2266016529932254e-05 0 2.1548654166685533e-05 -4.6910255807459345e-05 0 -6.7684517888390239e-06 6.7329149494237035e-07 0 -4.1723324626030486e-06 1.4673519722269167e-06 0 -4.9893045818634699e-06 1.7535905451407065e-06 0 -2.6384693309994469e-06 2.2244352207173036e-06 0 -4.9893045818634699e-06 1.7535905451407065e-06 0 -4.1723324626030486e-06 1.4673519722269167e-06 0 3.0951827700427637e-06 9.7133441278873571e-07 0 2.5118717796905557e-06 -5.0417692019915651e-07 0 3.9951813684093469e-06 -4.5037665086558375e-08 0 -9.8313688279900774e-06 -9.4033021314279494e-08 0 -1.3216685443405455e-05 -2.271629905716594e-06 0 -9.90921538614934e-06 -9.5451260934312863e-07 0 -7.2143263266491268e-06 -1.5126642663336822e-06 0 -8.9310100721893354e-06 -2.2536407970123328e-06 0 -4.3382993712497875e-06 -2.6706758636334501e-06 0 1.6920935489257772e-05 -4.6945976305120507e-05 0 2.0981485630722635e-05 -5.0544633332160264e-05 0 1.8271206566181923e-05 -4.5883990041297751e-05 0 -1.3426838526877621e-05 7.6582485519062217e-05 0 -2.281322922514936e-05 0.00010082415568498202 0 -3.0509427294479668e-05 7.9585389887529642e-05 0 1.0323770956311662e-09 3.0400635350241418e-10 0 8.7257258903061988e-10 3.6111621338240595e-10 0 7.0623886486880197e-07 6.8614652542175357e-07 0 5.6769679878640519e-05 0.00011872080619408426 0 3.1173071109394558e-05 0.00011536052680512022 0 3.8699652123127935e-05 0.00010188670782241683 0 1.853561793578619e-05 7.7784286126416748e-06 0 1.9384676188811069e-05 9.4018187301160913e-06 0 1.6598597977905862e-05 6.4653359608364016e-06 0 -2.3589859031582288e-05 1.7791114193556063e-05 0 -1.471526558550028e-05 1.6934789831576902e-05 0 -2.5334728646782222e-05 2.6540607621397926e-05 0 1.853561793578619e-05 7.7784286126416748e-06 0 1.5686268995261719e-05 5.5807016277629877e-06 0 1.6211882728053296e-05 5.6404598513177506e-06 0 1.853561793578619e-05 7.7784286126416748e-06 0 1.6598597977905862e-05 6.4653359608364007e-06 0 1.5686268995261719e-05 5.5807016277629877e-06 0 -2.526376198115215e-06 1.4764798721625253e-06 0 -4.8358549932174946e-06 4.3743593028836775e-07 0 -2.6533704678393804e-06 -5.7191817804027081e-09 0 1.9972647774873056e-06 2.5022129805094209e-06 0 7.2035098350418459e-07 2.4758825028298337e-06 0 2.0715253548405911e-06 2.0533269442905321e-06 0 -3.5047736481052696e-05 6.182672517066355e-05 0 -4.9689943201070813e-05 8.1460409220790157e-05 0 -4.9457453088627751e-05 6.189161794525678e-05 0 5.9380255050314972e-06 -5.0240953336335118e-06 0 6.765998611945112e-06 -4.7089674635748173e-06 0 6.9233403701705797e-06 -2.7880737571288227e-06 0 1.4504955210547028e-05 3.0672442709229897e-06 0 1.7257146566934466e-05 5.9591275836895772e-06 0 1.6211882728053296e-05 5.6404598513177506e-06 0 9.7896853108769374e-06 -1.9622762692790545e-05 0 1.0883451308085105e-05 -1.6164262603351248e-05 0 7.9445047449082389e-06 -1.4979993415420207e-05 0 -1.6070852271106648e-05 -9.9404737114303774e-06 0 -2.0531643833239696e-05 -1.0357838156156555e-05 0 -2.2244456110020079e-05 -1.452519246081533e-05 0 -2.3589859031582288e-05 1.7791114193556063e-05 0 -3.5451083095729018e-05 2.7359069854816881e-05 0 -3.265335339525362e-05 1.8383387990263134e-05 0 -4.6586123608504709e-05 0.00017101111788329738 0 -6.58594647302477e-05 0.00018134656563782996 0 -6.2169213298615472e-05 0.0001571345938059341 0 6.2042667439283636e-06 -8.4770203559184784e-05 0 1.5771077829415501e-05 -8.9561229168656591e-05 0 1.3363697382287581e-05 -7.7018440372342257e-05 0 6.1393661995073633e-06 -2.2553311431847879e-05 0 7.0621420196146755e-06 -1.906312734609128e-05 0 3.9853445312943673e-06 -2.0359041614571577e-05 0 1.419855784947715e-05 4.2998528166409956e-06 0 1.2011290138500286e-05 2.6403099014702246e-06 0 1.1827886084123088e-05 2.7326971108001941e-06 0 -1.1346075566954721e-06 -3.0191505863270796e-06 0 -4.3382993712497875e-06 -2.6706758636334501e-06 0 -4.2709009031617863e-06 -3.4546534864521362e-06 0 -1.1793482081380758e-05 -3.0743434161981086e-06 0 -7.9013627648320467e-06 -1.0023780708196458e-06 0 -9.90921538614934e-06 -9.5451260934312863e-07 0 -1.7035317296180831e-05 5.2806573833631444e-06 0 -1.0622808236586439e-05 4.5405936533683348e-06 0 -1.5588556791862244e-05 1.0031200290759246e-05 0 4.569017144447325e-06 -4.8799659337007527e-06 0 3.9447249151737768e-06 -8.5137298245891124e-06 0 5.6093597292413578e-06 -7.6908397141512936e-06 0 -5.2360504321640139e-06 -1.0321958837111202e-06 0 -7.9013627648320467e-06 -1.0023780708196456e-06 0 -7.6246597849084452e-06 -2.9257478876126132e-06 0 1.4504955210547028e-05 3.0672442709229897e-06 0 1.2752173907434561e-05 2.6231761868620559e-06 0 1.2075272763636527e-05 -8.2609294510803738e-08 0 1.2269109510048809e-09 1.2646766710038335e-11 0 1.2032448953707676e-09 -7.9250017134267338e-11 0 8.7791376661506022e-07 -8.9440845800258882e-08 0 9.3886070352245065e-06 -2.8012856761788948e-05 0 6.9141332671212241e-06 -2.5696169414634613e-05 0 5.9377651544481183e-06 -2.9239759744242462e-05 0 -1.7691713993440587e-05 -4.70071064194162e-06 0 -1.6076168472479246e-05 -4.5644886133403711e-06 0 -1.3216685443405455e-05 -2.271629905716594e-06 0 -2.7773742687628644e-05 7.5827976814249742e-06 0 -1.9527361665313459e-05 3.2989835927221323e-06 0 -2.4578347844599435e-05 7.3922878265288281e-06 0 -2.2931617155569817e-05 -3.0919164916106223e-05 0 -3.0010734419091506e-05 -3.1243416793215405e-05 0 -3.0616190301345482e-05 -4.0339906477463094e-05 0 -4.8692503539339215e-06 -1.2095003978101555e-05 0 -2.7551714579584233e-06 -1.6342761139011228e-05 0 -2.8655930731519374e-07 -1.0048528082059068e-05 0 2.2239455809399692e-06 -1.3461813774054951e-05 0 -2.8655930731519374e-07 -1.0048528082059068e-05 0 -2.7551714579584233e-06 -1.6342761139011228e-05 0 -5.2360504321640139e-06 -1.0321958837111202e-06 0 -3.7245701800247869e-06 -2.1508195385213604e-06 0 -2.6533704678393804e-06 -5.7191817804027081e-09 0 9.7896853108769374e-06 -1.9622762692790545e-05 0 7.9445047449082389e-06 -1.4979993415420207e-05 0 7.0621420196146755e-06 -1.906312734609128e-05 0 -2.6821179854286788e-05 -4.7767089554328341e-05 0 -1.8690229812562052e-05 -4.7073917106286192e-05 0 -1.9814306281475903e-05 -3.9531276514499108e-05 0 -5.2360504321640139e-06 -1.0321958837111202e-06 0 -2.6533704678393804e-06 -5.7191817804027081e-09 0 -4.8358549932174946e-06 4.3743593028836775e-07 0 9.4579851194587308e-06 -1.2547606888985847e-05 0 7.9445047449082389e-06 -1.4979993415420207e-05 0 1.0883451308085105e-05 -1.6164262603351248e-05 0 2.1671832355345261e-06 -1.0545241222695226e-06 0 2.9535983641634206e-06 -5.2815763472580382e-07 0 3.4147917371542891e-06 -1.0301505880124728e-06 0 -2.615148752932398e-05 -1.3260909037302689e-05 0 -2.2244456110020079e-05 -1.452519246081533e-05 0 -2.0531643833239696e-05 -1.0357838156156555e-05 0 -4.3702191992959057e-05 2.4307890616784544e-05 0 -3.265335339525362e-05 1.8383387990263134e-05 0 -3.5451083095729018e-05 2.7359069854816881e-05 0 -4.8122574170524098e-05 -7.3159797226489463e-05 0 -3.4652627658232788e-05 -7.326350619736978e-05 0 -4.0080829918623498e-05 -6.6611473395988984e-05 0 6.1255797161780009e-05 0.00014388470402447104 0 3.5446847871596601e-05 0.00014983969957064436 0 3.9649047424996546e-05 0.00013228530482083055 0 5.6769679878640519e-05 0.00011872080619408426 0 3.9649047424996546e-05 0.00013228530482083055 0 3.1173071109394558e-05 0.00011536052680512022 0 -4.8122574170524098e-05 -7.3159797226489463e-05 0 -5.0088742122503761e-05 -8.7007715990173375e-05 0 -4.0959563172299226e-05 -8.2152430729511095e-05 0 6.1255797161780009e-05 0.00014388470402447104 0 6.5538295565929338e-05 0.00017002265809423845 0 4.7762421818736808e-05 0.00016405902493934734 0 2.3889374206100701e-05 -1.6392706738960603e-05 0 2.1520011585521334e-05 -1.1511904721899681e-05 0 2.0009012227616547e-05 -1.4972793628126709e-05 0 5.1281132154908694e-06 -1.6767192264828879e-05 0 3.9853445312943673e-06 -2.0359041614571577e-05 0 7.0621420196146755e-06 -1.906312734609128e-05 0 7.6224913977819633e-06 -4.032514928726469e-05 0 1.1471012422077626e-05 -4.2533205311625646e-05 0 9.8482027871105268e-06 -4.0240295159020164e-05 0 4.5002440216908879e-05 -3.8730623633172213e-05 0 4.1888628737212002e-05 -4.3903197820757547e-05 0 5.0723303267321163e-05 -4.6150754570241472e-05 0 -2.3589859031582288e-05 1.7791114193556063e-05 0 -1.5588556791862244e-05 1.0031200290759246e-05 0 -1.471526558550028e-05 1.6934789831576902e-05 0 -2.6384693309994469e-06 2.2244352207173036e-06 0 -1.9168237747041911e-06 2.5577422483299507e-06 0 -3.5332024866879545e-06 2.2700546401210828e-06 0 6.4123022592570527e-06 1.2633244575122467e-06 0 5.5080286088395647e-06 1.7200984403266939e-06 0 7.1335067698733662e-06 1.8635776831571518e-06 0 -3.9816256467131691e-05 9.6988670224907556e-05 0 -3.0509427294479668e-05 7.9585389887529642e-05 0 -2.281322922514936e-05 0.00010082415568498202 0 2.9271376038374746e-06 -4.6746300944534805e-05 0 1.0368071329224941e-05 -5.2848150224104206e-05 0 9.5880276867099637e-06 -4.0236568606572951e-05 0 2.1876031089147285e-06 -3.1050811835412066e-08 0 8.7791376661506022e-07 -8.9440845800258882e-08 0 1.1503906537154283e-06 2.0785061549536512e-07 0 -5.9908851971518545e-06 -5.0237670193823761e-06 0 -1.3809925805057519e-06 -3.7671201339782417e-06 0 -3.7245701800247869e-06 -2.1508195385213604e-06 0 5.189380574036962e-05 9.4685211038589171e-05 0 5.6769679878640519e-05 0.00011872080619408426 0 3.8699652123127935e-05 0.00010188670782241683 0 1.8754083691747709e-06 -2.4156123325317377e-06 0 3.1621912289428793e-06 -2.1650626162111722e-06 0 1.5313491994150984e-06 -2.807273954886674e-06 0 2.3889374206100701e-05 -1.6392706738960603e-05 0 2.0009012227616547e-05 -1.4972793628126709e-05 0 2.3712206233740212e-05 -1.9742715566677877e-05 0 1.9890118394332679e-05 -1.9177564021217585e-05 0 2.3712206233740212e-05 -1.9742715566677877e-05 0 2.0009012227616547e-05 -1.4972793628126709e-05 0 1.0869394946460902e-05 -3.9826745583844787e-05 0 8.0317564862691157e-06 -3.7282238361840553e-05 0 9.8482027871105268e-06 -4.0240295159020164e-05 0 7.6224913977819633e-06 -4.032514928726469e-05 0 9.8482027871105268e-06 -4.0240295159020164e-05 0 8.0317564862691157e-06 -3.7282238361840553e-05 0 4.5002440216908879e-05 -3.8730623633172213e-05 0 3.7103047030347384e-05 -3.8688189707784142e-05 0 4.1888628737212002e-05 -4.3903197820757547e-05 0 3.5559862528136739e-05 -4.4360041557077565e-05 0 4.1888628737212002e-05 -4.3903197820757547e-05 0 3.7103047030347384e-05 -3.8688189707784142e-05 0 1.182455345382138e-05 3.042822388345477e-06 0 1.0196929324401489e-05 2.2791097613937645e-06 0 1.0530688984809313e-05 2.5385555167143488e-06 0 2.4590847880597099e-05 -8.3971309960954452e-06 0 1.8858341021060113e-05 -3.603714365966107e-06 0 2.1520011585521334e-05 -1.1511904721899681e-05 0 1.6410235946962208e-05 -7.8767115586092963e-06 0 2.1520011585521334e-05 -1.1511904721899682e-05 0 1.8858341021060113e-05 -3.603714365966107e-06 0 -2.6821179854286788e-05 -4.7767089554328341e-05 0 -3.5189528950885281e-05 -5.065282587475914e-05 0 -3.2178056478064442e-05 -5.9542158193764539e-05 0 -6.7684517888390239e-06 6.7329149494237035e-07 0 -7.9013627648320467e-06 -1.0023780708196458e-06 0 -4.8358549932174946e-06 4.3743593028836775e-07 0 -5.2360504321640139e-06 -1.0321958837111202e-06 0 -4.8358549932174946e-06 4.3743593028836775e-07 0 -7.9013627648320467e-06 -1.0023780708196458e-06 0 6.3430254062371084e-06 -1.1370578304523741e-05 0 3.7081677295732114e-06 -9.6831812522304659e-06 0 4.5049247025869183e-06 -8.821070677047945e-06 0 8.1738652277377665e-06 -3.3922917693034917e-05 0 8.0317564862691157e-06 -3.7282238361840553e-05 0 1.0046502170658501e-05 -3.6536269875560535e-05 0 3.172285479139212e-05 -3.4901562995897552e-05 0 3.0782560871934364e-05 -3.8763651359956967e-05 0 3.7103047030347384e-05 -3.8688189707784142e-05 0 5.709398620689088e-06 1.9835726199520424e-06 0 7.1335067698733662e-06 1.8635776831571518e-06 0 5.5080286088395647e-06 1.7200984403266939e-06 0 2.0981485630722635e-05 -5.0544633332160258e-05 0 2.1548654166685533e-05 -4.6910255807459345e-05 0 1.8271206566181923e-05 -4.5883990041297751e-05 0 3.1219619308095616e-06 2.2475327132985478e-06 0 3.1004377495112191e-06 1.8677395260948321e-06 0 2.0554602441089003e-06 1.9200488738950415e-06 0 9.4579851194587308e-06 -1.2547606888985847e-05 0 9.7497048353239112e-06 -9.640817513899064e-06 0 7.3817290582141792e-06 -9.8123666256860211e-06 0 2.1876031089147285e-06 -3.1050811835412066e-08 0 3.4791953322507316e-06 1.2977685564558521e-07 0 2.9535983641634202e-06 -5.2815763472580382e-07 0 -8.1726332998861236e-06 0.00011222559873926944 0 -1.5707404183075739e-06 9.3982596671086612e-05 0 1.0972876295183182e-05 0.00010925053522633035 0 -6.0761189178777464e-06 0.00015553751870501668 0 1.5819014410088742e-05 0.00015680538148910556 0 7.7609826406794395e-06 0.00017287789093968522 0 -1.3727486361918608e-05 -7.7853441546079893e-05 0 -2.4426484267744719e-05 -7.7415695015266967e-05 0 -2.0378973676185736e-05 -8.6362979787064074e-05 0 2.7733754853211629e-05 1.60819099284e-05 0 2.1455196160284841e-05 2.9796405125291731e-06 0 2.9940937201986514e-05 -3.7009425725276476e-06 0 2.1876031089147285e-06 -3.1050811835412066e-08 0 1.1503906537154283e-06 2.0785061549536512e-07 0 2.3937805308562526e-06 4.0137681075472254e-07 0 -4.5494659558394942e-05 -6.0167985335974246e-05 0 -4.0080829918623498e-05 -6.6611473395988984e-05 0 -3.2178056478064442e-05 -5.9542158193764539e-05 0 -5.24153803014287e-05 -0.00014466589007236955 0 -4.3011059025098291e-05 -0.00013659455690226177 0 -5.2398824020924637e-05 -0.00013040745284095804 0 8.6332510586049473e-05 0.00028578684030939586 0 6.1860535587123324e-05 0.00027055188657618639 0 7.920324319634641e-05 0.00025509077502983249 0 8.6332510586049473e-05 0.00028578684030939586 0 5.4159176035438939e-05 0.00028873088904623589 0 6.1860535587123324e-05 0.00027055188657618639 0 3.6897723930657244e-05 -0.00014575818018609869 0 2.3839380382565198e-05 -0.00013779385820518076 0 2.0328529144319286e-05 -0.00014717778390056636 0 -8.8270403437885103e-05 0.00028557382904472969 0 -8.8239757131143798e-05 0.00025774096903182972 0 -6.987277955827439e-05 0.00026981139632088926 0 -5.24153803014287e-05 -0.00014466589007236955 0 -3.8305999001960854e-05 -0.00014467448535062115 0 -4.3011059025098291e-05 -0.00013659455690226177 0 3.6897723930657244e-05 -0.00014575818018609869 0 3.2269922904359447e-05 -0.0001296759611233016 0 2.3839380382565198e-05 -0.00013779385820518076 0 -8.8270403437885103e-05 0.00028557382904472969 0 -6.987277955827439e-05 0.00026981139632088926 0 -6.0667067900612067e-05 0.0002855919840107073 0 1.2032448953709285e-09 -7.9250017134283726e-11 0 1.1503906537154283e-06 2.0785061549536512e-07 0 8.7791376661506022e-07 -8.9440845800258882e-08 0 9.7896853108769374e-06 -1.9622762692790545e-05 0 1.3349096592850296e-05 -2.0384867372794831e-05 0 1.0883451308085105e-05 -1.6164262603351248e-05 0 -5.2360504321640139e-06 -1.0321958837111202e-06 0 -7.6246597849084452e-06 -2.9257478876126132e-06 0 -3.7245701800247869e-06 -2.1508195385213604e-06 0 -2.6821179854286788e-05 -4.7767089554328341e-05 0 -2.2146400545279823e-05 -5.4627959886868087e-05 0 -1.8690229812562052e-05 -4.7073917106286192e-05 0 4.5801586047274115e-06 -1.3373756499124819e-06 0 4.352476475422382e-06 -1.8982039373738921e-06 0 3.1621912289428793e-06 -2.1650626162111722e-06 0 -8.3855561086711993e-06 0.00018773360915437705 0 -2.6038854836563254e-05 0.00020413730872747527 0 -2.7494478805826216e-05 0.000179039358098708 0 -1.2118191193889258e-05 -9.3922553856183599e-05 0 -3.0088483809632434e-06 -0.00010249298577819388 0 -2.8481936713077535e-06 -8.9648843168475991e-05 0 3.027479981282986e-06 -3.234542889599734e-05 0 4.8780107388164681e-06 -3.6742444017166549e-05 0 5.7506845729149406e-06 -3.3602196930634236e-05 0 3.738539245007976e-05 -2.8333737358833396e-05 0 3.5363442273353438e-05 -3.2544860930612952e-05 0 4.0676515163432416e-05 -3.3096771761791487e-05 0 3.0457514894871714e-05 -1.1357470248529479e-05 0 2.7153605429934379e-05 -1.4726937855240274e-05 0 3.1344202170888175e-05 -1.6286441336824436e-05 0 -5.9908851971518545e-06 -5.0237670193823761e-06 0 -3.7245701800247869e-06 -2.1508195385213604e-06 0 -7.6246597849084452e-06 -2.9257478876126132e-06 0 1.3336745130429099e-06 -2.2428320805162619e-05 0 1.8590882371327124e-06 -2.7481845790694673e-05 0 4.3568581907614944e-06 -2.4559766067369804e-05 0 3.2895893167160487e-05 -2.0324424529971707e-05 0 3.0953916219779387e-05 -2.3631852387347803e-05 0 3.4819805752530811e-05 -2.4211907287343612e-05 0 -1.1869966688165494e-05 -3.9915942270883661e-05 0 -4.6396092970011788e-06 -4.3508601997448118e-05 0 -5.6396080044074169e-06 -3.3297150595019463e-05 0 6.4123022592570527e-06 1.2633244575122467e-06 0 4.9399176895194193e-06 1.2701284542820192e-06 0 5.5080286088395647e-06 1.7200984403266939e-06 0 6.2042667439283636e-06 -8.4770203559184784e-05 0 -3.193433491386938e-06 -7.615650486909909e-05 0 -2.8481936713077535e-06 -8.9648843168475991e-05 0 -4.6586123608504709e-05 0.00017101111788329738 0 -2.7510730347845833e-05 0.00015549213621012748 0 -2.7494478805826216e-05 0.000179039358098708 0 2.6874050025290477e-05 -2.3312382006532048e-05 0 2.8097265190290089e-05 -1.9661341974460316e-05 0 2.3712206233740212e-05 -1.9742715566677877e-05 0 2.3889374206100701e-05 -1.6392706738960603e-05 0 2.3712206233740208e-05 -1.9742715566677877e-05 0 2.8097265190290089e-05 -1.9661341974460316e-05 0 1.9972647774873056e-06 2.5022129805094209e-06 0 8.5301805260516129e-07 2.6424109404808472e-06 0 7.2035098350418459e-07 2.4758825028298337e-06 0 -4.8692503539339215e-06 -1.2095003978101555e-05 0 -2.8655930731519363e-07 -1.0048528082059068e-05 0 -3.1276807695736181e-06 -7.1344225253215753e-06 0 2.7090561022940431e-06 -3.3756548498748442e-05 0 8.5273098871045938e-06 -2.9758288266829419e-05 0 3.4676917101345517e-06 -2.1703519067299805e-05 0 1.3479656288121585e-05 -1.6525901192578392e-05 0 1.0883451308085105e-05 -1.6164262603351248e-05 0 1.3349096592850296e-05 -2.0384867372794831e-05 0 1.1519126084723629e-05 -2.3893900390757402e-05 0 8.5273098871045938e-06 -2.9758288266829419e-05 0 1.5118111557916244e-05 -3.4272812340329715e-05 0 3.2643653638780416e-05 -2.8044385104233128e-05 0 2.7714007286550713e-05 -2.6592463377571254e-05 0 2.9689411649262966e-05 -3.1094656081982827e-05 0 2.5122688529907647e-05 -2.8825853263327167e-05 0 2.9689411649262966e-05 -3.1094656081982827e-05 0 2.7714007286550713e-05 -2.6592463377571254e-05 0 -2.543773134549659e-06 2.3493992325745197e-06 0 -4.0306503813913865e-06 2.0162393655437348e-06 0 -3.5332024866879545e-06 2.2700546401210828e-06 0 6.4637472728755542e-06 -1.3790972055782346e-06 0 6.9233403701705797e-06 -2.7880737571288227e-06 0 7.7171026317871639e-06 -6.3449427608516505e-07 0 8.3202348471073541e-06 -1.6936064564733814e-06 0 7.7171026317871639e-06 -6.3449427608516505e-07 0 6.9233403701705797e-06 -2.7880737571288227e-06 0 1.853561793578619e-05 7.7784286126416748e-06 0 1.7257146566934466e-05 5.9591275836895772e-06 0 2.101331465447961e-05 1.045586753519542e-05 0 1.827931332286331e-05 3.3609626176562908e-06 0 2.101331465447961e-05 1.045586753519542e-05 0 1.7257146566934466e-05 5.9591275836895772e-06 0 5.6769679878640519e-05 0.00011872080619408426 0 6.1255797161780009e-05 0.00014388470402447104 0 3.9649047424996546e-05 0.00013228530482083055 0 1.4452230698723576e-05 4.5819382293936982e-06 0 1.3394925438441495e-05 3.9493175390658829e-06 0 1.2654344298655063e-05 3.4596906146291025e-06 0 -4.5494659558394942e-05 -6.0167985335974246e-05 0 -4.8122574170524098e-05 -7.3159797226489463e-05 0 -4.0080829918623498e-05 -6.6611473395988984e-05 0 -4.1405704289667703e-07 2.6601198405458959e-06 0 7.2035098350418459e-07 2.4758825028298337e-06 0 8.5301805260516129e-07 2.6424109404808472e-06 0 -2.5378887753356181e-06 -3.5151484989493765e-06 0 -2.3061756255828769e-06 -2.9945494658177346e-06 0 -1.2954461454198593e-06 -3.114487830131992e-06 0 -2.543773134549659e-06 2.3493992325745197e-06 0 -1.5098526237584696e-06 2.1884043553227156e-06 0 -2.0899197333199959e-06 1.9652572327622893e-06 0 6.7564607994671872e-06 -7.1791781264347512e-07 0 6.5320358680313432e-06 -1.0109064058559402e-07 0 8.4998553423583675e-06 6.2196330211478748e-07 0 -1.3667776138118328e-06 7.7449980490558234e-08 0 -1.4413453024235968e-06 6.5768101649514563e-07 0 -6.3009859294486831e-07 1.7992894814948037e-07 0 -1.1329422515920866e-09 3.6568387412568609e-10 0 -6.3009859294486831e-07 1.7992894814948042e-07 0 -1.4413453024235968e-06 6.5768101649514563e-07 0 -1.7420131927522171e-06 -3.6417410270766597e-07 0 -8.0757507913443337e-07 -3.7281618207670629e-07 0 -1.8787757071603946e-06 -1.1681058333245008e-06 0 -1.5338621137640678e-09 -5.988795833785886e-10 0 -1.8787757071603946e-06 -1.1681058333245008e-06 0 -8.0757507913443337e-07 -3.7281618207670629e-07 0 -4.8692503539339215e-06 -1.2095003978101555e-05 0 -1.0501042336293911e-05 -1.4488922828283026e-05 0 -7.7289907187649059e-06 -1.8720701451509342e-05 0 2.1876031089147285e-06 -3.1050811835412066e-08 0 2.3937805308562526e-06 4.0137681075472254e-07 0 3.4791953322507316e-06 1.2977685564558521e-07 0 1.955182721832743e-05 9.3320471030773801e-05 0 3.4925193735712926e-05 8.653111895063732e-05 0 3.8699652123127935e-05 0.00010188670782241683 0 7.1185167901382763e-06 1.8332520632854963e-05 0 2.6011297280094531e-06 1.1627748811141832e-05 0 9.8391160724556396e-06 1.0407683130682149e-05 0 1.4452230698723576e-05 4.5819382293936982e-06 0 1.5686268995261719e-05 5.5807016277629877e-06 0 1.3394925438441495e-05 3.9493175390658829e-06 0 -3.1678901098589899e-06 -2.4469500805781884e-05 0 -2.7551714579584233e-06 -1.6342761139011228e-05 0 -7.7289907187649059e-06 -1.8720701451509342e-05 0 -3.3136484386441733e-05 0.00028606733215878695 0 -6.0667067900612067e-05 0.0002855919840107073 0 -4.7041305030509063e-05 0.00027141450020209626 0 4.2629962501414946e-06 -0.00014653704478839312 0 2.0328529144319286e-05 -0.00014717778390056636 0 1.1128921332562759e-05 -0.00013884831973536244 0 5.4159176035438939e-05 0.00028873088904623589 0 2.3093768946007072e-05 0.00028816502403765257 0 3.6882709213188973e-05 0.00027300956893372067 0 -3.830599900196086e-05 -0.00014467448535062115 0 -2.4280078462619605e-05 -0.00014498277892163497 0 -3.1373250032356221e-05 -0.0001374324622887571 0 1.2242576095983429e-05 -3.6292115760875072e-05 0 1.0046502170658501e-05 -3.6536269875560535e-05 0 1.2474879043462666e-05 -3.9519693297753021e-05 0 2.5572978830477211e-05 -3.8436484631188908e-05 0 2.8885035095139386e-05 -4.3406515528236674e-05 0 3.0782560871934364e-05 -3.8763651359956967e-05 0 -1.1552249557490221e-09 -4.7463411913162806e-10 0 -6.3009859294486841e-07 1.7992894814948042e-07 0 -1.1329422515920866e-09 3.6568387412568609e-10 0 -1.2972903026002758e-09 5.3015193338325824e-10 0 -1.5338621137640678e-09 -5.988795833785886e-10 0 -8.0757507913443337e-07 -3.7281618207670629e-07 0 -1.2972903026002758e-09 5.3015193338325824e-10 0 -8.0757507913443337e-07 -3.7281618207670629e-07 0 -1.7420131927522171e-06 -3.6417410270766597e-07 0 -1.1552249557490221e-09 -4.7463411913162806e-10 0 -1.3667776138118328e-06 7.7449980490558234e-08 0 -6.3009859294486831e-07 1.7992894814948037e-07 0 2.9271376038374746e-06 -4.6746300944534805e-05 0 -4.639609297001178e-06 -4.3508601997448111e-05 0 -3.9805680768753013e-06 -5.4934142858957668e-05 0 5.1477510435823017e-07 1.8718306484214792e-06 0 -7.3111665131619044e-07 1.1961603337310223e-06 0 1.3346376090020888e-06 9.5756881245340286e-07 0 9.4579851194587308e-06 -1.2547606888985847e-05 0 1.0883451308085107e-05 -1.6164262603351248e-05 0 1.16462610457708e-05 -1.2769054414476976e-05 0 1.3479656288121585e-05 -1.6525901192578392e-05 0 1.16462610457708e-05 -1.2769054414476976e-05 0 1.0883451308085105e-05 -1.6164262603351248e-05 0 1.9972647774873056e-06 2.5022129805094209e-06 0 2.0715253548405911e-06 2.0533269442905321e-06 0 2.9426822778370132e-06 2.2290372835295074e-06 0 4.1270465951155677e-06 1.695666675840744e-06 0 3.1004377495112191e-06 1.8677395260948321e-06 0 4.4745084357926173e-06 2.0772722329500813e-06 0 3.1219619308095616e-06 2.2475327132985478e-06 0 4.4745084357926173e-06 2.0772722329500813e-06 0 3.1004377495112191e-06 1.8677395260948321e-06 0 1.827931332286331e-05 3.3609626176562908e-06 0 2.1455196160284841e-05 2.9796405125291735e-06 0 2.101331465447961e-05 1.045586753519542e-05 0 2.7733754853211629e-05 1.60819099284e-05 0 2.1013314654479613e-05 1.0455867535195422e-05 0 2.1455196160284841e-05 2.9796405125291731e-06 0 -1.4056794124636808e-05 -1.8597405722246159e-05 0 -7.7289907187649059e-06 -1.8720701451509342e-05 0 -1.0501042336293911e-05 -1.4488922828283026e-05 0 2.6874050025290477e-05 -2.3312382006532048e-05 0 2.7714007286550713e-05 -2.6592463377571254e-05 0 3.0953916219779387e-05 -2.3631852387347803e-05 0 6.1393661995073633e-06 -2.2553311431847879e-05 0 4.3568581907614944e-06 -2.4559766067369804e-05 0 6.9141332671212241e-06 -2.5696169414634613e-05 0 5.709398620689088e-06 1.9835726199520424e-06 0 6.9385325483757638e-06 1.9553896415567039e-06 0 7.1335067698733662e-06 1.8635776831571518e-06 0 2.7915841130802324e-05 0.00017353563265245885 0 4.7762421818736808e-05 0.00016405902493934734 0 4.8448930286841668e-05 0.0001820988665502784 0 -3.0469544226044942e-05 -8.684153082284479e-05 0 -4.0959563172299226e-05 -8.2152430729511095e-05 0 -4.0824713552794584e-05 -9.1945178062601977e-05 0 6.3430254062371084e-06 -1.1370578304523741e-05 0 5.6093597292413578e-06 -7.6908397141512936e-06 0 3.9447249151737768e-06 -8.5137298245891124e-06 0 2.3889374206100701e-05 -1.6392706738960603e-05 0 2.7153605429934379e-05 -1.4726937855240274e-05 0 2.1520011585521334e-05 -1.1511904721899681e-05 0 -4.6586123608504709e-05 0.00017101111788329738 0 -6.2169213298615472e-05 0.0001571345938059341 0 -4.4154483694663259e-05 0.0001494205272205181 0 6.2042667439283636e-06 -8.4770203559184784e-05 0 1.3363697382287581e-05 -7.7018440372342257e-05 0 4.8445112016455461e-06 -7.3445388680656642e-05 0 2.9271376038374746e-06 -4.6746300944534805e-05 0 3.4471819547443308e-06 -5.6741161732366829e-05 0 1.0368071329224941e-05 -5.2848150224104206e-05 0 1.2233043603167075e-05 -3.2386461553068244e-05 0 1.4040680024352195e-05 -3.5193802794147951e-05 0 1.4994724086804268e-05 -3.203547373525638e-05 0 3.172285479139212e-05 -3.4901562995897552e-05 0 3.5363442273353438e-05 -3.2544860930612952e-05 0 2.9689411649262966e-05 -3.1094656081982827e-05 0 4.9832733340085511e-06 -1.2646112329659439e-06 0 4.9386707176386444e-06 -1.7591318927471018e-06 0 7.5070689016981672e-06 -3.1726849075986522e-07 0 1.8687873529247047e-05 -4.2192047667142503e-05 0 2.2491246373959047e-05 -4.2266016529932254e-05 0 1.9949121149936723e-05 -3.7828890711489507e-05 0 -4.1405704289667703e-07 2.6601198405458959e-06 0 8.5301805260516129e-07 2.6424109404808472e-06 0 -1.5081454036499665e-07 2.6073766508067824e-06 0 4.0885577738412982e-07 2.4781331718219644e-06 0 -1.5081454036499665e-07 2.6073766508067824e-06 0 8.5301805260516129e-07 2.6424109404808472e-06 0 8.0537613107468276e-06 1.0241010062335142e-06 0 6.8675285404975468e-06 4.5084081472948256e-08 0 7.7171026317871639e-06 -6.3449427608516505e-07 0 -4.8692503539339215e-06 -1.2095003978101555e-05 0 -7.7289907187649059e-06 -1.8720701451509342e-05 0 -2.7551714579584233e-06 -1.6342761139011228e-05 0 1.9972647774873056e-06 2.5022129805094209e-06 0 2.9426822778370132e-06 2.2290372835295074e-06 0 2.761537089742584e-06 2.4043771005479716e-06 0 3.8251200083572003e-06 2.2282435637061598e-06 0 2.761537089742584e-06 2.4043771005479716e-06 0 2.9426822778370132e-06 2.2290372835295074e-06 0 2.0715253548405911e-06 2.0533269442905321e-06 0 3.7230167329304182e-06 1.7821913539774891e-06 0 2.9426822778370132e-06 2.2290372835295074e-06 0 1.4981523843372862e-05 -4.2545342836583111e-05 0 1.2474879043462666e-05 -3.9519693297753021e-05 0 1.3314515066764904e-05 -4.2399596043846243e-05 0 1.0869394946460902e-05 -3.9826745583844787e-05 0 1.3314515066764904e-05 -4.2399596043846243e-05 0 1.2474879043462666e-05 -3.9519693297753021e-05 0 3.5559862528136739e-05 -4.4360041557077565e-05 0 2.8885035095139386e-05 -4.3406515528236674e-05 0 3.2755043482074726e-05 -5.022503084498517e-05 0 2.6045872340764222e-05 -4.6105448925266847e-05 0 3.2755043482074726e-05 -5.022503084498517e-05 0 2.8885035095139386e-05 -4.3406515528236674e-05 0 1.827931332286331e-05 3.3609626176562908e-06 0 1.885834102106011e-05 -3.603714365966107e-06 0 2.1455196160284841e-05 2.9796405125291731e-06 0 4.610376789221376e-05 0.00025470591698579647 0 3.6882709213188973e-05 0.00027300956893372067 0 1.8913305141544661e-05 0.00026088377277160902 0 -3.6633915691736899e-05 -0.00012858407954057487 0 -3.1373250032356221e-05 -0.0001374324622887571 0 -2.3454289453404512e-05 -0.00013164685047806817 0 1.5508634928657564e-05 -0.00012936831290687897 0 1.8584846608992285e-06 -0.00013241105793388447 0 1.1128921332562759e-05 -0.00013884831973536244 0 -5.7407632583363791e-05 0.00025423717319129858 0 -3.1369198382506485e-05 0.00026009076908061542 0 -4.7041305030509063e-05 0.00027141450020209626 0 -4.6586123608504709e-05 0.00017101111788329738 0 -4.4154483694663259e-05 0.0001494205272205181 0 -2.7510730347845833e-05 0.00015549213621012748 0 6.2042667439283636e-06 -8.4770203559184784e-05 0 4.8445112016455461e-06 -7.3445388680656642e-05 0 -3.193433491386938e-06 -7.615650486909909e-05 0 2.9271376038374746e-06 -4.6746300944534805e-05 0 -3.9805680768753013e-06 -5.4934142858957668e-05 0 3.4471819547443304e-06 -5.6741161732366829e-05 0 6.4637472728755542e-06 -1.3790972055782346e-06 0 7.7171026317871639e-06 -6.3449427608516505e-07 0 6.8675285404975468e-06 4.5084081472948256e-08 0 2.3093768946007072e-05 0.00028816502403765257 0 1.8913305141544661e-05 0.00026088377277160902 0 3.6882709213188973e-05 0.00027300956893372067 0 -2.4280078462619605e-05 -0.00014498277892163497 0 -2.3454289453404512e-05 -0.00013164685047806817 0 -3.1373250032356221e-05 -0.0001374324622887571 0 -3.3136484386441733e-05 0.00028606733215878695 0 -4.7041305030509063e-05 0.00027141450020209626 0 -3.1369198382506485e-05 0.00026009076908061542 0 4.2629962501414946e-06 -0.00014653704478839312 0 1.112892133256276e-05 -0.00013884831973536244 0 1.8584846608992285e-06 -0.00013241105793388447 0 1.6599633359475179e-05 -3.5303450344419014e-05 0 1.499472408680427e-05 -3.203547373525638e-05 0 1.4040680024352195e-05 -3.5193802794147951e-05 0 1.1519126084723629e-05 -2.3893900390757402e-05 0 3.4676917101345517e-06 -2.1703519067299805e-05 0 8.5273098871045938e-06 -2.9758288266829419e-05 0 1.1471012422077624e-05 -4.2533205311625646e-05 0 1.2195662154780308e-05 -4.1429563076203088e-05 0 9.8482027871105268e-06 -4.0240295159020164e-05 0 5.0723303267321163e-05 -4.6150754570241472e-05 0 4.1888628737212002e-05 -4.3903197820757547e-05 0 4.328991772483206e-05 -5.0299240201002474e-05 0 4.1270465951155677e-06 1.695666675840744e-06 0 2.8566659666376313e-06 1.343543110000792e-06 0 3.1004377495112191e-06 1.8677395260948321e-06 0 -5.5378869445776291e-05 0.00013263235231988064 0 -5.7187720950035395e-05 0.00010990587779662907 0 -4.0772640608202554e-05 0.00011415193631243195 0 -3.9816256467131691e-05 9.6988670224907556e-05 0 -4.0772640608202554e-05 0.00011415193631243195 0 -5.7187720950035395e-05 0.00010990587779662907 0 1.6342126455044858e-05 -2.8793170010639712e-05 0 1.3017258942799471e-05 -2.8657403003705843e-05 0 1.4994724086804268e-05 -3.203547373525638e-05 0 5.250693322021538e-06 1.5964315500342345e-06 0 3.7230167329304182e-06 1.7821913539774891e-06 0 4.3999321357061089e-06 1.0043852543354318e-06 0 9.4579851194587308e-06 -1.2547606888985847e-05 0 1.16462610457708e-05 -1.2769054414476976e-05 0 9.7497048353239112e-06 -9.640817513899064e-06 0 1.1695346571771528e-05 -8.9205977308648645e-06 0 9.7497048353239112e-06 -9.640817513899064e-06 0 1.16462610457708e-05 -1.2769054414476976e-05 0 -2.9503889187430197e-05 0.00013201881212329832 0 -2.7510730347845833e-05 0.00015549213621012748 0 -4.4154483694663259e-05 0.0001494205272205181 0 -1.7014172529865582e-06 -6.4956616520791578e-05 0 -3.193433491386938e-06 -7.615650486909909e-05 0 4.8445112016455461e-06 -7.3445388680656642e-05 0 -1.7014172529865582e-06 -6.4956616520791578e-05 0 3.4471819547443304e-06 -5.6741161732366829e-05 0 -3.9805680768753013e-06 -5.4934142858957668e-05 0 -2.0309215548588219e-06 1.4007073883088764e-06 0 -3.1424937773972455e-06 1.8407859747138622e-06 0 -2.0899197333199959e-06 1.9652572327622893e-06 0 -2.5203741276339647e-06 -2.2736479893233845e-06 0 -2.3061756255828769e-06 -2.9945494658177346e-06 0 -3.9021056130561026e-06 -3.0007960645574276e-06 0 -5.9212420063073352e-06 -2.7090212257146532e-06 0 -3.9021056130561026e-06 -3.0007960645574276e-06 0 -4.8867126486467819e-06 -3.3009485646935696e-06 0 -4.4612569209106582e-06 1.549636841291722e-06 0 -4.0306503813913865e-06 2.0162393655437348e-06 0 -3.1424937773972451e-06 1.8407859747138622e-06 0 5.3897087648264478e-06 1.6676963037849668e-07 0 6.8675285404975468e-06 4.5084081472948256e-08 0 6.4921148572228256e-06 9.5752926651915518e-07 0 -5.5378869445776291e-05 0.00013263235231988064 0 -4.4154483694663259e-05 0.0001494205272205181 0 -6.2169213298615472e-05 0.0001571345938059341 0 9.7622095894843371e-06 -6.4690579865299134e-05 0 4.8445112016455461e-06 -7.3445388680656642e-05 0 1.3363697382287581e-05 -7.7018440372342257e-05 0 9.7622095894843371e-06 -6.4690579865299134e-05 0 1.0368071329224941e-05 -5.2848150224104206e-05 0 3.4471819547443304e-06 -5.6741161732366829e-05 0 -1.1869966688165494e-05 -3.9915942270883661e-05 0 -1.9814306281475903e-05 -3.9531276514499108e-05 0 -1.8690229812562052e-05 -4.7073917106286192e-05 0 1.2233043603167075e-05 -3.2386461553068244e-05 0 1.4994724086804268e-05 -3.203547373525638e-05 0 1.3017258942799471e-05 -2.8657403003705843e-05 0 4.9832733340085511e-06 -1.2646112329659439e-06 0 6.8508417254778292e-06 2.7511037413022106e-07 0 3.1356881677151964e-06 -1.0507932396284009e-06 0 4.1313909946663635e-06 -1.7769004784249815e-06 0 3.9951813684093469e-06 -4.5037665086558256e-08 0 2.5118717796905557e-06 -5.0417692019915651e-07 0 -2.543773134549659e-06 2.3493992325745197e-06 0 -3.5332024866879549e-06 2.2700546401210824e-06 0 -1.9168237747041911e-06 2.5577422483299507e-06 0 -3.5047736481052696e-05 6.182672517066355e-05 0 -2.2814218717484105e-05 6.353280601727979e-05 0 -3.0509427294479668e-05 7.9585389887529642e-05 0 -2.2931617155569817e-05 -3.0919164916106223e-05 0 -1.9814306281475903e-05 -3.9531276514499108e-05 0 -1.6799627186859861e-05 -3.2093754270135363e-05 0 2.7915841130802324e-05 0.00017353563265245885 0 7.7609826406794395e-06 0.00017287789093968522 0 1.5819014410088742e-05 0.00015680538148910559 0 -3.0469544226044942e-05 -8.684153082284479e-05 0 -2.0378973676185736e-05 -8.6362979787064074e-05 0 -2.4426484267744719e-05 -7.7415695015266967e-05 0 1.955182721832743e-05 9.3320471030773801e-05 0 1.0972876295183182e-05 0.00010925053522633035 0 -1.5707404183075739e-06 9.3982596671086612e-05 0 -2.526376198115215e-06 1.4764798721625253e-06 0 -4.1723324626030486e-06 1.4673519722269169e-06 0 -4.8358549932174946e-06 4.3743593028836775e-07 0 3.0951827700427637e-06 9.7133441278873571e-07 0 4.3999321357061089e-06 1.0043852543354318e-06 0 3.7230167329304182e-06 1.7821913539774891e-06 0 -1.3047965091233868e-05 -5.4371663487108365e-05 0 -1.8690229812562052e-05 -4.7073917106286192e-05 0 -2.2146400545279823e-05 -5.4627959886868087e-05 0 1.0869394946460902e-05 -3.9826745583844787e-05 0 9.8482027871105268e-06 -4.0240295159020164e-05 0 1.2195662154780308e-05 -4.1429563076203088e-05 0 3.5559862528136739e-05 -4.4360041557077565e-05 0 4.3289917724832053e-05 -5.0299240201002474e-05 0 4.1888628737212002e-05 -4.3903197820757547e-05 0 3.8251200083572003e-06 2.2282435637061598e-06 0 2.9426822778370132e-06 2.2290372835295074e-06 0 3.7230167329304182e-06 1.7821913539774891e-06 0 -6.0667067900612067e-05 0.0002855919840107073 0 -6.987277955827439e-05 0.00026981139632088926 0 -4.7041305030509063e-05 0.00027141450020209626 0 -5.7407632583363791e-05 0.00025423717319129858 0 -4.7041305030509063e-05 0.00027141450020209626 0 -6.987277955827439e-05 0.00026981139632088926 0 1.5508634928657564e-05 -0.00012936831290687897 0 1.1128921332562759e-05 -0.00013884831973536244 0 2.3839380382565198e-05 -0.00013779385820518076 0 2.0328529144319286e-05 -0.00014717778390056636 0 2.3839380382565198e-05 -0.00013779385820518076 0 1.1128921332562759e-05 -0.00013884831973536244 0 5.4159176035438939e-05 0.00028873088904623589 0 3.6882709213188973e-05 0.00027300956893372067 0 6.1860535587123324e-05 0.00027055188657618639 0 -3.830599900196086e-05 -0.00014467448535062115 0 -3.1373250032356221e-05 -0.0001374324622887571 0 -4.3011059025098291e-05 -0.00013659455690226177 0 4.610376789221376e-05 0.00025470591698579647 0 6.1860535587123324e-05 0.00027055188657618639 0 3.6882709213188973e-05 0.00027300956893372067 0 -3.6633915691736899e-05 -0.00012858407954057487 0 -4.3011059025098291e-05 -0.00013659455690226177 0 -3.1373250032356221e-05 -0.0001374324622887571 0 1.6342126455044858e-05 -2.8793170010639712e-05 0 1.4994724086804268e-05 -3.203547373525638e-05 0 1.8172491923891881e-05 -3.2343839614041235e-05 0 9.3886070352245065e-06 -2.8012856761788948e-05 0 8.6180688692824721e-06 -2.3408958101410421e-05 0 6.9141332671212241e-06 -2.5696169414634613e-05 0 6.1393661995073633e-06 -2.2553311431847879e-05 0 6.9141332671212241e-06 -2.5696169414634613e-05 0 8.6180688692824721e-06 -2.3408958101410421e-05 0 1.6599633359475179e-05 -3.5303450344419014e-05 0 1.4040680024352195e-05 -3.5193802794147951e-05 0 1.517662380865077e-05 -3.8617570788274643e-05 0 1.2242576095983429e-05 -3.6292115760875072e-05 0 1.517662380865077e-05 -3.8617570788274643e-05 0 1.4040680024352195e-05 -3.5193802794147951e-05 0 1.853561793578619e-05 7.7784286126416748e-06 0 1.6211882728053296e-05 5.6404598513177506e-06 0 1.7257146566934466e-05 5.9591275836895772e-06 0 4.6939252651164024e-06 1.5376461619745101e-06 0 7.6773403314573368e-07 3.3573919172248572e-06 0 9.5850068754060371e-08 -2.2475103572059388e-08 0 -4.3816472457603813e-06 1.7123529162512994e-06 0 9.5850068754060371e-08 -2.2475103572059388e-08 0 7.6773403314573368e-07 3.3573919172248572e-06 0 -2.526376198115215e-06 1.4764798721625253e-06 0 -2.65337046783938e-06 -5.7191817804027329e-09 0 -7.3111665131619044e-07 1.1961603337310223e-06 0 -3.5047736481052696e-05 6.182672517066355e-05 0 -2.3889095158580923e-05 4.9641422632542151e-05 0 -2.2814218717484105e-05 6.353280601727979e-05 0 -1.1009682194557969e-05 5.2425285320496471e-05 0 -2.2814218717484105e-05 6.353280601727979e-05 0 -2.3889095158580923e-05 4.9641422632542151e-05 0 1.4452230698723576e-05 4.5819382293936982e-06 0 1.6211882728053296e-05 5.6404598513177506e-06 0 1.5686268995261719e-05 5.5807016277629877e-06 0 2.5122688529907647e-05 -2.8825853263327167e-05 0 2.6531494914411662e-05 -3.3059516109964068e-05 0 2.9689411649262966e-05 -3.1094656081982827e-05 0 3.172285479139212e-05 -3.4901562995897552e-05 0 2.9689411649262966e-05 -3.1094656081982827e-05 0 2.6531494914411662e-05 -3.3059516109964068e-05 0 1.419855784947715e-05 4.2998528166409956e-06 0 1.5686268995261719e-05 5.5807016277629877e-06 0 1.6598597977905862e-05 6.4653359608364016e-06 0 -1.0892137370642226e-05 -2.6927202112509849e-05 0 -1.7439635405783477e-05 -2.5512149790379376e-05 0 -1.6799627186859861e-05 -3.2093754270135363e-05 0 -2.2931617155569817e-05 -3.0919164916106223e-05 0 -1.6799627186859861e-05 -3.2093754270135363e-05 0 -1.7439635405783477e-05 -2.5512149790379376e-05 0 1.182455345382138e-05 3.042822388345477e-06 0 1.2654344298655063e-05 3.4596906146291025e-06 0 1.3394925438441495e-05 3.9493175390658829e-06 0 1.419855784947715e-05 4.2998528166409956e-06 0 1.3394925438441495e-05 3.9493175390658829e-06 0 1.5686268995261719e-05 5.5807016277629877e-06 0 6.1393661995073633e-06 -2.2553311431847879e-05 0 3.9853445312943673e-06 -2.0359041614571577e-05 0 4.3568581907614944e-06 -2.4559766067369804e-05 0 3.0951827700427637e-06 9.7133441278873571e-07 0 3.9951813684093469e-06 -4.5037665086558375e-08 0 4.3999321357061089e-06 1.0043852543354318e-06 0 5.3897087648264478e-06 1.6676963037849668e-07 0 4.3999321357061089e-06 1.0043852543354318e-06 0 3.9951813684093469e-06 -4.5037665086558375e-08 0 8.0537613107468276e-06 1.0241010062335142e-06 0 6.4921148572228256e-06 9.5752926651915518e-07 0 6.8675285404975468e-06 4.5084081472948256e-08 0 6.5538295565929338e-05 0.00017002265809423845 0 4.8448930286841668e-05 0.0001820988665502784 0 4.7762421818736808e-05 0.00016405902493934734 0 -5.0088742122503768e-05 -8.7007715990173375e-05 0 -4.0824713552794577e-05 -9.1945178062601977e-05 0 -4.0959563172299226e-05 -8.2152430729511095e-05 0 -6.7684517888390239e-06 6.7329149494237035e-07 0 -4.8358549932174946e-06 4.3743593028836775e-07 0 -4.1723324626030486e-06 1.4673519722269167e-06 0 1.0323770956311662e-09 3.0400635350241418e-10 0 7.0623886486880197e-07 6.8614652542175357e-07 0 7.4745844370433951e-07 5.1179449614987947e-07 0 5.189380574036962e-05 9.4685211038589171e-05 0 3.8699652123127935e-05 0.00010188670782241683 0 3.4925193735712926e-05 8.6531118950637333e-05 0 1.6599633359475179e-05 -3.5303450344419014e-05 0 1.8172491923891881e-05 -3.2343839614041235e-05 0 1.4994724086804268e-05 -3.203547373525638e-05 0 -5.6534412449847961e-07 -2.017316476769633e-06 0 9.585006875405959e-08 -2.2475103572059627e-08 0 -4.1021072180568848e-06 -8.5758353826093671e-07 0 -4.3816472457603813e-06 1.7123529162512994e-06 0 -4.1021072180568848e-06 -8.5758353826093681e-07 0 9.5850068754060371e-08 -2.2475103572059388e-08 0 1.3336745130429099e-06 -2.2428320805162619e-05 0 4.3568581907614944e-06 -2.4559766067369804e-05 0 3.9853445312943673e-06 -2.0359041614571577e-05 0 
</DataArray>
</PointData>
<CellData Scalars="region_id,cross_section_updated,displacement_divergence," Vectors="" Tensors="stress,">
<DataArray type="Float64" Name="region_id" format="ascii">
2 2 2 2 2 2 2 2 2 2 3 3 3 3 3 3 3 3 3 3 1 1 1 1 1 1 1 1 1 1 1 1 1 1 1 1 1 1 1 1 1 1 1 1 1 1 1 1 1 1 1 1 1 1 1 1 1 1 1 1 1 1 1 1 1 1 1 1 1 1 1 1 1 1 1 1 1 1 1 1 1 1 1 1 1 1 1 1 1 1 1 1 1 1 1 1 1 1 1 1 1 1 1 1 1 1 1 1 1 1 1 1 1 1 1 1 1 1 1 1 1 1 1 1 1 1 1 1 1 1 1 1 1 1 1 1 1 1 1 1 1 1 1 1 1 1 1 1 1 1 1 1 1 1 1 1 1 1 1 1 1 1 1 1 1 1 1 1 1 1 1 1 1 1 1 1 1 1 1 1 1 1 1 1 1 1 1 1 1 1 1 1 1 1 1 1 1 1 1 1 1 1 1 1 1 1 1 1 1 1 1 1 1 1 1 1 1 1 1 1 1 1 1 1 1 1 1 1 1 1 1 1 1 1 1 1 1 1 1 1 1 1 1 1 1 1 1 1 1 1 1 1 1 1 1 1 1 1 1 1 1 1 1 1 1 1 1 1 1 1 1 1 1 1 1 1 1 1 1 1 1 1 1 1 1 1 1 1 1 1 1 1 1 1 1 1 1 1 1 1 1 1 1 1 1 1 1 1 1 1 1 1 1 1 1 1 1 1 1 1 1 1 1 1 1 1 1 1 1 1 1 1 1 1 1 1 1 1 1 1 1 1 1 1 1 1 1 1 1 1 1 1 1 1 1 1 1 1 1 1 1 1 1 1 1 1 1 1 1 1 1 1 1 1 1 1 1 1 1 1 1 1 1 1 1 1 1 1 1 1 1 1 1 1 1 1 1 1 1 1 1 1 1 1 1 1 1 1 1 1 1 1 1 1 1 1 1 1 1 1 1 1 1 1 1 1 1 1 1 1 1 1 1 1 1 1 1 1 1 1 1 1 1 1 1 1 1 1 1 1 1 1 1 1 1 1 1 1 1 1 1 1 1 1 1 1 1 1 1 1 1 1 1 1 1 1 1 1 1 1 1 1 1 1 1 1 1 1 1 1 1 1 1 1 1 1 1 1 1 1 1 1 1 1 1 1 1 1 1 1 1 1 1 1 1 1 1 1 1 1 1 1 1 1 1 1 1 1 1 1 1 1 1 1 1 1 1 1 1 1 1 1 1 1 1 1 1 1 1 1 1 1 1 1 1 1 1 1 1 1 1 1 1 1 1 1 1 1 1 1 1 1 1 1 1 1 1 1 1 1 1 1 1 1 1 1 1 1 1 1 1 1 1 1 1 1 1 1 1 1 1 1 1 1 1 1 1 1 1 1 1 1 1 1 1 1 1 1 1 1 1 1 1 1 1 1 1 1 1 1 1 1 1 1 1 1 1 1 1 1 1 1 1 1 1 1 1 1 1 1 1 1 1 1 1 1 1 1 1 1 1 1 1 1 1 1 1 1 1 1 1 1 1 1 1 1 1 1 1 1 1 1 1 1 1 1 1 1 1 1 1 1 1 1 1 1 1 1 1 1 1 1 1 1 1 1 1 1 1 1 1 1 1 1 1 1 1 1 1 1 1 1 1 1 1 1 1 1 1 1 1 1 1 1 1 1 1 1 1 1 1 1 1 1 1 1 1 1 1 1 1 1 1 1 1 1 1 1 1 1 1 1 1 1 1 1 1 1 1 1 1 1 1 1 1 1 1 1 1 1 1 1 1 1 1 1 1 1 1 1 1 1 1 1 1 1 1 1 1 1 1 1 1 1 1 1 1 1 1 1 1 1 1 1 1 1 1 1 1 1 1 1 1 1 1 1 1 1 1 1 1 1 1 1 1 1 1 1 1 1 1 1 1 1 1 1 1 1 1 1 1 1 1 1 1 1 1 1 1 1 1 1 1 1 1 1 1 1 1 1 1 1 1 1 1 1 1 1 1 1 1 1 1 1 1 1 1 1 1 1 1 1 1 1 1 1 1 1 1 1 1 1 1 1 1 1 1 1 1 1 1 1 1 1 1 1 1 1 1 1 1 1 1 1 1 1 1 1 1 1 1 1 1 1 1 1 1 1 1 1 1 1 1 1 1 1 1 1 1 1 1 1 1 1 1 1 1 1 1 1 1 1 1 1 1 1 1 1 1 1 1 1 1 1 1 1 1 1 1 1 1 1 1 1 1 1 1 1 1 1 1 1 1 1 1 1 1 1 1 1 1 1 1 1 1 1 1 1 1 1 1 1 1 1 1 1 1 1 1 1 1 1 1 1 1 1 1 1 1 1 1 1 1 1 1 1 1 1 1 1 1 1 1 1 1 1 1 1 1 1 1 1 1 1 
</DataArray>
<DataArray type="Float64" Name="stress" NumberOfComponents="9" format="ascii">
0.0028985548891531853 -0.0016074268339519211 0 -0.0016074268339519211 0.0085452351702654285 0 0 0 0.0028609475148546541 0.0071246653941542922 -0.0041687209740666371 0 -0.0041687209740666371 0.021326538720107285 0 0 0 0.0071128010285653942 0.0099137225998362586 -0.0058891452672976399 0 -0.0058891452672976399 0.02967687385868413 0 0 0 0.0098976491146300968 0.012673885132595855 -0.0071272994182541649 0 -0.0071272994182541649 0.037953001250198216 0 0 0 0.012656721595698518 0.015655671532317842 -0.007974431168663117 0 -0.007974431168663117 0.046882768256014083 0 0 0 0.015634609947082979 0.019018971518492359 -0.0085105317187905757 0 -0.0085105317187905757 0.056949839047767056 0 0 0 0.01899220264156485 0.022848223039118772 -0.0087796315932978479 0 -0.0087796315932978479 0.068428506972238748 0 0 0 0.022819182502839378 0.027213170169505769 -0.0088004536489106003 0 -0.0088004536489106003 0.081440563023480808 0 0 0 0.027163433298246647 0.032169593529156902 -0.0085562608967465308 0 -0.0085562608967465308 0.096431052008856419 0 0 0 0.032150161384503328 0.038318217657121588 -0.0083867271184267685 0 -0.0083867271184267685 0.11416005679413786 0 0 0 0.038119568612814861 0.0056951982844020491 0.0010630566812385722 0 0.0010630566812385722 0.015699952252793772 0 0 0 0.0053487876342989543 0.013465764624892853 0.0026037033907646214 0 0.0026037033907646214 0.040452703991341162 0 0 0 0.013479617154058503 0.01950756068972706 0.0037239256642487943 0 0.0037239256642487943 0.058257523821736434 0 0 0 0.019441271127865874 0.025068421331817744 0.0045165378816034857 0 0.0045165378816034857 0.075027309270464471 0 0 0 0.025023932650570554 0.030787293306382565 0.0051171672498563966 0 0.0051171672498563966 0.092166922311693031 0 0 0 0.030738553904518899 0.036727480305333106 0.0055512179150726832 0 0.0055512179150726832 0.10996329523908076 0 0 0 0.036672693886103468 0.042966276144108369 0.005801842821612003 0 0.005801842821612003 0.12872518717030917 0 0 0 0.042922865828604391 0.049672028702224098 0.0059283885057823211 0 0.0059283885057823211 0.14855936514796053 0 0 0 0.049557848462546156 0.056405670792995723 0.0058198373199831498 0 0.0058198373199831498 0.16962693073678356 0 0 0 0.056508150382444819 0.065521783776530076 0.0058369001180229264 0 0.0058369001180229264 0.19335945979100505 0 0 0 0.064720310891883792 0.016063496570041226 -0.0045195807535920495 0 -0.0045195807535920495 0.015826691429611572 0 0 0 0.0079725469999131927 0.019667001399603559 -0.0045975491895814281 0 -0.0045975491895814281 0.029570719785042832 0 0 0 0.0123094302961616 0.0034358076094535978 -0.0040511869942401468 0 -0.0040511869942401468 0.027475492173417604 0 0 0 0.00772782494571779 0.0030261268545590083 0.0033686556879645863 0 0.0033686556879645863 0.028831514553958014 0 0 0 0.007964410352129251 -0.046421574904069729 -0.0088151962770633089 0 -0.0088151962770633089 0.0036923050865410312 0 0 0 -0.010682317454382168 -0.034659054352703805 0.0051179068626593356 0 0.0051179068626593356 0.0021499971663886822 0 0 0 -0.0081272642965787862 -0.051673571609810787 -0.0064691188468984267 0 -0.0064691188468984267 -0.0004908347612104522 0 0 0 -0.013041101592755306 -0.037439385215361665 0.003833583505651056 0 0.003833583505651056 -0.00022570459312971566 0 0 0 -0.0094162724521228425 -0.067686085898626749 0.0039503525602159716 0 0.0039503525602159716 -0.00041297336713112809 0 0 0 -0.017024764816439466 -0.11644816600438199 -0.0091833693186145968 0 -0.0091833693186145968 -0.00056654265546489044 0 0 0 -0.029253677164961731 0.042393744428999576 -0.00025110439196516154 0 -0.00025110439196516154 -0.0066924200830980086 0 0 0 0.0089253310864753788 0.039420674812616449 -0.0005641465512002435 0 -0.0005641465512002435 -0.00643724458293163 0 0 0 0.0082458575574212 0.0068632816037335724 0.0095938418488973904 0 0.0095938418488973904 0.00047548903961262823 0 0 0 0.001834692660836551 0.015083935688936212 -0.011470100857046526 0 -0.011470100857046526 0.0050228302828640792 0 0 0 0.0050266914929500721 0.0039768215729146465 0.011082152119868651 0 0.011082152119868651 0.0013240601444616589 0 0 0 0.0013252204293440761 0.0027580979764526906 -0.010945274195975435 0 -0.010945274195975435 0.01740639089152736 0 0 0 0.0050411222169950212 0.17094007991619847 0.07931122341450389 0 0.07931122341450389 0.15846631734270139 0 0 0 0.082351599314724924 0.01044185818497223 -0.0067274456002025529 0 -0.0067274456002025529 -0.0070233724767385652 0 0 0 0.00085462142705861055 0.018771348736236426 0.013305831443562788 0 0.013305831443562788 -0.0027441027651109451 0 0 0 0.0040068114927811482 0.018349536631543817 0.0076511430555029538 0 0.0076511430555029538 -0.0040095390790630958 0 0 0 0.0035849993881202913 0.011783235260560021 -0.0094014654460214172 0 -0.0094014654460214172 -0.0029992412498489607 0 0 0 0.0021959985026780426 0.019474277694242592 0.01984617749542239 0 0.01984617749542239 0.0020214001283238581 0 0 0 0.0053739194556413628 0.010445889117920548 -0.014905456703793618 0 -0.014905456703793618 0.002053305030140784 0 0 0 0.0031247985370153053 0.010516402282127647 0.011162785279272509 0 0.011162785279272509 0.00022450416438953708 0 0 0 0.0026852266116292964 0.18128294742809797 -0.0094662470788920636 0 -0.0094662470788920636 0.094117703613910697 0 0 0 0.068850162760502154 -0.15967875696406869 0.0075489288556593315 0 0.0075489288556593315 0.0055401161983413827 0 0 0 -0.038534660191431813 -0.086804554721891233 -0.0023662315357345395 0 -0.0023662315357345395 0.0021061624252119993 0 0 0 -0.02117459807416977 -0.024452287381171479 -0.013663485361726853 0 -0.013663485361726853 0.013417973364966584 0 0 0 -0.0027585785040512428 -0.040469729800039794 0.0082605620893302055 0 0.0082605620893302055 0.045221065555698048 0 0 0 0.0011878339389145565 -0.044535650142751938 -0.02311507808044648 0 -0.02311507808044648 0.005389281940886846 0 0 0 -0.0097865920504662807 0.021309794190745208 -0.010289729502864348 0 -0.010289729502864348 0.038471811414370657 0 0 0 0.014945401401278945 0.003875947974780497 -0.019641611540177073 0 -0.019641611540177073 0.0054079820380031896 0 0 0 0.0023209825031959841 0.016364061428554455 0.026109339650756347 0 0.026109339650756347 0.0027983100985584652 0 0 0 0.0047905928817781329 0.013829259888279322 -0.022160742702800662 0 -0.022160742702800662 0.0069012434005033541 0 0 0 0.0051826258221956412 -0.0046654197657254315 0.031912383079240492 0 0.031912383079240492 -0.00124707370521282 0 0 0 -0.0014781233677345629 -0.017041053654632009 -0.028424279064513426 0 -0.028424279064513426 0.0019246205832242191 0 0 0 -0.0037791082678519444 0.041192453832665774 -0.027771188510262119 0 -0.027771188510262119 0.049025717719790841 0 0 0 0.022554542888114145 -0.052856100711045476 -0.00019431051547465217 0 -0.00019431051547465217 0.010153663225406395 0 0 0 -0.010675609371409725 0.27280689027450628 0.086436430828028557 0 0.086436430828028557 0.050884932567366592 0 0 0 0.080922955710468203 0.065568854527999348 0.0031216203926536235 0 0.0031216203926536235 0.0041654288847924326 0 0 0 0.017433570853197966 0.10114678434052704 -0.0052844929268102692 0 -0.0052844929268102692 0.029165229639424917 0 0 0 0.032578003494987962 0.027259318537666059 -0.012128119569491915 0 -0.012128119569491915 0.059196946403577075 0 0 0 0.021614066235310782 0.068070397342881006 -0.0057504731398272391 0 -0.0057504731398272391 0.052120705986102411 0 0 0 0.030047775832245827 -0.0080950411690401403 0.0066838814181533479 0 0.0066838814181533479 -0.00074918822354774761 0 0 0 -0.0022110573481461948 0.023640417071908452 -0.0076687427555948238 0 -0.0076687427555948238 -0.0010660544743984722 0 0 0 0.0056435906493774949 0.013979279687163825 0.011732612655403232 0 0.011732612655403232 0.0015206217044185892 0 0 0 0.0038749753478956039 -0.0084265785125380334 0.040234236947963076 0 0.040234236947963076 0.046860164980604121 0 0 0 0.009608396617016509 0.001393230583607713 0.030955771235615215 0 0.030955771235615215 0.032273820225724087 0 0 0 0.0084167627023329639 0.16049010144457027 0.10714604741216455 0 0.10714604741216455 0.18339225614851073 0 0 0 0.085970589398270236 -0.012091412657338291 0.011792928065339048 0 0.011792928065339048 0.0041707983921080161 0 0 0 -0.0019801535663074576 0.051899273127357641 -0.017947884152482829 0 -0.017947884152482829 0.043074006375477286 0 0 0 0.023743319875708761 0.026994759474434804 0.0031140271498091565 0 0.0031140271498091565 -0.002608813214915795 0 0 0 0.0060964865648797661 0.022335622504784512 -0.010673038606850059 0 -0.010673038606850059 0.045749372084542474 0 0 0 0.017021248647331753 0.028499104052614826 -0.014777990398028656 0 -0.014777990398028656 0.0086185354221772759 0 0 0 0.0092794098686980186 0.046305676463276824 0.0025688129075271543 0 0.0025688129075271543 0.013126347066800159 0 0 0 0.014858005882519232 -0.078893643975452454 0.011960935280839191 0 0.011960935280839191 -0.00096068194838161425 0 0 0 -0.019963581480958392 -0.0090454308356954227 -0.007639088770986957 0 -0.007639088770986957 0.0026882547407867108 0 0 0 -0.0015892940237270947 0.097564084342600887 0.018823033309373738 0 0.018823033309373738 0.080741827143612888 0 0 0 0.044576477871553388 0.085764383024913474 -0.013998653240484549 0 -0.013998653240484549 0.066596938048491955 0 0 0 0.038090330268351583 -0.0088797297022471522 0.0060688876761149603 0 0.0060688876761149603 0.0035044591938611092 0 0 0 -0.0013438176270963442 0.023437169934427182 -0.011175027366207679 0 -0.011175027366207679 0.0041119641082998371 0 0 0 0.0068872835106817965 0.050003792798450603 -0.040818100070443203 0 -0.040818100070443203 0.073342176904236875 0 0 0 0.030836492425671866 0.019831931426948668 -0.0087324744795202469 0 -0.0087324744795202469 0.0052600358509244938 0 0 0 0.0062729918194682766 0.038612296141038338 -0.0016866996889790403 0 -0.0016866996889790403 0.0032592567327387467 0 0 0 0.010467888218444243 -0.0041777473344338234 -0.020982909037580225 0 -0.020982909037580225 0.0079420486424348624 0 0 0 0.00094107532700021812 -0.029608584244280301 0.0071184106671730706 0 0.0071184106671730706 -0.0025581443081959011 0 0 0 -0.0080416821381190523 -0.038572073968575621 -0.012201606565940347 0 -0.012201606565940347 -0.0034349047388877833 0 0 0 -0.010501744676865852 0.039901049512663739 -0.011463138784241211 0 -0.011463138784241211 -0.025799279258617337 0 0 0 0.0035254425635115861 0.060012395352291636 0.014527335597219082 0 0.014527335597219082 -0.0087579766410468274 0 0 0 0.01281360467781123 -0.01930789215059478 -0.016942824396663426 0 -0.016942824396663426 -0.0049179510161904763 0 0 0 -0.0060564607916963132 -0.018543896892823451 0.011058444394432151 0 0.011058444394432151 -0.0034402848773651615 0 0 0 -0.0054960454425471515 0.035161003890392402 -0.0040410343641188338 0 -0.0040410343641188338 -0.0051558283021541293 0 0 0 0.0075012938970595699 -0.037763431071632006 0.006252967590169755 0 0.006252967590169755 0.0015331073092763638 0 0 0 -0.0090575809405889166 -0.051736537455569706 -0.011116921504204551 0 -0.011116921504204551 0.0027218864942252577 0 0 0 -0.012253662740336107 0.030301626005254184 -0.010061676698655105 0 -0.010061676698655105 0.001754579992428007 0 0 0 0.0080140514994205547 0.028828084011977645 -0.01428535444288008 0 -0.01428535444288008 0.0086127073658206488 0 0 0 0.0093601978444495804 0.11597574397308064 -0.0012399708560502098 0 -0.0012399708560502098 0.097608109536681975 0 0 0 0.053395963377440347 -0.0063435654566407068 -0.0046316896260092388 0 -0.0046316896260092388 -0.0008351506539620579 0 0 0 -0.0017946790276508334 0.028399936328519865 -0.011053342302936947 0 -0.011053342302936947 0.00036388685466837156 0 0 0 0.007190955795797066 0.028247137213397527 0.0026095731851916992 0 0.0026095731851916992 0.0060115715846210394 0 0 0 0.0085646771995046278 -0.016040386652042882 0.035937832147975191 0 0.035937832147975191 0.0026911847939743438 0 0 0 -0.00333730046451719 -0.030705956816667129 -0.013027727370152691 0 -0.013027727370152691 -0.010239370755646831 0 0 0 -0.010236331893078489 -0.025156012676854838 0.0082335632474149368 0 0.0082335632474149368 -0.0083877509406061652 0 0 0 -0.0083859409043652525 0.027866922753112155 -0.0093372625867725739 0 -0.0093372625867725739 -0.009919974918278061 0 0 0 0.0044867369587085187 0.021886982945567124 0.017231442544970665 0 0.017231442544970665 0.0080952204542428241 0 0 0 0.0074955508499526813 0.0099237268822783831 -0.014939576737672655 0 -0.014939576737672655 0.0004564569349172487 0 0 0 0.0025950459542988247 0.011514585130292247 -0.017442731215914276 0 -0.017442731215914276 0.0061662965980538026 0 0 0 0.0044202204320865114 0.033772637064425209 0.0036911392842612547 0 0.0036911392842612547 -0.0027674303715345275 0 0 0 0.0077513016732226724 0.0020897847665582634 -0.019534372912157424 0 -0.019534372912157424 -0.0054039103446631986 0 0 0 -0.00082853139452623023 0.036606609363197457 0.00086649672115839604 0 0.00086649672115839604 0.0060293195402328914 0 0 0 0.010658982225857622 0.038657180659397973 0.0041045053988060919 0 0.0041045053988060919 -0.0010721182037808311 0 0 0 0.009396265613904279 0.031231500193323311 0.0066324341979937954 0 0.0066324341979937954 -0.00020278595363991403 0 0 0 0.0077571785599208493 0.030124361781949494 0.0060294219847968266 0 0.0060294219847968266 0.0016880800627439903 0 0 0 0.0079531104611733662 0.028420183525929565 -0.010605409333188515 0 -0.010605409333188515 0.015436009281023344 0 0 0 0.010964048201738241 0.036270318178432251 -0.020012516010575174 0 -0.020012516010575174 0.022608439660503354 0 0 0 0.014719689459733884 0.031689609920385442 0.00039154329449342384 0 0.00039154329449342384 0.0053755823717571705 0 0 0 0.0092662980730356947 0.026720940534786818 -0.012682747025710815 0 -0.012682747025710815 0.059544385776134176 0 0 0 0.02156633157773024 0.14845781555870019 0.013056049199833719 0 0.013056049199833719 0.12004568341282962 0 0 0 0.067125874742882008 -0.0057714967745083889 -0.0038623934026718043 0 -0.0038623934026718043 0.0021272061285815269 0 0 0 -0.00091107266148182653 -0.015552836174057338 -0.0049112716064880482 0 -0.0049112716064880482 -0.0011337548258838481 0 0 0 -0.0041716477499851301 0.13155840457247381 0.0018092729891794335 0 0.0018092729891794335 0.11440702708305839 0 0 0 0.061491357913882938 0.039343681686154028 0.018356884120478374 0 0.018356884120478374 0.078390185024703768 0 0 0 0.029433466677714445 0.021656775398446178 0.0091970623608532247 0 0.0091970623608532247 0.00055729380746254858 0 0 0 0.0055535173014771809 0.016123742011563857 0.0095079695883410684 0 0.0095079695883410684 0.00098716847202573454 0 0 0 0.004277727620897398 0.085342200690748715 0.01837362633720091 0 0.01837362633720091 0.026600191506292781 0 0 0 0.027985598049260485 0.072596501805703317 0.026239247004313015 0 0.026239247004313015 0.022356432471517085 0 0 0 0.023738233569305156 0.030262612096196517 -0.020030130040980788 0 -0.020030130040980788 0.021380647117883372 0 0 0 0.012910814803519952 0.02636590059909949 0.0059080052374886338 0 0.0059080052374886338 -0.025109685900259415 0 0 0 0.0003140536747099909 0.018082440256462107 -0.0071039723460288515 0 -0.0071039723460288515 -0.031208204144764329 0 0 0 -0.0032814409720755555 0.027197534984976249 0.010598936551654805 0 0.010598936551654805 0.051225098780985925 0 0 0 0.019605658441490537 -0.023527645578194312 0.0073435769101734697 0 0.0073435769101734697 -0.0014467617406497268 0 0 0 -0.0062436018297107321 0.07359684112236875 -0.0076501574446927734 0 -0.0076501574446927734 0.062173289299883194 0 0 0 0.033942532605563014 -0.057405673243242528 0.0035152159204980089 0 0.0035152159204980089 0.00083804470487923422 0 0 0 -0.014141907134590813 -0.092871880544293767 -0.0084473853680508068 0 -0.0084473853680508068 0.0011148277357738712 0 0 0 -0.022939263202129967 0.049919541505727236 -0.017623432538382028 0 -0.017623432538382028 0.0085733895269757832 0 0 0 0.014623232758175744 0.12164999583078115 -0.03953066413538861 0 -0.03953066413538861 0.033679544069205702 0 0 0 0.038832384974996692 0.038673451412577386 -0.0085633469200397383 0 -0.0085633469200397383 0.0013109592382798407 0 0 0 0.0099961026627143068 0.037895467390564014 -0.014165082169118853 0 -0.014165082169118853 0.0057140586639392588 0 0 0 0.010902381513625825 0.023455993256806525 -0.0046596356218029378 0 -0.0046596356218029378 -0.01195460806131439 0 0 0 0.0028753462988730335 0.0062644350127052384 0.006649909606802229 0 0.006649909606802229 -0.016877570976081557 0 0 0 -0.0026532839908437467 0.036916881210256935 0.0052904412596799233 0 0.0052904412596799233 -0.013479417032058016 0 0 0 0.0058593660445498408 0.0034636867656380015 -0.0050166502320299067 0 -0.0050166502320299067 -0.012229837088697234 0 0 0 -0.0021915375807647526 0.0020625397181675414 0.014945287065265128 0 0.014945287065265128 0.061048094496445104 0 0 0 0.015777658553653165 0.020512812048464502 -0.013256755106731036 0 -0.013256755106731036 0.0071436584551006765 0 0 0 0.0069141176258913084 0.039623735441312265 -0.0053045886853730906 0 -0.0053045886853730906 0.0021526866534272923 0 0 0 0.010444105523684889 0.034858966852115647 -0.0045321298352412609 0 -0.0045321298352412609 0.0027724839816535458 0 0 0 0.0094078627084423182 0.033631853971052061 -0.019082481369640109 0 -0.019082481369640109 0.010725699576203729 0 0 0 0.011089388386813948 -0.10715973601644793 0.013546509469204104 0 0.013546509469204104 0.0025708055043758282 0 0 0 -0.026147232628017936 -0.016158749521200978 0.0065519355179589692 0 0.0065519355179589692 0.014377005172431595 0 0 0 -0.00044543608719233713 -0.005530869298822752 -0.00032920782833253601 0 -0.00032920782833253601 0.012975713950019618 0 0 0 0.0018612111627992201 0.019051201695521935 -0.0060212339555654193 0 -0.0060212339555654193 -0.0095949089448013614 0 0 0 0.0023640731876801158 -0.081353772617501596 0.022785196447036915 0 0.022785196447036915 0.0019948006096703885 0 0 0 -0.019839743001957511 -0.045615748422586817 0.0096000351802805264 0 0.0096000351802805264 0.0039022220962621479 0 0 0 -0.010428381581581166 -0.049973665706366965 0.0018697228310643604 0 0.0018697228310643604 0.0033295604728360573 0 0 0 -0.011661026308382727 -0.084399426775486855 -0.0067141689534602686 0 -0.0067141689534602686 0.00765950963626294 0 0 0 -0.019184979284806017 -0.075354951285716829 -0.022900988308977813 0 -0.022900988308977813 0.0095267424347508789 0 0 0 -0.016457052212741505 0.02042960941157217 -0.011898937125831927 0 -0.011898937125831927 0.0060213896056399152 0 0 0 0.0066127497543029996 -0.062907929101825896 -0.0056225503410662625 0 -0.0056225503410662625 0.0015153526302872922 0 0 0 -0.015348144117884613 0.08529677174725514 0.046484608348612788 0 0.046484608348612788 0.0173771478465925 0 0 0 0.025668479898461882 0.016104532685682252 -0.0079102323450658471 0 -0.0079102323450658471 0.04260061641555081 0 0 0 0.01467628727530826 0.041672585716474586 0.013932041317086294 0 0.013932041317086294 0.015618799061271723 0 0 0 0.014322846194436575 -0.018734293975546712 0.023432164499789909 0 0.023432164499789909 0.00061992224538887086 0 0 0 -0.004528592932539488 0.030714091162447665 -0.020020482216510316 0 -0.020020482216510316 0.014220947662202499 0 0 0 0.011233759706162416 0.036552767006484743 -0.019388604419985564 0 -0.019388604419985564 0.023486982086990467 0 0 0 0.015009937273368785 0.015337363208903387 -0.0063609672644333592 0 -0.0063609672644333592 -0.010617153166516236 0 0 0 0.0011800525105967741 0.031289844717853954 -0.0059402634144680444 0 -0.0059402634144680444 0.0022972205001797752 0 0 0 0.0083967663045084046 0.016218517380875212 -0.012795061719456526 0 -0.012795061719456526 -0.003455050124869765 0 0 0 0.0031908668140013634 0.0070112521851935219 0.01323664619339553 0 0.01323664619339553 0.00038084548804533103 0 0 0 0.0018480244183097152 0.014520031625842773 -0.022353634536676381 0 -0.022353634536676381 0.012852227804322838 0 0 0 0.0068430648575413429 6.595174004560278e-05 -0.026045194862221066 0 -0.026045194862221066 -0.0042804793800145235 0 0 0 -0.0010536319099922267 -0.019030138623970266 -0.016777741668549232 0 -0.016777741668549232 0.017427231390645392 0 0 0 -0.00040072680833122543 0.032088089200170547 -0.0038456462516326105 0 -0.0038456462516326105 -0.0049519325622476625 0 0 0 0.0067840391594807233 0.034120986129243296 -0.0012408855919955786 0 -0.0012408855919955786 -0.00087993683674834639 0 0 0 0.0083102623231237332 0.021781610946843017 0.0081670698470340513 0 0.0081670698470340513 0.0017133863178485052 0 0 0 0.0058737493161728814 0.021111882983279501 0.0096148744257634269 0 0.0096148744257634269 0.00024139207633692289 0 0 0 0.0053383187649041078 -0.0082984009631782707 -0.023134799590732953 0 -0.023134799590732953 0.017150244242660734 0 0 0 0.0022129608198706088 0.035503936539257958 0.012125071006107945 0 0.012125071006107945 0.014340161264088117 0 0 0 0.012461024450836513 0.040893401868445325 -0.0062778718815799904 0 -0.0062778718815799904 -0.008115211203522401 0 0 0 0.0081945476662307355 0.020395909257567416 -0.023983102451361746 0 -0.023983102451361746 -0.0057469071617566765 0 0 0 0.0036622505239526822 0.033348092720506858 0.015208014690738975 0 0.015208014690738975 0.041182993648839483 0 0 0 0.018632771592336575 0.0094585413371582969 0.0061727423507685949 0 0.0061727423507685949 0.003254465021400671 0 0 0 0.0031782515896397415 0.012401020883841755 0.0078191646539207543 0 0.0078191646539207543 0.005729413811512412 0 0 0 0.0045326086738385393 -0.03069998273813674 -0.013032477626370288 0 -0.013032477626370288 -0.010220184683962231 0 0 0 -0.010230041855524742 -0.025152064089056219 0.008237729288064247 0 0.008237729288064247 -0.0083748073007340953 0 0 0 -0.0083817178474475795 0.14212590719597204 0.022673874282673423 0 0.022673874282673423 0.027098165493959214 0 0 0 0.042306018172482765 0.022497650330146411 0.0081019026245773441 0 0.0081019026245773441 0.0038050581255431384 0 0 0 0.0065756771139223891 0.0069869751189651635 -0.0046754775291653486 0 -0.0046754775291653486 0.048603201060830603 0 0 0 0.013897544044948931 0.016092128869377387 -0.0024248199693311934 0 -0.0024248199693311934 -0.023109525175745937 0 0 0 -0.0017543490765921099 -0.049656118664480525 0.0050325466533836264 0 0.0050325466533836264 0.0014069913793969234 0 0 0 -0.012062281821270893 -0.079018136901167046 -0.009595975283318155 0 -0.009595975283318155 0.0013456803112694765 0 0 0 -0.019418114147474391 0.021850260467769091 -0.0047969808403881264 0 -0.0047969808403881264 0.00047125911009913979 0 0 0 0.0055803798944670038 -0.038536602594946172 0.010985085738934782 0 0.010985085738934782 0.0011697460995361911 0 0 0 -0.0093417141238524917 -0.040362613530183486 -0.030291463475324906 0 -0.030291463475324906 -0.0020241611550124022 0 0 0 -0.010596693671298962 -0.043358989327288829 0.0073556076398293389 0 0.0073556076398293389 -0.00048018389077622873 0 0 0 -0.01095979330451626 -0.0036481416930022347 0.0098380437507087255 0 0.0098380437507087255 0.00079345385904118189 0 0 0 -0.00071367195849026408 0.015617649917861746 -0.016499330268869027 0 -0.016499330268869027 -0.0054214820337105118 0 0 0 0.0025490419710378111 -0.012430318054366465 -0.025837569953702351 0 -0.025837569953702351 0.0058418245657274742 0 0 0 -0.0016471233721597409 0.017645637207466286 -0.012465152979083904 0 -0.012465152979083904 0.0058746764187052047 0 0 0 0.005880078406542838 0.063465184532546237 0.018007354322341851 0 0.018007354322341851 0.028267724738394229 0 0 0 0.022933227317735172 -0.014830881901190529 -0.014030849441075632 0 -0.014030849441075632 -0.00065194285899572435 0 0 0 -0.0038707061900465911 0.030573567484883428 -0.0048078280480698277 0 -0.0048078280480698277 0.0016733540010113821 0 0 0 0.0080617303714737021 0.016311966123461225 0.0087787828169688231 0 0.0087787828169688231 0.0028509877801148956 0 0 0 0.0047907384758940309 0.0070042242098837491 -0.016410384177962402 0 -0.016410384177962402 -0.0042157920704228302 0 0 0 0.0006971080348652306 -0.00050673635419921578 0.01397613771526922 0 0.01397613771526922 -0.0010774229396446067 0 0 0 -0.00039603982346095301 0.010213492895708547 -0.0051316629644309122 0 -0.0051316629644309122 0.01165020388448304 0 0 0 0.0054659241950479123 0.0085285015081268886 -0.013479050761045816 0 -0.013479050761045816 0.014345503584081376 0 0 0 0.005718501273052061 0.0024658222610294267 0.037794222900829705 0 0.037794222900829705 0.0096683115866649239 0 0 0 0.0030335334619235876 0.051331068653565348 0.056757812393483237 0 0.056757812393483237 0.033715662370101152 0 0 0 0.021261682755916556 0.0985799329519991 -0.0040442060963550852 0 -0.0040442060963550852 0.035408713121462848 0 0 0 0.033497161518365494 0.0043671213101510141 -0.0019814427599041951 0 -0.0019814427599041951 0.039405806298040386 0 0 0 0.010943231902047854 0.035859248182192618 0.0024075329745509113 0 0.0024075329745509113 -0.004711486756996619 0 0 0 0.0077869403562990025 0.019381502413741036 -0.013049312479650188 0 -0.013049312479650188 0.0026396407131766275 0 0 0 0.0055052857817294298 -0.014958421176178405 0.032450287062144145 0 0.032450287062144145 -0.00088516104123992356 0 0 0 -0.0039608955543544155 0.033817044630233994 -0.012426578263088947 0 -0.012426578263088947 0.031190623553324137 0 0 0 0.016251917045889519 0.017854113596279725 -0.00053479051716748272 0 -0.00053479051716748272 -0.001964229373558668 0 0 0 0.0039724710556802434 0.013646770234214605 0.0090688584776980399 0 0.0090688584776980399 0.0004462991968117308 0 0 0 0.0035232673577565883 -0.016558368594317974 0.00090825157407281587 0 0.00090825157407281587 0.035690180300937735 0 0 0 0.0047829529266549542 -0.046842330982419633 0.0030257417220437388 0 0.0030257417220437388 -0.0015373063525164002 0 0 0 -0.012094909333734008 -0.068006360346770156 -0.0053132015229386265 0 -0.0053132015229386265 -0.0028731422220185654 0 0 0 -0.01771987564219718 0.040159306043380569 -0.0093531857373894689 0 -0.0093531857373894689 0.0013847803618271537 0 0 0 0.010386021601301934 -0.0082138495907601514 0.010593944817505032 0 0.010593944817505032 -0.00041421761693635067 0 0 0 -0.002157016801924129 0.00076003692241421745 -0.014777579010564796 0 -0.014777579010564796 -0.0057965198588477672 0 0 0 -0.0012591207341083868 -0.11859317192769844 -0.0021003900222922867 0 -0.0021003900222922867 0.0046605264626935483 0 0 0 -0.028483161366251258 -0.066252775976892053 0.0014905764425490603 0 0.0014905764425490603 0.0015084266208554298 0 0 0 -0.016186087339009142 0.06764565033478237 0.013154243492833062 0 0.013154243492833062 0.086739178330287992 0 0 0 0.03859620716626757 0.1171208834492911 -0.0054065671782072694 0 -0.0054065671782072694 0.2224534146364649 0 0 0 0.084893574521438989 0.0090994969263060374 -0.02309514201632995 0 -0.02309514201632995 0.015215804017552154 0 0 0 0.0060788252359645564 -0.0077251073854151808 -0.018239036293957955 0 -0.018239036293957955 0.011380287532596067 0 0 0 0.00091379503679525631 0.040642309007555014 -0.025132261143516563 0 -0.025132261143516563 0.039663875958441334 0 0 0 0.020076546241499089 0.0087347970493714955 -0.0062848966139845697 0 -0.0062848966139845697 -0.028778906153896111 0 0 0 -0.0050110272761311747 0.034137032801744037 -0.0034837156526575045 0 -0.0034837156526575045 -0.008180046065839653 0 0 0 0.0064892466839760968 -0.025344614938475243 0.0011533867777099027 0 0.0011533867777099027 0.0087922997378031553 0 0 0 -0.0041380788001680185 0.018122029027624664 -0.0038982861143669889 0 -0.0038982861143669889 -0.039149844588197036 0 0 0 -0.005256953890143079 -0.099983304365389228 0.0073310883181391118 0 0.0073310883181391118 0.0013764345616938956 0 0 0 -0.024651717450923722 -0.0032409067100929168 0.020716300318340375 0 0.020716300318340375 0.0010228421372495689 0 0 0 -0.00055451614321122555 0.020490283088356209 -0.017725036802616945 0 -0.017725036802616945 0.012181089258720412 0 0 0 0.0081678430867693219 0.025323732871319178 0.0078230374999199402 0 0.0078230374999199402 0.01226478828866338 0 0 0 0.0093971302899956421 0.0020473418951844763 -0.010422138528386526 0 -0.010422138528386526 0.013256877330205641 0 0 0 0.0038260548063475258 0.040588204491712618 0.0078807744109499773 0 0.0078807744109499773 0.00091471528197797913 0 0 0 0.010375729943422644 0.04486482427587115 0.010466728393843185 0 0.010466728393843185 0.005834262904237969 0 0 0 0.012674771795027275 -0.01421918150026966 -0.023905742535195146 0 -0.023905742535195146 -0.0026326444481993908 0 0 0 -0.0042129564871172601 -0.0053207553492438109 -0.018347470305630387 0 -0.018347470305630387 0.0029604575888478868 0 0 0 -0.00059007444009900878 -0.049300045040938725 -0.019007008850720947 0 -0.019007008850720947 -0.0051430920827584947 0 0 0 -0.013610784280924298 0.021442638233130973 0.033684731678507163 0 0.033684731678507163 0.0046776953279508149 0 0 0 0.0065300833902703914 0.017676215534180403 0.02963109973052469 0 0.02963109973052469 0.0041064352452262198 0 0 0 0.0054456626948515691 0.016473637439283317 0.031398767112718051 0 0.031398767112718051 0.003685953355450966 0 0 0 0.0050398976986834043 -0.0020267365538072513 -0.021783575541737654 0 -0.021783575541737654 0.0044196804090277375 0 0 0 0.00059823596380509381 -0.0052464077526598457 -0.016800455939784187 0 -0.016800455939784187 0.0030971426480389669 0 0 0 -0.00053731627615517807 0.10129329470122983 0.028182005082253936 0 0.028182005082253936 0.045204502778465758 0 0 0 0.0366244493699239 0.030157529990267558 -0.0037665432266153868 0 -0.0037665432266153868 0.010043712905446875 0 0 0 0.010050310723928608 0.019420332787694356 0.0088793984020863991 0 0.0088793984020863991 0.0064695845224886457 0 0 0 0.0064724793275457507 0.026016923480003652 0.0084667255145381096 0 0.0084667255145381096 0.0046348020475829449 0 0 0 0.0076629313818966475 0.038629890478319689 -0.0067048942227218231 0 -0.0067048942227218231 0.064029337025470034 0 0 0 0.025664806875947438 -0.02689474735127826 -0.027337411062085586 0 -0.027337411062085586 -0.0023698236036245671 0 0 0 -0.007316142738725712 0.028428422229699261 0.0038182147039376576 0 0.0038182147039376576 0.002934776089624524 0 0 0 0.0078407995798309461 -0.070497017248352473 -0.0070140348166165094 0 -0.0070140348166165094 -0.0041448457370520022 0 0 0 -0.018660465746351135 -0.046873551752917388 0.0035288544318462477 0 0.0035288544318462477 -0.0019202616830910901 0 0 0 -0.012198453359002123 -0.058256833207141423 -0.0019429144571313783 0 -0.0019429144571313783 0.0014088464412670421 0 0 0 -0.014211996691468609 0.02645632114664272 0.0075704064242691953 0 0.0075704064242691953 0.00027551270815083517 0 0 0 0.0066829584636983914 0.023110110825609362 -0.011217988654936117 0 -0.011217988654936117 0.017211344073172263 0 0 0 0.010080363724695354 0.027588654660499957 0.011446324462496781 0 0.011446324462496781 0.028847739644645903 0 0 0 0.014109098576286457 0.051549482591192797 0.032228816320224229 0 0.032228816320224229 0.0061330711340748523 0 0 0 0.014420638431316853 0.038301397949938254 0.0013589404962464633 0 0.0013589404962464633 -0.0030599501958250676 0 0 0 0.0088103619385282977 0.0013254522813452851 0.019300621804450913 0 0.019300621804450913 -0.00059905351588351863 0 0 0 0.00018159969136566367 0.021008937936524141 -0.016355738530477504 0 -0.016355738530477504 0.0056004215882201613 0 0 0 0.0066523398811859646 0.026652908169834989 0.0080784707144074715 0 0.0080784707144074715 0.00026668255879720715 0 0 0 0.0067298976821580526 0.017229475871553192 0.0056179201684145039 0 0.0056179201684145039 0.037649120078254571 0 0 0 0.013719648987451934 0.045208260012410406 0.015612795858665873 0 0.015612795858665873 0.0097632269315619524 0 0 0 0.013742871735992868 0.002338989190270313 0.014446057011095359 0 0.014446057011095359 -0.0072721108138100732 0 0 0 -0.0012332804058849955 0.00046371082086094084 -0.010826699606936246 0 -0.010826699606936246 -0.0067920596594155391 0 0 0 -0.0015820872096385941 0.027615705601837681 -0.013676234083152439 0 -0.013676234083152439 0.0037299024134962444 0 0 0 0.0078364020038336202 -0.045565748328891084 -0.0088909351768886868 0 -0.0088909351768886868 0.018297997539633321 0 0 0 -0.0068169376973144374 -0.033903656142651735 -0.01033819387127255 0 -0.01033819387127255 0.006043169353979333 0 0 0 -0.0069651216971681404 -0.048449376982895379 -0.010652239668799551 0 -0.010652239668799551 0.0061905998722175948 0 0 0 -0.010564694277669442 -0.078070443981073268 0.026942761095535117 0 0.026942761095535117 0.015324928320789022 0 0 0 -0.015686378915071131 -0.049093301986755711 0.026118636926626457 0 0.026118636926626457 0.014814864728685651 0 0 0 -0.0085696093145175567 0.015141879064893907 0.0085434800820289244 0 0.0085434800820289244 0.0003550871827800485 0 0 0 0.003874241561918484 0.1485151824879663 0.02385092590624514 0 0.02385092590624514 0.024222993341159293 0 0 0 0.04318454395728144 -0.016300549832590834 -0.01667399730015998 0 -0.01667399730015998 -0.0059107230903616068 0 0 0 -0.0055528182307381119 -0.017662098085219832 0.010691012726505172 0 0.010691012726505172 -0.0018213396177782816 0 0 0 -0.0048708594257495293 0.01110500484425268 -0.0058608894209333864 0 -0.0058608894209333864 0.02830171984376342 0 0 0 0.0098516811720040336 -0.0014514219718062787 0.012100819792352675 0 0.012100819792352675 -0.0010225386746428936 0 0 0 -0.00061849016161229535 0.011044488987325992 -0.017450142829557258 0 -0.017450142829557258 -0.010477037721685886 0 0 0 0.00014186281641002246 -0.053128297775356714 -0.023317962061259585 0 -0.023317962061259585 0.0012659131215595268 0 0 0 -0.012965596163449304 -0.053411338403031035 -0.021871695737059434 0 -0.021871695737059434 -0.0011531102335664914 0 0 0 -0.013641112159149383 0.051025258884109359 0.023361982454112751 0 0.023361982454112751 0.026717597321663789 0 0 0 0.019435714051443176 -0.0027341571597337966 -0.015121236848932684 0 -0.015121236848932684 0.0026310459526697194 0 0 0 -2.5777801766047048e-05 0.045540490914082479 -0.00047309811362272747 0 -0.00047309811362272747 -0.051852434006854249 0 0 0 -0.0015779857731929422 0.02975694071462176 -0.00014299338611517554 0 -0.00014299338611517554 -0.056374591137001939 0 0 0 -0.006654412605595017 -0.00081059643987621728 0.0087064738410161727 0 0.0087064738410161727 0.0032102435366658244 0 0 0 0.00059991177419740048 0.05532536862084711 -0.0099843949558496292 0 -0.0099843949558496292 0.056827304832791969 0 0 0 0.028038168363409804 0.096705941121677103 0.0070034508989040289 0 0.0070034508989040289 0.1018104366747582 0 0 0 0.049629094449108874 0.041826529391837529 0.0078418493104896458 0 0.0078418493104896458 0.010957858443317939 0 0 0 0.013196096958788839 -0.043211894596563653 -0.0018598797559978703 0 -0.0018598797559978703 0.0065288646247127213 0 0 0 -0.009170757492962707 0.01146702352086354 0.0017231465224472331 0 0.0017231465224472331 -0.044802798635758867 0 0 0 -0.0083339437787238735 -0.053305084878591591 -0.031126979044372973 0 -0.031126979044372973 0.0052473015587728433 0 0 0 -0.01201444582995468 0.02566352110898177 0.0072333675253141091 0 0.0072333675253141091 0.010369426672115448 0 0 0 0.0090082369452743078 -0.012402576245468061 -0.016376729652267039 0 -0.016376729652267039 0.018496330448180665 0 0 0 0.0015234385506781578 -0.0074170835319272987 -0.011448086492503035 0 -0.011448086492503035 0.015630675508211955 0 0 0 0.0020533979940711433 -0.0029829769344351274 0.011790624830362362 0 0.011790624830362362 0.00029745809131799528 0 0 0 -0.00067137971077928498 -0.030589730062583087 -0.0067969027289639383 0 -0.0067969027289639383 0.0096809303675400304 0 0 0 -0.0052271999237607503 -0.0093784219844568438 0.0091972979421738252 0 0.0091972979421738252 0.0018311423339578692 0 0 0 -0.0018868199126247445 0.016836524776028969 -0.018169583857346655 0 -0.018169583857346655 -0.012111783092319542 0 0 0 0.0011811854209273498 -0.047148012047617247 -0.00076670852723696725 0 -0.00076670852723696725 0.0076935899098428684 0 0 0 -0.0098636055344436119 -0.083327144811147585 0.0023964962360684683 0 0.0023964962360684683 0.026661021990775635 0 0 0 -0.014166530705093078 -0.018297358846308343 -0.017919441429132904 0 -0.017919441429132904 -0.0024580502292749704 0 0 0 -0.00518885226889583 -0.017623758012546994 0.012136754125295104 0 0.012136754125295104 -0.0013208338141670606 0 0 0 -0.0047361479566785138 -0.011740962037756689 0.013069899509970232 0 0.013069899509970232 -0.00042961092842853238 0 0 0 -0.0030426432415463067 -0.0041874214233415079 -0.023956278701124809 0 -0.023956278701124809 -0.0093402362777615655 0 0 0 -0.0033819144252757623 0.028036103302388392 -0.0089722077747960444 0 -0.0089722077747960444 -0.0073996286306490661 0 0 0 0.0051591186679348401 0.035528493064153649 -0.024401625625650764 0 -0.024401625625650764 0.035177544975249969 0 0 0 0.017676509509850891 0.041997078792164751 0.0040392249760133449 0 0.0040392249760133449 -0.0033843132277518702 0 0 0 0.0096531913911032212 -0.0013877689564512075 0.022107909798344094 0 0.022107909798344094 0.0019431490308807753 0 0 0 0.00013884501860728093 0.027329442455149233 -0.020630284482611172 0 -0.020630284482611172 0.013760934046804341 0 0 0 0.010272594125488421 -0.0096085112070970029 0.012758062890295584 0 0.012758062890295584 -0.00086946088947736228 0 0 0 -0.0026194930241435904 0.0013808029324013102 -0.020781774274084779 0 -0.020781774274084779 -0.011029972218533525 0 0 0 -0.0024122923215330492 0.035267305654542128 0.0074202027164532785 0 0.0074202027164532785 0.00070005089523843961 0 0 0 0.0089918391374451383 0.014011474654932715 -0.017210361119134186 0 -0.017210361119134186 0.023783160347365717 0 0 0 0.0094486587505746011 -0.079313181532938981 0.0099413297146158878 0 0.0099413297146158878 4.9525373516878801e-05 0 0 0 -0.019815914039855942 0.057672466732604455 -0.011146771026594116 0 -0.011146771026594116 0.033577756850360574 0 0 0 0.022812555895741271 -0.018628196049904344 -0.019992984781548429 0 -0.019992984781548429 0.0038117473585173034 0 0 0 -0.0037041121728468296 0.010460063599843843 -0.0036494652603217097 0 -0.0036494652603217097 0.042377579316038791 0 0 0 0.013209410728970663 -0.050743465068986741 -0.016412922113796649 0 -0.016412922113796649 -0.00064313979667858512 0 0 0 -0.01284665121641633 -0.036098887845172574 0.0079608280635382403 0 0.0079608280635382403 0.00088875280624637482 0 0 0 -0.0088025337597315532 0.05524342925530331 0.0024548817464438238 0 0.0024548817464438238 4.7122989515178265e-05 0 0 0 0.013822638061204632 0.030805465490275529 0.0064556200028364537 0 0.0064556200028364537 -0.0002452124961787143 0 0 0 0.0076400632485242037 0.010940788416462316 -0.013981227582637978 0 -0.013981227582637978 0.0113701227229554 0 0 0 0.0055777277848544637 -0.051417026235710178 -0.017029875558718408 0 -0.017029875558718408 -0.00064658674434924651 0 0 0 -0.013015903245014837 -0.037249180750549081 0.0087656382596064779 0 0.0087656382596064779 6.6750123134146078e-05 0 0 0 -0.0092956076568537337 0.025765339054546782 0.0091470548756349586 0 0.0091470548756349586 0.041968773538302487 0 0 0 0.016933528148212314 0.0025816980931294697 -0.018648049203037309 0 -0.018648049203037309 0.0023175911969328666 0 0 0 0.0012248223225157506 0.017911375504404692 0.02689191014081449 0 0.02689191014081449 0.0083184083813794274 0 0 0 0.0065574459714463629 -0.035481913449855115 0.0076290679470502679 0 0.0076290679470502679 0.0065753745857174348 0 0 0 -0.0072266347160344219 -0.023949611066253665 0.0019981781534822302 0 0.0019981781534822302 0.0072115061464214439 0 0 0 -0.0041845262299580396 0.02347958193318312 -0.0028169860211901612 0 -0.0028169860211901612 0.014634147812927295 0 0 0 0.0095284324365275987 0.017217186643711222 -0.0019871858224001643 0 -0.0019871858224001643 0.020385801060908752 0 0 0 0.009400746926154991 0.016170165485759416 -0.013157948914261607 0 -0.013157948914261607 -0.0076450537084967185 0 0 0 0.0021312779443156751 0.019912204904746874 -0.010525085155525079 0 -0.010525085155525079 -0.0052503312815722694 0 0 0 0.003665468405793652 0.0041654936876861191 0.0096636110271414305 0 0.0096636110271414305 -0.00042266502573458375 0 0 0 0.00093570716548788124 0.0038359340348825006 0.012384363626890861 0 0.012384363626890861 -0.00035487469774661551 0 0 0 0.00087026483428397083 0.017638785937785839 -0.010084866326510872 0 -0.010084866326510872 0.004543721005652368 0 0 0 0.0055456267358595102 0.019080506354276067 0.0044329702486402721 0 0.0044329702486402721 0.04578682362688654 0 0 0 0.016216832495290632 0.047709182152661608 0.0061038857390614976 0 0.0061038857390614976 8.796867127412733e-05 0 0 0 0.011949287705983917 0.047268916239217251 0.026595568867877659 0 0.026595568867877659 0.010330291426638105 0 0 0 0.014399801916463728 -0.01578239079947763 -0.016789006006529522 0 -0.016789006006529522 0.0015718346284603335 0 0 0 -0.0035526390427542687 0.051515942973196616 0.034785788696676034 0 0.034785788696676034 0.006248289637454274 0 0 0 0.014441058152662833 0.051685584673468773 -0.010911127233450519 0 -0.010911127233450519 -0.0036557087872020125 0 0 0 0.012007468971566692 0.057406922892981084 -0.0035779427542535144 0 -0.0035779427542535144 0.0051175697022278633 0 0 0 0.015631123148802231 -0.003741211170004588 0.033052926115169301 0 0.033052926115169301 0.0012792051089245415 0 0 0 -0.00061550151527012265 0.019201762722353022 0.038128930391864713 0 0.038128930391864713 0.003864051033445115 0 0 0 0.0057664534389496036 -0.023926243818086435 -0.015893709580489523 0 -0.015893709580489523 -0.0013901105734939467 0 0 0 -0.0063290885978950946 -0.022453944183184471 0.0096547405839960999 0 0.0096547405839960999 -0.00039500036637380928 0 0 0 -0.0057122361373895701 0.015856029923596526 -0.017019051863126369 0 -0.017019051863126369 0.01222191438585396 0 0 0 0.0070194860773626355 0.077715841079658399 -0.010714339056405233 0 -0.010714339056405233 0.05750076106518387 0 0 0 0.033804150536210553 0.12745730402303887 0.010114715105679351 0 0.010114715105679351 0.10551270864662365 0 0 0 0.05824250316741561 0.019010859915379277 0.0054281626981679352 0 0.0054281626981679352 0.027977524218811195 0 0 0 0.011747096033547628 0.052889064229427775 0.0094732495478309885 0 0.0094732495478309885 0.0024755914335733153 0 0 0 0.013841163915750286 0.010322459864423483 -0.0049456757690228559 0 -0.0049456757690228559 -0.012344859346819947 0 0 0 -0.00050559987059911604 0.017143027623339802 -0.0028985344262715262 0 -0.0028985344262715262 -0.0089697220389829413 0 0 0 0.0020433263960892289 0.028383506455729457 -0.0034627656579574381 0 -0.0034627656579574381 0.00048843396310177534 0 0 0 0.0072179851047077803 -0.015826660554166955 0.014113141124758366 0 0.014113141124758366 -0.00213638212233902 0 0 0 -0.0044907606691265978 0.04174268498610828 -0.012602118676603657 0 -0.012602118676603657 0.020564598447694982 0 0 0 0.015576820858450635 0.048433789684743045 -0.012847816949247304 0 -0.012847816949247304 -0.00087320684656222447 0 0 0 0.011890145709545219 0.077560018387471508 0.015352044901472628 0 0.015352044901472628 0.022141068313717316 0 0 0 0.024925271675297178 0.044253763014139413 0.018546426151786477 0 0.018546426151786477 0.013200480065492126 0 0 0 0.014363560769907857 -0.0038931499416440252 -0.014949658601932425 0 -0.014949658601932425 -0.0017102401126289912 0 0 0 -0.0014008475135682819 0.034118508509548055 0.0051734231845814464 0 0.0051734231845814464 -0.0028101807776501272 0 0 0 0.0078270819329744855 0.039532820469397531 0.0067562617511555522 0 0.0067562617511555522 -4.7535206943873087e-05 0 0 0 0.0098713213156134197 0.041998275934862273 0.028099765349322903 0 0.028099765349322903 0.017939129904150697 0 0 0 0.014984351459752965 -0.0055899509883372556 -0.018218030771655291 0 -0.018218030771655291 0.0022870118888631552 0 0 0 -0.0008257347748685806 -0.0076230074138547831 -0.017633125379064363 0 -0.017633125379064363 -0.0046938178040166114 0 0 0 -0.0030792063044678478 -0.011857650331331567 0.0122939881041873 0 0.0122939881041873 -0.0018603980295829325 0 0 0 -0.0034295120902286258 0.061040869340935 0.037916674230531522 0 0.037916674230531522 0.01275380908270618 0 0 0 0.018448669605910295 -0.034378973732328039 -0.015366836351090533 0 -0.015366836351090533 -0.004321513308529451 0 0 0 -0.0096751217602143759 -0.02790765821032605 0.0093082922639865333 0 0.0093082922639865333 -0.0019891180964376927 0 0 0 -0.0074741940766909314 -0.032321297892148326 0.0091256339211165383 0 0.0091256339211165383 -0.0027489435430654297 0 0 0 -0.00876756035880355 0.053020194459040382 -0.010054696521615281 0 -0.010054696521615281 0.044006720319683001 0 0 0 0.024256728694680874 0.020563259656689654 -0.018504962469281169 0 -0.018504962469281169 0.052906653221400479 0 0 0 0.018367478219522525 -0.008374053062556841 -0.013536528799217032 0 -0.013536528799217032 0.050252475474760694 0 0 0 0.010469605603050977 -0.0093915184052277834 -0.017602175369687632 0 -0.017602175369687632 0.0062113390515299294 0 0 0 -0.0007950448384244635 0.045772886005457911 -0.01413539422165818 0 -0.01413539422165818 0.0020543271038764854 0 0 0 0.011956803277333602 0.0017979711782673546 0.041829585460179453 0 0.041829585460179453 0.011827942619163201 0 0 0 0.0034064784493577638 -0.042615109081196589 0.018842458652466754 0 0.018842458652466754 0.016350437521167827 0 0 0 -0.0065661678900071907 -0.029869797039235951 -0.006452933591730145 0 -0.006452933591730145 0.0064338467799298638 0 0 0 -0.0058589875648265843 0.041911306517237013 -0.029610436801276868 0 -0.029610436801276868 0.024870099151821368 0 0 0 0.016695351417264609 0.046628520240080074 -0.0080907372193435023 0 -0.0080907372193435023 0.03083228206244093 0 0 0 0.019365200575630293 0.081089521078967997 0.0042585918463448058 0 0.0042585918463448058 0.053788394810582729 0 0 0 0.033719478972387751 0.017084786499087248 -0.0083026562708380658 0 -0.0083026562708380658 0.031594170628142959 0 0 0 0.012169739281807548 0.014952809379427452 -0.0064455010325064968 0 -0.0064455010325064968 0.029765135630295897 0 0 0 0.011179486252430849 0.037929486740168133 0.018509150679279544 0 0.018509150679279544 0.062501929333822731 0 0 0 0.025107854018497713 0.03273106683609605 -0.012878095618840332 0 -0.012878095618840332 0.03407662000017489 0 0 0 0.016701921709067716 0.08023134465693027 0.0095248565010670472 0 0.0095248565010670472 0.042732090853277782 0 0 0 0.030740858877551958 -0.012744369568224556 -0.010444054489416765 0 -0.010444054489416765 -0.0022555510092638897 0 0 0 -0.0037499801443721115 0.026547337534796454 0.012290585439326478 0 0.012290585439326478 0.037506465832852387 0 0 0 0.016013450841912212 0.044036731355436856 0.0022791991959471569 0 0.0022791991959471569 0.0123215475954781 0 0 0 0.014089569737728801 0.018420197836501201 -0.0046314287409163768 0 -0.0046314287409163768 -0.0056166512866674401 0 0 0 0.003200886637458461 0.039083183953670282 0.016215614992606056 0 0.016215614992606056 0.02426568455175147 0 0 0 0.015837217126355427 0.031864226892405451 -0.005107318716763079 0 -0.005107318716763079 -0.0069880632012844224 0 0 0 0.0062190409227802536 -0.074952135401495423 -0.0053521599849297432 0 -0.0053521599849297432 0.0013508986962242897 0 0 0 -0.018400309176317797 0.01660666072186829 -0.013437056623152021 0 -0.013437056623152021 -0.010284790963626778 0 0 0 0.0015804674395603797 0.045260509391123235 0.006294787985913086 0 0.006294787985913086 -0.00053784485197528003 0 0 0 0.011180666134786991 0.026487881458234733 0.011214121565593548 0 0.011214121565593548 0.054492693186686092 0 0 0 0.02024514366123021 -0.12728922593737424 0.011612812587446668 0 0.011612812587446668 0.0021465771855591065 0 0 0 -0.0312856621879537 0.027101604734077633 0.0067463574466837192 0 0.0067463574466837192 0.0011022053271100112 0 0 0 0.0070509525152969094 0.044803754520983355 -0.0033171663793431852 0 -0.0033171663793431852 -0.0070991673227044829 0 0 0 0.009426146799569721 0.016224327732872794 -0.015029200250991637 0 -0.015029200250991637 0.007705884155510781 0 0 0 0.0059825529720958712 -0.032811415740122474 -0.014413989638212055 0 -0.014413989638212055 0.0019630055120607448 0 0 0 -0.0077121025570154877 0.028402500541469072 -0.013526781109060592 0 -0.013526781109060592 -0.010874927137567443 0 0 0 0.0043818933509754045 0.033775488186074405 0.004049644853015847 0 0.004049644853015847 0.00036438462973735486 0 0 0 0.0085349682039529366 0.042254841799882668 -0.0085697121626081008 0 -0.0085697121626081008 -0.0044845698278107478 0 0 0 0.0094425679930179758 0.015531388767202614 -0.015276363329221401 0 -0.015276363329221401 0.011517112739399149 0 0 0 0.0067621253766504408 0.028494282596618847 -0.0094625826401752433 0 -0.0094625826401752433 0.018051355017360771 0 0 0 0.011636409403494918 -0.018459600529215504 -0.030992323099850526 0 -0.030992323099850526 -0.0052994527257130761 0 0 0 -0.0059397633137321399 0.10140093989599719 0.0058143326138417883 0 0.0058143326138417883 0.084841138805541005 0 0 0 0.046560519675384437 -0.022982900051537386 -0.0061809330283111308 0 -0.0061809330283111308 -0.0021932289465080301 0 0 0 -0.0062940322495113332 0.039133395564745675 0.0031967883872208512 0 0.0031967883872208512 -0.0042149453713270588 0 0 0 0.0087296125483546528 0.042887871111741381 0.0043265965478015075 0 0.0043265965478015075 -0.0044276703753253748 0 0 0 0.0096150501841039959 -0.01537849000904945 0.016528640676419515 0 0.016528640676419515 0.0014835115638849317 0 0 0 -0.0034737446112909076 0.034776071376653617 -0.019261303902038701 0 -0.019261303902038701 0.028487616777468361 0 0 0 0.01581592203853055 0.039829704198336355 0.010955090382723244 0 0.010955090382723244 0.0075136062403053407 0 0 0 0.01183582760966042 0.035103706610315775 0.0097779550306453626 0 0.0097779550306453626 0.0068335051119702631 0 0 0 0.010484302930571504 0.037755974877183386 0.0055309704393756154 0 0.0055309704393756154 -0.0026999418198202793 0 0 0 0.0087640082643407804 -0.026000224130866816 0.009677629486015752 0 0.009677629486015752 2.4665806917151256e-05 0 0 0 -0.0064938895809874102 0.0057850182379067944 0.004916614372663549 0 0.004916614372663549 0.010896922402590797 0 0 0 0.0041704851601243979 0.019764455121425942 0.00092164556046182324 0 0.00092164556046182324 0.013102490633140479 0 0 0 0.0082167364386416045 -0.031337633638719914 0.011503355579353267 0 0.011503355579353267 -0.00037370184240467091 0 0 0 -0.0079278338702811479 0.10593142674635565 0.061173245695681278 0 0.061173245695681278 0.04573018293034295 0 0 0 0.037915402419174529 0.019622806984509022 0.023028208337390541 0 0.023028208337390541 0.0049794537481826495 0 0 0 0.0061505651831725849 0.0062451377004442143 -0.018085846110766871 0 -0.018085846110766871 0.0036936587858646952 0 0 0 0.0024846991215774494 0.02070352606364325 0.0074523402982869602 0 0.0074523402982869602 0.0074979503457647395 0 0 0 0.0070503691023519957 0.02960821592472616 0.0053328750015103994 0 0.0053328750015103994 0.0045565196754143045 0 0 0 0.0085411839000351184 0.065414180456991183 -0.0070516412486041008 0 -0.0070516412486041008 0.010189035809572103 0 0 0 0.018900804066640818 0.037904097191767794 0.0012952469679513579 0 0.0012952469679513579 0.006428357249694816 0 0 0 0.011083113610365625 0.022725852339075439 -0.008352931401300806 0 -0.008352931401300806 -0.0013358821065643234 0 0 0 0.0053474925581277893 0.030884354983292964 0.0085993976266335297 0 0.0085993976266335297 0.002694475227542216 0 0 0 0.0083947075527087949 -0.043820074416788923 -0.0081461504801366713 0 -0.0081461504801366713 0.001123022725194045 0 0 0 -0.010674262922898636 -0.037633325510866344 -0.01448364296321239 0 -0.01448364296321239 0.0032319538796061753 0 0 0 -0.0086003429078150284 0.03093450188302807 0.0018656882382947966 0 0.0018656882382947966 0.010304448138600644 0 0 0 0.010309737505407177 -0.050901203314133614 0.033193872011178516 0 0.033193872011178516 0.0052832611595012846 0 0 0 -0.011404485538658027 -0.068649350150847832 0.020388867804803978 0 0.020388867804803978 0.00063149261373562915 0 0 0 -0.017004464384278051 0.042077191453743834 -0.0060872449363085918 0 -0.0060872449363085918 0.02281069365366073 0 0 0 0.016221971276851099 0.070260511490247923 0.0030820525420770239 0 0.0030820525420770239 0.042372974955649845 0 0 0 0.028158371611474442 0.05310422702620099 -0.020748758320811578 0 -0.020748758320811578 0.0022140652294469487 0 0 0 0.013829573063911985 0.017985146645656175 -0.0082688991330230888 0 -0.0082688991330230888 -0.0025878079564441991 0 0 0 0.0038493346723028898 0.081789700719748837 0.031773292591921895 0 0.031773292591921895 0.074537501520437671 0 0 0 0.039081800560046641 0.034749184355248298 -0.010795261422297444 0 -0.010795261422297444 -0.0077078427610557301 0 0 0 0.0067603353985481347 0.023866927102704973 -0.018499363965668536 0 -0.018499363965668536 0.021243049981618106 0 0 0 0.011277494271080775 0.11111991512198116 0.022288311319974885 0 0.022288311319974885 0.016803110438506907 0 0 0 0.0319807563901221 0.021813689055965708 0.0058647674620070193 0 0.0058647674620070193 0.007619295065337324 0 0 0 0.0073582460303257546 0.020900155222608241 0.024318398580061018 0 0.024318398580061018 0.0083286674378246772 0 0 0 0.0073072056651082296 0.0058799210947146352 -0.018105963124870228 0 -0.018105963124870228 0.0025989108131523331 0 0 0 0.0021197079769667559 0.021199182471949362 0.0073600403223176864 0 0.0073600403223176864 0.0011395512730718177 0 0 0 0.0055846834362552958 0.0034634216681940291 -0.0079492030803459991 0 -0.0079492030803459991 0.043157576975963424 0 0 0 0.011655249661039355 0.072057478694211197 0.022110838881153949 0 0.022110838881153949 0.049100878807699644 0 0 0 0.030289589375477544 -0.012352676745737645 -0.011516369861502063 0 -0.011516369861502063 0.0016169561390608767 0 0 0 -0.0026839301516692893 -0.078273073536154189 0.0028049619809810164 0 0.0028049619809810164 0.0012786324284445941 0 0 0 -0.019248610276927397 -0.13775902055982428 -0.0077631869945752642 0 -0.0077631869945752642 0.0014825243072738026 0 0 0 -0.034069124063137585 0.03819004465790693 0.0037807494563135216 0 0.0037807494563135216 0.070699109780207436 0 0 0 0.027222288609528578 -0.01275283028106404 0.01309685344934856 0 0.01309685344934856 0.00078382177847635681 0 0 0 -0.0029922521256469208 0.088293789198050893 -0.016755616740643464 0 -0.016755616740643464 0.046370900643161538 0 0 0 0.033666172460303151 0.12298286737279418 -0.002178593980542598 0 -0.002178593980542598 0.069971874103802567 0 0 0 0.048238685369149104 0.18851944972069851 0.00056781943735145779 0 0.00056781943735145779 0.12830670689471435 0 0 0 0.079206539153853173 0.13513924419197099 0.021908646484735173 0 0.021908646484735173 0.096395721422975589 0 0 0 0.057883741403736644 0.032283272255578227 -0.010577486275984316 0 -0.010577486275984316 -0.0015328712969381875 0 0 0 0.0076876002396599474 0.055699281582528515 0.011292034144682578 0 0.011292034144682578 0.012998273271438876 0 0 0 0.017174388713491862 0.082331430960636443 0.0076758546982829134 0 0.0076758546982829134 0.082796744238776254 0 0 0 0.04128204379985323 0.038709280926478018 -0.011509591204409725 0 -0.011509591204409725 0.041350771153816468 0 0 0 0.020015013020073635 0.022799623510164041 0.0042060955029762231 0 0.0042060955029762231 0.035337898185839101 0 0 0 0.014534380424000765 0.055831689413636365 0.0042854521393096423 0 0.0042854521393096423 0.027673323161674368 0 0 0 0.020876253143827572 0.0031670516116304448 0.013162993054992855 0 0.013162993054992855 -0.0027105549142731888 0 0 0 0.00011412417433964706 0.0011300899459891767 -0.0094069613158954679 0 -0.0094069613158954679 -0.0025543075792171521 0 0 0 -0.00035605440830699386 0.032459692874119206 -0.0075749820614538221 0 -0.0075749820614538221 0.010530605312547792 0 0 0 0.010747574546666749 0.029664763224801133 0.0078900820453841891 0 0.0078900820453841891 0.0024426064791969251 0 0 0 0.0080268424259995266 0.088992026672914532 0.017048855714496991 0 0.017048855714496991 0.044424768727784614 0 0 0 0.033354198850174904 -0.0025662969781390377 -0.0095733962565858199 0 -0.0095733962565858199 0.00096599922010953687 0 0 0 -0.00040007443950729193 0.019611556710663853 0.00024678715008521731 0 0.00024678715008521731 0.055527768858448324 0 0 0 0.018784831392278049 -0.0032049902483735071 0.01362519476736801 0 0.01362519476736801 0.0018126800962479095 0 0 0 -0.00034807753803112185 0.053591700152597843 -0.016082681705752222 0 -0.016082681705752222 0.023429396611274633 0 0 0 0.019255274190968064 0.036704335219709977 -0.015515144376014312 0 -0.015515144376014312 0.01644338096915654 0 0 0 0.01328692904721665 0.016119341178427081 -0.01428147820363778 0 -0.01428147820363778 0.0074323357960227598 0 0 0 0.0058879192436124758 0.017678577793696262 -0.012646082653097995 0 -0.012646082653097995 0.011165739592887247 0 0 0 0.0072110793466458739 0.034632289697791488 -0.013661316554643898 0 -0.013661316554643898 -0.006333602675919571 0 0 0 0.0070746717554679827 0.035472039685332662 0.048561524040157678 0 0.048561524040157678 0.012931035372186761 0 0 0 0.01210076876437996 -0.05275901774967906 -0.004565080651837583 0 -0.004565080651837583 0.00071259276542889882 0 0 0 -0.013011606246062568 0.071659108027951376 -0.021387854661422574 0 -0.021387854661422574 0.022942215534133586 0 0 0 0.023650330890521244 0.040978559863097307 -0.014495207372743561 0 -0.014495207372743561 0.013465410819991835 0 0 0 0.013610992670772294 0.050400774850504385 0.015443134665764288 0 0.015443134665764288 0.012996822831355788 0 0 0 0.015849399420465055 0.020799347259026935 -0.0040020356081499758 0 -0.0040020356081499758 0.00046663582800887671 0 0 0 0.0053164957717589389 0.027648860054423074 -0.0012487030452083547 0 -0.0012487030452083547 0.00080670074330146946 0 0 0 0.0071138901994310944 -0.176173470588189 0.00051874004738271522 0 0.00051874004738271522 0.0049419316343982667 0 0 0 -0.042807884738447682 -0.09354131404906528 -2.1695028157176726e-05 0 -2.1695028157176726e-05 0.0020600443480366937 0 0 0 -0.022870317425257178 0.025022142476270607 -0.0077777290912170701 0 -0.0077777290912170701 0.0083384590922380222 0 0 0 0.0083401503921271582 0.012095483325593839 0.010293828260874825 0 0.010293828260874825 0.0040318987607053857 0 0 0 0.004031845521574806 0.057379455273973846 0.0017504515692013112 0 0.0017504515692013112 0.0011599862231427768 0 0 0 0.014634860374279163 0.043920242899479059 0.013960797136087284 0 0.013960797136087284 0.014592872858555924 0 0 0 0.014628278939508762 0.046833617734661416 0.0072319838821885418 0 0.0072319838821885418 0.0020476592038383961 0 0 0 0.012220319234624962 -0.038283521946031823 -0.01936809203251301 0 -0.01936809203251301 -0.0044603784274157218 0 0 0 -0.010685975093361886 -0.030697405820223907 0.010348087939326324 0 0.010348087939326324 -0.00048884320476446849 0 0 0 -0.0077965622562471016 0.10554920375816157 0.019958582429487781 0 0.019958582429487781 0.019123454678308782 0 0 0 0.031168164609117754 -0.022850601664504581 -0.018928546519408868 0 -0.018928546519408868 -0.0013447954945219123 0 0 0 -0.0060488492897566234 -0.022191624531378046 0.010783404397976357 0 0.010783404397976357 0.00064055971651619942 0 0 0 -0.0053877662037154651 0.019757696084468424 -0.011209155670348962 0 -0.011209155670348962 0.0064206406048177289 0 0 0 0.0065445841723216214 0.0938517022802553 0.066466279395311301 0 0.066466279395311301 0.043538510551076159 0 0 0 0.034347553207832893 0.053510504270569213 0.0046033347444790441 0 0.0046033347444790441 -0.0015761943232349071 0 0 0 0.012983577486833573 0.039750095025028992 0.0018295260705050442 0 0.0018295260705050442 0.014068979028721396 0 0 0 0.013454768513437548 0.0037060454328933677 -0.013992690930845389 0 -0.013992690930845389 0.0012366071751182144 0 0 0 0.0012356631520028952 -0.0044051835956681086 0.011432221134060287 0 0.011432221134060287 -0.001466025147451411 0 0 0 -0.0014678021857798798 -0.063293641975223594 0.0045052253395658094 0 0.0045052253395658094 -0.00049360138095617609 0 0 0 -0.01594681083904494 -0.10009199118159416 -0.0095066414617945762 0 -0.0095066414617945762 -0.000963909065188083 0 0 0 -0.025263975061695559 -0.02238132790443513 -0.0013483492184466206 0 -0.0013483492184466206 0.017224035226672207 0 0 0 -0.0012893231694407342 0.057590315745611936 -0.01067990159750476 0 -0.01067990159750476 0.021141755417162011 0 0 0 0.019683017790693563 0.0085998921679066379 -0.0045608306931390549 0 -0.0045608306931390549 0.040634048964504149 0 0 0 0.012308485283102695 0.035581043821574586 0.013560678973015907 0 0.013560678973015907 0.023244649637279079 0 0 0 0.014706423364713417 0.027094997601587328 0.0095816574391784787 0 0.0095816574391784787 0.026368430954231494 0 0 0 0.013365857138954728 0.063320080261069167 0.012957561367438759 0 0.012957561367438759 0.018485862562036028 0 0 0 0.020451485705776293 0.074181733859404478 0.0089108592979415258 0 0.0089108592979415258 0.010202268377469445 0 0 0 0.021096000559218481 0.032022921918355207 0.0045913374308288457 0 0.0045913374308288457 -0.0074652280949204508 0 0 0 0.0061394234558586613 0.0039880969227549506 -0.011803488090431941 0 -0.011803488090431941 0.021022594600090101 0 0 0 0.0062526728807112391 0.0016775374001295057 -0.018414414037913454 0 -0.018414414037913454 0.04654696967971049 0 0 0 0.012056126769959992 0.0362169640067177 -0.034271120377120753 0 -0.034271120377120753 0.076186837377877195 0 0 0 0.028100950346148724 -0.055262907386141279 0.0046059856812673081 0 0.0046059856812673081 -0.00020539341743939371 0 0 0 -0.013867075200895173 -0.082743087657422706 -0.0085897204125235105 0 -0.0085897204125235105 -0.00072400001764545696 0 0 0 -0.020866771918767041 0.014025893331491813 0.0010206311758197972 0 0.0010206311758197972 -0.070831116263007407 0 0 0 -0.014201305732878899 0.045245692263361406 -0.030989980401056161 0 -0.030989980401056161 0.053808219518440781 0 0 0 0.024763477945450529 0.042926779304518339 0.0080404846225474204 0 0.0080404846225474204 0.00095325559802345201 0 0 0 0.010970008725635444 -0.020086989317451089 -0.019687373854834246 0 -0.019687373854834246 -0.0041994567137555311 0 0 0 -0.0060716115078016525 -0.019570584467147351 0.012206493765319003 0 0.012206493765319003 -0.0004966312433475617 0 0 0 -0.0050168039276237246 0.01756125336180446 0.0077650110864057632 0 0.0077650110864057632 0.0016129411559282075 0 0 0 0.004793548629433167 0.012077025926193214 -0.0018079886587421129 0 -0.0018079886587421129 0.044208606854554799 0 0 0 0.014071408195187003 0.04984284867741362 0.0031287619448208681 0 0.0031287619448208681 0.026676683706867821 0 0 0 0.019129883096070388 0.014965030203864426 0.01000432685098258 0 0.01000432685098258 0.0022476374910484036 0 0 0 0.0043031669237282057 -0.046930925525658584 0.010454088879667145 0 0.010454088879667145 0.0023133436707860611 0 0 0 -0.011154395463718436 0.044323050757933691 -0.014378387597263731 0 -0.014378387597263731 0.037018578001523972 0 0 0 0.020335407189864541 0.045636551895120336 -0.012226256400325486 0 -0.012226256400325486 0.030896952143827705 0 0 0 0.01913337600973708 0.025476789190499588 -0.01572263382961548 0 -0.01572263382961548 0.032339685060855577 0 0 0 0.014454118562838791 0.012647897930506358 -0.012224313003710796 0 -0.012224313003710796 0.023949038139506607 0 0 0 0.0091492340175032549 0.021413146329960386 0.0037159005365535683 0 0.0037159005365535683 0.018834610263433839 0 0 0 0.010061939148348563 0.014712460887697117 -0.0019606577281917358 0 -0.0019606577281917358 0.042279078681772123 0 0 0 0.014247884892367321 0.1370475605767838 0.016266915685570371 0 0.016266915685570371 0.10944075961133493 0 0 0 0.061622080047029515 0.00038316373600733034 -0.0026691500113538158 0 -0.0026691500113538158 0.0019013809131736004 0 0 0 0.00057113616229520492 0.085915445730501916 -0.014471442367337328 0 -0.014471442367337328 0.060389111036305732 0 0 0 0.036576139191701995 0.0007472736755108067 0.0041458121892326005 0 0.0041458121892326005 0.0028360262824795868 0 0 0 0.00089582498949797307 0.024236287673360491 0.0059897922152342045 0 0.0059897922152342045 0.020163411161059207 0 0 0 0.011099924708604911 0.021331963528909842 0.0036783092677952212 0 0.0036783092677952212 0.014060321643184194 0 0 0 0.008848071293023509 0.019018062760914427 -0.0030790722110206059 0 -0.0030790722110206059 0.018480129622918329 0 0 0 0.0093745480959581927 -0.071129017009822451 -0.01595772057023705 0 -0.01595772057023705 0.00088962712820916598 0 0 0 -0.017559847470403317 -0.089083492301275838 -0.022121928844016071 0 -0.022121928844016071 0.0015038083241899203 0 0 0 -0.021894920994271479 0.030068547293713183 -0.025443171689796221 0 -0.025443171689796221 -0.0032746733878080692 0 0 0 0.0066984684764762872 0.0048425149855020437 0.0051846299652356723 0 0.0051846299652356723 0.0056183045895995681 0 0 0 0.0026152048937754021 0.034041556214808304 -0.021713741341420761 0 -0.021713741341420761 0.042009375853927292 0 0 0 0.01901273301718389 -0.017162218283361234 0.012466602861845241 0 0.012466602861845241 -0.00074943172373236923 0 0 0 -0.0044779125017734012 -0.0086508922498747427 0.01151020853350369 0 0.01151020853350369 -0.0013192360548945625 0 0 0 -0.0024925320761923289 0.00018481051795377068 -0.017803954975328121 0 -0.017803954975328121 -0.0060229421636870117 0 0 0 -0.0014595329114333172 -0.014740173072653493 -0.020395994772283644 0 -0.020395994772283644 -0.0074740499519469067 0 0 0 -0.0055535557561500991 -0.037248570252506386 -0.012193839767277309 0 -0.012193839767277309 0.0010335097537335081 0 0 0 -0.0090537651246931361 -0.020295564384655407 -0.013928076825843801 0 -0.013928076825843801 0.0020596884231212087 0 0 0 -0.0045589689903836605 0.024523596432253103 -0.00844308643817809 0 -0.00844308643817809 -0.0013801901861056789 0 0 0 0.0057858515615368559 0.023863955501679829 -0.0085465142600972301 0 -0.0085465142600972301 -0.0055957382050162369 0 0 0 0.0045670543241658999 0.011549930258758886 0.011454555228315478 0 0.011454555228315478 0.00030499923708627447 0 0 0 0.0029637323739612857 0.0094602954939732899 0.0097531954722988173 0 0.0097531954722988173 0.00058839899581465682 0 0 0 0.0025121736224469867 0.03748168135616381 0.023825398109386331 0 0.023825398109386331 0.0094036009096600814 0 0 0 0.011721320566455917 -0.0053348424087696911 -0.017560682836630259 0 -0.017560682836630259 0.0021691224667734765 0 0 0 -0.00079142998549908139 -0.0017812755751568411 0.0095371772867637976 0 0.0095371772867637976 -5.0092578699659218e-05 0 0 0 -0.00045784203846412422 0.017829093690453376 -0.014581947667354957 0 -0.014581947667354957 -0.0073529202246154501 0 0 0 0.0026190433664594788 0.01574185781620735 0.0015095957462270861 0 0.0015095957462270861 0.0085099917342488854 0 0 0 0.0060629623876140605 -0.011656125640146772 0.010333318127835927 0 0.010333318127835927 0.00044040960262688861 0 0 0 -0.0028039290093799692 -0.0021307208287877563 -0.018504736174970487 0 -0.018504736174970487 -0.003965471246436222 0 0 0 -0.0015240480188059985 -0.014005324579725538 -0.0074077111935055215 0 -0.0074077111935055215 0.073611823683498445 0 0 0 0.014901624775943222 0.018637601558907202 0.0026409065700379788 0 0.0026409065700379788 0.010789790435333067 0 0 0 0.0073568479985600685 -0.0083822533027504594 -0.014933103500783204 0 -0.014933103500783204 -0.0028012796679223401 0 0 0 -0.0027958832426682005 -0.012027378892682187 0.010938928885484088 0 0.010938928885484088 -0.0040130580049793745 0 0 0 -0.0040101092244153903 0.076568142958460567 0.0044879825575108731 0 0.0044879825575108731 0.021411417278562273 0 0 0 0.02449489005925571 0.010528267358200671 -0.0009761035397239104 0 -0.0009761035397239104 -0.04374093562981618 0 0 0 -0.0083031670679039049 -0.0058263435842319886 0.0082109517362915704 0 0.0082109517362915704 0.0066205737576149094 0 0 0 0.00019855754334573324 0.052507566775409298 -0.017586991858050127 0 -0.017586991858050127 0.01259959554607859 0 0 0 0.016276790580371958 0.024193407002848298 0.0063612257039368184 0 0.0063612257039368184 0.020759752172243649 0 0 0 0.011238289793772982 0.015933819817871113 -0.0024954268203564406 0 -0.0024954268203564406 0.022224184203883342 0 0 0 0.0095395010054386137 -0.047098989015933006 -0.013781209576648509 0 -0.013781209576648509 -0.0013098035264841965 0 0 0 -0.012102198135604302 -0.034979094084889133 0.0079086400553986282 0 0.0079086400553986282 -0.0004764716522414926 0 0 0 -0.0088638914342826537 0.036235833800190069 -0.0078121791291418698 0 -0.0078121791291418698 0.025319365881363839 0 0 0 0.015388799920388468 0.029421687999014456 0.0093840402197766827 0 0.0093840402197766827 0.013929313803870341 0 0 0 0.010837750450721205 0.013844402538345488 0.0027197183102434181 0 0.0027197183102434181 0.0069143486322767083 0 0 0 0.0051896877926555455 -0.037230016420525577 0.0049209700501197228 0 0.0049209700501197228 0.0030738230208234574 0 0 0 -0.00853904834992553 -0.064819019073909301 0.010708343384083108 0 0.010708343384083108 0.0025060193959072219 0 0 0 -0.01557824991950052 0.0039764576070572544 0.0047376997175265362 0 0.0047376997175265362 0.017909521675066042 0 0 0 0.0054714948205308242 0.019190072749770859 -0.010240711259164689 0 -0.010240711259164689 0.01439019811128972 0 0 0 0.0083950677152651448 0.0059279270290315215 0.0058796223036891027 0 0.0058796223036891027 0.006382133427515424 0 0 0 0.0030775151141367325 0.029878704496866831 0.0097986741109866958 0 0.0097986741109866958 0.01693045074099566 0 0 0 0.011702288809465625 0.0087955953541497475 -0.01544305015224165 0 -0.01544305015224165 0.011390667884671773 0 0 0 0.005046565809705382 0.099644326120567103 0.0074465292387286969 0 0.0074465292387286969 0.061430356249060791 0 0 0 0.040268670592406977 0.0019948086444389265 0.010133790739287269 0 0.010133790739287269 0.0023628674889192769 0 0 0 0.0010894190333395511 -0.06161968503660975 0.009976484065978064 0 0.009976484065978064 0.00040638611498522437 0 0 0 -0.015303324730406187 0.060413409361046 -0.012128884721333666 0 -0.012128884721333666 0.041670652477485914 0 0 0 0.025521015459632979 0.060541428147919518 -0.0092244501368423659 0 -0.0092244501368423659 0.027716246516580001 0 0 0 0.022064418666124852 -0.041493406161464283 -0.027803924796511947 0 -0.027803924796511947 0.021763743846754568 0 0 0 -0.0049324155786774218 0.068635042574548916 -0.010974707206684697 0 -0.010974707206684697 -0.010976516596275271 0 0 0 0.014414631494568453 -0.060012489774588923 0.0079537207881959227 0 0.0079537207881959227 0.0017909281390828813 0 0 0 -0.014555390408876503 -0.1029806598001972 -0.020892863903813716 0 -0.020892863903813716 0.0044201772347190384 0 0 0 -0.024640120641369577 -0.0596963243169445 0.0024243349701059541 0 0.0024243349701059541 -0.00067620130258280731 0 0 0 -0.015093131404881839 -0.10507528360552047 -0.0075370295877771817 0 -0.0075370295877771817 0.00037688127249224657 0 0 0 -0.02617460058325706 -0.02903368159854245 0.0079482736226829248 0 0.0079482736226829248 -0.0020135283022006314 0 0 0 -0.00776180247518577 -0.035794770171028951 -0.013006730854464263 0 -0.013006730854464263 -0.0022204223575580037 0 0 0 -0.0095037981321467388 0.014630142156784241 -0.0048079973527016782 0 -0.0048079973527016782 0.028832599851453512 0 0 0 0.010865685502059439 0.016530979799390024 -0.011719109415299609 0 -0.011719109415299609 0.037476046124632102 0 0 0 0.013501756481005534 0.042800385411947084 -0.0071018936521977383 0 -0.0071018936521977383 0.046854045349379758 0 0 0 0.022413607690331738 0.084067245015269604 0.0035287826674946232 0 0.0035287826674946232 0.092232871002967065 0 0 0 0.044075029004559146 0.055409128752343509 0.0045991280765986381 0 0.0045991280765986381 0.026231034798674724 0 0 0 0.020410040887754596 0.070602899345260289 0.0043521140168802375 0 0.0043521140168802375 0.077813987521444694 0 0 0 0.037104221716676183 0.027716214835273117 -0.0097742435223650559 0 -0.0097742435223650559 0.038934938567188604 0 0 0 0.016662788350615493 0.0089745927473229396 0.0071114072828873647 0 0.0071114072828873647 0.007334191343470668 0 0 0 0.0040771960226984021 0.024800130440961153 -0.0099733178227837341 0 -0.0099733178227837341 0.030821846714440937 0 0 0 0.013905494288850524 0.013960293784230526 -0.011931640816277926 0 -0.011931640816277926 0.026861838731012583 0 0 0 0.01020553312881077 0.021671552202414492 0.0040429354293829217 0 0.0040429354293829217 0.036833452071501391 0 0 0 0.014626251068478974 -0.10758909808878991 0.0092737686109794267 0 0.0092737686109794267 6.390133919431662e-05 0 0 0 -0.026881299187398788 0.013036813890127986 -0.0011239794310293309 0 -0.0011239794310293309 0.040728883162389533 0 0 0 0.01344142426312938 0.062839469664069003 -0.01944295622836148 0 -0.01944295622836148 0.10428690466514895 0 0 0 0.041781593582304488 0.10479546166219636 -0.02145936695473917 0 -0.02145936695473917 0.05230475868063561 0 0 0 0.039275055085707986 0.065836725339479985 -0.0092761346246773568 0 -0.0092761346246773568 0.022123396061308087 0 0 0 0.021990030350197032 -0.120402732544947 -0.01581237876619665 0 -0.01581237876619665 0.0046945173339227875 0 0 0 -0.028927053802756023 -0.067710699097748087 0.0066128592184995991 0 0.0066128592184995991 0.0018443465786612372 0 0 0 -0.01646658812977168 0.010653066746346324 -0.0011571174496800745 0 -0.0011571174496800745 0.04305178877570856 0 0 0 0.013426213880513727 -0.041075745130596863 0.022236492881573255 0 0.022236492881573255 -0.0020192289865335056 0 0 0 -0.010773743529282509 -0.029207480306689959 0.026887377942326984 0 0.026887377942326984 0.0019368592881017221 0 0 0 -0.0068176552546469482 0.027543475344713242 -0.020782405737100607 0 -0.020782405737100607 0.014632594841980984 0 0 0 0.010544017546673556 0.030768531314632294 -0.016075915750911385 0 -0.016075915750911385 0.015707613498622833 0 0 0 0.011619036203313823 0.063129878521257898 -0.013796669057837607 0 -0.013796669057837607 0.049291191322295758 0 0 0 0.028105267460888317 -0.040047588068404361 0.0095499626460425011 0 0.0095499626460425011 0.0021274561590338692 0 0 0 -0.0094800329773430114 -0.00096924493167933196 0.011017129696939108 0 0.011017129696939108 0.00066767701119226086 0 0 0 -7.5391980121769508e-05 0.012982753334219031 -0.012694287093762344 0 -0.012694287093762344 -0.0052345583160209735 0 0 0 0.0019370487545495134 0.01404620148962419 -0.022757942062468395 0 -0.022757942062468395 0.0069686509457183576 0 0 0 0.0052537131088356906 0.013735793230139959 -0.017984521448792923 0 -0.017984521448792923 0.0073334524072636853 0 0 0 0.0052673114093508833 0.0027974950315302338 -0.017553923522042214 0 -0.017553923522042214 0.0048741071247898893 0 0 0 0.001917900539080003 0.0022013941797291992 -0.023384748226704083 0 -0.023384748226704083 0.0040443209630427468 0 0 0 0.0015614287856929865 -0.011593309960537701 0.035241019532604279 0 0.035241019532604279 -0.0045232989808940416 0 0 0 -0.0040291522353579912 0.01494837813339929 0.024736820511929825 0 0.024736820511929825 0.0052460929869457672 0 0 0 0.0050486177800862092 -0.0085180219133764428 0.013626679085772496 0 0.013626679085772496 -0.0015521466349974963 0 0 0 -0.002517542137093487 -0.0045061844516337234 -0.018511782169668242 0 -0.018511782169668242 -0.00396586169932895 0 0 0 -0.0021180115377406692 -0.059466730747119514 -0.0059370611313826205 0 -0.0059370611313826205 0.0053473923958773928 0 0 0 -0.013529834587810555 -0.10411534985665688 0.014849935217748772 0 0.014849935217748772 0.0077589808141778072 0 0 0 -0.024089092260619754 -0.030212748535364011 0.011564711630000207 0 0.011564711630000207 0.0017751270402579719 0 0 0 -0.0071094053737765072 0.029342978741763955 0.0095364713629156241 0 0.0095364713629156241 0.0084424385736302093 0 0 0 0.0094463543288485548 0.022819872432998101 0.00081595254399047246 0 0.00081595254399047246 -0.010034561121367247 0 0 0 0.0031963278279077412 -0.04858673912245931 -0.021040328488337867 0 -0.021040328488337867 0.0017050995204940037 0 0 0 -0.011720409900491315 -0.083386490950356398 -0.018117737049136017 0 -0.018117737049136017 -0.0032738395609360899 0 0 0 -0.021665082627823143 0.037428852348497826 -0.0019137603980089856 0 -0.0019137603980089856 -0.0051695891012458282 0 0 0 0.0080648158118129965 0.050578365128317107 0.0079742419444622792 0 0.0079742419444622792 0.052426871623523941 0 0 0 0.025751309187960272 -0.071248700294260156 -0.00016091765194622965 0 -0.00016091765194622965 -0.00061492205504640185 0 0 0 -0.017965905587326633 -0.13097231010748683 -0.00072014431902509002 0 -0.00072014431902509002 -0.001353313906482384 0 0 0 -0.03308140600349229 -0.001074898177301456 -0.0021660582019806945 0 -0.0021660582019806945 0.0073102832075990637 0 0 0 0.0015588462575744089 -0.022523960541995007 -0.023268522248372326 0 -0.023268522248372326 -0.0064811902385388739 0 0 0 -0.0072512876951334702 -0.0029261616276919887 -0.021524917147664802 0 -0.021524917147664802 -0.0048353808722443326 0 0 0 -0.0019403856249840777 0.056831894571851338 0.056459659124942947 0 0.056459659124942947 0.12479721608206906 0 0 0 0.045407277663480128 -0.071795413413972761 -0.0075820249479302167 0 -0.0075820249479302167 8.6159572451414979e-05 0 0 0 -0.017927313460380331 -0.046919490601324526 0.0038873148159053877 0 0.0038873148159053877 0.00049587654401630002 0 0 0 -0.011605903514327047 0.024207703695574762 -0.0084724444789958248 0 -0.0084724444789958248 0.0016453566799649044 0 0 0 0.0064632650938849512 0.018293964583705608 -0.010430154529548499 0 -0.010430154529548499 0.0012170736418405381 0 0 0 0.0048777595563865295 0.027979736247541766 0.0092639362374048254 0 0.0092639362374048254 0.028819717560572118 0 0 0 0.01419986345202846 0.031378498458396027 -0.015583796306448339 0 -0.015583796306448339 0.00010638589619830011 0 0 0 0.0078712210886485844 0.043714583819923873 0.011420358150882937 0 0.011420358150882937 0.0047904848406284777 0 0 0 0.012126267165138089 0.051218799059598641 0.0078116481683605798 0 0.0078116481683605798 0.11495782161772139 0 0 0 0.041544155169330077 -0.030607575520470123 0.011130990613694994 0 0.011130990613694994 0.0022710983686920474 0 0 0 -0.0070841192879445309 0.014899209037083576 0.0047263988832007553 0 0.0047263988832007553 0.0067910003581730174 0 0 0 0.0054225523488141483 0.13403040388055898 0.0093913063696390905 0 0.0093913063696390905 0.044706247242454644 0 0 0 0.044684162780753378 -0.05176019557723311 -0.004479192537513943 0 -0.004479192537513943 -0.00072734254989883021 0 0 0 -0.013121884531782984 -0.16257423529149406 -0.0025647078264768586 0 -0.0025647078264768586 -0.00083601499354324371 0 0 0 -0.040852562571259313 -0.087879339306630416 0.00029097814493502124 0 0.00029097814493502124 -0.00076846616374348642 0 0 0 -0.022161951367593476 0.017357539990148413 0.0021138702706522978 0 0.0021138702706522978 0.047388742403183415 0 0 0 0.01618657059833295 -0.024130082948663693 -0.018969757435262833 0 -0.018969757435262833 -0.0025251658097939222 0 0 0 -0.0066638121896144022 -0.038495733074809385 -0.023761112247448833 0 -0.023761112247448833 -0.0011454625531267804 0 0 0 -0.0099102989069840344 0.080582343228316047 0.017234375039278601 0 0.017234375039278601 0.022233673438490156 0 0 0 0.025704004166701541 -0.03274119352262439 -0.0074291154707972623 0 -0.0074291154707972623 -0.0019104025364278243 0 0 0 -0.0086628990147629148 0.016022238253214839 -0.01381239837623674 0 -0.01381239837623674 0.012631461268077737 0 0 0 0.0071634248803231562 0.12098356103414831 0.012355279013347023 0 0.012355279013347023 0.093989984653388703 0 0 0 0.053743386421884143 -0.026837508785330977 -0.0054323774697739398 0 -0.0054323774697739398 0.0023662649941584846 0 0 0 -0.0061178109477930676 0.011274652134127323 -0.031292345520328488 0 -0.031292345520328488 0.022929066221697103 0 0 0 0.0085509295889561118 0.01781149785165842 -0.0010251799750773602 0 -0.0010251799750773602 0.031615206901927151 0 0 0 0.012356676188396393 0.0017559559369421524 0.0037406129369768233 0 0.0037406129369768233 0.010719224221410542 0 0 0 0.0031187950395881667 -0.037707731829631719 0.007704999263092871 0 0.007704999263092871 0.00044635683628380107 0 0 0 -0.0093153437483370904 0.049318489153312051 -0.013471441313860466 0 -0.013471441313860466 0.047177069675525596 0 0 0 0.024123889707209356 0.0043811908978295018 0.0092887669783884609 0 0.0092887669783884609 0.00042715506564493244 0 0 0 0.0012020864908686112 0.062053879914375984 -0.0093040754378737045 0 -0.0093040754378737045 0.032887722451448539 0 0 0 0.023735400591456131 -0.045434089154937705 0.0074321903506581084 0 0.0074321903506581084 -0.00014998750018148377 0 0 0 -0.011396019163779809 -0.011363064326384981 -0.014010017963543914 0 -0.014010017963543914 0.020869908640646084 0 0 0 0.002376711078565269 -0.023866466194004152 0.01268569326997325 0 0.01268569326997325 -0.00036570952062833784 0 0 0 -0.0060580439286581217 -0.065657210190512461 -0.0074687233014760768 0 -0.0074687233014760768 0.0011893587113216419 0 0 0 -0.016116962869797691 -0.051403744356525886 0.0065570108305990837 0 0.0065570108305990837 -0.00056430795278422999 0 0 0 -0.01299201307732752 -0.036858380199349533 0.0081694402905031112 0 0.0081694402905031112 0.00092539828527574142 0 0 0 -0.0089832454785184462 -0.044631678629974081 0.03250145872179333 0 0.03250145872179333 0.001165931260129538 0 0 0 -0.010866436842461247 0.011001352738597448 -0.011896713425473016 0 -0.011896713425473016 -0.0015186975384043205 0 0 0 0.0023706638000482814 0.0043099244486575622 -0.01771415057315176 0 -0.01771415057315176 -0.0061462181727368753 0 0 0 -0.00045907343101982481 -0.0041037432361637396 0.013246631531142385 0 0.013246631531142385 -0.0012628571003075392 0 0 0 -0.0013416500841178214 -0.00071900640411157093 0.010150778584909308 0 0.010150778584909308 5.235411267664157e-05 0 0 0 -0.00016666307285873299 0.014937286661485392 -8.8573739548035435e-05 0 -8.8573739548035435e-05 0.014490252970253296 0 0 0 0.0073568849079346729 0.035661418418885191 -0.021884139749414486 0 -0.021884139749414486 0.042632994192957366 0 0 0 0.019573603152960622 0.022221393330597007 -0.013329677255761875 0 -0.013329677255761875 0.018713253659623199 0 0 0 0.010233661747555044 0.0065230646451449881 -0.011749650812024615 0 -0.011749650812024615 0.029802822665092488 0 0 0 0.009081471827559362 0.020662935294794391 -0.010521935036913385 0 -0.010521935036913385 0.01870640495763165 0 0 0 0.0098423350631065276 0.058470768004014517 0.0058626321392601551 0 0.0058626321392601551 0.039630660305250087 0 0 0 0.024525357077316096 0.024480953737986449 -0.012084048499745675 0 -0.012084048499745675 0.022367583147162584 0 0 0 0.011712134221287251 -0.092704774874572488 0.0032400559021624818 0 0.0032400559021624818 0.00044162991824947539 0 0 0 -0.023065786239080774 -0.17642954491950738 -0.0071866357213292579 0 -0.0071866357213292579 0.0032454298974455842 0 0 0 -0.043296028755515442 0.054480089213033836 -0.0052326857504401691 0 -0.0052326857504401691 0.018994386946399766 0 0 0 0.018368619039858411 0.068756999133886387 0.0076684274940946873 0 0.0076684274940946873 0.047620037430806672 0 0 0 0.029094259141173251 -0.02458501406089536 0.010223400872984199 0 0.010223400872984199 0.0070881870366095445 0 0 0 -0.004374206756071454 0.026116295928771793 0.0064003816912691757 0 0.0064003816912691757 0.0042793842772745755 0 0 0 0.0075989200515115922 0.020509289728048011 -0.016742947767820603 0 -0.016742947767820603 -0.0072614925099715871 0 0 0 0.0033119493045191128 0.031911744624555233 -0.0089636260651531248 0 -0.0089636260651531248 -0.011036173466287625 0 0 0 0.0052188927895669007 0.04652882080395733 -0.034324741563207521 0 -0.034324741563207521 0.074780815780302573 0 0 0 0.030327409146064976 -0.039822945433605213 0.0077384434738714449 0 0.0077384434738714449 -0.00051810979833679521 0 0 0 -0.010085263807985514 -0.031041067904982678 0.0081867364973062171 0 0.0081867364973062171 0.000495758040903925 0 0 0 -0.0076363274660196873 -0.03895601126263145 -0.014233542158107999 0 -0.014233542158107999 0.00055209381669516638 0 0 0 -0.0096009793614840657 -0.056368942112860865 -0.014378671451742396 0 -0.014378671451742396 -0.0025065824220911331 0 0 0 -0.014718881133737993 -0.08896087413542475 -0.004321114631090384 0 -0.004321114631090384 0.0015082801828836256 0 0 0 -0.021863148488135309 0.04142862363977784 0.051855478712798775 0 0.051855478712798775 0.075385383892826452 0 0 0 0.029203501883151017 0.050594442666895473 -0.010518560151131728 0 -0.010518560151131728 0.026925998610205948 0 0 0 0.019380110319275307 0.019353828774108996 0.0011436240545360521 0 0.0011436240545360521 -0.0051043138448344568 0 0 0 0.0035623787323186629 -0.0024040779768720599 0.011493482591895837 0 0.011493482591895837 0.00059896610075554912 0 0 0 -0.0004512779690291277 0.012343884279986089 0.00042531726770522532 0 0.00042531726770522532 0.034556517116713918 0 0 0 0.011725100349175004 -0.03034893229610652 0.0087774730336119683 0 0.0087774730336119683 -0.00034967856989297913 0 0 0 -0.0076746527164998895 0.081839701010037125 0.023449448056281463 0 0.023449448056281463 0.020969560481761684 0 0 0 0.025702315372949758 0.019552865302817617 0.0099849731192783522 0 0.0099849731192783522 0.0035944487318017165 0 0 0 0.0057868285086548335 0.025338934699791951 -0.010962966024756993 0 -0.010962966024756993 0.0036461556508725276 0 0 0 0.0072462725876661603 0.090169675368749702 -0.048220476919457224 0 -0.048220476919457224 0.059189035749664873 0 0 0 0.037339677779603647 -0.15941939274329198 0.011051215209409604 0 0.011051215209409604 0.0024572546784078497 0 0 0 -0.039240534516220893 0.032956747815975185 0.0027280234180547267 0 0.0027280234180547267 0.0015940048558300028 0 0 0 0.0086376881679512997 -0.0099964806794482913 0.01059037757056281 0 0.01059037757056281 -0.00096017398812412239 0 0 0 -0.0027391636668931043 -0.0038490121215722043 -0.014309087681821816 0 -0.014309087681821816 -0.0022864221181672015 0 0 0 -0.0015338585599348493 0.035180023764863233 0.011192080906335458 0 0.011192080906335458 0.01187795684791524 0 0 0 0.011764495153194613 -0.059213366703387615 0.0072741548907613029 0 0.0072741548907613029 0.0019649732540775733 0 0 0 -0.014312098362327511 -0.10196238377384328 -0.017051653131352901 0 -0.017051653131352901 0.0064380493330394722 0 0 0 -0.023881083610200939 0.080926037096743286 0.014062385766891672 0 0.014062385766891672 0.049168539334529804 0 0 0 0.032523644107818495 -0.030419658464265753 -0.0085767061121163057 0 -0.0085767061121163057 -0.0018110811702718443 0 0 0 -0.0080576849086343438 0.053609849265356904 0.0043294423024689555 0 0.0043294423024689555 0.045127767338257962 0 0 0 0.024684404150903796 0.042481771863212052 -0.025864074188376961 0 -0.025864074188376961 0.0079455888264171326 0 0 0 0.012606840172407305 0.045623040248496782 0.0045382974996044101 0 0.0045382974996044101 0.018872455811325461 0 0 0 0.016123874014955575 0.026738823826669159 0.0086258241626670819 0 0.0086258241626670819 0.006881745651562382 0 0 0 0.0084051423695578817 0.032074393462773208 -0.00076625859020335691 0 -0.00076625859020335691 0.0001950145382333473 0 0 0 0.0080673520002516371 0.0054583472187392512 0.0095265082083503608 0 0.0095265082083503608 0.0036931598588807041 0 0 0 0.0022878767694049923 0.032148859743850483 -0.012907483819950088 0 -0.012907483819950088 0.093570639931566724 0 0 0 0.031429874918854295 0.031234129401659608 -0.012894002046212235 0 -0.012894002046212235 0.08683782329026056 0 0 0 0.029517988172980042 -0.01542122477459984 -0.015365900262168553 0 -0.015365900262168553 0.0010307996467069369 0 0 0 -0.0035976062819732535 -0.020195394416611445 -0.0164262219480244 0 -0.0164262219480244 0.0010948727090553945 0 0 0 -0.0047751304268889294 0.051932136801993822 0.023588030706543694 0 0.023588030706543694 0.023709563039550741 0 0 0 0.018910424960386196 0.062313142772081109 0.025651217876070054 0 0.025651217876070054 0.02465340386164705 0 0 0 0.021741636658431984 0.051852862916623721 0.029041560124564242 0 0.029041560124564242 0.01085269333992489 0 0 0 0.015676389064137153 0.083264398487491009 0.025084374754274386 0 0.025084374754274386 0.01672737734201668 0 0 0 0.024997943957377089 0.026696512102262319 0.0060990028750102752 0 0.0060990028750102752 0.0088977137205891906 0 0 0 0.0088985564557128756 0.060009366341808715 0.0036532765656937527 0 0.0036532765656937527 0.060061487912250078 0 0 0 0.030017713563514695 0.050869978208248845 0.0061555672092167002 0 0.0061555672092167002 0.033811041320455315 0 0 0 0.021170254882175998 -0.054618280503290928 -0.0076065804844237528 0 -0.0076065804844237528 0.0013684728353304809 0 0 0 -0.013312451916990209 -0.061794666397141998 -0.0025030797010271444 0 -0.0025030797010271444 0.00034200638104864289 0 0 0 -0.015363165004023308 -0.10442411031270427 0.0071869439392190371 0 0.0071869439392190371 0.00026766205423656153 0 0 0 -0.026039112064616954 0.052945723582065833 0.019371708203635925 0 0.019371708203635925 0.022638236902768297 0 0 0 0.018895990121208541 0.054780046784653716 0.020263990183152149 0 0.020263990183152149 0.027012859585571619 0 0 0 0.020448226592556316 0.032730074117080912 0.0069914832634061621 0 0.0069914832634061621 0.00012823522150378491 0 0 0 0.0082145773346461795 0.024959941933305287 0.007750339944672109 0 0.007750339944672109 0.0024385505265071654 0 0 0 0.0068496231149531104 -0.076243756449139263 -0.015013117059563614 0 -0.015013117059563614 -0.0048227123286303103 0 0 0 -0.020266617194442393 -0.048495365022346922 0.0065356491219504161 0 0.0065356491219504161 -0.00073061523908046939 0 0 0 -0.012306495065356851 -0.037841748220748109 0.010877695065617017 0 0.010877695065617017 -0.00047531038387690211 0 0 0 -0.0095792646511562544 0.095669770593342252 0.021114802985528147 0 0.021114802985528147 0.059696178549026868 0 0 0 0.038841487285592224 -0.031103081301209534 -0.0085648847062718136 0 -0.0085648847062718136 0.0031174697594626988 0 0 0 -0.0069964028854365701 0.02761426355509785 -0.0032136147210628961 0 -0.0032136147210628961 0.0021201198556603969 0 0 0 0.0074335958526895608 0.046779018315326104 -0.0041885903393401817 0 -0.0041885903393401817 -0.0063850497843604345 0 0 0 0.010098492132741423 -0.023498929338223729 -0.012356171784015491 0 -0.012356171784015491 0.0039299111934016917 0 0 0 -0.0048922545362055647 0.0072675171414784256 -0.021430923899462082 0 -0.021430923899462082 -0.0034880666326594636 0 0 0 0.00094486262720474092 0.015408442227200558 -0.0022473841703746084 0 -0.0022473841703746084 0.019684873417119823 0 0 0 0.0087733289110800972 0.057264325050267628 0.012867694523888881 0 0.012867694523888881 0.010618788992828518 0 0 0 0.01697077851077404 -0.030929906134353272 0.03060941860519617 0 0.03060941860519617 0.0034808647551519689 0 0 0 -0.0068622603448003777 -0.048981742285252747 0.004075827596377507 0 0.004075827596377507 0.0039848280759492982 0 0 0 -0.011249228552325866 -0.08595883626124784 -0.0067427313539353759 0 -0.0067427313539353759 0.0099311449969420318 0 0 0 -0.01900692281607641 0.013012377996870328 -0.0016098577942447456 0 -0.0016098577942447456 -0.021523531414525454 0 0 0 -0.0021277883544137954 0.018710042868594068 0.0049065147880124615 0 0.0049065147880124615 -0.027306558323866081 0 0 0 -0.0021491288638179618 -0.027791202516069029 0.011991857634897227 0 0.011991857634897227 0.00071204504250790487 0 0 0 -0.0067697893683902784 -0.017668443643462123 0.010273119049896686 0 0.010273119049896686 -4.4026880491205081e-05 0 0 0 -0.0044281176309883324 0.015757961044719718 0.0038669659131455474 0 0.0038669659131455474 0.012431148492956616 0 0 0 0.0070472773844190853 -0.051606333164854259 0.010592016471219811 0 0.010592016471219811 0.0022955917668385853 0 0 0 -0.012327685349503922 -0.03616717570396287 -0.022062400723827109 0 -0.022062400723827109 -0.0068328311966047786 0 0 0 -0.010750001725141897 0.011101746014567603 -0.0032555086830660662 0 -0.0032555086830660662 -0.07307076790552583 0 0 0 -0.015492255472739459 -0.014527193394500704 0.041634250990059019 0 0.041634250990059019 0.0052640147581914931 0 0 0 -0.0023157946590773859 0.023864833458837879 0.007736824117970496 0 0.007736824117970496 0.0079537261426018604 0 0 0 0.0079546399003599336 0.11094993988492569 0.0084561154866771293 0 0.0084561154866771293 0.050231829121074489 0 0 0 0.040295442251499891 0.082323522992882023 0.027800548220519819 0 0.027800548220519819 0.073410890914698518 0 0 0 0.038933603476895132 -0.079190015550567677 0.0042383482996569688 0 0.0042383482996569688 0.017975004436650593 0 0 0 -0.015303752778479264 0.063039809184231146 0.031884283256898995 0 0.031884283256898995 0.080032177937356647 0 0 0 0.035767996780396979 0.07492252472840201 0.025725936719302563 0 0.025725936719302563 0.051741127408243465 0 0 0 0.031665913034161344 -0.0090498296835621935 0.011316285906365794 0 0.011316285906365794 0.0011364920212351803 0 0 0 -0.0019783344155817556 0.011852282720249404 0.0082837561989317667 0 0.0082837561989317667 0.001320794068297354 0 0 0 0.0032932691971366878 -0.088570938557406831 0.028385779173060399 0 0.028385779173060399 0.0097665948600920149 0 0 0 -0.019701085924328732 0.009562822132579956 -0.00799750652379538 0 -0.00799750652379538 0.042570856576606454 0 0 0 0.013033419677296609 0.045711354294444201 0.022653364264132489 0 0.022653364264132489 0.088375240816583461 0 0 0 0.033521648777756929 0.018067031907499795 -0.015460763358929819 0 -0.015460763358929819 0.0064820665938196131 0 0 0 0.0061372746253298277 -0.067839198877955115 -0.00056745573040070663 0 -0.00056745573040070663 0.0016227553954743443 0 0 0 -0.016554110870620233 -0.12103204616860272 0.0025067177038740618 0 0.0025067177038740618 0.0074584649650009105 0 0 0 -0.028393395300900487 -0.040050997280939638 0.016158734495391291 0 0.016158734495391291 -0.00042102794897358464 0 0 0 -0.0101180063074785 0.042610373582551764 -0.01604852802398371 0 -0.01604852802398371 0.024668164456393304 0 0 0 0.01681963450973617 0.016701024358657252 -0.013374745143298838 0 -0.013374745143298838 0.017588444618980015 0 0 0 0.0085723672444093235 0.0655818419880001 0.014221669115192294 0 0.014221669115192294 0.01259719863861862 0 0 0 0.019544760156654684 -0.025670903575011207 -0.022770405359403348 0 -0.022770405359403348 -0.0097403453847640376 0 0 0 -0.0088528122399438251 -0.044874978075596823 0.0084767123119512122 0 0.0084767123119512122 0.0014270421635925908 0 0 0 -0.010861983978001056 -0.060596365461355925 -0.014107126354449481 0 -0.014107126354449481 0.0041342066781708629 0 0 0 -0.014115539695796259 0.024673699130991128 -0.012518770279312044 0 -0.012518770279312044 0.03325952716579747 0 0 0 0.01448330657419715 -0.02556184917474677 0.0072326376929832611 0 0.0072326376929832611 0.0025744612878151711 0 0 0 -0.005746846971732892 0.028273785826420691 0.0076895818579052937 0 0.0076895818579052937 0.072428055233988362 0 0 0 0.025175460265102256 0.030599401656412731 -0.0010399544817393889 0 -0.0010399544817393889 0.010201761016859604 0 0 0 0.010200290668318084 0.021988247476269873 -0.013716476533593841 0 -0.013716476533593841 0.015892869651948138 0 0 0 0.0094702792820545167 -0.063685346621564137 0.0030610730060982236 0 0.0030610730060982236 0.0024905206811972475 0 0 0 -0.015298706485091742 -0.11125890347383488 -0.0091994284288944433 0 -0.0091994284288944433 0.0048980909845025844 0 0 0 -0.02659020312233306 -0.054599764977671897 -0.012349222905366497 0 -0.012349222905366497 0.0044302022187955314 0 0 0 -0.012542390689719091 0.00564053016743854 -0.010135825753654341 0 -0.010135825753654341 0.022184431586535713 0 0 0 0.0069562404384935772 0.015251104548239761 -0.0048081720934054217 0 -0.0048081720934054217 0.042701788671185903 0 0 0 0.014488223304856426 -0.0065476340851634311 0.0086893581904750605 0 0.0086893581904750605 0.0028669900484167895 0 0 0 -0.0009201610091866565 0.017067020140993427 -0.014390094177056972 0 -0.014390094177056972 0.0077076935125093282 0 0 0 0.0061936784133757028 -0.027579581008798815 -0.011539987304113763 0 -0.011539987304113763 0.0019946397706451721 0 0 0 -0.00639623530953848 -0.017256642129524897 0.0093535718100450742 0 0.0093535718100450742 0.0030136804211603222 0 0 0 -0.0035607404270911374 0.02162222815382904 -0.014099514846022565 0 -0.014099514846022565 0.0064815367347969 0 0 0 0.0070259412221564815 0.033440245067746552 -0.002787429737388214 0 -0.002787429737388214 -0.0034683110047407546 0 0 0 0.0074929835157514476 -0.069166126377528864 0.0024411014581457169 0 0.0024411014581457169 0.0019337682181322091 0 0 0 -0.016808089539849171 -0.12664156943063343 -0.005019465511088117 0 -0.005019465511088117 0.0027487558009118285 0 0 0 -0.030973203407430386 -0.043072746581779113 -0.0048310062227132633 0 -0.0048310062227132633 -0.0013682036543413711 0 0 0 -0.011110237559030116 0.098233559416308791 0.010482387098678769 0 0.010482387098678769 0.064930447902220356 0 0 0 0.040791001829632412 0.091298570239200738 0.019988485917925791 0 0.019988485917925791 0.048909318966481319 0 0 0 0.035051972301420542 -0.042107667082657119 -0.0046930635783034051 0 -0.0046930635783034051 -0.00048825232160432108 0 0 0 -0.010648979851065388 0.12060914480538099 0.0079508617388236395 0 0.0079508617388236395 0.087747536550586425 0 0 0 0.052089170338991631 0.055829611400657092 -0.0094187918265879744 0 -0.0094187918265879744 0.010933010587923397 0 0 0 0.016690655497145129 0.0082870008166593956 -0.01477007223503321 0 -0.01477007223503321 0.014388139756020824 0 0 0 0.0056687851431700964 0.10483158085102928 -0.008997905748488853 0 -0.008997905748488853 0.068189396998165952 0 0 0 0.043255244462298781 0.16354858831269098 0.0083622407692052203 0 0.0083622407692052203 0.12451052971168697 0 0 0 0.072014779506094473 -0.057232742730462347 -0.021084654609163825 0 -0.021084654609163825 0.019522569093301911 0 0 0 -0.0094275434092900845 -0.012757162322520416 0.010271920831757382 0 0.010271920831757382 0.0014248213715458979 0 0 0 -0.0028330852377436329 0.034593191494160007 0.0082765217390586461 0 0.0082765217390586461 0.0020242286544858859 0 0 0 0.0091543550371614747 -0.038823779206719422 0.025372586952391307 0 0.025372586952391307 -0.0012866869737622189 0 0 0 -0.010027616545120521 0.044755121815685972 -0.015905798174103813 0 -0.015905798174103813 0.013907271618843309 0 0 0 0.014665598358632237 0.033386347521136547 0.00061326470769695917 0 0.00061326470769695917 0.0030848424014022447 0 0 0 0.0091177974806346991 -0.0089814990448050872 0.0086078875783491479 0 0.0086078875783491479 0.0098958948270757834 0 0 0 0.00022859894556766843 0.12119032498060167 0.011799028159658055 0 0.011799028159658055 0.051515030092468272 0 0 0 0.043176338768267541 0.021580664050885229 -0.012928186531781984 0 -0.012928186531781984 -0.0085461131853383221 0 0 0 0.003258637716386726 0.044776967738698596 -0.002463734169729781 0 -0.002463734169729781 0.0028134337340633142 0 0 0 0.011897600368190507 0.047775520930879521 -0.0044024635397954537 0 -0.0044024635397954537 0.0066615596893308086 0 0 0 0.013609270155052609 0.057358072810337057 -0.013474058063041694 0 -0.013474058063041694 0.025975769506647817 0 0 0 0.020833460579246177 0.073106343082486674 -0.0064659277166247975 0 -0.0064659277166247975 0.066150328042495432 0 0 0 0.034814167781245492 0.11887975204816681 0.0025757560357321796 0 0.0025757560357321796 0.11688881473079304 0 0 0 0.05894214169473988 0.093385157245553518 0.014958629113799582 0 0.014958629113799582 0.055055940579645704 0 0 0 0.037110274456299774 0.044826055839264092 0.017366587235679846 0 0.017366587235679846 0.026221718149300084 0 0 0 0.017761943497141035 0.055627371113878873 -0.016280751083889877 0 -0.016280751083889877 -0.0041182727067934077 0 0 0 0.012877274601771335 0.067569123298524658 -0.031790654817584654 0 -0.031790654817584654 0.031107570101141145 0 0 0 0.024669173349916463 -0.037822951441672359 -0.012998112750389978 0 -0.012998112750389978 0.0022115293082058396 0 0 0 -0.0089028555333666715 -0.029936167356103549 0.0097466046125668747 0 0.0097466046125668747 0.0014848461073718941 0 0 0 -0.0071128303121829129 -0.018109888758897172 0.011583894132963407 0 0.011583894132963407 0.0022514764593345622 0 0 0 -0.0039646030748906515 -0.04278940966748225 0.0086058777721438329 0 0.0086058777721438329 0.040262662304042851 0 0 0 -0.00063168684085986027 0.036320295622623511 -0.01383281131831024 0 -0.01383281131831024 0.018262124665110901 0 0 0 0.013645605071933575 0.066096693210767554 0.012610404057773056 0 0.012610404057773056 0.037852912739532729 0 0 0 0.025987401487575057 0.033674657993887795 0.0099304992371087204 0 0.0099304992371087204 0.0065345347746762032 0 0 0 0.010052298192140999 0.014004803561767254 -0.0028737382924172161 0 -0.0028737382924172161 -0.04350824406746101 0 0 0 -0.0073758601264234391 0.021828534266176969 0.0081306341619136937 0 0.0081306341619136937 0.001136685206414044 0 0 0 0.0057413048681477542 0.020456533064284022 -0.01432537174625502 0 -0.01432537174625502 0.015353818903738464 0 0 0 0.0089525879920056284 0.034812123327990822 0.00058221135928620182 0 0.00058221135928620182 -0.0045809596180190933 0 0 0 0.0075577909274929331 0.029703902831697881 0.030517594100425871 0 0.030517594100425871 0.0010836208833584493 0 0 0 0.0076968809287640827 0.032904001143002917 0.031253782345054049 0 0.031253782345054049 0.0060786871708977674 0 0 0 0.0097456720784752787 -0.0055573890642801604 -0.020224874372903656 0 -0.020224874372903656 0.0054799042167124057 0 0 0 -1.9371211891772155e-05 0.087462520415116568 -0.0692945436421014 0 -0.0692945436421014 0.12112789092375707 0 0 0 0.052147602834718455 0.031967713413946192 0.0020777101297458794 0 0.0020777101297458794 -0.001163643601605778 0 0 0 0.0077010174530851034 -0.044111849277201964 -0.0084150856101767868 0 -0.0084150856101767868 0.0020101814118282935 0 0 0 -0.010525416966343348 -0.00050363532539787759 -0.0014559716320550198 0 -0.0014559716320550198 -0.00045130402393622759 0 0 0 -0.00023873483733360956 0.19699767106597643 0.00066416205999431099 0 0.00066416205999431099 0.13471990025693437 0 0 0 0.082929392830727755 0.15055188757937785 -0.014577448007057736 0 -0.014577448007057736 0.11299033557912766 0 0 0 0.065885555789626266 0.096044915804248454 0.0067464660926099818 0 0.0067464660926099818 0.062299851176649934 0 0 0 0.039586191745224486 -0.00085944492531719874 0.0023497108309322419 0 0.0023497108309322419 -0.00061697114451852997 0 0 0 -0.00036910401745871013 0.00046497910826813471 -0.0011482557115405356 0 -0.0011482557115405356 -2.8372899944770478e-05 0 0 0 0.00010915155208089657 0.12484449569068312 -0.0035702021680755628 0 -0.0035702021680755628 0.07835422138899073 0 0 0 0.050799679269918352 0.0009336166572682103 0.0018612890116780356 0 0.0018612890116780356 -7.6100388431754595e-05 0 0 0 0.00021437906720889188 0.027990484267812851 0.00080758489407879415 0 0.00080758489407879415 0.0017680332907196502 0 0 0 0.0074396293896331249 0.023998964027415325 -0.013579868175988219 0 -0.013579868175988219 0.0042850812182788425 0 0 0 0.0070710113114235348 -0.017189356203117387 0.01111943153243628 0 0.01111943153243628 0.0054970139308169463 0 0 0 -0.0029230855680751101 -0.021885685794604315 -0.017306319631444134 0 -0.017306319631444134 0.0034410493293661748 0 0 0 -0.0046111591163095489 0.030400884025454183 -0.0066698450617798284 0 -0.0066698450617798284 -0.0073742294466349056 0 0 0 0.0057566636447048264 -0.001870720046467822 0.027648432737743978 0 0.027648432737743978 0.0012269488230765013 0 0 0 -0.00016094280584799669 0.018089455532284582 -0.021043028950864295 0 -0.021043028950864295 0.0069099877730607329 0 0 0 0.0062498608263363842 0.05692667707768545 -0.011284906010037454 0 -0.011284906010037454 0.05234606275091358 0 0 0 0.027318184957149827 0.10260412852254394 0.007845044826391756 0 0.007845044826391756 0.097180531913061863 0 0 0 0.049946165108901347 0.033268195914714457 0.0080821608679461643 0 0.0080821608679461643 0.043056602079090067 0 0 0 0.019081199498451176 -0.013429054417264333 0.0058867103061989515 0 0.0058867103061989515 0.0051606656589369276 0 0 0 -0.0020670971895818402 0.023336662357089477 -0.011250374237853845 0 -0.011250374237853845 0.036383508729521119 0 0 0 0.014930042771652607 0.064495029498501139 0.0079144801874398985 0 0.0079144801874398985 0.070354683031803089 0 0 0 0.03371242813257605 0.011304014701773168 -0.017244718536011894 0 -0.017244718536011894 0.0061005010176640728 0 0 0 0.0043511289298592271 0.035298004061264959 0.0081800892011416031 0 0.0081800892011416031 0.00227600573979031 0 0 0 0.0093935024502638121 0.015986310108776158 -0.018943144094609288 0 -0.018943144094609288 0.012992410519639952 0 0 0 0.0072446801571041108 -0.0037208023317960581 0.022253782832607039 0 0.022253782832607039 0.0023022577022766555 0 0 0 -0.00035463615737962861 0.046590012243843876 0.0028806804184228763 0 0.0028806804184228763 0.017426533403663402 0 0 0 0.016004136411876813 0.052548374375791601 0.0018110230365781521 0 0.0018110230365781521 0.019410245411079941 0 0 0 0.01798965494671792 0.0059105976814265819 0.010026467280730054 0 0.010026467280730054 0.0012585133078899108 0 0 0 0.0017922777473291206 0.00010097435613515629 0.0019141197533270038 0 0.0019141197533270038 0.027919405244664852 0 0 0 0.0070050949001999908 0.052347263982501863 -0.015520794545391625 0 -0.015520794545391625 0.015605795305598469 0 0 0 0.016988264822025062 0.025388532296824716 -0.014376682970653892 0 -0.014376682970653892 0.0050144698865466492 0 0 0 0.0076007505458428829 0.082969409797750915 -0.011937226590926497 0 -0.011937226590926497 0.018573159108924764 0 0 0 0.025385642226668947 0.055061408242091825 0.0045621804650487485 0 0.0045621804650487485 0.042689135773503029 0 0 0 0.024437636003898755 0.047307910110576612 0.0048782276198467978 0 0.0048782276198467978 0.019454438690455378 0 0 0 0.016690587200257956 -0.021384462684155003 0.010278282412833151 0 0.010278282412833151 0.00086963841555147761 0 0 0 -0.0051287060671508875 0.014886741838604882 -0.0032531951563840558 0 -0.0032531951563840558 0.033261693264422708 0 0 0 0.012037108775756901 0.015869704611823528 -0.001763181379121995 0 -0.001763181379121995 0.040795646749809039 0 0 0 0.014166337840408142 0.085035939076298389 0.048207111279282434 0 0.048207111279282434 0.13705262527545831 0 0 0 0.055522141087939181 0.04423918549212065 -0.012346116786126321 0 -0.012346116786126321 0.15740845649286889 0 0 0 0.050411910496247395 0.11726780943443682 0.01086740399936072 0 0.01086740399936072 0.064691922182383177 0 0 0 0.045489932904204888 0.041751977930333584 0.01912590774248606 0 0.01912590774248606 0.034876132856435468 0 0 0 0.019157027696692253 -0.055449077864447527 -0.0057326774417004898 0 -0.0057326774417004898 0.0018393015824806902 0 0 0 -0.013402444070491737 0.005549739041525184 0.0098783508059950287 0 0.0098783508059950287 0.00031270070600610683 0 0 0 0.0014656099368828245 -0.02048183591859308 -0.016527613605488701 0 -0.016527613605488701 -0.0039059462853022475 0 0 0 -0.0060969455509738285 -0.021151302474644328 0.0098169178350719817 0 0.0098169178350719817 -0.00074221502472954226 0 0 0 -0.0054733793748434727 0.046106047729117049 0.00092586834630276841 0 0.00092586834630276841 -0.0077790737762224709 0 0 0 0.0095817434882236423 -0.031406352062736287 0.0031420943796665909 0 0.0031420943796665909 0.0018811106460483156 0 0 0 -0.0073813103541719959 -0.030416043471410491 0.003889175010223447 0 0.003889175010223447 -0.0040755352335011125 0 0 0 -0.0086228946762279025 -0.040426744931562036 -0.006074902073634857 0 -0.006074902073634857 0.0032845470299474946 0 0 0 -0.0092855494754036337 -0.039462394236625231 -0.0071944199441993876 0 -0.0071944199441993876 -0.0046990106728120873 0 0 0 -0.01104035122735933 -0.0079624439320631415 -0.0089463546832226903 0 -0.0089463546832226903 0.01616911425621631 0 0 0 0.0020516675810383009 0.036639599972593598 0.0021950367221438742 0 0.0021950367221438742 0.00025884328131202926 0 0 0 0.0092246108134764072 0.10197103038870203 0.019055550767012486 0 0.019055550767012486 0.019449674057277377 0 0 0 0.030355176111494631 0.037910266841193793 -0.0057171498448877339 0 -0.0057171498448877339 0.052625380477263284 0 0 0 0.022633911829614231 0.051266005946645377 0.025712117314266904 0 0.025712117314266904 0.0530884226535435 0 0 0 0.026088607150047221 0.013195152771023622 -0.018793462239789518 0 -0.018793462239789518 0.022704131211585765 0 0 0 0.0089748209956523606 0.0027264471154801431 0.0046070131276634285 0 0.0046070131276634285 -0.009231944787177768 0 0 0 -0.0016263744179246282 0.049476245064778795 0.0035961560362132161 0 0.0035961560362132161 0.0028229806285982781 0 0 0 0.013074806423344156 0.077072207980597385 -0.0077109508355688305 0 -0.0077109508355688305 0.013618949143725799 0 0 0 0.022672789281080907 0.0012871265907052631 -0.0031601702247652241 0 -0.0031601702247652241 -0.0061478873180778847 0 0 0 -0.0012151901818433775 0.022250620892059328 -0.0074474910489790158 0 -0.0074474910489790158 0.0048515929797743607 0 0 0 0.0067755534679584534 0.037994813260070648 0.0023268899515708208 0 0.0023268899515708208 0.010406797553021319 0 0 0 0.012100402703273005 -0.029285313017571583 0.0027943986480027231 0 0.0027943986480027231 -0.0097438442220011152 0 0 0 -0.0097572893098931725 -0.037536012789684312 -0.0057854103718191479 0 -0.0057854103718191479 -0.012487918257537284 0 0 0 -0.012505982761805397 -0.038754214128855491 -0.0043973741587950274 0 -0.0043973741587950274 -0.0048568246302544502 0 0 0 -0.010902759689777487 -0.030488257886593848 0.0018429075415296551 0 0.0018429075415296551 -0.0040649407728167841 0 0 0 -0.0086382996648526576 0.012656737538952717 -0.021609409592455109 0 -0.021609409592455109 0.0087220061287639483 0 0 0 0.0053446859169292427 0.0055906790140913959 0.010097464031644229 0 0.010097464031644229 0.0022891431846345928 0 0 0 0.0019699555496814972 0.023092762783295501 -0.014769784331594031 0 -0.014769784331594031 0.010152583107300162 0 0 0 0.0083113364726489225 0.02727673107218917 -0.013409542782979525 0 -0.013409542782979525 0.005490127652431509 0 0 0 0.0081917146811551766 0.01311511816044908 0.0088350846857528035 0 0.0088350846857528035 0.0045390846932809176 0 0 0 0.0044135507134324993 0.027384706212603097 0.0074433091487245522 0 0.0074433091487245522 0.0014799660675209117 0 0 0 0.0072161680700310038 0.027276432328707318 0.0087573833927677182 0 0.0087573833927677182 0.0012494022109098106 0 0 0 0.007131458634904277 0.028745079065456973 -0.030108753255171025 0 -0.030108753255171025 0.099175758201233727 0 0 0 0.031980209316672718 0.078730729629273688 -0.0070198194765137868 0 -0.0070198194765137868 0.28489724464087568 0 0 0 0.09090699356753737 -0.021158216238167171 -0.0033483930183435262 0 -0.0033483930183435262 0.010972339560565508 0 0 0 -0.0025464691694004164 0.0520806428139656 0.0037811215140677729 0 0.0037811215140677729 0.036030891748104366 0 0 0 0.022027883640517526 0.020293860815979281 -0.012699524269474682 0 -0.012699524269474682 0.022746352962471128 0 0 0 0.010760053444612616 0.030030883519217722 0.0085246526522170345 0 0.0085246526522170345 0.0072023280808298784 0 0 0 0.0093083029000118906 0.085975876746346325 0.017876906176473639 0 0.017876906176473639 0.046009019323302258 0 0 0 0.032996224017411979 -0.025978971638146109 -0.010315654686697151 0 -0.010315654686697151 0.0010019660526683349 0 0 0 -0.0062442513963694157 0.056741818019259115 -0.018430151050213547 0 -0.018430151050213547 0.044591020460535785 0 0 0 0.025333209619948741 0.054391576764363091 -0.0017792367499852441 0 -0.0017792367499852441 0.012040786414977495 0 0 0 0.016608090794835155 -0.02402901247560818 0.019709826656320262 0 0.019709826656320262 0.0029923133929372625 0 0 0 -0.0052591747706678404 0.030228806764511118 -0.018588425604389669 0 -0.018588425604389669 0.022582809641434443 0 0 0 0.01320290410148639 0.03194562707759141 -0.015821904414654843 0 -0.015821904414654843 0.018118211729931 0 0 0 0.012515959701880575 0.015940532847528055 -0.0073177118088590121 0 -0.0073177118088590121 0.00041315033336009055 0 0 0 0.0040884207952219809 0.062097019842561885 0.0060598609298211925 0 0.0060598609298211925 0.051558742859520501 0 0 0 0.028413940675520555 0.033114738331362373 -0.01279272846818128 0 -0.01279272846818128 -0.009454838640763033 0 0 0 0.005914974922649828 0.017203050827818228 0.00081306632496497278 0 0.00081306632496497278 -0.018926557018740214 0 0 0 -0.00043087654773057982 -0.00027836691281933092 0.011698189414805486 0 0.011698189414805486 -0.00012801865494356524 0 0 0 -0.0001015963919407236 0.0058622483961198856 0.011214247383105998 0 0.011214247383105998 4.206724033173348e-06 0 0 0 0.0014666137800382634 0.016231495446754059 0.0011326075453023257 0 0.0011326075453023257 0.024202477118969615 0 0 0 0.010108493141430929 -0.0021388498203654127 -0.0056429854171300281 0 -0.0056429854171300281 0.027439350170106902 0 0 0 0.0063251250874353793 0.016099575748317475 0.0077058817387597248 0 0.0077058817387597248 0.00040787345371361139 0 0 0 0.0041268623005077699 0.018870864237576699 0.0093271834354794435 0 0.0093271834354794435 0.0054654766105549368 0 0 0 0.0060840852120329116 0.016603168911749063 0.008190378439735628 0 0.008190378439735628 0.0037050409572035384 0 0 0 0.005077052467238146 0.0224546213477054 -0.0047158309923924779 0 -0.0047158309923924779 -0.027463174768274978 0 0 0 -0.0012521383551424847 0.02982714799073749 -0.0053008652885281338 0 -0.0053008652885281338 0.0015588387817422333 0 0 0 0.0078464966931198754 0.048248939663155105 0.0021517469643347886 0 0.0021517469643347886 0.014108218156484442 0 0 0 0.015589289454909866 0.039790617955374558 0.0020269413675761405 0 0.0020269413675761405 -0.018267372346688848 0 0 0 0.0053808114021713094 0.05558699209876599 -0.029491839561137604 0 -0.029491839561137604 0.098922572345730306 0 0 0 0.038627391111124051 0.07048919584488722 0.0092119783443485037 0 0.0092119783443485037 0.029271991625402727 0 0 0 0.024940296867572709 0.00097641686567673247 -0.0061515274197611047 0 -0.0061515274197611047 -0.0044048269560250652 0 0 0 -0.00085710252258697217 0.045073575902456364 -0.008702797875011381 0 -0.008702797875011381 0.013623866451127675 0 0 0 0.014674360588396052 0.0020050139698817304 0.008867926309805263 0 0.008867926309805263 -0.0054471482025579832 0 0 0 -0.00086053355816884114 -0.026495037246683673 0.025851664391372792 0 0.025851664391372792 -0.00068678315603065698 0 0 0 -0.0067954551006788044 0.027180117751194777 -0.020511619822394626 0 -0.020511619822394626 0.012539107833757335 0 0 0 0.0099298063962378613 0.029220208413155868 -0.017922668421968213 0 -0.017922668421968213 0.010791050514328271 0 0 0 0.010002814731871035 0.019009670952017013 -0.00030900684812213146 0 -0.00030900684812213146 0.033220614986728986 0 0 0 0.013057571484686507 0.04493133362457824 0.00049537993652820633 0 0.00049537993652820633 0.01463076044268341 0 0 0 0.014890523516815524 0.0063519104045868247 -0.0051779013796448281 0 -0.0051779013796448281 -0.0032547738103980706 0 0 0 0.00077428414854718852 0.010092448256094677 0.007698675606676364 0 0.007698675606676364 -0.0043622161306577922 0 0 0 0.0014325580313596653 0.027579481743192691 -0.0022392724959237054 0 -0.0022392724959237054 0.0024815567899385549 0 0 0 0.0075152596332830335 0.017669819405320919 -0.0062609429102593872 0 -0.0062609429102593872 -0.0039026904943000318 0 0 0 0.0034417822277552079 0.059848459389715052 -0.020849915812337083 0 -0.020849915812337083 0.0065720108738868965 0 0 0 0.016605117565900517 0.086210335790106785 -0.014157675061624742 0 -0.014157675061624742 0.064834024557017977 0 0 0 0.037761090086781246 0.13432683390430494 0.015819407963490073 0 0.015819407963490073 0.11953225875838291 0 0 0 0.063464773165672006 0.031257020421181045 0.0079683792919288225 0 0.0079683792919288225 0.00056895198638207828 0 0 0 0.007956493101890779 -0.05588746565736824 0.02697444338148669 0 0.02697444338148669 0.0014084086649219785 0 0 0 -0.01361976424811151 -0.046063903946453877 0.021193218146908145 0 0.021193218146908145 9.508738935037897e-05 0 0 0 -0.011492204139275763 0.017315490328048154 -0.007189898213025403 0 -0.007189898213025403 -0.00054704429034623664 0 0 0 0.0041921115094254099 0.018641278538912742 0.0036753372503244303 0 0.0036753372503244303 0.01232200575801343 0 0 0 0.0077408210742315386 0.020717000639073536 -0.013537183383687298 0 -0.013537183383687298 0.0090889684889495712 0 0 0 0.007451492282005763 0.027333852462106321 -0.017339975350771322 0 -0.017339975350771322 0.019218163062169148 0 0 0 0.011638003881068882 -0.014298003942647464 0.023039237808013951 0 0.023039237808013951 -0.00041698789379474022 0 0 0 -0.0036787479591104955 0.018789602892415713 -0.017431878614841745 0 -0.017431878614841745 0.012415221170019919 0 0 0 0.0078012060156088525 0.016653416185054337 -0.021835745419771013 0 -0.021835745419771013 0.009301612864406783 0 0 0 0.0064887572623651968 -0.032227995092639294 0.0099205361560894597 0 0.0099205361560894597 -0.0010399091156333279 0 0 0 -0.0083169760520681556 -0.041687647400215168 -0.017472289282651519 0 -0.017472289282651519 -0.0042231520726290009 0 0 0 -0.011477699868211046 -0.035509506391348894 -0.017397922673748321 0 -0.017397922673748321 0.001252181827754377 0 0 0 -0.008564331140898631 -0.029528623921041792 0.009141063149485807 0 0.009141063149485807 0.0010785418609313736 0 0 0 -0.0071125205150276106 0.018273466486747998 0.0019003433187699502 0 0.0019003433187699502 0.016340580248438239 0 0 0 0.0086535116837965411 -0.052201319138895474 0.018179534373892858 0 0.018179534373892858 -0.0010322790839722984 0 0 0 -0.013308399555716832 0.040006312755321849 -0.015332537723743878 0 -0.015332537723743878 0.020619081754711832 0 0 0 0.015156348627508365 0.037659139484737758 -0.018554233537107945 0 -0.018554233537107945 0.015791734373186372 0 0 0 0.013362718464481005 -0.019756300594975705 -0.019520291198157569 0 -0.019520291198157569 0.0069271108306699913 0 0 0 -0.0032072974410764163 0.019573657685909768 -0.0085722734088220509 0 -0.0085722734088220509 0.0010512316903510122 0 0 0 0.0051562223440652366 0.040388247515148273 -0.019041828967487753 0 -0.019041828967487753 -0.0054389381899674141 0 0 0 0.0087373273312952183 0.018584793509471696 -0.00064755133209894546 0 -0.00064755133209894546 0.011158037723174734 0 0 0 0.007435707808161612 -0.021277632122088278 0.012566241654465864 0 0.012566241654465864 -0.00061508707370945548 0 0 0 -0.0054731797989494325 -0.042755478067065922 0.039169676816547594 0 0.039169676816547594 0.012896299737161443 0 0 0 -0.0074647945824760642 -0.027434954669783185 -0.017234573766927358 0 -0.017234573766927358 0.0080097666338458939 0 0 0 -0.0048562970089843227 0.052225392202479196 0.020858588276391643 0 0.020858588276391643 0.020656963443435483 0 0 0 0.018220588911478444 -0.015553758283460676 -0.014415498107777536 0 -0.014415498107777536 -0.00075692723771055015 0 0 0 -0.0040776713802927501 0.052833192352696678 0.038272869489026418 0 0.038272869489026418 0.0057920896967988966 0 0 0 0.014656320512373866 -0.018504472481020367 0.0098377736880529178 0 0.0098377736880529178 0.0014279485923758043 0 0 0 -0.0042691309721611436 0.016644546035075408 0.0055885624151569453 0 0.0055885624151569453 0.0084489970950618661 0 0 0 0.0062733857825343119 -0.018738305469998107 -0.014930773337848036 0 -0.014930773337848036 0.003587371824255392 0 0 0 -0.0037877334114357897 0.067648369760037325 -0.0015596563973960254 0 -0.0015596563973960254 0.031521742827828075 0 0 0 0.024792528146966392 0.10680125846229327 -0.0011881341976146542 0 -0.0011881341976146542 0.062975812130415143 0 0 0 0.042444267648176992 0.018201244963116606 0.0060210045962596059 0 0.0060210045962596059 0.0037802800182554774 0 0 0 0.0054953812453430225 0.0027236671117298883 0.0028610563818356471 0 0.0028610563818356471 -0.0018733029771293985 0 0 0 0.0002125910336499004 -0.0029327013658062562 0.006375126988996449 0 0.006375126988996449 -0.0031311297094234192 0 0 0 -0.0015159577688077519 0.060636239615550203 -0.00016324164040382172 0 -0.00016324164040382172 0.025932768202686418 0 0 0 0.021642251954559377 0.070584991411704268 -0.0078980647344248922 0 -0.0078980647344248922 0.027876847343194733 0 0 0 0.024615459688724695 0.10750133898109215 0.010181479664064685 0 0.010181479664064685 0.055308969182319423 0 0 0 0.040702577040852894 0.0017727489129706342 -0.0018790390527341216 0 -0.0018790390527341216 -0.0012882437961363458 0 0 0 0.00012112627920868313 0.09800484747827376 -0.0060236647911682262 0 -0.0060236647911682262 0.054976089224870961 0 0 0 0.03824523417578618 -0.002581380040817649 -0.0043707946638793516 0 -0.0043707946638793516 -0.0022933039921606557 0 0 0 -0.0012186710082446872 0.02181863593964839 -0.0051538697964834401 0 -0.0051538697964834401 -0.00026154364635821992 0 0 0 0.005389273073322598 0.02026099100644968 -0.012665289468876536 0 -0.012665289468876536 0.013694415496219747 0 0 0 0.0084888516256673152 0.017522471086440061 -0.013370220899578754 0 -0.013370220899578754 0.012630827990724902 0 0 0 0.007538324769291227 0.012718754101349733 -0.0049860737044153947 0 -0.0049860737044153947 -0.0053267767876463978 0 0 0 0.0018479943284258893 0.015567458797038358 -0.0091753803046216165 0 -0.0091753803046216165 -0.0041261151517162364 0 0 0 0.0028603359113305582 0.041858224291384381 0.02269390612273342 0 0.02269390612273342 0.075057775805212237 0 0 0 0.029229000024149184 0.013941269675470571 -0.021777798030734406 0 -0.021777798030734406 0.0058961960558144731 0 0 0 0.0049593664328212612 0.012207463301209306 -0.029360122561489756 0 -0.029360122561489756 0.0020533059040203361 0 0 0 0.0035651923013074079 -0.0072444195472842459 0.0082259002191818406 0 0.0082259002191818406 0.004045232310106249 0 0 0 -0.00079979680929449792 -0.049042118946134527 0.022138789820605909 0 0.022138789820605909 0.0034337703473106274 0 0 0 -0.011402087149706031 -0.032577738588387639 0.035932718215595461 0 0.035932718215595461 0.031221768281751383 0 0 0 -0.00033899257665903626 0.046503389158837824 0.021909875067817344 0 0.021909875067817344 0.04864371415585661 0 0 0 0.02378677582867364 0.041415719989659483 0.0052631331298119109 0 0.0052631331298119109 0.020230839969231473 0 0 0 0.01541163998972267 0.052494158479869601 0.0060911028922405949 0 0.0060911028922405949 0.022141487853589714 0 0 0 0.018658911583364857 0.068089668121050703 0.027425310667781432 0 0.027425310667781432 0.04941970892542194 0 0 0 0.029377344261618157 -0.024915777388705068 -0.015000973194375711 0 -0.015000973194375711 0.014173442122313751 0 0 0 -0.0026855838165978085 -0.03355793294200575 -0.0084913313887542974 0 -0.0084913313887542974 0.00095675041767068203 0 0 0 -0.0081502956310837565 0.044459940225982028 0.019227306518077188 0 0.019227306518077188 0.035494997223599459 0 0 0 0.019988734362395365 0.05834242640606381 0.022250015357855056 0 0.022250015357855056 0.028063766721635491 0 0 0 0.021601548281924801 0.015131243995368165 -0.013992244225598277 0 -0.013992244225598277 0.020447199019669626 0 0 0 0.008894610753759441 0.017363281885493662 0.0017391977256395507 0 0.0017391977256395507 0.0095393245249322488 0 0 0 0.00672565160260647 0.018968567848295537 0.0031283852957821731 0 0.0031283852957821731 0.016176761020501248 0 0 0 0.0087863322171991918 0.021840638157875045 0.0027439524691803829 0 0.0027439524691803829 0.026834348132770247 0 0 0 0.012168746572661305 0.1018642774753552 0.013243291859131201 0 0.013243291859131201 0.091307348528645971 0 0 0 0.048292906501000266 -0.027691827284077486 -0.0045660352641048174 0 -0.0045660352641048174 0.00098762359671522582 0 0 0 -0.0066760509218405373 -0.018699537596350797 0.011338359892566222 0 0.011338359892566222 0.00089721173580716365 0 0 0 -0.0044505814651359049 0.024078924601803664 0.0076099438249175684 0 0.0076099438249175684 0.0037782313130538831 0 0 0 0.0069642889787143855 0.11045746168772902 0.0129922517774681 0 0.0129922517774681 0.048425109151528201 0 0 0 0.039720642709814291 0.01656861683830968 -0.0049040187438306737 0 -0.0049040187438306737 -0.0020182185872521519 0 0 0 0.0036375995627643265 0.0064958877271254819 -0.028544523964188228 0 -0.028544523964188228 -0.0021925299745168512 0 0 0 0.0010758394381521607 -0.017044587370495974 -0.024703626179272728 0 -0.024703626179272728 -0.00034456818764233663 0 0 0 -0.0043472888895345774 0.019648565084279451 -0.010004618888314804 0 -0.010004618888314804 0.034519116526242399 0 0 0 0.013541920402630442 
</DataArray>
<DataArray type="Float64" Name="cross_section_updated" format="ascii">
0.0010071053595692636 0.0010177671721144275 0.0010247240309300676 0.0010316203495681247 0.0010390601978861639 0.0010474470455077527 0.0010570116555867492 0.0010678464121565427 0.0010803511132804412 0.0010950506102266537 0.0020258779115462371 0.0020674327170932066 0.0020970406317346764 0.002125008441549735 0.0021535709210179351 0.0021832265033824433 0.0022145058033542619 0.002247503791713536 0.0022827969508858468 0.0023215978722478034 1 1 1 1 1 1 1 1 1 1 1 1 1 1 1 1 1 1 1 1 1 1 1 1 1 1 1 1 1 1 1 1 1 1 1 1 1 1 1 1 1 1 1 1 1 1 1 1 1 1 1 1 1 1 1 1 1 1 1 1 1 1 1 1 1 1 1 1 1 1 1 1 1 1 1 1 1 1 1 1 1 1 1 1 1 1 1 1 1 1 1 1 1 1 1 1 1 1 1 1 1 1 1 1 1 1 1 1 1 1 1 1 1 1 1 1 1 1 1 1 1 1 1 1 1 1 1 1 1 1 1 1 1 1 1 1 1 1 1 1 1 1 1 1 1 1 1 1 1 1 1 1 1 1 1 1 1 1 1 1 1 1 1 1 1 1 1 1 1 1 1 1 1 1 1 1 1 1 1 1 1 1 1 1 1 1 1 1 1 1 1 1 1 1 1 1 1 1 1 1 1 1 1 1 1 1 1 1 1 1 1 1 1 1 1 1 1 1 1 1 1 1 1 1 1 1 1 1 1 1 1 1 1 1 1 1 1 1 1 1 1 1 1 1 1 1 1 1 1 1 1 1 1 1 1 1 1 1 1 1 1 1 1 1 1 1 1 1 1 1 1 1 1 1 1 1 1 1 1 1 1 1 1 1 1 1 1 1 1 1 1 1 1 1 1 1 1 1 1 1 1 1 1 1 1 1 1 1 1 1 1 1 1 1 1 1 1 1 1 1 1 1 1 1 1 1 1 1 1 1 1 1 1 1 1 1 1 1 1 1 1 1 1 1 1 1 1 1 1 1 1 1 1 1 1 1 1 1 1 1 1 1 1 1 1 1 1 1 1 1 1 1 1 1 1 1 1 1 1 1 1 1 1 1 1 1 1 1 1 1 1 1 1 1 1 1 1 1 1 1 1 1 1 1 1 1 1 1 1 1 1 1 1 1 1 1 1 1 1 1 1 1 1 1 1 1 1 1 1 1 1 1 1 1 1 1 1 1 1 1 1 1 1 1 1 1 1 1 1 1 1 1 1 1 1 1 1 1 1 1 1 1 1 1 1 1 1 1 1 1 1 1 1 1 1 1 1 1 1 1 1 1 1 1 1 1 1 1 1 1 1 1 1 1 1 1 1 1 1 1 1 1 1 1 1 1 1 1 1 1 1 1 1 1 1 1 1 1 1 1 1 1 1 1 1 1 1 1 1 1 1 1 1 1 1 1 1 1 1 1 1 1 1 1 1 1 1 1 1 1 1 1 1 1 1 1 1 1 1 1 1 1 1 1 1 1 1 1 1 1 1 1 1 1 1 1 1 1 1 1 1 1 1 1 1 1 1 1 1 1 1 1 1 1 1 1 1 1 1 1 1 1 1 1 1 1 1 1 1 1 1 1 1 1 1 1 1 1 1 1 1 1 1 1 1 1 1 1 1 1 1 1 1 1 1 1 1 1 1 1 1 1 1 1 1 1 1 1 1 1 1 1 1 1 1 1 1 1 1 1 1 1 1 1 1 1 1 1 1 1 1 1 1 1 1 1 1 1 1 1 1 1 1 1 1 1 1 1 1 1 1 1 1 1 1 1 1 1 1 1 1 1 1 1 1 1 1 1 1 1 1 1 1 1 1 1 1 1 1 1 1 1 1 1 1 1 1 1 1 1 1 1 1 1 1 1 1 1 1 1 1 1 1 1 1 1 1 1 1 1 1 1 1 1 1 1 1 1 1 1 1 1 1 1 1 1 1 1 1 1 1 1 1 1 1 1 1 1 1 1 1 1 1 1 1 1 1 1 1 1 1 1 1 1 1 1 1 1 1 1 1 1 1 1 1 1 1 1 1 1 1 1 1 1 1 1 1 1 1 1 1 1 1 1 1 1 1 1 1 1 1 1 1 1 1 1 1 1 1 1 1 1 1 1 1 1 1 1 1 1 1 1 1 1 1 1 1 1 1 1 1 1 1 1 1 1 1 1 1 1 1 1 1 1 1 1 1 1 1 1 1 1 1 1 1 1 1 1 1 1 1 1 1 1 1 1 1 1 1 1 1 1 1 1 1 1 1 1 1 1 1 1 1 1 1 1 1 1 1 1 1 1 1 1 1 1 1 1 1 1 1 1 1 1 1 1 1 1 1 1 1 1 1 1 1 1 1 1 1 1 1 1 1 1 1 1 1 1 1 1 1 1 1 1 1 1 1 1 1 1 1 1 1 1 1 1 1 1 1 1 1 1 1 1 1 1 1 1 1 1 1 1 1 1 1 1 1 1 1 1 1 1 1 1 1 1 1 1 1 1 1 1 1 1 1 1 1 1 1 1 1 1 1 1 1 1 1 1 1 1 1 1 1 1 
</DataArray>
<DataArray type="Float64" Name="displacement_divergence" format="ascii">
0.0071523687871366294 0.017782002571413481 0.024744122786575246 0.031641803989246292 0.039086524867707438 0.047480506603912127 0.05704795625709843 0.067908583245616605 0.080375403461258293 0.095298921532037145 0.013371969085747388 0.033699042885146246 0.048603177819664681 0.062559831626426379 0.076846384761297237 0.091681734715258659 0.10730716457151097 0.12389462115636539 0.14127037595611205 0.16180077722970948 1.9931367499783002e-05 3.0773575740404013e-05 1.9319562364294491e-05 1.9911025880323139e-05 -2.6705793635955419e-05 -2.0318160741446972e-05 -3.260275398188826e-05 -2.3540681130307106e-05 -4.2561912041098638e-05 -7.3134192912404334e-05 2.2313327716188474e-05 2.0614643893553008e-05 4.58673165209137e-06 1.256672873237518e-05 3.3130510733601906e-06 1.2602805542487612e-05 0.00020587899828681248 2.1365535676459539e-06 1.0017028731953634e-05 8.9624984703001384e-06 5.4899962566943433e-06 1.3434798639105038e-05 7.8119963425386752e-06 6.713066529073244e-06 0.00017212540690125544 -9.6336650478579672e-05 -5.2936495185424521e-05 -6.8964462601281038e-06 2.9695848472863955e-06 -2.4466480126165719e-05 3.7363503503197348e-05 5.8024562579903289e-06 1.1976482204445124e-05 1.2956564555488678e-05 -3.6953084193366847e-06 -9.4477706696298611e-06 5.6386357220285387e-05 -2.6689023428524354e-05 0.00020230738927617031 4.3583927132994976e-05 8.1445008737470034e-05 5.4035165588276957e-05 7.5119439580614324e-05 -5.5276433703673605e-06 1.4108976623443738e-05 9.6874383697390112e-06 2.4020991542541247e-05 2.1041906755832465e-05 0.00021492647349567574 -4.9503839157685726e-06 5.9358299689271646e-05 1.5241216412199181e-05 4.2553121618329378e-05 2.319852467174506e-05 3.7145014706298067e-05 -4.9908953702395686e-05 -3.9732350593177108e-06 0.00011144119467888357 9.5225825670878752e-05 -3.359544067741034e-06 1.7218208776704309e-05 7.7091231064179642e-05 1.5682479548670566e-05 2.6169720546110773e-05 2.3526883175008229e-06 -2.0104205345297633e-05 -2.6254361692164625e-05 8.8136064087788961e-06 3.2034011694527954e-05 -1.5141151979240776e-05 -1.3740113606367885e-05 1.8753234742648932e-05 -2.2643952351472294e-05 -3.0634156850840264e-05 2.0035128748551378e-05 2.3400494611124084e-05 0.00013348990844360114 -4.4866975691271876e-06 1.7977389489492654e-05 2.1411692998761771e-05 -8.3432511612932178e-06 -2.5590829732696224e-05 -2.0964852260913126e-05 1.1216842396771304e-05 1.8738877124880888e-05 6.4876148857474693e-06 1.1050551080216105e-05 1.9378254183056669e-05 -2.0713284863155792e-06 2.6647455564644037e-05 2.3490664034760714e-05 1.9392946399802127e-05 1.9882776152933418e-05 2.7410120504345662e-05 3.6799223649334659e-05 2.3165745182589042e-05 5.391582894432557e-05 0.0001678146868572053 -2.2776816537037163e-06 -1.0429119374962773e-05 0.00015372839478470721 7.3583666694286139e-05 1.3883793253692953e-05 1.069431905224349e-05 6.9963995123151126e-05 5.9345583923262751e-05 3.2277037008799931e-05 7.8513418677518976e-07 -8.2036024301888801e-06 4.9014146103726308e-05 -1.5609004574277351e-05 8.4856331513907379e-05 -3.5354767836477059e-05 -5.7348158005324943e-05 3.6558081895439443e-05 9.7080962437491721e-05 2.4990256656785847e-05 2.7255953784064487e-05 7.1883657471826881e-06 -6.6332099771101646e-06 1.464841511137488e-05 -5.4788439519117605e-06 3.9444146384132867e-05 1.7285294064728265e-05 2.6110263809212335e-05 2.3519656771105741e-05 2.77234709670348e-05 -6.536808157004434e-05 -1.1135902179808135e-06 4.6530279069980534e-06 5.9101829692003133e-06 -4.9599357504893742e-05 -2.6070953953952818e-05 -2.9152565770956839e-05 -4.796244821201492e-05 -4.114263053185376e-05 1.6531874385757397e-05 -3.8370360294711628e-05 6.4171199746154749e-05 3.6690718188270671e-05 3.5807115486091438e-05 -1.1321482331348807e-05 2.8084399265406053e-05 3.7524843183422065e-05 2.9501312764920002e-06 2.0991915761271111e-05 7.9771670350034013e-06 4.6200610457742873e-06 1.7107662143853538e-05 -2.634079774980569e-06 -1.0018170208280397e-06 1.696009789870181e-05 2.0775655807809333e-05 1.4684373290432203e-05 1.3345796912260267e-05 5.5324020496765514e-06 3.1152561127091287e-05 2.0486369165576817e-05 9.1556263098817034e-06 4.6581928980841451e-05 7.945628974099352e-06 1.133152168459635e-05 -2.5575104638811855e-05 -2.0954294618618946e-05 0.00010576504543120687 1.6439192784805982e-05 3.474386011237236e-05 -4.3858726914800406e-06 -3.0155704553177246e-05 -4.8545285368685974e-05 1.3950949736167559e-05 -2.33542853096312e-05 -2.6491734178247457e-05 -2.7399483261290675e-05 -1.7841798962256781e-06 6.3726049275945404e-06 -4.1178084303993668e-06 1.4700196016357203e-05 5.7333068294338624e-05 -9.6767654751165819e-06 2.015432592868426e-05 1.1976846189735075e-05 1.742770087163076e-06 -9.9009955865238429e-07 1.3664810487619763e-05 1.4296253182630175e-05 7.583833654808839e-06 5.315420688979135e-05 8.3742903795913746e-05 2.7358079755119641e-05 1.9467350890747504e-05 1.3763214454323627e-05 -9.9022388858863337e-06 4.062979261472378e-05 9.9311776392007364e-06 8.8081683943914632e-06 1.1957382316637273e-05 -3.0237273334335006e-05 -4.4299689105492948e-05 2.5965054003254776e-05 -5.3925420048103216e-06 -3.1478018352709749e-06 -7.1207903415628057e-05 -4.0465218347522788e-05 9.6490517915668895e-05 0.00021223393630359741 1.5197063089911412e-05 2.2844875919881278e-06 5.0191365603747724e-05 -1.2527568190327711e-05 1.6223116709940239e-05 -1.0345197000420029e-05 -1.314238472535775e-05 -6.1629293627309508e-05 -1.3862903580279078e-06 2.0419607716923695e-05 2.3492825724989074e-05 9.5651370158687647e-06 2.593932485855661e-05 3.1686929487568206e-05 -1.0532391217793153e-05 -1.4751861002474309e-06 -3.4026960702310736e-05 1.6325208475675718e-05 1.3614156737129171e-05 1.2599744246707956e-05 1.4955899095127432e-06 -1.3432906903879532e-06 9.1561123424809774e-05 2.512577680982152e-05 1.6181198318864375e-05 1.9157328454741605e-05 6.4162017189868574e-05 -1.829035684681426e-05 1.9601998949577369e-05 -4.6651164365877792e-05 -3.0496133397505323e-05 -3.5529991728671371e-05 1.6707396159245966e-05 2.5200909311738403e-05 3.5272746440716153e-05 3.6051596078292097e-05 2.2025904846320741e-05 4.5399922841363877e-07 1.663084970296479e-05 1.6824744205395121e-05 3.429912246862986e-05 3.4357179339983453e-05 -3.0832010147136338e-06 -3.9552180240969709e-06 1.9591005009583469e-05 -1.7042344243286048e-05 -1.7412804242920296e-05 -2.6411735694173552e-05 -3.9215947287677549e-05 -2.1424023286293714e-05 9.6856039047962091e-06 0.00010796135989320373 -1.388204557684527e-05 -1.2177148564373828e-05 2.4629202930010067e-05 -1.5462254040307413e-06 3.5465704102505236e-07 -3.2413990408623226e-05 -3.41027803978735e-05 4.8589285128608148e-05 -6.4444504415187009e-08 -3.9449644329823813e-06 -1.6636031513987595e-05 1.4997794354934971e-06 7.0095420908524559e-05 0.00012407273612277236 3.2990242396972036e-05 -2.2926893732406702e-05 -2.0834859446809684e-05 -3.0036114574886723e-05 2.2520592363185753e-05 3.8085963766953165e-06 5.1334949851778388e-06 -1.6784492769482148e-06 -1.3067999809401897e-05 -4.7170497815618572e-06 2.9529635523183796e-06 -2.4659013836108917e-05 -3.5416326762732596e-05 -1.2972130672239573e-05 -1.1840369891696284e-05 -7.6066081038657562e-06 -8.4547860631894176e-06 1.2897796669837083e-05 4.4191273774627234e-05 2.4132978477758021e-05 3.4711254651847989e-07 2.5681485313721122e-05 -6.5487325603589709e-06 -6.0307308038326221e-06 2.2479597843612854e-05 2.3621646876436568e-05 -4.9539785099638866e-05 5.7031389739353017e-05 -9.2602804321170653e-06 3.3023526822426651e-05 -3.2116628041040833e-05 -2.2006334399328871e-05 3.4556595153011582e-05 1.9100158121310516e-05 1.3944319462136162e-05 -3.2539758112537117e-05 -2.3239019142134328e-05 4.2333820370530801e-05 3.0620558062887e-06 1.6393614928615803e-05 -1.8066586790085976e-05 -1.0461315574895139e-05 2.3821081091319018e-05 2.3501867315387482e-05 5.3281948607891802e-06 9.1636710144841201e-06 2.339267913719705e-06 2.175662085709932e-06 1.3864066839648984e-05 4.0542081238226574e-05 2.9873219264959843e-05 3.599950479115906e-05 -8.8815976068852814e-06 3.61026453816575e-05 3.001867242891671e-05 3.9077807872005592e-05 -1.5387537881748209e-06 1.4416133597373783e-05 -1.5822721494737756e-05 -1.4280590343473926e-05 1.7548715193406602e-05 8.4510376340526223e-05 0.00014560625791853923 2.9367740083869062e-05 3.4602909789375697e-05 -1.2639996764977684e-06 5.1083159902231157e-06 1.8044962761769442e-05 -1.1226901672817117e-05 3.89420521461264e-05 2.9725364273863113e-05 6.231317918824295e-05 3.5908901924769105e-05 -3.5021187839208044e-06 1.9567704832436208e-05 2.4678303289033512e-05 3.7460878649382863e-05 -2.0643369371708443e-06 -7.6980157611696231e-06 -8.5737802255715598e-06 4.6121674014775729e-05 -2.4187804400535924e-05 -1.8685485191727339e-05 -2.191890089700858e-05 6.0641821736702071e-05 4.5918695548806285e-05 2.6174014007627425e-05 -1.9876120960612888e-06 2.9892008193333982e-05 8.5161961233945135e-06 -1.6415419725018289e-05 -1.4647468912066413e-05 4.1738378543161483e-05 4.8413001439075935e-05 8.4298697430969217e-05 3.0424348204518908e-05 2.79487156310771e-05 6.2769635046244359e-05 4.1754804272669318e-05 7.6852147193879998e-05 -9.3749503609296368e-06 4.0033627104780526e-05 3.5223924344321982e-05 8.0022165936461309e-06 3.9593042815888583e-05 1.5547602306950644e-05 -4.6000772940794519e-05 3.9511685989009434e-06 2.7951665336967497e-05 5.0612859153075549e-05 -7.8214155469884207e-05 1.7627381288242281e-05 2.3565366998924288e-05 1.4956382430239668e-05 -1.9280256392538594e-05 1.0954733377438527e-05 2.133742050988235e-05 2.3606419982544934e-05 1.6905313441626144e-05 2.9091023508737461e-05 -1.4849408284330325e-05 0.00011640129918846033 -1.5735080623778389e-05 2.1824031370886594e-05 2.4037625460259984e-05 -8.6843615282284833e-06 3.9539805096326305e-05 2.9589569024151038e-05 2.6210757326428746e-05 2.1910020660851921e-05 -1.6234723952468524e-05 1.0426212900311013e-05 2.0541841096604005e-05 -1.981958467570286e-05 9.4788506047936548e-05 1.5376412957930977e-05 6.2117478039432246e-06 1.7625922755879981e-05 2.1352959750087795e-05 4.7252010166602126e-05 2.7707784025913932e-05 1.3368731395319564e-05 2.0986768881771994e-05 -2.6685657307246534e-05 -2.1500857269537402e-05 2.5774343763517947e-05 -2.8511213846645414e-05 -4.2511160960695144e-05 4.0554928192127913e-05 7.0395929028686127e-05 3.4573932659779941e-05 9.623336680757166e-06 9.7704501400116655e-05 1.6900838496370346e-05 2.8193735677701937e-05 7.9951890975305234e-05 1.839561507581438e-05 1.8268014162770886e-05 5.2992699424167858e-06 1.3961708590638236e-05 2.9138124152598376e-05 7.572397343869313e-05 -6.7098253791731365e-06 -4.8121525692318488e-05 -8.5172810157843918e-05 6.8055721523821292e-05 -7.4806303141173095e-06 8.4165431150757692e-05 0.0001205967134228728 0.00019801634788463285 0.00014470935350934162 1.9219000599149941e-05 4.2935971783729463e-05 0.00010320510949963292 5.0037532550184028e-05 3.633595106000199e-05 5.2190632859569139e-05 2.853104358480768e-07 -8.9013602076748466e-07 2.6868936366667134e-05 2.0067106064998814e-05 8.3385497125437063e-05 -1.0001860987683101e-06 4.6962078480695123e-05 -8.7019384507804748e-07 4.8138185477420402e-05 3.3217322618041539e-05 1.4719798109031127e-05 1.802769836661475e-05 1.7686679388669969e-05 3.0251921910950106e-05 -3.2529015615156466e-05 5.9125827226303096e-05 3.4027481676930734e-05 3.9623498551162583e-05 1.3291239429397551e-05 1.7784725498577844e-05 -0.00010701971184611924 -5.7175793563142899e-05 2.0850375980317896e-05 1.0079613803937013e-05 3.658715093569786e-05 3.6570697348771891e-05 3.0550798086562464e-05 -2.6714937733404733e-05 -1.9491405640617755e-05 7.7920411522794126e-05 -1.5122123224391542e-05 -1.3469415509288661e-05 1.6361460430804053e-05 8.5868883019582162e-05 3.245894371708393e-05 3.3636921283593875e-05 3.0891578800072393e-06 -3.6695054644497001e-06 -3.9867027097612379e-05 -6.315993765423889e-05 -3.2233079236018789e-06 4.9207544476733887e-05 3.0771213207756714e-05 3.6766058411783541e-05 3.3414642847386775e-05 5.1128714264440747e-05 5.2740001398046216e-05 1.5348558639646792e-05 1.56316822017781e-05 3.0140316924899945e-05 7.0252375865371817e-05 -3.4667688002237929e-05 -5.2166929796917575e-05 -3.5503264332196934e-05 6.1908694863626332e-05 2.7425021814088614e-05 -1.5179028769504138e-05 -1.2542009819059312e-05 1.1983871573582922e-05 3.5178520487967519e-05 4.782470774017584e-05 1.0757917309320516e-05 -2.7885988659295769e-05 5.0838517974661091e-05 4.7833440024342539e-05 3.6135296407096938e-05 2.2873085043758083e-05 2.5154847870871392e-05 3.5619712230918312e-05 0.00015405520011757328 1.427840405737648e-06 9.1440347979254493e-05 2.2395624737453317e-06 2.7749811771512289e-05 2.2120178232558796e-05 2.3436370239895478e-05 -4.3899618676008347e-05 -5.4737302485678691e-05 1.6746171191190704e-05 6.5380122344384997e-06 4.7531832542959712e-05 -1.1194781254433523e-05 -6.2313301904808212e-06 -3.6488322785832805e-06 -1.388388939037524e-05 -2.263441281173304e-05 -1.1397422475959394e-05 1.4464628903842141e-05 1.1417635810414742e-05 7.4093309349032295e-06 6.2804340561174724e-06 2.9303301416139932e-05 -1.9785749637479724e-06 -1.1446050961603195e-06 6.5476084161486829e-06 1.5157405969035153e-05 -7.0098225234499243e-06 -3.810120047014988e-06 3.7254061939858034e-05 1.8392119996400162e-05 -6.9897081066705008e-06 -1.0025273061038475e-05 6.1237225148139238e-05 -2.0757917669759563e-05 4.9639385836433553e-07 4.0691976450929804e-05 2.8095724484432466e-05 2.384875251359653e-05 -3.0255495339010742e-05 -2.2159728585706634e-05 3.8471999800971171e-05 2.7094376126803001e-05 1.2974219481638864e-05 -2.1347620874813826e-05 -3.8945624798751664e-05 1.3678737051327049e-05 2.0987669288162849e-05 7.693787785341832e-06 2.9255722023664073e-05 1.2616414524263428e-05 0.00010067167648101746 2.7235475833488787e-06 -3.8258311826015311e-05 6.3802538649082217e-05 5.51610466653121e-05 -1.2331038946693555e-05 3.603657873642111e-05 -3.6388476022191247e-05 -6.1600301603424045e-05 -3.773282851220462e-05 -6.5436501458142576e-05 -1.9404506187964427e-05 -2.3759495330366852e-05 2.7164213755148591e-05 3.375439120251384e-05 5.6034019225829315e-05 0.00011018757251139781 5.1025102219386445e-05 9.2760554291690671e-05 4.1656970876538502e-05 1.0192990056746003e-05 3.4763735722126294e-05 2.5513832822026902e-05 3.656562767119742e-05 -6.7203247968497352e-05 3.3603560657823522e-05 0.00010445398395576117 9.8187637714269968e-05 5.4975075875492488e-05 -7.2317634506890028e-05 -4.1166470324429175e-05 3.3565534701284315e-05 -2.693435882320655e-05 -1.7044138136617509e-05 2.6360043866683952e-05 2.9047590508284518e-05 7.0263168652221408e-05 -2.3700082443357459e-05 -1.8847995030443326e-07 4.8426218863737965e-06 1.3134282772088974e-05 1.3168278523377139e-05 4.7947513477002515e-06 3.9035719642322494e-06 -1.0072880588394813e-05 1.2621544450215245e-05 -6.2938553427337093e-06 -5.2950288443516671e-06 -3.3824586469526324e-05 -6.0222730651549429e-05 -1.7773513434441285e-05 2.3615885822121394e-05 7.9908195697692922e-06 -2.9301024751228271e-05 -5.4162706569557861e-05 2.0162039529532487e-05 6.4378272969900616e-05 -4.491476396831657e-05 -8.2703515008730402e-05 3.8971156439360032e-06 -1.8128219237833677e-05 -4.8509640624602024e-06 0.00011351819415870025 -4.4818283650950821e-05 -2.9014758785817595e-05 1.6158162734712374e-05 1.219439889096625e-05 3.5499658630071157e-05 1.9678052721621462e-05 3.0315667912845278e-05 0.00010386038792332519 -1.7710298219861361e-05 1.3556380872035378e-05 0.00011171040695188332 -3.2804711329457359e-05 -0.00010213140642814831 -5.5404878418983724e-05 4.0466426495832386e-05 -1.6659530474035986e-05 -2.4775747267460102e-05 6.4260010416753843e-05 -2.1657247536907218e-05 1.7908562200807872e-05 0.00013435846605471067 -1.5294527369482617e-05 2.1377323972390278e-05 3.0891690470991024e-05 7.7969875989704289e-06 -2.3288359370842761e-05 6.030972426802352e-05 3.0052162271715192e-06 5.9338501478640331e-05 -2.8490047909449492e-05 5.9417776964132115e-06 -1.514510982164531e-05 -4.029240717449414e-05 -3.2480032693318797e-05 -2.2458113696296136e-05 -2.71660921061528e-05 5.9266595001206967e-06 -1.1476835775495601e-06 -3.3541252102945527e-06 -4.1665768214682912e-07 1.839221226983668e-05 4.8934007882401562e-05 2.5584154368887557e-05 2.2703679568898552e-05 2.4605837657766283e-05 6.1313392693290334e-05 2.9280335553218259e-05 -5.7664465597701909e-05 -0.00010824007188878849 4.5921547599646193e-05 7.2735647852933234e-05 -1.0935516890178638e-05 1.8997300128778988e-05 8.2798732612977732e-06 1.3047231973917247e-05 7.581852286516242e-05 -2.5213159519963791e-05 -1.9090818665049219e-05 -2.4002448403710174e-05 -3.6797202834344935e-05 -5.4657871220338333e-05 7.3008754707877522e-05 4.8450275798188336e-05 8.9059468307966908e-06 -1.1281949225728133e-06 2.9312750872937524e-05 -1.91866317912497e-05 6.4255788432374767e-05 1.4467071271637083e-05 1.8115681469165269e-05 9.334919444900913e-05 -9.8101336290552441e-05 2.1594220419878242e-05 -6.8479091672327545e-06 -3.834646399837137e-06 2.9411237882986536e-05 -3.5780245905818833e-05 -5.9702709025502486e-05 8.1309110269545994e-05 -2.0144212271585877e-05 6.1711010377259293e-05 3.1517100431018214e-05 4.0309685037388939e-05 2.1012855923894669e-05 2.0168380000629092e-05 5.7196919235124745e-06 7.8574687297135786e-05 7.3794970432450142e-05 -8.9940157049330297e-06 -1.1937826067222497e-05 4.7276062400965647e-05 5.4354091646080863e-05 3.9190972660343038e-05 6.2494859893442219e-05 2.2246391139282194e-05 7.5044283908786856e-05 5.2925637205440104e-05 -3.3281129792475618e-05 -3.8407912510058414e-05 -6.5097780161542211e-05 4.7239975303021307e-05 5.1120566481390806e-05 2.0536443336615453e-05 1.712405778738279e-05 -5.0666542986105954e-05 -3.0766237663392096e-05 -2.3948161627890639e-05 9.7103718213980769e-05 -1.7491007213591824e-05 1.8583989631723901e-05 2.5246230331853568e-05 -1.2230636340513929e-05 2.3621565680118542e-06 2.1933322277700262e-05 4.2426946276935102e-05 -1.7155650862000696e-05 -2.812307138081474e-05 -4.7517307040191082e-05 -5.3194708860343151e-06 -5.3728221595449955e-06 -1.6924473420975713e-05 -1.1070294077470831e-05 1.7618193461047712e-05 -3.0819213373759787e-05 -2.6875004312854777e-05 -3.8730638681848623e-05 -5.7894866476930311e-06 1.9886599750899838e-05 0.0001007386056287498 9.7334008692237793e-05 -3.8259381946198167e-05 8.9419991950992489e-05 7.9164782585403439e-05 -4.9458360389543806e-06 8.2331729928417166e-06 -4.9252714810821708e-05 3.2583549193241485e-05 8.380412194439226e-05 1.5343186563324541e-05 -4.1385277176550677e-05 -7.0983488252251124e-05 -2.5295015768696076e-05 4.2049086274340594e-05 2.1430918111023313e-05 4.8861900391636715e-05 -2.2132030599859537e-05 -2.7154959945002632e-05 -3.5288849239490625e-05 3.6208266435492893e-05 -1.4367117429332212e-05 6.2938650662755608e-05 2.5500726670795212e-05 2.3675698205136305e-05 -3.8246766212729345e-05 -6.6475507805832787e-05 -3.1355976724297823e-05 1.7390601096233899e-05 3.6220558262141107e-05 -2.3004025229666341e-06 1.5484196033439172e-05 -1.5990588273846155e-05 -8.9018510677278155e-06 1.756485305539116e-05 1.8732458789378615e-05 -4.20202238496229e-05 -7.7433008518576214e-05 -2.7775593897575362e-05 0.00010197750457408093 8.762993075355093e-05 -2.6622449627663244e-05 0.00013022292584747869 4.172663874286276e-05 1.4171962857925169e-05 0.00010813811115574718 0.00018003694876523603 -2.3568858523225346e-05 -7.0827130943590787e-06 2.2885887592903685e-05 -2.5069041362801164e-05 3.6663995896580627e-05 2.2794493701586749e-05 5.7149736391919446e-07 0.00010794084692066852 8.1465942909668198e-06 2.9744000920476157e-05 3.402317538763147e-05 5.2083651448115473e-05 8.703541945311407e-05 0.00014735535423684976 9.2775686140749312e-05 4.4404858742852608e-05 3.2193186504428432e-05 6.1672933374791114e-05 -2.2257138833416633e-05 -1.7782075780457274e-05 -9.9115076872266028e-06 -1.5792171021497135e-06 3.411401267983409e-05 6.4968503718937538e-05 2.5130745480352503e-05 -1.8439650316058685e-05 1.4353262170369388e-05 2.2381469980014028e-05 1.8894477318732315e-05 1.9242202321910137e-05 2.436418019618859e-05 -4.8428029729576756e-08 0.00013036900708679599 1.9252543632712764e-05 -2.631354241585857e-05 -5.9683709333416268e-07 0.00020732348207682001 0.00016471388947406643 9.8965479363061735e-05 -9.2276004364649777e-07 2.7287888020274449e-07 0.00012699919817479605 5.3594766802247257e-07 1.8599073474082808e-05 1.7677528278558939e-05 -7.3077139201877542e-06 -1.1527897790773907e-05 1.4391659111762048e-05 -4.0235701462016521e-07 1.5624652065840666e-05 6.8295462392874541e-05 0.0001248654127722536 4.7702998746127899e-05 -5.1677429739546032e-06 3.7325106929131618e-05 8.4281070331440069e-05 1.0877822324648165e-05 2.3483756125659526e-05 1.811170039276019e-05 -8.8659039345012972e-07 4.0010341029691945e-05 4.4974137366794677e-05 4.4806943683228001e-06 1.7512737250499986e-05 4.2470662055062836e-05 1.9001876364607127e-05 6.3464105566672429e-05 6.109409000974687e-05 4.1726468000644924e-05 -1.2821765167877201e-05 3.009277193939229e-05 3.541584460102034e-05 0.00013880535271984789 0.00012602977624061849 0.00011372483226051262 4.7892569241730624e-05 -3.3506110176229672e-05 3.6640248422070582e-06 -1.5242363877434573e-05 -1.3683448437108652e-05 2.3954358720559098e-05 -1.8453275885429977e-05 -2.1557236690569756e-05 -2.3213873688509082e-05 -2.7600878068398322e-05 5.1291689525957945e-06 2.3061527033691003e-05 7.5887940278737426e-05 5.6584779574035628e-05 6.5221517875118011e-05 2.2437052489130815e-05 -4.0659360448102872e-06 3.2687016058360737e-05 5.6681973202702821e-05 -3.0379754546085306e-06 1.693888366989593e-05 3.0251006758182466e-05 -2.4393223274732936e-05 -3.126495690451349e-05 -2.7256899224443718e-05 -2.1595749162131648e-05 1.3361714792322807e-05 4.9248888742037463e-06 2.0778341181622393e-05 2.047928670288789e-05 1.1033876783581246e-05 1.8040420175077504e-05 1.7828646587260692e-05 7.9950523291681734e-05 0.00022726748391884333 -6.3661729235009982e-06 5.506970910129378e-05 2.690013361153151e-05 2.3270757250029733e-05 8.2490560043529514e-05 -1.5610628490923687e-05 6.3333024049871901e-05 4.1520226987087813e-05 -1.314793692666974e-05 3.3007260253716192e-05 3.1289899254701619e-05 1.0221051988055282e-05 7.1034851688801229e-05 1.4787437306624585e-05 -1.0771913693264354e-06 -2.5399097985180684e-07 3.6665344500956586e-06 2.5271232853577314e-05 1.5812812718588476e-05 1.0317155751269456e-05 1.5210213030082288e-05 1.2692631168095361e-05 -3.1303458878560687e-06 1.9616241732799762e-05 3.8973223637274722e-05 1.3452028505428005e-05 9.6568477777810209e-05 6.2350742168932292e-05 -2.1427563064676559e-06 3.6685901470989712e-05 -2.1513338954227447e-06 -1.6988637751697705e-05 2.4824515990594983e-05 2.5007036829677613e-05 3.2643928711716267e-05 3.7226308792038393e-05 1.9357103713665488e-06 3.5813950783978449e-06 1.8788149083206768e-05 8.6044555693881499e-06 4.1512793914751301e-05 9.4402725216952919e-05 0.0001586619329141802 1.9891232754726926e-05 -3.4049410620278636e-05 -2.8730510348189305e-05 1.0480278773563696e-05 1.9352052685578872e-05 1.8628730705014459e-05 2.909500970267219e-05 -9.196869897777453e-06 1.9503015039022253e-05 1.6221893155912801e-05 -2.0792440130170381e-05 -2.8694249670527593e-05 -2.1410827852246559e-05 -1.7781301287569042e-05 2.1633779209491379e-05 -3.3270998889291768e-05 3.789087156877099e-05 3.3406796161202651e-05 -8.0182436026912858e-06 1.2890555860163e-05 2.1843318328238024e-05 1.8589269520404043e-05 -1.3682949497373584e-05 -1.8661986456190445e-05 -1.2140742522461054e-05 4.5551472278697173e-05 -1.0194178450731911e-05 3.6640801280934943e-05 -1.067282743040287e-05 1.56834644563358e-05 -9.4693335285895262e-06 6.1981320367415852e-05 0.00010611066912044262 1.3738453113357557e-05 5.314775841265551e-07 -3.7898944220196573e-06 5.4105629886397853e-05 6.1538649221811598e-05 0.00010175644260213262 3.0281569802148231e-07 9.5613085439465e-05 -3.0466775206117007e-06 1.3473182683306482e-05 2.122212906416831e-05 1.884581192322795e-05 4.6199858210646912e-06 7.1508397783264519e-06 7.3072500060373055e-05 1.2398416082053147e-05 8.9129807532685272e-06 -1.9994920232362464e-06 -2.8505217874265354e-05 -8.4748144164739983e-07 5.9466939571684035e-05 3.8529099974306757e-05 4.6647278958412064e-05 7.3443360654045428e-05 -6.7139595414946428e-06 -2.03757390777094e-05 4.9971835905988457e-05 5.4003870704812054e-05 2.2236526884398546e-05 1.6814129006516172e-05 2.196583054299797e-05 3.0421866431653294e-05 0.00012073226625250021 -1.6690127304601734e-05 -1.1126453662839772e-05 1.7410722446785972e-05 9.9301606774535554e-05 9.0939989069108032e-06 2.6895985953803937e-06 -1.0868222223836444e-05 3.3854801006576109e-05 
</DataArray>
</CellData>
</Piece>
</UnstructuredGrid>
</VTKFile>
