<?xml version="1.0"?>
<VTKFile type="UnstructuredGrid" version="0.1" byte_order="LittleEndian">
<UnstructuredGrid>
<Piece NumberOfPoints="3142" NumberOfCells="1054">
<Points>
<DataArray type="Float64" NumberOfComponents="3" format="ascii">
0.5 0.29999999999999999 0 0.54999999999999993 0.29999999999999999 0 0.54999999999999993 0.29999999999999999 0 0.59999999999999976 0.29999999999999999 0 0.59999999999999976 0.29999999999999999 0 0.6499999999999998 0.29999999999999999 0 0.6499999999999998 0.29999999999999999 0 0.69999999999999984 0.29999999999999999 0 0.69999999999999984 0.29999999999999999 0 0.74999999999999989 0.29999999999999999 0 0.74999999999999989 0.29999999999999999 0 0.79999999999999982 0.29999999999999999 0 0.79999999999999982 0.29999999999999999 0 0.84999999999999987 0.29999999999999999 0 0.84999999999999987 0.29999999999999999 0 0.89999999999999991 0.29999999999999999 0 0.89999999999999991 0.29999999999999999 0 0.94999999999999996 0.29999999999999999 0 0.94999999999999996 0.29999999999999999 0 1 0.29999999999999999 0 0.5 0.69999999999999996 0 0.54999999999999993 0.69999999999999996 0 0.54999999999999993 0.69999999999999996 0 0.59999999999999976 0.69999999999999996 0 0.59999999999999976 0.69999999999999996 0 0.6499999999999998 0.69999999999999996 0 0.6499999999999998 0.69999999999999996 0 0.69999999999999984 0.69999999999999996 0 0.69999999999999984 0.69999999999999996 0 0.74999999999999989 0.69999999999999996 0 0.74999999999999989 0.69999999999999996 0 0.79999999999999982 0.69999999999999996 0 0.79999999999999982 0.69999999999999996 0 0.84999999999999987 0.69999999999999996 0 0.84999999999999987 0.69999999999999996 0 0.89999999999999991 0.69999999999999996 0 0.89999999999999991 0.69999999999999996 0 0.94999999999999996 0.69999999999999996 0 0.94999999999999996 0.69999999999999996 0 1 0.69999999999999996 0 0.40076539126862748 0.34589349467022118 0 0.33277555741076909 0.36432196682010132 0 0.36575549820117997 0.31677992835137742 0 0.38083244760691543 0.38531983672244652 0 0.33277555741076909 0.36432196682010132 0 0.40076539126862748 0.34589349467022118 0 0.56836770495988642 0.3523062350852913 0 0.52289427570932567 0.3932284363388488 0 0.52752007115234678 0.33170632466418198 0 0.52752007115234678 0.33170632466418198 0 0.52289427570932567 0.3932284363388488 0 0.49077833859261139 0.35229981449445641 0 0.10000000000041601 1 0 0.053064897599294662 0.95186845269532028 0 0.10266856499240549 0.95548163909968886 0 0.099999999999814668 0 0 0.10266856499169109 0.044518360900210059 0 0.053064897599215843 0.048131547304697528 0 0.050000000000207989 1 0 0.053064897599294662 0.95186845269532028 0 0.10000000000041601 1 0 0.049999999999899652 0 0 0.099999999999814668 0 0 0.053064897599215843 0.048131547304697528 0 0.24999999999941211 0 0 0.29999999999926641 0 0 0.27499999999933927 0.060310814194988557 0 0.30000000000124832 1 0 0.25000000000104028 1 0 0.27609987656793722 0.94991445621608572 0 0.15720202157091859 0.60665697304410315 0 0.19914261668318661 0.62286739485272158 0 0.16500388252850301 0.66612077714085194 0 0.2236846579037573 0.67380363126050236 0 0.16500388252850301 0.66612077714085194 0 0.19914261668318661 0.62286739485272158 0 0.1247745017231483 0.27198077544791172 0 0.168349569971391 0.28054490850913671 0 0.14223753364722069 0.3341983344262433 0 0 0.75000000000034661 0 0 0.7000000000006934 0 0.049706944316475897 0.72477277076253799 0 0 0.30000000000124832 0 0 0.25000000000104028 0 0.049706944316556423 0.27522722923869108 0 0.59999999999999976 0.29999999999999999 0 0.61959173890754571 0.33832250091341232 0 0.56836770495988642 0.3523062350852913 0 0.5 0.69999999999999996 0 0.43323420005758778 0.6913544522562407 0 0.47913475093885149 0.66010775372412711 0 1 0.14999999999961891 0 0.95391631417672862 0.19584263333809451 0 0.93677536231883773 0.14999999999999089 0 1 0.84999999999982645 0 0.95391631417670719 0.89584263333814784 0 0.93677536231884972 0.85000000000000286 0 1 0.84999999999982645 0 0.93677536231884972 0.85000000000000286 0 0.95386563387742829 0.80414874155775029 0 1 0.14999999999961891 0 0.93677536231883773 0.14999999999999089 0 0.95386563387744361 0.1041487415577465 0 0.90416666666660628 0.9041666666666166 0 0.88088768115933802 0.84674609810493673 0 0.93677536231884972 0.85000000000000286 0 0.90416666666668166 0.20416666666667119 0 0.88088768115941807 0.14674609810479519 0 0.93677536231883773 0.14999999999999089 0 0.1247745017231483 0.27198077544791172 0 0.14223753364722069 0.3341983344262433 0 0.093851963071650835 0.30582068233324772 0 0.5 0.69999999999999996 0 0.45582236402875981 0.73896743678908217 0 0.43323420005758778 0.6913544522562407 0 0.55000000000173355 1 0 0.50000000000205869 1 0 0.52122150208832174 0.94089974453840242 0 0.49999999999869432 0 0 0.5499999999988151 0 0 0.52375890611712683 0.059318771819432882 0 0.54999999999999993 0.29999999999999999 0 0.59999999999999976 0.29999999999999999 0 0.56836770495988642 0.3523062350852913 0 0.50202631463681879 0.87892870825713787 0 0.44003836461056539 0.88093474584252718 0 0.45677673713123867 0.84253684404072415 0 0.33403534827021109 0.84402799729020661 0 0.35864759629805099 0.87963482415279515 0 0.30864387279288652 0.89906554525974958 0 0.53245488764484505 0.55078124999999989 0 0.47793794143994173 0.52940715638744962 0 0.53330375813596242 0.50827942741749099 0 0.82709327591102189 0.14937141670914489 0 0.81283102246527783 0.1881007222486438 0 0.77144070960558853 0.14311854477243749 0 0.82709327591091286 0.84937141670920724 0 0.81159157511211755 0.88795995483179491 0 0.76901770135486491 0.84293557325473656 0 0.77144070960558853 0.14311854477243749 0 0.81283102246527783 0.1881007222486438 0 0.76587607630038135 0.18880039518954719 0 0.76901770135486491 0.84293557325473656 0 0.81159157511211755 0.88795995483179491 0 0.76891166905518427 0.88835469571185499 0 0.33403534827021109 0.84402799729020661 0 0.30864387279288652 0.89906554525974958 0 0.29209212897034281 0.84715728365233667 0 0.57412547362576272 0.58273804879550706 0 0.5166924242153631 0.59825134841919447 0 0.53245488764484505 0.55078124999999989 0 0.50202631463681879 0.87892870825713787 0 0.47401147028110507 0.91529957330468115 0 0.44003836461056539 0.88093474584252718 0 0.5 0.69999999999999996 0 0.54999999999999993 0.69999999999999996 0 0.55363780716230748 0.74348740161571747 0 1 0.34999999999993492 0 0.95871855522754235 0.40006508612975411 0 0.95780851984364423 0.34215720972155339 0 1 0.64999999999986979 0 0.9578014258160763 0.65787212321113708 0 0.95867599106212187 0.60011091146651041 0 0.46666084890304671 0.57634471035397938 0 0.47793794143994173 0.52940715638744962 0 0.53245488764484505 0.55078124999999989 0 0.94999999999999996 0.29999999999999999 0 0.89898474358614167 0.25391965591104898 0 0.94399509803921056 0.24399509803922639 0 0.94999999999979179 1 0 0.89898474358632463 0.95391965591118966 0 0.94399509803919068 0.9439950980391687 0 0 0.65000000000104008 0 0.050069554451969707 0.61308520079857043 0 0.046634677244967337 0.671418230738282 0 0 0.35000000000145642 0 0.046389130980076937 0.32668781832131749 0 0.050583896093752537 0.38543522283434112 0 0.50202631463681879 0.87892870825713787 0 0.50627822638148745 0.8263979829520941 0 0.55899371797446828 0.85003102233514438 0 0.54782696902220018 0.79245182748204157 0 0.55899371797446828 0.85003102233514438 0 0.50627822638148745 0.8263979829520941 0 0.50945740445113552 0.75476055527778108 0 0.5 0.69999999999999996 0 0.55363780716230748 0.74348740161571747 0 0.84999999999965292 1 0 0.85170973911348691 0.93569607295217616 0 0.89898474358632463 0.95391965591118966 0 0.84999999999999987 0.29999999999999999 0 0.8517097391133297 0.2356960729520409 0 0.89898474358614167 0.25391965591104898 0 0.86956835336234861 0.571283299838105 0 0.82862096804812391 0.55037090955459045 0 0.86907294890112186 0.52008116128001669 0 0.49102375406324739 0.49123754822244059 0 0.53330375813596242 0.50827942741749099 0 0.47793794143994173 0.52940715638744962 0 0.57611405284611883 0.50165903596042916 0 0.61547661924074692 0.48539576058873962 0 0.62042975506801734 0.54295974692364424 0 0.71406021706547751 0.63292083137662503 0 0.67529834988829951 0.61613270668143583 0 0.71809016091162536 0.58185040402320831 0 0.65000000000104008 1 0 0.62065498684670595 0.95224934003983619 0 0.68015064798562208 0.95924320340003011 0 0.84999999999960507 0 0 0.899991664607802 0.045289349238254978 0 0.85491058998398861 0.060047533455626502 0 0.84999999999999987 0.69999999999999996 0 0.89999166460796554 0.74528934923809909 0 0.85491058998424563 0.76004753345552634 0 0.89999999999999991 0.29999999999999999 0 0.89898474358614167 0.25391965591104898 0 0.94999999999999996 0.29999999999999999 0 0.94999999999979179 1 0 0.89999999999958358 1 0 0.89898474358632463 0.95391965591118966 0 0.86411095495256451 0.42388805655111889 0 0.81308179852519835 0.39754945808726527 0 0.86844634540301924 0.38530937474099819 0 0.5 0.29999999999999999 0 0.49695729691142171 0.25014895411178018 0 0.54248833945060504 0.2520322959927106 0 0.86411095495256451 0.42388805655111889 0 0.81973119833356312 0.43505687159469048 0 0.81308179852519835 0.39754945808726527 0 0.67323294229744413 0.57556450033612505 0 0.71809016091162536 0.58185040402320831 0 0.67529834988829951 0.61613270668143583 0 0.6236733212988993 0.14864538214901801 0 0.68391457121233579 0.14440470121196541 0 0.64011864159029941 0.18789607982138171 0 0 0.050000000000207989 0 0.053064897599215843 0.048131547304697528 0 0.044310582753132287 0.101412518374475 0 0 0.94999999999979179 0 0.0443105827531413 0.89858748162559932 0 0.053064897599294662 0.95186845269532028 0 1 0.34999999999993492 0 1 0.39999999999978308 0 0.95871855522754235 0.40006508612975411 0 1 0.59999999999973963 0 1 0.64999999999986979 0 0.95867599106212187 0.60011091146651041 0 0 0.84999999999965292 0 0.065374659239661639 0.8551091961254178 0 0.0443105827531413 0.89858748162559932 0 0 0.15000000000062411 0 0.044310582753132287 0.101412518374475 0 0.065374659239632718 0.1448908038746782 0 0.16500388252850301 0.66612077714085194 0 0.1020579365089687 0.69352219419301997 0 0.1241190223511371 0.64391885572885044 0 0.14999999999970359 0 0 0.14618258501891079 0.062070108745602003 0 0.10266856499169109 0.044518360900210059 0 0.15000000000062411 1 0 0.10266856499240549 0.95548163909968886 0 0.14617343800780541 0.93808063414349496 0 0.7152569930854884 0.5237994455134295 0 0.67569444444444449 0.53500863336860327 0 0.69385896817107129 0.48377516041410151 0 0.6541250972820879 0.49999999999999989 0 0.62042975506801734 0.54295974692364424 0 0.61547661924074692 0.48539576058873962 0 0.94999999999999996 0.69999999999999996 0 0.94399509803918602 0.75600490196082126 0 0.89999166460796554 0.74528934923809909 0 0.94999999999986839 0 0 0.94399509803922566 0.056004901960802607 0 0.899991664607802 0.045289349238254978 0 0.6541250972820879 0.49999999999999989 0 0.69385896817107129 0.48377516041410151 0 0.67569444444444449 0.53500863336860327 0 0.82862096804812391 0.55037090955459045 0 0.81723410853263523 0.59419663659258926 0 0.77151014687832564 0.54436834383023036 0 0.7250000000005199 0.89375000000045834 0 0.66412543161245952 0.88015090885499059 0 0.68697391633157634 0.84450604838764298 0 0 0.94999999999979179 0 0 0.89999999999958358 0 0.0443105827531413 0.89858748162559932 0 0 0.10000000000041601 0 0 0.050000000000207989 0 0.044310582753132287 0.101412518374475 0 0.16500388252850301 0.66612077714085194 0 0.15332765547575641 0.71200081858233666 0 0.1020579365089687 0.69352219419301997 0 0.90299850604011456 0.79563452813489832 0 0.93677536231884972 0.85000000000000286 0 0.88088768115933802 0.84674609810493673 0 0.90299850604006393 0.09563452813493091 0 0.93677536231883773 0.14999999999999089 0 0.88088768115941807 0.14674609810479519 0 0.68391457121233579 0.14440470121196541 0 0.6865991819015953 0.189116534044597 0 0.64011864159029941 0.18789607982138171 0 0.085622222639554768 0.53333248912060549 0 0.1216098864341134 0.50637075089503902 0 0.1154888278694548 0.56733818459978413 0 0.21858834311891909 0.81980263716112767 0 0.22556077506376701 0.77837424984191617 0 0.26104540868854792 0.81401944968719064 0 0.81723410853263523 0.59419663659258926 0 0.77293540622714185 0.59448302402785813 0 0.77151014687832564 0.54436834383023036 0 0.1154888278694548 0.56733818459978413 0 0.1216098864341134 0.50637075089503902 0 0.14934928745814749 0.55042914607228977 0 0.1216098864341134 0.50637075089503902 0 0.068743045408989428 0.48853989837882689 0 0.113541300460994 0.46208784312094731 0 0.078358742472063481 0.43365249433908948 0 0.113541300460994 0.46208784312094731 0 0.068743045408989428 0.48853989837882689 0 0.83573492347052902 0.36590755630746369 0 0.81308179852519835 0.39754945808726527 0 0.78145581580700685 0.34881365920033602 0 0.57611405284611883 0.50165903596042916 0 0.62042975506801734 0.54295974692364424 0 0.57435499076887508 0.54267261987897775 0 0.86956835336234861 0.571283299838105 0 0.81723410853263523 0.59419663659258926 0 0.82862096804812391 0.55037090955459045 0 0.46666084890304671 0.57634471035397938 0 0.53245488764484505 0.55078124999999989 0 0.5166924242153631 0.59825134841919447 0 0.89999999999999991 0.69999999999999996 0 0.94999999999999996 0.69999999999999996 0 0.89999166460796554 0.74528934923809909 0 0.89999999999973679 0 0 0.94999999999986839 0 0 0.899991664607802 0.045289349238254978 0 0.84999999999960507 0 0 0.89999999999973679 0 0 0.899991664607802 0.045289349238254978 0 0.84999999999999987 0.69999999999999996 0 0.89999999999999991 0.69999999999999996 0 0.89999166460796554 0.74528934923809909 0 0.43545892161006339 0.61093128915313821 0 0.4089290844030305 0.58728915500154233 0 0.46666084890304671 0.57634471035397938 0 0.1650278706801647 0.38791388161335733 0 0.1117088112799664 0.38831403004970022 0 0.14223753364722069 0.3341983344262433 0 0.087545339447545459 0.35122518864182262 0 0.14223753364722069 0.3341983344262433 0 0.1117088112799664 0.38831403004970022 0 0.6916490518212759 0.75387992374886192 0 0.72501250972655151 0.74067302935308721 0 0.72500000000000064 0.7952620967744265 0 0.72501250972655151 0.74067302935308721 0 0.75841349681148107 0.75422312624214749 0 0.72500000000000064 0.7952620967744265 0 0.57412547362576272 0.58273804879550706 0 0.53245488764484505 0.55078124999999989 0 0.57435499076887508 0.54267261987897775 0 1 0.54999999999963112 0 0.95867599106212187 0.60011091146651041 0 0.93732437411268477 0.55911392101136159 0 1 0.44999999999963131 0 0.93814194660195893 0.44426664081746747 0 0.95871855522754235 0.40006508612975411 0 0.4089290844030305 0.58728915500154233 0 0.42644501560315817 0.54603747078095544 0 0.46666084890304671 0.57634471035397938 0 0.89999999999958358 1 0 0.84999999999965292 1 0 0.89898474358632463 0.95391965591118966 0 0.84999999999999987 0.29999999999999999 0 0.89898474358614167 0.25391965591104898 0 0.89999999999999991 0.29999999999999999 0 0.29999999999926641 0 0 0.32541448401678508 0.046215317981507749 0 0.27499999999933927 0.060310814194988557 0 0.30000000000124832 1 0 0.27609987656793722 0.94991445621608572 0 0.32544832635163229 0.95485394099568932 0 0.57412547362576272 0.58273804879550706 0 0.62042975506801734 0.54295974692364424 0 0.63065402604362242 0.59661356661633302 0 0.5 0.29999999999999999 0 0.54248833945060504 0.2520322959927106 0 0.54999999999999993 0.29999999999999999 0 0.67323294229744413 0.57556450033612505 0 0.62042975506801734 0.54295974692364424 0 0.67569444444444449 0.53500863336860327 0 0.6541250972820879 0.49999999999999989 0 0.67569444444444449 0.53500863336860327 0 0.62042975506801734 0.54295974692364424 0 1 0.14999999999961891 0 1 0.19999999999974799 0 0.95391631417672862 0.19584263333809451 0 1 0.84999999999982645 0 1 0.8999999999998336 0 0.95391631417670719 0.89584263333814784 0 1 0.7999999999998193 0 1 0.84999999999982645 0 0.95386563387742829 0.80414874155775029 0 1 0.099999999999753911 0 1 0.14999999999961891 0 0.95386563387744361 0.1041487415577465 0 0.4656888918609538 0.78493261229743638 0 0.50627822638148745 0.8263979829520941 0 0.45677673713123867 0.84253684404072415 0 0.6879972333610942 0.43038561374960838 0 0.72622533758026719 0.40265885511101601 0 0.73483647259922602 0.44789725365921768 0 0.67323294229744413 0.57556450033612505 0 0.67569444444444449 0.53500863336860327 0 0.71809016091162536 0.58185040402320831 0 0.7152569930854884 0.5237994455134295 0 0.71809016091162536 0.58185040402320831 0 0.67569444444444449 0.53500863336860327 0 0.65394964615507722 0.22666784374016369 0 0.59814117807200873 0.23398510860739519 0 0.64011864159029941 0.18789607982138171 0 0.55000000000173355 1 0 0.52122150208832174 0.94089974453840242 0 0.57382506491224949 0.9629411906298494 0 0.39801143831225599 0.16651381068160659 0 0.44288491854585582 0.14116182884956319 0 0.42905200079338551 0.19982395548231649 0 0.47357141910802508 0.1873585799078378 0 0.42905200079338551 0.19982395548231649 0 0.44288491854585582 0.14116182884956319 0 0.90594285160987287 0.4141265964174129 0 0.88594198078881503 0.46167788676578442 0 0.86411095495256451 0.42388805655111889 0 0.65507451745379841 0.92229208810758578 0 0.68015064798562208 0.95924320340003011 0 0.62065498684670595 0.95224934003983619 0 0.35312867752657662 0.084946736076730367 0 0.39591832466117061 0.056982757562006353 0 0.39823268594401579 0.1116623613130045 0 0.43698630808430822 0.080423614171545449 0 0.39823268594401579 0.1116623613130045 0 0.39591832466117061 0.056982757562006353 0 0.4367309254023824 0.92065556789053882 0 0.39641108128798319 0.94356127926187128 0 0.39767323751400468 0.89584229130535065 0 0.35752321586431363 0.9185439911803448 0 0.39767323751400468 0.89584229130535065 0 0.39641108128798319 0.94356127926187128 0 0.77354604466818633 0.40378688774472771 0 0.77972660463949339 0.45529290596363098 0 0.73483647259922602 0.44789725365921768 0 0.5499999999988151 0 0 0.57396793757665954 0.037011367187645222 0 0.52375890611712683 0.059318771819432882 0 0.64753070846764316 0.77332939069435502 0 0.60294066490120068 0.80851322453934582 0 0.59636844454254345 0.75937156204589151 0 0.49102375406324739 0.49123754822244059 0 0.48858720058566618 0.43964267759203868 0 0.53823865529665704 0.45873898050322898 0 0.28307294598219601 0.50789252727458634 0 0.29110487519241501 0.56588143995431495 0 0.25115337790845271 0.54719303014923271 0 0.79680861578988083 0.92656778056766709 0 0.81159157511211755 0.88795995483179491 0 0.85170973911348691 0.93569607295217616 0 0.79680861578956375 0.22656778056752541 0 0.81283102246527783 0.1881007222486438 0 0.8517097391133297 0.2356960729520409 0 0.57412547362576272 0.58273804879550706 0 0.57435499076887508 0.54267261987897775 0 0.62042975506801734 0.54295974692364424 0 0.93814194660195893 0.44426664081746747 0 0.88594198078881503 0.46167788676578442 0 0.90594285160987287 0.4141265964174129 0 0.7152569930854884 0.5237994455134295 0 0.73947346780852752 0.49062440112282169 0 0.77151014687832564 0.54436834383023036 0 0 0.7000000000006934 0 0.046634677244967337 0.671418230738282 0 0.049706944316475897 0.72477277076253799 0 0 0.30000000000124832 0 0.049706944316556423 0.27522722923869108 0 0.046389130980076937 0.32668781832131749 0 0.59814117807200873 0.23398510860739519 0 0.59443395090188023 0.18455690917515069 0 0.64011864159029941 0.18789607982138171 0 0.21858834311891909 0.81980263716112767 0 0.26104540868854792 0.81401944968719064 0 0.2401283238295133 0.85648409884788523 0 0.39536230704883951 0.84069429572832477 0 0.45677673713123867 0.84253684404072415 0 0.44003836461056539 0.88093474584252718 0 0.086179601630648681 0.64647209519980475 0 0.050069554451969707 0.61308520079857043 0 0.1024350934457823 0.60772393977513839 0 0.077693244765132896 0.56932317963405099 0 0.1024350934457823 0.60772393977513839 0 0.050069554451969707 0.61308520079857043 0 0.078358742472063481 0.43365249433908948 0 0.050583896093752537 0.38543522283434112 0 0.1117088112799664 0.38831403004970022 0 0.087545339447545459 0.35122518864182262 0 0.1117088112799664 0.38831403004970022 0 0.050583896093752537 0.38543522283434112 0 0.33403534827021109 0.84402799729020661 0 0.35642984951668422 0.80994399665655703 0 0.39536230704883951 0.84069429572832477 0 0.28307294598219601 0.50789252727458634 0 0.33190227185843768 0.52715113583864037 0 0.29110487519241501 0.56588143995431495 0 0.2236846579037573 0.67380363126050236 0 0.19068556247388771 0.71028988922845504 0 0.16500388252850301 0.66612077714085194 0 0.26104540868854792 0.81401944968719064 0 0.22556077506376701 0.77837424984191617 0 0.2792923945214143 0.77665808831789485 0 0.38244435121258652 0.51653317813019495 0 0.37272913873093971 0.56192925302619479 0 0.33190227185843768 0.52715113583864037 0 0.25195515620380449 0.25883339815888678 0 0.29132859388405002 0.27203693976649962 0 0.24432083401701241 0.3006253385567515 0 0.29348325746214782 0.31350119524708198 0 0.24432083401701241 0.3006253385567515 0 0.29132859388405002 0.27203693976649962 0 0 0.89999999999958358 0 0 0.84999999999965292 0 0.0443105827531413 0.89858748162559932 0 0 0.15000000000062411 0 0 0.10000000000041601 0 0.044310582753132287 0.101412518374475 0 0.59999999999999976 0.69999999999999996 0 0.59636844454254345 0.75937156204589151 0 0.55363780716230748 0.74348740161571747 0 0.1650278706801647 0.38791388161335733 0 0.22033343844674469 0.36963382230740238 0 0.191953871957803 0.42546416763755879 0 0.52289427570932567 0.3932284363388488 0 0.46655310992796922 0.39650496622958609 0 0.49077833859261139 0.35229981449445641 0 0.91696753777131557 0.497780560203536 0 0.88594198078881503 0.46167788676578442 0 0.93814194660195893 0.44426664081746747 0 0.24999999999941211 0 0 0.27499999999933927 0.060310814194988557 0 0.22668068146512929 0.045875643423131329 0 0.25000000000104028 1 0 0.22850979588452081 0.95594428570238643 0 0.27609987656793722 0.94991445621608572 0 0.77846603114747959 0.49850927265137401 0 0.77151014687832564 0.54436834383023036 0 0.73947346780852752 0.49062440112282169 0 0.27499999999933927 0.060310814194988557 0 0.27474541102162192 0.11822029332053539 0 0.24218496799700481 0.089025544070598317 0 0.27270076654418179 0.87751467830216623 0 0.29209212897034281 0.84715728365233667 0 0.30864387279288652 0.89906554525974958 0 0.3096713403101819 0.085471541595262421 0 0.27474541102162192 0.11822029332053539 0 0.27499999999933927 0.060310814194988557 0 0.17933913398461551 0.2350063570234002 0 0.18124454140915969 0.18790916706335251 0 0.224700362040408 0.22206622194729711 0 0.18269480424590959 0.75905448272264375 0 0.22556077506376701 0.77837424984191617 0 0.17777405986036951 0.81832336108265358 0 0.35864759629805099 0.87963482415279515 0 0.33403534827021109 0.84402799729020661 0 0.39536230704883951 0.84069429572832477 0 0.77354604466818633 0.40378688774472771 0 0.73483647259922602 0.44789725365921768 0 0.72622533758026719 0.40265885511101601 0 0.80185942888539485 0.77452061303608133 0 0.85491058998424563 0.76004753345552634 0 0.84725310900444062 0.80779732082917555 0 0.80185942888501827 0.074520613036224564 0 0.85491058998398861 0.060047533455626502 0 0.84725310900442086 0.10779732082922661 0 0.086179601630648681 0.64647209519980475 0 0.046634677244967337 0.671418230738282 0 0.050069554451969707 0.61308520079857043 0 0.087545339447545459 0.35122518864182262 0 0.050583896093752537 0.38543522283434112 0 0.046389130980076937 0.32668781832131749 0 0 0.75000000000034661 0 0.049706944316475897 0.72477277076253799 0 0.04408157711937423 0.7728941757575627 0 0 0.25000000000104028 0 0.044081577119474857 0.2271058242433576 0 0.049706944316556423 0.27522722923869108 0 0.52289427570932567 0.3932284363388488 0 0.56836770495988642 0.3523062350852913 0 0.57744073070774993 0.41535148636609359 0 0.6084546825910605 0.37989672713932537 0 0.57744073070774993 0.41535148636609359 0 0.56836770495988642 0.3523062350852913 0 0.61343887413683884 0.856862479058357 0 0.55899371797446828 0.85003102233514438 0 0.60294066490120068 0.80851322453934582 0 0.54782696902220018 0.79245182748204157 0 0.60294066490120068 0.80851322453934582 0 0.55899371797446828 0.85003102233514438 0 0.40326160981139969 0.73346192995102844 0 0.36622285152418499 0.69092437780804039 0 0.43323420005758778 0.6913544522562407 0 0.52289427570932567 0.3932284363388488 0 0.48858720058566618 0.43964267759203868 0 0.46655310992796922 0.39650496622958609 0 0.15720202157091859 0.60665697304410315 0 0.1154888278694548 0.56733818459978413 0 0.14934928745814749 0.55042914607228977 0 0.6879972333610942 0.43038561374960838 0 0.73483647259922602 0.44789725365921768 0 0.69385896817107129 0.48377516041410151 0 0.7250000000005199 0.89375000000045834 0 0.68987011941058407 0.92105047536677087 0 0.66412543161245952 0.88015090885499059 0 0.83573492347052902 0.36590755630746369 0 0.78145581580700685 0.34881365920033602 0 0.82500000000000062 0.33010209762754811 0 0.82862096804812391 0.55037090955459045 0 0.81441713509985358 0.51161854125224959 0 0.86907294890112186 0.52008116128001669 0 0.19670163708476801 0.31472518408333222 0 0.14223753364722069 0.3341983344262433 0 0.168349569971391 0.28054490850913671 0 0.50202631463681879 0.87892870825713787 0 0.45677673713123867 0.84253684404072415 0 0.50627822638148745 0.8263979829520941 0 0.099999999999814668 0 0 0.14999999999970359 0 0 0.10266856499169109 0.044518360900210059 0 0.15000000000062411 1 0 0.10000000000041601 1 0 0.10266856499240549 0.95548163909968886 0 0.67323294229744413 0.57556450033612505 0 0.63065402604362242 0.59661356661633302 0 0.62042975506801734 0.54295974692364424 0 0.083105206071467416 0.20007701332709979 0 0.13737030665753211 0.20313708640667491 0 0.095326043202144745 0.24554465089224409 0 0.083105206071452636 0.79992298667296435 0 0.090953281884486245 0.7564451946902494 0 0.1382744753146134 0.79650574229207483 0 0.50000000000205869 1 0 0.47135117303824892 0.95556877749289892 0 0.52122150208832174 0.94089974453840242 0 0.49999999999869432 0 0 0.52375890611712683 0.059318771819432882 0 0.47040171442036788 0.044141676406503738 0 0.4656888918609538 0.78493261229743638 0 0.45582236402875981 0.73896743678908217 0 0.50945740445113552 0.75476055527778108 0 0.5 0.69999999999999996 0 0.50945740445113552 0.75476055527778108 0 0.45582236402875981 0.73896743678908217 0 0.55306006949600994 0.20198184231352201 0 0.56202748619534593 0.15054058349222879 0 0.59443395090188023 0.18455690917515069 0 0.6236733212988993 0.14864538214901801 0 0.59443395090188023 0.18455690917515069 0 0.56202748619534593 0.15054058349222879 0 0.57412547362576272 0.58273804879550706 0 0.5498280205245758 0.6290146943450976 0 0.5166924242153631 0.59825134841919447 0 0.91696753777131557 0.497780560203536 0 0.93814194660195893 0.44426664081746747 0 0.96228564064454991 0.48206450662049471 0 0.15720202157091859 0.60665697304410315 0 0.16500388252850301 0.66612077714085194 0 0.1241190223511371 0.64391885572885044 0 0.44288491854585582 0.14116182884956319 0 0.47881186583059909 0.093591717165689425 0 0.48466639505193998 0.1421439844745814 0 1 0.54999999999963112 0 0.93732437411268477 0.55911392101136159 0 0.95631871884947484 0.51827533208233789 0 0.57724883562309992 0.92155686857100794 0 0.57382506491224949 0.9629411906298494 0 0.52122150208832174 0.94089974453840242 0 0.85170973911348691 0.93569607295217616 0 0.81159157511211755 0.88795995483179491 0 0.85600844944837662 0.88483418979512773 0 0.8517097391133297 0.2356960729520409 0 0.81283102246527783 0.1881007222486438 0 0.85600844944842547 0.1848341897950983 0 0.27866744612395528 0.38416094670951489 0 0.29124338931648802 0.43334555462578611 0 0.24049127783545701 0.41270748208749802 0 0.6084546825910605 0.37989672713932537 0 0.56836770495988642 0.3523062350852913 0 0.61959173890754571 0.33832250091341232 0 0.20050006573841939 0.53248514016039872 0 0.25115337790845271 0.54719303014923271 0 0.22549374774072969 0.58452645269293457 0 0.26573297623774761 0.59828298563722948 0 0.22549374774072969 0.58452645269293457 0 0.25115337790845271 0.54719303014923271 0 0.26104540868854792 0.81401944968719064 0 0.29209212897034281 0.84715728365233667 0 0.2401283238295133 0.85648409884788523 0 0.6236733212988993 0.14864538214901801 0 0.65290632656860115 0.11434202593454081 0 0.68391457121233579 0.14440470121196541 0 0.19901705110390991 0.9175543425573498 0 0.19741632902693801 0.86755867406447229 0 0.24536017905392571 0.90704567837671446 0 0.72500000000000064 0.7952620967744265 0 0.76901770135486491 0.84293557325473656 0 0.72863726579783861 0.85390518901155588 0 0.72500000000000064 0.7952620967744265 0 0.72863726579783861 0.85390518901155588 0 0.68697391633157634 0.84450604838764298 0 0.7250000000005199 0.89375000000045834 0 0.68697391633157634 0.84450604838764298 0 0.72863726579783861 0.85390518901155588 0 0.72525833953073282 0.1032114801687094 0 0.77144070960558853 0.14311854477243749 0 0.72634814642510737 0.16106886917518889 0 0.72525833953073282 0.1032114801687094 0 0.72634814642510737 0.16106886917518889 0 0.68391457121233579 0.14440470121196541 0 0.36622285152418499 0.69092437780804039 0 0.3977710372045391 0.65868194622830212 0 0.43323420005758778 0.6913544522562407 0 0 0.65000000000104008 0 0 0.60000000000138687 0 0.050069554451969707 0.61308520079857043 0 0 0.40000000000166441 0 0 0.35000000000145642 0 0.050583896093752537 0.38543522283434112 0 0.22033343844674469 0.36963382230740238 0 0.24049127783545701 0.41270748208749802 0 0.191953871957803 0.42546416763755879 0 0.5 0.29999999999999999 0 0.4604742573284204 0.27846934318264788 0 0.49695729691142171 0.25014895411178018 0 0.19741632902693801 0.86755867406447229 0 0.2401283238295133 0.85648409884788523 0 0.24536017905392571 0.90704567837671446 0 0 0.50000000000205869 0 0.068743045408989428 0.48853989837882689 0 0.044576108720083309 0.53509043209532614 0 0.15000000000062411 1 0 0.14617343800780541 0.93808063414349496 0 0.18474005699953849 0.96231585248064622 0 0.14999999999970359 0 0 0.184418230509967 0.038773194583122873 0 0.14618258501891079 0.062070108745602003 0 0.57667858002728545 0.078486105337742612 0 0.52375890611712683 0.059318771819432882 0 0.57396793757665954 0.037011367187645222 0 0.113541300460994 0.46208784312094731 0 0.078358742472063481 0.43365249433908948 0 0.13773355295499351 0.42497777642586831 0 0.77354604466818633 0.40378688774472771 0 0.78145581580700685 0.34881365920033602 0 0.81308179852519835 0.39754945808726527 0 0.38244435121258652 0.51653317813019495 0 0.33190227185843768 0.52715113583864037 0 0.35024835142131061 0.48654922671676981 0 0.64753070846764316 0.77332939069435502 0 0.65005442820240822 0.82644988530054031 0 0.60294066490120068 0.80851322453934582 0 0.15720202157091859 0.60665697304410315 0 0.1024350934457823 0.60772393977513839 0 0.1154888278694548 0.56733818459978413 0 0.90416666666660628 0.9041666666666166 0 0.85600844944837662 0.88483418979512773 0 0.88088768115933802 0.84674609810493673 0 0.90416666666668166 0.20416666666667119 0 0.85600844944842547 0.1848341897950983 0 0.88088768115941807 0.14674609810479519 0 0.078358742472063481 0.43365249433908948 0 0.1117088112799664 0.38831403004970022 0 0.13773355295499351 0.42497777642586831 0 0.38244435121258652 0.51653317813019495 0 0.3908716102680424 0.47010282357248828 0 0.43507373378304309 0.49699695397193322 0 0.90299850604011456 0.79563452813489832 0 0.95386563387742829 0.80414874155775029 0 0.93677536231884972 0.85000000000000286 0 0.90416666666660628 0.9041666666666166 0 0.93677536231884972 0.85000000000000286 0 0.95391631417670719 0.89584263333814784 0 0.90299850604006393 0.09563452813493091 0 0.95386563387744361 0.1041487415577465 0 0.93677536231883773 0.14999999999999089 0 0.90416666666668166 0.20416666666667119 0 0.93677536231883773 0.14999999999999089 0 0.95391631417672862 0.19584263333809451 0 0.39536230704883951 0.84069429572832477 0 0.44003836461056539 0.88093474584252718 0 0.39767323751400468 0.89584229130535065 0 0.51076801031701946 0.1202837388510348 0 0.52375890611712683 0.059318771819432882 0 0.54979595918804436 0.1060565713905809 0 0.57667858002728545 0.078486105337742612 0 0.54979595918804436 0.1060565713905809 0 0.52375890611712683 0.059318771819432882 0 0.57724883562309992 0.92155686857100794 0 0.52122150208832174 0.94089974453840242 0 0.54783390826260769 0.89287767010860219 0 0.50202631463681879 0.87892870825713787 0 0.54783390826260769 0.89287767010860219 0 0.52122150208832174 0.94089974453840242 0 0.087545339447545459 0.35122518864182262 0 0.093851963071650835 0.30582068233324772 0 0.14223753364722069 0.3341983344262433 0 0.54999999999999993 0.69999999999999996 0 0.59999999999999976 0.69999999999999996 0 0.55363780716230748 0.74348740161571747 0 0.083105206071452636 0.79992298667296435 0 0.1074251789111534 0.83564394292147814 0 0.065374659239661639 0.8551091961254178 0 0.083105206071467416 0.20007701332709979 0 0.065374659239632718 0.1448908038746782 0 0.106902708054812 0.16453234188234539 0 0.52289427570932567 0.3932284363388488 0 0.53823865529665704 0.45873898050322898 0 0.48858720058566618 0.43964267759203868 0 0.13737030665753211 0.20313708640667491 0 0.14377654328998779 0.2442024734791064 0 0.095326043202144745 0.24554465089224409 0 0.1382744753146134 0.79650574229207483 0 0.090953281884486245 0.7564451946902494 0 0.14335651144331049 0.75565258250209677 0 0.27270076654418179 0.87751467830216623 0 0.30864387279288652 0.89906554525974958 0 0.24536017905392571 0.90704567837671446 0 0.27609987656793722 0.94991445621608572 0 0.24536017905392571 0.90704567837671446 0 0.30864387279288652 0.89906554525974958 0 0.90299850604011456 0.79563452813489832 0 0.84725310900444062 0.80779732082917555 0 0.85491058998424563 0.76004753345552634 0 0.90299850604006393 0.09563452813493091 0 0.84725310900442086 0.10779732082922661 0 0.85491058998398861 0.060047533455626502 0 1 0.54999999999963112 0 1 0.59999999999973963 0 0.95867599106212187 0.60011091146651041 0 1 0.39999999999978308 0 1 0.44999999999963131 0 0.95871855522754235 0.40006508612975411 0 0.28040350263641872 0.23054717217092141 0 0.25195515620380449 0.25883339815888678 0 0.224700362040408 0.22206622194729711 0 0.84999999999999987 0.29999999999999999 0 0.87430060258887643 0.34056085888204451 0 0.82500000000000062 0.33010209762754811 0 0.84999999999999987 0.69999999999999996 0 0.82457059160610424 0.66831947184359608 0 0.87712158428786946 0.65709029563313581 0 0.86956835336234861 0.571283299838105 0 0.87159648282691515 0.61285406320581504 0 0.81723410853263523 0.59419663659258926 0 0.43698630808430822 0.080423614171545449 0 0.47881186583059909 0.093591717165689425 0 0.44288491854585582 0.14116182884956319 0 1 0.44999999999963131 0 0.96228564064454991 0.48206450662049471 0 0.93814194660195893 0.44426664081746747 0 0.35752321586431363 0.9185439911803448 0 0.30864387279288652 0.89906554525974958 0 0.35864759629805099 0.87963482415279515 0 0.29124338931648802 0.43334555462578611 0 0.25982634974572738 0.46097799597715272 0 0.24049127783545701 0.41270748208749802 0 0.51076801031701946 0.1202837388510348 0 0.56202748619534593 0.15054058349222879 0 0.51729576145820033 0.1683240575987815 0 0.55306006949600994 0.20198184231352201 0 0.51729576145820033 0.1683240575987815 0 0.56202748619534593 0.15054058349222879 0 0.26429849586623999 0.19346700179430079 0 0.28040350263641872 0.23054717217092141 0 0.224700362040408 0.22206622194729711 0 0.51076801031701946 0.1202837388510348 0 0.48466639505193998 0.1421439844745814 0 0.47881186583059909 0.093591717165689425 0 0.2185883431182947 0.18019736283949719 0 0.26429849586623999 0.19346700179430079 0 0.224700362040408 0.22206622194729711 0 0.18269480424590959 0.75905448272264375 0 0.2248999640082178 0.72584299459689172 0 0.22556077506376701 0.77837424984191617 0 0.51076801031701946 0.1202837388510348 0 0.47881186583059909 0.093591717165689425 0 0.52375890611712683 0.059318771819432882 0 0.50202631463681879 0.87892870825713787 0 0.52122150208832174 0.94089974453840242 0 0.47401147028110507 0.91529957330468115 0 0 0.84999999999965292 0 0.038512288486097702 0.8155852717111195 0 0.065374659239661639 0.8551091961254178 0 0 0.15000000000062411 0 0.065374659239632718 0.1448908038746782 0 0.038512288486115001 0.1844147282893184 0 0.2185883431182947 0.18019736283949719 0 0.224700362040408 0.22206622194729711 0 0.18124454140915969 0.18790916706335251 0 0.21858834311891909 0.81980263716112767 0 0.17777405986036951 0.81832336108265358 0 0.22556077506376701 0.77837424984191617 0 0.1215415378367805 0.72939333680004137 0 0.1020579365089687 0.69352219419301997 0 0.15332765547575641 0.71200081858233666 0 0.49695729691142171 0.25014895411178018 0 0.50760557329222289 0.20700468884612061 0 0.54248833945060504 0.2520322959927106 0 0.15720202157091859 0.60665697304410315 0 0.14934928745814749 0.55042914607228977 0 0.18381867841758909 0.57774125163628387 0 0.90416666666660628 0.9041666666666166 0 0.85170973911348691 0.93569607295217616 0 0.85600844944837662 0.88483418979512773 0 0.90416666666668166 0.20416666666667119 0 0.8517097391133297 0.2356960729520409 0 0.85600844944842547 0.1848341897950983 0 0.17933913398461551 0.2350063570234002 0 0.13737030665753211 0.20313708640667491 0 0.18124454140915969 0.18790916706335251 0 0.18269480424590959 0.75905448272264375 0 0.17777405986036951 0.81832336108265358 0 0.1382744753146134 0.79650574229207483 0 0.1216098864341134 0.50637075089503902 0 0.15801167086041079 0.46008690540259539 0 0.16618607197337229 0.50652878253548905 0 0.50760557329222289 0.20700468884612061 0 0.55306006949600994 0.20198184231352201 0 0.54248833945060504 0.2520322959927106 0 0.75000000000034661 1 0 0.7000000000006934 1 0 0.7250000000005199 0.94981617647078953 0 0.69999999999999984 0.29999999999999999 0 0.72500000000000064 0.2498161764706 0 0.74999999999999989 0.29999999999999999 0 0.72525833953073282 0.1032114801687094 0 0.68391457121233579 0.14440470121196541 0 0.68330259535470161 0.10038702501083881 0 0.43249999999999988 0.43937499999999979 0 0.46655310992796922 0.39650496622958609 0 0.48858720058566618 0.43964267759203868 0 0.19901705110390991 0.9175543425573498 0 0.14617343800780541 0.93808063414349496 0 0.16206583317966519 0.89685560785156404 0 0.19922788606653311 0.085920220746880993 0 0.16141998738593399 0.10404039647458049 0 0.14618258501891079 0.062070108745602003 0 0.31378396441836959 0.70157213313026345 0 0.26439878998046262 0.7048065392091396 0 0.27820712747429932 0.65530134213254643 0 0.1216098864341134 0.50637075089503902 0 0.113541300460994 0.46208784312094731 0 0.15801167086041079 0.46008690540259539 0 0.6084546825910605 0.37989672713932537 0 0.65481233915350323 0.35652751921065562 0 0.63912439215427275 0.41063340167983359 0 0.19901705110390991 0.9175543425573498 0 0.18474005699953849 0.96231585248064622 0 0.14617343800780541 0.93808063414349496 0 0.19922788606653311 0.085920220746880993 0 0.14618258501891079 0.062070108745602003 0 0.184418230509967 0.038773194583122873 0 0.38244435121258652 0.51653317813019495 0 0.35024835142131061 0.48654922671676981 0 0.3908716102680424 0.47010282357248828 0 0.82709327591102189 0.14937141670914489 0 0.77144070960558853 0.14311854477243749 0 0.80076557130237269 0.1154587552654202 0 0.82709327591091286 0.84937141670920724 0 0.76901770135486491 0.84293557325473656 0 0.80041942726660109 0.81543261647703358 0 0.43698630808430822 0.080423614171545449 0 0.44288491854585582 0.14116182884956319 0 0.39823268594401579 0.1116623613130045 0 0.39801143831225599 0.16651381068160659 0 0.39823268594401579 0.1116623613130045 0 0.44288491854585582 0.14116182884956319 0 0.36575549820117997 0.31677992835137742 0 0.3786248352540974 0.27082301512024259 0 0.41914690343363781 0.30688979866601612 0 0.42377727103934271 0.25099357235810238 0 0.41914690343363781 0.30688979866601612 0 0.3786248352540974 0.27082301512024259 0 0.049706944316475897 0.72477277076253799 0 0.1020579365089687 0.69352219419301997 0 0.090953281884486245 0.7564451946902494 0 0.1215415378367805 0.72939333680004137 0 0.090953281884486245 0.7564451946902494 0 0.1020579365089687 0.69352219419301997 0 0.1247745017231483 0.27198077544791172 0 0.093851963071650835 0.30582068233324772 0 0.095326043202144745 0.24554465089224409 0 0.049706944316556423 0.27522722923869108 0 0.095326043202144745 0.24554465089224409 0 0.093851963071650835 0.30582068233324772 0 0.77354604466818633 0.40378688774472771 0 0.81973119833356312 0.43505687159469048 0 0.77972660463949339 0.45529290596363098 0 0.43249999999999988 0.43937499999999979 0 0.43507373378304309 0.49699695397193322 0 0.3908716102680424 0.47010282357248828 0 0.26573297623774761 0.59828298563722948 0 0.2459498854893499 0.63248470766216769 0 0.22549374774072969 0.58452645269293457 0 0.72500000000000064 0.7952620967744265 0 0.77094201086366854 0.79647480515688507 0 0.76901770135486491 0.84293557325473656 0 0.72525833953073282 0.1032114801687094 0 0.76878382444651716 0.097147941686331368 0 0.77144070960558853 0.14311854477243749 0 0.72500000000000064 0.7952620967744265 0 0.68697391633157634 0.84450604838764298 0 0.68024162096458085 0.79868546898116533 0 0.31378396441836959 0.70157213313026345 0 0.29904318922293632 0.74132814928635593 0 0.26439878998046262 0.7048065392091396 0 0.31378396441836959 0.70157213313026345 0 0.35415581127540569 0.73730480045900215 0 0.29904318922293632 0.74132814928635593 0 0.61343887413683884 0.856862479058357 0 0.65005442820240822 0.82644988530054031 0 0.66412543161245952 0.88015090885499059 0 0.68697391633157634 0.84450604838764298 0 0.66412543161245952 0.88015090885499059 0 0.65005442820240822 0.82644988530054031 0 0.083411279318375747 0.91030024466934134 0 0.065374659239661639 0.8551091961254178 0 0.10562472963403439 0.87143394428979881 0 0.083411279318303222 0.089699755330707398 0 0.1053400320299198 0.12877248826361379 0 0.065374659239632718 0.1448908038746782 0 0.55306006949600994 0.20198184231352201 0 0.59443395090188023 0.18455690917515069 0 0.59814117807200873 0.23398510860739519 0 0.84999999999999987 0.29999999999999999 0 0.89999999999999991 0.29999999999999999 0 0.87430060258887643 0.34056085888204451 0 0.84999999999999987 0.69999999999999996 0 0.87712158428786946 0.65709029563313581 0 0.89999999999999991 0.69999999999999996 0 0.34258405725730701 0.4444034294386992 0 0.3908716102680424 0.47010282357248828 0 0.35024835142131061 0.48654922671676981 0 0.26573297623774761 0.59828298563722948 0 0.31502927232353312 0.6134992213375432 0 0.27820712747429932 0.65530134213254643 0 0.91696753777131557 0.497780560203536 0 0.86907294890112186 0.52008116128001669 0 0.88594198078881503 0.46167788676578442 0 0.84723782639812573 0.48638347960178252 0 0.88594198078881503 0.46167788676578442 0 0.86907294890112186 0.52008116128001669 0 0.7152569930854884 0.5237994455134295 0 0.77151014687832564 0.54436834383023036 0 0.71809016091162536 0.58185040402320831 0 0.90416666666660628 0.9041666666666166 0 0.89898474358632463 0.95391965591118966 0 0.85170973911348691 0.93569607295217616 0 0.90416666666668166 0.20416666666667119 0 0.89898474358614167 0.25391965591104898 0 0.8517097391133297 0.2356960729520409 0 0.91750694127107502 0.36982372220068471 0 0.95780851984364423 0.34215720972155339 0 0.95871855522754235 0.40006508612975411 0 0.91750694127105259 0.63017627779935648 0 0.95867599106212187 0.60011091146651041 0 0.9578014258160763 0.65787212321113708 0 0.90299850604011456 0.79563452813489832 0 0.88088768115933802 0.84674609810493673 0 0.84725310900444062 0.80779732082917555 0 0.90299850604006393 0.09563452813493091 0 0.88088768115941807 0.14674609810479519 0 0.84725310900442086 0.10779732082922661 0 0.1216098864341134 0.50637075089503902 0 0.16618607197337229 0.50652878253548905 0 0.14934928745814749 0.55042914607228977 0 0.20050006573841939 0.53248514016039872 0 0.14934928745814749 0.55042914607228977 0 0.16618607197337229 0.50652878253548905 0 0.80185942888539485 0.77452061303608133 0 0.84725310900444062 0.80779732082917555 0 0.80041942726660109 0.81543261647703358 0 0.80185942888501827 0.074520613036224564 0 0.84725310900442086 0.10779732082922661 0 0.80076557130237269 0.1154587552654202 0 0.083105206071452636 0.79992298667296435 0 0.065374659239661639 0.8551091961254178 0 0.038512288486097702 0.8155852717111195 0 0.083105206071467416 0.20007701332709979 0 0.038512288486115001 0.1844147282893184 0 0.065374659239632718 0.1448908038746782 0 0.54782696902220018 0.79245182748204157 0 0.59636844454254345 0.75937156204589151 0 0.60294066490120068 0.80851322453934582 0 0.083411279318375747 0.91030024466934134 0 0.0443105827531413 0.89858748162559932 0 0.065374659239661639 0.8551091961254178 0 0.083411279318303222 0.089699755330707398 0 0.065374659239632718 0.1448908038746782 0 0.044310582753132287 0.101412518374475 0 0.84999999999965292 1 0 0.81486180804382891 0.96321394949790495 0 0.85170973911348691 0.93569607295217616 0 0.84999999999999987 0.29999999999999999 0 0.81486180804364938 0.26321394949780091 0 0.8517097391133297 0.2356960729520409 0 0.4656888918609538 0.78493261229743638 0 0.45677673713123867 0.84253684404072415 0 0.42609163930740518 0.80361684430568059 0 0.39536230704883951 0.84069429572832477 0 0.42609163930740518 0.80361684430568059 0 0.45677673713123867 0.84253684404072415 0 0.6236733212988993 0.14864538214901801 0 0.56202748619534593 0.15054058349222879 0 0.58516465772821369 0.11653801664834119 0 0.57412547362576272 0.58273804879550706 0 0.63065402604362242 0.59661356661633302 0 0.5991018319127801 0.62925360607495295 0 0.61343887413683884 0.856862479058357 0 0.5832743223239254 0.88483152652961872 0 0.55899371797446828 0.85003102233514438 0 0.50202631463681879 0.87892870825713787 0 0.55899371797446828 0.85003102233514438 0 0.54783390826260769 0.89287767010860219 0 0.51076801031701946 0.1202837388510348 0 0.54979595918804436 0.1060565713905809 0 0.56202748619534593 0.15054058349222879 0 0.55306006949600994 0.20198184231352201 0 0.59814117807200873 0.23398510860739519 0 0.54248833945060504 0.2520322959927106 0 0.83573492347052902 0.36590755630746369 0 0.82500000000000062 0.33010209762754811 0 0.87430060258887643 0.34056085888204451 0 0.83758014339878906 0.63222013025741819 0 0.87712158428786946 0.65709029563313581 0 0.82457059160610424 0.66831947184359608 0 0.49102375406324739 0.49123754822244059 0 0.53823865529665704 0.45873898050322898 0 0.53330375813596242 0.50827942741749099 0 0.52289427570932567 0.3932284363388488 0 0.57744073070774993 0.41535148636609359 0 0.53823865529665704 0.45873898050322898 0 0.4089290844030305 0.58728915500154233 0 0.37272913873093971 0.56192925302619479 0 0.42644501560315817 0.54603747078095544 0 0.49695729691142171 0.25014895411178018 0 0.4604742573284204 0.27846934318264788 0 0.46429753744194407 0.22870891180733599 0 0.90299850604011456 0.79563452813489832 0 0.85491058998424563 0.76004753345552634 0 0.89999166460796554 0.74528934923809909 0 0.90299850604006393 0.09563452813493091 0 0.85491058998398861 0.060047533455626502 0 0.899991664607802 0.045289349238254978 0 0.38244435121258652 0.51653317813019495 0 0.42644501560315817 0.54603747078095544 0 0.37272913873093971 0.56192925302619479 0 0.71406021706547751 0.63292083137662503 0 0.71809016091162536 0.58185040402320831 0 0.74994237037456724 0.62775548192980357 0 0.84723782639812573 0.48638347960178252 0 0.86907294890112186 0.52008116128001669 0 0.81441713509985358 0.51161854125224959 0 0.33122374654748771 0.57588941099433744 0 0.33190227185843768 0.52715113583864037 0 0.37272913873093971 0.56192925302619479 0 0.086179601630648681 0.64647209519980475 0 0.1241190223511371 0.64391885572885044 0 0.1020579365089687 0.69352219419301997 0 0.59999999999894682 0 0 0.64999999999907843 0 0 0.61940220174112337 0.047251958781050582 0 0.18269480424590959 0.75905448272264375 0 0.14335651144331049 0.75565258250209677 0 0.15332765547575641 0.71200081858233666 0 0.22549374774072969 0.58452645269293457 0 0.2459498854893499 0.63248470766216769 0 0.19914261668318661 0.62286739485272158 0 0.38244435121258652 0.51653317813019495 0 0.43507373378304309 0.49699695397193322 0 0.42644501560315817 0.54603747078095544 0 0.65000000000104008 1 0 0.60000000000138687 1 0 0.62065498684670595 0.95224934003983619 0 0.078358742472063481 0.43365249433908948 0 0.068743045408989428 0.48853989837882689 0 0.033550201249889847 0.46247875832467239 0 0.2236846579037573 0.67380363126050236 0 0.27820712747429932 0.65530134213254643 0 0.26439878998046262 0.7048065392091396 0 0.6879972333610942 0.43038561374960838 0 0.68128176404677243 0.38629093627004979 0 0.72622533758026719 0.40265885511101601 0 0.72525833953073282 0.1032114801687094 0 0.7010294155333181 0.056779085686491267 0 0.7527966693318906 0.053051678021508272 0 0.18269480424590959 0.75905448272264375 0 0.15332765547575641 0.71200081858233666 0 0.19068556247388771 0.71028988922845504 0 0.1216098864341134 0.50637075089503902 0 0.085622222639554768 0.53333248912060549 0 0.068743045408989428 0.48853989837882689 0 0.25676291524611189 0.7436741304886243 0 0.26439878998046262 0.7048065392091396 0 0.29904318922293632 0.74132814928635593 0 0.65481233915350323 0.35652751921065562 0 0.68128176404677243 0.38629093627004979 0 0.63912439215427275 0.41063340167983359 0 0.83573492347052902 0.36590755630746369 0 0.86844634540301924 0.38530937474099819 0 0.81308179852519835 0.39754945808726527 0 0.27270076654418179 0.87751467830216623 0 0.2401283238295133 0.85648409884788523 0 0.29209212897034281 0.84715728365233667 0 0.84999999999999987 0.69999999999999996 0 0.85491058998424563 0.76004753345552634 0 0.81864958914779962 0.73589050177899629 0 0.84999999999960507 0 0 0.85491058998398861 0.060047533455626502 0 0.81864958914740749 0.035890501779055867 0 0.18381867841758909 0.57774125163628387 0 0.19914261668318661 0.62286739485272158 0 0.15720202157091859 0.60665697304410315 0 0.22549374774072969 0.58452645269293457 0 0.19914261668318661 0.62286739485272158 0 0.18381867841758909 0.57774125163628387 0 0.79680861578988083 0.92656778056766709 0 0.85170973911348691 0.93569607295217616 0 0.81486180804382891 0.96321394949790495 0 0.79680861578956375 0.22656778056752541 0 0.8517097391133297 0.2356960729520409 0 0.81486180804364938 0.26321394949780091 0 0.20050006573841939 0.53248514016039872 0 0.23975172658309729 0.49475499200540818 0 0.25115337790845271 0.54719303014923271 0 0.28307294598219601 0.50789252727458634 0 0.25115337790845271 0.54719303014923271 0 0.23975172658309729 0.49475499200540818 0 0.20050006573841939 0.53248514016039872 0 0.18381867841758909 0.57774125163628387 0 0.14934928745814749 0.55042914607228977 0 0.19922788606653311 0.085920220746880993 0 0.22985637510995899 0.1298347970200906 0 0.18652628422869419 0.14162325200928061 0 0.33758650185219202 0.23837101504325639 0 0.38831533174504851 0.2189834941785925 0 0.3786248352540974 0.27082301512024259 0 0.42377727103934271 0.25099357235810238 0 0.3786248352540974 0.27082301512024259 0 0.38831533174504851 0.2189834941785925 0 0.19922788606653311 0.085920220746880993 0 0.18652628422869419 0.14162325200928061 0 0.16141998738593399 0.10404039647458049 0 0.54782696902220018 0.79245182748204157 0 0.55363780716230748 0.74348740161571747 0 0.59636844454254345 0.75937156204589151 0 0.82709327591091286 0.84937141670920724 0 0.88088768115933802 0.84674609810493673 0 0.85600844944837662 0.88483418979512773 0 0.82709327591102189 0.14937141670914489 0 0.88088768115941807 0.14674609810479519 0 0.85600844944842547 0.1848341897950983 0 0.27866744612395528 0.38416094670951489 0 0.22033343844674469 0.36963382230740238 0 0.25966125648670141 0.34351016742083729 0 0 0.50000000000205869 0 0.033550201249889847 0.46247875832467239 0 0.068743045408989428 0.48853989837882689 0 0.31378396441836959 0.70157213313026345 0 0.36622285152418499 0.69092437780804039 0 0.35415581127540569 0.73730480045900215 0 0.77293540622714185 0.59448302402785813 0 0.71809016091162536 0.58185040402320831 0 0.77151014687832564 0.54436834383023036 0 0.7152569930854884 0.5237994455134295 0 0.69385896817107129 0.48377516041410151 0 0.73947346780852752 0.49062440112282169 0 0.15801167086041079 0.46008690540259539 0 0.191953871957803 0.42546416763755879 0 0.19604738184454831 0.47787523520405789 0 0.57667858002728545 0.078486105337742612 0 0.61940220174112337 0.047251958781050582 0 0.61956000905586006 0.1043312481793135 0 0.65408113592120842 0.073941773121567966 0 0.61956000905586006 0.1043312481793135 0 0.61940220174112337 0.047251958781050582 0 0 0.55000000000173355 0 0 0.50000000000205869 0 0.044576108720083309 0.53509043209532614 0 0.65507451745379841 0.92229208810758578 0 0.62065498684670595 0.95224934003983619 0 0.61885627562261258 0.90282959257498208 0 0.57724883562309992 0.92155686857100794 0 0.61885627562261258 0.90282959257498208 0 0.62065498684670595 0.95224934003983619 0 0.91750694127107502 0.36982372220068471 0 0.86844634540301924 0.38530937474099819 0 0.87430060258887643 0.34056085888204451 0 0.91750694127105259 0.63017627779935648 0 0.87712158428786946 0.65709029563313581 0 0.87159648282691515 0.61285406320581504 0 0.33123028043633618 0.77629643437932982 0 0.29904318922293632 0.74132814928635593 0 0.35415581127540569 0.73730480045900215 0 0.86411095495256451 0.42388805655111889 0 0.84925632466077294 0.45359738909549091 0 0.81973119833356312 0.43505687159469048 0 0.43846182030517877 0.64845797726506715 0 0.47913475093885149 0.66010775372412711 0 0.43323420005758778 0.6913544522562407 0 0.18269480424590959 0.75905448272264375 0 0.19068556247388771 0.71028988922845504 0 0.2248999640082178 0.72584299459689172 0 0.39536230704883951 0.84069429572832477 0 0.38586766253264881 0.78219501014812498 0 0.42609163930740518 0.80361684430568059 0 0.59999999999999976 0.69999999999999996 0 0.63221990677827677 0.73442891067859706 0 0.59636844454254345 0.75937156204589151 0 0.27866744612395528 0.38416094670951489 0 0.24049127783545701 0.41270748208749802 0 0.22033343844674469 0.36963382230740238 0 0.82709327591091286 0.84937141670920724 0 0.84725310900444062 0.80779732082917555 0 0.88088768115933802 0.84674609810493673 0 0.82709327591102189 0.14937141670914489 0 0.84725310900442086 0.10779732082922661 0 0.88088768115941807 0.14674609810479519 0 0.1650278706801647 0.38791388161335733 0 0.18434624290945251 0.35208838264196463 0 0.22033343844674469 0.36963382230740238 0 0.4409427642593301 0.35743108089689513 0 0.49077833859261139 0.35229981449445641 0 0.46655310992796922 0.39650496622958609 0 0.80185942888539485 0.77452061303608133 0 0.81864958914779962 0.73589050177899629 0 0.85491058998424563 0.76004753345552634 0 0.80185942888501827 0.074520613036224564 0 0.81864958914740749 0.035890501779055867 0 0.85491058998398861 0.060047533455626502 0 0.29999999999926641 0 0 0.34999999999912063 0 0 0.32541448401678508 0.046215317981507749 0 0.35000000000145642 1 0 0.30000000000124832 1 0 0.32544832635163229 0.95485394099568932 0 0.4656888918609538 0.78493261229743638 0 0.50731287292894423 0.78963574450233831 0 0.50627822638148745 0.8263979829520941 0 0.2185883431182947 0.18019736283949719 0 0.25557216766470708 0.15874861286892261 0 0.26429849586623999 0.19346700179430079 0 1 0.29999999999999999 0 1 0.34999999999993492 0 0.95780851984364423 0.34215720972155339 0 1 0.29999999999999999 0 0.95780851984364423 0.34215720972155339 0 0.94999999999999996 0.29999999999999999 0 1 0.69999999999999996 0 0.94999999999999996 0.69999999999999996 0 0.9578014258160763 0.65787212321113708 0 1 0.69999999999999996 0 0.9578014258160763 0.65787212321113708 0 1 0.64999999999986979 0 0.91750694127107502 0.36982372220068471 0 0.90594285160987287 0.4141265964174129 0 0.86844634540301924 0.38530937474099819 0 0.91750694127105259 0.63017627779935648 0 0.87159648282691515 0.61285406320581504 0 0.91143117093204207 0.58709913730335972 0 0.74999999999999989 0.69999999999999996 0 0.7750489929959945 0.66593931409600093 0 0.79999999999999982 0.69999999999999996 0 0.74999999999999989 0.29999999999999999 0 0.79999999999999982 0.29999999999999999 0 0.78145581580700685 0.34881365920033602 0 0.54999999999999993 0.69999999999999996 0 0.57484956128872922 0.66573805030881994 0 0.59999999999999976 0.69999999999999996 0 0.90299850604011456 0.79563452813489832 0 0.94399509803918602 0.75600490196082126 0 0.95386563387742829 0.80414874155775029 0 0.90416666666660628 0.9041666666666166 0 0.95391631417670719 0.89584263333814784 0 0.94399509803919068 0.9439950980391687 0 0.90299850604006393 0.09563452813493091 0 0.94399509803922566 0.056004901960802607 0 0.95386563387744361 0.1041487415577465 0 0.90416666666668166 0.20416666666667119 0 0.95391631417672862 0.19584263333809451 0 0.94399509803921056 0.24399509803922639 0 0.22278230690790279 0.44824268025881547 0 0.19604738184454831 0.47787523520405789 0 0.191953871957803 0.42546416763755879 0 0.90299850604011456 0.79563452813489832 0 0.89999166460796554 0.74528934923809909 0 0.94399509803918602 0.75600490196082126 0 0.90299850604006393 0.09563452813493091 0 0.899991664607802 0.045289349238254978 0 0.94399509803922566 0.056004901960802607 0 0.49102375406324739 0.49123754822244059 0 0.47793794143994173 0.52940715638744962 0 0.43507373378304309 0.49699695397193322 0 0.90416666666660628 0.9041666666666166 0 0.94399509803919068 0.9439950980391687 0 0.89898474358632463 0.95391965591118966 0 0.90416666666668166 0.20416666666667119 0 0.94399509803921056 0.24399509803922639 0 0.89898474358614167 0.25391965591104898 0 0.65394964615507722 0.22666784374016369 0 0.62657463266645097 0.26524202571255862 0 0.59814117807200873 0.23398510860739519 0 0.6084546825910605 0.37989672713932537 0 0.63912439215427275 0.41063340167983359 0 0.57744073070774993 0.41535148636609359 0 0.61209567303293111 0.44669033081290321 0 0.57744073070774993 0.41535148636609359 0 0.63912439215427275 0.41063340167983359 0 0.25676291524611189 0.7436741304886243 0 0.22556077506376701 0.77837424984191617 0 0.2248999640082178 0.72584299459689172 0 0.61343887413683884 0.856862479058357 0 0.60294066490120068 0.80851322453934582 0 0.65005442820240822 0.82644988530054031 0 0.64999999999907843 0 0 0.66369801598854572 0.036327466368102787 0 0.61940220174112337 0.047251958781050582 0 0.40326160981139969 0.73346192995102844 0 0.38586766253264881 0.78219501014812498 0 0.35415581127540569 0.73730480045900215 0 0.33123028043633618 0.77629643437932982 0 0.35415581127540569 0.73730480045900215 0 0.38586766253264881 0.78219501014812498 0 0.26573297623774761 0.59828298563722948 0 0.29110487519241501 0.56588143995431495 0 0.31502927232353312 0.6134992213375432 0 0.77846603114747959 0.49850927265137401 0 0.81441713509985358 0.51161854125224959 0 0.77151014687832564 0.54436834383023036 0 0.82862096804812391 0.55037090955459045 0 0.77151014687832564 0.54436834383023036 0 0.81441713509985358 0.51161854125224959 0 0.50000000000205869 1 0 0.45000000000187229 1 0 0.47135117303824892 0.95556877749289892 0 0.44999999999882923 0 0 0.49999999999869432 0 0 0.47040171442036788 0.044141676406503738 0 0 0.7000000000006934 0 0 0.65000000000104008 0 0.046634677244967337 0.671418230738282 0 0 0.35000000000145642 0 0 0.30000000000124832 0 0.046389130980076937 0.32668781832131749 0 0.31378396441836959 0.70157213313026345 0 0.27820712747429932 0.65530134213254643 0 0.32263089806001177 0.66003674931826484 0 0.33122374654748771 0.57588941099433744 0 0.31502927232353312 0.6134992213375432 0 0.29110487519241501 0.56588143995431495 0 0.26573297623774761 0.59828298563722948 0 0.27820712747429932 0.65530134213254643 0 0.2459498854893499 0.63248470766216769 0 0.14474682429600511 0.85524784522713515 0 0.16206583317966519 0.89685560785156404 0 0.1241151115713819 0.9045666525468371 0 0.14332333627550789 0.14578431753966009 0 0.12372429750337779 0.095814237875728972 0 0.16141998738593399 0.10404039647458049 0 0.64753070846764316 0.77332939069435502 0 0.59636844454254345 0.75937156204589151 0 0.63221990677827677 0.73442891067859706 0 0.14474682429600511 0.85524784522713515 0 0.1241151115713819 0.9045666525468371 0 0.10562472963403439 0.87143394428979881 0 0.14332333627550789 0.14578431753966009 0 0.1053400320299198 0.12877248826361379 0 0.12372429750337779 0.095814237875728972 0 0.77354604466818633 0.40378688774472771 0 0.81308179852519835 0.39754945808726527 0 0.81973119833356312 0.43505687159469048 0 0.54782696902220018 0.79245182748204157 0 0.50945740445113552 0.75476055527778108 0 0.55363780716230748 0.74348740161571747 0 0.2236846579037573 0.67380363126050236 0 0.2459498854893499 0.63248470766216769 0 0.27820712747429932 0.65530134213254643 0 0.77293540622714185 0.59448302402785813 0 0.74994237037456724 0.62775548192980357 0 0.71809016091162536 0.58185040402320831 0 0 0.79999999999999982 0 0 0.75000000000034661 0 0.04408157711937423 0.7728941757575627 0 0 0.25000000000104028 0 0 0.20000000000083221 0 0.044081577119474857 0.2271058242433576 0 0.19999999999955789 0 0 0.24999999999941211 0 0 0.22668068146512929 0.045875643423131329 0 0.25000000000104028 1 0 0.20000000000083221 1 0 0.22850979588452081 0.95594428570238643 0 0.47357141910802508 0.1873585799078378 0 0.44288491854585582 0.14116182884956319 0 0.48466639505193998 0.1421439844745814 0 0.59999999999999976 0.29999999999999999 0 0.5794309697024993 0.27124795968204829 0 0.62657463266645097 0.26524202571255862 0 0.43249999999999988 0.43937499999999979 0 0.42161023666869668 0.39493916313643851 0 0.46655310992796922 0.39650496622958609 0 0.31068898841644388 0.47541502461811092 0 0.33190227185843768 0.52715113583864037 0 0.28307294598219601 0.50789252727458634 0 0.35024835142131061 0.48654922671676981 0 0.33190227185843768 0.52715113583864037 0 0.31068898841644388 0.47541502461811092 0 0.35864735590330371 0.63903383440414463 0 0.36622285152418499 0.69092437780804039 0 0.32263089806001177 0.66003674931826484 0 0.31378396441836959 0.70157213313026345 0 0.32263089806001177 0.66003674931826484 0 0.36622285152418499 0.69092437780804039 0 0.86956835336234861 0.571283299838105 0 0.90900154012161016 0.53607784105648792 0 0.91143117093204207 0.58709913730335972 0 0.6499999999999998 0.29999999999999999 0 0.65481233915350323 0.35652751921065562 0 0.61959173890754571 0.33832250091341232 0 0.4409427642593301 0.35743108089689513 0 0.46226845272279993 0.31901800744800313 0 0.49077833859261139 0.35229981449445641 0 0.5 0.29999999999999999 0 0.49077833859261139 0.35229981449445641 0 0.46226845272279993 0.31901800744800313 0 0.14999999999970359 0 0 0.19999999999955789 0 0 0.184418230509967 0.038773194583122873 0 0.20000000000083221 1 0 0.15000000000062411 1 0 0.18474005699953849 0.96231585248064622 0 1 0.49999999999950101 0 1 0.54999999999963112 0 0.95631871884947484 0.51827533208233789 0 0.38586766253264881 0.78219501014812498 0 0.42676259796334498 0.76772545931379299 0 0.42609163930740518 0.80361684430568059 0 0.20050006573841939 0.53248514016039872 0 0.22549374774072969 0.58452645269293457 0 0.18381867841758909 0.57774125163628387 0 0.065374659239661639 0.8551091961254178 0 0.1074251789111534 0.83564394292147814 0 0.10562472963403439 0.87143394428979881 0 0.065374659239632718 0.1448908038746782 0 0.1053400320299198 0.12877248826361379 0 0.106902708054812 0.16453234188234539 0 0.1650278706801647 0.38791388161335733 0 0.14223753364722069 0.3341983344262433 0 0.18434624290945251 0.35208838264196463 0 0.43249999999999988 0.43937499999999979 0 0.46111841286828259 0.46690301029591341 0 0.43507373378304309 0.49699695397193322 0 0.83758014339878906 0.63222013025741819 0 0.81723410853263523 0.59419663659258926 0 0.87159648282691515 0.61285406320581504 0 0.19670163708476801 0.31472518408333222 0 0.18434624290945251 0.35208838264196463 0 0.14223753364722069 0.3341983344262433 0 0.75000000000034661 1 0 0.7250000000005199 0.94981617647078953 0 0.770759834363826 0.95919399014344442 0 0.74999999999999989 0.29999999999999999 0 0.72500000000000064 0.2498161764706 0 0.77075983436335049 0.25919399014334171 0 0.69999999999999984 0.29999999999999999 0 0.67933712972090698 0.25920070958121938 0 0.72500000000000064 0.2498161764706 0 0.57611405284611883 0.50165903596042916 0 0.53330375813596242 0.50827942741749099 0 0.53823865529665704 0.45873898050322898 0 0.6499999999999998 0.29999999999999999 0 0.68887083591306764 0.33632058575757479 0 0.65481233915350323 0.35652751921065562 0 0.27866744612395528 0.38416094670951489 0 0.33277555741076909 0.36432196682010132 0 0.31778888742534622 0.40581751814196781 0 0.49102375406324739 0.49123754822244059 0 0.43507373378304309 0.49699695397193322 0 0.46111841286828259 0.46690301029591341 0 0.94999999999999996 0.69999999999999996 0 0.97166519676947294 0.73337114490064459 0 0.94399509803918602 0.75600490196082126 0 0.94999999999986839 0 0 0.97166519676946894 0.033371144900598393 0 0.94399509803922566 0.056004901960802607 0 0.94999999999999996 0.29999999999999999 0 0.94399509803921056 0.24399509803922639 0 0.97166519676951801 0.26662885509932011 0 0.94999999999979179 1 0 0.94399509803919068 0.9439950980391687 0 0.97166519676946206 0.96662885509935492 0 0.34258405725730701 0.4444034294386992 0 0.29124338931648802 0.43334555462578611 0 0.31778888742534622 0.40581751814196781 0 0.27866744612395528 0.38416094670951489 0 0.31778888742534622 0.40581751814196781 0 0.29124338931648802 0.43334555462578611 0 0.36575549820117997 0.31677992835137742 0 0.33277555741076909 0.36432196682010132 0 0.32752639306529541 0.32610012995269699 0 0.35752321586431363 0.9185439911803448 0 0.32544832635163229 0.95485394099568932 0 0.30864387279288652 0.89906554525974958 0 0.27609987656793722 0.94991445621608572 0 0.30864387279288652 0.89906554525974958 0 0.32544832635163229 0.95485394099568932 0 0.33123028043633618 0.77629643437932982 0 0.30857225866488791 0.81101973481716805 0 0.2792923945214143 0.77665808831789485 0 0.33758650185219202 0.23837101504325639 0 0.29132859388405002 0.27203693976649962 0 0.28040350263641872 0.23054717217092141 0 0.4409427642593301 0.35743108089689513 0 0.41914690343363781 0.30688979866601612 0 0.46226845272279993 0.31901800744800313 0 0.14332333627550789 0.14578431753966009 0 0.13737030665753211 0.20313708640667491 0 0.106902708054812 0.16453234188234539 0 0.083105206071467416 0.20007701332709979 0 0.106902708054812 0.16453234188234539 0 0.13737030665753211 0.20313708640667491 0 0.083105206071452636 0.79992298667296435 0 0.1382744753146134 0.79650574229207483 0 0.1074251789111534 0.83564394292147814 0 0.14474682429600511 0.85524784522713515 0 0.1074251789111534 0.83564394292147814 0 0.1382744753146134 0.79650574229207483 0 0.65408113592120842 0.073941773121567966 0 0.7010294155333181 0.056779085686491267 0 0.68330259535470161 0.10038702501083881 0 0.72525833953073282 0.1032114801687094 0 0.68330259535470161 0.10038702501083881 0 0.7010294155333181 0.056779085686491267 0 0.049706944316475897 0.72477277076253799 0 0.046634677244967337 0.671418230738282 0 0.1020579365089687 0.69352219419301997 0 0.086179601630648681 0.64647209519980475 0 0.1020579365089687 0.69352219419301997 0 0.046634677244967337 0.671418230738282 0 0.087545339447545459 0.35122518864182262 0 0.046389130980076937 0.32668781832131749 0 0.093851963071650835 0.30582068233324772 0 0.049706944316556423 0.27522722923869108 0 0.093851963071650835 0.30582068233324772 0 0.046389130980076937 0.32668781832131749 0 0.82709327591091286 0.84937141670920724 0 0.80041942726660109 0.81543261647703358 0 0.84725310900444062 0.80779732082917555 0 0.82709327591102189 0.14937141670914489 0 0.80076557130237269 0.1154587552654202 0 0.84725310900442086 0.10779732082922661 0 0.17933913398461551 0.2350063570234002 0 0.14377654328998779 0.2442024734791064 0 0.13737030665753211 0.20313708640667491 0 0.18269480424590959 0.75905448272264375 0 0.1382744753146134 0.79650574229207483 0 0.14335651144331049 0.75565258250209677 0 0.33758650185219202 0.23837101504325639 0 0.3786248352540974 0.27082301512024259 0 0.33402499257867951 0.28911035184473982 0 0.14332333627550789 0.14578431753966009 0 0.18124454140915969 0.18790916706335251 0 0.13737030665753211 0.20313708640667491 0 0.14474682429600511 0.85524784522713515 0 0.1382744753146134 0.79650574229207483 0 0.17777405986036951 0.81832336108265358 0 0.5 0.29999999999999999 0 0.52752007115234678 0.33170632466418198 0 0.49077833859261139 0.35229981449445641 0 0.27866744612395528 0.38416094670951489 0 0.29644548887253103 0.34914008784168082 0 0.33277555741076909 0.36432196682010132 0 0 0.84999999999965292 0 0 0.79999999999999982 0 0.038512288486097702 0.8155852717111195 0 0 0.20000000000083221 0 0 0.15000000000062411 0 0.038512288486115001 0.1844147282893184 0 0.40326160981139969 0.73346192995102844 0 0.35415581127540569 0.73730480045900215 0 0.36622285152418499 0.69092437780804039 0 0.91696753777131557 0.497780560203536 0 0.96228564064454991 0.48206450662049471 0 0.95631871884947484 0.51827533208233789 0 0.33758650185219202 0.23837101504325639 0 0.31255190597181792 0.19850845631528771 0 0.3572130504031617 0.1874703368446563 0 0.59814117807200873 0.23398510860739519 0 0.62657463266645097 0.26524202571255862 0 0.5794309697024993 0.27124795968204829 0 0.34258405725730701 0.4444034294386992 0 0.31068898841644388 0.47541502461811092 0 0.29124338931648802 0.43334555462578611 0 0.38083244760691543 0.38531983672244652 0 0.35221190152536241 0.40457127605439203 0 0.33277555741076909 0.36432196682010132 0 0.083411279318375747 0.91030024466934134 0 0.10266856499240549 0.95548163909968886 0 0.053064897599294662 0.95186845269532028 0 0.083411279318303222 0.089699755330707398 0 0.053064897599215843 0.048131547304697528 0 0.10266856499169109 0.044518360900210059 0 0.42377727103934271 0.25099357235810238 0 0.4604742573284204 0.27846934318264788 0 0.41914690343363781 0.30688979866601612 0 0.28307294598219601 0.50789252727458634 0 0.25982634974572738 0.46097799597715272 0 0.31068898841644388 0.47541502461811092 0 0.29348325746214782 0.31350119524708198 0 0.29132859388405002 0.27203693976649962 0 0.33402499257867951 0.28911035184473982 0 0.35312867752657662 0.084946736076730367 0 0.39823268594401579 0.1116623613130045 0 0.36246644853392812 0.1399454205365751 0 0.7000000000006934 1 0 0.68015064798562208 0.95924320340003011 0 0.7250000000005199 0.94981617647078953 0 0.42377727103934271 0.25099357235810238 0 0.38831533174504851 0.2189834941785925 0 0.42905200079338551 0.19982395548231649 0 0.53823865529665704 0.45873898050322898 0 0.57744073070774993 0.41535148636609359 0 0.57975577671020095 0.46172033326338591 0 0.33758650185219202 0.23837101504325639 0 0.3572130504031617 0.1874703368446563 0 0.38831533174504851 0.2189834941785925 0 0.29124338931648802 0.43334555462578611 0 0.31068898841644388 0.47541502461811092 0 0.25982634974572738 0.46097799597715272 0 0.6084546825910605 0.37989672713932537 0 0.61959173890754571 0.33832250091341232 0 0.65481233915350323 0.35652751921065562 0 0.40326160981139969 0.73346192995102844 0 0.43323420005758778 0.6913544522562407 0 0.45582236402875981 0.73896743678908217 0 0.33758650185219202 0.23837101504325639 0 0.28040350263641872 0.23054717217092141 0 0.31255190597181792 0.19850845631528771 0 0.79999999999999982 1 0 0.75000000000034661 1 0 0.770759834363826 0.95919399014344442 0 0.74999999999999989 0.29999999999999999 0 0.77075983436335049 0.25919399014334171 0 0.79999999999999982 0.29999999999999999 0 0.6499999999999998 0.29999999999999999 0 0.67933712972090698 0.25920070958121938 0 0.69999999999999984 0.29999999999999999 0 0.39536230704883951 0.84069429572832477 0 0.39767323751400468 0.89584229130535065 0 0.35864759629805099 0.87963482415279515 0 0.54999999999999993 0.69999999999999996 0 0.52584555706968406 0.66664215091846768 0 0.57484956128872922 0.66573805030881994 0 0.35312867752657662 0.084946736076730367 0 0.32541448401678508 0.046215317981507749 0 0.3615861437013822 0.03582617922508851 0 0.35752321586431363 0.9185439911803448 0 0.36184234618600131 0.96443954459096326 0 0.32544832635163229 0.95485394099568932 0 0.35312867752657662 0.084946736076730367 0 0.3615861437013822 0.03582617922508851 0 0.39591832466117061 0.056982757562006353 0 0.35752321586431363 0.9185439911803448 0 0.39641108128798319 0.94356127926187128 0 0.36184234618600131 0.96443954459096326 0 0.083411279318303222 0.089699755330707398 0 0.044310582753132287 0.101412518374475 0 0.053064897599215843 0.048131547304697528 0 0.083411279318375747 0.91030024466934134 0 0.053064897599294662 0.95186845269532028 0 0.0443105827531413 0.89858748162559932 0 0.38083244760691543 0.38531983672244652 0 0.40076539126862748 0.34589349467022118 0 0.42161023666869668 0.39493916313643851 0 0.4409427642593301 0.35743108089689513 0 0.42161023666869668 0.39493916313643851 0 0.40076539126862748 0.34589349467022118 0 0.79999999999999982 0.29999999999999999 0 0.82500000000000062 0.33010209762754811 0 0.78145581580700685 0.34881365920033602 0 0.79999999999999982 0.69999999999999996 0 0.7750489929959945 0.66593931409600093 0 0.82457059160610424 0.66831947184359608 0 0.59999999999999976 0.69999999999999996 0 0.57484956128872922 0.66573805030881994 0 0.62460753523532009 0.66851202781000296 0 0.74999999999999989 0.69999999999999996 0 0.72500000000000064 0.67022701834392062 0 0.7750489929959945 0.66593931409600093 0 0.74999999999999989 0.29999999999999999 0 0.78145581580700685 0.34881365920033602 0 0.73090396928863699 0.33699297293167962 0 0.33758650185219202 0.23837101504325639 0 0.33402499257867951 0.28911035184473982 0 0.29132859388405002 0.27203693976649962 0 0.36575549820117997 0.31677992835137742 0 0.41914690343363781 0.30688979866601612 0 0.40076539126862748 0.34589349467022118 0 0.4409427642593301 0.35743108089689513 0 0.40076539126862748 0.34589349467022118 0 0.41914690343363781 0.30688979866601612 0 0.34258405725730701 0.4444034294386992 0 0.38707855792647411 0.42299362914874578 0 0.3908716102680424 0.47010282357248828 0 0.7000000000006934 1 0 0.65000000000104008 1 0 0.68015064798562208 0.95924320340003011 0 0.49102375406324739 0.49123754822244059 0 0.46111841286828259 0.46690301029591341 0 0.48858720058566618 0.43964267759203868 0 0.4656888918609538 0.78493261229743638 0 0.42676259796334498 0.76772545931379299 0 0.45582236402875981 0.73896743678908217 0 0.40326160981139969 0.73346192995102844 0 0.45582236402875981 0.73896743678908217 0 0.42676259796334498 0.76772545931379299 0 0.59999999999999976 0.29999999999999999 0 0.62657463266645097 0.26524202571255862 0 0.6499999999999998 0.29999999999999999 0 0.40000000000166441 1 0 0.36184234618600131 0.96443954459096326 0 0.39641108128798319 0.94356127926187128 0 0.3999999999989749 0 0 0.39591832466117061 0.056982757562006353 0 0.3615861437013822 0.03582617922508851 0 0.43249999999999988 0.43937499999999979 0 0.48858720058566618 0.43964267759203868 0 0.46111841286828259 0.46690301029591341 0 0.7250000000005199 0.89375000000045834 0 0.7250000000005199 0.94981617647078953 0 0.68987011941058407 0.92105047536677087 0 0.7250000000005199 0.89375000000045834 0 0.75729602384198635 0.92353652857884294 0 0.7250000000005199 0.94981617647078953 0 0.72500000000001008 0.19776155966387679 0 0.75668890529066124 0.2244279804069782 0 0.72500000000000064 0.2498161764706 0 0.72500000000001008 0.19776155966387679 0 0.72500000000000064 0.2498161764706 0 0.69397719155551807 0.2245125647000914 0 0.79999999999999982 0.29999999999999999 0 0.81486180804364938 0.26321394949780091 0 0.84999999999999987 0.29999999999999999 0 0.84999999999965292 1 0 0.79999999999999982 1 0 0.81486180804382891 0.96321394949790495 0 0.1247745017231483 0.27198077544791172 0 0.095326043202144745 0.24554465089224409 0 0.14377654328998779 0.2442024734791064 0 0.1215415378367805 0.72939333680004137 0 0.14335651144331049 0.75565258250209677 0 0.090953281884486245 0.7564451946902494 0 0.72500000000001008 0.19776155966387679 0 0.72634814642510737 0.16106886917518889 0 0.76587607630038135 0.18880039518954719 0 0.72500000000001008 0.19776155966387679 0 0.6865991819015953 0.189116534044597 0 0.72634814642510737 0.16106886917518889 0 0.77144070960558853 0.14311854477243749 0 0.76587607630038135 0.18880039518954719 0 0.72634814642510737 0.16106886917518889 0 0.68391457121233579 0.14440470121196541 0 0.72634814642510737 0.16106886917518889 0 0.6865991819015953 0.189116534044597 0 0.7250000000005199 0.89375000000045834 0 0.72863726579783861 0.85390518901155588 0 0.76891166905518427 0.88835469571185499 0 0.76901770135486491 0.84293557325473656 0 0.76891166905518427 0.88835469571185499 0 0.72863726579783861 0.85390518901155588 0 0 0.20000000000083221 0 0.038512288486115001 0.1844147282893184 0 0.044081577119474857 0.2271058242433576 0 0 0.79999999999999982 0 0.04408157711937423 0.7728941757575627 0 0.038512288486097702 0.8155852717111195 0 0.52375890611712683 0.059318771819432882 0 0.47881186583059909 0.093591717165689425 0 0.47040171442036788 0.044141676406503738 0 0.52122150208832174 0.94089974453840242 0 0.47135117303824892 0.95556877749289892 0 0.47401147028110507 0.91529957330468115 0 0.27474541102162192 0.11822029332053539 0 0.3096713403101819 0.085471541595262421 0 0.32215584939770009 0.1218492143506909 0 0.22278230690790279 0.44824268025881547 0 0.24049127783545701 0.41270748208749802 0 0.25982634974572738 0.46097799597715272 0 0.93732437411268477 0.55911392101136159 0 0.91143117093204207 0.58709913730335972 0 0.90900154012161016 0.53607784105648792 0 0.19901705110390991 0.9175543425573498 0 0.24536017905392571 0.90704567837671446 0 0.22850979588452081 0.95594428570238643 0 0.27609987656793722 0.94991445621608572 0 0.22850979588452081 0.95594428570238643 0 0.24536017905392571 0.90704567837671446 0 0.15720202157091859 0.60665697304410315 0 0.1241190223511371 0.64391885572885044 0 0.1024350934457823 0.60772393977513839 0 0.6499999999999998 0.69999999999999996 0 0.675261390228442 0.65996937624687813 0 0.69999999999999984 0.69999999999999996 0 0.3999999999989749 0 0 0.4320097814748517 0.037406712692169303 0 0.39591832466117061 0.056982757562006353 0 0.40000000000166441 1 0 0.39641108128798319 0.94356127926187128 0 0.4308986359464303 0.96395712492906194 0 0.54999999999999993 0.29999999999999999 0 0.56836770495988642 0.3523062350852913 0 0.52752007115234678 0.33170632466418198 0 0.14474682429600511 0.85524784522713515 0 0.17777405986036951 0.81832336108265358 0 0.19741632902693801 0.86755867406447229 0 0.21858834311891909 0.81980263716112767 0 0.19741632902693801 0.86755867406447229 0 0.17777405986036951 0.81832336108265358 0 0.54782696902220018 0.79245182748204157 0 0.50731287292894423 0.78963574450233831 0 0.50945740445113552 0.75476055527778108 0 0.20000000000083221 1 0 0.18474005699953849 0.96231585248064622 0 0.22850979588452081 0.95594428570238643 0 0.19999999999955789 0 0 0.22668068146512929 0.045875643423131329 0 0.184418230509967 0.038773194583122873 0 0.77846603114747959 0.49850927265137401 0 0.73947346780852752 0.49062440112282169 0 0.77972660463949339 0.45529290596363098 0 0.73483647259922602 0.44789725365921768 0 0.77972660463949339 0.45529290596363098 0 0.73947346780852752 0.49062440112282169 0 0.34258405725730701 0.4444034294386992 0 0.35024835142131061 0.48654922671676981 0 0.31068898841644388 0.47541502461811092 0 0.33123028043633618 0.77629643437932982 0 0.2792923945214143 0.77665808831789485 0 0.29904318922293632 0.74132814928635593 0 0.26573297623774761 0.59828298563722948 0 0.25115337790845271 0.54719303014923271 0 0.29110487519241501 0.56588143995431495 0 0.4656888918609538 0.78493261229743638 0 0.50945740445113552 0.75476055527778108 0 0.50731287292894423 0.78963574450233831 0 0.35312867752657662 0.084946736076730367 0 0.36246644853392812 0.1399454205365751 0 0.32215584939770009 0.1218492143506909 0 0.29348325746214782 0.31350119524708198 0 0.25966125648670141 0.34351016742083729 0 0.24432083401701241 0.3006253385567515 0 0.59999999999999976 0.69999999999999996 0 0.6499999999999998 0.69999999999999996 0 0.63221990677827677 0.73442891067859706 0 0.69999999999921003 0 0 0.7010294155333181 0.056779085686491267 0 0.66369801598854572 0.036327466368102787 0 0.40000000000166441 1 0 0.35000000000145642 1 0 0.36184234618600131 0.96443954459096326 0 0.34999999999912063 0 0 0.3999999999989749 0 0 0.3615861437013822 0.03582617922508851 0 0.43507373378304309 0.49699695397193322 0 0.47793794143994173 0.52940715638744962 0 0.42644501560315817 0.54603747078095544 0 0.14474682429600511 0.85524784522713515 0 0.19741632902693801 0.86755867406447229 0 0.16206583317966519 0.89685560785156404 0 0.19901705110390991 0.9175543425573498 0 0.16206583317966519 0.89685560785156404 0 0.19741632902693801 0.86755867406447229 0 0.35864735590330371 0.63903383440414463 0 0.3977710372045391 0.65868194622830212 0 0.36622285152418499 0.69092437780804039 0 0.7527966693318906 0.053051678021508272 0 0.7010294155333181 0.056779085686491267 0 0.72683645290270404 0.027797073151180601 0 0.71508799138962864 0.36622814920737751 0 0.72622533758026719 0.40265885511101601 0 0.68128176404677243 0.38629093627004979 0 0.79999999999999982 0.69999999999999996 0 0.84999999999999987 0.69999999999999996 0 0.81864958914779962 0.73589050177899629 0 0.79999999999947335 0 0 0.84999999999960507 0 0 0.81864958914740749 0.035890501779055867 0 0.39536230704883951 0.84069429572832477 0 0.35642984951668422 0.80994399665655703 0 0.38586766253264881 0.78219501014812498 0 0.42377727103934271 0.25099357235810238 0 0.46429753744194407 0.22870891180733599 0 0.4604742573284204 0.27846934318264788 0 0.39801143831225599 0.16651381068160659 0 0.42905200079338551 0.19982395548231649 0 0.38831533174504851 0.2189834941785925 0 0.79999999999999982 1 0 0.770759834363826 0.95919399014344442 0 0.81486180804382891 0.96321394949790495 0 0.79999999999999982 0.29999999999999999 0 0.77075983436335049 0.25919399014334171 0 0.81486180804364938 0.26321394949780091 0 0.25195515620380449 0.25883339815888678 0 0.21049769590865089 0.26857363548218488 0 0.224700362040408 0.22206622194729711 0 0.40326160981139969 0.73346192995102844 0 0.42676259796334498 0.76772545931379299 0 0.38586766253264881 0.78219501014812498 0 0.35312867752657662 0.084946736076730367 0 0.3096713403101819 0.085471541595262421 0 0.32541448401678508 0.046215317981507749 0 0.59999999999999976 0.29999999999999999 0 0.6499999999999998 0.29999999999999999 0 0.61959173890754571 0.33832250091341232 0 0.2185883431182947 0.18019736283949719 0 0.18652628422869419 0.14162325200928061 0 0.22985637510995899 0.1298347970200906 0 0.64999999999907843 0 0 0.69999999999921003 0 0 0.66369801598854572 0.036327466368102787 0 0.27499999999933927 0.060310814194988557 0 0.24218496799700481 0.089025544070598317 0 0.22668068146512929 0.045875643423131329 0 0.19922788606653311 0.085920220746880993 0 0.22668068146512929 0.045875643423131329 0 0.24218496799700481 0.089025544070598317 0 0.65507451745379841 0.92229208810758578 0 0.66412543161245952 0.88015090885499059 0 0.68987011941058407 0.92105047536677087 0 0.049706944316475897 0.72477277076253799 0 0.090953281884486245 0.7564451946902494 0 0.04408157711937423 0.7728941757575627 0 0.083105206071452636 0.79992298667296435 0 0.04408157711937423 0.7728941757575627 0 0.090953281884486245 0.7564451946902494 0 0.083105206071467416 0.20007701332709979 0 0.095326043202144745 0.24554465089224409 0 0.044081577119474857 0.2271058242433576 0 0.049706944316556423 0.27522722923869108 0 0.044081577119474857 0.2271058242433576 0 0.095326043202144745 0.24554465089224409 0 0.36575549820117997 0.31677992835137742 0 0.33402499257867951 0.28911035184473982 0 0.3786248352540974 0.27082301512024259 0 0.53245488764484505 0.55078124999999989 0 0.53330375813596242 0.50827942741749099 0 0.57435499076887508 0.54267261987897775 0 0.57611405284611883 0.50165903596042916 0 0.57435499076887508 0.54267261987897775 0 0.53330375813596242 0.50827942741749099 0 0.6499999999999998 0.29999999999999999 0 0.69999999999999984 0.29999999999999999 0 0.68887083591306764 0.33632058575757479 0 0.57611405284611883 0.50165903596042916 0 0.53823865529665704 0.45873898050322898 0 0.57975577671020095 0.46172033326338591 0 0.7750489929959945 0.66593931409600093 0 0.72500000000000064 0.67022701834392062 0 0.74994237037456724 0.62775548192980357 0 0.78145581580700685 0.34881365920033602 0 0.74764719760526988 0.3719647154012321 0 0.73090396928863699 0.33699297293167962 0 0.3999999999989749 0 0 0.44999999999882923 0 0 0.4320097814748517 0.037406712692169303 0 0.45000000000187229 1 0 0.40000000000166441 1 0 0.4308986359464303 0.96395712492906194 0 0.57484956128872922 0.66573805030881994 0 0.5991018319127801 0.62925360607495295 0 0.62460753523532009 0.66851202781000296 0 0.7750489929959945 0.66593931409600093 0 0.79884539758237771 0.62875045078114233 0 0.82457059160610424 0.66831947184359608 0 0.39801143831225599 0.16651381068160659 0 0.36246644853392812 0.1399454205365751 0 0.39823268594401579 0.1116623613130045 0 0.078358742472063481 0.43365249433908948 0 0.033550201249889847 0.46247875832467239 0 0.035463093262830522 0.42673416072819947 0 0.25676291524611189 0.7436741304886243 0 0.2792923945214143 0.77665808831789485 0 0.22556077506376701 0.77837424984191617 0 0.2236846579037573 0.67380363126050236 0 0.2248999640082178 0.72584299459689172 0 0.19068556247388771 0.71028988922845504 0 0.50715858906372158 0.63295939104129484 0 0.5166924242153631 0.59825134841919447 0 0.5498280205245758 0.6290146943450976 0 0.14618258501891079 0.062070108745602003 0 0.12372429750337779 0.095814237875728972 0 0.10266856499169109 0.044518360900210059 0 0.083411279318303222 0.089699755330707398 0 0.10266856499169109 0.044518360900210059 0 0.12372429750337779 0.095814237875728972 0 0.083411279318375747 0.91030024466934134 0 0.1241151115713819 0.9045666525468371 0 0.10266856499240549 0.95548163909968886 0 0.14617343800780541 0.93808063414349496 0 0.10266856499240549 0.95548163909968886 0 0.1241151115713819 0.9045666525468371 0 0.5499999999988151 0 0 0.59999999999894682 0 0 0.57396793757665954 0.037011367187645222 0 0.54782696902220018 0.79245182748204157 0 0.50627822638148745 0.8263979829520941 0 0.50731287292894423 0.78963574450233831 0 0.6499999999999998 0.29999999999999999 0 0.62657463266645097 0.26524202571255862 0 0.67933712972090698 0.25920070958121938 0 0.86956835336234861 0.571283299838105 0 0.86907294890112186 0.52008116128001669 0 0.90900154012161016 0.53607784105648792 0 0.17933913398461551 0.2350063570234002 0 0.224700362040408 0.22206622194729711 0 0.21049769590865089 0.26857363548218488 0 0.43249999999999988 0.43937499999999979 0 0.3908716102680424 0.47010282357248828 0 0.38707855792647411 0.42299362914874578 0 0.27474541102162192 0.11822029332053539 0 0.22985637510995899 0.1298347970200906 0 0.24218496799700481 0.089025544070598317 0 0.64753070846764316 0.77332939069435502 0 0.66427993341343905 0.73232764502436276 0 0.6916490518212759 0.75387992374886192 0 0 0.40000000000166441 0 0.050583896093752537 0.38543522283434112 0 0.035463093262830522 0.42673416072819947 0 0.73483647259922602 0.44789725365921768 0 0.73947346780852752 0.49062440112282169 0 0.69385896817107129 0.48377516041410151 0 0.57484956128872922 0.66573805030881994 0 0.52584555706968406 0.66664215091846768 0 0.5498280205245758 0.6290146943450976 0 0.60000000000138687 1 0 0.55000000000173355 1 0 0.57382506491224949 0.9629411906298494 0 0.068743045408989428 0.48853989837882689 0 0.085622222639554768 0.53333248912060549 0 0.044576108720083309 0.53509043209532614 0 0.083105206071467416 0.20007701332709979 0 0.044081577119474857 0.2271058242433576 0 0.038512288486115001 0.1844147282893184 0 0.083105206071452636 0.79992298667296435 0 0.038512288486097702 0.8155852717111195 0 0.04408157711937423 0.7728941757575627 0 0.28307294598219601 0.50789252727458634 0 0.23975172658309729 0.49475499200540818 0 0.25982634974572738 0.46097799597715272 0 0.43698630808430822 0.080423614171545449 0 0.39591832466117061 0.056982757562006353 0 0.4320097814748517 0.037406712692169303 0 0.4367309254023824 0.92065556789053882 0 0.4308986359464303 0.96395712492906194 0 0.39641108128798319 0.94356127926187128 0 0.80185942888539485 0.77452061303608133 0 0.75841349681148107 0.75422312624214749 0 0.78578450296893509 0.73292684821144505 0 0.80185942888501827 0.074520613036224564 0 0.7527966693318906 0.053051678021508272 0 0.78393852574753176 0.032039079577822822 0 0.6499999999999998 0.69999999999999996 0 0.62460753523532009 0.66851202781000296 0 0.675261390228442 0.65996937624687813 0 0.33123028043633618 0.77629643437932982 0 0.38586766253264881 0.78219501014812498 0 0.35642984951668422 0.80994399665655703 0 0.6405463747586706 0.63290524857395714 0 0.675261390228442 0.65996937624687813 0 0.62460753523532009 0.66851202781000296 0 0.22278230690790279 0.44824268025881547 0 0.191953871957803 0.42546416763755879 0 0.24049127783545701 0.41270748208749802 0 0.077693244765132896 0.56932317963405099 0 0.050069554451969707 0.61308520079857043 0 0.034381862692950467 0.57372682250960894 0 0.25195515620380449 0.25883339815888678 0 0.24432083401701241 0.3006253385567515 0 0.21049769590865089 0.26857363548218488 0 0.46666084890304671 0.57634471035397938 0 0.5166924242153631 0.59825134841919447 0 0.47095389620662098 0.61892551373708504 0 0.50715858906372158 0.63295939104129484 0 0.47095389620662098 0.61892551373708504 0 0.5166924242153631 0.59825134841919447 0 0.72525833953073282 0.1032114801687094 0 0.7527966693318906 0.053051678021508272 0 0.76878382444651716 0.097147941686331368 0 0.80185942888501827 0.074520613036224564 0 0.76878382444651716 0.097147941686331368 0 0.7527966693318906 0.053051678021508272 0 0.72500000000000064 0.7952620967744265 0 0.75841349681148107 0.75422312624214749 0 0.77094201086366854 0.79647480515688507 0 0.80185942888539485 0.77452061303608133 0 0.77094201086366854 0.79647480515688507 0 0.75841349681148107 0.75422312624214749 0 0.72500000000000064 0.7952620967744265 0 0.68024162096458085 0.79868546898116533 0 0.6916490518212759 0.75387992374886192 0 0.64753070846764316 0.77332939069435502 0 0.6916490518212759 0.75387992374886192 0 0.68024162096458085 0.79868546898116533 0 0 0.50000000000205869 0 0 0.45000000000187229 0 0.033550201249889847 0.46247875832467239 0 0.69999999999999984 0.69999999999999996 0 0.675261390228442 0.65996937624687813 0 0.72500000000000064 0.67022701834392062 0 0.71406021706547751 0.63292083137662503 0 0.72500000000000064 0.67022701834392062 0 0.675261390228442 0.65996937624687813 0 0.65408113592120842 0.073941773121567966 0 0.61940220174112337 0.047251958781050582 0 0.66369801598854572 0.036327466368102787 0 0.59999999999894682 0 0 0.61940220174112337 0.047251958781050582 0 0.57396793757665954 0.037011367187645222 0 0.60000000000138687 1 0 0.57382506491224949 0.9629411906298494 0 0.62065498684670595 0.95224934003983619 0 0.33122374654748771 0.57588941099433744 0 0.35765792684946668 0.6000687869219653 0 0.31502927232353312 0.6134992213375432 0 0.35864735590330371 0.63903383440414463 0 0.31502927232353312 0.6134992213375432 0 0.35765792684946668 0.6000687869219653 0 0.15801167086041079 0.46008690540259539 0 0.19604738184454831 0.47787523520405789 0 0.16618607197337229 0.50652878253548905 0 0.078358742472063481 0.43365249433908948 0 0.035463093262830522 0.42673416072819947 0 0.050583896093752537 0.38543522283434112 0 0.19901705110390991 0.9175543425573498 0 0.22850979588452081 0.95594428570238643 0 0.18474005699953849 0.96231585248064622 0 0.19922788606653311 0.085920220746880993 0 0.184418230509967 0.038773194583122873 0 0.22668068146512929 0.045875643423131329 0 0.19922788606653311 0.085920220746880993 0 0.24218496799700481 0.089025544070598317 0 0.22985637510995899 0.1298347970200906 0 0.74999999999999989 0.69999999999999996 0 0.78578450296893509 0.73292684821144505 0 0.75841349681148107 0.75422312624214749 0 0.74999999999934175 0 0 0.78393852574753176 0.032039079577822822 0 0.7527966693318906 0.053051678021508272 0 0 0.60000000000138687 0 0.034381862692950467 0.57372682250960894 0 0.050069554451969707 0.61308520079857043 0 0.2236846579037573 0.67380363126050236 0 0.26439878998046262 0.7048065392091396 0 0.2248999640082178 0.72584299459689172 0 0.6236733212988993 0.14864538214901801 0 0.58516465772821369 0.11653801664834119 0 0.61956000905586006 0.1043312481793135 0 0.26104540868854792 0.81401944968719064 0 0.2792923945214143 0.77665808831789485 0 0.30857225866488791 0.81101973481716805 0 0.42377727103934271 0.25099357235810238 0 0.42905200079338551 0.19982395548231649 0 0.46429753744194407 0.22870891180733599 0 0.27820712747429932 0.65530134213254643 0 0.31502927232353312 0.6134992213375432 0 0.32263089806001177 0.66003674931826484 0 0.61343887413683884 0.856862479058357 0 0.61885627562261258 0.90282959257498208 0 0.5832743223239254 0.88483152652961872 0 0.43698630808430822 0.080423614171545449 0 0.47040171442036788 0.044141676406503738 0 0.47881186583059909 0.093591717165689425 0 0.4367309254023824 0.92065556789053882 0 0.47401147028110507 0.91529957330468115 0 0.47135117303824892 0.95556877749289892 0 0.91696753777131557 0.497780560203536 0 0.95631871884947484 0.51827533208233789 0 0.90900154012161016 0.53607784105648792 0 0.93732437411268477 0.55911392101136159 0 0.90900154012161016 0.53607784105648792 0 0.95631871884947484 0.51827533208233789 0 0.27474541102162192 0.11822029332053539 0 0.25557216766470708 0.15874861286892261 0 0.22985637510995899 0.1298347970200906 0 0.2185883431182947 0.18019736283949719 0 0.22985637510995899 0.1298347970200906 0 0.25557216766470708 0.15874861286892261 0 0.29348325746214782 0.31350119524708198 0 0.33402499257867951 0.28911035184473982 0 0.32752639306529541 0.32610012995269699 0 0.27499999999933927 0.060310814194988557 0 0.32541448401678508 0.046215317981507749 0 0.3096713403101819 0.085471541595262421 0 0.27270076654418179 0.87751467830216623 0 0.24536017905392571 0.90704567837671446 0 0.2401283238295133 0.85648409884788523 0 1 0.44999999999963131 0 1 0.49999999999950101 0 0.96228564064454991 0.48206450662049471 0 0.61343887413683884 0.856862479058357 0 0.66412543161245952 0.88015090885499059 0 0.61885627562261258 0.90282959257498208 0 0 0.45000000000187229 0 0 0.40000000000166441 0 0.035463093262830522 0.42673416072819947 0 0.69999999999999984 0.69999999999999996 0 0.6916490518212759 0.75387992374886192 0 0.66427993341343905 0.73232764502436276 0 0.43846182030517877 0.64845797726506715 0 0.43323420005758778 0.6913544522562407 0 0.3977710372045391 0.65868194622830212 0 0.4367309254023824 0.92065556789053882 0 0.44003836461056539 0.88093474584252718 0 0.47401147028110507 0.91529957330468115 0 0.43846182030517877 0.64845797726506715 0 0.39743091024207589 0.6239520004230239 0 0.43545892161006339 0.61093128915313821 0 0.43846182030517877 0.64845797726506715 0 0.3977710372045391 0.65868194622830212 0 0.39743091024207589 0.6239520004230239 0 0.26429849586623999 0.19346700179430079 0 0.29336099386129338 0.15892013001050981 0 0.31255190597181792 0.19850845631528771 0 0.19670163708476801 0.31472518408333222 0 0.21049769590865089 0.26857363548218488 0 0.24432083401701241 0.3006253385567515 0 0.57724883562309992 0.92155686857100794 0 0.62065498684670595 0.95224934003983619 0 0.57382506491224949 0.9629411906298494 0 0.4409427642593301 0.35743108089689513 0 0.46655310992796922 0.39650496622958609 0 0.42161023666869668 0.39493916313643851 0 0.46666084890304671 0.57634471035397938 0 0.47095389620662098 0.61892551373708504 0 0.43545892161006339 0.61093128915313821 0 0.6879972333610942 0.43038561374960838 0 0.65178832218679827 0.45929119821019959 0 0.63912439215427275 0.41063340167983359 0 0.43698630808430822 0.080423614171545449 0 0.4320097814748517 0.037406712692169303 0 0.47040171442036788 0.044141676406503738 0 0.4367309254023824 0.92065556789053882 0 0.47135117303824892 0.95556877749289892 0 0.4308986359464303 0.96395712492906194 0 0.79680861578988083 0.92656778056766709 0 0.81486180804382891 0.96321394949790495 0 0.770759834363826 0.95919399014344442 0 0.79680861578956375 0.22656778056752541 0 0.81486180804364938 0.26321394949780091 0 0.77075983436335049 0.25919399014334171 0 0.71508799138962864 0.36622814920737751 0 0.68128176404677243 0.38629093627004979 0 0.68887083591306764 0.33632058575757479 0 0.35864735590330371 0.63903383440414463 0 0.32263089806001177 0.66003674931826484 0 0.31502927232353312 0.6134992213375432 0 0.21858834311891909 0.81980263716112767 0 0.2401283238295133 0.85648409884788523 0 0.19741632902693801 0.86755867406447229 0 0.35312867752657662 0.084946736076730367 0 0.32215584939770009 0.1218492143506909 0 0.3096713403101819 0.085471541595262421 0 0.35752321586431363 0.9185439911803448 0 0.35864759629805099 0.87963482415279515 0 0.39767323751400468 0.89584229130535065 0 0.41914690343363781 0.30688979866601612 0 0.4604742573284204 0.27846934318264788 0 0.46226845272279993 0.31901800744800313 0 0.33084213324567391 0.16272720141332131 0 0.32215584939770009 0.1218492143506909 0 0.36246644853392812 0.1399454205365751 0 0.46666084890304671 0.57634471035397938 0 0.42644501560315817 0.54603747078095544 0 0.47793794143994173 0.52940715638744962 0 0 0.60000000000138687 0 0 0.55000000000173355 0 0.034381862692950467 0.57372682250960894 0 0.77354604466818633 0.40378688774472771 0 0.74764719760526988 0.3719647154012321 0 0.78145581580700685 0.34881365920033602 0 0.34999999999912063 0 0 0.3615861437013822 0.03582617922508851 0 0.32541448401678508 0.046215317981507749 0 0.35000000000145642 1 0 0.32544832635163229 0.95485394099568932 0 0.36184234618600131 0.96443954459096326 0 0.57667858002728545 0.078486105337742612 0 0.57396793757665954 0.037011367187645222 0 0.61940220174112337 0.047251958781050582 0 0.47357141910802508 0.1873585799078378 0 0.50760557329222289 0.20700468884612061 0 0.46429753744194407 0.22870891180733599 0 0.49695729691142171 0.25014895411178018 0 0.46429753744194407 0.22870891180733599 0 0.50760557329222289 0.20700468884612061 0 0.33084213324567391 0.16272720141332131 0 0.3572130504031617 0.1874703368446563 0 0.31255190597181792 0.19850845631528771 0 0.6879972333610942 0.43038561374960838 0 0.63912439215427275 0.41063340167983359 0 0.68128176404677243 0.38629093627004979 0 0.65408113592120842 0.073941773121567966 0 0.65290632656860115 0.11434202593454081 0 0.61956000905586006 0.1043312481793135 0 0.33084213324567391 0.16272720141332131 0 0.31255190597181792 0.19850845631528771 0 0.29336099386129338 0.15892013001050981 0 0.61209567303293111 0.44669033081290321 0 0.63912439215427275 0.41063340167983359 0 0.65178832218679827 0.45929119821019959 0 0.086179601630648681 0.64647209519980475 0 0.1024350934457823 0.60772393977513839 0 0.1241190223511371 0.64391885572885044 0 0.44999999999882923 0 0 0.47040171442036788 0.044141676406503738 0 0.4320097814748517 0.037406712692169303 0 0.45000000000187229 1 0 0.4308986359464303 0.96395712492906194 0 0.47135117303824892 0.95556877749289892 0 0.74999999999934175 0 0 0.7527966693318906 0.053051678021508272 0 0.72683645290270404 0.027797073151180601 0 0.74999999999999989 0.69999999999999996 0 0.75841349681148107 0.75422312624214749 0 0.72501250972655151 0.74067302935308721 0 0.69999999999999984 0.69999999999999996 0 0.72501250972655151 0.74067302935308721 0 0.6916490518212759 0.75387992374886192 0 0.74999999999934175 0 0 0.79999999999947335 0 0 0.78393852574753176 0.032039079577822822 0 0.74999999999999989 0.69999999999999996 0 0.79999999999999982 0.69999999999999996 0 0.78578450296893509 0.73292684821144505 0 0.6405463747586706 0.63290524857395714 0 0.5991018319127801 0.62925360607495295 0 0.63065402604362242 0.59661356661633302 0 0.65481233915350323 0.35652751921065562 0 0.68887083591306764 0.33632058575757479 0 0.68128176404677243 0.38629093627004979 0 0.89999999999999991 0.29999999999999999 0 0.94999999999999996 0.29999999999999999 0 0.92012390126144183 0.33123581297173937 0 0.89999999999999991 0.69999999999999996 0 0.92057473616084773 0.66770436535372446 0 0.94999999999999996 0.69999999999999996 0 0.4367309254023824 0.92065556789053882 0 0.39767323751400468 0.89584229130535065 0 0.44003836461056539 0.88093474584252718 0 0.2185883431182947 0.18019736283949719 0 0.18124454140915969 0.18790916706335251 0 0.18652628422869419 0.14162325200928061 0 0.20050006573841939 0.53248514016039872 0 0.19604738184454831 0.47787523520405789 0 0.23975172658309729 0.49475499200540818 0 0.65507451745379841 0.92229208810758578 0 0.61885627562261258 0.90282959257498208 0 0.66412543161245952 0.88015090885499059 0 0.65394964615507722 0.22666784374016369 0 0.67933712972090698 0.25920070958121938 0 0.62657463266645097 0.26524202571255862 0 0.077693244765132896 0.56932317963405099 0 0.034381862692950467 0.57372682250960894 0 0.044576108720083309 0.53509043209532614 0 0.39801143831225599 0.16651381068160659 0 0.38831533174504851 0.2189834941785925 0 0.3572130504031617 0.1874703368446563 0 0.6499999999999998 0.69999999999999996 0 0.69999999999999984 0.69999999999999996 0 0.66427993341343905 0.73232764502436276 0 0.1215415378367805 0.72939333680004137 0 0.15332765547575641 0.71200081858233666 0 0.14335651144331049 0.75565258250209677 0 0.6405463747586706 0.63290524857395714 0 0.63065402604362242 0.59661356661633302 0 0.67529834988829951 0.61613270668143583 0 0.67323294229744413 0.57556450033612505 0 0.67529834988829951 0.61613270668143583 0 0.63065402604362242 0.59661356661633302 0 0.91750694127107502 0.36982372220068471 0 0.87430060258887643 0.34056085888204451 0 0.92012390126144183 0.33123581297173937 0 0.89999999999999991 0.29999999999999999 0 0.92012390126144183 0.33123581297173937 0 0.87430060258887643 0.34056085888204451 0 0.89999999999999991 0.69999999999999996 0 0.87712158428786946 0.65709029563313581 0 0.92057473616084773 0.66770436535372446 0 0.91750694127105259 0.63017627779935648 0 0.92057473616084773 0.66770436535372446 0 0.87712158428786946 0.65709029563313581 0 0.33122374654748771 0.57588941099433744 0 0.29110487519241501 0.56588143995431495 0 0.33190227185843768 0.52715113583864037 0 0.57484956128872922 0.66573805030881994 0 0.5498280205245758 0.6290146943450976 0 0.5991018319127801 0.62925360607495295 0 0.57412547362576272 0.58273804879550706 0 0.5991018319127801 0.62925360607495295 0 0.5498280205245758 0.6290146943450976 0 0.65408113592120842 0.073941773121567966 0 0.66369801598854572 0.036327466368102787 0 0.7010294155333181 0.056779085686491267 0 0.27474541102162192 0.11822029332053539 0 0.32215584939770009 0.1218492143506909 0 0.29336099386129338 0.15892013001050981 0 0.33084213324567391 0.16272720141332131 0 0.29336099386129338 0.15892013001050981 0 0.32215584939770009 0.1218492143506909 0 0.5 0.29999999999999999 0 0.54999999999999993 0.29999999999999999 0 0.52752007115234678 0.33170632466418198 0 0.83573492347052902 0.36590755630746369 0 0.87430060258887643 0.34056085888204451 0 0.86844634540301924 0.38530937474099819 0 0.83758014339878906 0.63222013025741819 0 0.87159648282691515 0.61285406320581504 0 0.87712158428786946 0.65709029563313581 0 0.22278230690790279 0.44824268025881547 0 0.23975172658309729 0.49475499200540818 0 0.19604738184454831 0.47787523520405789 0 1 0.49999999999950101 0 0.95631871884947484 0.51827533208233789 0 0.96228564064454991 0.48206450662049471 0 0.1650278706801647 0.38791388161335733 0 0.13773355295499351 0.42497777642586831 0 0.1117088112799664 0.38831403004970022 0 0.61209567303293111 0.44669033081290321 0 0.57975577671020095 0.46172033326338591 0 0.57744073070774993 0.41535148636609359 0 0.077693244765132896 0.56932317963405099 0 0.1154888278694548 0.56733818459978413 0 0.1024350934457823 0.60772393977513839 0 0.68697391633157634 0.84450604838764298 0 0.65005442820240822 0.82644988530054031 0 0.68024162096458085 0.79868546898116533 0 0.76901770135486491 0.84293557325473656 0 0.77094201086366854 0.79647480515688507 0 0.80041942726660109 0.81543261647703358 0 0.77144070960558853 0.14311854477243749 0 0.76878382444651716 0.097147941686331368 0 0.80076557130237269 0.1154587552654202 0 0.5 0.69999999999999996 0 0.52584555706968406 0.66664215091846768 0 0.54999999999999993 0.69999999999999996 0 0.077693244765132896 0.56932317963405099 0 0.044576108720083309 0.53509043209532614 0 0.085622222639554768 0.53333248912060549 0 0.69999999999921003 0 0 0.72683645290270404 0.027797073151180601 0 0.7010294155333181 0.056779085686491267 0 1 0 0 0.97166519676946894 0.033371144900598393 0 0.94999999999986839 0 0 1 0.69999999999999996 0 0.97166519676947294 0.73337114490064459 0 0.94999999999999996 0.69999999999999996 0 1 0.69999999999999996 0 1 0.74999999999993494 0 0.97166519676947294 0.73337114490064459 0 1 0.29999999999999999 0 0.97166519676951801 0.26662885509932011 0 1 0.24999999999987299 0 1 1 0 0.94999999999979179 1 0 0.97166519676946206 0.96662885509935492 0 1 0 0 1 0.049999999999896842 0 0.97166519676946894 0.033371144900598393 0 1 0.29999999999999999 0 0.94999999999999996 0.29999999999999999 0 0.97166519676951801 0.26662885509932011 0 1 1 0 0.97166519676946206 0.96662885509935492 0 1 0.94999999999997109 0 0 0.55000000000173355 0 0.044576108720083309 0.53509043209532614 0 0.034381862692950467 0.57372682250960894 0 0.6879972333610942 0.43038561374960838 0 0.69385896817107129 0.48377516041410151 0 0.65178832218679827 0.45929119821019959 0 0.33084213324567391 0.16272720141332131 0 0.36246644853392812 0.1399454205365751 0 0.3572130504031617 0.1874703368446563 0 0.65408113592120842 0.073941773121567966 0 0.68330259535470161 0.10038702501083881 0 0.65290632656860115 0.11434202593454081 0 0.16500388252850301 0.66612077714085194 0 0.19068556247388771 0.71028988922845504 0 0.15332765547575641 0.71200081858233666 0 0.82709327591091286 0.84937141670920724 0 0.85600844944837662 0.88483418979512773 0 0.81159157511211755 0.88795995483179491 0 0.82709327591102189 0.14937141670914489 0 0.85600844944842547 0.1848341897950983 0 0.81283102246527783 0.1881007222486438 0 0.79999999999999982 0.29999999999999999 0 0.84999999999999987 0.29999999999999999 0 0.82500000000000062 0.33010209762754811 0 0.79999999999999982 0.69999999999999996 0 0.82457059160610424 0.66831947184359608 0 0.84999999999999987 0.69999999999999996 0 0.59999999999999976 0.69999999999999996 0 0.62460753523532009 0.66851202781000296 0 0.6499999999999998 0.69999999999999996 0 0.39801143831225599 0.16651381068160659 0 0.3572130504031617 0.1874703368446563 0 0.36246644853392812 0.1399454205365751 0 0.69999999999999984 0.29999999999999999 0 0.74999999999999989 0.29999999999999999 0 0.73090396928863699 0.33699297293167962 0 0.69999999999999984 0.69999999999999996 0 0.72500000000000064 0.67022701834392062 0 0.74999999999999989 0.69999999999999996 0 0.6236733212988993 0.14864538214901801 0 0.64011864159029941 0.18789607982138171 0 0.59443395090188023 0.18455690917515069 0 0.20050006573841939 0.53248514016039872 0 0.16618607197337229 0.50652878253548905 0 0.19604738184454831 0.47787523520405789 0 0.79680861578956375 0.22656778056752541 0 0.76587607630038135 0.18880039518954719 0 0.81283102246527783 0.1881007222486438 0 0.79680861578988083 0.92656778056766709 0 0.76891166905518427 0.88835469571185499 0 0.81159157511211755 0.88795995483179491 0 0.71406021706547751 0.63292083137662503 0 0.675261390228442 0.65996937624687813 0 0.67529834988829951 0.61613270668143583 0 0.6405463747586706 0.63290524857395714 0 0.67529834988829951 0.61613270668143583 0 0.675261390228442 0.65996937624687813 0 0.19670163708476801 0.31472518408333222 0 0.168349569971391 0.28054490850913671 0 0.21049769590865089 0.26857363548218488 0 0.47357141910802508 0.1873585799078378 0 0.46429753744194407 0.22870891180733599 0 0.42905200079338551 0.19982395548231649 0 0.59814117807200873 0.23398510860739519 0 0.5794309697024993 0.27124795968204829 0 0.54248833945060504 0.2520322959927106 0 0.6541250972820879 0.49999999999999989 0 0.65178832218679827 0.45929119821019959 0 0.69385896817107129 0.48377516041410151 0 0.54999999999999993 0.29999999999999999 0 0.5794309697024993 0.27124795968204829 0 0.59999999999999976 0.29999999999999999 0 0.7750489929959945 0.66593931409600093 0 0.74994237037456724 0.62775548192980357 0 0.79884539758237771 0.62875045078114233 0 0.77293540622714185 0.59448302402785813 0 0.79884539758237771 0.62875045078114233 0 0.74994237037456724 0.62775548192980357 0 0.14332333627550789 0.14578431753966009 0 0.16141998738593399 0.10404039647458049 0 0.18652628422869419 0.14162325200928061 0 0.38083244760691543 0.38531983672244652 0 0.42161023666869668 0.39493916313643851 0 0.38707855792647411 0.42299362914874578 0 0.43249999999999988 0.43937499999999979 0 0.38707855792647411 0.42299362914874578 0 0.42161023666869668 0.39493916313643851 0 0.43846182030517877 0.64845797726506715 0 0.47095389620662098 0.61892551373708504 0 0.47913475093885149 0.66010775372412711 0 0.50715858906372158 0.63295939104129484 0 0.47913475093885149 0.66010775372412711 0 0.47095389620662098 0.61892551373708504 0 0.69999999999999984 0.69999999999999996 0 0.74999999999999989 0.69999999999999996 0 0.72501250972655151 0.74067302935308721 0 0.4089290844030305 0.58728915500154233 0 0.35765792684946668 0.6000687869219653 0 0.37272913873093971 0.56192925302619479 0 0.69999999999921003 0 0 0.74999999999934175 0 0 0.72683645290270404 0.027797073151180601 0 0.17933913398461551 0.2350063570234002 0 0.21049769590865089 0.26857363548218488 0 0.168349569971391 0.28054490850913671 0 0.14474682429600511 0.85524784522713515 0 0.10562472963403439 0.87143394428979881 0 0.1074251789111534 0.83564394292147814 0 0.14332333627550789 0.14578431753966009 0 0.106902708054812 0.16453234188234539 0 0.1053400320299198 0.12877248826361379 0 0.2236846579037573 0.67380363126050236 0 0.19914261668318661 0.62286739485272158 0 0.2459498854893499 0.63248470766216769 0 0.049999999999899652 0 0 0.053064897599215843 0.048131547304697528 0 0.02576622439977887 0.024532886826226379 0 0 0.050000000000207989 0 0.02576622439977887 0.024532886826226379 0 0.053064897599215843 0.048131547304697528 0 0.050000000000207989 1 0 0.025766224399875661 0.97546711317377799 0 0.053064897599294662 0.95186845269532028 0 0 0.94999999999979179 0 0.053064897599294662 0.95186845269532028 0 0.025766224399875661 0.97546711317377799 0 0.47357141910802508 0.1873585799078378 0 0.48466639505193998 0.1421439844745814 0 0.51729576145820033 0.1683240575987815 0 0.077693244765132896 0.56932317963405099 0 0.085622222639554768 0.53333248912060549 0 0.1154888278694548 0.56733818459978413 0 0.64753070846764316 0.77332939069435502 0 0.63221990677827677 0.73442891067859706 0 0.66427993341343905 0.73232764502436276 0 0.4656888918609538 0.78493261229743638 0 0.42609163930740518 0.80361684430568059 0 0.42676259796334498 0.76772545931379299 0 0.4089290844030305 0.58728915500154233 0 0.39743091024207589 0.6239520004230239 0 0.35765792684946668 0.6000687869219653 0 0.55306006949600994 0.20198184231352201 0 0.50760557329222289 0.20700468884612061 0 0.51729576145820033 0.1683240575987815 0 1 0.8999999999998336 0 1 0.94999999999997109 0 0.97435614836744289 0.92499999999990257 0 1 0.19999999999974799 0 1 0.24999999999987299 0 0.97435614836740092 0.22499999999981049 0 1 0.74999999999993494 0 1 0.7999999999998193 0 0.97435614836745565 0.77499999999987745 0 1 0.049999999999896842 0 1 0.099999999999753911 0 0.97435614836748241 0.074999999999825387 0 0.86411095495256451 0.42388805655111889 0 0.86844634540301924 0.38530937474099819 0 0.90594285160987287 0.4141265964174129 0 0.86956835336234861 0.571283299838105 0 0.91143117093204207 0.58709913730335972 0 0.87159648282691515 0.61285406320581504 0 0 0 0 0.02576622439977887 0.024532886826226379 0 0 0.050000000000207989 0 0 1 0 0 0.94999999999979179 0 0.025766224399875661 0.97546711317377799 0 0 1 0 0.025766224399875661 0.97546711317377799 0 0.050000000000207989 1 0 0 0 0 0.049999999999899652 0 0 0.02576622439977887 0.024532886826226379 0 0.65394964615507722 0.22666784374016369 0 0.64011864159029941 0.18789607982138171 0 0.6865991819015953 0.189116534044597 0 0.25195515620380449 0.25883339815888678 0 0.28040350263641872 0.23054717217092141 0 0.29132859388405002 0.27203693976649962 0 0.61209567303293111 0.44669033081290321 0 0.65178832218679827 0.45929119821019959 0 0.61547661924074692 0.48539576058873962 0 0.6541250972820879 0.49999999999999989 0 0.61547661924074692 0.48539576058873962 0 0.65178832218679827 0.45929119821019959 0 0.19670163708476801 0.31472518408333222 0 0.24432083401701241 0.3006253385567515 0 0.22615676742807109 0.33458786033114157 0 0.15801167086041079 0.46008690540259539 0 0.13773355295499351 0.42497777642586831 0 0.191953871957803 0.42546416763755879 0 0.1650278706801647 0.38791388161335733 0 0.191953871957803 0.42546416763755879 0 0.13773355295499351 0.42497777642586831 0 0.50715858906372158 0.63295939104129484 0 0.52584555706968406 0.66664215091846768 0 0.47913475093885149 0.66010775372412711 0 0.5 0.69999999999999996 0 0.47913475093885149 0.66010775372412711 0 0.52584555706968406 0.66664215091846768 0 0.51076801031701946 0.1202837388510348 0 0.51729576145820033 0.1683240575987815 0 0.48466639505193998 0.1421439844745814 0 0.71406021706547751 0.63292083137662503 0 0.74994237037456724 0.62775548192980357 0 0.72500000000000064 0.67022701834392062 0 0.71508799138962864 0.36622814920737751 0 0.73090396928863699 0.33699297293167962 0 0.74764719760526988 0.3719647154012321 0 0.22278230690790279 0.44824268025881547 0 0.25982634974572738 0.46097799597715272 0 0.23975172658309729 0.49475499200540818 0 0.80185942888539485 0.77452061303608133 0 0.78578450296893509 0.73292684821144505 0 0.81864958914779962 0.73589050177899629 0 0.80185942888501827 0.074520613036224564 0 0.78393852574753176 0.032039079577822822 0 0.81864958914740749 0.035890501779055867 0 0.5 0.29999999999999999 0 0.46226845272279993 0.31901800744800313 0 0.4604742573284204 0.27846934318264788 0 0.6405463747586706 0.63290524857395714 0 0.62460753523532009 0.66851202781000296 0 0.5991018319127801 0.62925360607495295 0 0.79680861578988083 0.92656778056766709 0 0.770759834363826 0.95919399014344442 0 0.75729602384198635 0.92353652857884294 0 0.79680861578956375 0.22656778056752541 0 0.77075983436335049 0.25919399014334171 0 0.75668890529066124 0.2244279804069782 0 0.65394964615507722 0.22666784374016369 0 0.69397719155551807 0.2245125647000914 0 0.67933712972090698 0.25920070958121938 0 0.81973119833356312 0.43505687159469048 0 0.84925632466077294 0.45359738909549091 0 0.81400510706333218 0.47357325943904899 0 0.83758014339878906 0.63222013025741819 0 0.82457059160610424 0.66831947184359608 0 0.79884539758237771 0.62875045078114233 0 0.25676291524611189 0.7436741304886243 0 0.2248999640082178 0.72584299459689172 0 0.26439878998046262 0.7048065392091396 0 0.91696753777131557 0.497780560203536 0 0.90900154012161016 0.53607784105648792 0 0.86907294890112186 0.52008116128001669 0 0.17933913398461551 0.2350063570234002 0 0.168349569971391 0.28054490850913671 0 0.14377654328998779 0.2442024734791064 0 0.1247745017231483 0.27198077544791172 0 0.14377654328998779 0.2442024734791064 0 0.168349569971391 0.28054490850913671 0 0.34258405725730701 0.4444034294386992 0 0.35221190152536241 0.40457127605439203 0 0.38707855792647411 0.42299362914874578 0 0.47357141910802508 0.1873585799078378 0 0.51729576145820033 0.1683240575987815 0 0.50760557329222289 0.20700468884612061 0 0.19670163708476801 0.31472518408333222 0 0.22615676742807109 0.33458786033114157 0 0.18434624290945251 0.35208838264196463 0 0.22033343844674469 0.36963382230740238 0 0.18434624290945251 0.35208838264196463 0 0.22615676742807109 0.33458786033114157 0 0.24432083401701241 0.3006253385567515 0 0.25966125648670141 0.34351016742083729 0 0.22615676742807109 0.33458786033114157 0 0.93814194660195893 0.44426664081746747 0 0.90594285160987287 0.4141265964174129 0 0.95871855522754235 0.40006508612975411 0 0.91750694127107502 0.36982372220068471 0 0.95871855522754235 0.40006508612975411 0 0.90594285160987287 0.4141265964174129 0 0.91750694127105259 0.63017627779935648 0 0.91143117093204207 0.58709913730335972 0 0.95867599106212187 0.60011091146651041 0 0.93732437411268477 0.55911392101136159 0 0.95867599106212187 0.60011091146651041 0 0.91143117093204207 0.58709913730335972 0 0.50715858906372158 0.63295939104129484 0 0.5498280205245758 0.6290146943450976 0 0.52584555706968406 0.66664215091846768 0 0.94399509803918602 0.75600490196082126 0 0.97435614836745565 0.77499999999987745 0 0.95386563387742829 0.80414874155775029 0 0.94399509803922566 0.056004901960802607 0 0.97435614836748241 0.074999999999825387 0 0.95386563387744361 0.1041487415577465 0 0.94399509803921056 0.24399509803922639 0 0.95391631417672862 0.19584263333809451 0 0.97435614836740092 0.22499999999981049 0 0.94399509803919068 0.9439950980391687 0 0.95391631417670719 0.89584263333814784 0 0.97435614836744289 0.92499999999990257 0 0.79680861578988083 0.92656778056766709 0 0.75729602384198635 0.92353652857884294 0 0.76891166905518427 0.88835469571185499 0 0.79680861578956375 0.22656778056752541 0 0.75668890529066124 0.2244279804069782 0 0.76587607630038135 0.18880039518954719 0 0.65394964615507722 0.22666784374016369 0 0.6865991819015953 0.189116534044597 0 0.69397719155551807 0.2245125647000914 0 0.38083244760691543 0.38531983672244652 0 0.38707855792647411 0.42299362914874578 0 0.35221190152536241 0.40457127605439203 0 1 0.7999999999998193 0 0.95386563387742829 0.80414874155775029 0 0.97435614836745565 0.77499999999987745 0 1 0.099999999999753911 0 0.95386563387744361 0.1041487415577465 0 0.97435614836748241 0.074999999999825387 0 1 0.8999999999998336 0 0.97435614836744289 0.92499999999990257 0 0.95391631417670719 0.89584263333814784 0 1 0.19999999999974799 0 0.97435614836740092 0.22499999999981049 0 0.95391631417672862 0.19584263333809451 0 0.84723782639812573 0.48638347960178252 0 0.81400510706333218 0.47357325943904899 0 0.84925632466077294 0.45359738909549091 0 0.54999999999999993 0.29999999999999999 0 0.54248833945060504 0.2520322959927106 0 0.5794309697024993 0.27124795968204829 0 0.94999999999999996 0.29999999999999999 0 0.95780851984364423 0.34215720972155339 0 0.92012390126144183 0.33123581297173937 0 0.94999999999999996 0.69999999999999996 0 0.92057473616084773 0.66770436535372446 0 0.9578014258160763 0.65787212321113708 0 0.15801167086041079 0.46008690540259539 0 0.113541300460994 0.46208784312094731 0 0.13773355295499351 0.42497777642586831 0 0.7250000000005199 0.94981617647078953 0 0.68015064798562208 0.95924320340003011 0 0.68987011941058407 0.92105047536677087 0 0.65507451745379841 0.92229208810758578 0 0.68987011941058407 0.92105047536677087 0 0.68015064798562208 0.95924320340003011 0 0.77846603114747959 0.49850927265137401 0 0.77972660463949339 0.45529290596363098 0 0.81400510706333218 0.47357325943904899 0 0.27866744612395528 0.38416094670951489 0 0.25966125648670141 0.34351016742083729 0 0.29644548887253103 0.34914008784168082 0 0.61209567303293111 0.44669033081290321 0 0.61547661924074692 0.48539576058873962 0 0.57975577671020095 0.46172033326338591 0 0.57611405284611883 0.50165903596042916 0 0.57975577671020095 0.46172033326338591 0 0.61547661924074692 0.48539576058873962 0 0.7250000000005199 0.89375000000045834 0 0.76891166905518427 0.88835469571185499 0 0.75729602384198635 0.92353652857884294 0 0.72500000000001008 0.19776155966387679 0 0.76587607630038135 0.18880039518954719 0 0.75668890529066124 0.2244279804069782 0 0.72500000000001008 0.19776155966387679 0 0.69397719155551807 0.2245125647000914 0 0.6865991819015953 0.189116534044597 0 0.083411279318303222 0.089699755330707398 0 0.12372429750337779 0.095814237875728972 0 0.1053400320299198 0.12877248826361379 0 0.083411279318375747 0.91030024466934134 0 0.10562472963403439 0.87143394428979881 0 0.1241151115713819 0.9045666525468371 0 0.14617343800780541 0.93808063414349496 0 0.1241151115713819 0.9045666525468371 0 0.16206583317966519 0.89685560785156404 0 0.14618258501891079 0.062070108745602003 0 0.16141998738593399 0.10404039647458049 0 0.12372429750337779 0.095814237875728972 0 0.33277555741076909 0.36432196682010132 0 0.35221190152536241 0.40457127605439203 0 0.31778888742534622 0.40581751814196781 0 0.7250000000005199 0.94981617647078953 0 0.75729602384198635 0.92353652857884294 0 0.770759834363826 0.95919399014344442 0 0.72500000000000064 0.2498161764706 0 0.75668890529066124 0.2244279804069782 0 0.77075983436335049 0.25919399014334171 0 0.72500000000000064 0.2498161764706 0 0.67933712972090698 0.25920070958121938 0 0.69397719155551807 0.2245125647000914 0 0.6236733212988993 0.14864538214901801 0 0.61956000905586006 0.1043312481793135 0 0.65290632656860115 0.11434202593454081 0 0.81973119833356312 0.43505687159469048 0 0.81400510706333218 0.47357325943904899 0 0.77972660463949339 0.45529290596363098 0 0.25676291524611189 0.7436741304886243 0 0.29904318922293632 0.74132814928635593 0 0.2792923945214143 0.77665808831789485 0 0.36575549820117997 0.31677992835137742 0 0.32752639306529541 0.32610012995269699 0 0.33402499257867951 0.28911035184473982 0 0.14332333627550789 0.14578431753966009 0 0.18652628422869419 0.14162325200928061 0 0.18124454140915969 0.18790916706335251 0 0.57724883562309992 0.92155686857100794 0 0.5832743223239254 0.88483152652961872 0 0.61885627562261258 0.90282959257498208 0 0.57667858002728545 0.078486105337742612 0 0.61956000905586006 0.1043312481793135 0 0.58516465772821369 0.11653801664834119 0 0.80185942888539485 0.77452061303608133 0 0.80041942726660109 0.81543261647703358 0 0.77094201086366854 0.79647480515688507 0 0.80185942888501827 0.074520613036224564 0 0.80076557130237269 0.1154587552654202 0 0.76878382444651716 0.097147941686331368 0 0.64753070846764316 0.77332939069435502 0 0.68024162096458085 0.79868546898116533 0 0.65005442820240822 0.82644988530054031 0 0.26429849586623999 0.19346700179430079 0 0.25557216766470708 0.15874861286892261 0 0.29336099386129338 0.15892013001050981 0 0.29348325746214782 0.31350119524708198 0 0.29644548887253103 0.34914008784168082 0 0.25966125648670141 0.34351016742083729 0 0.68391457121233579 0.14440470121196541 0 0.65290632656860115 0.11434202593454081 0 0.68330259535470161 0.10038702501083881 0 0.91750694127107502 0.36982372220068471 0 0.92012390126144183 0.33123581297173937 0 0.95780851984364423 0.34215720972155339 0 0.91750694127105259 0.63017627779935648 0 0.9578014258160763 0.65787212321113708 0 0.92057473616084773 0.66770436535372446 0 0.22033343844674469 0.36963382230740238 0 0.22615676742807109 0.33458786033114157 0 0.25966125648670141 0.34351016742083729 0 1 0.94999999999997109 0 0.97166519676946206 0.96662885509935492 0 0.97435614836744289 0.92499999999990257 0 0.94399509803919068 0.9439950980391687 0 0.97435614836744289 0.92499999999990257 0 0.97166519676946206 0.96662885509935492 0 0.94399509803921056 0.24399509803922639 0 0.97435614836740092 0.22499999999981049 0 0.97166519676951801 0.26662885509932011 0 1 0.24999999999987299 0 0.97166519676951801 0.26662885509932011 0 0.97435614836740092 0.22499999999981049 0 1 0.74999999999993494 0 0.97435614836745565 0.77499999999987745 0 0.97166519676947294 0.73337114490064459 0 1 0.049999999999896842 0 0.97435614836748241 0.074999999999825387 0 0.97166519676946894 0.033371144900598393 0 0.94399509803918602 0.75600490196082126 0 0.97166519676947294 0.73337114490064459 0 0.97435614836745565 0.77499999999987745 0 0.94399509803922566 0.056004901960802607 0 0.97166519676946894 0.033371144900598393 0 0.97435614836748241 0.074999999999825387 0 0.77846603114747959 0.49850927265137401 0 0.81400510706333218 0.47357325943904899 0 0.81441713509985358 0.51161854125224959 0 0.77354604466818633 0.40378688774472771 0 0.72622533758026719 0.40265885511101601 0 0.74764719760526988 0.3719647154012321 0 0.71508799138962864 0.36622814920737751 0 0.74764719760526988 0.3719647154012321 0 0.72622533758026719 0.40265885511101601 0 0.84723782639812573 0.48638347960178252 0 0.84925632466077294 0.45359738909549091 0 0.88594198078881503 0.46167788676578442 0 0.86411095495256451 0.42388805655111889 0 0.88594198078881503 0.46167788676578442 0 0.84925632466077294 0.45359738909549091 0 0.43846182030517877 0.64845797726506715 0 0.43545892161006339 0.61093128915313821 0 0.47095389620662098 0.61892551373708504 0 0.33123028043633618 0.77629643437932982 0 0.35642984951668422 0.80994399665655703 0 0.30857225866488791 0.81101973481716805 0 0.33403534827021109 0.84402799729020661 0 0.30857225866488791 0.81101973481716805 0 0.35642984951668422 0.80994399665655703 0 0.26429849586623999 0.19346700179430079 0 0.31255190597181792 0.19850845631528771 0 0.28040350263641872 0.23054717217092141 0 0.57724883562309992 0.92155686857100794 0 0.54783390826260769 0.89287767010860219 0 0.5832743223239254 0.88483152652961872 0 0.55899371797446828 0.85003102233514438 0 0.5832743223239254 0.88483152652961872 0 0.54783390826260769 0.89287767010860219 0 0.4089290844030305 0.58728915500154233 0 0.43545892161006339 0.61093128915313821 0 0.39743091024207589 0.6239520004230239 0 0.77293540622714185 0.59448302402785813 0 0.81723410853263523 0.59419663659258926 0 0.79884539758237771 0.62875045078114233 0 0.83758014339878906 0.63222013025741819 0 0.79884539758237771 0.62875045078114233 0 0.81723410853263523 0.59419663659258926 0 0.35864735590330371 0.63903383440414463 0 0.39743091024207589 0.6239520004230239 0 0.3977710372045391 0.65868194622830212 0 0.56202748619534593 0.15054058349222879 0 0.54979595918804436 0.1060565713905809 0 0.58516465772821369 0.11653801664834119 0 0.57667858002728545 0.078486105337742612 0 0.58516465772821369 0.11653801664834119 0 0.54979595918804436 0.1060565713905809 0 0.33122374654748771 0.57588941099433744 0 0.37272913873093971 0.56192925302619479 0 0.35765792684946668 0.6000687869219653 0 0.35864735590330371 0.63903383440414463 0 0.35765792684946668 0.6000687869219653 0 0.39743091024207589 0.6239520004230239 0 0.71508799138962864 0.36622814920737751 0 0.68887083591306764 0.33632058575757479 0 0.73090396928863699 0.33699297293167962 0 0.29348325746214782 0.31350119524708198 0 0.32752639306529541 0.32610012995269699 0 0.29644548887253103 0.34914008784168082 0 0.33277555741076909 0.36432196682010132 0 0.29644548887253103 0.34914008784168082 0 0.32752639306529541 0.32610012995269699 0 0.34258405725730701 0.4444034294386992 0 0.31778888742534622 0.40581751814196781 0 0.35221190152536241 0.40457127605439203 0 0.79999999999999982 0.69999999999999996 0 0.81864958914779962 0.73589050177899629 0 0.78578450296893509 0.73292684821144505 0 0.79999999999947335 0 0 0.81864958914740749 0.035890501779055867 0 0.78393852574753176 0.032039079577822822 0 0.27474541102162192 0.11822029332053539 0 0.29336099386129338 0.15892013001050981 0 0.25557216766470708 0.15874861286892261 0 0 0.45000000000187229 0 0.035463093262830522 0.42673416072819947 0 0.033550201249889847 0.46247875832467239 0 0.6499999999999998 0.69999999999999996 0 0.66427993341343905 0.73232764502436276 0 0.63221990677827677 0.73442891067859706 0 0.84723782639812573 0.48638347960178252 0 0.81441713509985358 0.51161854125224959 0 0.81400510706333218 0.47357325943904899 0 0.26104540868854792 0.81401944968719064 0 0.30857225866488791 0.81101973481716805 0 0.29209212897034281 0.84715728365233667 0 0.33403534827021109 0.84402799729020661 0 0.29209212897034281 0.84715728365233667 0 0.30857225866488791 0.81101973481716805 0 0.69999999999999984 0.29999999999999999 0 0.73090396928863699 0.33699297293167962 0 0.68887083591306764 0.33632058575757479 0 
</DataArray>
</Points>
<Cells>
<DataArray type="UInt32" Name="connectivity" format="ascii">
0 1 2 3 4 5 6 7 8 9 10 11 12 13 14 15 16 17 18 19 20 21 22 23 24 25 26 27 28 29 30 31 32 33 34 35 36 37 38 39 40 41 42 43 44 45 46 47 48 49 50 51 52 53 54 55 56 57 58 59 60 61 62 63 64 65 66 67 68 69 70 71 72 73 74 75 76 77 78 79 80 81 82 83 84 85 86 87 88 89 90 91 92 93 94 95 96 97 98 99 100 101 102 103 104 105 106 107 108 109 110 111 112 113 114 115 116 117 118 119 120 121 122 123 124 125 126 127 128 129 130 131 132 133 134 135 136 137 138 139 140 141 142 143 144 145 146 147 148 149 150 151 152 153 154 155 156 157 158 159 160 161 162 163 164 165 166 167 168 169 170 171 172 173 174 175 176 177 178 179 180 181 182 183 184 185 186 187 188 189 190 191 192 193 194 195 196 197 198 199 200 201 202 203 204 205 206 207 208 209 210 211 212 213 214 215 216 217 218 219 220 221 222 223 224 225 226 227 228 229 230 231 232 233 234 235 236 237 238 239 240 241 242 243 244 245 246 247 248 249 250 251 252 253 254 255 256 257 258 259 260 261 262 263 264 265 266 267 268 269 270 271 272 273 274 275 276 277 278 279 280 281 282 283 284 285 286 287 288 289 290 291 292 293 294 295 296 297 298 299 300 301 302 303 304 305 306 307 308 309 310 311 312 313 314 315 316 317 318 319 320 321 322 323 324 325 326 327 328 329 330 331 332 333 334 335 336 337 338 339 340 341 342 343 344 345 346 347 348 349 350 351 352 353 354 355 356 357 358 359 360 361 362 363 364 365 366 367 368 369 370 371 372 373 374 375 376 377 378 379 380 381 382 383 384 385 386 387 388 389 390 391 392 393 394 395 396 397 398 399 400 401 402 403 404 405 406 407 408 409 410 411 412 413 414 415 416 417 418 419 420 421 422 423 424 425 426 427 428 429 430 431 432 433 434 435 436 437 438 439 440 441 442 443 444 445 446 447 448 449 450 451 452 453 454 455 456 457 458 459 460 461 462 463 464 465 466 467 468 469 470 471 472 473 474 475 476 477 478 479 480 481 482 483 484 485 486 487 488 489 490 491 492 493 494 495 496 497 498 499 500 501 502 503 504 505 506 507 508 509 510 511 512 513 514 515 516 517 518 519 520 521 522 523 524 525 526 527 528 529 530 531 532 533 534 535 536 537 538 539 540 541 542 543 544 545 546 547 548 549 550 551 552 553 554 555 556 557 558 559 560 561 562 563 564 565 566 567 568 569 570 571 572 573 574 575 576 577 578 579 580 581 582 583 584 585 586 587 588 589 590 591 592 593 594 595 596 597 598 599 600 601 602 603 604 605 606 607 608 609 610 611 612 613 614 615 616 617 618 619 620 621 622 623 624 625 626 627 628 629 630 631 632 633 634 635 636 637 638 639 640 641 642 643 644 645 646 647 648 649 650 651 652 653 654 655 656 657 658 659 660 661 662 663 664 665 666 667 668 669 670 671 672 673 674 675 676 677 678 679 680 681 682 683 684 685 686 687 688 689 690 691 692 693 694 695 696 697 698 699 700 701 702 703 704 705 706 707 708 709 710 711 712 713 714 715 716 717 718 719 720 721 722 723 724 725 726 727 728 729 730 731 732 733 734 735 736 737 738 739 740 741 742 743 744 745 746 747 748 749 750 751 752 753 754 755 756 757 758 759 760 761 762 763 764 765 766 767 768 769 770 771 772 773 774 775 776 777 778 779 780 781 782 783 784 785 786 787 788 789 790 791 792 793 794 795 796 797 798 799 800 801 802 803 804 805 806 807 808 809 810 811 812 813 814 815 816 817 818 819 820 821 822 823 824 825 826 827 828 829 830 831 832 833 834 835 836 837 838 839 840 841 842 843 844 845 846 847 848 849 850 851 852 853 854 855 856 857 858 859 860 861 862 863 864 865 866 867 868 869 870 871 872 873 874 875 876 877 878 879 880 881 882 883 884 885 886 887 888 889 890 891 892 893 894 895 896 897 898 899 900 901 902 903 904 905 906 907 908 909 910 911 912 913 914 915 916 917 918 919 920 921 922 923 924 925 926 927 928 929 930 931 932 933 934 935 936 937 938 939 940 941 942 943 944 945 946 947 948 949 950 951 952 953 954 955 956 957 958 959 960 961 962 963 964 965 966 967 968 969 970 971 972 973 974 975 976 977 978 979 980 981 982 983 984 985 986 987 988 989 990 991 992 993 994 995 996 997 998 999 1000 1001 1002 1003 1004 1005 1006 1007 1008 1009 1010 1011 1012 1013 1014 1015 1016 1017 1018 1019 1020 1021 1022 1023 1024 1025 1026 1027 1028 1029 1030 1031 1032 1033 1034 1035 1036 1037 1038 1039 1040 1041 1042 1043 1044 1045 1046 1047 1048 1049 1050 1051 1052 1053 1054 1055 1056 1057 1058 1059 1060 1061 1062 1063 1064 1065 1066 1067 1068 1069 1070 1071 1072 1073 1074 1075 1076 1077 1078 1079 1080 1081 1082 1083 1084 1085 1086 1087 1088 1089 1090 1091 1092 1093 1094 1095 1096 1097 1098 1099 1100 1101 1102 1103 1104 1105 1106 1107 1108 1109 1110 1111 1112 1113 1114 1115 1116 1117 1118 1119 1120 1121 1122 1123 1124 1125 1126 1127 1128 1129 1130 1131 1132 1133 1134 1135 1136 1137 1138 1139 1140 1141 1142 1143 1144 1145 1146 1147 1148 1149 1150 1151 1152 1153 1154 1155 1156 1157 1158 1159 1160 1161 1162 1163 1164 1165 1166 1167 1168 1169 1170 1171 1172 1173 1174 1175 1176 1177 1178 1179 1180 1181 1182 1183 1184 1185 1186 1187 1188 1189 1190 1191 1192 1193 1194 1195 1196 1197 1198 1199 1200 1201 1202 1203 1204 1205 1206 1207 1208 1209 1210 1211 1212 1213 1214 1215 1216 1217 1218 1219 1220 1221 1222 1223 1224 1225 1226 1227 1228 1229 1230 1231 1232 1233 1234 1235 1236 1237 1238 1239 1240 1241 1242 1243 1244 1245 1246 1247 1248 1249 1250 1251 1252 1253 1254 1255 1256 1257 1258 1259 1260 1261 1262 1263 1264 1265 1266 1267 1268 1269 1270 1271 1272 1273 1274 1275 1276 1277 1278 1279 1280 1281 1282 1283 1284 1285 1286 1287 1288 1289 1290 1291 1292 1293 1294 1295 1296 1297 1298 1299 1300 1301 1302 1303 1304 1305 1306 1307 1308 1309 1310 1311 1312 1313 1314 1315 1316 1317 1318 1319 1320 1321 1322 1323 1324 1325 1326 1327 1328 1329 1330 1331 1332 1333 1334 1335 1336 1337 1338 1339 1340 1341 1342 1343 1344 1345 1346 1347 1348 1349 1350 1351 1352 1353 1354 1355 1356 1357 1358 1359 1360 1361 1362 1363 1364 1365 1366 1367 1368 1369 1370 1371 1372 1373 1374 1375 1376 1377 1378 1379 1380 1381 1382 1383 1384 1385 1386 1387 1388 1389 1390 1391 1392 1393 1394 1395 1396 1397 1398 1399 1400 1401 1402 1403 1404 1405 1406 1407 1408 1409 1410 1411 1412 1413 1414 1415 1416 1417 1418 1419 1420 1421 1422 1423 1424 1425 1426 1427 1428 1429 1430 1431 1432 1433 1434 1435 1436 1437 1438 1439 1440 1441 1442 1443 1444 1445 1446 1447 1448 1449 1450 1451 1452 1453 1454 1455 1456 1457 1458 1459 1460 1461 1462 1463 1464 1465 1466 1467 1468 1469 1470 1471 1472 1473 1474 1475 1476 1477 1478 1479 1480 1481 1482 1483 1484 1485 1486 1487 1488 1489 1490 1491 1492 1493 1494 1495 1496 1497 1498 1499 1500 1501 1502 1503 1504 1505 1506 1507 1508 1509 1510 1511 1512 1513 1514 1515 1516 1517 1518 1519 1520 1521 1522 1523 1524 1525 1526 1527 1528 1529 1530 1531 1532 1533 1534 1535 1536 1537 1538 1539 1540 1541 1542 1543 1544 1545 1546 1547 1548 1549 1550 1551 1552 1553 1554 1555 1556 1557 1558 1559 1560 1561 1562 1563 1564 1565 1566 1567 1568 1569 1570 1571 1572 1573 1574 1575 1576 1577 1578 1579 1580 1581 1582 1583 1584 1585 1586 1587 1588 1589 1590 1591 1592 1593 1594 1595 1596 1597 1598 1599 1600 1601 1602 1603 1604 1605 1606 1607 1608 1609 1610 1611 1612 1613 1614 1615 1616 1617 1618 1619 1620 1621 1622 1623 1624 1625 1626 1627 1628 1629 1630 1631 1632 1633 1634 1635 1636 1637 1638 1639 1640 1641 1642 1643 1644 1645 1646 1647 1648 1649 1650 1651 1652 1653 1654 1655 1656 1657 1658 1659 1660 1661 1662 1663 1664 1665 1666 1667 1668 1669 1670 1671 1672 1673 1674 1675 1676 1677 1678 1679 1680 1681 1682 1683 1684 1685 1686 1687 1688 1689 1690 1691 1692 1693 1694 1695 1696 1697 1698 1699 1700 1701 1702 1703 1704 1705 1706 1707 1708 1709 1710 1711 1712 1713 1714 1715 1716 1717 1718 1719 1720 1721 1722 1723 1724 1725 1726 1727 1728 1729 1730 1731 1732 1733 1734 1735 1736 1737 1738 1739 1740 1741 1742 1743 1744 1745 1746 1747 1748 1749 1750 1751 1752 1753 1754 1755 1756 1757 1758 1759 1760 1761 1762 1763 1764 1765 1766 1767 1768 1769 1770 1771 1772 1773 1774 1775 1776 1777 1778 1779 1780 1781 1782 1783 1784 1785 1786 1787 1788 1789 1790 1791 1792 1793 1794 1795 1796 1797 1798 1799 1800 1801 1802 1803 1804 1805 1806 1807 1808 1809 1810 1811 1812 1813 1814 1815 1816 1817 1818 1819 1820 1821 1822 1823 1824 1825 1826 1827 1828 1829 1830 1831 1832 1833 1834 1835 1836 1837 1838 1839 1840 1841 1842 1843 1844 1845 1846 1847 1848 1849 1850 1851 1852 1853 1854 1855 1856 1857 1858 1859 1860 1861 1862 1863 1864 1865 1866 1867 1868 1869 1870 1871 1872 1873 1874 1875 1876 1877 1878 1879 1880 1881 1882 1883 1884 1885 1886 1887 1888 1889 1890 1891 1892 1893 1894 1895 1896 1897 1898 1899 1900 1901 1902 1903 1904 1905 1906 1907 1908 1909 1910 1911 1912 1913 1914 1915 1916 1917 1918 1919 1920 1921 1922 1923 1924 1925 1926 1927 1928 1929 1930 1931 1932 1933 1934 1935 1936 1937 1938 1939 1940 1941 1942 1943 1944 1945 1946 1947 1948 1949 1950 1951 1952 1953 1954 1955 1956 1957 1958 1959 1960 1961 1962 1963 1964 1965 1966 1967 1968 1969 1970 1971 1972 1973 1974 1975 1976 1977 1978 1979 1980 1981 1982 1983 1984 1985 1986 1987 1988 1989 1990 1991 1992 1993 1994 1995 1996 1997 1998 1999 2000 2001 2002 2003 2004 2005 2006 2007 2008 2009 2010 2011 2012 2013 2014 2015 2016 2017 2018 2019 2020 2021 2022 2023 2024 2025 2026 2027 2028 2029 2030 2031 2032 2033 2034 2035 2036 2037 2038 2039 2040 2041 2042 2043 2044 2045 2046 2047 2048 2049 2050 2051 2052 2053 2054 2055 2056 2057 2058 2059 2060 2061 2062 2063 2064 2065 2066 2067 2068 2069 2070 2071 2072 2073 2074 2075 2076 2077 2078 2079 2080 2081 2082 2083 2084 2085 2086 2087 2088 2089 2090 2091 2092 2093 2094 2095 2096 2097 2098 2099 2100 2101 2102 2103 2104 2105 2106 2107 2108 2109 2110 2111 2112 2113 2114 2115 2116 2117 2118 2119 2120 2121 2122 2123 2124 2125 2126 2127 2128 2129 2130 2131 2132 2133 2134 2135 2136 2137 2138 2139 2140 2141 2142 2143 2144 2145 2146 2147 2148 2149 2150 2151 2152 2153 2154 2155 2156 2157 2158 2159 2160 2161 2162 2163 2164 2165 2166 2167 2168 2169 2170 2171 2172 2173 2174 2175 2176 2177 2178 2179 2180 2181 2182 2183 2184 2185 2186 2187 2188 2189 2190 2191 2192 2193 2194 2195 2196 2197 2198 2199 2200 2201 2202 2203 2204 2205 2206 2207 2208 2209 2210 2211 2212 2213 2214 2215 2216 2217 2218 2219 2220 2221 2222 2223 2224 2225 2226 2227 2228 2229 2230 2231 2232 2233 2234 2235 2236 2237 2238 2239 2240 2241 2242 2243 2244 2245 2246 2247 2248 2249 2250 2251 2252 2253 2254 2255 2256 2257 2258 2259 2260 2261 2262 2263 2264 2265 2266 2267 2268 2269 2270 2271 2272 2273 2274 2275 2276 2277 2278 2279 2280 2281 2282 2283 2284 2285 2286 2287 2288 2289 2290 2291 2292 2293 2294 2295 2296 2297 2298 2299 2300 2301 2302 2303 2304 2305 2306 2307 2308 2309 2310 2311 2312 2313 2314 2315 2316 2317 2318 2319 2320 2321 2322 2323 2324 2325 2326 2327 2328 2329 2330 2331 2332 2333 2334 2335 2336 2337 2338 2339 2340 2341 2342 2343 2344 2345 2346 2347 2348 2349 2350 2351 2352 2353 2354 2355 2356 2357 2358 2359 2360 2361 2362 2363 2364 2365 2366 2367 2368 2369 2370 2371 2372 2373 2374 2375 2376 2377 2378 2379 2380 2381 2382 2383 2384 2385 2386 2387 2388 2389 2390 2391 2392 2393 2394 2395 2396 2397 2398 2399 2400 2401 2402 2403 2404 2405 2406 2407 2408 2409 2410 2411 2412 2413 2414 2415 2416 2417 2418 2419 2420 2421 2422 2423 2424 2425 2426 2427 2428 2429 2430 2431 2432 2433 2434 2435 2436 2437 2438 2439 2440 2441 2442 2443 2444 2445 2446 2447 2448 2449 2450 2451 2452 2453 2454 2455 2456 2457 2458 2459 2460 2461 2462 2463 2464 2465 2466 2467 2468 2469 2470 2471 2472 2473 2474 2475 2476 2477 2478 2479 2480 2481 2482 2483 2484 2485 2486 2487 2488 2489 2490 2491 2492 2493 2494 2495 2496 2497 2498 2499 2500 2501 2502 2503 2504 2505 2506 2507 2508 2509 2510 2511 2512 2513 2514 2515 2516 2517 2518 2519 2520 2521 2522 2523 2524 2525 2526 2527 2528 2529 2530 2531 2532 2533 2534 2535 2536 2537 2538 2539 2540 2541 2542 2543 2544 2545 2546 2547 2548 2549 2550 2551 2552 2553 2554 2555 2556 2557 2558 2559 2560 2561 2562 2563 2564 2565 2566 2567 2568 2569 2570 2571 2572 2573 2574 2575 2576 2577 2578 2579 2580 2581 2582 2583 2584 2585 2586 2587 2588 2589 2590 2591 2592 2593 2594 2595 2596 2597 2598 2599 2600 2601 2602 2603 2604 2605 2606 2607 2608 2609 2610 2611 2612 2613 2614 2615 2616 2617 2618 2619 2620 2621 2622 2623 2624 2625 2626 2627 2628 2629 2630 2631 2632 2633 2634 2635 2636 2637 2638 2639 2640 2641 2642 2643 2644 2645 2646 2647 2648 2649 2650 2651 2652 2653 2654 2655 2656 2657 2658 2659 2660 2661 2662 2663 2664 2665 2666 2667 2668 2669 2670 2671 2672 2673 2674 2675 2676 2677 2678 2679 2680 2681 2682 2683 2684 2685 2686 2687 2688 2689 2690 2691 2692 2693 2694 2695 2696 2697 2698 2699 2700 2701 2702 2703 2704 2705 2706 2707 2708 2709 2710 2711 2712 2713 2714 2715 2716 2717 2718 2719 2720 2721 2722 2723 2724 2725 2726 2727 2728 2729 2730 2731 2732 2733 2734 2735 2736 2737 2738 2739 2740 2741 2742 2743 2744 2745 2746 2747 2748 2749 2750 2751 2752 2753 2754 2755 2756 2757 2758 2759 2760 2761 2762 2763 2764 2765 2766 2767 2768 2769 2770 2771 2772 2773 2774 2775 2776 2777 2778 2779 2780 2781 2782 2783 2784 2785 2786 2787 2788 2789 2790 2791 2792 2793 2794 2795 2796 2797 2798 2799 2800 2801 2802 2803 2804 2805 2806 2807 2808 2809 2810 2811 2812 2813 2814 2815 2816 2817 2818 2819 2820 2821 2822 2823 2824 2825 2826 2827 2828 2829 2830 2831 2832 2833 2834 2835 2836 2837 2838 2839 2840 2841 2842 2843 2844 2845 2846 2847 2848 2849 2850 2851 2852 2853 2854 2855 2856 2857 2858 2859 2860 2861 2862 2863 2864 2865 2866 2867 2868 2869 2870 2871 2872 2873 2874 2875 2876 2877 2878 2879 2880 2881 2882 2883 2884 2885 2886 2887 2888 2889 2890 2891 2892 2893 2894 2895 2896 2897 2898 2899 2900 2901 2902 2903 2904 2905 2906 2907 2908 2909 2910 2911 2912 2913 2914 2915 2916 2917 2918 2919 2920 2921 2922 2923 2924 2925 2926 2927 2928 2929 2930 2931 2932 2933 2934 2935 2936 2937 2938 2939 2940 2941 2942 2943 2944 2945 2946 2947 2948 2949 2950 2951 2952 2953 2954 2955 2956 2957 2958 2959 2960 2961 2962 2963 2964 2965 2966 2967 2968 2969 2970 2971 2972 2973 2974 2975 2976 2977 2978 2979 2980 2981 2982 2983 2984 2985 2986 2987 2988 2989 2990 2991 2992 2993 2994 2995 2996 2997 2998 2999 3000 3001 3002 3003 3004 3005 3006 3007 3008 3009 3010 3011 3012 3013 3014 3015 3016 3017 3018 3019 3020 3021 3022 3023 3024 3025 3026 3027 3028 3029 3030 3031 3032 3033 3034 3035 3036 3037 3038 3039 3040 3041 3042 3043 3044 3045 3046 3047 3048 3049 3050 3051 3052 3053 3054 3055 3056 3057 3058 3059 3060 3061 3062 3063 3064 3065 3066 3067 3068 3069 3070 3071 3072 3073 3074 3075 3076 3077 3078 3079 3080 3081 3082 3083 3084 3085 3086 3087 3088 3089 3090 3091 3092 3093 3094 3095 3096 3097 3098 3099 3100 3101 3102 3103 3104 3105 3106 3107 3108 3109 3110 3111 3112 3113 3114 3115 3116 3117 3118 3119 3120 3121 3122 3123 3124 3125 3126 3127 3128 3129 3130 3131 3132 3133 3134 3135 3136 3137 3138 3139 3140 3141 
</DataArray>
<DataArray type="UInt32" Name="offsets" format="ascii">
2 4 6 8 10 12 14 16 18 20 22 24 26 28 30 32 34 36 38 40 43 46 49 52 55 58 61 64 67 70 73 76 79 82 85 88 91 94 97 100 103 106 109 112 115 118 121 124 127 130 133 136 139 142 145 148 151 154 157 160 163 166 169 172 175 178 181 184 187 190 193 196 199 202 205 208 211 214 217 220 223 226 229 232 235 238 241 244 247 250 253 256 259 262 265 268 271 274 277 280 283 286 289 292 295 298 301 304 307 310 313 316 319 322 325 328 331 334 337 340 343 346 349 352 355 358 361 364 367 370 373 376 379 382 385 388 391 394 397 400 403 406 409 412 415 418 421 424 427 430 433 436 439 442 445 448 451 454 457 460 463 466 469 472 475 478 481 484 487 490 493 496 499 502 505 508 511 514 517 520 523 526 529 532 535 538 541 544 547 550 553 556 559 562 565 568 571 574 577 580 583 586 589 592 595 598 601 604 607 610 613 616 619 622 625 628 631 634 637 640 643 646 649 652 655 658 661 664 667 670 673 676 679 682 685 688 691 694 697 700 703 706 709 712 715 718 721 724 727 730 733 736 739 742 745 748 751 754 757 760 763 766 769 772 775 778 781 784 787 790 793 796 799 802 805 808 811 814 817 820 823 826 829 832 835 838 841 844 847 850 853 856 859 862 865 868 871 874 877 880 883 886 889 892 895 898 901 904 907 910 913 916 919 922 925 928 931 934 937 940 943 946 949 952 955 958 961 964 967 970 973 976 979 982 985 988 991 994 997 1000 1003 1006 1009 1012 1015 1018 1021 1024 1027 1030 1033 1036 1039 1042 1045 1048 1051 1054 1057 1060 1063 1066 1069 1072 1075 1078 1081 1084 1087 1090 1093 1096 1099 1102 1105 1108 1111 1114 1117 1120 1123 1126 1129 1132 1135 1138 1141 1144 1147 1150 1153 1156 1159 1162 1165 1168 1171 1174 1177 1180 1183 1186 1189 1192 1195 1198 1201 1204 1207 1210 1213 1216 1219 1222 1225 1228 1231 1234 1237 1240 1243 1246 1249 1252 1255 1258 1261 1264 1267 1270 1273 1276 1279 1282 1285 1288 1291 1294 1297 1300 1303 1306 1309 1312 1315 1318 1321 1324 1327 1330 1333 1336 1339 1342 1345 1348 1351 1354 1357 1360 1363 1366 1369 1372 1375 1378 1381 1384 1387 1390 1393 1396 1399 1402 1405 1408 1411 1414 1417 1420 1423 1426 1429 1432 1435 1438 1441 1444 1447 1450 1453 1456 1459 1462 1465 1468 1471 1474 1477 1480 1483 1486 1489 1492 1495 1498 1501 1504 1507 1510 1513 1516 1519 1522 1525 1528 1531 1534 1537 1540 1543 1546 1549 1552 1555 1558 1561 1564 1567 1570 1573 1576 1579 1582 1585 1588 1591 1594 1597 1600 1603 1606 1609 1612 1615 1618 1621 1624 1627 1630 1633 1636 1639 1642 1645 1648 1651 1654 1657 1660 1663 1666 1669 1672 1675 1678 1681 1684 1687 1690 1693 1696 1699 1702 1705 1708 1711 1714 1717 1720 1723 1726 1729 1732 1735 1738 1741 1744 1747 1750 1753 1756 1759 1762 1765 1768 1771 1774 1777 1780 1783 1786 1789 1792 1795 1798 1801 1804 1807 1810 1813 1816 1819 1822 1825 1828 1831 1834 1837 1840 1843 1846 1849 1852 1855 1858 1861 1864 1867 1870 1873 1876 1879 1882 1885 1888 1891 1894 1897 1900 1903 1906 1909 1912 1915 1918 1921 1924 1927 1930 1933 1936 1939 1942 1945 1948 1951 1954 1957 1960 1963 1966 1969 1972 1975 1978 1981 1984 1987 1990 1993 1996 1999 2002 2005 2008 2011 2014 2017 2020 2023 2026 2029 2032 2035 2038 2041 2044 2047 2050 2053 2056 2059 2062 2065 2068 2071 2074 2077 2080 2083 2086 2089 2092 2095 2098 2101 2104 2107 2110 2113 2116 2119 2122 2125 2128 2131 2134 2137 2140 2143 2146 2149 2152 2155 2158 2161 2164 2167 2170 2173 2176 2179 2182 2185 2188 2191 2194 2197 2200 2203 2206 2209 2212 2215 2218 2221 2224 2227 2230 2233 2236 2239 2242 2245 2248 2251 2254 2257 2260 2263 2266 2269 2272 2275 2278 2281 2284 2287 2290 2293 2296 2299 2302 2305 2308 2311 2314 2317 2320 2323 2326 2329 2332 2335 2338 2341 2344 2347 2350 2353 2356 2359 2362 2365 2368 2371 2374 2377 2380 2383 2386 2389 2392 2395 2398 2401 2404 2407 2410 2413 2416 2419 2422 2425 2428 2431 2434 2437 2440 2443 2446 2449 2452 2455 2458 2461 2464 2467 2470 2473 2476 2479 2482 2485 2488 2491 2494 2497 2500 2503 2506 2509 2512 2515 2518 2521 2524 2527 2530 2533 2536 2539 2542 2545 2548 2551 2554 2557 2560 2563 2566 2569 2572 2575 2578 2581 2584 2587 2590 2593 2596 2599 2602 2605 2608 2611 2614 2617 2620 2623 2626 2629 2632 2635 2638 2641 2644 2647 2650 2653 2656 2659 2662 2665 2668 2671 2674 2677 2680 2683 2686 2689 2692 2695 2698 2701 2704 2707 2710 2713 2716 2719 2722 2725 2728 2731 2734 2737 2740 2743 2746 2749 2752 2755 2758 2761 2764 2767 2770 2773 2776 2779 2782 2785 2788 2791 2794 2797 2800 2803 2806 2809 2812 2815 2818 2821 2824 2827 2830 2833 2836 2839 2842 2845 2848 2851 2854 2857 2860 2863 2866 2869 2872 2875 2878 2881 2884 2887 2890 2893 2896 2899 2902 2905 2908 2911 2914 2917 2920 2923 2926 2929 2932 2935 2938 2941 2944 2947 2950 2953 2956 2959 2962 2965 2968 2971 2974 2977 2980 2983 2986 2989 2992 2995 2998 3001 3004 3007 3010 3013 3016 3019 3022 3025 3028 3031 3034 3037 3040 3043 3046 3049 3052 3055 3058 3061 3064 3067 3070 3073 3076 3079 3082 3085 3088 3091 3094 3097 3100 3103 3106 3109 3112 3115 3118 3121 3124 3127 3130 3133 3136 3139 3142 
</DataArray>
<DataArray type="UInt32" Name="types" format="ascii">
3 3 3 3 3 3 3 3 3 3 3 3 3 3 3 3 3 3 3 3 5 5 5 5 5 5 5 5 5 5 5 5 5 5 5 5 5 5 5 5 5 5 5 5 5 5 5 5 5 5 5 5 5 5 5 5 5 5 5 5 5 5 5 5 5 5 5 5 5 5 5 5 5 5 5 5 5 5 5 5 5 5 5 5 5 5 5 5 5 5 5 5 5 5 5 5 5 5 5 5 5 5 5 5 5 5 5 5 5 5 5 5 5 5 5 5 5 5 5 5 5 5 5 5 5 5 5 5 5 5 5 5 5 5 5 5 5 5 5 5 5 5 5 5 5 5 5 5 5 5 5 5 5 5 5 5 5 5 5 5 5 5 5 5 5 5 5 5 5 5 5 5 5 5 5 5 5 5 5 5 5 5 5 5 5 5 5 5 5 5 5 5 5 5 5 5 5 5 5 5 5 5 5 5 5 5 5 5 5 5 5 5 5 5 5 5 5 5 5 5 5 5 5 5 5 5 5 5 5 5 5 5 5 5 5 5 5 5 5 5 5 5 5 5 5 5 5 5 5 5 5 5 5 5 5 5 5 5 5 5 5 5 5 5 5 5 5 5 5 5 5 5 5 5 5 5 5 5 5 5 5 5 5 5 5 5 5 5 5 5 5 5 5 5 5 5 5 5 5 5 5 5 5 5 5 5 5 5 5 5 5 5 5 5 5 5 5 5 5 5 5 5 5 5 5 5 5 5 5 5 5 5 5 5 5 5 5 5 5 5 5 5 5 5 5 5 5 5 5 5 5 5 5 5 5 5 5 5 5 5 5 5 5 5 5 5 5 5 5 5 5 5 5 5 5 5 5 5 5 5 5 5 5 5 5 5 5 5 5 5 5 5 5 5 5 5 5 5 5 5 5 5 5 5 5 5 5 5 5 5 5 5 5 5 5 5 5 5 5 5 5 5 5 5 5 5 5 5 5 5 5 5 5 5 5 5 5 5 5 5 5 5 5 5 5 5 5 5 5 5 5 5 5 5 5 5 5 5 5 5 5 5 5 5 5 5 5 5 5 5 5 5 5 5 5 5 5 5 5 5 5 5 5 5 5 5 5 5 5 5 5 5 5 5 5 5 5 5 5 5 5 5 5 5 5 5 5 5 5 5 5 5 5 5 5 5 5 5 5 5 5 5 5 5 5 5 5 5 5 5 5 5 5 5 5 5 5 5 5 5 5 5 5 5 5 5 5 5 5 5 5 5 5 5 5 5 5 5 5 5 5 5 5 5 5 5 5 5 5 5 5 5 5 5 5 5 5 5 5 5 5 5 5 5 5 5 5 5 5 5 5 5 5 5 5 5 5 5 5 5 5 5 5 5 5 5 5 5 5 5 5 5 5 5 5 5 5 5 5 5 5 5 5 5 5 5 5 5 5 5 5 5 5 5 5 5 5 5 5 5 5 5 5 5 5 5 5 5 5 5 5 5 5 5 5 5 5 5 5 5 5 5 5 5 5 5 5 5 5 5 5 5 5 5 5 5 5 5 5 5 5 5 5 5 5 5 5 5 5 5 5 5 5 5 5 5 5 5 5 5 5 5 5 5 5 5 5 5 5 5 5 5 5 5 5 5 5 5 5 5 5 5 5 5 5 5 5 5 5 5 5 5 5 5 5 5 5 5 5 5 5 5 5 5 5 5 5 5 5 5 5 5 5 5 5 5 5 5 5 5 5 5 5 5 5 5 5 5 5 5 5 5 5 5 5 5 5 5 5 5 5 5 5 5 5 5 5 5 5 5 5 5 5 5 5 5 5 5 5 5 5 5 5 5 5 5 5 5 5 5 5 5 5 5 5 5 5 5 5 5 5 5 5 5 5 5 5 5 5 5 5 5 5 5 5 5 5 5 5 5 5 5 5 5 5 5 5 5 5 5 5 5 5 5 5 5 5 5 5 5 5 5 5 5 5 5 5 5 5 5 5 5 5 5 5 5 5 5 5 5 5 5 5 5 5 5 5 5 5 5 5 5 5 5 5 5 5 5 5 5 5 5 5 5 5 5 5 5 5 5 5 5 5 5 5 5 5 5 5 5 5 5 5 5 5 5 5 5 5 5 5 5 5 5 5 5 5 5 5 5 5 5 5 5 5 5 5 5 5 5 5 5 5 5 5 5 5 5 5 5 5 5 5 5 5 5 5 5 5 5 5 5 5 5 5 5 5 5 5 5 5 5 5 5 5 5 5 5 5 5 5 5 5 5 5 5 5 5 5 5 5 5 5 5 5 5 5 5 5 5 5 5 5 5 5 5 5 5 5 5 5 5 5 5 5 5 5 5 5 5 5 5 5 5 5 5 5 5 5 5 5 5 5 5 5 5 5 5 5 5 5 5 5 5 
</DataArray>
</Cells>
<PointData Scalars="" Vectors="displacement," Tensors="">
<DataArray type="Float64" Name="displacement" NumberOfComponents="3" format="ascii">
7.8671012897725503e-06 -1.7544347478728584e-05 0 1.2029801012137864e-05 -2.5841100190368814e-05 0 1.2029801012137864e-05 -2.5841100190368814e-05 0 1.299206571021089e-05 -3.5381596881417927e-05 0 1.299206571021089e-05 -3.5381596881417927e-05 0 1.4543107974985101e-05 -4.6535116330696067e-05 0 1.4543107974985101e-05 -4.6535116330696067e-05 0 1.6173393828583835e-05 -5.8534353001201409e-05 0 1.6173393828583835e-05 -5.8534353001201409e-05 0 1.8204948286899862e-05 -7.1056000923691196e-05 0 1.8204948286899862e-05 -7.1056000923691196e-05 0 2.0739264951838371e-05 -8.3942201245121469e-05 0 2.0739264951838371e-05 -8.3942201245121469e-05 0 2.3539721534333362e-05 -9.6947963275396709e-05 0 2.3539721534333362e-05 -9.6947963275396709e-05 0 2.7934490317624884e-05 -0.00011023781985351782 0 2.7934490317624884e-05 -0.00011023781985351782 0 3.0136494893868772e-05 -0.00012199819562925868 0 3.0136494893868772e-05 -0.00012199819562925868 0 4.5485993636027247e-05 -0.00013454992154754512 0 2.0888391375074758e-05 2.0803376972697809e-05 0 5.6237745873116204e-05 3.5537001853883477e-05 0 5.6237745873116204e-05 3.5537001853883477e-05 0 5.3759540129911559e-05 4.3012602516363917e-05 0 5.3759540129911559e-05 4.3012602516363917e-05 0 5.9858730040696659e-05 5.7244070900679793e-05 0 5.9858730040696659e-05 5.7244070900679793e-05 0 6.3726948918458329e-05 7.0383483611121655e-05 0 6.3726948918458329e-05 7.0383483611121655e-05 0 6.8183548932708311e-05 8.5172133050128752e-05 0 6.8183548932708311e-05 8.5172133050128752e-05 0 7.3177725428674712e-05 0.00010039344236755814 0 7.3177725428674712e-05 0.00010039344236755814 0 7.7523799885759905e-05 0.00011509739717063907 0 7.7523799885759905e-05 0.00011509739717063907 0 8.7283581665203725e-05 0.00013182341677428684 0 8.7283581665203725e-05 0.00013182341677428684 0 8.0764668022107115e-05 0.00014448214169380987 0 8.0764668022107115e-05 0.00014448214169380987 0 0.00014228520544364086 0.00016120298035562997 0 7.8617201876608925e-06 -5.3255740761684298e-06 0 7.7405727620160997e-06 -4.4178029699119927e-07 0 5.9757566809939796e-06 -3.4673650861174807e-06 0 9.2510316167688649e-06 -2.7345461100609542e-06 0 7.7405727620160997e-06 -4.4178029699119927e-07 0 7.8617201876608925e-06 -5.3255740761684298e-06 0 7.5041513156808271e-06 -1.462839135296904e-05 0 9.0719631625624592e-06 -1.0984879080916615e-05 0 6.7544196034521743e-06 -1.3515673757821717e-05 0 6.7544196034521743e-06 -1.3515673757821717e-05 0 9.0719631625624592e-06 -1.0984879080916615e-05 0 7.7078141022680197e-06 -1.1922187622037752e-05 0 -6.2037100044603784e-06 -1.391788460197029e-06 0 -2.7535033222455023e-06 -1.566682332380685e-06 0 -6.019389871245901e-06 -2.619163140927241e-06 0 -4.6936553565288229e-06 5.2767838882321586e-07 0 -4.5685463846255653e-06 1.3997375970595274e-06 0 -2.1271918977858105e-06 8.5656782553884525e-07 0 -2.6473712446448412e-06 -3.902643394682491e-07 0 -2.7535033222455023e-06 -1.566682332380685e-06 0 -6.2037100044603784e-06 -1.391788460197029e-06 0 -2.0927731609114351e-06 1.4370618902354861e-09 0 -4.6936553565288229e-06 5.2767838882321586e-07 0 -2.1271918977858105e-06 8.5656782553884525e-07 0 -1.5929779146294957e-05 -1.4928712123762098e-06 0 -2.0472409354691935e-05 -4.1077681757094699e-06 0 -1.4254365236750709e-05 -9.9454904287092075e-07 0 -3.0845491514089805e-05 5.5209735711948431e-06 0 -2.30884324754772e-05 1.233775248510022e-06 0 -2.1286534230943702e-05 8.9979321211019252e-07 0 7.1344661628054342e-06 -2.723655045142977e-07 0 9.3383593358740184e-06 3.7476114283950254e-08 0 6.5723563371047308e-06 -1.6900340011026338e-06 0 9.6413816376247291e-06 -6.7321794344783579e-07 0 6.5723563371047308e-06 -1.6900340011026338e-06 0 9.3383593358740184e-06 3.7476114283950254e-08 0 6.3551882741994231e-07 3.3270780995866217e-06 0 1.2833247311077143e-06 3.4590230536308086e-06 0 2.5731662176570358e-06 3.2740003006396024e-06 0 4.4841393563034679e-10 -1.04283403222721e-09 0 1.0258704385835522e-09 -7.0272221007574384e-10 0 9.1614767138015117e-07 -1.9653464482066417e-06 0 4.8135216762940402e-10 7.4933135339781823e-10 0 -2.4747828980387837e-11 8.5343850892416784e-10 0 2.5856695426145481e-07 1.8994119183426721e-06 0 4.3472386855903931e-06 -1.899341082944313e-05 0 6.8561997335479984e-06 -2.0154062063272263e-05 0 7.5041513156808271e-06 -1.462839135296904e-05 0 3.9479443397848337e-05 2.4168288210349974e-05 0 2.7377370227571249e-05 1.4359528466401066e-05 0 2.9671413432985798e-05 1.5453556235475004e-05 0 -1.1442989489838097e-05 -0.00020494311383511998 0 5.221357869023916e-06 -0.00018610833857435368 0 -1.2947711159330231e-05 -0.00017927716556205035 0 -2.2117170409716411e-06 0.00039883674975042989 0 -3.8226997052251223e-05 0.0003630028207463722 0 -4.5640067064870721e-06 0.0003494436178870105 0 -2.2117170409716411e-06 0.00039883674975042989 0 -4.5640067064870721e-06 0.0003494436178870105 0 3.1034363621976545e-05 0.00036212009151592186 0 -1.1442989489838097e-05 -0.00020494311383511998 0 -1.2947711159330231e-05 -0.00017927716556205035 0 -3.0022693043555614e-05 -0.00018621272707367758 0 -4.5149626233687157e-05 0.00032447657573140252 0 -4.2801900889860655e-06 0.00030610851457359351 0 -4.5640067064870721e-06 0.0003494436178870105 0 6.2501755186091948e-06 -0.00016547058581943151 0 -1.5294626149087301e-05 -0.00015646741331273661 0 -1.2947711159330231e-05 -0.00017927716556205035 0 6.3551882741994231e-07 3.3270780995866217e-06 0 2.5731662176570358e-06 3.2740003006396024e-06 0 1.110921584585704e-06 2.8547649744945626e-06 0 3.9479443397848337e-05 2.4168288210349974e-05 0 2.3788453213238219e-05 2.0283964186268562e-05 0 2.7377370227571249e-05 1.4359528466401066e-05 0 -8.3268022642083944e-05 8.0869459302652621e-05 0 -7.3314345577577998e-05 5.6868412370093637e-05 0 -5.1086549617621968e-05 6.2655733631120103e-05 0 -4.3564825080116999e-05 -3.055458726705649e-05 0 -4.9022751580382198e-05 -4.2263219564215976e-05 0 -3.2951466884678959e-05 -3.3777824686235302e-05 0 5.9740584912501623e-06 -1.4488302697259897e-05 0 4.3472386855903931e-06 -1.899341082944313e-05 0 7.5041513156808271e-06 -1.462839135296904e-05 0 -2.4351353204138213e-05 5.0106783763585531e-05 0 -2.0733228010751355e-05 2.6832866073342539e-05 0 -9.1836641830498691e-06 3.0011284200134822e-05 0 -6.2460983341180555e-06 3.9192138027259966e-06 0 -1.5103457844978729e-05 8.2787204271551804e-06 0 -1.6099948551404438e-05 2.1338993292332983e-06 0 1.9416455031520203e-05 -6.0840836574997471e-06 0 1.7069115028764883e-05 -7.2592176831291704e-07 0 1.6468839031975057e-05 -7.9628863104558131e-06 0 -1.5153992768546026e-05 -0.00013476520319125157 0 -2.4331176388726488e-06 -0.00012880190592104174 0 -1.7806003334535653e-05 -0.00011294552086126996 0 -8.0827957708429041e-06 0.00026510967889866106 0 -3.454441436517983e-05 0.00025364222518454136 0 -5.6792763199553043e-06 0.00022174403305609758 0 -1.7806003334535653e-05 -0.00011294552086126996 0 -2.4331176388726488e-06 -0.00012880190592104174 0 -3.2555678454494017e-06 -0.00011049907363899411 0 -5.6792763199553043e-06 0.00022174403305609758 0 -3.454441436517983e-05 0.00025364222518454136 0 -3.5159129701546886e-05 0.00022182508915312939 0 -6.2460983341180555e-06 3.9192138027259966e-06 0 -1.6099948551404438e-05 2.1338993292332983e-06 0 -5.8615293713704114e-06 -7.0752265583641308e-08 0 2.363451048540441e-05 -1.2371666789003656e-05 0 2.2532759243747097e-05 -7.1052554517032428e-07 0 1.9416455031520203e-05 -6.0840836574997471e-06 0 -2.4351353204138213e-05 5.0106783763585531e-05 0 -3.5534853428232966e-05 4.0959015077700073e-05 0 -2.0733228010751359e-05 2.6832866073342539e-05 0 3.9479443397848337e-05 2.4168288210349974e-05 0 5.6688424734639071e-05 7.1438454500114508e-05 0 3.1288750894177155e-05 7.2829649642279089e-05 0 2.5208652309562377e-05 -6.4222032153414055e-05 0 2.3933755493575854e-05 -6.2438525242793406e-05 0 2.113731753797722e-05 -6.24547325293859e-05 0 6.8909082921176897e-05 -7.6584543393012008e-05 0 6.5398093141650249e-05 -6.6055029137012739e-05 0 5.1979450424738108e-05 -6.8074872980389026e-05 0 2.0382881788581232e-05 4.0285787812040213e-06 0 1.7069115028764883e-05 -7.2592176831291704e-07 0 1.9416455031520203e-05 -6.0840836574997471e-06 0 4.5977025079519682e-05 -0.0001808045396736601 0 2.4383644766246138e-05 -0.00016224583158917574 0 2.3654611033570056e-05 -0.0001811614155541245 0 -0.00011637214555242522 0.00036048196362078598 0 -8.1594192453480796e-05 0.00032094495774001943 0 -7.4188787216501311e-05 0.00035548935053511034 0 1.3894277246314484e-09 -5.5334278578915395e-10 0 1.8263008287426243e-06 -6.4033669355995204e-07 0 1.4141077272109079e-06 -1.2458909360787204e-06 0 8.1299308930212293e-10 7.542983130028295e-10 0 6.9462456305916307e-07 1.6480418959557847e-06 0 1.201216853556427e-06 1.5515383268461351e-06 0 -2.4351353204138213e-05 5.0106783763585531e-05 0 -4.8920819679188051e-06 4.8722440484156513e-05 0 -1.5010069862123712e-05 7.8571209140033827e-05 0 8.8848843765970925e-06 6.9891098610573427e-05 0 -1.5010069862123712e-05 7.8571209140033827e-05 0 -4.8920819679188042e-06 4.8722440484156513e-05 0 2.1483620634114438e-05 4.1823010580467684e-05 0 3.9479443397848337e-05 2.4168288210349974e-05 0 3.1288750894177155e-05 7.2829649642279089e-05 0 -0.00011506898377779195 0.00028393981873372327 0 -6.7884863294453884e-05 0.00028449129558194786 0 -8.1594192453480796e-05 0.00032094495774001943 0 3.8161360659171706e-05 -0.00014019646382665532 0 1.5220087665986075e-05 -0.00014356594664683361 0 2.4383644766246142e-05 -0.00016224583158917574 0 4.0820132571743268e-05 -5.3750558566377991e-05 0 3.5531125809264701e-05 -4.8332400021326187e-05 0 3.303612600904011e-05 -5.3605846809365494e-05 0 1.4735421428246499e-05 -4.1952009561367244e-06 0 1.6468839031975057e-05 -7.9628863104558131e-06 0 1.7069115028764883e-05 -7.2592176831291704e-07 0 1.7188606432157782e-05 -1.3709289059736703e-05 0 1.7576748386725349e-05 -1.915435578140389e-05 0 2.2686512500763503e-05 -2.0179327144586775e-05 0 4.0033780898719312e-05 -3.3856592666495093e-05 0 3.5169727180291326e-05 -2.9240163234423223e-05 0 3.3536735869623183e-05 -3.4483806151046086e-05 0 -0.00010016384143644111 0.0001405220287123924 0 -6.8031998452919437e-05 0.00011961742821873525 0 -7.7436477031016314e-05 0.00015928738037022662 0 -6.930440797669595e-05 -0.00014498202973788941 0 -5.2484856725781186e-05 -0.0001646798496958563 0 -4.6576100945928058e-05 -0.00014647166556461667 0 9.7945016284426063e-05 0.0002757159166615842 0 7.0761409863757634e-05 0.00031752162224639127 0 5.5635323389971952e-05 0.00028418770543214324 0 4.1734744425115346e-05 -0.00016010539861170732 0 2.4383644766246142e-05 -0.00016224583158917574 0 4.5977025079519682e-05 -0.0001808045396736601 0 -0.00011637214555242522 0.00036048196362078598 0 -0.00011605415543351188 0.00032223620814351116 0 -8.1594192453480796e-05 0.00032094495774001943 0 2.1622158064458129e-05 -5.2388766315188308e-05 0 1.7060002456523885e-05 -4.5912361894877418e-05 0 1.8187591108042688e-05 -5.3177240066168505e-05 0 9.3902757954219665e-06 -1.7768931567970763e-05 0 3.2294688567184896e-06 -2.1216236104821561e-05 0 4.9945339511835074e-06 -3.3663456851698601e-05 0 2.1622158064458129e-05 -5.2388766315188308e-05 0 2.1098702322753733e-05 -4.6631823784437232e-05 0 1.7060002456523882e-05 -4.5912361894877418e-05 0 2.984784369665025e-05 -2.8509518452863957e-05 0 3.3536735869623183e-05 -3.4483806151046086e-05 0 3.5169727180291326e-05 -2.9240163234423223e-05 0 -1.622005104733396e-05 -6.0133722691131306e-05 0 -1.7485827598045165e-05 -8.0524241856549548e-05 0 -6.0272532989916779e-06 -6.5249594193226372e-05 0 -1.6724579619025378e-09 5.3502672223304834e-10 0 -2.1271918977858105e-06 8.5656782553884525e-07 0 -1.3555384541908373e-06 1.2443699689760069e-06 0 -2.2464376850788637e-09 -8.6937964735484602e-10 0 -1.6450789619152851e-06 -1.9873116548980698e-06 0 -2.7535033222455023e-06 -1.566682332380685e-06 0 2.5208652309562377e-05 -6.4222032153414055e-05 0 2.6809662479839765e-05 -6.5225048017014897e-05 0 2.3933755493575854e-05 -6.2438525242793406e-05 0 5.5736216408439233e-05 -7.7094436273870645e-05 0 6.8909082921176897e-05 -7.6584543393012008e-05 0 5.1979450424738108e-05 -6.8074872980389026e-05 0 -8.7413016165021452e-10 -1.4568623443292548e-09 0 -1.6131023933104202e-06 -3.0561783019973004e-06 0 -1.6450789619152849e-06 -1.9873116548980698e-06 0 -8.6922279049947124e-10 9.7458276480002099e-10 0 -1.3555384541908373e-06 1.2443699689760069e-06 0 -1.5672613154882346e-06 2.0703576860378193e-06 0 6.5723563371047308e-06 -1.6900340011026338e-06 0 3.0355565455117587e-06 -2.4829944380024053e-06 0 4.9180237833512025e-06 -1.3456235602847824e-06 0 -7.8790451399899857e-06 7.075346364780066e-07 0 -6.5297505912750974e-06 1.8922377371463887e-06 0 -4.5685463846255653e-06 1.3997375970595274e-06 0 -1.0778146623146495e-05 -1.8182994037046468e-06 0 -6.019389871245901e-06 -2.6191631409272414e-06 0 -8.6073748893161278e-06 -3.4646731045542783e-06 0 2.6309284606255726e-05 -3.338399530427227e-05 0 2.532388978699883e-05 -2.8166858432310341e-05 0 2.1016456881827855e-05 -2.9870204310520661e-05 0 2.0639843835319931e-05 -2.4542126405778405e-05 0 2.2686512500763503e-05 -2.0179327144586775e-05 0 1.7576748386725349e-05 -1.915435578140389e-05 0 0.00011148933348361892 0.00035146365278517644 0 6.7545446617897794e-05 0.00035236345376311152 0 7.0761409863757634e-05 0.00031752162224639127 0 -7.0233996147789002e-05 -0.00018490508450433308 0 -4.8439512865202646e-05 -0.00018226895550976525 0 -5.2484856725781186e-05 -0.0001646798496958563 0 2.0639843835319931e-05 -2.4542126405778405e-05 0 2.1016456881827855e-05 -2.9870204310520661e-05 0 2.532388978699883e-05 -2.8166858432310341e-05 0 3.5531125809264701e-05 -4.8332400021326187e-05 0 4.1244197529032302e-05 -4.6643771360397269e-05 0 3.1818078437484704e-05 -4.0968432353998501e-05 0 -3.8519995888405076e-05 0.00018987347934479486 0 -3.0133817115467466e-05 0.00014689585866564572 0 -9.6234382096432064e-06 0.00016266542687384456 0 -2.2464376850788637e-09 -8.6937964735484602e-10 0 -2.0010373286700684e-09 -5.4054078955922314e-10 0 -1.6450789619152849e-06 -1.9873116548980698e-06 0 -1.6561685095917953e-09 3.2525460760602769e-10 0 -1.6724579619025378e-09 5.3502672223304834e-10 0 -1.3555384541908373e-06 1.2443699689760069e-06 0 6.5723563371047308e-06 -1.6900340011026338e-06 0 4.5514974118963849e-06 -2.8284453657790997e-06 0 3.0355565455117587e-06 -2.4829944380024053e-06 0 3.3939548522846273e-05 0.00032214601847366714 0 -4.5640067064870721e-06 0.0003494436178870105 0 -4.2801900889860655e-06 0.00030610851457359351 0 -3.3684771067698316e-05 -0.00016561695099034289 0 -1.2947711159330231e-05 -0.00017927716556205035 0 -1.5294626149087301e-05 -0.00015646741331273661 0 -1.7485827598045165e-05 -8.0524241856549548e-05 0 -4.8425872838899425e-06 -8.1291408103893877e-05 0 -6.0272532989916779e-06 -6.5249594193226372e-05 0 3.4599266538274048e-06 5.7123053438483909e-07 0 5.0077696103281679e-06 1.3452331742923942e-06 0 5.0105400006382444e-06 2.1648217801100632e-07 0 -1.6119474375761842e-06 -3.64960668181191e-06 0 2.666522354059279e-06 -3.1227195652723591e-06 0 -8.0475154456410244e-07 -1.9995846948392636e-06 0 4.1244197529032302e-05 -4.6643771360397269e-05 0 3.8581237846193121e-05 -4.1248325761588103e-05 0 3.1818078437484704e-05 -4.0968432353998501e-05 0 5.0105400006382444e-06 2.1648217801100632e-07 0 5.0077696103281679e-06 1.3452331742923942e-06 0 6.6848415332443111e-06 8.3334253238158098e-07 0 5.0077696103281679e-06 1.3452331742923942e-06 0 2.5640242839425902e-06 1.0052651833486652e-06 0 4.1292312814426049e-06 1.8447025272010298e-06 0 2.4928458704301918e-06 1.7099553130313084e-06 0 4.1292312814426049e-06 1.8447025272010298e-06 0 2.5640242839425902e-06 1.0052651833486652e-06 0 1.4975304262328575e-05 -4.9387180122275629e-05 0 1.7060002456523882e-05 -4.5912361894877418e-05 0 1.1095212744506869e-05 -4.2447432718103308e-05 0 1.7188606432157782e-05 -1.3709289059736703e-05 0 2.26865125007635e-05 -2.0179327144586775e-05 0 2.0397492096196242e-05 -1.2965399269445036e-05 0 4.0820132571743268e-05 -5.3750558566377991e-05 0 4.1244197529032302e-05 -4.6643771360397269e-05 0 3.5531125809264701e-05 -4.8332400021326187e-05 0 2.0382881788581232e-05 4.0285787812040213e-06 0 1.9416455031520207e-05 -6.0840836574997454e-06 0 2.2532759243747097e-05 -7.1052554517032428e-07 0 0.00010424051247056867 0.00031282693052984756 0 0.00011148933348361892 0.00035146365278517644 0 7.0761409863757634e-05 0.00031752162224639127 0 -7.0005243421423594e-05 -0.0001649946767817637 0 -7.0233996147789002e-05 -0.00018490508450433308 0 -5.2484856725781186e-05 -0.0001646798496958563 0 -6.930440797669595e-05 -0.00014498202973788941 0 -7.0005243421423594e-05 -0.0001649946767817637 0 -5.2484856725781186e-05 -0.0001646798496958563 0 9.7945016284426063e-05 0.0002757159166615842 0 0.00010424051247056867 0.00031282693052984756 0 7.0761409863757634e-05 0.00031752162224639127 0 2.2786433449200701e-05 8.1189387882891016e-06 0 2.032359868818396e-05 6.5228000231217782e-06 0 2.0382881788581232e-05 4.0285787812040213e-06 0 4.5245184663888765e-06 2.9967280893018184e-06 0 2.9909416598301796e-06 2.6140688368090885e-06 0 2.5731662176570358e-06 3.2740003006396024e-06 0 1.7363026979021749e-06 2.507866090948611e-06 0 2.5731662176570358e-06 3.2740003006396024e-06 0 2.9909416598301796e-06 2.6140688368090885e-06 0 4.4681507911505546e-05 0.00016648290656554862 0 5.6509241330829497e-05 0.00018932368609818879 0 2.2070484896794176e-05 0.00018980528267925609 0 5.6509241330829497e-05 0.00018932368609818879 0 5.1046733014374655e-05 0.00021315095988529023 0 2.2070484896794176e-05 0.00018980528267925609 0 2.363451048540441e-05 -1.2371666789003656e-05 0 1.94164550315202e-05 -6.084083657499748e-06 0 2.0397492096196242e-05 -1.2965399269445036e-05 0 4.4304240089236437e-05 -7.4860926350303118e-05 0 5.1979450424738108e-05 -6.8074872980389026e-05 0 4.2521830821892466e-05 -6.3888552709438637e-05 0 2.9918258946677625e-05 -6.8028349431965994e-05 0 2.6561946171197088e-05 -6.1399590180250617e-05 0 2.3933755493575854e-05 -6.2438525242793406e-05 0 2.032359868818396e-05 6.5228000231217782e-06 0 1.7944392686192926e-05 3.4138855061313466e-06 0 2.0382881788581232e-05 4.0285787812040213e-06 0 -0.00011605415543351188 0.00032223620814351116 0 -0.00011506898377779195 0.00028393981873372327 0 -8.1594192453480796e-05 0.00032094495774001943 0 3.8161360659171706e-05 -0.00014019646382665532 0 2.4383644766246142e-05 -0.00016224583158917574 0 4.1734744425115346e-05 -0.00016010539861170732 0 -2.0472409354691935e-05 -4.1077681757094699e-06 0 -1.9126609399641392e-05 -4.4006789649201755e-06 0 -1.4254365236750709e-05 -9.9454904287092075e-07 0 -3.0845491514089805e-05 5.5209735711948431e-06 0 -2.1286534230943702e-05 8.9979321211019262e-07 0 -2.8011310476517068e-05 6.2463611408189514e-06 0 2.363451048540441e-05 -1.2371666789003656e-05 0 2.2686512500763503e-05 -2.0179327144586775e-05 0 2.9397960272719733e-05 -2.2648751115754501e-05 0 9.3902757954219665e-06 -1.7768931567970763e-05 0 4.9945339511835074e-06 -3.3663456851698601e-05 0 1.6895214759872951e-05 -3.6777053555111609e-05 0 2.984784369665025e-05 -2.8509518452863957e-05 0 2.2686512500763503e-05 -2.0179327144586775e-05 0 2.532388978699883e-05 -2.8166858432310341e-05 0 2.0639843835319931e-05 -2.4542126405778405e-05 0 2.532388978699883e-05 -2.8166858432310341e-05 0 2.2686512500763503e-05 -2.0179327144586775e-05 0 -1.1442989489838097e-05 -0.00020494311383511998 0 8.9011955046978749e-06 -0.00020519439959835531 0 5.221357869023916e-06 -0.00018610833857435368 0 -2.2117170409716411e-06 0.00039883674975042989 0 -4.0319382422796485e-05 0.00039860774989120256 0 -3.8226997052251216e-05 0.0003630028207463722 0 3.7368541569567605e-05 0.00039879884202484971 0 -2.2117170409716411e-06 0.00039883674975042989 0 3.1034363621976545e-05 0.00036212009151592186 0 -3.0969273410107211e-05 -0.00020467339179846324 0 -1.1442989489838097e-05 -0.00020494311383511998 0 -3.0022693043555614e-05 -0.00018621272707367758 0 9.9207219024007455e-06 2.8532337769884111e-05 0 -4.8920819679188042e-06 4.8722440484156513e-05 0 -9.1836641830498691e-06 3.0011284200134822e-05 0 1.5828986320765169e-05 -2.8575947185032847e-05 0 1.4568470330847362e-05 -3.3887751727874951e-05 0 1.9259901308856491e-05 -3.5134649146341755e-05 0 2.984784369665025e-05 -2.8509518452863957e-05 0 2.532388978699883e-05 -2.8166858432310341e-05 0 3.3536735869623183e-05 -3.4483806151046086e-05 0 2.6309284606255726e-05 -3.338399530427227e-05 0 3.3536735869623183e-05 -3.4483806151046086e-05 0 2.532388978699883e-05 -2.8166858432310341e-05 0 4.6340677920120875e-06 -6.9778423570426219e-05 0 4.1061634826631286e-06 -5.1312450182659481e-05 0 -6.0272532989916779e-06 -6.5249594193226372e-05 0 -8.3268022642083944e-05 8.0869459302652621e-05 0 -5.1086549617621968e-05 6.2655733631120103e-05 0 -6.8449041903102537e-05 9.1855473094626077e-05 0 -8.5126527154711777e-06 -8.7359123934011997e-06 0 -1.3514134932398809e-05 -1.5456385550298931e-05 0 -4.4237224535015762e-06 -1.1886325873251599e-05 0 -6.8978991217572722e-06 -1.9400577695746045e-05 0 -4.4237224535015762e-06 -1.1886325873251599e-05 0 -1.3514134932398809e-05 -1.5456385550298931e-05 0 2.2378899282178249e-05 -5.7392832408298149e-05 0 2.6348936107862815e-05 -5.5331022253680272e-05 0 2.1622158064458129e-05 -5.2388766315188308e-05 0 -5.378216733165114e-05 0.00014142997242508004 0 -7.7436477031016314e-05 0.00015928738037022662 0 -6.8031998452919437e-05 0.00011961742821873525 0 -1.6939753378042573e-05 -5.7249341528954233e-06 0 -2.3450491931744445e-05 -1.1127468008238656e-05 0 -1.6025762171707112e-05 -9.9668867320917938e-06 0 -2.2906358676307327e-05 -1.6167215733213841e-05 0 -1.6025762171707112e-05 -9.9668867320917938e-06 0 -2.3450491931744445e-05 -1.1127468008238656e-05 0 -3.3283096637429476e-05 2.8062242711922643e-05 0 -3.5157038073357688e-05 1.8509829675317271e-05 0 -2.2075534153435731e-05 1.653041044745697e-05 0 -2.4261899036057711e-05 9.3742791334812644e-06 0 -2.2075534153435731e-05 1.653041044745697e-05 0 -3.5157038073357688e-05 1.8509829675317271e-05 0 1.6280362386447358e-05 -4.046261673401233e-05 0 2.1734234946154795e-05 -4.1323692110717354e-05 0 1.9259901308856491e-05 -3.5134649146341755e-05 0 -4.9022751580382198e-05 -4.2263219564215976e-05 0 -4.2088117028519912e-05 -4.7451465895515936e-05 0 -3.2951466884678959e-05 -3.3777824686235302e-05 0 2.8251888446099263e-05 0.00013627154753860732 0 5.4013312083629053e-06 0.0001057951315120817 0 2.9583509447508069e-05 0.0001018145040843605 0 1.4735421428246499e-05 -4.1952009561367244e-06 0 1.1674591147113824e-05 -6.5899370856985192e-06 0 1.3177361802475111e-05 -1.0110301338969604e-05 0 1.2383423138111475e-05 2.7993287316591947e-06 0 1.4468317805661889e-05 3.2882691423844213e-06 0 1.201901925399485e-05 2.4109997252864721e-06 0 -6.0985877491559036e-05 0.00024287672021315083 0 -3.454441436517983e-05 0.00025364222518454136 0 -6.7884863294453884e-05 0.00028449129558194786 0 9.9082064115571672e-06 -0.00012195622863840726 0 -2.4331176388726488e-06 -0.00012880190592104174 0 1.5220087665986078e-05 -0.00014356594664683361 0 2.363451048540441e-05 -1.2371666789003656e-05 0 2.0397492096196238e-05 -1.2965399269445036e-05 0 2.2686512500763503e-05 -2.0179327144586775e-05 0 2.6561946171197085e-05 -6.1399590180250617e-05 0 2.6348936107862815e-05 -5.5331022253680272e-05 0 2.2378899282178249e-05 -5.7392832408298149e-05 0 2.6309284606255726e-05 -3.338399530427227e-05 0 2.3832529687670148e-05 -3.6151787733509193e-05 0 3.1818078437484704e-05 -4.0968432353998501e-05 0 1.0258704385835522e-09 -7.0272221007574384e-10 0 1.4141077272109079e-06 -1.2458909360787204e-06 0 9.1614767138015117e-07 -1.9653464482066417e-06 0 4.8135216762940402e-10 7.4933135339781823e-10 0 2.5856695426145481e-07 1.8994119183426721e-06 0 6.9462456305916307e-07 1.6480418959557847e-06 0 4.1061634826631286e-06 -5.1312450182659481e-05 0 -7.6565355271548826e-06 -5.0647668624721478e-05 0 -6.0272532989916779e-06 -6.5249594193226372e-05 0 -1.6119474375761842e-06 -3.64960668181191e-06 0 -8.0475154456410244e-07 -1.9995846948392636e-06 0 -6.2042127313103651e-06 -2.9827460391300789e-06 0 -6.6310054307657442e-06 1.3297861686208032e-05 0 -9.183664183049864e-06 3.0011284200134822e-05 0 -2.0733228010751359e-05 2.6832866073342539e-05 0 3.1328652674457388e-06 -1.4206132345656996e-06 0 1.8263008287426243e-06 -6.4033669355995204e-07 0 4.256460447631115e-06 -6.8686887687759528e-07 0 3.1616723542928528e-06 -2.1955904534996499e-08 0 4.256460447631115e-06 -6.8686887687759528e-07 0 1.8263008287426243e-06 -6.4033669355995204e-07 0 2.4928458704301918e-06 1.7099553130313084e-06 0 1.201216853556427e-06 1.5515383268461351e-06 0 2.9909416598301796e-06 2.6140688368090885e-06 0 1.7363026979021749e-06 2.507866090948611e-06 0 2.9909416598301796e-06 2.6140688368090885e-06 0 1.201216853556427e-06 1.5515383268461351e-06 0 -6.2460983341180555e-06 3.9192138027259966e-06 0 1.0536771572345974e-06 6.3198121174818896e-06 0 -6.6310054307657442e-06 1.3297861686208032e-05 0 1.2383423138111475e-05 2.7993287316591947e-06 0 1.4910475081530637e-05 3.4563586169505728e-06 0 1.4468317805661889e-05 3.2882691423844213e-06 0 9.6413816376247291e-06 -6.7321794344783579e-07 0 6.2376668708509487e-06 -2.3511987210934328e-06 0 6.5723563371047308e-06 -1.6900340011026338e-06 0 -8.0475154456410244e-07 -1.9995846948392636e-06 0 2.666522354059279e-06 -3.1227195652723591e-06 0 4.4529420117341838e-06 -6.2312088185487843e-07 0 1.5584867895531886e-05 2.766590957482412e-06 0 1.7843005273790029e-05 4.8533108142639518e-06 0 1.4910475081530637e-05 3.4563586169505728e-06 0 8.0700612380191769e-07 2.0687948455074789e-06 0 1.9835993628499933e-06 6.3186374091467595e-07 0 3.0367445582419056e-06 2.4124400778585022e-06 0 4.4941838636672778e-06 7.2036163079463386e-07 0 3.0367445582419056e-06 2.4124400778585022e-06 0 1.9835993628499933e-06 6.3186374091467595e-07 0 -2.0010373286700378e-09 -5.4054078955918592e-10 0 -8.7413016165021452e-10 -1.4568623443292548e-09 0 -1.6450789619152849e-06 -1.9873116548980698e-06 0 -8.6922279049947124e-10 9.7458276480002099e-10 0 -1.6561685095917953e-09 3.2525460760602769e-10 0 -1.3555384541908373e-06 1.2443699689760069e-06 0 6.5691864975256939e-05 0.00010555981796298536 0 2.9583509447508069e-05 0.0001018145040843605 0 3.1288750894177155e-05 7.2829649642279089e-05 0 4.5245184663888765e-06 2.9967280893018184e-06 0 5.5286208526775829e-06 2.8289580490694145e-06 0 6.4440175291017854e-06 2.7553822287290182e-06 0 9.0719631625624592e-06 -1.0984879080916615e-05 0 9.7291893777934944e-06 -7.6063107761554132e-06 0 7.7078141022680197e-06 -1.1922187622037752e-05 0 3.1886470741887202e-05 -5.9850334507631628e-05 0 2.6348936107862815e-05 -5.5331022253680272e-05 0 2.6561946171197085e-05 -6.1399590180250617e-05 0 -1.5929779146294957e-05 -1.4928712123762098e-06 0 -1.4254365236750709e-05 -9.9454904287092075e-07 0 -1.1800468015159405e-05 5.1677286344119257e-07 0 -2.30884324754772e-05 1.233775248510022e-06 0 -1.6792910789509155e-05 -1.6537946133321011e-06 0 -2.1286534230943702e-05 8.9979321211019252e-07 0 2.6510207200242022e-05 -4.1519261984283239e-05 0 3.1818078437484704e-05 -4.0968432353998501e-05 0 2.3832529687670148e-05 -3.6151787733509193e-05 0 -1.4254365236750709e-05 -9.9454904287092075e-07 0 -9.7315628470355743e-06 1.2276332020007804e-07 0 -1.030480613600867e-05 8.9831898546810226e-07 0 -1.0317549366130943e-05 -1.0820163289744764e-06 0 -5.8615293713704114e-06 -7.0752265583641308e-08 0 -1.6099948551404438e-05 2.1338993292332983e-06 0 -1.4283110888973017e-05 -2.4136102715427412e-06 0 -9.7315628470355743e-06 1.2276332020007799e-07 0 -1.4254365236750709e-05 -9.9454904287092075e-07 0 -5.3943148301983448e-07 3.424684773145005e-06 0 -2.7175401768619279e-06 3.2488355160142719e-06 0 -1.3637885497949155e-06 2.7618813693694773e-06 0 3.1088829408766846e-06 -3.6889815294342488e-06 0 2.666522354059279e-06 -3.1227195652723591e-06 0 -1.3950414131078645e-06 -4.5482370052538111e-06 0 -1.5103457844978729e-05 8.2787204271551804e-06 0 -6.2460983341180555e-06 3.9192138027259966e-06 0 -6.6310054307657442e-06 1.3297861686208032e-05 0 1.6280362386447358e-05 -4.046261673401233e-05 0 1.9259901308856491e-05 -3.5134649146341755e-05 0 1.4568470330847362e-05 -3.3887751727874951e-05 0 4.1250796269425728e-05 0.00024515343543996497 0 5.5635323389971952e-05 0.00028418770543214324 0 2.1608730567488023e-05 0.00027987074343533135 0 -4.080744683164899e-05 -0.00012526858485193979 0 -4.6576100945928051e-05 -0.00014647166556461667 0 -2.9457234126467118e-05 -0.00014308575099545112 0 3.1328652674457388e-06 -1.4206132345656996e-06 0 1.4141077272109081e-06 -1.2458909360787204e-06 0 1.8263008287426243e-06 -6.4033669355995204e-07 0 1.7363026979021749e-06 2.507866090948611e-06 0 1.201216853556427e-06 1.5515383268461349e-06 0 6.9462456305916307e-07 1.6480418959557847e-06 0 4.4841393563034679e-10 -1.04283403222721e-09 0 9.1614767138015117e-07 -1.9653464482066417e-06 0 2.0985136793089511e-07 -2.1325067070725088e-06 0 -2.4747828980387837e-11 8.5343850892416784e-10 0 -2.1829559876776806e-07 1.7390793046717834e-06 0 2.5856695426145481e-07 1.8994119183426721e-06 0 9.0719631625624592e-06 -1.0984879080916615e-05 0 7.5041513156808271e-06 -1.462839135296904e-05 0 1.1162288980805235e-05 -1.4674776070405277e-05 0 9.6100398279112677e-06 -1.833100516467556e-05 0 1.1162288980805235e-05 -1.4674776070405277e-05 0 7.5041513156808271e-06 -1.462839135296904e-05 0 -1.7790807820321799e-05 0.0001129665073036144 0 -1.5010069862123712e-05 7.8571209140033827e-05 0 5.4013312083629053e-06 0.0001057951315120817 0 8.8848843765970925e-06 6.9891098610573427e-05 0 5.4013312083629036e-06 0.0001057951315120817 0 -1.5010069862123712e-05 7.8571209140033827e-05 0 1.8956949133286799e-05 1.1722585077881201e-05 0 1.9717172365066625e-05 7.2242539408098277e-06 0 2.7377370227571249e-05 1.4359528466401066e-05 0 9.0719631625624592e-06 -1.0984879080916615e-05 0 1.1674591147113824e-05 -6.5899370856985192e-06 0 9.7291893777934944e-06 -7.6063107761554132e-06 0 7.1344661628054342e-06 -2.723655045142977e-07 0 5.0105400006382444e-06 2.1648217801100632e-07 0 6.6848415332443111e-06 8.3334253238158098e-07 0 1.5828986320765169e-05 -2.8575947185032847e-05 0 1.9259901308856491e-05 -3.5134649146341755e-05 0 2.1016456881827855e-05 -2.9870204310520661e-05 0 -3.8519995888405076e-05 0.00018987347934479486 0 -5.4577879565497865e-05 0.00016524366942846628 0 -3.0133817115467466e-05 0.00014689585866564572 0 1.4975304262328575e-05 -4.9387180122275629e-05 0 1.1095212744506869e-05 -4.2447432718103308e-05 0 1.1038859824259136e-05 -4.9089271024922987e-05 0 3.5531125809264701e-05 -4.8332400021326187e-05 0 2.9673557897641911e-05 -4.6309589751546697e-05 0 3.303612600904011e-05 -5.3605846809365494e-05 0 2.9268608000758806e-06 3.2118569373231749e-06 0 2.5731662176570358e-06 3.2740003006396028e-06 0 1.2833247311077143e-06 3.4590230536308086e-06 0 -2.4351353204138213e-05 5.0106783763585531e-05 0 -9.1836641830498691e-06 3.0011284200134822e-05 0 -4.8920819679188042e-06 4.8722440484156513e-05 0 -4.6936553565288229e-06 5.2767838882321586e-07 0 -7.8790451399899857e-06 7.075346364780066e-07 0 -4.5685463846255653e-06 1.3997375970595274e-06 0 -1.0778146623146495e-05 -1.8182994037046468e-06 0 -6.2037100044603784e-06 -1.391788460197029e-06 0 -6.019389871245901e-06 -2.619163140927241e-06 0 2.984784369665025e-05 -2.8509518452863957e-05 0 2.9397960272719733e-05 -2.2648751115754501e-05 0 2.2686512500763503e-05 -2.0179327144586775e-05 0 -9.7126828738431533e-07 2.6980994979994779e-06 0 -1.4771944697399447e-06 3.4157173038660962e-06 0 -6.5744808823415421e-08 3.0077801540408579e-06 0 -3.2983501840163663e-07 -3.5252909291096437e-06 0 1.1568873474926986e-06 -3.3239898113425192e-06 0 -8.9223755879698038e-09 -4.4190102787819162e-06 0 -7.3314345577577998e-05 5.6868412370093637e-05 0 -4.9915910312475457e-05 4.2045355882413872e-05 0 -5.1086549617621968e-05 6.2655733631120103e-05 0 -4.3564825080116999e-05 -3.055458726705649e-05 0 -3.2951466884678959e-05 -3.3777824686235302e-05 0 -3.167435926271451e-05 -2.2965463175760991e-05 0 9.9207219024007455e-06 2.8532337769884111e-05 0 2.3788453213238223e-05 2.0283964186268562e-05 0 2.1483620634114438e-05 4.1823010580467684e-05 0 3.9479443397848337e-05 2.4168288210349974e-05 0 2.1483620634114438e-05 4.1823010580467684e-05 0 2.3788453213238223e-05 2.0283964186268562e-05 0 -4.357501563086566e-06 -3.7805645174782436e-05 0 -1.5170072253498447e-05 -4.1405157774003376e-05 0 -7.6565355271548826e-06 -5.0647668624721478e-05 0 -1.622005104733396e-05 -6.0133722691131306e-05 0 -7.6565355271548826e-06 -5.0647668624721478e-05 0 -1.5170072253498447e-05 -4.1405157774003376e-05 0 2.363451048540441e-05 -1.2371666789003656e-05 0 2.6789243352774964e-05 -5.9110273444139415e-06 0 2.2532759243747097e-05 -7.1052554517032428e-07 0 3.1886470741887202e-05 -5.9850334507631628e-05 0 2.6561946171197081e-05 -6.1399590180250617e-05 0 3.1724136991668229e-05 -6.5409700761502967e-05 0 7.1344661628054342e-06 -2.723655045142977e-07 0 6.5723563371047308e-06 -1.6900340011026338e-06 0 4.9180237833512025e-06 -1.3456235602847824e-06 0 -1.3514134932398809e-05 -1.5456385550298931e-05 0 -2.3206657412881109e-05 -2.3119110357887274e-05 0 -1.4848791197521955e-05 -2.3020851503402371e-05 0 4.4304240089236437e-05 -7.4860926350303118e-05 0 4.2521830821892466e-05 -6.3888552709438637e-05 0 3.6456658124176668e-05 -6.59594749991338e-05 0 -4.8209425647708729e-05 9.1902977443498253e-05 0 -6.8449041903102537e-05 9.1855473094626077e-05 0 -5.1086549617621968e-05 6.2655733631120103e-05 0 -6.7884863294453884e-05 0.00028449129558194786 0 -3.454441436517983e-05 0.00025364222518454136 0 -3.1956960257452069e-05 0.00028740068125447242 0 1.5220087665986078e-05 -0.00014356594664683361 0 -2.4331176388726488e-06 -0.00012880190592104174 0 -2.3259453338275987e-06 -0.00014610764908108069 0 7.5449656838113228e-06 1.8058648504852378e-06 0 9.8291391707298553e-06 1.9893766543153434e-06 0 7.6013434000530152e-06 2.563907063907282e-06 0 9.6100398279112677e-06 -1.833100516467556e-05 0 7.5041513156808271e-06 -1.462839135296904e-05 0 6.8561997335479984e-06 -2.0154062063272263e-05 0 9.1747481767627725e-06 1.7807238210862835e-06 0 1.201901925399485e-05 2.4109997252864721e-06 0 1.1066991605820269e-05 1.4530130737241935e-06 0 1.3510987113284945e-05 2.3022152549788756e-06 0 1.1066991605820269e-05 1.4530130737241935e-06 0 1.201901925399485e-05 2.4109997252864721e-06 0 -8.0475154456410244e-07 -1.9995846948392636e-06 0 -5.8615293713704114e-06 -7.0752265583641255e-08 0 -6.2042127313103651e-06 -2.9827460391300789e-06 0 -1.622005104733396e-05 -6.0133722691131306e-05 0 -2.5559256799080881e-05 -7.0216026709262494e-05 0 -1.7485827598045165e-05 -8.0524241856549548e-05 0 -1.0877568539551922e-05 -3.4991378833912487e-06 0 -6.1234193949413979e-06 -4.3259670441205481e-06 0 -1.2834340129876801e-05 -2.3127580209966862e-06 0 2.2070484896794176e-05 0.00018980528267925609 0 -5.6792763199553043e-06 0.00022174403305609758 0 -1.4021659956398654e-05 0.00019251243193866378 0 2.2070484896794176e-05 0.00018980528267925609 0 -1.4021659956398654e-05 0.00019251243193866378 0 -9.6234382096432064e-06 0.00016266542687384456 0 -3.8519995888405076e-05 0.00018987347934479486 0 -9.6234382096432081e-06 0.00016266542687384453 0 -1.4021659956398654e-05 0.00019251243193866378 0 -3.0128017066899604e-05 -9.5802514382973053e-05 0 -1.7806003334535653e-05 -0.00011294552086126996 0 -1.2452352301419703e-05 -9.5828502522117253e-05 0 -3.0128017066899604e-05 -9.5802514382973053e-05 0 -1.2452352301419703e-05 -9.5828502522117253e-05 0 -1.7485827598045165e-05 -8.0524241856549548e-05 0 1.9717172365066625e-05 7.2242539408098277e-06 0 2.3408653139050683e-05 9.7948208278125613e-06 0 2.7377370227571249e-05 1.4359528466401066e-05 0 1.3894277246314484e-09 -5.5334278578915395e-10 0 1.7839268085165065e-09 2.0962986793751015e-11 0 1.8263008287426243e-06 -6.4033669355995204e-07 0 1.2789177280657926e-09 5.016616819633491e-10 0 8.1299308930212293e-10 7.542983130028295e-10 0 1.201216853556427e-06 1.5515383268461351e-06 0 5.5286208526775829e-06 2.8289580490694145e-06 0 7.6013434000530152e-06 2.563907063907282e-06 0 6.4440175291017854e-06 2.7553822287290182e-06 0 9.3902757954219665e-06 -1.7768931567970763e-05 0 5.7841772843819549e-06 -1.3647242695819897e-05 0 3.2294688567184896e-06 -2.1216236104821561e-05 0 -6.1234193949413979e-06 -4.3259670441205481e-06 0 -6.2042127313103651e-06 -2.9827460391300794e-06 0 -1.2834340129876801e-05 -2.3127580209966862e-06 0 1.6253638735439672e-09 3.5347816904452457e-10 0 2.5640242839425902e-06 1.0052651833486652e-06 0 1.6701469752585224e-06 2.951523129613759e-07 0 -1.0778146623146495e-05 -1.8182994037046468e-06 0 -8.6073748893161278e-06 -3.4646731045542783e-06 0 -1.2907939755600728e-05 -2.6162425571527973e-06 0 -7.8790451399899857e-06 7.075346364780066e-07 0 -9.3457830871863054e-06 1.2234048705330612e-06 0 -6.5297505912750966e-06 1.8922377371463885e-06 0 -3.202306814824148e-05 -4.7080325060234023e-05 0 -3.2951466884678959e-05 -3.3777824686235302e-05 0 -4.2088117028519912e-05 -4.7451465895515936e-05 0 4.1292312814426049e-06 1.8447025272010298e-06 0 2.4928458704301918e-06 1.7099553130313084e-06 0 4.4846758801580252e-06 2.5343888854710668e-06 0 1.6280362386447358e-05 -4.046261673401233e-05 0 1.1095212744506869e-05 -4.2447432718103308e-05 0 1.7060002456523882e-05 -4.5912361894877418e-05 0 1.5584867895531886e-05 2.766590957482412e-06 0 1.4910475081530637e-05 3.4563586169505728e-06 0 1.3511283595094826e-05 2.1022206457970989e-06 0 2.8251888446099263e-05 0.00013627154753860732 0 -9.6617532187002429e-07 0.00013735873383889549 0 5.4013312083629053e-06 0.0001057951315120817 0 7.1344661628054342e-06 -2.723655045142977e-07 0 4.256460447631115e-06 -6.8686887687759528e-07 0 5.0105400006382444e-06 2.1648217801100632e-07 0 -4.5149626233687157e-05 0.00032447657573140252 0 -3.1956960257452069e-05 0.00028740068125447242 0 -4.2801900889860655e-06 0.00030610851457359351 0 6.2501755186091948e-06 -0.00016547058581943151 0 -2.3259453338275987e-06 -0.00014610764908108069 0 -1.5294626149087301e-05 -0.00015646741331273661 0 2.4928458704301918e-06 1.7099553130313084e-06 0 2.9909416598301796e-06 2.6140688368090885e-06 0 4.4846758801580252e-06 2.5343888854710668e-06 0 1.5584867895531886e-05 2.766590957482412e-06 0 1.3247530968194333e-05 3.1345369958588116e-07 0 1.4903353372099781e-05 -2.6079128183342766e-08 0 3.3939548522846273e-05 0.00032214601847366714 0 3.1034363621976545e-05 0.00036212009151592186 0 -4.5640067064870721e-06 0.0003494436178870105 0 -4.5149626233687157e-05 0.00032447657573140252 0 -4.5640067064870654e-06 0.00034944361788701045 0 -3.8226997052251216e-05 0.0003630028207463722 0 -3.3684771067698316e-05 -0.00016561695099034289 0 -3.0022693043555614e-05 -0.00018621272707367758 0 -1.2947711159330231e-05 -0.00017927716556205035 0 6.2501755186091948e-06 -0.00016547058581943151 0 -1.2947711159330231e-05 -0.00017927716556205035 0 5.221357869023916e-06 -0.00018610833857435368 0 -6.6310054307657442e-06 1.3297861686208032e-05 0 -2.0733228010751359e-05 2.6832866073342539e-05 0 -2.2075534153435731e-05 1.653041044745697e-05 0 -1.98070890778792e-05 -2.9124965674363689e-05 0 -3.2951466884678959e-05 -3.3777824686235302e-05 0 -2.4421766222121428e-05 -3.9272429006664739e-05 0 -3.202306814824148e-05 -4.7080325060234023e-05 0 -2.4421766222121428e-05 -3.9272429006664739e-05 0 -3.2951466884678959e-05 -3.3777824686235302e-05 0 -4.8209425647708729e-05 9.1902977443498253e-05 0 -5.1086549617621968e-05 6.2655733631120103e-05 0 -3.2965835921448056e-05 7.4518134855423263e-05 0 -2.4351353204138213e-05 5.0106783763585531e-05 0 -3.2965835921448056e-05 7.4518134855423263e-05 0 -5.1086549617621968e-05 6.2655733631120103e-05 0 1.7363026979021749e-06 2.507866090948611e-06 0 1.110921584585704e-06 2.8547649744945626e-06 0 2.5731662176570358e-06 3.2740003006396024e-06 0 5.6688424734639071e-05 7.1438454500114508e-05 0 6.5691864975256939e-05 0.00010555981796298536 0 3.1288750894177155e-05 7.2829649642279089e-05 0 -3.2983501840163663e-07 -3.5252909291096437e-06 0 -1.8456982494231464e-06 -4.2127368170793691e-06 0 -1.6131023933104202e-06 -3.0561783019973e-06 0 -9.7126828738431533e-07 2.6980994979994779e-06 0 -1.5672613154882346e-06 2.0703576860378193e-06 0 -2.1605370072186078e-06 2.9350386636907041e-06 0 9.0719631625624592e-06 -1.0984879080916615e-05 0 1.3177361802475111e-05 -1.0110301338969604e-05 0 1.1674591147113824e-05 -6.5899370856985192e-06 0 -1.4771944697399447e-06 3.4157173038660962e-06 0 -1.6752978764362242e-07 3.4549643339240325e-06 0 -6.5744808823415421e-08 3.0077801540408579e-06 0 -8.9223755879698038e-09 -4.4190102787819162e-06 0 1.1568873474926986e-06 -3.3239898113425192e-06 0 2.219818058817831e-06 -3.7177046633015764e-06 0 -1.0317549366130943e-05 -1.0820163289744764e-06 0 -1.6099948551404438e-05 2.1338993292332983e-06 0 -1.2834340129876801e-05 -2.3127580209966862e-06 0 -2.1286534230943702e-05 8.9979321211019252e-07 0 -1.2834340129876801e-05 -2.3127580209966862e-06 0 -1.6099948551404438e-05 2.1338993292332983e-06 0 3.3939548522846273e-05 0.00032214601847366714 0 2.1608730567488023e-05 0.00027987074343533135 0 5.5635323389971952e-05 0.00028418770543214324 0 -3.3684771067698316e-05 -0.00016561695099034289 0 -2.9457234126467118e-05 -0.00014308575099545112 0 -4.6576100945928058e-05 -0.00014647166556461667 0 4.4304240089236437e-05 -7.4860926350303118e-05 0 5.5736216408439233e-05 -7.7094436273870645e-05 0 5.1979450424738108e-05 -6.8074872980389026e-05 0 2.6809662479839765e-05 -6.5225048017014897e-05 0 2.9918258946677625e-05 -6.8028349431965994e-05 0 2.3933755493575854e-05 -6.2438525242793406e-05 0 -9.8152874694819698e-07 9.5143808878791852e-07 0 8.0700612380191769e-07 2.0687948455074789e-06 0 -1.3637885497949155e-06 2.7618813693694773e-06 0 9.5544310418536099e-06 -5.391763309442225e-05 0 1.4788220226965289e-05 -5.4863585821520952e-05 0 1.1038859824259136e-05 -4.9089271024922987e-05 0 5.9879153642240932e-05 -4.4527523967740421e-05 0 5.2858550646351115e-05 -4.4604053545154017e-05 0 5.6058578490621052e-05 -5.2125511309161175e-05 0 4.0820132571743268e-05 -5.3750558566377991e-05 0 4.7811468706492597e-05 -5.3379389662657865e-05 0 4.1244197529032302e-05 -4.6643771360397269e-05 0 -2.2906358676307327e-05 -1.6167215733213841e-05 0 -2.3206657412881109e-05 -2.3119110357887274e-05 0 -1.3514134932398809e-05 -1.5456385550298931e-05 0 2.9918258946677625e-05 -6.8028349431965994e-05 0 3.1724136991668229e-05 -6.5409700761502967e-05 0 2.6561946171197085e-05 -6.1399590180250617e-05 0 -2.4261899036057711e-05 9.3742791334812644e-06 0 -1.6099948551404438e-05 2.1338993292332983e-06 0 -1.5103457844978729e-05 8.2787204271551804e-06 0 9.8291391707298553e-06 1.9893766543153434e-06 0 9.914206672571579e-06 2.5365508395532824e-06 0 7.6013434000530152e-06 2.563907063907282e-06 0 -1.98070890778792e-05 -2.9124965674363689e-05 0 -1.5170072253498447e-05 -4.1405157774003376e-05 0 -1.0874939447067545e-05 -2.9321801673760737e-05 0 -4.357501563086566e-06 -3.7805645174782436e-05 0 -1.0874939447067547e-05 -2.9321801673760737e-05 0 -1.5170072253498447e-05 -4.1405157774003376e-05 0 -3.5714357389753848e-06 1.3793696840088303e-06 0 -9.8152874694819698e-07 9.5143808878791852e-07 0 -1.3637885497949155e-06 2.7618813693694773e-06 0 -1.98070890778792e-05 -2.9124965674363689e-05 0 -1.4848791197521955e-05 -2.3020851503402371e-05 0 -2.3206657412881109e-05 -2.3119110357887274e-05 0 -3.7509315470954591e-06 2.6322027720447452e-06 0 -3.5714357389753848e-06 1.3793696840088303e-06 0 -1.3637885497949155e-06 2.7618813693694773e-06 0 3.1088829408766846e-06 -3.6889815294342488e-06 0 7.0519428826893752e-06 -2.0117075478918216e-06 0 2.666522354059279e-06 -3.1227195652723591e-06 0 -1.98070890778792e-05 -2.9124965674363689e-05 0 -2.3206657412881109e-05 -2.3119110357887274e-05 0 -3.2951466884678959e-05 -3.3777824686235302e-05 0 -2.4351353204138213e-05 5.0106783763585531e-05 0 -5.1086549617621968e-05 6.2655733631120103e-05 0 -3.5534853428232966e-05 4.0959015077700073e-05 0 -8.7413016165021452e-10 -1.4568623443292548e-09 0 -3.79235540327443e-07 -1.989602743897217e-06 0 -1.6131023933104202e-06 -3.0561783019973e-06 0 -8.6922279049947124e-10 9.7458276480002099e-10 0 -1.5672613154882346e-06 2.0703576860378193e-06 0 -5.4955608137190107e-07 1.452322376562369e-06 0 -3.7509315470954591e-06 2.6322027720447452e-06 0 -1.3637885497949155e-06 2.7618813693694773e-06 0 -2.7175401768619279e-06 3.2488355160142719e-06 0 -1.6119474375761842e-06 -3.64960668181191e-06 0 -1.3950414131078645e-06 -4.5482370052538111e-06 0 2.666522354059279e-06 -3.1227195652723591e-06 0 2.715600006004054e-06 -3.2357413597285203e-06 0 3.0355565455117587e-06 -2.4829944380024053e-06 0 4.5514974118963849e-06 -2.8284453657790997e-06 0 3.2294688567184896e-06 -2.1216236104821561e-05 0 -3.8922751584282784e-06 -2.5726363159750194e-05 0 4.9945339511835074e-06 -3.3663456851698601e-05 0 7.1344661628054342e-06 -2.723655045142977e-07 0 6.6848415332443111e-06 8.3334253238158109e-07 0 8.6583294920364017e-06 7.4616065029631291e-07 0 -4.5149626233687157e-05 0.00032447657573140252 0 -6.7884863294453884e-05 0.00028449129558194786 0 -3.1956960257452069e-05 0.00028740068125447242 0 6.2501755186091948e-06 -0.00016547058581943151 0 1.5220087665986078e-05 -0.00014356594664683361 0 -2.3259453338275987e-06 -0.00014610764908108069 0 -5.3943148301983448e-07 3.424684773145005e-06 0 -1.4771944697399447e-06 3.4157173038660962e-06 0 -2.7175401768619279e-06 3.2488355160142719e-06 0 3.1088829408766846e-06 -3.6889815294342488e-06 0 -1.3950414131078645e-06 -4.5482370052538111e-06 0 -8.9223755879698038e-09 -4.4190102787819162e-06 0 5.0077696103281679e-06 1.3452331742923942e-06 0 5.9449226587219485e-06 2.3040777734304552e-06 0 7.0933525428723335e-06 1.7567218648085545e-06 0 -3.8922751584282784e-06 -2.5726363159750194e-05 0 -4.357501563086566e-06 -3.7805645174782436e-05 0 4.9945339511835074e-06 -3.3663456851698601e-05 0 -0.00011011845698522723 0.00020983622874499018 0 -0.00010603531161106628 0.0001744359162948205 0 -7.4175764356372969e-05 0.00019062430476871991 0 2.8880466952029999e-05 -8.4505067800778099e-05 0 1.442147004458595e-05 -9.4564088627284559e-05 0 3.1905512154438366e-05 -0.00010219453872111998 0 -3.0128017066899604e-05 -9.5802514382973053e-05 0 -1.7485827598045165e-05 -8.0524241856549535e-05 0 -3.0170548644015636e-05 -8.0824054473797703e-05 0 1.1837535099464904e-05 -3.1336166084385226e-06 0 9.7291893777934944e-06 -7.6063107761554124e-06 0 1.1674591147113824e-05 -6.5899370856985192e-06 0 -1.0877568539551922e-05 -3.4991378833912487e-06 0 -8.6073748893161261e-06 -3.4646731045542783e-06 0 -7.0491434980164452e-06 -4.2524882060254992e-06 0 -8.3200492485051305e-06 1.9157044349741251e-06 0 -5.8433396211422025e-06 2.5167780683191271e-06 0 -6.5297505912750966e-06 1.8922377371463885e-06 0 1.439493530942979e-05 2.9999224147146426e-06 0 1.067336304241677e-05 1.0655452854239048e-07 0 1.3904938064751253e-05 1.9095193887544905e-06 0 5.0077696103281679e-06 1.3452331742923942e-06 0 4.1292312814426049e-06 1.8447025272010298e-06 0 5.9449226587219485e-06 2.3040777734304552e-06 0 9.6100398279112677e-06 -1.833100516467556e-05 0 8.7112068381358592e-06 -2.4385589248517111e-05 0 1.259811643459966e-05 -2.1947507411613189e-05 0 -1.0877568539551922e-05 -3.4991378833912487e-06 0 -1.2907939755600728e-05 -2.6162425571527973e-06 0 -8.6073748893161278e-06 -3.4646731045542783e-06 0 -8.3200492485051305e-06 1.9157044349741251e-06 0 -6.5297505912750957e-06 1.8922377371463885e-06 0 -9.3457830871863071e-06 1.223404870533061e-06 0 1.5584867895531886e-05 2.766590957482412e-06 0 1.3511283595094826e-05 2.1022206457970989e-06 0 1.3247530968194333e-05 3.1345369958588116e-07 0 -1.5153992768546026e-05 -0.00013476520319125157 0 -1.7806003334535653e-05 -0.00011294552086126996 0 -2.6814183758684983e-05 -0.00012457809448072064 0 -8.0827957708429041e-06 0.00026510967889866106 0 -5.6792763199553085e-06 0.00022174403305609758 0 1.3706244436692466e-05 0.00024484179062699723 0 -2.2906358676307327e-05 -1.6167215733213841e-05 0 -1.3514134932398808e-05 -1.5456385550298927e-05 0 -1.6025762171707112e-05 -9.9668867320917938e-06 0 -8.5126527154711777e-06 -8.7359123934011997e-06 0 -1.6025762171707112e-05 -9.9668867320917938e-06 0 -1.3514134932398809e-05 -1.5456385550298931e-05 0 5.9757566809939796e-06 -3.4673650861174807e-06 0 3.027799618439562e-06 -5.1297053714861938e-06 0 6.6376287443464516e-06 -8.1409516048157375e-06 0 2.0034543615029448e-06 -9.9204616919596216e-06 0 6.6376287443464516e-06 -8.1409516048157375e-06 0 3.027799618439562e-06 -5.1297053714861938e-06 0 9.1614767138015117e-07 -1.9653464482066417e-06 0 3.0355565455117587e-06 -2.4829944380024053e-06 0 1.1568873474926986e-06 -3.3239898113425192e-06 0 2.715600006004054e-06 -3.2357413597285203e-06 0 1.1568873474926986e-06 -3.3239898113425192e-06 0 3.0355565455117587e-06 -2.4829944380024053e-06 0 6.3551882741994231e-07 3.3270780995866217e-06 0 1.110921584585704e-06 2.8547649744945626e-06 0 -6.5744808823415421e-08 3.0077801540408579e-06 0 2.5856695426145481e-07 1.8994119183426721e-06 0 -6.5744808823415421e-08 3.0077801540408579e-06 0 1.110921584585704e-06 2.8547649744945626e-06 0 1.6280362386447358e-05 -4.046261673401233e-05 0 2.1098702322753733e-05 -4.6631823784437239e-05 0 2.1734234946154795e-05 -4.1323692110717354e-05 0 1.1837535099464904e-05 -3.1336166084385226e-06 0 1.4903353372099781e-05 -2.6079128183342766e-08 0 1.3247530968194333e-05 3.1345369958588116e-07 0 1.3510987113284945e-05 2.3022152549788756e-06 0 1.2100972198928434e-05 1.148396643375828e-06 0 1.1066991605820269e-05 1.4530130737241935e-06 0 2.2070484896794176e-05 0.00018980528267925609 0 2.4380097204252941e-05 0.00022304548516594291 0 -5.6792763199553043e-06 0.00022174403305609758 0 -3.0128017066899604e-05 -9.5802514382973053e-05 0 -3.2685650544857055e-05 -0.00011236011032928736 0 -1.7806003334535653e-05 -0.00011294552086126996 0 2.2070484896794176e-05 0.00018980528267925609 0 -9.6234382096432064e-06 0.00016266542687384456 0 1.6711800084308311e-05 0.00015840910166936464 0 1.439493530942979e-05 2.9999224147146426e-06 0 9.7104807092108272e-06 1.2322339988353034e-06 0 1.067336304241677e-05 1.0655452854239037e-07 0 1.439493530942979e-05 2.9999224147146426e-06 0 1.4096264923915598e-05 5.8769896441584383e-06 0 9.7104807092108272e-06 1.2322339988353036e-06 0 -1.7790807820321799e-05 0.0001129665073036144 0 -9.6617532187002196e-07 0.00013735873383889552 0 -3.0133817115467466e-05 0.00014689585866564572 0 -9.6234382096432064e-06 0.00016266542687384456 0 -3.0133817115467466e-05 0.00014689585866564572 0 -9.6617532187002196e-07 0.00013735873383889552 0 -3.6556004498362536e-06 -3.0731372174470348e-06 0 -1.6131023933104204e-06 -3.0561783019973e-06 0 -3.318926924089334e-06 -4.0389201133821601e-06 0 -2.9625604953553161e-06 1.8617165146081335e-06 0 -3.0202480654043092e-06 2.6173455166900416e-06 0 -1.5672613154882346e-06 2.0703576860378193e-06 0 -4.357501563086566e-06 -3.7805645174782436e-05 0 -7.6565355271548826e-06 -5.0647668624721478e-05 0 4.1061634826631286e-06 -5.1312450182659481e-05 0 9.5544310418536099e-06 -5.391763309442225e-05 0 1.3547689711820647e-05 -5.9820223694426839e-05 0 1.4788220226965287e-05 -5.4863585821520952e-05 0 5.9879153642240932e-05 -4.4527523967740421e-05 0 5.6058578490621052e-05 -5.2125511309161175e-05 0 6.6196850356015015e-05 -5.110149175905396e-05 0 1.1457694657922058e-05 9.7952707368643948e-07 0 1.3247530968194333e-05 3.1345369958588116e-07 0 1.3511283595094826e-05 2.1022206457970989e-06 0 1.3510987113284945e-05 2.3022152549788756e-06 0 1.674020042232013e-05 4.1414629243167478e-06 0 1.3904938064751253e-05 1.9095193887544905e-06 0 3.1886470741887202e-05 -5.9850334507631628e-05 0 3.303612600904011e-05 -5.3605846809365494e-05 0 2.6348936107862815e-05 -5.5331022253680272e-05 0 2.7910158232392099e-05 -5.0456185998321609e-05 0 2.6348936107862815e-05 -5.5331022253680272e-05 0 3.303612600904011e-05 -5.3605846809365494e-05 0 2.6309284606255726e-05 -3.338399530427227e-05 0 3.1818078437484704e-05 -4.0968432353998501e-05 0 3.3536735869623183e-05 -3.4483806151046086e-05 0 -4.5149626233687157e-05 0.00032447657573140252 0 -8.1594192453480796e-05 0.00032094495774001943 0 -6.7884863294453884e-05 0.00028449129558194786 0 6.2501755186091948e-06 -0.00016547058581943151 0 2.4383644766246142e-05 -0.00016224583158917574 0 1.5220087665986078e-05 -0.00014356594664683361 0 1.9612452071139991e-05 -5.8755485066814219e-05 0 2.113731753797722e-05 -6.24547325293859e-05 0 2.3933755493575854e-05 -6.2438525242793406e-05 0 5.4855879661453368e-05 -5.9772037550775053e-05 0 5.1979450424738108e-05 -6.8074872980389026e-05 0 6.5398093141650249e-05 -6.6055029137012739e-05 0 3.3939548522846273e-05 0.00032214601847366714 0 -4.2801900889860655e-06 0.00030610851457359351 0 2.1608730567488023e-05 0.00027987074343533135 0 -3.3684771067698316e-05 -0.00016561695099034289 0 -1.5294626149087301e-05 -0.00015646741331273661 0 -2.9457234126467118e-05 -0.00014308575099545112 0 5.0077696103281679e-06 1.3452331742923942e-06 0 7.0933525428723335e-06 1.7567218648085545e-06 0 6.6848415332443111e-06 8.3334253238158098e-07 0 9.1747481767627725e-06 1.7807238210862835e-06 0 6.6848415332443111e-06 8.3334253238158098e-07 0 7.0933525428723335e-06 1.7567218648085545e-06 0 4.1250796269425728e-05 0.00024515343543996497 0 2.1608730567488023e-05 0.00027987074343533135 0 1.3706244436692466e-05 0.00024484179062699723 0 -4.080744683164899e-05 -0.00012526858485193979 0 -2.9457234126467118e-05 -0.00014308575099545112 0 -2.6814183758684983e-05 -0.00012457809448072064 0 -3.2983501840163663e-07 -3.5252909291096437e-06 0 -1.6131023933104206e-06 -3.0561783019973e-06 0 -3.79235540327443e-07 -1.989602743897217e-06 0 -9.7126828738431533e-07 2.6980994979994779e-06 0 -5.4955608137190107e-07 1.452322376562369e-06 0 -1.5672613154882346e-06 2.0703576860378193e-06 0 8.8848843765970925e-06 6.9891098610573427e-05 0 2.9583509447508069e-05 0.0001018145040843605 0 5.4013312083629053e-06 0.0001057951315120817 0 -3.6556004498362536e-06 -3.0731372174470348e-06 0 -1.6450789619152849e-06 -1.9873116548980698e-06 0 -1.6131023933104202e-06 -3.0561783019973e-06 0 -2.9625604953553161e-06 1.8617165146081335e-06 0 -1.5672613154882346e-06 2.0703576860378193e-06 0 -1.3555384541908373e-06 1.2443699689760069e-06 0 -0.00011506898377779195 0.00028393981873372327 0 -8.712292650133317e-05 0.00025687384800940973 0 -6.7884863294453884e-05 0.00028449129558194786 0 3.8161360659171706e-05 -0.00014019646382665532 0 2.3083420642659857e-05 -0.00012807410340703906 0 1.5220087665986078e-05 -0.00014356594664683361 0 9.9207219024007455e-06 2.8532337769884111e-05 0 -9.1836641830498691e-06 3.0011284200134822e-05 0 3.5898831105193702e-06 1.8710134979482004e-05 0 -6.6310054307657442e-06 1.3297861686208032e-05 0 3.5898831105193698e-06 1.8710134979482007e-05 0 -9.1836641830498691e-06 3.0011284200134822e-05 0 -1.622005104733396e-05 -6.0133722691131306e-05 0 -1.5170072253498447e-05 -4.1405157774003376e-05 0 -2.3338750477082835e-05 -4.8836046054598013e-05 0 2.363451048540441e-05 -1.2371666789003656e-05 0 2.9397960272719733e-05 -2.2648751115754501e-05 0 3.1113595776601764e-05 -1.7625831745618609e-05 0 -1.7790807820321799e-05 0.0001129665073036144 0 -3.1130071691569051e-05 9.4400189700779855e-05 0 -1.5010069862123712e-05 7.8571209140033827e-05 0 -2.4351353204138213e-05 5.0106783763585531e-05 0 -1.5010069862123712e-05 7.8571209140033827e-05 0 -3.2965835921448056e-05 7.4518134855423263e-05 0 -1.98070890778792e-05 -2.9124965674363689e-05 0 -2.4421766222121428e-05 -3.9272429006664739e-05 0 -1.5170072253498447e-05 -4.1405157774003376e-05 0 -4.357501563086566e-06 -3.7805645174782436e-05 0 4.1061634826631286e-06 -5.1312450182659481e-05 0 4.9945339511835074e-06 -3.3663456851698601e-05 0 1.4975304262328575e-05 -4.9387180122275629e-05 0 1.1038859824259136e-05 -4.9089271024922987e-05 0 1.4788220226965287e-05 -5.4863585821520952e-05 0 4.844572192207123e-05 -4.8228211294820968e-05 0 5.6058578490621052e-05 -5.2125511309161175e-05 0 5.2858550646351115e-05 -4.4604053545154017e-05 0 1.4735421428246499e-05 -4.1952009561367244e-06 0 1.3177361802475111e-05 -1.0110301338969604e-05 0 1.6468839031975057e-05 -7.9628863104558131e-06 0 9.0719631625624592e-06 -1.0984879080916615e-05 0 1.1162288980805235e-05 -1.4674776070405277e-05 0 1.3177361802475111e-05 -1.0110301338969604e-05 0 2.032359868818396e-05 6.5228000231217782e-06 0 1.7843005273790029e-05 4.8533108142639518e-06 0 1.7944392686192926e-05 3.4138855061313466e-06 0 3.2294688567184896e-06 -2.1216236104821561e-05 0 5.7841772843819549e-06 -1.3647242695819897e-05 0 -3.6496318384746066e-07 -1.6195923083122113e-05 0 3.3939548522846273e-05 0.00032214601847366714 0 5.5635323389971958e-05 0.00028418770543214324 0 7.0761409863757634e-05 0.00031752162224639127 0 -3.3684771067698316e-05 -0.00016561695099034289 0 -4.6576100945928058e-05 -0.00014647166556461667 0 -5.2484856725781186e-05 -0.0001646798496958563 0 1.5584867895531886e-05 2.766590957482412e-06 0 1.7944392686192926e-05 3.4138855061313466e-06 0 1.7843005273790029e-05 4.8533108142639518e-06 0 4.0033780898719312e-05 -3.3856592666495093e-05 0 3.3536735869623183e-05 -3.4483806151046086e-05 0 4.1713199706007087e-05 -3.809975127998564e-05 0 2.7910158232392099e-05 -5.0456185998321609e-05 0 3.303612600904011e-05 -5.3605846809365494e-05 0 2.9673557897641911e-05 -4.6309589751546697e-05 0 1.6716951538234993e-05 4.3938652491939324e-06 0 1.4910475081530637e-05 3.4563586169505728e-06 0 1.7843005273790029e-05 4.8533108142639518e-06 0 3.1328652674457388e-06 -1.4206132345656996e-06 0 4.9180237833512025e-06 -1.3456235602847824e-06 0 3.0355565455117587e-06 -2.4829944380024053e-06 0 -5.4462312908776535e-05 -5.6057077635424723e-05 0 -5.8888428335931797e-05 -7.1489840347155217e-05 0 -4.2552428434947941e-05 -6.0541587862961179e-05 0 3.1088829408766846e-06 -3.6889815294342488e-06 0 2.219818058817831e-06 -3.7177046633015764e-06 0 4.5514974118963849e-06 -2.8284453657790997e-06 0 1.1066991605820269e-05 1.4530130737241935e-06 0 1.2100972198928434e-05 1.148396643375828e-06 0 9.3383593358740184e-06 3.7476114283950254e-08 0 1.5584867895531886e-05 2.766590957482412e-06 0 1.4903353372099781e-05 -2.6079128183342766e-08 0 1.7944392686192926e-05 3.4138855061313466e-06 0 -0.00010016384143644111 0.0001405220287123924 0 -9.2848944613615887e-05 0.00010921974668991632 0 -6.8031998452919437e-05 0.00011961742821873525 0 2.4928458704301918e-06 1.7099553130313084e-06 0 2.5640242839425902e-06 1.0052651833486652e-06 0 1.0896446915264978e-06 7.1121812616007754e-07 0 9.6413816376247291e-06 -6.7321794344783579e-07 0 1.3904938064751253e-05 1.9095193887544905e-06 0 1.067336304241677e-05 1.0655452854239037e-07 0 1.5828986320765169e-05 -2.8575947185032847e-05 0 1.1782952831851841e-05 -2.7679432858794148e-05 0 1.4568470330847362e-05 -3.3887751727874951e-05 0 -3.0128017066899604e-05 -9.5802514382973053e-05 0 -4.4023722488583095e-05 -8.7630350721555476e-05 0 -4.7016628226476765e-05 -0.00010663776252852172 0 3.1088829408766846e-06 -3.6889815294342488e-06 0 4.5514974118963849e-06 -2.8284453657790997e-06 0 6.2376668708509487e-06 -2.3511987210934328e-06 0 5.0077696103281679e-06 1.3452331742923942e-06 0 3.4599266538274048e-06 5.7123053438483909e-07 0 2.5640242839425902e-06 1.0052651833486652e-06 0 7.094345610482548e-06 -1.1380872633782657e-06 0 1.067336304241677e-05 1.0655452854239037e-07 0 9.7104807092108272e-06 1.2322339988353036e-06 0 8.7112068381358592e-06 -2.4385589248517111e-05 0 1.1782952831851841e-05 -2.7679432858794148e-05 0 1.259811643459966e-05 -2.1947507411613189e-05 0 1.4975304262328575e-05 -4.9387180122275629e-05 0 1.8187591108042688e-05 -5.3177240066168505e-05 0 1.7060002456523882e-05 -4.5912361894877418e-05 0 -1.0317549366130943e-05 -1.0820163289744764e-06 0 -6.2042127313103651e-06 -2.9827460391300789e-06 0 -5.8615293713704114e-06 -7.0752265583641308e-08 0 9.7945016284426063e-05 0.0002757159166615842 0 5.5635323389971952e-05 0.00028418770543214324 0 6.9194701911308578e-05 0.00025582576946404554 0 -6.930440797669595e-05 -0.00014498202973788941 0 -4.6576100945928058e-05 -0.00014647166556461667 0 -5.4997371725681305e-05 -0.00013223945616839598 0 8.6583294920364017e-06 7.4616065029631291e-07 0 9.3383593358740184e-06 3.7476114283950254e-08 0 7.1344661628054342e-06 -2.723655045142977e-07 0 1.1066991605820269e-05 1.4530130737241935e-06 0 9.3383593358740184e-06 3.7476114283950254e-08 0 8.6583294920364017e-06 7.4616065029631291e-07 0 -6.0985877491559036e-05 0.00024287672021315083 0 -6.7884863294453884e-05 0.00028449129558194786 0 -8.712292650133317e-05 0.00025687384800940973 0 9.9082064115571672e-06 -0.00012195622863840726 0 1.5220087665986077e-05 -0.00014356594664683361 0 2.3083420642659857e-05 -0.00012807410340703906 0 9.1747481767627725e-06 1.7807238210862835e-06 0 1.0187864908687098e-05 2.5187911151991213e-06 0 1.201901925399485e-05 2.4109997252864721e-06 0 1.2383423138111475e-05 2.7993287316591947e-06 0 1.201901925399485e-05 2.4109997252864721e-06 0 1.0187864908687098e-05 2.5187911151991213e-06 0 9.1747481767627725e-06 1.7807238210862835e-06 0 8.6583294920364017e-06 7.4616065029631291e-07 0 6.6848415332443111e-06 8.3334253238158098e-07 0 -8.3200492485051305e-06 1.9157044349741251e-06 0 -7.1754272139289346e-06 1.8863843110027359e-06 0 -5.0768759423929121e-06 2.8028565996072575e-06 0 -1.9896597130579629e-07 -2.2090191249095917e-06 0 -1.9114998324680806e-06 -6.7243011108084262e-06 0 3.027799618439562e-06 -5.1297053714861938e-06 0 2.0034543615029448e-06 -9.9204616919596216e-06 0 3.027799618439562e-06 -5.1297053714861947e-06 0 -1.9114998324680806e-06 -6.7243011108084262e-06 0 -8.3200492485051305e-06 1.9157044349741251e-06 0 -5.0768759423929121e-06 2.8028565996072575e-06 0 -5.8433396211422025e-06 2.5167780683191271e-06 0 8.8848843765970925e-06 6.9891098610573427e-05 0 3.1288750894177155e-05 7.2829649642279089e-05 0 2.9583509447508069e-05 0.0001018145040843605 0 -8.0827957708429041e-06 0.00026510967889866106 0 -4.2801900889860604e-06 0.00030610851457359351 0 -3.1956960257452069e-05 0.00028740068125447242 0 -1.5153992768546026e-05 -0.00013476520319125157 0 -1.5294626149087301e-05 -0.00015646741331273661 0 -2.3259453338275987e-06 -0.00014610764908108069 0 7.5449656838113228e-06 1.8058648504852378e-06 0 5.528620852677582e-06 2.8289580490694145e-06 0 5.3875771531704081e-06 2.0450662245560822e-06 0 1.6253638735439672e-09 3.5347816904452457e-10 0 1.0896446915264978e-06 7.1121812616007754e-07 0 2.5640242839425902e-06 1.0052651833486652e-06 0 1.439493530942979e-05 2.9999224147146426e-06 0 1.9717172365066625e-05 7.2242539408098277e-06 0 1.4096264923915598e-05 5.8769896441584383e-06 0 3.8581237846193121e-05 -4.1248325761588103e-05 0 3.3536735869623183e-05 -3.4483806151046086e-05 0 3.1818078437484704e-05 -4.0968432353998501e-05 0 2.6309284606255726e-05 -3.338399530427227e-05 0 2.1016456881827855e-05 -2.9870204310520661e-05 0 2.3832529687670148e-05 -3.6151787733509193e-05 0 5.9449226587219485e-06 2.3040777734304552e-06 0 6.4440175291017854e-06 2.7553822287290182e-06 0 7.9000468205937843e-06 2.3258910838724007e-06 0 -3.202306814824148e-05 -4.7080325060234023e-05 0 -4.2552428434947941e-05 -6.0541587862961179e-05 0 -2.7354413387256612e-05 -5.9500293739094757e-05 0 -3.693472342459991e-05 -7.1138746037301538e-05 0 -2.7354413387256612e-05 -5.9500293739094757e-05 0 -4.2552428434947941e-05 -6.0541587862961179e-05 0 1.7525256979466859e-09 -1.0786212887102741e-10 0 1.6253638735440584e-09 3.534781690445407e-10 0 1.6701469752585224e-06 2.951523129613759e-07 0 -5.378216733165114e-05 0.00014142997242508004 0 -6.8031998452919437e-05 0.00011961742821873525 0 -4.1371802355819901e-05 0.00011710638407000833 0 -4.8209425647708729e-05 9.1902977443498253e-05 0 -4.1371802355819901e-05 0.00011710638407000833 0 -6.8031998452919437e-05 0.00011961742821873525 0 1.9612452071139991e-05 -5.8755485066814219e-05 0 1.8187591108042688e-05 -5.3177240066168505e-05 0 1.4788220226965287e-05 -5.4863585821520952e-05 0 5.4855879661453368e-05 -5.9772037550775053e-05 0 5.6058578490621052e-05 -5.2125511309161175e-05 0 4.7811468706492597e-05 -5.3379389662657865e-05 0 6.626637615965665e-06 3.3700174476352605e-06 0 9.7104807092108272e-06 1.2322339988353036e-06 0 1.4096264923915598e-05 5.8769896441584383e-06 0 2.1622158064458129e-05 -5.2388766315188308e-05 0 2.4176026247412501e-05 -5.0541453204527362e-05 0 2.1098702322753733e-05 -4.6631823784437232e-05 0 2.6115737835393338e-05 1.153803659276922e-05 0 2.9671413432985798e-05 1.5453556235475004e-05 0 2.7377370227571249e-05 1.4359528466401066e-05 0 3.1088829408766846e-06 -3.6889815294342488e-06 0 6.2376668708509487e-06 -2.3511987210934328e-06 0 7.0519428826893752e-06 -2.0117075478918216e-06 0 -6.6310054307657442e-06 1.3297861686208032e-05 0 8.2569845794432743e-06 9.9639817427256691e-06 0 3.5898831105193702e-06 1.8710134979482004e-05 0 6.5691864975256939e-05 0.00010555981796298536 0 4.9593829269009721e-05 0.00012651930330101317 0 2.9583509447508069e-05 0.0001018145040843605 0 7.5449656838113228e-06 1.8058648504852378e-06 0 7.6013434000530152e-06 2.5639070639072816e-06 0 5.5286208526775829e-06 2.8289580490694145e-06 0 -8.0827957708429041e-06 0.00026510967889866106 0 2.1608730567488023e-05 0.00027987074343533135 0 -4.2801900889860655e-06 0.00030610851457359351 0 -1.5153992768546026e-05 -0.00013476520319125157 0 -2.9457234126467118e-05 -0.00014308575099545112 0 -1.5294626149087301e-05 -0.00015646741331273661 0 4.5245184663888765e-06 2.9967280893018184e-06 0 4.0133300172806137e-06 3.139531348476514e-06 0 5.5286208526775829e-06 2.8289580490694145e-06 0 8.5627782511843292e-06 -8.1989989181321916e-06 0 7.7078141022680197e-06 -1.1922187622037752e-05 0 9.7291893777934944e-06 -7.6063107761554132e-06 0 4.1250796269425728e-05 0.00024515343543996497 0 6.9194701911308578e-05 0.00025582576946404554 0 5.5635323389971952e-05 0.00028418770543214324 0 -4.080744683164899e-05 -0.00012526858485193979 0 -5.4997371725681305e-05 -0.00013223945616839598 0 -4.6576100945928058e-05 -0.00014647166556461667 0 -2.0472409354691935e-05 -4.1077681757094699e-06 0 -2.5722305020285893e-05 -8.0158921920944385e-06 0 -1.9126609399641392e-05 -4.4006789649201755e-06 0 -3.9990785611724751e-05 1.2549429397126683e-05 0 -3.0845491514089805e-05 5.5209735711948431e-06 0 -2.8011310476517068e-05 6.2463611408189514e-06 0 9.9207219024007455e-06 2.8532337769884111e-05 0 8.9854021659749414e-06 4.5958678459243941e-05 0 -4.8920819679188042e-06 4.8722440484156513e-05 0 -3.7509315470954591e-06 2.6322027720447452e-06 0 -5.9625282011208049e-06 1.3766824226806378e-06 0 -3.5714357389753848e-06 1.3793696840088303e-06 0 2.5039135645738936e-05 -6.6235760295468678e-05 0 2.5208652309562377e-05 -6.4222032153414055e-05 0 2.113731753797722e-05 -6.24547325293859e-05 0 2.5039135645738936e-05 -6.6235760295468678e-05 0 2.113731753797722e-05 -6.24547325293859e-05 0 1.8870537097890584e-05 -6.4200594955402709e-05 0 8.337851785839347e-05 -7.1734153690660555e-05 0 7.4229053247125686e-05 -5.9782652715343279e-05 0 6.5398093141650249e-05 -6.6055029137012739e-05 0 8.337851785839347e-05 -7.1734153690660555e-05 0 6.5398093141650249e-05 -6.6055029137012739e-05 0 6.8909082921176897e-05 -7.6584543393012008e-05 0 1.9612452071139991e-05 -5.8755485066814219e-05 0 2.2378899282178249e-05 -5.7392832408298149e-05 0 1.8187591108042688e-05 -5.3177240066168505e-05 0 5.4855879661453368e-05 -5.9772037550775053e-05 0 4.7811468706492597e-05 -5.3379389662657865e-05 0 4.5988877628276958e-05 -5.9764293226852534e-05 0 5.0905626009202715e-05 -3.4171814951746293e-05 0 4.8559718408903622e-05 -3.9325592304617761e-05 0 5.4875268816309123e-05 -3.9044649804473116e-05 0 4.6900282532220665e-06 -3.9895708615644553e-05 0 6.6784307301109975e-06 -4.7121001063144579e-05 0 1.1095212744506869e-05 -4.2447432718103308e-05 0 4.3081823303614055e-05 -5.8776642087170526e-06 0 3.5294270099088201e-05 -1.293706263286811e-05 0 4.3974510161337162e-05 -1.7168751526949215e-05 0 3.3939548522846273e-05 0.00032214601847366714 0 6.7545446617897794e-05 0.00035236345376311157 0 3.1034363621976545e-05 0.00036212009151592186 0 -4.5149626233687157e-05 0.00032447657573140252 0 -3.8226997052251216e-05 0.0003630028207463722 0 -7.4188787216501311e-05 0.00035548935053511034 0 -3.3684771067698316e-05 -0.00016561695099034289 0 -4.8439512865202646e-05 -0.00018226895550976525 0 -3.0022693043555614e-05 -0.00018621272707367758 0 6.2501755186091948e-06 -0.00016547058581943151 0 5.2213578690239143e-06 -0.00018610833857435368 0 2.3654611033570056e-05 -0.0001811614155541245 0 8.1879338851422507e-06 2.6099300853797951e-06 0 7.9000468205937843e-06 2.3258910838724007e-06 0 6.4440175291017854e-06 2.7553822287290182e-06 0 3.3939548522846273e-05 0.00032214601847366714 0 7.0761409863757648e-05 0.00031752162224639127 0 6.7545446617897807e-05 0.00035236345376311157 0 -3.3684771067698316e-05 -0.00016561695099034289 0 -5.2484856725781186e-05 -0.0001646798496958563 0 -4.8439512865202646e-05 -0.00018226895550976525 0 1.4735421428246499e-05 -4.1952009561367244e-06 0 1.7069115028764883e-05 -7.2592176831291704e-07 0 1.4903353372099781e-05 -2.6079128183342766e-08 0 -4.5149626233687157e-05 0.00032447657573140252 0 -7.4188787216501311e-05 0.00035548935053511034 0 -8.1594192453480796e-05 0.00032094495774001943 0 6.2501755186091948e-06 -0.00016547058581943151 0 2.3654611033570056e-05 -0.0001811614155541245 0 2.4383644766246142e-05 -0.00016224583158917574 0 4.6340677920120875e-06 -6.9778423570426219e-05 0 1.3940448884697303e-05 -6.0490724693413316e-05 0 4.1061634826631286e-06 -5.1312450182659481e-05 0 9.6100398279112677e-06 -1.833100516467556e-05 0 1.259811643459966e-05 -2.1947507411613189e-05 0 1.1162288980805235e-05 -1.4674776070405277e-05 0 1.4460279369494812e-05 -1.8654370380847714e-05 0 1.1162288980805235e-05 -1.4674776070405277e-05 0 1.259811643459966e-05 -2.1947507411613189e-05 0 7.094345610482548e-06 -1.1380872633782657e-06 0 2.666522354059279e-06 -3.1227195652723591e-06 0 7.0519428826893752e-06 -2.0117075478918216e-06 0 -1.7790807820321799e-05 0.0001129665073036144 0 5.4013312083629053e-06 0.0001057951315120817 0 -9.6617532187002196e-07 0.00013735873383889552 0 -5.8888428335931797e-05 -7.1489840347155217e-05 0 -4.858223804045914e-05 -7.5126686199138539e-05 0 -4.2552428434947941e-05 -6.0541587862961179e-05 0 1.8956949133286799e-05 1.1722585077881201e-05 0 8.256984579443276e-06 9.9639817427256674e-06 0 1.4096264923915598e-05 5.8769896441584383e-06 0 6.626637615965665e-06 3.3700174476352605e-06 0 1.4096264923915598e-05 5.8769896441584383e-06 0 8.256984579443276e-06 9.9639817427256674e-06 0 1.3510987113284945e-05 2.3022152549788756e-06 0 1.4468317805661889e-05 3.2882691423844213e-06 0 1.674020042232013e-05 4.1414629243167478e-06 0 2.6510207200242022e-05 -4.1519261984283239e-05 0 2.9673557897641911e-05 -4.6309589751546697e-05 0 3.1818078437484704e-05 -4.0968432353998501e-05 0 3.5531125809264701e-05 -4.8332400021326187e-05 0 3.1818078437484704e-05 -4.0968432353998501e-05 0 2.9673557897641911e-05 -4.6309589751546697e-05 0 -7.3314345577577998e-05 5.6868412370093637e-05 0 -6.2068020937024578e-05 3.7390386240169594e-05 0 -4.9915910312475457e-05 4.2045355882413872e-05 0 -3.7548536598858839e-05 -2.0958143166347933e-05 0 -4.3564825080116999e-05 -3.055458726705649e-05 0 -3.167435926271451e-05 -2.2965463175760991e-05 0 1.0258704385835522e-09 -7.0272221007574384e-10 0 1.3894277246314484e-09 -5.5334278578915395e-10 0 1.4141077272109079e-06 -1.2458909360787204e-06 0 8.1299308930212293e-10 7.542983130028295e-10 0 4.8135216762940402e-10 7.4933135339781823e-10 0 6.9462456305916307e-07 1.6480418959557847e-06 0 1.439493530942979e-05 2.9999224147146426e-06 0 1.3904938064751253e-05 1.9095193887544905e-06 0 1.6989540757717944e-05 4.2612409477564855e-06 0 1.6716951538234993e-05 4.3938652491939324e-06 0 1.674020042232013e-05 4.1414629243167478e-06 0 1.4468317805661889e-05 3.2882691423844213e-06 0 1.3510987113284945e-05 2.3022152549788756e-06 0 1.3904938064751251e-05 1.9095193887544901e-06 0 1.2100972198928434e-05 1.148396643375828e-06 0 -3.6354976268172375e-06 -4.648947852786853e-06 0 -7.0491434980164452e-06 -4.2524882060254992e-06 0 -5.6446851197627475e-06 -3.9748183478153296e-06 0 -3.6557064979656224e-06 3.0610022798639401e-06 0 -4.5710548119930723e-06 2.3831885040152145e-06 0 -5.8433396211422025e-06 2.5167780683191271e-06 0 2.8251888446099263e-05 0.00013627154753860732 0 2.9583509447508069e-05 0.0001018145040843605 0 4.9593829269009721e-05 0.00012651930330101317 0 -3.6354976268172375e-06 -4.648947852786853e-06 0 -5.6446851197627467e-06 -3.9748183478153287e-06 0 -3.318926924089334e-06 -4.0389201133821601e-06 0 -3.6557064979656224e-06 3.0610022798639401e-06 0 -3.0202480654043092e-06 2.6173455166900416e-06 0 -4.5710548119930723e-06 2.3831885040152145e-06 0 1.6280362386447358e-05 -4.046261673401233e-05 0 1.7060002456523882e-05 -4.5912361894877418e-05 0 2.1098702322753733e-05 -4.6631823784437232e-05 0 8.8848843765970925e-06 6.9891098610573427e-05 0 2.1483620634114438e-05 4.1823010580467684e-05 0 3.1288750894177155e-05 7.2829649642279089e-05 0 9.6413816376247291e-06 -6.7321794344783579e-07 0 1.2100972198928434e-05 1.148396643375828e-06 0 1.3904938064751253e-05 1.9095193887544905e-06 0 3.8581237846193121e-05 -4.1248325761588103e-05 0 4.1713199706007087e-05 -3.809975127998564e-05 0 3.3536735869623183e-05 -3.4483806151046086e-05 0 -2.8414485276920709e-10 -9.5293071683789846e-10 0 4.4841393563034679e-10 -1.04283403222721e-09 0 2.0985136793089511e-07 -2.1325067070725088e-06 0 -2.4747828980387837e-11 8.5343850892416784e-10 0 -5.4375728038754815e-10 6.9084548565431982e-10 0 -2.1829559876776806e-07 1.7390793046717834e-06 0 -1.1650235662367479e-05 5.6147925572254712e-08 0 -1.5929779146294957e-05 -1.4928712123762098e-06 0 -1.1800468015159405e-05 5.1677286344119257e-07 0 -2.30884324754772e-05 1.233775248510022e-06 0 -1.6374992238995208e-05 -9.8910316398290161e-07 0 -1.6792910789509155e-05 -1.6537946133321011e-06 0 -6.8978991217572722e-06 -1.9400577695746045e-05 0 -1.3514134932398809e-05 -1.5456385550298931e-05 0 -1.4848791197521955e-05 -2.3020851503402371e-05 0 2.186710091599468e-05 -5.1871778175700973e-05 0 1.2406708683189531e-05 -4.5448052742242922e-05 0 1.3940448884697307e-05 -6.0490724693413316e-05 0 1.1837535099464904e-05 -3.1336166084385226e-06 0 9.9076727820277325e-06 -4.8190127400251984e-06 0 9.7291893777934944e-06 -7.6063107761554132e-06 0 1.2084256918341029e-05 2.3631377516318342e-06 0 1.4910475081530637e-05 3.4563586169505728e-06 0 1.2383423138111475e-05 2.7993287316591947e-06 0 1.3511283595094826e-05 2.1022206457970989e-06 0 1.4910475081530637e-05 3.4563586169505728e-06 0 1.2084256918341029e-05 2.3631377516318342e-06 0 2.0038418687630532e-05 6.5426034726634544e-06 0 1.9717172365066625e-05 7.2242539408098277e-06 0 1.6989540757717944e-05 4.2612409477564855e-06 0 1.439493530942979e-05 2.9999224147146426e-06 0 1.6989540757717944e-05 4.2612409477564855e-06 0 1.9717172365066625e-05 7.2242539408098277e-06 0 4.0820132571743268e-05 -5.3750558566377991e-05 0 3.719495718218123e-05 -5.9298816764764878e-05 0 4.5988877628276958e-05 -5.9764293226852534e-05 0 3.4454697630254982e-06 -2.5256548803309089e-05 0 8.7112068381358575e-06 -2.4385589248517111e-05 0 6.8561997335479984e-06 -2.0154062063272263e-05 0 8.5627782511843292e-06 -8.1989989181321916e-06 0 8.1959215314491096e-06 -1.2248535719140587e-05 0 7.7078141022680197e-06 -1.1922187622037752e-05 0 9.3902757954219665e-06 -1.7768931567970763e-05 0 7.7078141022680197e-06 -1.1922187622037754e-05 0 8.1959215314491096e-06 -1.2248535719140587e-05 0 -7.8790451399899857e-06 7.075346364780066e-07 0 -1.1650235662367481e-05 5.6147925572254493e-08 0 -9.3457830871863071e-06 1.223404870533061e-06 0 -1.6374992238995208e-05 -9.8910316398290161e-07 0 -1.0778146623146495e-05 -1.8182994037046468e-06 0 -1.2907939755600728e-05 -2.6162425571527973e-06 0 3.5948101061123149e-05 -7.1593722204032922e-05 0 4.4304240089236437e-05 -7.4860926350303118e-05 0 3.6456658124176668e-05 -6.59594749991338e-05 0 8.256984579443276e-06 9.9639817427256674e-06 0 1.3832854032961649e-05 1.6632005849148544e-05 0 3.5898831105193702e-06 1.8710134979482004e-05 0 9.1747481767627725e-06 1.7807238210862835e-06 0 1.1066991605820269e-05 1.4530130737241933e-06 0 8.6583294920364017e-06 7.4616065029631291e-07 0 -1.6131023933104202e-06 -3.0561783019973e-06 0 -1.8456982494231462e-06 -4.2127368170793691e-06 0 -3.318926924089334e-06 -4.0389201133821601e-06 0 -1.5672613154882346e-06 2.0703576860378193e-06 0 -3.0202480654043097e-06 2.6173455166900416e-06 0 -2.1605370072186078e-06 2.9350386636907041e-06 0 4.5245184663888765e-06 2.9967280893018184e-06 0 2.5731662176570358e-06 3.2740003006396024e-06 0 4.0133300172806137e-06 3.139531348476514e-06 0 1.1837535099464904e-05 -3.1336166084385226e-06 0 1.3235192371443034e-05 -3.3934489518159386e-06 0 1.4903353372099781e-05 -2.6079128183342766e-08 0 4.844572192207123e-05 -4.8228211294820968e-05 0 4.1244197529032302e-05 -4.6643771360397269e-05 0 4.7811468706492597e-05 -5.3379389662657865e-05 0 2.9268608000758806e-06 3.2118569373231749e-06 0 4.0133300172806128e-06 3.139531348476514e-06 0 2.5731662176570358e-06 3.2740003006396024e-06 0 -0.00011011845698522723 0.00020983622874499018 0 -7.4175764356372969e-05 0.00019062430476871991 0 -8.2745912623029781e-05 0.0002240417703401457 0 3.1905512154438366e-05 -0.00010219453872111998 0 1.442147004458595e-05 -9.4564088627284559e-05 0 1.9565762885716624e-05 -0.00011126274028667891 0 2.8880466952029999e-05 -8.4505067800778099e-05 0 1.5120985157235848e-05 -7.8201214131674e-05 0 1.442147004458595e-05 -9.4564088627284559e-05 0 1.7188606432157782e-05 -1.3709289059736703e-05 0 1.6468839031975057e-05 -7.9628863104558131e-06 0 1.3177361802475111e-05 -1.0110301338969604e-05 0 3.4454697630254982e-06 -2.5256548803309089e-05 0 7.3704288482870622e-06 -2.9539562593993588e-05 0 8.7112068381358592e-06 -2.4385589248517111e-05 0 7.5449656838113228e-06 1.8058648504852378e-06 0 7.7405727620160997e-06 -4.4178029699119927e-07 0 9.2849662715650398e-06 8.3747866876449715e-07 0 1.4735421428246499e-05 -4.1952009561367244e-06 0 1.4903353372099781e-05 -2.6079128183342766e-08 0 1.3235192371443034e-05 -3.3934489518159382e-06 0 0.00011148933348361892 0.00035146365278517644 0 8.8776519816687285e-05 0.00037255654625519767 0 6.7545446617897807e-05 0.00035236345376311157 0 -7.0233996147789002e-05 -0.00018490508450433308 0 -5.7177147989278518e-05 -0.00019337424684685525 0 -4.8439512865202646e-05 -0.00018226895550976525 0 4.5977025079519682e-05 -0.0001808045396736601 0 2.3654611033570053e-05 -0.0001811614155541245 0 3.4920769464830053e-05 -0.00019186610638189535 0 -0.00011637214555242522 0.00036048196362078598 0 -7.4188787216501311e-05 0.00035548935053511034 0 -9.1112176184511714e-05 0.00037685336080493792 0 1.1457694657922058e-05 9.7952707368643948e-07 0 9.8291391707298553e-06 1.9893766543153434e-06 0 9.2849662715650398e-06 8.3747866876449715e-07 0 7.5449656838113228e-06 1.8058648504852378e-06 0 9.2849662715650398e-06 8.3747866876449715e-07 0 9.8291391707298553e-06 1.9893766543153434e-06 0 5.9757566809939796e-06 -3.4673650861174807e-06 0 7.740572762016098e-06 -4.4178029699119874e-07 0 5.7730648451120185e-06 -8.2598886244108209e-07 0 -2.4261899036057711e-05 9.3742791334812644e-06 0 -2.8011310476517068e-05 6.2463611408189514e-06 0 -1.6099948551404438e-05 2.1338993292332983e-06 0 -2.1286534230943702e-05 8.9979321211019252e-07 0 -1.6099948551404438e-05 2.1338993292332975e-06 0 -2.8011310476517068e-05 6.2463611408189514e-06 0 6.626637615965665e-06 3.3700174476352605e-06 0 1.1966412663410346e-07 1.1391154980282749e-06 0 4.4529420117341838e-06 -6.2312088185487843e-07 0 -1.9896597130579629e-07 -2.2090191249095917e-06 0 1.9835993628499933e-06 6.3186374091467595e-07 0 -9.8152874694819698e-07 9.5143808878791852e-07 0 8.5627782511843292e-06 -8.1989989181321916e-06 0 6.6376287443464516e-06 -8.1409516048157375e-06 0 8.1959215314491096e-06 -1.2248535719140587e-05 0 -3.6557064979656224e-06 3.0610022798639401e-06 0 -1.4771944697399447e-06 3.4157173038660958e-06 0 -2.1605370072186078e-06 2.9350386636907041e-06 0 -9.7126828738431533e-07 2.6980994979994779e-06 0 -2.1605370072186078e-06 2.9350386636907041e-06 0 -1.4771944697399447e-06 3.4157173038660962e-06 0 -3.2983501840163663e-07 -3.5252909291096437e-06 0 -8.9223755879698038e-09 -4.4190102787819162e-06 0 -1.8456982494231464e-06 -4.2127368170793691e-06 0 -3.6354976268172375e-06 -4.648947852786853e-06 0 -1.8456982494231464e-06 -4.2127368170793691e-06 0 -8.9223755879698038e-09 -4.4190102787819162e-06 0 -3.693472342459991e-05 -7.1138746037301538e-05 0 -4.4023722488583102e-05 -8.7630350721555476e-05 0 -3.0170548644015636e-05 -8.0824054473797703e-05 0 -3.0128017066899604e-05 -9.5802514382973053e-05 0 -3.0170548644015636e-05 -8.0824054473797703e-05 0 -4.4023722488583102e-05 -8.7630350721555476e-05 0 9.1614767138015117e-07 -1.9653464482066417e-06 0 1.4141077272109079e-06 -1.2458909360787204e-06 0 3.0355565455117587e-06 -2.4829944380024053e-06 0 3.1328652674457388e-06 -1.4206132345656996e-06 0 3.0355565455117587e-06 -2.4829944380024053e-06 0 1.4141077272109079e-06 -1.2458909360787204e-06 0 1.7363026979021749e-06 2.507866090948611e-06 0 6.9462456305916307e-07 1.6480418959557847e-06 0 1.110921584585704e-06 2.8547649744945626e-06 0 2.5856695426145481e-07 1.8994119183426721e-06 0 1.110921584585704e-06 2.8547649744945626e-06 0 6.9462456305916307e-07 1.6480418959557847e-06 0 -8.0827957708429041e-06 0.00026510967889866106 0 1.3706244436692464e-05 0.00024484179062699723 0 2.1608730567488023e-05 0.00027987074343533135 0 -1.5153992768546026e-05 -0.00013476520319125157 0 -2.6814183758684987e-05 -0.00012457809448072064 0 -2.9457234126467118e-05 -0.00014308575099545112 0 -5.3943148301983448e-07 3.424684773145005e-06 0 -1.6752978764362221e-07 3.4549643339240325e-06 0 -1.4771944697399447e-06 3.4157173038660962e-06 0 3.1088829408766846e-06 -3.6889815294342488e-06 0 -8.9223755879698038e-09 -4.4190102787819162e-06 0 2.219818058817831e-06 -3.7177046633015764e-06 0 -1.9896597130579629e-07 -2.2090191249095917e-06 0 3.027799618439562e-06 -5.1297053714861938e-06 0 3.6643088171421791e-06 -1.5961082815756598e-06 0 -3.6557064979656224e-06 3.0610022798639401e-06 0 -2.7175401768619279e-06 3.2488355160142719e-06 0 -1.4771944697399447e-06 3.4157173038660962e-06 0 -3.6354976268172375e-06 -4.648947852786853e-06 0 -8.9223755879698038e-09 -4.4190102787819162e-06 0 -1.3950414131078645e-06 -4.5482370052538111e-06 0 9.3902757954219665e-06 -1.7768931567970763e-05 0 6.7544196034521743e-06 -1.3515673757821717e-05 0 7.7078141022680197e-06 -1.1922187622037752e-05 0 7.5449656838113228e-06 1.8058648504852378e-06 0 6.3438417540327715e-06 8.3062064839082966e-07 0 7.7405727620160997e-06 -4.4178029699119927e-07 0 -8.7413016165021452e-10 -1.4568623443292548e-09 0 -2.8414485276920709e-10 -9.5293071683789846e-10 0 -3.79235540327443e-07 -1.989602743897217e-06 0 -5.4375728038754815e-10 6.9084548565431982e-10 0 -8.6922279049947124e-10 9.7458276480002099e-10 0 -5.4955608137190107e-07 1.452322376562369e-06 0 1.8956949133286799e-05 1.1722585077881201e-05 0 1.4096264923915598e-05 5.8769896441584383e-06 0 1.9717172365066625e-05 7.2242539408098277e-06 0 3.1886470741887202e-05 -5.9850334507631628e-05 0 3.1724136991668229e-05 -6.5409700761502967e-05 0 3.6456658124176668e-05 -6.59594749991338e-05 0 -1.9896597130579629e-07 -2.2090191249095917e-06 0 -3.7402622008197823e-06 -9.684502699644595e-07 0 -5.272531831585159e-06 -4.3075277217972197e-06 0 4.1061634826631286e-06 -5.1312450182659481e-05 0 1.3940448884697307e-05 -6.0490724693413316e-05 0 1.2406708683189531e-05 -4.5448052742242922e-05 0 1.1457694657922058e-05 9.7952707368643948e-07 0 1.2084256918341029e-05 2.3631377516318342e-06 0 9.8291391707298553e-06 1.9893766543153434e-06 0 9.2510316167688649e-06 -2.7345461100609542e-06 0 9.8096171381963356e-06 -5.6055574370843258e-07 0 7.7405727620160997e-06 -4.4178029699119927e-07 0 -3.6556004498362536e-06 -3.0731372174470348e-06 0 -6.019389871245901e-06 -2.619163140927241e-06 0 -2.7535033222455023e-06 -1.566682332380685e-06 0 -2.9625604953553161e-06 1.8617165146081335e-06 0 -2.1271918977858105e-06 8.5656782553884525e-07 0 -4.5685463846255653e-06 1.3997375970595274e-06 0 2.0034543615029448e-06 -9.9204616919596216e-06 0 5.7841772843819541e-06 -1.3647242695819899e-05 0 6.6376287443464516e-06 -8.1409516048157375e-06 0 1.2383423138111475e-05 2.7993287316591947e-06 0 9.914206672571579e-06 2.5365508395532824e-06 0 1.2084256918341029e-05 2.3631377516318342e-06 0 4.4941838636672778e-06 7.2036163079463386e-07 0 1.9835993628499933e-06 6.3186374091467584e-07 0 3.6643088171421791e-06 -1.5961082815756598e-06 0 -1.6939753378042573e-05 -5.7249341528954233e-06 0 -1.6025762171707112e-05 -9.9668867320917938e-06 0 -1.0883132411056018e-05 -5.5330777185569456e-06 0 -0.00010603531161106629 0.0001744359162948205 0 -7.7436477031016314e-05 0.00015928738037022662 0 -7.4175764356372969e-05 0.00019062430476871991 0 2.0034543615029448e-06 -9.9204616919596216e-06 0 -1.9114998324680806e-06 -6.7243011108084262e-06 0 -4.4237224535015762e-06 -1.1886325873251599e-05 0 1.3177361802475111e-05 -1.0110301338969604e-05 0 1.1162288980805235e-05 -1.4674776070405277e-05 0 1.4541021762381746e-05 -1.4587139030476326e-05 0 -1.9896597130579629e-07 -2.2090191249095917e-06 0 -5.272531831585159e-06 -4.3075277217972197e-06 0 -1.9114998324680806e-06 -6.7243011108084262e-06 0 9.8291391707298553e-06 1.9893766543153434e-06 0 1.2084256918341029e-05 2.3631377516318342e-06 0 9.914206672571579e-06 2.5365508395532824e-06 0 9.6100398279112677e-06 -1.833100516467556e-05 0 6.8561997335479984e-06 -2.0154062063272263e-05 0 8.7112068381358592e-06 -2.4385589248517111e-05 0 1.8956949133286799e-05 1.1722585077881201e-05 0 2.7377370227571249e-05 1.4359528466401066e-05 0 2.3788453213238223e-05 2.0283964186268562e-05 0 -1.9896597130579629e-07 -2.2090191249095917e-06 0 -9.8152874694819741e-07 9.5143808878791831e-07 0 -3.7402622008197823e-06 -9.684502699644595e-07 0 -0.00011316073290188105 0.00024642224654592738 0 -0.00011011845698522723 0.00020983622874499018 0 -8.2745912623029781e-05 0.0002240417703401457 0 3.1905512154438366e-05 -0.00010219453872111998 0 1.9565762885716624e-05 -0.00011126274028667891 0 3.4979241693795543e-05 -0.00012072773663279541 0 2.5599283253146416e-05 -6.7746637917909168e-05 0 1.5120985157235848e-05 -7.8201214131674e-05 0 2.8880466952029999e-05 -8.4505067800778099e-05 0 -6.6310054307657442e-06 1.3297861686208032e-05 0 -2.2075534153435731e-05 1.653041044745697e-05 0 -1.5103457844978729e-05 8.2787204271551804e-06 0 4.3081823303614055e-05 -5.8776642087170526e-06 0 3.0319120441915724e-05 4.1743939484812306e-06 0 3.5294270099088201e-05 -1.293706263286811e-05 0 -1.6939753378042573e-05 -5.7249341528954233e-06 0 -1.9126609399641392e-05 -4.4006789649201755e-06 0 -2.3214228654397837e-05 -7.9108721601242019e-06 0 -2.4261899036057711e-05 9.3742791334812644e-06 0 -3.5155220392494109e-05 1.2421421254678982e-05 0 -2.8011310476517068e-05 6.2463611408189514e-06 0 -1.6939753378042573e-05 -5.7249341528954233e-06 0 -2.3214228654397837e-05 -7.9108721601242019e-06 0 -2.3450491931744445e-05 -1.1127468008238656e-05 0 -2.4261899036057711e-05 9.3742791334812644e-06 0 -3.5157038073357688e-05 1.8509829675317271e-05 0 -3.5155220392494109e-05 1.2421421254678982e-05 0 -2.9625604953553161e-06 1.8617165146081335e-06 0 -1.3555384541908373e-06 1.2443699689760069e-06 0 -2.1271918977858105e-06 8.5656782553884525e-07 0 -3.6556004498362536e-06 -3.0731372174470348e-06 0 -2.7535033222455023e-06 -1.566682332380685e-06 0 -1.6450789619152849e-06 -1.9873116548980698e-06 0 9.2510316167688649e-06 -2.7345461100609542e-06 0 7.8617201876608925e-06 -5.3255740761684298e-06 0 9.9076727820277325e-06 -4.8190127400251984e-06 0 8.5627782511843292e-06 -8.1989989181321916e-06 0 9.9076727820277325e-06 -4.8190127400251984e-06 0 7.8617201876608925e-06 -5.3255740761684298e-06 0 6.6784307301109975e-06 -4.7121001063144579e-05 0 1.1038859824259136e-05 -4.9089271024922987e-05 0 1.1095212744506869e-05 -4.2447432718103308e-05 0 5.4875268816309123e-05 -3.9044649804473116e-05 0 4.8559718408903622e-05 -3.9325592304617761e-05 0 5.2858550646351115e-05 -4.4604053545154017e-05 0 4.3974510161337162e-05 -1.7168751526949215e-05 0 3.5294270099088201e-05 -1.293706263286811e-05 0 3.9382136343629437e-05 -2.2079520819650689e-05 0 5.0905626009202715e-05 -3.4171814951746293e-05 0 4.5627850696170451e-05 -3.3864875690174853e-05 0 4.8559718408903622e-05 -3.9325592304617761e-05 0 4.6900282532220665e-06 -3.9895708615644553e-05 0 1.1095212744506869e-05 -4.2447432718103308e-05 0 8.2882626375674551e-06 -3.561048078096687e-05 0 -1.9896597130579629e-07 -2.2090191249095917e-06 0 3.6643088171421795e-06 -1.5961082815756596e-06 0 1.9835993628499933e-06 6.3186374091467595e-07 0 5.9757566809939796e-06 -3.4673650861174807e-06 0 6.6376287443464516e-06 -8.1409516048157375e-06 0 7.8617201876608925e-06 -5.3255740761684298e-06 0 8.5627782511843292e-06 -8.1989989181321916e-06 0 7.8617201876608925e-06 -5.3255740761684298e-06 0 6.6376287443464516e-06 -8.1409516048157375e-06 0 1.1457694657922058e-05 9.7952707368643948e-07 0 1.0991564487169446e-05 -1.5669023375615465e-06 0 1.3247530968194333e-05 3.1345369958588116e-07 0 -0.00010603531161106629 0.0001744359162948205 0 -0.00010016384143644111 0.0001405220287123924 0 -7.7436477031016314e-05 0.00015928738037022662 0 1.4735421428246499e-05 -4.1952009561367244e-06 0 1.3235192371443034e-05 -3.3934489518159377e-06 0 1.1674591147113824e-05 -6.5899370856985192e-06 0 9.9207219024007455e-06 2.8532337769884111e-05 0 1.383285403296165e-05 1.6632005849148544e-05 0 2.3788453213238223e-05 2.0283964186268562e-05 0 1.8956949133286799e-05 1.1722585077881201e-05 0 2.3788453213238223e-05 2.0283964186268562e-05 0 1.3832854032961649e-05 1.6632005849148544e-05 0 2.186710091599468e-05 -5.1871778175700973e-05 0 1.3940448884697307e-05 -6.0490724693413316e-05 0 2.5599283253146416e-05 -6.7746637917909168e-05 0 -5.0602051513277619e-05 2.2599327743766142e-05 0 -3.5155220392494109e-05 1.2421421254678982e-05 0 -3.5157038073357688e-05 1.8509829675317271e-05 0 -3.1500898727714719e-05 -1.342769121500843e-05 0 -2.3450491931744445e-05 -1.1127468008238655e-05 0 -2.3214228654397837e-05 -7.9108721601242019e-06 0 1.1837535099464904e-05 -3.1336166084385226e-06 0 1.1674591147113824e-05 -6.5899370856985184e-06 0 1.3235192371443034e-05 -3.3934489518159382e-06 0 -3.8519995888405076e-05 0.00018987347934479486 0 -7.4175764356372969e-05 0.00019062430476871991 0 -5.4577879565497858e-05 0.00016524366942846628 0 -3.8519995888405076e-05 0.00018987347934479486 0 -5.821945191041897e-05 0.00021358339950318148 0 -7.4175764356372969e-05 0.00019062430476871991 0 -1.4517285730611664e-06 -9.5139169916845173e-05 0 7.7837438541448449e-06 -0.00010663679092532422 0 1.442147004458595e-05 -9.4564088627284559e-05 0 -1.4517285730611664e-06 -9.5139169916845173e-05 0 1.442147004458595e-05 -9.4564088627284546e-05 0 5.5331189178000026e-06 -8.3720187689136536e-05 0 3.4979241693795543e-05 -0.00012072773663279541 0 2.3083420642659857e-05 -0.00012807410340703906 0 3.8161360659171706e-05 -0.00014019646382665532 0 -0.00011506898377779195 0.00028393981873372327 0 -0.00011316073290188105 0.00024642224654592738 0 -8.712292650133317e-05 0.00025687384800940973 0 6.3551882741994231e-07 3.3270780995866217e-06 0 -6.5744808823415434e-08 3.0077801540408579e-06 0 -1.6752978764362242e-07 3.4549643339240325e-06 0 2.715600006004054e-06 -3.2357413597285203e-06 0 2.219818058817831e-06 -3.7177046633015764e-06 0 1.1568873474926986e-06 -3.3239898113425192e-06 0 -1.4517285730611664e-06 -9.5139169916845173e-05 0 -1.2452352301419703e-05 -9.5828502522117253e-05 0 -3.2555678454494017e-06 -0.00011049907363899411 0 -1.4517285730611664e-06 -9.5139169916845173e-05 0 -4.8425872838899425e-06 -8.1291408103893877e-05 0 -1.2452352301419703e-05 -9.5828502522117253e-05 0 -1.7806003334535653e-05 -0.00011294552086126996 0 -3.2555678454494017e-06 -0.00011049907363899411 0 -1.2452352301419703e-05 -9.5828502522117253e-05 0 -1.7485827598045165e-05 -8.0524241856549548e-05 0 -1.2452352301419703e-05 -9.5828502522117253e-05 0 -4.8425872838899425e-06 -8.1291408103893877e-05 0 -3.8519995888405076e-05 0.00018987347934479486 0 -1.4021659956398654e-05 0.00019251243193866378 0 -3.5159129701546886e-05 0.00022182508915312939 0 -5.6792763199553043e-06 0.00022174403305609758 0 -3.5159129701546886e-05 0.00022182508915312939 0 -1.4021659956398654e-05 0.00019251243193866378 0 -5.4375728038754815e-10 6.9084548565431982e-10 0 -5.4955608137190107e-07 1.452322376562369e-06 0 -2.1829559876776806e-07 1.7390793046717834e-06 0 -2.8414485276920709e-10 -9.5293071683789846e-10 0 2.0985136793089511e-07 -2.1325067070725088e-06 0 -3.79235540327443e-07 -1.989602743897217e-06 0 -3.2951466884678959e-05 -3.3777824686235302e-05 0 -2.3206657412881109e-05 -2.3119110357887274e-05 0 -3.167435926271451e-05 -2.2965463175760991e-05 0 -5.1086549617621968e-05 6.2655733631120103e-05 0 -4.9915910312475457e-05 4.2045355882413872e-05 0 -3.5534853428232966e-05 4.0959015077700073e-05 0 -9.7315628470355743e-06 1.2276332020007804e-07 0 -1.4283110888973019e-05 -2.4136102715427412e-06 0 -1.1329620062830336e-05 -2.5385863417813358e-06 0 8.1879338851422507e-06 2.6099300853797951e-06 0 7.6013434000530152e-06 2.563907063907282e-06 0 9.914206672571579e-06 2.5365508395532824e-06 0 4.2521830821892466e-05 -6.3888552709438637e-05 0 4.5988877628276958e-05 -5.9764293226852534e-05 0 3.719495718218123e-05 -5.9298816764764878e-05 0 -1.0877568539551922e-05 -3.4991378833912487e-06 0 -1.28343401298768e-05 -2.3127580209966862e-06 0 -1.6792910789509155e-05 -1.6537946133321011e-06 0 -2.1286534230943702e-05 8.9979321211019252e-07 0 -1.6792910789509155e-05 -1.6537946133321011e-06 0 -1.2834340129876801e-05 -2.3127580209966862e-06 0 7.1344661628054342e-06 -2.723655045142977e-07 0 4.9180237833512025e-06 -1.3456235602847824e-06 0 4.256460447631115e-06 -6.8686887687759528e-07 0 4.5414996232398872e-05 -2.4081615686588167e-05 0 4.1199563752932266e-05 -2.8874742705867752e-05 0 4.7871979704354714e-05 -2.937465846043948e-05 0 -3.1500898727714719e-05 -1.342769121500843e-05 0 -2.9402608671804105e-05 -1.6708150088573697e-05 0 -2.3450491931744445e-05 -1.1127468008238656e-05 0 -5.0602051513277619e-05 2.2599327743766142e-05 0 -3.5157038073357681e-05 1.8509829675317271e-05 0 -4.6289147681122475e-05 2.8811626678721641e-05 0 5.9740584912501623e-06 -1.4488302697259897e-05 0 7.5041513156808271e-06 -1.462839135296904e-05 0 6.7544196034521743e-06 -1.3515673757821717e-05 0 -3.6354976268172375e-06 -4.648947852786853e-06 0 -1.3950414131078645e-06 -4.5482370052538111e-06 0 -6.1234193949413979e-06 -4.3259670441205481e-06 0 -1.6119474375761842e-06 -3.64960668181191e-06 0 -6.1234193949413979e-06 -4.3259670441205481e-06 0 -1.3950414131078645e-06 -4.5482370052538111e-06 0 8.8848843765970925e-06 6.9891098610573427e-05 0 8.9854021659749431e-06 4.5958678459243948e-05 0 2.1483620634114438e-05 4.1823010580467684e-05 0 -1.6374992238995208e-05 -9.8910316398290161e-07 0 -1.2907939755600728e-05 -2.6162425571527973e-06 0 -1.6792910789509155e-05 -1.6537946133321011e-06 0 -1.1650235662367479e-05 5.6147925572254712e-08 0 -1.1800468015159405e-05 5.1677286344119257e-07 0 -9.3457830871863071e-06 1.223404870533061e-06 0 2.6510207200242022e-05 -4.1519261984283239e-05 0 2.3832529687670148e-05 -3.6151787733509193e-05 0 2.1734234946154795e-05 -4.1323692110717354e-05 0 1.9259901308856491e-05 -3.5134649146341755e-05 0 2.1734234946154795e-05 -4.1323692110717354e-05 0 2.3832529687670148e-05 -3.6151787733509193e-05 0 1.1457694657922058e-05 9.7952707368643948e-07 0 1.3511283595094826e-05 2.1022206457970989e-06 0 1.2084256918341029e-05 2.3631377516318342e-06 0 6.626637615965665e-06 3.3700174476352605e-06 0 4.452942011734183e-06 -6.2312088185487886e-07 0 9.7104807092108272e-06 1.2322339988353036e-06 0 1.3510987113284945e-05 2.3022152549788756e-06 0 1.201901925399485e-05 2.4109997252864721e-06 0 1.4468317805661889e-05 3.2882691423844213e-06 0 9.9207219024007455e-06 2.8532337769884111e-05 0 2.1483620634114438e-05 4.1823010580467684e-05 0 8.9854021659749448e-06 4.5958678459243941e-05 0 -1.6939753378042573e-05 -5.7249341528954233e-06 0 -1.0883132411056018e-05 -5.5330777185569456e-06 0 -1.1329620062830336e-05 -2.5385863417813358e-06 0 4.4941838636672778e-06 7.2036163079463386e-07 0 5.3875771531704081e-06 2.0450662245560822e-06 0 3.0367445582419056e-06 2.4124400778585022e-06 0 6.5691864975256939e-05 0.00010555981796298536 0 7.3211744541797072e-05 0.00013759813589230902 0 4.9593829269009721e-05 0.00012651930330101317 0 -6.2626050367344769e-05 -8.8385783188210792e-05 0 -4.4023722488583102e-05 -8.7630350721555476e-05 0 -4.858223804045914e-05 -7.5126686199138539e-05 0 -5.0602051513277619e-05 2.2599327743766142e-05 0 -3.9990785611724751e-05 1.2549429397126683e-05 0 -3.5155220392494109e-05 1.2421421254678982e-05 0 -2.5722305020285893e-05 -8.0158921920944385e-06 0 -3.1500898727714719e-05 -1.342769121500843e-05 0 -2.3214228654397837e-05 -7.9108721601242019e-06 0 1.4903353372099781e-05 -2.6079128183342766e-08 0 1.7069115028764883e-05 -7.2592176831291704e-07 0 1.7944392686192926e-05 3.4138855061313466e-06 0 -3.6354976268172375e-06 -4.648947852786853e-06 0 -6.1234193949413979e-06 -4.3259670441205481e-06 0 -7.0491434980164452e-06 -4.2524882060254992e-06 0 -1.0877568539551922e-05 -3.4991378833912487e-06 0 -7.0491434980164452e-06 -4.2524882060254992e-06 0 -6.1234193949413979e-06 -4.3259670441205481e-06 0 2.0038418687630532e-05 6.5426034726634544e-06 0 2.3408653139050683e-05 9.7948208278125613e-06 0 1.9717172365066625e-05 7.2242539408098277e-06 0 -4.7016628226476765e-05 -0.00010663776252852172 0 -4.4023722488583102e-05 -8.7630350721555476e-05 0 -5.4790774036864703e-05 -9.7398459208374564e-05 0 1.0784245564701403e-05 -3.2668339284676139e-05 0 1.4568470330847362e-05 -3.3887751727874951e-05 0 1.1782952831851841e-05 -2.7679432858794148e-05 0 9.1900140653780572e-05 0.00023938638929713439 0 9.7945016284426063e-05 0.0002757159166615842 0 6.9194701911308578e-05 0.00025582576946404554 0 -6.7915945655912425e-05 -0.00012545927714116605 0 -6.930440797669595e-05 -0.00014498202973788941 0 -5.4997371725681305e-05 -0.00013223945616839598 0 -6.6310054307657442e-06 1.3297861686208032e-05 0 1.0536771572345974e-06 6.3198121174818896e-06 0 8.256984579443276e-06 9.9639817427256674e-06 0 2.0034543615029448e-06 -9.9204616919596216e-06 0 -3.6496318384746066e-07 -1.6195923083122113e-05 0 5.7841772843819549e-06 -1.3647242695819897e-05 0 -8.5126527154711777e-06 -8.7359123934011997e-06 0 -4.4237224535015762e-06 -1.1886325873251599e-05 0 -1.9114998324680806e-06 -6.7243011108084262e-06 0 -0.00011316073290188105 0.00024642224654592738 0 -8.2745912623029781e-05 0.0002240417703401457 0 -8.712292650133317e-05 0.00025687384800940973 0 3.4979241693795543e-05 -0.00012072773663279541 0 1.9565762885716624e-05 -0.00011126274028667891 0 2.3083420642659857e-05 -0.00012807410340703906 0 8.0700612380191769e-07 2.0687948455074789e-06 0 1.098997433676343e-06 3.0876907446472246e-06 0 -1.3637885497949155e-06 2.7618813693694773e-06 0 1.8956949133286799e-05 1.1722585077881201e-05 0 1.3832854032961649e-05 1.6632005849148544e-05 0 8.256984579443276e-06 9.9639817427256674e-06 0 -1.6939753378042573e-05 -5.7249341528954233e-06 0 -1.4283110888973017e-05 -2.4136102715427412e-06 0 -1.9126609399641392e-05 -4.4006789649201755e-06 0 4.3472386855903931e-06 -1.899341082944313e-05 0 3.4454697630254982e-06 -2.5256548803309089e-05 0 6.8561997335479984e-06 -2.0154062063272263e-05 0 -3.7509315470954591e-06 2.6322027720447452e-06 0 -5.0768759423929121e-06 2.8028565996072575e-06 0 -7.1754272139289346e-06 1.8863843110027359e-06 0 -5.8888428335931797e-05 -7.1489840347155217e-05 0 -6.2626050367344769e-05 -8.8385783188210792e-05 0 -4.858223804045914e-05 -7.5126686199138539e-05 0 -1.4254365236750709e-05 -9.9454904287092075e-07 0 -1.030480613600867e-05 8.9831898546810226e-07 0 -1.1800468015159405e-05 5.1677286344119257e-07 0 -8.3200492485051305e-06 1.9157044349741251e-06 0 -1.1800468015159405e-05 5.1677286344119257e-07 0 -1.030480613600867e-05 8.9831898546810226e-07 0 -5.378216733165114e-05 0.00014142997242508004 0 -3.0133817115467466e-05 0.00014689585866564572 0 -5.4577879565497858e-05 0.00016524366942846628 0 9.1614767138015117e-07 -1.9653464482066417e-06 0 1.1568873474926986e-06 -3.3239898113425192e-06 0 2.0985136793089511e-07 -2.1325067070725088e-06 0 -3.2983501840163663e-07 -3.5252909291096437e-06 0 2.0985136793089511e-07 -2.1325067070725088e-06 0 1.1568873474926986e-06 -3.3239898113425192e-06 0 -9.7126828738431533e-07 2.6980994979994779e-06 0 -6.5744808823415421e-08 3.0077801540408579e-06 0 -2.1829559876776806e-07 1.7390793046717834e-06 0 2.5856695426145481e-07 1.8994119183426721e-06 0 -2.1829559876776806e-07 1.7390793046717834e-06 0 -6.5744808823415421e-08 3.0077801540408579e-06 0 5.9757566809939796e-06 -3.4673650861174807e-06 0 3.6643088171421795e-06 -1.5961082815756598e-06 0 3.027799618439562e-06 -5.1297053714861938e-06 0 1.9416455031520203e-05 -6.0840836574997471e-06 0 1.6468839031975057e-05 -7.9628863104558131e-06 0 2.0397492096196242e-05 -1.2965399269445036e-05 0 1.7188606432157782e-05 -1.3709289059736703e-05 0 2.0397492096196242e-05 -1.2965399269445036e-05 0 1.6468839031975057e-05 -7.9628863104558131e-06 0 3.4454697630254982e-06 -2.5256548803309089e-05 0 3.58140894001958e-06 -3.2542251075296365e-05 0 7.3704288482870622e-06 -2.9539562593993588e-05 0 1.7188606432157782e-05 -1.3709289059736703e-05 0 1.3177361802475111e-05 -1.0110301338969604e-05 0 1.4541021762381746e-05 -1.4587139030476326e-05 0 4.8559718408903622e-05 -3.9325592304617761e-05 0 4.5627850696170451e-05 -3.3864875690174853e-05 0 4.1713199706007087e-05 -3.809975127998564e-05 0 1.1095212744506869e-05 -4.2447432718103308e-05 0 1.2272795599858305e-05 -3.7190316219923396e-05 0 8.2882626375674551e-06 -3.561048078096687e-05 0 -3.1500898727714719e-05 -1.342769121500843e-05 0 -3.7548536598858839e-05 -2.0958143166347933e-05 0 -2.9402608671804105e-05 -1.6708150088573697e-05 0 -6.2068020937024578e-05 3.7390386240169594e-05 0 -5.0602051513277619e-05 2.2599327743766142e-05 0 -4.6289147681122475e-05 2.8811626678721641e-05 0 3.5294270099088201e-05 -1.293706263286811e-05 0 3.1113595776601764e-05 -1.7625831745618609e-05 0 3.9382136343629437e-05 -2.2079520819650689e-05 0 4.8559718408903622e-05 -3.9325592304617761e-05 0 4.5124622241182615e-05 -4.3678901448595861e-05 0 5.2858550646351115e-05 -4.4604053545154017e-05 0 -8.5126527154711777e-06 -8.7359123934011997e-06 0 -1.0883132411056018e-05 -5.5330777185569456e-06 0 -1.6025762171707112e-05 -9.9668867320917938e-06 0 2.4928458704301918e-06 1.7099553130313084e-06 0 1.0896446915264978e-06 7.1121812616007754e-07 0 1.0303127836110085e-06 9.5062440899227144e-07 0 7.094345610482548e-06 -1.1380872633782657e-06 0 4.4529420117341838e-06 -6.2312088185487854e-07 0 2.666522354059279e-06 -3.1227195652723591e-06 0 9.6413816376247291e-06 -6.7321794344783579e-07 0 7.0519428826893752e-06 -2.0117075478918216e-06 0 6.2376668708509487e-06 -2.3511987210934328e-06 0 2.573979331241922e-05 4.5818016796346426e-06 0 2.2532759243747097e-05 -7.1052554517032428e-07 0 2.6789243352774964e-05 -5.9110273444139441e-06 0 -6.5297505912750966e-06 1.8922377371463885e-06 0 -4.5710548119930723e-06 2.3831885040152145e-06 0 -4.5685463846255653e-06 1.3997375970595274e-06 0 -2.9625604953553161e-06 1.8617165146081335e-06 0 -4.5685463846255653e-06 1.3997375970595274e-06 0 -4.5710548119930723e-06 2.3831885040152145e-06 0 -3.6556004498362536e-06 -3.0731372174470348e-06 0 -5.6446851197627475e-06 -3.9748183478153296e-06 0 -6.019389871245901e-06 -2.619163140927241e-06 0 -8.6073748893161278e-06 -3.4646731045542783e-06 0 -6.019389871245901e-06 -2.619163140927241e-06 0 -5.6446851197627475e-06 -3.9748183478153296e-06 0 -4.9022751580382198e-05 -4.2263219564215976e-05 0 -5.4462312908776535e-05 -5.6057077635424723e-05 0 -4.2088117028519912e-05 -4.7451465895515936e-05 0 8.8848843765970925e-06 6.9891098610573427e-05 0 -4.8920819679188068e-06 4.872244048415652e-05 0 8.9854021659749448e-06 4.5958678459243941e-05 0 2.5599283253146416e-05 -6.7746637917909168e-05 0 1.3940448884697307e-05 -6.0490724693413316e-05 0 1.5120985157235848e-05 -7.8201214131674e-05 0 4.0820132571743268e-05 -5.3750558566377991e-05 0 3.303612600904011e-05 -5.3605846809365494e-05 0 3.719495718218123e-05 -5.9298816764764878e-05 0 -5.3943148301983448e-07 3.424684773145005e-06 0 -1.3637885497949155e-06 2.7618813693694773e-06 0 1.098997433676343e-06 3.0876907446472246e-06 0 1.1837535099464904e-05 -3.1336166084385226e-06 0 1.3247530968194333e-05 3.1345369958588116e-07 0 1.0991564487169446e-05 -1.5669023375615465e-06 0 -9.7315628470355743e-06 1.2276332020007804e-07 0 -7.1754272139289346e-06 1.8863843110027359e-06 0 -1.030480613600867e-05 8.9831898546810226e-07 0 2.8251888446099263e-05 0.00013627154753860732 0 5.4936204497022415e-05 0.00014777534712451186 0 4.4681507911505546e-05 0.00016648290656554862 0 1.2789177280657926e-09 5.016616819633491e-10 0 1.201216853556427e-06 1.5515383268461351e-06 0 1.0303127836110085e-06 9.5062440899227144e-07 0 1.9259901308856491e-05 -3.5134649146341755e-05 0 2.3832529687670148e-05 -3.6151787733509193e-05 0 2.1016456881827855e-05 -2.9870204310520661e-05 0 3.5294270099088201e-05 -1.293706263286811e-05 0 3.0319120441915724e-05 4.1743939484812306e-06 0 2.6789243352774964e-05 -5.9110273444139441e-06 0 -9.2848944613615887e-05 0.00010921974668991632 0 -8.3268022642083944e-05 8.0869459302652621e-05 0 -6.8449041903102537e-05 9.1855473094626077e-05 0 2.5640242839425902e-06 1.0052651833486652e-06 0 3.4599266538274052e-06 5.7123053438483909e-07 0 1.6701469752585224e-06 2.951523129613759e-07 0 -9.7126828738431533e-07 2.6980994979994779e-06 0 -2.1829559876776806e-07 1.7390793046717834e-06 0 -5.4955608137190107e-07 1.452322376562369e-06 0 -3.2983501840163663e-07 -3.5252909291096437e-06 0 -3.79235540327443e-07 -1.989602743897217e-06 0 2.0985136793089511e-07 -2.1325067070725088e-06 0 1.2383423138111475e-05 2.7993287316591947e-06 0 1.0187864908687098e-05 2.5187911151991213e-06 0 9.914206672571579e-06 2.5365508395532824e-06 0 -2.2906358676307327e-05 -1.6167215733213841e-05 0 -2.3450491931744445e-05 -1.1127468008238656e-05 0 -2.9402608671804105e-05 -1.6708150088573697e-05 0 -3.3283096637429476e-05 2.8062242711922643e-05 0 -4.6289147681122475e-05 2.8811626678721641e-05 0 -3.5157038073357688e-05 1.8509829675317271e-05 0 4.1250796269425728e-05 0.00024515343543996497 0 5.1046733014374655e-05 0.00021315095988529023 0 6.7945133336534672e-05 0.00023182792826608747 0 -4.080744683164899e-05 -0.00012526858485193979 0 -4.7016628226476765e-05 -0.00010663776252852172 0 -5.5473714477126011e-05 -0.00011882669895696204 0 4.5414996232398872e-05 -2.4081615686588167e-05 0 3.9382136343629437e-05 -2.2079520819650689e-05 0 4.1199563752932266e-05 -2.8874742705867752e-05 0 6.626637615965665e-06 3.3700174476352605e-06 0 8.2569845794432743e-06 9.9639817427256674e-06 0 1.0536771572345974e-06 6.3198121174818896e-06 0 3.4954708719983177e-05 -2.4563193883956106e-05 0 4.1199563752932266e-05 -2.8874742705867752e-05 0 3.9382136343629437e-05 -2.2079520819650689e-05 0 8.1879338851422507e-06 2.6099300853797951e-06 0 6.4440175291017854e-06 2.7553822287290182e-06 0 7.6013434000530152e-06 2.563907063907282e-06 0 3.1616723542928528e-06 -2.1955904534996499e-08 0 1.8263008287426243e-06 -6.4033669355995204e-07 0 1.2742042689972604e-06 -1.1709401267371114e-07 0 8.0700612380191769e-07 2.0687948455074789e-06 0 3.0367445582419056e-06 2.4124400778585018e-06 0 1.098997433676343e-06 3.0876907446472246e-06 0 2.0382881788581232e-05 4.0285787812040213e-06 0 2.2532759243747097e-05 -7.1052554517032428e-07 0 2.4260312756533238e-05 8.4918949942410777e-06 0 2.573979331241922e-05 4.5818016796346426e-06 0 2.4260312756533238e-05 8.4918949942410777e-06 0 2.2532759243747097e-05 -7.1052554517032428e-07 0 -3.0128017066899604e-05 -9.5802514382973053e-05 0 -4.7016628226476765e-05 -0.00010663776252852172 0 -3.2685650544857055e-05 -0.00011236011032928736 0 -4.080744683164899e-05 -0.00012526858485193979 0 -3.2685650544857055e-05 -0.00011236011032928736 0 -4.7016628226476765e-05 -0.00010663776252852172 0 2.2070484896794176e-05 0.00018980528267925609 0 5.1046733014374655e-05 0.00021315095988529023 0 2.4380097204252941e-05 0.00022304548516594291 0 4.1250796269425728e-05 0.00024515343543996497 0 2.4380097204252941e-05 0.00022304548516594291 0 5.1046733014374655e-05 0.00021315095988529023 0 2.2070484896794176e-05 0.00018980528267925609 0 1.6711800084308311e-05 0.00015840910166936464 0 4.4681507911505546e-05 0.00016648290656554862 0 2.8251888446099263e-05 0.00013627154753860732 0 4.4681507911505546e-05 0.00016648290656554862 0 1.6711800084308311e-05 0.00015840910166936464 0 1.6253638735439672e-09 3.5347816904452457e-10 0 1.5087999521290291e-09 4.2318125437292403e-10 0 1.0896446915264978e-06 7.1121812616007754e-07 0 4.7871979704354714e-05 -2.937465846043948e-05 0 4.1199563752932266e-05 -2.8874742705867752e-05 0 4.5627850696170451e-05 -3.3864875690174853e-05 0 4.0033780898719312e-05 -3.3856592666495093e-05 0 4.5627850696170451e-05 -3.3864875690174853e-05 0 4.1199563752932266e-05 -2.8874742705867752e-05 0 -3.693472342459991e-05 -7.1138746037301538e-05 0 -4.2552428434947941e-05 -6.0541587862961179e-05 0 -4.858223804045914e-05 -7.5126686199138539e-05 0 -5.4462312908776535e-05 -5.6057077635424723e-05 0 -4.2552428434947941e-05 -6.0541587862961179e-05 0 -4.2088117028519912e-05 -4.7451465895515936e-05 0 -9.2848944613615887e-05 0.00010921974668991632 0 -6.8449041903102537e-05 9.1855473094626077e-05 0 -6.8031998452919437e-05 0.00011961742821873525 0 1.6716951538234993e-05 4.3938652491939324e-06 0 1.8895724871055501e-05 5.796623765049821e-06 0 1.674020042232013e-05 4.1414629243167478e-06 0 2.0038418687630532e-05 6.5426034726634544e-06 0 1.674020042232013e-05 4.1414629243167478e-06 0 1.8895724871055501e-05 5.796623765049821e-06 0 5.9449226587219485e-06 2.3040777734304552e-06 0 7.9000468205937843e-06 2.3258910838724007e-06 0 7.0933525428723335e-06 1.7567218648085545e-06 0 2.4928458704301918e-06 1.7099553130313084e-06 0 1.0303127836110083e-06 9.5062440899227123e-07 0 1.201216853556427e-06 1.5515383268461351e-06 0 -1.0877568539551922e-05 -3.4991378833912487e-06 0 -1.6792910789509155e-05 -1.6537946133321011e-06 0 -1.2907939755600728e-05 -2.6162425571527973e-06 0 -8.3200492485051305e-06 1.9157044349741251e-06 0 -9.3457830871863071e-06 1.223404870533061e-06 0 -1.1800468015159405e-05 5.1677286344119257e-07 0 -8.3200492485051305e-06 1.9157044349741251e-06 0 -1.030480613600867e-05 8.9831898546810237e-07 0 -7.1754272139289346e-06 1.8863843110027359e-06 0 8.5943919213915109e-05 0.00020451232838981315 0 6.7945133336534672e-05 0.00023182792826608747 0 5.1046733014374655e-05 0.00021315095988529023 0 -6.5704590160599148e-05 -0.00010641665082681921 0 -5.5473714477126011e-05 -0.00011882669895696206 0 -4.7016628226476765e-05 -0.00010663776252852172 0 1.7839268085165065e-09 2.0962986793751015e-11 0 1.2742042689972604e-06 -1.1709401267371121e-07 0 1.8263008287426243e-06 -6.4033669355995204e-07 0 9.6413816376247291e-06 -6.7321794344783579e-07 0 1.0673363042416768e-05 1.0655452854239073e-07 0 7.0519428826893752e-06 -2.0117075478918216e-06 0 -1.622005104733396e-05 -6.0133722691131306e-05 0 -2.3338750477082835e-05 -4.8836046054598013e-05 0 -2.7354413387256612e-05 -5.9500293739094757e-05 0 -8.0475154456410244e-07 -1.9995846948392636e-06 0 4.4529420117341847e-06 -6.2312088185487843e-07 0 1.1966412663410346e-07 1.1391154980282749e-06 0 2.0034543615029448e-06 -9.9204616919596216e-06 0 -4.4237224535015762e-06 -1.1886325873251599e-05 0 -3.6496318384746066e-07 -1.6195923083122113e-05 0 1.3904938064751253e-05 1.9095193887544905e-06 0 1.674020042232013e-05 4.1414629243167478e-06 0 1.6989540757717944e-05 4.2612409477564855e-06 0 -1.7790807820321799e-05 0.0001129665073036144 0 -4.1371802355819901e-05 0.00011710638407000833 0 -3.1130071691569051e-05 9.4400189700779855e-05 0 -2.2906358676307327e-05 -1.6167215733213841e-05 0 -3.167435926271451e-05 -2.2965463175760991e-05 0 -2.3206657412881109e-05 -2.3119110357887274e-05 0 -3.3283096637429476e-05 2.8062242711922643e-05 0 -3.5534853428232966e-05 4.0959015077700073e-05 0 -4.9915910312475457e-05 4.2045355882413872e-05 0 3.1886470741887202e-05 -5.9850334507631628e-05 0 3.6456658124176668e-05 -6.59594749991338e-05 0 3.719495718218123e-05 -5.9298816764764878e-05 0 4.2521830821892466e-05 -6.3888552709438637e-05 0 3.719495718218123e-05 -5.9298816764764878e-05 0 3.6456658124176668e-05 -6.59594749991338e-05 0 -9.7315628470355743e-06 1.2276332020007804e-07 0 -5.9625282011208049e-06 1.3766824226806381e-06 0 -7.1754272139289346e-06 1.8863843110027359e-06 0 -3.7509315470954591e-06 2.6322027720447452e-06 0 -7.1754272139289346e-06 1.8863843110027359e-06 0 -5.9625282011208049e-06 1.3766824226806381e-06 0 4.4941838636672778e-06 7.2036163079463386e-07 0 3.6643088171421791e-06 -1.5961082815756598e-06 0 5.7730648451120185e-06 -8.2598886244108209e-07 0 -1.4254365236750709e-05 -9.9454904287092075e-07 0 -1.9126609399641392e-05 -4.4006789649201755e-06 0 -1.4283110888973017e-05 -2.4136102715427412e-06 0 -1.0317549366130943e-05 -1.0820163289744764e-06 0 -1.2834340129876801e-05 -2.3127580209966862e-06 0 -6.2042127313103651e-06 -2.9827460391300789e-06 0 2.9918258946677625e-05 -6.8028349431965994e-05 0 3.5948101061123149e-05 -7.1593722204032922e-05 0 3.1724136991668229e-05 -6.5409700761502967e-05 0 -1.7790807820321799e-05 0.0001129665073036144 0 -3.0133817115467466e-05 0.00014689585866564572 0 -4.1371802355819901e-05 0.00011710638407000833 0 1.5087999521290291e-09 4.2318125437292403e-10 0 1.2789177280657926e-09 5.016616819633491e-10 0 1.0303127836110085e-06 9.5062440899227144e-07 0 7.9804476036784614e-05 0.00017054851261614329 0 4.4681507911505546e-05 0.00016648290656554862 0 5.4936204497022415e-05 0.00014777534712451186 0 2.6115737835393338e-05 1.153803659276922e-05 0 2.7377370227571249e-05 1.4359528466401066e-05 0 2.3408653139050683e-05 9.7948208278125613e-06 0 -3.3283096637429476e-05 2.8062242711922643e-05 0 -2.0733228010751359e-05 2.6832866073342539e-05 0 -3.5534853428232966e-05 4.0959015077700073e-05 0 2.6115737835393338e-05 1.153803659276922e-05 0 2.2087671451710829e-05 8.2381306454796214e-06 0 2.2786433449200701e-05 8.1189387882891016e-06 0 2.6115737835393338e-05 1.153803659276922e-05 0 2.340865313905068e-05 9.7948208278125596e-06 0 2.2087671451710829e-05 8.2381306454796214e-06 0 -3.5714357389753848e-06 1.3793696840088303e-06 0 -6.900899549520153e-06 -2.8434519818748108e-07 0 -3.7402622008197823e-06 -9.684502699644595e-07 0 2.9268608000758806e-06 3.2118569373231749e-06 0 1.098997433676343e-06 3.0876907446472246e-06 0 3.0367445582419056e-06 2.4124400778585022e-06 0 -4.8209425647708729e-05 9.1902977443498253e-05 0 -6.8031998452919437e-05 0.00011961742821873525 0 -6.8449041903102537e-05 9.1855473094626077e-05 0 8.5627782511843292e-06 -8.1989989181321916e-06 0 9.7291893777934944e-06 -7.6063107761554124e-06 0 9.9076727820277325e-06 -4.8190127400251984e-06 0 2.0382881788581232e-05 4.0285787812040213e-06 0 2.4260312756533238e-05 8.4918949942410777e-06 0 2.2786433449200701e-05 8.1189387882891016e-06 0 1.5828986320765169e-05 -2.8575947185032847e-05 0 1.6947098854544365e-05 -2.3824591681082426e-05 0 1.259811643459966e-05 -2.1947507411613189e-05 0 -2.2906358676307327e-05 -1.6167215733213841e-05 0 -2.9402608671804105e-05 -1.6708150088573697e-05 0 -3.167435926271451e-05 -2.2965463175760991e-05 0 -3.3283096637429476e-05 2.8062242711922643e-05 0 -4.9915910312475457e-05 4.2045355882413872e-05 0 -4.6289147681122475e-05 2.8811626678721641e-05 0 -6.0985877491559036e-05 0.00024287672021315083 0 -8.712292650133317e-05 0.00025687384800940973 0 -8.2745912623029781e-05 0.0002240417703401457 0 9.9082064115571672e-06 -0.00012195622863840726 0 2.3083420642659857e-05 -0.00012807410340703906 0 1.9565762885716624e-05 -0.00011126274028667891 0 1.0784245564701403e-05 -3.2668339284676139e-05 0 1.1782952831851841e-05 -2.7679432858794148e-05 0 7.3704288482870622e-06 -2.9539562593993588e-05 0 2.0038418687630532e-05 6.5426034726634544e-06 0 1.6989540757717944e-05 4.2612409477564855e-06 0 1.674020042232013e-05 4.1414629243167478e-06 0 -1.6119474375761842e-06 -3.64960668181191e-06 0 -6.2042127313103651e-06 -2.9827460391300789e-06 0 -6.1234193949413979e-06 -4.3259670441205481e-06 0 -1.6939753378042573e-05 -5.7249341528954233e-06 0 -1.1329620062830336e-05 -2.5385863417813358e-06 0 -1.4283110888973017e-05 -2.4136102715427412e-06 0 -2.4261899036057711e-05 9.3742791334812644e-06 0 -1.5103457844978729e-05 8.2787204271551787e-06 0 -2.2075534153435731e-05 1.653041044745697e-05 0 6.6376287443464516e-06 -8.1409516048157375e-06 0 5.7841772843819549e-06 -1.3647242695819897e-05 0 8.1959215314491096e-06 -1.2248535719140587e-05 0 -7.4583093599351955e-06 -2.5926218899206372e-06 0 -1.1329620062830335e-05 -2.5385863417813358e-06 0 -1.0883132411056018e-05 -5.5330777185569456e-06 0 2.0382881788581232e-05 4.0285787812040213e-06 0 1.7944392686192926e-05 3.4138855061313466e-06 0 1.7069115028764883e-05 -7.2592176831291704e-07 0 1.7839268085165065e-09 2.0962986793751015e-11 0 1.7525256979464526e-09 -1.0786212887100595e-10 0 1.2742042689972604e-06 -1.1709401267371114e-07 0 1.6280362386447358e-05 -4.046261673401233e-05 0 1.2272795599858305e-05 -3.7190316219923396e-05 0 1.1095212744506869e-05 -4.2447432718103308e-05 0 -2.5722305020285893e-05 -8.0158921920944385e-06 0 -2.3214228654397837e-05 -7.9108721601242019e-06 0 -1.9126609399641392e-05 -4.4006789649201755e-06 0 -3.9990785611724751e-05 1.2549429397126683e-05 0 -2.8011310476517068e-05 6.2463611408189514e-06 0 -3.5155220392494109e-05 1.2421421254678982e-05 0 -3.202306814824148e-05 -4.7080325060234023e-05 0 -4.2088117028519912e-05 -4.7451465895515936e-05 0 -4.2552428434947941e-05 -6.0541587862961179e-05 0 -6.8978991217572722e-06 -1.9400577695746045e-05 0 -3.8922751584282784e-06 -2.5726363159750194e-05 0 -3.6496318384746066e-07 -1.6195923083122113e-05 0 3.2294688567184896e-06 -2.1216236104821561e-05 0 -3.6496318384746066e-07 -1.6195923083122113e-05 0 -3.8922751584282784e-06 -2.5726363159750194e-05 0 -7.4583093599351955e-06 -2.5926218899206372e-06 0 -5.272531831585159e-06 -4.3075277217972197e-06 0 -3.7402622008197823e-06 -9.684502699644595e-07 0 1.5828986320765169e-05 -2.8575947185032847e-05 0 1.259811643459966e-05 -2.1947507411613189e-05 0 1.1782952831851841e-05 -2.7679432858794148e-05 0 -3.693472342459991e-05 -7.1138746037301538e-05 0 -2.5559256799080881e-05 -7.0216026709262494e-05 0 -2.7354413387256612e-05 -5.9500293739094757e-05 0 -7.4583093599351955e-06 -2.5926218899206372e-06 0 -3.7402622008197823e-06 -9.684502699644595e-07 0 -6.900899549520153e-06 -2.8434519818748108e-07 0 1.4460279369494812e-05 -1.8654370380847714e-05 0 1.259811643459966e-05 -2.1947507411613189e-05 0 1.6947098854544365e-05 -2.3824591681082426e-05 0 3.1328652674457388e-06 -1.4206132345656996e-06 0 4.2564604476311158e-06 -6.8686887687759528e-07 0 4.9180237833512025e-06 -1.3456235602847824e-06 0 -3.7548536598858839e-05 -2.0958143166347933e-05 0 -3.167435926271451e-05 -2.2965463175760991e-05 0 -2.9402608671804105e-05 -1.6708150088573697e-05 0 -6.2068020937024578e-05 3.7390386240169594e-05 0 -4.6289147681122475e-05 2.8811626678721641e-05 0 -4.9915910312475457e-05 4.2045355882413872e-05 0 -6.5704590160599148e-05 -0.00010641665082681921 0 -4.7016628226476765e-05 -0.00010663776252852172 0 -5.4790774036864703e-05 -9.7398459208374564e-05 0 8.5943919213915109e-05 0.00020451232838981315 0 5.1046733014374655e-05 0.00021315095988529023 0 5.6509241330829497e-05 0.00018932368609818879 0 7.9804476036784614e-05 0.00017054851261614329 0 5.6509241330829497e-05 0.00018932368609818879 0 4.4681507911505546e-05 0.00016648290656554862 0 -6.5704590160599148e-05 -0.00010641665082681921 0 -6.7915945655912425e-05 -0.00012545927714116605 0 -5.5473714477126011e-05 -0.00011882669895696204 0 8.5943919213915109e-05 0.00020451232838981315 0 9.1900140653780572e-05 0.00023938638929713439 0 6.7945133336534672e-05 0.00023182792826608747 0 3.4954708719983177e-05 -2.4563193883956106e-05 0 3.1113595776601764e-05 -1.7625831745618609e-05 0 2.9397960272719733e-05 -2.2648751115754501e-05 0 8.7112068381358592e-06 -2.4385589248517111e-05 0 7.3704288482870622e-06 -2.9539562593993588e-05 0 1.1782952831851841e-05 -2.7679432858794148e-05 0 1.3547689711820647e-05 -5.9820223694426839e-05 0 1.8870537097890584e-05 -6.4200594955402709e-05 0 1.7426099861573755e-05 -6.0012823475064241e-05 0 6.6196850356015015e-05 -5.110149175905396e-05 0 6.2885175139390043e-05 -5.801440264166637e-05 0 7.4229053247125686e-05 -5.9782652715343279e-05 0 -3.3283096637429476e-05 2.8062242711922643e-05 0 -2.2075534153435731e-05 1.653041044745697e-05 0 -2.0733228010751359e-05 2.6832866073342539e-05 0 -3.7509315470954591e-06 2.6322027720447452e-06 0 -2.7175401768619279e-06 3.2488355160142719e-06 0 -5.0768759423929121e-06 2.8028565996072575e-06 0 9.1747481767627725e-06 1.7807238210862835e-06 0 7.9000468205937843e-06 2.3258910838724007e-06 0 1.0187864908687098e-05 2.5187911151991213e-06 0 -5.378216733165114e-05 0.00014142997242508004 0 -4.1371802355819901e-05 0.00011710638407000833 0 -3.0133817115467466e-05 0.00014689585866564572 0 4.6340677920120875e-06 -6.9778423570426219e-05 0 1.5120985157235848e-05 -7.8201214131674e-05 0 1.3940448884697307e-05 -6.0490724693413316e-05 0 3.1616723542928528e-06 -2.1955904534996499e-08 0 1.2742042689972604e-06 -1.1709401267371114e-07 0 1.6701469752585224e-06 2.951523129613759e-07 0 -8.5126527154711777e-06 -8.7359123934011997e-06 0 -1.9114998324680806e-06 -6.7243011108084253e-06 0 -5.272531831585159e-06 -4.3075277217972197e-06 0 7.3211744541797072e-05 0.00013759813589230902 0 7.9804476036784627e-05 0.00017054851261614329 0 5.4936204497022415e-05 0.00014777534712451186 0 2.715600006004054e-06 -3.2357413597285203e-06 0 4.5514974118963849e-06 -2.8284453657790997e-06 0 2.219818058817831e-06 -3.7177046633015764e-06 0 3.4954708719983177e-05 -2.4563193883956106e-05 0 2.9397960272719733e-05 -2.2648751115754501e-05 0 3.5169727180291326e-05 -2.9240163234423223e-05 0 2.984784369665025e-05 -2.8509518452863957e-05 0 3.5169727180291326e-05 -2.9240163234423223e-05 0 2.9397960272719733e-05 -2.2648751115754501e-05 0 1.9612452071139991e-05 -5.8755485066814219e-05 0 1.4788220226965287e-05 -5.4863585821520952e-05 0 1.7426099861573755e-05 -6.0012823475064241e-05 0 1.3547689711820647e-05 -5.9820223694426839e-05 0 1.7426099861573755e-05 -6.0012823475064241e-05 0 1.4788220226965287e-05 -5.4863585821520952e-05 0 6.6196850356015015e-05 -5.110149175905396e-05 0 5.6058578490621052e-05 -5.2125511309161175e-05 0 6.2885175139390043e-05 -5.801440264166637e-05 0 5.4855879661453368e-05 -5.9772037550775053e-05 0 6.2885175139390043e-05 -5.801440264166637e-05 0 5.6058578490621052e-05 -5.2125511309161175e-05 0 1.6716951538234993e-05 4.3938652491939324e-06 0 1.4468317805661889e-05 3.2882691423844213e-06 0 1.4910475081530637e-05 3.4563586169505728e-06 0 3.5294270099088201e-05 -1.293706263286811e-05 0 2.6789243352774964e-05 -5.9110273444139441e-06 0 3.1113595776601764e-05 -1.7625831745618609e-05 0 2.363451048540441e-05 -1.2371666789003656e-05 0 3.1113595776601764e-05 -1.7625831745618609e-05 0 2.6789243352774964e-05 -5.9110273444139441e-06 0 -3.693472342459991e-05 -7.1138746037301538e-05 0 -4.858223804045914e-05 -7.5126686199138539e-05 0 -4.4023722488583102e-05 -8.7630350721555476e-05 0 -9.7315628470355743e-06 1.2276332020007804e-07 0 -1.1329620062830336e-05 -2.5385863417813358e-06 0 -6.900899549520153e-06 -2.8434519818748108e-07 0 -7.4583093599351955e-06 -2.5926218899206372e-06 0 -6.900899549520153e-06 -2.8434519818748108e-07 0 -1.1329620062830336e-05 -2.5385863417813358e-06 0 9.3902757954219665e-06 -1.7768931567970763e-05 0 5.9740584912501623e-06 -1.4488302697259897e-05 0 6.7544196034521743e-06 -1.3515673757821717e-05 0 1.4975304262328575e-05 -4.9387180122275629e-05 0 1.4788220226965287e-05 -5.4863585821520952e-05 0 1.8187591108042688e-05 -5.3177240066168505e-05 0 4.844572192207123e-05 -4.8228211294820968e-05 0 4.7811468706492597e-05 -5.3379389662657865e-05 0 5.6058578490621052e-05 -5.2125511309161175e-05 0 8.1879338851422507e-06 2.6099300853797951e-06 0 1.0187864908687098e-05 2.5187911151991209e-06 0 7.9000468205937843e-06 2.3258910838724007e-06 0 3.5948101061123149e-05 -7.1593722204032922e-05 0 3.6456658124176668e-05 -6.59594749991338e-05 0 3.1724136991668229e-05 -6.5409700761502967e-05 0 4.5245184663888765e-06 2.9967280893018184e-06 0 4.4846758801580252e-06 2.5343888854710668e-06 0 2.9909416598301796e-06 2.6140688368090885e-06 0 1.4460279369494812e-05 -1.8654370380847714e-05 0 1.4541021762381746e-05 -1.4587139030476326e-05 0 1.1162288980805235e-05 -1.4674776070405277e-05 0 3.1616723542928528e-06 -2.1955904534996499e-08 0 5.0105400006382444e-06 2.1648217801100632e-07 0 4.256460447631115e-06 -6.8686887687759528e-07 0 -9.6234382096432064e-06 0.00016266542687384456 0 -9.6617532187002196e-07 0.00013735873383889552 0 1.6711800084308311e-05 0.00015840910166936464 0 -5.6792763199553043e-06 0.00022174403305609758 0 2.4380097204252945e-05 0.00022304548516594291 0 1.3706244436692466e-05 0.00024484179062699723 0 -1.7806003334535653e-05 -0.00011294552086126996 0 -3.2685650544857055e-05 -0.00011236011032928736 0 -2.6814183758684983e-05 -0.00012457809448072064 0 3.9479443397848337e-05 2.4168288210349974e-05 0 3.0319120441915724e-05 4.1743939484812306e-06 0 4.3081823303614055e-05 -5.8776642087170526e-06 0 3.1616723542928528e-06 -2.1955904534996499e-08 0 1.6701469752585224e-06 2.951523129613759e-07 0 3.4599266538274048e-06 5.7123053438483909e-07 0 -6.2626050367344769e-05 -8.8385783188210792e-05 0 -5.4790774036864703e-05 -9.7398459208374551e-05 0 -4.4023722488583102e-05 -8.7630350721555476e-05 0 -7.0141719723590653e-05 -0.00020463855525753953 0 -5.7177147989278524e-05 -0.00019337424684685525 0 -7.0233996147789002e-05 -0.00018490508450433308 0 0.00012084996651871391 0.00039165481816278629 0 8.8776519816687285e-05 0.00037255654625519767 0 0.00011148933348361892 0.00035146365278517644 0 0.00012084996651871391 0.00039165481816278629 0 7.8963023704724852e-05 0.00039716966095124518 0 8.8776519816687285e-05 0.00037255654625519767 0 5.1969820954631244e-05 -0.00020180291542535241 0 3.4920769464830053e-05 -0.00019186610638189535 0 3.0480230092588916e-05 -0.00020460693637847281 0 -0.00011622124190358203 0.00039859751794779792 0 -0.00011637214555242522 0.00036048196362078598 0 -9.1112176184511714e-05 0.00037685336080493792 0 -7.0141719723590653e-05 -0.00020463855525753953 0 -5.0559103179424025e-05 -0.00020452903754409056 0 -5.7177147989278518e-05 -0.00019337424684685525 0 5.1969820954631244e-05 -0.00020180291542535241 0 4.5977025079519682e-05 -0.0001808045396736601 0 3.4920769464830053e-05 -0.00019186610638189535 0 -0.00011622124190358203 0.00039859751794779792 0 -9.1112176184511714e-05 0.00037685336080493792 0 -7.8327449547320712e-05 0.00039841985954209528 0 1.7525256979466859e-09 -1.0786212887102741e-10 0 1.6701469752585224e-06 2.951523129613759e-07 0 1.2742042689972604e-06 -1.1709401267371114e-07 0 1.5828986320765169e-05 -2.8575947185032847e-05 0 2.1016456881827855e-05 -2.9870204310520661e-05 0 1.6947098854544365e-05 -2.3824591681082426e-05 0 -7.4583093599351955e-06 -2.5926218899206372e-06 0 -1.0883132411056018e-05 -5.5330777185569456e-06 0 -5.272531831585159e-06 -4.3075277217972197e-06 0 -3.693472342459991e-05 -7.1138746037301538e-05 0 -3.0170548644015636e-05 -8.0824054473797703e-05 0 -2.5559256799080881e-05 -7.0216026709262494e-05 0 6.5723563371047308e-06 -1.6900340011026338e-06 0 6.2376668708509487e-06 -2.3511987210934328e-06 0 4.5514974118963849e-06 -2.8284453657790997e-06 0 -8.0827957708429041e-06 0.00026510967889866106 0 -3.1956960257452069e-05 0.00028740068125447242 0 -3.454441436517983e-05 0.00025364222518454136 0 -1.5153992768546026e-05 -0.00013476520319125157 0 -2.3259453338275987e-06 -0.00014610764908108069 0 -2.4331176388726488e-06 -0.00012880190592104174 0 6.6784307301109975e-06 -4.7121001063144579e-05 0 9.5544310418536099e-06 -5.391763309442225e-05 0 1.1038859824259136e-05 -4.9089271024922987e-05 0 5.4875268816309123e-05 -3.9044649804473116e-05 0 5.2858550646351115e-05 -4.4604053545154017e-05 0 5.9879153642240932e-05 -4.4527523967740421e-05 0 4.3974510161337162e-05 -1.7168751526949215e-05 0 3.9382136343629437e-05 -2.2079520819650689e-05 0 4.5414996232398872e-05 -2.4081615686588167e-05 0 -8.5126527154711777e-06 -8.7359123934011997e-06 0 -5.272531831585159e-06 -4.3075277217972197e-06 0 -1.0883132411056018e-05 -5.5330777185569456e-06 0 3.58140894001958e-06 -3.2542251075296365e-05 0 4.6900282532220657e-06 -3.9895708615644553e-05 0 8.2882626375674551e-06 -3.561048078096687e-05 0 4.7871979704354714e-05 -2.937465846043948e-05 0 4.5627850696170451e-05 -3.3864875690174853e-05 0 5.0905626009202715e-05 -3.4171814951746293e-05 0 -1.622005104733396e-05 -6.0133722691131306e-05 0 -6.0272532989916779e-06 -6.5249594193226372e-05 0 -7.6565355271548826e-06 -5.0647668624721478e-05 0 9.1747481767627725e-06 1.7807238210862835e-06 0 7.0933525428723335e-06 1.7567218648085545e-06 0 7.9000468205937843e-06 2.3258910838724007e-06 0 9.9082064115571672e-06 -0.00012195622863840726 0 -3.2555678454494017e-06 -0.00011049907363899411 0 -2.4331176388726488e-06 -0.00012880190592104174 0 -6.0985877491559036e-05 0.00024287672021315083 0 -3.5159129701546886e-05 0.00022182508915312939 0 -3.454441436517983e-05 0.00025364222518454136 0 4.0033780898719312e-05 -3.3856592666495093e-05 0 4.1199563752932266e-05 -2.8874742705867752e-05 0 3.5169727180291326e-05 -2.9240163234423223e-05 0 3.4954708719983177e-05 -2.4563193883956106e-05 0 3.5169727180291326e-05 -2.9240163234423223e-05 0 4.1199563752932266e-05 -2.8874742705867752e-05 0 2.9268608000758806e-06 3.2118569373231749e-06 0 1.2833247311077143e-06 3.4590230536308086e-06 0 1.098997433676343e-06 3.0876907446472246e-06 0 -6.8978991217572722e-06 -1.9400577695746045e-05 0 -3.6496318384746045e-07 -1.6195923083122113e-05 0 -4.4237224535015762e-06 -1.1886325873251599e-05 0 4.1061634826631286e-06 -5.1312450182659481e-05 0 1.2406708683189531e-05 -4.5448052742242922e-05 0 4.9945339511835074e-06 -3.3663456851698601e-05 0 2.0639843835319931e-05 -2.4542126405778405e-05 0 1.6947098854544365e-05 -2.3824591681082426e-05 0 2.1016456881827855e-05 -2.9870204310520661e-05 0 1.6895214759872951e-05 -3.6777053555111609e-05 0 1.2406708683189531e-05 -4.5448052742242922e-05 0 2.186710091599468e-05 -5.1871778175700973e-05 0 4.8559718408903622e-05 -3.9325592304617761e-05 0 4.1713199706007087e-05 -3.809975127998564e-05 0 4.5124622241182615e-05 -4.3678901448595861e-05 0 3.8581237846193121e-05 -4.1248325761588103e-05 0 4.5124622241182615e-05 -4.3678901448595861e-05 0 4.1713199706007087e-05 -3.809975127998564e-05 0 -3.6557064979656224e-06 3.0610022798639401e-06 0 -5.8433396211422025e-06 2.5167780683191271e-06 0 -5.0768759423929121e-06 2.8028565996072575e-06 0 9.2510316167688649e-06 -2.7345461100609542e-06 0 9.9076727820277325e-06 -4.8190127400251984e-06 0 1.0991564487169446e-05 -1.5669023375615465e-06 0 1.1837535099464904e-05 -3.1336166084385226e-06 0 1.0991564487169446e-05 -1.5669023375615465e-06 0 9.9076727820277325e-06 -4.8190127400251984e-06 0 2.6115737835393338e-05 1.153803659276922e-05 0 2.4260312756533238e-05 8.4918949942410777e-06 0 2.9671413432985798e-05 1.5453556235475004e-05 0 2.573979331241922e-05 4.5818016796346426e-06 0 2.9671413432985798e-05 1.5453556235475004e-05 0 2.4260312756533238e-05 8.4918949942410777e-06 0 7.9804476036784614e-05 0.00017054851261614329 0 8.5943919213915109e-05 0.00020451232838981315 0 5.6509241330829497e-05 0.00018932368609818879 0 2.032359868818396e-05 6.5228000231217782e-06 0 1.8895724871055501e-05 5.796623765049821e-06 0 1.7843005273790029e-05 4.8533108142639518e-06 0 -6.2626050367344769e-05 -8.8385783188210792e-05 0 -6.5704590160599148e-05 -0.00010641665082681921 0 -5.4790774036864703e-05 -9.7398459208374564e-05 0 -5.3943148301983448e-07 3.424684773145005e-06 0 1.098997433676343e-06 3.0876907446472246e-06 0 1.2833247311077143e-06 3.4590230536308086e-06 0 -3.6354976268172375e-06 -4.648947852786853e-06 0 -3.318926924089334e-06 -4.0389201133821601e-06 0 -1.8456982494231464e-06 -4.2127368170793691e-06 0 -3.6557064979656224e-06 3.0610022798639401e-06 0 -2.1605370072186078e-06 2.9350386636907041e-06 0 -3.0202480654043092e-06 2.6173455166900416e-06 0 9.6413816376247291e-06 -6.7321794344783579e-07 0 9.3383593358740184e-06 3.7476114283950254e-08 0 1.2100972198928434e-05 1.148396643375828e-06 0 -2.0927731609114351e-06 1.4370618902354861e-09 0 -2.1271918977858105e-06 8.5656782553884525e-07 0 -9.478526409695173e-07 2.1838472540615162e-07 0 -1.6724579619025378e-09 5.3502672223304834e-10 0 -9.4785264096951741e-07 2.183847254061517e-07 0 -2.1271918977858105e-06 8.5656782553884525e-07 0 -2.6473712446448412e-06 -3.902643394682491e-07 0 -1.2059596389739389e-06 -4.8614233224902729e-07 0 -2.7535033222455023e-06 -1.566682332380685e-06 0 -2.2464376850788637e-09 -8.6937964735484602e-10 0 -2.7535033222455023e-06 -1.566682332380685e-06 0 -1.2059596389739389e-06 -4.8614233224902729e-07 0 -6.8978991217572722e-06 -1.9400577695746045e-05 0 -1.4848791197521955e-05 -2.3020851503402371e-05 0 -1.0874939447067545e-05 -2.9321801673760737e-05 0 3.1616723542928528e-06 -2.1955904534996499e-08 0 3.4599266538274048e-06 5.7123053438483909e-07 0 5.0105400006382444e-06 2.1648217801100632e-07 0 2.8251888446099263e-05 0.00013627154753860732 0 4.9593829269009721e-05 0.00012651930330101317 0 5.4936204497022415e-05 0.00014777534712451186 0 9.9207219024007455e-06 2.8532337769884111e-05 0 3.5898831105193719e-06 1.8710134979482e-05 0 1.3832854032961649e-05 1.6632005849148544e-05 0 2.032359868818396e-05 6.5228000231217782e-06 0 2.2087671451710829e-05 8.2381306454796214e-06 0 1.8895724871055501e-05 5.796623765049821e-06 0 -4.357501563086566e-06 -3.7805645174782436e-05 0 -3.8922751584282784e-06 -2.5726363159750194e-05 0 -1.0874939447067545e-05 -2.9321801673760737e-05 0 -4.0319382422796485e-05 0.00039860774989120256 0 -7.8327449547320712e-05 0.00039841985954209528 0 -5.969996020229849e-05 0.00037878279227659408 0 8.9011955046978749e-06 -0.00020519439959835531 0 3.0480230092588916e-05 -0.00020460693637847281 0 1.8003135869693606e-05 -0.00019418476165348187 0 7.8963023704724852e-05 0.00039716966095124518 0 3.7368541569567605e-05 0.00039879884202484971 0 5.561061133935283e-05 0.00037738096578616515 0 -5.0559103179424025e-05 -0.00020452903754409056 0 -3.0969273410107211e-05 -0.00020467339179846324 0 -4.0984675764671555e-05 -0.00019437592564592454 0 2.1622158064458129e-05 -5.2388766315188308e-05 0 1.8187591108042688e-05 -5.3177240066168505e-05 0 2.2378899282178249e-05 -5.7392832408298149e-05 0 4.0820132571743268e-05 -5.3750558566377991e-05 0 4.5988877628276965e-05 -5.9764293226852534e-05 0 4.7811468706492597e-05 -5.3379389662657865e-05 0 -1.8216154920006473e-09 -7.4930496639538977e-10 0 -9.4785264096951751e-07 2.1838472540615168e-07 0 -1.6724579619025378e-09 5.3502672223304834e-10 0 -2.0493573120406693e-09 8.3813068518157641e-10 0 -2.2464376850788637e-09 -8.6937964735484602e-10 0 -1.2059596389739389e-06 -4.8614233224902729e-07 0 -2.0493573120406693e-09 8.3813068518157641e-10 0 -1.2059596389739389e-06 -4.8614233224902729e-07 0 -2.6473712446448412e-06 -3.902643394682491e-07 0 -1.8216154920006473e-09 -7.4930496639538977e-10 0 -2.0927731609114351e-06 1.4370618902354861e-09 0 -9.478526409695173e-07 2.1838472540615162e-07 0 4.6340677920120875e-06 -6.9778423570426219e-05 0 -6.0272532989916796e-06 -6.5249594193226358e-05 0 -4.8425872838899425e-06 -8.1291408103893877e-05 0 8.0700612380191769e-07 2.0687948455074789e-06 0 -9.8152874694819698e-07 9.5143808878791852e-07 0 1.9835993628499933e-06 6.3186374091467595e-07 0 1.4460279369494812e-05 -1.8654370380847714e-05 0 1.6947098854544365e-05 -2.3824591681082426e-05 0 1.7576748386725349e-05 -1.915435578140389e-05 0 2.0639843835319931e-05 -2.4542126405778405e-05 0 1.7576748386725349e-05 -1.915435578140389e-05 0 1.6947098854544365e-05 -2.3824591681082426e-05 0 2.9268608000758806e-06 3.2118569373231749e-06 0 3.0367445582419056e-06 2.4124400778585022e-06 0 4.2762787779242455e-06 2.7643486050756985e-06 0 5.9449226587219485e-06 2.3040777734304552e-06 0 4.4846758801580252e-06 2.5343888854710668e-06 0 6.4440175291017854e-06 2.7553822287290182e-06 0 4.5245184663888765e-06 2.9967280893018184e-06 0 6.4440175291017854e-06 2.7553822287290182e-06 0 4.4846758801580252e-06 2.5343888854710668e-06 0 2.573979331241922e-05 4.5818016796346426e-06 0 3.0319120441915724e-05 4.1743939484812315e-06 0 2.9671413432985798e-05 1.5453556235475004e-05 0 3.9479443397848337e-05 2.4168288210349974e-05 0 2.9671413432985798e-05 1.5453556235475007e-05 0 3.0319120441915724e-05 4.1743939484812306e-06 0 -1.98070890778792e-05 -2.9124965674363689e-05 0 -1.0874939447067545e-05 -2.9321801673760737e-05 0 -1.4848791197521955e-05 -2.3020851503402371e-05 0 4.0033780898719312e-05 -3.3856592666495093e-05 0 4.1713199706007087e-05 -3.809975127998564e-05 0 4.5627850696170451e-05 -3.3864875690174853e-05 0 1.0784245564701403e-05 -3.2668339284676139e-05 0 8.2882626375674551e-06 -3.561048078096687e-05 0 1.2272795599858305e-05 -3.7190316219923396e-05 0 8.1879338851422507e-06 2.6099300853797951e-06 0 9.914206672571579e-06 2.5365508395532824e-06 0 1.0187864908687098e-05 2.5187911151991213e-06 0 4.1250796269425728e-05 0.00024515343543996497 0 6.7945133336534672e-05 0.00023182792826608747 0 6.9194701911308578e-05 0.00025582576946404554 0 -4.080744683164899e-05 -0.00012526858485193979 0 -5.5473714477126011e-05 -0.00011882669895696204 0 -5.4997371725681305e-05 -0.00013223945616839598 0 9.3902757954219665e-06 -1.7768931567970763e-05 0 8.1959215314491096e-06 -1.2248535719140587e-05 0 5.7841772843819549e-06 -1.3647242695819897e-05 0 3.4954708719983177e-05 -2.4563193883956106e-05 0 3.9382136343629437e-05 -2.2079520819650689e-05 0 3.1113595776601764e-05 -1.7625831745618609e-05 0 -6.0985877491559036e-05 0.00024287672021315083 0 -8.2745912623029781e-05 0.0002240417703401457 0 -5.821945191041897e-05 0.00021358339950318148 0 9.9082064115571672e-06 -0.00012195622863840726 0 1.9565762885716624e-05 -0.00011126274028667891 0 7.7837438541448449e-06 -0.00010663679092532422 0 4.6340677920120875e-06 -6.9778423570426219e-05 0 5.5331189178000035e-06 -8.3720187689136549e-05 0 1.5120985157235848e-05 -7.8201214131674e-05 0 2.1098702322753733e-05 -4.6631823784437232e-05 0 2.4176026247412501e-05 -5.0541453204527362e-05 0 2.5104252021615046e-05 -4.6002661790690151e-05 0 4.844572192207123e-05 -4.8228211294820968e-05 0 5.2858550646351115e-05 -4.4604053545154017e-05 0 4.5124622241182615e-05 -4.3678901448595861e-05 0 7.094345610482548e-06 -1.1380872633782657e-06 0 7.0519428826893752e-06 -2.0117075478918216e-06 0 1.067336304241677e-05 1.0655452854239037e-07 0 3.1886470741887202e-05 -5.9850334507631628e-05 0 3.719495718218123e-05 -5.9298816764764878e-05 0 3.303612600904011e-05 -5.3605846809365494e-05 0 -5.3943148301983448e-07 3.424684773145005e-06 0 1.2833247311077143e-06 3.4590230536308086e-06 0 -1.6752978764362242e-07 3.4549643339240325e-06 0 6.3551882741994231e-07 3.3270780995866217e-06 0 -1.6752978764362242e-07 3.4549643339240325e-06 0 1.2833247311077143e-06 3.4590230536308086e-06 0 1.1457694657922058e-05 9.7952707368643948e-07 0 9.8096171381963356e-06 -5.6055574370843247e-07 0 1.0991564487169446e-05 -1.5669023375615465e-06 0 -6.8978991217572722e-06 -1.9400577695746045e-05 0 -1.0874939447067545e-05 -2.9321801673760737e-05 0 -3.8922751584282784e-06 -2.5726363159750194e-05 0 2.9268608000758806e-06 3.2118569373231749e-06 0 4.2762787779242455e-06 2.7643486050756985e-06 0 4.0133300172806137e-06 3.139531348476514e-06 0 5.5286208526775829e-06 2.8289580490694145e-06 0 4.0133300172806137e-06 3.139531348476514e-06 0 4.2762787779242455e-06 2.7643486050756985e-06 0 3.0367445582419056e-06 2.4124400778585022e-06 0 5.3875771531704081e-06 2.0450662245560822e-06 0 4.2762787779242455e-06 2.7643486050756985e-06 0 2.6561946171197085e-05 -6.1399590180250617e-05 0 2.2378899282178249e-05 -5.7392832408298149e-05 0 2.3933755493575854e-05 -6.2438525242793406e-05 0 1.9612452071139991e-05 -5.8755485066814219e-05 0 2.3933755493575854e-05 -6.2438525242793406e-05 0 2.2378899282178249e-05 -5.7392832408298149e-05 0 5.4855879661453368e-05 -5.9772037550775053e-05 0 4.5988877628276958e-05 -5.9764293226852534e-05 0 5.1979450424738108e-05 -6.8074872980389026e-05 0 4.2521830821892466e-05 -6.3888552709438637e-05 0 5.1979450424738108e-05 -6.8074872980389026e-05 0 4.5988877628276958e-05 -5.9764293226852534e-05 0 2.573979331241922e-05 4.5818016796346426e-06 0 2.6789243352774964e-05 -5.9110273444139441e-06 0 3.0319120441915724e-05 4.1743939484812306e-06 0 6.7545446617897807e-05 0.00035236345376311157 0 5.561061133935283e-05 0.00037738096578616515 0 3.1034363621976545e-05 0.00036212009151592186 0 -4.8439512865202646e-05 -0.00018226895550976525 0 -4.0984675764671555e-05 -0.00019437592564592454 0 -3.0022693043555614e-05 -0.00018621272707367758 0 2.3654611033570056e-05 -0.0001811614155541245 0 5.221357869023916e-06 -0.00018610833857435368 0 1.8003135869693606e-05 -0.00019418476165348187 0 -7.4188787216501311e-05 0.00035548935053511034 0 -3.8226997052251216e-05 0.0003630028207463722 0 -5.969996020229849e-05 0.00037878279227659408 0 -6.0985877491559036e-05 0.00024287672021315083 0 -5.8219451910418964e-05 0.00021358339950318145 0 -3.5159129701546886e-05 0.00022182508915312939 0 9.9082064115571672e-06 -0.00012195622863840726 0 7.7837438541448449e-06 -0.00010663679092532422 0 -3.2555678454494017e-06 -0.00011049907363899411 0 4.6340677920120875e-06 -6.9778423570426219e-05 0 -4.8425872838899425e-06 -8.1291408103893877e-05 0 5.5331189178000026e-06 -8.3720187689136536e-05 0 9.2510316167688649e-06 -2.7345461100609542e-06 0 1.0991564487169446e-05 -1.5669023375615465e-06 0 9.8096171381963356e-06 -5.6055574370843247e-07 0 3.7368541569567605e-05 0.00039879884202484971 0 3.1034363621976545e-05 0.00036212009151592186 0 5.561061133935283e-05 0.00037738096578616515 0 -3.0969273410107211e-05 -0.00020467339179846324 0 -3.0022693043555614e-05 -0.00018621272707367758 0 -4.0984675764671555e-05 -0.00019437592564592454 0 -4.0319382422796485e-05 0.00039860774989120256 0 -5.969996020229849e-05 0.00037878279227659408 0 -3.8226997052251216e-05 0.0003630028207463722 0 8.9011955046978749e-06 -0.00020519439959835531 0 1.8003135869693609e-05 -0.0001941847616534819 0 5.221357869023916e-06 -0.00018610833857435368 0 2.7910158232392099e-05 -5.0456185998321609e-05 0 2.5104252021615046e-05 -4.6002661790690151e-05 0 2.4176026247412501e-05 -5.0541453204527362e-05 0 1.6895214759872951e-05 -3.6777053555111609e-05 0 4.9945339511835074e-06 -3.3663456851698601e-05 0 1.2406708683189531e-05 -4.5448052742242922e-05 0 1.8870537097890584e-05 -6.4200594955402709e-05 0 2.113731753797722e-05 -6.24547325293859e-05 0 1.7426099861573755e-05 -6.0012823475064241e-05 0 7.4229053247125686e-05 -5.9782652715343279e-05 0 6.2885175139390043e-05 -5.801440264166637e-05 0 6.5398093141650249e-05 -6.6055029137012739e-05 0 5.9449226587219485e-06 2.3040777734304552e-06 0 4.1292312814426049e-06 1.8447025272010298e-06 0 4.4846758801580252e-06 2.5343888854710668e-06 0 -7.4175764356372969e-05 0.00019062430476871991 0 -7.7436477031016314e-05 0.00015928738037022662 0 -5.4577879565497858e-05 0.00016524366942846628 0 -5.378216733165114e-05 0.00014142997242508004 0 -5.4577879565497858e-05 0.00016524366942846628 0 -7.7436477031016314e-05 0.00015928738037022662 0 2.6510207200242022e-05 -4.1519261984283239e-05 0 2.1734234946154795e-05 -4.1323692110717354e-05 0 2.5104252021615046e-05 -4.6002661790690151e-05 0 7.5449656838113228e-06 1.8058648504852378e-06 0 5.3875771531704081e-06 2.0450662245560822e-06 0 6.3438417540327715e-06 8.3062064839082987e-07 0 1.4460279369494812e-05 -1.8654370380847714e-05 0 1.7576748386725349e-05 -1.915435578140389e-05 0 1.4541021762381746e-05 -1.4587139030476326e-05 0 1.7188606432157782e-05 -1.3709289059736703e-05 0 1.4541021762381746e-05 -1.4587139030476326e-05 0 1.7576748386725349e-05 -1.915435578140389e-05 0 -3.8519995888405076e-05 0.00018987347934479486 0 -3.5159129701546886e-05 0.00022182508915312939 0 -5.821945191041897e-05 0.00021358339950318148 0 -1.4517285730611664e-06 -9.5139169916845173e-05 0 -3.2555678454494017e-06 -0.00011049907363899411 0 7.7837438541448449e-06 -0.00010663679092532422 0 -1.4517285730611664e-06 -9.5139169916845173e-05 0 5.5331189178000026e-06 -8.3720187689136536e-05 0 -4.8425872838899425e-06 -8.1291408103893877e-05 0 -2.9625604953553161e-06 1.8617165146081335e-06 0 -4.5710548119930723e-06 2.3831885040152145e-06 0 -3.0202480654043092e-06 2.6173455166900416e-06 0 -3.6556004498362536e-06 -3.0731372174470348e-06 0 -3.318926924089334e-06 -4.0389201133821601e-06 0 -5.6446851197627475e-06 -3.9748183478153296e-06 0 -8.6073748893161278e-06 -3.4646731045542783e-06 0 -5.6446851197627475e-06 -3.9748183478153296e-06 0 -7.0491434980164452e-06 -4.2524882060254992e-06 0 -6.5297505912750966e-06 1.8922377371463885e-06 0 -5.8433396211422025e-06 2.5167780683191271e-06 0 -4.5710548119930723e-06 2.3831885040152145e-06 0 7.7405727620160997e-06 -4.4178029699119927e-07 0 9.8096171381963356e-06 -5.6055574370843247e-07 0 9.2849662715650398e-06 8.3747866876449715e-07 0 -7.4175764356372969e-05 0.00019062430476871991 0 -5.821945191041897e-05 0.00021358339950318148 0 -8.2745912623029781e-05 0.0002240417703401457 0 1.442147004458595e-05 -9.4564088627284559e-05 0 7.7837438541448449e-06 -0.00010663679092532422 0 1.9565762885716624e-05 -0.00011126274028667891 0 1.442147004458595e-05 -9.4564088627284559e-05 0 1.5120985157235848e-05 -7.8201214131674e-05 0 5.5331189178000026e-06 -8.3720187689136536e-05 0 -1.622005104733396e-05 -6.0133722691131306e-05 0 -2.7354413387256612e-05 -5.9500293739094757e-05 0 -2.5559256799080881e-05 -7.0216026709262494e-05 0 2.1098702322753733e-05 -4.6631823784437232e-05 0 2.5104252021615046e-05 -4.6002661790690151e-05 0 2.1734234946154795e-05 -4.1323692110717354e-05 0 7.094345610482548e-06 -1.1380872633782657e-06 0 9.7104807092108272e-06 1.2322339988353036e-06 0 4.4529420117341838e-06 -6.2312088185487843e-07 0 5.9757566809939796e-06 -3.4673650861174807e-06 0 5.7730648451120177e-06 -8.2598886244108187e-07 0 3.6643088171421791e-06 -1.5961082815756598e-06 0 -3.6557064979656224e-06 3.0610022798639401e-06 0 -5.0768759423929121e-06 2.8028565996072571e-06 0 -2.7175401768619279e-06 3.2488355160142719e-06 0 -4.8209425647708729e-05 9.1902977443498253e-05 0 -3.1130071691569045e-05 9.4400189700779855e-05 0 -4.1371802355819901e-05 0.00011710638407000833 0 -3.202306814824148e-05 -4.7080325060234023e-05 0 -2.7354413387256612e-05 -5.9500293739094757e-05 0 -2.3338750477082835e-05 -4.8836046054598013e-05 0 4.1250796269425728e-05 0.00024515343543996497 0 1.3706244436692466e-05 0.00024484179062699723 0 2.4380097204252941e-05 0.00022304548516594291 0 -4.080744683164899e-05 -0.00012526858485193979 0 -2.6814183758684983e-05 -0.00012457809448072064 0 -3.2685650544857055e-05 -0.00011236011032928736 0 2.8251888446099263e-05 0.00013627154753860732 0 1.6711800084308311e-05 0.00015840910166936464 0 -9.6617532187002196e-07 0.00013735873383889552 0 -3.5714357389753848e-06 1.3793696840088303e-06 0 -5.9625282011208041e-06 1.3766824226806383e-06 0 -6.900899549520153e-06 -2.8434519818748108e-07 0 4.4941838636672778e-06 7.2036163079463386e-07 0 6.3438417540327715e-06 8.3062064839082987e-07 0 5.3875771531704081e-06 2.0450662245560822e-06 0 -1.7485827598045165e-05 -8.0524241856549548e-05 0 -2.5559256799080881e-05 -7.0216026709262494e-05 0 -3.0170548644015636e-05 -8.0824054473797703e-05 0 1.9612452071139991e-05 -5.8755485066814219e-05 0 1.7426099861573755e-05 -6.0012823475064241e-05 0 2.113731753797722e-05 -6.24547325293859e-05 0 5.4855879661453368e-05 -5.9772037550775053e-05 0 6.5398093141650249e-05 -6.6055029137012739e-05 0 6.2885175139390043e-05 -5.801440264166637e-05 0 5.5286208526775829e-06 2.8289580490694145e-06 0 4.2762787779242455e-06 2.7643486050756985e-06 0 5.3875771531704081e-06 2.0450662245560822e-06 0 -7.8327449547320712e-05 0.00039841985954209528 0 -9.1112176184511714e-05 0.00037685336080493792 0 -5.969996020229849e-05 0.00037878279227659408 0 -7.4188787216501311e-05 0.00035548935053511034 0 -5.969996020229849e-05 0.00037878279227659408 0 -9.1112176184511714e-05 0.00037685336080493792 0 2.3654611033570056e-05 -0.0001811614155541245 0 1.8003135869693606e-05 -0.00019418476165348187 0 3.4920769464830053e-05 -0.00019186610638189535 0 3.0480230092588916e-05 -0.00020460693637847281 0 3.4920769464830053e-05 -0.00019186610638189535 0 1.8003135869693606e-05 -0.00019418476165348187 0 7.8963023704724852e-05 0.00039716966095124518 0 5.561061133935283e-05 0.00037738096578616515 0 8.8776519816687285e-05 0.00037255654625519767 0 -5.0559103179424025e-05 -0.00020452903754409056 0 -4.0984675764671555e-05 -0.00019437592564592454 0 -5.7177147989278518e-05 -0.00019337424684685525 0 6.7545446617897807e-05 0.00035236345376311157 0 8.8776519816687285e-05 0.00037255654625519767 0 5.561061133935283e-05 0.00037738096578616515 0 -4.8439512865202646e-05 -0.00018226895550976525 0 -5.7177147989278518e-05 -0.00019337424684685525 0 -4.0984675764671555e-05 -0.00019437592564592454 0 2.6510207200242022e-05 -4.1519261984283239e-05 0 2.5104252021615046e-05 -4.6002661790690151e-05 0 2.9673557897641911e-05 -4.6309589751546697e-05 0 1.6280362386447358e-05 -4.046261673401233e-05 0 1.4568470330847362e-05 -3.3887751727874951e-05 0 1.2272795599858305e-05 -3.7190316219923396e-05 0 1.0784245564701403e-05 -3.2668339284676139e-05 0 1.2272795599858305e-05 -3.7190316219923396e-05 0 1.4568470330847362e-05 -3.3887751727874951e-05 0 2.7910158232392099e-05 -5.0456185998321609e-05 0 2.4176026247412501e-05 -5.0541453204527362e-05 0 2.6348936107862815e-05 -5.5331022253680272e-05 0 2.1622158064458129e-05 -5.2388766315188308e-05 0 2.6348936107862815e-05 -5.5331022253680272e-05 0 2.4176026247412501e-05 -5.0541453204527362e-05 0 2.6115737835393338e-05 1.153803659276922e-05 0 2.2786433449200701e-05 8.1189387882891016e-06 0 2.4260312756533238e-05 8.4918949942410777e-06 0 6.626637615965665e-06 3.3700174476352605e-06 0 1.0536771572345974e-06 6.3198121174818896e-06 0 1.1966412663410346e-07 1.1391154980282749e-06 0 -6.2460983341180555e-06 3.9192138027259966e-06 0 1.1966412663410346e-07 1.1391154980282749e-06 0 1.0536771572345974e-06 6.3198121174818896e-06 0 -3.5714357389753848e-06 1.3793696840088303e-06 0 -3.7402622008197819e-06 -9.6845026996445971e-07 0 -9.8152874694819698e-07 9.5143808878791852e-07 0 -4.8209425647708729e-05 9.1902977443498253e-05 0 -3.2965835921448056e-05 7.4518134855423263e-05 0 -3.1130071691569051e-05 9.4400189700779855e-05 0 -1.5010069862123712e-05 7.8571209140033827e-05 0 -3.1130071691569051e-05 9.4400189700779855e-05 0 -3.2965835921448056e-05 7.4518134855423263e-05 0 2.032359868818396e-05 6.5228000231217782e-06 0 2.2786433449200701e-05 8.1189387882891016e-06 0 2.2087671451710829e-05 8.2381306454796214e-06 0 3.8581237846193121e-05 -4.1248325761588103e-05 0 4.1244197529032302e-05 -4.6643771360397269e-05 0 4.5124622241182615e-05 -4.3678901448595861e-05 0 4.844572192207123e-05 -4.8228211294820968e-05 0 4.5124622241182615e-05 -4.3678901448595861e-05 0 4.1244197529032302e-05 -4.6643771360397269e-05 0 2.0038418687630532e-05 6.5426034726634544e-06 0 2.2087671451710829e-05 8.2381306454796214e-06 0 2.3408653139050683e-05 9.7948208278125613e-06 0 -1.5170072253498447e-05 -4.1405157774003376e-05 0 -2.4421766222121428e-05 -3.9272429006664739e-05 0 -2.3338750477082835e-05 -4.8836046054598013e-05 0 -3.202306814824148e-05 -4.7080325060234023e-05 0 -2.3338750477082835e-05 -4.8836046054598013e-05 0 -2.4421766222121428e-05 -3.9272429006664739e-05 0 1.6716951538234993e-05 4.3938652491939324e-06 0 1.7843005273790029e-05 4.8533108142639518e-06 0 1.8895724871055501e-05 5.796623765049821e-06 0 2.0038418687630532e-05 6.5426034726634544e-06 0 1.8895724871055501e-05 5.796623765049821e-06 0 2.2087671451710829e-05 8.2381306454796214e-06 0 1.0784245564701403e-05 -3.2668339284676139e-05 0 7.3704288482870622e-06 -2.9539562593993588e-05 0 8.2882626375674551e-06 -3.561048078096687e-05 0 4.4941838636672778e-06 7.2036163079463386e-07 0 5.7730648451120185e-06 -8.2598886244108209e-07 0 6.3438417540327715e-06 8.3062064839082987e-07 0 7.7405727620160997e-06 -4.4178029699119927e-07 0 6.3438417540327715e-06 8.3062064839082987e-07 0 5.7730648451120185e-06 -8.2598886244108209e-07 0 1.1457694657922058e-05 9.7952707368643948e-07 0 9.2849662715650398e-06 8.3747866876449715e-07 0 9.8096171381963356e-06 -5.6055574370843247e-07 0 9.1900140653780572e-05 0.00023938638929713439 0 6.9194701911308578e-05 0.00025582576946404554 0 6.7945133336534672e-05 0.00023182792826608747 0 -6.7915945655912425e-05 -0.00012545927714116605 0 -5.4997371725681305e-05 -0.00013223945616839598 0 -5.5473714477126011e-05 -0.00011882669895696204 0 -9.7315628470355743e-06 1.2276332020007804e-07 0 -6.900899549520153e-06 -2.8434519818748108e-07 0 -5.9625282011208049e-06 1.3766824226806381e-06 0 1.5087999521290291e-09 4.2318125437292403e-10 0 1.0303127836110085e-06 9.5062440899227154e-07 0 1.0896446915264978e-06 7.1121812616007754e-07 0 7.3211744541797072e-05 0.00013759813589230902 0 5.4936204497022415e-05 0.00014777534712451186 0 4.9593829269009721e-05 0.00012651930330101317 0 2.7910158232392099e-05 -5.0456185998321609e-05 0 2.9673557897641911e-05 -4.6309589751546697e-05 0 2.5104252021615046e-05 -4.6002661790690151e-05 0 -8.0475154456410244e-07 -1.9995846948392636e-06 0 1.1966412663410238e-07 1.1391154980282747e-06 0 -5.8615293713704114e-06 -7.0752265583641308e-08 0 -6.2460983341180555e-06 3.9192138027259966e-06 0 -5.8615293713704105e-06 -7.0752265583641546e-08 0 1.1966412663410346e-07 1.1391154980282749e-06 0 3.58140894001958e-06 -3.2542251075296365e-05 0 8.2882626375674551e-06 -3.561048078096687e-05 0 7.3704288482870622e-06 -2.9539562593993588e-05 0 
</DataArray>
</PointData>
<CellData Scalars="region_id,cross_section_updated,displacement_divergence," Vectors="" Tensors="stress,">
<DataArray type="Float64" Name="region_id" format="ascii">
2 2 2 2 2 2 2 2 2 2 3 3 3 3 3 3 3 3 3 3 1 1 1 1 1 1 1 1 1 1 1 1 1 1 1 1 1 1 1 1 1 1 1 1 1 1 1 1 1 1 1 1 1 1 1 1 1 1 1 1 1 1 1 1 1 1 1 1 1 1 1 1 1 1 1 1 1 1 1 1 1 1 1 1 1 1 1 1 1 1 1 1 1 1 1 1 1 1 1 1 1 1 1 1 1 1 1 1 1 1 1 1 1 1 1 1 1 1 1 1 1 1 1 1 1 1 1 1 1 1 1 1 1 1 1 1 1 1 1 1 1 1 1 1 1 1 1 1 1 1 1 1 1 1 1 1 1 1 1 1 1 1 1 1 1 1 1 1 1 1 1 1 1 1 1 1 1 1 1 1 1 1 1 1 1 1 1 1 1 1 1 1 1 1 1 1 1 1 1 1 1 1 1 1 1 1 1 1 1 1 1 1 1 1 1 1 1 1 1 1 1 1 1 1 1 1 1 1 1 1 1 1 1 1 1 1 1 1 1 1 1 1 1 1 1 1 1 1 1 1 1 1 1 1 1 1 1 1 1 1 1 1 1 1 1 1 1 1 1 1 1 1 1 1 1 1 1 1 1 1 1 1 1 1 1 1 1 1 1 1 1 1 1 1 1 1 1 1 1 1 1 1 1 1 1 1 1 1 1 1 1 1 1 1 1 1 1 1 1 1 1 1 1 1 1 1 1 1 1 1 1 1 1 1 1 1 1 1 1 1 1 1 1 1 1 1 1 1 1 1 1 1 1 1 1 1 1 1 1 1 1 1 1 1 1 1 1 1 1 1 1 1 1 1 1 1 1 1 1 1 1 1 1 1 1 1 1 1 1 1 1 1 1 1 1 1 1 1 1 1 1 1 1 1 1 1 1 1 1 1 1 1 1 1 1 1 1 1 1 1 1 1 1 1 1 1 1 1 1 1 1 1 1 1 1 1 1 1 1 1 1 1 1 1 1 1 1 1 1 1 1 1 1 1 1 1 1 1 1 1 1 1 1 1 1 1 1 1 1 1 1 1 1 1 1 1 1 1 1 1 1 1 1 1 1 1 1 1 1 1 1 1 1 1 1 1 1 1 1 1 1 1 1 1 1 1 1 1 1 1 1 1 1 1 1 1 1 1 1 1 1 1 1 1 1 1 1 1 1 1 1 1 1 1 1 1 1 1 1 1 1 1 1 1 1 1 1 1 1 1 1 1 1 1 1 1 1 1 1 1 1 1 1 1 1 1 1 1 1 1 1 1 1 1 1 1 1 1 1 1 1 1 1 1 1 1 1 1 1 1 1 1 1 1 1 1 1 1 1 1 1 1 1 1 1 1 1 1 1 1 1 1 1 1 1 1 1 1 1 1 1 1 1 1 1 1 1 1 1 1 1 1 1 1 1 1 1 1 1 1 1 1 1 1 1 1 1 1 1 1 1 1 1 1 1 1 1 1 1 1 1 1 1 1 1 1 1 1 1 1 1 1 1 1 1 1 1 1 1 1 1 1 1 1 1 1 1 1 1 1 1 1 1 1 1 1 1 1 1 1 1 1 1 1 1 1 1 1 1 1 1 1 1 1 1 1 1 1 1 1 1 1 1 1 1 1 1 1 1 1 1 1 1 1 1 1 1 1 1 1 1 1 1 1 1 1 1 1 1 1 1 1 1 1 1 1 1 1 1 1 1 1 1 1 1 1 1 1 1 1 1 1 1 1 1 1 1 1 1 1 1 1 1 1 1 1 1 1 1 1 1 1 1 1 1 1 1 1 1 1 1 1 1 1 1 1 1 1 1 1 1 1 1 1 1 1 1 1 1 1 1 1 1 1 1 1 1 1 1 1 1 1 1 1 1 1 1 1 1 1 1 1 1 1 1 1 1 1 1 1 1 1 1 1 1 1 1 1 1 1 1 1 1 1 1 1 1 1 1 1 1 1 1 1 1 1 1 1 1 1 1 1 1 1 1 1 1 1 1 1 1 1 1 1 1 1 1 1 1 1 1 1 1 1 1 1 1 1 1 1 1 1 1 1 1 1 1 1 1 1 1 1 1 1 1 1 1 1 1 1 1 1 1 1 1 1 1 1 1 1 1 1 1 1 1 1 1 1 1 1 1 1 1 1 1 1 1 1 1 1 1 1 1 1 1 1 1 1 1 1 1 1 1 1 1 1 1 1 1 1 1 1 1 1 1 1 1 1 1 1 1 1 1 1 1 1 1 1 1 1 1 1 1 1 1 1 1 1 1 1 1 1 1 1 1 1 1 1 1 1 1 1 1 1 1 1 1 1 1 1 1 1 1 1 1 1 1 1 1 1 1 1 1 1 1 1 1 1 1 1 1 1 1 1 
</DataArray>
<DataArray type="Float64" Name="stress" NumberOfComponents="9" format="ascii">
0.0045576549649071103 -0.0022506052754176793 0 -0.0022506052754176793 0.013406552112489954 0 0 0 0.0044910517693492651 0.011056517993575665 -0.005764527673333809 0 -0.005764527673333809 0.033107969040050311 0 0 0 0.011041121758406495 0.015110916306526168 -0.0080239632996992674 0 -0.0080239632996992674 0.045233482214632942 0 0 0 0.015086099630289776 0.018929708028502731 -0.0095865681937903104 0 -0.0095865681937903104 0.056684785790877858 0 0 0 0.018903623454845152 0.022901086673191021 -0.010603081566025265 0 -0.010603081566025265 0.068573240534240798 0 0 0 0.022868581801857964 0.02724193673498378 -0.01120634857555162 0 -0.01120634857555162 0.081563613938395271 0 0 0 0.027201387668344755 0.032044324218356672 -0.011485594212442737 0 -0.011485594212442737 0.095953743433790317 0 0 0 0.031999516913036742 0.037418275580701703 -0.011465115718747516 0 -0.011465115718747516 0.11197356153997445 0 0 0 0.037347959280169041 0.043430672036937422 -0.011152791545190686 0 -0.011152791545190686 0.13015108781793269 0 0 0 0.043395439963717516 0.050802607939440032 -0.010907848465450579 0 -0.010907848465450579 0.15142545589882198 0 0 0 0.050557015959565493 0.0085799963788361563 0.00147852914215199 0 0.00147852914215199 0.023477630448633807 0 0 0 0.0080144067068674898 0.019944991882039704 0.0035922004297943232 0 0.0035922004297943232 0.059993580813684201 0 0 0 0.019984643173930977 0.028587212664742026 0.0050652620594063254 0 0.0050652620594063254 0.085371289839935832 0 0 0 0.028489625626169461 0.036253129518614279 0.0060780397658663421 0 0.0060780397658663421 0.1085118225476661 0 0 0 0.036191238016570093 0.043967689842156217 0.0068153881492262819 0 0.0068153881492262819 0.13161784712555666 0 0 0 0.043896384241928224 0.051831378480219882 0.0073280869787578154 0 0.0073280869787578154 0.15517450814491779 0 0 0 0.051751471656284423 0.059971753760063265 0.0076267050863903152 0 0.0076267050863903152 0.17963711251493633 0 0 0 0.059902216568749896 0.06865142105452926 0.0077447606325030637 0 0.0077447606325030637 0.20532963712970342 0 0 0 0.068495264546058157 0.077361018851507798 0.0076316640344608715 0 0.0076316640344608715 0.23250026702768162 0 0 0 0.077465321469797344 0.088940020633513486 0.0076069395989759384 0 0.0076069395989759384 0.26288274750556229 0 0 0 0.08795569203476894 0.024306763616020556 -0.007992610258003352 0 -0.007992610258003352 0.026245132851640068 0 0 0 0.012637974116915158 0.029387664857444616 -0.0082874604064594251 0 -0.0082874604064594251 0.046138382351756782 0 0 0 0.018881511802300351 0.01432052883167316 -0.0034438369679405112 0 -0.0034438369679405112 0.044944299439294982 0 0 0 0.014816207067742032 0.0097598058369252286 0.006433426865514652 0 0.006433426865514652 0.045431194538019082 0 0 0 0.013797750093736081 -0.06783018453307274 -0.012470740893590919 0 -0.012470740893590919 0.0053194229277851515 0 0 0 -0.015627690401321895 -0.051019303620351328 0.0072234868274891157 0 0.0072234868274891157 0.003100296893233487 0 0 0 -0.011979751681779463 -0.076085637235161666 -0.0089418468929417429 0 -0.0089418468929417429 -0.00065123107823761078 0 0 0 -0.01918421707834982 -0.05558263710538347 0.0052488335560605202 0 0.0052488335560605202 -0.00029145079635465795 0 0 0 -0.013968521975434535 -0.097046694736229733 0.0052567535452490571 0 0.0052567535452490571 -0.00041175087043551425 0 0 0 -0.02436461140166632 -0.16562944644435224 -0.012430977959031423 0 -0.012430977959031423 -0.00043656086391596557 0 0 0 -0.041516501827067058 0.060590526819974809 0.00010740163101069771 0 0.00010740163101069771 -0.0076810405820953616 0 0 0 0.013227371559469858 0.056467251507596107 -4.079665795172537e-05 0 -4.079665795172537e-05 -0.0065675658540968792 0 0 0 0.012474921413374808 0.010386543186208819 0.012770924741642611 0 0.012770924741642611 0.0015396051143572176 0 0 0 0.0029815370751415035 0.022096595427861031 -0.01581307654082378 0 -0.01581307654082378 0.0073582760904144003 0 0 0 0.0073637178795688584 0.0062357931666594153 0.015282485506474753 0 0.015282485506474753 0.002076376769568589 0 0 0 0.0020780424840570011 0.014227065104975671 -0.015516174032957936 0 -0.015516174032957936 0.028013658516171908 0 0 0 0.010560180905286924 0.2530976822631954 0.11570916654788263 0 0.11570916654788263 0.24639647622085725 0 0 0 0.12487353962101316 0.029669162553151773 -0.0074047073813716668 0 -0.0074047073813716668 0.012848738168183438 0 0 0 0.010629475180333969 0.046113401678304466 0.013201892573076801 0 0.013201892573076801 0.019283343575487777 0 0 0 0.016349186313448616 0.050534922793524562 0.0074847578077391324 0 0.0074847578077391324 0.032547906921275072 0 0 0 0.020770707428700241 0.028540260204587886 -0.0098712838356842438 0 -0.0098712838356842438 0.0094620311226076836 0 0 0 0.00950057283179917 0.046954882372784335 0.019285060722371572 0 0.019285060722371572 0.021694514735441928 0 0 0 0.017162349277056732 0.028313552910890549 -0.016723071736230555 0 -0.016723071736230555 0.01890892029118163 0 0 0 0.011805618300518073 0.015600777367943033 0.01523878151927445 0 0.01523878151927445 0.0010057687463251828 0 0 0 0.004151636528567048 0.26755575463621917 -0.01302790640094021 0 -0.01302790640094021 0.15138695989347006 0 0 0 0.10473567863242229 -0.20911210692077331 0.01297405268130597 0 0.01297405268130597 0.0096990113702026814 0 0 0 -0.049853273887642713 -0.11520805832778298 -0.0046122889479340212 0 -0.0046122889479340212 0.0036831210327800123 0 0 0 -0.027881234323750753 -0.027458966312084609 -0.019769674862061114 0 -0.019769674862061114 0.02173956862597165 0 0 0 -0.0014298494215282398 -0.050071467277182813 0.018886368074363731 0 0.018886368074363731 0.070830845893373517 0 0 0 0.0051898446540477039 -0.060763123147418011 -0.029029147510147624 0 -0.029029147510147624 0.011269824731164231 0 0 0 -0.012373324604063455 0.035657387133060221 -0.018020064231238642 0 -0.018020064231238642 0.056594091002520663 0 0 0 0.023062869533895212 0.01607091241569103 -0.02433894618499588 0 -0.02433894618499588 0.015182164051142699 0 0 0 0.0078132691167084323 0.040827761565327192 0.029594315945364658 0 0.029594315945364658 0.01646286761108029 0 0 0 0.014322657294101981 0.029196088536412756 -0.027388594541782885 0 -0.027388594541782885 0.016220545000510178 0 0 0 0.011354158384230595 0.01149003036905949 0.038588969539730567 0 0.038588969539730567 0.0075900665660944 0 0 0 0.0047700242337884724 -0.023252538682850994 -0.037515707149936184 0 -0.037515707149936184 0.0048966675233161746 0 0 0 -0.0045889677898837081 0.068779188215758236 -0.044136677200235376 0 -0.044136677200235376 0.076569300203074647 0 0 0 0.036337122104708221 -0.06861904980293021 0.0061024286003784622 0 0.0061024286003784622 0.018352327108239419 0 0 0 -0.01256668067367267 0.39417791385588563 0.13301692562607703 0 0.13301692562607703 0.081158936013048244 0 0 0 0.11883421246723358 0.1057080328290238 0.0019396917209881792 0 0.0019396917209881792 0.036239639901985088 0 0 0 0.035486918182752292 0.16478903480818868 -0.0037816634952327621 0 -0.0037816634952327621 0.08829412881435772 0 0 0 0.063270790905636587 0.045261889327472105 -0.020856885966764764 0 -0.020856885966764764 0.090813525586482285 0 0 0 0.034018853728488591 0.10413612370961589 -0.0072401347430601781 0 -0.0072401347430601781 0.088305598288804354 0 0 0 0.04811043049960495 0.0008598728682605028 0.0063630789114337283 0 0.0063630789114337283 0.0074311976993648443 0 0 0 0.0020727676419056706 0.034531142567672708 -0.010600823369387669 0 -0.010600823369387669 -0.00090420049180310602 0 0 0 0.0084067355189674006 0.020732545016031265 0.016310723550762327 0 0.016310723550762327 0.0026084449127337338 0 0 0 0.0058352474821912522 -0.002088030806961301 0.065015923571808076 0 0.065015923571808076 0.073604105959144267 0 0 0 0.017879018788045813 0.01019509167608211 0.052952290137193103 0 0.052952290137193103 0.051224811703593165 0 0 0 0.015354975844918836 0.23578292771821774 0.159808093049714 0 0.159808093049714 0.28414024985483155 0 0 0 0.12998079439326232 -0.0037568921297035651 0.013036864339244225 0 0.013036864339244225 0.011339889830597777 0 0 0 0.0018957494252238305 0.083473765673758943 -0.021148976934314723 0 -0.021148976934314723 0.072057515071374506 0 0 0 0.03888282018628339 0.061515150116623785 0.0079990050114287781 0 0.0079990050114287781 0.01884776645631181 0 0 0 0.020090729143233899 0.038448654134241783 -0.017766018495365927 0 -0.017766018495365927 0.069364974114285466 0 0 0 0.026953407062131826 0.051646012438379213 -0.022314539362826048 0 -0.022314539362826048 0.011134995746812038 0 0 0 0.015695252046297792 0.082787801676447753 0.0049132869092355647 0 0.0049132869092355647 0.030569961234271359 0 0 0 0.028339440727679827 -0.090057334175459469 0.017047591358304359 0 0.017047591358304359 0.0022018921191673257 0 0 0 -0.021963860514072953 -0.0051627611553974884 -0.0088806412262222301 0 -0.0088806412262222301 0.0068211293779270044 0 0 0 0.00041459205563243451 0.15396238982974619 0.020867693145233845 0 0.020867693145233845 0.13506912116594272 0 0 0 0.072257877748922006 0.12404314343647432 -0.015724806569323624 0 -0.015724806569323624 0.10062346842754563 0 0 0 0.056166652966004933 -0.0031642143309138504 0.0068927028411927055 0 0.0068927028411927055 0.010858724617625271 0 0 0 0.001923627571677855 0.051617995243127712 -0.014514255071998661 0 -0.014514255071998661 0.023432108654219741 0 0 0 0.018762525974336808 0.074909443237343498 -0.062165348259020092 0 -0.062165348259020092 0.11676211369316808 0 0 0 0.047917889232627901 0.046139734966052504 -0.011089652103395992 0 -0.011089652103395992 0.019275648642799847 0 0 0 0.016353845902213116 0.072650524967140806 -0.001476105987521209 0 -0.001476105987521209 0.012152538216554709 0 0 0 0.021200765795923837 0.0012763676147229397 -0.030760007474285173 0 -0.030760007474285173 0.012318891062261583 0 0 0 0.0033988146692460752 -0.043735611684534492 0.0097723632375084982 0 0.0097723632375084982 -0.0039260096586345022 0 0 0 -0.01191540533579225 -0.056567573726843429 -0.016925982885542021 0 -0.016925982885542021 -0.0051844732712293708 0 0 0 -0.015438011749518197 0.075635475798813093 -0.014204814509048314 0 -0.014204814509048314 0.0038141535093879409 0 0 0 0.019862407327050201 0.11401967940641322 0.018088088586393991 0 0.018088088586393991 0.048884274593760546 0 0 0 0.040725988500043386 -0.027697468318528651 -0.023637388454154112 0 -0.023637388454154112 -0.0072322510094773931 0 0 0 -0.0087324298320015127 -0.026731986562909135 0.015369045351441261 0 0.015369045351441261 -0.005146946382815723 0 0 0 -0.0079697332364312163 0.050434835430368585 -0.0051314349993043795 0 -0.0051314349993043795 -0.0061073601263079702 0 0 0 0.011081868826015154 -0.055321298844702257 0.0088156271917405257 0 0.0088156271917405257 0.0021502308401387688 0 0 0 -0.013292767001140878 -0.075235916065673897 -0.015684933317789578 0 -0.015684933317789578 0.0038490385699683355 0 0 0 -0.017846719373926383 0.058997077833871592 -0.013137958719009454 0 -0.013137958719009454 0.0036491108305953812 0 0 0 0.015661547166116729 0.054296387354576869 -0.0209735564794713 0 -0.0209735564794713 0.011692511306146125 0 0 0 0.016497224665180776 0.17734207217137021 -0.0017909139136018659 0 -0.0017909139136018659 0.16406843039007724 0 0 0 0.085352625640361723 -0.0016711273794333681 -0.0047453790258586981 0 -0.0047453790258586981 0.0038205006241590622 0 0 0 0.00053734331118154843 0.054784150913783747 -0.015473387076948814 0 -0.015473387076948814 0.00043152178204153291 0 0 0 0.01380391817395632 0.061897455879513383 0.0055522406082907372 0 0.0055522406082907372 0.025853868300553445 0 0 0 0.021937831045016717 -0.0061271260727087107 0.049377264658382491 0 0.049377264658382491 0.0074211380409394678 0 0 0 0.00032350299205763378 -0.044499942778924849 -0.017937005176870319 0 -0.017937005176870319 -0.014840329488607895 0 0 0 -0.014835068066883186 -0.036666943991374511 0.011230410426703551 0 0.011230410426703551 -0.012226789802236853 0 0 0 -0.01222343344840284 0.040230688416358275 -0.012573345472774673 0 -0.012573345472774673 -0.012508429018090253 0 0 0 0.0069305648495670081 0.053468066492051713 0.017049496053204827 0 0.017049496053204827 0.040360536616717901 0 0 0 0.023457150777191904 0.025590073213689002 -0.01583623039707005 0 -0.01583623039707005 0.011081179994053336 0 0 0 0.0091678133019356123 0.023137287654682197 -0.025415186147146995 0 -0.025415186147146995 0.011520500515076387 0 0 0 0.0086644470424395645 0.048780623092579425 0.005190629731635657 0 0.005190629731635657 -0.0026036890166244797 0 0 0 0.011544233518988738 0.0035441488491928688 -0.025767991845693377 0 -0.025767991845693377 -0.0055623287643361153 0 0 0 -0.00050454497878581238 0.072321657421142882 0.0045635598295423298 0 0.0045635598295423298 0.021845065451283729 0 0 0 0.02354168071810675 0.055470886105591394 0.0058880793521127696 0 0.0058880793521127696 -0.00024638989857206448 0 0 0 0.013806124051754829 0.045239691664587106 0.0092277578602821802 0 0.0092277578602821802 0.00092949457499379162 0 0 0 0.011542296559895217 0.04352574067138755 0.0082872590395205586 0 0.0082872590395205586 0.0031393216197681852 0 0 0 0.011666265572788933 0.055649403825255295 -0.014811105155768001 0 -0.014811105155768001 0.034464761825601875 0 0 0 0.02252854141271432 0.063583558966824813 -0.030516925375946677 0 -0.030516925375946677 0.033375152226919391 0 0 0 0.024239677798436068 0.067774887177122545 0.0042097281567218259 0 0.0042097281567218259 0.026500628105344815 0 0 0 0.023568878820616868 0.043452319643999121 -0.022480021903471877 0 -0.022480021903471877 0.09061185246892392 0 0 0 0.03351604302823076 0.21549257259830235 0.013413714321604431 0 0.013413714321604431 0.18255317295969498 0 0 0 0.099511436389498442 -0.0027387972418200235 -0.0045418150121550038 0 -0.0045418150121550038 0.0064237827618871535 0 0 0 0.00092124638001700454 -0.014068933017623575 -0.0053604246677806449 0 -0.0053604246677806449 0.0026466694095796939 0 0 0 -0.0028555659020110813 0.19261053032986108 0.0012066435685822441 0 0.0012066435685822441 0.1749198350764587 0 0 0 0.091882591351579279 0.058815539579936578 0.023950648668905301 0 0.023950648668905301 0.12162792257208602 0 0 0 0.045110865538005647 0.031458977428115639 0.012465250893864068 0 0.012465250893864068 0.001760176346277148 0 0 0 0.0083047884435981968 0.023689278201848685 0.012889187597366063 0 0.012889187597366063 0.0023425322382625291 0 0 0 0.0065079526100278069 0.12934081913567752 0.022924245734753601 0 0.022924245734753601 0.052692183967147699 0 0 0 0.045508250775706527 0.11445026185949247 0.031549508098613122 0 0.031549508098613122 0.047733936450988779 0 0 0 0.040546049577620646 0.052468356554326301 -0.03221019278746752 0 -0.03221019278746752 0.032309361711283402 0 0 0 0.021194429566402412 0.065077885026254501 0.0096547305056101651 0 0.0096547305056101651 0.010847971868026329 0 0 0 0.018981464223570221 0.045961336491408211 -0.0094413956444268088 0 -0.0094413956444268088 -0.011655130839623107 0 0 0 0.0085765514129462206 0.040413789774962565 0.012700285057727464 0 0.012700285057727464 0.079616788496060353 0 0 0 0.030007644567755724 -0.019185495874244562 0.0074153707050976219 0 0.0074153707050976219 0.0054944983434292993 0 0 0 -0.0034227493827034827 0.10785033755781326 -0.0092852576066759784 0 -0.0092852576066759784 0.094854451653047178 0 0 0 0.050676197302714998 -0.081365914630955022 0.0044832718755779318 0 0.0044832718755779318 0.0013677310241059885 0 0 0 -0.019999545901712247 -0.13061389880911481 -0.011223235826733985 0 -0.011223235826733985 0.0019027291855067546 0 0 0 -0.032177792405902017 0.084922744842208936 -0.02721158731652798 0 -0.02721158731652798 0.01557251679120647 0 0 0 0.025123815408353845 0.17796754203365778 -0.062227949483232792 0 -0.062227949483232792 0.053586532376109663 0 0 0 0.057888518602441874 0.07025074216773633 -0.012631379580556601 0 -0.012631379580556601 0.0048856609710431487 0 0 0 0.018784100784694863 0.06849911555855108 -0.020221302858047657 0 -0.020221302858047657 0.0086358172030246982 0 0 0 0.01928373319039399 0.049763512913775947 -0.0027295272499638923 0 -0.0027295272499638923 0.011227074688917735 0 0 0 0.015247646900673531 0.026190899793852918 0.0043497935131218135 0 0.0043497935131218135 0.0038449696011042533 0 0 0 0.0075089673487385156 0.079637075493052656 0.0014019315348501316 0 0.0014019315348501316 0.027354389976727234 0 0 0 0.026747866367445194 0.015363472221402573 -0.0040437554610477378 0 -0.0040437554610477378 -0.0006329127082254554 0 0 0 0.0036826398782942239 0.0083670022014666334 0.028698100091576417 0 0.028698100091576417 0.097322380129577835 0 0 0 0.026422345582761131 0.044150886282928181 -0.017208347923341805 0 -0.017208347923341805 0.013673209130094732 0 0 0 0.014456023853255728 0.072694488717311531 -0.0061320853818649934 0 -0.0061320853818649934 0.0067454415744654384 0 0 0 0.019859982572944284 0.066297954569089573 -0.0055047518000882478 0 -0.0055047518000882478 0.0089376489405587831 0 0 0 0.018808900877412084 0.05264365332256693 -0.028504477787055352 0 -0.028504477787055352 0.018798655872698022 0 0 0 0.017860577298816294 -0.1345889232864404 0.02118538923124802 0 0.02118538923124802 0.0059073247956717978 0 0 0 -0.032170399622692136 -0.021313327421634942 0.0061365597446392181 0 0.0061365597446392181 0.024328393641279866 0 0 0 0.00075376655491127265 -0.0066386852465298435 -0.0042350554811082242 0 -0.0042350554811082242 0.021835908311757968 0 0 0 0.0037993057663070484 0.046908565668039831 -0.0081639779040312277 0 -0.0081639779040312277 0.0074091536180945772 0 0 0 0.013579429821533678 -0.094618129920256644 0.033504989929642903 0 0.033504989929642903 0.0041397291657752078 0 0 0 -0.022619600188620304 -0.063711239494137692 0.011614485847485229 0 0.011614485847485229 0.0063404733572137717 0 0 0 -0.014342691534230984 -0.068185165792127897 0.00016116782078297309 0 0.00016116782078297309 0.0061497897761196296 0 0 0 -0.01550884400400207 -0.11372189146532771 -0.0050461417051829438 0 -0.0050461417051829438 0.01379992052151735 0 0 0 -0.024980492735952611 -0.10373059615049532 -0.028834018357795005 0 -0.028834018357795005 0.015445922718862415 0 0 0 -0.022071168357908177 0.04605048346646478 -0.014626254053173748 0 -0.014626254053173748 0.015160945636437745 0 0 0 0.015302857275725661 -0.080764408465197279 -0.0091348543346320976 0 -0.0091348543346320976 0.0030473048349540233 0 0 0 -0.019429275907560828 0.13101969961729099 0.067576166056816045 0 0.067576166056816045 0.033633267684296975 0 0 0 0.04116324182539699 0.029378425786885681 -0.012571448560981219 0 -0.012571448560981219 0.063854770411582829 0 0 0 0.023308299049617121 0.059390416818418723 0.019450662159053115 0 0.019450662159053115 0.025944689860620977 0 0 0 0.02133377666975992 -0.0090164170007023259 0.02683729916407307 0 0.02683729916407307 0.0084194559950190317 0 0 0 -0.00014924025142093456 0.053960714190250059 -0.023220852483565535 0 -0.023220852483565535 0.031966862235646376 0 0 0 0.021481894106474053 0.064579053585618121 -0.030232717000698933 0 -0.030232717000698933 0.036376116005121792 0 0 0 0.025238792397684968 0.041989335406876105 -0.0077178294379847134 0 -0.0077178294379847134 0.0071232738853439503 0 0 0 0.012278152323055069 0.062167864331855477 -0.0060593880089789276 0 -0.0060593880089789276 0.0081032680513657418 0 0 0 0.017567783095805339 0.023875818946076904 -0.01778945680359317 0 -0.01778945680359317 -0.0043503898956363043 0 0 0 0.0048813572626101465 0.010672346878568308 0.018420309402351259 0 0.018420309402351259 0.0008881823024066704 0 0 0 0.0028901322952437445 0.026276819615991938 -0.033519911517284506 0 -0.033519911517284506 0.020045442055652285 0 0 0 0.011580565417911089 0.00045782064412281873 -0.035192171220248154 0 -0.035192171220248154 -0.0044315742776912248 0 0 0 -0.00099343840839209718 -0.024387101110947662 -0.017483353524128754 0 -0.017483353524128754 0.029623472326114286 0 0 0 0.001309092803791656 0.046395699872568932 -0.0051641845464807283 0 -0.0051641845464807283 -0.0060553843511704057 0 0 0 0.010085078880349634 0.049246199944899476 -0.0015206951054140948 0 -0.0015206951054140948 -0.00033818710755506402 0 0 0 0.012227003209336104 0.031793261148627155 0.011162716797448919 0 0.011162716797448919 0.0032214220827181429 0 0 0 0.0087536708078363237 0.030783858215710187 0.013205250236823392 0 0.013205250236823392 0.00094991620970324639 0 0 0 0.0079334436063533582 -0.0098341553975758722 -0.028702727635190092 0 -0.028702727635190092 0.029960494953247291 0 0 0 0.0050315848889178616 0.050471358294823382 0.016465618346632981 0 0.016465618346632981 0.024234380625645147 0 0 0 0.018676434730117118 0.058377312073005595 -0.0080959981464950072 0 -0.0080959981464950072 -0.0094557496855190645 0 0 0 0.012230390596871629 0.029311333765859857 -0.032159440729148149 0 -0.032159440729148149 -0.0055315933166720389 0 0 0 0.0059449351122969566 0.047925147287433627 0.020358510627553558 0 0.020358510627553558 0.064052636253446746 0 0 0 0.027994445885220102 0.014145513840734029 0.0073723014567014704 0 0.0073723014567014704 0.0062791699489616951 0 0 0 0.0051061709474239311 0.018364135038424177 0.0097448430330596726 0 0.0097448430330596726 0.010363467636263557 0 0 0 0.0071819006686719301 -0.044490655904935734 -0.017943739688799559 0 -0.017943739688799559 -0.014810670441810119 0 0 0 -0.01482533158668646 -0.036660660790727703 0.011236356587880933 0 0.011236356587880933 -0.012206367929555824 0 0 0 -0.012216757180070884 0.20999128626029215 0.035648714216131472 0 0.035648714216131472 0.047477261594098721 0 0 0 0.064367136963597499 0.032627862870838277 0.010651966908314776 0 0.010651966908314776 0.0072094403943111784 0 0 0 0.0099593258162873639 0.015598220000976978 -0.0061784865052825167 0 -0.0061784865052825167 0.07656205704620439 0 0 0 0.02304006926179536 0.043664604703191334 -0.002528591958437465 0 -0.002528591958437465 -0.0063967162769333896 0 0 0 0.0093169721065645694 -0.071230637359092158 0.0068867583241696206 0 0.0068867583241696206 0.0020997908909736246 0 0 0 -0.017282711617029652 -0.11234396686296318 -0.013138783628943763 0 -0.013138783628943763 0.0021016941694829965 0 0 0 -0.027560568173370038 0.049261722137720128 -0.0054036598629239041 0 -0.0054036598629239041 0.0072429618363794857 0 0 0 0.014126170993524985 -0.055014493463789026 0.014765778315738097 0 0.014765778315738097 0.0020501632951585454 0 0 0 -0.013241082542157634 -0.056329709820629709 -0.040521493761318465 0 -0.040521493761318465 -0.00038923743029746494 0 0 0 -0.014179736812731797 -0.061167062233117686 0.0092373549594032683 0 0.0092373549594032683 -6.5400353634965241e-05 0 0 0 -0.015308115646688176 -0.0047744384970590378 0.012935418779833622 0 0.012935418779833622 0.001799775894786154 0 0 0 -0.00074366565056822095 0.022513044673413068 -0.022017725272810033 0 -0.022017725272810033 -0.0062742862447068004 0 0 0 0.0040596896071765677 -0.01644936656060289 -0.032703999508210457 0 -0.032703999508210457 0.011712701437413958 0 0 0 -0.0011841662807972192 0.040181426569718459 -0.016662477990581848 0 -0.016662477990581848 0.012198993067108477 0 0 0 0.013095104909206678 0.1078372230651512 0.017569245240832365 0 0.017569245240832365 0.066718815095190287 0 0 0 0.043639009540085372 -0.0108660147519688 -0.016419659354643901 0 -0.016419659354643901 0.0039803013364951845 0 0 0 -0.0017214283538682373 0.044192097863565039 -0.006428333799376843 0 -0.006428333799376843 0.0029422460368807475 0 0 0 0.011783585975111447 0.023969646187384938 0.01198504444391197 0 0.01198504444391197 0.0044978340877104561 0 0 0 0.0071168700687738468 0.010556459879555377 -0.022879208506394289 0 -0.022879208506394289 -0.0056585319469477924 0 0 0 0.0012244819831518927 -0.00026111693588909586 0.019477787559379161 0 0.019477787559379161 -0.0013719586127285271 0 0 0 -0.00040826888715440532 0.022669119798243792 -0.0063037356336482497 0 -0.0063037356336482497 0.017750901579463907 0 0 0 0.010105005344426932 0.022353243253469594 -0.018378072488671945 0 -0.018378072488671945 0.022317418389091348 0 0 0 0.011167665410640223 0.015828093445714786 0.05943600923739481 0 0.05943600923739481 0.017505205276144853 0 0 0 0.008333324680464993 0.083776879741442767 0.086821745997067712 0 0.086821745997067712 0.055522292476116286 0 0 0 0.03482479305438968 0.14332711213143065 -0.0046688300759658574 0 -0.0046688300759658574 0.061758320567977143 0 0 0 0.051271358174851928 0.010513149037800762 -0.0029290756806889112 0 -0.0029290756806889112 0.059640595420567669 0 0 0 0.017538436114592104 0.051643077650615148 0.0035479092223907331 0 0.0035479092223907331 -0.004930844941987908 0 0 0 0.011678058177156812 0.04250488596204266 -0.017453233050118894 0 -0.017453233050118894 0.0043041044983302967 0 0 0 0.011702247615093253 -0.003973099098938726 0.044143950692677847 0 0.044143950692677847 0.0038950231892256326 0 0 0 -1.9518977428134576e-05 0.062101665437554465 -0.016221533208374467 0 -0.016221533208374467 0.05605077278678694 0 0 0 0.029538109556085379 0.047108422124377131 0.0013534251717768342 0 0.0013534251717768342 0.012006269494811816 0 0 0 0.014778672904797258 0.019983049304385943 0.012022786872151716 0 0.012022786872151716 0.0014906294853406638 0 0 0 0.0053684196974316534 -0.01860332578352758 0.0095171131826307098 0 0.0095171131826307098 0.056190104384209905 0 0 0 0.0093966946501706228 -0.068700102323360518 0.0040904962608308395 0 0.0040904962608308395 -0.0022353608281142842 0 0 0 -0.017733865787868702 -0.098962978495183568 -0.0072618587698302269 0 -0.0072618587698302269 -0.0041249918908578681 0 0 0 -0.025771992596510366 0.072167663148716116 -0.013643886805333141 0 -0.013643886805333141 0.0047585411077680217 0 0 0 0.019231551064121055 -0.011405816363795281 0.014321835966920476 0 0.014321835966920476 -0.00027480062195152366 0 0 0 -0.0029201542464367021 0.0014329297257161498 -0.020077024062977591 0 -0.020077024062977591 -0.0076712016645620815 0 0 0 -0.0015595679847114803 -0.15735185508110103 -2.5195153018631178e-05 0 -2.5195153018631178e-05 0.007747549194612513 0 0 0 -0.03740107647162208 -0.089228602575022214 0.00059690590839278634 0 0.00059690590839278634 0.0025508435231981208 0 0 0 -0.021669439762956072 0.098566649544458373 0.024026260619348982 0 0.024026260619348982 0.13902995602357801 0 0 0 0.059399151392009075 0.17465109116607622 -0.0061328810433851633 0 -0.0061328810433851633 0.34259090186411112 0 0 0 0.12931049825754679 0.018228908973924707 -0.036533099095142463 0 -0.036533099095142463 0.024339923910440375 0 0 0 0.010642208221091271 -0.0050530433102670413 -0.029167972425276523 0 -0.029167972425276523 0.016682143617531731 0 0 0 0.0029072750768161237 0.067955527878315436 -0.040590907696010016 0 -0.040590907696010016 0.063673846554999386 0 0 0 0.032907343608328705 0.033927676338851243 -0.006747418814390338 0 -0.006747418814390338 -0.012909277455748325 0 0 0 0.0052545997207756878 0.049121365731186639 -0.0044099490976191608 0 -0.0044099490976191608 -0.0097379497813978623 0 0 0 0.0098458539874471968 -0.033741975413964093 -0.0020467713166840151 0 -0.0020467713166840151 0.014270276152843819 0 0 0 -0.0048679248152800891 0.051220238579167021 -0.0025523616167176105 0 -0.0025523616167176105 -0.018065419419917461 0 0 0 0.0082887047898123623 -0.12782641398925132 0.015154736540114899 0 0.015154736540114899 0.0035514361403460315 0 0 0 -0.031068744462226183 0.013144085129328076 0.021951774669312307 0 0.021951774669312307 0.011929812275420559 0 0 0 0.0062684743511871588 0.040998050152237786 -0.020869772483578686 0 -0.020869772483578686 0.03094733252601678 0 0 0 0.017986345669563697 0.036453295277659524 0.0099906333715326645 0 0.0099906333715326645 0.020038444405165317 0 0 0 0.014122934920706206 0.013487725301331632 -0.014263574253928615 0 -0.014263574253928615 0.021704608148610416 0 0 0 0.0087980833624855259 0.05787423176350795 0.0109995141726654 0 0.0109995141726654 0.0040787204700138829 0 0 0 0.015488238058380463 0.06387465087085345 0.01493818081595244 0 0.01493818081595244 0.0116564046734903 0 0 0 0.018882763886085934 -0.019408447598986436 -0.031602052100775505 0 -0.031602052100775505 -0.0012613251128143557 0 0 0 -0.0051674431779501866 -3.1492150387446571e-05 -0.026996923842434462 0 -0.026996923842434462 0.0061914833303406969 0 0 0 0.0015399977949882571 -0.069749727916174037 -0.02557008028170548 0 -0.02557008028170548 -0.0066044876195232183 0 0 0 -0.019088553883924289 0.046996556472835849 0.042553986360263751 0 0.042553986360263751 0.016991253710731513 0 0 0 0.01599695254589184 0.041203584804735682 0.039376625999588688 0 0.039376625999588688 0.015606297466764063 0 0 0 0.01420247056787477 0.038639948111770739 0.041876076797204842 0 0.041876076797204842 0.012007315582362565 0 0 0 0.012661815923533215 0.0061007123140017772 -0.028599883236221646 0 -0.028599883236221646 0.0091280587990620887 0 0 0 0.003807192778265911 0.00091859555299051571 -0.023057709729840115 0 -0.023057709729840115 0.0071239071410423502 0 0 0 0.0020106256735082442 0.14691736762500579 0.041479306815521665 0 0.041479306815521665 0.074899968848406107 0 0 0 0.055454334118353002 0.043725456613385734 -0.0051177000738157619 0 -0.0051177000738157619 0.014562900347980053 0 0 0 0.014572089240341446 0.028467284364363112 0.012268208332820531 0 0.012268208332820531 0.0094837052066588899 0 0 0 0.009487747392755503 0.037459056821078932 0.011184225853074947 0 0.011184225853074947 0.0083951267819536574 0 0 0 0.011463545900758139 0.060930196830237121 -0.0099019037465367388 0 -0.0099019037465367388 0.10363161488595907 0 0 0 0.041140452929049026 -0.038050262445201863 -0.037416113842173408 0 -0.037416113842173408 -0.00229876351824293 0 0 0 -0.010087256490861202 0.041406009971199906 0.005353097381805145 0 0.005353097381805145 0.0048507989880296667 0 0 0 0.011564202239807392 -0.10121433663051869 -0.0095202016192999853 0 -0.0095202016192999853 -0.0057393596498192291 0 0 0 -0.02673842407008448 -0.067822413090514969 0.0047149521360753243 0 0.0047149521360753243 -0.0026481010745778161 0 0 0 -0.017617628541273196 -0.076074696107097106 -0.005358962699240466 0 -0.005358962699240466 0.0023672636473381914 0 0 0 -0.01842685811493977 0.038423183801634536 0.010372361077223171 0 0.010372361077223171 0.001568722816660699 0 0 0 0.009997976654573814 0.049145047384075158 -0.014320490729563928 0 -0.014320490729563928 0.034141265925359598 0 0 0 0.020821578327358703 0.039304431675064457 0.014959897669616678 0 0.014959897669616678 0.04514007415866042 0 0 0 0.021111126458431211 0.086114347690360055 0.048289377671429379 0 0.048289377671429379 0.016361853933806014 0 0 0 0.0256190504060416 0.055001218343104001 0.0021923509074858872 0 0.0021923509074858872 -0.0030507600595321999 0 0 0 0.012987614570892952 0.020596644222374394 0.019476498488073535 0 0.019476498488073535 0.016763532023519545 0 0 0 0.0093400440614734848 0.042322648918783567 -0.017252936523368012 0 -0.017252936523368012 0.022019344558201759 0 0 0 0.016085498369246221 0.038585624199900956 0.011052573263759802 0 0.011052573263759802 0.001236248846633578 0 0 0 0.0099554682616336335 0.025912102506059433 0.0062361100782297564 0 0.0062361100782297564 0.058050482906386001 0 0 0 0.020990646353111344 0.088465911413436071 0.012971743259572177 0 0.012971743259572177 0.045998535921359718 0 0 0 0.033616111833699058 0.020733089987007292 0.01413413548614173 0 0.01413413548614173 0.013156546130772107 0 0 0 0.008472409029444572 0.011041462777878097 -0.011663729811680623 0 -0.011663729811680623 0.0040268926960873586 0 0 0 0.0037670888684910864 0.053831719549041424 -0.013438025448050617 0 -0.013438025448050617 0.024063194614369454 0 0 0 0.019473728540852608 -0.059980455668895427 -0.0069279933223233281 0 -0.0069279933223233281 0.030909828781901905 0 0 0 -0.0072676567217483945 -0.042508222954796268 -0.018116712794342238 0 -0.018116712794342238 0.010020321512455466 0 0 0 -0.0081219753605852735 -0.061736815466188699 -0.018071621114272879 0 -0.018071621114272879 0.0094526045021944283 0 0 0 -0.013071052740998568 -0.096204753741307325 0.043455015217386372 0 0.043455015217386372 0.023682673373924601 0 0 0 -0.018130520091845792 -0.058577226709451036 0.043319247269402783 0 0.043319247269402783 0.024558625771866183 0 0 0 -0.0085046502343962271 0.022188905482006249 0.01150905034450761 0 0.01150905034450761 0.0010476620893618022 0 0 0 0.0058091418928420142 0.20604431446390636 0.033317780955568782 0 0.033317780955568782 0.041912767992173361 0 0 0 0.061989270614020042 -0.023128688786008291 -0.022836139393458441 0 -0.022836139393458441 -0.0081307185502739257 0 0 0 -0.0078148518340705533 -0.025233168317706257 0.014542308118291162 0 0.014542308118291162 -0.002517900658047207 0 0 0 -0.006937767243938367 0.021298302917980183 -0.0089931895088272568 0 -0.0089931895088272568 0.042217499832669259 0 0 0 0.01587895068766236 -0.0016473204470197366 0.016519049888203453 0 0.016519049888203453 -0.0010632824698069213 0 0 0 -0.00067765072920666436 0.01614015751564149 -0.023966892294523468 0 -0.023966892294523468 -0.013964203729329799 0 0 0 0.00054398844657792961 -0.074122272071527773 -0.030790966320998547 0 -0.030790966320998547 0.0035244372586979988 0 0 0 -0.017649458703207437 -0.075142092133799937 -0.029510213731997435 0 -0.029510213731997435 -0.0010280106530490621 0 0 0 -0.019042525696712241 0.094659442974516228 0.025495621622635189 0 0.025495621622635189 0.06604905374123593 0 0 0 0.040177124178937706 0.0054914480862005011 -0.017557882111834344 0 -0.017557882111834344 0.0085646600524378336 0 0 0 0.0035140270346594171 0.091960317985617421 0.0041020618473730508 0 0.0041020618473730508 -0.016994772374131203 0 0 0 0.018741386402871471 0.061290237622573573 -0.0021668314075601325 0 -0.0021668314075601325 -0.039373684311613699 0 0 0 0.0054791383277400518 -0.00051322592163679723 0.010966986954942953 0 0.010966986954942953 0.0061319149913632576 0 0 0 0.0014046722674316142 0.088385842756748267 -0.013153767620657175 0 -0.013153767620657175 0.086710680834573894 0 0 0 0.043774130897830499 0.15092954853536644 0.010283140378032796 0 0.010283140378032796 0.15711240682751471 0 0 0 0.077010488840720259 0.083083211129282658 0.014368111992223542 0 0.014368111992223542 0.043938091701240821 0 0 0 0.031755325707630871 -0.057661839647728502 -0.0060095127405442525 0 -0.0060095127405442525 0.0114173467822552 0 0 0 -0.011561123216368291 0.037056224479699862 0.0019507834659540091 0 0.0019507834659540091 -0.030328063854486054 0 0 0 0.0016820401563034104 -0.073992003678458901 -0.040848920584460817 0 -0.040848920584460817 0.0095419393107318839 0 0 0 -0.016112516091931747 0.036889481000021082 0.0091944590142275968 0 0.0091944590142275968 0.017352206089145041 0 0 0 0.013560421772291539 -0.012787985469122798 -0.027620279566837769 0 -0.027620279566837769 0.028736634821184714 0 0 0 0.003987162338015493 -0.0062252946554993138 -0.020998008565556503 0 -0.020998008565556503 0.024151424450371883 0 0 0 0.0044815324487181285 -0.0037434411822654789 0.015471517546153411 0 0.015471517546153411 0.0016941479456449686 0 0 0 -0.00051232330915512887 -0.038929515744951015 -0.013485038887095901 0 -0.013485038887095901 0.016304379241217415 0 0 0 -0.005656284125933414 -0.012854884279459102 0.011751687978093343 0 0.011751687978093343 0.0036216320502476668 0 0 0 -0.0023083130573028562 0.024379028403111066 -0.024382281229316592 0 -0.024382281229316592 -0.014740064270234804 0 0 0 0.0024097410332190594 -0.062767206142140458 -0.0045550121899475549 0 -0.0045550121899475549 0.011922226000801284 0 0 0 -0.012711245035334828 -0.10878461935010031 0.0098035957264169249 0 0.0098035957264169249 0.040844062039834261 0 0 0 -0.016985139327566456 -0.026145890625385932 -0.024955361103079485 0 -0.024955361103079485 -0.0033396929031519404 0 0 0 -0.007371395882134469 -0.025332313360285019 0.016853894930593478 0 0.016853894930593478 -0.0018239450515011163 0 0 0 -0.0067890646029465374 -0.016381099175047251 0.01754378958614132 0 0.01754378958614132 0.00024261852546116069 0 0 0 -0.0040346201623965164 -0.0054573676679159182 -0.032477807652402532 0 -0.032477807652402532 -0.011374118272603831 0 0 0 -0.0042078714851299347 0.040298252488896763 -0.012013485123280061 0 -0.012013485123280061 -0.0095455981543235702 0 0 0 0.0076881635836433017 0.052614598103843543 -0.04081013608644346 0 -0.04081013608644346 0.056673976994142866 0 0 0 0.027322143774496571 0.06001766672987232 0.0058707901626557871 0 0.0058707901626557871 -0.0031562191537828355 0 0 0 0.014215361894022347 0.014212275183667078 0.024491035464762057 0 0.024491035464762057 0.01285274031791328 0 0 0 0.0067662538753952006 0.052143483323469964 -0.024026781441781053 0 -0.024026781441781053 0.033878316737468772 0 0 0 0.021505450015234739 -0.013419262838515153 0.017280913204606015 0 0.017280913204606015 -0.00060017784676880126 0 0 0 -0.0035048601713209941 0.0022475276832061063 -0.028366638262495636 0 -0.028366638262495636 -0.014313874525580627 0 0 0 -0.0030165867105936299 0.050706505822068648 0.010312877994005463 0 0.010312877994005463 0.0025885634718517958 0 0 0 0.013323767323480102 0.023700121364237048 -0.029450979816337007 0 -0.029450979816337007 0.036983466153355793 0 0 0 0.015170896879398155 -0.085945647857492702 0.012986979480260667 0 0.012986979480260667 0.0034843603756353758 0 0 0 -0.020615321870464554 0.082279784334526429 -0.014211641169230016 0 -0.014211641169230016 0.053236460049444156 0 0 0 0.033879061095992702 -0.017369685938634083 -0.027748152571607676 0 -0.027748152571607676 0.0067814744135121785 0 0 0 -0.0026470528812805316 0.018315255139299859 -0.0060768524472481766 0 -0.0060768524472481766 0.064955505527949708 0 0 0 0.020817690166812404 -0.07248138051000344 -0.022387972746949949 0 -0.022387972746949949 -0.00050180642966060618 0 0 0 -0.018245796734916019 -0.051910025457195599 0.010688621583887654 0 0.010688621583887654 0.001460883587835346 0 0 0 -0.01261228546734007 0.078706001733319694 0.0048666829143706753 0 0.0048666829143706753 0.0044202936028971684 0 0 0 0.02078157383405423 0.044437481121610757 0.0088166498468491318 0 0.0088166498468491318 0.00088801409296428158 0 0 0 0.011331373803643758 0.027016218032431816 -0.019522796948201998 0 -0.019522796948201998 0.017990442547253349 0 0 0 0.011251665144921291 -0.074065607095254074 -0.023765565701798479 0 -0.023765565701798479 -0.00092714301509385505 0 0 0 -0.018748187527586974 -0.054055123576681768 0.012202548546222918 0 0.012202548546222918 4.7676824604471479e-05 0 0 0 -0.013501861688019333 0.037346824150033632 0.01144908277875439 0 0.01144908277875439 0.064074633596454045 0 0 0 0.025355364436621942 0.013607587307532309 -0.022561432625925526 0 -0.022561432625925526 0.0091942215308931097 0 0 0 0.0057004522096064658 0.043641494699454331 0.031130660293631485 0 0.031130660293631485 0.026605220637927474 0 0 0 0.01756167883434534 -0.048764360686549185 0.0079078612266182402 0 0.0079078612266182402 0.010692739372527515 0 0 0 -0.0095179053285054365 -0.032225832481189903 -0.00022595821292961671 0 -0.00022595821292961671 0.012604995111137718 0 0 0 -0.0049052093425130394 0.035647582623003736 -0.0055758389089652707 0 -0.0055758389089652707 0.024999638550232531 0 0 0 0.015161805293309065 0.026656616181671353 -0.0046047628590696055 0 -0.0046047628590696055 0.034396704953972138 0 0 0 0.015263330283910873 0.023640547799223238 -0.018142649383906799 0 -0.018142649383906799 -0.010135633301543386 0 0 0 0.0033762286244199621 0.028819135463223913 -0.014123933210723857 0 -0.014123933210723857 -0.0066432061453173957 0 0 0 0.0055439823294766207 0.0064946404569110154 0.013004565223746645 0 0.013004565223746645 -0.00020799975518773217 0 0 0 0.0015716601754308182 0.0060293352886142404 0.017068329110932277 0 0.017068329110932277 -9.7784276865464648e-05 0 0 0 0.0014828877529371939 0.042324088381799518 -0.012576725758281782 0 -0.012576725758281782 0.013307744474087446 0 0 0 0.013907958213971783 0.028591757384710859 0.0045387089055610556 0 0.0045387089055610556 0.069038831434205486 0 0 0 0.024407647204729089 0.067781797269968733 0.0088640246098378034 0 0.0088640246098378034 0.0034212596212447287 0 0 0 0.017800764222803342 0.081513455576670557 0.031710447602674184 0 0.031710447602674184 0.029254288216070456 0 0 0 0.027691935948185087 -0.012602176385468677 -0.021868710462306762 0 -0.021868710462306762 0.0055887714902316254 0 0 0 -0.001753351223809263 0.085883712987794958 0.045973891223388019 0 0.045973891223388019 0.017897909942325985 0 0 0 0.025945405732529903 0.073866874461883503 -0.01402580477740553 0 -0.01402580477740553 -0.00023759433424597426 0 0 0 0.018407320031909376 0.082108593783895914 -0.002998054329399414 0 -0.002998054329399414 0.01288146288895585 0 0 0 0.023747514168212962 0.0092377221919378583 0.049319839864552129 0 0.049319839864552129 0.0057452105494100181 0 0 0 0.0037457331853368858 0.041947547261615648 0.05362967772499716 0 0.05362967772499716 0.011523541341771804 0 0 0 0.013367772150846946 -0.034326136925407057 -0.021879619240709615 0 -0.021879619240709615 -0.0020082505651147775 0 0 0 -0.0090835968726304638 -0.032355269753339785 0.013181848359707971 0 0.013181848359707971 -0.0006452784262895063 0 0 0 -0.0082501370449073134 0.027644693892758365 -0.027956137033438633 0 -0.027956137033438633 0.019379668408764816 0 0 0 0.011756090575380851 0.11480010873130231 -0.014745896244566048 0 -0.014745896244566048 0.088831771316017161 0 0 0 0.050907970011829895 0.18921117361033307 0.014968676806501324 0 0.014968676806501324 0.16330093114945943 0 0 0 0.088128026189948194 0.027699891432479508 0.0062062876863407095 0 0.0062062876863407095 0.04365464017505781 0 0 0 0.017838632901884331 0.075099797676123903 0.01373298795525435 0 0.01373298795525435 0.0078177457281764437 0 0 0 0.020729385851075102 0.036884136088236541 -0.0041865877329277101 0 -0.0041865877329277101 0.0022881416375732933 0 0 0 0.0097930694314524724 0.044829492426704698 -0.0020826047280810278 0 -0.0020826047280810278 0.005997444975995414 0 0 0 0.012706734350674986 0.058992185620167309 -0.0033302237414426922 0 -0.0033302237414426922 0.0062346415589035198 0 0 0 0.016306706794767728 -0.0052067354798578103 0.013746898586711076 0 0.013746898586711076 0.0078314004873385468 0 0 0 0.0006561662518697331 0.070635473577215474 -0.013636100337401036 0 -0.013636100337401036 0.047809440659653257 0 0 0 0.02961122855921719 0.084957544548920627 -0.017372764680798736 0 -0.017372764680798736 0.030136765112065422 0 0 0 0.028773577415246554 0.13399182995561298 0.022292599421257053 0 0.022292599421257053 0.079087528358184445 0 0 0 0.053269839578449329 0.08322895515004114 0.016705758403160686 0 0.016705758403160686 0.044577862999461537 0 0 0 0.031951704537375836 0.0053729459484054831 -0.016839785669307883 0 -0.016839785669307883 0.0066942540483856394 0 0 0 0.003016799999197628 0.049119848570742759 0.007167908741324067 0 0.007167908741324067 -0.0022607676294393829 0 0 0 0.011714770235325841 0.056529614322635112 0.0094776553117323584 0 0.0094776553117323584 0.0016744376153403281 0 0 0 0.014551012984493863 0.078702515985944466 0.031934230774988803 0 0.031934230774988803 0.046304893054024632 0 0 0 0.031251852259992496 0.0018736453697409949 -0.022115561165342412 0 -0.022115561165342412 0.0072981823944582302 0 0 0 0.0022929569410496953 -0.010704864889095361 -0.024505196555810488 0 -0.024505196555810488 -0.0066509571060965403 0 0 0 -0.004338955498797978 -0.016840756123762929 0.017033994018243619 0 0.017033994018243619 -0.0027287711270938472 0 0 0 -0.0048923818127141923 0.097594745368365543 0.060023351767596544 0 0.060023351767596544 0.025736027602698108 0 0 0 0.03083269324276583 -0.049764374233895708 -0.021231141437689852 0 -0.021231141437689852 -0.0062206124910365174 0 0 0 -0.013996246681233053 -0.040633554393615046 0.01275720014551286 0 0.01275720014551286 -0.0029735392231920975 0 0 0 -0.01090177340420178 -0.027053441656007315 0.0094711125121487161 0 0.0094711125121487161 0.0033361361506578646 0 0 0 -0.0059293263763375847 0.081747073381003732 -0.012327003775068235 0 -0.012327003775068235 0.072108682986979922 0 0 0 0.03846393909199608 0.03202647898708047 -0.020170963313571627 0 -0.020170963313571627 0.084377385130865942 0 0 0 0.029100966029486586 -0.007925603372495954 -0.013110117390015413 0 -0.013110117390015413 0.080179308614329814 0 0 0 0.018063426310458458 -0.006998067492544835 -0.027962209127276212 0 -0.027962209127276212 0.010534925275069495 0 0 0 0.00088421444563113738 0.079305452890918532 -0.022131205272316427 0 -0.022131205272316427 0.007593035831713224 0 0 0 0.021724622180657932 0.015438897369876692 0.064482445366868757 0 0.064482445366868757 0.021602857756074068 0 0 0 0.0092604387814878564 -0.050821684943296308 0.034712416309020777 0 0.034712416309020777 0.026748108438872986 0 0 0 -0.0060183941261058305 -0.037710104243308618 -0.013448939382109018 0 -0.013448939382109018 0.010259955784845731 0 0 0 -0.0068625371146158187 0.06426860550679106 -0.045864904616960911 0 -0.045864904616960911 0.039488340663057286 0 0 0 0.025939236542462135 0.079017542603680269 -0.012055063329033278 0 -0.012055063329033278 0.056862088760490481 0 0 0 0.033969907841042757 0.13428359986810989 0.0097559863546106407 0 0.0097559863546106407 0.10117324411356265 0 0 0 0.058864210995418165 0.029659110662362875 -0.013867338867581576 0 -0.013867338867581576 0.045234942405374096 0 0 0 0.018723513266934236 0.030015444136599054 -0.0085612076036379846 0 -0.0085612076036379846 0.044415342872566488 0 0 0 0.018607696752291389 0.055279555433137617 0.024692402623828283 0 0.024692402623828283 0.096484159971990266 0 0 0 0.03794092885128196 0.048060216901263053 -0.021060967613692083 0 -0.021060967613692083 0.056037356747679179 0 0 0 0.026024393412235544 0.13181526362805718 0.0070871298966903584 0 0.0070871298966903584 0.093834545028506966 0 0 0 0.056412452164141147 -0.0082218372753553037 -0.011275664415016706 0 -0.011275664415016706 0.0030230944266582682 0 0 0 -0.0012996857121743144 0.038452102360869191 0.015778704928889092 0 0.015778704928889092 0.05863240913177821 0 0 0 0.024271127873161873 0.080231902473220873 0.0058366771960911001 0 0.0058366771960911001 0.029926879731283981 0 0 0 0.027539695551126231 0.047546953532834751 -0.0030104460076725292 0 -0.0030104460076725292 0.0075881622280502548 0 0 0 0.013783778940221175 0.055532165218944531 0.02209621498706402 0 0.02209621498706402 0.039290305362943423 0 0 0 0.023705617645471987 0.045954002733178304 -0.0068408225392193028 0 -0.0068408225392193028 -0.0089279583396486492 0 0 0 0.0092565110983824118 -0.093494334833394532 -0.008102548232420138 0 -0.008102548232420138 0.0027883828370074415 0 0 0 -0.022676487999096828 0.024105585791747163 -0.017949860833508365 0 -0.017949860833508365 -0.013099197042236305 0 0 0 0.0027515971873777086 0.064579011475004625 0.0093928451673492563 0 0.0093928451673492563 0.0022647280310864959 0 0 0 0.016710934876522778 0.038950737764436957 0.013997243648651887 0 0.013997243648651887 0.082378850811150151 0 0 0 0.030332397143896767 -0.15433659870682814 0.017217474144619684 0 0.017217474144619684 0.0051436005435774312 0 0 0 -0.037298249540812622 0.039452500600780677 0.0093824086879530193 0 0.0093824086879530193 0.0024107579402521287 0 0 0 0.010465814635258199 0.064033662552757289 -0.0037355251716654414 0 -0.0037355251716654414 -0.0059975122497844492 0 0 0 0.014509037575743219 0.036584744308981745 -0.020502152805983054 0 -0.020502152805983054 0.01299225172534868 0 0 0 0.012394249008582561 -0.035932769669157039 -0.019432844617431555 0 -0.019432844617431555 0.0040518510633988924 0 0 0 -0.0079702296514395643 0.040806685813053779 -0.018235375906974046 0 -0.018235375906974046 -0.013631622138133535 0 0 0 0.0067937659187300697 0.048721368842978612 0.0056277407630522351 0 0.0056277407630522351 0.0014385017317940854 0 0 0 0.012539967643693181 0.060374684542355075 -0.01036941031717232 0 -0.01036941031717232 -0.0025313838171053338 0 0 0 0.014460825181312436 0.034626568390865795 -0.021001409204466304 0 -0.021001409204466304 0.01876589229852671 0 0 0 0.013348115172348088 0.057345063169772614 -0.012581546179261605 0 -0.012581546179261605 0.039231831873108858 0 0 0 0.02414422376072034 -0.025648698950754285 -0.041797296422075365 0 -0.041797296422075365 -0.0055569081691715632 0 0 0 -0.0078014017799814591 0.15378779282678162 0.0059849214746079404 0 0.0059849214746079404 0.13826478423614785 0 0 0 0.073013144265732188 -0.022196450834641585 -0.0069607270088647422 0 -0.0069607270088647422 0.0008250959212479092 0 0 0 -0.0053428387283483703 0.056152989777205085 0.0049187314067926109 0 0.0049187314067926109 -0.0036448649655070821 0 0 0 0.013127031202924496 0.061209768371611163 0.0063346291691649481 0 0.0063346291691649481 -0.0038317373272365295 0 0 0 0.014344507761093674 -0.0055269170396954337 0.018805535503111814 0 0.018805535503111814 0.0080799372980440154 0 0 0 0.00063825506458670134 0.060077247438740322 -0.023524171484704814 0 -0.023524171484704814 0.051351584874324452 0 0 0 0.027857208078266193 0.056902613417137704 0.015264095753224639 0 0.015264095753224639 0.013546826796240953 0 0 0 0.017612360053344659 0.050022096857814759 0.013275297003512619 0 0.013275297003512619 0.012718692622202724 0 0 0 0.015685197370004386 0.054205540551151683 0.0078252345479317802 0 0.0078252345479317802 -0.001573434824647368 0 0 0 0.013158026431626078 -0.036961464452266835 0.012947635683194465 0 0.012947635683194465 0.00030663903635558265 0 0 0 -0.0091637063539778182 0.0095153039860449082 0.0050477069690452979 0 0.0050477069690452979 0.019393847368761541 0 0 0 0.0072272878387016071 0.029806709553235108 -0.00067685189481732355 0 -0.00067685189481732355 0.022632698570140747 0 0 0 0.013109852030843964 -0.045136291192125852 0.015726790969240234 0 0.015726790969240234 -0.00031411311257370858 0 0 0 -0.011362601076174884 0.15746201253312203 0.091305875232909561 0 0.091305875232909561 0.073414679237052582 0 0 0 0.057719172942543515 0.046413093345095913 0.023836114423702037 0 0.023836114423702037 0.022807292298217874 0 0 0 0.017305096410828558 0.020857811704728668 -0.021224827233340349 0 -0.021224827233340349 0.016289406044160515 0 0 0 0.0092868044372225178 0.030043188013781051 0.0094331890730600249 0 0.0094331890730600249 0.012810110630922272 0 0 0 0.010713324661175826 0.042987221311547509 0.0074236429025433849 0 0.0074236429025433849 0.0069653586411476866 0 0 0 0.012488144988173801 0.093993203502201 -0.0084994721920909309 0 -0.0084994721920909309 0.022221418017534827 0 0 0 0.029053655379933971 0.072716841394403153 0.004141508878252681 0 0.004141508878252681 0.022008526171696019 0 0 0 0.023681341891524821 0.048480418065048159 -0.011000425593915897 0 -0.011000425593915897 -0.00027146682626111307 0 0 0 0.012052237809696664 0.044418570502771412 0.011696088761798715 0 0.011696088761798715 0.0056842361830109836 0 0 0 0.012525701671445597 -0.05439957740029594 -0.013891113600414895 0 -0.013891113600414895 0.0022139887734555774 0 0 0 -0.013046397156709966 -0.043974365079438749 -0.021568197156560054 0 -0.021568197156560054 0.0057455884864483497 0 0 0 -0.0095571941482475165 0.044910926080837105 0.0026492754389162592 0 0.0026492754389162592 0.014960466767256769 0 0 0 0.014967848212023467 -0.0538233426622442 0.047850695281212441 0 0.047850695281212441 0.010744913006591084 0 0 0 -0.010769607413913307 -0.081330275905270644 0.032730452435840551 0 0.032730452435840551 0.0030765227596809552 0 0 0 -0.019563438286397394 0.075882790308020587 -0.0091959185568661339 0 -0.0091959185568661339 0.050672835812718864 0 0 0 0.031638906530184863 0.12384591564974434 0.0072759242210136965 0 0.0072759242210136965 0.092480108738544287 0 0 0 0.054081506097072074 0.076080476552822018 -0.027248417620379328 0 -0.027248417620379328 0.0089287009458913769 0 0 0 0.021252294374678342 0.044661950129725736 -0.010163883358338621 0 -0.010163883358338621 0.011616802784964242 0 0 0 0.014069688228672383 0.121556035965316 0.045412339873695404 0 0.045412339873695404 0.12040362852691139 0 0 0 0.060489916123056847 0.049544879639863142 -0.014097130803631529 0 -0.014097130803631529 -0.0091047145737612589 0 0 0 0.010110041266525467 0.035126724278591481 -0.021271210283882597 0 -0.021271210283882597 0.037044903500071849 0 0 0 0.018042906944665829 0.1604845308776584 0.02973060551142126 0 0.02973060551142126 0.030173343988426637 0 0 0 0.047664468716521302 0.031603197375296314 0.0072162698198214997 0 0.0072162698198214997 0.013014770052737823 0 0 0 0.011154491857008536 0.04999020937384735 0.026591633062372999 0 0.026591633062372999 0.032523729457245132 0 0 0 0.02062848470777312 0.019271120388044904 -0.020848181583371428 0 -0.020848181583371428 0.011350772934661801 0 0 0 0.0076554733306766209 0.030662463107664982 0.0095929463365064371 0 0.0095929463365064371 0.0029235679368287693 0 0 0 0.0083965077611234378 0.0082021719514870917 -0.012010202854065299 0 -0.012010202854065299 0.066820328482430941 0 0 0 0.018755625108479487 0.12022728427813467 0.024911556306121518 0 0.024911556306121518 0.092755755834610376 0 0 0 0.053245760028186151 -0.0085488323301692315 -0.013785023657452156 0 -0.013785023657452156 0.0053050669961411945 0 0 0 -0.00081094133350712028 -0.11133959991920053 0.0034790530912562267 0 0.0034790530912562267 0.0019745228413913379 0 0 0 -0.027341269269452285 -0.19421919447814967 -0.010124365311918432 0 -0.010124365311918432 0.0026412388117521834 0 0 0 -0.047894488916599358 0.058816968345752785 0.012775837728001706 0 0.012775837728001706 0.11207138148333295 0 0 0 0.042722087457271463 -0.017791317915333366 0.017454974570408198 0 0.017454974570408198 0.0020851929172003431 0 0 0 -0.0039265312495332608 0.13114949903463885 -0.018393489752880687 0 -0.018393489752880687 0.086676033375434253 0 0 0 0.054456383102518172 0.16762731007813608 -0.0039140150611380875 0 -0.0039140150611380875 0.10809162317211363 0 0 0 0.068929733312562524 0.26143688811402482 0.0017917853705359255 0 0.0017917853705359255 0.19874492922093645 0 0 0 0.11504545433374047 0.20342744582712291 0.023184987364260667 0 0.023184987364260667 0.17128412892560263 0 0 0 0.093677893688181357 0.06422674658350408 -0.01480709548441278 0 -0.01480709548441278 0.022663184646534051 0 0 0 0.021722482807509547 0.1042605785254736 0.019022196210117165 0 0.019022196210117165 0.056676921683772585 0 0 0 0.040234375052311311 0.12712733583446603 0.011921976591790617 0 0.011921976591790617 0.12732486784858665 0 0 0 0.06361305092076322 0.064059916382514959 -0.015566226701291763 0 -0.015566226701291763 0.064921990626652937 0 0 0 0.032245476752292002 0.038327516789708888 0.0057687017990791789 0 0.0057687017990791789 0.057850591474847723 0 0 0 0.024044527066139104 0.10397328796628935 0.0021814157717661153 0 0.0021814157717661153 0.080540649888595439 0 0 0 0.046128484463721975 0.019095381543376089 0.012483580457938737 0 0.012483580457938737 0.010254918302569749 0 0 0 0.0073375749614865704 0.010349414693250569 -0.009694717893425242 0 -0.009694717893425242 0.0046599543486323114 0 0 0 0.0037523422604706091 0.061055823042762025 -0.0079100575692445108 0 -0.0079100575692445108 0.0394239059020558 0 0 0 0.025119932236203901 0.042576583558192424 0.010484872554307433 0 0.010484872554307433 0.0053330315498693326 0 0 0 0.011977403777015453 0.14597327268944141 0.017213154209815063 0 0.017213154209815063 0.096894292506007673 0 0 0 0.060716891298862513 0.0033498035354037337 -0.011063053994910366 0 -0.011063053994910366 0.0068096725671236147 0 0 0 0.0025398690256321077 0.031189284539821473 -0.0020929923234673151 0 -0.0020929923234673151 0.082647421869772364 0 0 0 0.028459176602398464 0.0073641786389684327 0.014923129887522535 0 0.014923129887522535 0.012227923488666192 0 0 0 0.0048980255319084343 0.087425896971591754 -0.017676008862961945 0 -0.017676008862961945 0.052117637148113793 0 0 0 0.034885883529925943 0.056996563133514422 -0.022642869864043458 0 -0.022642869864043458 0.026005948198272399 0 0 0 0.020750627832946733 0.03423710822550137 -0.01966496990733449 0 -0.01966496990733449 0.011398495545863419 0 0 0 0.01140890094284118 0.035911911542265376 -0.017747108821224669 0 -0.017747108821224669 0.015308174508503691 0 0 0 0.012805021512692305 0.04940887455751744 -0.017823511560146183 0 -0.017823511560146183 -0.006620328835650259 0 0 0 0.010697136430466794 0.063339055690987744 0.071137509394924026 0 0.071137509394924026 0.024435714399634212 0 0 0 0.0219436925226556 -0.063835294412918353 -0.0069258288771412158 0 -0.0069258288771412158 0.0021859871650036222 0 0 0 -0.015412326811978683 0.1036169068507467 -0.027988245978427261 0 -0.027988245978427261 0.041563934609365007 0 0 0 0.03629521036502794 0.05951299710128595 -0.017451632892104246 0 -0.017451632892104246 0.026521071375989469 0 0 0 0.021508517119318851 0.071727820980963794 0.022051056903934059 0 0.022051056903934059 0.022863981089753516 0 0 0 0.023647950517679327 0.048955362447030304 -0.0032354640893947906 0 -0.0032354640893947906 0.0080309224008205948 0 0 0 0.014246571211962766 0.059261442098547057 0.0016094350784382414 0 0.0016094350784382414 0.014276019980314247 0 0 0 0.01838436551971534 -0.23693854168705003 0.00318780484987929 0 0.00318780484987929 0.0089491519315856305 0 0 0 -0.056997347438866142 -0.12709789450364473 -0.0012961290916262528 0 -0.0012961290916262528 0.0037487792906267803 0 0 0 -0.030837278803254486 0.036354773133306387 -0.01068400396918555 0 -0.01068400396918555 0.012115070950050662 0 0 0 0.012117461020839264 0.017951646436037964 0.014206755499228963 0 0.014206755499228963 0.005983988107150888 0 0 0 0.0059839086357972131 0.081819254523117224 0.0033236245612144402 0 0.0033236245612144402 0.007360828370496203 0 0 0 0.022295020723403357 0.062430240710223059 0.019499348313543843 0 0.019499348313543843 0.025775566552962835 0 0 0 0.022051451815796496 0.066755131611163185 0.010951186777274607 0 0.010951186777274607 0.0070461723243723223 0 0 0 0.01845032598388387 -0.054752680626708281 -0.026561512074001904 0 -0.026561512074001904 -0.0058845197208166541 0 0 0 -0.015159300086881239 -0.044213184499374628 0.014059174279465979 0 0.014059174279465979 -0.00053614456319656112 0 0 0 -0.011187332265642808 0.15978134319561343 0.029892311794548099 0 0.029892311794548099 0.036077558569370893 0 0 0 0.048964725441246193 -0.032745418319231917 -0.026150749723000848 0 -0.026150749723000848 -0.0016976343956617013 0 0 0 -0.008610763178723408 -0.031938017517354041 0.014792419784657998 0 0.014792419784657998 0.00097798598775529488 0 0 0 -0.0077400078823996864 0.044895783509845355 -0.014276041738093256 0 -0.014276041738093256 0.020418441050731317 0 0 0 0.016328556140144168 0.13976215995557328 0.10530457359131828 0 0.10530457359131828 0.072188360347483771 0 0 0 0.052987630075764347 0.076086250020860322 0.0073526797321473453 0 0.0073526797321473453 0.0011334821484057754 0 0 0 0.019304933042316515 0.076014199154732981 0.0043331366144557792 0 0.0043331366144557792 0.033984914711042036 0 0 0 0.027499778466443719 0.0057102712242759627 -0.019347319443194493 0 -0.019347319443194493 0.0019053416788203023 0 0 0 0.0019039032257740665 -0.005934055093265187 0.015777637766620486 0 0.015777637766620486 -0.0019745497132586565 0 0 0 -0.001977151201630961 -0.091485635584529157 0.006209354958439885 0 0.006209354958439885 -0.00056612378143028851 0 0 0 -0.02301293984148985 -0.14357961873657288 -0.01317829265806136 0 -0.01317829265806136 -0.0010786810766590105 0 0 0 -0.036164574953307965 -0.028869456706416219 -0.0059342042787826899 0 -0.0059342042787826899 0.02817713973966085 0 0 0 -0.00017307924168888378 0.083657205737259266 -0.015317782080860043 0 -0.015317782080860043 0.032627801824459457 0 0 0 0.02907125189042975 0.014795995951775515 -0.0076398547910582065 0 -0.0076398547910582065 0.062089348366753686 0 0 0 0.01922133607963231 0.050691933513373776 0.01838475061103426 0 0.01838475061103426 0.036764629354995242 0 0 0 0.021864140717092258 0.038855524504884137 0.012341759870197578 0 0.012341759870197578 0.041692780009259259 0 0 0 0.020137076128535852 0.091054410234678668 0.019335276905557787 0 0.019335276905557787 0.034174275106554006 0 0 0 0.031307171335308186 0.10586720394210283 0.014023197214148346 0 0.014023197214148346 0.020562739813836814 0 0 0 0.031607485938984922 0.070375036422515913 0.010701186811546581 0 0.010701186811546581 0.020979165881008122 0 0 0 0.022838550575881023 0.016398169573175081 -0.016501248079793224 0 -0.016501248079793224 0.034069629701306003 0 0 0 0.012616949818620271 0.0065451130678762584 -0.027079481435309777 0 -0.027079481435309777 0.074524484418676123 0 0 0 0.02026739937163808 0.058087958578136048 -0.051166489659337899 0 -0.051166489659337899 0.12003854799583213 0 0 0 0.044531626643492056 -0.080560856814960918 0.0064383580424546777 0 0.0064383580424546777 -0.00032637701202002656 0 0 0 -0.020221808456745247 -0.11973917359202742 -0.012036366355063478 0 -0.012036366355063478 -0.0010194013632555121 0 0 0 -0.030189643738820732 0.04379622911426579 0.004319517486194413 0 0.004319517486194413 -0.055101612082160717 0 0 0 -0.0028263457419736484 0.06726777956989291 -0.039984500318423946 0 -0.039984500318423946 0.087867341041143465 0 0 0 0.038783780152759073 0.061264906215635066 0.011537825516708525 0 0.011537825516708525 0.0037090223215609282 0 0 0 0.016243482134298992 -0.02878409379138348 -0.027314997770465265 0 -0.027314997770465265 -0.0058018894640710916 0 0 0 -0.0086464958138636402 -0.028181108959702751 0.016862618775999663 0 0.016862618775999663 -0.00070839339190480188 0 0 0 -0.00722237558790189 0.02561514499812393 0.010157513476030819 0 0.010157513476030819 0.0035846626884483562 0 0 0 0.0072999519216430751 0.019774723735335367 -0.0041502281240040238 0 -0.0041502281240040238 0.067151085277989631 0 0 0 0.021731452253331226 0.094096289389595855 0.0074251688340505329 0 0.0074251688340505329 0.063546169271149977 0 0 0 0.039410614665186527 0.02193757252284249 0.01333366856961446 0 0.01333366856961446 0.0045144424206334313 0 0 0 0.0066130037358689726 -0.045657374068653889 0.012875605327457684 0 0.012875605327457684 0.0073860909127532182 0 0 0 -0.0095678207889751121 0.068069810376664486 -0.018426310103162091 0 -0.018426310103162091 0.058021095705328873 0 0 0 0.031522726520498368 0.068453994615725378 -0.016335259028186777 0 -0.016335259028186777 0.048877310535451191 0 0 0 0.029332826287794156 0.045191520298439918 -0.024136259588650892 0 -0.024136259588650892 0.047538109582303728 0 0 0 0.023182407470185934 0.02893606231589152 -0.017393758730862935 0 -0.017393758730862935 0.03837106784531763 0 0 0 0.016826782540302287 0.031171952642652732 0.0038210149961986038 0 0.0038210149961986038 0.029848516138036171 0 0 0 0.015255117195172229 0.024380066355101322 -0.0044626061927251189 0 -0.0044626061927251189 0.063639058262155407 0 0 0 0.022004781154314194 0.20638530510937958 0.017778806809951142 0 0.017778806809951142 0.1790685261983187 0 0 0 0.09636345782692457 0.0051148272866021749 -0.0033098940165170454 0 -0.0033098940165170454 0.0064248898874019744 0 0 0 0.0028849292935009263 0.12769334263886578 -0.016291840376366551 0 -0.016291840376366551 0.098514391939938828 0 0 0 0.056551933644701347 0.0087095438829747351 0.005062660321264012 0 0.005062660321264012 0.010340480061737267 0 0 0 0.0047625059861777785 0.034865006745126867 0.0071786962563089151 0 0.0071786962563089151 0.031827220026284547 0 0 0 0.016673056692852843 0.030923268744023711 0.0038440193890737964 0 0.0038440193890737964 0.022807975311132496 0 0 0 0.013432811013789066 0.028291303146546751 -0.0061519352307340801 0 -0.0061519352307340801 0.029598833324115139 0 0 0 0.01447253411766547 -0.098457099476329704 -0.020209844546941733 0 -0.020209844546941733 0.0024511189219558124 0 0 0 -0.024001495138593454 -0.1252235945255423 -0.029488123131081283 0 -0.029488123131081283 0.0034402003552291421 0 0 0 -0.030445848542578251 0.043220942709124008 -0.033612655290868758 0 -0.033612655290868758 -0.00067968617656103021 0 0 0 0.010635314133140741 0.00770658134753877 0.0056630596420829829 0 0.0056630596420829829 0.010149716024551135 0 0 0 0.0044640743430224743 0.052896919933100639 -0.032969481269591344 0 -0.032969481269591344 0.066104032395497656 0 0 0 0.029750238082149577 -0.024490821803770609 0.01705762900308784 0 0.01705762900308784 -0.00078957191972038078 0 0 0 -0.0063200984308727486 -0.012119298319647337 0.01573267291916905 0 0.01573267291916905 -0.0017909716659778516 0 0 0 -0.0034775674964062989 0.00051787494585527755 -0.024482801754585788 0 -0.024482801754585788 -0.0082361688461389804 0 0 0 -0.001929573475070917 -0.0208926910946741 -0.028057909277172222 0 -0.028057909277172222 -0.0099379999341834835 0 0 0 -0.0077076727572143941 -0.042898062400238524 -0.017815221187690189 0 -0.017815221187690189 0.002345647981603971 0 0 0 -0.010138103604658721 -0.019530236187604744 -0.019243713692227701 0 -0.019243713692227701 0.0048636827308263797 0 0 0 -0.0036666383641945632 0.035509367309709321 -0.011447200509466028 0 -0.011447200509466028 -0.0014818113679788045 0 0 0 0.0085068889854326302 0.034755810853743824 -0.011674073868994004 0 -0.011674073868994004 -0.0069610129027099614 0 0 0 0.0069486994877584682 0.017198671149992458 0.015787025574834239 0 0.015787025574834239 0.0010651854456079496 0 0 0 0.0045659641489001063 0.01409713632810472 0.01330355088630128 0 0.01330355088630128 0.0011361737161418375 0 0 0 0.0038083275110616377 0.071465238507537165 0.025060207585283045 0 0.025060207585283045 0.032663043965268201 0 0 0 0.026032070618201342 0.0028777616586882493 -0.021156554301068553 0 -0.021156554301068553 0.009171500181050618 0 0 0 0.0030123154599349666 -0.0021314154512153474 0.012657120914606215 0 0.012657120914606215 0.00040562102178182124 0 0 0 -0.00043144860735838675 0.025675483739441465 -0.019600654155547362 0 -0.019600654155547362 -0.0094616944318073604 0 0 0 0.0040534473269085228 0.023624992957567127 0.00035501257468477203 0 0.00035501257468477203 0.015033937105165429 0 0 0 0.0096647325156831443 -0.016378207534303267 0.01385640043485804 0 0.01385640043485804 0.00094739524856406188 0 0 0 -0.0038577030714347961 -0.0027804373632926037 -0.025120930128813636 0 -0.025120930128813636 -0.0049632794365811854 0 0 0 -0.0019359291999684501 -0.012336098797236336 -0.0077479935684760248 0 -0.0077479935684760248 0.11915936948919223 0 0 0 0.026705817672988949 0.027194170005442213 0.0023606174314353082 0 0.0023606174314353082 0.017924635360276969 0 0 0 0.011279701341429799 -0.011806004550033248 -0.020657792583371998 0 -0.020657792583371998 -0.0039460853913976471 0 0 0 -0.003938022485357723 -0.017105721174713654 0.015078758849458513 0 0.015078758849458513 -0.005707960120192963 0 0 0 -0.0057034203237266556 0.11041731490714721 0.0087090855320088607 0 0.0087090855320088607 0.038899996147010341 0 0 0 0.037329327763539394 0.038108871472336436 0.00091795674241385017 0 0.00091795674241385017 -0.027342491630675259 0 0 0 0.0026915949604154887 -0.0073489845187092694 0.0096702034830907363 0 0.0096702034830907363 0.012169495987414028 0 0 0 0.0012051278671761922 0.076877235838907154 -0.025614477766566668 0 -0.025614477766566668 0.022393735468768439 0 0 0 0.024817742826918954 0.034872292536102592 0.007711488050023238 0 0.007711488050023238 0.032918666243438255 0 0 0 0.016947739694885194 0.023825735146724623 -0.005167084425228197 0 -0.005167084425228197 0.035098975590959355 0 0 0 0.014731177684420987 -0.068938251737112835 -0.019074264599546052 0 -0.019074264599546052 -0.0019628796011580303 0 0 0 -0.017725282834567715 -0.051598752747148091 0.010841735434638494 0 0.010841735434638494 -0.00080560626177517483 0 0 0 -0.013101089752230817 0.055093986782278614 -0.012787103460227663 0 -0.012787103460227663 0.041890321392494184 0 0 0 0.024246077043693193 0.042109555430378004 0.012331164990847734 0 0.012331164990847734 0.023085950569525837 0 0 0 0.016298876499975953 0.020548018098357421 0.0022333789288541423 0 0.0022333789288541423 0.012127995614386843 0 0 0 0.0081690034281860693 -0.051335756336133631 0.0046998753752774333 0 0.0046998753752774333 0.0059615587600358455 0 0 0 -0.011343549394024446 -0.070020171012738608 0.014418812625828448 0 0.014418812625828448 0.0070365679948558579 0 0 0 -0.015745900754470465 0.0073875074075457348 0.0044562864457706047 0 0.0044562864457706047 0.030887218924319254 0 0 0 0.0095686815829662542 0.036174964661302614 -0.014748991526203625 0 -0.014748991526203625 0.019844804471159772 0 0 0 0.014004942283115593 0.0093421446417402583 0.0062897079837428149 0 0.0062897079837428149 0.011755186061283243 0 0 0 0.005274332675755878 0.042729778020611363 0.01286950582641681 0 0.01286950582641681 0.027085871477132574 0 0 0 0.017453912374435991 0.02352527438344984 -0.021945761780784306 0 -0.021945761780784306 0.018772181127290594 0 0 0 0.010574363877685122 0.14589267189051974 0.012992062603619459 0 0.012992062603619459 0.10155886463534833 0 0 0 0.061862884131466983 0.0035796897118998217 0.012791916993685639 0 0.012791916993685639 0.0053815425199818107 0 0 0 0.0022403080579704096 -0.063360634269007399 0.01198745792483253 0 0.01198745792483253 0.0046237558601722739 0 0 0 -0.014684219602208337 0.087231047507067117 -0.014795522007360895 0 -0.014795522007360895 0.064974452002341643 0 0 0 0.038051374877352218 0.084843530325904137 -0.012462301279020704 0 -0.012462301279020704 0.044534834249164046 0 0 0 0.032344591143766921 -0.055885072833533736 -0.034793620103011763 0 -0.034793620103011763 0.035384212550236001 0 0 0 -0.0051252150708244199 0.10944088738010953 -0.018022964388203958 0 -0.018022964388203958 -0.01456587049697719 0 0 0 0.023718754220783136 -0.084650654378633949 0.010107050290666525 0 0.010107050290666525 0.0029712144185420619 0 0 0 -0.02041985999002293 -0.14393248523085539 -0.02735481660058843 0 -0.02735481660058843 0.0071767565898497622 0 0 0 -0.034188932160251477 -0.082603759611170322 0.0019664511863348999 0 0.0019664511863348999 -0.00017594700796213364 0 0 0 -0.020694926654783129 -0.14397381280963761 -0.0079942818253358888 0 -0.0079942818253358888 0.0022903144229054484 0 0 0 -0.035420874596683041 -0.042243581469113473 0.010811641819488934 0 0.010811641819488934 -0.0030053043677013141 0 0 0 -0.0113122214592037 -0.051790942566230971 -0.017875733042709445 0 -0.017875733042709445 -0.0032880182704751945 0 0 0 -0.013769740209176552 0.022602550096316149 -0.008305822170719325 0 -0.008305822170719325 0.045534808038778296 0 0 0 0.017034339533773604 0.026030559424861242 -0.018308613130706732 0 -0.018308613130706732 0.058154865876627979 0 0 0 0.021046356325372304 0.071973164562209285 -0.010229064145710787 0 -0.010229064145710787 0.07217339461816541 0 0 0 0.036036639795093667 0.13267763982008754 0.0061546012952015117 0 0.0061546012952015117 0.1396713199933679 0 0 0 0.068087239953363882 0.089860883631153535 0.0067520606079348455 0 0.0067520606079348455 0.04259451702885475 0 0 0 0.033113850165002082 0.11291949252461533 0.0067495800349865465 0 0.0067495800349865465 0.11854695318534203 0 0 0 0.057866611427489362 0.051527845758397278 -0.012992613282536647 0 -0.012992613282536647 0.060980583287748913 0 0 0 0.028127107261536582 0.013683683100280002 0.0085171707975891832 0 0.0085171707975891832 0.013294077924805071 0 0 0 0.0067444402562712681 0.037497373754430338 -0.01618811574537787 0 -0.01618811574537787 0.048646091870774011 0 0 0 0.021535866406301077 0.022473492023657102 -0.018545896046253164 0 -0.018545896046253164 0.0436413236568787 0 0 0 0.016528703920133947 0.031662313708870141 0.0041232496839129582 0 0.0041232496839129582 0.056273788170755019 0 0 0 0.021984025469906281 -0.12437657449330675 0.013509318337611929 0 0.013509318337611929 0.0026443676986964704 0 0 0 -0.03043305169865218 0.022196209125028097 -0.0031708679334213064 0 -0.0031708679334213064 0.060290226423864113 0 0 0 0.020621608887223052 0.093874793738900092 -0.023748477219891651 0 -0.023748477219891651 0.16543426049710497 0 0 0 0.064827263559001286 0.15269999521842736 -0.027892305230470409 0 -0.027892305230470409 0.087172981548726103 0 0 0 0.059968244191788367 0.09166197073370469 -0.01294988943883213 0 -0.01294988943883213 0.036126242623402804 0 0 0 0.031947053339276887 -0.16746452872826895 -0.020712194296054864 0 -0.020712194296054864 0.0071050756006664217 0 0 0 -0.04008986328190059 -0.095071074007079398 0.0085119480732343961 0 0.0085119480732343961 0.0026916856955689558 0 0 0 -0.023094847077877591 0.018163592384415568 -0.0031301507757739637 0 -0.0031301507757739637 0.064613002983870432 0 0 0 0.020694148842071512 -0.039189611376837519 0.030222261635216796 0 0.030222261635216796 0.001221352469739756 0 0 0 -0.0094920647267744407 -0.022750390267928022 0.034333525256321273 0 0.034333525256321273 0.0067010928393758107 0 0 0 -0.0040123243571381639 0.046224973089275423 -0.026876438049207807 0 -0.026876438049207807 0.027192486457145115 0 0 0 0.018354364886605135 0.049770126796394282 -0.021449400533394281 0 -0.021449400533394281 0.028374204359520188 0 0 0 0.019536082788978591 0.093328990383504229 -0.016113605448386137 0 -0.016113605448386137 0.076331357366438812 0 0 0 0.042415086937485913 -0.038186683033442304 0.010846051979000713 0 0.010846051979000713 0.0075680069588202059 0 0 0 -0.0076546690186560795 -0.00089292651365194264 0.014912308300602183 0 0.014912308300602183 0.0015614431549601793 0 0 0 0.00016712916032705916 0.018915091202439751 -0.017192697238999466 0 -0.017192697238999466 -0.0064545748900241909 0 0 0 0.0031151290781038891 0.028133838331739686 -0.029625092050377333 0 -0.029625092050377333 0.014733470371117136 0 0 0 0.010716827175714344 0.026961459333445514 -0.024513996261745385 0 -0.024513996261745385 0.014845082493747164 0 0 0 0.010451635456797836 0.013250383731001722 -0.022795063817883654 0 -0.022795063817883654 0.012616226046849643 0 0 0 0.0064666524444627477 0.011148516546437781 -0.032066654351221358 0 -0.032066654351221358 0.0086289784200790365 0 0 0 0.0049443737416292599 0.0012825197624782569 0.045162146597584218 0 0.045162146597584218 0.00063447638458002942 0 0 0 0.00047924903676452302 0.037740765793172718 0.030343067890653996 0 0.030343067890653996 0.016288850299045574 0 0 0 0.013507404023054462 -0.011985771490161059 0.019008533143669921 0 0.019008533143669921 -0.0021717383888987321 0 0 0 -0.0035393774697649472 -0.0061382281874712147 -0.025864100290306048 0 -0.025864100290306048 -0.005479639264665867 0 0 0 -0.0029044668630342704 -0.078421949508886257 -0.011117459550778974 0 -0.011117459550778974 0.0090069212787324271 0 0 0 -0.017353757057538499 -0.13513709867011747 0.025512059384728336 0 0.025512059384728336 0.013999653925667488 0 0 0 -0.030284361186112496 -0.042695447883668414 0.015152549872661722 0 0.015152549872661722 0.0031082575876056617 0 0 0 -0.009896797574015688 0.042032516305288661 0.012739253587301736 0 0.012739253587301736 0.014291295317053816 0 0 0 0.014080952905585628 0.059200230035060641 0.0036498169040084516 0 0.0036498169040084516 0.018172878564051365 0 0 0 0.019343277149778071 -0.069183703390195431 -0.029006202490800104 0 -0.029006202490800104 0.0027391435586950619 0 0 0 -0.016611139957875089 -0.11798158549803807 -0.024312493808623499 0 -0.024312493808623499 -0.0036727779721769174 0 0 0 -0.030413590867553759 0.053766101561881621 -0.0023685077337409939 0 -0.0023685077337409939 -0.0060482191672296941 0 0 0 0.011929470598662978 0.080140739695992474 0.012181601531854991 0 0.012181601531854991 0.083175276882804239 0 0 0 0.040829004144699171 -0.098038518435473204 -0.0013592597945062401 0 -0.0013592597945062401 -0.0001726682858018691 0 0 0 -0.024552796680318727 -0.17845908733285337 0.0011323652615971569 0 0.0011323652615971569 -0.00022943985599964412 0 0 0 -0.044672131797213244 0.0086004108970219387 -0.0014984383319415762 0 -0.0014984383319415762 0.011794522586850209 0 0 0 0.0050987333709680352 -0.031893907218491016 -0.031812231462944436 0 -0.031812231462944436 -0.0081985717961601257 0 0 0 -0.010023119753662785 -0.0039655535493667744 -0.02924778822109711 0 -0.02924778822109711 -0.0059426782358444896 0 0 0 -0.0024770579463028082 0.088499880844360612 0.089200020822200257 0 0.089200020822200257 0.19403301966015207 0 0 0 0.070633225126128185 -0.10281241740067198 -0.010495738800945063 0 -0.010495738800945063 0.0002531281365245712 0 0 0 -0.025639822316036873 -0.06775417036793828 0.0053631651580414996 0 0.0053631651580414996 0.00078166514758898353 0 0 0 -0.016743126305087317 0.051866789464190877 -0.0096322181983168331 0 -0.0096322181983168331 0.0082324026005404782 0 0 0 0.015024798016182839 0.042203422750503594 -0.013404300198486242 0 -0.013404300198486242 0.0044636627814103047 0 0 0 0.011666771382978447 0.040013802673677414 0.011834861616377326 0 0.011834861616377326 0.044633331260303576 0 0 0 0.02116178348349524 0.045341419866199134 -0.01963583329957316 0 -0.01963583329957316 0.0049038672904935382 0 0 0 0.012561321789173172 0.062108318381511728 0.016000722959392488 0 0.016000722959392488 0.01036791094362962 0 0 0 0.01811905733128532 0.078810236037652748 0.018078549179527059 0 0.018078549179527059 0.17915869897628878 0 0 0 0.064492233753485451 -0.042858520259668804 0.01402539999931306 0 0.01402539999931306 0.0043048795052530921 0 0 0 -0.0096384101886039294 0.021895605494194219 0.0053130913811320866 0 0.0053130913811320866 0.011706436924714646 0 0 0 0.0084005106047272231 0.18412582216469287 0.012978111999517018 0 0.012978111999517018 0.071105174235511548 0 0 0 0.063807749100050826 -0.061714847732334557 -0.0067927774226480553 0 -0.0067927774226480553 0.0003047894978673929 0 0 0 -0.015352514558616821 -0.22645594376814815 -0.0022635442855122034 0 -0.0022635442855122034 -0.00024681360788553208 0 0 0 -0.056675689344008351 -0.12351234336314015 -0.00034134733267165702 0 -0.00034134733267165702 -0.000707032812898023 0 0 0 -0.031054844044009565 0.02760345471523792 0.00054227428325078278 0 0.00054227428325078278 0.072533015031991943 0 0 0 0.02503411743680747 -0.034209753795154792 -0.025911590078589744 0 -0.025911590078589744 -0.0031602031705144917 0 0 0 -0.0093424892414173122 -0.05504213555424748 -0.032849265404394201 0 -0.032849265404394201 -0.0010936592643367993 0 0 0 -0.014033948704646068 0.11600821542396278 0.024933044352674662 0 0.024933044352674662 0.039821239612583992 0 0 0 0.038957363759136637 -0.035517773307936595 -0.0097770908143048896 0 -0.0097770908143048896 -0.00033551067469694829 0 0 0 -0.0089633209956583304 0.036550397849908073 -0.018463080666574982 0 -0.018463080666574982 0.022695549428402073 0 0 0 0.014811486819577641 0.17727232964053385 0.012455347158594785 0 0.012455347158594785 0.14494494856028872 0 0 0 0.080554319550205644 -0.027732231852319211 -0.0064325516849196122 0 -0.0064325516849196122 0.0056648929729536945 0 0 0 -0.0055168347198411016 0.017793922051053554 -0.040486275632776271 0 -0.040486275632776271 0.040066891533363014 0 0 0 0.014465203396104159 0.028339094657346492 -0.003182322852930089 0 -0.003182322852930089 0.053237717435590359 0 0 0 0.02039420302323422 0.003253291495319631 0.0025090221904612298 0 0.0025090221904612298 0.01851625539393062 0 0 0 0.0054423867223125574 -0.033772114950803678 0.0086579614855977205 0 0.0086579614855977205 0.0058692097547732303 0 0 0 -0.0069757262990075564 0.075830360806605324 -0.016895213695035549 0 -0.016895213695035549 0.072292840318412654 0 0 0 0.037030800281254495 0.0067632699095751744 0.012010903785686236 0 0.012010903785686236 0.0016800036236949284 0 0 0 0.002110818383317524 0.090689175842803241 -0.0094370694564629709 0 -0.0094370694564629709 0.057223482478286153 0 0 0 0.036978164580272338 -0.063855826078888123 0.0093571750587451308 0 0.0093571750587451308 0.00021637227159831962 0 0 0 -0.01590986345182243 -0.0081416228924514333 -0.02022912591420771 0 -0.02022912591420771 0.033288342366798895 0 0 0 0.0062866798685869141 -0.033955057528556917 0.017053594247700584 0 0.017053594247700584 0.00012681177539451693 0 0 0 -0.0084570614382905984 -0.078780371789960557 -0.010411796674783425 0 -0.010411796674783425 0.0028666946399189541 0 0 0 -0.018978419287510429 -0.073192506293878259 0.0085095469144117961 0 0.0085095469144117961 -0.00040222220466846342 0 0 0 -0.018398682124636672 -0.052883447389636289 0.011063537552571357 0 0.011063537552571357 0.0013747844158185033 0 0 0 -0.012877165743454452 -0.044900621267626006 0.045822666493368969 0 0.045822666493368969 0.003613915758807984 0 0 0 -0.010321676377204769 0.016149218024184165 -0.016248416827045153 0 -0.016248416827045153 -0.0017860375714666768 0 0 0 0.0035907951131793729 0.0065745934269383216 -0.024595128556530267 0 -0.024595128556530267 -0.0083065522276012105 0 0 0 -0.00043298970016571875 -0.0054959224639770585 0.018343099323091146 0 0.018343099323091146 -0.0016470693369783213 0 0 0 -0.0017857479502388432 -0.00055476918523979148 0.013829934649777881 0 0.013829934649777881 0.00030241341723456078 0 0 0 -6.3088942001308761e-05 0.022628781115940598 -0.0019194945906881242 0 -0.0019194945906881242 0.024395510831131312 0 0 0 0.011756072986767972 0.060807130221409399 -0.034475821970984838 0 -0.034475821970984838 0.06409186675377028 0 0 0 0.0312247492437949 0.039911711711680078 -0.021125672489384864 0 -0.021125672489384864 0.026598028438327689 0 0 0 0.016627435037501984 0.018471688790239471 -0.016223766840219755 0 -0.016223766840219755 0.046714959043097304 0 0 0 0.01629666195833418 0.038310590723226068 -0.015944928251975188 0 -0.015944928251975188 0.025643330080622417 0 0 0 0.015988480200962135 0.099006770347713824 0.010954497039746595 0 0.010954497039746595 0.073026741242453896 0 0 0 0.043008377897541916 0.047848341063907951 -0.016814920881943779 0 -0.016814920881943779 0.039463479389271638 0 0 0 0.021827955113294883 -0.12867029170730199 0.0035947808722385671 0 0.0035947808722385671 0.0010379486324455511 0 0 0 -0.031908085768714095 -0.24268672760347115 -0.0081715419119944357 0 -0.0081715419119944357 0.0057618603063411822 0 0 0 -0.059231216824282451 0.090131183690049105 -0.0083715532518686131 0 -0.0083715532518686131 0.036603658477352974 0 0 0 0.031683710541850513 0.11485114230639373 0.013853863967100644 0 0.013853863967100644 0.088841144978007658 0 0 0 0.050923071821100369 -0.033895871706358244 0.012107499847297344 0 0.012107499847297344 0.01218100150075524 0 0 0 -0.005428717551400758 0.037965083071411637 0.0088304012087096831 0 0.0088304012087096831 0.006573788981041051 0 0 0 0.011134718013113169 0.029713904179487841 -0.021832476773423596 0 -0.021832476773423596 -0.0069673921006884049 0 0 0 0.0056866280196998607 0.045807709009920101 -0.011603382113448288 0 -0.011603382113448288 -0.012710398402252035 0 0 0 0.0082743276519170149 0.075659092010492937 -0.05444538688928223 0 -0.05444538688928223 0.11817562375575077 0 0 0 0.04845867894156089 -0.057824522944064739 0.010563592122691761 0 0.010563592122691761 -0.0007056675928732159 0 0 0 -0.014632547634234496 -0.045136443893376725 0.011242671441189648 0 0.011242671441189648 0.00072277354893551457 0 0 0 -0.011103417586110309 -0.056307724677700115 -0.019707358086739651 0 -0.019707358086739651 0.00084220332965274924 0 0 0 -0.013866380337011843 -0.081226225282167677 -0.019820021198551266 0 -0.019820021198551266 -0.0034214234538763044 0 0 0 -0.021161912184010978 -0.11516003494807453 -0.0072243215170931579 0 -0.0072243215170931579 0.0026518201720970858 0 0 0 -0.028127053693994319 0.065104113414698905 0.083009610864268391 0 0.083009610864268391 0.1194352037480384 0 0 0 0.046134829290684354 0.074198828180104592 -0.014563109498462734 0 -0.014563109498462734 0.042030508888283524 0 0 0 0.029057334267097112 0.051521725288586159 0.0038432096555156559 0 0.0038432096555156559 0.015624684466741163 0 0 0 0.016786602438831885 -0.002917000745021367 0.015244741368858799 0 0.015244741368858799 0.0019994677001245603 0 0 0 -0.00022938326122419472 0.019260892475896775 -0.0010298294138213916 0 -0.0010298294138213916 0.05332041224804096 0 0 0 0.018145326180984446 -0.042942698594109069 0.011479872393255978 0 0.011479872393255978 -3.2403321287757109e-05 0 0 0 -0.010743775478849211 0.12471441803964867 0.030446030878672259 0 0.030446030878672259 0.040484261742903094 0 0 0 0.041299669945638051 0.028736117448244655 0.013870286490949901 0 0.013870286490949901 0.005615500394423302 0 0 0 0.0085879044606669893 0.052105214776673306 -0.013750651212755871 0 -0.013750651212755871 0.0077608175571582255 0 0 0 0.014966508083457907 0.14378818452409603 -0.075171850253074587 0 -0.075171850253074587 0.097013227647119504 0 0 0 0.060200353042803884 -0.20271043805832634 0.017574827133320592 0 0.017574827133320592 0.0050476920073161402 0 0 0 -0.049415686512752521 0.047693379662153722 0.0038895660694007292 0 0.0038895660694007292 0.003065479836792295 0 0 0 0.012689714874736503 -0.014032694993327745 0.014492285913808125 0 0.014492285913808125 -0.0012428225305732912 0 0 0 -0.0038188793809752555 -0.005181994854055804 -0.019667788460518282 0 -0.019667788460518282 -0.0030075634592083844 0 0 0 -0.0020473895783160515 0.050157695936286502 0.015203141641310909 0 0.015203141641310909 0.019722412717714188 0 0 0 0.017470027163500164 -0.082260419219845921 0.0083894463409111691 0 0.0083894463409111691 0.0031554221823549278 0 0 0 -0.019776249259372769 -0.14001626814405851 -0.020510342190913744 0 -0.020510342190913744 0.010175200058117395 0 0 0 -0.032460267021485287 0.12631984775001648 0.01575844592168707 0 0.01575844592168707 0.08856920334446805 0 0 0 0.053722262773621132 -0.031881107839746958 -0.010561119764319393 0 -0.010561119764319393 0.00056010937034312036 0 0 0 -0.0078302496173507929 0.08773628345664862 0.0062625079842017761 0 0.0062625079842017761 0.071121685924226796 0 0 0 0.039714492345218885 0.061119018577566138 -0.033402063248492687 0 -0.033402063248492687 0.01721928879935955 0 0 0 0.019584576844231434 0.077987755193028557 0.0077951220268474009 0 0.0077951220268474009 0.037190370283402441 0 0 0 0.028794531369107756 0.038607336745333135 0.011408428941811434 0 0.011408428941811434 0.012045748198174264 0 0 0 0.012663271235876853 0.046455710432336011 -0.00096014607183005606 0 -0.00096014607183005606 0.00095939992331366348 0 0 0 0.01185377758891242 0.0084461200176078229 0.012296426935563775 0 0.012296426935563775 0.0069760110435449947 0 0 0 0.003855532765288207 0.051751326310775447 -0.022551588944128523 0 -0.022551588944128523 0.14487922824340466 0 0 0 0.049157638638545026 0.049872931924555899 -0.022948585439374954 0 -0.022948585439374954 0.13502088091167885 0 0 0 0.046223453209058685 -0.012303245156099818 -0.019873281009749943 0 -0.019873281009749943 0.0041734963570250194 0 0 0 -0.0020324371997687551 -0.018570499657362127 -0.020842499622257815 0 -0.020842499622257815 0.0038302033395303248 0 0 0 -0.0036850740794577286 0.088870266845535673 0.028744563633676945 0 0.028744563633676945 0.050738192643841273 0 0 0 0.034902114872344514 0.10397241194365225 0.029214234321891075 0 0.029214234321891075 0.05417369781785375 0 0 0 0.039536527440376501 0.087434856479717604 0.038310846648164379 0 0.038310846648164379 0.027397893777906468 0 0 0 0.028708187564405963 0.1287514117793207 0.03420130364809526 0 0.03420130364809526 0.035885213654973214 0 0 0 0.04115915635857359 0.03891808105684904 0.0084755444610347987 0 0.0084755444610347987 0.012971206686462679 0 0 0 0.012972321935827928 0.09786529407086747 0.0063769591112046164 0 0.0063769591112046164 0.093149954184241712 0 0 0 0.047753812063777323 0.086647530730720401 0.010031055190524357 0 0.010031055190524357 0.062032021127962189 0 0 0 0.037169887964670634 -0.067210656563722493 -0.012066888456907288 0 -0.012066888456907288 0.0024582261189594057 0 0 0 -0.016188107611190716 -0.078326900548368855 -0.0046165146976796523 0 -0.0046165146976796523 0.0013913396894636998 0 0 0 -0.019233890214726185 -0.12896708260557427 0.012091302209978338 0 0.012091302209978338 0.0027937266125617199 0 0 0 -0.031543338998253123 0.075103572368882265 0.027352293572148603 0 0.027352293572148603 0.037384849530767372 0 0 0 0.028122105474912399 0.078401784531236265 0.02892907026035469 0 0.02892907026035469 0.045349701441388029 0 0 0 0.030937871493156063 0.046911976362166333 0.0094874786128540823 0 0.0094874786128540823 0.0018207661531367825 0 0 0 0.012183185628825782 0.0363414232409556 0.010724167780796174 0 0.010724167780796174 0.0039866066871275807 0 0 0 0.010082007482020797 -0.10879082943378129 -0.020474638452660933 0 -0.020474638452660933 -0.0063544395653288288 0 0 0 -0.028786317249777548 -0.069795902945895577 0.0087890715410997126 0 0.0087890715410997126 -0.00081522323348521154 0 0 0 -0.017652781544845196 -0.054091869682174394 0.014597578219903595 0 0.014597578219903595 -0.00022547770778825332 0 0 0 -0.013579336847490651 0.14395834738857727 0.023891666039183468 0 0.023891666039183468 0.098846343677756465 0 0 0 0.060701172766583378 -0.032903830340715534 -0.010675164474272858 0 -0.010675164474272858 0.0059916804064434892 0 0 0 -0.0067280374835679835 0.040241628459274273 -0.0043811382911815976 0 -0.0043811382911815976 0.0036541368247420929 0 0 0 0.010973941321004089 0.066602277733848247 -0.0047293202179325665 0 -0.0047293202179325665 -0.0062171269755473962 0 0 0 0.015096287689575216 -0.026430148114027774 -0.020533664745567948 0 -0.020533664745567948 0.0061480960065458667 0 0 0 -0.005070513026870449 0.01119169526604925 -0.027863203364448079 0 -0.027863203364448079 -0.0013192077189530579 0 0 0 0.0024681218867740476 0.023041573247316635 -0.0060057817381311829 0 -0.0060057817381311829 0.033070728847247891 0 0 0 0.014028075523641131 0.081629657786202903 0.019002837149325501 0 0.019002837149325501 0.020616828369588655 0 0 0 0.0255616215389479 -0.029859019562281985 0.048281523701112272 0 0.048281523701112272 0.0068964425683301633 0 0 0 -0.0057406442484880804 -0.066822984358983595 0.0030535790468571578 0 0.0030535790468571578 0.0060825571295790581 0 0 0 -0.015185106807351106 -0.11520985506924813 -0.0045629259505463801 0 -0.0045629259505463801 0.015258695983191295 0 0 0 -0.024987789771514224 0.041124493211934565 8.2891731026379922e-06 0 8.2891731026379922e-06 -0.0035102680352172566 0 0 0 0.0094035562941794382 0.051422760641332721 0.0094890509576202597 0 0.0094890509576202597 -0.0019444535711483635 0 0 0 0.012369576767546075 -0.039330926566299704 0.015850279503400858 0 0.015850279503400858 0.0019036178518382456 0 0 0 -0.009356827178615381 -0.024765175350056616 0.013448268230834216 0 0.013448268230834216 0.00058668000924048253 0 0 0 -0.006044623835204023 0.023377564284387583 0.0039363286685375797 0 0.0039363286685375797 0.020651922926914357 0 0 0 0.011007371802825492 -0.073397209607772199 0.014062336506085956 0 0.014062336506085956 0.0037940808927039993 0 0 0 -0.017400782178767039 -0.050425451328263711 -0.029260585642060688 0 -0.029260585642060688 -0.0085640658629391325 0 0 0 -0.014747379297800726 0.037054168964883984 -0.0037848120074698288 0 -0.0037848120074698288 -0.063709896149331591 0 0 0 -0.0066639317961119287 -0.0051906635849163774 0.060778295054197184 0 0.060778295054197184 0.010867534424598091 0 0 0 0.0014192177099203729 0.034815656593724084 0.01071906219944657 0 0.01071906219944657 0.011603544615452774 0 0 0 0.011604800302294214 0.15914803845928577 0.011764297106860555 0 0.011764297106860555 0.08202910906824401 0 0 0 0.060294286881882264 0.12079860525089615 0.03997840821249854 0 0.03997840821249854 0.1183865180390479 0 0 0 0.059796280822486017 -0.10429609688244029 0.011903893772667762 0 0.011903893772667762 0.029745816480389348 0 0 0 -0.018637570100512708 0.092512307764197249 0.044893910544919702 0 0.044893910544919702 0.12569125736920328 0 0 0 0.054550891283350111 0.10879564602374414 0.036504964546043392 0 0.036504964546043392 0.083512312743548311 0 0 0 0.048076989691823141 -0.012309066444941568 0.014613354458345801 0 0.014613354458345801 0.0029823619742873411 0 0 0 -0.002331676117663556 0.01745538527731199 0.010665804624484083 0 0.010665804624484083 0.003094199032985457 0 0 0 0.0051373960775743608 -0.10615103048530816 0.042496701079489774 0 0.042496701079489774 0.016690266699805001 0 0 0 -0.02236519094637579 0.016694610931244899 -0.012318404794323619 0 -0.012318404794323619 0.066494931479276403 0 0 0 0.020797385602630336 0.068272284552531801 0.030195122574198915 0 0.030195122574198915 0.13600692144085358 0 0 0 0.051069801498346383 0.038745846203639814 -0.021395153759650398 0 -0.021395153759650398 0.0090071641899801547 0 0 0 0.011938252598404947 -0.09209474132095001 -0.0029924555134793196 0 -0.0029924555134793196 0.0035218917365051061 0 0 0 -0.022143212396111212 -0.16231157128089663 0.0075283797801025398 0 0.0075283797801025398 0.013237182843870321 0 0 0 -0.037268597109256563 -0.036645770182530901 0.018975337988370811 0 0.018975337988370811 0.0047682288603936307 0 0 0 -0.0079693853305340401 0.067769832205197389 -0.019157986940141036 0 -0.019157986940141036 0.045869565029364567 0 0 0 0.028409849308640434 0.036664527358871268 -0.018317279993451591 0 -0.018317279993451591 0.02958657003968046 0 0 0 0.016562774349637932 0.093332718972996026 0.020588291850329912 0 0.020588291850329912 0.02354100456196237 0 0 0 0.029218430883739606 -0.035875346655065851 -0.030521064888133269 0 -0.030521064888133269 -0.012224338631975466 0 0 0 -0.012024921321760338 -0.062835768976319845 0.01032963020270115 0 0.01032963020270115 0.0031837435016360272 0 0 0 -0.014913006368670965 -0.082384105754104098 -0.016123906365649282 0 -0.016123906365649282 0.0086566478209115418 0 0 0 -0.018431864483298109 0.039262849948559983 -0.019068904145512683 0 -0.019068904145512683 0.054897981853817945 0 0 0 0.023540207950594486 -0.03530882819127204 0.0082503769221592485 0 0.0082503769221592485 0.0052847198389246036 0 0 0 -0.0075060270880868696 0.043099274627805509 0.0081674276958395766 0 0.0081674276958395766 0.10916609281374214 0 0 0 0.038066341860386904 0.044411777756471434 -0.0013614816768897542 0 -0.0013614816768897542 0.014806674187958014 0 0 0 0.014804612986107364 0.045704700464487602 -0.018397869722101057 0 -0.018397869722101057 0.031482909959005934 0 0 0 0.019296902605873356 -0.089444646538828346 0.003788926642405363 0 0.003788926642405363 0.0036767277333657825 0 0 0 -0.021441979701365646 -0.15494186923317738 -0.011998373990371847 0 -0.011998373990371847 0.0072938383376037752 0 0 0 -0.0369120077238934 -0.067788419152541246 -0.018992280260147543 0 -0.018992280260147543 0.0074773051927958661 0 0 0 -0.015077778489936251 0.0096163554029205234 -0.018701395815092711 0 -0.018701395815092711 0.03702909452124753 0 0 0 0.01166136248104202 0.024675479831229752 -0.010364376733742076 0 -0.010364376733742076 0.069358229994030185 0 0 0 0.023508427456314956 -0.0085647348112559488 0.010451114070726242 0 0.010451114070726242 0.005904370986724302 0 0 0 -0.00066509095613290908 0.03725025187180081 -0.019487158131296922 0 -0.019487158131296922 0.012784834036682735 0 0 0 0.012508771477120872 -0.031164150284705545 -0.017871475844064899 0 -0.017871475844064899 0.0038819546901626978 0 0 0 -0.0068205488986358212 -0.023715590125896434 0.011450644441416302 0 0.011450644441416302 0.006201220886382545 0 0 0 -0.0043785923098784776 0.0427988698165854 -0.019593616329284608 0 -0.019593616329284608 0.0088292719241224726 0 0 0 0.012907035435176933 0.048240833951505427 -0.003521720348585701 0 -0.003521720348585701 -0.0037950268361536636 0 0 0 0.011111451778837942 -0.094762369539107827 0.002357847079042269 0 0.002357847079042269 0.0030678649205886921 0 0 0 -0.022923626154629839 -0.17178571337716941 -0.0049624027934230264 0 -0.0049624027934230264 0.0048628457860483421 0 0 0 -0.04173071689778024 -0.048515890497469752 -0.0064823406890071045 0 -0.0064823406890071045 0.00023630469394259057 0 0 0 -0.012069896450881648 0.14567562045651467 0.013032405516615331 0 0.013032405516615331 0.10391132509287071 0 0 0 0.062396736387346385 0.13638955243160344 0.024634071753154574 0 0.024634071753154574 0.080295002824697814 0 0 0 0.054171138814075315 -0.046636327773295516 -0.0058714021937684444 0 -0.0058714021937684444 0.0016177683797895526 0 0 0 -0.011254639848376602 0.17157739507761338 0.0085554966253454396 0 0.0085554966253454396 0.13353401308144974 0 0 0 0.076277852039766003 0.094446465236222577 -0.014299597561835371 0 -0.014299597561835371 0.023695323238246413 0 0 0 0.02953544711861722 0.023436601999934581 -0.020625484602363936 0 -0.020625484602363936 0.024508520084977503 0 0 0 0.011986280521228021 0.14785863048161152 -0.012811039748309576 0 -0.012811039748309576 0.10291365873635838 0 0 0 0.062693072304492614 0.23414885093080579 0.012504628346045488 0 0.012504628346045488 0.18838556776133641 0 0 0 0.10563360467303556 -0.077173843715644092 -0.0244113633853065 0 -0.0244113633853065 0.030536698663325423 0 0 0 -0.011659286263079688 -0.017896507648024699 0.013638512992444771 0 0.013638512992444771 0.0025018312153797934 0 0 0 -0.0038486691081612255 0.049417926824628873 0.01129288445638695 0 0.01129288445638695 0.0050815828958751816 0 0 0 0.013624877430126022 -0.039005027038079731 0.038198904201809269 0 0.038198904201809269 0.0008990092423246665 0 0 0 -0.0095265044489387662 0.066421123904100543 -0.022185833083685269 0 -0.022185833083685269 0.025116549717097536 0 0 0 0.022884418405299367 0.048304219412225721 0.00097092707137420528 0 0.00097092707137420528 0.0050417014596546884 0 0 0 0.013336480217970107 -0.011536675094870788 0.0098478924941351534 0 0.0098478924941351534 0.017698507305517964 0 0 0 0.0015404580526617792 0.1677112764800508 0.01417667463352241 0 0.01417667463352241 0.0811990137609504 0 0 0 0.062227572560250355 0.031152132190815446 -0.017625054858689412 0 -0.017625054858689412 -0.010881602318190395 0 0 0 0.0050676324681562593 0.079249565264615934 -0.003045056523905576 0 -0.003045056523905576 0.011270418822219408 0 0 0 0.02262999602170887 0.083985645486753788 -0.006204874693793494 0 -0.006204874693793494 0.016547330471348896 0 0 0 0.025133243989525701 0.094200973312489666 -0.018323998714420087 0 -0.018323998714420087 0.058400048978609176 0 0 0 0.038150255572774849 0.11130069597253461 -0.0093884811504336141 0 -0.0093884811504336141 0.099557296154221486 0 0 0 0.052714498031689094 0.18133294279174611 0.0051299699493303486 0 0.0051299699493303486 0.17832699576531419 0 0 0 0.089914984639265005 0.15200996397671634 0.022100804954959363 0 0.022100804954959363 0.1137032536397619 0 0 0 0.066428304404119454 0.063789928556519576 0.024157981413450807 0 0.024157981413450807 0.042118018089278064 0 0 0 0.026476986661449424 0.092539224541448042 -0.026094546373090832 0 -0.026094546373090832 -0.00054525818024619976 0 0 0 0.022998491590300443 0.11054770542857999 -0.049544180348714932 0 -0.049544180348714932 0.05257391397214442 0 0 0 0.040780404850181126 -0.042878101171134858 -0.018294936362216907 0 -0.018294936362216907 0.0047829587878817081 0 0 0 -0.0095237855958133222 -0.042039291694695544 0.012268810986246234 0 0.012268810986246234 0.0033106060818617299 0 0 0 -0.009682171403208463 -0.025228044552010689 0.014886680092881195 0 0.014886680092881195 0.0044162830349899207 0 0 0 -0.0052029403792551894 -0.051110896388743304 0.016712985428165406 0 0.016712985428165406 0.065305218300765855 0 0 0 0.0035485804780056585 0.067542281248814118 -0.018337837188815986 0 -0.018337837188815986 0.044812655542138646 0 0 0 0.028088734197738163 0.11567135113306398 0.019967007045419316 0 0.019967007045419316 0.08562013153549386 0 0 0 0.050322870667139474 0.0482614490955737 0.01353528104306671 0 0.01353528104306671 0.011654853753489212 0 0 0 0.014979075712265725 0.039814391121831938 -0.0028193302616497107 0 -0.0028193302616497107 -0.02847276777545904 0 0 0 0.0028354058365932522 0.031805193717747704 0.010936074587033516 0 0.010936074587033516 0.0028908059509133721 0 0 0 0.0086739999171652725 0.039981596645889197 -0.020287523411520576 0 -0.020287523411520576 0.021843242684679187 0 0 0 0.015456209832642079 0.050245678792399204 0.00092505831265161302 0 0.00092505831265161302 -0.0053101119288638584 0 0 0 0.011233891715883838 0.056879191677960739 0.042981410417795129 0 0.042981410417795129 0.0099713090404147664 0 0 0 0.01671262517959371 0.064127774765422196 0.037192338311878181 0 0.037192338311878181 0.02409139630859547 0 0 0 0.022054792768504528 0.0017188309401964391 -0.025513039791770442 0 -0.025513039791770442 0.010882165037162495 0 0 0 0.0031502489943399242 0.13997143986101421 -0.1081956290324782 0 -0.1081956290324782 0.18936200561403588 0 0 0 0.082333361368762473 0.046336293501839654 0.0029637423029737452 0 0.0029637423029737452 -0.00070683475269600095 0 0 0 0.011407364687285915 -0.050050456070614535 -0.011122898748686327 0 -0.011122898748686327 0.0043988836145203436 0 0 0 -0.011412893114023603 0.0031906653478650515 -0.0018423799075648617 0 -0.0018423799075648617 0.0036663048949163723 0 0 0 0.0017142425606955225 0.26874002547195852 0.00066753804498675962 0 0.00066753804498675962 0.20713956216979845 0 0 0 0.11896989691043913 0.21848276693204688 -0.013526282571121762 0 -0.013526282571121762 0.19047756846462507 0 0 0 0.10224008384916798 0.13705049580113182 0.0052202901778004573 0 0.0052202901778004573 0.10550261226679414 0 0 0 0.060638277016981545 0.0053503966806935921 0.0029320121430654223 0 0.0029320121430654223 0.0063933565161544692 0 0 0 0.0029359382992133476 0.0053363082140395462 -0.0013244778846157601 0 -0.0013244778846157601 0.0041151472915958677 0 0 0 0.0023628638764089647 0.16735506642386344 -0.0043371499237833374 0 -0.0043371499237833374 0.11852626326444948 0 0 0 0.071470332422078453 0.0091341420680799423 0.0021361835786239958 0 0.0021361835786239958 0.0068347600110136852 0 0 0 0.0039922255197732959 0.040835275986447157 0.0011768209705245135 0 0.0011768209705245135 0.0031735365119508804 0 0 0 0.011002203124599506 0.047891160113970162 -0.018395620851127475 0 -0.018395620851127475 0.0063186067604202173 0 0 0 0.013552441718597576 -0.023574744941982445 0.013768834963710674 0 0.013768834963710674 0.010116506658424604 0 0 0 -0.0033645595708894707 -0.022143304183416812 -0.024871147078215916 0 -0.024871147078215916 0.0063391806351611457 0 0 0 -0.0039510308870638333 0.043625773106305117 -0.0084671781587418067 0 -0.0084671781587418067 -0.0087283559748375997 0 0 0 0.0087243542828668828 0.015698291314124591 0.031608592193886675 0 0.031608592193886675 0.014176498718786235 0 0 0 0.0074686975082276508 0.036360371792587776 -0.024599963177532658 0 -0.024599963177532658 0.019115301885732627 0 0 0 0.013868918419580156 0.088026617486672509 -0.015539497546959213 0 -0.015539497546959213 0.080015832508490314 0 0 0 0.042010612498790789 0.15626756332940955 0.012647256244008143 0 0.012647256244008143 0.14855406112859215 0 0 0 0.076205406114500385 0.053735787369367877 0.012041023902617215 0 0.012041023902617215 0.069016253560155394 0 0 0 0.030688010232380852 -0.018041297449308276 0.0059286476319010684 0 0.0059286476319010684 0.0095801154165139346 0 0 0 -0.0021152955081985628 0.04257520233516715 -0.015342223660906621 0 -0.015342223660906621 0.056773970960542153 0 0 0 0.024837293323927367 0.10090868046687007 0.012151139267346511 0 0.012151139267346511 0.1085726778903382 0 0 0 0.05237033958930204 0.022128389740007498 -0.026967991041588313 0 -0.026967991041588313 0.011313493290086463 0 0 0 0.0083604707575234138 0.050712580517760356 0.011359462586775223 0 0.011359462586775223 0.0054909581964791149 0 0 0 0.014050884678559861 0.033203052134942457 -0.023755332835903475 0 -0.023755332835903475 0.027815157251203093 0 0 0 0.01525455234653661 0.01236743962246023 0.025508561987977796 0 0.025508561987977796 0.011190975209987464 0 0 0 0.0058896037081124231 0.082356551216276275 0.0059780461360232628 0 0.0059780461360232628 0.036233555319327926 0 0 0 0.029647526633901078 0.090415658600134285 0.0028008962898937728 0 0.0028008962898937728 0.038912776086912682 0 0 0 0.032332108671761783 0.0090413525212729856 0.013223687009904974 0 0.013223687009904974 0.0030799697392254813 0 0 0 0.0030303305651246115 0.002403189304368062 -0.00066592788349900678 0 -0.00066592788349900678 0.045923101562784327 0 0 0 0.012081572716788117 0.079775474999278673 -0.024534898712197772 0 -0.024534898712197772 0.024228863632834607 0 0 0 0.026001084658028306 0.050664010484145518 -0.019981384213381859 0 -0.019981384213381859 0.0065399055969885753 0 0 0 0.014300979020283495 0.11634741337520543 -0.017599139545114495 0 -0.017599139545114495 0.030841526133824404 0 0 0 0.036797234877257501 0.097805479088699077 0.0081098695949158306 0 0.0081098695949158306 0.078993232844390748 0 0 0 0.044199677983272512 0.086512381553664475 0.010384623302321816 0 0.010384623302321816 0.045447208514931225 0 0 0 0.032989897517148981 -0.030512557126857048 0.013952958876173264 0 0.013952958876173264 0.0014580263138804506 0 0 0 -0.0072636327032441425 0.022929590434721644 -0.0062020150895040257 0 -0.0062020150895040257 0.051456554086006745 0 0 0 0.018596536130182102 0.02425002921839628 -0.0040832943526077428 0 -0.0040832943526077428 0.062353944184096594 0 0 0 0.021650993350623211 0.12693484937563992 0.068657441118037787 0 0.068657441118037787 0.21187583089454687 0 0 0 0.084702670067546698 0.069468034225478065 -0.02177668939422038 0 -0.02177668939422038 0.24330741162369149 0 0 0 0.07819386146229243 0.16489898543817838 0.01240854874640682 0 0.01240854874640682 0.10177259297818519 0 0 0 0.066667894604090838 0.059686079185610696 0.026149684419970596 0 0.026149684419970596 0.055782087122047103 0 0 0 0.028867041576914457 -0.064315392371410818 -0.0077200766815854471 0 -0.0077200766815854471 0.0040803696535283152 0 0 0 -0.01505875567947057 0.0084229869191844303 0.013044197090875349 0 0.013044197090875349 0.0012364333928434057 0 0 0 0.0024148550780069659 -0.029124197915666693 -0.0225304519821895 0 -0.0225304519821895 -0.0052721071790130525 0 0 0 -0.008599076273669938 -0.030239311690150341 0.013248767604682205 0 0.013248767604682205 -0.00096957068582159689 0 0 0 -0.0078022205939929853 0.065708142837417799 0.0018256696314875726 0 0.0018256696314875726 -0.0081533819620241161 0 0 0 0.014388690218848395 -0.047186083604173035 0.0042563688017189967 0 0.0042563688017189967 0.0026458510716492766 0 0 0 -0.01113505813313094 -0.044992259301449032 0.0051673183793729703 0 0.0051673183793729703 -0.0064064450373937654 0 0 0 -0.012849676084710705 -0.060290077381932705 -0.0084059192651439411 0 -0.0084059192651439411 0.0046480739840032564 0 0 0 -0.013910500849482362 -0.057964598549604389 -0.0098077974747435431 0 -0.0098077974747435431 -0.0073768792412027516 0 0 0 -0.016335369447701781 -0.0084309326948610736 -0.0172504198950999 0 -0.0172504198950999 0.0263170943702494 0 0 0 0.0044715404188470781 0.052752428003368483 0.0032102973847545797 0 0.0032102973847545797 0.0012977481710698558 0 0 0 0.013512544043609577 0.14887184857703162 0.025433188507245852 0 0.025433188507245852 0.038960087009392907 0 0 0 0.046957983896605993 0.055769180782022781 -0.0028353298112023667 0 -0.0028353298112023667 0.085890187891635494 0 0 0 0.035414842168414534 0.074094709809805259 0.035874563583038234 0 0.035874563583038234 0.083975836089648787 0 0 0 0.039517636474863505 0.022839206681597835 -0.031889246978705169 0 -0.031889246978705169 0.036550869157265908 0 0 0 0.014847518959715922 0.016117204573023441 0.0037053366222945527 0 0.0037053366222945527 0.0013640740767309528 0 0 0 0.0043703196624381548 0.083669602471654503 0.0054825600616932313 0 0.0054825600616932313 0.040422416181347627 0 0 0 0.03102300466325042 0.1326022872051543 -0.011380020142854441 0 -0.011380020142854441 0.078956625305359129 0 0 0 0.052889728127628911 0.0091628424076460307 -0.0027782918987884209 0 -0.0027782918987884209 -2.5276624076535187e-05 0 0 0 0.002284391445892374 0.050766837474044743 -0.0097736958137395469 0 -0.0097736958137395469 0.024584614061251647 0 0 0 0.018837862883824039 0.079761336104343106 0.0061651726270228191 0 0.0061651726270228191 0.043905881458032869 0 0 0 0.030916804390594077 -0.044052256018935497 0.0033932907550547403 0 0.0033932907550547403 -0.014656686263621209 0 0 0 -0.014677235570639177 -0.056051065457397992 -0.0075453988429810236 0 -0.0075453988429810236 -0.018647261598705375 0 0 0 -0.018674581764025845 -0.058833796310185545 -0.0057259680974724439 0 -0.0057259680974724439 -0.0072007881419616851 0 0 0 -0.016508646113036804 -0.04662830486514543 0.002161348036104023 0 0.002161348036104023 -0.0060640156883239038 0 0 0 -0.013173080138367333 0.024675899812801327 -0.030759425841165644 0 -0.030759425841165644 0.015019911056138868 0 0 0 0.0099239527172351738 0.0086252757632069021 0.013024377242298315 0 0.013024377242298315 0.0051066683602279984 0 0 0 0.0034329860308587234 0.045144822769284526 -0.021027334307948217 0 -0.021027334307948217 0.013359063173762897 0 0 0 0.014625971485761863 0.051235239947788697 -0.019046030202041278 0 -0.019046030202041278 0.0065853060472004232 0 0 0 0.014455136498747329 0.019355424491895659 0.011411817947319901 0 0.011411817947319901 0.0082047792839077954 0 0 0 0.0068900509439508636 0.039555637360511493 0.0099936768096369564 0 0.0099936768096369564 0.0036274645857357971 0 0 0 0.010795775486561819 0.039326731669938109 0.011811677535602874 0 0.011811677535602874 0.0030711007258203624 0 0 0 0.010599458098939618 0.04614623671220968 -0.048358830584985052 0 -0.048358830584985052 0.15631380344073165 0 0 0 0.050615010038235417 0.12221053739537464 -0.014422272360391113 0 -0.014422272360391113 0.43750560880349193 0 0 0 0.13992903654971667 -0.026953280528797759 -0.0091753572915431181 0 -0.0091753572915431181 0.017523913134483676 0 0 0 -0.002357341848578505 0.091967110114955397 0.0068856289100897999 0 0.0068856289100897999 0.06591885271517639 0 0 0 0.039471490707533086 0.042920728582643231 -0.016983823049617819 0 -0.016983823049617819 0.039141461168961555 0 0 0 0.020515547437901238 0.043092266300359047 0.011291929559529209 0 0.011291929559529209 0.012855676436227988 0 0 0 0.013986985684146757 0.13504957968655029 0.018575913932276755 0 0.018575913932276755 0.087203548999447378 0 0 0 0.055563282171499306 -0.026177966692361276 -0.012646596050154502 0 -0.012646596050154502 0.0039960837130204041 0 0 0 -0.0055454707448351348 0.088375753659399897 -0.027719225270875475 0 -0.027719225270875475 0.072204778079314413 0 0 0 0.040145132934678612 0.092356946929028877 -0.0029652363820019123 0 -0.0029652363820019123 0.025473692685157256 0 0 0 0.02945765990354654 -0.015804580209574759 0.023672453612191724 0 0.023672453612191724 0.0094188654298363872 0 0 0 -0.001596428694934815 0.05156051853749033 -0.023418913131569852 0 -0.023418913131569852 0.040609517123132211 0 0 0 0.02304250891515558 0.050807565383371167 -0.022043350038475927 0 -0.022043350038475927 0.030144261090482516 0 0 0 0.020237956618463504 0.041492694541005515 -0.0084816201699277061 0 -0.0084816201699277061 0.010561658334547364 0 0 0 0.01301358821888815 0.10944193927566895 0.010345873306419617 0 0.010345873306419617 0.09648284205688612 0 0 0 0.051481195333138802 0.047551841079837648 -0.016751257849456573 0 -0.016751257849456573 -0.0097469698888871682 0 0 0 0.0094512177977376169 0.048227486237145262 0.0044046979972091616 0 0.0044046979972091616 0.0010545040164429698 0 0 0 0.012320497563397065 9.6849038932179943e-05 0.015719570654311898 0 0.015719570654311898 0.00065637477356254165 0 0 0 0.00018830595312367346 0.008822507622069705 0.015165694918931093 0 0.015165694918931093 0.00055965066966996019 0 0 0 0.002345539572934912 0.024048991330993901 9.8495929876287608e-05 0 9.8495929876287608e-05 0.037988906787071113 0 0 0 0.015509474529516256 -0.00045090369601086255 -0.012887290369191895 0 -0.012887290369191895 0.043079965338363335 0 0 0 0.010657265410588201 0.023434959432409325 0.0099233830037886023 0 0.0099233830037886023 0.0017414867059312028 0 0 0 0.0062941115345851277 0.027552824922439097 0.012285470901733988 0 0.012285470901733988 0.0095884021063961933 0 0 0 0.009285306757208827 0.024238977424878079 0.010507128837425904 0 0.010507128837425904 0.0070338215201894982 0 0 0 0.0078181997362668908 0.052472062047427548 -0.0073837014282625568 0 -0.0073837014282625568 -0.0080834209280800096 0 0 0 0.011097160279836815 0.061948082122610715 -0.0074274272105913086 0 -0.0074274272105913086 0.02730092151914465 0 0 0 0.022312250910438869 0.097779772519133834 0.0050359666651064172 0 0.0050359666651064172 0.059927595661570132 0 0 0 0.039426842045176103 0.083725670605358127 0.0078785721926858399 0 0.0078785721926858399 0.01483289680301958 0 0 0 0.024639641852094385 0.089727692997440017 -0.047453494264720779 0 -0.047453494264720779 0.15606149149581289 0 0 0 0.061447296123313205 0.12748771254655678 0.0089151022798179547 0 0.0089151022798179547 0.083753936959906738 0 0 0 0.052810412376616434 0.008472975861533838 -0.0070296164257144245 0 -0.0070296164257144245 0.0026277987294287541 0 0 0 0.0027751936477404815 0.080098103812537791 -0.0092832008461085636 0 -0.0092832008461085636 0.044277185326635049 0 0 0 0.031093822284793071 0.014670513262056151 0.0096824411148874745 0 0.0096824411148874745 0.0073881991628472754 0 0 0 0.0055146781062260786 -0.018990204394600863 0.031506531147941635 0 0.031506531147941635 0.0046037239538989638 0 0 0 -0.0035966201101760298 0.047042327404557049 -0.025298987033020734 0 -0.025298987033020734 0.026142136273674677 0 0 0 0.01829611591955782 0.046959847665299703 -0.025137388206566857 0 -0.025137388206566857 0.019855559580022941 0 0 0 0.016703851811330828 0.028165004526987253 -0.0020424516809398503 0 -0.0020424516809398503 0.051216561495481185 0 0 0 0.019845391505617135 0.093839069996229263 0.00057374954926520116 0 0.00057374954926520116 0.071512646795305557 0 0 0 0.041337929197883483 0.016509923664981496 -0.0056868281613802751 0 -0.0056868281613802751 0.0040939041184806513 0 0 0 0.0051509569458656479 0.026766600416347597 0.0081854315776110909 0 0.0081854315776110909 0.0084479784241509037 0 0 0 0.0088036447101247362 0.057326338513214559 -0.0028939174820123981 0 -0.0028939174820123981 0.034298661675846276 0 0 0 0.022906250047264987 0.045300321277962241 -0.006220699835754101 0 -0.006220699835754101 0.0092134408742419183 0 0 0 0.013628440538051012 0.087016397876671342 -0.029854298340122432 0 -0.029854298340122432 0.011637889666182455 0 0 0 0.02466357188571347 0.1276985174071677 -0.017445192919830155 0 -0.017445192919830155 0.10277454907017891 0 0 0 0.057618266619336722 0.20082050935176132 0.019117701397672215 0 0.019117701397672215 0.18906350580036402 0 0 0 0.097471003788031418 0.045059322027569321 0.010933660736339725 0 0.010933660736339725 0.00199697654952255 0 0 0 0.011764074644272961 -0.058081201116222614 0.036314624933416861 0 0.036314624933416861 0.0052735201135218901 0 0 0 -0.013201920250675236 -0.046204051739896279 0.03007191349295401 0 0.03007191349295401 0.0042038148674228282 0 0 0 -0.010500059218118363 0.043178510516623574 -0.0081549899373177803 0 -0.0081549899373177803 0.0054578192157356611 0 0 0 0.012159082433089821 0.027217106573786554 0.0037920964754971156 0 0.0037920964754971156 0.020046441869177204 0 0 0 0.011815887110740945 0.039531132330622103 -0.019616808026034688 0 -0.019616808026034688 0.01119660513411825 0 0 0 0.012681934366185081 0.050343168455307216 -0.0257955733257271 0 -0.0257955733257271 0.027163132997345789 0 0 0 0.019376575363163246 -0.0025086246696481851 0.028624885816342871 0 0.028624885816342871 0.0058076609982284921 0 0 0 0.00082475908214485472 0.035149314136323717 -0.022694274671062498 0 -0.022694274671062498 0.024728409221121073 0 0 0 0.014969430839361086 0.030838893040442072 -0.029562195864519469 0 -0.029562195864519469 0.017609304205515652 0 0 0 0.012112049311489348 -0.046760172173344723 0.01351834816879496 0 0.01351834816879496 -0.0015033891657381115 0 0 0 -0.0120658903347707 -0.060065401747344177 -0.024032247116805926 0 -0.024032247116805926 -0.0058829116898317796 0 0 0 -0.016487078359293986 -0.051112752993117384 -0.024085974295823136 0 -0.024085974295823136 0.0018146009991677065 0 0 0 -0.012324537998487407 -0.042732587783807334 0.012556762739794159 0 0.012556762739794159 0.0015036384597952 0 0 0 -0.010307237331003033 0.026720153002410714 0.0013073491165658882 0 0.0013073491165658882 0.026373250656724651 0 0 0 0.013273350914783828 -0.052638805271620903 0.023001024088629363 0 0.023001024088629363 0.0027515337667400885 0 0 0 -0.012471817876220204 0.06260845268713644 -0.019303414022762033 0 -0.019303414022762033 0.037892246514003247 0 0 0 0.025125174800284755 0.057956949861336371 -0.024398740811435754 0 -0.024398740811435754 0.028505719345216285 0 0 0 0.02161566730163833 -0.020266483549222336 -0.029128789679673583 0 -0.029128789679673583 0.010288941655805239 0 0 0 -0.0024943854733541215 0.046179174809777471 -0.0098576990601489944 0 -0.0098576990601489944 0.011481478111497162 0 0 0 0.014415163230318565 0.057661656116150449 -0.025211332479268753 0 -0.025211332479268753 -0.0040882948957646978 0 0 0 0.013393340305096438 0.027699790269358076 -0.0025395108457137655 0 -0.0025395108457137655 0.018907396583390697 0 0 0 0.011651796713187199 -0.030334915575843065 0.017056339787901782 0 0.017056339787901782 -0.00045514107712787966 0 0 0 -0.0076975141632427344 -0.044727601220481195 0.059188410209140896 0 0.059188410209140896 0.021239253757645016 0 0 0 -0.0058720868657092251 -0.03123190738693471 -0.026748666027511636 0 -0.026748666027511636 0.012328206719518731 0 0 0 -0.0047259251668539948 0.090389045105281909 0.022809441564751065 0 0.022809441564751065 0.049330720709870268 0 0 0 0.034929941453788374 -0.011694827061352733 -0.017715593778490524 0 -0.017715593778490524 0.0030975553303094899 0 0 0 -0.0021493179327608664 0.086808958508070244 0.05300232471498223 0 0.05300232471498223 0.015994455919668304 0 0 0 0.025700853606934526 -0.025752688646177916 0.01247687804414859 0 0.01247687804414859 0.0032964671865253286 0 0 0 -0.0056140553649131515 0.024308215038569829 0.0065838774930396735 0 0.0065838774930396735 0.014410128523260868 0 0 0 0.0096795858904576721 -0.018502344717156505 -0.022091622717354653 0 -0.022091622717354653 0.0061943892855373939 0 0 0 -0.003076988857904861 0.10763294399939202 -0.0042774798785814028 0 -0.0042774798785814028 0.065366565101575125 0 0 0 0.043249877275241842 0.17092116018722525 0.0018853937112067176 0 0.0018853937112067176 0.12431101851890292 0 0 0 0.073808044676532125 0.026520084811317967 0.0073876914071874834 0 0.0073876914071874834 0.0070793701979340873 0 0 0 0.0083998637523130058 0.011617002549025202 0.0035419648186270081 0 0.0035419648186270081 0.0070346879845804011 0 0 0 0.0046629226334014007 0.0077598296960257329 0.006039156217074737 0 0.006039156217074737 0.0061943697453319402 0 0 0 0.0034885498603385301 0.096840121898681852 0.00010731548370745969 0 0.00010731548370745969 0.063372540955526802 0 0 0 0.040053165713552108 0.11308183984358133 -0.0086080663796221923 0 -0.0086080663796221923 0.067221607413952889 0 0 0 0.045075861814383389 0.1760403967138866 0.010944455312601686 0 0.010944455312601686 0.12491573661891486 0 0 0 0.075239033333200478 0.0071740320208280028 -0.0023626118845627708 0 -0.0023626118845627708 0.00392783381932027 0 0 0 0.0027754664600374568 0.15785934751037534 -0.0082539861663373237 0 -0.0082539861663373237 0.12223700187046305 0 0 0 0.070024087345210262 0.0034444666974269289 -0.0044237043732806569 0 -0.0044237043732806569 0.0030542983799026757 0 0 0 0.0016246912693322901 0.05058551575552328 -0.0044797182244825096 0 -0.0044797182244825096 0.0097678012311936957 0 0 0 0.015088329246679244 0.044777606421597504 -0.016315594749937087 0 -0.016315594749937087 0.026074727687965149 0 0 0 0.017713083527390594 0.03857241001020828 -0.018216990068746233 0 -0.018216990068746233 0.022989098536962516 0 0 0 0.015390377136792699 0.038278748157625206 -0.0053630668548362292 0 -0.0053630668548362292 0.007037583575258799 0 0 0 0.011329082933220977 0.042441850689849292 -0.010332422415317621 0 -0.010332422415317621 0.011169825701402569 0 0 0 0.013402919097812993 0.063096077663512606 0.030706486229898702 0 0.030706486229898702 0.1190875322848082 0 0 0 0.04554590248708023 0.021232544692316481 -0.027544695095544712 0 -0.027544695095544712 0.013994984321396738 0 0 0 0.0088068822534283081 0.018189183664882841 -0.038438842331668943 0 -0.038438842331668943 0.0068145755337710029 0 0 0 0.0062509397996634575 -0.0095520602762334417 0.010020919522630265 0 0.010020919522630265 0.0075338408969432211 0 0 0 -0.0005045548448225582 -0.057048188477330841 0.036979087966346302 0 0.036979087966346302 0.0076249269148376264 0 0 0 -0.012355815390623248 -0.033377720754167783 0.056945034074177059 0 0.056945034074177059 0.047285644675971961 0 0 0 0.0034769809804510166 0.067376219198163681 0.029918369233550152 0 0.029918369233550152 0.077193514441373207 0 0 0 0.036142433409884253 0.081683517581773946 0.0092517434707532088 0 0.0092517434707532088 0.049691276416317542 0 0 0 0.032843698499522844 0.095580486719296975 0.012521386441557709 0 0.012521386441557709 0.055584203333167936 0 0 0 0.037791172513116256 0.098537647966929404 0.039316792377434122 0 0.039316792377434122 0.080020418755632094 0 0 0 0.044639516680640368 -0.029017837630600452 -0.024662161490099477 0 -0.024662161490099477 0.02099264824390995 0 0 0 -0.0020062973466726253 -0.041492589653577466 -0.015132133944010084 0 -0.015132133944010084 0.002344406050419523 0 0 0 -0.009787045900789465 0.063822495898351678 0.026622871662620118 0 0.026622871662620118 0.057081232527368547 0 0 0 0.030225932106430042 0.083480317193869044 0.031349238584348932 0 0.031349238584348932 0.04687571988892978 0 0 0 0.032589009270699694 0.033276590690986707 -0.019373341710034575 0 -0.019373341710034575 0.034887041061518853 0 0 0 0.017040907938126459 0.025564856390856108 0.00091176442370185509 0 0.00091176442370185509 0.016081387675437039 0 0 0 0.010411561016573284 0.027865278377931107 0.0029586508525386327 0 0.0029586508525386327 0.026106384058810536 0 0 0 0.013492915609185408 0.031905333011685619 0.0023590278905821554 0 0.0023590278905821554 0.041677575367256192 0 0 0 0.018395727094735442 0.1526845044044991 0.015317907080321991 0 0.015317907080321991 0.13887510280641635 0 0 0 0.07288990180272914 -0.028341751854354169 -0.0053641615560686695 0 -0.0053641615560686695 0.0039956248585273357 0 0 0 -0.0060865317489565696 -0.026190762561421142 0.014829767428016427 0 0.014829767428016427 0.0020676134797281212 0 0 0 -0.0060307872704232655 0.035251583178863261 0.010617747850859297 0 0.010617747850859297 0.0059315160421870849 0 0 0 0.010295774805262586 0.15965802614833646 0.017381263876189434 0 0.017381263876189434 0.075971139509679375 0 0 0 0.058907291414503904 0.043297977259977083 -0.0047048761550265716 0 -0.0047048761550265716 0.0073458843070368651 0 0 0 0.012660965391753431 0.0097400591652280315 -0.038184799736947939 0 -0.038184799736947939 -0.00044621939817682385 0 0 0 0.0023234599417628031 -0.022629675912456387 -0.031911036341975993 0 -0.031911036341975993 0.0033914411641713868 0 0 0 -0.0048095586870712526 0.039373924757751699 -0.013828930076015045 0 -0.013828930076015045 0.053901613823260863 0 0 0 0.023318884645253113 
</DataArray>
<DataArray type="Float64" Name="cross_section_updated" format="ascii">
0.0010111443754289259 0.0010275835591020549 0.001037684228230429 0.0010472264529200409 0.0010571308234154787 0.0010679527828375631 0.0010799427831509421 0.0010932820028247568 0.0011084445598177691 0.0011260855499240707 0.002038658059354416 0.0021000223440993831 0.002142204160534416 0.0021808014613277399 0.0022193036572090712 0.0022585575912215834 0.0022993372398654663 0.0023420859314591132 0.0023875873638947104 0.0024373176386769833 1 1 1 1 1 1 1 1 1 1 1 1 1 1 1 1 1 1 1 1 1 1 1 1 1 1 1 1 1 1 1 1 1 1 1 1 1 1 1 1 1 1 1 1 1 1 1 1 1 1 1 1 1 1 1 1 1 1 1 1 1 1 1 1 1 1 1 1 1 1 1 1 1 1 1 1 1 1 1 1 1 1 1 1 1 1 1 1 1 1 1 1 1 1 1 1 1 1 1 1 1 1 1 1 1 1 1 1 1 1 1 1 1 1 1 1 1 1 1 1 1 1 1 1 1 1 1 1 1 1 1 1 1 1 1 1 1 1 1 1 1 1 1 1 1 1 1 1 1 1 1 1 1 1 1 1 1 1 1 1 1 1 1 1 1 1 1 1 1 1 1 1 1 1 1 1 1 1 1 1 1 1 1 1 1 1 1 1 1 1 1 1 1 1 1 1 1 1 1 1 1 1 1 1 1 1 1 1 1 1 1 1 1 1 1 1 1 1 1 1 1 1 1 1 1 1 1 1 1 1 1 1 1 1 1 1 1 1 1 1 1 1 1 1 1 1 1 1 1 1 1 1 1 1 1 1 1 1 1 1 1 1 1 1 1 1 1 1 1 1 1 1 1 1 1 1 1 1 1 1 1 1 1 1 1 1 1 1 1 1 1 1 1 1 1 1 1 1 1 1 1 1 1 1 1 1 1 1 1 1 1 1 1 1 1 1 1 1 1 1 1 1 1 1 1 1 1 1 1 1 1 1 1 1 1 1 1 1 1 1 1 1 1 1 1 1 1 1 1 1 1 1 1 1 1 1 1 1 1 1 1 1 1 1 1 1 1 1 1 1 1 1 1 1 1 1 1 1 1 1 1 1 1 1 1 1 1 1 1 1 1 1 1 1 1 1 1 1 1 1 1 1 1 1 1 1 1 1 1 1 1 1 1 1 1 1 1 1 1 1 1 1 1 1 1 1 1 1 1 1 1 1 1 1 1 1 1 1 1 1 1 1 1 1 1 1 1 1 1 1 1 1 1 1 1 1 1 1 1 1 1 1 1 1 1 1 1 1 1 1 1 1 1 1 1 1 1 1 1 1 1 1 1 1 1 1 1 1 1 1 1 1 1 1 1 1 1 1 1 1 1 1 1 1 1 1 1 1 1 1 1 1 1 1 1 1 1 1 1 1 1 1 1 1 1 1 1 1 1 1 1 1 1 1 1 1 1 1 1 1 1 1 1 1 1 1 1 1 1 1 1 1 1 1 1 1 1 1 1 1 1 1 1 1 1 1 1 1 1 1 1 1 1 1 1 1 1 1 1 1 1 1 1 1 1 1 1 1 1 1 1 1 1 1 1 1 1 1 1 1 1 1 1 1 1 1 1 1 1 1 1 1 1 1 1 1 1 1 1 1 1 1 1 1 1 1 1 1 1 1 1 1 1 1 1 1 1 1 1 1 1 1 1 1 1 1 1 1 1 1 1 1 1 1 1 1 1 1 1 1 1 1 1 1 1 1 1 1 1 1 1 1 1 1 1 1 1 1 1 1 1 1 1 1 1 1 1 1 1 1 1 1 1 1 1 1 1 1 1 1 1 1 1 1 1 1 1 1 1 1 1 1 1 1 1 1 1 1 1 1 1 1 1 1 1 1 1 1 1 1 1 1 1 1 1 1 1 1 1 1 1 1 1 1 1 1 1 1 1 1 1 1 1 1 1 1 1 1 1 1 1 1 1 1 1 1 1 1 1 1 1 1 1 1 1 1 1 1 1 1 1 1 1 1 1 1 1 1 1 1 1 1 1 1 1 1 1 1 1 1 1 1 1 1 1 1 1 1 1 1 1 1 1 1 1 1 1 1 1 1 1 1 1 1 1 1 1 1 1 1 1 1 1 1 1 1 1 1 1 1 1 1 1 1 1 1 1 1 1 1 1 1 1 1 1 1 1 1 1 1 1 1 1 1 1 1 1 1 1 1 1 1 1 1 1 1 1 1 1 1 1 1 1 1 1 1 1 1 1 1 1 1 1 1 1 1 1 1 1 1 1 1 1 1 1 1 1 1 1 1 1 1 1 1 1 1 1 1 1 1 1 1 1 1 1 1 1 1 1 1 1 1 1 1 1 1 1 1 1 1 1 1 1 1 1 1 1 1 1 1 1 1 1 1 1 1 1 1 1 1 1 1 1 1 1 1 1 1 1 1 1 1 1 1 1 1 1 1 1 1 1 1 1 1 1 1 1 1 1 1 1 1 1 1 1 1 1 1 1 1 1 1 1 1 1 1 1 1 1 1 1 1 1 1 1 1 1 1 1 1 1 1 1 1 1 1 1 1 1 1 1 1 1 1 
</DataArray>
<DataArray type="Float64" Name="displacement_divergence" format="ascii">
0.011227629423373162 0.027602804396016239 0.03771524907572444 0.047259058637112883 0.057171454504644899 0.068003469170861891 0.079998792282591852 0.093369898200422602 0.10848859990929381 0.12639253989891372 0.020036016767168721 0.049961607934827436 0.071224064065423656 0.090478095041425219 0.10974096060482055 0.12937867914071108 0.14975554142187475 0.17123816136514541 0.19366330367449336 0.21988923008692229 3.1594935292287902e-05 4.7203779505750884e-05 3.7040517669355093e-05 3.4494375234340194e-05 -3.9069226003304695e-05 -2.9949379204448672e-05 -4.7960542695874542e-05 -3.4921304938586345e-05 -6.0911528504165819e-05 -0.00010379125456766768 3.3068428898674635e-05 3.118730353343703e-05 7.4538426878537601e-06 1.8409294698922142e-05 5.195106210142503e-06 2.6400452263217265e-05 0.00031218384905253287 2.6573687950834542e-05 4.0872965783620568e-05 5.1926768571750395e-05 2.3751432079496988e-05 4.2905873192641657e-05 2.9514045751295563e-05 1.0379091321417632e-05 0.00026183919658105573 -0.00012463318471910695 -6.9703085809376809e-05 -3.5746235538206147e-06 1.2974611635119086e-05 -3.0933311510158675e-05 5.765717383473802e-05 1.9533172791771089e-05 3.5806643235254763e-05 2.8385395960576522e-05 1.1925060584470903e-05 -1.1472419474709279e-05 9.084280526177059e-05 -3.1416701684181827e-05 0.00029708553116808379 8.8717295456880842e-05 0.00015817697726409159 8.5047134321221505e-05 0.00012027607624901264 5.1819191047644542e-06 2.1016838797418493e-05 1.4588118705478129e-05 4.4697546970114379e-05 3.8387439612297191e-05 0.00032495198598315593 4.7393735630607981e-06 9.7207050465708821e-05 5.0226822858084408e-05 6.7383517655329546e-05 3.9238130115744438e-05 7.0848601819199384e-05 -5.4909651285182373e-05 1.0364801390811036e-06 0.00018064469437230508 0.00014041663241501205 4.8090689291945335e-06 4.6906314935841933e-05 0.00011979472308156974 4.088461475553265e-05 5.3001914489809294e-05 8.4970366731151707e-06 -2.9788513339480627e-05 -3.8595029373795502e-05 4.9656018317625655e-05 0.00010181497125010854 -2.1831074580003772e-05 -1.9924333091078043e-05 2.7704672065037889e-05 -3.3231917502852184e-05 -4.4616798434815938e-05 3.9153867915291823e-05 4.1243061662951978e-05 0.00021338156410090348 1.343358277953316e-06 3.4509795434890756e-05 5.4844577612541746e-05 8.0875748014342524e-07 -3.7087670167207968e-05 -3.05585836210071e-05 1.7326412123917522e-05 5.8642876942980714e-05 2.2919533254839091e-05 2.1661117606099252e-05 2.8860583797471843e-05 -1.2613624469645349e-06 5.8854201795266589e-05 3.4515310129387094e-05 2.8855741399738064e-05 2.916566393197232e-05 5.6321353531785733e-05 6.059919449609018e-05 5.8922197051542282e-05 8.3790107570576872e-05 0.00024877859097374635 2.303115950042043e-06 -7.1389147550272175e-06 0.00022970647837894983 0.00011277716384501418 2.0761971108995491e-05 1.6269881525069516e-05 0.00011377062693926614 0.00010136512394405203 5.2986073916006004e-05 4.7453660558925627e-05 2.144137853236569e-05 7.5019111419389348e-05 -8.5568734567607538e-06 0.00012669049325678746 -4.9998864754280686e-05 -8.0444481014754995e-05 6.2809538520884611e-05 0.00014472129650610472 4.6960251961737252e-05 4.8209332975985013e-05 3.8119117251684455e-05 1.8772418371846081e-05 6.686966591861257e-05 9.2065996957355595e-06 6.6055863956902957e-05 3.6140059633139291e-05 4.9649956432360799e-05 4.7022252193530177e-05 4.4651443247040569e-05 -8.0425999056729994e-05 1.8844163872781567e-06 9.4982644157676926e-06 3.3948574553833988e-05 -5.6549000471550455e-05 -3.5856728835577357e-05 -3.8772110010005243e-05 -6.2451231839881429e-05 -5.51779208947706e-05 3.8257143189314094e-05 -4.8573189768902033e-05 0.00010290810456349271 5.8270747624042816e-05 5.3334441674399821e-05 -3.7310062855292619e-07 5.3704735266185081e-05 6.3096980994212506e-05 3.0695380807637448e-05 4.3919457739513351e-05 1.2203393156525373e-05 7.2253307381093642e-06 2.8951413544777837e-05 -2.4835960209802337e-06 3.2727320094792008e-06 2.5212697200874082e-05 3.0567508023340254e-05 2.1884177019590801e-05 1.9833609015883379e-05 1.2578962222294668e-05 4.6691086825292816e-05 3.057597649217908e-05 1.4862337780742373e-05 6.9986114713050193e-05 1.2765427368559829e-05 1.795475167167983e-05 -3.7063328966716153e-05 -3.0541892950177211e-05 0.00016091784240899369 2.4898314540718427e-05 5.7600173154488432e-05 2.3292430266411536e-05 -4.3206779042574082e-05 -6.8901420433425118e-05 3.5315427483812302e-05 -3.3102706355394005e-05 -3.5449342031829433e-05 -3.8270289116720471e-05 -1.859164126420565e-06 1.0149224017941432e-05 -2.9604157019930502e-06 3.2737762273016757e-05 0.00010909752385021391 -4.3035708846704719e-06 2.9458964937778608e-05 1.7792175171934617e-05 3.0612049578797391e-06 -1.0206722178860174e-06 2.526251336106735e-05 2.7919163526600601e-05 2.083331170116276e-05 8.7061982635974365e-05 0.00012817839543712993 4.3846090286480305e-05 2.9195145442892035e-05 2.9255619037733241e-05 -4.8797443570267052e-08 7.3845273890213361e-05 3.6946682261992827e-05 1.3421049243579137e-05 2.3491736625426505e-05 -4.4334664469671755e-05 -6.4429981491275883e-05 4.8078877660302517e-05 -7.3003856160917531e-06 -3.8989199617786994e-06 -9.3502691179055369e-05 -5.4173599407389986e-05 0.00014849787848002279 0.00032327624564386706 2.6605520552728303e-05 7.2681876920405652e-06 8.2268359020821731e-05 1.3136499301939384e-05 2.461463496861793e-05 -1.2169812038200271e-05 2.0721761974530802e-05 -7.7671861155566041e-05 1.5671185877968487e-05 4.496586417390919e-05 3.5307337301765504e-05 2.199520840621375e-05 3.8720595145951098e-05 4.7206909715214842e-05 -1.2918607944875479e-05 3.8499944874706687e-06 -4.772138470981074e-05 3.9992381364730573e-05 3.5506176419686784e-05 3.1654539808832934e-05 9.5179819456653065e-06 5.0265641837705862e-06 0.00013863583529588245 3.6430223100853609e-05 2.3719368481888747e-05 2.8658864751895351e-05 0.00010285113232262263 -2.5218141227152973e-05 2.8910505599518486e-05 -6.6846060175211185e-05 -4.4044071353182993e-05 -4.6067145287349105e-05 2.4994941636434521e-05 5.2053945818396813e-05 5.2777816146078033e-05 6.4047626015103855e-05 3.2469036427232396e-05 2.3350110153683157e-05 4.021374592311569e-05 2.4888670654084082e-05 5.2476615882778394e-05 8.404027958424775e-05 2.118102257361084e-05 9.4177221712276118e-06 4.868432135213133e-05 -1.8169141804370988e-05 -2.0304938401463049e-05 -3.2677631852496484e-05 -4.5326300229614003e-05 -2.1261625585990412e-05 1.4522854732105024e-05 0.00015497317653505012 -1.9537129585176383e-05 -1.7344418109845928e-05 3.9697376719155968e-05 -1.6941268230166569e-06 1.3599711164447985e-06 -4.4123646758018639e-05 -4.7606314241780632e-05 0.00010044281044734472 8.7850675866488204e-06 4.6853466007178748e-05 1.3697845819350121e-05 3.5116806685790168e-06 0.00010943532724457623 0.00019252622210180054 7.9388314269077077e-05 -2.8902808040920716e-05 4.2051003907583873e-06 -4.0281290229829376e-05 3.3901054430728865e-05 9.9679058450386762e-06 1.1203831121795295e-05 -1.2808082728878168e-06 -1.414071031483337e-05 -5.7707826432571487e-06 6.0243525830476599e-06 -3.1778112588336867e-05 -4.2462848318916091e-05 -1.8428489705336168e-05 -1.6972661507366346e-05 -1.0086550405991304e-05 -1.0519678712824846e-05 1.9220408959108259e-05 6.8305359436241625e-05 3.5538404735055919e-05 1.6915634688487689e-05 5.3763625038087334e-05 -8.7621504283024796e-06 -7.5414667764840737e-06 3.3309418308700269e-05 3.7927242198495517e-05 -5.1538304676160881e-05 8.4697652739981538e-05 -6.6176322032010255e-06 5.204422541703098e-05 -4.5614491837290039e-05 -3.1530713668350143e-05 5.1953934585135541e-05 2.8328434509109401e-05 2.8129162862303235e-05 -4.6870468818967402e-05 -3.3754654220048302e-05 6.3388411091554837e-05 1.4251130524015922e-05 4.3904197085862379e-05 -2.3794763321263537e-05 -1.2263023356282612e-05 3.7904513233272669e-05 3.8158325709777193e-05 8.4405715610499002e-06 1.3859955823691562e-05 3.9291504385770442e-06 3.707219382342984e-06 3.4769895534929557e-05 6.1019118011822705e-05 4.4501910557008401e-05 6.9229839870463619e-05 -4.3833780595226544e-06 6.4863514331325433e-05 4.6018300079773474e-05 5.9368785420532321e-05 9.3643329633426482e-06 3.3419430377117434e-05 -2.2708992181576163e-05 -2.0625342612268315e-05 2.9390226438452205e-05 0.00012726992502957459 0.00022032006547487073 4.4596582254710813e-05 5.182346462768778e-05 2.4482673578631172e-05 3.1766835876687657e-05 4.0766766986919203e-05 1.6404156296737082e-06 7.4028071398042985e-05 7.1933943538116498e-05 0.00013317459894612339 7.9879261343438791e-05 7.5419999979945817e-06 2.9286925588314625e-05 3.6377532461234671e-05 7.8129630649980721e-05 5.7323923526243943e-06 -1.0847388746994945e-05 -1.2230954531785485e-05 7.7081733106914695e-05 -3.4990616703082619e-05 -2.7254433510504465e-05 -1.4823315940844413e-05 9.6159847729989679e-05 7.2752415073716443e-05 4.5158565776146206e-05 2.2105361140777133e-06 5.4311555451644778e-05 2.3151096953719693e-05 -1.5045985315264698e-05 -1.7156342786539655e-05 6.4848091356155225e-05 8.4924769602606851e-05 0.00014716052748854581 4.6808783167335606e-05 4.6519241880728466e-05 9.4852322128205003e-05 6.5060983530588871e-05 0.00014103113041035245 -3.2492142804348492e-06 6.0677819682904663e-05 6.8849238877815672e-05 3.4459447350552682e-05 5.9264044113679967e-05 2.3141277745956023e-05 -5.6691219997741802e-05 6.8789929684442692e-06 4.1777337191306964e-05 7.5830992859741956e-05 -9.3245623852031712e-05 2.6164536588145501e-05 3.6272593939358044e-05 3.0985622521456559e-05 -1.9925574128599327e-05 1.6984414796825182e-05 3.1349919109232957e-05 3.6152062953281093e-05 3.3370287930870241e-05 6.0360559401801328e-05 -1.9503504449953637e-05 0.00018253286066432953 -1.3357096820871173e-05 3.2817578007311211e-05 3.5861269402734138e-05 1.5956376614671003e-06 6.9643020195665328e-05 4.403090013336165e-05 3.9212993425010856e-05 3.2895066079065196e-05 -2.2909265884944535e-05 1.8068219596754061e-05 3.2774630077109907e-05 -2.8406502690437205e-05 0.00014429793235635888 4.326274102707181e-05 2.3217011093056017e-05 2.6783311652939557e-05 3.1220362470434502e-05 7.2634138449834926e-05 5.9203354728811831e-05 3.0130594524241752e-05 3.1314254178614007e-05 -3.2615992891774819e-05 -2.3892985370618618e-05 3.7419620530058675e-05 -2.6924018534783302e-05 -4.8908595715993312e-05 7.9097266325462096e-05 0.00013520376524268039 5.3130735936695835e-05 3.5174220571681158e-05 0.00015122479030764212 2.5275103166313665e-05 4.5107267361664641e-05 0.00011916117179130298 2.7886229642521304e-05 5.1571211769432107e-05 1.9138683326691379e-05 2.0991269402808611e-05 4.6889062771198739e-05 0.00013311440007046475 -2.0273533337682084e-06 -6.8353173173630805e-05 -0.00011973622229149837 0.0001068052186431784 -9.8163281238331535e-06 0.00013614095775629569 0.00017232433328140612 0.00028761363583435146 0.0002341947342204536 5.4306207018773656e-05 0.00010058593763077862 0.00015903262730190826 8.0613691880729896e-05 6.0111317665347702e-05 0.00011532121115930428 1.834393740371594e-05 9.3808556511764535e-06 6.2799830590510967e-05 2.9943509442538591e-05 0.0001517922282471564 6.3496725640798442e-06 7.114794150599612e-05 1.22450638297706e-05 8.7214708824815638e-05 5.1876569582366694e-05 2.8522252357102943e-05 3.2012553781730695e-05 2.6742841076166995e-05 5.4859231306638974e-05 -3.8530817029946572e-05 9.0738025912569898e-05 5.3771292798297161e-05 5.9119876294198284e-05 3.5616428029906907e-05 4.5960913799288246e-05 -0.0001424933685971651 -7.7093197008136071e-05 3.0293652552098158e-05 1.4959771589493035e-05 5.5737551808508445e-05 5.5128629539491221e-05 4.6125814959709752e-05 -3.7898250217203133e-05 -2.7968330664107004e-05 0.00012241181360311522 -2.15269079468085e-05 -1.9350019705999212e-05 4.0821390350360672e-05 0.00013246907518941055 4.8262332605791304e-05 6.8749446166109268e-05 4.7597580644351658e-06 -4.9428780040774027e-06 -5.7532349603724683e-05 -9.0411437383269928e-05 -4.3269810422224197e-07 7.2678129726074132e-05 4.8053340199080727e-05 5.4660351792730656e-05 5.0342690321339683e-05 7.8267928338270461e-05 7.901871484746232e-05 5.7096376439702513e-05 3.1542374546550673e-05 5.0668498429095221e-05 0.00011132906660873009 -5.055452114186312e-05 -7.547410934705187e-05 -7.0658643549339907e-06 9.6959450381897715e-05 4.0608705335747458e-05 -2.1616239534659121e-05 -1.8055938969754708e-05 1.8249879804107661e-05 5.4328630633328129e-05 9.8526536662966167e-05 1.6532509339672436e-05 -2.3919551972437659e-05 7.8806816301245841e-05 7.3332065719485364e-05 5.7956018675464751e-05 4.2066956350755803e-05 3.813779298793058e-05 5.5011952885785487e-05 0.00024090864456731073 7.212323233752628e-06 0.0001413798341117537 1.1906264965444446e-05 4.1682641732132073e-05 3.3582027534472686e-05 3.6181335294163681e-05 -6.0003737846483688e-05 -7.6114621356445703e-05 2.6588285332851846e-05 1.1160185857556187e-05 7.4375595205373953e-05 -1.5800246077181873e-05 -8.6939187410157328e-06 -4.8239336876773219e-06 -1.9269181893035987e-05 -2.5345259011646734e-05 -9.1665959104864428e-06 2.1267222463581564e-05 1.7371748719396175e-05 1.1414910372250271e-05 9.5208187776540926e-06 6.5080176545503389e-05 7.5307886498367921e-06 -1.0786215183959723e-06 1.0133618317271305e-05 2.4161831289207854e-05 -9.6442576785870092e-06 -4.8398229999211228e-06 6.676454418247244e-05 2.8199253353574504e-05 -9.8450562133943094e-06 -1.4258550809316638e-05 9.3323319408848492e-05 6.7289874010384356e-06 3.0128196679404934e-06 6.2044357067297311e-05 4.2369349237213049e-05 3.6827944211052456e-05 -4.4313207086419262e-05 -3.2752724380577034e-05 6.0615192609232981e-05 4.0747191249939884e-05 2.0422508570465165e-05 -2.8358873485061152e-05 -3.9364751886176216e-05 2.3921703957415652e-05 3.501235570778908e-05 1.3185831689389684e-05 4.3634780936090001e-05 2.6435909694212862e-05 0.00015465721032866753 5.6007701449260263e-06 -3.6710549005522161e-05 9.5128437193381203e-05 8.0861477859417831e-05 -1.2813037677061031e-05 5.9296885551957877e-05 -5.1049649975057397e-05 -8.5472330400628661e-05 -5.1737316636957806e-05 -8.8552186491707482e-05 -2.8280553648009237e-05 -3.4424350522941369e-05 4.2585848834433996e-05 5.2615890813430796e-05 9.0091599487734236e-05 0.00017021809988340968 8.2784625412505284e-05 0.00014466652856872351 7.0317768153841287e-05 1.6861100640678161e-05 5.3839666015752691e-05 4.1321759800334851e-05 5.4960063674765698e-05 -7.6082629246630382e-05 5.1554022218057677e-05 0.00016206815889750336 0.0001499206104794709 7.9867633348191993e-05 -0.00010022465820475144 -5.7737117694694004e-05 5.1735372105178774e-05 -2.3730161816936171e-05 -1.003081089284534e-05 4.588591221651268e-05 4.8840206972446797e-05 0.00010603771734371374 -1.9136672546640233e-05 4.1782290081763e-07 7.787822695259741e-06 2.6792067939285176e-05 2.6129088641994955e-05 1.6166631111157062e-05 1.236093435407295e-05 1.1981225919115547e-06 3.3768510057635775e-05 -8.8484436744123683e-06 -7.2611671575856761e-06 -4.3384392643846192e-05 -7.5710902965281097e-05 -2.4741993935039205e-05 3.5202382263964087e-05 4.8358192874445229e-05 -4.1527849894687691e-05 -7.6033977168884364e-05 2.9823676496657435e-05 0.00010207251036174807 -6.1381991700796786e-05 -0.00011168032949303293 1.2746833427420044e-05 -2.505779938415698e-05 -6.1926448657570368e-06 0.00017658306281532034 -6.4099555790092115e-05 -4.1857815762718277e-05 3.7561995040457014e-05 2.9166928457445974e-05 5.2904458708738095e-05 3.14033044729329e-05 4.5297643328213289e-05 0.00016123058438371357 -2.4096025471509912e-05 2.1001276511818038e-05 0.00015951937275012797 -3.8381286396541747e-05 -0.00014168922336002098 -7.7637110110023884e-05 6.2585293592018628e-05 -2.3356223103543247e-05 -3.5084871761615144e-05 9.7393409397841644e-05 -2.2408302489145947e-05 3.7028717048944023e-05 0.00020138579887551446 -1.3792086799603413e-05 3.6163008490260387e-05 5.0985507558085595e-05 1.3605966805781391e-05 -1.7439315747518579e-05 9.2577000703135837e-05 5.2770459582938083e-06 9.2445411450680872e-05 -3.9774658629556088e-05 1.5716699671467177e-05 -2.1142653595726523e-05 -4.7446048218775794e-05 -4.599670531159158e-05 -3.2192914358636162e-05 -2.5804190943011767e-05 8.9769877829484233e-06 -1.0824742504142904e-06 -4.4643698755971066e-06 -1.5772235500326624e-07 2.9390182466919939e-05 7.8061873109487281e-05 4.1568587593754929e-05 4.0741654895835432e-05 3.9971200502405288e-05 0.0001075209447438546 5.4569887783237521e-05 -7.9770214421785398e-05 -0.00014807804206070599 7.9209276354626473e-05 0.00012730767955275088 -1.3571793878501927e-05 2.7836795032782927e-05 1.4216570049249647e-05 2.0685819129792549e-05 0.00012114669735390233 -3.6581369085586225e-05 -2.7758543965275755e-05 -3.4665950842529612e-05 -5.2904780460027409e-05 -7.0317634234986007e-05 0.0001153370732267108 7.2643335667742681e-05 4.1966506097079952e-05 -5.7345815306048898e-07 4.5363315452461095e-05 -2.685943869712303e-05 0.00010324917486409469 2.1469761151667469e-05 3.7416270208644843e-05 0.00015050088260700972 -0.00012353921628188063 3.1724287186841274e-05 -9.547198452438136e-06 -5.1184739457901259e-06 4.3675067908750459e-05 -4.9440623148431931e-05 -8.1150667553713066e-05 0.00013430565693405179 -1.9575624043377277e-05 9.9286230863046966e-05 4.8961442110578569e-05 7.1986328422769244e-05 3.165817808969211e-05 2.9634443972281039e-05 9.6388319132205233e-06 0.0001228940965963626 0.00011555863302264679 -5.081092999421194e-06 -9.212685198644547e-06 8.7255287180861615e-05 9.8841318600941322e-05 7.1770468911015132e-05 0.00010289789089643368 3.2430804839569807e-05 0.00011938453015944341 9.2924719911676584e-05 -4.0470269027977112e-05 -4.8084725536815681e-05 -7.8858347495632539e-05 7.0305263687280912e-05 7.7344678732890201e-05 3.0457964072064459e-05 2.5205018705051993e-05 -7.1965793124443894e-05 -4.4131953862112988e-05 -3.3948342118726646e-05 0.00015175293191645872 -1.6820093708920254e-05 2.743485330251023e-05 3.7740719223938064e-05 -1.2676282567176131e-05 6.1703047169351208e-06 3.5070188809102835e-05 6.390405384736979e-05 -1.4351610621220266e-05 -3.7962767018377686e-05 -6.2469474428785646e-05 2.3508890735448283e-05 3.0923941918864929e-05 -2.339206794653844e-05 -1.5111559588010064e-05 2.7518429507063707e-05 -4.3501955446917563e-05 -3.6868448244501785e-05 -1.6659829490279646e-05 3.5480442748007587e-06 2.9012000755735538e-05 0.0001507357172047055 0.00014949070205621504 -4.6593925251281983e-05 0.00013637722820837535 0.00012019247422955784 -5.829190294158887e-06 1.2843490193935884e-05 -5.5912977365939458e-05 5.199346400657584e-05 0.00012767450374586591 2.9845631496012569e-05 -5.5358030990278182e-05 -9.3171492773141376e-05 -1.9923463326336315e-05 7.1024623271600824e-05 4.1406935874095034e-05 7.3046077209349013e-05 -3.0062303304400853e-05 -3.7282515921677518e-05 -4.6079661208245332e-05 5.8850519876486201e-05 -1.8765067720217164e-05 9.516585465096724e-05 3.7011532465268405e-05 4.8242256514683399e-05 -5.3604949253414124e-05 -9.2280019309733585e-05 -3.7694446224840832e-05 2.9153406202604996e-05 5.8771068640787441e-05 -1.662727390332268e-06 3.1271928692802055e-05 -1.7051372246589262e-05 -1.094648077469616e-05 3.2267588587942377e-05 2.7778629447094864e-05 -5.7309065386574535e-05 -0.00010432679224445099 -3.0174741127204474e-05 0.00015599184096836674 0.00013542784703518768 -2.8136599620940794e-05 0.00019069463009941355 7.3838617796543097e-05 2.9965701303070048e-05 0.0001567326807612316 0.00026408401168258886 -2.9148215657699055e-05 -9.6216727704030486e-06 3.4062193575315025e-05 -2.381626112234669e-05 5.7211046013248053e-05 3.3341200544925262e-05 3.8511451316544911e-06 0.00015556893140062592 1.2669081170390677e-05 5.6574990054271982e-05 6.2833109973814113e-05 9.5375638931936629e-05 0.00013178624507922281 0.0002247874615981622 0.00016607076101029871 6.6192466653623505e-05 5.74962289757511e-05 0.00010195101212545276 -2.3809463989533388e-05 -2.4205428508021153e-05 -1.3007350948137961e-05 8.8714511950140529e-06 7.0221835494345668e-05 0.00012580717666784867 3.74476892806643e-05 7.0885145914828529e-06 2.168499979291315e-05 3.8640524581605256e-05 2.8084729289709586e-05 4.1781562948984153e-05 5.5136981921261323e-05 7.8756224858496924e-06 0.00020583340342190617 2.8518411718214785e-05 -2.8532232785059407e-05 4.2856064017375572e-06 0.00029742474227609922 0.00025560020962291856 0.00015159569254245397 7.3398457480309404e-06 5.9071596910223426e-06 0.00017867583105519568 9.9805637994356683e-06 2.7505507811498772e-05 3.3881104296493991e-05 -8.4113989272236638e-06 -9.8775772176598869e-06 2.1810885707167185e-05 1.867174377056819e-05 3.4672296048950026e-05 0.00010502653124697678 0.00019051351528625064 7.6720025580952406e-05 -5.2882387704963972e-06 6.2093233309818449e-05 0.00013092584897325525 2.0901176893808448e-05 3.5127211696399632e-05 3.8136380866340882e-05 1.472400927027967e-05 7.4118816584752695e-05 8.0830271679404285e-05 7.5758264128115499e-06 3.0203931791970278e-05 6.5002711645071036e-05 3.5752447550708752e-05 9.1993087193143613e-05 0.00011049919495818123 8.2474743792872261e-05 -1.815908175811038e-05 4.6491340325455242e-05 5.412748337655801e-05 0.00021175667516886673 0.00019548465365573108 0.00016666973651022644 7.2167603942286171e-05 -3.7646889198677484e-05 6.0371376950174059e-06 -2.1497690684174826e-05 -1.9505551484982467e-05 3.5971725547120985e-05 -2.7837645332827349e-05 -3.2124190211776755e-05 -3.4776252123705892e-05 -4.0838423619254459e-05 1.1178851047117768e-05 3.3781360109023954e-05 0.00011739495974151483 8.853710542103629e-05 9.8794091187158738e-05 3.7118797399289766e-05 1.0925799156095247e-05 7.7557511658126434e-05 0.00013222432031907317 5.7109786147297898e-06 4.7094657209559824e-05 7.7292010976484984e-05 -3.669308892659794e-05 -4.6686454410064603e-05 -4.1271615282592018e-05 -3.2932700345918332e-05 2.4809881793087536e-05 8.5824650771468093e-06 3.656492871440464e-05 3.613784124686817e-05 1.7225127359877173e-05 2.6989438716404543e-05 2.649864524734903e-05 0.00012653752509558843 0.00034982259137429145 -5.8933546214462684e-06 9.8678726768832554e-05 5.12888685947529e-05 3.4967464210366841e-05 0.00013890820542874788 -1.3863676862088106e-05 0.00010036283233669647 7.3644149758866239e-05 -3.9910717373366211e-06 5.7606272287889261e-05 5.0594891546158673e-05 3.2533970547220454e-05 0.00012870298833284641 2.3628044494344042e-05 3.0801243908492367e-05 4.707648828092037e-07 5.8638489323372975e-06 3.8773686323790622e-05 2.6643163526470491e-05 1.5735278836462841e-05 2.321326689302207e-05 1.95454993406672e-05 2.774290069959193e-05 5.5780627276097016e-05 9.8567105112939843e-05 6.1599104630236296e-05 0.00015361824030828315 0.00013202603094154136 6.9379841193522446e-06 7.77345557119826e-05 1.3786695265566914e-05 -8.9915502754387908e-06 4.5740289798894794e-05 4.1759629528326974e-05 4.9613478764042775e-05 0.00010334482299470885 1.2877392364663877e-05 2.2009111775311146e-05 5.7265625118162015e-05 3.4071101345127921e-05 6.1658929714283585e-05 0.00014404566654834178 0.00024367750947007862 2.941018661068241e-05 -3.300480062668875e-05 -2.6250148045295872e-05 3.039770608272459e-05 2.9539717776852342e-05 3.1704835915462765e-05 4.8441438407908066e-05 2.0618977053616858e-06 3.742357709840289e-05 3.0280123278723318e-05 -3.0164725836926768e-05 -4.121769589823494e-05 -3.0811344996218537e-05 -2.5768093327507609e-05 3.3183377286959552e-05 -3.1179544690549711e-05 6.281293700071116e-05 5.4039168254095635e-05 -6.2359636833857191e-06 3.6037908075796707e-05 3.3483350762741116e-05 2.9129491782968018e-05 -1.9243785408106829e-05 -1.4680217164273423e-05 -1.1814812917135048e-05 8.7324853634470354e-05 -5.3732948319016948e-06 6.4252134017336177e-05 -1.4035138412282868e-05 2.4198964726144193e-05 -7.6924721447624213e-06 0.00010812469318810473 0.0001845201116913301 2.0999659380782519e-05 1.1657306583503363e-05 8.7213746508465334e-06 0.00010013291428388055 0.0001126896545359593 0.00018809758333300161 6.9386661500940236e-06 0.00017506021836302503 4.061728173330309e-06 3.7720823116698049e-05 4.4282708818476442e-05 3.8475942841981626e-05 2.8322707333052472e-05 3.3507297744532374e-05 0.00011386475621770055 2.2017205633570751e-05 1.562734949915865e-05 -1.2613871120563795e-06 -3.0889538476558138e-05 8.6924524511280271e-06 9.035608352471064e-05 8.2109246248806634e-05 9.447793128279083e-05 0.00011159879170160095 -5.0157433666819361e-06 -2.4467614751973795e-05 7.5564830266075208e-05 8.1472523176749192e-05 4.2602269845316105e-05 2.60289025414332e-05 3.3732289022963523e-05 4.5989317736838654e-05 0.00018222475450682197 -1.5216329372391094e-05 -1.5076968176058137e-05 2.5739437013156469e-05 0.00014726822853625946 3.1652413479383613e-05 5.8086498544070056e-06 -1.2023896717678159e-05 5.8297211613132847e-05 
</DataArray>
</CellData>
</Piece>
</UnstructuredGrid>
</VTKFile>
