<?xml version="1.0"?>
<VTKFile type="UnstructuredGrid" version="0.1" byte_order="LittleEndian">
<UnstructuredGrid>
<Piece NumberOfPoints="3142" NumberOfCells="1054">
<Points>
<DataArray type="Float64" NumberOfComponents="3" format="ascii">
0.5 0.29999999999999999 0 0.54999999999999993 0.29999999999999999 0 0.54999999999999993 0.29999999999999999 0 0.59999999999999976 0.29999999999999999 0 0.59999999999999976 0.29999999999999999 0 0.6499999999999998 0.29999999999999999 0 0.6499999999999998 0.29999999999999999 0 0.69999999999999984 0.29999999999999999 0 0.69999999999999984 0.29999999999999999 0 0.74999999999999989 0.29999999999999999 0 0.74999999999999989 0.29999999999999999 0 0.79999999999999982 0.29999999999999999 0 0.79999999999999982 0.29999999999999999 0 0.84999999999999987 0.29999999999999999 0 0.84999999999999987 0.29999999999999999 0 0.89999999999999991 0.29999999999999999 0 0.89999999999999991 0.29999999999999999 0 0.94999999999999996 0.29999999999999999 0 0.94999999999999996 0.29999999999999999 0 1 0.29999999999999999 0 0.5 0.69999999999999996 0 0.54999999999999993 0.69999999999999996 0 0.54999999999999993 0.69999999999999996 0 0.59999999999999976 0.69999999999999996 0 0.59999999999999976 0.69999999999999996 0 0.6499999999999998 0.69999999999999996 0 0.6499999999999998 0.69999999999999996 0 0.69999999999999984 0.69999999999999996 0 0.69999999999999984 0.69999999999999996 0 0.74999999999999989 0.69999999999999996 0 0.74999999999999989 0.69999999999999996 0 0.79999999999999982 0.69999999999999996 0 0.79999999999999982 0.69999999999999996 0 0.84999999999999987 0.69999999999999996 0 0.84999999999999987 0.69999999999999996 0 0.89999999999999991 0.69999999999999996 0 0.89999999999999991 0.69999999999999996 0 0.94999999999999996 0.69999999999999996 0 0.94999999999999996 0.69999999999999996 0 1 0.69999999999999996 0 0.40076539126862748 0.34589349467022118 0 0.33277555741076909 0.36432196682010132 0 0.36575549820117997 0.31677992835137742 0 0.38083244760691543 0.38531983672244652 0 0.33277555741076909 0.36432196682010132 0 0.40076539126862748 0.34589349467022118 0 0.56836770495988642 0.3523062350852913 0 0.52289427570932567 0.3932284363388488 0 0.52752007115234678 0.33170632466418198 0 0.52752007115234678 0.33170632466418198 0 0.52289427570932567 0.3932284363388488 0 0.49077833859261139 0.35229981449445641 0 0.10000000000041601 1 0 0.053064897599294662 0.95186845269532028 0 0.10266856499240549 0.95548163909968886 0 0.099999999999814668 0 0 0.10266856499169109 0.044518360900210059 0 0.053064897599215843 0.048131547304697528 0 0.050000000000207989 1 0 0.053064897599294662 0.95186845269532028 0 0.10000000000041601 1 0 0.049999999999899652 0 0 0.099999999999814668 0 0 0.053064897599215843 0.048131547304697528 0 0.24999999999941211 0 0 0.29999999999926641 0 0 0.27499999999933927 0.060310814194988557 0 0.30000000000124832 1 0 0.25000000000104028 1 0 0.27609987656793722 0.94991445621608572 0 0.15720202157091859 0.60665697304410315 0 0.19914261668318661 0.62286739485272158 0 0.16500388252850301 0.66612077714085194 0 0.2236846579037573 0.67380363126050236 0 0.16500388252850301 0.66612077714085194 0 0.19914261668318661 0.62286739485272158 0 0.1247745017231483 0.27198077544791172 0 0.168349569971391 0.28054490850913671 0 0.14223753364722069 0.3341983344262433 0 0 0.75000000000034661 0 0 0.7000000000006934 0 0.049706944316475897 0.72477277076253799 0 0 0.30000000000124832 0 0 0.25000000000104028 0 0.049706944316556423 0.27522722923869108 0 0.59999999999999976 0.29999999999999999 0 0.61959173890754571 0.33832250091341232 0 0.56836770495988642 0.3523062350852913 0 0.5 0.69999999999999996 0 0.43323420005758778 0.6913544522562407 0 0.47913475093885149 0.66010775372412711 0 1 0.14999999999961891 0 0.95391631417672862 0.19584263333809451 0 0.93677536231883773 0.14999999999999089 0 1 0.84999999999982645 0 0.95391631417670719 0.89584263333814784 0 0.93677536231884972 0.85000000000000286 0 1 0.84999999999982645 0 0.93677536231884972 0.85000000000000286 0 0.95386563387742829 0.80414874155775029 0 1 0.14999999999961891 0 0.93677536231883773 0.14999999999999089 0 0.95386563387744361 0.1041487415577465 0 0.90416666666660628 0.9041666666666166 0 0.88088768115933802 0.84674609810493673 0 0.93677536231884972 0.85000000000000286 0 0.90416666666668166 0.20416666666667119 0 0.88088768115941807 0.14674609810479519 0 0.93677536231883773 0.14999999999999089 0 0.1247745017231483 0.27198077544791172 0 0.14223753364722069 0.3341983344262433 0 0.093851963071650835 0.30582068233324772 0 0.5 0.69999999999999996 0 0.45582236402875981 0.73896743678908217 0 0.43323420005758778 0.6913544522562407 0 0.55000000000173355 1 0 0.50000000000205869 1 0 0.52122150208832174 0.94089974453840242 0 0.49999999999869432 0 0 0.5499999999988151 0 0 0.52375890611712683 0.059318771819432882 0 0.54999999999999993 0.29999999999999999 0 0.59999999999999976 0.29999999999999999 0 0.56836770495988642 0.3523062350852913 0 0.50202631463681879 0.87892870825713787 0 0.44003836461056539 0.88093474584252718 0 0.45677673713123867 0.84253684404072415 0 0.33403534827021109 0.84402799729020661 0 0.35864759629805099 0.87963482415279515 0 0.30864387279288652 0.89906554525974958 0 0.53245488764484505 0.55078124999999989 0 0.47793794143994173 0.52940715638744962 0 0.53330375813596242 0.50827942741749099 0 0.82709327591102189 0.14937141670914489 0 0.81283102246527783 0.1881007222486438 0 0.77144070960558853 0.14311854477243749 0 0.82709327591091286 0.84937141670920724 0 0.81159157511211755 0.88795995483179491 0 0.76901770135486491 0.84293557325473656 0 0.77144070960558853 0.14311854477243749 0 0.81283102246527783 0.1881007222486438 0 0.76587607630038135 0.18880039518954719 0 0.76901770135486491 0.84293557325473656 0 0.81159157511211755 0.88795995483179491 0 0.76891166905518427 0.88835469571185499 0 0.33403534827021109 0.84402799729020661 0 0.30864387279288652 0.89906554525974958 0 0.29209212897034281 0.84715728365233667 0 0.57412547362576272 0.58273804879550706 0 0.5166924242153631 0.59825134841919447 0 0.53245488764484505 0.55078124999999989 0 0.50202631463681879 0.87892870825713787 0 0.47401147028110507 0.91529957330468115 0 0.44003836461056539 0.88093474584252718 0 0.5 0.69999999999999996 0 0.54999999999999993 0.69999999999999996 0 0.55363780716230748 0.74348740161571747 0 1 0.34999999999993492 0 0.95871855522754235 0.40006508612975411 0 0.95780851984364423 0.34215720972155339 0 1 0.64999999999986979 0 0.9578014258160763 0.65787212321113708 0 0.95867599106212187 0.60011091146651041 0 0.46666084890304671 0.57634471035397938 0 0.47793794143994173 0.52940715638744962 0 0.53245488764484505 0.55078124999999989 0 0.94999999999999996 0.29999999999999999 0 0.89898474358614167 0.25391965591104898 0 0.94399509803921056 0.24399509803922639 0 0.94999999999979179 1 0 0.89898474358632463 0.95391965591118966 0 0.94399509803919068 0.9439950980391687 0 0 0.65000000000104008 0 0.050069554451969707 0.61308520079857043 0 0.046634677244967337 0.671418230738282 0 0 0.35000000000145642 0 0.046389130980076937 0.32668781832131749 0 0.050583896093752537 0.38543522283434112 0 0.50202631463681879 0.87892870825713787 0 0.50627822638148745 0.8263979829520941 0 0.55899371797446828 0.85003102233514438 0 0.54782696902220018 0.79245182748204157 0 0.55899371797446828 0.85003102233514438 0 0.50627822638148745 0.8263979829520941 0 0.50945740445113552 0.75476055527778108 0 0.5 0.69999999999999996 0 0.55363780716230748 0.74348740161571747 0 0.84999999999965292 1 0 0.85170973911348691 0.93569607295217616 0 0.89898474358632463 0.95391965591118966 0 0.84999999999999987 0.29999999999999999 0 0.8517097391133297 0.2356960729520409 0 0.89898474358614167 0.25391965591104898 0 0.86956835336234861 0.571283299838105 0 0.82862096804812391 0.55037090955459045 0 0.86907294890112186 0.52008116128001669 0 0.49102375406324739 0.49123754822244059 0 0.53330375813596242 0.50827942741749099 0 0.47793794143994173 0.52940715638744962 0 0.57611405284611883 0.50165903596042916 0 0.61547661924074692 0.48539576058873962 0 0.62042975506801734 0.54295974692364424 0 0.71406021706547751 0.63292083137662503 0 0.67529834988829951 0.61613270668143583 0 0.71809016091162536 0.58185040402320831 0 0.65000000000104008 1 0 0.62065498684670595 0.95224934003983619 0 0.68015064798562208 0.95924320340003011 0 0.84999999999960507 0 0 0.899991664607802 0.045289349238254978 0 0.85491058998398861 0.060047533455626502 0 0.84999999999999987 0.69999999999999996 0 0.89999166460796554 0.74528934923809909 0 0.85491058998424563 0.76004753345552634 0 0.89999999999999991 0.29999999999999999 0 0.89898474358614167 0.25391965591104898 0 0.94999999999999996 0.29999999999999999 0 0.94999999999979179 1 0 0.89999999999958358 1 0 0.89898474358632463 0.95391965591118966 0 0.86411095495256451 0.42388805655111889 0 0.81308179852519835 0.39754945808726527 0 0.86844634540301924 0.38530937474099819 0 0.5 0.29999999999999999 0 0.49695729691142171 0.25014895411178018 0 0.54248833945060504 0.2520322959927106 0 0.86411095495256451 0.42388805655111889 0 0.81973119833356312 0.43505687159469048 0 0.81308179852519835 0.39754945808726527 0 0.67323294229744413 0.57556450033612505 0 0.71809016091162536 0.58185040402320831 0 0.67529834988829951 0.61613270668143583 0 0.6236733212988993 0.14864538214901801 0 0.68391457121233579 0.14440470121196541 0 0.64011864159029941 0.18789607982138171 0 0 0.050000000000207989 0 0.053064897599215843 0.048131547304697528 0 0.044310582753132287 0.101412518374475 0 0 0.94999999999979179 0 0.0443105827531413 0.89858748162559932 0 0.053064897599294662 0.95186845269532028 0 1 0.34999999999993492 0 1 0.39999999999978308 0 0.95871855522754235 0.40006508612975411 0 1 0.59999999999973963 0 1 0.64999999999986979 0 0.95867599106212187 0.60011091146651041 0 0 0.84999999999965292 0 0.065374659239661639 0.8551091961254178 0 0.0443105827531413 0.89858748162559932 0 0 0.15000000000062411 0 0.044310582753132287 0.101412518374475 0 0.065374659239632718 0.1448908038746782 0 0.16500388252850301 0.66612077714085194 0 0.1020579365089687 0.69352219419301997 0 0.1241190223511371 0.64391885572885044 0 0.14999999999970359 0 0 0.14618258501891079 0.062070108745602003 0 0.10266856499169109 0.044518360900210059 0 0.15000000000062411 1 0 0.10266856499240549 0.95548163909968886 0 0.14617343800780541 0.93808063414349496 0 0.7152569930854884 0.5237994455134295 0 0.67569444444444449 0.53500863336860327 0 0.69385896817107129 0.48377516041410151 0 0.6541250972820879 0.49999999999999989 0 0.62042975506801734 0.54295974692364424 0 0.61547661924074692 0.48539576058873962 0 0.94999999999999996 0.69999999999999996 0 0.94399509803918602 0.75600490196082126 0 0.89999166460796554 0.74528934923809909 0 0.94999999999986839 0 0 0.94399509803922566 0.056004901960802607 0 0.899991664607802 0.045289349238254978 0 0.6541250972820879 0.49999999999999989 0 0.69385896817107129 0.48377516041410151 0 0.67569444444444449 0.53500863336860327 0 0.82862096804812391 0.55037090955459045 0 0.81723410853263523 0.59419663659258926 0 0.77151014687832564 0.54436834383023036 0 0.7250000000005199 0.89375000000045834 0 0.66412543161245952 0.88015090885499059 0 0.68697391633157634 0.84450604838764298 0 0 0.94999999999979179 0 0 0.89999999999958358 0 0.0443105827531413 0.89858748162559932 0 0 0.10000000000041601 0 0 0.050000000000207989 0 0.044310582753132287 0.101412518374475 0 0.16500388252850301 0.66612077714085194 0 0.15332765547575641 0.71200081858233666 0 0.1020579365089687 0.69352219419301997 0 0.90299850604011456 0.79563452813489832 0 0.93677536231884972 0.85000000000000286 0 0.88088768115933802 0.84674609810493673 0 0.90299850604006393 0.09563452813493091 0 0.93677536231883773 0.14999999999999089 0 0.88088768115941807 0.14674609810479519 0 0.68391457121233579 0.14440470121196541 0 0.6865991819015953 0.189116534044597 0 0.64011864159029941 0.18789607982138171 0 0.085622222639554768 0.53333248912060549 0 0.1216098864341134 0.50637075089503902 0 0.1154888278694548 0.56733818459978413 0 0.21858834311891909 0.81980263716112767 0 0.22556077506376701 0.77837424984191617 0 0.26104540868854792 0.81401944968719064 0 0.81723410853263523 0.59419663659258926 0 0.77293540622714185 0.59448302402785813 0 0.77151014687832564 0.54436834383023036 0 0.1154888278694548 0.56733818459978413 0 0.1216098864341134 0.50637075089503902 0 0.14934928745814749 0.55042914607228977 0 0.1216098864341134 0.50637075089503902 0 0.068743045408989428 0.48853989837882689 0 0.113541300460994 0.46208784312094731 0 0.078358742472063481 0.43365249433908948 0 0.113541300460994 0.46208784312094731 0 0.068743045408989428 0.48853989837882689 0 0.83573492347052902 0.36590755630746369 0 0.81308179852519835 0.39754945808726527 0 0.78145581580700685 0.34881365920033602 0 0.57611405284611883 0.50165903596042916 0 0.62042975506801734 0.54295974692364424 0 0.57435499076887508 0.54267261987897775 0 0.86956835336234861 0.571283299838105 0 0.81723410853263523 0.59419663659258926 0 0.82862096804812391 0.55037090955459045 0 0.46666084890304671 0.57634471035397938 0 0.53245488764484505 0.55078124999999989 0 0.5166924242153631 0.59825134841919447 0 0.89999999999999991 0.69999999999999996 0 0.94999999999999996 0.69999999999999996 0 0.89999166460796554 0.74528934923809909 0 0.89999999999973679 0 0 0.94999999999986839 0 0 0.899991664607802 0.045289349238254978 0 0.84999999999960507 0 0 0.89999999999973679 0 0 0.899991664607802 0.045289349238254978 0 0.84999999999999987 0.69999999999999996 0 0.89999999999999991 0.69999999999999996 0 0.89999166460796554 0.74528934923809909 0 0.43545892161006339 0.61093128915313821 0 0.4089290844030305 0.58728915500154233 0 0.46666084890304671 0.57634471035397938 0 0.1650278706801647 0.38791388161335733 0 0.1117088112799664 0.38831403004970022 0 0.14223753364722069 0.3341983344262433 0 0.087545339447545459 0.35122518864182262 0 0.14223753364722069 0.3341983344262433 0 0.1117088112799664 0.38831403004970022 0 0.6916490518212759 0.75387992374886192 0 0.72501250972655151 0.74067302935308721 0 0.72500000000000064 0.7952620967744265 0 0.72501250972655151 0.74067302935308721 0 0.75841349681148107 0.75422312624214749 0 0.72500000000000064 0.7952620967744265 0 0.57412547362576272 0.58273804879550706 0 0.53245488764484505 0.55078124999999989 0 0.57435499076887508 0.54267261987897775 0 1 0.54999999999963112 0 0.95867599106212187 0.60011091146651041 0 0.93732437411268477 0.55911392101136159 0 1 0.44999999999963131 0 0.93814194660195893 0.44426664081746747 0 0.95871855522754235 0.40006508612975411 0 0.4089290844030305 0.58728915500154233 0 0.42644501560315817 0.54603747078095544 0 0.46666084890304671 0.57634471035397938 0 0.89999999999958358 1 0 0.84999999999965292 1 0 0.89898474358632463 0.95391965591118966 0 0.84999999999999987 0.29999999999999999 0 0.89898474358614167 0.25391965591104898 0 0.89999999999999991 0.29999999999999999 0 0.29999999999926641 0 0 0.32541448401678508 0.046215317981507749 0 0.27499999999933927 0.060310814194988557 0 0.30000000000124832 1 0 0.27609987656793722 0.94991445621608572 0 0.32544832635163229 0.95485394099568932 0 0.57412547362576272 0.58273804879550706 0 0.62042975506801734 0.54295974692364424 0 0.63065402604362242 0.59661356661633302 0 0.5 0.29999999999999999 0 0.54248833945060504 0.2520322959927106 0 0.54999999999999993 0.29999999999999999 0 0.67323294229744413 0.57556450033612505 0 0.62042975506801734 0.54295974692364424 0 0.67569444444444449 0.53500863336860327 0 0.6541250972820879 0.49999999999999989 0 0.67569444444444449 0.53500863336860327 0 0.62042975506801734 0.54295974692364424 0 1 0.14999999999961891 0 1 0.19999999999974799 0 0.95391631417672862 0.19584263333809451 0 1 0.84999999999982645 0 1 0.8999999999998336 0 0.95391631417670719 0.89584263333814784 0 1 0.7999999999998193 0 1 0.84999999999982645 0 0.95386563387742829 0.80414874155775029 0 1 0.099999999999753911 0 1 0.14999999999961891 0 0.95386563387744361 0.1041487415577465 0 0.4656888918609538 0.78493261229743638 0 0.50627822638148745 0.8263979829520941 0 0.45677673713123867 0.84253684404072415 0 0.6879972333610942 0.43038561374960838 0 0.72622533758026719 0.40265885511101601 0 0.73483647259922602 0.44789725365921768 0 0.67323294229744413 0.57556450033612505 0 0.67569444444444449 0.53500863336860327 0 0.71809016091162536 0.58185040402320831 0 0.7152569930854884 0.5237994455134295 0 0.71809016091162536 0.58185040402320831 0 0.67569444444444449 0.53500863336860327 0 0.65394964615507722 0.22666784374016369 0 0.59814117807200873 0.23398510860739519 0 0.64011864159029941 0.18789607982138171 0 0.55000000000173355 1 0 0.52122150208832174 0.94089974453840242 0 0.57382506491224949 0.9629411906298494 0 0.39801143831225599 0.16651381068160659 0 0.44288491854585582 0.14116182884956319 0 0.42905200079338551 0.19982395548231649 0 0.47357141910802508 0.1873585799078378 0 0.42905200079338551 0.19982395548231649 0 0.44288491854585582 0.14116182884956319 0 0.90594285160987287 0.4141265964174129 0 0.88594198078881503 0.46167788676578442 0 0.86411095495256451 0.42388805655111889 0 0.65507451745379841 0.92229208810758578 0 0.68015064798562208 0.95924320340003011 0 0.62065498684670595 0.95224934003983619 0 0.35312867752657662 0.084946736076730367 0 0.39591832466117061 0.056982757562006353 0 0.39823268594401579 0.1116623613130045 0 0.43698630808430822 0.080423614171545449 0 0.39823268594401579 0.1116623613130045 0 0.39591832466117061 0.056982757562006353 0 0.4367309254023824 0.92065556789053882 0 0.39641108128798319 0.94356127926187128 0 0.39767323751400468 0.89584229130535065 0 0.35752321586431363 0.9185439911803448 0 0.39767323751400468 0.89584229130535065 0 0.39641108128798319 0.94356127926187128 0 0.77354604466818633 0.40378688774472771 0 0.77972660463949339 0.45529290596363098 0 0.73483647259922602 0.44789725365921768 0 0.5499999999988151 0 0 0.57396793757665954 0.037011367187645222 0 0.52375890611712683 0.059318771819432882 0 0.64753070846764316 0.77332939069435502 0 0.60294066490120068 0.80851322453934582 0 0.59636844454254345 0.75937156204589151 0 0.49102375406324739 0.49123754822244059 0 0.48858720058566618 0.43964267759203868 0 0.53823865529665704 0.45873898050322898 0 0.28307294598219601 0.50789252727458634 0 0.29110487519241501 0.56588143995431495 0 0.25115337790845271 0.54719303014923271 0 0.79680861578988083 0.92656778056766709 0 0.81159157511211755 0.88795995483179491 0 0.85170973911348691 0.93569607295217616 0 0.79680861578956375 0.22656778056752541 0 0.81283102246527783 0.1881007222486438 0 0.8517097391133297 0.2356960729520409 0 0.57412547362576272 0.58273804879550706 0 0.57435499076887508 0.54267261987897775 0 0.62042975506801734 0.54295974692364424 0 0.93814194660195893 0.44426664081746747 0 0.88594198078881503 0.46167788676578442 0 0.90594285160987287 0.4141265964174129 0 0.7152569930854884 0.5237994455134295 0 0.73947346780852752 0.49062440112282169 0 0.77151014687832564 0.54436834383023036 0 0 0.7000000000006934 0 0.046634677244967337 0.671418230738282 0 0.049706944316475897 0.72477277076253799 0 0 0.30000000000124832 0 0.049706944316556423 0.27522722923869108 0 0.046389130980076937 0.32668781832131749 0 0.59814117807200873 0.23398510860739519 0 0.59443395090188023 0.18455690917515069 0 0.64011864159029941 0.18789607982138171 0 0.21858834311891909 0.81980263716112767 0 0.26104540868854792 0.81401944968719064 0 0.2401283238295133 0.85648409884788523 0 0.39536230704883951 0.84069429572832477 0 0.45677673713123867 0.84253684404072415 0 0.44003836461056539 0.88093474584252718 0 0.086179601630648681 0.64647209519980475 0 0.050069554451969707 0.61308520079857043 0 0.1024350934457823 0.60772393977513839 0 0.077693244765132896 0.56932317963405099 0 0.1024350934457823 0.60772393977513839 0 0.050069554451969707 0.61308520079857043 0 0.078358742472063481 0.43365249433908948 0 0.050583896093752537 0.38543522283434112 0 0.1117088112799664 0.38831403004970022 0 0.087545339447545459 0.35122518864182262 0 0.1117088112799664 0.38831403004970022 0 0.050583896093752537 0.38543522283434112 0 0.33403534827021109 0.84402799729020661 0 0.35642984951668422 0.80994399665655703 0 0.39536230704883951 0.84069429572832477 0 0.28307294598219601 0.50789252727458634 0 0.33190227185843768 0.52715113583864037 0 0.29110487519241501 0.56588143995431495 0 0.2236846579037573 0.67380363126050236 0 0.19068556247388771 0.71028988922845504 0 0.16500388252850301 0.66612077714085194 0 0.26104540868854792 0.81401944968719064 0 0.22556077506376701 0.77837424984191617 0 0.2792923945214143 0.77665808831789485 0 0.38244435121258652 0.51653317813019495 0 0.37272913873093971 0.56192925302619479 0 0.33190227185843768 0.52715113583864037 0 0.25195515620380449 0.25883339815888678 0 0.29132859388405002 0.27203693976649962 0 0.24432083401701241 0.3006253385567515 0 0.29348325746214782 0.31350119524708198 0 0.24432083401701241 0.3006253385567515 0 0.29132859388405002 0.27203693976649962 0 0 0.89999999999958358 0 0 0.84999999999965292 0 0.0443105827531413 0.89858748162559932 0 0 0.15000000000062411 0 0 0.10000000000041601 0 0.044310582753132287 0.101412518374475 0 0.59999999999999976 0.69999999999999996 0 0.59636844454254345 0.75937156204589151 0 0.55363780716230748 0.74348740161571747 0 0.1650278706801647 0.38791388161335733 0 0.22033343844674469 0.36963382230740238 0 0.191953871957803 0.42546416763755879 0 0.52289427570932567 0.3932284363388488 0 0.46655310992796922 0.39650496622958609 0 0.49077833859261139 0.35229981449445641 0 0.91696753777131557 0.497780560203536 0 0.88594198078881503 0.46167788676578442 0 0.93814194660195893 0.44426664081746747 0 0.24999999999941211 0 0 0.27499999999933927 0.060310814194988557 0 0.22668068146512929 0.045875643423131329 0 0.25000000000104028 1 0 0.22850979588452081 0.95594428570238643 0 0.27609987656793722 0.94991445621608572 0 0.77846603114747959 0.49850927265137401 0 0.77151014687832564 0.54436834383023036 0 0.73947346780852752 0.49062440112282169 0 0.27499999999933927 0.060310814194988557 0 0.27474541102162192 0.11822029332053539 0 0.24218496799700481 0.089025544070598317 0 0.27270076654418179 0.87751467830216623 0 0.29209212897034281 0.84715728365233667 0 0.30864387279288652 0.89906554525974958 0 0.3096713403101819 0.085471541595262421 0 0.27474541102162192 0.11822029332053539 0 0.27499999999933927 0.060310814194988557 0 0.17933913398461551 0.2350063570234002 0 0.18124454140915969 0.18790916706335251 0 0.224700362040408 0.22206622194729711 0 0.18269480424590959 0.75905448272264375 0 0.22556077506376701 0.77837424984191617 0 0.17777405986036951 0.81832336108265358 0 0.35864759629805099 0.87963482415279515 0 0.33403534827021109 0.84402799729020661 0 0.39536230704883951 0.84069429572832477 0 0.77354604466818633 0.40378688774472771 0 0.73483647259922602 0.44789725365921768 0 0.72622533758026719 0.40265885511101601 0 0.80185942888539485 0.77452061303608133 0 0.85491058998424563 0.76004753345552634 0 0.84725310900444062 0.80779732082917555 0 0.80185942888501827 0.074520613036224564 0 0.85491058998398861 0.060047533455626502 0 0.84725310900442086 0.10779732082922661 0 0.086179601630648681 0.64647209519980475 0 0.046634677244967337 0.671418230738282 0 0.050069554451969707 0.61308520079857043 0 0.087545339447545459 0.35122518864182262 0 0.050583896093752537 0.38543522283434112 0 0.046389130980076937 0.32668781832131749 0 0 0.75000000000034661 0 0.049706944316475897 0.72477277076253799 0 0.04408157711937423 0.7728941757575627 0 0 0.25000000000104028 0 0.044081577119474857 0.2271058242433576 0 0.049706944316556423 0.27522722923869108 0 0.52289427570932567 0.3932284363388488 0 0.56836770495988642 0.3523062350852913 0 0.57744073070774993 0.41535148636609359 0 0.6084546825910605 0.37989672713932537 0 0.57744073070774993 0.41535148636609359 0 0.56836770495988642 0.3523062350852913 0 0.61343887413683884 0.856862479058357 0 0.55899371797446828 0.85003102233514438 0 0.60294066490120068 0.80851322453934582 0 0.54782696902220018 0.79245182748204157 0 0.60294066490120068 0.80851322453934582 0 0.55899371797446828 0.85003102233514438 0 0.40326160981139969 0.73346192995102844 0 0.36622285152418499 0.69092437780804039 0 0.43323420005758778 0.6913544522562407 0 0.52289427570932567 0.3932284363388488 0 0.48858720058566618 0.43964267759203868 0 0.46655310992796922 0.39650496622958609 0 0.15720202157091859 0.60665697304410315 0 0.1154888278694548 0.56733818459978413 0 0.14934928745814749 0.55042914607228977 0 0.6879972333610942 0.43038561374960838 0 0.73483647259922602 0.44789725365921768 0 0.69385896817107129 0.48377516041410151 0 0.7250000000005199 0.89375000000045834 0 0.68987011941058407 0.92105047536677087 0 0.66412543161245952 0.88015090885499059 0 0.83573492347052902 0.36590755630746369 0 0.78145581580700685 0.34881365920033602 0 0.82500000000000062 0.33010209762754811 0 0.82862096804812391 0.55037090955459045 0 0.81441713509985358 0.51161854125224959 0 0.86907294890112186 0.52008116128001669 0 0.19670163708476801 0.31472518408333222 0 0.14223753364722069 0.3341983344262433 0 0.168349569971391 0.28054490850913671 0 0.50202631463681879 0.87892870825713787 0 0.45677673713123867 0.84253684404072415 0 0.50627822638148745 0.8263979829520941 0 0.099999999999814668 0 0 0.14999999999970359 0 0 0.10266856499169109 0.044518360900210059 0 0.15000000000062411 1 0 0.10000000000041601 1 0 0.10266856499240549 0.95548163909968886 0 0.67323294229744413 0.57556450033612505 0 0.63065402604362242 0.59661356661633302 0 0.62042975506801734 0.54295974692364424 0 0.083105206071467416 0.20007701332709979 0 0.13737030665753211 0.20313708640667491 0 0.095326043202144745 0.24554465089224409 0 0.083105206071452636 0.79992298667296435 0 0.090953281884486245 0.7564451946902494 0 0.1382744753146134 0.79650574229207483 0 0.50000000000205869 1 0 0.47135117303824892 0.95556877749289892 0 0.52122150208832174 0.94089974453840242 0 0.49999999999869432 0 0 0.52375890611712683 0.059318771819432882 0 0.47040171442036788 0.044141676406503738 0 0.4656888918609538 0.78493261229743638 0 0.45582236402875981 0.73896743678908217 0 0.50945740445113552 0.75476055527778108 0 0.5 0.69999999999999996 0 0.50945740445113552 0.75476055527778108 0 0.45582236402875981 0.73896743678908217 0 0.55306006949600994 0.20198184231352201 0 0.56202748619534593 0.15054058349222879 0 0.59443395090188023 0.18455690917515069 0 0.6236733212988993 0.14864538214901801 0 0.59443395090188023 0.18455690917515069 0 0.56202748619534593 0.15054058349222879 0 0.57412547362576272 0.58273804879550706 0 0.5498280205245758 0.6290146943450976 0 0.5166924242153631 0.59825134841919447 0 0.91696753777131557 0.497780560203536 0 0.93814194660195893 0.44426664081746747 0 0.96228564064454991 0.48206450662049471 0 0.15720202157091859 0.60665697304410315 0 0.16500388252850301 0.66612077714085194 0 0.1241190223511371 0.64391885572885044 0 0.44288491854585582 0.14116182884956319 0 0.47881186583059909 0.093591717165689425 0 0.48466639505193998 0.1421439844745814 0 1 0.54999999999963112 0 0.93732437411268477 0.55911392101136159 0 0.95631871884947484 0.51827533208233789 0 0.57724883562309992 0.92155686857100794 0 0.57382506491224949 0.9629411906298494 0 0.52122150208832174 0.94089974453840242 0 0.85170973911348691 0.93569607295217616 0 0.81159157511211755 0.88795995483179491 0 0.85600844944837662 0.88483418979512773 0 0.8517097391133297 0.2356960729520409 0 0.81283102246527783 0.1881007222486438 0 0.85600844944842547 0.1848341897950983 0 0.27866744612395528 0.38416094670951489 0 0.29124338931648802 0.43334555462578611 0 0.24049127783545701 0.41270748208749802 0 0.6084546825910605 0.37989672713932537 0 0.56836770495988642 0.3523062350852913 0 0.61959173890754571 0.33832250091341232 0 0.20050006573841939 0.53248514016039872 0 0.25115337790845271 0.54719303014923271 0 0.22549374774072969 0.58452645269293457 0 0.26573297623774761 0.59828298563722948 0 0.22549374774072969 0.58452645269293457 0 0.25115337790845271 0.54719303014923271 0 0.26104540868854792 0.81401944968719064 0 0.29209212897034281 0.84715728365233667 0 0.2401283238295133 0.85648409884788523 0 0.6236733212988993 0.14864538214901801 0 0.65290632656860115 0.11434202593454081 0 0.68391457121233579 0.14440470121196541 0 0.19901705110390991 0.9175543425573498 0 0.19741632902693801 0.86755867406447229 0 0.24536017905392571 0.90704567837671446 0 0.72500000000000064 0.7952620967744265 0 0.76901770135486491 0.84293557325473656 0 0.72863726579783861 0.85390518901155588 0 0.72500000000000064 0.7952620967744265 0 0.72863726579783861 0.85390518901155588 0 0.68697391633157634 0.84450604838764298 0 0.7250000000005199 0.89375000000045834 0 0.68697391633157634 0.84450604838764298 0 0.72863726579783861 0.85390518901155588 0 0.72525833953073282 0.1032114801687094 0 0.77144070960558853 0.14311854477243749 0 0.72634814642510737 0.16106886917518889 0 0.72525833953073282 0.1032114801687094 0 0.72634814642510737 0.16106886917518889 0 0.68391457121233579 0.14440470121196541 0 0.36622285152418499 0.69092437780804039 0 0.3977710372045391 0.65868194622830212 0 0.43323420005758778 0.6913544522562407 0 0 0.65000000000104008 0 0 0.60000000000138687 0 0.050069554451969707 0.61308520079857043 0 0 0.40000000000166441 0 0 0.35000000000145642 0 0.050583896093752537 0.38543522283434112 0 0.22033343844674469 0.36963382230740238 0 0.24049127783545701 0.41270748208749802 0 0.191953871957803 0.42546416763755879 0 0.5 0.29999999999999999 0 0.4604742573284204 0.27846934318264788 0 0.49695729691142171 0.25014895411178018 0 0.19741632902693801 0.86755867406447229 0 0.2401283238295133 0.85648409884788523 0 0.24536017905392571 0.90704567837671446 0 0 0.50000000000205869 0 0.068743045408989428 0.48853989837882689 0 0.044576108720083309 0.53509043209532614 0 0.15000000000062411 1 0 0.14617343800780541 0.93808063414349496 0 0.18474005699953849 0.96231585248064622 0 0.14999999999970359 0 0 0.184418230509967 0.038773194583122873 0 0.14618258501891079 0.062070108745602003 0 0.57667858002728545 0.078486105337742612 0 0.52375890611712683 0.059318771819432882 0 0.57396793757665954 0.037011367187645222 0 0.113541300460994 0.46208784312094731 0 0.078358742472063481 0.43365249433908948 0 0.13773355295499351 0.42497777642586831 0 0.77354604466818633 0.40378688774472771 0 0.78145581580700685 0.34881365920033602 0 0.81308179852519835 0.39754945808726527 0 0.38244435121258652 0.51653317813019495 0 0.33190227185843768 0.52715113583864037 0 0.35024835142131061 0.48654922671676981 0 0.64753070846764316 0.77332939069435502 0 0.65005442820240822 0.82644988530054031 0 0.60294066490120068 0.80851322453934582 0 0.15720202157091859 0.60665697304410315 0 0.1024350934457823 0.60772393977513839 0 0.1154888278694548 0.56733818459978413 0 0.90416666666660628 0.9041666666666166 0 0.85600844944837662 0.88483418979512773 0 0.88088768115933802 0.84674609810493673 0 0.90416666666668166 0.20416666666667119 0 0.85600844944842547 0.1848341897950983 0 0.88088768115941807 0.14674609810479519 0 0.078358742472063481 0.43365249433908948 0 0.1117088112799664 0.38831403004970022 0 0.13773355295499351 0.42497777642586831 0 0.38244435121258652 0.51653317813019495 0 0.3908716102680424 0.47010282357248828 0 0.43507373378304309 0.49699695397193322 0 0.90299850604011456 0.79563452813489832 0 0.95386563387742829 0.80414874155775029 0 0.93677536231884972 0.85000000000000286 0 0.90416666666660628 0.9041666666666166 0 0.93677536231884972 0.85000000000000286 0 0.95391631417670719 0.89584263333814784 0 0.90299850604006393 0.09563452813493091 0 0.95386563387744361 0.1041487415577465 0 0.93677536231883773 0.14999999999999089 0 0.90416666666668166 0.20416666666667119 0 0.93677536231883773 0.14999999999999089 0 0.95391631417672862 0.19584263333809451 0 0.39536230704883951 0.84069429572832477 0 0.44003836461056539 0.88093474584252718 0 0.39767323751400468 0.89584229130535065 0 0.51076801031701946 0.1202837388510348 0 0.52375890611712683 0.059318771819432882 0 0.54979595918804436 0.1060565713905809 0 0.57667858002728545 0.078486105337742612 0 0.54979595918804436 0.1060565713905809 0 0.52375890611712683 0.059318771819432882 0 0.57724883562309992 0.92155686857100794 0 0.52122150208832174 0.94089974453840242 0 0.54783390826260769 0.89287767010860219 0 0.50202631463681879 0.87892870825713787 0 0.54783390826260769 0.89287767010860219 0 0.52122150208832174 0.94089974453840242 0 0.087545339447545459 0.35122518864182262 0 0.093851963071650835 0.30582068233324772 0 0.14223753364722069 0.3341983344262433 0 0.54999999999999993 0.69999999999999996 0 0.59999999999999976 0.69999999999999996 0 0.55363780716230748 0.74348740161571747 0 0.083105206071452636 0.79992298667296435 0 0.1074251789111534 0.83564394292147814 0 0.065374659239661639 0.8551091961254178 0 0.083105206071467416 0.20007701332709979 0 0.065374659239632718 0.1448908038746782 0 0.106902708054812 0.16453234188234539 0 0.52289427570932567 0.3932284363388488 0 0.53823865529665704 0.45873898050322898 0 0.48858720058566618 0.43964267759203868 0 0.13737030665753211 0.20313708640667491 0 0.14377654328998779 0.2442024734791064 0 0.095326043202144745 0.24554465089224409 0 0.1382744753146134 0.79650574229207483 0 0.090953281884486245 0.7564451946902494 0 0.14335651144331049 0.75565258250209677 0 0.27270076654418179 0.87751467830216623 0 0.30864387279288652 0.89906554525974958 0 0.24536017905392571 0.90704567837671446 0 0.27609987656793722 0.94991445621608572 0 0.24536017905392571 0.90704567837671446 0 0.30864387279288652 0.89906554525974958 0 0.90299850604011456 0.79563452813489832 0 0.84725310900444062 0.80779732082917555 0 0.85491058998424563 0.76004753345552634 0 0.90299850604006393 0.09563452813493091 0 0.84725310900442086 0.10779732082922661 0 0.85491058998398861 0.060047533455626502 0 1 0.54999999999963112 0 1 0.59999999999973963 0 0.95867599106212187 0.60011091146651041 0 1 0.39999999999978308 0 1 0.44999999999963131 0 0.95871855522754235 0.40006508612975411 0 0.28040350263641872 0.23054717217092141 0 0.25195515620380449 0.25883339815888678 0 0.224700362040408 0.22206622194729711 0 0.84999999999999987 0.29999999999999999 0 0.87430060258887643 0.34056085888204451 0 0.82500000000000062 0.33010209762754811 0 0.84999999999999987 0.69999999999999996 0 0.82457059160610424 0.66831947184359608 0 0.87712158428786946 0.65709029563313581 0 0.86956835336234861 0.571283299838105 0 0.87159648282691515 0.61285406320581504 0 0.81723410853263523 0.59419663659258926 0 0.43698630808430822 0.080423614171545449 0 0.47881186583059909 0.093591717165689425 0 0.44288491854585582 0.14116182884956319 0 1 0.44999999999963131 0 0.96228564064454991 0.48206450662049471 0 0.93814194660195893 0.44426664081746747 0 0.35752321586431363 0.9185439911803448 0 0.30864387279288652 0.89906554525974958 0 0.35864759629805099 0.87963482415279515 0 0.29124338931648802 0.43334555462578611 0 0.25982634974572738 0.46097799597715272 0 0.24049127783545701 0.41270748208749802 0 0.51076801031701946 0.1202837388510348 0 0.56202748619534593 0.15054058349222879 0 0.51729576145820033 0.1683240575987815 0 0.55306006949600994 0.20198184231352201 0 0.51729576145820033 0.1683240575987815 0 0.56202748619534593 0.15054058349222879 0 0.26429849586623999 0.19346700179430079 0 0.28040350263641872 0.23054717217092141 0 0.224700362040408 0.22206622194729711 0 0.51076801031701946 0.1202837388510348 0 0.48466639505193998 0.1421439844745814 0 0.47881186583059909 0.093591717165689425 0 0.2185883431182947 0.18019736283949719 0 0.26429849586623999 0.19346700179430079 0 0.224700362040408 0.22206622194729711 0 0.18269480424590959 0.75905448272264375 0 0.2248999640082178 0.72584299459689172 0 0.22556077506376701 0.77837424984191617 0 0.51076801031701946 0.1202837388510348 0 0.47881186583059909 0.093591717165689425 0 0.52375890611712683 0.059318771819432882 0 0.50202631463681879 0.87892870825713787 0 0.52122150208832174 0.94089974453840242 0 0.47401147028110507 0.91529957330468115 0 0 0.84999999999965292 0 0.038512288486097702 0.8155852717111195 0 0.065374659239661639 0.8551091961254178 0 0 0.15000000000062411 0 0.065374659239632718 0.1448908038746782 0 0.038512288486115001 0.1844147282893184 0 0.2185883431182947 0.18019736283949719 0 0.224700362040408 0.22206622194729711 0 0.18124454140915969 0.18790916706335251 0 0.21858834311891909 0.81980263716112767 0 0.17777405986036951 0.81832336108265358 0 0.22556077506376701 0.77837424984191617 0 0.1215415378367805 0.72939333680004137 0 0.1020579365089687 0.69352219419301997 0 0.15332765547575641 0.71200081858233666 0 0.49695729691142171 0.25014895411178018 0 0.50760557329222289 0.20700468884612061 0 0.54248833945060504 0.2520322959927106 0 0.15720202157091859 0.60665697304410315 0 0.14934928745814749 0.55042914607228977 0 0.18381867841758909 0.57774125163628387 0 0.90416666666660628 0.9041666666666166 0 0.85170973911348691 0.93569607295217616 0 0.85600844944837662 0.88483418979512773 0 0.90416666666668166 0.20416666666667119 0 0.8517097391133297 0.2356960729520409 0 0.85600844944842547 0.1848341897950983 0 0.17933913398461551 0.2350063570234002 0 0.13737030665753211 0.20313708640667491 0 0.18124454140915969 0.18790916706335251 0 0.18269480424590959 0.75905448272264375 0 0.17777405986036951 0.81832336108265358 0 0.1382744753146134 0.79650574229207483 0 0.1216098864341134 0.50637075089503902 0 0.15801167086041079 0.46008690540259539 0 0.16618607197337229 0.50652878253548905 0 0.50760557329222289 0.20700468884612061 0 0.55306006949600994 0.20198184231352201 0 0.54248833945060504 0.2520322959927106 0 0.75000000000034661 1 0 0.7000000000006934 1 0 0.7250000000005199 0.94981617647078953 0 0.69999999999999984 0.29999999999999999 0 0.72500000000000064 0.2498161764706 0 0.74999999999999989 0.29999999999999999 0 0.72525833953073282 0.1032114801687094 0 0.68391457121233579 0.14440470121196541 0 0.68330259535470161 0.10038702501083881 0 0.43249999999999988 0.43937499999999979 0 0.46655310992796922 0.39650496622958609 0 0.48858720058566618 0.43964267759203868 0 0.19901705110390991 0.9175543425573498 0 0.14617343800780541 0.93808063414349496 0 0.16206583317966519 0.89685560785156404 0 0.19922788606653311 0.085920220746880993 0 0.16141998738593399 0.10404039647458049 0 0.14618258501891079 0.062070108745602003 0 0.31378396441836959 0.70157213313026345 0 0.26439878998046262 0.7048065392091396 0 0.27820712747429932 0.65530134213254643 0 0.1216098864341134 0.50637075089503902 0 0.113541300460994 0.46208784312094731 0 0.15801167086041079 0.46008690540259539 0 0.6084546825910605 0.37989672713932537 0 0.65481233915350323 0.35652751921065562 0 0.63912439215427275 0.41063340167983359 0 0.19901705110390991 0.9175543425573498 0 0.18474005699953849 0.96231585248064622 0 0.14617343800780541 0.93808063414349496 0 0.19922788606653311 0.085920220746880993 0 0.14618258501891079 0.062070108745602003 0 0.184418230509967 0.038773194583122873 0 0.38244435121258652 0.51653317813019495 0 0.35024835142131061 0.48654922671676981 0 0.3908716102680424 0.47010282357248828 0 0.82709327591102189 0.14937141670914489 0 0.77144070960558853 0.14311854477243749 0 0.80076557130237269 0.1154587552654202 0 0.82709327591091286 0.84937141670920724 0 0.76901770135486491 0.84293557325473656 0 0.80041942726660109 0.81543261647703358 0 0.43698630808430822 0.080423614171545449 0 0.44288491854585582 0.14116182884956319 0 0.39823268594401579 0.1116623613130045 0 0.39801143831225599 0.16651381068160659 0 0.39823268594401579 0.1116623613130045 0 0.44288491854585582 0.14116182884956319 0 0.36575549820117997 0.31677992835137742 0 0.3786248352540974 0.27082301512024259 0 0.41914690343363781 0.30688979866601612 0 0.42377727103934271 0.25099357235810238 0 0.41914690343363781 0.30688979866601612 0 0.3786248352540974 0.27082301512024259 0 0.049706944316475897 0.72477277076253799 0 0.1020579365089687 0.69352219419301997 0 0.090953281884486245 0.7564451946902494 0 0.1215415378367805 0.72939333680004137 0 0.090953281884486245 0.7564451946902494 0 0.1020579365089687 0.69352219419301997 0 0.1247745017231483 0.27198077544791172 0 0.093851963071650835 0.30582068233324772 0 0.095326043202144745 0.24554465089224409 0 0.049706944316556423 0.27522722923869108 0 0.095326043202144745 0.24554465089224409 0 0.093851963071650835 0.30582068233324772 0 0.77354604466818633 0.40378688774472771 0 0.81973119833356312 0.43505687159469048 0 0.77972660463949339 0.45529290596363098 0 0.43249999999999988 0.43937499999999979 0 0.43507373378304309 0.49699695397193322 0 0.3908716102680424 0.47010282357248828 0 0.26573297623774761 0.59828298563722948 0 0.2459498854893499 0.63248470766216769 0 0.22549374774072969 0.58452645269293457 0 0.72500000000000064 0.7952620967744265 0 0.77094201086366854 0.79647480515688507 0 0.76901770135486491 0.84293557325473656 0 0.72525833953073282 0.1032114801687094 0 0.76878382444651716 0.097147941686331368 0 0.77144070960558853 0.14311854477243749 0 0.72500000000000064 0.7952620967744265 0 0.68697391633157634 0.84450604838764298 0 0.68024162096458085 0.79868546898116533 0 0.31378396441836959 0.70157213313026345 0 0.29904318922293632 0.74132814928635593 0 0.26439878998046262 0.7048065392091396 0 0.31378396441836959 0.70157213313026345 0 0.35415581127540569 0.73730480045900215 0 0.29904318922293632 0.74132814928635593 0 0.61343887413683884 0.856862479058357 0 0.65005442820240822 0.82644988530054031 0 0.66412543161245952 0.88015090885499059 0 0.68697391633157634 0.84450604838764298 0 0.66412543161245952 0.88015090885499059 0 0.65005442820240822 0.82644988530054031 0 0.083411279318375747 0.91030024466934134 0 0.065374659239661639 0.8551091961254178 0 0.10562472963403439 0.87143394428979881 0 0.083411279318303222 0.089699755330707398 0 0.1053400320299198 0.12877248826361379 0 0.065374659239632718 0.1448908038746782 0 0.55306006949600994 0.20198184231352201 0 0.59443395090188023 0.18455690917515069 0 0.59814117807200873 0.23398510860739519 0 0.84999999999999987 0.29999999999999999 0 0.89999999999999991 0.29999999999999999 0 0.87430060258887643 0.34056085888204451 0 0.84999999999999987 0.69999999999999996 0 0.87712158428786946 0.65709029563313581 0 0.89999999999999991 0.69999999999999996 0 0.34258405725730701 0.4444034294386992 0 0.3908716102680424 0.47010282357248828 0 0.35024835142131061 0.48654922671676981 0 0.26573297623774761 0.59828298563722948 0 0.31502927232353312 0.6134992213375432 0 0.27820712747429932 0.65530134213254643 0 0.91696753777131557 0.497780560203536 0 0.86907294890112186 0.52008116128001669 0 0.88594198078881503 0.46167788676578442 0 0.84723782639812573 0.48638347960178252 0 0.88594198078881503 0.46167788676578442 0 0.86907294890112186 0.52008116128001669 0 0.7152569930854884 0.5237994455134295 0 0.77151014687832564 0.54436834383023036 0 0.71809016091162536 0.58185040402320831 0 0.90416666666660628 0.9041666666666166 0 0.89898474358632463 0.95391965591118966 0 0.85170973911348691 0.93569607295217616 0 0.90416666666668166 0.20416666666667119 0 0.89898474358614167 0.25391965591104898 0 0.8517097391133297 0.2356960729520409 0 0.91750694127107502 0.36982372220068471 0 0.95780851984364423 0.34215720972155339 0 0.95871855522754235 0.40006508612975411 0 0.91750694127105259 0.63017627779935648 0 0.95867599106212187 0.60011091146651041 0 0.9578014258160763 0.65787212321113708 0 0.90299850604011456 0.79563452813489832 0 0.88088768115933802 0.84674609810493673 0 0.84725310900444062 0.80779732082917555 0 0.90299850604006393 0.09563452813493091 0 0.88088768115941807 0.14674609810479519 0 0.84725310900442086 0.10779732082922661 0 0.1216098864341134 0.50637075089503902 0 0.16618607197337229 0.50652878253548905 0 0.14934928745814749 0.55042914607228977 0 0.20050006573841939 0.53248514016039872 0 0.14934928745814749 0.55042914607228977 0 0.16618607197337229 0.50652878253548905 0 0.80185942888539485 0.77452061303608133 0 0.84725310900444062 0.80779732082917555 0 0.80041942726660109 0.81543261647703358 0 0.80185942888501827 0.074520613036224564 0 0.84725310900442086 0.10779732082922661 0 0.80076557130237269 0.1154587552654202 0 0.083105206071452636 0.79992298667296435 0 0.065374659239661639 0.8551091961254178 0 0.038512288486097702 0.8155852717111195 0 0.083105206071467416 0.20007701332709979 0 0.038512288486115001 0.1844147282893184 0 0.065374659239632718 0.1448908038746782 0 0.54782696902220018 0.79245182748204157 0 0.59636844454254345 0.75937156204589151 0 0.60294066490120068 0.80851322453934582 0 0.083411279318375747 0.91030024466934134 0 0.0443105827531413 0.89858748162559932 0 0.065374659239661639 0.8551091961254178 0 0.083411279318303222 0.089699755330707398 0 0.065374659239632718 0.1448908038746782 0 0.044310582753132287 0.101412518374475 0 0.84999999999965292 1 0 0.81486180804382891 0.96321394949790495 0 0.85170973911348691 0.93569607295217616 0 0.84999999999999987 0.29999999999999999 0 0.81486180804364938 0.26321394949780091 0 0.8517097391133297 0.2356960729520409 0 0.4656888918609538 0.78493261229743638 0 0.45677673713123867 0.84253684404072415 0 0.42609163930740518 0.80361684430568059 0 0.39536230704883951 0.84069429572832477 0 0.42609163930740518 0.80361684430568059 0 0.45677673713123867 0.84253684404072415 0 0.6236733212988993 0.14864538214901801 0 0.56202748619534593 0.15054058349222879 0 0.58516465772821369 0.11653801664834119 0 0.57412547362576272 0.58273804879550706 0 0.63065402604362242 0.59661356661633302 0 0.5991018319127801 0.62925360607495295 0 0.61343887413683884 0.856862479058357 0 0.5832743223239254 0.88483152652961872 0 0.55899371797446828 0.85003102233514438 0 0.50202631463681879 0.87892870825713787 0 0.55899371797446828 0.85003102233514438 0 0.54783390826260769 0.89287767010860219 0 0.51076801031701946 0.1202837388510348 0 0.54979595918804436 0.1060565713905809 0 0.56202748619534593 0.15054058349222879 0 0.55306006949600994 0.20198184231352201 0 0.59814117807200873 0.23398510860739519 0 0.54248833945060504 0.2520322959927106 0 0.83573492347052902 0.36590755630746369 0 0.82500000000000062 0.33010209762754811 0 0.87430060258887643 0.34056085888204451 0 0.83758014339878906 0.63222013025741819 0 0.87712158428786946 0.65709029563313581 0 0.82457059160610424 0.66831947184359608 0 0.49102375406324739 0.49123754822244059 0 0.53823865529665704 0.45873898050322898 0 0.53330375813596242 0.50827942741749099 0 0.52289427570932567 0.3932284363388488 0 0.57744073070774993 0.41535148636609359 0 0.53823865529665704 0.45873898050322898 0 0.4089290844030305 0.58728915500154233 0 0.37272913873093971 0.56192925302619479 0 0.42644501560315817 0.54603747078095544 0 0.49695729691142171 0.25014895411178018 0 0.4604742573284204 0.27846934318264788 0 0.46429753744194407 0.22870891180733599 0 0.90299850604011456 0.79563452813489832 0 0.85491058998424563 0.76004753345552634 0 0.89999166460796554 0.74528934923809909 0 0.90299850604006393 0.09563452813493091 0 0.85491058998398861 0.060047533455626502 0 0.899991664607802 0.045289349238254978 0 0.38244435121258652 0.51653317813019495 0 0.42644501560315817 0.54603747078095544 0 0.37272913873093971 0.56192925302619479 0 0.71406021706547751 0.63292083137662503 0 0.71809016091162536 0.58185040402320831 0 0.74994237037456724 0.62775548192980357 0 0.84723782639812573 0.48638347960178252 0 0.86907294890112186 0.52008116128001669 0 0.81441713509985358 0.51161854125224959 0 0.33122374654748771 0.57588941099433744 0 0.33190227185843768 0.52715113583864037 0 0.37272913873093971 0.56192925302619479 0 0.086179601630648681 0.64647209519980475 0 0.1241190223511371 0.64391885572885044 0 0.1020579365089687 0.69352219419301997 0 0.59999999999894682 0 0 0.64999999999907843 0 0 0.61940220174112337 0.047251958781050582 0 0.18269480424590959 0.75905448272264375 0 0.14335651144331049 0.75565258250209677 0 0.15332765547575641 0.71200081858233666 0 0.22549374774072969 0.58452645269293457 0 0.2459498854893499 0.63248470766216769 0 0.19914261668318661 0.62286739485272158 0 0.38244435121258652 0.51653317813019495 0 0.43507373378304309 0.49699695397193322 0 0.42644501560315817 0.54603747078095544 0 0.65000000000104008 1 0 0.60000000000138687 1 0 0.62065498684670595 0.95224934003983619 0 0.078358742472063481 0.43365249433908948 0 0.068743045408989428 0.48853989837882689 0 0.033550201249889847 0.46247875832467239 0 0.2236846579037573 0.67380363126050236 0 0.27820712747429932 0.65530134213254643 0 0.26439878998046262 0.7048065392091396 0 0.6879972333610942 0.43038561374960838 0 0.68128176404677243 0.38629093627004979 0 0.72622533758026719 0.40265885511101601 0 0.72525833953073282 0.1032114801687094 0 0.7010294155333181 0.056779085686491267 0 0.7527966693318906 0.053051678021508272 0 0.18269480424590959 0.75905448272264375 0 0.15332765547575641 0.71200081858233666 0 0.19068556247388771 0.71028988922845504 0 0.1216098864341134 0.50637075089503902 0 0.085622222639554768 0.53333248912060549 0 0.068743045408989428 0.48853989837882689 0 0.25676291524611189 0.7436741304886243 0 0.26439878998046262 0.7048065392091396 0 0.29904318922293632 0.74132814928635593 0 0.65481233915350323 0.35652751921065562 0 0.68128176404677243 0.38629093627004979 0 0.63912439215427275 0.41063340167983359 0 0.83573492347052902 0.36590755630746369 0 0.86844634540301924 0.38530937474099819 0 0.81308179852519835 0.39754945808726527 0 0.27270076654418179 0.87751467830216623 0 0.2401283238295133 0.85648409884788523 0 0.29209212897034281 0.84715728365233667 0 0.84999999999999987 0.69999999999999996 0 0.85491058998424563 0.76004753345552634 0 0.81864958914779962 0.73589050177899629 0 0.84999999999960507 0 0 0.85491058998398861 0.060047533455626502 0 0.81864958914740749 0.035890501779055867 0 0.18381867841758909 0.57774125163628387 0 0.19914261668318661 0.62286739485272158 0 0.15720202157091859 0.60665697304410315 0 0.22549374774072969 0.58452645269293457 0 0.19914261668318661 0.62286739485272158 0 0.18381867841758909 0.57774125163628387 0 0.79680861578988083 0.92656778056766709 0 0.85170973911348691 0.93569607295217616 0 0.81486180804382891 0.96321394949790495 0 0.79680861578956375 0.22656778056752541 0 0.8517097391133297 0.2356960729520409 0 0.81486180804364938 0.26321394949780091 0 0.20050006573841939 0.53248514016039872 0 0.23975172658309729 0.49475499200540818 0 0.25115337790845271 0.54719303014923271 0 0.28307294598219601 0.50789252727458634 0 0.25115337790845271 0.54719303014923271 0 0.23975172658309729 0.49475499200540818 0 0.20050006573841939 0.53248514016039872 0 0.18381867841758909 0.57774125163628387 0 0.14934928745814749 0.55042914607228977 0 0.19922788606653311 0.085920220746880993 0 0.22985637510995899 0.1298347970200906 0 0.18652628422869419 0.14162325200928061 0 0.33758650185219202 0.23837101504325639 0 0.38831533174504851 0.2189834941785925 0 0.3786248352540974 0.27082301512024259 0 0.42377727103934271 0.25099357235810238 0 0.3786248352540974 0.27082301512024259 0 0.38831533174504851 0.2189834941785925 0 0.19922788606653311 0.085920220746880993 0 0.18652628422869419 0.14162325200928061 0 0.16141998738593399 0.10404039647458049 0 0.54782696902220018 0.79245182748204157 0 0.55363780716230748 0.74348740161571747 0 0.59636844454254345 0.75937156204589151 0 0.82709327591091286 0.84937141670920724 0 0.88088768115933802 0.84674609810493673 0 0.85600844944837662 0.88483418979512773 0 0.82709327591102189 0.14937141670914489 0 0.88088768115941807 0.14674609810479519 0 0.85600844944842547 0.1848341897950983 0 0.27866744612395528 0.38416094670951489 0 0.22033343844674469 0.36963382230740238 0 0.25966125648670141 0.34351016742083729 0 0 0.50000000000205869 0 0.033550201249889847 0.46247875832467239 0 0.068743045408989428 0.48853989837882689 0 0.31378396441836959 0.70157213313026345 0 0.36622285152418499 0.69092437780804039 0 0.35415581127540569 0.73730480045900215 0 0.77293540622714185 0.59448302402785813 0 0.71809016091162536 0.58185040402320831 0 0.77151014687832564 0.54436834383023036 0 0.7152569930854884 0.5237994455134295 0 0.69385896817107129 0.48377516041410151 0 0.73947346780852752 0.49062440112282169 0 0.15801167086041079 0.46008690540259539 0 0.191953871957803 0.42546416763755879 0 0.19604738184454831 0.47787523520405789 0 0.57667858002728545 0.078486105337742612 0 0.61940220174112337 0.047251958781050582 0 0.61956000905586006 0.1043312481793135 0 0.65408113592120842 0.073941773121567966 0 0.61956000905586006 0.1043312481793135 0 0.61940220174112337 0.047251958781050582 0 0 0.55000000000173355 0 0 0.50000000000205869 0 0.044576108720083309 0.53509043209532614 0 0.65507451745379841 0.92229208810758578 0 0.62065498684670595 0.95224934003983619 0 0.61885627562261258 0.90282959257498208 0 0.57724883562309992 0.92155686857100794 0 0.61885627562261258 0.90282959257498208 0 0.62065498684670595 0.95224934003983619 0 0.91750694127107502 0.36982372220068471 0 0.86844634540301924 0.38530937474099819 0 0.87430060258887643 0.34056085888204451 0 0.91750694127105259 0.63017627779935648 0 0.87712158428786946 0.65709029563313581 0 0.87159648282691515 0.61285406320581504 0 0.33123028043633618 0.77629643437932982 0 0.29904318922293632 0.74132814928635593 0 0.35415581127540569 0.73730480045900215 0 0.86411095495256451 0.42388805655111889 0 0.84925632466077294 0.45359738909549091 0 0.81973119833356312 0.43505687159469048 0 0.43846182030517877 0.64845797726506715 0 0.47913475093885149 0.66010775372412711 0 0.43323420005758778 0.6913544522562407 0 0.18269480424590959 0.75905448272264375 0 0.19068556247388771 0.71028988922845504 0 0.2248999640082178 0.72584299459689172 0 0.39536230704883951 0.84069429572832477 0 0.38586766253264881 0.78219501014812498 0 0.42609163930740518 0.80361684430568059 0 0.59999999999999976 0.69999999999999996 0 0.63221990677827677 0.73442891067859706 0 0.59636844454254345 0.75937156204589151 0 0.27866744612395528 0.38416094670951489 0 0.24049127783545701 0.41270748208749802 0 0.22033343844674469 0.36963382230740238 0 0.82709327591091286 0.84937141670920724 0 0.84725310900444062 0.80779732082917555 0 0.88088768115933802 0.84674609810493673 0 0.82709327591102189 0.14937141670914489 0 0.84725310900442086 0.10779732082922661 0 0.88088768115941807 0.14674609810479519 0 0.1650278706801647 0.38791388161335733 0 0.18434624290945251 0.35208838264196463 0 0.22033343844674469 0.36963382230740238 0 0.4409427642593301 0.35743108089689513 0 0.49077833859261139 0.35229981449445641 0 0.46655310992796922 0.39650496622958609 0 0.80185942888539485 0.77452061303608133 0 0.81864958914779962 0.73589050177899629 0 0.85491058998424563 0.76004753345552634 0 0.80185942888501827 0.074520613036224564 0 0.81864958914740749 0.035890501779055867 0 0.85491058998398861 0.060047533455626502 0 0.29999999999926641 0 0 0.34999999999912063 0 0 0.32541448401678508 0.046215317981507749 0 0.35000000000145642 1 0 0.30000000000124832 1 0 0.32544832635163229 0.95485394099568932 0 0.4656888918609538 0.78493261229743638 0 0.50731287292894423 0.78963574450233831 0 0.50627822638148745 0.8263979829520941 0 0.2185883431182947 0.18019736283949719 0 0.25557216766470708 0.15874861286892261 0 0.26429849586623999 0.19346700179430079 0 1 0.29999999999999999 0 1 0.34999999999993492 0 0.95780851984364423 0.34215720972155339 0 1 0.29999999999999999 0 0.95780851984364423 0.34215720972155339 0 0.94999999999999996 0.29999999999999999 0 1 0.69999999999999996 0 0.94999999999999996 0.69999999999999996 0 0.9578014258160763 0.65787212321113708 0 1 0.69999999999999996 0 0.9578014258160763 0.65787212321113708 0 1 0.64999999999986979 0 0.91750694127107502 0.36982372220068471 0 0.90594285160987287 0.4141265964174129 0 0.86844634540301924 0.38530937474099819 0 0.91750694127105259 0.63017627779935648 0 0.87159648282691515 0.61285406320581504 0 0.91143117093204207 0.58709913730335972 0 0.74999999999999989 0.69999999999999996 0 0.7750489929959945 0.66593931409600093 0 0.79999999999999982 0.69999999999999996 0 0.74999999999999989 0.29999999999999999 0 0.79999999999999982 0.29999999999999999 0 0.78145581580700685 0.34881365920033602 0 0.54999999999999993 0.69999999999999996 0 0.57484956128872922 0.66573805030881994 0 0.59999999999999976 0.69999999999999996 0 0.90299850604011456 0.79563452813489832 0 0.94399509803918602 0.75600490196082126 0 0.95386563387742829 0.80414874155775029 0 0.90416666666660628 0.9041666666666166 0 0.95391631417670719 0.89584263333814784 0 0.94399509803919068 0.9439950980391687 0 0.90299850604006393 0.09563452813493091 0 0.94399509803922566 0.056004901960802607 0 0.95386563387744361 0.1041487415577465 0 0.90416666666668166 0.20416666666667119 0 0.95391631417672862 0.19584263333809451 0 0.94399509803921056 0.24399509803922639 0 0.22278230690790279 0.44824268025881547 0 0.19604738184454831 0.47787523520405789 0 0.191953871957803 0.42546416763755879 0 0.90299850604011456 0.79563452813489832 0 0.89999166460796554 0.74528934923809909 0 0.94399509803918602 0.75600490196082126 0 0.90299850604006393 0.09563452813493091 0 0.899991664607802 0.045289349238254978 0 0.94399509803922566 0.056004901960802607 0 0.49102375406324739 0.49123754822244059 0 0.47793794143994173 0.52940715638744962 0 0.43507373378304309 0.49699695397193322 0 0.90416666666660628 0.9041666666666166 0 0.94399509803919068 0.9439950980391687 0 0.89898474358632463 0.95391965591118966 0 0.90416666666668166 0.20416666666667119 0 0.94399509803921056 0.24399509803922639 0 0.89898474358614167 0.25391965591104898 0 0.65394964615507722 0.22666784374016369 0 0.62657463266645097 0.26524202571255862 0 0.59814117807200873 0.23398510860739519 0 0.6084546825910605 0.37989672713932537 0 0.63912439215427275 0.41063340167983359 0 0.57744073070774993 0.41535148636609359 0 0.61209567303293111 0.44669033081290321 0 0.57744073070774993 0.41535148636609359 0 0.63912439215427275 0.41063340167983359 0 0.25676291524611189 0.7436741304886243 0 0.22556077506376701 0.77837424984191617 0 0.2248999640082178 0.72584299459689172 0 0.61343887413683884 0.856862479058357 0 0.60294066490120068 0.80851322453934582 0 0.65005442820240822 0.82644988530054031 0 0.64999999999907843 0 0 0.66369801598854572 0.036327466368102787 0 0.61940220174112337 0.047251958781050582 0 0.40326160981139969 0.73346192995102844 0 0.38586766253264881 0.78219501014812498 0 0.35415581127540569 0.73730480045900215 0 0.33123028043633618 0.77629643437932982 0 0.35415581127540569 0.73730480045900215 0 0.38586766253264881 0.78219501014812498 0 0.26573297623774761 0.59828298563722948 0 0.29110487519241501 0.56588143995431495 0 0.31502927232353312 0.6134992213375432 0 0.77846603114747959 0.49850927265137401 0 0.81441713509985358 0.51161854125224959 0 0.77151014687832564 0.54436834383023036 0 0.82862096804812391 0.55037090955459045 0 0.77151014687832564 0.54436834383023036 0 0.81441713509985358 0.51161854125224959 0 0.50000000000205869 1 0 0.45000000000187229 1 0 0.47135117303824892 0.95556877749289892 0 0.44999999999882923 0 0 0.49999999999869432 0 0 0.47040171442036788 0.044141676406503738 0 0 0.7000000000006934 0 0 0.65000000000104008 0 0.046634677244967337 0.671418230738282 0 0 0.35000000000145642 0 0 0.30000000000124832 0 0.046389130980076937 0.32668781832131749 0 0.31378396441836959 0.70157213313026345 0 0.27820712747429932 0.65530134213254643 0 0.32263089806001177 0.66003674931826484 0 0.33122374654748771 0.57588941099433744 0 0.31502927232353312 0.6134992213375432 0 0.29110487519241501 0.56588143995431495 0 0.26573297623774761 0.59828298563722948 0 0.27820712747429932 0.65530134213254643 0 0.2459498854893499 0.63248470766216769 0 0.14474682429600511 0.85524784522713515 0 0.16206583317966519 0.89685560785156404 0 0.1241151115713819 0.9045666525468371 0 0.14332333627550789 0.14578431753966009 0 0.12372429750337779 0.095814237875728972 0 0.16141998738593399 0.10404039647458049 0 0.64753070846764316 0.77332939069435502 0 0.59636844454254345 0.75937156204589151 0 0.63221990677827677 0.73442891067859706 0 0.14474682429600511 0.85524784522713515 0 0.1241151115713819 0.9045666525468371 0 0.10562472963403439 0.87143394428979881 0 0.14332333627550789 0.14578431753966009 0 0.1053400320299198 0.12877248826361379 0 0.12372429750337779 0.095814237875728972 0 0.77354604466818633 0.40378688774472771 0 0.81308179852519835 0.39754945808726527 0 0.81973119833356312 0.43505687159469048 0 0.54782696902220018 0.79245182748204157 0 0.50945740445113552 0.75476055527778108 0 0.55363780716230748 0.74348740161571747 0 0.2236846579037573 0.67380363126050236 0 0.2459498854893499 0.63248470766216769 0 0.27820712747429932 0.65530134213254643 0 0.77293540622714185 0.59448302402785813 0 0.74994237037456724 0.62775548192980357 0 0.71809016091162536 0.58185040402320831 0 0 0.79999999999999982 0 0 0.75000000000034661 0 0.04408157711937423 0.7728941757575627 0 0 0.25000000000104028 0 0 0.20000000000083221 0 0.044081577119474857 0.2271058242433576 0 0.19999999999955789 0 0 0.24999999999941211 0 0 0.22668068146512929 0.045875643423131329 0 0.25000000000104028 1 0 0.20000000000083221 1 0 0.22850979588452081 0.95594428570238643 0 0.47357141910802508 0.1873585799078378 0 0.44288491854585582 0.14116182884956319 0 0.48466639505193998 0.1421439844745814 0 0.59999999999999976 0.29999999999999999 0 0.5794309697024993 0.27124795968204829 0 0.62657463266645097 0.26524202571255862 0 0.43249999999999988 0.43937499999999979 0 0.42161023666869668 0.39493916313643851 0 0.46655310992796922 0.39650496622958609 0 0.31068898841644388 0.47541502461811092 0 0.33190227185843768 0.52715113583864037 0 0.28307294598219601 0.50789252727458634 0 0.35024835142131061 0.48654922671676981 0 0.33190227185843768 0.52715113583864037 0 0.31068898841644388 0.47541502461811092 0 0.35864735590330371 0.63903383440414463 0 0.36622285152418499 0.69092437780804039 0 0.32263089806001177 0.66003674931826484 0 0.31378396441836959 0.70157213313026345 0 0.32263089806001177 0.66003674931826484 0 0.36622285152418499 0.69092437780804039 0 0.86956835336234861 0.571283299838105 0 0.90900154012161016 0.53607784105648792 0 0.91143117093204207 0.58709913730335972 0 0.6499999999999998 0.29999999999999999 0 0.65481233915350323 0.35652751921065562 0 0.61959173890754571 0.33832250091341232 0 0.4409427642593301 0.35743108089689513 0 0.46226845272279993 0.31901800744800313 0 0.49077833859261139 0.35229981449445641 0 0.5 0.29999999999999999 0 0.49077833859261139 0.35229981449445641 0 0.46226845272279993 0.31901800744800313 0 0.14999999999970359 0 0 0.19999999999955789 0 0 0.184418230509967 0.038773194583122873 0 0.20000000000083221 1 0 0.15000000000062411 1 0 0.18474005699953849 0.96231585248064622 0 1 0.49999999999950101 0 1 0.54999999999963112 0 0.95631871884947484 0.51827533208233789 0 0.38586766253264881 0.78219501014812498 0 0.42676259796334498 0.76772545931379299 0 0.42609163930740518 0.80361684430568059 0 0.20050006573841939 0.53248514016039872 0 0.22549374774072969 0.58452645269293457 0 0.18381867841758909 0.57774125163628387 0 0.065374659239661639 0.8551091961254178 0 0.1074251789111534 0.83564394292147814 0 0.10562472963403439 0.87143394428979881 0 0.065374659239632718 0.1448908038746782 0 0.1053400320299198 0.12877248826361379 0 0.106902708054812 0.16453234188234539 0 0.1650278706801647 0.38791388161335733 0 0.14223753364722069 0.3341983344262433 0 0.18434624290945251 0.35208838264196463 0 0.43249999999999988 0.43937499999999979 0 0.46111841286828259 0.46690301029591341 0 0.43507373378304309 0.49699695397193322 0 0.83758014339878906 0.63222013025741819 0 0.81723410853263523 0.59419663659258926 0 0.87159648282691515 0.61285406320581504 0 0.19670163708476801 0.31472518408333222 0 0.18434624290945251 0.35208838264196463 0 0.14223753364722069 0.3341983344262433 0 0.75000000000034661 1 0 0.7250000000005199 0.94981617647078953 0 0.770759834363826 0.95919399014344442 0 0.74999999999999989 0.29999999999999999 0 0.72500000000000064 0.2498161764706 0 0.77075983436335049 0.25919399014334171 0 0.69999999999999984 0.29999999999999999 0 0.67933712972090698 0.25920070958121938 0 0.72500000000000064 0.2498161764706 0 0.57611405284611883 0.50165903596042916 0 0.53330375813596242 0.50827942741749099 0 0.53823865529665704 0.45873898050322898 0 0.6499999999999998 0.29999999999999999 0 0.68887083591306764 0.33632058575757479 0 0.65481233915350323 0.35652751921065562 0 0.27866744612395528 0.38416094670951489 0 0.33277555741076909 0.36432196682010132 0 0.31778888742534622 0.40581751814196781 0 0.49102375406324739 0.49123754822244059 0 0.43507373378304309 0.49699695397193322 0 0.46111841286828259 0.46690301029591341 0 0.94999999999999996 0.69999999999999996 0 0.97166519676947294 0.73337114490064459 0 0.94399509803918602 0.75600490196082126 0 0.94999999999986839 0 0 0.97166519676946894 0.033371144900598393 0 0.94399509803922566 0.056004901960802607 0 0.94999999999999996 0.29999999999999999 0 0.94399509803921056 0.24399509803922639 0 0.97166519676951801 0.26662885509932011 0 0.94999999999979179 1 0 0.94399509803919068 0.9439950980391687 0 0.97166519676946206 0.96662885509935492 0 0.34258405725730701 0.4444034294386992 0 0.29124338931648802 0.43334555462578611 0 0.31778888742534622 0.40581751814196781 0 0.27866744612395528 0.38416094670951489 0 0.31778888742534622 0.40581751814196781 0 0.29124338931648802 0.43334555462578611 0 0.36575549820117997 0.31677992835137742 0 0.33277555741076909 0.36432196682010132 0 0.32752639306529541 0.32610012995269699 0 0.35752321586431363 0.9185439911803448 0 0.32544832635163229 0.95485394099568932 0 0.30864387279288652 0.89906554525974958 0 0.27609987656793722 0.94991445621608572 0 0.30864387279288652 0.89906554525974958 0 0.32544832635163229 0.95485394099568932 0 0.33123028043633618 0.77629643437932982 0 0.30857225866488791 0.81101973481716805 0 0.2792923945214143 0.77665808831789485 0 0.33758650185219202 0.23837101504325639 0 0.29132859388405002 0.27203693976649962 0 0.28040350263641872 0.23054717217092141 0 0.4409427642593301 0.35743108089689513 0 0.41914690343363781 0.30688979866601612 0 0.46226845272279993 0.31901800744800313 0 0.14332333627550789 0.14578431753966009 0 0.13737030665753211 0.20313708640667491 0 0.106902708054812 0.16453234188234539 0 0.083105206071467416 0.20007701332709979 0 0.106902708054812 0.16453234188234539 0 0.13737030665753211 0.20313708640667491 0 0.083105206071452636 0.79992298667296435 0 0.1382744753146134 0.79650574229207483 0 0.1074251789111534 0.83564394292147814 0 0.14474682429600511 0.85524784522713515 0 0.1074251789111534 0.83564394292147814 0 0.1382744753146134 0.79650574229207483 0 0.65408113592120842 0.073941773121567966 0 0.7010294155333181 0.056779085686491267 0 0.68330259535470161 0.10038702501083881 0 0.72525833953073282 0.1032114801687094 0 0.68330259535470161 0.10038702501083881 0 0.7010294155333181 0.056779085686491267 0 0.049706944316475897 0.72477277076253799 0 0.046634677244967337 0.671418230738282 0 0.1020579365089687 0.69352219419301997 0 0.086179601630648681 0.64647209519980475 0 0.1020579365089687 0.69352219419301997 0 0.046634677244967337 0.671418230738282 0 0.087545339447545459 0.35122518864182262 0 0.046389130980076937 0.32668781832131749 0 0.093851963071650835 0.30582068233324772 0 0.049706944316556423 0.27522722923869108 0 0.093851963071650835 0.30582068233324772 0 0.046389130980076937 0.32668781832131749 0 0.82709327591091286 0.84937141670920724 0 0.80041942726660109 0.81543261647703358 0 0.84725310900444062 0.80779732082917555 0 0.82709327591102189 0.14937141670914489 0 0.80076557130237269 0.1154587552654202 0 0.84725310900442086 0.10779732082922661 0 0.17933913398461551 0.2350063570234002 0 0.14377654328998779 0.2442024734791064 0 0.13737030665753211 0.20313708640667491 0 0.18269480424590959 0.75905448272264375 0 0.1382744753146134 0.79650574229207483 0 0.14335651144331049 0.75565258250209677 0 0.33758650185219202 0.23837101504325639 0 0.3786248352540974 0.27082301512024259 0 0.33402499257867951 0.28911035184473982 0 0.14332333627550789 0.14578431753966009 0 0.18124454140915969 0.18790916706335251 0 0.13737030665753211 0.20313708640667491 0 0.14474682429600511 0.85524784522713515 0 0.1382744753146134 0.79650574229207483 0 0.17777405986036951 0.81832336108265358 0 0.5 0.29999999999999999 0 0.52752007115234678 0.33170632466418198 0 0.49077833859261139 0.35229981449445641 0 0.27866744612395528 0.38416094670951489 0 0.29644548887253103 0.34914008784168082 0 0.33277555741076909 0.36432196682010132 0 0 0.84999999999965292 0 0 0.79999999999999982 0 0.038512288486097702 0.8155852717111195 0 0 0.20000000000083221 0 0 0.15000000000062411 0 0.038512288486115001 0.1844147282893184 0 0.40326160981139969 0.73346192995102844 0 0.35415581127540569 0.73730480045900215 0 0.36622285152418499 0.69092437780804039 0 0.91696753777131557 0.497780560203536 0 0.96228564064454991 0.48206450662049471 0 0.95631871884947484 0.51827533208233789 0 0.33758650185219202 0.23837101504325639 0 0.31255190597181792 0.19850845631528771 0 0.3572130504031617 0.1874703368446563 0 0.59814117807200873 0.23398510860739519 0 0.62657463266645097 0.26524202571255862 0 0.5794309697024993 0.27124795968204829 0 0.34258405725730701 0.4444034294386992 0 0.31068898841644388 0.47541502461811092 0 0.29124338931648802 0.43334555462578611 0 0.38083244760691543 0.38531983672244652 0 0.35221190152536241 0.40457127605439203 0 0.33277555741076909 0.36432196682010132 0 0.083411279318375747 0.91030024466934134 0 0.10266856499240549 0.95548163909968886 0 0.053064897599294662 0.95186845269532028 0 0.083411279318303222 0.089699755330707398 0 0.053064897599215843 0.048131547304697528 0 0.10266856499169109 0.044518360900210059 0 0.42377727103934271 0.25099357235810238 0 0.4604742573284204 0.27846934318264788 0 0.41914690343363781 0.30688979866601612 0 0.28307294598219601 0.50789252727458634 0 0.25982634974572738 0.46097799597715272 0 0.31068898841644388 0.47541502461811092 0 0.29348325746214782 0.31350119524708198 0 0.29132859388405002 0.27203693976649962 0 0.33402499257867951 0.28911035184473982 0 0.35312867752657662 0.084946736076730367 0 0.39823268594401579 0.1116623613130045 0 0.36246644853392812 0.1399454205365751 0 0.7000000000006934 1 0 0.68015064798562208 0.95924320340003011 0 0.7250000000005199 0.94981617647078953 0 0.42377727103934271 0.25099357235810238 0 0.38831533174504851 0.2189834941785925 0 0.42905200079338551 0.19982395548231649 0 0.53823865529665704 0.45873898050322898 0 0.57744073070774993 0.41535148636609359 0 0.57975577671020095 0.46172033326338591 0 0.33758650185219202 0.23837101504325639 0 0.3572130504031617 0.1874703368446563 0 0.38831533174504851 0.2189834941785925 0 0.29124338931648802 0.43334555462578611 0 0.31068898841644388 0.47541502461811092 0 0.25982634974572738 0.46097799597715272 0 0.6084546825910605 0.37989672713932537 0 0.61959173890754571 0.33832250091341232 0 0.65481233915350323 0.35652751921065562 0 0.40326160981139969 0.73346192995102844 0 0.43323420005758778 0.6913544522562407 0 0.45582236402875981 0.73896743678908217 0 0.33758650185219202 0.23837101504325639 0 0.28040350263641872 0.23054717217092141 0 0.31255190597181792 0.19850845631528771 0 0.79999999999999982 1 0 0.75000000000034661 1 0 0.770759834363826 0.95919399014344442 0 0.74999999999999989 0.29999999999999999 0 0.77075983436335049 0.25919399014334171 0 0.79999999999999982 0.29999999999999999 0 0.6499999999999998 0.29999999999999999 0 0.67933712972090698 0.25920070958121938 0 0.69999999999999984 0.29999999999999999 0 0.39536230704883951 0.84069429572832477 0 0.39767323751400468 0.89584229130535065 0 0.35864759629805099 0.87963482415279515 0 0.54999999999999993 0.69999999999999996 0 0.52584555706968406 0.66664215091846768 0 0.57484956128872922 0.66573805030881994 0 0.35312867752657662 0.084946736076730367 0 0.32541448401678508 0.046215317981507749 0 0.3615861437013822 0.03582617922508851 0 0.35752321586431363 0.9185439911803448 0 0.36184234618600131 0.96443954459096326 0 0.32544832635163229 0.95485394099568932 0 0.35312867752657662 0.084946736076730367 0 0.3615861437013822 0.03582617922508851 0 0.39591832466117061 0.056982757562006353 0 0.35752321586431363 0.9185439911803448 0 0.39641108128798319 0.94356127926187128 0 0.36184234618600131 0.96443954459096326 0 0.083411279318303222 0.089699755330707398 0 0.044310582753132287 0.101412518374475 0 0.053064897599215843 0.048131547304697528 0 0.083411279318375747 0.91030024466934134 0 0.053064897599294662 0.95186845269532028 0 0.0443105827531413 0.89858748162559932 0 0.38083244760691543 0.38531983672244652 0 0.40076539126862748 0.34589349467022118 0 0.42161023666869668 0.39493916313643851 0 0.4409427642593301 0.35743108089689513 0 0.42161023666869668 0.39493916313643851 0 0.40076539126862748 0.34589349467022118 0 0.79999999999999982 0.29999999999999999 0 0.82500000000000062 0.33010209762754811 0 0.78145581580700685 0.34881365920033602 0 0.79999999999999982 0.69999999999999996 0 0.7750489929959945 0.66593931409600093 0 0.82457059160610424 0.66831947184359608 0 0.59999999999999976 0.69999999999999996 0 0.57484956128872922 0.66573805030881994 0 0.62460753523532009 0.66851202781000296 0 0.74999999999999989 0.69999999999999996 0 0.72500000000000064 0.67022701834392062 0 0.7750489929959945 0.66593931409600093 0 0.74999999999999989 0.29999999999999999 0 0.78145581580700685 0.34881365920033602 0 0.73090396928863699 0.33699297293167962 0 0.33758650185219202 0.23837101504325639 0 0.33402499257867951 0.28911035184473982 0 0.29132859388405002 0.27203693976649962 0 0.36575549820117997 0.31677992835137742 0 0.41914690343363781 0.30688979866601612 0 0.40076539126862748 0.34589349467022118 0 0.4409427642593301 0.35743108089689513 0 0.40076539126862748 0.34589349467022118 0 0.41914690343363781 0.30688979866601612 0 0.34258405725730701 0.4444034294386992 0 0.38707855792647411 0.42299362914874578 0 0.3908716102680424 0.47010282357248828 0 0.7000000000006934 1 0 0.65000000000104008 1 0 0.68015064798562208 0.95924320340003011 0 0.49102375406324739 0.49123754822244059 0 0.46111841286828259 0.46690301029591341 0 0.48858720058566618 0.43964267759203868 0 0.4656888918609538 0.78493261229743638 0 0.42676259796334498 0.76772545931379299 0 0.45582236402875981 0.73896743678908217 0 0.40326160981139969 0.73346192995102844 0 0.45582236402875981 0.73896743678908217 0 0.42676259796334498 0.76772545931379299 0 0.59999999999999976 0.29999999999999999 0 0.62657463266645097 0.26524202571255862 0 0.6499999999999998 0.29999999999999999 0 0.40000000000166441 1 0 0.36184234618600131 0.96443954459096326 0 0.39641108128798319 0.94356127926187128 0 0.3999999999989749 0 0 0.39591832466117061 0.056982757562006353 0 0.3615861437013822 0.03582617922508851 0 0.43249999999999988 0.43937499999999979 0 0.48858720058566618 0.43964267759203868 0 0.46111841286828259 0.46690301029591341 0 0.7250000000005199 0.89375000000045834 0 0.7250000000005199 0.94981617647078953 0 0.68987011941058407 0.92105047536677087 0 0.7250000000005199 0.89375000000045834 0 0.75729602384198635 0.92353652857884294 0 0.7250000000005199 0.94981617647078953 0 0.72500000000001008 0.19776155966387679 0 0.75668890529066124 0.2244279804069782 0 0.72500000000000064 0.2498161764706 0 0.72500000000001008 0.19776155966387679 0 0.72500000000000064 0.2498161764706 0 0.69397719155551807 0.2245125647000914 0 0.79999999999999982 0.29999999999999999 0 0.81486180804364938 0.26321394949780091 0 0.84999999999999987 0.29999999999999999 0 0.84999999999965292 1 0 0.79999999999999982 1 0 0.81486180804382891 0.96321394949790495 0 0.1247745017231483 0.27198077544791172 0 0.095326043202144745 0.24554465089224409 0 0.14377654328998779 0.2442024734791064 0 0.1215415378367805 0.72939333680004137 0 0.14335651144331049 0.75565258250209677 0 0.090953281884486245 0.7564451946902494 0 0.72500000000001008 0.19776155966387679 0 0.72634814642510737 0.16106886917518889 0 0.76587607630038135 0.18880039518954719 0 0.72500000000001008 0.19776155966387679 0 0.6865991819015953 0.189116534044597 0 0.72634814642510737 0.16106886917518889 0 0.77144070960558853 0.14311854477243749 0 0.76587607630038135 0.18880039518954719 0 0.72634814642510737 0.16106886917518889 0 0.68391457121233579 0.14440470121196541 0 0.72634814642510737 0.16106886917518889 0 0.6865991819015953 0.189116534044597 0 0.7250000000005199 0.89375000000045834 0 0.72863726579783861 0.85390518901155588 0 0.76891166905518427 0.88835469571185499 0 0.76901770135486491 0.84293557325473656 0 0.76891166905518427 0.88835469571185499 0 0.72863726579783861 0.85390518901155588 0 0 0.20000000000083221 0 0.038512288486115001 0.1844147282893184 0 0.044081577119474857 0.2271058242433576 0 0 0.79999999999999982 0 0.04408157711937423 0.7728941757575627 0 0.038512288486097702 0.8155852717111195 0 0.52375890611712683 0.059318771819432882 0 0.47881186583059909 0.093591717165689425 0 0.47040171442036788 0.044141676406503738 0 0.52122150208832174 0.94089974453840242 0 0.47135117303824892 0.95556877749289892 0 0.47401147028110507 0.91529957330468115 0 0.27474541102162192 0.11822029332053539 0 0.3096713403101819 0.085471541595262421 0 0.32215584939770009 0.1218492143506909 0 0.22278230690790279 0.44824268025881547 0 0.24049127783545701 0.41270748208749802 0 0.25982634974572738 0.46097799597715272 0 0.93732437411268477 0.55911392101136159 0 0.91143117093204207 0.58709913730335972 0 0.90900154012161016 0.53607784105648792 0 0.19901705110390991 0.9175543425573498 0 0.24536017905392571 0.90704567837671446 0 0.22850979588452081 0.95594428570238643 0 0.27609987656793722 0.94991445621608572 0 0.22850979588452081 0.95594428570238643 0 0.24536017905392571 0.90704567837671446 0 0.15720202157091859 0.60665697304410315 0 0.1241190223511371 0.64391885572885044 0 0.1024350934457823 0.60772393977513839 0 0.6499999999999998 0.69999999999999996 0 0.675261390228442 0.65996937624687813 0 0.69999999999999984 0.69999999999999996 0 0.3999999999989749 0 0 0.4320097814748517 0.037406712692169303 0 0.39591832466117061 0.056982757562006353 0 0.40000000000166441 1 0 0.39641108128798319 0.94356127926187128 0 0.4308986359464303 0.96395712492906194 0 0.54999999999999993 0.29999999999999999 0 0.56836770495988642 0.3523062350852913 0 0.52752007115234678 0.33170632466418198 0 0.14474682429600511 0.85524784522713515 0 0.17777405986036951 0.81832336108265358 0 0.19741632902693801 0.86755867406447229 0 0.21858834311891909 0.81980263716112767 0 0.19741632902693801 0.86755867406447229 0 0.17777405986036951 0.81832336108265358 0 0.54782696902220018 0.79245182748204157 0 0.50731287292894423 0.78963574450233831 0 0.50945740445113552 0.75476055527778108 0 0.20000000000083221 1 0 0.18474005699953849 0.96231585248064622 0 0.22850979588452081 0.95594428570238643 0 0.19999999999955789 0 0 0.22668068146512929 0.045875643423131329 0 0.184418230509967 0.038773194583122873 0 0.77846603114747959 0.49850927265137401 0 0.73947346780852752 0.49062440112282169 0 0.77972660463949339 0.45529290596363098 0 0.73483647259922602 0.44789725365921768 0 0.77972660463949339 0.45529290596363098 0 0.73947346780852752 0.49062440112282169 0 0.34258405725730701 0.4444034294386992 0 0.35024835142131061 0.48654922671676981 0 0.31068898841644388 0.47541502461811092 0 0.33123028043633618 0.77629643437932982 0 0.2792923945214143 0.77665808831789485 0 0.29904318922293632 0.74132814928635593 0 0.26573297623774761 0.59828298563722948 0 0.25115337790845271 0.54719303014923271 0 0.29110487519241501 0.56588143995431495 0 0.4656888918609538 0.78493261229743638 0 0.50945740445113552 0.75476055527778108 0 0.50731287292894423 0.78963574450233831 0 0.35312867752657662 0.084946736076730367 0 0.36246644853392812 0.1399454205365751 0 0.32215584939770009 0.1218492143506909 0 0.29348325746214782 0.31350119524708198 0 0.25966125648670141 0.34351016742083729 0 0.24432083401701241 0.3006253385567515 0 0.59999999999999976 0.69999999999999996 0 0.6499999999999998 0.69999999999999996 0 0.63221990677827677 0.73442891067859706 0 0.69999999999921003 0 0 0.7010294155333181 0.056779085686491267 0 0.66369801598854572 0.036327466368102787 0 0.40000000000166441 1 0 0.35000000000145642 1 0 0.36184234618600131 0.96443954459096326 0 0.34999999999912063 0 0 0.3999999999989749 0 0 0.3615861437013822 0.03582617922508851 0 0.43507373378304309 0.49699695397193322 0 0.47793794143994173 0.52940715638744962 0 0.42644501560315817 0.54603747078095544 0 0.14474682429600511 0.85524784522713515 0 0.19741632902693801 0.86755867406447229 0 0.16206583317966519 0.89685560785156404 0 0.19901705110390991 0.9175543425573498 0 0.16206583317966519 0.89685560785156404 0 0.19741632902693801 0.86755867406447229 0 0.35864735590330371 0.63903383440414463 0 0.3977710372045391 0.65868194622830212 0 0.36622285152418499 0.69092437780804039 0 0.7527966693318906 0.053051678021508272 0 0.7010294155333181 0.056779085686491267 0 0.72683645290270404 0.027797073151180601 0 0.71508799138962864 0.36622814920737751 0 0.72622533758026719 0.40265885511101601 0 0.68128176404677243 0.38629093627004979 0 0.79999999999999982 0.69999999999999996 0 0.84999999999999987 0.69999999999999996 0 0.81864958914779962 0.73589050177899629 0 0.79999999999947335 0 0 0.84999999999960507 0 0 0.81864958914740749 0.035890501779055867 0 0.39536230704883951 0.84069429572832477 0 0.35642984951668422 0.80994399665655703 0 0.38586766253264881 0.78219501014812498 0 0.42377727103934271 0.25099357235810238 0 0.46429753744194407 0.22870891180733599 0 0.4604742573284204 0.27846934318264788 0 0.39801143831225599 0.16651381068160659 0 0.42905200079338551 0.19982395548231649 0 0.38831533174504851 0.2189834941785925 0 0.79999999999999982 1 0 0.770759834363826 0.95919399014344442 0 0.81486180804382891 0.96321394949790495 0 0.79999999999999982 0.29999999999999999 0 0.77075983436335049 0.25919399014334171 0 0.81486180804364938 0.26321394949780091 0 0.25195515620380449 0.25883339815888678 0 0.21049769590865089 0.26857363548218488 0 0.224700362040408 0.22206622194729711 0 0.40326160981139969 0.73346192995102844 0 0.42676259796334498 0.76772545931379299 0 0.38586766253264881 0.78219501014812498 0 0.35312867752657662 0.084946736076730367 0 0.3096713403101819 0.085471541595262421 0 0.32541448401678508 0.046215317981507749 0 0.59999999999999976 0.29999999999999999 0 0.6499999999999998 0.29999999999999999 0 0.61959173890754571 0.33832250091341232 0 0.2185883431182947 0.18019736283949719 0 0.18652628422869419 0.14162325200928061 0 0.22985637510995899 0.1298347970200906 0 0.64999999999907843 0 0 0.69999999999921003 0 0 0.66369801598854572 0.036327466368102787 0 0.27499999999933927 0.060310814194988557 0 0.24218496799700481 0.089025544070598317 0 0.22668068146512929 0.045875643423131329 0 0.19922788606653311 0.085920220746880993 0 0.22668068146512929 0.045875643423131329 0 0.24218496799700481 0.089025544070598317 0 0.65507451745379841 0.92229208810758578 0 0.66412543161245952 0.88015090885499059 0 0.68987011941058407 0.92105047536677087 0 0.049706944316475897 0.72477277076253799 0 0.090953281884486245 0.7564451946902494 0 0.04408157711937423 0.7728941757575627 0 0.083105206071452636 0.79992298667296435 0 0.04408157711937423 0.7728941757575627 0 0.090953281884486245 0.7564451946902494 0 0.083105206071467416 0.20007701332709979 0 0.095326043202144745 0.24554465089224409 0 0.044081577119474857 0.2271058242433576 0 0.049706944316556423 0.27522722923869108 0 0.044081577119474857 0.2271058242433576 0 0.095326043202144745 0.24554465089224409 0 0.36575549820117997 0.31677992835137742 0 0.33402499257867951 0.28911035184473982 0 0.3786248352540974 0.27082301512024259 0 0.53245488764484505 0.55078124999999989 0 0.53330375813596242 0.50827942741749099 0 0.57435499076887508 0.54267261987897775 0 0.57611405284611883 0.50165903596042916 0 0.57435499076887508 0.54267261987897775 0 0.53330375813596242 0.50827942741749099 0 0.6499999999999998 0.29999999999999999 0 0.69999999999999984 0.29999999999999999 0 0.68887083591306764 0.33632058575757479 0 0.57611405284611883 0.50165903596042916 0 0.53823865529665704 0.45873898050322898 0 0.57975577671020095 0.46172033326338591 0 0.7750489929959945 0.66593931409600093 0 0.72500000000000064 0.67022701834392062 0 0.74994237037456724 0.62775548192980357 0 0.78145581580700685 0.34881365920033602 0 0.74764719760526988 0.3719647154012321 0 0.73090396928863699 0.33699297293167962 0 0.3999999999989749 0 0 0.44999999999882923 0 0 0.4320097814748517 0.037406712692169303 0 0.45000000000187229 1 0 0.40000000000166441 1 0 0.4308986359464303 0.96395712492906194 0 0.57484956128872922 0.66573805030881994 0 0.5991018319127801 0.62925360607495295 0 0.62460753523532009 0.66851202781000296 0 0.7750489929959945 0.66593931409600093 0 0.79884539758237771 0.62875045078114233 0 0.82457059160610424 0.66831947184359608 0 0.39801143831225599 0.16651381068160659 0 0.36246644853392812 0.1399454205365751 0 0.39823268594401579 0.1116623613130045 0 0.078358742472063481 0.43365249433908948 0 0.033550201249889847 0.46247875832467239 0 0.035463093262830522 0.42673416072819947 0 0.25676291524611189 0.7436741304886243 0 0.2792923945214143 0.77665808831789485 0 0.22556077506376701 0.77837424984191617 0 0.2236846579037573 0.67380363126050236 0 0.2248999640082178 0.72584299459689172 0 0.19068556247388771 0.71028988922845504 0 0.50715858906372158 0.63295939104129484 0 0.5166924242153631 0.59825134841919447 0 0.5498280205245758 0.6290146943450976 0 0.14618258501891079 0.062070108745602003 0 0.12372429750337779 0.095814237875728972 0 0.10266856499169109 0.044518360900210059 0 0.083411279318303222 0.089699755330707398 0 0.10266856499169109 0.044518360900210059 0 0.12372429750337779 0.095814237875728972 0 0.083411279318375747 0.91030024466934134 0 0.1241151115713819 0.9045666525468371 0 0.10266856499240549 0.95548163909968886 0 0.14617343800780541 0.93808063414349496 0 0.10266856499240549 0.95548163909968886 0 0.1241151115713819 0.9045666525468371 0 0.5499999999988151 0 0 0.59999999999894682 0 0 0.57396793757665954 0.037011367187645222 0 0.54782696902220018 0.79245182748204157 0 0.50627822638148745 0.8263979829520941 0 0.50731287292894423 0.78963574450233831 0 0.6499999999999998 0.29999999999999999 0 0.62657463266645097 0.26524202571255862 0 0.67933712972090698 0.25920070958121938 0 0.86956835336234861 0.571283299838105 0 0.86907294890112186 0.52008116128001669 0 0.90900154012161016 0.53607784105648792 0 0.17933913398461551 0.2350063570234002 0 0.224700362040408 0.22206622194729711 0 0.21049769590865089 0.26857363548218488 0 0.43249999999999988 0.43937499999999979 0 0.3908716102680424 0.47010282357248828 0 0.38707855792647411 0.42299362914874578 0 0.27474541102162192 0.11822029332053539 0 0.22985637510995899 0.1298347970200906 0 0.24218496799700481 0.089025544070598317 0 0.64753070846764316 0.77332939069435502 0 0.66427993341343905 0.73232764502436276 0 0.6916490518212759 0.75387992374886192 0 0 0.40000000000166441 0 0.050583896093752537 0.38543522283434112 0 0.035463093262830522 0.42673416072819947 0 0.73483647259922602 0.44789725365921768 0 0.73947346780852752 0.49062440112282169 0 0.69385896817107129 0.48377516041410151 0 0.57484956128872922 0.66573805030881994 0 0.52584555706968406 0.66664215091846768 0 0.5498280205245758 0.6290146943450976 0 0.60000000000138687 1 0 0.55000000000173355 1 0 0.57382506491224949 0.9629411906298494 0 0.068743045408989428 0.48853989837882689 0 0.085622222639554768 0.53333248912060549 0 0.044576108720083309 0.53509043209532614 0 0.083105206071467416 0.20007701332709979 0 0.044081577119474857 0.2271058242433576 0 0.038512288486115001 0.1844147282893184 0 0.083105206071452636 0.79992298667296435 0 0.038512288486097702 0.8155852717111195 0 0.04408157711937423 0.7728941757575627 0 0.28307294598219601 0.50789252727458634 0 0.23975172658309729 0.49475499200540818 0 0.25982634974572738 0.46097799597715272 0 0.43698630808430822 0.080423614171545449 0 0.39591832466117061 0.056982757562006353 0 0.4320097814748517 0.037406712692169303 0 0.4367309254023824 0.92065556789053882 0 0.4308986359464303 0.96395712492906194 0 0.39641108128798319 0.94356127926187128 0 0.80185942888539485 0.77452061303608133 0 0.75841349681148107 0.75422312624214749 0 0.78578450296893509 0.73292684821144505 0 0.80185942888501827 0.074520613036224564 0 0.7527966693318906 0.053051678021508272 0 0.78393852574753176 0.032039079577822822 0 0.6499999999999998 0.69999999999999996 0 0.62460753523532009 0.66851202781000296 0 0.675261390228442 0.65996937624687813 0 0.33123028043633618 0.77629643437932982 0 0.38586766253264881 0.78219501014812498 0 0.35642984951668422 0.80994399665655703 0 0.6405463747586706 0.63290524857395714 0 0.675261390228442 0.65996937624687813 0 0.62460753523532009 0.66851202781000296 0 0.22278230690790279 0.44824268025881547 0 0.191953871957803 0.42546416763755879 0 0.24049127783545701 0.41270748208749802 0 0.077693244765132896 0.56932317963405099 0 0.050069554451969707 0.61308520079857043 0 0.034381862692950467 0.57372682250960894 0 0.25195515620380449 0.25883339815888678 0 0.24432083401701241 0.3006253385567515 0 0.21049769590865089 0.26857363548218488 0 0.46666084890304671 0.57634471035397938 0 0.5166924242153631 0.59825134841919447 0 0.47095389620662098 0.61892551373708504 0 0.50715858906372158 0.63295939104129484 0 0.47095389620662098 0.61892551373708504 0 0.5166924242153631 0.59825134841919447 0 0.72525833953073282 0.1032114801687094 0 0.7527966693318906 0.053051678021508272 0 0.76878382444651716 0.097147941686331368 0 0.80185942888501827 0.074520613036224564 0 0.76878382444651716 0.097147941686331368 0 0.7527966693318906 0.053051678021508272 0 0.72500000000000064 0.7952620967744265 0 0.75841349681148107 0.75422312624214749 0 0.77094201086366854 0.79647480515688507 0 0.80185942888539485 0.77452061303608133 0 0.77094201086366854 0.79647480515688507 0 0.75841349681148107 0.75422312624214749 0 0.72500000000000064 0.7952620967744265 0 0.68024162096458085 0.79868546898116533 0 0.6916490518212759 0.75387992374886192 0 0.64753070846764316 0.77332939069435502 0 0.6916490518212759 0.75387992374886192 0 0.68024162096458085 0.79868546898116533 0 0 0.50000000000205869 0 0 0.45000000000187229 0 0.033550201249889847 0.46247875832467239 0 0.69999999999999984 0.69999999999999996 0 0.675261390228442 0.65996937624687813 0 0.72500000000000064 0.67022701834392062 0 0.71406021706547751 0.63292083137662503 0 0.72500000000000064 0.67022701834392062 0 0.675261390228442 0.65996937624687813 0 0.65408113592120842 0.073941773121567966 0 0.61940220174112337 0.047251958781050582 0 0.66369801598854572 0.036327466368102787 0 0.59999999999894682 0 0 0.61940220174112337 0.047251958781050582 0 0.57396793757665954 0.037011367187645222 0 0.60000000000138687 1 0 0.57382506491224949 0.9629411906298494 0 0.62065498684670595 0.95224934003983619 0 0.33122374654748771 0.57588941099433744 0 0.35765792684946668 0.6000687869219653 0 0.31502927232353312 0.6134992213375432 0 0.35864735590330371 0.63903383440414463 0 0.31502927232353312 0.6134992213375432 0 0.35765792684946668 0.6000687869219653 0 0.15801167086041079 0.46008690540259539 0 0.19604738184454831 0.47787523520405789 0 0.16618607197337229 0.50652878253548905 0 0.078358742472063481 0.43365249433908948 0 0.035463093262830522 0.42673416072819947 0 0.050583896093752537 0.38543522283434112 0 0.19901705110390991 0.9175543425573498 0 0.22850979588452081 0.95594428570238643 0 0.18474005699953849 0.96231585248064622 0 0.19922788606653311 0.085920220746880993 0 0.184418230509967 0.038773194583122873 0 0.22668068146512929 0.045875643423131329 0 0.19922788606653311 0.085920220746880993 0 0.24218496799700481 0.089025544070598317 0 0.22985637510995899 0.1298347970200906 0 0.74999999999999989 0.69999999999999996 0 0.78578450296893509 0.73292684821144505 0 0.75841349681148107 0.75422312624214749 0 0.74999999999934175 0 0 0.78393852574753176 0.032039079577822822 0 0.7527966693318906 0.053051678021508272 0 0 0.60000000000138687 0 0.034381862692950467 0.57372682250960894 0 0.050069554451969707 0.61308520079857043 0 0.2236846579037573 0.67380363126050236 0 0.26439878998046262 0.7048065392091396 0 0.2248999640082178 0.72584299459689172 0 0.6236733212988993 0.14864538214901801 0 0.58516465772821369 0.11653801664834119 0 0.61956000905586006 0.1043312481793135 0 0.26104540868854792 0.81401944968719064 0 0.2792923945214143 0.77665808831789485 0 0.30857225866488791 0.81101973481716805 0 0.42377727103934271 0.25099357235810238 0 0.42905200079338551 0.19982395548231649 0 0.46429753744194407 0.22870891180733599 0 0.27820712747429932 0.65530134213254643 0 0.31502927232353312 0.6134992213375432 0 0.32263089806001177 0.66003674931826484 0 0.61343887413683884 0.856862479058357 0 0.61885627562261258 0.90282959257498208 0 0.5832743223239254 0.88483152652961872 0 0.43698630808430822 0.080423614171545449 0 0.47040171442036788 0.044141676406503738 0 0.47881186583059909 0.093591717165689425 0 0.4367309254023824 0.92065556789053882 0 0.47401147028110507 0.91529957330468115 0 0.47135117303824892 0.95556877749289892 0 0.91696753777131557 0.497780560203536 0 0.95631871884947484 0.51827533208233789 0 0.90900154012161016 0.53607784105648792 0 0.93732437411268477 0.55911392101136159 0 0.90900154012161016 0.53607784105648792 0 0.95631871884947484 0.51827533208233789 0 0.27474541102162192 0.11822029332053539 0 0.25557216766470708 0.15874861286892261 0 0.22985637510995899 0.1298347970200906 0 0.2185883431182947 0.18019736283949719 0 0.22985637510995899 0.1298347970200906 0 0.25557216766470708 0.15874861286892261 0 0.29348325746214782 0.31350119524708198 0 0.33402499257867951 0.28911035184473982 0 0.32752639306529541 0.32610012995269699 0 0.27499999999933927 0.060310814194988557 0 0.32541448401678508 0.046215317981507749 0 0.3096713403101819 0.085471541595262421 0 0.27270076654418179 0.87751467830216623 0 0.24536017905392571 0.90704567837671446 0 0.2401283238295133 0.85648409884788523 0 1 0.44999999999963131 0 1 0.49999999999950101 0 0.96228564064454991 0.48206450662049471 0 0.61343887413683884 0.856862479058357 0 0.66412543161245952 0.88015090885499059 0 0.61885627562261258 0.90282959257498208 0 0 0.45000000000187229 0 0 0.40000000000166441 0 0.035463093262830522 0.42673416072819947 0 0.69999999999999984 0.69999999999999996 0 0.6916490518212759 0.75387992374886192 0 0.66427993341343905 0.73232764502436276 0 0.43846182030517877 0.64845797726506715 0 0.43323420005758778 0.6913544522562407 0 0.3977710372045391 0.65868194622830212 0 0.4367309254023824 0.92065556789053882 0 0.44003836461056539 0.88093474584252718 0 0.47401147028110507 0.91529957330468115 0 0.43846182030517877 0.64845797726506715 0 0.39743091024207589 0.6239520004230239 0 0.43545892161006339 0.61093128915313821 0 0.43846182030517877 0.64845797726506715 0 0.3977710372045391 0.65868194622830212 0 0.39743091024207589 0.6239520004230239 0 0.26429849586623999 0.19346700179430079 0 0.29336099386129338 0.15892013001050981 0 0.31255190597181792 0.19850845631528771 0 0.19670163708476801 0.31472518408333222 0 0.21049769590865089 0.26857363548218488 0 0.24432083401701241 0.3006253385567515 0 0.57724883562309992 0.92155686857100794 0 0.62065498684670595 0.95224934003983619 0 0.57382506491224949 0.9629411906298494 0 0.4409427642593301 0.35743108089689513 0 0.46655310992796922 0.39650496622958609 0 0.42161023666869668 0.39493916313643851 0 0.46666084890304671 0.57634471035397938 0 0.47095389620662098 0.61892551373708504 0 0.43545892161006339 0.61093128915313821 0 0.6879972333610942 0.43038561374960838 0 0.65178832218679827 0.45929119821019959 0 0.63912439215427275 0.41063340167983359 0 0.43698630808430822 0.080423614171545449 0 0.4320097814748517 0.037406712692169303 0 0.47040171442036788 0.044141676406503738 0 0.4367309254023824 0.92065556789053882 0 0.47135117303824892 0.95556877749289892 0 0.4308986359464303 0.96395712492906194 0 0.79680861578988083 0.92656778056766709 0 0.81486180804382891 0.96321394949790495 0 0.770759834363826 0.95919399014344442 0 0.79680861578956375 0.22656778056752541 0 0.81486180804364938 0.26321394949780091 0 0.77075983436335049 0.25919399014334171 0 0.71508799138962864 0.36622814920737751 0 0.68128176404677243 0.38629093627004979 0 0.68887083591306764 0.33632058575757479 0 0.35864735590330371 0.63903383440414463 0 0.32263089806001177 0.66003674931826484 0 0.31502927232353312 0.6134992213375432 0 0.21858834311891909 0.81980263716112767 0 0.2401283238295133 0.85648409884788523 0 0.19741632902693801 0.86755867406447229 0 0.35312867752657662 0.084946736076730367 0 0.32215584939770009 0.1218492143506909 0 0.3096713403101819 0.085471541595262421 0 0.35752321586431363 0.9185439911803448 0 0.35864759629805099 0.87963482415279515 0 0.39767323751400468 0.89584229130535065 0 0.41914690343363781 0.30688979866601612 0 0.4604742573284204 0.27846934318264788 0 0.46226845272279993 0.31901800744800313 0 0.33084213324567391 0.16272720141332131 0 0.32215584939770009 0.1218492143506909 0 0.36246644853392812 0.1399454205365751 0 0.46666084890304671 0.57634471035397938 0 0.42644501560315817 0.54603747078095544 0 0.47793794143994173 0.52940715638744962 0 0 0.60000000000138687 0 0 0.55000000000173355 0 0.034381862692950467 0.57372682250960894 0 0.77354604466818633 0.40378688774472771 0 0.74764719760526988 0.3719647154012321 0 0.78145581580700685 0.34881365920033602 0 0.34999999999912063 0 0 0.3615861437013822 0.03582617922508851 0 0.32541448401678508 0.046215317981507749 0 0.35000000000145642 1 0 0.32544832635163229 0.95485394099568932 0 0.36184234618600131 0.96443954459096326 0 0.57667858002728545 0.078486105337742612 0 0.57396793757665954 0.037011367187645222 0 0.61940220174112337 0.047251958781050582 0 0.47357141910802508 0.1873585799078378 0 0.50760557329222289 0.20700468884612061 0 0.46429753744194407 0.22870891180733599 0 0.49695729691142171 0.25014895411178018 0 0.46429753744194407 0.22870891180733599 0 0.50760557329222289 0.20700468884612061 0 0.33084213324567391 0.16272720141332131 0 0.3572130504031617 0.1874703368446563 0 0.31255190597181792 0.19850845631528771 0 0.6879972333610942 0.43038561374960838 0 0.63912439215427275 0.41063340167983359 0 0.68128176404677243 0.38629093627004979 0 0.65408113592120842 0.073941773121567966 0 0.65290632656860115 0.11434202593454081 0 0.61956000905586006 0.1043312481793135 0 0.33084213324567391 0.16272720141332131 0 0.31255190597181792 0.19850845631528771 0 0.29336099386129338 0.15892013001050981 0 0.61209567303293111 0.44669033081290321 0 0.63912439215427275 0.41063340167983359 0 0.65178832218679827 0.45929119821019959 0 0.086179601630648681 0.64647209519980475 0 0.1024350934457823 0.60772393977513839 0 0.1241190223511371 0.64391885572885044 0 0.44999999999882923 0 0 0.47040171442036788 0.044141676406503738 0 0.4320097814748517 0.037406712692169303 0 0.45000000000187229 1 0 0.4308986359464303 0.96395712492906194 0 0.47135117303824892 0.95556877749289892 0 0.74999999999934175 0 0 0.7527966693318906 0.053051678021508272 0 0.72683645290270404 0.027797073151180601 0 0.74999999999999989 0.69999999999999996 0 0.75841349681148107 0.75422312624214749 0 0.72501250972655151 0.74067302935308721 0 0.69999999999999984 0.69999999999999996 0 0.72501250972655151 0.74067302935308721 0 0.6916490518212759 0.75387992374886192 0 0.74999999999934175 0 0 0.79999999999947335 0 0 0.78393852574753176 0.032039079577822822 0 0.74999999999999989 0.69999999999999996 0 0.79999999999999982 0.69999999999999996 0 0.78578450296893509 0.73292684821144505 0 0.6405463747586706 0.63290524857395714 0 0.5991018319127801 0.62925360607495295 0 0.63065402604362242 0.59661356661633302 0 0.65481233915350323 0.35652751921065562 0 0.68887083591306764 0.33632058575757479 0 0.68128176404677243 0.38629093627004979 0 0.89999999999999991 0.29999999999999999 0 0.94999999999999996 0.29999999999999999 0 0.92012390126144183 0.33123581297173937 0 0.89999999999999991 0.69999999999999996 0 0.92057473616084773 0.66770436535372446 0 0.94999999999999996 0.69999999999999996 0 0.4367309254023824 0.92065556789053882 0 0.39767323751400468 0.89584229130535065 0 0.44003836461056539 0.88093474584252718 0 0.2185883431182947 0.18019736283949719 0 0.18124454140915969 0.18790916706335251 0 0.18652628422869419 0.14162325200928061 0 0.20050006573841939 0.53248514016039872 0 0.19604738184454831 0.47787523520405789 0 0.23975172658309729 0.49475499200540818 0 0.65507451745379841 0.92229208810758578 0 0.61885627562261258 0.90282959257498208 0 0.66412543161245952 0.88015090885499059 0 0.65394964615507722 0.22666784374016369 0 0.67933712972090698 0.25920070958121938 0 0.62657463266645097 0.26524202571255862 0 0.077693244765132896 0.56932317963405099 0 0.034381862692950467 0.57372682250960894 0 0.044576108720083309 0.53509043209532614 0 0.39801143831225599 0.16651381068160659 0 0.38831533174504851 0.2189834941785925 0 0.3572130504031617 0.1874703368446563 0 0.6499999999999998 0.69999999999999996 0 0.69999999999999984 0.69999999999999996 0 0.66427993341343905 0.73232764502436276 0 0.1215415378367805 0.72939333680004137 0 0.15332765547575641 0.71200081858233666 0 0.14335651144331049 0.75565258250209677 0 0.6405463747586706 0.63290524857395714 0 0.63065402604362242 0.59661356661633302 0 0.67529834988829951 0.61613270668143583 0 0.67323294229744413 0.57556450033612505 0 0.67529834988829951 0.61613270668143583 0 0.63065402604362242 0.59661356661633302 0 0.91750694127107502 0.36982372220068471 0 0.87430060258887643 0.34056085888204451 0 0.92012390126144183 0.33123581297173937 0 0.89999999999999991 0.29999999999999999 0 0.92012390126144183 0.33123581297173937 0 0.87430060258887643 0.34056085888204451 0 0.89999999999999991 0.69999999999999996 0 0.87712158428786946 0.65709029563313581 0 0.92057473616084773 0.66770436535372446 0 0.91750694127105259 0.63017627779935648 0 0.92057473616084773 0.66770436535372446 0 0.87712158428786946 0.65709029563313581 0 0.33122374654748771 0.57588941099433744 0 0.29110487519241501 0.56588143995431495 0 0.33190227185843768 0.52715113583864037 0 0.57484956128872922 0.66573805030881994 0 0.5498280205245758 0.6290146943450976 0 0.5991018319127801 0.62925360607495295 0 0.57412547362576272 0.58273804879550706 0 0.5991018319127801 0.62925360607495295 0 0.5498280205245758 0.6290146943450976 0 0.65408113592120842 0.073941773121567966 0 0.66369801598854572 0.036327466368102787 0 0.7010294155333181 0.056779085686491267 0 0.27474541102162192 0.11822029332053539 0 0.32215584939770009 0.1218492143506909 0 0.29336099386129338 0.15892013001050981 0 0.33084213324567391 0.16272720141332131 0 0.29336099386129338 0.15892013001050981 0 0.32215584939770009 0.1218492143506909 0 0.5 0.29999999999999999 0 0.54999999999999993 0.29999999999999999 0 0.52752007115234678 0.33170632466418198 0 0.83573492347052902 0.36590755630746369 0 0.87430060258887643 0.34056085888204451 0 0.86844634540301924 0.38530937474099819 0 0.83758014339878906 0.63222013025741819 0 0.87159648282691515 0.61285406320581504 0 0.87712158428786946 0.65709029563313581 0 0.22278230690790279 0.44824268025881547 0 0.23975172658309729 0.49475499200540818 0 0.19604738184454831 0.47787523520405789 0 1 0.49999999999950101 0 0.95631871884947484 0.51827533208233789 0 0.96228564064454991 0.48206450662049471 0 0.1650278706801647 0.38791388161335733 0 0.13773355295499351 0.42497777642586831 0 0.1117088112799664 0.38831403004970022 0 0.61209567303293111 0.44669033081290321 0 0.57975577671020095 0.46172033326338591 0 0.57744073070774993 0.41535148636609359 0 0.077693244765132896 0.56932317963405099 0 0.1154888278694548 0.56733818459978413 0 0.1024350934457823 0.60772393977513839 0 0.68697391633157634 0.84450604838764298 0 0.65005442820240822 0.82644988530054031 0 0.68024162096458085 0.79868546898116533 0 0.76901770135486491 0.84293557325473656 0 0.77094201086366854 0.79647480515688507 0 0.80041942726660109 0.81543261647703358 0 0.77144070960558853 0.14311854477243749 0 0.76878382444651716 0.097147941686331368 0 0.80076557130237269 0.1154587552654202 0 0.5 0.69999999999999996 0 0.52584555706968406 0.66664215091846768 0 0.54999999999999993 0.69999999999999996 0 0.077693244765132896 0.56932317963405099 0 0.044576108720083309 0.53509043209532614 0 0.085622222639554768 0.53333248912060549 0 0.69999999999921003 0 0 0.72683645290270404 0.027797073151180601 0 0.7010294155333181 0.056779085686491267 0 1 0 0 0.97166519676946894 0.033371144900598393 0 0.94999999999986839 0 0 1 0.69999999999999996 0 0.97166519676947294 0.73337114490064459 0 0.94999999999999996 0.69999999999999996 0 1 0.69999999999999996 0 1 0.74999999999993494 0 0.97166519676947294 0.73337114490064459 0 1 0.29999999999999999 0 0.97166519676951801 0.26662885509932011 0 1 0.24999999999987299 0 1 1 0 0.94999999999979179 1 0 0.97166519676946206 0.96662885509935492 0 1 0 0 1 0.049999999999896842 0 0.97166519676946894 0.033371144900598393 0 1 0.29999999999999999 0 0.94999999999999996 0.29999999999999999 0 0.97166519676951801 0.26662885509932011 0 1 1 0 0.97166519676946206 0.96662885509935492 0 1 0.94999999999997109 0 0 0.55000000000173355 0 0.044576108720083309 0.53509043209532614 0 0.034381862692950467 0.57372682250960894 0 0.6879972333610942 0.43038561374960838 0 0.69385896817107129 0.48377516041410151 0 0.65178832218679827 0.45929119821019959 0 0.33084213324567391 0.16272720141332131 0 0.36246644853392812 0.1399454205365751 0 0.3572130504031617 0.1874703368446563 0 0.65408113592120842 0.073941773121567966 0 0.68330259535470161 0.10038702501083881 0 0.65290632656860115 0.11434202593454081 0 0.16500388252850301 0.66612077714085194 0 0.19068556247388771 0.71028988922845504 0 0.15332765547575641 0.71200081858233666 0 0.82709327591091286 0.84937141670920724 0 0.85600844944837662 0.88483418979512773 0 0.81159157511211755 0.88795995483179491 0 0.82709327591102189 0.14937141670914489 0 0.85600844944842547 0.1848341897950983 0 0.81283102246527783 0.1881007222486438 0 0.79999999999999982 0.29999999999999999 0 0.84999999999999987 0.29999999999999999 0 0.82500000000000062 0.33010209762754811 0 0.79999999999999982 0.69999999999999996 0 0.82457059160610424 0.66831947184359608 0 0.84999999999999987 0.69999999999999996 0 0.59999999999999976 0.69999999999999996 0 0.62460753523532009 0.66851202781000296 0 0.6499999999999998 0.69999999999999996 0 0.39801143831225599 0.16651381068160659 0 0.3572130504031617 0.1874703368446563 0 0.36246644853392812 0.1399454205365751 0 0.69999999999999984 0.29999999999999999 0 0.74999999999999989 0.29999999999999999 0 0.73090396928863699 0.33699297293167962 0 0.69999999999999984 0.69999999999999996 0 0.72500000000000064 0.67022701834392062 0 0.74999999999999989 0.69999999999999996 0 0.6236733212988993 0.14864538214901801 0 0.64011864159029941 0.18789607982138171 0 0.59443395090188023 0.18455690917515069 0 0.20050006573841939 0.53248514016039872 0 0.16618607197337229 0.50652878253548905 0 0.19604738184454831 0.47787523520405789 0 0.79680861578956375 0.22656778056752541 0 0.76587607630038135 0.18880039518954719 0 0.81283102246527783 0.1881007222486438 0 0.79680861578988083 0.92656778056766709 0 0.76891166905518427 0.88835469571185499 0 0.81159157511211755 0.88795995483179491 0 0.71406021706547751 0.63292083137662503 0 0.675261390228442 0.65996937624687813 0 0.67529834988829951 0.61613270668143583 0 0.6405463747586706 0.63290524857395714 0 0.67529834988829951 0.61613270668143583 0 0.675261390228442 0.65996937624687813 0 0.19670163708476801 0.31472518408333222 0 0.168349569971391 0.28054490850913671 0 0.21049769590865089 0.26857363548218488 0 0.47357141910802508 0.1873585799078378 0 0.46429753744194407 0.22870891180733599 0 0.42905200079338551 0.19982395548231649 0 0.59814117807200873 0.23398510860739519 0 0.5794309697024993 0.27124795968204829 0 0.54248833945060504 0.2520322959927106 0 0.6541250972820879 0.49999999999999989 0 0.65178832218679827 0.45929119821019959 0 0.69385896817107129 0.48377516041410151 0 0.54999999999999993 0.29999999999999999 0 0.5794309697024993 0.27124795968204829 0 0.59999999999999976 0.29999999999999999 0 0.7750489929959945 0.66593931409600093 0 0.74994237037456724 0.62775548192980357 0 0.79884539758237771 0.62875045078114233 0 0.77293540622714185 0.59448302402785813 0 0.79884539758237771 0.62875045078114233 0 0.74994237037456724 0.62775548192980357 0 0.14332333627550789 0.14578431753966009 0 0.16141998738593399 0.10404039647458049 0 0.18652628422869419 0.14162325200928061 0 0.38083244760691543 0.38531983672244652 0 0.42161023666869668 0.39493916313643851 0 0.38707855792647411 0.42299362914874578 0 0.43249999999999988 0.43937499999999979 0 0.38707855792647411 0.42299362914874578 0 0.42161023666869668 0.39493916313643851 0 0.43846182030517877 0.64845797726506715 0 0.47095389620662098 0.61892551373708504 0 0.47913475093885149 0.66010775372412711 0 0.50715858906372158 0.63295939104129484 0 0.47913475093885149 0.66010775372412711 0 0.47095389620662098 0.61892551373708504 0 0.69999999999999984 0.69999999999999996 0 0.74999999999999989 0.69999999999999996 0 0.72501250972655151 0.74067302935308721 0 0.4089290844030305 0.58728915500154233 0 0.35765792684946668 0.6000687869219653 0 0.37272913873093971 0.56192925302619479 0 0.69999999999921003 0 0 0.74999999999934175 0 0 0.72683645290270404 0.027797073151180601 0 0.17933913398461551 0.2350063570234002 0 0.21049769590865089 0.26857363548218488 0 0.168349569971391 0.28054490850913671 0 0.14474682429600511 0.85524784522713515 0 0.10562472963403439 0.87143394428979881 0 0.1074251789111534 0.83564394292147814 0 0.14332333627550789 0.14578431753966009 0 0.106902708054812 0.16453234188234539 0 0.1053400320299198 0.12877248826361379 0 0.2236846579037573 0.67380363126050236 0 0.19914261668318661 0.62286739485272158 0 0.2459498854893499 0.63248470766216769 0 0.049999999999899652 0 0 0.053064897599215843 0.048131547304697528 0 0.02576622439977887 0.024532886826226379 0 0 0.050000000000207989 0 0.02576622439977887 0.024532886826226379 0 0.053064897599215843 0.048131547304697528 0 0.050000000000207989 1 0 0.025766224399875661 0.97546711317377799 0 0.053064897599294662 0.95186845269532028 0 0 0.94999999999979179 0 0.053064897599294662 0.95186845269532028 0 0.025766224399875661 0.97546711317377799 0 0.47357141910802508 0.1873585799078378 0 0.48466639505193998 0.1421439844745814 0 0.51729576145820033 0.1683240575987815 0 0.077693244765132896 0.56932317963405099 0 0.085622222639554768 0.53333248912060549 0 0.1154888278694548 0.56733818459978413 0 0.64753070846764316 0.77332939069435502 0 0.63221990677827677 0.73442891067859706 0 0.66427993341343905 0.73232764502436276 0 0.4656888918609538 0.78493261229743638 0 0.42609163930740518 0.80361684430568059 0 0.42676259796334498 0.76772545931379299 0 0.4089290844030305 0.58728915500154233 0 0.39743091024207589 0.6239520004230239 0 0.35765792684946668 0.6000687869219653 0 0.55306006949600994 0.20198184231352201 0 0.50760557329222289 0.20700468884612061 0 0.51729576145820033 0.1683240575987815 0 1 0.8999999999998336 0 1 0.94999999999997109 0 0.97435614836744289 0.92499999999990257 0 1 0.19999999999974799 0 1 0.24999999999987299 0 0.97435614836740092 0.22499999999981049 0 1 0.74999999999993494 0 1 0.7999999999998193 0 0.97435614836745565 0.77499999999987745 0 1 0.049999999999896842 0 1 0.099999999999753911 0 0.97435614836748241 0.074999999999825387 0 0.86411095495256451 0.42388805655111889 0 0.86844634540301924 0.38530937474099819 0 0.90594285160987287 0.4141265964174129 0 0.86956835336234861 0.571283299838105 0 0.91143117093204207 0.58709913730335972 0 0.87159648282691515 0.61285406320581504 0 0 0 0 0.02576622439977887 0.024532886826226379 0 0 0.050000000000207989 0 0 1 0 0 0.94999999999979179 0 0.025766224399875661 0.97546711317377799 0 0 1 0 0.025766224399875661 0.97546711317377799 0 0.050000000000207989 1 0 0 0 0 0.049999999999899652 0 0 0.02576622439977887 0.024532886826226379 0 0.65394964615507722 0.22666784374016369 0 0.64011864159029941 0.18789607982138171 0 0.6865991819015953 0.189116534044597 0 0.25195515620380449 0.25883339815888678 0 0.28040350263641872 0.23054717217092141 0 0.29132859388405002 0.27203693976649962 0 0.61209567303293111 0.44669033081290321 0 0.65178832218679827 0.45929119821019959 0 0.61547661924074692 0.48539576058873962 0 0.6541250972820879 0.49999999999999989 0 0.61547661924074692 0.48539576058873962 0 0.65178832218679827 0.45929119821019959 0 0.19670163708476801 0.31472518408333222 0 0.24432083401701241 0.3006253385567515 0 0.22615676742807109 0.33458786033114157 0 0.15801167086041079 0.46008690540259539 0 0.13773355295499351 0.42497777642586831 0 0.191953871957803 0.42546416763755879 0 0.1650278706801647 0.38791388161335733 0 0.191953871957803 0.42546416763755879 0 0.13773355295499351 0.42497777642586831 0 0.50715858906372158 0.63295939104129484 0 0.52584555706968406 0.66664215091846768 0 0.47913475093885149 0.66010775372412711 0 0.5 0.69999999999999996 0 0.47913475093885149 0.66010775372412711 0 0.52584555706968406 0.66664215091846768 0 0.51076801031701946 0.1202837388510348 0 0.51729576145820033 0.1683240575987815 0 0.48466639505193998 0.1421439844745814 0 0.71406021706547751 0.63292083137662503 0 0.74994237037456724 0.62775548192980357 0 0.72500000000000064 0.67022701834392062 0 0.71508799138962864 0.36622814920737751 0 0.73090396928863699 0.33699297293167962 0 0.74764719760526988 0.3719647154012321 0 0.22278230690790279 0.44824268025881547 0 0.25982634974572738 0.46097799597715272 0 0.23975172658309729 0.49475499200540818 0 0.80185942888539485 0.77452061303608133 0 0.78578450296893509 0.73292684821144505 0 0.81864958914779962 0.73589050177899629 0 0.80185942888501827 0.074520613036224564 0 0.78393852574753176 0.032039079577822822 0 0.81864958914740749 0.035890501779055867 0 0.5 0.29999999999999999 0 0.46226845272279993 0.31901800744800313 0 0.4604742573284204 0.27846934318264788 0 0.6405463747586706 0.63290524857395714 0 0.62460753523532009 0.66851202781000296 0 0.5991018319127801 0.62925360607495295 0 0.79680861578988083 0.92656778056766709 0 0.770759834363826 0.95919399014344442 0 0.75729602384198635 0.92353652857884294 0 0.79680861578956375 0.22656778056752541 0 0.77075983436335049 0.25919399014334171 0 0.75668890529066124 0.2244279804069782 0 0.65394964615507722 0.22666784374016369 0 0.69397719155551807 0.2245125647000914 0 0.67933712972090698 0.25920070958121938 0 0.81973119833356312 0.43505687159469048 0 0.84925632466077294 0.45359738909549091 0 0.81400510706333218 0.47357325943904899 0 0.83758014339878906 0.63222013025741819 0 0.82457059160610424 0.66831947184359608 0 0.79884539758237771 0.62875045078114233 0 0.25676291524611189 0.7436741304886243 0 0.2248999640082178 0.72584299459689172 0 0.26439878998046262 0.7048065392091396 0 0.91696753777131557 0.497780560203536 0 0.90900154012161016 0.53607784105648792 0 0.86907294890112186 0.52008116128001669 0 0.17933913398461551 0.2350063570234002 0 0.168349569971391 0.28054490850913671 0 0.14377654328998779 0.2442024734791064 0 0.1247745017231483 0.27198077544791172 0 0.14377654328998779 0.2442024734791064 0 0.168349569971391 0.28054490850913671 0 0.34258405725730701 0.4444034294386992 0 0.35221190152536241 0.40457127605439203 0 0.38707855792647411 0.42299362914874578 0 0.47357141910802508 0.1873585799078378 0 0.51729576145820033 0.1683240575987815 0 0.50760557329222289 0.20700468884612061 0 0.19670163708476801 0.31472518408333222 0 0.22615676742807109 0.33458786033114157 0 0.18434624290945251 0.35208838264196463 0 0.22033343844674469 0.36963382230740238 0 0.18434624290945251 0.35208838264196463 0 0.22615676742807109 0.33458786033114157 0 0.24432083401701241 0.3006253385567515 0 0.25966125648670141 0.34351016742083729 0 0.22615676742807109 0.33458786033114157 0 0.93814194660195893 0.44426664081746747 0 0.90594285160987287 0.4141265964174129 0 0.95871855522754235 0.40006508612975411 0 0.91750694127107502 0.36982372220068471 0 0.95871855522754235 0.40006508612975411 0 0.90594285160987287 0.4141265964174129 0 0.91750694127105259 0.63017627779935648 0 0.91143117093204207 0.58709913730335972 0 0.95867599106212187 0.60011091146651041 0 0.93732437411268477 0.55911392101136159 0 0.95867599106212187 0.60011091146651041 0 0.91143117093204207 0.58709913730335972 0 0.50715858906372158 0.63295939104129484 0 0.5498280205245758 0.6290146943450976 0 0.52584555706968406 0.66664215091846768 0 0.94399509803918602 0.75600490196082126 0 0.97435614836745565 0.77499999999987745 0 0.95386563387742829 0.80414874155775029 0 0.94399509803922566 0.056004901960802607 0 0.97435614836748241 0.074999999999825387 0 0.95386563387744361 0.1041487415577465 0 0.94399509803921056 0.24399509803922639 0 0.95391631417672862 0.19584263333809451 0 0.97435614836740092 0.22499999999981049 0 0.94399509803919068 0.9439950980391687 0 0.95391631417670719 0.89584263333814784 0 0.97435614836744289 0.92499999999990257 0 0.79680861578988083 0.92656778056766709 0 0.75729602384198635 0.92353652857884294 0 0.76891166905518427 0.88835469571185499 0 0.79680861578956375 0.22656778056752541 0 0.75668890529066124 0.2244279804069782 0 0.76587607630038135 0.18880039518954719 0 0.65394964615507722 0.22666784374016369 0 0.6865991819015953 0.189116534044597 0 0.69397719155551807 0.2245125647000914 0 0.38083244760691543 0.38531983672244652 0 0.38707855792647411 0.42299362914874578 0 0.35221190152536241 0.40457127605439203 0 1 0.7999999999998193 0 0.95386563387742829 0.80414874155775029 0 0.97435614836745565 0.77499999999987745 0 1 0.099999999999753911 0 0.95386563387744361 0.1041487415577465 0 0.97435614836748241 0.074999999999825387 0 1 0.8999999999998336 0 0.97435614836744289 0.92499999999990257 0 0.95391631417670719 0.89584263333814784 0 1 0.19999999999974799 0 0.97435614836740092 0.22499999999981049 0 0.95391631417672862 0.19584263333809451 0 0.84723782639812573 0.48638347960178252 0 0.81400510706333218 0.47357325943904899 0 0.84925632466077294 0.45359738909549091 0 0.54999999999999993 0.29999999999999999 0 0.54248833945060504 0.2520322959927106 0 0.5794309697024993 0.27124795968204829 0 0.94999999999999996 0.29999999999999999 0 0.95780851984364423 0.34215720972155339 0 0.92012390126144183 0.33123581297173937 0 0.94999999999999996 0.69999999999999996 0 0.92057473616084773 0.66770436535372446 0 0.9578014258160763 0.65787212321113708 0 0.15801167086041079 0.46008690540259539 0 0.113541300460994 0.46208784312094731 0 0.13773355295499351 0.42497777642586831 0 0.7250000000005199 0.94981617647078953 0 0.68015064798562208 0.95924320340003011 0 0.68987011941058407 0.92105047536677087 0 0.65507451745379841 0.92229208810758578 0 0.68987011941058407 0.92105047536677087 0 0.68015064798562208 0.95924320340003011 0 0.77846603114747959 0.49850927265137401 0 0.77972660463949339 0.45529290596363098 0 0.81400510706333218 0.47357325943904899 0 0.27866744612395528 0.38416094670951489 0 0.25966125648670141 0.34351016742083729 0 0.29644548887253103 0.34914008784168082 0 0.61209567303293111 0.44669033081290321 0 0.61547661924074692 0.48539576058873962 0 0.57975577671020095 0.46172033326338591 0 0.57611405284611883 0.50165903596042916 0 0.57975577671020095 0.46172033326338591 0 0.61547661924074692 0.48539576058873962 0 0.7250000000005199 0.89375000000045834 0 0.76891166905518427 0.88835469571185499 0 0.75729602384198635 0.92353652857884294 0 0.72500000000001008 0.19776155966387679 0 0.76587607630038135 0.18880039518954719 0 0.75668890529066124 0.2244279804069782 0 0.72500000000001008 0.19776155966387679 0 0.69397719155551807 0.2245125647000914 0 0.6865991819015953 0.189116534044597 0 0.083411279318303222 0.089699755330707398 0 0.12372429750337779 0.095814237875728972 0 0.1053400320299198 0.12877248826361379 0 0.083411279318375747 0.91030024466934134 0 0.10562472963403439 0.87143394428979881 0 0.1241151115713819 0.9045666525468371 0 0.14617343800780541 0.93808063414349496 0 0.1241151115713819 0.9045666525468371 0 0.16206583317966519 0.89685560785156404 0 0.14618258501891079 0.062070108745602003 0 0.16141998738593399 0.10404039647458049 0 0.12372429750337779 0.095814237875728972 0 0.33277555741076909 0.36432196682010132 0 0.35221190152536241 0.40457127605439203 0 0.31778888742534622 0.40581751814196781 0 0.7250000000005199 0.94981617647078953 0 0.75729602384198635 0.92353652857884294 0 0.770759834363826 0.95919399014344442 0 0.72500000000000064 0.2498161764706 0 0.75668890529066124 0.2244279804069782 0 0.77075983436335049 0.25919399014334171 0 0.72500000000000064 0.2498161764706 0 0.67933712972090698 0.25920070958121938 0 0.69397719155551807 0.2245125647000914 0 0.6236733212988993 0.14864538214901801 0 0.61956000905586006 0.1043312481793135 0 0.65290632656860115 0.11434202593454081 0 0.81973119833356312 0.43505687159469048 0 0.81400510706333218 0.47357325943904899 0 0.77972660463949339 0.45529290596363098 0 0.25676291524611189 0.7436741304886243 0 0.29904318922293632 0.74132814928635593 0 0.2792923945214143 0.77665808831789485 0 0.36575549820117997 0.31677992835137742 0 0.32752639306529541 0.32610012995269699 0 0.33402499257867951 0.28911035184473982 0 0.14332333627550789 0.14578431753966009 0 0.18652628422869419 0.14162325200928061 0 0.18124454140915969 0.18790916706335251 0 0.57724883562309992 0.92155686857100794 0 0.5832743223239254 0.88483152652961872 0 0.61885627562261258 0.90282959257498208 0 0.57667858002728545 0.078486105337742612 0 0.61956000905586006 0.1043312481793135 0 0.58516465772821369 0.11653801664834119 0 0.80185942888539485 0.77452061303608133 0 0.80041942726660109 0.81543261647703358 0 0.77094201086366854 0.79647480515688507 0 0.80185942888501827 0.074520613036224564 0 0.80076557130237269 0.1154587552654202 0 0.76878382444651716 0.097147941686331368 0 0.64753070846764316 0.77332939069435502 0 0.68024162096458085 0.79868546898116533 0 0.65005442820240822 0.82644988530054031 0 0.26429849586623999 0.19346700179430079 0 0.25557216766470708 0.15874861286892261 0 0.29336099386129338 0.15892013001050981 0 0.29348325746214782 0.31350119524708198 0 0.29644548887253103 0.34914008784168082 0 0.25966125648670141 0.34351016742083729 0 0.68391457121233579 0.14440470121196541 0 0.65290632656860115 0.11434202593454081 0 0.68330259535470161 0.10038702501083881 0 0.91750694127107502 0.36982372220068471 0 0.92012390126144183 0.33123581297173937 0 0.95780851984364423 0.34215720972155339 0 0.91750694127105259 0.63017627779935648 0 0.9578014258160763 0.65787212321113708 0 0.92057473616084773 0.66770436535372446 0 0.22033343844674469 0.36963382230740238 0 0.22615676742807109 0.33458786033114157 0 0.25966125648670141 0.34351016742083729 0 1 0.94999999999997109 0 0.97166519676946206 0.96662885509935492 0 0.97435614836744289 0.92499999999990257 0 0.94399509803919068 0.9439950980391687 0 0.97435614836744289 0.92499999999990257 0 0.97166519676946206 0.96662885509935492 0 0.94399509803921056 0.24399509803922639 0 0.97435614836740092 0.22499999999981049 0 0.97166519676951801 0.26662885509932011 0 1 0.24999999999987299 0 0.97166519676951801 0.26662885509932011 0 0.97435614836740092 0.22499999999981049 0 1 0.74999999999993494 0 0.97435614836745565 0.77499999999987745 0 0.97166519676947294 0.73337114490064459 0 1 0.049999999999896842 0 0.97435614836748241 0.074999999999825387 0 0.97166519676946894 0.033371144900598393 0 0.94399509803918602 0.75600490196082126 0 0.97166519676947294 0.73337114490064459 0 0.97435614836745565 0.77499999999987745 0 0.94399509803922566 0.056004901960802607 0 0.97166519676946894 0.033371144900598393 0 0.97435614836748241 0.074999999999825387 0 0.77846603114747959 0.49850927265137401 0 0.81400510706333218 0.47357325943904899 0 0.81441713509985358 0.51161854125224959 0 0.77354604466818633 0.40378688774472771 0 0.72622533758026719 0.40265885511101601 0 0.74764719760526988 0.3719647154012321 0 0.71508799138962864 0.36622814920737751 0 0.74764719760526988 0.3719647154012321 0 0.72622533758026719 0.40265885511101601 0 0.84723782639812573 0.48638347960178252 0 0.84925632466077294 0.45359738909549091 0 0.88594198078881503 0.46167788676578442 0 0.86411095495256451 0.42388805655111889 0 0.88594198078881503 0.46167788676578442 0 0.84925632466077294 0.45359738909549091 0 0.43846182030517877 0.64845797726506715 0 0.43545892161006339 0.61093128915313821 0 0.47095389620662098 0.61892551373708504 0 0.33123028043633618 0.77629643437932982 0 0.35642984951668422 0.80994399665655703 0 0.30857225866488791 0.81101973481716805 0 0.33403534827021109 0.84402799729020661 0 0.30857225866488791 0.81101973481716805 0 0.35642984951668422 0.80994399665655703 0 0.26429849586623999 0.19346700179430079 0 0.31255190597181792 0.19850845631528771 0 0.28040350263641872 0.23054717217092141 0 0.57724883562309992 0.92155686857100794 0 0.54783390826260769 0.89287767010860219 0 0.5832743223239254 0.88483152652961872 0 0.55899371797446828 0.85003102233514438 0 0.5832743223239254 0.88483152652961872 0 0.54783390826260769 0.89287767010860219 0 0.4089290844030305 0.58728915500154233 0 0.43545892161006339 0.61093128915313821 0 0.39743091024207589 0.6239520004230239 0 0.77293540622714185 0.59448302402785813 0 0.81723410853263523 0.59419663659258926 0 0.79884539758237771 0.62875045078114233 0 0.83758014339878906 0.63222013025741819 0 0.79884539758237771 0.62875045078114233 0 0.81723410853263523 0.59419663659258926 0 0.35864735590330371 0.63903383440414463 0 0.39743091024207589 0.6239520004230239 0 0.3977710372045391 0.65868194622830212 0 0.56202748619534593 0.15054058349222879 0 0.54979595918804436 0.1060565713905809 0 0.58516465772821369 0.11653801664834119 0 0.57667858002728545 0.078486105337742612 0 0.58516465772821369 0.11653801664834119 0 0.54979595918804436 0.1060565713905809 0 0.33122374654748771 0.57588941099433744 0 0.37272913873093971 0.56192925302619479 0 0.35765792684946668 0.6000687869219653 0 0.35864735590330371 0.63903383440414463 0 0.35765792684946668 0.6000687869219653 0 0.39743091024207589 0.6239520004230239 0 0.71508799138962864 0.36622814920737751 0 0.68887083591306764 0.33632058575757479 0 0.73090396928863699 0.33699297293167962 0 0.29348325746214782 0.31350119524708198 0 0.32752639306529541 0.32610012995269699 0 0.29644548887253103 0.34914008784168082 0 0.33277555741076909 0.36432196682010132 0 0.29644548887253103 0.34914008784168082 0 0.32752639306529541 0.32610012995269699 0 0.34258405725730701 0.4444034294386992 0 0.31778888742534622 0.40581751814196781 0 0.35221190152536241 0.40457127605439203 0 0.79999999999999982 0.69999999999999996 0 0.81864958914779962 0.73589050177899629 0 0.78578450296893509 0.73292684821144505 0 0.79999999999947335 0 0 0.81864958914740749 0.035890501779055867 0 0.78393852574753176 0.032039079577822822 0 0.27474541102162192 0.11822029332053539 0 0.29336099386129338 0.15892013001050981 0 0.25557216766470708 0.15874861286892261 0 0 0.45000000000187229 0 0.035463093262830522 0.42673416072819947 0 0.033550201249889847 0.46247875832467239 0 0.6499999999999998 0.69999999999999996 0 0.66427993341343905 0.73232764502436276 0 0.63221990677827677 0.73442891067859706 0 0.84723782639812573 0.48638347960178252 0 0.81441713509985358 0.51161854125224959 0 0.81400510706333218 0.47357325943904899 0 0.26104540868854792 0.81401944968719064 0 0.30857225866488791 0.81101973481716805 0 0.29209212897034281 0.84715728365233667 0 0.33403534827021109 0.84402799729020661 0 0.29209212897034281 0.84715728365233667 0 0.30857225866488791 0.81101973481716805 0 0.69999999999999984 0.29999999999999999 0 0.73090396928863699 0.33699297293167962 0 0.68887083591306764 0.33632058575757479 0 
</DataArray>
</Points>
<Cells>
<DataArray type="UInt32" Name="connectivity" format="ascii">
0 1 2 3 4 5 6 7 8 9 10 11 12 13 14 15 16 17 18 19 20 21 22 23 24 25 26 27 28 29 30 31 32 33 34 35 36 37 38 39 40 41 42 43 44 45 46 47 48 49 50 51 52 53 54 55 56 57 58 59 60 61 62 63 64 65 66 67 68 69 70 71 72 73 74 75 76 77 78 79 80 81 82 83 84 85 86 87 88 89 90 91 92 93 94 95 96 97 98 99 100 101 102 103 104 105 106 107 108 109 110 111 112 113 114 115 116 117 118 119 120 121 122 123 124 125 126 127 128 129 130 131 132 133 134 135 136 137 138 139 140 141 142 143 144 145 146 147 148 149 150 151 152 153 154 155 156 157 158 159 160 161 162 163 164 165 166 167 168 169 170 171 172 173 174 175 176 177 178 179 180 181 182 183 184 185 186 187 188 189 190 191 192 193 194 195 196 197 198 199 200 201 202 203 204 205 206 207 208 209 210 211 212 213 214 215 216 217 218 219 220 221 222 223 224 225 226 227 228 229 230 231 232 233 234 235 236 237 238 239 240 241 242 243 244 245 246 247 248 249 250 251 252 253 254 255 256 257 258 259 260 261 262 263 264 265 266 267 268 269 270 271 272 273 274 275 276 277 278 279 280 281 282 283 284 285 286 287 288 289 290 291 292 293 294 295 296 297 298 299 300 301 302 303 304 305 306 307 308 309 310 311 312 313 314 315 316 317 318 319 320 321 322 323 324 325 326 327 328 329 330 331 332 333 334 335 336 337 338 339 340 341 342 343 344 345 346 347 348 349 350 351 352 353 354 355 356 357 358 359 360 361 362 363 364 365 366 367 368 369 370 371 372 373 374 375 376 377 378 379 380 381 382 383 384 385 386 387 388 389 390 391 392 393 394 395 396 397 398 399 400 401 402 403 404 405 406 407 408 409 410 411 412 413 414 415 416 417 418 419 420 421 422 423 424 425 426 427 428 429 430 431 432 433 434 435 436 437 438 439 440 441 442 443 444 445 446 447 448 449 450 451 452 453 454 455 456 457 458 459 460 461 462 463 464 465 466 467 468 469 470 471 472 473 474 475 476 477 478 479 480 481 482 483 484 485 486 487 488 489 490 491 492 493 494 495 496 497 498 499 500 501 502 503 504 505 506 507 508 509 510 511 512 513 514 515 516 517 518 519 520 521 522 523 524 525 526 527 528 529 530 531 532 533 534 535 536 537 538 539 540 541 542 543 544 545 546 547 548 549 550 551 552 553 554 555 556 557 558 559 560 561 562 563 564 565 566 567 568 569 570 571 572 573 574 575 576 577 578 579 580 581 582 583 584 585 586 587 588 589 590 591 592 593 594 595 596 597 598 599 600 601 602 603 604 605 606 607 608 609 610 611 612 613 614 615 616 617 618 619 620 621 622 623 624 625 626 627 628 629 630 631 632 633 634 635 636 637 638 639 640 641 642 643 644 645 646 647 648 649 650 651 652 653 654 655 656 657 658 659 660 661 662 663 664 665 666 667 668 669 670 671 672 673 674 675 676 677 678 679 680 681 682 683 684 685 686 687 688 689 690 691 692 693 694 695 696 697 698 699 700 701 702 703 704 705 706 707 708 709 710 711 712 713 714 715 716 717 718 719 720 721 722 723 724 725 726 727 728 729 730 731 732 733 734 735 736 737 738 739 740 741 742 743 744 745 746 747 748 749 750 751 752 753 754 755 756 757 758 759 760 761 762 763 764 765 766 767 768 769 770 771 772 773 774 775 776 777 778 779 780 781 782 783 784 785 786 787 788 789 790 791 792 793 794 795 796 797 798 799 800 801 802 803 804 805 806 807 808 809 810 811 812 813 814 815 816 817 818 819 820 821 822 823 824 825 826 827 828 829 830 831 832 833 834 835 836 837 838 839 840 841 842 843 844 845 846 847 848 849 850 851 852 853 854 855 856 857 858 859 860 861 862 863 864 865 866 867 868 869 870 871 872 873 874 875 876 877 878 879 880 881 882 883 884 885 886 887 888 889 890 891 892 893 894 895 896 897 898 899 900 901 902 903 904 905 906 907 908 909 910 911 912 913 914 915 916 917 918 919 920 921 922 923 924 925 926 927 928 929 930 931 932 933 934 935 936 937 938 939 940 941 942 943 944 945 946 947 948 949 950 951 952 953 954 955 956 957 958 959 960 961 962 963 964 965 966 967 968 969 970 971 972 973 974 975 976 977 978 979 980 981 982 983 984 985 986 987 988 989 990 991 992 993 994 995 996 997 998 999 1000 1001 1002 1003 1004 1005 1006 1007 1008 1009 1010 1011 1012 1013 1014 1015 1016 1017 1018 1019 1020 1021 1022 1023 1024 1025 1026 1027 1028 1029 1030 1031 1032 1033 1034 1035 1036 1037 1038 1039 1040 1041 1042 1043 1044 1045 1046 1047 1048 1049 1050 1051 1052 1053 1054 1055 1056 1057 1058 1059 1060 1061 1062 1063 1064 1065 1066 1067 1068 1069 1070 1071 1072 1073 1074 1075 1076 1077 1078 1079 1080 1081 1082 1083 1084 1085 1086 1087 1088 1089 1090 1091 1092 1093 1094 1095 1096 1097 1098 1099 1100 1101 1102 1103 1104 1105 1106 1107 1108 1109 1110 1111 1112 1113 1114 1115 1116 1117 1118 1119 1120 1121 1122 1123 1124 1125 1126 1127 1128 1129 1130 1131 1132 1133 1134 1135 1136 1137 1138 1139 1140 1141 1142 1143 1144 1145 1146 1147 1148 1149 1150 1151 1152 1153 1154 1155 1156 1157 1158 1159 1160 1161 1162 1163 1164 1165 1166 1167 1168 1169 1170 1171 1172 1173 1174 1175 1176 1177 1178 1179 1180 1181 1182 1183 1184 1185 1186 1187 1188 1189 1190 1191 1192 1193 1194 1195 1196 1197 1198 1199 1200 1201 1202 1203 1204 1205 1206 1207 1208 1209 1210 1211 1212 1213 1214 1215 1216 1217 1218 1219 1220 1221 1222 1223 1224 1225 1226 1227 1228 1229 1230 1231 1232 1233 1234 1235 1236 1237 1238 1239 1240 1241 1242 1243 1244 1245 1246 1247 1248 1249 1250 1251 1252 1253 1254 1255 1256 1257 1258 1259 1260 1261 1262 1263 1264 1265 1266 1267 1268 1269 1270 1271 1272 1273 1274 1275 1276 1277 1278 1279 1280 1281 1282 1283 1284 1285 1286 1287 1288 1289 1290 1291 1292 1293 1294 1295 1296 1297 1298 1299 1300 1301 1302 1303 1304 1305 1306 1307 1308 1309 1310 1311 1312 1313 1314 1315 1316 1317 1318 1319 1320 1321 1322 1323 1324 1325 1326 1327 1328 1329 1330 1331 1332 1333 1334 1335 1336 1337 1338 1339 1340 1341 1342 1343 1344 1345 1346 1347 1348 1349 1350 1351 1352 1353 1354 1355 1356 1357 1358 1359 1360 1361 1362 1363 1364 1365 1366 1367 1368 1369 1370 1371 1372 1373 1374 1375 1376 1377 1378 1379 1380 1381 1382 1383 1384 1385 1386 1387 1388 1389 1390 1391 1392 1393 1394 1395 1396 1397 1398 1399 1400 1401 1402 1403 1404 1405 1406 1407 1408 1409 1410 1411 1412 1413 1414 1415 1416 1417 1418 1419 1420 1421 1422 1423 1424 1425 1426 1427 1428 1429 1430 1431 1432 1433 1434 1435 1436 1437 1438 1439 1440 1441 1442 1443 1444 1445 1446 1447 1448 1449 1450 1451 1452 1453 1454 1455 1456 1457 1458 1459 1460 1461 1462 1463 1464 1465 1466 1467 1468 1469 1470 1471 1472 1473 1474 1475 1476 1477 1478 1479 1480 1481 1482 1483 1484 1485 1486 1487 1488 1489 1490 1491 1492 1493 1494 1495 1496 1497 1498 1499 1500 1501 1502 1503 1504 1505 1506 1507 1508 1509 1510 1511 1512 1513 1514 1515 1516 1517 1518 1519 1520 1521 1522 1523 1524 1525 1526 1527 1528 1529 1530 1531 1532 1533 1534 1535 1536 1537 1538 1539 1540 1541 1542 1543 1544 1545 1546 1547 1548 1549 1550 1551 1552 1553 1554 1555 1556 1557 1558 1559 1560 1561 1562 1563 1564 1565 1566 1567 1568 1569 1570 1571 1572 1573 1574 1575 1576 1577 1578 1579 1580 1581 1582 1583 1584 1585 1586 1587 1588 1589 1590 1591 1592 1593 1594 1595 1596 1597 1598 1599 1600 1601 1602 1603 1604 1605 1606 1607 1608 1609 1610 1611 1612 1613 1614 1615 1616 1617 1618 1619 1620 1621 1622 1623 1624 1625 1626 1627 1628 1629 1630 1631 1632 1633 1634 1635 1636 1637 1638 1639 1640 1641 1642 1643 1644 1645 1646 1647 1648 1649 1650 1651 1652 1653 1654 1655 1656 1657 1658 1659 1660 1661 1662 1663 1664 1665 1666 1667 1668 1669 1670 1671 1672 1673 1674 1675 1676 1677 1678 1679 1680 1681 1682 1683 1684 1685 1686 1687 1688 1689 1690 1691 1692 1693 1694 1695 1696 1697 1698 1699 1700 1701 1702 1703 1704 1705 1706 1707 1708 1709 1710 1711 1712 1713 1714 1715 1716 1717 1718 1719 1720 1721 1722 1723 1724 1725 1726 1727 1728 1729 1730 1731 1732 1733 1734 1735 1736 1737 1738 1739 1740 1741 1742 1743 1744 1745 1746 1747 1748 1749 1750 1751 1752 1753 1754 1755 1756 1757 1758 1759 1760 1761 1762 1763 1764 1765 1766 1767 1768 1769 1770 1771 1772 1773 1774 1775 1776 1777 1778 1779 1780 1781 1782 1783 1784 1785 1786 1787 1788 1789 1790 1791 1792 1793 1794 1795 1796 1797 1798 1799 1800 1801 1802 1803 1804 1805 1806 1807 1808 1809 1810 1811 1812 1813 1814 1815 1816 1817 1818 1819 1820 1821 1822 1823 1824 1825 1826 1827 1828 1829 1830 1831 1832 1833 1834 1835 1836 1837 1838 1839 1840 1841 1842 1843 1844 1845 1846 1847 1848 1849 1850 1851 1852 1853 1854 1855 1856 1857 1858 1859 1860 1861 1862 1863 1864 1865 1866 1867 1868 1869 1870 1871 1872 1873 1874 1875 1876 1877 1878 1879 1880 1881 1882 1883 1884 1885 1886 1887 1888 1889 1890 1891 1892 1893 1894 1895 1896 1897 1898 1899 1900 1901 1902 1903 1904 1905 1906 1907 1908 1909 1910 1911 1912 1913 1914 1915 1916 1917 1918 1919 1920 1921 1922 1923 1924 1925 1926 1927 1928 1929 1930 1931 1932 1933 1934 1935 1936 1937 1938 1939 1940 1941 1942 1943 1944 1945 1946 1947 1948 1949 1950 1951 1952 1953 1954 1955 1956 1957 1958 1959 1960 1961 1962 1963 1964 1965 1966 1967 1968 1969 1970 1971 1972 1973 1974 1975 1976 1977 1978 1979 1980 1981 1982 1983 1984 1985 1986 1987 1988 1989 1990 1991 1992 1993 1994 1995 1996 1997 1998 1999 2000 2001 2002 2003 2004 2005 2006 2007 2008 2009 2010 2011 2012 2013 2014 2015 2016 2017 2018 2019 2020 2021 2022 2023 2024 2025 2026 2027 2028 2029 2030 2031 2032 2033 2034 2035 2036 2037 2038 2039 2040 2041 2042 2043 2044 2045 2046 2047 2048 2049 2050 2051 2052 2053 2054 2055 2056 2057 2058 2059 2060 2061 2062 2063 2064 2065 2066 2067 2068 2069 2070 2071 2072 2073 2074 2075 2076 2077 2078 2079 2080 2081 2082 2083 2084 2085 2086 2087 2088 2089 2090 2091 2092 2093 2094 2095 2096 2097 2098 2099 2100 2101 2102 2103 2104 2105 2106 2107 2108 2109 2110 2111 2112 2113 2114 2115 2116 2117 2118 2119 2120 2121 2122 2123 2124 2125 2126 2127 2128 2129 2130 2131 2132 2133 2134 2135 2136 2137 2138 2139 2140 2141 2142 2143 2144 2145 2146 2147 2148 2149 2150 2151 2152 2153 2154 2155 2156 2157 2158 2159 2160 2161 2162 2163 2164 2165 2166 2167 2168 2169 2170 2171 2172 2173 2174 2175 2176 2177 2178 2179 2180 2181 2182 2183 2184 2185 2186 2187 2188 2189 2190 2191 2192 2193 2194 2195 2196 2197 2198 2199 2200 2201 2202 2203 2204 2205 2206 2207 2208 2209 2210 2211 2212 2213 2214 2215 2216 2217 2218 2219 2220 2221 2222 2223 2224 2225 2226 2227 2228 2229 2230 2231 2232 2233 2234 2235 2236 2237 2238 2239 2240 2241 2242 2243 2244 2245 2246 2247 2248 2249 2250 2251 2252 2253 2254 2255 2256 2257 2258 2259 2260 2261 2262 2263 2264 2265 2266 2267 2268 2269 2270 2271 2272 2273 2274 2275 2276 2277 2278 2279 2280 2281 2282 2283 2284 2285 2286 2287 2288 2289 2290 2291 2292 2293 2294 2295 2296 2297 2298 2299 2300 2301 2302 2303 2304 2305 2306 2307 2308 2309 2310 2311 2312 2313 2314 2315 2316 2317 2318 2319 2320 2321 2322 2323 2324 2325 2326 2327 2328 2329 2330 2331 2332 2333 2334 2335 2336 2337 2338 2339 2340 2341 2342 2343 2344 2345 2346 2347 2348 2349 2350 2351 2352 2353 2354 2355 2356 2357 2358 2359 2360 2361 2362 2363 2364 2365 2366 2367 2368 2369 2370 2371 2372 2373 2374 2375 2376 2377 2378 2379 2380 2381 2382 2383 2384 2385 2386 2387 2388 2389 2390 2391 2392 2393 2394 2395 2396 2397 2398 2399 2400 2401 2402 2403 2404 2405 2406 2407 2408 2409 2410 2411 2412 2413 2414 2415 2416 2417 2418 2419 2420 2421 2422 2423 2424 2425 2426 2427 2428 2429 2430 2431 2432 2433 2434 2435 2436 2437 2438 2439 2440 2441 2442 2443 2444 2445 2446 2447 2448 2449 2450 2451 2452 2453 2454 2455 2456 2457 2458 2459 2460 2461 2462 2463 2464 2465 2466 2467 2468 2469 2470 2471 2472 2473 2474 2475 2476 2477 2478 2479 2480 2481 2482 2483 2484 2485 2486 2487 2488 2489 2490 2491 2492 2493 2494 2495 2496 2497 2498 2499 2500 2501 2502 2503 2504 2505 2506 2507 2508 2509 2510 2511 2512 2513 2514 2515 2516 2517 2518 2519 2520 2521 2522 2523 2524 2525 2526 2527 2528 2529 2530 2531 2532 2533 2534 2535 2536 2537 2538 2539 2540 2541 2542 2543 2544 2545 2546 2547 2548 2549 2550 2551 2552 2553 2554 2555 2556 2557 2558 2559 2560 2561 2562 2563 2564 2565 2566 2567 2568 2569 2570 2571 2572 2573 2574 2575 2576 2577 2578 2579 2580 2581 2582 2583 2584 2585 2586 2587 2588 2589 2590 2591 2592 2593 2594 2595 2596 2597 2598 2599 2600 2601 2602 2603 2604 2605 2606 2607 2608 2609 2610 2611 2612 2613 2614 2615 2616 2617 2618 2619 2620 2621 2622 2623 2624 2625 2626 2627 2628 2629 2630 2631 2632 2633 2634 2635 2636 2637 2638 2639 2640 2641 2642 2643 2644 2645 2646 2647 2648 2649 2650 2651 2652 2653 2654 2655 2656 2657 2658 2659 2660 2661 2662 2663 2664 2665 2666 2667 2668 2669 2670 2671 2672 2673 2674 2675 2676 2677 2678 2679 2680 2681 2682 2683 2684 2685 2686 2687 2688 2689 2690 2691 2692 2693 2694 2695 2696 2697 2698 2699 2700 2701 2702 2703 2704 2705 2706 2707 2708 2709 2710 2711 2712 2713 2714 2715 2716 2717 2718 2719 2720 2721 2722 2723 2724 2725 2726 2727 2728 2729 2730 2731 2732 2733 2734 2735 2736 2737 2738 2739 2740 2741 2742 2743 2744 2745 2746 2747 2748 2749 2750 2751 2752 2753 2754 2755 2756 2757 2758 2759 2760 2761 2762 2763 2764 2765 2766 2767 2768 2769 2770 2771 2772 2773 2774 2775 2776 2777 2778 2779 2780 2781 2782 2783 2784 2785 2786 2787 2788 2789 2790 2791 2792 2793 2794 2795 2796 2797 2798 2799 2800 2801 2802 2803 2804 2805 2806 2807 2808 2809 2810 2811 2812 2813 2814 2815 2816 2817 2818 2819 2820 2821 2822 2823 2824 2825 2826 2827 2828 2829 2830 2831 2832 2833 2834 2835 2836 2837 2838 2839 2840 2841 2842 2843 2844 2845 2846 2847 2848 2849 2850 2851 2852 2853 2854 2855 2856 2857 2858 2859 2860 2861 2862 2863 2864 2865 2866 2867 2868 2869 2870 2871 2872 2873 2874 2875 2876 2877 2878 2879 2880 2881 2882 2883 2884 2885 2886 2887 2888 2889 2890 2891 2892 2893 2894 2895 2896 2897 2898 2899 2900 2901 2902 2903 2904 2905 2906 2907 2908 2909 2910 2911 2912 2913 2914 2915 2916 2917 2918 2919 2920 2921 2922 2923 2924 2925 2926 2927 2928 2929 2930 2931 2932 2933 2934 2935 2936 2937 2938 2939 2940 2941 2942 2943 2944 2945 2946 2947 2948 2949 2950 2951 2952 2953 2954 2955 2956 2957 2958 2959 2960 2961 2962 2963 2964 2965 2966 2967 2968 2969 2970 2971 2972 2973 2974 2975 2976 2977 2978 2979 2980 2981 2982 2983 2984 2985 2986 2987 2988 2989 2990 2991 2992 2993 2994 2995 2996 2997 2998 2999 3000 3001 3002 3003 3004 3005 3006 3007 3008 3009 3010 3011 3012 3013 3014 3015 3016 3017 3018 3019 3020 3021 3022 3023 3024 3025 3026 3027 3028 3029 3030 3031 3032 3033 3034 3035 3036 3037 3038 3039 3040 3041 3042 3043 3044 3045 3046 3047 3048 3049 3050 3051 3052 3053 3054 3055 3056 3057 3058 3059 3060 3061 3062 3063 3064 3065 3066 3067 3068 3069 3070 3071 3072 3073 3074 3075 3076 3077 3078 3079 3080 3081 3082 3083 3084 3085 3086 3087 3088 3089 3090 3091 3092 3093 3094 3095 3096 3097 3098 3099 3100 3101 3102 3103 3104 3105 3106 3107 3108 3109 3110 3111 3112 3113 3114 3115 3116 3117 3118 3119 3120 3121 3122 3123 3124 3125 3126 3127 3128 3129 3130 3131 3132 3133 3134 3135 3136 3137 3138 3139 3140 3141 
</DataArray>
<DataArray type="UInt32" Name="offsets" format="ascii">
2 4 6 8 10 12 14 16 18 20 22 24 26 28 30 32 34 36 38 40 43 46 49 52 55 58 61 64 67 70 73 76 79 82 85 88 91 94 97 100 103 106 109 112 115 118 121 124 127 130 133 136 139 142 145 148 151 154 157 160 163 166 169 172 175 178 181 184 187 190 193 196 199 202 205 208 211 214 217 220 223 226 229 232 235 238 241 244 247 250 253 256 259 262 265 268 271 274 277 280 283 286 289 292 295 298 301 304 307 310 313 316 319 322 325 328 331 334 337 340 343 346 349 352 355 358 361 364 367 370 373 376 379 382 385 388 391 394 397 400 403 406 409 412 415 418 421 424 427 430 433 436 439 442 445 448 451 454 457 460 463 466 469 472 475 478 481 484 487 490 493 496 499 502 505 508 511 514 517 520 523 526 529 532 535 538 541 544 547 550 553 556 559 562 565 568 571 574 577 580 583 586 589 592 595 598 601 604 607 610 613 616 619 622 625 628 631 634 637 640 643 646 649 652 655 658 661 664 667 670 673 676 679 682 685 688 691 694 697 700 703 706 709 712 715 718 721 724 727 730 733 736 739 742 745 748 751 754 757 760 763 766 769 772 775 778 781 784 787 790 793 796 799 802 805 808 811 814 817 820 823 826 829 832 835 838 841 844 847 850 853 856 859 862 865 868 871 874 877 880 883 886 889 892 895 898 901 904 907 910 913 916 919 922 925 928 931 934 937 940 943 946 949 952 955 958 961 964 967 970 973 976 979 982 985 988 991 994 997 1000 1003 1006 1009 1012 1015 1018 1021 1024 1027 1030 1033 1036 1039 1042 1045 1048 1051 1054 1057 1060 1063 1066 1069 1072 1075 1078 1081 1084 1087 1090 1093 1096 1099 1102 1105 1108 1111 1114 1117 1120 1123 1126 1129 1132 1135 1138 1141 1144 1147 1150 1153 1156 1159 1162 1165 1168 1171 1174 1177 1180 1183 1186 1189 1192 1195 1198 1201 1204 1207 1210 1213 1216 1219 1222 1225 1228 1231 1234 1237 1240 1243 1246 1249 1252 1255 1258 1261 1264 1267 1270 1273 1276 1279 1282 1285 1288 1291 1294 1297 1300 1303 1306 1309 1312 1315 1318 1321 1324 1327 1330 1333 1336 1339 1342 1345 1348 1351 1354 1357 1360 1363 1366 1369 1372 1375 1378 1381 1384 1387 1390 1393 1396 1399 1402 1405 1408 1411 1414 1417 1420 1423 1426 1429 1432 1435 1438 1441 1444 1447 1450 1453 1456 1459 1462 1465 1468 1471 1474 1477 1480 1483 1486 1489 1492 1495 1498 1501 1504 1507 1510 1513 1516 1519 1522 1525 1528 1531 1534 1537 1540 1543 1546 1549 1552 1555 1558 1561 1564 1567 1570 1573 1576 1579 1582 1585 1588 1591 1594 1597 1600 1603 1606 1609 1612 1615 1618 1621 1624 1627 1630 1633 1636 1639 1642 1645 1648 1651 1654 1657 1660 1663 1666 1669 1672 1675 1678 1681 1684 1687 1690 1693 1696 1699 1702 1705 1708 1711 1714 1717 1720 1723 1726 1729 1732 1735 1738 1741 1744 1747 1750 1753 1756 1759 1762 1765 1768 1771 1774 1777 1780 1783 1786 1789 1792 1795 1798 1801 1804 1807 1810 1813 1816 1819 1822 1825 1828 1831 1834 1837 1840 1843 1846 1849 1852 1855 1858 1861 1864 1867 1870 1873 1876 1879 1882 1885 1888 1891 1894 1897 1900 1903 1906 1909 1912 1915 1918 1921 1924 1927 1930 1933 1936 1939 1942 1945 1948 1951 1954 1957 1960 1963 1966 1969 1972 1975 1978 1981 1984 1987 1990 1993 1996 1999 2002 2005 2008 2011 2014 2017 2020 2023 2026 2029 2032 2035 2038 2041 2044 2047 2050 2053 2056 2059 2062 2065 2068 2071 2074 2077 2080 2083 2086 2089 2092 2095 2098 2101 2104 2107 2110 2113 2116 2119 2122 2125 2128 2131 2134 2137 2140 2143 2146 2149 2152 2155 2158 2161 2164 2167 2170 2173 2176 2179 2182 2185 2188 2191 2194 2197 2200 2203 2206 2209 2212 2215 2218 2221 2224 2227 2230 2233 2236 2239 2242 2245 2248 2251 2254 2257 2260 2263 2266 2269 2272 2275 2278 2281 2284 2287 2290 2293 2296 2299 2302 2305 2308 2311 2314 2317 2320 2323 2326 2329 2332 2335 2338 2341 2344 2347 2350 2353 2356 2359 2362 2365 2368 2371 2374 2377 2380 2383 2386 2389 2392 2395 2398 2401 2404 2407 2410 2413 2416 2419 2422 2425 2428 2431 2434 2437 2440 2443 2446 2449 2452 2455 2458 2461 2464 2467 2470 2473 2476 2479 2482 2485 2488 2491 2494 2497 2500 2503 2506 2509 2512 2515 2518 2521 2524 2527 2530 2533 2536 2539 2542 2545 2548 2551 2554 2557 2560 2563 2566 2569 2572 2575 2578 2581 2584 2587 2590 2593 2596 2599 2602 2605 2608 2611 2614 2617 2620 2623 2626 2629 2632 2635 2638 2641 2644 2647 2650 2653 2656 2659 2662 2665 2668 2671 2674 2677 2680 2683 2686 2689 2692 2695 2698 2701 2704 2707 2710 2713 2716 2719 2722 2725 2728 2731 2734 2737 2740 2743 2746 2749 2752 2755 2758 2761 2764 2767 2770 2773 2776 2779 2782 2785 2788 2791 2794 2797 2800 2803 2806 2809 2812 2815 2818 2821 2824 2827 2830 2833 2836 2839 2842 2845 2848 2851 2854 2857 2860 2863 2866 2869 2872 2875 2878 2881 2884 2887 2890 2893 2896 2899 2902 2905 2908 2911 2914 2917 2920 2923 2926 2929 2932 2935 2938 2941 2944 2947 2950 2953 2956 2959 2962 2965 2968 2971 2974 2977 2980 2983 2986 2989 2992 2995 2998 3001 3004 3007 3010 3013 3016 3019 3022 3025 3028 3031 3034 3037 3040 3043 3046 3049 3052 3055 3058 3061 3064 3067 3070 3073 3076 3079 3082 3085 3088 3091 3094 3097 3100 3103 3106 3109 3112 3115 3118 3121 3124 3127 3130 3133 3136 3139 3142 
</DataArray>
<DataArray type="UInt32" Name="types" format="ascii">
3 3 3 3 3 3 3 3 3 3 3 3 3 3 3 3 3 3 3 3 5 5 5 5 5 5 5 5 5 5 5 5 5 5 5 5 5 5 5 5 5 5 5 5 5 5 5 5 5 5 5 5 5 5 5 5 5 5 5 5 5 5 5 5 5 5 5 5 5 5 5 5 5 5 5 5 5 5 5 5 5 5 5 5 5 5 5 5 5 5 5 5 5 5 5 5 5 5 5 5 5 5 5 5 5 5 5 5 5 5 5 5 5 5 5 5 5 5 5 5 5 5 5 5 5 5 5 5 5 5 5 5 5 5 5 5 5 5 5 5 5 5 5 5 5 5 5 5 5 5 5 5 5 5 5 5 5 5 5 5 5 5 5 5 5 5 5 5 5 5 5 5 5 5 5 5 5 5 5 5 5 5 5 5 5 5 5 5 5 5 5 5 5 5 5 5 5 5 5 5 5 5 5 5 5 5 5 5 5 5 5 5 5 5 5 5 5 5 5 5 5 5 5 5 5 5 5 5 5 5 5 5 5 5 5 5 5 5 5 5 5 5 5 5 5 5 5 5 5 5 5 5 5 5 5 5 5 5 5 5 5 5 5 5 5 5 5 5 5 5 5 5 5 5 5 5 5 5 5 5 5 5 5 5 5 5 5 5 5 5 5 5 5 5 5 5 5 5 5 5 5 5 5 5 5 5 5 5 5 5 5 5 5 5 5 5 5 5 5 5 5 5 5 5 5 5 5 5 5 5 5 5 5 5 5 5 5 5 5 5 5 5 5 5 5 5 5 5 5 5 5 5 5 5 5 5 5 5 5 5 5 5 5 5 5 5 5 5 5 5 5 5 5 5 5 5 5 5 5 5 5 5 5 5 5 5 5 5 5 5 5 5 5 5 5 5 5 5 5 5 5 5 5 5 5 5 5 5 5 5 5 5 5 5 5 5 5 5 5 5 5 5 5 5 5 5 5 5 5 5 5 5 5 5 5 5 5 5 5 5 5 5 5 5 5 5 5 5 5 5 5 5 5 5 5 5 5 5 5 5 5 5 5 5 5 5 5 5 5 5 5 5 5 5 5 5 5 5 5 5 5 5 5 5 5 5 5 5 5 5 5 5 5 5 5 5 5 5 5 5 5 5 5 5 5 5 5 5 5 5 5 5 5 5 5 5 5 5 5 5 5 5 5 5 5 5 5 5 5 5 5 5 5 5 5 5 5 5 5 5 5 5 5 5 5 5 5 5 5 5 5 5 5 5 5 5 5 5 5 5 5 5 5 5 5 5 5 5 5 5 5 5 5 5 5 5 5 5 5 5 5 5 5 5 5 5 5 5 5 5 5 5 5 5 5 5 5 5 5 5 5 5 5 5 5 5 5 5 5 5 5 5 5 5 5 5 5 5 5 5 5 5 5 5 5 5 5 5 5 5 5 5 5 5 5 5 5 5 5 5 5 5 5 5 5 5 5 5 5 5 5 5 5 5 5 5 5 5 5 5 5 5 5 5 5 5 5 5 5 5 5 5 5 5 5 5 5 5 5 5 5 5 5 5 5 5 5 5 5 5 5 5 5 5 5 5 5 5 5 5 5 5 5 5 5 5 5 5 5 5 5 5 5 5 5 5 5 5 5 5 5 5 5 5 5 5 5 5 5 5 5 5 5 5 5 5 5 5 5 5 5 5 5 5 5 5 5 5 5 5 5 5 5 5 5 5 5 5 5 5 5 5 5 5 5 5 5 5 5 5 5 5 5 5 5 5 5 5 5 5 5 5 5 5 5 5 5 5 5 5 5 5 5 5 5 5 5 5 5 5 5 5 5 5 5 5 5 5 5 5 5 5 5 5 5 5 5 5 5 5 5 5 5 5 5 5 5 5 5 5 5 5 5 5 5 5 5 5 5 5 5 5 5 5 5 5 5 5 5 5 5 5 5 5 5 5 5 5 5 5 5 5 5 5 5 5 5 5 5 5 5 5 5 5 5 5 5 5 5 5 5 5 5 5 5 5 5 5 5 5 5 5 5 5 5 5 5 5 5 5 5 5 5 5 5 5 5 5 5 5 5 5 5 5 5 5 5 5 5 5 5 5 5 5 5 5 5 5 5 5 5 5 5 5 5 5 5 5 5 5 5 5 5 5 5 5 5 5 5 5 5 5 5 5 5 5 5 5 5 5 5 5 5 5 5 5 5 5 5 5 5 5 5 5 5 5 5 5 5 5 5 5 5 5 5 5 5 5 5 5 5 5 5 5 5 5 5 5 5 5 5 5 5 5 5 5 5 5 5 5 5 5 5 5 5 5 5 5 5 5 5 5 5 5 5 5 5 5 5 5 5 5 5 5 5 5 5 5 5 5 5 5 5 5 5 5 5 5 5 5 5 5 5 5 
</DataArray>
</Cells>
<PointData Scalars="" Vectors="displacement," Tensors="">
<DataArray type="Float64" Name="displacement" NumberOfComponents="3" format="ascii">
6.8046847257329018e-06 -1.4600871337711237e-05 0 1.0096143338461312e-05 -2.1690851488278013e-05 0 1.0096143338461312e-05 -2.1690851488278013e-05 0 1.0951399812354404e-05 -2.9923721022608455e-05 0 1.0951399812354404e-05 -2.9923721022608455e-05 0 1.2234728478548085e-05 -3.9589432545553842e-05 0 1.2234728478548085e-05 -3.9589432545553842e-05 0 1.3592859983162856e-05 -5.0026449172263808e-05 0 1.3592859983162856e-05 -5.0026449172263808e-05 0 1.5278828638393401e-05 -6.0953231940324129e-05 0 1.5278828638393401e-05 -6.0953231940324129e-05 0 1.7403681371651147e-05 -7.2242024461537807e-05 0 1.7403681371651147e-05 -7.2242024461537807e-05 0 1.9744336885067405e-05 -8.356078765526983e-05 0 1.9744336885067405e-05 -8.356078765526983e-05 0 2.355967185747303e-05 -9.5336322870729959e-05 0 2.355967185747303e-05 -9.5336322870729959e-05 0 2.5326065367138373e-05 -0.00010536836374979977 0 2.5326065367138373e-05 -0.00010536836374979977 0 3.9411875433109758e-05 -0.00011649406447986345 0 1.9155774936546674e-05 1.7475398685938888e-05 0 4.8181817878718214e-05 3.0373762479342535e-05 0 4.8181817878718214e-05 3.0373762479342535e-05 0 4.6438790372287012e-05 3.6691975045529354e-05 0 4.6438790372287012e-05 3.6691975045529354e-05 0 5.1618674767272378e-05 4.9244286059939081e-05 0 5.1618674767272378e-05 4.9244286059939081e-05 0 5.4965761690606692e-05 6.0644849777171885e-05 0 5.4965761690606692e-05 6.0644849777171885e-05 0 5.8751555485773556e-05 7.3655402107147938e-05 0 5.8751555485773556e-05 7.3655402107147938e-05 0 6.3008335192914254e-05 8.7207130246909334e-05 0 6.3008335192914254e-05 8.7207130246909334e-05 0 6.6595027475487402e-05 9.9885208667722746e-05 0 6.6595027475487402e-05 9.9885208667722746e-05 0 7.5176905130497327e-05 0.00011519653802418641 0 7.5176905130497327e-05 0.00011519653802418641 0 6.8699071815484644e-05 0.00012567562817044752 0 6.8699071815484644e-05 0.00012567562817044752 0 0.00012522744663218542 0.00014105035479134245 0 6.7527296051648549e-06 -4.2405219493416603e-06 0 6.6628959655726449e-06 -1.2422122058067223e-07 0 5.1242838824193685e-06 -2.6442477246798616e-06 0 7.9706679496087214e-06 -2.0744504146971235e-06 0 6.6628959655726449e-06 -1.2422122058067223e-07 0 6.7527296051648549e-06 -4.2405219493416603e-06 0 6.2115430702260438e-06 -1.2390272656788022e-05 0 7.704590950737727e-06 -9.1845172177569595e-06 0 5.6746304592567555e-06 -1.1317948736675417e-05 0 5.6746304592567555e-06 -1.1317948736675417e-05 0 7.704590950737727e-06 -9.1845172177569595e-06 0 6.5645274979350749e-06 -9.8982481495703984e-06 0 -5.2604525190789571e-06 -1.3055665459328079e-06 0 -2.3533290207824749e-06 -1.3934066245657487e-06 0 -5.1453159946682081e-06 -2.3606598103261431e-06 0 -3.9640318653278724e-06 5.3941190266115406e-07 0 -3.8913519831226983e-06 1.2867982737064461e-06 0 -1.8119140583430752e-06 7.716711030574866e-07 0 -2.2274077163827976e-06 -3.8729999297032469e-07 0 -2.3533290207824749e-06 -1.3934066245657487e-06 0 -5.2604525190789571e-06 -1.3055665459328079e-06 0 -1.754621492683568e-06 4.2881780053752932e-08 0 -3.9640318653278724e-06 5.3941190266115406e-07 0 -1.8119140583430752e-06 7.716711030574866e-07 0 -1.3591632536844513e-05 -1.0033394044071821e-06 0 -1.7509117835227278e-05 -3.164967070267163e-06 0 -1.2236148914836857e-05 -5.3083809798768942e-07 0 -2.650128525119489e-05 4.2701556741999829e-06 0 -1.9784298633198176e-05 6.9689189470712119e-07 0 -1.8332926818381478e-05 3.4220731072195935e-07 0 6.1544773704527204e-06 -2.7412151050581048e-07 0 8.0675401647022562e-06 -3.4008843089269428e-08 0 5.669736798835044e-06 -1.5426507881492248e-06 0 8.3370501167058411e-06 -7.13356015918473e-07 0 5.669736798835044e-06 -1.5426507881492248e-06 0 8.0675401647022562e-06 -3.4008843089269428e-08 0 5.2864220085027411e-07 2.9560257819627283e-06 0 1.0827105789150318e-06 3.1091514441467966e-06 0 2.1970797002070362e-06 2.912175540304868e-06 0 3.7906933392884169e-10 -9.1038395808027673e-10 0 8.7530415745240943e-10 -6.1449863199913951e-10 0 7.8345481655979983e-07 -1.7253884916003269e-06 0 4.0502166601804555e-10 6.5521057339542143e-10 0 -2.9004285586370495e-11 7.4488999418034443e-10 0 2.1438443123495111e-07 1.6672291336482894e-06 0 3.3393734521457041e-06 -1.6187899824350901e-05 0 5.4664992528195344e-06 -1.7200955381753311e-05 0 6.2115430702260438e-06 -1.2390272656788022e-05 0 3.4121365561574779e-05 2.0440036315028893e-05 0 2.3748991018842554e-05 1.2059953075211406e-05 0 2.5719389722693528e-05 1.3145469369290193e-05 0 -1.1232260918082691e-05 -0.00017809896441805452 0 3.4981201703204221e-06 -0.0001618204817825511 0 -1.236081438232394e-05 -0.00015552441514222822 0 -4.2651653089488465e-06 0.00034861120272180758 0 -3.5602583113414097e-05 0.00031669127720345769 0 -6.0138516138797266e-06 0.00030501903154561845 0 -4.2651653089488465e-06 0.00034861120272180758 0 -6.0138516138797266e-06 0.00030501903154561845 0 2.5206350847808436e-05 0.00031669871601389707 0 -1.1232260918082691e-05 -0.00017809896441805452 0 -1.236081438232394e-05 -0.00015552441514222822 0 -2.7302185733829108e-05 -0.00016145307365335922 0 -4.1471252742927319e-05 0.00028259819115894789 0 -5.4703932791402128e-06 0.00026659378954909405 0 -6.0138516138797266e-06 0.00030501903154561845 0 4.560216581869032e-06 -0.00014355129960984711 0 -1.4239256556039909e-05 -0.00013533748759331419 0 -1.236081438232394e-05 -0.00015552441514222822 0 5.2864220085027411e-07 2.9560257819627283e-06 0 2.1970797002070362e-06 2.912175540304868e-06 0 9.4177448369934746e-07 2.5196977037933734e-06 0 3.4121365561574779e-05 2.0440036315028893e-05 0 2.0634287164397722e-05 1.6935702180813294e-05 0 2.3748991018842554e-05 1.2059953075211406e-05 0 -7.2681284984240841e-05 6.86756531616674e-05 0 -6.3758683057512104e-05 4.7999592066363769e-05 0 -4.4650077748056827e-05 5.2892832582266932e-05 0 -3.7676333596946037e-05 -2.5492680372597318e-05 0 -4.2542276837085767e-05 -3.5507870671992908e-05 0 -2.8631247748422398e-05 -2.8187821806124589e-05 0 4.8693158953093414e-06 -1.2247937022561341e-05 0 3.3393734521457041e-06 -1.6187899824350901e-05 0 6.2115430702260438e-06 -1.2390272656788022e-05 0 -2.1303570389276517e-05 4.2098408191424227e-05 0 -1.8046461945139994e-05 2.2207781052146973e-05 0 -8.0041396397848951e-06 2.4946147792297062e-05 0 -5.4083240345842572e-06 2.8301455882327638e-06 0 -1.3087764683558568e-05 6.4790141437108363e-06 0 -1.3919606575901461e-05 1.3242687546907724e-06 0 1.6720062030045087e-05 -4.9748673530165689e-06 0 1.4771931030147881e-05 -4.1663456903461972e-07 0 1.4123301584572169e-05 -6.5807914528602675e-06 0 -1.3947222144967235e-05 -0.0001161566494114673 0 -2.7734524915040138e-06 -0.00011097395589212026 0 -1.6101114068429578e-05 -9.6900394480455433e-05 0 -8.5263083737114007e-06 0.00023019896875433422 0 -3.16829477341046e-05 0.00021992018994794693 0 -6.1105123640242122e-06 0.00019180690688310834 0 -1.6101114068429578e-05 -9.6900394480455433e-05 0 -2.7734524915040138e-06 -0.00011097395589212026 0 -3.3591959598456004e-06 -9.4816406691489616e-05 0 -6.1105123640242122e-06 0.00019180690688310834 0 -3.16829477341046e-05 0.00021992018994794693 0 -3.1987202205867803e-05 0.00019178571675277701 0 -5.4083240345842572e-06 2.8301455882327638e-06 0 -1.3919606575901461e-05 1.3242687546907724e-06 0 -5.0673591713921739e-06 -4.9961563735925243e-07 0 2.027070777020375e-05 -1.0358022187003363e-05 0 1.9505386001121441e-05 -4.4102902436738856e-07 0 1.6720062030045087e-05 -4.9748673530165689e-06 0 -2.1303570389276517e-05 4.2098408191424227e-05 0 -3.0977093889185975e-05 3.4268923380394802e-05 0 -1.8046461945139997e-05 2.2207781052146973e-05 0 3.4121365561574779e-05 2.0440036315028893e-05 0 4.8959059091496558e-05 6.0779719893690723e-05 0 2.7110877177055668e-05 6.1844516450471242e-05 0 2.0238887748356717e-05 -5.3848298224053135e-05 0 1.8736142338593662e-05 -5.3161239669510178e-05 0 1.6802078867523138e-05 -5.2688723122508569e-05 0 5.7955276837723776e-05 -6.8732859899743606e-05 0 5.5056482410602353e-05 -5.9159266007033336e-05 0 4.284308721123139e-05 -6.0177313252764429e-05 0 1.7693989115831085e-05 3.593251698078234e-06 0 1.4771931030147881e-05 -4.1663456903461972e-07 0 1.6720062030045087e-05 -4.9748673530165689e-06 0 3.967441454102702e-05 -0.00015769091638952141 0 2.0572483165530875e-05 -0.00014095139948540743 0 1.9815855580552934e-05 -0.00015775222776576471 0 -0.00010422663189657097 0.00031415259753702431 0 -7.3453003571832828e-05 0.00027934908207158008 0 -6.7112227954608562e-05 0.00030986431902169413 0 1.1884656549419265e-09 -4.8465911422385017e-10 0 1.5682010965515034e-06 -5.6514730119737864e-07 0 1.2133650283518231e-06 -1.0951707518619727e-06 0 6.8968883560716433e-10 6.594477204311191e-10 0 5.8997716790471794e-07 1.4462072875815454e-06 0 1.025943209328053e-06 1.3610829622917408e-06 0 -2.1303570389276517e-05 4.2098408191424227e-05 0 -4.3120581869983549e-06 4.096489937875626e-05 0 -1.3293963490773079e-05 6.6582228930793953e-05 0 7.6396723498953675e-06 5.9188794602779208e-05 0 -1.3293963490773079e-05 6.6582228930793953e-05 0 -4.312058186998354e-06 4.0964899378756266e-05 0 1.8659865802282752e-05 3.5278158089414399e-05 0 3.4121365561574779e-05 2.0440036315028893e-05 0 2.7110877177055668e-05 6.1844516450471242e-05 0 -0.00010271450179350648 0.00024658082269579597 0 -6.1174255150309146e-05 0.00024713496175843432 0 -7.3453003571832828e-05 0.00027934908207158008 0 3.2906509129244114e-05 -0.00012144977569414617 0 1.2607314318499406e-05 -0.00012423608541312938 0 2.0572483165530875e-05 -0.0001409513994854074 0 3.3546867536132918e-05 -4.6909039817242732e-05 0 2.9171086394921442e-05 -4.1914554721424827e-05 0 2.6730846646199644e-05 -4.6476342771992376e-05 0 1.2701101105420822e-05 -3.3651336767072174e-06 0 1.4123301584572169e-05 -6.5807914528602675e-06 0 1.4771931030147881e-05 -4.1663456903461972e-07 0 1.4606954594148069e-05 -1.15186413974555e-05 0 1.4767369040347504e-05 -1.6236759406206967e-05 0 1.92064285609897e-05 -1.7070187254228742e-05 0 3.3863682601022924e-05 -2.9198341052472895e-05 0 2.9803518045599307e-05 -2.5024580341349093e-05 0 2.81169594496957e-05 -2.9608347058566824e-05 0 -8.8164410581501772e-05 0.00012045021160271192 0 -5.9916340501274393e-05 0.0001021731231440291 0 -6.8525163976680594e-05 0.00013679382964446979 0 -6.1417814974671107e-05 -0.00012502626984170744 0 -4.6797418624572391e-05 -0.00014239609163704966 0 -4.1503341866036462e-05 -0.0001263700986644901 0 8.5049917818941757e-05 0.00024059559204736388 0 6.0661131132631427e-05 0.00027762539088321641 0 4.7456704035710597e-05 0.00024775956880106556 0 3.5987865074425938e-05 -0.00013917599154343168 0 2.0572483165530875e-05 -0.0001409513994854074 0 3.967441454102702e-05 -0.00015769091638952141 0 -0.00010422663189657097 0.00031415259753702431 0 -0.00010379422446570151 0.00028041491065130712 0 -7.3453003571832828e-05 0.00027934908207158008 0 1.7036995968980422e-05 -4.4991306797184198e-05 0 1.3413843164099353e-05 -3.9386203007633055e-05 0 1.4186111172476233e-05 -4.5494089231533961e-05 0 7.9581237547636854e-06 -1.4776322526406585e-05 0 2.7408290426377563e-06 -1.7586277738727183e-05 0 4.2600588811322213e-06 -2.8099762943210263e-05 0 1.7036995968980422e-05 -4.4991306797184198e-05 0 1.6782787239581456e-05 -4.0099211281119997e-05 0 1.3413843164099353e-05 -3.9386203007633055e-05 0 2.5163170076863088e-05 -2.4329283271754618e-05 0 2.81169594496957e-05 -2.9608347058566824e-05 0 2.9803518045599307e-05 -2.5024580341349093e-05 0 -1.4320339502953774e-05 -5.0785254100620837e-05 0 -1.5574760275257044e-05 -6.8492255495263015e-05 0 -5.4760628604027882e-06 -5.5223084551864204e-05 0 -1.4244019699782016e-09 4.5739976494116665e-10 0 -1.8119140583430752e-06 7.716711030574866e-07 0 -1.1609498582561076e-06 1.0975686524041847e-06 0 -1.9205876273156735e-09 -7.4624309456888456e-10 0 -1.4128547356572362e-06 -1.746434455774852e-06 0 -2.3533290207824749e-06 -1.3934066245657487e-06 0 2.0238887748356717e-05 -5.3848298224053135e-05 0 2.1141668721136831e-05 -5.5275005169506047e-05 0 1.8736142338593662e-05 -5.3161239669510178e-05 0 4.5968302455270387e-05 -6.8337675235120293e-05 0 5.7955276837723776e-05 -6.8732859899743606e-05 0 4.284308721123139e-05 -6.0177313252764429e-05 0 -7.5538406410354699e-10 -1.2621337420315324e-09 0 -1.3920423501620576e-06 -2.6877879851537181e-06 0 -1.4128547356572358e-06 -1.746434455774852e-06 0 -7.4901444353392652e-10 8.4321284783660031e-10 0 -1.1609498582561076e-06 1.0975686524041847e-06 0 -1.3496338075842216e-06 1.8255313457329838e-06 0 5.669736798835044e-06 -1.5426507881492248e-06 0 2.6092731025388127e-06 -2.1997332237516958e-06 0 4.2356559193192186e-06 -1.209280817242954e-06 0 -6.6844944452854952e-06 7.4753937812998859e-07 0 -5.5820550236348151e-06 1.7575506265320989e-06 0 -3.8913519831226983e-06 1.2867982737064461e-06 0 -9.1822832861353888e-06 -1.7416479900627596e-06 0 -5.1453159946682089e-06 -2.3606598103261435e-06 0 -7.3829707401593045e-06 -3.1501237707152602e-06 0 2.1829044494243146e-05 -2.8602087680300525e-05 0 2.1199354125036988e-05 -2.4023703843249275e-05 0 1.7353797010547361e-05 -2.5549608832466432e-05 0 1.7240983095397621e-05 -2.0895625705079291e-05 0 1.92064285609897e-05 -1.7070187254228742e-05 0 1.4767369040347504e-05 -1.6236759406206967e-05 0 9.6769509895454684e-05 0.00030826611901046573 0 5.7610745920795812e-05 0.00030858685892272251 0 6.0661131132631427e-05 0.00027762539088321641 0 -6.2443462478728245e-05 -0.00016012156157266973 0 -4.335584662016397e-05 -0.0001578728029635009 0 -4.6797418624572391e-05 -0.00014239609163704966 0 1.7240983095397621e-05 -2.0895625705079291e-05 0 1.7353797010547361e-05 -2.5549608832466432e-05 0 2.1199354125036988e-05 -2.4023703843249275e-05 0 2.9171086394921442e-05 -4.1914554721424827e-05 0 3.4271136413358431e-05 -4.0604603982321391e-05 0 2.6276808852740923e-05 -3.531341927713072e-05 0 -3.4692639946566759e-05 0.00016361350647517341 0 -2.7010635282473539e-05 0.000125920275825224 0 -9.1550196001064157e-06 0.00013976099022760451 0 -1.9205876273156735e-09 -7.4624309456888456e-10 0 -1.7195563213320387e-09 -4.8395481622431211e-10 0 -1.4128547356572358e-06 -1.746434455774852e-06 0 -1.4192830811792789e-09 2.9456894301383084e-10 0 -1.4244019699782016e-09 4.5739976494116665e-10 0 -1.1609498582561076e-06 1.0975686524041847e-06 0 5.669736798835044e-06 -1.5426507881492248e-06 0 3.921776861696207e-06 -2.5440416781962752e-06 0 2.6092731025388127e-06 -2.1997332237516958e-06 0 2.8048159237772616e-05 0.00028124265285810906 0 -6.0138516138797266e-06 0.00030501903154561845 0 -5.4703932791402128e-06 0.00026659378954909405 0 -3.037589315311291e-05 -0.00014329286159625183 0 -1.236081438232394e-05 -0.00015552441514222822 0 -1.4239256556039909e-05 -0.00013533748759331419 0 -1.5574760275257044e-05 -6.8492255495263015e-05 0 -4.5497891334041621e-06 -6.9184898197211656e-05 0 -5.4760628604027882e-06 -5.5223084551864204e-05 0 2.9742724235710256e-06 4.9578393571861401e-07 0 4.3094397166013581e-06 1.178100281968081e-06 0 4.3144101653303497e-06 1.7701027957226848e-07 0 -1.3959312279591235e-06 -3.4070341723359092e-06 0 2.3016706766894203e-06 -2.9360805833768379e-06 0 -6.9673428494164822e-07 -2.0635797492756564e-06 0 3.4271136413358431e-05 -4.0604603982321391e-05 0 3.2218870446451499e-05 -3.5723181533513289e-05 0 2.6276808852740923e-05 -3.531341927713072e-05 0 4.3144101653303497e-06 1.7701027957226848e-07 0 4.3094397166013581e-06 1.178100281968081e-06 0 5.762276034276469e-06 7.1577565536330099e-07 0 4.3094397166013581e-06 1.178100281968081e-06 0 2.2014758104865922e-06 8.7991111368107909e-07 0 3.5486857021585633e-06 1.6237255268453781e-06 0 2.1374711201493477e-06 1.5024364055724637e-06 0 3.5486857021585633e-06 1.6237255268453781e-06 0 2.2014758104865922e-06 8.7991111368107909e-07 0 1.1615304070917049e-05 -4.2239575548519725e-05 0 1.3413843164099353e-05 -3.9386203007633055e-05 0 8.5228222419016196e-06 -3.6337373575085317e-05 0 1.4606954594148069e-05 -1.15186413974555e-05 0 1.92064285609897e-05 -1.7070187254228742e-05 0 1.7420817217194549e-05 -1.0861693831293432e-05 0 3.3546867536132918e-05 -4.6909039817242732e-05 0 3.4271136413358431e-05 -4.0604603982321391e-05 0 2.9171086394921442e-05 -4.1914554721424827e-05 0 1.7693989115831085e-05 3.593251698078234e-06 0 1.6720062030045091e-05 -4.974867353016568e-06 0 1.9505386001121441e-05 -4.4102902436738856e-07 0 9.048154602931206e-05 0.00027369170084806806 0 9.6769509895454684e-05 0.00030826611901046573 0 6.0661131132631427e-05 0.00027762539088321641 0 -6.2153885652048172e-05 -0.0001426322615024497 0 -6.2443462478728245e-05 -0.00016012156157266973 0 -4.6797418624572391e-05 -0.00014239609163704966 0 -6.1417814974671107e-05 -0.00012502626984170744 0 -6.2153885652048172e-05 -0.0001426322615024497 0 -4.6797418624572391e-05 -0.00014239609163704966 0 8.5049917818941757e-05 0.00024059559204736388 0 9.048154602931206e-05 0.00027369170084806806 0 6.0661131132631427e-05 0.00027762539088321641 0 1.979574643891598e-05 6.9823707134048811e-06 0 1.7657301059405149e-05 5.6410562955615003e-06 0 1.7693989115831085e-05 3.593251698078234e-06 0 3.8828480986242134e-06 2.6717444519970122e-06 0 2.5625095863264392e-06 2.308533798393886e-06 0 2.1970797002070362e-06 2.912175540304868e-06 0 1.4815337934293199e-06 2.210061081008173e-06 0 2.1970797002070362e-06 2.912175540304868e-06 0 2.5625095863264392e-06 2.308533798393886e-06 0 3.8435140529114171e-05 0.00014336396747282394 0 4.8740574685302375e-05 0.0001635785545877833 0 1.8461459653490625e-05 0.00016374887542903758 0 4.8740574685302375e-05 0.0001635785545877833 0 4.3818847316809441e-05 0.0001846070150741267 0 1.8461459653490625e-05 0.00016374887542903758 0 2.027070777020375e-05 -1.0358022187003363e-05 0 1.6720062030045084e-05 -4.9748673530165697e-06 0 1.7420817217194549e-05 -1.0861693831293432e-05 0 3.5820130609085876e-05 -6.5563703063945897e-05 0 4.284308721123139e-05 -6.0177313252764429e-05 0 3.461009206669919e-05 -5.5928668905041881e-05 0 2.3532528591481967e-05 -5.8319723971875629e-05 0 2.08885023798905e-05 -5.2745654728843086e-05 0 1.8736142338593662e-05 -5.3161239669510178e-05 0 1.7657301059405149e-05 5.6410562955615003e-06 0 1.5577164450448491e-05 3.0681054519098975e-06 0 1.7693989115831085e-05 3.593251698078234e-06 0 -0.00010379422446570151 0.00028041491065130712 0 -0.00010271450179350648 0.00024658082269579597 0 -7.3453003571832828e-05 0.00027934908207158008 0 3.2906509129244114e-05 -0.00012144977569414617 0 2.0572483165530875e-05 -0.0001409513994854074 0 3.5987865074425938e-05 -0.00013917599154343168 0 -1.7509117835227278e-05 -3.164967070267163e-06 0 -1.6432022249029545e-05 -3.3609470364091354e-06 0 -1.2236148914836857e-05 -5.3083809798768942e-07 0 -2.650128525119489e-05 4.2701556741999829e-06 0 -1.8332926818381478e-05 3.422073107219594e-07 0 -2.4170415452860489e-05 4.8158356388394016e-06 0 2.027070777020375e-05 -1.0358022187003363e-05 0 1.92064285609897e-05 -1.7070187254228742e-05 0 2.5007872911327517e-05 -1.9223171736646431e-05 0 7.9581237547636854e-06 -1.4776322526406585e-05 0 4.2600588811322213e-06 -2.8099762943210263e-05 0 1.4393944564768152e-05 -3.0796952755103715e-05 0 2.5163170076863088e-05 -2.4329283271754618e-05 0 1.92064285609897e-05 -1.7070187254228742e-05 0 2.1199354125036988e-05 -2.4023703843249275e-05 0 1.7240983095397621e-05 -2.0895625705079291e-05 0 2.1199354125036988e-05 -2.4023703843249275e-05 0 1.92064285609897e-05 -1.7070187254228742e-05 0 -1.1232260918082691e-05 -0.00017809896441805452 0 6.5900309006019044e-06 -0.00017871371505270376 0 3.4981201703204221e-06 -0.0001618204817825511 0 -4.2651653089488465e-06 0.00034861120272180758 0 -3.75961283788957e-05 0.0003479986778784254 0 -3.560258311341409e-05 0.00031669127720345769 0 3.0543923323285493e-05 0.00034923305365045014 0 -4.2651653089488465e-06 0.00034861120272180758 0 2.5206350847808436e-05 0.00031669871601389707 0 -2.8220809784855986e-05 -0.00017761611784218565 0 -1.1232260918082691e-05 -0.00017809896441805452 0 -2.7302185733829108e-05 -0.00016145307365335922 0 8.6247774429158977e-06 2.3802492970409651e-05 0 -4.312058186998354e-06 4.0964899378756266e-05 0 -8.0041396397848951e-06 2.4946147792297062e-05 0 1.2913502765993407e-05 -2.4465662311282902e-05 0 1.1664567679825084e-05 -2.9062051735070425e-05 0 1.5628607186995039e-05 -3.0151370711725846e-05 0 2.5163170076863088e-05 -2.4329283271754618e-05 0 2.1199354125036988e-05 -2.4023703843249275e-05 0 2.81169594496957e-05 -2.9608347058566824e-05 0 2.1829044494243146e-05 -2.8602087680300525e-05 0 2.81169594496957e-05 -2.9608347058566824e-05 0 2.1199354125036988e-05 -2.4023703843249275e-05 0 3.7779011059306622e-06 -5.9182859199748462e-05 0 3.4116165611106597e-06 -4.319381739543786e-05 0 -5.4760628604027882e-06 -5.5223084551864204e-05 0 -7.2681284984240841e-05 6.86756531616674e-05 0 -4.4650077748056827e-05 5.2892832582266932e-05 0 -5.9995964060898309e-05 7.8108710313302431e-05 0 -7.3795862173560528e-06 -6.9555917031353525e-06 0 -1.1715549043302161e-05 -1.2605252144128363e-05 0 -3.8517539192567123e-06 -9.6281268061430802e-06 0 -5.999730466257014e-06 -1.5961493783558301e-05 0 -3.8517539192567123e-06 -9.6281268061430802e-06 0 -1.1715549043302161e-05 -1.2605252144128363e-05 0 1.7525057980603695e-05 -4.9159984113755352e-05 0 2.0905645678857474e-05 -4.7693843834079921e-05 0 1.7036995968980422e-05 -4.4991306797184198e-05 0 -4.7667209079819223e-05 0.00012116690639762137 0 -6.8525163976680594e-05 0.00013679382964446979 0 -5.9916340501274393e-05 0.0001021731231440291 0 -1.4602484930352731e-05 -4.4380937021218552e-06 0 -2.0226020669954127e-05 -8.9872982573426149e-06 0 -1.3853315437360064e-05 -7.9852724875572412e-06 0 -1.9814145793269994e-05 -1.3219890036319575e-05 0 -1.3853315437360064e-05 -7.9852724875572412e-06 0 -2.0226020669954127e-05 -8.9872982573426149e-06 0 -2.8935861724347166e-05 2.3263653718486055e-05 0 -3.046914372979156e-05 1.5163921227487167e-05 0 -1.9163183436987452e-05 1.3460330054463965e-05 0 -2.1003111140409764e-05 7.4100486045985972e-06 0 -1.9163183436987452e-05 1.3460330054463965e-05 0 -3.046914372979156e-05 1.5163921227487167e-05 0 1.2909657818703725e-05 -3.4730044993528456e-05 0 1.7519087664697163e-05 -3.5533731385383043e-05 0 1.5628607186995039e-05 -3.0151370711725846e-05 0 -4.2542276837085767e-05 -3.5507870671992908e-05 0 -3.6660080355735939e-05 -3.9920084328016376e-05 0 -2.8631247748422398e-05 -2.8187821806124589e-05 0 2.4194608378232245e-05 0.00011678587081130344 0 4.3943527593491606e-06 9.0178272919113269e-05 0 2.5534098920418446e-05 8.6836363113073145e-05 0 1.2701101105420822e-05 -3.3651336767072174e-06 0 1.0027974676486053e-05 -5.4090389222096827e-06 0 1.1234123335319247e-05 -8.4412772537371443e-06 0 1.0713947399151575e-05 2.4835484211677144e-06 0 1.2534169649254308e-05 2.8327833366395466e-06 0 1.0396283819946247e-05 2.0908868279902297e-06 0 -5.48203546774928e-05 0.00021034331287171867 0 -3.16829477341046e-05 0.00021992018994794693 0 -6.1174255150309146e-05 0.00024713496175843432 0 8.0942452206570965e-06 -0.00010503021329715562 0 -2.7734524915040138e-06 -0.00011097395589212026 0 1.2607314318499408e-05 -0.00012423608541312938 0 2.027070777020375e-05 -1.0358022187003363e-05 0 1.7420817217194546e-05 -1.0861693831293431e-05 0 1.92064285609897e-05 -1.7070187254228742e-05 0 2.08885023798905e-05 -5.2745654728843086e-05 0 2.0905645678857474e-05 -4.7693843834079921e-05 0 1.7525057980603695e-05 -4.9159984113755352e-05 0 2.1829044494243146e-05 -2.8602087680300525e-05 0 1.9538216660931317e-05 -3.1033714641271459e-05 0 2.6276808852740923e-05 -3.531341927713072e-05 0 8.7530415745240943e-10 -6.1449863199913951e-10 0 1.2133650283518231e-06 -1.0951707518619727e-06 0 7.8345481655979983e-07 -1.7253884916003269e-06 0 4.0502166601804555e-10 6.5521057339542143e-10 0 2.1438443123495111e-07 1.6672291336482894e-06 0 5.8997716790471794e-07 1.4462072875815454e-06 0 3.4116165611106597e-06 -4.319381739543786e-05 0 -6.8009741107621756e-06 -4.261010325393699e-05 0 -5.4760628604027882e-06 -5.5223084551864204e-05 0 -1.3959312279591235e-06 -3.4070341723359092e-06 0 -6.9673428494164822e-07 -2.0635797492756564e-06 0 -5.359808359920886e-06 -2.8953319192939936e-06 0 -5.7526404359318955e-06 1.0737631539772218e-05 0 -8.0041396397848917e-06 2.4946147792297062e-05 0 -1.8046461945139997e-05 2.2207781052146973e-05 0 2.6938349958252891e-06 -1.2593162778855027e-06 0 1.5682010965515034e-06 -5.6514730119737864e-07 0 3.6645122993886239e-06 -6.1785204957048237e-07 0 2.7182650537027702e-06 -2.6256359562012878e-08 0 3.6645122993886239e-06 -6.1785204957048237e-07 0 1.5682010965515034e-06 -5.6514730119737864e-07 0 2.1374711201493477e-06 1.5024364055724637e-06 0 1.025943209328053e-06 1.3610829622917408e-06 0 2.5625095863264392e-06 2.308533798393886e-06 0 1.4815337934293199e-06 2.210061081008173e-06 0 2.5625095863264392e-06 2.308533798393886e-06 0 1.025943209328053e-06 1.3610829622917408e-06 0 -5.4083240345842572e-06 2.8301455882327638e-06 0 9.1908817236142249e-07 4.8880679231046531e-06 0 -5.7526404359318955e-06 1.0737631539772218e-05 0 1.0713947399151575e-05 2.4835484211677144e-06 0 1.2923158333096772e-05 3.0532188277328415e-06 0 1.2534169649254308e-05 2.8327833366395466e-06 0 8.3370501167058411e-06 -7.13356015918473e-07 0 5.3845416407056006e-06 -2.1677318751592881e-06 0 5.669736798835044e-06 -1.5426507881492248e-06 0 -6.9673428494164822e-07 -2.0635797492756564e-06 0 2.3016706766894203e-06 -2.9360805833768379e-06 0 3.8581511056967631e-06 -8.7126207727903054e-07 0 1.3517463983301574e-05 2.5131528781427944e-06 0 1.5489449234532349e-05 4.2276910840401702e-06 0 1.2923158333096772e-05 3.0532188277328411e-06 0 6.6725338078060622e-07 2.0178535841583426e-06 0 1.6803246506567081e-06 8.257587404817207e-07 0 2.5911428719624537e-06 2.2826719420430494e-06 0 3.85009601622605e-06 8.7584189048578267e-07 0 2.5911428719624537e-06 2.2826719420430494e-06 0 1.6803246506567081e-06 8.257587404817207e-07 0 -1.7195563213320122e-09 -4.8395481622427943e-10 0 -7.5538406410354699e-10 -1.2621337420315324e-09 0 -1.4128547356572358e-06 -1.746434455774852e-06 0 -7.4901444353392652e-10 8.4321284783660031e-10 0 -1.4192830811792789e-09 2.9456894301383084e-10 0 -1.1609498582561076e-06 1.0975686524041847e-06 0 5.6858799367210693e-05 9.0205544156633281e-05 0 2.5534098920418446e-05 8.6836363113073145e-05 0 2.7110877177055668e-05 6.1844516450471242e-05 0 3.8828480986242134e-06 2.6717444519970122e-06 0 4.7490896950195262e-06 2.5797466370658879e-06 0 5.5454969570365914e-06 2.4629221674149841e-06 0 7.704590950737727e-06 -9.1845172177569595e-06 0 8.350034989001857e-06 -6.2405923344245756e-06 0 6.5645274979350749e-06 -9.8982481495703984e-06 0 2.5471992103810658e-05 -5.1833100913638472e-05 0 2.0905645678857474e-05 -4.7693843834079921e-05 0 2.08885023798905e-05 -5.2745654728843086e-05 0 -1.3591632536844513e-05 -1.0033394044071821e-06 0 -1.2236148914836857e-05 -5.3083809798768942e-07 0 -1.0098736496202762e-05 6.8633699944971632e-07 0 -1.9784298633198176e-05 6.9689189470712119e-07 0 -1.4427683474268758e-05 -1.7433854319672126e-06 0 -1.8332926818381478e-05 3.4220731072195935e-07 0 2.1632760799810547e-05 -3.5743561847447812e-05 0 2.6276808852740923e-05 -3.531341927713072e-05 0 1.9538216660931317e-05 -3.1033714641271459e-05 0 -1.2236148914836857e-05 -5.3083809798768942e-07 0 -8.3854093634835292e-06 4.2610855639669433e-07 0 -8.8527863433492227e-06 1.0397950463226219e-06 0 -8.9141918213358045e-06 -1.3458260041748329e-06 0 -5.0673591713921739e-06 -4.9961563735925243e-07 0 -1.3919606575901461e-05 1.3242687546907724e-06 0 -1.2293125679086696e-05 -1.6847544110364324e-06 0 -8.3854093634835292e-06 4.2610855639669427e-07 0 -1.2236148914836857e-05 -5.3083809798768942e-07 0 -4.871292231402229e-07 3.1020911988979392e-06 0 -2.3567597312992277e-06 2.9614351656628881e-06 0 -1.2000029362614516e-06 2.5917278268974835e-06 0 2.6781362493279656e-06 -3.3486521174763426e-06 0 2.3016706766894203e-06 -2.9360805833768379e-06 0 -1.2101935478941488e-06 -4.1142823700915735e-06 0 -1.3087764683558568e-05 6.4790141437108363e-06 0 -5.4083240345842572e-06 2.8301455882327634e-06 0 -5.7526404359318955e-06 1.0737631539772218e-05 0 1.2909657818703725e-05 -3.4730044993528456e-05 0 1.5628607186995039e-05 -3.0151370711725843e-05 0 1.1664567679825084e-05 -2.9062051735070425e-05 0 3.5003863750830385e-05 0.00021290006794982486 0 4.7456704035710597e-05 0.00024775956880106556 0 1.7478931520434496e-05 0.0002435375748319942 0 -3.6298299138982198e-05 -0.00010770185821675713 0 -4.1503341866036455e-05 -0.00012637009866449012 0 -2.6516587640821388e-05 -0.00012343326494029019 0 2.6938349958252891e-06 -1.2593162778855027e-06 0 1.2133650283518233e-06 -1.0951707518619727e-06 0 1.5682010965515034e-06 -5.6514730119737864e-07 0 1.4815337934293199e-06 2.210061081008173e-06 0 1.025943209328053e-06 1.3610829622917406e-06 0 5.8997716790471794e-07 1.4462072875815454e-06 0 3.7906933392884169e-10 -9.1038395808027673e-10 0 7.8345481655979983e-07 -1.7253884916003269e-06 0 1.7581217648914029e-07 -1.8699984804651868e-06 0 -2.9004285586370495e-11 7.4488999418034443e-10 0 -1.9381881325858019e-07 1.525878281366164e-06 0 2.1438443123495111e-07 1.6672291336482894e-06 0 7.704590950737727e-06 -9.1845172177569595e-06 0 6.2115430702260438e-06 -1.2390272656788022e-05 0 9.3565851847437728e-06 -1.2424459910119221e-05 0 7.8964621316775083e-06 -1.5617659459510342e-05 0 9.3565851847437728e-06 -1.2424459910119221e-05 0 6.2115430702260438e-06 -1.2390272656788022e-05 0 -1.5952133058911609e-05 9.6358626000193117e-05 0 -1.3293963490773079e-05 6.6582228930793953e-05 0 4.3943527593491606e-06 9.0178272919113269e-05 0 7.6396723498953675e-06 5.9188794602779208e-05 0 4.3943527593491589e-06 9.0178272919113269e-05 0 -1.3293963490773079e-05 6.6582228930793953e-05 0 1.6460162770420513e-05 9.6547805981240704e-06 0 1.7119228076660399e-05 5.9505708323453907e-06 0 2.3748991018842554e-05 1.2059953075211406e-05 0 7.704590950737727e-06 -9.1845172177569595e-06 0 1.0027974676486053e-05 -5.4090389222096827e-06 0 8.350034989001857e-06 -6.2405923344245756e-06 0 6.1544773704527204e-06 -2.7412151050581048e-07 0 4.3144101653303497e-06 1.7701027957226848e-07 0 5.762276034276469e-06 7.1577565536330099e-07 0 1.2913502765993407e-05 -2.4465662311282902e-05 0 1.5628607186995039e-05 -3.0151370711725846e-05 0 1.7353797010547361e-05 -2.5549608832466432e-05 0 -3.4692639946566759e-05 0.00016361350647517341 0 -4.8568872244343179e-05 0.00014199618217239864 0 -2.7010635282473539e-05 0.000125920275825224 0 1.1615304070917049e-05 -4.2239575548519725e-05 0 8.5228222419016196e-06 -3.6337373575085317e-05 0 8.3914301232700527e-06 -4.1926107631766121e-05 0 2.9171086394921442e-05 -4.1914554721424827e-05 0 2.4152063906701757e-05 -3.9987265816691251e-05 0 2.6730846646199644e-05 -4.6476342771992376e-05 0 2.4986203383317997e-06 2.9135121495299077e-06 0 2.1970797002070362e-06 2.912175540304868e-06 0 1.0827105789150318e-06 3.1091514441467966e-06 0 -2.1303570389276517e-05 4.2098408191424227e-05 0 -8.0041396397848951e-06 2.4946147792297062e-05 0 -4.312058186998354e-06 4.0964899378756266e-05 0 -3.9640318653278724e-06 5.3941190266115406e-07 0 -6.6844944452854952e-06 7.4753937812998859e-07 0 -3.8913519831226983e-06 1.2867982737064461e-06 0 -9.1822832861353888e-06 -1.7416479900627596e-06 0 -5.2604525190789571e-06 -1.3055665459328079e-06 0 -5.1453159946682081e-06 -2.3606598103261431e-06 0 2.5163170076863088e-05 -2.4329283271754618e-05 0 2.5007872911327517e-05 -1.9223171736646431e-05 0 1.92064285609897e-05 -1.7070187254228742e-05 0 -8.4505357540735806e-07 2.3819652982329175e-06 0 -1.2872877462772131e-06 3.0520083306045318e-06 0 -7.0735509769470681e-08 2.657557257931882e-06 0 -2.9152494412302073e-07 -3.10715940930553e-06 0 9.8883618052954331e-07 -2.9336030235772938e-06 0 -1.6946894670009644e-08 -3.9387503815265781e-06 0 -6.3758683057512104e-05 4.7999592066363769e-05 0 -4.3427461593225939e-05 3.5231783474033184e-05 0 -4.4650077748056827e-05 5.2892832582266932e-05 0 -3.7676333596946037e-05 -2.5492680372597318e-05 0 -2.8631247748422398e-05 -2.8187821806124589e-05 0 -2.7406660649682162e-05 -1.8997489682356995e-05 0 8.6247774429158977e-06 2.3802492970409651e-05 0 2.0634287164397726e-05 1.6935702180813294e-05 0 1.8659865802282752e-05 3.5278158089414399e-05 0 3.4121365561574779e-05 2.0440036315028893e-05 0 1.8659865802282752e-05 3.5278158089414399e-05 0 2.0634287164397726e-05 1.6935702180813294e-05 0 -3.8613962374847119e-06 -3.1601600472972755e-05 0 -1.3276962376082203e-05 -3.4669054216922208e-05 0 -6.8009741107621756e-06 -4.261010325393699e-05 0 -1.4320339502953774e-05 -5.0785254100620837e-05 0 -6.8009741107621756e-06 -4.261010325393699e-05 0 -1.3276962376082203e-05 -3.4669054216922208e-05 0 2.027070777020375e-05 -1.0358022187003363e-05 0 2.3123562652293638e-05 -4.912822606983273e-06 0 1.9505386001121441e-05 -4.4102902436738856e-07 0 2.5471992103810658e-05 -5.1833100913638472e-05 0 2.08885023798905e-05 -5.2745654728843092e-05 0 2.514379093575745e-05 -5.650637199434275e-05 0 6.1544773704527204e-06 -2.7412151050581048e-07 0 5.669736798835044e-06 -1.5426507881492248e-06 0 4.2356559193192186e-06 -1.209280817242954e-06 0 -1.1715549043302161e-05 -1.2605252144128363e-05 0 -2.0127455435695127e-05 -1.9096022464107067e-05 0 -1.290043429809628e-05 -1.9011319828405406e-05 0 3.5820130609085876e-05 -6.5563703063945897e-05 0 3.461009206669919e-05 -5.5928668905041881e-05 0 2.9213087266592874e-05 -5.7349251413599259e-05 0 -4.2386689624827469e-05 7.8111563935927833e-05 0 -5.9995964060898309e-05 7.8108710313302431e-05 0 -4.4650077748056827e-05 5.2892832582266932e-05 0 -6.1174255150309146e-05 0.00024713496175843432 0 -3.16829477341046e-05 0.00021992018994794693 0 -2.9647913868147381e-05 0.0002498322444407333 0 1.2607314318499408e-05 -0.00012423608541312938 0 -2.7734524915040138e-06 -0.00011097395589212026 0 -2.8057934220957066e-06 -0.00012629162936870087 0 6.4961815891919518e-06 1.7411074770483587e-06 0 8.4847737633746692e-06 1.8683118150738714e-06 0 6.5470926557402345e-06 2.3400872278739807e-06 0 7.8964621316775083e-06 -1.5617659459510342e-05 0 6.2115430702260438e-06 -1.2390272656788022e-05 0 5.4664992528195344e-06 -1.7200955381753311e-05 0 7.92070883510793e-06 1.5506813394605972e-06 0 1.0396283819946247e-05 2.0908868279902297e-06 0 9.5686226416552355e-06 1.2208086163914295e-06 0 1.1699990054632352e-05 1.9339549748545347e-06 0 9.5686226416552355e-06 1.2208086163914295e-06 0 1.0396283819946247e-05 2.0908868279902297e-06 0 -6.9673428494164822e-07 -2.0635797492756564e-06 0 -5.0673591713921739e-06 -4.9961563735925232e-07 0 -5.359808359920886e-06 -2.8953319192939936e-06 0 -1.4320339502953774e-05 -5.0785254100620837e-05 0 -2.2533720416411553e-05 -5.9536948128541282e-05 0 -1.5574760275257044e-05 -6.8492255495263015e-05 0 -9.3584541499238739e-06 -3.2703904447805918e-06 0 -5.2837216510391607e-06 -3.9717642904912695e-06 0 -1.1064699072322339e-05 -2.345161590979111e-06 0 1.8461459653490625e-05 0.00016374887542903758 0 -6.1105123640242122e-06 0.00019180690688310834 0 -1.3222154314442226e-05 0.00016598764086252237 0 1.8461459653490625e-05 0.00016374887542903758 0 -1.3222154314442226e-05 0.00016598764086252237 0 -9.1550196001064157e-06 0.00013976099022760451 0 -3.4692639946566759e-05 0.00016361350647517341 0 -9.1550196001064157e-06 0.00013976099022760448 0 -1.3222154314442226e-05 0.00016598764086252237 0 -2.6726696939064617e-05 -8.1836307414399323e-05 0 -1.6101114068429578e-05 -9.6900394480455433e-05 0 -1.1294195228875367e-05 -8.1883292696472191e-05 0 -2.6726696939064617e-05 -8.1836307414399323e-05 0 -1.1294195228875367e-05 -8.1883292696472191e-05 0 -1.5574760275257044e-05 -6.8492255495263015e-05 0 1.7119228076660399e-05 5.9505708323453907e-06 0 2.0324249944251081e-05 8.2536100838564167e-06 0 2.3748991018842554e-05 1.2059953075211406e-05 0 1.1884656549419265e-09 -4.8465911422385017e-10 0 1.5298789849939591e-09 1.7354479237652154e-11 0 1.5682010965515034e-06 -5.6514730119737864e-07 0 1.0924417466824023e-09 4.3909365924343016e-10 0 6.8968883560716433e-10 6.594477204311191e-10 0 1.025943209328053e-06 1.3610829622917408e-06 0 4.7490896950195262e-06 2.5797466370658879e-06 0 6.5470926557402336e-06 2.3400872278739807e-06 0 5.5454969570365914e-06 2.4629221674149841e-06 0 7.9581237547636854e-06 -1.4776322526406585e-05 0 4.9186752759167448e-06 -1.123049849607214e-05 0 2.7408290426377563e-06 -1.7586277738727183e-05 0 -5.2837216510391607e-06 -3.9717642904912695e-06 0 -5.3598083599208852e-06 -2.895331919293994e-06 0 -1.1064699072322339e-05 -2.345161590979111e-06 0 1.3902875801006074e-09 3.0793342528643868e-10 0 2.2014758104865922e-06 8.7991111368107909e-07 0 1.432986835061296e-06 2.5646910421126892e-07 0 -9.1822832861353888e-06 -1.7416479900627596e-06 0 -7.3829707401593045e-06 -3.1501237707152602e-06 0 -1.1062790903005207e-05 -2.4859607597395009e-06 0 -6.6844944452854952e-06 7.4753937812998859e-07 0 -7.97959267712091e-06 1.2330207281965118e-06 0 -5.5820550236348151e-06 1.7575506265320986e-06 0 -2.7953827355632618e-05 -3.9570051536203584e-05 0 -2.8631247748422398e-05 -2.8187821806124589e-05 0 -3.6660080355735939e-05 -3.9920084328016376e-05 0 3.5486857021585633e-06 1.6237255268453781e-06 0 2.1374711201493477e-06 1.5024364055724637e-06 0 3.8524675132727151e-06 2.2420301229235803e-06 0 1.2909657818703725e-05 -3.4730044993528456e-05 0 8.5228222419016196e-06 -3.6337373575085317e-05 0 1.3413843164099353e-05 -3.9386203007633055e-05 0 1.3517463983301574e-05 2.5131528781427944e-06 0 1.2923158333096772e-05 3.0532188277328411e-06 0 1.1702150694945442e-05 1.9545959229783177e-06 0 2.4194608378232245e-05 0.00011678587081130344 0 -1.3889079330290835e-06 0.00011763386589800768 0 4.3943527593491606e-06 9.0178272919113269e-05 0 6.1544773704527204e-06 -2.7412151050581048e-07 0 3.6645122993886239e-06 -6.1785204957048237e-07 0 4.3144101653303497e-06 1.7701027957226848e-07 0 -4.1471252742927319e-05 0.00028259819115894789 0 -2.9647913868147381e-05 0.0002498322444407333 0 -5.4703932791402128e-06 0.00026659378954909405 0 4.560216581869032e-06 -0.00014355129960984711 0 -2.8057934220957066e-06 -0.00012629162936870087 0 -1.4239256556039909e-05 -0.00013533748759331419 0 2.1374711201493477e-06 1.5024364055724637e-06 0 2.5625095863264392e-06 2.308533798393886e-06 0 3.8524675132727151e-06 2.2420301229235803e-06 0 1.3517463983301574e-05 2.5131528781427944e-06 0 1.1468849373858303e-05 4.6508363976645512e-07 0 1.290748249539098e-05 1.7807687618147902e-07 0 2.8048159237772616e-05 0.00028124265285810906 0 2.5206350847808436e-05 0.00031669871601389707 0 -6.0138516138797266e-06 0.00030501903154561845 0 -4.1471252742927319e-05 0.00028259819115894789 0 -6.0138516138797215e-06 0.0003050190315456184 0 -3.560258311341409e-05 0.00031669127720345769 0 -3.037589315311291e-05 -0.00014329286159625183 0 -2.7302185733829108e-05 -0.00016145307365335922 0 -1.236081438232394e-05 -0.00015552441514222822 0 4.560216581869032e-06 -0.00014355129960984711 0 -1.236081438232394e-05 -0.00015552441514222822 0 3.4981201703204221e-06 -0.0001618204817825511 0 -5.7526404359318955e-06 1.0737631539772218e-05 0 -1.8046461945139997e-05 2.2207781052146973e-05 0 -1.9163183436987452e-05 1.3460330054463965e-05 0 -1.7229159434649226e-05 -2.4195676958604846e-05 0 -2.8631247748422398e-05 -2.8187821806124589e-05 0 -2.1298520652266253e-05 -3.2860636385146844e-05 0 -2.7953827355632618e-05 -3.9570051536203584e-05 0 -2.1298520652266253e-05 -3.2860636385146844e-05 0 -2.8631247748422398e-05 -2.8187821806124589e-05 0 -4.2386689624827469e-05 7.8111563935927833e-05 0 -4.4650077748056827e-05 5.2892832582266932e-05 0 -2.8959704545630067e-05 6.3086177642223087e-05 0 -2.1303570389276517e-05 4.2098408191424227e-05 0 -2.8959704545630067e-05 6.3086177642223087e-05 0 -4.4650077748056827e-05 5.2892832582266932e-05 0 1.4815337934293199e-06 2.210061081008173e-06 0 9.4177448369934746e-07 2.5196977037933734e-06 0 2.1970797002070362e-06 2.912175540304868e-06 0 4.8959059091496558e-05 6.0779719893690723e-05 0 5.6858799367210693e-05 9.0205544156633281e-05 0 2.7110877177055668e-05 6.1844516450471242e-05 0 -2.9152494412302073e-07 -3.10715940930553e-06 0 -1.5966246078681129e-06 -3.7315240731255715e-06 0 -1.3920423501620576e-06 -2.6877879851537181e-06 0 -8.4505357540735806e-07 2.3819652982329175e-06 0 -1.3496338075842216e-06 1.8255313457329838e-06 0 -1.8656643570981999e-06 2.6087635516958354e-06 0 7.704590950737727e-06 -9.1845172177569595e-06 0 1.1234123335319247e-05 -8.4412772537371443e-06 0 1.0027974676486053e-05 -5.4090389222096827e-06 0 -1.2872877462772131e-06 3.0520083306045318e-06 0 -1.639084200126853e-07 3.0880581246364655e-06 0 -7.0735509769470681e-08 2.657557257931882e-06 0 -1.6946894670009644e-08 -3.9387503815265781e-06 0 9.8883618052954331e-07 -2.9336030235772938e-06 0 1.9073518756096356e-06 -3.3240746528724139e-06 0 -8.9141918213358045e-06 -1.3458260041748329e-06 0 -1.3919606575901461e-05 1.3242687546907724e-06 0 -1.1064699072322339e-05 -2.345161590979111e-06 0 -1.8332926818381478e-05 3.4220731072195935e-07 0 -1.1064699072322339e-05 -2.345161590979111e-06 0 -1.3919606575901461e-05 1.3242687546907724e-06 0 2.8048159237772616e-05 0.00028124265285810906 0 1.7478931520434496e-05 0.0002435375748319942 0 4.7456704035710597e-05 0.00024775956880106556 0 -3.037589315311291e-05 -0.00014329286159625183 0 -2.6516587640821388e-05 -0.00012343326494029019 0 -4.1503341866036462e-05 -0.0001263700986644901 0 3.5820130609085876e-05 -6.5563703063945897e-05 0 4.5968302455270387e-05 -6.8337675235120293e-05 0 4.284308721123139e-05 -6.0177313252764429e-05 0 2.1141668721136831e-05 -5.5275005169506047e-05 0 2.3532528591481967e-05 -5.8319723971875629e-05 0 1.8736142338593662e-05 -5.3161239669510178e-05 0 -8.7499513951329321e-07 1.1103362956313924e-06 0 6.6725338078060622e-07 2.0178535841583426e-06 0 -1.2000029362614516e-06 2.5917278268974835e-06 0 7.194425626290637e-06 -4.5983020563958248e-05 0 1.1449212437926654e-05 -4.6727919395591717e-05 0 8.3914301232700527e-06 -4.1926107631766121e-05 0 5.0894180279230818e-05 -3.9521304558531982e-05 0 4.4645421027746606e-05 -3.9316258793448552e-05 0 4.7151614492704377e-05 -4.6228633716791796e-05 0 3.3546867536132918e-05 -4.6909039817242732e-05 0 3.9749337089590814e-05 -4.6913730485616857e-05 0 3.4271136413358431e-05 -4.0604603982321391e-05 0 -1.9814145793269994e-05 -1.3219890036319575e-05 0 -2.0127455435695127e-05 -1.9096022464107067e-05 0 -1.1715549043302161e-05 -1.2605252144128363e-05 0 2.3532528591481967e-05 -5.8319723971875629e-05 0 2.514379093575745e-05 -5.650637199434275e-05 0 2.08885023798905e-05 -5.2745654728843086e-05 0 -2.1003111140409764e-05 7.4100486045985972e-06 0 -1.3919606575901461e-05 1.3242687546907724e-06 0 -1.3087764683558568e-05 6.4790141437108363e-06 0 8.4847737633746692e-06 1.8683118150738712e-06 0 8.5600853105004998e-06 2.2912299048871089e-06 0 6.5470926557402345e-06 2.3400872278739807e-06 0 -1.7229159434649226e-05 -2.4195676958604846e-05 0 -1.3276962376082203e-05 -3.4669054216922208e-05 0 -9.4800870755050374e-06 -2.4364194170929189e-05 0 -3.8613962374847119e-06 -3.1601600472972755e-05 0 -9.4800870755050391e-06 -2.4364194170929189e-05 0 -1.3276962376082203e-05 -3.4669054216922208e-05 0 -3.1020764155529118e-06 1.4698623900086868e-06 0 -8.7499513951329321e-07 1.1103362956313924e-06 0 -1.2000029362614516e-06 2.5917278268974835e-06 0 -1.7229159434649226e-05 -2.4195676958604846e-05 0 -1.290043429809628e-05 -1.9011319828405406e-05 0 -2.0127455435695127e-05 -1.9096022464107067e-05 0 -3.248956947999254e-06 2.4822074639792258e-06 0 -3.1020764155529118e-06 1.4698623900086868e-06 0 -1.2000029362614516e-06 2.5917278268974835e-06 0 2.6781362493279656e-06 -3.3486521174763426e-06 0 6.097008318342769e-06 -1.9278656104779356e-06 0 2.3016706766894203e-06 -2.9360805833768379e-06 0 -1.7229159434649226e-05 -2.4195676958604846e-05 0 -2.0127455435695127e-05 -1.9096022464107067e-05 0 -2.8631247748422398e-05 -2.8187821806124589e-05 0 -2.1303570389276517e-05 4.2098408191424227e-05 0 -4.4650077748056827e-05 5.2892832582266932e-05 0 -3.0977093889185975e-05 3.4268923380394802e-05 0 -7.5538406410354699e-10 -1.2621337420315324e-09 0 -3.2965103897451881e-07 -1.7444750166414904e-06 0 -1.3920423501620576e-06 -2.6877879851537181e-06 0 -7.4901444353392652e-10 8.4321284783660031e-10 0 -1.3496338075842216e-06 1.8255313457329838e-06 0 -4.7586878099287731e-07 1.2749249585744501e-06 0 -3.248956947999254e-06 2.4822074639792258e-06 0 -1.2000029362614516e-06 2.5917278268974835e-06 0 -2.3567597312992277e-06 2.9614351656628881e-06 0 -1.3959312279591235e-06 -3.4070341723359092e-06 0 -1.2101935478941488e-06 -4.1142823700915735e-06 0 2.3016706766894203e-06 -2.9360805833768379e-06 0 2.3339964937126883e-06 -2.8777559256304723e-06 0 2.6092731025388127e-06 -2.1997332237516958e-06 0 3.921776861696207e-06 -2.5440416781962752e-06 0 2.7408290426377563e-06 -1.7586277738727183e-05 0 -3.4059733802676816e-06 -2.1335339951717206e-05 0 4.2600588811322213e-06 -2.8099762943210263e-05 0 6.1544773704527204e-06 -2.7412151050581048e-07 0 5.762276034276469e-06 7.1577565536330099e-07 0 7.4749159959158153e-06 6.2068356252357449e-07 0 -4.1471252742927319e-05 0.00028259819115894789 0 -6.1174255150309146e-05 0.00024713496175843432 0 -2.9647913868147381e-05 0.0002498322444407333 0 4.560216581869032e-06 -0.00014355129960984711 0 1.2607314318499408e-05 -0.00012423608541312938 0 -2.8057934220957066e-06 -0.00012629162936870087 0 -4.871292231402229e-07 3.1020911988979392e-06 0 -1.2872877462772131e-06 3.0520083306045318e-06 0 -2.3567597312992277e-06 2.9614351656628881e-06 0 2.6781362493279656e-06 -3.3486521174763426e-06 0 -1.2101935478941488e-06 -4.1142823700915735e-06 0 -1.6946894670009644e-08 -3.9387503815265781e-06 0 4.3094397166013581e-06 1.178100281968081e-06 0 5.1164638413414869e-06 2.037595146625625e-06 0 6.1141272962796356e-06 1.5421264338389987e-06 0 -3.4059733802676816e-06 -2.1335339951717206e-05 0 -3.8613962374847119e-06 -3.1601600472972755e-05 0 4.2600588811322213e-06 -2.8099762943210263e-05 0 -9.7708652469503821e-05 0.0001812045431049329 0 -9.3726637909157318e-05 0.00015010585437302389 0 -6.5964429091226303e-05 0.00016427430551248733 0 2.4891338027453213e-05 -7.216316284826312e-05 0 1.2204205295171283e-05 -8.0910019506549312e-05 0 2.7522464858454679e-05 -8.7730452853540869e-05 0 -2.6726696939064617e-05 -8.1836307414399323e-05 0 -1.5574760275257044e-05 -6.8492255495263002e-05 0 -2.6637866209244976e-05 -6.8761544594801182e-05 0 1.0218650475543698e-05 -2.4412777833582181e-06 0 8.350034989001857e-06 -6.2405923344245748e-06 0 1.0027974676486053e-05 -5.4090389222096827e-06 0 -9.3584541499238739e-06 -3.2703904447805918e-06 0 -7.3829707401593036e-06 -3.1501237707152602e-06 0 -6.0665238622586549e-06 -3.8528702635659902e-06 0 -7.1381341877750859e-06 1.8470191848071841e-06 0 -5.0163960238560077e-06 2.3131587915010177e-06 0 -5.5820550236348151e-06 1.7575506265320986e-06 0 1.24864005985386e-05 2.3297450284448373e-06 0 9.2437825253156819e-06 -1.1835559610042384e-07 0 1.2048077812070374e-05 1.5026726026639609e-06 0 4.3094397166013581e-06 1.178100281968081e-06 0 3.5486857021585633e-06 1.6237255268453781e-06 0 5.1164638413414869e-06 2.037595146625625e-06 0 7.8964621316775083e-06 -1.5617659459510342e-05 0 6.9412162041634126e-06 -2.0857918820278011e-05 0 1.0351576058606306e-05 -1.87359629700393e-05 0 -9.3584541499238739e-06 -3.2703904447805918e-06 0 -1.1062790903005207e-05 -2.4859607597395009e-06 0 -7.3829707401593045e-06 -3.1501237707152602e-06 0 -7.1381341877750859e-06 1.8470191848071841e-06 0 -5.5820550236348142e-06 1.7575506265320986e-06 0 -7.97959267712091e-06 1.2330207281965115e-06 0 1.3517463983301574e-05 2.5131528781427944e-06 0 1.1702150694945442e-05 1.9545959229783177e-06 0 1.1468849373858303e-05 4.6508363976645512e-07 0 -1.3947222144967235e-05 -0.0001161566494114673 0 -1.6101114068429582e-05 -9.6900394480455433e-05 0 -2.406258367752554e-05 -0.0001071231591309108 0 -8.5263083737114007e-06 0.00023019896875433422 0 -6.1105123640242164e-06 0.00019180690688310834 0 1.0763482533386795e-05 0.00021238072604729875 0 -1.9814145793269994e-05 -1.3219890036319575e-05 0 -1.1715549043302161e-05 -1.2605252144128363e-05 0 -1.3853315437360064e-05 -7.9852724875572412e-06 0 -7.3795862173560528e-06 -6.9555917031353525e-06 0 -1.3853315437360063e-05 -7.9852724875572395e-06 0 -1.1715549043302161e-05 -1.2605252144128363e-05 0 5.1242838824193685e-06 -2.6442477246798616e-06 0 2.5753059350525624e-06 -4.0054106016811412e-06 0 5.6761637332018094e-06 -6.5915628806296086e-06 0 1.6844005591005044e-06 -8.0289571931757548e-06 0 5.6761637332018094e-06 -6.5915628806296086e-06 0 2.5753059350525624e-06 -4.0054106016811412e-06 0 7.8345481655979983e-07 -1.7253884916003269e-06 0 2.6092731025388127e-06 -2.1997332237516958e-06 0 9.8883618052954331e-07 -2.9336030235772938e-06 0 2.3339964937126883e-06 -2.8777559256304723e-06 0 9.8883618052954331e-07 -2.9336030235772938e-06 0 2.6092731025388127e-06 -2.1997332237516958e-06 0 5.2864220085027411e-07 2.9560257819627283e-06 0 9.4177448369934746e-07 2.5196977037933734e-06 0 -7.0735509769470681e-08 2.657557257931882e-06 0 2.1438443123495111e-07 1.6672291336482894e-06 0 -7.0735509769470681e-08 2.657557257931882e-06 0 9.4177448369934746e-07 2.5196977037933734e-06 0 1.2909657818703725e-05 -3.4730044993528456e-05 0 1.6782787239581456e-05 -4.0099211281119997e-05 0 1.7519087664697163e-05 -3.5533731385383043e-05 0 1.0218650475543698e-05 -2.4412777833582181e-06 0 1.290748249539098e-05 1.7807687618147902e-07 0 1.1468849373858303e-05 4.6508363976645512e-07 0 1.1699990054632352e-05 1.9339549748545347e-06 0 1.0472605364633454e-05 8.9697132031812375e-07 0 9.5686226416552355e-06 1.2208086163914295e-06 0 1.8461459653490625e-05 0.00016374887542903758 0 2.0291276781817259e-05 0.00019315300641373264 0 -6.1105123640242122e-06 0.00019180690688310834 0 -2.6726696939064617e-05 -8.1836307414399323e-05 0 -2.909380940302096e-05 -9.6362259580437111e-05 0 -1.6101114068429578e-05 -9.6900394480455433e-05 0 1.8461459653490625e-05 0.00016374887542903758 0 -9.1550196001064157e-06 0.00013976099022760451 0 1.3959654585420156e-05 0.0001361241964314636 0 1.24864005985386e-05 2.3297450284448373e-06 0 8.4197321793615907e-06 7.4820668805104962e-07 0 9.2437825253156819e-06 -1.1835559610042392e-07 0 1.24864005985386e-05 2.3297450284448373e-06 0 1.2239056758829828e-05 4.6765147353218774e-06 0 8.4197321793615907e-06 7.4820668805104973e-07 0 -1.5952133058911609e-05 9.6358626000193117e-05 0 -1.3889079330290814e-06 0.00011763386589800768 0 -2.7010635282473539e-05 0.000125920275825224 0 -9.1550196001064157e-06 0.00013976099022760451 0 -2.7010635282473539e-05 0.000125920275825224 0 -1.3889079330290814e-06 0.00011763386589800768 0 -3.1384737524646384e-06 -2.7233895554337134e-06 0 -1.3920423501620578e-06 -2.6877879851537181e-06 0 -2.858965725285673e-06 -3.582490806933304e-06 0 -2.5363763865954926e-06 1.6615837080110054e-06 0 -2.596500170295631e-06 2.3338529127235068e-06 0 -1.3496338075842216e-06 1.8255313457329838e-06 0 -3.8613962374847119e-06 -3.1601600472972755e-05 0 -6.8009741107621756e-06 -4.261010325393699e-05 0 3.4116165611106597e-06 -4.319381739543786e-05 0 7.194425626290637e-06 -4.5983020563958248e-05 0 1.0619351631365833e-05 -5.0806386650231717e-05 0 1.1449212437926654e-05 -4.6727919395591724e-05 0 5.0894180279230818e-05 -3.9521304558531982e-05 0 4.7151614492704377e-05 -4.6228633716791796e-05 0 5.6303419771238717e-05 -4.5686402335845971e-05 0 9.9050274118358653e-06 1.0295590839694868e-06 0 1.1468849373858303e-05 4.6508363976645512e-07 0 1.1702150694945442e-05 1.9545959229783177e-06 0 1.1699990054632352e-05 1.9339549748545347e-06 0 1.4519530346613721e-05 3.4924454689981093e-06 0 1.2048077812070374e-05 1.5026726026639609e-06 0 2.5471992103810658e-05 -5.1833100913638472e-05 0 2.6730846646199644e-05 -4.6476342771992376e-05 0 2.0905645678857474e-05 -4.7693843834079921e-05 0 2.2441857978961434e-05 -4.3564460714667153e-05 0 2.0905645678857474e-05 -4.7693843834079921e-05 0 2.6730846646199644e-05 -4.6476342771992376e-05 0 2.1829044494243146e-05 -2.8602087680300525e-05 0 2.627680885274092e-05 -3.531341927713072e-05 0 2.81169594496957e-05 -2.9608347058566824e-05 0 -4.1471252742927319e-05 0.00028259819115894789 0 -7.3453003571832828e-05 0.00027934908207158008 0 -6.1174255150309146e-05 0.00024713496175843432 0 4.560216581869032e-06 -0.00014355129960984711 0 2.0572483165530875e-05 -0.0001409513994854074 0 1.2607314318499408e-05 -0.00012423608541312938 0 1.5328674402846071e-05 -4.9992557068025774e-05 0 1.6802078867523138e-05 -5.2688723122508569e-05 0 1.8736142338593662e-05 -5.3161239669510178e-05 0 4.5753223004063031e-05 -5.2983661387396894e-05 0 4.284308721123139e-05 -6.0177313252764429e-05 0 5.5056482410602353e-05 -5.9159266007033336e-05 0 2.8048159237772616e-05 0.00028124265285810906 0 -5.4703932791402128e-06 0.00026659378954909405 0 1.7478931520434496e-05 0.0002435375748319942 0 -3.037589315311291e-05 -0.00014329286159625183 0 -1.4239256556039909e-05 -0.00013533748759331419 0 -2.6516587640821388e-05 -0.00012343326494029019 0 4.3094397166013581e-06 1.178100281968081e-06 0 6.1141272962796356e-06 1.5421264338389987e-06 0 5.762276034276469e-06 7.1577565536330099e-07 0 7.92070883510793e-06 1.5506813394605972e-06 0 5.762276034276469e-06 7.1577565536330099e-07 0 6.1141272962796356e-06 1.5421264338389987e-06 0 3.5003863750830385e-05 0.00021290006794982486 0 1.7478931520434496e-05 0.0002435375748319942 0 1.0763482533386795e-05 0.00021238072604729875 0 -3.6298299138982198e-05 -0.00010770185821675713 0 -2.6516587640821388e-05 -0.00012343326494029019 0 -2.406258367752554e-05 -0.0001071231591309108 0 -2.9152494412302073e-07 -3.10715940930553e-06 0 -1.3920423501620578e-06 -2.6877879851537177e-06 0 -3.2965103897451881e-07 -1.7444750166414904e-06 0 -8.4505357540735806e-07 2.3819652982329175e-06 0 -4.7586878099287731e-07 1.2749249585744501e-06 0 -1.3496338075842216e-06 1.8255313457329838e-06 0 7.6396723498953675e-06 5.9188794602779208e-05 0 2.5534098920418446e-05 8.6836363113073145e-05 0 4.3943527593491606e-06 9.0178272919113269e-05 0 -3.1384737524646384e-06 -2.7233895554337134e-06 0 -1.4128547356572358e-06 -1.746434455774852e-06 0 -1.3920423501620576e-06 -2.6877879851537181e-06 0 -2.5363763865954926e-06 1.6615837080110054e-06 0 -1.3496338075842216e-06 1.8255313457329838e-06 0 -1.1609498582561076e-06 1.0975686524041847e-06 0 -0.00010271450179350648 0.00024658082269579597 0 -7.7907750686204358e-05 0.00022268822891980311 0 -6.1174255150309146e-05 0.00024713496175843432 0 3.2906509129244114e-05 -0.00012144977569414617 0 1.9642811848203629e-05 -0.00011057428911247475 0 1.2607314318499408e-05 -0.00012423608541312938 0 8.6247774429158977e-06 2.3802492970409651e-05 0 -8.0041396397848951e-06 2.4946147792297062e-05 0 3.1247141103236721e-06 1.5391218801166247e-05 0 -5.7526404359318955e-06 1.0737631539772218e-05 0 3.1247141103236717e-06 1.5391218801166251e-05 0 -8.0041396397848951e-06 2.4946147792297062e-05 0 -1.4320339502953774e-05 -5.0785254100620837e-05 0 -1.3276962376082203e-05 -3.4669054216922208e-05 0 -2.04309244881619e-05 -4.1063658931015772e-05 0 2.027070777020375e-05 -1.0358022187003363e-05 0 2.5007872911327517e-05 -1.9223171736646431e-05 0 2.6657393757681326e-05 -1.4921165966412041e-05 0 -1.5952133058911609e-05 9.6358626000193117e-05 0 -2.7492237232407066e-05 8.0263865325051021e-05 0 -1.3293963490773079e-05 6.6582228930793953e-05 0 -2.1303570389276517e-05 4.2098408191424227e-05 0 -1.3293963490773079e-05 6.6582228930793953e-05 0 -2.8959704545630067e-05 6.3086177642223087e-05 0 -1.7229159434649226e-05 -2.4195676958604846e-05 0 -2.1298520652266253e-05 -3.2860636385146844e-05 0 -1.3276962376082203e-05 -3.4669054216922208e-05 0 -3.8613962374847119e-06 -3.1601600472972755e-05 0 3.4116165611106597e-06 -4.319381739543786e-05 0 4.2600588811322213e-06 -2.8099762943210263e-05 0 1.1615304070917049e-05 -4.2239575548519725e-05 0 8.3914301232700527e-06 -4.1926107631766121e-05 0 1.1449212437926654e-05 -4.6727919395591724e-05 0 4.0557539884001401e-05 -4.2354818430044637e-05 0 4.7151614492704377e-05 -4.6228633716791796e-05 0 4.4645421027746606e-05 -3.9316258793448552e-05 0 1.2701101105420822e-05 -3.3651336767072174e-06 0 1.1234123335319247e-05 -8.4412772537371443e-06 0 1.4123301584572169e-05 -6.5807914528602675e-06 0 7.704590950737727e-06 -9.1845172177569595e-06 0 9.3565851847437728e-06 -1.2424459910119221e-05 0 1.1234123335319247e-05 -8.4412772537371443e-06 0 1.7657301059405149e-05 5.6410562955615003e-06 0 1.5489449234532349e-05 4.2276910840401702e-06 0 1.5577164450448491e-05 3.0681054519098975e-06 0 2.7408290426377563e-06 -1.7586277738727183e-05 0 4.9186752759167448e-06 -1.123049849607214e-05 0 -3.5284029711743794e-07 -1.3299271631990969e-05 0 2.8048159237772616e-05 0.00028124265285810906 0 4.7456704035710597e-05 0.00024775956880106556 0 6.0661131132631427e-05 0.00027762539088321641 0 -3.037589315311291e-05 -0.00014329286159625183 0 -4.1503341866036462e-05 -0.0001263700986644901 0 -4.6797418624572391e-05 -0.00014239609163704966 0 1.3517463983301574e-05 2.5131528781427944e-06 0 1.5577164450448491e-05 3.0681054519098975e-06 0 1.5489449234532349e-05 4.2276910840401702e-06 0 3.3863682601022924e-05 -2.9198341052472895e-05 0 2.81169594496957e-05 -2.9608347058566824e-05 0 3.5129973825924111e-05 -3.3017228754577115e-05 0 2.2441857978961434e-05 -4.3564460714667153e-05 0 2.6730846646199644e-05 -4.6476342771992376e-05 0 2.4152063906701757e-05 -3.9987265816691251e-05 0 1.4502023146753831e-05 3.7819629521036771e-06 0 1.2923158333096772e-05 3.0532188277328411e-06 0 1.5489449234532349e-05 4.2276910840401702e-06 0 2.6938349958252891e-06 -1.2593162778855027e-06 0 4.2356559193192186e-06 -1.209280817242954e-06 0 2.6092731025388127e-06 -2.1997332237516958e-06 0 -4.7446815204739914e-05 -4.7363096181410892e-05 0 -5.1502480529959996e-05 -6.0710861743572842e-05 0 -3.7213844204652999e-05 -5.1189908590705786e-05 0 2.6781362493279656e-06 -3.3486521174763426e-06 0 1.9073518756096356e-06 -3.3240746528724139e-06 0 3.921776861696207e-06 -2.5440416781962752e-06 0 9.5686226416552355e-06 1.2208086163914295e-06 0 1.0472605364633454e-05 8.9697132031812375e-07 0 8.0675401647022562e-06 -3.4008843089269428e-08 0 1.3517463983301574e-05 2.5131528781427944e-06 0 1.290748249539098e-05 1.7807687618147902e-07 0 1.5577164450448491e-05 3.0681054519098975e-06 0 -8.8164410581501772e-05 0.00012045021160271192 0 -8.1382922323409773e-05 9.320629145815255e-05 0 -5.9916340501274393e-05 0.0001021731231440291 0 2.1374711201493477e-06 1.5024364055724637e-06 0 2.2014758104865922e-06 8.7991111368107909e-07 0 9.3309146298523999e-07 6.2259921108767392e-07 0 8.3370501167058411e-06 -7.13356015918473e-07 0 1.2048077812070374e-05 1.5026726026639609e-06 0 9.2437825253156819e-06 -1.1835559610042392e-07 0 1.2913502765993407e-05 -2.4465662311282902e-05 0 9.4745004702107273e-06 -2.3702376149836852e-05 0 1.1664567679825084e-05 -2.9062051735070425e-05 0 -2.6726696939064617e-05 -8.1836307414399323e-05 0 -3.8774128062471277e-05 -7.4706503482220582e-05 0 -4.1564514037917907e-05 -9.1332609853831049e-05 0 2.6781362493279656e-06 -3.3486521174763426e-06 0 3.921776861696207e-06 -2.5440416781962752e-06 0 5.3845416407056006e-06 -2.1677318751592881e-06 0 4.3094397166013581e-06 1.178100281968081e-06 0 2.9742724235710256e-06 4.9578393571861401e-07 0 2.2014758104865922e-06 8.7991111368107909e-07 0 6.1411327668642718e-06 -1.2363518924470332e-06 0 9.2437825253156819e-06 -1.1835559610042392e-07 0 8.4197321793615907e-06 7.4820668805104973e-07 0 6.9412162041634126e-06 -2.0857918820278011e-05 0 9.4745004702107273e-06 -2.3702376149836852e-05 0 1.0351576058606306e-05 -1.87359629700393e-05 0 1.1615304070917049e-05 -4.2239575548519725e-05 0 1.4186111172476233e-05 -4.5494089231533961e-05 0 1.3413843164099353e-05 -3.9386203007633055e-05 0 -8.9141918213358045e-06 -1.3458260041748329e-06 0 -5.359808359920886e-06 -2.8953319192939936e-06 0 -5.0673591713921739e-06 -4.9961563735925243e-07 0 8.5049917818941757e-05 0.00024059559204736388 0 4.7456704035710597e-05 0.00024775956880106556 0 5.9632200981848712e-05 0.00022266805479174328 0 -6.1417814974671107e-05 -0.00012502626984170744 0 -4.1503341866036462e-05 -0.0001263700986644901 0 -4.8773547110398505e-05 -0.00011382589109434957 0 7.4749159959158153e-06 6.2068356252357449e-07 0 8.0675401647022562e-06 -3.4008843089269428e-08 0 6.1544773704527204e-06 -2.7412151050581048e-07 0 9.5686226416552355e-06 1.2208086163914295e-06 0 8.0675401647022562e-06 -3.4008843089269428e-08 0 7.4749159959158153e-06 6.2068356252357449e-07 0 -5.48203546774928e-05 0.00021034331287171867 0 -6.1174255150309146e-05 0.00024713496175843432 0 -7.7907750686204358e-05 0.00022268822891980311 0 8.0942452206570965e-06 -0.00010503021329715562 0 1.2607314318499408e-05 -0.00012423608541312938 0 1.9642811848203629e-05 -0.00011057428911247475 0 7.92070883510793e-06 1.5506813394605972e-06 0 8.8000912885067972e-06 2.2335320936445143e-06 0 1.0396283819946247e-05 2.0908868279902297e-06 0 1.0713947399151575e-05 2.4835484211677144e-06 0 1.0396283819946247e-05 2.0908868279902297e-06 0 8.8000912885067972e-06 2.2335320936445143e-06 0 7.92070883510793e-06 1.5506813394605972e-06 0 7.4749159959158153e-06 6.2068356252357449e-07 0 5.762276034276469e-06 7.1577565536330099e-07 0 -7.1381341877750859e-06 1.8470191848071841e-06 0 -6.1821164884877031e-06 1.8658372302022754e-06 0 -4.3757931014581796e-06 2.5894967412022599e-06 0 -2.0403922378808253e-07 -1.5242656289145186e-06 0 -1.6838165185334121e-06 -5.3001359684077942e-06 0 2.5753059350525624e-06 -4.0054106016811412e-06 0 1.6844005591005044e-06 -8.0289571931757548e-06 0 2.5753059350525624e-06 -4.005410601681142e-06 0 -1.6838165185334121e-06 -5.3001359684077942e-06 0 -7.1381341877750859e-06 1.8470191848071841e-06 0 -4.3757931014581796e-06 2.5894967412022599e-06 0 -5.0163960238560077e-06 2.3131587915010177e-06 0 7.6396723498953675e-06 5.9188794602779208e-05 0 2.7110877177055668e-05 6.1844516450471242e-05 0 2.5534098920418446e-05 8.6836363113073145e-05 0 -8.5263083737114007e-06 0.00023019896875433422 0 -5.4703932791402077e-06 0.00026659378954909405 0 -2.9647913868147381e-05 0.0002498322444407333 0 -1.3947222144967235e-05 -0.0001161566494114673 0 -1.4239256556039909e-05 -0.00013533748759331419 0 -2.8057934220957066e-06 -0.00012629162936870087 0 6.4961815891919518e-06 1.7411074770483587e-06 0 4.7490896950195254e-06 2.5797466370658879e-06 0 4.6242282252992296e-06 1.9576333754531158e-06 0 1.3902875801006074e-09 3.0793342528643868e-10 0 9.3309146298523999e-07 6.2259921108767392e-07 0 2.2014758104865922e-06 8.7991111368107909e-07 0 1.24864005985386e-05 2.3297450284448373e-06 0 1.7119228076660399e-05 5.9505708323453907e-06 0 1.2239056758829828e-05 4.6765147353218774e-06 0 3.2218870446451499e-05 -3.5723181533513289e-05 0 2.81169594496957e-05 -2.9608347058566824e-05 0 2.6276808852740923e-05 -3.531341927713072e-05 0 2.1829044494243146e-05 -2.8602087680300525e-05 0 1.7353797010547361e-05 -2.5549608832466432e-05 0 1.9538216660931317e-05 -3.1033714641271459e-05 0 5.1164638413414869e-06 2.037595146625625e-06 0 5.5454969570365914e-06 2.4629221674149841e-06 0 6.8117068444321208e-06 2.0618178422715016e-06 0 -2.7953827355632618e-05 -3.9570051536203584e-05 0 -3.7213844204652999e-05 -5.1189908590705786e-05 0 -2.4008850220693699e-05 -5.0258053004518735e-05 0 -3.2441280872702155e-05 -6.0349650534910067e-05 0 -2.4008850220693699e-05 -5.0258053004518735e-05 0 -3.7213844204652999e-05 -5.1189908590705786e-05 0 1.5016249187828625e-09 -9.4945463954928671e-11 0 1.3902875801006856e-09 3.0793342528645269e-10 0 1.432986835061296e-06 2.5646910421126892e-07 0 -4.7667209079819223e-05 0.00012116690639762137 0 -5.9916340501274393e-05 0.0001021731231440291 0 -3.6618427466924881e-05 9.9962831717283454e-05 0 -4.2386689624827469e-05 7.8111563935927833e-05 0 -3.6618427466924881e-05 9.9962831717283454e-05 0 -5.9916340501274393e-05 0.0001021731231440291 0 1.5328674402846071e-05 -4.9992557068025774e-05 0 1.4186111172476233e-05 -4.5494089231533961e-05 0 1.1449212437926654e-05 -4.6727919395591724e-05 0 4.5753223004063031e-05 -5.2983661387396894e-05 0 4.7151614492704377e-05 -4.6228633716791796e-05 0 3.9749337089590814e-05 -4.6913730485616857e-05 0 5.7525038151623673e-06 2.4694975023926085e-06 0 8.4197321793615907e-06 7.4820668805104973e-07 0 1.2239056758829828e-05 4.6765147353218774e-06 0 1.7036995968980422e-05 -4.4991306797184198e-05 0 1.924784071556466e-05 -4.3521626460558849e-05 0 1.6782787239581456e-05 -4.0099211281119997e-05 0 2.2670377941644457e-05 9.8024608528709663e-06 0 2.5719389722693528e-05 1.3145469369290193e-05 0 2.3748991018842554e-05 1.2059953075211406e-05 0 2.6781362493279656e-06 -3.3486521174763426e-06 0 5.3845416407056006e-06 -2.1677318751592881e-06 0 6.097008318342769e-06 -1.9278656104779356e-06 0 -5.7526404359318955e-06 1.0737631539772218e-05 0 7.1765154399643864e-06 8.021445022790862e-06 0 3.1247141103236721e-06 1.5391218801166247e-05 0 5.6858799367210693e-05 9.0205544156633281e-05 0 4.286516681720161e-05 0.00010838675701137133 0 2.5534098920418446e-05 8.6836363113073145e-05 0 6.4961815891919518e-06 1.7411074770483587e-06 0 6.5470926557402345e-06 2.3400872278739802e-06 0 4.7490896950195262e-06 2.5797466370658879e-06 0 -8.5263083737114007e-06 0.00023019896875433422 0 1.7478931520434496e-05 0.0002435375748319942 0 -5.4703932791402128e-06 0.00026659378954909405 0 -1.3947222144967235e-05 -0.0001161566494114673 0 -2.6516587640821388e-05 -0.00012343326494029019 0 -1.4239256556039909e-05 -0.00013533748759331419 0 3.8828480986242134e-06 2.6717444519970122e-06 0 3.4393636912443052e-06 2.8256327231127641e-06 0 4.7490896950195262e-06 2.5797466370658879e-06 0 7.3436845977728519e-06 -6.6982962157354383e-06 0 6.5645274979350749e-06 -9.8982481495703984e-06 0 8.350034989001857e-06 -6.2405923344245756e-06 0 3.5003863750830385e-05 0.00021290006794982486 0 5.9632200981848712e-05 0.00022266805479174328 0 4.7456704035710597e-05 0.00024775956880106556 0 -3.6298299138982198e-05 -0.00010770185821675713 0 -4.8773547110398505e-05 -0.00011382589109434957 0 -4.1503341866036462e-05 -0.0001263700986644901 0 -1.7509117835227278e-05 -3.164967070267163e-06 0 -2.2052637613858889e-05 -6.4281798002231975e-06 0 -1.6432022249029545e-05 -3.3609470364091354e-06 0 -3.4450606570234054e-05 1.019333980628045e-05 0 -2.650128525119489e-05 4.2701556741999829e-06 0 -2.4170415452860489e-05 4.8158356388394016e-06 0 8.6247774429158977e-06 2.3802492970409651e-05 0 7.778725576667092e-06 3.8701513561641544e-05 0 -4.312058186998354e-06 4.0964899378756266e-05 0 -3.248956947999254e-06 2.4822074639792258e-06 0 -5.152242176489115e-06 1.4637662358119902e-06 0 -3.1020764155529118e-06 1.4698623900086868e-06 0 2.0817090746534501e-05 -5.5323945871672882e-05 0 2.0238887748356717e-05 -5.3848298224053135e-05 0 1.6802078867523138e-05 -5.2688723122508569e-05 0 2.0817090746534501e-05 -5.5323945871672882e-05 0 1.6802078867523138e-05 -5.2688723122508569e-05 0 1.5295031431438088e-05 -5.416208640297443e-05 0 7.1448983292924037e-05 -6.4968177586262012e-05 0 6.3311593989246574e-05 -5.3825777021543388e-05 0 5.5056482410602353e-05 -5.9159266007033336e-05 0 7.1448983292924037e-05 -6.4968177586262012e-05 0 5.5056482410602353e-05 -5.9159266007033336e-05 0 5.7955276837723776e-05 -6.8732859899743606e-05 0 1.5328674402846071e-05 -4.9992557068025774e-05 0 1.7525057980603695e-05 -4.9159984113755352e-05 0 1.4186111172476233e-05 -4.5494089231533961e-05 0 4.5753223004063031e-05 -5.2983661387396894e-05 0 3.9749337089590814e-05 -4.6913730485616857e-05 0 3.7839912944064958e-05 -5.2488380061575977e-05 0 4.3395625474362489e-05 -2.9805641925438945e-05 0 4.10952449190002e-05 -3.4375740477188865e-05 0 4.669171636709839e-05 -3.4353352566381622e-05 0 3.2123168897014279e-06 -3.4158046779927229e-05 0 4.8013045401300696e-06 -4.0294062599803803e-05 0 8.5228222419016196e-06 -3.6337373575085317e-05 0 3.7063309520035586e-05 -4.9575718056858103e-06 0 3.0356925804481724e-05 -1.0953563857262124e-05 0 3.7753203426518546e-05 -1.4619765006199361e-05 0 2.8048159237772616e-05 0.00028124265285810906 0 5.7610745920795805e-05 0.00030858685892272257 0 2.5206350847808436e-05 0.00031669871601389707 0 -4.1471252742927319e-05 0.00028259819115894789 0 -3.560258311341409e-05 0.00031669127720345769 0 -6.7112227954608562e-05 0.00030986431902169413 0 -3.037589315311291e-05 -0.00014329286159625183 0 -4.335584662016397e-05 -0.0001578728029635009 0 -2.7302185733829108e-05 -0.00016145307365335922 0 4.560216581869032e-06 -0.00014355129960984711 0 3.4981201703204204e-06 -0.0001618204817825511 0 1.9815855580552934e-05 -0.00015775222776576471 0 7.0590516554344529e-06 2.341943307363528e-06 0 6.8117068444321208e-06 2.0618178422715016e-06 0 5.5454969570365914e-06 2.4629221674149841e-06 0 2.8048159237772616e-05 0.00028124265285810906 0 6.0661131132631433e-05 0.00027762539088321641 0 5.7610745920795812e-05 0.00030858685892272257 0 -3.037589315311291e-05 -0.00014329286159625183 0 -4.6797418624572391e-05 -0.00014239609163704966 0 -4.335584662016397e-05 -0.0001578728029635009 0 1.2701101105420822e-05 -3.3651336767072174e-06 0 1.4771931030147881e-05 -4.1663456903461972e-07 0 1.290748249539098e-05 1.7807687618147902e-07 0 -4.1471252742927319e-05 0.00028259819115894789 0 -6.7112227954608562e-05 0.00030986431902169413 0 -7.3453003571832828e-05 0.00027934908207158008 0 4.560216581869032e-06 -0.00014355129960984711 0 1.9815855580552934e-05 -0.00015775222776576471 0 2.0572483165530875e-05 -0.0001409513994854074 0 3.7779011059306622e-06 -5.9182859199748462e-05 0 1.1894733550419892e-05 -5.1158666066302028e-05 0 3.4116165611106597e-06 -4.319381739543786e-05 0 7.8964621316775083e-06 -1.5617659459510342e-05 0 1.0351576058606306e-05 -1.87359629700393e-05 0 9.3565851847437728e-06 -1.2424459910119221e-05 0 1.207499872108163e-05 -1.5847862538769899e-05 0 9.3565851847437728e-06 -1.2424459910119221e-05 0 1.0351576058606306e-05 -1.87359629700393e-05 0 6.1411327668642718e-06 -1.2363518924470332e-06 0 2.3016706766894203e-06 -2.9360805833768379e-06 0 6.097008318342769e-06 -1.9278656104779356e-06 0 -1.5952133058911609e-05 9.6358626000193117e-05 0 4.3943527593491606e-06 9.0178272919113269e-05 0 -1.3889079330290814e-06 0.00011763386589800768 0 -5.1502480529959996e-05 -6.0710861743572842e-05 0 -4.2609838029140533e-05 -6.3835987718140297e-05 0 -3.7213844204652999e-05 -5.1189908590705786e-05 0 1.6460162770420513e-05 9.6547805981240704e-06 0 7.1765154399643864e-06 8.021445022790862e-06 0 1.2239056758829828e-05 4.6765147353218774e-06 0 5.7525038151623673e-06 2.4694975023926085e-06 0 1.2239056758829828e-05 4.6765147353218774e-06 0 7.1765154399643864e-06 8.021445022790862e-06 0 1.1699990054632352e-05 1.9339549748545347e-06 0 1.2534169649254308e-05 2.8327833366395466e-06 0 1.4519530346613721e-05 3.4924454689981093e-06 0 2.1632760799810547e-05 -3.5743561847447812e-05 0 2.4152063906701757e-05 -3.9987265816691251e-05 0 2.6276808852740923e-05 -3.531341927713072e-05 0 2.9171086394921442e-05 -4.1914554721424827e-05 0 2.6276808852740923e-05 -3.531341927713072e-05 0 2.4152063906701757e-05 -3.9987265816691251e-05 0 -6.3758683057512104e-05 4.7999592066363769e-05 0 -5.3791212087744292e-05 3.1311421942765814e-05 0 -4.3427461593225939e-05 3.5231783474033184e-05 0 -3.2368192713379826e-05 -1.7337342672885663e-05 0 -3.7676333596946037e-05 -2.5492680372597318e-05 0 -2.7406660649682162e-05 -1.8997489682356995e-05 0 8.7530415745240943e-10 -6.1449863199913951e-10 0 1.1884656549419265e-09 -4.8465911422385017e-10 0 1.2133650283518231e-06 -1.0951707518619727e-06 0 6.8968883560716433e-10 6.594477204311191e-10 0 4.0502166601804555e-10 6.5521057339542143e-10 0 5.8997716790471794e-07 1.4462072875815454e-06 0 1.24864005985386e-05 2.3297450284448373e-06 0 1.2048077812070374e-05 1.5026726026639611e-06 0 1.4741314736822669e-05 3.5002596358542496e-06 0 1.4502023146753831e-05 3.7819629521036771e-06 0 1.4519530346613721e-05 3.4924454689981093e-06 0 1.2534169649254308e-05 2.8327833366395466e-06 0 1.1699990054632352e-05 1.9339549748545347e-06 0 1.2048077812070374e-05 1.5026726026639605e-06 0 1.0472605364633454e-05 8.9697132031812375e-07 0 -3.1378597554390746e-06 -4.1606798766676662e-06 0 -6.0665238622586549e-06 -3.8528702635659902e-06 0 -4.8518516835802322e-06 -3.5552067951646218e-06 0 -3.1506493327530925e-06 2.7572814889722757e-06 0 -3.918350371203327e-06 2.1530527886820886e-06 0 -5.0163960238560077e-06 2.3131587915010177e-06 0 2.4194608378232245e-05 0.00011678587081130344 0 2.5534098920418446e-05 8.6836363113073145e-05 0 4.286516681720161e-05 0.00010838675701137133 0 -3.1378597554390746e-06 -4.1606798766676662e-06 0 -4.8518516835802322e-06 -3.5552067951646218e-06 0 -2.858965725285673e-06 -3.582490806933304e-06 0 -3.1506493327530925e-06 2.7572814889722757e-06 0 -2.596500170295631e-06 2.3338529127235068e-06 0 -3.918350371203327e-06 2.1530527886820886e-06 0 1.2909657818703725e-05 -3.4730044993528456e-05 0 1.3413843164099353e-05 -3.9386203007633055e-05 0 1.6782787239581456e-05 -4.0099211281119997e-05 0 7.6396723498953675e-06 5.9188794602779208e-05 0 1.8659865802282752e-05 3.5278158089414399e-05 0 2.7110877177055668e-05 6.1844516450471242e-05 0 8.3370501167058411e-06 -7.13356015918473e-07 0 1.0472605364633454e-05 8.9697132031812375e-07 0 1.2048077812070374e-05 1.5026726026639609e-06 0 3.2218870446451499e-05 -3.5723181533513289e-05 0 3.5129973825924111e-05 -3.3017228754577115e-05 0 2.81169594496957e-05 -2.9608347058566824e-05 0 -2.4997474397260927e-10 -8.3491580952735665e-10 0 3.7906933392884169e-10 -9.1038395808027673e-10 0 1.7581217648914029e-07 -1.8699984804651868e-06 0 -2.9004285586370495e-11 7.4488999418034443e-10 0 -4.7286754872251672e-10 6.0590736989123991e-10 0 -1.9381881325858019e-07 1.525878281366164e-06 0 -9.9140556196481713e-06 2.5285976476754382e-07 0 -1.3591632536844513e-05 -1.0033394044071821e-06 0 -1.0098736496202762e-05 6.8633699944971632e-07 0 -1.9784298633198176e-05 6.9689189470712119e-07 0 -1.3992883976163038e-05 -1.1140256764320283e-06 0 -1.4427683474268758e-05 -1.7433854319672126e-06 0 -5.999730466257014e-06 -1.5961493783558301e-05 0 -1.1715549043302161e-05 -1.2605252144128363e-05 0 -1.290043429809628e-05 -1.9011319828405406e-05 0 1.8739264826622947e-05 -4.3744955616806471e-05 0 1.0587545353939679e-05 -3.8185296079429143e-05 0 1.1894733550419895e-05 -5.1158666066302028e-05 0 1.0218650475543698e-05 -2.4412777833582181e-06 0 8.5309900865701023e-06 -3.8493187809019703e-06 0 8.350034989001857e-06 -6.2405923344245756e-06 0 1.0452894738618452e-05 2.1624340972805904e-06 0 1.2923158333096772e-05 3.0532188277328411e-06 0 1.0713947399151575e-05 2.4835484211677144e-06 0 1.1702150694945442e-05 1.9545959229783177e-06 0 1.2923158333096772e-05 3.0532188277328411e-06 0 1.0452894738618452e-05 2.1624340972805904e-06 0 1.7397873499338189e-05 5.505092903797469e-06 0 1.7119228076660399e-05 5.9505708323453907e-06 0 1.4741314736822669e-05 3.5002596358542496e-06 0 1.24864005985386e-05 2.3297450284448373e-06 0 1.4741314736822669e-05 3.5002596358542492e-06 0 1.7119228076660399e-05 5.9505708323453907e-06 0 3.3546867536132918e-05 -4.6909039817242732e-05 0 3.0110046947287364e-05 -5.1629527874289727e-05 0 3.7839912944064958e-05 -5.2488380061575977e-05 0 2.4283387644601135e-06 -2.1599377215596854e-05 0 6.9412162041634126e-06 -2.0857918820278007e-05 0 5.4664992528195344e-06 -1.7200955381753311e-05 0 7.3436845977728519e-06 -6.6982962157354383e-06 0 6.986867584709685e-06 -1.010558338037041e-05 0 6.5645274979350749e-06 -9.8982481495703984e-06 0 7.9581237547636854e-06 -1.4776322526406585e-05 0 6.5645274979350749e-06 -9.8982481495703984e-06 0 6.986867584709685e-06 -1.010558338037041e-05 0 -6.6844944452854952e-06 7.4753937812998859e-07 0 -9.9140556196481713e-06 2.5285976476754366e-07 0 -7.97959267712091e-06 1.2330207281965115e-06 0 -1.3992883976163038e-05 -1.1140256764320283e-06 0 -9.1822832861353888e-06 -1.7416479900627596e-06 0 -1.1062790903005207e-05 -2.4859607597395009e-06 0 2.862840691234875e-05 -6.2031463449975123e-05 0 3.5820130609085876e-05 -6.5563703063945897e-05 0 2.9213087266592874e-05 -5.7349251413599259e-05 0 7.1765154399643864e-06 8.021445022790862e-06 0 1.2012743445353597e-05 1.371916786880205e-05 0 3.1247141103236721e-06 1.5391218801166247e-05 0 7.92070883510793e-06 1.5506813394605972e-06 0 9.5686226416552355e-06 1.2208086163914293e-06 0 7.4749159959158153e-06 6.2068356252357449e-07 0 -1.3920423501620576e-06 -2.6877879851537181e-06 0 -1.5966246078681127e-06 -3.7315240731255715e-06 0 -2.858965725285673e-06 -3.582490806933304e-06 0 -1.3496338075842216e-06 1.8255313457329838e-06 0 -2.596500170295631e-06 2.3338529127235068e-06 0 -1.8656643570981999e-06 2.6087635516958354e-06 0 3.8828480986242134e-06 2.6717444519970122e-06 0 2.1970797002070362e-06 2.912175540304868e-06 0 3.4393636912443048e-06 2.8256327231127637e-06 0 1.0218650475543698e-05 -2.4412777833582181e-06 0 1.1427066533354813e-05 -2.6800811803944665e-06 0 1.290748249539098e-05 1.7807687618147902e-07 0 4.0557539884001401e-05 -4.2354818430044637e-05 0 3.4271136413358431e-05 -4.0604603982321391e-05 0 3.9749337089590814e-05 -4.6913730485616857e-05 0 2.4986203383317997e-06 2.9135121495299077e-06 0 3.4393636912443048e-06 2.8256327231127637e-06 0 2.1970797002070362e-06 2.912175540304868e-06 0 -9.7708652469503821e-05 0.0001812045431049329 0 -6.5964429091226303e-05 0.00016427430551248733 0 -7.3788371178829445e-05 0.00019370342589273247 0 2.7522464858454679e-05 -8.7730452853540869e-05 0 1.2204205295171283e-05 -8.0910019506549312e-05 0 1.6637929866234115e-05 -9.5662183101890576e-05 0 2.4891338027453213e-05 -7.216316284826312e-05 0 1.2878107472401934e-05 -6.6572849477098336e-05 0 1.2204205295171283e-05 -8.0910019506549312e-05 0 1.4606954594148069e-05 -1.15186413974555e-05 0 1.4123301584572169e-05 -6.5807914528602675e-06 0 1.1234123335319247e-05 -8.4412772537371443e-06 0 2.4283387644601135e-06 -2.1599377215596854e-05 0 5.6695511702960452e-06 -2.5289250619999669e-05 0 6.9412162041634126e-06 -2.0857918820278011e-05 0 6.4961815891919518e-06 1.7411074770483587e-06 0 6.6628959655726449e-06 -1.2422122058067223e-07 0 8.0089338509197061e-06 9.2486472096184165e-07 0 1.2701101105420822e-05 -3.3651336767072174e-06 0 1.290748249539098e-05 1.7807687618147902e-07 0 1.1427066533354813e-05 -2.6800811803944661e-06 0 9.6769509895454684e-05 0.00030826611901046573 0 7.6424904857283081e-05 0.00032686888660259122 0 5.7610745920795812e-05 0.00030858685892272257 0 -6.2443462478728245e-05 -0.00016012156157266973 0 -5.104629724995896e-05 -0.00016758057054571928 0 -4.335584662016397e-05 -0.0001578728029635009 0 3.967441454102702e-05 -0.00015769091638952141 0 1.9815855580552934e-05 -0.00015775222776576471 0 2.978574685981206e-05 -0.00016744952566631328 0 -0.00010422663189657097 0.00031415259753702431 0 -6.7112227954608562e-05 0.00030986431902169413 0 -8.2066168896217023e-05 0.00032862777807114908 0 9.9050274118358653e-06 1.0295590839694868e-06 0 8.4847737633746692e-06 1.8683118150738712e-06 0 8.0089338509197061e-06 9.2486472096184165e-07 0 6.4961815891919518e-06 1.7411074770483587e-06 0 8.0089338509197061e-06 9.2486472096184165e-07 0 8.4847737633746692e-06 1.8683118150738712e-06 0 5.1242838824193685e-06 -2.6442477246798616e-06 0 6.6628959655726449e-06 -1.2422122058067178e-07 0 4.9552025234861837e-06 -4.2488290096690491e-07 0 -2.1003111140409764e-05 7.4100486045985972e-06 0 -2.4170415452860489e-05 4.8158356388394016e-06 0 -1.3919606575901461e-05 1.3242687546907724e-06 0 -1.8332926818381478e-05 3.4220731072195935e-07 0 -1.3919606575901459e-05 1.3242687546907718e-06 0 -2.4170415452860489e-05 4.8158356388394016e-06 0 5.7525038151623673e-06 2.4694975023926085e-06 0 1.0743005226330748e-07 5.4074586130054718e-07 0 3.8581511056967631e-06 -8.7126207727903054e-07 0 -2.0403922378808253e-07 -1.5242656289145186e-06 0 1.6803246506567081e-06 8.257587404817207e-07 0 -8.7499513951329321e-07 1.1103362956313924e-06 0 7.3436845977728519e-06 -6.6982962157354383e-06 0 5.6761637332018094e-06 -6.5915628806296086e-06 0 6.986867584709685e-06 -1.010558338037041e-05 0 -3.1506493327530925e-06 2.7572814889722757e-06 0 -1.2872877462772131e-06 3.0520083306045318e-06 0 -1.8656643570981999e-06 2.6087635516958354e-06 0 -8.4505357540735806e-07 2.3819652982329175e-06 0 -1.8656643570981999e-06 2.6087635516958354e-06 0 -1.2872877462772131e-06 3.0520083306045318e-06 0 -2.9152494412302073e-07 -3.10715940930553e-06 0 -1.6946894670009644e-08 -3.9387503815265781e-06 0 -1.5966246078681129e-06 -3.7315240731255715e-06 0 -3.1378597554390746e-06 -4.1606798766676662e-06 0 -1.5966246078681129e-06 -3.7315240731255715e-06 0 -1.6946894670009644e-08 -3.9387503815265781e-06 0 -3.2441280872702155e-05 -6.0349650534910067e-05 0 -3.8774128062471284e-05 -7.4706503482220582e-05 0 -2.6637866209244976e-05 -6.8761544594801182e-05 0 -2.6726696939064617e-05 -8.1836307414399323e-05 0 -2.6637866209244976e-05 -6.8761544594801182e-05 0 -3.8774128062471284e-05 -7.4706503482220582e-05 0 7.8345481655979983e-07 -1.7253884916003269e-06 0 1.2133650283518231e-06 -1.0951707518619727e-06 0 2.6092731025388127e-06 -2.1997332237516958e-06 0 2.6938349958252891e-06 -1.2593162778855027e-06 0 2.6092731025388127e-06 -2.1997332237516958e-06 0 1.2133650283518231e-06 -1.0951707518619727e-06 0 1.4815337934293199e-06 2.210061081008173e-06 0 5.8997716790471794e-07 1.4462072875815454e-06 0 9.4177448369934746e-07 2.5196977037933734e-06 0 2.1438443123495111e-07 1.6672291336482894e-06 0 9.4177448369934746e-07 2.5196977037933734e-06 0 5.8997716790471794e-07 1.4462072875815454e-06 0 -8.5263083737114007e-06 0.00023019896875433422 0 1.0763482533386793e-05 0.00021238072604729875 0 1.7478931520434496e-05 0.0002435375748319942 0 -1.3947222144967235e-05 -0.0001161566494114673 0 -2.406258367752554e-05 -0.0001071231591309108 0 -2.6516587640821388e-05 -0.00012343326494029019 0 -4.871292231402229e-07 3.1020911988979392e-06 0 -1.6390842001268512e-07 3.0880581246364655e-06 0 -1.2872877462772131e-06 3.0520083306045318e-06 0 2.6781362493279656e-06 -3.3486521174763426e-06 0 -1.6946894670009644e-08 -3.9387503815265781e-06 0 1.9073518756096356e-06 -3.3240746528724139e-06 0 -2.0403922378808253e-07 -1.5242656289145186e-06 0 2.5753059350525624e-06 -4.0054106016811412e-06 0 3.1301309594410603e-06 -1.046713066000982e-06 0 -3.1506493327530925e-06 2.7572814889722757e-06 0 -2.3567597312992277e-06 2.9614351656628881e-06 0 -1.2872877462772131e-06 3.0520083306045318e-06 0 -3.1378597554390746e-06 -4.1606798766676662e-06 0 -1.6946894670009644e-08 -3.9387503815265781e-06 0 -1.2101935478941488e-06 -4.1142823700915735e-06 0 7.9581237547636854e-06 -1.4776322526406585e-05 0 5.6746304592567555e-06 -1.1317948736675417e-05 0 6.5645274979350749e-06 -9.8982481495703984e-06 0 6.4961815891919518e-06 1.7411074770483587e-06 0 5.4525394974622194e-06 9.4709234030619453e-07 0 6.6628959655726449e-06 -1.2422122058067223e-07 0 -7.5538406410354699e-10 -1.2621337420315324e-09 0 -2.4997474397260927e-10 -8.3491580952735665e-10 0 -3.2965103897451881e-07 -1.7444750166414904e-06 0 -4.7286754872251672e-10 6.0590736989123991e-10 0 -7.4901444353392652e-10 8.4321284783660031e-10 0 -4.7586878099287731e-07 1.2749249585744501e-06 0 1.6460162770420513e-05 9.6547805981240704e-06 0 1.2239056758829828e-05 4.6765147353218774e-06 0 1.7119228076660399e-05 5.9505708323453907e-06 0 2.5471992103810658e-05 -5.1833100913638472e-05 0 2.514379093575745e-05 -5.650637199434275e-05 0 2.9213087266592874e-05 -5.7349251413599259e-05 0 -2.0403922378808253e-07 -1.5242656289145186e-06 0 -3.254124167790139e-06 -4.7117861019420745e-07 0 -4.5791264794467404e-06 -3.2520489404925387e-06 0 3.4116165611106597e-06 -4.319381739543786e-05 0 1.1894733550419895e-05 -5.1158666066302028e-05 0 1.0587545353939679e-05 -3.8185296079429143e-05 0 9.9050274118358653e-06 1.0295590839694868e-06 0 1.0452894738618452e-05 2.1624340972805904e-06 0 8.4847737633746692e-06 1.8683118150738712e-06 0 7.9706679496087214e-06 -2.0744504146971235e-06 0 8.4631034353611285e-06 -2.481387833465274e-07 0 6.6628959655726449e-06 -1.2422122058067223e-07 0 -3.1384737524646384e-06 -2.7233895554337134e-06 0 -5.1453159946682081e-06 -2.3606598103261431e-06 0 -2.3533290207824749e-06 -1.3934066245657487e-06 0 -2.5363763865954926e-06 1.6615837080110054e-06 0 -1.8119140583430752e-06 7.716711030574866e-07 0 -3.8913519831226983e-06 1.2867982737064461e-06 0 1.6844005591005044e-06 -8.0289571931757548e-06 0 4.918675275916744e-06 -1.123049849607214e-05 0 5.6761637332018094e-06 -6.5915628806296086e-06 0 1.0713947399151575e-05 2.4835484211677144e-06 0 8.5600853105004998e-06 2.2912299048871089e-06 0 1.0452894738618452e-05 2.1624340972805904e-06 0 3.85009601622605e-06 8.7584189048578267e-07 0 1.6803246506567081e-06 8.2575874048172049e-07 0 3.1301309594410603e-06 -1.046713066000982e-06 0 -1.4602484930352731e-05 -4.4380937021218552e-06 0 -1.3853315437360064e-05 -7.9852724875572412e-06 0 -9.4104203463032764e-06 -4.2654069359387185e-06 0 -9.3726637909157331e-05 0.00015010585437302389 0 -6.8525163976680594e-05 0.00013679382964446979 0 -6.5964429091226303e-05 0.00016427430551248733 0 1.6844005591005044e-06 -8.0289571931757548e-06 0 -1.6838165185334121e-06 -5.3001359684077942e-06 0 -3.8517539192567123e-06 -9.6281268061430802e-06 0 1.1234123335319247e-05 -8.4412772537371443e-06 0 9.3565851847437711e-06 -1.2424459910119221e-05 0 1.2274679977689057e-05 -1.2311653568577099e-05 0 -2.0403922378808253e-07 -1.5242656289145186e-06 0 -4.5791264794467404e-06 -3.2520489404925387e-06 0 -1.6838165185334121e-06 -5.3001359684077942e-06 0 8.4847737633746692e-06 1.8683118150738712e-06 0 1.0452894738618452e-05 2.1624340972805904e-06 0 8.5600853105004998e-06 2.2912299048871089e-06 0 7.8964621316775083e-06 -1.5617659459510342e-05 0 5.4664992528195335e-06 -1.7200955381753311e-05 0 6.9412162041634126e-06 -2.0857918820278011e-05 0 1.6460162770420513e-05 9.6547805981240704e-06 0 2.3748991018842554e-05 1.2059953075211406e-05 0 2.0634287164397726e-05 1.6935702180813294e-05 0 -2.0403922378808253e-07 -1.5242656289145186e-06 0 -8.7499513951329364e-07 1.1103362956313922e-06 0 -3.254124167790139e-06 -4.7117861019420745e-07 0 -0.00010074695895046922 0.00021345146875459008 0 -9.7708652469503821e-05 0.0001812045431049329 0 -7.3788371178829445e-05 0.00019370342589273247 0 2.7522464858454679e-05 -8.7730452853540869e-05 0 1.6637929866234115e-05 -9.5662183101890576e-05 0 3.0181398840832476e-05 -0.00010413081547492551 0 2.2015688896824844e-05 -5.7513354739377301e-05 0 1.2878107472401934e-05 -6.6572849477098336e-05 0 2.4891338027453213e-05 -7.216316284826312e-05 0 -5.7526404359318955e-06 1.0737631539772218e-05 0 -1.9163183436987452e-05 1.3460330054463965e-05 0 -1.3087764683558568e-05 6.4790141437108363e-06 0 3.7063309520035586e-05 -4.9575718056858103e-06 0 2.624847424629979e-05 3.5738295303429435e-06 0 3.0356925804481724e-05 -1.0953563857262124e-05 0 -1.4602484930352731e-05 -4.4380937021218552e-06 0 -1.6432022249029545e-05 -3.3609470364091354e-06 0 -1.9962633438159042e-05 -6.3040355918606221e-06 0 -2.1003111140409764e-05 7.4100486045985972e-06 0 -3.0373709988839539e-05 1.0030431600201952e-05 0 -2.4170415452860489e-05 4.8158356388394016e-06 0 -1.4602484930352731e-05 -4.4380937021218552e-06 0 -1.9962633438159042e-05 -6.3040355918606221e-06 0 -2.0226020669954127e-05 -8.9872982573426149e-06 0 -2.1003111140409764e-05 7.4100486045985972e-06 0 -3.046914372979156e-05 1.5163921227487167e-05 0 -3.0373709988839539e-05 1.0030431600201952e-05 0 -2.5363763865954926e-06 1.6615837080110054e-06 0 -1.1609498582561076e-06 1.0975686524041847e-06 0 -1.8119140583430752e-06 7.716711030574866e-07 0 -3.1384737524646384e-06 -2.7233895554337134e-06 0 -2.3533290207824749e-06 -1.3934066245657487e-06 0 -1.4128547356572358e-06 -1.746434455774852e-06 0 7.9706679496087214e-06 -2.0744504146971235e-06 0 6.7527296051648549e-06 -4.2405219493416603e-06 0 8.5309900865701023e-06 -3.8493187809019703e-06 0 7.3436845977728519e-06 -6.6982962157354383e-06 0 8.5309900865701023e-06 -3.8493187809019703e-06 0 6.7527296051648549e-06 -4.2405219493416603e-06 0 4.8013045401300696e-06 -4.0294062599803803e-05 0 8.3914301232700527e-06 -4.1926107631766121e-05 0 8.5228222419016196e-06 -3.6337373575085317e-05 0 4.669171636709839e-05 -3.4353352566381622e-05 0 4.10952449190002e-05 -3.4375740477188865e-05 0 4.4645421027746606e-05 -3.9316258793448552e-05 0 3.7753203426518546e-05 -1.4619765006199361e-05 0 3.0356925804481724e-05 -1.0953563857262124e-05 0 3.3716174495922805e-05 -1.8844098199650557e-05 0 4.3395625474362489e-05 -2.9805641925438945e-05 0 3.876802711466348e-05 -2.9371077273859126e-05 0 4.10952449190002e-05 -3.4375740477188865e-05 0 3.2123168897014279e-06 -3.4158046779927229e-05 0 8.5228222419016196e-06 -3.6337373575085317e-05 0 6.3102617929496161e-06 -3.0497129553851245e-05 0 -2.0403922378808253e-07 -1.5242656289145186e-06 0 3.1301309594410603e-06 -1.0467130660009817e-06 0 1.6803246506567081e-06 8.257587404817207e-07 0 5.1242838824193685e-06 -2.6442477246798616e-06 0 5.6761637332018094e-06 -6.5915628806296086e-06 0 6.7527296051648549e-06 -4.2405219493416603e-06 0 7.3436845977728519e-06 -6.6982962157354383e-06 0 6.7527296051648549e-06 -4.2405219493416603e-06 0 5.6761637332018094e-06 -6.5915628806296086e-06 0 9.9050274118358653e-06 1.0295590839694868e-06 0 9.4909341684677201e-06 -1.1054109482465971e-06 0 1.1468849373858303e-05 4.6508363976645512e-07 0 -9.3726637909157331e-05 0.00015010585437302389 0 -8.8164410581501772e-05 0.00012045021160271192 0 -6.8525163976680594e-05 0.00013679382964446979 0 1.2701101105420822e-05 -3.3651336767072174e-06 0 1.1427066533354812e-05 -2.6800811803944652e-06 0 1.0027974676486053e-05 -5.4090389222096827e-06 0 8.6247774429158977e-06 2.3802492970409651e-05 0 1.2012743445353598e-05 1.3719167868802048e-05 0 2.0634287164397726e-05 1.6935702180813294e-05 0 1.6460162770420513e-05 9.6547805981240704e-06 0 2.0634287164397726e-05 1.6935702180813294e-05 0 1.2012743445353597e-05 1.371916786880205e-05 0 1.8739264826622947e-05 -4.3744955616806471e-05 0 1.1894733550419895e-05 -5.1158666066302028e-05 0 2.2015688896824844e-05 -5.7513354739377301e-05 0 -4.3721200878596902e-05 1.870399417852456e-05 0 -3.0373709988839539e-05 1.0030431600201952e-05 0 -3.046914372979156e-05 1.5163921227487167e-05 0 -2.7078974823667521e-05 -1.0971944869011221e-05 0 -2.0226020669954124e-05 -8.9872982573426149e-06 0 -1.9962633438159042e-05 -6.3040355918606221e-06 0 1.0218650475543698e-05 -2.4412777833582181e-06 0 1.0027974676486053e-05 -5.4090389222096819e-06 0 1.1427066533354813e-05 -2.6800811803944661e-06 0 -3.4692639946566759e-05 0.00016361350647517341 0 -6.5964429091226303e-05 0.00016427430551248733 0 -4.8568872244343179e-05 0.00014199618217239861 0 -3.4692639946566759e-05 0.00016361350647517341 0 -5.2162443340273692e-05 0.00018448770039163984 0 -6.5964429091226303e-05 0.00016427430551248733 0 -1.6780793099012389e-06 -8.1321515641855375e-05 0 6.3303699631305388e-06 -9.1489482889358929e-05 0 1.2204205295171283e-05 -8.0910019506549312e-05 0 -1.6780793099012389e-06 -8.1321515641855375e-05 0 1.2204205295171283e-05 -8.0910019506549299e-05 0 4.4896680726484763e-06 -7.1350506826503549e-05 0 3.0181398840832476e-05 -0.00010413081547492551 0 1.9642811848203629e-05 -0.00011057428911247475 0 3.2906509129244114e-05 -0.00012144977569414617 0 -0.00010271450179350648 0.00024658082269579597 0 -0.00010074695895046922 0.00021345146875459008 0 -7.7907750686204358e-05 0.00022268822891980311 0 5.2864220085027411e-07 2.9560257819627283e-06 0 -7.0735509769470694e-08 2.657557257931882e-06 0 -1.639084200126853e-07 3.0880581246364655e-06 0 2.3339964937126883e-06 -2.8777559256304723e-06 0 1.9073518756096356e-06 -3.3240746528724139e-06 0 9.8883618052954331e-07 -2.9336030235772938e-06 0 -1.6780793099012389e-06 -8.1321515641855375e-05 0 -1.1294195228875367e-05 -8.1883292696472191e-05 0 -3.3591959598456004e-06 -9.4816406691489616e-05 0 -1.6780793099012389e-06 -8.1321515641855375e-05 0 -4.5497891334041621e-06 -6.9184898197211656e-05 0 -1.1294195228875367e-05 -8.1883292696472191e-05 0 -1.6101114068429578e-05 -9.6900394480455433e-05 0 -3.3591959598456004e-06 -9.4816406691489616e-05 0 -1.1294195228875367e-05 -8.1883292696472191e-05 0 -1.5574760275257044e-05 -6.8492255495263015e-05 0 -1.1294195228875367e-05 -8.1883292696472191e-05 0 -4.5497891334041621e-06 -6.9184898197211656e-05 0 -3.4692639946566759e-05 0.00016361350647517341 0 -1.3222154314442226e-05 0.00016598764086252237 0 -3.1987202205867803e-05 0.00019178571675277701 0 -6.1105123640242122e-06 0.00019180690688310834 0 -3.1987202205867803e-05 0.00019178571675277701 0 -1.3222154314442226e-05 0.00016598764086252237 0 -4.7286754872251672e-10 6.0590736989123991e-10 0 -4.7586878099287731e-07 1.2749249585744501e-06 0 -1.9381881325858019e-07 1.525878281366164e-06 0 -2.4997474397260927e-10 -8.3491580952735665e-10 0 1.7581217648914029e-07 -1.8699984804651868e-06 0 -3.2965103897451881e-07 -1.7444750166414904e-06 0 -2.8631247748422398e-05 -2.8187821806124589e-05 0 -2.0127455435695127e-05 -1.9096022464107067e-05 0 -2.7406660649682162e-05 -1.8997489682356995e-05 0 -4.4650077748056827e-05 5.2892832582266932e-05 0 -4.3427461593225939e-05 3.5231783474033184e-05 0 -3.0977093889185975e-05 3.4268923380394802e-05 0 -8.3854093634835292e-06 4.2610855639669433e-07 0 -1.2293125679086698e-05 -1.6847544110364326e-06 0 -9.7748252400803251e-06 -1.7715631263297258e-06 0 7.0590516554344529e-06 2.341943307363528e-06 0 6.5470926557402345e-06 2.3400872278739807e-06 0 8.5600853105004998e-06 2.2912299048871089e-06 0 3.461009206669919e-05 -5.5928668905041881e-05 0 3.7839912944064958e-05 -5.2488380061575977e-05 0 3.0110046947287364e-05 -5.1629527874289727e-05 0 -9.3584541499238739e-06 -3.2703904447805918e-06 0 -1.1064699072322339e-05 -2.345161590979111e-06 0 -1.4427683474268758e-05 -1.7433854319672126e-06 0 -1.8332926818381478e-05 3.4220731072195935e-07 0 -1.4427683474268758e-05 -1.7433854319672126e-06 0 -1.1064699072322339e-05 -2.345161590979111e-06 0 6.1544773704527204e-06 -2.7412151050581048e-07 0 4.2356559193192186e-06 -1.209280817242954e-06 0 3.6645122993886239e-06 -6.1785204957048237e-07 0 3.8903317556585076e-05 -2.0655855084298789e-05 0 3.5092522189778115e-05 -2.4818506197521567e-05 0 4.0908097087598657e-05 -2.5401380314767041e-05 0 -2.7078974823667521e-05 -1.0971944869011221e-05 0 -2.5376783189907068e-05 -1.3706428433555445e-05 0 -2.0226020669954127e-05 -8.9872982573426149e-06 0 -4.3721200878596902e-05 1.870399417852456e-05 0 -3.046914372979156e-05 1.5163921227487169e-05 0 -4.0151454347591968e-05 2.3942507097962395e-05 0 4.8693158953093414e-06 -1.2247937022561341e-05 0 6.2115430702260429e-06 -1.239027265678802e-05 0 5.6746304592567555e-06 -1.1317948736675417e-05 0 -3.1378597554390746e-06 -4.1606798766676662e-06 0 -1.2101935478941488e-06 -4.1142823700915735e-06 0 -5.2837216510391607e-06 -3.9717642904912695e-06 0 -1.3959312279591235e-06 -3.4070341723359092e-06 0 -5.2837216510391607e-06 -3.9717642904912695e-06 0 -1.2101935478941488e-06 -4.1142823700915735e-06 0 7.6396723498953675e-06 5.9188794602779208e-05 0 7.778725576667092e-06 3.8701513561641544e-05 0 1.8659865802282752e-05 3.5278158089414399e-05 0 -1.3992883976163038e-05 -1.1140256764320283e-06 0 -1.1062790903005207e-05 -2.4859607597395009e-06 0 -1.4427683474268758e-05 -1.7433854319672126e-06 0 -9.9140556196481713e-06 2.5285976476754382e-07 0 -1.0098736496202762e-05 6.8633699944971632e-07 0 -7.97959267712091e-06 1.2330207281965115e-06 0 2.1632760799810547e-05 -3.5743561847447812e-05 0 1.9538216660931317e-05 -3.1033714641271459e-05 0 1.7519087664697163e-05 -3.5533731385383043e-05 0 1.5628607186995039e-05 -3.0151370711725846e-05 0 1.7519087664697163e-05 -3.5533731385383043e-05 0 1.9538216660931317e-05 -3.1033714641271459e-05 0 9.9050274118358653e-06 1.0295590839694868e-06 0 1.1702150694945442e-05 1.9545959229783177e-06 0 1.0452894738618452e-05 2.1624340972805904e-06 0 5.7525038151623673e-06 2.4694975023926085e-06 0 3.8581511056967623e-06 -8.7126207727903097e-07 0 8.4197321793615907e-06 7.4820668805104973e-07 0 1.1699990054632352e-05 1.9339549748545347e-06 0 1.0396283819946247e-05 2.0908868279902297e-06 0 1.2534169649254308e-05 2.8327833366395466e-06 0 8.6247774429158977e-06 2.3802492970409651e-05 0 1.8659865802282752e-05 3.5278158089414399e-05 0 7.7787255766670937e-06 3.8701513561641544e-05 0 -1.4602484930352731e-05 -4.4380937021218552e-06 0 -9.4104203463032764e-06 -4.2654069359387185e-06 0 -9.7748252400803251e-06 -1.7715631263297258e-06 0 3.85009601622605e-06 8.7584189048578267e-07 0 4.6242282252992296e-06 1.9576333754531158e-06 0 2.5911428719624537e-06 2.2826719420430494e-06 0 5.6858799367210693e-05 9.0205544156633281e-05 0 6.3492134698234874e-05 0.00011816147547192398 0 4.286516681720161e-05 0.00010838675701137133 0 -5.4986713729119912e-05 -7.5399645246723227e-05 0 -3.8774128062471284e-05 -7.4706503482220582e-05 0 -4.2609838029140533e-05 -6.3835987718140297e-05 0 -4.3721200878596902e-05 1.870399417852456e-05 0 -3.4450606570234054e-05 1.019333980628045e-05 0 -3.0373709988839539e-05 1.0030431600201952e-05 0 -2.2052637613858889e-05 -6.4281798002231975e-06 0 -2.7078974823667521e-05 -1.0971944869011221e-05 0 -1.9962633438159042e-05 -6.3040355918606221e-06 0 1.290748249539098e-05 1.7807687618147902e-07 0 1.4771931030147881e-05 -4.1663456903461972e-07 0 1.5577164450448491e-05 3.0681054519098975e-06 0 -3.1378597554390746e-06 -4.1606798766676662e-06 0 -5.2837216510391607e-06 -3.9717642904912695e-06 0 -6.0665238622586549e-06 -3.8528702635659902e-06 0 -9.3584541499238739e-06 -3.2703904447805918e-06 0 -6.0665238622586549e-06 -3.8528702635659902e-06 0 -5.2837216510391607e-06 -3.9717642904912695e-06 0 1.7397873499338189e-05 5.505092903797469e-06 0 2.0324249944251078e-05 8.2536100838564184e-06 0 1.7119228076660399e-05 5.9505708323453907e-06 0 -4.1564514037917907e-05 -9.1332609853831049e-05 0 -3.8774128062471284e-05 -7.4706503482220582e-05 0 -4.8264167217457048e-05 -8.3254773041458076e-05 0 8.4871889391189772e-06 -2.7993257322400615e-05 0 1.1664567679825084e-05 -2.9062051735070425e-05 0 9.4745004702107273e-06 -2.3702376149836852e-05 0 7.9849222386767503e-05 0.00020817043144369106 0 8.5049917818941757e-05 0.00024059559204736388 0 5.9632200981848712e-05 0.00022266805479174328 0 -6.0037051854195784e-05 -0.00010786522680344069 0 -6.1417814974671107e-05 -0.00012502626984170744 0 -4.8773547110398505e-05 -0.00011382589109434957 0 -5.7526404359318955e-06 1.0737631539772218e-05 0 9.1908817236142249e-07 4.8880679231046531e-06 0 7.1765154399643864e-06 8.021445022790862e-06 0 1.6844005591005044e-06 -8.0289571931757548e-06 0 -3.5284029711743794e-07 -1.3299271631990969e-05 0 4.9186752759167448e-06 -1.123049849607214e-05 0 -7.3795862173560528e-06 -6.9555917031353525e-06 0 -3.8517539192567123e-06 -9.6281268061430802e-06 0 -1.6838165185334121e-06 -5.3001359684077942e-06 0 -0.00010074695895046922 0.00021345146875459008 0 -7.3788371178829445e-05 0.00019370342589273247 0 -7.7907750686204358e-05 0.00022268822891980311 0 3.0181398840832476e-05 -0.00010413081547492551 0 1.6637929866234115e-05 -9.5662183101890576e-05 0 1.9642811848203629e-05 -0.00011057428911247475 0 6.6725338078060622e-07 2.0178535841583426e-06 0 9.2092021652070483e-07 2.838994345609912e-06 0 -1.2000029362614516e-06 2.5917278268974835e-06 0 1.6460162770420513e-05 9.6547805981240704e-06 0 1.2012743445353597e-05 1.371916786880205e-05 0 7.1765154399643864e-06 8.021445022790862e-06 0 -1.4602484930352731e-05 -4.4380937021218552e-06 0 -1.2293125679086696e-05 -1.6847544110364324e-06 0 -1.6432022249029545e-05 -3.3609470364091354e-06 0 3.3393734521457041e-06 -1.6187899824350901e-05 0 2.4283387644601135e-06 -2.1599377215596854e-05 0 5.4664992528195344e-06 -1.7200955381753311e-05 0 -3.248956947999254e-06 2.4822074639792258e-06 0 -4.3757931014581804e-06 2.5894967412022599e-06 0 -6.1821164884877031e-06 1.8658372302022754e-06 0 -5.1502480529959996e-05 -6.0710861743572842e-05 0 -5.4986713729119912e-05 -7.5399645246723227e-05 0 -4.2609838029140533e-05 -6.3835987718140297e-05 0 -1.2236148914836857e-05 -5.3083809798768942e-07 0 -8.8527863433492227e-06 1.0397950463226219e-06 0 -1.0098736496202762e-05 6.8633699944971632e-07 0 -7.1381341877750859e-06 1.8470191848071841e-06 0 -1.0098736496202762e-05 6.8633699944971632e-07 0 -8.8527863433492227e-06 1.0397950463226219e-06 0 -4.7667209079819223e-05 0.00012116690639762137 0 -2.7010635282473539e-05 0.000125920275825224 0 -4.8568872244343179e-05 0.00014199618217239861 0 7.8345481655979983e-07 -1.7253884916003269e-06 0 9.8883618052954331e-07 -2.9336030235772938e-06 0 1.7581217648914029e-07 -1.8699984804651868e-06 0 -2.9152494412302073e-07 -3.10715940930553e-06 0 1.7581217648914029e-07 -1.8699984804651868e-06 0 9.8883618052954331e-07 -2.9336030235772938e-06 0 -8.4505357540735806e-07 2.3819652982329175e-06 0 -7.0735509769470681e-08 2.657557257931882e-06 0 -1.9381881325858019e-07 1.525878281366164e-06 0 2.1438443123495111e-07 1.6672291336482894e-06 0 -1.9381881325858019e-07 1.525878281366164e-06 0 -7.0735509769470681e-08 2.657557257931882e-06 0 5.1242838824193685e-06 -2.6442477246798616e-06 0 3.1301309594410607e-06 -1.046713066000982e-06 0 2.5753059350525624e-06 -4.0054106016811412e-06 0 1.6720062030045087e-05 -4.9748673530165689e-06 0 1.4123301584572169e-05 -6.5807914528602675e-06 0 1.7420817217194549e-05 -1.0861693831293432e-05 0 1.4606954594148069e-05 -1.15186413974555e-05 0 1.7420817217194549e-05 -1.0861693831293432e-05 0 1.4123301584572169e-05 -6.5807914528602675e-06 0 2.4283387644601135e-06 -2.1599377215596854e-05 0 2.399244354948809e-06 -2.7865933699203967e-05 0 5.6695511702960452e-06 -2.5289250619999669e-05 0 1.4606954594148069e-05 -1.15186413974555e-05 0 1.1234123335319247e-05 -8.4412772537371443e-06 0 1.2274679977689057e-05 -1.2311653568577099e-05 0 4.10952449190002e-05 -3.4375740477188865e-05 0 3.876802711466348e-05 -2.9371077273859126e-05 0 3.5129973825924111e-05 -3.3017228754577115e-05 0 8.5228222419016196e-06 -3.6337373575085317e-05 0 9.6259034505342178e-06 -3.1880643466555782e-05 0 6.3102617929496161e-06 -3.0497129553851245e-05 0 -2.7078974823667521e-05 -1.0971944869011221e-05 0 -3.2368192713379826e-05 -1.7337342672885663e-05 0 -2.5376783189907068e-05 -1.3706428433555445e-05 0 -5.3791212087744292e-05 3.1311421942765814e-05 0 -4.3721200878596902e-05 1.870399417852456e-05 0 -4.0151454347591968e-05 2.3942507097962395e-05 0 3.0356925804481724e-05 -1.0953563857262124e-05 0 2.6657393757681326e-05 -1.4921165966412041e-05 0 3.3716174495922805e-05 -1.8844098199650557e-05 0 4.10952449190002e-05 -3.4375740477188865e-05 0 3.7849113371355919e-05 -3.8126711892887664e-05 0 4.4645421027746606e-05 -3.9316258793448552e-05 0 -7.3795862173560528e-06 -6.9555917031353525e-06 0 -9.4104203463032764e-06 -4.2654069359387185e-06 0 -1.3853315437360064e-05 -7.9852724875572412e-06 0 2.1374711201493477e-06 1.5024364055724637e-06 0 9.3309146298523999e-07 6.2259921108767392e-07 0 8.819038445732386e-07 8.3305297321326045e-07 0 6.1411327668642718e-06 -1.2363518924470332e-06 0 3.8581511056967631e-06 -8.7126207727903065e-07 0 2.3016706766894203e-06 -2.9360805833768379e-06 0 8.3370501167058411e-06 -7.13356015918473e-07 0 6.097008318342769e-06 -1.9278656104779356e-06 0 5.3845416407056006e-06 -2.1677318751592881e-06 0 2.2314579838860293e-05 3.992084602782036e-06 0 1.9505386001121441e-05 -4.4102902436738856e-07 0 2.3123562652293641e-05 -4.9128226069832746e-06 0 -5.5820550236348151e-06 1.7575506265320986e-06 0 -3.918350371203327e-06 2.1530527886820886e-06 0 -3.8913519831226983e-06 1.2867982737064461e-06 0 -2.5363763865954926e-06 1.6615837080110054e-06 0 -3.8913519831226983e-06 1.2867982737064461e-06 0 -3.918350371203327e-06 2.1530527886820886e-06 0 -3.1384737524646384e-06 -2.7233895554337134e-06 0 -4.8518516835802322e-06 -3.5552067951646218e-06 0 -5.1453159946682081e-06 -2.3606598103261431e-06 0 -7.3829707401593045e-06 -3.1501237707152602e-06 0 -5.1453159946682081e-06 -2.3606598103261431e-06 0 -4.8518516835802322e-06 -3.5552067951646218e-06 0 -4.2542276837085767e-05 -3.5507870671992908e-05 0 -4.7446815204739914e-05 -4.7363096181410892e-05 0 -3.6660080355735939e-05 -3.9920084328016376e-05 0 7.6396723498953675e-06 5.9188794602779208e-05 0 -4.3120581869983566e-06 4.0964899378756266e-05 0 7.7787255766670937e-06 3.8701513561641544e-05 0 2.2015688896824844e-05 -5.7513354739377301e-05 0 1.1894733550419895e-05 -5.1158666066302028e-05 0 1.2878107472401934e-05 -6.6572849477098336e-05 0 3.3546867536132918e-05 -4.6909039817242732e-05 0 2.6730846646199644e-05 -4.6476342771992376e-05 0 3.0110046947287364e-05 -5.1629527874289727e-05 0 -4.871292231402229e-07 3.1020911988979392e-06 0 -1.2000029362614516e-06 2.5917278268974835e-06 0 9.2092021652070493e-07 2.838994345609912e-06 0 1.0218650475543698e-05 -2.4412777833582181e-06 0 1.1468849373858303e-05 4.6508363976645512e-07 0 9.4909341684677201e-06 -1.1054109482465971e-06 0 -8.3854093634835292e-06 4.2610855639669433e-07 0 -6.1821164884877031e-06 1.8658372302022754e-06 0 -8.8527863433492227e-06 1.0397950463226219e-06 0 2.4194608378232245e-05 0.00011678587081130344 0 4.7485061862676111e-05 0.00012700487116413593 0 3.8435140529114171e-05 0.00014336396747282394 0 1.0924417466824023e-09 4.3909365924343016e-10 0 1.025943209328053e-06 1.3610829622917408e-06 0 8.819038445732386e-07 8.3305297321326045e-07 0 1.5628607186995039e-05 -3.0151370711725846e-05 0 1.9538216660931317e-05 -3.1033714641271459e-05 0 1.7353797010547361e-05 -2.5549608832466432e-05 0 3.0356925804481724e-05 -1.0953563857262124e-05 0 2.624847424629979e-05 3.5738295303429435e-06 0 2.3123562652293641e-05 -4.9128226069832746e-06 0 -8.1382922323409773e-05 9.320629145815255e-05 0 -7.2681284984240841e-05 6.86756531616674e-05 0 -5.9995964060898309e-05 7.8108710313302431e-05 0 2.2014758104865922e-06 8.7991111368107909e-07 0 2.9742724235710265e-06 4.9578393571861401e-07 0 1.432986835061296e-06 2.5646910421126892e-07 0 -8.4505357540735806e-07 2.3819652982329175e-06 0 -1.9381881325858019e-07 1.525878281366164e-06 0 -4.7586878099287731e-07 1.2749249585744501e-06 0 -2.9152494412302073e-07 -3.10715940930553e-06 0 -3.2965103897451881e-07 -1.7444750166414904e-06 0 1.7581217648914029e-07 -1.8699984804651868e-06 0 1.0713947399151575e-05 2.4835484211677144e-06 0 8.8000912885067972e-06 2.2335320936445143e-06 0 8.5600853105004998e-06 2.2912299048871089e-06 0 -1.9814145793269994e-05 -1.3219890036319575e-05 0 -2.0226020669954127e-05 -8.9872982573426149e-06 0 -2.5376783189907068e-05 -1.3706428433555445e-05 0 -2.8935861724347166e-05 2.3263653718486055e-05 0 -4.0151454347591968e-05 2.3942507097962395e-05 0 -3.046914372979156e-05 1.5163921227487167e-05 0 3.5003863750830385e-05 0.00021290006794982486 0 4.3818847316809441e-05 0.0001846070150741267 0 5.8653796497507051e-05 0.00020131708132852292 0 -3.6298299138982198e-05 -0.00010770185821675713 0 -4.1564514037917901e-05 -9.1332609853831035e-05 0 -4.9073597978061242e-05 -0.00010203596081360264 0 3.8903317556585076e-05 -2.0655855084298789e-05 0 3.3716174495922805e-05 -1.8844098199650557e-05 0 3.5092522189778115e-05 -2.4818506197521567e-05 0 5.7525038151623673e-06 2.4694975023926085e-06 0 7.1765154399643847e-06 8.021445022790862e-06 0 9.1908817236142249e-07 4.8880679231046531e-06 0 2.9797164912565675e-05 -2.0947372117214082e-05 0 3.5092522189778115e-05 -2.4818506197521567e-05 0 3.3716174495922805e-05 -1.8844098199650557e-05 0 7.0590516554344529e-06 2.341943307363528e-06 0 5.5454969570365914e-06 2.4629221674149841e-06 0 6.5470926557402345e-06 2.3400872278739807e-06 0 2.7182650537027702e-06 -2.6256359562012878e-08 0 1.5682010965515034e-06 -5.6514730119737864e-07 0 1.09350756700824e-06 -1.0467979627321226e-07 0 6.6725338078060622e-07 2.0178535841583426e-06 0 2.5911428719624537e-06 2.2826719420430494e-06 0 9.2092021652070493e-07 2.838994345609912e-06 0 1.7693989115831085e-05 3.593251698078234e-06 0 1.9505386001121441e-05 -4.4102902436738856e-07 0 2.1061538012646292e-05 7.3231070438947866e-06 0 2.2314579838860293e-05 3.992084602782036e-06 0 2.1061538012646292e-05 7.3231070438947866e-06 0 1.9505386001121441e-05 -4.4102902436738856e-07 0 -2.6726696939064617e-05 -8.1836307414399323e-05 0 -4.1564514037917907e-05 -9.1332609853831049e-05 0 -2.909380940302096e-05 -9.6362259580437111e-05 0 -3.6298299138982198e-05 -0.00010770185821675713 0 -2.909380940302096e-05 -9.6362259580437111e-05 0 -4.1564514037917907e-05 -9.1332609853831049e-05 0 1.8461459653490625e-05 0.00016374887542903758 0 4.3818847316809441e-05 0.0001846070150741267 0 2.0291276781817259e-05 0.00019315300641373264 0 3.5003863750830385e-05 0.00021290006794982486 0 2.0291276781817259e-05 0.00019315300641373264 0 4.3818847316809441e-05 0.0001846070150741267 0 1.8461459653490625e-05 0.00016374887542903758 0 1.3959654585420156e-05 0.0001361241964314636 0 3.8435140529114171e-05 0.00014336396747282394 0 2.4194608378232245e-05 0.00011678587081130344 0 3.8435140529114171e-05 0.00014336396747282394 0 1.3959654585420156e-05 0.0001361241964314636 0 1.3902875801006074e-09 3.0793342528643868e-10 0 1.2905963349126172e-09 3.7010827742315426e-10 0 9.3309146298523999e-07 6.2259921108767392e-07 0 4.0908097087598657e-05 -2.5401380314767041e-05 0 3.5092522189778115e-05 -2.4818506197521567e-05 0 3.876802711466348e-05 -2.9371077273859126e-05 0 3.3863682601022924e-05 -2.9198341052472895e-05 0 3.876802711466348e-05 -2.9371077273859126e-05 0 3.5092522189778115e-05 -2.4818506197521567e-05 0 -3.2441280872702155e-05 -6.0349650534910067e-05 0 -3.7213844204652999e-05 -5.1189908590705786e-05 0 -4.2609838029140533e-05 -6.3835987718140297e-05 0 -4.7446815204739914e-05 -4.7363096181410892e-05 0 -3.7213844204652999e-05 -5.1189908590705786e-05 0 -3.6660080355735939e-05 -3.9920084328016376e-05 0 -8.1382922323409773e-05 9.320629145815255e-05 0 -5.9995964060898309e-05 7.8108710313302431e-05 0 -5.9916340501274393e-05 0.0001021731231440291 0 1.4502023146753831e-05 3.7819629521036771e-06 0 1.64060289055675e-05 4.9526781624819222e-06 0 1.4519530346613721e-05 3.4924454689981093e-06 0 1.7397873499338189e-05 5.505092903797469e-06 0 1.4519530346613721e-05 3.4924454689981093e-06 0 1.64060289055675e-05 4.9526781624819222e-06 0 5.1164638413414869e-06 2.037595146625625e-06 0 6.8117068444321208e-06 2.0618178422715016e-06 0 6.1141272962796356e-06 1.5421264338389987e-06 0 2.1374711201493477e-06 1.5024364055724637e-06 0 8.8190384457323849e-07 8.3305297321326034e-07 0 1.025943209328053e-06 1.3610829622917408e-06 0 -9.3584541499238739e-06 -3.2703904447805918e-06 0 -1.4427683474268758e-05 -1.7433854319672126e-06 0 -1.1062790903005207e-05 -2.4859607597395009e-06 0 -7.1381341877750859e-06 1.8470191848071841e-06 0 -7.97959267712091e-06 1.2330207281965115e-06 0 -1.0098736496202762e-05 6.8633699944971632e-07 0 -7.1381341877750859e-06 1.8470191848071841e-06 0 -8.852786343349221e-06 1.0397950463226219e-06 0 -6.1821164884877031e-06 1.8658372302022754e-06 0 7.4666203178656658e-05 0.00017718010872066429 0 5.8653796497507051e-05 0.00020131708132852292 0 4.3818847316809441e-05 0.0001846070150741267 0 -5.7899508252656984e-05 -9.1157544819539806e-05 0 -4.9073597978061242e-05 -0.00010203596081360265 0 -4.1564514037917907e-05 -9.1332609853831049e-05 0 1.5298789849939591e-09 1.7354479237652154e-11 0 1.09350756700824e-06 -1.0467979627321233e-07 0 1.5682010965515034e-06 -5.6514730119737864e-07 0 8.3370501167058411e-06 -7.13356015918473e-07 0 9.2437825253156836e-06 -1.1835559610042363e-07 0 6.097008318342769e-06 -1.9278656104779356e-06 0 -1.4320339502953774e-05 -5.0785254100620837e-05 0 -2.04309244881619e-05 -4.1063658931015772e-05 0 -2.4008850220693699e-05 -5.0258053004518735e-05 0 -6.9673428494164822e-07 -2.0635797492756564e-06 0 3.858151105696764e-06 -8.7126207727903065e-07 0 1.0743005226330748e-07 5.4074586130054718e-07 0 1.6844005591005044e-06 -8.0289571931757548e-06 0 -3.8517539192567123e-06 -9.6281268061430802e-06 0 -3.5284029711743794e-07 -1.3299271631990969e-05 0 1.2048077812070374e-05 1.5026726026639609e-06 0 1.4519530346613721e-05 3.4924454689981093e-06 0 1.4741314736822669e-05 3.5002596358542496e-06 0 -1.5952133058911609e-05 9.6358626000193117e-05 0 -3.6618427466924881e-05 9.9962831717283454e-05 0 -2.7492237232407066e-05 8.0263865325051021e-05 0 -1.9814145793269994e-05 -1.3219890036319575e-05 0 -2.7406660649682162e-05 -1.8997489682356995e-05 0 -2.0127455435695127e-05 -1.9096022464107067e-05 0 -2.8935861724347166e-05 2.3263653718486055e-05 0 -3.0977093889185975e-05 3.4268923380394802e-05 0 -4.3427461593225939e-05 3.5231783474033184e-05 0 2.5471992103810658e-05 -5.1833100913638472e-05 0 2.9213087266592874e-05 -5.7349251413599259e-05 0 3.0110046947287364e-05 -5.1629527874289727e-05 0 3.461009206669919e-05 -5.5928668905041881e-05 0 3.0110046947287364e-05 -5.1629527874289727e-05 0 2.9213087266592874e-05 -5.7349251413599259e-05 0 -8.3854093634835292e-06 4.2610855639669433e-07 0 -5.152242176489115e-06 1.4637662358119904e-06 0 -6.1821164884877031e-06 1.8658372302022754e-06 0 -3.248956947999254e-06 2.4822074639792258e-06 0 -6.1821164884877031e-06 1.8658372302022754e-06 0 -5.152242176489115e-06 1.4637662358119904e-06 0 3.85009601622605e-06 8.7584189048578267e-07 0 3.1301309594410603e-06 -1.046713066000982e-06 0 4.9552025234861837e-06 -4.2488290096690491e-07 0 -1.2236148914836857e-05 -5.3083809798768942e-07 0 -1.6432022249029545e-05 -3.3609470364091354e-06 0 -1.2293125679086696e-05 -1.6847544110364324e-06 0 -8.9141918213358045e-06 -1.3458260041748329e-06 0 -1.1064699072322339e-05 -2.345161590979111e-06 0 -5.359808359920886e-06 -2.8953319192939936e-06 0 2.3532528591481967e-05 -5.8319723971875629e-05 0 2.8628406912348754e-05 -6.2031463449975123e-05 0 2.514379093575745e-05 -5.650637199434275e-05 0 -1.5952133058911609e-05 9.6358626000193117e-05 0 -2.7010635282473539e-05 0.000125920275825224 0 -3.6618427466924881e-05 9.9962831717283454e-05 0 1.2905963349126172e-09 3.7010827742315426e-10 0 1.0924417466824023e-09 4.3909365924343016e-10 0 8.819038445732386e-07 8.3305297321326045e-07 0 6.9291947011855691e-05 0.00014713363142423845 0 3.8435140529114171e-05 0.00014336396747282394 0 4.7485061862676111e-05 0.00012700487116413593 0 2.2670377941644457e-05 9.8024608528709663e-06 0 2.3748991018842554e-05 1.2059953075211406e-05 0 2.0324249944251081e-05 8.2536100838564167e-06 0 -2.8935861724347166e-05 2.3263653718486055e-05 0 -1.8046461945139997e-05 2.2207781052146973e-05 0 -3.0977093889185975e-05 3.4268923380394802e-05 0 2.2670377941644457e-05 9.8024608528709663e-06 0 1.9186579313692377e-05 7.0170936461421518e-06 0 1.979574643891598e-05 6.9823707134048811e-06 0 2.2670377941644457e-05 9.8024608528709663e-06 0 2.0324249944251078e-05 8.2536100838564167e-06 0 1.9186579313692377e-05 7.0170936461421518e-06 0 -3.1020764155529118e-06 1.4698623900086868e-06 0 -5.9672990669552611e-06 1.0081383264212287e-07 0 -3.254124167790139e-06 -4.7117861019420745e-07 0 2.4986203383317997e-06 2.9135121495299077e-06 0 9.2092021652070493e-07 2.838994345609912e-06 0 2.5911428719624537e-06 2.2826719420430494e-06 0 -4.2386689624827469e-05 7.8111563935927833e-05 0 -5.9916340501274393e-05 0.0001021731231440291 0 -5.9995964060898309e-05 7.8108710313302431e-05 0 7.3436845977728519e-06 -6.6982962157354383e-06 0 8.350034989001857e-06 -6.2405923344245748e-06 0 8.5309900865701023e-06 -3.8493187809019703e-06 0 1.7693989115831085e-05 3.593251698078234e-06 0 2.1061538012646292e-05 7.3231070438947866e-06 0 1.979574643891598e-05 6.9823707134048811e-06 0 1.2913502765993407e-05 -2.4465662311282902e-05 0 1.4048847072935448e-05 -2.0318105632592667e-05 0 1.0351576058606306e-05 -1.87359629700393e-05 0 -1.9814145793269994e-05 -1.3219890036319575e-05 0 -2.5376783189907068e-05 -1.3706428433555447e-05 0 -2.7406660649682162e-05 -1.8997489682356995e-05 0 -2.8935861724347166e-05 2.3263653718486055e-05 0 -4.3427461593225939e-05 3.5231783474033184e-05 0 -4.0151454347591968e-05 2.3942507097962395e-05 0 -5.48203546774928e-05 0.00021034331287171867 0 -7.7907750686204358e-05 0.00022268822891980311 0 -7.3788371178829445e-05 0.00019370342589273247 0 8.0942452206570965e-06 -0.00010503021329715562 0 1.9642811848203629e-05 -0.00011057428911247475 0 1.6637929866234115e-05 -9.5662183101890576e-05 0 8.4871889391189772e-06 -2.7993257322400615e-05 0 9.4745004702107273e-06 -2.3702376149836852e-05 0 5.6695511702960452e-06 -2.5289250619999669e-05 0 1.7397873499338189e-05 5.505092903797469e-06 0 1.4741314736822669e-05 3.5002596358542496e-06 0 1.4519530346613721e-05 3.4924454689981093e-06 0 -1.3959312279591235e-06 -3.4070341723359092e-06 0 -5.359808359920886e-06 -2.8953319192939936e-06 0 -5.2837216510391607e-06 -3.9717642904912695e-06 0 -1.4602484930352731e-05 -4.4380937021218552e-06 0 -9.7748252400803251e-06 -1.7715631263297258e-06 0 -1.2293125679086696e-05 -1.6847544110364324e-06 0 -2.1003111140409764e-05 7.4100486045985972e-06 0 -1.3087764683558568e-05 6.4790141437108363e-06 0 -1.9163183436987452e-05 1.3460330054463965e-05 0 5.6761637332018094e-06 -6.5915628806296086e-06 0 4.9186752759167448e-06 -1.123049849607214e-05 0 6.986867584709685e-06 -1.010558338037041e-05 0 -6.4555438445882022e-06 -1.814309164329047e-06 0 -9.7748252400803251e-06 -1.7715631263297255e-06 0 -9.4104203463032764e-06 -4.2654069359387185e-06 0 1.7693989115831085e-05 3.593251698078234e-06 0 1.5577164450448491e-05 3.0681054519098975e-06 0 1.4771931030147881e-05 -4.1663456903461972e-07 0 1.5298789849939591e-09 1.7354479237652154e-11 0 1.5016249187826623e-09 -9.4945463954909491e-11 0 1.09350756700824e-06 -1.0467979627321226e-07 0 1.2909657818703725e-05 -3.4730044993528456e-05 0 9.6259034505342178e-06 -3.1880643466555782e-05 0 8.5228222419016196e-06 -3.6337373575085317e-05 0 -2.2052637613858889e-05 -6.4281798002231975e-06 0 -1.9962633438159042e-05 -6.3040355918606221e-06 0 -1.6432022249029545e-05 -3.3609470364091354e-06 0 -3.4450606570234054e-05 1.019333980628045e-05 0 -2.4170415452860489e-05 4.8158356388394016e-06 0 -3.0373709988839539e-05 1.0030431600201952e-05 0 -2.7953827355632618e-05 -3.9570051536203584e-05 0 -3.6660080355735939e-05 -3.9920084328016376e-05 0 -3.7213844204652999e-05 -5.1189908590705786e-05 0 -5.999730466257014e-06 -1.5961493783558301e-05 0 -3.4059733802676816e-06 -2.1335339951717206e-05 0 -3.5284029711743794e-07 -1.3299271631990969e-05 0 2.7408290426377563e-06 -1.7586277738727183e-05 0 -3.5284029711743794e-07 -1.3299271631990969e-05 0 -3.4059733802676816e-06 -2.1335339951717206e-05 0 -6.4555438445882022e-06 -1.814309164329047e-06 0 -4.5791264794467404e-06 -3.2520489404925387e-06 0 -3.254124167790139e-06 -4.7117861019420745e-07 0 1.2913502765993407e-05 -2.4465662311282902e-05 0 1.0351576058606306e-05 -1.87359629700393e-05 0 9.4745004702107273e-06 -2.3702376149836852e-05 0 -3.2441280872702155e-05 -6.0349650534910067e-05 0 -2.2533720416411553e-05 -5.9536948128541282e-05 0 -2.4008850220693699e-05 -5.0258053004518735e-05 0 -6.4555438445882022e-06 -1.814309164329047e-06 0 -3.254124167790139e-06 -4.7117861019420745e-07 0 -5.9672990669552611e-06 1.0081383264212287e-07 0 1.207499872108163e-05 -1.5847862538769899e-05 0 1.0351576058606306e-05 -1.87359629700393e-05 0 1.4048847072935448e-05 -2.0318105632592667e-05 0 2.6938349958252891e-06 -1.2593162778855027e-06 0 3.6645122993886239e-06 -6.1785204957048237e-07 0 4.2356559193192186e-06 -1.209280817242954e-06 0 -3.2368192713379826e-05 -1.7337342672885663e-05 0 -2.7406660649682162e-05 -1.8997489682356995e-05 0 -2.5376783189907068e-05 -1.3706428433555445e-05 0 -5.3791212087744292e-05 3.1311421942765814e-05 0 -4.0151454347591968e-05 2.3942507097962395e-05 0 -4.3427461593225939e-05 3.5231783474033184e-05 0 -5.7899508252656984e-05 -9.1157544819539806e-05 0 -4.1564514037917907e-05 -9.1332609853831049e-05 0 -4.8264167217457048e-05 -8.3254773041458076e-05 0 7.4666203178656658e-05 0.00017718010872066429 0 4.3818847316809441e-05 0.0001846070150741267 0 4.8740574685302375e-05 0.0001635785545877833 0 6.9291947011855691e-05 0.00014713363142423845 0 4.8740574685302375e-05 0.0001635785545877833 0 3.8435140529114171e-05 0.00014336396747282394 0 -5.7899508252656984e-05 -9.1157544819539806e-05 0 -6.0037051854195784e-05 -0.00010786522680344069 0 -4.9073597978061242e-05 -0.00010203596081360264 0 7.4666203178656658e-05 0.00017718010872066429 0 7.9849222386767503e-05 0.00020817043144369106 0 5.8653796497507051e-05 0.00020131708132852292 0 2.9797164912565675e-05 -2.0947372117214082e-05 0 2.6657393757681326e-05 -1.4921165966412041e-05 0 2.5007872911327517e-05 -1.9223171736646431e-05 0 6.9412162041634126e-06 -2.0857918820278011e-05 0 5.6695511702960452e-06 -2.5289250619999669e-05 0 9.4745004702107273e-06 -2.3702376149836852e-05 0 1.0619351631365833e-05 -5.0806386650231717e-05 0 1.5295031431438088e-05 -5.416208640297443e-05 0 1.3719346397088012e-05 -5.0854075111691435e-05 0 5.6303419771238717e-05 -4.5686402335845971e-05 0 5.3055943448835433e-05 -5.18301097833659e-05 0 6.3311593989246574e-05 -5.3825777021543388e-05 0 -2.8935861724347166e-05 2.3263653718486055e-05 0 -1.9163183436987452e-05 1.3460330054463965e-05 0 -1.8046461945139997e-05 2.2207781052146973e-05 0 -3.248956947999254e-06 2.4822074639792258e-06 0 -2.3567597312992277e-06 2.9614351656628881e-06 0 -4.3757931014581796e-06 2.5894967412022599e-06 0 7.92070883510793e-06 1.5506813394605972e-06 0 6.8117068444321208e-06 2.0618178422715016e-06 0 8.8000912885067972e-06 2.2335320936445143e-06 0 -4.7667209079819223e-05 0.00012116690639762137 0 -3.6618427466924881e-05 9.9962831717283454e-05 0 -2.7010635282473539e-05 0.000125920275825224 0 3.7779011059306622e-06 -5.9182859199748462e-05 0 1.2878107472401934e-05 -6.6572849477098336e-05 0 1.1894733550419895e-05 -5.1158666066302028e-05 0 2.7182650537027702e-06 -2.6256359562012878e-08 0 1.09350756700824e-06 -1.0467979627321226e-07 0 1.432986835061296e-06 2.5646910421126892e-07 0 -7.3795862173560528e-06 -6.9555917031353525e-06 0 -1.6838165185334123e-06 -5.3001359684077942e-06 0 -4.5791264794467404e-06 -3.2520489404925387e-06 0 6.3492134698234874e-05 0.00011816147547192398 0 6.9291947011855691e-05 0.00014713363142423845 0 4.7485061862676111e-05 0.00012700487116413593 0 2.3339964937126883e-06 -2.8777559256304723e-06 0 3.921776861696207e-06 -2.5440416781962752e-06 0 1.9073518756096356e-06 -3.3240746528724139e-06 0 2.9797164912565675e-05 -2.0947372117214082e-05 0 2.5007872911327517e-05 -1.9223171736646431e-05 0 2.9803518045599307e-05 -2.5024580341349093e-05 0 2.5163170076863088e-05 -2.4329283271754618e-05 0 2.9803518045599307e-05 -2.5024580341349093e-05 0 2.5007872911327517e-05 -1.9223171736646431e-05 0 1.5328674402846071e-05 -4.9992557068025774e-05 0 1.1449212437926654e-05 -4.6727919395591724e-05 0 1.3719346397088012e-05 -5.0854075111691435e-05 0 1.0619351631365833e-05 -5.0806386650231717e-05 0 1.3719346397088012e-05 -5.0854075111691435e-05 0 1.1449212437926654e-05 -4.6727919395591724e-05 0 5.6303419771238717e-05 -4.5686402335845971e-05 0 4.7151614492704377e-05 -4.6228633716791796e-05 0 5.3055943448835433e-05 -5.18301097833659e-05 0 4.5753223004063031e-05 -5.2983661387396894e-05 0 5.3055943448835433e-05 -5.18301097833659e-05 0 4.7151614492704377e-05 -4.6228633716791796e-05 0 1.4502023146753831e-05 3.7819629521036771e-06 0 1.2534169649254308e-05 2.8327833366395466e-06 0 1.2923158333096772e-05 3.0532188277328411e-06 0 3.0356925804481724e-05 -1.0953563857262124e-05 0 2.3123562652293641e-05 -4.9128226069832746e-06 0 2.6657393757681326e-05 -1.4921165966412041e-05 0 2.027070777020375e-05 -1.0358022187003363e-05 0 2.6657393757681326e-05 -1.4921165966412043e-05 0 2.3123562652293641e-05 -4.9128226069832746e-06 0 -3.2441280872702155e-05 -6.0349650534910067e-05 0 -4.2609838029140533e-05 -6.3835987718140297e-05 0 -3.8774128062471284e-05 -7.4706503482220582e-05 0 -8.3854093634835292e-06 4.2610855639669433e-07 0 -9.7748252400803251e-06 -1.7715631263297258e-06 0 -5.9672990669552611e-06 1.0081383264212287e-07 0 -6.4555438445882022e-06 -1.814309164329047e-06 0 -5.9672990669552611e-06 1.0081383264212287e-07 0 -9.7748252400803251e-06 -1.7715631263297258e-06 0 7.9581237547636854e-06 -1.4776322526406585e-05 0 4.8693158953093414e-06 -1.2247937022561341e-05 0 5.6746304592567555e-06 -1.1317948736675417e-05 0 1.1615304070917049e-05 -4.2239575548519725e-05 0 1.1449212437926654e-05 -4.6727919395591724e-05 0 1.4186111172476233e-05 -4.5494089231533961e-05 0 4.0557539884001401e-05 -4.2354818430044637e-05 0 3.9749337089590814e-05 -4.6913730485616857e-05 0 4.7151614492704377e-05 -4.6228633716791796e-05 0 7.0590516554344529e-06 2.341943307363528e-06 0 8.8000912885067972e-06 2.2335320936445143e-06 0 6.8117068444321208e-06 2.0618178422715016e-06 0 2.862840691234875e-05 -6.2031463449975123e-05 0 2.9213087266592874e-05 -5.7349251413599259e-05 0 2.514379093575745e-05 -5.650637199434275e-05 0 3.8828480986242134e-06 2.6717444519970122e-06 0 3.8524675132727151e-06 2.2420301229235803e-06 0 2.5625095863264392e-06 2.308533798393886e-06 0 1.207499872108163e-05 -1.5847862538769899e-05 0 1.2274679977689057e-05 -1.2311653568577097e-05 0 9.3565851847437728e-06 -1.2424459910119221e-05 0 2.7182650537027702e-06 -2.6256359562012878e-08 0 4.3144101653303497e-06 1.7701027957226848e-07 0 3.6645122993886239e-06 -6.1785204957048237e-07 0 -9.1550196001064157e-06 0.00013976099022760451 0 -1.3889079330290814e-06 0.00011763386589800768 0 1.3959654585420156e-05 0.0001361241964314636 0 -6.1105123640242122e-06 0.00019180690688310834 0 2.0291276781817259e-05 0.00019315300641373264 0 1.0763482533386795e-05 0.00021238072604729875 0 -1.6101114068429578e-05 -9.6900394480455433e-05 0 -2.909380940302096e-05 -9.6362259580437111e-05 0 -2.406258367752554e-05 -0.0001071231591309108 0 3.4121365561574779e-05 2.0440036315028893e-05 0 2.624847424629979e-05 3.5738295303429435e-06 0 3.7063309520035586e-05 -4.9575718056858103e-06 0 2.7182650537027702e-06 -2.6256359562012878e-08 0 1.432986835061296e-06 2.5646910421126892e-07 0 2.9742724235710256e-06 4.9578393571861401e-07 0 -5.4986713729119912e-05 -7.5399645246723227e-05 0 -4.8264167217457048e-05 -8.3254773041458076e-05 0 -3.8774128062471284e-05 -7.4706503482220582e-05 0 -6.2421876447904518e-05 -0.00017739521756014292 0 -5.104629724995896e-05 -0.00016758057054571928 0 -6.2443462478728245e-05 -0.00016012156157266973 0 0.0001051631261652361 0.00034427474235905529 0 7.6424904857283081e-05 0.00032686888660259122 0 9.6769509895454684e-05 0.00030826611901046573 0 0.0001051631261652361 0.00034427474235905529 0 6.7534014867774635e-05 0.00034864845531372939 0 7.6424904857283081e-05 0.00032686888660259122 0 4.5083653186395416e-05 -0.00017651395214989362 0 2.978574685981206e-05 -0.00016744952566631328 0 2.5756738071298674e-05 -0.00017871028410821105 0 -0.00010419402293610355 0.00034767245985573085 0 -0.00010422663189657097 0.00031415259753702431 0 -8.2066168896217023e-05 0.00032862777807114908 0 -6.2421876447904518e-05 -0.00017739521756014292 0 -4.5302856570728675e-05 -0.00017736130858773228 0 -5.104629724995896e-05 -0.00016758057054571928 0 4.5083653186395416e-05 -0.00017651395214989362 0 3.967441454102702e-05 -0.00015769091638952141 0 2.978574685981206e-05 -0.00016744952566631328 0 -0.00010419402293610355 0.00034767245985573085 0 -8.2066168896217023e-05 0.00032862777807114908 0 -7.0906964946103749e-05 0.00034762069962191176 0 1.5016249187828625e-09 -9.4945463954928671e-11 0 1.432986835061296e-06 2.5646910421126892e-07 0 1.09350756700824e-06 -1.0467979627321226e-07 0 1.2913502765993407e-05 -2.4465662311282902e-05 0 1.7353797010547361e-05 -2.5549608832466432e-05 0 1.4048847072935448e-05 -2.0318105632592667e-05 0 -6.4555438445882022e-06 -1.814309164329047e-06 0 -9.4104203463032764e-06 -4.2654069359387185e-06 0 -4.5791264794467404e-06 -3.2520489404925387e-06 0 -3.2441280872702155e-05 -6.0349650534910067e-05 0 -2.6637866209244976e-05 -6.8761544594801182e-05 0 -2.2533720416411553e-05 -5.9536948128541282e-05 0 5.669736798835044e-06 -1.5426507881492248e-06 0 5.3845416407056006e-06 -2.1677318751592881e-06 0 3.921776861696207e-06 -2.5440416781962752e-06 0 -8.5263083737114007e-06 0.00023019896875433422 0 -2.9647913868147381e-05 0.0002498322444407333 0 -3.16829477341046e-05 0.00021992018994794693 0 -1.3947222144967235e-05 -0.0001161566494114673 0 -2.8057934220957066e-06 -0.00012629162936870087 0 -2.7734524915040138e-06 -0.00011097395589212026 0 4.8013045401300696e-06 -4.0294062599803803e-05 0 7.194425626290637e-06 -4.5983020563958248e-05 0 8.3914301232700527e-06 -4.1926107631766121e-05 0 4.669171636709839e-05 -3.4353352566381622e-05 0 4.4645421027746599e-05 -3.9316258793448552e-05 0 5.0894180279230818e-05 -3.9521304558531982e-05 0 3.7753203426518546e-05 -1.4619765006199361e-05 0 3.3716174495922805e-05 -1.8844098199650557e-05 0 3.8903317556585076e-05 -2.0655855084298789e-05 0 -7.3795862173560528e-06 -6.9555917031353525e-06 0 -4.5791264794467404e-06 -3.2520489404925387e-06 0 -9.4104203463032764e-06 -4.2654069359387185e-06 0 2.399244354948809e-06 -2.7865933699203967e-05 0 3.2123168897014279e-06 -3.4158046779927229e-05 0 6.3102617929496161e-06 -3.0497129553851245e-05 0 4.0908097087598657e-05 -2.5401380314767041e-05 0 3.876802711466348e-05 -2.9371077273859126e-05 0 4.3395625474362489e-05 -2.9805641925438945e-05 0 -1.4320339502953774e-05 -5.0785254100620837e-05 0 -5.4760628604027882e-06 -5.5223084551864204e-05 0 -6.8009741107621756e-06 -4.261010325393699e-05 0 7.92070883510793e-06 1.5506813394605972e-06 0 6.1141272962796356e-06 1.5421264338389987e-06 0 6.8117068444321208e-06 2.0618178422715016e-06 0 8.0942452206570965e-06 -0.00010503021329715562 0 -3.3591959598456004e-06 -9.4816406691489616e-05 0 -2.7734524915040138e-06 -0.00011097395589212026 0 -5.48203546774928e-05 0.00021034331287171867 0 -3.1987202205867803e-05 0.00019178571675277701 0 -3.16829477341046e-05 0.00021992018994794693 0 3.3863682601022924e-05 -2.9198341052472895e-05 0 3.5092522189778115e-05 -2.4818506197521567e-05 0 2.9803518045599307e-05 -2.5024580341349093e-05 0 2.9797164912565675e-05 -2.0947372117214082e-05 0 2.9803518045599307e-05 -2.502458034134909e-05 0 3.5092522189778115e-05 -2.4818506197521567e-05 0 2.4986203383317997e-06 2.9135121495299077e-06 0 1.0827105789150318e-06 3.1091514441467966e-06 0 9.2092021652070493e-07 2.838994345609912e-06 0 -5.999730466257014e-06 -1.5961493783558301e-05 0 -3.5284029711743783e-07 -1.3299271631990968e-05 0 -3.8517539192567123e-06 -9.6281268061430802e-06 0 3.4116165611106597e-06 -4.319381739543786e-05 0 1.0587545353939679e-05 -3.8185296079429143e-05 0 4.2600588811322213e-06 -2.8099762943210263e-05 0 1.7240983095397621e-05 -2.0895625705079291e-05 0 1.4048847072935448e-05 -2.0318105632592667e-05 0 1.7353797010547361e-05 -2.5549608832466432e-05 0 1.4393944564768152e-05 -3.0796952755103715e-05 0 1.0587545353939679e-05 -3.8185296079429143e-05 0 1.8739264826622947e-05 -4.3744955616806471e-05 0 4.10952449190002e-05 -3.4375740477188865e-05 0 3.5129973825924111e-05 -3.3017228754577115e-05 0 3.7849113371355919e-05 -3.8126711892887664e-05 0 3.2218870446451499e-05 -3.5723181533513289e-05 0 3.7849113371355919e-05 -3.8126711892887664e-05 0 3.5129973825924111e-05 -3.3017228754577115e-05 0 -3.1506493327530925e-06 2.7572814889722757e-06 0 -5.0163960238560077e-06 2.3131587915010177e-06 0 -4.3757931014581796e-06 2.5894967412022599e-06 0 7.9706679496087214e-06 -2.0744504146971235e-06 0 8.5309900865701023e-06 -3.8493187809019703e-06 0 9.4909341684677201e-06 -1.1054109482465971e-06 0 1.0218650475543698e-05 -2.4412777833582181e-06 0 9.4909341684677201e-06 -1.1054109482465971e-06 0 8.5309900865701023e-06 -3.8493187809019703e-06 0 2.2670377941644457e-05 9.8024608528709663e-06 0 2.1061538012646292e-05 7.3231070438947866e-06 0 2.5719389722693528e-05 1.3145469369290193e-05 0 2.2314579838860293e-05 3.992084602782036e-06 0 2.5719389722693528e-05 1.3145469369290193e-05 0 2.1061538012646292e-05 7.3231070438947866e-06 0 6.9291947011855691e-05 0.00014713363142423845 0 7.4666203178656658e-05 0.00017718010872066429 0 4.8740574685302375e-05 0.0001635785545877833 0 1.7657301059405149e-05 5.6410562955615003e-06 0 1.64060289055675e-05 4.9526781624819222e-06 0 1.5489449234532349e-05 4.2276910840401702e-06 0 -5.4986713729119912e-05 -7.5399645246723227e-05 0 -5.7899508252656984e-05 -9.1157544819539806e-05 0 -4.8264167217457048e-05 -8.3254773041458076e-05 0 -4.871292231402229e-07 3.1020911988979392e-06 0 9.2092021652070493e-07 2.838994345609912e-06 0 1.0827105789150318e-06 3.1091514441467966e-06 0 -3.1378597554390746e-06 -4.1606798766676662e-06 0 -2.858965725285673e-06 -3.582490806933304e-06 0 -1.5966246078681129e-06 -3.7315240731255715e-06 0 -3.1506493327530925e-06 2.7572814889722757e-06 0 -1.8656643570981999e-06 2.6087635516958354e-06 0 -2.596500170295631e-06 2.3338529127235068e-06 0 8.3370501167058411e-06 -7.13356015918473e-07 0 8.0675401647022562e-06 -3.4008843089269428e-08 0 1.0472605364633454e-05 8.9697132031812375e-07 0 -1.754621492683568e-06 4.2881780053752932e-08 0 -1.8119140583430752e-06 7.716711030574866e-07 0 -8.0073898521368278e-07 2.0340637410699733e-07 0 -1.4244019699782016e-09 4.5739976494116665e-10 0 -8.0073898521368278e-07 2.0340637410699738e-07 0 -1.8119140583430752e-06 7.716711030574866e-07 0 -2.2274077163827976e-06 -3.8729999297032469e-07 0 -1.0223304571242004e-06 -4.3807663321183927e-07 0 -2.3533290207824749e-06 -1.3934066245657487e-06 0 -1.9205876273156735e-09 -7.4624309456888456e-10 0 -2.3533290207824749e-06 -1.3934066245657487e-06 0 -1.0223304571242004e-06 -4.3807663321183927e-07 0 -5.999730466257014e-06 -1.5961493783558301e-05 0 -1.290043429809628e-05 -1.9011319828405406e-05 0 -9.4800870755050374e-06 -2.4364194170929189e-05 0 2.7182650537027702e-06 -2.6256359562012878e-08 0 2.9742724235710256e-06 4.9578393571861401e-07 0 4.3144101653303497e-06 1.7701027957226848e-07 0 2.4194608378232245e-05 0.00011678587081130344 0 4.2865166817201603e-05 0.00010838675701137133 0 4.7485061862676111e-05 0.00012700487116413593 0 8.6247774429158977e-06 2.3802492970409651e-05 0 3.1247141103236734e-06 1.5391218801166244e-05 0 1.2012743445353597e-05 1.371916786880205e-05 0 1.7657301059405149e-05 5.6410562955615003e-06 0 1.9186579313692377e-05 7.0170936461421518e-06 0 1.64060289055675e-05 4.9526781624819222e-06 0 -3.8613962374847119e-06 -3.1601600472972755e-05 0 -3.4059733802676816e-06 -2.1335339951717206e-05 0 -9.4800870755050374e-06 -2.4364194170929189e-05 0 -3.75961283788957e-05 0.0003479986778784254 0 -7.0906964946103749e-05 0.00034762069962191176 0 -5.4498367796668432e-05 0.00033045034278025544 0 6.5900309006019044e-06 -0.00017871371505270376 0 2.5756738071298674e-05 -0.00017871028410821105 0 1.4720323525731143e-05 -0.00016919402831479041 0 6.7534014867774635e-05 0.00034864845531372939 0 3.0543923323285493e-05 0.00034923305365045014 0 4.6854283485090913e-05 0.00033061668137418916 0 -4.5302856570728681e-05 -0.00017736130858773231 0 -2.8220809784855986e-05 -0.00017761611784218565 0 -3.6905732655547172e-05 -0.00016853148844775897 0 1.7036995968980422e-05 -4.4991306797184198e-05 0 1.4186111172476233e-05 -4.5494089231533961e-05 0 1.7525057980603695e-05 -4.9159984113755352e-05 0 3.3546867536132918e-05 -4.6909039817242732e-05 0 3.7839912944064958e-05 -5.2488380061575977e-05 0 3.9749337089590814e-05 -4.6913730485616857e-05 0 -1.5085223346670894e-09 -6.202152252896504e-10 0 -8.0073898521368299e-07 2.0340637410699738e-07 0 -1.4244019699782016e-09 4.5739976494116665e-10 0 -1.6960862092304436e-09 6.9343034470179833e-10 0 -1.9205876273156735e-09 -7.4624309456888456e-10 0 -1.0223304571242004e-06 -4.3807663321183927e-07 0 -1.6960862092304436e-09 6.9343034470179833e-10 0 -1.0223304571242004e-06 -4.3807663321183927e-07 0 -2.2274077163827976e-06 -3.8729999297032469e-07 0 -1.5085223346670894e-09 -6.202152252896504e-10 0 -1.754621492683568e-06 4.2881780053752932e-08 0 -8.0073898521368278e-07 2.0340637410699733e-07 0 3.7779011059306622e-06 -5.9182859199748462e-05 0 -5.4760628604027882e-06 -5.5223084551864204e-05 0 -4.5497891334041621e-06 -6.9184898197211656e-05 0 6.6725338078060622e-07 2.0178535841583426e-06 0 -8.7499513951329321e-07 1.1103362956313924e-06 0 1.6803246506567081e-06 8.257587404817207e-07 0 1.207499872108163e-05 -1.5847862538769899e-05 0 1.4048847072935448e-05 -2.0318105632592667e-05 0 1.4767369040347504e-05 -1.6236759406206967e-05 0 1.7240983095397621e-05 -2.0895625705079291e-05 0 1.4767369040347504e-05 -1.6236759406206967e-05 0 1.4048847072935448e-05 -2.0318105632592667e-05 0 2.4986203383317997e-06 2.9135121495299077e-06 0 2.5911428719624537e-06 2.2826719420430494e-06 0 3.6640178625732907e-06 2.5485947095221355e-06 0 5.1164638413414869e-06 2.037595146625625e-06 0 3.8524675132727151e-06 2.2420301229235803e-06 0 5.5454969570365914e-06 2.4629221674149841e-06 0 3.8828480986242134e-06 2.6717444519970122e-06 0 5.5454969570365914e-06 2.4629221674149841e-06 0 3.8524675132727151e-06 2.2420301229235803e-06 0 2.2314579838860293e-05 3.992084602782036e-06 0 2.624847424629979e-05 3.5738295303429439e-06 0 2.5719389722693528e-05 1.3145469369290193e-05 0 3.4121365561574779e-05 2.0440036315028893e-05 0 2.5719389722693528e-05 1.3145469369290195e-05 0 2.624847424629979e-05 3.5738295303429435e-06 0 -1.7229159434649226e-05 -2.4195676958604846e-05 0 -9.4800870755050374e-06 -2.4364194170929189e-05 0 -1.290043429809628e-05 -1.9011319828405406e-05 0 3.3863682601022924e-05 -2.9198341052472895e-05 0 3.5129973825924111e-05 -3.3017228754577115e-05 0 3.876802711466348e-05 -2.9371077273859126e-05 0 8.4871889391189772e-06 -2.7993257322400615e-05 0 6.3102617929496161e-06 -3.0497129553851245e-05 0 9.6259034505342178e-06 -3.1880643466555782e-05 0 7.0590516554344529e-06 2.341943307363528e-06 0 8.5600853105004998e-06 2.2912299048871089e-06 0 8.8000912885067972e-06 2.2335320936445143e-06 0 3.5003863750830385e-05 0.00021290006794982486 0 5.8653796497507051e-05 0.00020131708132852292 0 5.9632200981848712e-05 0.00022266805479174328 0 -3.6298299138982198e-05 -0.00010770185821675713 0 -4.9073597978061242e-05 -0.00010203596081360264 0 -4.8773547110398505e-05 -0.00011382589109434957 0 7.9581237547636854e-06 -1.4776322526406585e-05 0 6.986867584709685e-06 -1.010558338037041e-05 0 4.9186752759167448e-06 -1.123049849607214e-05 0 2.9797164912565675e-05 -2.0947372117214082e-05 0 3.3716174495922805e-05 -1.8844098199650557e-05 0 2.6657393757681326e-05 -1.4921165966412041e-05 0 -5.48203546774928e-05 0.00021034331287171867 0 -7.3788371178829445e-05 0.00019370342589273247 0 -5.2162443340273692e-05 0.00018448770039163984 0 8.0942452206570965e-06 -0.00010503021329715562 0 1.6637929866234115e-05 -9.5662183101890576e-05 0 6.3303699631305388e-06 -9.1489482889358929e-05 0 3.7779011059306622e-06 -5.9182859199748462e-05 0 4.4896680726484772e-06 -7.1350506826503549e-05 0 1.2878107472401934e-05 -6.6572849477098336e-05 0 1.6782787239581456e-05 -4.0099211281119997e-05 0 1.924784071556466e-05 -4.3521626460558849e-05 0 2.0219567471752437e-05 -3.9636615293039898e-05 0 4.0557539884001401e-05 -4.2354818430044637e-05 0 4.4645421027746606e-05 -3.9316258793448552e-05 0 3.7849113371355919e-05 -3.8126711892887664e-05 0 6.1411327668642718e-06 -1.2363518924470332e-06 0 6.097008318342769e-06 -1.9278656104779356e-06 0 9.2437825253156819e-06 -1.1835559610042392e-07 0 2.5471992103810658e-05 -5.1833100913638472e-05 0 3.0110046947287364e-05 -5.1629527874289727e-05 0 2.6730846646199644e-05 -4.6476342771992376e-05 0 -4.871292231402229e-07 3.1020911988979392e-06 0 1.0827105789150318e-06 3.1091514441467966e-06 0 -1.639084200126853e-07 3.0880581246364655e-06 0 5.2864220085027411e-07 2.9560257819627283e-06 0 -1.639084200126853e-07 3.0880581246364655e-06 0 1.0827105789150318e-06 3.1091514441467966e-06 0 9.9050274118358653e-06 1.0295590839694868e-06 0 8.4631034353611285e-06 -2.481387833465273e-07 0 9.4909341684677201e-06 -1.1054109482465971e-06 0 -5.999730466257014e-06 -1.5961493783558301e-05 0 -9.4800870755050374e-06 -2.4364194170929189e-05 0 -3.4059733802676816e-06 -2.1335339951717206e-05 0 2.4986203383317997e-06 2.9135121495299077e-06 0 3.6640178625732907e-06 2.5485947095221355e-06 0 3.4393636912443048e-06 2.8256327231127637e-06 0 4.7490896950195262e-06 2.5797466370658879e-06 0 3.4393636912443048e-06 2.8256327231127637e-06 0 3.6640178625732907e-06 2.5485947095221355e-06 0 2.5911428719624537e-06 2.2826719420430494e-06 0 4.6242282252992296e-06 1.9576333754531158e-06 0 3.6640178625732907e-06 2.5485947095221355e-06 0 2.08885023798905e-05 -5.2745654728843086e-05 0 1.7525057980603695e-05 -4.9159984113755352e-05 0 1.8736142338593662e-05 -5.3161239669510178e-05 0 1.5328674402846071e-05 -4.9992557068025774e-05 0 1.8736142338593662e-05 -5.3161239669510178e-05 0 1.7525057980603695e-05 -4.9159984113755352e-05 0 4.5753223004063031e-05 -5.2983661387396894e-05 0 3.7839912944064958e-05 -5.2488380061575977e-05 0 4.284308721123139e-05 -6.0177313252764429e-05 0 3.461009206669919e-05 -5.5928668905041881e-05 0 4.284308721123139e-05 -6.0177313252764429e-05 0 3.7839912944064958e-05 -5.2488380061575977e-05 0 2.2314579838860293e-05 3.992084602782036e-06 0 2.3123562652293641e-05 -4.9128226069832746e-06 0 2.624847424629979e-05 3.5738295303429435e-06 0 5.7610745920795812e-05 0.00030858685892272257 0 4.6854283485090913e-05 0.00033061668137418916 0 2.5206350847808436e-05 0.00031669871601389707 0 -4.335584662016397e-05 -0.0001578728029635009 0 -3.6905732655547172e-05 -0.00016853148844775897 0 -2.7302185733829108e-05 -0.00016145307365335922 0 1.9815855580552934e-05 -0.00015775222776576471 0 3.4981201703204221e-06 -0.0001618204817825511 0 1.4720323525731143e-05 -0.00016919402831479041 0 -6.7112227954608562e-05 0.00030986431902169413 0 -3.560258311341409e-05 0.00031669127720345769 0 -5.4498367796668432e-05 0.00033045034278025544 0 -5.48203546774928e-05 0.00021034331287171867 0 -5.2162443340273692e-05 0.00018448770039163984 0 -3.1987202205867803e-05 0.00019178571675277701 0 8.0942452206570965e-06 -0.00010503021329715562 0 6.3303699631305388e-06 -9.1489482889358929e-05 0 -3.3591959598456004e-06 -9.4816406691489616e-05 0 3.7779011059306622e-06 -5.9182859199748462e-05 0 -4.5497891334041621e-06 -6.9184898197211656e-05 0 4.4896680726484763e-06 -7.1350506826503549e-05 0 7.9706679496087214e-06 -2.0744504146971235e-06 0 9.4909341684677201e-06 -1.1054109482465971e-06 0 8.4631034353611285e-06 -2.481387833465273e-07 0 3.0543923323285493e-05 0.00034923305365045014 0 2.5206350847808436e-05 0.00031669871601389707 0 4.6854283485090913e-05 0.00033061668137418916 0 -2.8220809784855986e-05 -0.00017761611784218565 0 -2.7302185733829108e-05 -0.00016145307365335922 0 -3.6905732655547172e-05 -0.00016853148844775897 0 -3.75961283788957e-05 0.0003479986778784254 0 -5.4498367796668432e-05 0.00033045034278025544 0 -3.560258311341409e-05 0.00031669127720345769 0 6.5900309006019044e-06 -0.00017871371505270376 0 1.4720323525731146e-05 -0.00016919402831479041 0 3.4981201703204221e-06 -0.0001618204817825511 0 2.2441857978961434e-05 -4.3564460714667153e-05 0 2.0219567471752437e-05 -3.9636615293039898e-05 0 1.924784071556466e-05 -4.3521626460558849e-05 0 1.4393944564768152e-05 -3.0796952755103715e-05 0 4.2600588811322213e-06 -2.8099762943210263e-05 0 1.0587545353939679e-05 -3.8185296079429143e-05 0 1.5295031431438088e-05 -5.416208640297443e-05 0 1.6802078867523138e-05 -5.2688723122508569e-05 0 1.3719346397088012e-05 -5.0854075111691435e-05 0 6.3311593989246574e-05 -5.3825777021543388e-05 0 5.3055943448835433e-05 -5.18301097833659e-05 0 5.5056482410602353e-05 -5.9159266007033336e-05 0 5.1164638413414869e-06 2.037595146625625e-06 0 3.5486857021585633e-06 1.6237255268453781e-06 0 3.8524675132727151e-06 2.2420301229235803e-06 0 -6.5964429091226303e-05 0.00016427430551248733 0 -6.8525163976680594e-05 0.00013679382964446979 0 -4.8568872244343179e-05 0.00014199618217239861 0 -4.7667209079819223e-05 0.00012116690639762137 0 -4.8568872244343179e-05 0.00014199618217239861 0 -6.8525163976680594e-05 0.00013679382964446979 0 2.1632760799810547e-05 -3.5743561847447812e-05 0 1.7519087664697163e-05 -3.5533731385383043e-05 0 2.0219567471752437e-05 -3.9636615293039898e-05 0 6.4961815891919518e-06 1.7411074770483587e-06 0 4.6242282252992296e-06 1.9576333754531158e-06 0 5.4525394974622186e-06 9.4709234030619464e-07 0 1.207499872108163e-05 -1.5847862538769899e-05 0 1.4767369040347504e-05 -1.6236759406206967e-05 0 1.2274679977689057e-05 -1.2311653568577099e-05 0 1.4606954594148069e-05 -1.15186413974555e-05 0 1.2274679977689057e-05 -1.2311653568577099e-05 0 1.4767369040347504e-05 -1.6236759406206967e-05 0 -3.4692639946566759e-05 0.00016361350647517341 0 -3.1987202205867803e-05 0.00019178571675277701 0 -5.2162443340273692e-05 0.00018448770039163984 0 -1.6780793099012389e-06 -8.1321515641855375e-05 0 -3.3591959598456004e-06 -9.4816406691489616e-05 0 6.3303699631305388e-06 -9.1489482889358929e-05 0 -1.6780793099012389e-06 -8.1321515641855375e-05 0 4.4896680726484763e-06 -7.1350506826503549e-05 0 -4.5497891334041621e-06 -6.9184898197211656e-05 0 -2.5363763865954926e-06 1.6615837080110054e-06 0 -3.918350371203327e-06 2.1530527886820886e-06 0 -2.596500170295631e-06 2.3338529127235068e-06 0 -3.1384737524646384e-06 -2.7233895554337134e-06 0 -2.858965725285673e-06 -3.582490806933304e-06 0 -4.8518516835802322e-06 -3.5552067951646218e-06 0 -7.3829707401593045e-06 -3.1501237707152602e-06 0 -4.8518516835802322e-06 -3.5552067951646218e-06 0 -6.0665238622586549e-06 -3.8528702635659902e-06 0 -5.5820550236348151e-06 1.7575506265320986e-06 0 -5.0163960238560077e-06 2.3131587915010177e-06 0 -3.918350371203327e-06 2.1530527886820886e-06 0 6.6628959655726449e-06 -1.2422122058067223e-07 0 8.4631034353611285e-06 -2.481387833465273e-07 0 8.0089338509197061e-06 9.2486472096184165e-07 0 -6.5964429091226303e-05 0.00016427430551248733 0 -5.2162443340273692e-05 0.00018448770039163984 0 -7.3788371178829445e-05 0.00019370342589273247 0 1.2204205295171283e-05 -8.0910019506549312e-05 0 6.3303699631305388e-06 -9.1489482889358929e-05 0 1.6637929866234115e-05 -9.5662183101890576e-05 0 1.2204205295171283e-05 -8.0910019506549312e-05 0 1.2878107472401934e-05 -6.6572849477098336e-05 0 4.4896680726484763e-06 -7.1350506826503549e-05 0 -1.4320339502953774e-05 -5.0785254100620837e-05 0 -2.4008850220693699e-05 -5.0258053004518735e-05 0 -2.2533720416411553e-05 -5.9536948128541282e-05 0 1.6782787239581456e-05 -4.0099211281119997e-05 0 2.0219567471752437e-05 -3.9636615293039898e-05 0 1.7519087664697163e-05 -3.5533731385383043e-05 0 6.1411327668642718e-06 -1.2363518924470332e-06 0 8.4197321793615907e-06 7.4820668805104973e-07 0 3.8581511056967631e-06 -8.7126207727903054e-07 0 5.1242838824193685e-06 -2.6442477246798616e-06 0 4.9552025234861829e-06 -4.2488290096690475e-07 0 3.1301309594410603e-06 -1.046713066000982e-06 0 -3.1506493327530925e-06 2.7572814889722757e-06 0 -4.3757931014581804e-06 2.5894967412022595e-06 0 -2.3567597312992277e-06 2.9614351656628881e-06 0 -4.2386689624827469e-05 7.8111563935927833e-05 0 -2.7492237232407066e-05 8.0263865325051035e-05 0 -3.6618427466924881e-05 9.9962831717283454e-05 0 -2.7953827355632618e-05 -3.9570051536203584e-05 0 -2.4008850220693699e-05 -5.0258053004518735e-05 0 -2.04309244881619e-05 -4.1063658931015772e-05 0 3.5003863750830385e-05 0.00021290006794982486 0 1.0763482533386795e-05 0.00021238072604729875 0 2.0291276781817259e-05 0.00019315300641373264 0 -3.6298299138982198e-05 -0.00010770185821675713 0 -2.406258367752554e-05 -0.0001071231591309108 0 -2.909380940302096e-05 -9.6362259580437111e-05 0 2.4194608378232245e-05 0.00011678587081130344 0 1.3959654585420156e-05 0.0001361241964314636 0 -1.3889079330290814e-06 0.00011763386589800768 0 -3.1020764155529118e-06 1.4698623900086868e-06 0 -5.1522421764891142e-06 1.4637662358119906e-06 0 -5.9672990669552611e-06 1.0081383264212287e-07 0 3.85009601622605e-06 8.7584189048578267e-07 0 5.4525394974622186e-06 9.4709234030619464e-07 0 4.6242282252992296e-06 1.9576333754531158e-06 0 -1.5574760275257044e-05 -6.8492255495263015e-05 0 -2.2533720416411553e-05 -5.9536948128541282e-05 0 -2.6637866209244976e-05 -6.8761544594801182e-05 0 1.5328674402846071e-05 -4.9992557068025774e-05 0 1.3719346397088012e-05 -5.0854075111691435e-05 0 1.6802078867523138e-05 -5.2688723122508569e-05 0 4.5753223004063031e-05 -5.2983661387396894e-05 0 5.5056482410602353e-05 -5.9159266007033336e-05 0 5.3055943448835433e-05 -5.18301097833659e-05 0 4.7490896950195262e-06 2.5797466370658879e-06 0 3.6640178625732907e-06 2.5485947095221355e-06 0 4.6242282252992296e-06 1.9576333754531158e-06 0 -7.0906964946103749e-05 0.00034762069962191176 0 -8.2066168896217023e-05 0.00032862777807114908 0 -5.4498367796668432e-05 0.00033045034278025544 0 -6.7112227954608562e-05 0.00030986431902169413 0 -5.4498367796668432e-05 0.00033045034278025544 0 -8.2066168896217023e-05 0.00032862777807114908 0 1.9815855580552934e-05 -0.00015775222776576471 0 1.4720323525731143e-05 -0.00016919402831479041 0 2.978574685981206e-05 -0.00016744952566631328 0 2.5756738071298674e-05 -0.00017871028410821105 0 2.978574685981206e-05 -0.00016744952566631328 0 1.4720323525731143e-05 -0.00016919402831479041 0 6.7534014867774635e-05 0.00034864845531372939 0 4.6854283485090913e-05 0.00033061668137418916 0 7.6424904857283081e-05 0.00032686888660259122 0 -4.5302856570728681e-05 -0.00017736130858773231 0 -3.6905732655547172e-05 -0.00016853148844775897 0 -5.104629724995896e-05 -0.00016758057054571928 0 5.7610745920795812e-05 0.00030858685892272257 0 7.6424904857283081e-05 0.00032686888660259122 0 4.6854283485090913e-05 0.00033061668137418916 0 -4.335584662016397e-05 -0.0001578728029635009 0 -5.104629724995896e-05 -0.00016758057054571928 0 -3.6905732655547172e-05 -0.00016853148844775897 0 2.1632760799810547e-05 -3.5743561847447812e-05 0 2.0219567471752437e-05 -3.9636615293039898e-05 0 2.4152063906701757e-05 -3.9987265816691251e-05 0 1.2909657818703725e-05 -3.4730044993528456e-05 0 1.1664567679825084e-05 -2.9062051735070425e-05 0 9.6259034505342178e-06 -3.1880643466555782e-05 0 8.4871889391189772e-06 -2.7993257322400615e-05 0 9.6259034505342178e-06 -3.1880643466555782e-05 0 1.1664567679825084e-05 -2.9062051735070425e-05 0 2.2441857978961434e-05 -4.3564460714667153e-05 0 1.924784071556466e-05 -4.3521626460558849e-05 0 2.0905645678857474e-05 -4.7693843834079921e-05 0 1.7036995968980422e-05 -4.4991306797184198e-05 0 2.0905645678857474e-05 -4.7693843834079921e-05 0 1.924784071556466e-05 -4.3521626460558849e-05 0 2.2670377941644457e-05 9.8024608528709663e-06 0 1.979574643891598e-05 6.9823707134048811e-06 0 2.1061538012646292e-05 7.3231070438947866e-06 0 5.7525038151623673e-06 2.4694975023926085e-06 0 9.1908817236142249e-07 4.8880679231046531e-06 0 1.0743005226330748e-07 5.4074586130054718e-07 0 -5.4083240345842572e-06 2.8301455882327638e-06 0 1.0743005226330748e-07 5.4074586130054718e-07 0 9.1908817236142249e-07 4.8880679231046531e-06 0 -3.1020764155529118e-06 1.4698623900086868e-06 0 -3.2541241677901386e-06 -4.7117861019420745e-07 0 -8.7499513951329321e-07 1.1103362956313924e-06 0 -4.2386689624827469e-05 7.8111563935927833e-05 0 -2.8959704545630067e-05 6.3086177642223087e-05 0 -2.7492237232407066e-05 8.0263865325051021e-05 0 -1.3293963490773079e-05 6.6582228930793953e-05 0 -2.7492237232407066e-05 8.0263865325051021e-05 0 -2.8959704545630067e-05 6.3086177642223087e-05 0 1.7657301059405149e-05 5.6410562955615003e-06 0 1.979574643891598e-05 6.9823707134048811e-06 0 1.9186579313692377e-05 7.0170936461421518e-06 0 3.2218870446451499e-05 -3.5723181533513289e-05 0 3.4271136413358431e-05 -4.0604603982321391e-05 0 3.7849113371355919e-05 -3.8126711892887664e-05 0 4.0557539884001401e-05 -4.2354818430044637e-05 0 3.7849113371355919e-05 -3.8126711892887664e-05 0 3.4271136413358431e-05 -4.0604603982321391e-05 0 1.7397873499338189e-05 5.505092903797469e-06 0 1.9186579313692377e-05 7.0170936461421518e-06 0 2.0324249944251081e-05 8.2536100838564167e-06 0 -1.3276962376082203e-05 -3.4669054216922208e-05 0 -2.1298520652266253e-05 -3.2860636385146844e-05 0 -2.04309244881619e-05 -4.1063658931015772e-05 0 -2.7953827355632618e-05 -3.9570051536203584e-05 0 -2.04309244881619e-05 -4.1063658931015772e-05 0 -2.1298520652266253e-05 -3.2860636385146844e-05 0 1.4502023146753831e-05 3.7819629521036771e-06 0 1.5489449234532349e-05 4.2276910840401702e-06 0 1.64060289055675e-05 4.9526781624819222e-06 0 1.7397873499338189e-05 5.505092903797469e-06 0 1.64060289055675e-05 4.9526781624819222e-06 0 1.9186579313692377e-05 7.0170936461421518e-06 0 8.4871889391189772e-06 -2.7993257322400615e-05 0 5.6695511702960452e-06 -2.5289250619999669e-05 0 6.3102617929496161e-06 -3.0497129553851245e-05 0 3.85009601622605e-06 8.7584189048578267e-07 0 4.9552025234861837e-06 -4.2488290096690491e-07 0 5.4525394974622186e-06 9.4709234030619464e-07 0 6.6628959655726449e-06 -1.2422122058067223e-07 0 5.4525394974622186e-06 9.4709234030619464e-07 0 4.9552025234861837e-06 -4.2488290096690491e-07 0 9.9050274118358653e-06 1.0295590839694868e-06 0 8.0089338509197061e-06 9.2486472096184165e-07 0 8.4631034353611285e-06 -2.481387833465273e-07 0 7.9849222386767503e-05 0.00020817043144369106 0 5.9632200981848712e-05 0.00022266805479174328 0 5.8653796497507051e-05 0.00020131708132852292 0 -6.0037051854195784e-05 -0.00010786522680344069 0 -4.8773547110398505e-05 -0.00011382589109434957 0 -4.9073597978061242e-05 -0.00010203596081360264 0 -8.3854093634835292e-06 4.2610855639669433e-07 0 -5.9672990669552611e-06 1.0081383264212287e-07 0 -5.152242176489115e-06 1.4637662358119904e-06 0 1.2905963349126172e-09 3.7010827742315426e-10 0 8.819038445732387e-07 8.3305297321326055e-07 0 9.3309146298523999e-07 6.2259921108767392e-07 0 6.3492134698234874e-05 0.00011816147547192398 0 4.7485061862676111e-05 0.00012700487116413593 0 4.286516681720161e-05 0.00010838675701137133 0 2.2441857978961434e-05 -4.3564460714667153e-05 0 2.4152063906701757e-05 -3.9987265816691251e-05 0 2.0219567471752437e-05 -3.9636615293039898e-05 0 -6.9673428494164822e-07 -2.0635797492756564e-06 0 1.0743005226330652e-07 5.4074586130054687e-07 0 -5.0673591713921739e-06 -4.9961563735925243e-07 0 -5.4083240345842572e-06 2.8301455882327638e-06 0 -5.0673591713921731e-06 -4.9961563735925264e-07 0 1.0743005226330748e-07 5.4074586130054718e-07 0 2.399244354948809e-06 -2.7865933699203967e-05 0 6.3102617929496161e-06 -3.0497129553851245e-05 0 5.6695511702960452e-06 -2.5289250619999669e-05 0 
</DataArray>
</PointData>
<CellData Scalars="region_id,cross_section_updated,displacement_divergence," Vectors="" Tensors="stress,">
<DataArray type="Float64" Name="region_id" format="ascii">
2 2 2 2 2 2 2 2 2 2 3 3 3 3 3 3 3 3 3 3 1 1 1 1 1 1 1 1 1 1 1 1 1 1 1 1 1 1 1 1 1 1 1 1 1 1 1 1 1 1 1 1 1 1 1 1 1 1 1 1 1 1 1 1 1 1 1 1 1 1 1 1 1 1 1 1 1 1 1 1 1 1 1 1 1 1 1 1 1 1 1 1 1 1 1 1 1 1 1 1 1 1 1 1 1 1 1 1 1 1 1 1 1 1 1 1 1 1 1 1 1 1 1 1 1 1 1 1 1 1 1 1 1 1 1 1 1 1 1 1 1 1 1 1 1 1 1 1 1 1 1 1 1 1 1 1 1 1 1 1 1 1 1 1 1 1 1 1 1 1 1 1 1 1 1 1 1 1 1 1 1 1 1 1 1 1 1 1 1 1 1 1 1 1 1 1 1 1 1 1 1 1 1 1 1 1 1 1 1 1 1 1 1 1 1 1 1 1 1 1 1 1 1 1 1 1 1 1 1 1 1 1 1 1 1 1 1 1 1 1 1 1 1 1 1 1 1 1 1 1 1 1 1 1 1 1 1 1 1 1 1 1 1 1 1 1 1 1 1 1 1 1 1 1 1 1 1 1 1 1 1 1 1 1 1 1 1 1 1 1 1 1 1 1 1 1 1 1 1 1 1 1 1 1 1 1 1 1 1 1 1 1 1 1 1 1 1 1 1 1 1 1 1 1 1 1 1 1 1 1 1 1 1 1 1 1 1 1 1 1 1 1 1 1 1 1 1 1 1 1 1 1 1 1 1 1 1 1 1 1 1 1 1 1 1 1 1 1 1 1 1 1 1 1 1 1 1 1 1 1 1 1 1 1 1 1 1 1 1 1 1 1 1 1 1 1 1 1 1 1 1 1 1 1 1 1 1 1 1 1 1 1 1 1 1 1 1 1 1 1 1 1 1 1 1 1 1 1 1 1 1 1 1 1 1 1 1 1 1 1 1 1 1 1 1 1 1 1 1 1 1 1 1 1 1 1 1 1 1 1 1 1 1 1 1 1 1 1 1 1 1 1 1 1 1 1 1 1 1 1 1 1 1 1 1 1 1 1 1 1 1 1 1 1 1 1 1 1 1 1 1 1 1 1 1 1 1 1 1 1 1 1 1 1 1 1 1 1 1 1 1 1 1 1 1 1 1 1 1 1 1 1 1 1 1 1 1 1 1 1 1 1 1 1 1 1 1 1 1 1 1 1 1 1 1 1 1 1 1 1 1 1 1 1 1 1 1 1 1 1 1 1 1 1 1 1 1 1 1 1 1 1 1 1 1 1 1 1 1 1 1 1 1 1 1 1 1 1 1 1 1 1 1 1 1 1 1 1 1 1 1 1 1 1 1 1 1 1 1 1 1 1 1 1 1 1 1 1 1 1 1 1 1 1 1 1 1 1 1 1 1 1 1 1 1 1 1 1 1 1 1 1 1 1 1 1 1 1 1 1 1 1 1 1 1 1 1 1 1 1 1 1 1 1 1 1 1 1 1 1 1 1 1 1 1 1 1 1 1 1 1 1 1 1 1 1 1 1 1 1 1 1 1 1 1 1 1 1 1 1 1 1 1 1 1 1 1 1 1 1 1 1 1 1 1 1 1 1 1 1 1 1 1 1 1 1 1 1 1 1 1 1 1 1 1 1 1 1 1 1 1 1 1 1 1 1 1 1 1 1 1 1 1 1 1 1 1 1 1 1 1 1 1 1 1 1 1 1 1 1 1 1 1 1 1 1 1 1 1 1 1 1 1 1 1 1 1 1 1 1 1 1 1 1 1 1 1 1 1 1 1 1 1 1 1 1 1 1 1 1 1 1 1 1 1 1 1 1 1 1 1 1 1 1 1 1 1 1 1 1 1 1 1 1 1 1 1 1 1 1 1 1 1 1 1 1 1 1 1 1 1 1 1 1 1 1 1 1 1 1 1 1 1 1 1 1 1 1 1 1 1 1 1 1 1 1 1 1 1 1 1 1 1 1 1 1 1 1 1 1 1 1 1 1 1 1 1 1 1 1 1 1 1 1 1 1 1 1 1 1 1 1 1 1 1 1 1 1 1 1 1 1 1 1 1 1 1 1 1 1 1 1 1 1 1 1 1 1 1 1 1 1 1 1 1 1 1 1 1 1 1 1 1 1 1 1 1 1 1 1 1 1 1 1 1 1 1 1 1 1 1 1 1 1 1 1 1 1 1 1 1 1 1 1 1 1 1 1 1 1 1 1 1 1 1 1 1 1 1 1 1 1 1 1 1 1 1 1 1 1 1 1 1 1 1 1 1 1 1 1 1 1 1 1 1 1 1 1 1 1 1 1 1 1 1 1 1 1 1 1 1 1 1 1 
</DataArray>
<DataArray type="Float64" Name="stress" NumberOfComponents="9" format="ascii">
0.0037887981532139571 -0.0019616455750962962 0 -0.0019616455750962962 0.011155741108427254 0 0 0 0.0037361348154103025 0.0092417404603730244 -0.0050507669650618542 0 -0.0050507669650618542 0.027670484966789914 0 0 0 0.0092280563567907342 0.012725006551235851 -0.0070747739935519581 0 -0.0070747739935519581 0.038092886619071162 0 0 0 0.012704473292576752 0.016074836490678673 -0.0084993848939875043 0 -0.0084993848939875043 0.048137589055740684 0 0 0 0.016053106386604836 0.019614390292260094 -0.0094478625903960164 0 -0.0094478625903960164 0.058735268882845498 0 0 0 0.019587414793776407 0.023532828255345258 -0.010028358794060846 0 -0.010028358794060846 0.070462494191107256 0 0 0 0.02349883061161313 0.027916877333383921 -0.01030898566628104 0 -0.01030898566628104 0.083600830047293115 0 0 0 0.02787942684516926 0.032858840044015312 -0.010310323670926392 0 -0.010310323670926392 0.098332338693811999 0 0 0 0.032797794684456823 0.038422080420181359 -0.010029835637562367 0 -0.010029835637562367 0.11515319207592549 0 0 0 0.038393818124026716 0.045281826694536856 -0.0098181947157304824 0 -0.0098181947157304824 0.13494398823938841 0 0 0 0.045056453733481314 0.0072703542005497753 0.001292761867493329 0 0.001292761867493329 0.019953395853350334 0 0 0 0.0068059375134750279 0.017014427426066566 0.0031506802517448093 0 0.0031506802517448093 0.051154836038611297 0 0 0 0.017042315866169465 0.02448858119738519 0.0044698597963494747 0 0.0044698597963494747 0.073134230990876514 0 0 0 0.024405703047065422 0.031215564315682849 0.0053884712163285442 0 0.0053884712163285442 0.093432479383955144 0 0 0 0.031162010924909497 0.038042935289594869 0.0060695271814949275 0 0.0060695271814949275 0.11388651506589395 0 0 0 0.0379823625888722 0.045053116178588967 0.0065512221975144187 0 0.0065512221975144187 0.13488691463450991 0 0 0 0.044985007703274717 0.052350148676378619 0.0068327489833045207 0 0.0068327489833045207 0.15682089772305113 0 0 0 0.052292761599857442 0.06015546504270123 0.0069558770146301366 0 0.0069558770146301366 0.17991715495818303 0 0 0 0.06001815500022107 0.067991531922032014 0.0068474369375982353 0 0.0068474369375982353 0.20438917709825688 0 0 0 0.06809517725507222 0.078490162593333468 0.0068402036908191844 0 0.0068402036908191844 0.23185267179173155 0 0 0 0.077585708596266248 0.020339249936907538 -0.0063528638175884018 0 -0.0063528638175884018 0.021240165487714499 0 0 0 0.010394853856155517 0.02475825777986574 -0.0065319540563565405 0 -0.0065319540563565405 0.038326764121886611 0 0 0 0.01577125547543809 0.0085618605032146966 -0.0037598707255846048 0 -0.0037598707255846048 0.036463393241313091 0 0 0 0.01125631343613194 0.0060938657076822257 0.0049990780879321517 0 0.0049990780879321517 0.037412677627395224 0 0 0 0.010876635833769372 -0.058051018369937618 -0.010827203172719405 0 -0.010827203172719405 0.0045785824543492434 0 0 0 -0.013368108978897085 -0.043506288357032054 0.0062738837143766673 0 0.0062738837143766673 0.0026664313550420361 0 0 0 -0.01020996425049751 -0.064899551571819411 -0.0078447503458721219 0 -0.0078447503458721219 -0.00058378734371160746 0 0 0 -0.016370834728882747 -0.047222145696970523 0.0046216260071689332 0 0.0046216260071689332 -0.00026417324143574936 0 0 0 -0.011871579734601567 -0.083717580044093798 0.0046879538294252766 0 0.0046879538294252766 -0.00043368103505388514 0 0 0 -0.021037815269786927 -0.14347865534080426 -0.011007128634179738 0 -0.011007128634179738 -0.00054882247241202706 0 0 0 -0.036006869453304086 0.052337821211892836 -7.0007165598677534e-05 0 -7.0007165598677534e-05 -0.007368650386890753 0 0 0 0.011242292706250519 0.048729702400545832 -0.00031220699768952847 0 -0.00031220699768952847 -0.0066931728116889234 0 0 0 0.010509132397214222 0.0087395119617334222 0.011388166177899183 0 0.011388166177899183 0.0010040081247707014 0 0 0 0.0024358800216260322 0.018896208608919017 -0.013882331694601794 0 -0.013882331694601794 0.0062924239826832344 0 0 0 0.0062971581479005631 0.0051702570356354383 0.013414310583088188 0 0.013414310583088188 0.0017215058509017452 0 0 0 0.0017229407216342958 0.0082139528485468821 -0.01340492914386654 0 -0.01340492914386654 0.022934972484796312 0 0 0 0.0077872313333358228 0.21515314023625201 0.099197070222715636 0 0.099197070222715636 0.20582183975970669 0 0 0 0.10524374499898964 0.019885608534548793 -0.0071137401813372581 0 -0.0071137401813372581 0.0025371453899332153 0 0 0 0.0056056884811205299 0.031915075399234771 0.01347909004643677 0 0.01347909004643677 0.007238650586645079 0 0 0 0.009788431496469796 0.034094882674693405 0.0075552644009057512 0 0.0075552644009057512 0.013778072413153097 0 0 0 0.011968238771961737 0.019906508711526216 -0.0098134742546013912 0 -0.0098134742546013912 0.0025998459209928271 0 0 0 0.0056265886581299274 0.032905430298732496 0.019783152391810166 0 0.019783152391810166 0.010950857404896652 0 0 0 0.010964071925907315 0.019269954536525857 -0.016019530583263331 0 -0.016019530583263331 0.010127220102574386 0 0 0 0.0073492936597750469 0.01324782847442971 0.013435313903395512 0 0.013435313903395512 0.00060901250161158466 0 0 0 0.0034642102440103212 0.22772335357834522 -0.011449312890922408 0 -0.011449312890922408 0.12461534536116697 0 0 0 0.088084674734878035 -0.18786641120902131 0.010447225474776556 0 0.010447225474776556 0.007447289687288805 0 0 0 -0.04510478038043314 -0.10286557357047391 -0.0035368240098341674 0 -0.0035368240098341674 0.0028236466567691521 0 0 0 -0.025010481728426182 -0.026738731155444062 -0.016957325291632502 0 -0.016957325291632502 0.017700122896140924 0 0 0 -0.0022596520648257984 -0.046439924581145264 0.01384852894210128 0 0.01384852894210128 0.058698923668690339 0 0 0 0.0030647497718862549 -0.053695539596533892 -0.026569149282110634 0 -0.026569149282110634 0.008352317332598936 0 0 0 -0.011335805565983736 0.028360213997019317 -0.01453181319137772 0 -0.01453181319137772 0.047676653643321659 0 0 0 0.019009216910085232 0.0097024345664932787 -0.022386480131463604 0 -0.022386480131463604 0.0097886940398965727 0 0 0 0.0048727821515974212 0.028302529556790912 0.028257142393057988 0 0.028257142393057988 0.0086122513258308775 0 0 0 0.0092286952206552808 0.021477185983649338 -0.025238129819625033 0 -0.025238129819625033 0.011116013755780862 0 0 0 0.0081482999348574392 0.002660264548330904 0.035792102278678906 0 0.035792102278678906 0.0020306398706022577 0 0 0 0.0011727261047334014 -0.020603745816450556 -0.0335754255294076 0 -0.0335754255294076 0.0033662841687653669 0 0 0 -0.004309365411921293 0.055232638325566033 -0.036810471630846962 0 -0.036810471630846962 0.063141804118641204 0 0 0 0.029593610611051813 -0.062175319535570303 0.0030647980750552195 0 0.0030647980750552195 0.014161129214021684 0 0 0 -0.012003547580387228 0.3389027593840766 0.11182682519237216 0 0.11182682519237216 0.067095892237234667 0 0 0 0.10149966290532786 0.087463176424665667 0.0024680122606589583 0 0.0024680122606589583 0.020887163181603663 0 0 0 0.027087584901567319 0.13582687576867403 -0.0044508567392603227 0 -0.0044508567392603227 0.060454553707493419 0 0 0 0.049070357369041806 0.036308857376234113 -0.016913145095922351 0 -0.016913145095922351 0.075800985579653105 0 0 0 0.028027460738971804 0.088015104420675172 -0.0065007064503792567 0 -0.0065007064503792567 0.072183245784822159 0 0 0 0.040049587551374222 -0.0046369105553667467 0.0066584975716130756 0 0.0066584975716130756 0.0024954701984674088 0 0 0 -0.00053536008922439038 0.029557432779401961 -0.0092899422416351171 0 -0.0092899422416351171 -0.0010197693540941744 0 0 0 0.0071344158563269484 0.017617199086209644 0.014266926977271546 0 0.014266926977271546 0.0020892016330291453 0 0 0 0.0049266001798096981 -0.0058708759279937558 0.053665075506183768 0 0.053665075506183768 0.060740584742226364 0 0 0 0.013717427203558209 0.0052464144153679393 0.042876011647997203 0 0.042876011647997203 0.041655783342824076 0 0 0 0.011725549439548011 0.20107253702816913 0.1360340892453773 0 0.1360340892453773 0.23775507236077603 0 0 0 0.10970690234723635 -0.0089606249409186003 0.012605674796957178 0 0.012605674796957178 0.0070440395425578617 0 0 0 -0.00047914634959007191 0.069023114478683339 -0.019846010387289503 0 -0.019846010387289503 0.058831778136789581 0 0 0 0.031963723153868286 0.043961839516958368 0.0058000913610030957 0 0.0058000913610030957 0.0068601130498175955 0 0 0 0.012705488141693921 0.030392790570355668 -0.014551907768199712 0 -0.014551907768199712 0.058088101322357269 0 0 0 0.022120222973178227 0.040034913238395364 -0.018958192560630353 0 -0.018958192560630353 0.0090552575070820818 0 0 0 0.012272542686369375 0.064810266956219498 0.0037273551747239175 0 0.0037273551747239175 0.021120210294819919 0 0 0 0.021482619312759854 -0.086364068883536538 0.014769775345913949 0 0.014769775345913949 0.0001325271031362707 0 0 0 -0.021557885445099734 -0.0077523216061243794 -0.0084031488777992491 0 -0.0084031488777992491 0.0043681155841723829 0 0 0 -0.00084605150548799912 0.12816188378958104 0.020077467697592999 0 0.020077467697592999 0.1103787681144528 0 0 0 0.059635162976007905 0.10715201186435963 -0.014956104506304468 0 -0.014956104506304468 0.085516869730609249 0 0 0 0.048167220398742217 -0.0070724165630462466 0.0066010236552977762 0 0.0066010236552977762 0.0064568258863912931 0 0 0 -0.00015389766916396042 0.037529918740867974 -0.013115657647124523 0 -0.013115657647124523 0.013204542180861978 0 0 0 0.012683615230432432 0.063189237155457004 -0.052379654880663901 0 -0.052379654880663901 0.096411396611448388 0 0 0 0.039900158441726341 0.032751071950771149 -0.010036766974012082 0 -0.010036766974012082 0.011460753509656696 0 0 0 0.011052956365106947 0.055722523359319709 -0.0017133673318322912 0 -0.0017133673318322912 0.0065982363305274738 0 0 0 0.01558018992246174 -0.0018628402614965234 -0.026359153127811528 0 -0.026359153127811528 0.0098329131523013924 0 0 0 0.0019925182227010785 -0.03723950300495512 0.008593932095769476 0 0.008593932095769476 -0.003288923790571583 0 0 0 -0.010132106698881678 -0.048332983588722164 -0.014825101727496692 0 -0.014825101727496692 -0.0043760452889275159 0 0 0 -0.013177257219412418 0.058546150335678691 -0.013277254484004963 0 -0.013277254484004963 -0.010921031391195048 0 0 0 0.011906279736120812 0.088363188849705732 0.016898245670202483 0 0.016898245670202483 0.021023790104626405 0 0 0 0.027346744738583117 -0.023891785181531108 -0.02064839971328691 0 -0.02064839971328691 -0.0061735618238479631 0 0 0 -0.0075163367513447661 -0.02300729524372648 0.013441562912023272 0 0.013441562912023272 -0.0043588351016411314 0 0 0 -0.0068415325863419012 0.043511071607770915 -0.0046712350153329373 0 -0.0046712350153329373 -0.0057673628679805952 0 0 0 0.0094359271849475852 -0.047274286406376938 0.0076605681740057798 0 0.0076605681740057798 0.0018711883906868017 0 0 0 -0.011350774503922538 -0.064526696680517262 -0.013634433966812168 0 -0.013634433966812168 0.0033365648909829196 0 0 0 -0.015297532947383584 0.044601107815176733 -0.011821153787869534 0 -0.011821153787869534 0.0015313588084173713 0 0 0 0.011533116655898568 0.041544102068991798 -0.017970549016458198 0 -0.017970549016458198 0.0093211828522353213 0 0 0 0.012716321230306776 0.14969398065792405 -0.0017210455507457034 0 -0.0017210455507457034 0.13427546508234989 0 0 0 0.070992361435068263 -0.0046428226195706912 -0.0047899412669025754 0 -0.0047899412669025754 0.00099043968477163791 0 0 0 -0.00091309573369977026 0.041496654146421563 -0.013517401312728161 0 -0.013517401312728161 -0.0008152680979366389 0 0 0 0.010170346512121176 0.044855195986785182 0.0042099215678534363 0 0.0042099215678534363 0.014804945265870173 0 0 0 0.014915035313163863 -0.011985213958296326 0.043427838979514466 0 0.043427838979514466 0.0040398917032220538 0 0 0 -0.0019863305637684014 -0.038218003515303696 -0.015762700090975294 0 -0.015762700090975294 -0.012744929988372561 0 0 0 -0.012740733375919064 -0.03140321111378333 0.0099053828835783085 0 0.0099053828835783085 -0.010471210762128872 0 0 0 -0.01046860546897805 0.034609050372082818 -0.011150217537656298 0 -0.011150217537656298 -0.011458822097191949 0 0 0 0.0057875570687227198 0.037533804894396283 0.017258244659682509 0 0.017258244659682509 0.023774658194994025 0 0 0 0.015327115772347355 0.017588405740871838 -0.015612125130462617 0 -0.015612125130462617 0.0052282138316857019 0 0 0 0.0057041548931394681 0.017189279413799323 -0.021870947305508204 0 -0.021870947305508204 0.0084479580896140438 0 0 0 0.0064093093758531491 0.041942336414072648 0.0045261698714975981 0 0.0045261698714975981 -0.002762968341077371 0 0 0 0.0097948420182488137 0.0028208618624293315 -0.023083999708225032 0 -0.023083999708225032 -0.0056561719813896863 0 0 0 -0.00070882752974008945 0.05448627494202013 0.0028016873074767721 0 0.0028016873074767721 0.01278430992647217 0 0 0 0.016817646217123117 0.047829564491466213 0.0050896320161950594 0 0.0050896320161950594 -0.00070212156929061768 0 0 0 0.011781860730543901 0.038845473132805487 0.0080758012324348601 0 0.0080758012324348601 0.00034363063531305665 0 0 0 0.0097972759420296394 0.037410298883033731 0.0072906398302166921 0 0.0072906398302166921 0.0024369463809448162 0 0 0 0.0099618113159946325 0.042285648597693265 -0.012895688964081109 0 -0.012895688964081109 0.024826728875144144 0 0 0 0.016778094368209345 0.050074531314936527 -0.025824224917493435 0 -0.025824224917493435 0.027609645065130139 0 0 0 0.019421044095016715 0.049613473950097353 0.0024359967851129982 0 0.0024359967851129982 0.014841568239618352 0 0 0 0.016113760547428913 0.035018876636422919 -0.018074822119024399 0 -0.018074822119024399 0.075683345281937237 0 0 0 0.027675555479590025 0.1857047778983949 0.013227757595209777 0 0.013227757595209777 0.15468464626205769 0 0 0 0.085097356040112704 -0.004889719189291819 -0.0042849953167909405 0 -0.0042849953167909405 0.0038637593396013692 0 0 0 -0.00025648996242266797 -0.015605743420364249 -0.0052191854496158501 0 -0.0052191854496158501 0.00029129309091580069 0 0 0 -0.003828612582362112 0.1651505455265827 0.0014000218500882511 0 0.0014000218500882511 0.1478274311160499 0 0 0 0.078244494160657929 0.049437369799578496 0.021446433138341103 0 0.021446433138341103 0.10138962856605595 0 0 0 0.037706749591408614 0.026965857248721765 0.0110270045423957 0 0.0110270045423957 0.0011562797306526179 0 0 0 0.0070305342448435913 0.020206307350202311 0.011401813720116906 0 0.011401813720116906 0.0016730017136230499 0 0 0 0.005469827265956342 0.10849360112311612 0.021010823623475949 0 0.021010823623475949 0.039641010013870659 0 0 0 0.037033652784246751 0.094497321659270828 0.029438423473703124 0 0.029438423473703124 0.034980734268907909 0 0 0 0.032369513982044795 0.041340249567392184 -0.026764537473432257 0 -0.026764537473432257 0.026344822681046598 0 0 0 0.016921268062109723 0.045347782527473068 0.0081679314373133138 0 0.0081679314373133138 -0.0082552242762687911 0 0 0 0.0092731395628011803 0.031498725010138895 -0.0085855735129094501 0 -0.0085855735129094501 -0.022780303455911755 0 0 0 0.0021796053885567157 0.033885718598470317 0.011766520806208523 0 0.011766520806208523 0.066177682206565988 0 0 0 0.025015850201259078 -0.022624973860793318 0.0074863270142490673 0 0.0074863270142490673 0.0012273294381968114 0 0 0 -0.0053494111056489047 0.092488350703003874 -0.0085397620429419341 0 -0.0085397620429419341 0.080258271617374977 0 0 0 0.043186655580094602 -0.070553880456295237 0.0040742283990757543 0 0.0040742283990757543 0.0011018970985024355 0 0 0 -0.01736299583944818 -0.11372603359453747 -0.010013140698254923 0 -0.010013140698254923 0.0014832440430194022 0 0 0 -0.028060697387879498 0.06778603409125683 -0.023003264067135848 0 -0.023003264067135848 0.011133836432236699 0 0 0 0.019729967630873396 0.15203841122883613 -0.051721844493193003 0 -0.051721844493193003 0.044222701846222012 0 0 0 0.049065278268764528 0.05455570168632759 -0.010887153211149997 0 -0.010887153211149997 0.0018598126022635331 0 0 0 0.014103878572147788 0.053334759612177957 -0.017573060249991557 0 -0.017573060249991557 0.0061863175192694575 0 0 0 0.014880269282861874 0.03700662828572808 -0.0036089166952215646 0 -0.0036089166952215646 -0.00077913744390759835 0 0 0 0.0090568727104552871 0.015354312080348542 0.0055382538507982026 0 0.0055382538507982026 -0.0079490926320353594 0 0 0 0.0018513048620780737 0.058733731674009526 0.0031632373378878142 0 0.0031632373378878142 0.0063117574136306587 0 0 0 0.016261372271909824 0.0089085637511193728 -0.0045778423336499952 0 -0.0045778423336499952 -0.0073312057015245567 0 0 0 0.0003943395123989816 0.0047712592205183535 0.022300174431861636 0 0.022300174431861636 0.080132618454903548 0 0 0 0.021225969418855462 0.032145720501868952 -0.015414397262219076 0 -0.015414397262219076 0.0095974484096641444 0 0 0 0.010435792227883267 0.05623385642731854 -0.0059082585690374834 0 -0.0059082585690374834 0.0032205252685007166 0 0 0 0.014863595423954792 0.050553275745379989 -0.005166978175553838 0 -0.005166978175553838 0.0045559124351320715 0 0 0 0.013777297045128008 0.043426294744243643 -0.024285162689665213 0 -0.024285162689665213 0.014548686987014392 0 0 0 0.014493745432814564 -0.12329198610577946 0.017696660924943819 0 0.017696660924943819 0.0039724277202983771 0 0 0 -0.029829889596370285 -0.019203262461668855 0.0064779878673836833 0 0.0064779878673836833 0.019517891800643644 0 0 0 7.8657334743714724e-05 -0.0063969586373916476 -0.0023022554846256066 0 -0.0023022554846256066 0.017516296867524095 0 0 0 0.0027798345575331257 0.032682920455829989 -0.0072993669841379116 0 -0.0072993669841379116 -0.0022140957593015376 0 0 0 0.0076172061741320851 -0.089983460852452013 0.028649647328334527 0 0.028649647328334527 0.0024743570042542462 0 0 0 -0.021877275962049469 -0.055639525377438999 0.010808776155635344 0 0.010808776155635344 0.0051451458387637705 0 0 0 -0.012623594884668791 -0.060170682043768672 0.0010653147969345092 0 0.0010653147969345092 0.0047423715969082403 0 0 0 -0.013857077611715105 -0.10099701620825181 -0.0059914805448019609 0 -0.0059914805448019609 0.01074988472443944 0 0 0 -0.02256178287095309 -0.091255736794453673 -0.026329006452461862 0 -0.026329006452461862 0.012556123180582301 0 0 0 -0.019674903403467864 0.033009590082145067 -0.01342153286666764 0 -0.01342153286666764 0.009679943611893102 0 0 0 0.010672383423509478 -0.073241189325150044 -0.0075016759359521901 0 -0.0075016759359521901 0.0021820522834584133 0 0 0 -0.017764784260422925 0.10928792854898695 0.058183541350304568 0 0.058183541350304568 0.025044720652908969 0 0 0 0.033583162300473979 0.022649819947752284 -0.010447263458147546 0 -0.010447263458147546 0.053720308205509208 0 0 0 0.019092532038315378 0.051298500163856654 0.016993019127878751 0 0.016993019127878751 0.021034858223556559 0 0 0 0.0180833395968533 -0.014939997713647513 0.025489188530874785 0 0.025489188530874785 0.0035872518107820106 0 0 0 -0.002838186475716542 0.04283110085116909 -0.021981006743928222 0 -0.021981006743928222 0.023060113852221953 0 0 0 0.016472803675847636 0.050691570540318094 -0.02538855759035602 0 -0.02538855759035602 0.029482676802267654 0 0 0 0.020043561835646432 0.028047149223914825 -0.0072296681069173863 0 -0.0072296681069173863 -0.0029015637941718353 0 0 0 0.0062863963574357196 0.0466211553518254 -0.0061056616659559693 0 -0.0061056616659559693 0.0039285346221815121 0 0 0 0.012637422493501721 0.020370553789043486 -0.015556952964552354 0 -0.015556952964552354 -0.0039872099124674334 0 0 0 0.0040958359691440106 0.0089654992244162703 0.016102881658517226 0 0.016102881658517226 0.00063740677022677134 0 0 0 0.0024007264986607591 0.020349983486181202 -0.028470087817900946 0 -0.028470087817900946 0.016326706321528092 0 0 0 0.0091691724519272558 0.00022796246633877137 -0.031181805538872634 0 -0.031181805538872634 -0.0044981168429874818 0 0 0 -0.0010675385941621776 -0.022468723187196699 -0.017380660781394497 0 -0.017380660781394497 0.023609153545229078 0 0 0 0.0002851075895080879 0.039883257930968335 -0.0045799541046641053 0 -0.0045799541046641053 -0.0056270029018396714 0 0 0 0.0085640637572821678 0.042368333825452534 -0.0014017046323724037 0 -0.0014017046323724037 -0.0006442886792959613 0 0 0 0.01043101128653914 0.027202060300645405 0.0098406544510350902 0 0.0098406544510350902 0.0024920723511039529 0 0 0 0.007423533162937342 0.026349708415687848 0.011613638500260278 0 0.011613638500260278 0.00059228483827789349 0 0 0 0.0067354983134914354 -0.009448262618241221 -0.026412527055874852 0 -0.026412527055874852 0.023775389636338268 0 0 0 0.0035817817545242547 0.043579419965250256 0.014560973045506728 0 0.014560973045506728 0.019498380119444145 0 0 0 0.015769450021173595 0.05045316750151288 -0.007317381418057281 0 -0.007317381418057281 -0.0090086859689795205 0 0 0 0.010361120383133336 0.025224019196662707 -0.028589028609243585 0 -0.028589028609243585 -0.0058355309536402347 0 0 0 0.0048471220607556181 0.041101950431341183 0.018095566526545648 0 0.018095566526545648 0.053329409438468256 0 0 0 0.023607839967452374 0.011941676895354188 0.0069101274692211579 0 0.0069101274692211579 0.0047904869903769506 0 0 0 0.0041830409714327874 0.015573394427437598 0.0089480630525774468 0 0.0089480630525774468 0.0081053244466834581 0 0 0 0.0059196797185302654 -0.038210263629499239 -0.015768539877178842 0 -0.015768539877178842 -0.012720153392749166 0 0 0 -0.012732604255562099 -0.031398028198236318 0.0099105226402858709 0 0.0099105226402858709 -0.010454304996109267 0 0 0 -0.010463083298586395 0.17861922379133366 0.029764262193950897 0 0.029764262193950897 0.037665977422252528 0 0 0 0.054071300303396463 0.027978902095907501 0.0095537114700422251 0 0.0095537114700422251 0.0055595089197192776 0 0 0 0.0083846027539066989 0.011067423010199404 -0.0055060967009943782 0 -0.0055060967009943782 0.063304099302695371 0 0 0 0.018592880578223697 0.029252766418882442 -0.0025666121538326925 0 -0.0025666121538326925 -0.016350477936665886 0 0 0 0.0032255721205541876 -0.061436905098325077 0.0060630438833216786 0 0.0060630438833216786 0.001771079465055149 0 0 0 -0.014916456408317484 -0.097337304419657156 -0.011571398069767069 0 -0.011571398069767069 0.0017234379821274154 0 0 0 -0.023903466609382439 0.035229255967282103 -0.0051498593454585295 0 -0.0051498593454585295 0.0024893539889508931 0 0 0 0.0094296524890582489 -0.047557561640064507 0.013106178233699818 0 0.013106178233699818 0.0016167619622403 0 0 0 -0.011485199919456044 -0.049245879269137607 -0.036058756013357202 0 -0.036058756013357202 -0.0013159982895204446 0 0 0 -0.012640469389664526 -0.053157622575110863 0.0084590458870097938 0 0.0084590458870097938 -0.00030430998607798576 0 0 0 -0.013365483140297216 -0.0043064881010579561 0.011598801774197793 0 0.011598801774197793 0.0012961056369310492 0 0 0 -0.00075259561603172953 0.019370667666759715 -0.019620711966013706 0 -0.019620711966013706 -0.0060036053460535838 0 0 0 0.0033417655801765353 -0.014905701252488662 -0.029793353006954307 0 -0.029793353006954307 0.0087562975875755678 0 0 0 -0.0015373509162282667 0.028685783300680084 -0.014701578761773637 0 -0.014701578761773637 0.0081906830679266962 0 0 0 0.0092191165921516882 0.086726147610365345 0.01790493588003339 0 0.01790493588003339 0.04782333161182617 0 0 0 0.033637369805548101 -0.013549602859796339 -0.015471276939098666 0 -0.015471276939098666 0.0011421998177296722 0 0 0 -0.0031018507605167223 0.037999744450239688 -0.0057168145917954969 0 -0.0057168145917954969 0.0023299999381532644 0 0 0 0.010082436097098239 0.020446734417567756 0.010569131622472888 0 0.010569131622472888 0.0037248274356644039 0 0 0 0.0060428904633080417 0.0089192022464711952 -0.019987308843329613 0 -0.019987308843329613 -0.0050333449714568615 0 0 0 0.00097146431875358083 -0.00040680773520565539 0.017015056114479076 0 0.017015056114479076 -0.0012489223314082754 0 0 0 -0.00041393251665348095 0.0162126896684366 -0.0057988721416831548 0 -0.0057988721416831548 0.014473145838287932 0 0 0 0.0076714588766811503 0.015155328889147911 -0.01611623838267795 0 -0.01611623838267795 0.018127290682413005 0 0 0 0.0083206548928902446 0.0086412413128461596 0.049609652473671828 0 0.049609652473671828 0.01283259736090292 0 0 0 0.0053684596684372421 0.068069623572220517 0.073226593247365801 0 0.073226593247365801 0.044574272118346192 0 0 0 0.028160973922641719 0.12260517444340198 -0.004436365301061021 0 -0.004436365301061021 0.049124614641005038 0 0 0 0.042932447271101765 0.0071416103655279409 -0.0024791130969688963 0 -0.0024791130969688963 0.049996642275165787 0 0 0 0.014284563160173444 0.044459982569259489 0.003037451489099723 0 0.003037451489099723 -0.004950279045647904 0 0 0 0.0098774258809028945 0.030718105047293498 -0.015430851358050265 0 -0.015430851358050265 0.0024806563858128516 0 0 0 0.0082996903582766013 -0.010252437198706499 0.038967603379168381 0 0.038967603379168381 0.00067712056840152357 0 0 0 -0.0023938291575762438 0.04845546021446423 -0.014586750309516533 0 -0.014586750309516533 0.04423986778014255 0 0 0 0.023173831998651695 0.031876776860381845 0.00050714214699776328 0 0.00050714214699776328 0.0035951863281852292 0 0 0 0.0088679907971416505 0.017059881828839406 0.010739175585811658 0 0.010739175585811658 0.00096106680515829768 0 0 0 0.0045052371584994241 -0.018423324728605583 0.0054292443439533933 0 0.0054292443439533933 0.046195503536149651 0 0 0 0.0069430447018860586 -0.058675599261265171 0.0036226346112318317 0 0.0036226346112318317 -0.0019171926661208025 0 0 0 -0.015148197981846485 -0.084852985840023862 -0.0064038507979019849 0 -0.0064038507979019849 -0.0035617884295046504 0 0 0 -0.022103693567382132 0.05630623126870557 -0.011817148825419954 0 -0.011817148825419954 0.0019283402605069222 0 0 0 0.014558642882303116 -0.0099862000080912852 0.012682755297818432 0 0.012682755297818432 -0.0003583997081212098 0 0 0 -0.002586149929053122 0.0011108525226326956 -0.017746799808470069 0 -0.017746799808470069 -0.0068709053574561238 0 0 0 -0.0014400132087058594 -0.14065264198656435 -0.0010477460443508169 0 -0.0010477460443508169 0.0060298909866581818 0 0 0 -0.033655687749976571 -0.079188724635656405 0.0010640692462234314 0 0.0010640692462234314 0.00195715258454493 0 0 0 -0.019307893012777855 0.083837860374613118 0.019054395754573072 0 0.019054395754573072 0.1144628330105662 0 0 0 0.04957517334629484 0.14787208277233724 -0.0058115404395310821 0 -0.0058115404395310821 0.28742867546855999 0 0 0 0.10882518956022429 0.013538014228561573 -0.030352497884559682 0 -0.030352497884559682 0.019762794413800411 0 0 0 0.0083252021605905169 -0.0068420154435038238 -0.02413547693146792 0 -0.02413547693146792 0.013897604755023663 0 0 0 0.0017638973278799597 0.054505023445667065 -0.033672800631073641 0 -0.033672800631073641 0.05173521769674129 0 0 0 0.026560060285602063 0.020228642986300643 -0.006686713098640551 0 -0.006686713098640551 -0.022620192306214482 0 0 0 -0.00059788732997853589 0.042312925447081415 -0.0040154439537669253 0 -0.0040154439537669253 -0.0091676188344007661 0 0 0 0.0082863266531701622 -0.030222383266313782 -0.00043893687156057459 0 -0.00043893687156057459 0.011568635008668227 0 0 0 -0.0046634370644114131 0.033830228790519112 -0.0032331552743631586 0 -0.0032331552743631586 -0.030726815099276772 0 0 0 0.00077585342281061287 -0.11625721499681993 0.01149933193535696 0 0.01149933193535696 0.0020608147836026214 0 0 0 -0.028549100053304327 0.0042149289282114033 0.021623443784398066 0 0.021623443784398066 0.0055745730269700644 0 0 0 0.0024473754887950339 0.030982765635729437 -0.019616825091749224 0 -0.019616825091749224 0.021525341056797043 0 0 0 0.013127026673131703 0.031328411497747996 0.0090719736393603916 0 0.0090719736393603916 0.016351042799271312 0 0 0 0.01191986357425483 0.0074051711698533695 -0.012500391299679919 0 -0.012500391299679919 0.017343302872076971 0 0 0 0.0061871185104825643 0.050002834307321636 0.0096212021023589743 0 0.0096212021023589743 0.0024619737861303753 0 0 0 0.013116202023362994 0.055228778594596808 0.012931717659832158 0 0.012931717659832158 0.0088010244051677303 0 0 0 0.016007450749941123 -0.01716663982259093 -0.028280539515009428 0 -0.028280539515009428 -0.0020684102186523945 0 0 0 -0.0048087625103108277 -0.0030923760070538098 -0.023100552776766814 0 -0.023100552776766814 0.0042320214021320801 0 0 0 0.00028491134876951207 -0.060563063602962625 -0.022705970961594824 0 -0.022705970961594824 -0.0060085223930321759 0 0 0 -0.01664289649899869 0.034048389273757973 0.038774323001128819 0 0.038774323001128819 0.0097949525581699781 0 0 0 0.010960835457981766 0.029181146939766978 0.035153195153261541 0 0.035153195153261541 0.0087888950834928425 0 0 0 0.0094925105058150661 0.02732258761863493 0.037299018541582463 0 0.037299018541582463 0.0068907261067288061 0 0 0 0.0085533284313408231 0.0016671058375699044 -0.025651741474752743 0 -0.025651741474752743 0.006337271591349003 0 0 0 0.0020010943572296158 -0.0026135384831007386 -0.020319990138197408 0 -0.020319990138197408 0.0046438970752627345 0 0 0 0.00050758964804044349 0.12580841810388194 0.035389203736877026 0 0.035389203736877026 0.060780437147371524 0 0 0 0.046647213812813393 0.037546002075872567 -0.0045167181626262869 0 -0.0045167181626262869 0.012504624401963597 0 0 0 0.012512656619459038 0.024313519307338244 0.010762216767029226 0 0.010762216767029226 0.0080998055491407692 0 0 0 0.0081033312141197567 0.032213647267236002 0.01000620334003367 0 0.01000620334003367 0.0065779649164802098 0 0 0 0.009697903045929053 0.050274481262231108 -0.0084611597689268209 0 -0.0084611597689268209 0.084992131172187624 0 0 0 0.033816653108604683 -0.033047953721153246 -0.032964686463848057 0 -0.032964686463848057 -0.0024215997177368942 0 0 0 -0.0088673883597225438 0.035472924193446553 0.0046721214147593913 0 0.0046721214147593913 0.0039421882503840149 0 0 0 0.0098537781109576429 -0.087302089046178658 -0.0084211849240865312 0 -0.0084211849240865312 -0.0050380427416849395 0 0 0 -0.023085032946965893 -0.058271088296166347 0.0041976989734434662 0 0.0041976989734434662 -0.0023260351863786319 0 0 0 -0.01514928087063625 -0.068499168379009712 -0.0037124663763062615 0 -0.0037124663763062615 0.0017454144423729723 0 0 0 -0.016688438484159185 0.032947573595136399 0.0091365795573537991 0 0.0091365795573537991 0.00091306182689874366 0 0 0 0.0084651588555087892 0.036148620488139632 -0.012902315372891993 0 -0.012902315372891993 0.025466692648795697 0 0 0 0.015403828284233839 0.033791343316789235 0.013428661192945057 0 0.013428661192945057 0.037462913656186828 0 0 0 0.017813564243244005 0.069288640640768562 0.041100356019584727 0 0.041100356019584727 0.010361881738354825 0 0 0 0.01991263059478076 0.047418856730766692 0.00180977624962331 0 0.00180977624962331 -0.0031430168868390295 0 0 0 0.011068959960981919 0.010233839850324333 0.019614915794217591 0 0.019614915794217591 0.0070903128137569382 0 0 0 0.0043310381660206509 0.031925162985656064 -0.016998881626497819 0 -0.016998881626497819 0.013509716717174935 0 0 0 0.011358719925707694 0.033131319383971305 0.0097388791152667048 0 0.0097388791152667048 0.00074568648073453092 0 0 0 0.0084692514661764591 0.021625955944630244 0.0060150106763455589 0 0.0060150106763455589 0.04844859614395821 0 0 0 0.017518638022147114 0.067540763880269417 0.01428654290842668 0 0.01428654290842668 0.027611267790708105 0 0 0 0.023788007917744824 0.010648988070684595 0.014435213838821515 0 0.014435213838821515 0.0019220052256043729 0 0 0 0.0031427483240717979 0.0052253519073557353 -0.011395655221528522 0 -0.011395655221528522 -0.0020417924568172374 0 0 0 0.00079588986263456896 0.041246779426814428 -0.013656268368682944 0 -0.013656268368682944 0.013715507451730335 0 0 0 0.013740571719636274 -0.053967770544574634 -0.0080524448178244945 0 -0.0080524448178244945 0.024812669539414689 0 0 0 -0.00728877525129 -0.039073347670659925 -0.014459070488754722 0 -0.014459070488754722 0.0079926339880667385 0 0 0 -0.0077701784206482827 -0.056240453964816722 -0.014589051187700486 0 -0.014589051187700486 0.0077678627486689744 0 0 0 -0.012118147804036972 -0.08905055127212802 0.035854888168761284 0 0.035854888168761284 0.019353203646689909 0 0 0 -0.017424336906359583 -0.055199668769522314 0.035406799482660234 0 0.035406799482660234 0.019604623891620765 0 0 0 -0.0088987612194754151 0.01894557323935742 0.010209280651965628 0 0.010209280651965628 0.00070023570245667313 0 0 0 0.004911452235453518 0.17969560863622003 0.029158938769322497 0 0.029158938769322497 0.033503448262953484 0 0 0 0.053299764224793433 -0.020047213455403216 -0.020114886839746743 0 -0.020114886839746743 -0.0071528255101031557 0 0 0 -0.0068000097413765913 -0.02180476724048468 0.012842290635473656 0 0.012842290635473656 -0.002207758405447284 0 0 0 -0.0060031314114829884 0.015984748561231131 -0.0075816356886096448 0 -0.0075816356886096448 0.035396711561233342 0 0 0 0.012845365030616111 -0.0015947021868706833 0.014563288219849143 0 0.014563288219849143 -0.0010713818829343712 0 0 0 -0.00066652101745126374 0.013815317779092687 -0.021080165254455434 0 -0.021080165254455434 -0.012464772212364167 0 0 0 0.0003376363916821265 -0.064780834920604657 -0.027567279902422356 0 -0.027567279902422356 0.0023696360222486557 0 0 0 -0.015602799724588997 -0.065430838572266711 -0.026158022120329621 0 -0.026158022120329621 -0.0011600921044889675 0 0 0 -0.016647732669188925 0.073743922200037115 0.024739267397981934 0 0.024739267397981934 0.046743200746383273 0 0 0 0.030121780736604986 0.00087823287109345394 -0.016612549573732815 0 -0.016612549573732815 0.0051265266682056776 0 0 0 0.0015011898848247274 0.069214442814012206 0.0021367490555826985 0 0.0021367490555826985 -0.036106592046921203 0 0 0 0.0082769626917726675 0.0456583635656852 -0.001393031529099642 0 -0.001393031529099642 -0.049734546595519902 0 0 0 -0.001019045757458592 -0.00071573384862346802 0.010029042896928516 0 0.010029042896928516 0.0046978423719880244 0 0 0 0.00099552713084113606 0.072996536075742163 -0.011805598835580688 0 -0.011805598835580688 0.073196582118636222 0 0 0 0.036548279548594603 0.12586173658719219 0.0088920063915278735 0 0.0088920063915278735 0.13219329461638685 0 0 0 0.064513757800894744 0.062748181387692226 0.011499814153119681 0 0.011499814153119681 0.026936088759793538 0 0 0 0.022421067536871397 -0.051430678614428432 -0.0039668057708938699 0 -0.0039668057708938699 0.0090034397132071065 0 0 0 -0.010606809725305283 0.023380208849329343 0.001865896514145815 0 0.001865896514145815 -0.039753934488039544 0 0 0 -0.0040934314096776614 -0.064863279101244203 -0.036637493625444703 0 -0.036637493625444703 0.0074060629142641554 0 0 0 -0.014364304046745005 0.031716123620282005 0.0083741122112747056 0 0.0083741122112747056 0.014026810342980242 0 0 0 0.011435733490815555 -0.013079578633904243 -0.022362995184801254 0 -0.022362995184801254 0.023768667509853958 0 0 0 0.0026722722189874148 -0.0072505538776473644 -0.016514621313641287 0 -0.016514621313641287 0.019899098741453458 0 0 0 0.0031621362159514887 -0.0034585946088826307 0.013881522872222357 0 0.013881522872222357 0.00096570115984649998 0 0 0 -0.00062322336225903094 -0.03554629069551285 -0.010286466599840949 0 -0.010286466599840949 0.01304505737124162 0 0 0 -0.0056253083310678076 -0.011332576094200939 0.010677251477708663 0 0.010677251477708663 0.002737304600897994 0 0 0 -0.0021488178733257424 0.020929671026901769 -0.021668370093547544 0 -0.021668370093547544 -0.013742233267836503 0 0 0 0.0017968594397663185 -0.056057888327500083 -0.00269119316403027 0 -0.00269119316403027 0.0098168506622652307 0 0 0 -0.011560259416308727 -0.098074788059052384 0.0062557096046698124 0 0.0062557096046698124 0.033964021175634573 0 0 0 -0.016027691720854428 -0.022592129717750299 -0.021816675755769989 0 -0.021816675755769989 -0.0029539694023264437 0 0 0 -0.0063865247800191892 -0.021830495582863482 0.014745829285675872 0 0.014745829285675872 -0.0016005361264671211 0 0 0 -0.0058577579273326498 -0.014315342985449698 0.015583196013512771 0 0.015583196013512771 -0.0001234961075476243 0 0 0 -0.00360970977324933 -0.0049296272943350587 -0.028736029957459244 0 -0.028736029957459244 -0.010603489326781984 0 0 0 -0.0038832791552792616 0.034737850346168261 -0.010684383670010391 0 -0.010684383670010391 -0.0086522426349220916 0 0 0 0.0065214019278115407 0.044476994720840005 -0.033179816688523267 0 -0.033179816688523267 0.046403441488142877 0 0 0 0.02272010905224571 0.051839357509159981 0.0050495655684166963 0 0.0050495655684166963 -0.0033735292436230849 0 0 0 0.01211645706638421 0.0055801977180531814 0.023629471048658646 0 0.023629471048658646 0.0064741697498469364 0 0 0 0.0030135918669751405 0.040248218881892006 -0.022691362077300825 0 -0.022691362077300825 0.023860262559138423 0 0 0 0.016027120360257552 -0.011720595686066957 0.015287987288827028 0 0.015287987288827028 -0.00076624535735414501 0 0 0 -0.0031217102608552746 0.0018345110833318276 -0.025021236432609548 0 -0.025021236432609548 -0.012939713969823132 0 0 0 -0.0027763007216228268 0.043676033710069104 0.0090297113976917642 0 0.0090297113976917642 0.0016375799100725279 0 0 0 0.011328403405035409 0.018837460800228634 -0.023745207890739185 0 -0.023745207890739185 0.030590702509406653 0 0 0 0.012357040827408794 -0.084561669372581472 0.011635670187640125 0 0.011635670187640125 0.0011639237461995577 0 0 0 -0.020849436406595645 0.070824511206630469 -0.012927086278184063 0 -0.012927086278184063 0.044081416435798104 0 0 0 0.028726481910607116 -0.018681705558711958 -0.024295298889616124 0 -0.024295298889616124 0.0049302570295290948 0 0 0 -0.0034378621322957992 0.014254044245607101 -0.0049607239919975538 0 -0.0049607239919975538 0.054263031267127546 0 0 0 0.017129268878183671 -0.062660293081468921 -0.019758311302476465 0 -0.019758311302476465 -0.00060209734070890142 0 0 0 -0.015815597605544456 -0.044723774273184656 0.0094947784075359101 0 0.0094947784075359101 0.0011868040478918776 0 0 0 -0.010884242556323195 0.068015118413293413 0.0037056169181915646 0 0.0037056169181915646 0.002117280424292628 0 0 0 0.017533099709396517 0.038216061160048179 0.0077800973274472704 0 0.0077800973274472704 0.00029789318126944089 0 0 0 0.0096284885853294006 0.018714720749020752 -0.016964827862355591 0 -0.016964827862355591 0.0142870194528113 0 0 0 0.0082504350504580548 -0.063792301182394304 -0.020759319081306234 0 -0.020759319081306234 -0.00081149724429802061 0 0 0 -0.016150949606673078 -0.046385162489140729 0.010663356438258604 0 0.010663356438258604 5.6025845533762275e-05 0 0 0 -0.011582284160901742 0.031867847323582332 0.010478667731865152 0 0.010478667731865152 0.05374375224807558 0 0 0 0.021402899892914475 0.0078059930999581084 -0.020968630065554994 0 -0.020968630065554994 0.0052248991556611557 0 0 0 0.003257723063904816 0.030502450995328445 0.029450242462538689 0 0.029450242462538689 0.016534615817162646 0 0 0 0.011759266703122773 -0.04294315947344704 0.0079224531261636172 0 0.0079224531261636172 0.008672512557024975 0 0 0 -0.0085676617291055301 -0.028696631053456573 0.00093686821057475944 0 0.00093686821057475944 0.0099609116046885382 0 0 0 -0.0046839298621920156 0.0298470550695034 -0.0042551989272893304 0 -0.0042551989272893304 0.019978746322558132 0 0 0 0.012456450348015373 0.022095081503444591 -0.0033364235212533094 0 -0.0033364235212533094 0.027659204233773049 0 0 0 0.012438571434304409 0.020230759404105691 -0.015926063324590838 0 -0.015926063324590838 -0.0090683575191120094 0 0 0 0.0027906004712484229 0.024771099405749557 -0.012551171451140314 0 -0.012551171451140314 -0.0060769955481822166 0 0 0 0.004673525964391835 0.0053944770937028388 0.011540288957694812 0 0.011540288957694812 -0.00033033755627100148 0 0 0 0.0012660348843579576 0.00499261247130562 0.014984646733016674 0 0.014984646733016674 -0.00023941137008474944 0 0 0 0.0011883002753052194 0.029672037502821547 -0.011432193201273283 0 -0.011432193201273283 0.0079707084362304892 0 0 0 0.0094106864847629534 0.023935621963701009 0.0045469906865088471 0 0.0045469906865088471 0.058139158746069806 0 0 0 0.020518695177442699 0.058656671456225301 0.0076273234992721376 0 0.0076273234992721376 0.001680042297615595 0 0 0 0.015084178438460206 0.064738234379382753 0.029640249634150094 0 0.029640249634150094 0.018953785653340383 0 0 0 0.020923005008180784 -0.01486094706045149 -0.01967816140563447 0 -0.01967816140563447 0.0030694518598428644 0 0 0 -0.0029478738001520455 0.069093919517886904 0.041148726433142047 0 0.041148726433142047 0.011098629223046164 0 0 0 0.020048137185233128 0.063739933642054658 -0.012700039672282188 0 -0.012700039672282188 -0.0021491308301945437 0 0 0 0.015397700702965018 0.070774136580800825 -0.0033801615115171138 0 -0.0033801615115171138 0.0089523113764485122 0 0 0 0.019931611989312335 0.0020980869015012615 0.042007761647304798 0 0.042007761647304798 0.0025025954320749833 0 0 0 0.0011501705833940612 0.030389703133934076 0.046736247546211196 0 0.046736247546211196 0.0067847672414946825 0 0 0 0.0092936175938570509 -0.029610479942996731 -0.019228652340316045 0 -0.019228652340316045 -0.0017306979830296471 0 0 0 -0.0078352944815065929 -0.027851973159518421 0.011621179786202121 0 0.011621179786202121 -0.00052755338318358908 0 0 0 -0.0070948816356755044 0.021734096165027528 -0.022917608544783113 0 -0.022917608544783113 0.015668527480441119 0 0 0 0.0093506559113671339 0.097970229552768795 -0.013042780285876344 0 -0.013042780285876344 0.074715424333494207 0 0 0 0.043171413471565723 0.16117302209615059 0.012918832631854282 0 0.012918832631854282 0.13732773879994764 0 0 0 0.074625190224024585 0.023537735261467262 0.0059255109098726565 0 0.0059255109098726565 0.03627686194414069 0 0 0 0.014953649301401977 0.064968791729329775 0.011814359990673965 0 0.011814359990673965 0.0050919131465901671 0 0 0 0.017515176218979994 0.022651882246578103 -0.0046164614091388501 0 -0.0046164614091388501 -0.0065709033565379826 0 0 0 0.0040202447225100579 0.030384566482397957 -0.0025048348819514399 0 -0.0025048348819514399 -0.0029102127337046202 0 0 0 0.0068685884371733619 0.043525252801913966 -0.0034655970161043409 0 -0.0034655970161043409 0.0020065257506838297 0 0 0 0.011382944638149484 -0.011594919364606521 0.014125327685440503 0 0.014125327685440503 0.0019466115433440789 0 0 0 -0.0024120769553157284 0.057185732408702242 -0.013204377246107901 0 -0.013204377246107901 0.034885431991314331 0 0 0 0.023017791100004084 0.067809985627422353 -0.015701380043480206 0 -0.015701380043480206 0.015101906672783549 0 0 0 0.02072797307505142 0.10765791131446678 0.019622173495204842 0 0.019622173495204842 0.052042689564155031 0 0 0 0.039925150219655481 0.064283170199013417 0.017700846108607005 0 0.017700846108607005 0.028489906014081523 0 0 0 0.023193269053274124 0.0002166603179424853 -0.016135270562360748 0 -0.016135270562360748 0.0018760039139618101 0 0 0 0.00052316605797603222 0.042282631308256005 0.0062896237900726603 0 0.0062896237900726603 -0.0026204836756388503 0 0 0 0.009915536908154287 0.048803846262832948 0.0082675396811148771 0 0.0082675396811148771 0.00078383294623381172 0 0 0 0.012396919802266679 0.060790202434227725 0.030471976719569582 0 0.030471976719569582 0.031765773851713419 0 0 0 0.023138994071485008 -0.0023425637984595404 -0.020509025348263377 0 -0.020509025348263377 0.0043203675515739448 0 0 0 0.00049445093827849007 -0.0093179890550830462 -0.021442222204573501 0 -0.021442222204573501 -0.0057736944313093418 0 0 0 -0.0037729208715980966 -0.014592396787299247 0.014918357117072933 0 0.014918357117072933 -0.0023310669519470834 0 0 0 -0.0042308659348115809 0.080017176844696003 0.050013171628542741 0 0.050013171628542741 0.018687337066228604 0 0 0 0.024676128477731152 -0.042762688257446377 -0.018628903209341942 0 -0.018628903209341942 -0.0053620492222605093 0 0 0 -0.012031184369926718 -0.034817047819648943 0.011227591405526179 0 0.011227591405526179 -0.0025192803781169514 0 0 0 -0.0093340820494414705 -0.03097306835886493 0.0094229298895109892 0 0.0094229298895109892 -0.00050532336315800563 0 0 0 -0.0078695979305056785 0.068524002723808208 -0.011346682976464573 0 -0.011346682976464573 0.05926848622098646 0 0 0 0.031948122236198695 0.026225852160796082 -0.019588751830024925 0 -0.019588751830024925 0.069402905405136189 0 0 0 0.023907189391483053 -0.0086639501765094495 -0.013539759218144681 0 -0.013539759218144681 0.066047518784358661 0 0 0 0.014345892151962289 -0.0086617264601947519 -0.023194238465174669 0 -0.023194238465174669 0.008192520224094002 0 0 0 -0.0001173015590252291 0.062844904391782613 -0.018632185176374993 0 -0.018632185176374993 0.0038805108499569974 0 0 0 0.016681353810434896 0.0081852629679864952 0.054205573620477898 0 0.054205573620477898 0.016246433247718794 0 0 0 0.0061079240539265722 -0.048052570640071068 0.027374061937071481 0 0.027374061937071481 0.021281006163883287 0 0 0 -0.0066928911190470286 -0.034612239695225422 -0.010123103474412587 0 -0.010123103474412587 0.0082345973463427979 0 0 0 -0.006594410587220656 0.05359167689625402 -0.038425603919053058 0 -0.038425603919053058 0.032382709581674884 0 0 0 0.021493596619482275 0.063739271043545181 -0.010293970258899388 0 -0.010293970258899388 0.044537487438767176 0 0 0 0.027069189620577999 0.10939740292819655 0.007313662609996191 0 0.007313662609996191 0.078958019975940985 0 0 0 0.047088855726034384 0.023216119201254763 -0.011353423907540669 0 -0.011353423907540669 0.038481572710611145 0 0 0 0.015424422977966458 0.022347367688479974 -0.00760919322419756 0 -0.00760919322419756 0.03721905364340003 0 0 0 0.014891605332970001 0.047054911330976057 0.021951191697199134 0 0.021951191697199134 0.080591385315777572 0 0 0 0.031911574161688397 0.040755445595606801 -0.017264823532388715 0 -0.017264823532388715 0.045560878695619422 0 0 0 0.021579081072806539 0.10781052303820537 0.0081336445206536823 0 0.0081336445206536823 0.069710888072460619 0 0 0 0.044380352777666054 -0.011197586187616793 -0.011036816406857053 0 -0.011036816406857053 -0.00015532387199046482 0 0 0 -0.0028382275149017033 0.032711935889894551 0.014252544869166738 0 0.014252544869166738 0.048652413773595735 0 0 0 0.020341087415872573 0.062346628449918395 0.0040610415679689371 0 0.0040610415679689371 0.020383023856141949 0 0 0 0.020682413076515086 0.03243160441641979 -0.0038417977846742501 0 -0.0038417977846742501 -0.00043007124207672387 0 0 0 0.0080003832935856556 0.047888293988099136 0.019488902760813609 0 0.019488902760813609 0.032147028731972817 0 0 0 0.020008830680017999 0.039550379452774675 -0.0060772995457557518 0 -0.0060772995457557518 -0.0081273552627119244 0 0 0 0.0078557560475156912 -0.085884942869984937 -0.0068349642824328174 0 -0.0068349642824328174 0.0019077522034471883 0 0 0 -0.020994297666634409 0.020687872321146016 -0.015984792464613904 0 -0.015984792464613904 -0.011944839782926903 0 0 0 0.0021857581345547765 0.055807755545268609 0.0079835959614119253 0 0.0079835959614119253 0.00078947849167050632 0 0 0 0.01414930850923478 0.032942602737015714 0.012798421690572704 0 0.012798421690572704 0.069324638771544406 0 0 0 0.02556681037714003 -0.14359263596672811 0.014661916717620852 0 0.014661916717620852 0.0032373406207151234 0 0 0 -0.035088823836503247 0.033803188349598709 0.0082109777638890921 0 0.0082109777638890921 0.0017683999268074402 0 0 0 0.0088928970691015373 0.055278569168713022 -0.0035916261277483983 0 -0.0035916261277483983 -0.0067962151509169616 0 0 0 0.012120588504449015 0.026183860821624383 -0.01794713293735678 0 -0.01794713293735678 0.0096898115825254372 0 0 0 0.008968418101037462 -0.035322301867281636 -0.017208601534250412 0 -0.017208601534250412 0.0026573142226282709 0 0 0 -0.0081662469111634661 0.035173890855856441 -0.016169032410577825 0 -0.016169032410577825 -0.012527925269475056 0 0 0 0.0056614913965953532 0.041911221193086615 0.004930760359714635 0 0.004930760359714635 0.00089386452701071747 0 0 0 0.010701271430024337 0.052107036120331435 -0.0096638648277832112 0 -0.0096638648277832112 -0.0037064009412998899 0 0 0 0.012100158794757888 0.024902205852513126 -0.018334415878567115 0 -0.018334415878567115 0.014784303768307139 0 0 0 0.0099216274052050801 0.043121606516733135 -0.011195186904368798 0 -0.011195186904368798 0.028561457502662035 0 0 0 0.01792076600484882 -0.022487969837658835 -0.037057826242980943 0 -0.037057826242980943 -0.0055989289391957173 0 0 0 -0.0070217246942136389 0.12971983950881205 0.0058762467170252464 0 0.0058762467170252464 0.11399266467110458 0 0 0 0.060928126044979103 -0.023446969631022371 -0.0066774381278122963 0 -0.0066774381278122963 -0.0011471028653994297 0 0 0 -0.0061485181241054815 0.048419541844508737 0.0041326971392973621 0 0.0041326971392973621 -0.0040604366977336701 0 0 0 0.011089776286693777 0.052885521788380387 0.0054343278470411326 0 0.0054343278470411326 -0.0042736526571002841 0 0 0 0.012152967282820037 -0.011423134372047006 0.017923934051815804 0 0.017923934051815804 0.0040130633344208633 0 0 0 -0.0018525177594068687 0.048130102626187332 -0.021798184568787293 0 -0.021798184568787293 0.040500201660290447 0 0 0 0.0221575760716195 0.049127183427142014 0.013349930425018475 0 0.013349930425018475 0.010638457548632897 0 0 0 0.014941410243943722 0.04319475357588845 0.011746557090035911 0 0.011746557090035911 0.0098588188101533317 0 0 0 0.013263393096510449 0.046717899950384695 0.00680700095082687 0 0.00680700095082687 -0.0022316854997423662 0 0 0 0.011121553612660573 -0.032012556636504381 0.011518592254473436 0 0.011518592254473436 0.00015654513709923573 0 0 0 -0.0079640028748512934 0.0076463077837949436 0.0050915986477220974 0 0.0050915986477220974 0.015255832116492438 0 0 0 0.0057255349750718471 0.025000534780284946 0.00014361349682682351 0 0.00014361349682682351 0.017999605181435896 0 0 0 0.010750034990430216 -0.038861896967209736 0.013855468391271521 0 0.013855468391271521 -0.00035839612234589771 0 0 0 -0.0098050732723889006 0.13329345059219588 0.077766099587060489 0 0.077766099587060489 0.059930266372486274 0 0 0 0.048305929241170498 0.032780363398793533 0.023718036304029355 0 0.023718036304029355 0.012969032717597528 0 0 0 0.011437349029097543 0.013327697438398012 -0.019968136797438835 0 -0.019968136797438835 0.0095037994507229939 0 0 0 0.0057078742222802514 0.025732535834127782 0.0085999937248490178 0 0.0085999937248490178 0.01026186155241586 0 0 0 0.0089985993466359035 0.036877533406790029 0.0064948128923159945 0 0.0064948128923159945 0.0058447288559497663 0 0 0 0.010680565565684948 0.080847572009133756 -0.0079242292296958419 0 -0.0079242292296958419 0.016245053243304081 0 0 0 0.024273156313109459 0.055336625958198549 0.0027512339949699871 0 0.0027512339949699871 0.013070976136425161 0 0 0 0.017101900523655844 0.035362436496732097 -0.0098137498279611823 0 -0.0098137498279611823 -0.002117051863713304 0 0 0 0.0083113461582547399 0.038241080098550588 0.010335158086764154 0 0.010335158086764154 0.0042192248009414179 0 0 0 0.010615076224873 -0.050202013287639013 -0.011216572698752203 0 -0.011216572698752203 0.0014453268450360657 0 0 0 -0.012189171610650751 -0.041779635001852888 -0.018331094185267682 0 -0.018331094185267682 0.0043051812973700088 0 0 0 -0.0093686134261207199 0.038533610741362634 0.0023020688143895384 0 0.0023020688143895384 0.012835942164150335 0 0 0 0.012842388226378241 -0.053761702288894098 0.041243942501478004 0 0.041243942501478004 0.007555148831372982 0 0 0 -0.011551638364380223 -0.076761185607533422 0.027089135176503187 0 0.027089135176503187 0.0012901876504027854 0 0 0 -0.018867749489282715 0.059813656354088973 -0.0078357444290715061 0 -0.0078357444290715061 0.037268868612676309 0 0 0 0.024270631241691321 0.098612396112043477 0.0054343985654033422 0 0.0054343985654033422 0.068692837508863347 0 0 0 0.04182630840522672 0.065521890824356985 -0.024435207563334012 0 -0.024435207563334012 0.0054643356167365098 0 0 0 0.017746556610273377 0.030987215895751069 -0.0093818302109371365 0 -0.0093818302109371365 0.0034379242199926718 0 0 0 0.0086062850289357617 0.10278398366732569 0.03919160137829622 0 0.03919160137829622 0.098826817340579021 0 0 0 0.050402700251976185 0.042844251165714671 -0.01268252444024834 0 -0.01268252444024834 -0.008618607005627988 0 0 0 0.0085564110400216716 0.029604146044917658 -0.02021710909720284 0 -0.02021710909720284 0.029359901944763997 0 0 0 0.014741011997420429 0.13747475280804144 0.026564908194935732 0 0.026564908194935732 0.02356565544949718 0 0 0 0.040260102064384573 0.027087978767171669 0.0066717773868479446 0 0.0066717773868479446 0.010434775813750012 0 0 0 0.0093806886452304263 0.0352632533596412 0.025781032853989139 0 0.025781032853989139 0.019654114572792203 0 0 0 0.01372934198310849 0.012334402410544343 -0.019793363096610062 0 -0.019793363096610062 0.0064361255432223707 0 0 0 0.0046926319884416645 0.026319293910863781 0.0086358912053303549 0 0.0086358912053303549 0.0020331744019489242 0 0 0 0.0070881170782031693 0.0055649237432781745 -0.010117833534264663 0 -0.010117833534264663 0.055613017739708559 0 0 0 0.015294485370746694 0.09763547329528921 0.023865991261378561 0 0.023865991261378561 0.072164166158253717 0 0 0 0.042449909863385815 -0.01109499121997326 -0.012863322727211246 0 -0.012863322727211246 0.0030595765003338382 0 0 0 -0.0020088536799097723 -0.096384798604557523 0.0032050976965314038 0 0.0032050976965314038 0.0016308700195984127 0 0 0 -0.023688482146239767 -0.16890784876725673 -0.0091138839441559268 0 -0.0091138839441559268 0.0020330181146194504 0 0 0 -0.041718707663159299 0.048704837807400037 0.0085819432520064867 0 0.0085819432520064867 0.09241113179758087 0 0 0 0.035278992401245268 -0.015553094401392246 0.015553088450928759 0 0.015553088450928759 0.0014226956239483807 0 0 0 -0.0035325996943609689 0.11213358961287619 -0.017813490321392178 0 -0.017813490321392178 0.068858346353554256 0 0 0 0.045247983991607642 0.14823076001919028 -0.003178102409522543 0 -0.003178102409522543 0.09128048389140031 0 0 0 0.059877810977647605 0.2294311001365712 0.0012975996550708691 0 0.0012975996550708691 0.16750038497435615 0 0 0 0.099232871277731949 0.17296427985473273 0.022820016757371553 0 0.022820016757371553 0.13796798263897569 0 0 0 0.077733065623427133 0.0486790634778827 -0.013123135968013844 0 -0.013123135968013844 0.010250212438137341 0 0 0 0.01473231897900501 0.080921653620955547 0.015793157131724689 0 0.015793157131724689 0.035029468107159012 0 0 0 0.028987780432028598 0.1060203442038716 0.010025550712936981 0 0.010025550712936981 0.10711121547651614 0 0 0 0.053282889920096915 0.051910052026344855 -0.013763200169223222 0 -0.013763200169223222 0.05403494645160134 0 0 0 0.026486249619486535 0.030496728314616611 0.0050008057428483493 0 0.0050008057428483493 0.047336974928940456 0 0 0 0.019458425810889274 0.081171100377072314 0.0029864446153649027 0 0.0029864446153649027 0.055317704091116582 0 0 0 0.034122201117047002 0.010292650943393156 0.013051352426403928 0 0.013051352426403928 0.0027880716956376617 0 0 0 0.0032701806597579264 0.0052467835642457938 -0.009734820195637095 0 -0.009734820195637095 0.00045576460760399229 0 0 0 0.001425637042962391 0.047592579078147068 -0.0077091027663770961 0 -0.0077091027663770961 0.025614000489027511 0 0 0 0.018301644891793423 0.036672072443940995 0.0093623067554606358 0 0.0093623067554606358 0.003907782933326838 0 0 0 0.010144963844316967 0.11978287892024758 0.017239194931272461 0 0.017239194931272461 0.072211742385878464 0 0 0 0.047998655326531969 -0.00018733222322149523 -0.010501049514821892 0 -0.010501049514821892 0.0033943785130435833 0 0 0 0.00080176157245541446 0.025385698680465793 -0.00098999876315338789 0 -0.00098999876315338789 0.069867677743181866 0 0 0 0.023813344105911918 0.0011128978051404559 0.014502155890360857 0 0.014502155890360857 0.006164610978084184 0 0 0 0.0018193771958059379 0.071988578229237987 -0.017055353012446206 0 -0.017055353012446206 0.038603002322229685 0 0 0 0.027647895137866918 0.047260299053769661 -0.019469641028240892 0 -0.019469641028240892 0.021280935452386629 0 0 0 0.017135308626539003 0.025035521745868441 -0.017206787046878724 0 -0.017206787046878724 0.0089847536451352072 0 0 0 0.0085050688477509157 0.026629686031834882 -0.015405281261450549 0 -0.015405281261450549 0.012721144486272151 0 0 0 0.0098377076295267374 0.042694516498940661 -0.016042214182776404 0 -0.016042214182776404 -0.0066790859073885406 0 0 0 0.0090038576478880406 0.049567112063202606 0.061009764805114663 0 0.061009764805114663 0.018025747287702676 0 0 0 0.016898214837726327 -0.059547317217236467 -0.0058492608525289591 0 -0.0058492608525289591 0.0012539024532492449 0 0 0 -0.014573353690996854 0.088809697885856798 -0.025127253647226868 0 -0.025127253647226868 0.032531202164781038 0 0 0 0.03033522501265945 0.0508562734607882 -0.016289391512444122 0 -0.016289391512444122 0.020104452352861471 0 0 0 0.01774018145341243 0.061993286567143188 0.019076782661310833 0 0.019076782661310833 0.01810064945443584 0 0 0 0.020023484005394766 0.034463218520574379 -0.0036252213221255325 0 -0.0036252213221255325 0.0028712446877485753 0 0 0 0.009333615802080697 0.043195542936980302 0.00024243530667867469 0 0.00024243530667867469 0.006223958464410595 0 0 0 0.012354875350347794 -0.21035780951128502 0.0018853548957024123 0 0.0018853548957024123 0.0068447135289066985 0 0 0 -0.050878273995594636 -0.11228485037429022 -0.00065579749950471532 0 -0.00065579749950471532 0.0028664654262832157 0 0 0 -0.02735459623700176 0.031194049101439334 -0.0093914882442388478 0 -0.0093914882442388478 0.010395246457433885 0 0 0 0.010397323889718304 0.015247231442077984 0.012466833450940939 0 0.012466833450940939 0.0050825008731627498 0 0 0 0.0050824330788101831 0.070650201705847585 0.0025793684822967775 0 0.0025793684822967775 0.0041470201304683874 0 0 0 0.018699305459079003 0.053924836129994679 0.017036350489273169 0 0.017036350489273169 0.020372865566338369 0 0 0 0.01857442542408326 0.057685085057990949 0.0092503082221539121 0 0.0092503082221539121 0.0044990292505768751 0 0 0 0.01554602857714197 -0.047304130735445898 -0.023384334284124099 0 -0.023384334284124099 -0.0052814326824894495 0 0 0 -0.013146390854483832 -0.038065967285099422 0.012421899643408908 0 0.012421899643408908 -0.00052669193899023206 0 0 0 -0.009648164806022418 0.13433991719438421 0.025464788405336558 0 0.025464788405336558 0.027467854306310269 0 0 0 0.04045194287517373 -0.028262933325535571 -0.022945509050745827 0 -0.022945509050745827 -0.0015600123370080668 0 0 0 -0.0074557364156359156 -0.027508605534644924 0.013012886765441845 0 0.013012886765441845 0.00081925719407167918 0 0 0 -0.0066723370851433147 0.032156218797643465 -0.012922564337410597 0 -0.012922564337410597 0.012657975907914398 0 0 0 0.011203548676389508 0.1182084867712595 0.087661041494036196 0 0.087661041494036196 0.058237862993332001 0 0 0 0.044111587441147959 0.065841332881391698 0.0060755137840241601 0 0.0060755137840241601 -0.00033743413254193333 0 0 0 0.016375974687212438 0.058039552261067551 0.0030892510942754914 0 0.0030892510942754914 0.023284829244166583 0 0 0 0.020331095376308533 0.0047841295866416639 -0.01696561111836575 0 -0.01696561111836575 0.0015963198493830248 0 0 0 0.0015951123590061723 -0.0052687514411414275 0.013843319162043625 0 0.013843319162043625 -0.0017532855177289899 0 0 0 -0.0017555092397176042 -0.078637547364515975 0.0054507825032030994 0 0.0054507825032030994 -0.00054771939229576391 0 0 0 -0.019796316689202925 -0.12390453521166479 -0.011547343399590369 0 -0.011547343399590369 -0.0010630675862880468 0 0 0 -0.03124190069948821 -0.026253054678452431 -0.0036773829842831618 0 -0.0036773829842831618 0.02288417728187514 0 0 0 -0.0008422193491443436 0.071500662112759794 -0.013248698141227144 0 -0.013248698141227144 0.027257044878833292 0 0 0 0.024689426747898313 0.011569867052458495 -0.0061906537345047391 0 -0.0061906537345047391 0.051975558609284378 0 0 0 0.015886356415435718 0.043741445035705692 0.016257996921118855 0 0.016257996921118855 0.030402337006525327 0 0 0 0.018535945510557768 0.033368303853528646 0.01116853566064736 0 0.01116853566064736 0.034482090671218671 0 0 0 0.016962598631186841 0.078273480375795831 0.016415540061496231 0 0.016415540061496231 0.026541875440665198 0 0 0 0.026203838954115283 0.091349721107810852 0.011645675698063934 0 0.011645675698063934 0.015427965567204657 0 0 0 0.026694421668753888 0.051099516858152449 0.0080252453615599073 0 0.0080252453615599073 0.0056425600473510862 0 0 0 0.014185519226375842 0.0099464664078453037 -0.014368106518123758 0 -0.014368106518123758 0.027813345167963584 0 0 0 0.009439952893952195 0.0038265064722538891 -0.023108118084809351 0 -0.023108118084809351 0.061297226087244472 0 0 0 0.016280933139874589 0.047578985069431645 -0.043411827470909076 0 -0.043411827470909076 0.099500599634351219 0 0 0 0.036769896175945727 -0.068988103895222669 0.0056163668208760531 0 0.0056163668208760531 -0.00027239652585454854 0 0 0 -0.017315125105269301 -0.10292516438001743 -0.010496455985434715 0 -0.010496455985434715 -0.00089704897956405238 0 0 0 -0.025955553339895358 0.027892700506963977 0.0028351276492671884 0 0.0028351276492671884 -0.066056878262192323 0 0 0 -0.0095410444388071402 0.056820621074568006 -0.036085433742919573 0 -0.036085433742919573 0.071759970179017918 0 0 0 0.032145147813396474 0.05293749378530814 0.0099672032077869482 0 0.0099672032077869482 0.0023083603766141676 0 0 0 0.013811463540480573 -0.024842786081719099 -0.023920614114686857 0 -0.023920614114686857 -0.0050969608625042462 0 0 0 -0.0074849367360558389 -0.02426694366901987 0.014787475442869489 0 0.014787475442869489 -0.00061339661474486828 0 0 0 -0.0062200850709411802 0.021910059959428706 0.0091309946472316744 0 0.0091309946472316744 0.0026137331564674987 0 0 0 0.0061309482789740407 0.015819470766105317 -0.0030480252462956768 0 -0.0030480252462956768 0.056353413831790218 0 0 0 0.018043221149473886 0.072596607666316121 0.0054623773321440527 0 0.0054623773321440527 0.045197836288124349 0 0 0 0.029448610988610263 0.018722612725585702 0.011881942526820833 0 0.011881942526820833 0.0034054538466987694 0 0 0 0.0055320166430711144 -0.047689599761093437 0.011849963061680846 0 0.011849963061680846 0.0042768392367142916 0 0 0 -0.010853190131094981 0.05688778846893805 -0.016729983976359497 0 -0.016729983976359497 0.048295071585243265 0 0 0 0.02629571501354544 0.057699517168174286 -0.014570397254427991 0 -0.014570397254427991 0.04048293668342462 0 0 0 0.024545613462899685 0.035350336316674003 -0.020349452263435042 0 -0.020349452263435042 0.040021329756263324 0 0 0 0.018842916518234332 0.020667657074144447 -0.014969325336617739 0 -0.014969325336617739 0.03145465865600322 0 0 0 0.013030578932536951 0.026628277687766259 0.003848198844925732 0 0.003848198844925732 0.024651639536409732 0 0 0 0.012819979306043998 0.019449960103645129 -0.0033157112566357177 0 -0.0033157112566357177 0.053518889281065185 0 0 0 0.018242212346177598 0.17564158824305243 0.017143945205253974 0 0.017143945205253974 0.14807316815681748 0 0 0 0.080928689099967643 0.0022334282775560155 -0.0030582267492713644 0 -0.0030582267492713644 0.0037090259673759896 0 0 0 0.0014856135612328902 0.10938154685648649 -0.015522956070146421 0 -0.015522956070146421 0.08167579967012506 0 0 0 0.047764336631652915 0.0038529012761026049 0.0047034017676779172 0 0.0047034017676779172 0.0057994732350343803 0 0 0 0.0024130936277841908 0.029921211341081493 0.0067046629207548215 0 0.0067046629207548215 0.026329591464859067 0 0 0 0.014062700701485131 0.026456997161846997 0.0038432533145021999 0 0.0038432533145021999 0.018661189062942063 0 0 0 0.011279546556197265 0.023913433082993152 -0.0046698367015650692 0 -0.0046698367015650692 0.024318802480355062 0 0 0 0.012058058890837053 -0.086369493084236387 -0.018422055520262645 0 -0.018422055520262645 0.0016143426573979568 0 0 0 -0.021188787606709586 -0.10905570675957084 -0.026281859256993431 0 -0.026281859256993431 0.0024492566304247093 0 0 0 -0.026651612532286522 0.037148830533396682 -0.030071682112189399 0 -0.030071682112189399 -0.0021621872379167587 0 0 0 0.008746660823869979 0.0063044860989316959 0.0055457112140053855 0 0.0055457112140053855 0.0079362539040392192 0 0 0 0.0035601850007427275 0.043873076546626665 -0.027773439166106043 0 -0.027773439166106043 0.054720902895297338 0 0 0 0.024648494860481006 -0.02117543212172817 0.015022879557824491 0 0.015022879557824491 -0.00079066567532383968 0 0 0 -0.0054915244492630072 -0.010568945279718217 0.013862504436132937 0 0.013862504436132937 -0.0015842573953715397 0 0 0 -0.0030383006687724409 0.00035515823902818738 -0.021524513676083559 0 -0.021524513676083559 -0.0072676903114421432 0 0 0 -0.0017281330181034907 -0.018119877427308247 -0.024664818287672537 0 -0.024664818287672537 -0.0088829634863935303 0 0 0 -0.0067507102284254418 -0.041079151906714517 -0.015266312805147619 0 -0.015266312805147619 0.0013633763065392657 0 0 0 -0.0099289439000437296 -0.020600390828582782 -0.016884544914862749 0 -0.016884544914862749 0.0031498178031248436 0 0 0 -0.0043626432563644846 0.030514895576248653 -0.010123136905688097 0 -0.010123136905688097 -0.0014709921711336372 0 0 0 0.0072609758512787543 0.029788320820340237 -0.010286583771724686 0 -0.010286583771724686 -0.0064165163361093267 0 0 0 0.0058429511210577323 0.014585784326144983 0.013861096247899348 0 0.013861096247899348 0.00068359752783190425 0 0 0 0.0038173454634942219 0.011949112840419442 0.011734924864302868 0 0.011734924864302868 0.00086889033920593134 0 0 0 0.0032045007949063446 0.054722706204884952 0.024746470497864159 0 0.024746470497864159 0.02027581951580526 0 0 0 0.018749631430172942 -0.0017338537466540238 -0.019678520242945696 0 -0.019678520242945696 0.0050983803721744714 0 0 0 0.00084113165638011189 -0.0020101982797367073 0.011302201122010134 0 0.011302201122010134 0.00016689597951036195 0 0 0 -0.00046082557505658026 0.02211315899862535 -0.017408336182359305 0 -0.017408336182359305 -0.0085891962439287178 0 0 0 0.0033809906886741597 0.019878873882119709 0.00097154930872073945 0 0.00097154930872073945 0.011849048398100095 0 0 0 0.0079319805700549511 -0.014263263697249069 0.012315085384164644 0 0.012315085384164644 0.00069476118070794374 0 0 0 -0.0033921256291352779 -0.0025035935704529862 -0.022215052412898419 0 -0.022215052412898419 -0.004569454238115082 0 0 0 -0.001768261952142019 -0.013763394770756332 -0.0076695417067896565 0 -0.0076695417067896565 0.097747933537871451 0 0 0 0.020996134691778773 0.023195373460477352 0.0025574643015159816 0 0.0025574643015159816 0.014510453809943544 0 0 0 0.0094264568176052246 -0.010262279161715331 -0.018112621115217633 0 -0.018112621115217633 -0.0034298737031319367 0 0 0 -0.0034230382162118178 -0.014812023387536373 0.013236894849648273 0 0.013236894849648273 -0.0049424036460416002 0 0 0 -0.0049386067583944929 0.094762210855960372 0.0066851911560984459 0 0.0066851911560984459 0.030396709364610863 0 0 0 0.031289730055142823 0.023299399468625137 -3.9561079150374212e-06 0 -3.9561079150374212e-06 -0.037791259429168722 0 0 0 -0.003622964990135813 -0.0067812369697632831 0.0091244789109546191 0 0.0091244789109546191 0.0094536417365228415 0 0 0 0.00066810119168988873 0.065390257654382056 -0.022036038292406857 0 -0.022036038292406857 0.01750603578170673 0 0 0 0.02072407335902221 0.029898224579242086 0.0071756184016480325 0 0.0071756184016480325 0.027193396167426269 0 0 0 0.014272905186667085 0.020040018164932609 -0.0038788989176388026 0 -0.0038788989176388026 0.029011092627135041 0 0 0 0.012262777698016904 -0.058955141323263849 -0.016723858090756258 0 -0.016723858090756258 -0.0016645150045168262 0 0 0 -0.01515491408194517 -0.043960139122799662 0.00954064741795713 0 0.00954064741795713 -0.00064912588241673036 0 0 0 -0.011152316251304101 0.046132825659256117 -0.010463612201750815 0 -0.010463612201750815 0.033946797425745717 0 0 0 0.020019905771250436 0.036260984984702198 0.011066271839062482 0 0.011066271839062482 0.018732716537687499 0 0 0 0.013748425380597425 0.017393332059857287 0.0025431292020238767 0 0.0025431292020238767 0.0095959397911518154 0 0 0 0.0067473179627522721 -0.045106938817633377 0.0049271764190221487 0 0.0049271764190221487 0.0045229378911364193 0 0 0 -0.010146000231624229 -0.069091921508309562 0.012785928942963043 0 0.012785928942963043 0.0042660292780285491 0 0 0 -0.016206473057570281 0.0055921193536014879 0.0046922885104976192 0 0.0046922885104976192 0.024621174422957387 0 0 0 0.0075533234441397257 0.027586733901178079 -0.012732618562301706 0 -0.012732618562301706 0.016782413043844979 0 0 0 0.011092286736255758 0.0076384431292060607 0.0062141847100899636 0 0.0062141847100899636 0.0091067046558787751 0 0 0 0.0041862869462712081 0.03681739001185351 0.011539880335244862 0 0.011539880335244862 0.02229309832124611 0 0 0 0.014777622083274915 0.015897814460240585 -0.018920138328872377 0 -0.018920138328872377 0.014920802504792136 0 0 0 0.0077046542412581645 0.12437597167073086 0.010398714063049 0 0.010398714063049 0.082637057644270984 0 0 0 0.051753257328750454 0.0027616557947024367 0.011678496006031316 0 0.011678496006031316 0.0038577949409688214 0 0 0 0.0016548626839178156 -0.06419579820701804 0.01113160777792563 0 0.01113160777792563 0.0018642201620782117 0 0 0 -0.015582894511234846 0.074816265764484413 -0.013685744890604923 0 -0.013685744890604923 0.054277022421273857 0 0 0 0.032273322046439568 0.073562994694758355 -0.011070665638762356 0 -0.011070665638762356 0.036647439724059705 0 0 0 0.027552608604704432 -0.049740019839000574 -0.031859861626013355 0 -0.031859861626013355 0.028877221262426297 0 0 0 -0.0052156996441435483 0.090143624141364093 -0.014870566919960665 0 -0.014870566919960665 -0.013205719529532367 0 0 0 0.019234476152957959 -0.073565157364696362 0.0091999950537197533 0 0.0091999950537197533 0.00238525215189625 0 0 0 -0.017794976303200025 -0.12567785367165754 -0.024563998800013115 0 -0.024563998800013115 0.0058076349426910596 0 0 0 -0.029967554682241639 -0.072405221332033198 0.0022553870083232147 0 0.0022553870083232147 -0.00047934786669543566 0 0 0 -0.01822114229968216 -0.12683145894076825 -0.0079211836511990097 0 -0.0079211836511990097 0.0012432580500129076 0 0 0 -0.031397050222688808 -0.036207453078883373 0.0095478604131515477 0 0.0095478604131515477 -0.0025481425650146945 0 0 0 -0.0096888989109745177 -0.044512657406535282 -0.015721969043078841 0 -0.015721969043078841 -0.0027985830818391816 0 0 0 -0.011827810122093616 0.018689239763492713 -0.0066640002580206567 0 -0.0066640002580206567 0.037616490471210962 0 0 0 0.014076432558675914 0.021352335384574036 -0.015243520756440108 0 -0.015243520756440108 0.048395841231164 0 0 0 0.01743704415393452 0.058095823043714523 -0.0088064118271723724 0 -0.0088064118271723724 0.06053851979942837 0 0 0 0.029658585710785723 0.1099165662638209 0.0049737268589422068 0 0.0049737268589422068 0.1181648817401677 0 0 0 0.057020362000997082 0.073333948854001657 0.0057153591049541042 0 0.0057153591049541042 0.034900776655778676 0 0 0 0.027058681377445132 0.092845910609768961 0.0056493225563832294 0 0.0056493225563832294 0.09997647722044456 0 0 0 0.048205596957553304 0.039933119447365634 -0.011540192204959943 0 -0.011540192204959943 0.050740032451395023 0 0 0 0.022668287974690143 0.011427939247648759 0.0079668187614760997 0 0.0079668187614760997 0.010380666271843997 0 0 0 0.005452151379873189 0.031459688426367594 -0.013276190523029672 0 -0.013276190523029672 0.040212418654869492 0 0 0 0.017918026770309278 0.018248415637873078 -0.015484158738701043 0 -0.015484158738701043 0.035628718296104145 0 0 0 0.01346928348349432 0.026912847995153949 0.0041563762115388193 0 0.0041563762115388193 0.0471717146565395 0 0 0 0.018521140662923357 -0.11838805990376966 0.011581265840860513 0 0.011581265840860513 0.00081836926111478192 0 0 0 -0.029392422660663664 0.017482571348425784 -0.002223184714086418 0 -0.002223184714086418 0.050971692997868454 0 0 0 0.017113566086573558 0.079179625237705969 -0.021916764965624738 0 -0.021916764965624738 0.13692179242747227 0 0 0 0.05402535441629458 0.130427648755294 -0.025069743810352877 0 -0.025069743810352877 0.070608457426849736 0 0 0 0.05025902654553592 0.079737895260032721 -0.011339057296917532 0 -0.011339057296917532 0.029522545287176571 0 0 0 0.027315110136802323 -0.14654810267664395 -0.018584147590701719 0 -0.018584147590701719 0.0058817725338217719 0 0 0 -0.03516658253570551 -0.082791684499609164 0.0076984047360649094 0 0.0076984047360649094 0.0022639732935370114 0 0 0 -0.020131927801518006 0.014273597986242732 -0.0021868326970803853 0 -0.0021868326970803853 0.054427611023892597 0 0 0 0.017175302252533831 -0.041435554124179541 0.026699178794415968 0 0.026699178794415968 -0.0012400594166792622 0 0 0 -0.010668903385214534 -0.027087634283267548 0.031081405050265687 0 0.031081405050265687 0.0035425805302913282 0 0 0 -0.0058862634382441659 0.037124611014683895 -0.024333456586429048 0 -0.024333456586429048 0.020806960283670684 0 0 0 0.014482892824588589 0.040543381829165712 -0.019162199632010712 0 -0.019162199632010712 0.021946550555166776 0 0 0 0.015622483096083151 0.079491165520510387 -0.01515068428018862 0 -0.01515068428018862 0.064066438103186796 0 0 0 0.035889400905924296 -0.040582840068651205 0.010329226275390995 0 0.010329226275390995 0.0041742217493059286 0 0 0 -0.0091021545798368741 -0.0009671893705080481 0.013197927786422751 0 0.013197927786422751 0.0011183022115789781 0 0 0 3.7778210267735979e-05 0.016212229005471999 -0.015215650234919952 0 -0.015215650234919952 -0.005979754346759826 0 0 0 0.0025581186646780434 0.021033021076252517 -0.026704890343426491 0 -0.026704890343426491 0.010430994717114936 0 0 0 0.007866003948341832 0.020251746366250711 -0.021691950044090719 0 -0.021691950044090719 0.010662884063351363 0 0 0 0.0077286576074004909 0.0077153178287601848 -0.020567849194488175 0 -0.020567849194488175 0.0082357480479186007 0 0 0 0.0039877664691696096 0.0063843439667622404 -0.028254780751000214 0 -0.028254780751000214 0.0059043462154317883 0 0 0 0.0030721725455484794 -0.0059903839773471079 0.040864715035854315 0 0.040864715035854315 -0.0030957435828531388 0 0 0 -0.0022715318900502768 0.026040664409736097 0.027999205130541549 0 0.027999205130541549 0.0097754791332033998 0 0 0 0.0089540358857348751 -0.010429142170012541 0.016597605030730541 0 0.016597605030730541 -0.0018940420432093721 0 0 0 -0.0030807960533054783 -0.0054146066228270215 -0.022576363123571114 0 -0.022576363123571114 -0.0048100431892622517 0 0 0 -0.0025561624530223218 -0.07026471805517473 -0.0086455877399631287 0 -0.0086455877399631287 0.0071801116272965371 0 0 0 -0.015771151606969597 -0.12199871953072083 0.020549140550889855 0 0.020549140550889855 0.010793488829998532 0 0 0 -0.027801307675180575 -0.037091411336629014 0.013602371281303408 0 0.013602371281303408 0.0024488163069671387 0 0 0 -0.0086606487574154706 0.036222758028220552 0.011342145761199088 0 0.011342145761199088 0.011500534718837434 0 0 0 0.011930823186764493 0.040520428521906182 0.0024289429271506235 0 0.0024289429271506235 0.002848730029559432 0 0 0 0.010842289637866542 -0.059901555259224373 -0.025473111003928271 0 -0.025473111003928271 0.0022330792892602952 0 0 0 -0.014417118992491007 -0.10243812241858716 -0.021611186079553906 0 -0.021611186079553906 -0.0035757340480570762 0 0 0 -0.026503464116661064 0.046345641797028589 -0.0021745427322992133 0 -0.0021745427322992133 -0.005744237678081205 0 0 0 0.01015035102973685 0.065752003935056702 0.010235553999722008 0 0.010235553999722008 0.068950121820301746 0 0 0 0.033675531438839668 -0.086141258863399461 -0.00075847310157575731 0 -0.00075847310157575731 -0.0004553927869183072 0 0 0 -0.021649162912579435 -0.15757303972474548 0.00020656365342697214 0 0.00020656365342697214 -0.000944212373368572 0 0 0 -0.039629313024528448 0.0034545097270627656 -0.00186375022626592 0 -0.00186375022626592 0.0095734220145667626 0 0 0 0.0032569829354073682 -0.027679901767295866 -0.028043756793322737 0 -0.028043756793322737 -0.0075048128402863262 0 0 0 -0.0087961786518955462 -0.0035208456848355128 -0.025852550292639623 0 -0.025852550292639623 -0.0055229005278902427 0 0 0 -0.0022609365531814397 0.073294499975030847 0.074340819065958269 0 0.074340819065958269 0.16171718918723599 0 0 0 0.058752922290566723 -0.08878675696469937 -0.0092008197833121259 0 -0.0092008197833121259 0.00015580817539942796 0 0 0 -0.022157737197324983 -0.058265073649856718 0.0047051264107768453 0 0.0047051264107768453 0.00064292784637700814 0 0 0 -0.014405536450869935 0.037787409624585544 -0.0091666592656732965 0 -0.0091666592656732965 0.0037110258350933067 0 0 0 0.010374608864919643 0.029926018443810654 -0.012042184749892555 0 -0.012042184749892555 0.0016794436189649931 0 0 0 0.0079013655156939255 0.034416513129290095 0.010736117578612647 0 0.010736117578612647 0.037220917248289492 0 0 0 0.017909357594394899 0.038888706290200567 -0.0179581771309359 0 -0.0179581771309359 0.0023832266827781071 0 0 0 0.010317983243244672 0.053712057344390537 0.013965847633372629 0 0.013965847633372629 0.0075993860156055235 0 0 0 0.015327860839999 0.065525844324037685 0.01334717126857593 0 0.01334717126857593 0.14913956582212351 0 0 0 0.053666352536540396 -0.037400734691724571 0.012814012617337542 0 0.012814012617337542 0.0032868832117921021 0 0 0 -0.0085284628699831243 0.01863899077778533 0.0051270673385428716 0 0.0051270673385428716 0.0093400254118315915 0 0 0 0.0069947540474042287 0.16113403695422868 0.011405574612396406 0 0.011405574612396406 0.058868649677138674 0 0 0 0.055000671657841949 -0.057999021414680149 -0.0057379193984123944 0 -0.0057379193984123944 -0.00049306174500660105 0 0 0 -0.014623020789921826 -0.1979880472934617 -0.0024718853061549001 0 -0.0024718853061549001 -0.00064610614763122021 0 0 0 -0.049658538360273244 -0.10749043478974318 -1.1090820984075414e-05 0 -1.1090820984075414e-05 -0.00078572294053977365 0 0 0 -0.027069039432570725 0.022416027044149033 0.0012915314683123492 0 0.0012915314683123492 0.060653125475744536 0 0 0 0.020767288129973398 -0.029672775881115242 -0.022851750070129927 0 -0.022851750070129927 -0.0029135226386132612 0 0 0 -0.0081465746299321171 -0.047564554982912448 -0.028814475491594944 0 -0.028814475491594944 -0.001165816751079754 0 0 0 -0.012182592933498049 0.099629936286152757 0.021431691023637157 0 0.021431691023637157 0.03128640986755199 0 0 0 0.03272908653842619 -0.035051951662782077 -0.0087551888473217931 0 -0.0087551888473217931 -0.0014665587180924256 0 0 0 -0.0091296275952186257 0.02611435162149145 -0.016316245965374815 0 -0.016316245965374815 0.017250487884226035 0 0 0 0.010841209876429447 0.15160154723099817 0.012463103767304511 0 0.012463103767304511 0.12196013403384409 0 0 0 0.068390420316210232 -0.028231571017318879 -0.0060166433476203903 0 -0.0060166433476203903 0.0036741266582311916 0 0 0 -0.0061393610897717554 0.014516917641197738 -0.036533084346472185 0 -0.036533084346472185 0.031811498135426192 0 0 0 0.011582103944155986 0.023194425752385492 -0.0021411446029598324 0 -0.0021411446029598324 0.042904338222584715 0 0 0 0.016524690993742541 0.0023784965113706133 0.0032045610813122502 0 0.0032045610813122502 0.014714928161586163 0 0 0 0.0042733561682391855 -0.037040258733880282 0.0082973966203772065 0 0.0082973966203772065 0.002496588384760301 0 0 0 -0.0086359175872798843 0.063508986252788446 -0.015464061509658622 0 -0.015464061509658622 0.060834204111551493 0 0 0 0.031085797591084763 0.0056256989700986804 0.01084952938149215 0 0.01084952938149215 0.0010340860417471093 0 0 0 0.0016649462529614474 0.077271452179667244 -0.0095331574434618094 0 -0.0095331574434618094 0.04555023992144927 0 0 0 0.030705423025279129 -0.05559426022757942 0.0085533680145003163 0 0.0085533680145003163 1.2602094644764694e-06 0 0 0 -0.013898250004528732 -0.010306615172373884 -0.017363439549275814 0 -0.017363439549275814 0.027386374494756116 0 0 0 0.0042699398305955649 -0.029399659775728428 0.015138430574864629 0 0.015138430574864629 -0.00014329824778781114 0 0 0 -0.0073857395058790683 -0.073722554086666614 -0.0090833929711934269 0 -0.0090833929711934269 0.0018232624856473478 0 0 0 -0.017974822900254761 -0.06333524356505886 0.0076767553915259301 0 0.0076767553915259301 -0.00050802249377876994 0 0 0 -0.015960816514709396 -0.045610725904519152 0.0097876202148005631 0 0.0097876202148005631 0.0011610932329808067 0 0 0 -0.011112408167884585 -0.046129438004612333 0.039846224668792729 0 0.039846224668792729 0.0015774406468391788 0 0 0 -0.011137999339443372 0.013800269493868533 -0.014326119960847417 0 -0.014326119960847417 -0.0016930356470363228 0 0 0 0.0030268084617080526 0.0055284214566827007 -0.02152783408888008 0 -0.02152783408888008 -0.0073677315515056907 0 0 0 -0.00045982752370574489 -0.0048941938559722373 0.016069073615178051 0 0.016069073615178051 -0.0014831539738117943 0 0 0 -0.0015943369574460049 -0.00066618441845749327 0.01220497423070578 0 0.01220497423070578 0.00017410157163663849 0 0 0 -0.00012302071170521229 0.018955607720232876 -0.0010002125009949889 0 -0.0010002125009949889 0.019623713668678447 0 0 0 0.009644830347227823 0.048436574624640988 -0.028812492807556739 0 -0.028812492807556739 0.05360096152510678 0 0 0 0.025509384037436914 0.030922378695309713 -0.017626066457204242 0 -0.017626066457204242 0.022195150204067732 0 0 0 0.013279382224844385 0.012317519542271282 -0.014187757496550102 0 -0.014187757496550102 0.038814600835537227 0 0 0 0.012783030094452197 0.029393502986784004 -0.01349871851575056 0 -0.01349871851575056 0.02183140143033746 0 0 0 0.012806226104280366 0.079451899910315676 0.0085609265918045532 0 0.0085609265918045532 0.056949883911667221 0 0 0 0.034100445955495662 0.036280231019619552 -0.014604873512463923 0 -0.014604873512463923 0.031012063998776651 0 0 0 0.016823073754599016 -0.11260566021986165 0.0034876486109036613 0 0.0034876486109036613 0.00069296428298870616 0 0 0 -0.027978173984218258 -0.21335252336283234 -0.0078193524618087699 0 -0.0078193524618087699 0.0044231472942559691 0 0 0 -0.052232344017144106 0.072864744754340696 -0.0070829661712703273 0 -0.0070829661712703273 0.027719673842741266 0 0 0 0.025146104649270501 0.092944573402890585 0.011078360933807763 0 0.011078360933807763 0.069296702308245139 0 0 0 0.040560318927783973 -0.02982294261116452 0.011380905523854158 0 0.011380905523854158 0.0096978295709513052 0 0 0 -0.0050312782600533193 0.032545226058340225 0.007754257992697227 0 0.007754257992697227 0.0055050855823331815 0 0 0 0.0095125779101683482 0.02548068452446544 -0.019658801696383153 0 -0.019658801696383153 -0.0073522550574204801 0 0 0 0.0045321073667612434 0.039487540571717952 -0.010475892665497755 0 -0.010475892665497755 -0.012175285468435472 0 0 0 0.0068280637758206131 0.061450707815484104 -0.045450809898725589 0 -0.045450809898725589 0.097533568098123483 0 0 0 0.039746068978401911 -0.049604597895530123 0.0093137130780644676 0 0.0093137130780644676 -0.00062403121127794711 0 0 0 -0.012557157276702022 -0.038697508601970375 0.009885528955485905 0 0.009885528955485905 0.00061775443805189151 0 0 0 -0.0095199385409796208 -0.048418227763968327 -0.017275281877257437 0 -0.017275281877257437 0.00070375659958173825 0 0 0 -0.011928617791096654 -0.069945189736867544 -0.017409876073116906 0 -0.017409876073116906 -0.0030240579030383491 0 0 0 -0.018242311909976466 -0.10397592428598285 -0.0058612503064829078 0 -0.0058612503064829078 0.0019626826710903433 0 0 0 -0.025503310403723167 0.0535297236284068 0.068831454842181949 0 0.068831454842181949 0.098539033438293844 0 0 0 0.038017189266675133 0.063128412757550323 -0.012794227191660956 0 -0.012794227191660956 0.034970474948405883 0 0 0 0.024524721926489024 0.034812919636705089 0.0026609634010817951 0 0.0026609634010817951 0.0038922303375129481 0 0 0 0.0096762874935546056 -0.0027331009414819189 0.013614141948055696 0 0.013614141948055696 0.0012866007037031085 0 0 0 -0.00036162505944470347 0.015795797412880341 -0.00030399411007704311 0 -0.00030399411007704311 0.044489991553245262 0 0 0 0.015071447241531394 -0.037273290770995608 0.010318037816806531 0 0.010318037816806531 -0.00021436772928140613 0 0 0 -0.0093719146250692588 0.10437579485207771 0.027502229829630132 0 0.027502229829630132 0.030704928020770517 0 0 0 0.033770180718212028 0.024517211467835587 0.01213871776956078 0 0.01213871776956078 0.0046702989427188611 0 0 0 0.0072968776026386128 0.038566429229214313 -0.012532969973647556 0 -0.012532969973647556 0.0046113599606118078 0 0 0 0.010794447297456586 0.11847672361197123 -0.063064423390202948 0 -0.063064423390202948 0.078991312322010468 0 0 0 0.049367008983495456 -0.1844907120289655 0.014569950607467019 0 0.014569950607467019 0.0034326536237760941 0 0 0 -0.045264514601297212 0.040976390146138374 0.0033719372099006118 0 0.0033719372099006118 0.0023503711948032698 0 0 0 0.01083169033523541 -0.012223563928922581 0.012763891501927766 0 0.012763891501927766 -0.0011235959022215247 0 0 0 -0.0033367899577860273 -0.0045932289936967824 -0.017294041105907515 0 -0.017294041105907515 -0.0027006416474703102 0 0 0 -0.0018234676602917749 0.043310714466322571 0.013438419771828736 0 0.013438419771828736 0.015993025164191502 0 0 0 0.014825934907628534 -0.071997104007353374 0.0079804763525328642 0 0.0079804763525328642 0.0025355386827894399 0 0 0 -0.017365391331140984 -0.12327871875313934 -0.01909987783602396 0 -0.01909987783602396 0.0082678688866757444 0 0 0 -0.028752712466615891 0.1049655973533814 0.015104249763219224 0 0.015104249763219224 0.06987053815923705 0 0 0 0.043709033878154724 -0.032079291041349212 -0.0097283788169904017 0 -0.0097283788169904017 -0.0010482307283230519 0 0 0 -0.0082818804424180659 0.071280410193674759 0.0053426015138171301 0 0.0053426015138171301 0.059042301931357011 0 0 0 0.032580678031257998 0.052435922750779441 -0.030164114657362205 0 -0.030164114657362205 0.012578682918068768 0 0 0 0.016253651417212064 0.062075689178805848 0.0061622892957672176 0 0.0061622892957672176 0.027929281537341755 0 0 0 0.022501242679036915 0.033166986790848889 0.01020632499970126 0 0.01020632499970126 0.0095717503018047448 0 0 0 0.010684684273163408 0.039902119120423088 -0.00087276779505585838 0 -0.00087276779505585838 0.0005675889209761616 0 0 0 0.010117427010349813 0.0070252301362133639 0.011116767261350684 0 0.011116767261350684 0.0053713835716743402 0 0 0 0.0030991534269719286 0.042037624385810893 -0.018225681914547359 0 -0.018225681914547359 0.12083428534008886 0 0 0 0.040717977431474935 0.040547550062981053 -0.018462363853441938 0 -0.018462363853441938 0.11228298463439229 0 0 0 0.03820763367434335 -0.014478749533386348 -0.017934448850697393 0 -0.017934448850697393 0.0022155791509546052 0 0 0 -0.003065792595607908 -0.020130742670269708 -0.018939319297031465 0 -0.018939319297031465 0.002038240731098151 0 0 0 -0.0045231254847929447 0.07098162301095523 0.026622166255084956 0 0.026622166255084956 0.037080156580556078 0 0 0 0.027015444897877883 0.084010075497748637 0.02788177760912447 0 0.02788177760912447 0.039347910881787129 0 0 0 0.030839496594884164 0.070146981260466257 0.034342505427056816 0 0.034342505427056816 0.018546998034902451 0 0 0 0.022173494823842121 0.10709349792856981 0.030239462668111394 0 0.030239462668111394 0.025839503375278738 0 0 0 0.033233250325962249 0.03332661068918967 0.0074194668306276504 0 0.0074194668306276504 0.011107543832884315 0 0 0 0.011108538630518498 0.079679362253885694 0.005081053110524647 0 0.005081053110524647 0.077908466904918539 0 0 0 0.039396957289701134 0.069211607667193573 0.0081817246992237636 0 0.0081817246992237636 0.048286466661256744 0 0 0 0.029374518582112694 -0.062219435603907081 -0.010007103112939342 0 -0.010007103112939342 0.001681564512329814 0 0 0 -0.015134467772894289 -0.071468850810686768 -0.0036261150874600245 0 -0.0036261150874600245 0.00070114914411406604 0 0 0 -0.017691925416643106 -0.1190902143765995 0.0098417821391518778 0 0.0098417821391518778 0.0011287340634020815 0 0 0 -0.029490370078299355 0.064907178185500999 0.023764022797359854 0 0.023764022797359854 0.030338328652158367 0 0 0 0.023811376709414828 0.0675115397439775 0.025020760627987072 0 0.025020760627987072 0.036585712693064626 0 0 0 0.026024313109260538 0.040444875632702611 0.0083965189097741626 0 0.0083965189097741626 0.00095073933834430302 0 0 0 0.01034890374276172 0.031132120295372663 0.0094031513514394698 0 0.0094031513514394698 0.0032543964230383471 0 0 0 0.0085966291796027508 -0.09409852596040591 -0.018071000130342518 0 -0.018071000130342518 -0.0057099714221152884 0 0 0 -0.024952124345630322 -0.060108796918333256 0.0078014590325058211 0 0.0078014590325058211 -0.00079516462003004738 0 0 0 -0.015225990384590837 -0.04672916687209136 0.012968592258530375 0 0.012968592258530375 -0.00037283901634176803 0 0 0 -0.011775501472108287 0.12146378996049956 0.022870081973888068 0 0.022870081973888068 0.080691473077622256 0 0 0 0.050538815759530564 -0.032942937428431462 -0.0097742711590814713 0 -0.0097742711590814713 0.0042823998795165075 0 0 0 -0.0071651343872288775 0.034476718285139485 -0.0038583007502550355 0 -0.0038583007502550355 0.0029188860294693929 0 0 0 0.0093489010786522199 0.05761102952437927 -0.0045527853480062976 0 -0.0045527853480062976 -0.0065118461624828067 0 0 0 0.012774795840474109 -0.025705030624463554 -0.016747901152291633 0 -0.016747901152291633 0.0047690656986258961 0 0 0 -0.0052339912314594006 0.0092968086720511232 -0.025121559306286279 0 -0.025121559306286279 -0.0025699363923871394 0 0 0 0.0016817180699159971 0.019301732509594112 -0.0041848495129416796 0 -0.0041848495129416796 0.026612192974735903 0 0 0 0.01147848137108249 0.070498289109337878 0.016206806059774308 0 0.016206806059774308 0.015708177989894323 0 0 0 0.021551616774808081 -0.031500330013276054 0.040239077820633185 0 0.040239077820633185 0.0044291404231683318 0 0 0 -0.0067677973975270173 -0.059001200696307474 0.0036401594204923948 0 0.0036401594204923948 0.0050160004941937619 0 0 0 -0.013496300050528418 -0.10261548297642448 -0.0057178529058238628 0 -0.0057178529058238628 0.012545130529552972 0 0 0 -0.022517588111717945 0.026036661849404175 -0.00074507530450190762 0 -0.00074507530450190762 -0.014266742290210299 0 0 0 0.0029424798897983995 0.034355245179599758 0.0075368210648619205 0 0.0075368210648619205 -0.016264676498563668 0 0 0 0.0045226421702589947 -0.034137063518880698 0.0141781173415651 0 0.0141781173415651 0.0012981241371866521 0 0 0 -0.0082097348454235192 -0.021594040519426125 0.012082615974621383 0 0.012082615974621383 0.00025121087210141363 0 0 0 -0.0053357074118311866 0.01979451468159828 0.0039861756673746267 0 0.0039861756673746267 0.016712007795590136 0 0 0 0.0091266306192971016 -0.063550522706123311 0.012550026202049296 0 0.012550026202049296 0.0030672833671366168 0 0 0 -0.015120809834746663 -0.044089344459489289 -0.026144084179820275 0 -0.026144084179820275 -0.007885372801055314 0 0 0 -0.012993679315136154 0.023018340213952628 -0.0037110337857665376 0 -0.0037110337857665376 -0.071510995461678148 0 0 0 -0.012123163811931379 -0.010634261567827319 0.052153319027043843 0 0.052153319027043843 0.0073638927968633361 0 0 0 -0.00081759219274102346 0.029800755511100938 0.0093933295914199761 0 0.0093933295914199761 0.0099321134822214878 0 0 0 0.0099332172483306055 0.13676013272866383 0.01029178670384967 0 0.01029178670384967 0.067145046743501191 0 0 0 0.050976294868041339 0.10282495696968047 0.034437646842344335 0 0.034437646842344335 0.097287324774493644 0 0 0 0.050028070436043515 -0.093622134217792113 0.0082235288938866669 0 0.0082235288938866669 0.024027165487565352 0 0 0 -0.01739874218255668 0.07863124949065492 0.038987092365835058 0 0.038987092365835058 0.10430743814554908 0 0 0 0.045734671909050978 0.092929513700050509 0.031603306754765664 0 0.031603306754765664 0.068463966056906161 0 0 0 0.040348369939239168 -0.010905462483860595 0.013207228284705195 0 0.013207228284705195 0.0020405866430727136 0 0 0 -0.0022162189601969734 0.014854706053913563 0.0096530035831201583 0 0.0096530035831201583 0.0022067929502869975 0 0 0 0.0042653747510501367 -0.099438264363351903 0.036076350277896907 0 0.036076350277896907 0.012999061196192763 0 0 0 -0.021609800791789868 0.013024017975470946 -0.01032415634053422 0 -0.01032415634053422 0.055195887981314307 0 0 0 0.017054976489196315 0.057372668617374403 0.026752282549649412 0 0.026752282549649412 0.11367320494656827 0 0 0 0.042761468390985644 0.028219689809417803 -0.01866468460537675 0 -0.01866468460537675 0.0070188388843124838 0 0 0 0.00880963217343253 -0.081419614495057024 -0.0017848710781539212 0 -0.0017848710781539212 0.0025334149367502723 0 0 0 -0.019721549889576688 -0.14435739961795943 0.0051051770888385639 0 0.0051051770888385639 0.010330325290445641 0 0 0 -0.03350676858187851 -0.039720336610132745 0.017808851178687801 0 0.017808851178687801 0.001386824576755874 0 0 0 -0.009583378008344412 0.055917342291765815 -0.017910841828093438 0 -0.017910841828093438 0.035711935452538812 0 0 0 0.022907319436076046 0.026567024781461612 -0.015989451185938419 0 -0.015989451185938419 0.023486241943791342 0 0 0 0.012513316681313252 0.080599244622103508 0.017705417353631365 0 0.017705417353631365 0.018174823589896819 0 0 0 0.024693517053000085 -0.031329840152575852 -0.027145680983216097 0 -0.027145680983216097 -0.011229421558917423 0 0 0 -0.010639815427873322 -0.054795751990102129 0.0095914137847291463 0 0.0095914137847291463 0.0022973867187018396 0 0 0 -0.013124591317850093 -0.072916075759382817 -0.015405974514145354 0 -0.015405974514145354 0.0063643369435744598 0 0 0 -0.01663793470395207 0.032200032574325091 -0.016053188870047405 0 -0.016053188870047405 0.044592761874590936 0 0 0 0.019198198612229017 -0.031012893433772622 0.0079073078102958466 0 0.0079073078102958466 0.0039304493509157573 0 0 0 -0.0067706110207142074 0.03580860910069246 0.0079850933131677231 0 0.0079850933131677231 0.091925323580079044 0 0 0 0.031933483170192872 0.038113756132378232 -0.0012171383919650628 0 -0.0012171383919650628 0.012706981109580873 0 0 0 0.012705184310489779 0.033865462749089942 -0.016282619278822186 0 -0.016282619278822186 0.023441943309078561 0 0 0 0.014326851514542133 -0.077876909025181601 0.0034895289374300906 0 0.0034895289374300906 0.0031049842115714946 0 0 0 -0.018692981203402514 -0.13549879025134415 -0.010787604197414286 0 -0.010787604197414286 0.0061187129344003055 0 0 0 -0.032345019329235995 -0.062462305098068494 -0.015928832569979234 0 -0.015928832569979234 0.0058669003646478896 0 0 0 -0.014148851183355068 0.0074764634301210942 -0.014663880710713201 0 -0.014663880710713201 0.029851414080772742 0 0 0 0.0093319693777234869 0.019996180020783183 -0.0077305037132900239 0 -0.0077305037132900239 0.056692765969123038 0 0 0 0.019172236497476569 -0.0077627573485966068 0.0097603471854000971 0 0.0097603471854000971 0.0043824764140870786 0 0 0 -0.00084507023362738638 0.026956652343893328 -0.017148723795942414 0 -0.017148723795942414 0.0096045720920181488 0 0 0 0.0091403061089778692 -0.030187960057499262 -0.014979638396788508 0 -0.014979638396788508 0.0026527131329337414 0 0 0 -0.006883811731141519 -0.020885308911444883 0.010611018061232932 0 0.010611018061232932 0.0046171159864840869 0 0 0 -0.004067048231240186 0.032097496014289004 -0.017116795661655276 0 -0.017116795661655276 0.0069734436954528856 0 0 0 0.0097677349274355035 0.041515286675565463 -0.0032095983315110453 0 -0.0032095983315110453 -0.0037256465301634296 0 0 0 0.0094474100363505075 -0.083438672275003678 0.002445419226531742 0 0.002445419226531742 0.0024692989332488202 0 0 0 -0.020242343335438728 -0.15202169299621704 -0.0050611572767083612 0 -0.0050611572767083612 0.003673197624932123 0 0 0 -0.037087123842821146 -0.046922127904562128 -0.0057548652874639394 0 -0.0057548652874639394 -0.00090832221356845766 0 0 0 -0.011957612529532702 0.12361842525640293 0.011942797190473975 0 0.011942797190473975 0.085921180467307123 0 0 0 0.052384901430927389 0.11526899258435952 0.022744860563781222 0 0.022744860563781222 0.065632491165250162 0 0 0 0.045225370937402642 -0.04552977065656294 -0.0053579967055737594 0 -0.0053579967055737594 0.00021347852843334181 0 0 0 -0.011329073032032344 0.14817252868264408 0.0083388611764426378 0 0.0083388611764426378 0.11280435672883993 0 0 0 0.065244221352871001 0.07562313562762582 -0.012254943243106945 0 -0.012254943243106945 0.01660054366051722 0 0 0 0.023055919822035809 0.015611708940047681 -0.017933847992025603 0 -0.017933847992025603 0.019267254371659881 0 0 0 0.0087197408279268696 0.1289010987796595 -0.011246370375280573 0 -0.011246370375280573 0.08745978913435426 0 0 0 0.054090221978503439 0.20280640325972826 0.010824715105957894 0 0.010824715105957894 0.15989605982668309 0 0 0 0.09067561577160288 -0.068631126666540809 -0.023126422798947166 0 -0.023126422798947166 0.025225876574642481 0 0 0 -0.01085131252297461 -0.015599107887096581 0.012175390118685261 0 0.012175390118685261 0.001978844400458632 0 0 0 -0.003405065871659483 0.042654681746077505 0.0099708365365747623 0 0.0099708365365747623 0.0035570166867580711 0 0 0 0.011552924608208892 -0.040173816576683175 0.03240792454218433 0 0.03240792454218433 -0.0010120769094648097 0 0 0 -0.010296473371536718 0.056114682028217788 -0.019451123263308723 0 -0.019451123263308723 0.019510924166571297 0 0 0 0.01890640154869716 0.041509779201405916 0.00081043453821111073 0 0.00081043453821111073 0.0041148568565629855 0 0 0 0.011406159014492226 -0.010549175426717669 0.0094129504886534474 0 0.0094129504886534474 0.013897266185087975 0 0 0 0.00083702268959257118 0.14623574278186147 0.013221376997860277 0 0.013221376997860277 0.067519240273853143 0 0 0 0.053438745763928486 0.026803057067694383 -0.015550089601571761 0 -0.015550089601571761 -0.0099256107824873957 0 0 0 0.0042193615713017468 0.062248482361769678 -0.0029467467849820794 0 -0.0029467467849820794 0.0061103321374375852 0 0 0 0.017089703624801791 0.066153693855550158 -0.0055388652487154133 0 -0.0055388652487154133 0.010571057584265794 0 0 0 0.019181187859953947 0.077186766279109975 -0.016400861690773205 0 -0.016400861690773205 0.043271760853822672 0 0 0 0.030114631783233092 0.093960226728152546 -0.0081434986473593041 0 -0.0081434986473593041 0.084587453545297508 0 0 0 0.044636920068362423 0.15301199367620363 0.0040648297277341428 0 0.0040648297277341428 0.15079186903185948 0 0 0 0.075950965677015841 0.12502175873375793 0.019211287488351603 0 0.019211287488351603 0.086598899224735515 0 0 0 0.052905164489623277 0.055084652032796527 0.021129368376935617 0 0.021129368376935617 0.034605480829470292 0 0 0 0.022422533215566687 0.074723097389169241 -0.021758157970424172 0 -0.021758157970424172 -0.0030235329282776724 0 0 0 0.017924891115222857 0.089882445932116861 -0.041647603819815811 0 -0.041647603819815811 0.04168581304375224 0 0 0 0.032892064743967296 -0.04133944649775953 -0.01591482243596043 0 -0.01591482243596043 0.003283780990550933 0 0 0 -0.0095139163768021839 -0.036622967953284701 0.011222953822519118 0 0.011222953822519118 0.0023934126390555981 0 0 0 -0.0085573888285572774 -0.022080809511019737 0.013482323287070167 0 0.013482323287070167 0.0033364877104228099 0 0 0 -0.0046860804501492256 -0.048057766631375301 0.012866924058593854 0 0.012866924058593854 0.053510403110952287 0 0 0 0.0013631591198942639 0.052523996692468378 -0.016481905203918901 0 -0.016481905203918901 0.031916839214837678 0 0 0 0.021110208976826528 0.092147152828568613 0.016841853556305242 0 0.016841853556305242 0.062808575712882453 0 0 0 0.03873893213536278 0.041603600118094913 0.011948586500813319 0 0.011948586500813319 0.0091940847832060364 0 0 0 0.01269942122532524 0.02575739584808745 -0.0029028091817190904 0 -0.0029028091817190904 -0.038317247449085379 0 0 0 -0.0031399629002494267 0.027227696763140217 0.0097101030322911432 0 0.0097101030322911432 0.0020209942062517222 0 0 0 0.0073121727423479908 0.03014538059930183 -0.017581623349628296 0 -0.017581623349628296 0.018275745035514768 0 0 0 0.012105281408704149 0.043219316114056716 0.00077405687481259971 0 0.00077405687481259971 -0.0050637293056049679 0 0 0 0.0095388967021129388 0.043269754335692356 0.037478306822677276 0 0.037478306822677276 0.0044382226643930878 0 0 0 0.011926994250021528 0.048612265200960014 0.034782552018755464 0 0.034782552018755464 0.01417134740439091 0 0 0 0.015695903151337787 -0.0023846988819405668 -0.023261499099302307 0 -0.023261499099302307 0.0077439986104885505 0 0 0 0.0013398249321370514 0.1154284919650507 -0.090540329878463208 0 -0.090540329878463208 0.15800106255366009 0 0 0 0.06835738862967769 0.039781739240709955 0.0025716799050281417 0 0.0025716799050281417 -0.00097550145697416352 0 0 0 0.0097015594459339497 -0.048209574905591468 -0.0099272107202749149 0 -0.0099272107202749149 0.0029697890594633236 0 0 0 -0.011309946461531939 0.00082652457819798464 -0.0016903420262859292 0 -0.0016903420262859292 0.0010980677618794843 0 0 0 0.00048114808501931172 0.23740707168364761 0.00061595427914040712 0 0.00061595427914040712 0.17502977378493423 0 0 0 0.10310921136714546 0.18845570514677168 -0.014106995516546483 0 -0.014106995516546483 0.15612444474875778 0 0 0 0.086145037473882149 0.11915656517815831 0.0059598509876530592 0 0.0059598509876530592 0.086573936836705556 0 0 0 0.0514326255037163 0.001371240014507169 0.0027040155903390707 0 0.0027040155903390707 0.0020267465736161228 0 0 0 0.00084949664703071193 0.0023907850529095802 -0.0012808868957931985 0 -0.0012808868957931985 0.0015203197623975503 0 0 0 0.00097777620382667155 0.14903010419390861 -0.0039604634946254292 0 -0.0039604634946254292 0.10089903927814792 0 0 0 0.062482285868014298 0.0041701977421131353 0.0020680017114003135 0 0.0020680017114003135 0.0024942842355120121 0 0 0 0.0016661204944061758 0.034963369115573177 0.0010159748635959946 0 0.0010159748635959946 0.0024955038445132359 0 0 0 0.0093647182400216043 0.035815357727070646 -0.016234070991004684 0 -0.016234070991004684 0.0043610177034460185 0 0 0 0.010044093857629194 -0.020798438299450116 0.012683389666822118 0 0.012683389666822118 0.0078497687098376123 0 0 0 -0.0032371673974031338 -0.022706596995748618 -0.021459979789098527 0 -0.021459979789098527 0.004638218163445007 0 0 0 -0.0045170947080759305 0.037626150492923852 -0.0077139674199847158 0 -0.0077139674199847158 -0.0082471756312584854 0 0 0 0.0073447437154163433 0.0061426295331024061 0.030052784529540411 0 0.030052784529540411 0.0066180220650133847 0 0 0 0.0031901628995287812 0.027324967082229645 -0.023208050782744016 0 -0.023208050782744016 0.012593025176019346 0 0 0 0.009979498064562331 0.073545862388790129 -0.013705706936732676 0 -0.013705706936732676 0.067477837652094363 0 0 0 0.035255925010221012 0.13145601609366742 0.010567587178375915 0 0.010567587178375915 0.12541035790452693 0 0 0 0.064216593499548669 0.043528403693181533 0.010185142124144342 0 0.010185142124144342 0.0569779067552868 0 0 0 0.02512657761211709 -0.016107689108297144 0.0060416152700170887 0 0.0060416152700170887 0.0073963728238391341 0 0 0 -0.0021778290711145024 0.033114481015954322 -0.013481536774410517 0 -0.013481536774410517 0.047306800823695316 0 0 0 0.020105320459912424 0.083447932050481066 0.010227718167414607 0 0.010227718167414607 0.091141979398558837 0 0 0 0.043647477862259976 0.016590790299165992 -0.02254925963136889 0 -0.02254925963136889 0.0084043427863380038 0 0 0 0.0062487832713759017 0.043686885753787694 0.0099515132297736796 0 0.0099515132297736796 0.0038991821607492483 0 0 0 0.011896516978634222 0.024648862421482898 -0.021770937875619123 0 -0.021770937875619123 0.020223089774079828 0 0 0 0.011217988048890515 0.0036567722942275616 0.024221519004803849 0 0.024221519004803849 0.0058771834987920712 0 0 0 0.0023834889482547972 0.064809168970444614 0.004409516998715779 0 0.004409516998715779 0.026518774497358732 0 0 0 0.022831985866950844 0.071966916760279748 0.0022402898748273004 0 0.0022402898748273004 0.028899808775165847 0 0 0 0.025216681383861433 0.0075670657656032175 0.011839912286931761 0 0.011839912286931761 0.0021710128426216529 0 0 0 0.0024345196520562176 0.0010430422446600744 0.000643360184520686 0 0.000643360184520686 0.037310386619529533 0 0 0 0.0095883572160474183 0.066814716554201847 -0.020406808098262702 0 -0.020406808098262702 0.020013981891633947 0 0 0 0.02170717461145899 0.037955395171252529 -0.017459114980977269 0 -0.017459114980977269 0.0048734167039799561 0 0 0 0.010707202968808156 0.10104475435050536 -0.015045763765750286 0 -0.015045763765750286 0.025033766292808401 0 0 0 0.031519630160828427 0.077189924491959772 0.0064491204558599358 0 0.0064491204558599358 0.061537795256234484 0 0 0 0.03468192993704855 0.067290796749706949 0.0078025732690133465 0 0.0078025732690133465 0.032028159381949473 0 0 0 0.024829739032914078 -0.026383071785351493 0.012331917423610615 0 0.012331917423610615 0.0011745198000316717 0 0 0 -0.0063021379963299606 0.018983681115481356 -0.0047946404565436017 0 -0.0047946404565436017 0.042891913990741874 0 0 0 0.015468898776555813 0.020125324361086844 -0.0029771870457321846 0 -0.0029771870457321846 0.0522183757072835 0 0 0 0.018085925017092597 0.10720294156103086 0.05934005767110255 0 0.05934005767110255 0.17717162309283727 0 0 0 0.071093641163467031 0.057188252336304042 -0.017586098400159719 0 -0.017586098400159719 0.20357135571101456 0 0 0 0.065189902011829642 0.14288981186331084 0.011818938105642935 0 0.011818938105642935 0.084717040914671138 0 0 0 0.056901713194495773 0.051247612046159526 0.023001747336464456 0 0.023001747336464456 0.045851420904677337 0 0 0 0.0242747582377092 -0.061235726846919247 -0.0068286580743076516 0 -0.0068286580743076516 0.0027116689651238701 0 0 0 -0.014631014470448678 0.0070711300999603665 0.011672356168390192 0 0.011672356168390192 0.00076323385385317077 0 0 0 0.0019585909884533882 -0.025222502040826947 -0.019888202940197455 0 -0.019888202940197455 -0.0046812767412839351 0 0 0 -0.007475944695527717 -0.026122261130495088 0.011741599097294457 0 0.011741599097294457 -0.00087351899439315484 0 0 0 -0.0067489450312220624 0.056810074240487472 0.0014047266138062144 0 0.0014047266138062144 -0.0081980222107089461 0 0 0 0.012153013007444641 -0.039883659966747885 0.0037655112221126425 0 0.0037655112221126425 0.0023010736368229349 0 0 0 -0.0093956465824812374 -0.038285819440007085 0.0046122405850986441 0 0.0046122405850986441 -0.0053125169294085256 0 0 0 -0.010899584092353899 -0.051139485685301314 -0.0073713380881122378 0 -0.0073713380881122378 0.0040337362728823725 0 0 0 -0.011776437353104735 -0.049492332997064126 -0.0086585299943959561 0 -0.0086585299943959561 -0.0061221155333711433 0 0 0 -0.013903612132608817 -0.0085876682189210407 -0.013310398937791179 0 -0.013310398937791179 0.0213751977535305 0 0 0 0.0031968823836523719 0.045426480562406599 0.0027546196742525304 0 0.0027546196742525304 0.00076778968041617854 0 0 0 0.011548567560705689 0.12683918485995904 0.022696216129936886 0 0.022696216129936886 0.029120728566013776 0 0 0 0.038989978356493094 0.047099640063913983 -0.0042928509123328351 0 -0.0042928509123328351 0.0701077414149337 0 0 0 0.029301845369711921 0.063416875163420566 0.03130610416929528 0 0.03130610416929528 0.069440549177551075 0 0 0 0.033214356085242917 0.017986851595344161 -0.025786951534605355 0 -0.025786951534605355 0.02982620214164089 0 0 0 0.011953263434246297 0.008526130063939456 0.0042892613821567949 0 0.0042892613821567949 -0.0052214927842872197 0 0 0 0.00082615931991239283 0.068023206431974778 0.0048696683820770303 0 0.0048696683820770303 0.022747595626501915 0 0 0 0.02269270051461934 0.10690880589636811 -0.01009669358941423 0 -0.01009669358941423 0.048107699815527726 0 0 0 0.038754126427973851 0.0046952793716308512 -0.0030609333239670633 0 -0.0030609333239670633 -0.0038708376378091022 0 0 0 0.00020611043345543725 0.036381110848751078 -0.008791685478761968 0 -0.008791685478761968 0.014135818090371371 0 0 0 0.012629232234780643 0.059061961929050999 0.0044685246870836137 0 0.0044685246870836137 0.026630649467825895 0 0 0 0.02142315284921914 -0.0372155400492084 0.0031598141089844373 0 0.0031598141089844373 -0.012382190896611309 0 0 0 -0.01239943273645493 -0.0475169463122238 -0.006798791763519399 0 -0.006798791763519399 -0.015808269070703616 0 0 0 -0.015831303845731851 -0.049523080785584234 -0.0051637022979355834 0 -0.0051637022979355834 -0.0061236980262369956 0 0 0 -0.013911694702955309 -0.039113641974851836 0.0020468226571690321 0 0.0020468226571690321 -0.0051416958220006827 0 0 0 -0.01106383444921313 0.018576896446361735 -0.02670176339329422 0 -0.02670176339329422 0.011601621239907489 0 0 0 0.007544629421567417 0.007170242368400327 0.011774713178470737 0 0.011774713178470737 0.003692808958288378 0 0 0 0.0027157628316721765 0.034034437709815513 -0.018190421028312496 0 -0.018190421028312496 0.011114375185866443 0 0 0 0.011287203223920489 0.039190036295180142 -0.0165362367764635 0 -0.0165362367764635 0.0051399209742436502 0 0 0 0.01108248931735592 0.016460524674016541 0.010313156885542588 0 0.010313156885542588 0.0064306697262803414 0 0 0 0.0057227986000742206 0.033988201554371128 0.008883381928664856 0 0.008883381928664856 0.0025630589349821056 0 0 0 0.0091378151223383015 0.033817916706712033 0.010471932162131634 0 0.010471932162131634 0.0021661248249946197 0 0 0 0.0089960103829266631 0.0373953354755132 -0.040185697257097822 0 -0.040185697257097822 0.12957162930301064 0 0 0 0.041741741194630963 0.10169051281261816 -0.011134831789974688 0 -0.011134831789974688 0.36768992179868903 0 0 0 0.1173451086528268 -0.024695623738980467 -0.0063644286974280373 0 -0.0063644286974280373 0.014255520945801334 0 0 0 -0.0026100256982947781 0.072623585703947502 0.0053801591474886626 0 0.0053801591474886626 0.051410717408402751 0 0 0 0.031008575778087522 0.031631804198645308 -0.015009787770946248 0 -0.015009787770946248 0.031047763352454405 0 0 0 0.015669891887774984 0.037103136319949229 0.010099012027706824 0 0.010099012027706824 0.010134127413619604 0 0 0 0.01180931593339221 0.11212185906389571 0.018419650052531988 0 0.018419650052531988 0.067660187609324129 0 0 0 0.044945511668305294 -0.026965078709008994 -0.011658152084311757 0 -0.011658152084311757 0.0021042671717848016 0 0 0 -0.0062152028843061036 0.073390630113010169 -0.0234527065367892 0 -0.0234527065367892 0.059124901514725381 0 0 0 0.033128882906933915 0.073948930668029406 -0.002552517331569637 0 -0.002552517331569637 0.018473525330451823 0 0 0 0.023105613999620335 -0.020945757801172027 0.02201567582241859 0 0.02201567582241859 0.0055099998930066008 0 0 0 -0.003858939477041412 0.041305542836625575 -0.021429420550805434 0 -0.021429420550805434 0.03184193441019012 0 0 0 0.018286869311703979 0.041685544294635224 -0.019333964274020177 0 -0.019333964274020177 0.024195140573906926 0 0 0 0.016470171217135454 0.028225627721092883 -0.0079813504559776705 0 -0.0079813504559776705 0.0043136783722448335 0 0 0 0.0081348265233344152 0.086864399646667756 0.008425375022280468 0 0.008425375022280468 0.075282764519024103 0 0 0 0.040536791041422937 0.040964574915218821 -0.015047378272303555 0 -0.015047378272303555 -0.0098904272779902387 0 0 0 0.0077685369093071534 0.032051518009742902 0.0027768501698387515 0 0.0027768501698387515 -0.010514376611429399 0 0 0 0.0053842853495783272 -0.00011655228191167523 0.013956592116129186 0 0.013956592116129186 0.00024586716194094707 0 0 0 3.2328720007320996e-05 0.0074386108286159866 0.013425995446779346 0 0.013425995446779346 0.00027065071176613636 0 0 0 0.0019273153850955238 0.020285414767149557 0.00063483430735601122 0 0.00063483430735601122 0.031481200240185817 0 0 0 0.012941653751833846 -0.0015934577455127275 -0.0094257426080317647 0 -0.0094257426080317647 0.035578682906907133 0 0 0 0.008496306290348643 0.020052674405189042 0.0089809346233520326 0 0.0089809346233520326 0.0010596841107876065 0 0 0 0.0052780896289941655 0.023552319791937604 0.011005531313097564 0 0.011005531313097564 0.0076076086996678116 0 0 0 0.0077899821229013601 0.020705609718671324 0.0095215903178266156 0 0.0095215903178266156 0.0054046740420144526 0 0 0 0.0065275709401714441 0.037386601007733833 -0.0063629565167127589 0 -0.0063629565167127589 -0.01906621778855988 0 0 0 0.0045800958047934603 0.046202698331610392 -0.0065527925188845204 0 -0.0065527925188845204 0.014257868539200524 0 0 0 0.015115141717702785 0.073816803197514838 0.0038222709980334502 0 0.0038222709980334502 0.037320170587849616 0 0 0 0.027784243446341186 0.062061731415773702 0.0053523368911522207 0 0.0053523368911522207 -0.0028152181235664431 0 0 0 0.014811628323051773 0.073294675492551406 -0.039406534559160059 0 -0.039406534559160059 0.12930871254720644 0 0 0 0.050650847009939451 0.10103238952157989 0.0090582847316136306 0 0.0090582847316136306 0.057818702706898151 0 0 0 0.039712773057119843 0.0041699160658923429 -0.0067187035011029295 0 -0.0067187035011029295 -0.001534802362864518 0 0 0 0.00065877842575701173 0.064007151672602736 -0.0090472525937257409 0 -0.0090472525937257409 0.029711458604780194 0 0 0 0.023429652569345816 0.007394948782865729 0.0094441605274075968 0 0.0094441605274075968 -7.7275371335172593e-05 0 0 0 0.0018294183528826391 -0.023880914433165312 0.029107686915019998 0 0.029107686915019998 0.00099465262226683393 0 0 0 -0.0057215654527245086 0.037377039136213597 -0.023352185591900471 0 -0.023352185591900471 0.019138778688355007 0 0 0 0.01412895445614204 0.038281886087285666 -0.021994018356695455 0 -0.021994018356695455 0.015060424678142947 0 0 0 0.013335577691357181 0.023792578151614775 -0.0011888365251044569 0 -0.0011888365251044569 0.042767358293677789 0 0 0 0.016639984111323159 0.070447163465554574 0.00039655976876667998 0 0.00039655976876667998 0.044268589740132924 0 0 0 0.028678938301421653 0.01097577047864462 -0.0055679078161297024 0 -0.0055679078161297024 -0.00026253969904121988 0 0 0 0.0026783076949006279 0.017618421459263178 0.0081354249032252746 0 0.0081354249032252746 0.00091564237400199033 0 0 0 0.0046335159583166252 0.043214694228765893 -0.0025249193060519204 0 -0.0025249193060519204 0.019061276390858417 0 0 0 0.0155689926549063 0.03101252073260985 -0.0063109066408670866 0 -0.0063109066408670866 0.0013944811916535294 0 0 0 0.0081017504810658725 0.07433129818523744 -0.025829910882409435 0 -0.025829910882409435 0.009126704056566709 0 0 0 0.020864500560451041 0.10917931549505283 -0.01615377393501316 0 -0.01615377393501316 0.085951238678210029 0 0 0 0.048782638543315715 0.17101494348681184 0.017859204747642021 0 0.017859204747642021 0.15810272393017755 0 0 0 0.082279416854247445 0.038762610188355945 0.0096237084360530148 0 0.0096237084360530148 0.0012787671370683706 0 0 0 0.010010344331356072 -0.05852305021031956 0.032165396245551148 0 0.032165396245551148 0.0027123115202964954 0 0 0 -0.013952684672505544 -0.04745014704004169 0.026096003416748295 0 0.026096003416748295 0.0015420572067910143 0 0 0 -0.01147702245831228 0.029818992534407535 -0.0077268162888380343 0 -0.0077268162888380343 0.0011729430342494462 0 0 0 0.0077479838921642192 0.02323393850520063 0.0038190672453586663 0 0.0038190672453586663 0.016381980188726546 0 0 0 0.0099039796734817914 0.029969508211757 -0.016880648623858518 0 -0.016880648623858518 0.0094811687360854338 0 0 0 0.0098626692369606014 0.038878437079479113 -0.021984809269988775 0 -0.021984809269988775 0.022853589713067592 0 0 0 0.015433006698136693 -0.0092395268752714088 0.026250264270756829 0 0.026250264270756829 0.0017923494336864465 0 0 0 -0.0018617943603960185 0.027021694934797669 -0.020480683213580625 0 -0.020480683213580625 0.018332276203952613 0 0 0 0.01133849278468757 0.023740044676214045 -0.026224421055481839 0 -0.026224421055481839 0.013169011244925199 0 0 0 0.0092272639802849499 -0.040127696640945607 0.011928372530117203 0 0.011928372530117203 -0.0012929911769811731 0 0 0 -0.010355171954481698 -0.051722480877690102 -0.021129837715901011 0 -0.021129837715901011 -0.0051481167682712395 0 0 0 -0.014217649411490323 -0.044033867685133336 -0.021114530972938403 0 -0.021114530972938403 0.0015510364615706901 0 0 0 -0.010620707805890646 -0.036714798903880318 0.01103918797855203 0 0.01103918797855203 0.0013110817532882603 0 0 0 -0.0088509292876480187 0.02272891715874803 0.0016383788371051953 0 0.0016383788371051953 0.021599492502496598 0 0 0 0.011082102415311157 -0.053952310350177113 0.020907295590815611 0 0.020907295590815611 7.1188985542036676e-05 0 0 0 -0.013470280341158603 0.051839604568455599 -0.017672498819022775 0 -0.017672498819022775 0.029441877967114394 0 0 0 0.020320370633892249 0.048196766413377445 -0.021933121983751636 0 -0.021933121983751636 0.02215963019462075 0 0 0 0.017589099151999577 -0.020681561690085337 -0.024754002788255569 0 -0.024754002788255569 0.0083923859171005921 0 0 0 -0.0030722939432461516 0.032541319439663235 -0.009323443306938739 0 -0.009323443306938739 0.0051308140701136762 0 0 0 0.0094180333774442626 0.049779234639788589 -0.022535381291144005 0 -0.022535381291144005 -0.004980854481131284 0 0 0 0.011199595039664324 0.023388593707900626 -0.0016042891775298442 0 -0.0016042891775298442 0.015164058401430907 0 0 0 0.0096381630273328842 -0.026239246498666883 0.015075795244290934 0 0.015075795244290934 -0.0005577457372950706 0 0 0 -0.0066992480589904944 -0.044985826767300369 0.050091655801934643 0 0.050091655801934643 0.016745880389531731 0 0 0 -0.007059986594442208 -0.030104450184056275 -0.022367925075650219 0 -0.022367925075650219 0.010092632366229592 0 0 0 -0.0050029544544566429 0.071876445761658025 0.022128405072169954 0 0.022128405072169954 0.034665523003266918 0 0 0 0.02663549219123168 -0.014291310625251505 -0.016340804098257333 0 -0.016340804098257333 0.00064210439877741832 0 0 0 -0.0034123015566184661 0.07025925600495575 0.046540702795851319 0 0.046540702795851319 0.0099937062544603883 0 0 0 0.020063240564853979 -0.02253339342801193 0.011374618733828661 0 0.011374618733828661 0.0023572324954477968 0 0 0 -0.0050440402331410374 0.020740537296253605 0.0062043536942885322 0 0.0062043536942885322 0.011540544951566976 0 0 0 0.0080702705619551431 -0.019302389322681024 -0.018863116695972404 0 -0.018863116695972404 0.0045220603938573856 0 0 0 -0.0036950822322059373 0.089510629887860599 -0.0030996189631189441 0 -0.0030996189631189441 0.049738456232263847 0 0 0 0.034812271530031115 0.14183277523880722 0.00056379845682658081 0 0.00056379845682658081 0.096176551123688947 0 0 0 0.059502331590624125 0.022676691377704523 0.0068368680499269266 0 0.0068368680499269266 0.0054731282664372289 0 0 0 0.0070374549110354279 0.00628790805655699 0.0032594604348239464 0 0.0032594604348239464 0.0015949887277972863 0 0 0 0.0019707241960889021 0.0014523418695517876 0.0063684036267486199 0 0.0063684036267486199 0.00053777766069806887 0 0 0 0.0004975298825629082 0.080581641486966449 0.00017090890927784486 0 0.00017090890927784486 0.046364461788995115 0 0 0 0.031736525818990557 0.094297362276679841 -0.0083642946699858944 0 -0.0083642946699858944 0.049412026420886157 0 0 0 0.035927347174391278 0.14536835365203249 0.010709991079709269 0 0.010709991079709269 0.093184443243186976 0 0 0 0.059638199223804644 0.0039583438507446722 -0.002161955299395002 0 -0.002161955299395002 0.00073236761279904528 0 0 0 0.0011726778658860404 0.13069424677683594 -0.0075738154612516873 0 -0.0075738154612516873 0.09150376323264453 0 0 0 0.055549502502370451 -0.00015188666938836803 -0.0045121575492126365 0 -0.0045121575492126365 -0.0002167348910750988 0 0 0 -9.2155390115644664e-05 0.035828363891581505 -0.0048493713670176297 0 -0.0048493713670176297 0.0034417118247471734 0 0 0 0.0098175189290822806 0.032428009429163129 -0.014630707197103245 0 -0.014630707197103245 0.019447941310909433 0 0 0 0.012968987685018141 0.027896040794310906 -0.015938606229436394 0 -0.015938606229436394 0.017373844477304834 0 0 0 0.011317471317903949 0.024817883874818196 -0.0052247767280070301 0 -0.0052247767280070301 -0.00047095933376764543 0 0 0 0.0060867311352626949 0.028464935386262102 -0.0099499786115014865 0 -0.0099499786115014865 0.0023822274525183706 0 0 0 0.0077117907096952432 0.052794184479166839 0.027056880065626142 0 0.027056880065626142 0.09839366136701086 0 0 0 0.037796961461544418 0.01771804562884487 -0.025135107386883657 0 -0.025135107386883657 0.0099425370286772181 0 0 0 0.0069151456643805238 0.01529292067287661 -0.034516522647182503 0 -0.034516522647182503 0.0043469019277399962 0 0 0 0.0049099556501541533 -0.0085910588239237699 0.0093091778199982569 0 0.0093091778199982569 0.0058243354341993014 0 0 0 -0.00069168084743112014 -0.054465348162886396 0.030170594011711516 0 0.030170594011711516 0.0050201975618295869 0 0 0 -0.01236128765026423 -0.034078311637645964 0.047330239959450959 0 0.047330239959450959 0.039258341701047694 0 0 0 0.0012950075158504326 0.057426078239126835 0.026292846371205422 0 0.026292846371205422 0.063650340201138245 0 0 0 0.030269104610066253 0.061837084419134214 0.0074146352245140993 0 0.0074146352245140993 0.034600587968951935 0 0 0 0.024109418097021551 0.074665652396823268 0.0096137306040510115 0 0.0096137306040510115 0.038756755133577903 0 0 0 0.028355601882600279 0.084397839162705351 0.033925543610337637 0 0.033925543610337637 0.065560152597293669 0 0 0 0.037489497939999769 -0.027700059846773928 -0.020163747586160907 0 -0.020163747586160907 0.017614643009175202 0 0 0 -0.0025213542093996399 -0.038420573990331858 -0.012020915076155103 0 -0.012020915076155103 0.0014373165652377118 0 0 0 -0.0092458143562735018 0.054837611815673114 0.023326683583831727 0 0.023326683583831727 0.046883636317448185 0 0 0 0.025430312033280326 0.071788624909192508 0.027243912337890169 0 0.027243912337890169 0.03785838506327048 0 0 0 0.027411752493115712 0.024100595752416715 -0.016878134047048077 0 -0.016878134047048077 0.027721691608833976 0 0 0 0.012955571840312735 0.02172416331278982 0.0013689654540424727 0 0.0013689654540424727 0.012936593114286424 0 0 0 0.0086651891067690556 0.023700554090663399 0.0031094819719713349 0 0.0031094819719713349 0.021384433010120954 0 0 0 0.01127124677519609 0.027179260752657097 0.0026125584217330396 0 0.0026125584217330396 0.034714106979831828 0 0 0 0.01547334193312222 0.1292830544035044 0.014462753075132895 0 0.014462753075132895 0.11736217032478757 0 0 0 0.061661306182072995 -0.028913258576073853 -0.0050485366927366382 0 -0.0050485366927366382 0.0021525398024762055 0 0 0 -0.0066901796933995783 -0.022851782487735148 0.01332654595746093 0 0.01332654595746093 0.0014728929818429888 0 0 0 -0.0053447223764730425 0.030131005924115797 0.009277119468137732 0 0.009277119468137732 0.0049240297027193167 0 0 0 0.0087637589067087775 0.13683011201280737 0.015492096631180008 0 0.015492096631180008 0.063268008139080179 0 0 0 0.050024530037971915 0.029380378309442901 -0.0048201200031547931 0 -0.0048201200031547931 0.0012922107547084227 0 0 0 0.0076681472660378169 0.0081741087101562249 -0.033978357678437134 0 -0.033978357678437134 -0.0014480960417460748 0 0 0 0.0016815031671025367 -0.020300133526002746 -0.028847413050102057 0 -0.028847413050102057 0.0014209781264491288 0 0 0 -0.0047197888498884 0.029609323408666316 -0.012070238688140889 0 -0.012070238688140889 0.044874912804546474 0 0 0 0.018621059053303163 
</DataArray>
<DataArray type="Float64" Name="cross_section_updated" format="ascii">
0.0010092745078662713 0.001023053035762499 0.001031735516658118 0.0010401056033364198 0.0010489348176113363 0.0010587045794743677 0.0010696517540026548 0.001081918180011694 0.0010959492174398735 0.0011123594181323838 0.0020328686458496881 0.0020852813004311045 0.0021218213198595276 0.0021556761711476143 0.0021897603811925543 0.002224754767328088 0.0022613203403079843 0.002299747499894905 0.0023407349996079616 0.0023856674079886634 1 1 1 1 1 1 1 1 1 1 1 1 1 1 1 1 1 1 1 1 1 1 1 1 1 1 1 1 1 1 1 1 1 1 1 1 1 1 1 1 1 1 1 1 1 1 1 1 1 1 1 1 1 1 1 1 1 1 1 1 1 1 1 1 1 1 1 1 1 1 1 1 1 1 1 1 1 1 1 1 1 1 1 1 1 1 1 1 1 1 1 1 1 1 1 1 1 1 1 1 1 1 1 1 1 1 1 1 1 1 1 1 1 1 1 1 1 1 1 1 1 1 1 1 1 1 1 1 1 1 1 1 1 1 1 1 1 1 1 1 1 1 1 1 1 1 1 1 1 1 1 1 1 1 1 1 1 1 1 1 1 1 1 1 1 1 1 1 1 1 1 1 1 1 1 1 1 1 1 1 1 1 1 1 1 1 1 1 1 1 1 1 1 1 1 1 1 1 1 1 1 1 1 1 1 1 1 1 1 1 1 1 1 1 1 1 1 1 1 1 1 1 1 1 1 1 1 1 1 1 1 1 1 1 1 1 1 1 1 1 1 1 1 1 1 1 1 1 1 1 1 1 1 1 1 1 1 1 1 1 1 1 1 1 1 1 1 1 1 1 1 1 1 1 1 1 1 1 1 1 1 1 1 1 1 1 1 1 1 1 1 1 1 1 1 1 1 1 1 1 1 1 1 1 1 1 1 1 1 1 1 1 1 1 1 1 1 1 1 1 1 1 1 1 1 1 1 1 1 1 1 1 1 1 1 1 1 1 1 1 1 1 1 1 1 1 1 1 1 1 1 1 1 1 1 1 1 1 1 1 1 1 1 1 1 1 1 1 1 1 1 1 1 1 1 1 1 1 1 1 1 1 1 1 1 1 1 1 1 1 1 1 1 1 1 1 1 1 1 1 1 1 1 1 1 1 1 1 1 1 1 1 1 1 1 1 1 1 1 1 1 1 1 1 1 1 1 1 1 1 1 1 1 1 1 1 1 1 1 1 1 1 1 1 1 1 1 1 1 1 1 1 1 1 1 1 1 1 1 1 1 1 1 1 1 1 1 1 1 1 1 1 1 1 1 1 1 1 1 1 1 1 1 1 1 1 1 1 1 1 1 1 1 1 1 1 1 1 1 1 1 1 1 1 1 1 1 1 1 1 1 1 1 1 1 1 1 1 1 1 1 1 1 1 1 1 1 1 1 1 1 1 1 1 1 1 1 1 1 1 1 1 1 1 1 1 1 1 1 1 1 1 1 1 1 1 1 1 1 1 1 1 1 1 1 1 1 1 1 1 1 1 1 1 1 1 1 1 1 1 1 1 1 1 1 1 1 1 1 1 1 1 1 1 1 1 1 1 1 1 1 1 1 1 1 1 1 1 1 1 1 1 1 1 1 1 1 1 1 1 1 1 1 1 1 1 1 1 1 1 1 1 1 1 1 1 1 1 1 1 1 1 1 1 1 1 1 1 1 1 1 1 1 1 1 1 1 1 1 1 1 1 1 1 1 1 1 1 1 1 1 1 1 1 1 1 1 1 1 1 1 1 1 1 1 1 1 1 1 1 1 1 1 1 1 1 1 1 1 1 1 1 1 1 1 1 1 1 1 1 1 1 1 1 1 1 1 1 1 1 1 1 1 1 1 1 1 1 1 1 1 1 1 1 1 1 1 1 1 1 1 1 1 1 1 1 1 1 1 1 1 1 1 1 1 1 1 1 1 1 1 1 1 1 1 1 1 1 1 1 1 1 1 1 1 1 1 1 1 1 1 1 1 1 1 1 1 1 1 1 1 1 1 1 1 1 1 1 1 1 1 1 1 1 1 1 1 1 1 1 1 1 1 1 1 1 1 1 1 1 1 1 1 1 1 1 1 1 1 1 1 1 1 1 1 1 1 1 1 1 1 1 1 1 1 1 1 1 1 1 1 1 1 1 1 1 1 1 1 1 1 1 1 1 1 1 1 1 1 1 1 1 1 1 1 1 1 1 1 1 1 1 1 1 1 1 1 1 1 1 1 1 1 1 1 1 1 1 1 1 1 1 1 1 1 1 1 1 1 1 1 1 1 1 1 1 1 1 1 1 1 1 1 1 1 1 1 1 1 1 1 1 1 1 1 1 1 1 1 1 1 1 1 1 1 1 1 1 1 1 1 1 1 1 1 1 1 1 1 1 1 1 1 1 1 1 1 1 1 1 1 1 1 1 1 1 1 1 1 1 1 1 1 1 1 1 1 1 1 1 1 1 1 1 1 1 1 1 1 1 1 1 1 1 1 1 1 1 1 1 1 1 1 1 1 1 1 1 1 1 1 1 1 1 1 1 1 1 1 1 1 1 1 1 
</DataArray>
<DataArray type="Float64" Name="displacement_divergence" format="ascii">
0.0093403370385257544 0.023070140891976832 0.031761183231441878 0.040132765966512093 0.048968536984441001 0.058747076529032827 0.06969856711292316 0.081994486711142053 0.095984545310066796 0.11264113433370328 0.017014843783687568 0.042605789665423673 0.061014257617663568 0.077905027312273764 0.09495590647218051 0.11246251925818679 0.1307319039996436 0.15004538750055266 0.17023794313768056 0.19396427149066564 2.5987134640388791e-05 3.9428138688595225e-05 2.8140783590329896e-05 2.7191589584423405e-05 -3.3420272447242733e-05 -2.5524910626243778e-05 -4.0927086822206891e-05 -2.9678949336503935e-05 -5.2594538174467316e-05 -9.0017173633260251e-05 2.810573176562629e-05 2.6272830993035551e-05 6.08970005406508e-06 1.5742895369751407e-05 4.3073518040857398e-06 1.9468078333339554e-05 0.00026310936249747424 1.4014221202800995e-05 2.4471078741174039e-05 2.9920596929903197e-05 1.406647164532487e-05 2.7410179814768391e-05 1.8373234149437817e-05 8.6605256100258013e-06 0.00022021168683719508 -0.00011276195095108281 -6.2526204321065469e-05 -5.6491301620645437e-06 7.6618744297155461e-06 -2.8339513914959349e-05 4.7523042275213087e-05 1.2181955378994338e-05 2.3071738051639061e-05 2.0370749837143789e-05 2.9318152618322893e-06 -1.0773413529803221e-05 7.3984026527629487e-05 -3.0008868950968026e-05 0.0002537491572633195 6.7718962253918396e-05 0.00012267589342260438 7.0068651847429502e-05 0.00010012396887843595 -1.3384002230613229e-06 1.7836039640817369e-05 1.2316500449524244e-05 3.4293568008895417e-05 2.9313873598869997e-05 0.00027426725586809063 -1.1978658739747699e-06 7.990930788467046e-05 3.1763720354234678e-05 5.5300557432945569e-05 3.0681356715923415e-05 5.3706548281899527e-05 -5.3894713612749915e-05 -2.1151287637201886e-06 0.00014908790744001983 0.00012041805099685561 -3.847441729107684e-07 3.1709038076081341e-05 9.9750396104315809e-05 2.7632390912767308e-05 3.8950474806154407e-05 4.9812955567529391e-06 -2.5330266747204186e-05 -3.2943143048531035e-05 2.9765699340302326e-05 6.8366861846457525e-05 -1.8790841878361913e-05 -1.7103831465854753e-05 2.3589817962368964e-05 -2.8376936259806331e-05 -3.8243832368458948e-05 2.8832791639746389e-05 3.1790803075767038e-05 0.00017748090358767109 -2.2827393342491936e-06 2.542586628030306e-05 3.7287588282909823e-05 -4.9658264094213679e-06 -3.1851833439797656e-05 -2.6171513672445122e-05 1.4468892671806789e-05 3.8317789430869151e-05 1.4260387232848748e-05 1.6023273439633111e-05 2.4487105045622026e-05 -1.772068824350237e-06 4.2044115542807722e-05 2.945465182635978e-05 2.4493189855074103e-05 2.490452828998659e-05 4.1945235920523398e-05 4.8552610237541751e-05 4.0284401368572299e-05 6.9188888698975049e-05 0.00021274339010028242 -6.4122490605689544e-07 -9.5715314559052106e-06 0.00019561123540164527 9.4266873978521493e-05 1.7576335612108988e-05 1.3674568164890852e-05 9.2584131960616635e-05 8.09237849551123e-05 4.2303170155274275e-05 2.3182848907002808e-05 5.4490134713917893e-06 6.2539625503147723e-05 -1.3373527764122019e-05 0.00010796663895023661 -4.3407489598620468e-05 -7.0151743469698769e-05 4.9324919077183504e-05 0.00012266319567191147 3.5259696430369478e-05 3.7200673207154773e-05 2.2642181776137783e-05 4.6282621551955658e-06 4.0653430679774699e-05 9.8584878099651719e-07 5.3064923547138632e-05 2.608948056970835e-05 3.7158988559887181e-05 3.4443242612819939e-05 3.6234363582036229e-05 -7.4574723990925257e-05 1.9664333685931283e-07 6.9495863938328142e-06 1.9043015435330152e-05 -5.4693189905123717e-05 -3.1558987211671933e-05 -3.4642694029287882e-05 -5.6404457177382618e-05 -4.9187258508669673e-05 2.6680958558773814e-05 -4.4411960651057297e-05 8.3957905751184947e-05 4.7731330095788425e-05 4.5208348992133239e-05 -7.0954661892915286e-06 4.1182009189619077e-05 5.0108904589116133e-05 1.5715990893589533e-05 3.1593556233754268e-05 1.0239589922860041e-05 6.0018162466519059e-06 2.2922931129818209e-05 -2.6688464854054473e-06 7.1276897377022842e-07 2.1410159393205422e-05 2.6077528216347857e-05 1.8558832907343353e-05 1.6838745783728586e-05 8.9544543863106645e-06 3.9423625052934018e-05 2.5902800957833343e-05 1.2117805151889031e-05 5.9019599918630857e-05 1.0457602428581959e-05 1.479919929632568e-05 -3.1831510638905252e-05 -2.6157708246465992e-05 0.00013517825075849121 2.0961506884766736e-05 4.6482201445559215e-05 8.0639303013856165e-06 -3.7291141020793702e-05 -5.9758666523456083e-05 2.3574131222645585e-05 -2.8712999798640107e-05 -3.160117347416131e-05 -3.3413707850743054e-05 -1.8814890400793456e-06 8.3544139504413431e-06 -3.8433772905707307e-06 2.3047791480379173e-05 8.4093424513870599e-05 -7.7546269012913026e-06 2.5206090242745584e-05 1.5107226158270103e-05 2.4286607968839583e-06 -1.0348312916336983e-06 1.9178647191702883e-05 2.080163723222557e-05 1.3421149171093018e-05 7.0402434806604141e-05 0.00010733111817775443 3.5711407900433602e-05 2.4693564702257248e-05 2.0749225895691503e-05 -5.9845728939394299e-06 5.7934579996629437e-05 2.2169976992854128e-05 1.1263092896248559e-05 1.7357611754715099e-05 -3.7870494954616207e-05 -5.5259233918455312e-05 3.6396607205757797e-05 -6.4653748226328178e-06 -3.6000330217646417e-06 -8.41392193749415e-05 -4.8269732531944589e-05 0.00012393793336573712 0.00027206297390056062 2.0813005401476337e-05 4.409743319700257e-06 6.6400150714005188e-05 -1.4947183249459624e-06 2.0715816632925417e-05 -1.1658592661028546e-05 1.93963355702635e-06 -7.1372750133260894e-05 6.1184387219878275e-06 3.2817566682829223e-05 2.9799658935637063e-05 1.5467796276206341e-05 3.2790505058407473e-05 4.0018626874852851e-05 -1.2021906275777059e-05 7.1227837192375416e-07 -4.1607241247496741e-05 2.7402088644954813e-05 2.3731276264537106e-05 2.1383321078350791e-05 5.0027358930743865e-06 1.268974120101357e-06 0.00011661803453203343 3.1281641548647608e-05 2.0258328035299385e-05 2.4244757614822623e-05 8.4541632771511718e-05 -2.2168470899306326e-05 2.4634445277394114e-05 -5.7712582367414769e-05 -3.7873202176590615e-05 -4.1721096210397927e-05 2.1162897138771961e-05 3.8509570710584579e-05 4.4533910608110037e-05 4.9781576486952118e-05 2.7672399902454798e-05 1.0827595415051176e-05 2.8396799814269045e-05 2.1173128665441137e-05 4.3796595055367772e-05 5.9470019794362165e-05 7.8568708101788357e-06 1.9897246565855897e-06 3.435142929908994e-05 -1.822193812822502e-05 -1.9425446051620795e-05 -3.0295369510092182e-05 -4.3560842265898949e-05 -2.2246903048688525e-05 1.2278630588633802e-05 0.0001332494105619835 -1.7000024353441471e-05 -1.5007828528707485e-05 3.2113412576540256e-05 -1.6663025436281529e-06 8.4409097920532384e-07 -3.9006999311472485e-05 -4.161933167297232e-05 7.5304451841512118e-05 3.7529747120620266e-06 2.0692406729431704e-05 -2.5476143936467317e-06 2.4888178271028334e-06 9.1370698871486521e-05 0.00016128439450223712 5.6052668842178315e-05 -2.6517024313263253e-05 -1.0233578524193837e-05 -3.5910760116862492e-05 2.8589333727038924e-05 6.6806805474685415e-06 7.9053405398787392e-06 -1.5580584056475882e-06 -1.4063270827669567e-05 -5.3720446833143424e-06 4.4921485994157894e-06 -2.8900648540771757e-05 -4.0069229302136088e-05 -1.5966311950047966e-05 -1.4644394818331631e-05 -9.024274433123328e-06 -9.7081978881981469e-06 1.6303504819528868e-05 5.6800272630614317e-05 3.0291142665960566e-05 7.53397966743799e-06 4.0067800900644383e-05 -7.8042756521381953e-06 -6.9407518040570576e-06 2.8321008512588521e-05 3.089260206852202e-05 -5.2123591016488627e-05 7.1816204776517403e-05 -8.5946553307393331e-06 4.2823172195459165e-05 -3.9538994013861171e-05 -2.7210606390807988e-05 4.3832749273491311e-05 2.4071221463323507e-05 2.0626087626145044e-05 -4.0377374016682679e-05 -2.8955710402254319e-05 5.3507249732286216e-05 8.1443076597612421e-06 2.939816675780714e-05 -2.1419154322763772e-05 -1.1709824655480061e-05 3.1141125870038431e-05 3.109642858576104e-05 6.9765011781210536e-06 1.1683814910979564e-05 3.1650872108949059e-06 2.9707506882630438e-06 2.3526716211907657e-05 5.1296737943606739e-05 3.7710446096150528e-05 5.2307512520452862e-05 -7.3696845003801137e-06 5.0120342963083132e-05 3.84942517574126e-05 4.9829029973280802e-05 2.8754264584853351e-06 2.3234043984642983e-05 -1.9588236203766489e-05 -1.7737204089188759e-05 2.3376639778417935e-05 0.0001079285336789144 0.00018656297556006137 3.7384123253504997e-05 4.3787940547449961e-05 1.0050611806275292e-05 1.7171471092933504e-05 2.8457361595373614e-05 -6.0301923882891866e-06 5.7544477750010481e-05 5.1819932687628668e-05 9.981287554913852e-05 5.798317263318439e-05 1.3079151449399504e-06 2.4788842270385728e-05 3.0992299505666718e-05 5.7847485178712937e-05 1.2361273456959997e-06 -9.4323021789952344e-06 -1.0577164837028952e-05 6.1690321194327741e-05 -3.0077960924816792e-05 -2.333520512360369e-05 -1.9673994826264335e-05 7.9870305590496599e-05 5.9767973478707623e-05 3.5864730379905733e-05 -2.9325389756308141e-07 4.1703384526087218e-05 1.5269810134816483e-05 -1.6732227797617563e-05 -1.6486026468051727e-05 5.3733991548705591e-05 6.7672974051445091e-05 0.00011772213931508595 3.8561057444916227e-05 3.722901333242504e-05 7.9778935404221007e-05 5.3947702682016405e-05 0.00011095088194416555 -7.09556878725464e-06 5.0852718539681436e-05 5.1706032691287702e-05 2.0000958233964343e-05 5.0022076700044973e-05 1.9639390118789228e-05 -5.248574416658611e-05 5.4643953363869456e-06 3.5373271273086956e-05 6.3917025942850114e-05 -8.7722059591257857e-05 2.223224267275384e-05 3.0301471261122553e-05 2.242104525259355e-05 -2.0415617277908448e-05 1.4153728491488384e-05 2.6753178575060835e-05 3.0250396986894736e-05 2.4804068513012607e-05 4.4801915012122298e-05 -1.7554311735534079e-05 0.00015232031511244802 -1.5371295310263574e-05 2.7724440716734385e-05 3.0382418207050074e-05 -4.6312943985165819e-06 5.5393940179048265e-05 3.7353525609859279e-05 3.3158482741276088e-05 2.7803884031651452e-05 -1.9910007187128216e-05 1.431383743767961e-05 2.6875087476075526e-05 -2.4512683180972218e-05 0.00012076482310292627 2.8593372572744725e-05 1.426968555570023e-05 2.2496498366589759e-05 2.6701413914212374e-05 6.0682890782773661e-05 4.2754751309139567e-05 2.0778365395636813e-05 2.6537690562182504e-05 -3.04729290266266e-05 -2.3421533565301674e-05 3.2105970565945598e-05 -2.8879095910950506e-05 -4.7169373723206579e-05 6.0676578104228293e-05 0.0001045657710130668 4.4366391525683377e-05 2.1515712572339838e-05 0.00012600675062994054 2.1391027600054179e-05 3.6852529993551086e-05 0.00010065025516096146 2.3451721613076059e-05 3.4323354957771241e-05 1.1731579971104196e-05 1.772029269550794e-05 3.8236213426866706e-05 0.00010612477465846322 -5.022134199774049e-06 -5.9221205365599473e-05 -0.00010429676915789825 8.8197481003112919e-05 -8.8314992359024187e-06 0.00011311995997901899 0.00014969452744411911 0.0002480821781943299 0.00019433266405856743 3.6830797447512278e-05 7.2469451080071218e-05 0.00013320722480024221 6.6215624048716459e-05 4.8646064527223254e-05 8.5305502792619101e-05 8.1754516493949894e-06 3.5640926074058561e-06 4.57541122294838e-05 2.5362409610792393e-05 0.00011999663831632935 2.0044039311379442e-06 5.9533360264779774e-05 4.5484429895157816e-06 6.9119737844666306e-05 4.2838271566347547e-05 2.1262672119377245e-05 2.4594269073816846e-05 2.2509644119720097e-05 4.2245537094316179e-05 -3.6433384227491778e-05 7.5838062531648629e-05 4.4350453633531083e-05 5.0058710013486868e-05 2.3334039505202024e-05 3.0887188375869432e-05 -0.00012719568498898652 -6.8386490592504479e-05 2.5993309724295764e-05 1.2706082697025458e-05 4.6748263647697485e-05 4.6436063560208163e-05 3.886507144285495e-05 -3.2865977136209617e-05 -2.4120412015056024e-05 0.00010112985718793493 -1.8639341039089779e-05 -1.6680842712858273e-05 2.8008871690973899e-05 0.0001102789686028699 4.093993671803114e-05 5.0827738440771346e-05 3.9877808975154304e-06 -4.3887730992940104e-06 -4.949079172300732e-05 -7.8104751748720548e-05 -2.1055483728608677e-06 6.172356686974577e-05 3.9715891038589289e-05 4.6339863776394389e-05 4.2406496577967182e-05 6.5509597385288263e-05 6.6736054171884663e-05 3.546379806593984e-05 2.3599882234880571e-05 4.070233284968643e-05 9.1924740439864271e-05 -4.3287812763173265e-05 -6.4888883349738361e-05 -2.3852611097017696e-05 8.0362869533491218e-05 3.4528658851201425e-05 -1.8712341840139589e-05 -1.5550212677352954e-05 1.5327370697435107e-05 4.5108052873684742e-05 7.3621527471525177e-05 1.3830041607677778e-05 -2.7132975327737001e-05 6.5739287533863461e-05 6.1364033657249355e-05 4.7107291295585778e-05 3.2576447331342305e-05 3.2049948265110014e-05 4.5605530865443999e-05 0.00020232172274991904 3.7140339030818786e-06 0.00011941084157913193 6.032734069459731e-06 3.5156751753712821e-05 2.8198866390493192e-05 3.0145147227092636e-05 -5.2971969016773992e-05 -6.6629031330716357e-05 2.1866652059674946e-05 8.9004625018568229e-06 6.1621237151202523e-05 -1.3728811123157518e-05 -7.5957516719310898e-06 -4.3203325452587175e-06 -1.6876775571063622e-05 -2.4822359750109558e-05 -1.0906608140911307e-05 1.8152439628196889e-05 1.4607377802644325e-05 9.543363658735544e-06 8.011251987265867e-06 4.6874078575431018e-05 2.1028291409502624e-06 -1.1520639376414821e-06 8.4524767216853815e-06 1.982995142513738e-05 -8.4803140728382053e-06 -4.4206548803550513e-06 5.2490336729446878e-05 2.3566142044013075e-05 -8.5575955405295459e-06 -1.2346516895986234e-05 7.8224325137857042e-05 -9.0574124753395064e-06 1.6702529792247294e-06 5.1810183397555504e-05 3.5682262966667737e-05 3.0656944245042269e-05 -3.7887285204862919e-05 -2.7880790628260246e-05 5.004976442812614e-05 3.4371063451493585e-05 1.6868294906880683e-05 -2.5365000579060588e-05 -4.0516182643925581e-05 1.8883308610349327e-05 2.7730716840639372e-05 1.0465717365678005e-05 3.6944055208187262e-05 1.9261635603145491e-05 0.00012938314332187621 4.1371567097945359e-06 -3.895723627808656e-05 8.068330511609885e-05 6.888152151176153e-05 -1.3039249110358882e-05 4.8086190382395097e-05 -4.4487440757999986e-05 -7.4918886705604154e-05 -4.5552855749205364e-05 -7.8492625556722057e-05 -2.4222247277436299e-05 -2.9569525305234052e-05 3.5191081396689806e-05 4.3592610384836281e-05 7.4146464276964291e-05 0.00014255090500249273 6.7646703443612885e-05 0.00012051399239388364 5.6670719936725237e-05 1.3630378449682964e-05 4.4795066925773172e-05 3.3673208708735747e-05 4.6302851657308361e-05 -7.3481056651658865e-05 4.2783915216433889e-05 0.00013506338604073648 0.00012564756636383978 6.8287775342005868e-05 -8.7916456339263771e-05 -5.0329819503795091e-05 4.2938255631334597e-05 -2.6672258463036717e-05 -1.471565859561012e-05 3.6207232061471724e-05 3.9056207740207713e-05 8.9723502264810791e-05 -2.2755386449591249e-05 9.4445525669324768e-08 6.3952966616951236e-06 1.9665009870854401e-05 1.9321644018501383e-05 9.9694161729239753e-06 7.6804313638709817e-06 -5.6788297251252041e-06 2.2385089714336424e-05 -7.7019901332636947e-06 -6.3904061325557998e-06 -3.9427879017423927e-05 -6.9503269187951499e-05 -2.16516218935387e-05 2.9827057966911277e-05 2.7105724094665987e-05 -3.604279748122753e-05 -6.6258660291652709e-05 2.5375877574342121e-05 8.4188828597099097e-05 -5.4122907281448627e-05 -9.9073282561321243e-05 8.1424573385184329e-06 -2.1990446629738874e-05 -5.6523413829535893e-06 0.00014688230572641671 -5.5394342993312421e-05 -3.6013841127174837e-05 2.5936522162299351e-05 1.9753413789234714e-05 4.477339398598722e-05 2.5794958108111655e-05 3.8319652099997471e-05 0.00013416588134135114 -2.1321157174957851e-05 1.7486885118510585e-05 0.00013750167914460421 -3.6557551974804184e-05 -0.00012414634590068315 -6.7672598581426869e-05 5.1918220324933489e-05 -2.0366436574830284e-05 -3.0456482333745123e-05 8.1822716346065382e-05 -2.282406898804646e-05 2.7103024691073487e-05 0.00017097605079052607 -1.5348402724429857e-05 2.8955259860389957e-05 4.1311727484356404e-05 1.0683390420597943e-05 -2.1589793968199589e-05 7.7714493977712028e-05 4.1623656324036248e-06 7.6763557563197838e-05 -3.4745625011321839e-05 1.0674849576488871e-05 -1.8464348764697675e-05 -4.4937057250636408e-05 -3.9902041286773451e-05 -2.7781020419711495e-05 -2.7844998348608711e-05 7.5670211542701324e-06 -1.1495688092643571e-06 -3.9858423936150145e-06 -3.0755177926302905e-07 2.411207586806956e-05 6.3773460093592376e-05 3.3198455562110858e-05 3.1957575236130423e-05 3.2015565260700807e-05 8.5251114888739202e-05 4.2057684386497744e-05 -6.9945434960545739e-05 -0.00013058086004286032 6.2865261623176304e-05 0.0001014007973194601 -1.2578195650133343e-05 2.3781444775420885e-05 1.1330268416903086e-05 1.7070159439551552e-05 9.9365172446004696e-05 -3.1392893191755069e-05 -2.3799846352449045e-05 -2.9821544477741635e-05 -4.5605779774941145e-05 -6.3758276009307988e-05 9.5042973166687902e-05 6.1311804816222655e-05 2.4190718733886647e-05 -9.0406264861175216e-07 3.7678618103828538e-05 -2.3429786562673154e-05 8.4425451795530192e-05 1.8242194006596533e-05 2.6986118243641524e-05 0.00012341752245873869 -0.00011316128650324308 2.7079225838088515e-05 -8.3419748944650555e-06 -4.5586691507294345e-06 3.7064837269071318e-05 -4.3413478327852491e-05 -7.188178116653975e-05 0.00010927258469538639 -2.0704701106045477e-05 8.1451695078144852e-05 4.0634128543030147e-05 5.6253106697592146e-05 2.6711710682908514e-05 2.5293567525874538e-05 7.7478835674298186e-06 0.00010179494357868739 9.5519084185858308e-05 -7.664481489019553e-06 -1.130781371198224e-05 6.7538612244694846e-05 7.7098741487209143e-05 5.5433737059605755e-05 8.3083125814905658e-05 2.7771346576296239e-05 9.8492393224252955e-05 7.3436296455281594e-05 -3.7836169432236113e-05 -4.4229813541607737e-05 -7.3725925195748101e-05 5.9528441773537067e-05 6.5060782773151342e-05 2.5872259356904323e-05 2.1491572949006884e-05 -6.2380310864075728e-05 -3.806497596147706e-05 -2.9438753680270725e-05 0.00012634703939882596 -1.7912835968071812e-05 2.3372252696630547e-05 3.1936989601185306e-05 -1.30849780786489e-05 4.2042951747899973e-06 2.8696203427706298e-05 5.3879041937020212e-05 -1.6919493493817593e-05 -3.374075012632107e-05 -5.6293970279294747e-05 7.3561997244958686e-06 1.1306605425647756e-05 -2.0524337113558797e-05 -1.3339268529577969e-05 2.2816576548242758e-05 -3.7802024586866636e-05 -3.2484198287840401e-05 -3.0307909529828239e-05 -2.043980481852576e-06 2.4833043120826518e-05 0.000127440737170103 0.00012507017609010877 -4.3496855456391751e-05 0.00011433667977262747 0.00010087092484809804 -5.5405474004924283e-06 1.0663436877625347e-05 -5.402450197947422e-05 4.2637441222990773e-05 0.00010690367097746406 2.2024080433581336e-05 -4.930387472394179e-05 -8.3766921454696166e-05 -2.3958445020860145e-05 5.7268298590189759e-05 3.128329170328317e-05 6.173379263250023e-05 -2.6599538569683317e-05 -3.28114782946252e-05 -4.1594836759880218e-05 4.7995496530572575e-05 -1.6926527551785531e-05 7.9833707925482185e-05 3.1762960776224453e-05 3.5817128786355332e-05 -4.6732453008506276e-05 -8.0862548323089976e-05 -3.5372127958387931e-05 2.3329923444308644e-05 4.7930591243691494e-05 -2.1126755840684374e-06 2.2850765272444521e-05 -1.7209529327853566e-05 -1.0167620578100451e-05 2.4419337318588668e-05 2.3618525090876267e-05 -5.0605858338596794e-05 -9.2717809607053355e-05 -2.989403132383145e-05 0.00013096225357731842 0.00011306342734350655 -2.8322682580080461e-05 0.00016311055338217792 5.7639799555089354e-05 2.1799352069817174e-05 0.00013522555494625875 0.00022668903942900701 -2.7128281307436399e-05 -8.5126646791487188e-06 2.8882311520522247e-05 -2.5741183428842559e-05 4.7266003871742897e-05 2.8515397536230562e-05 2.0925567239814324e-06 0.00013359686440982121 1.0548403928254378e-05 4.2724259062004521e-05 4.7952969649885048e-05 7.5286579458082575e-05 0.00011159230017090613 0.0001898774141925394 0.0001322629112240583 5.6056333038916709e-05 4.4812227788057165e-05 8.2230161859918213e-05 -2.3784790942005197e-05 -2.1393472071393186e-05 -1.1715201125373042e-05 3.4078977997356271e-06 5.2775522442066302e-05 9.684733033840686e-05 3.1748553063313064e-05 -7.8499072506238964e-06 1.8280431855869968e-05 3.0263203521760363e-05 2.3847241755282331e-05 2.9817485625053316e-05 3.9239757878345742e-05 3.349562330342621e-06 0.00017089347157419417 2.425389861483486e-05 -2.827486615383009e-05 1.2028702125487824e-06 0.00025777302841786462 0.00021536259368470719 0.00012858156375929013 2.1237416175778207e-06 2.4444405095669392e-06 0.00015620571467003536 4.1653012360148498e-06 2.3411795600054004e-05 2.5110234644072993e-05 -8.0929184935078302e-06 -1.1292736770189766e-05 1.8361859288540831e-05 7.9754072488209468e-06 2.4948745161405567e-05 8.8139812525552799e-05 0.00016054148374887163 6.2816444030292938e-05 -5.4445726777862391e-06 5.0263301149780937e-05 0.0001091186946556498 1.5621958178439917e-05 2.9741292446585562e-05 2.8044970122226547e-05 5.9587223706367501e-06 5.7079964667377148e-05 6.3041703459653601e-05 6.0862991301405478e-06 2.397089304011861e-05 5.426793652864748e-05 2.6768007422020306e-05 7.8799075402071145e-05 8.6704824842621236e-05 6.2074347582285181e-05 -1.5755344990824906e-05 3.8672246941389542e-05 4.5214812542731488e-05 0.00017773410290866773 0.00016297475502957418 0.00014225428298623869 6.0686895594273013e-05 -3.6577536176122041e-05 4.8964774711334811e-06 -1.8689861738819296e-05 -1.6872362578055155e-05 3.0382532518611599e-05 -2.3489116456203088e-05 -2.7248960230884759e-05 -2.9441093382761845e-05 -3.475903033152204e-05 7.9922059591309492e-06 2.8871418901764224e-05 9.7474945891232916e-05 7.3254613424279769e-05 8.3035890213107243e-05 2.9883158585615639e-05 2.0653982997813638e-06 5.6731751286548831e-05 9.6885316069934973e-05 5.1527608363786454e-07 3.1573080586951409e-05 5.3557882123047868e-05 -3.099858184113732e-05 -3.9578259614329633e-05 -3.4779236757388272e-05 -2.765958612303282e-05 1.8861573553918126e-05 6.7894070791804389e-06 2.8218008059801246e-05 2.7706223293389809e-05 1.4306996500185559e-05 2.2844537805845773e-05 2.2490025957316652e-05 0.00010435435298657741 0.00029336277163206686 -6.5250642457369002e-06 7.7521439445218921e-05 3.9174729719437329e-05 2.9523289833480466e-05 0.00011236377917076294 -1.5538007210765458e-05 8.2822207267334807e-05 5.7764034999050666e-05 -9.6473486926040852e-06 4.5717173279259671e-05 4.1175428042838653e-05 2.0337066308336147e-05 0.00010134197760355704 1.9421342273267884e-05 1.3460713373945876e-05 8.0821800018300593e-08 4.8182884627388372e-06 3.2354134379584631e-05 2.1240765725871551e-05 1.3195224072485432e-05 1.9474955307253398e-05 1.6318927350428604e-05 1.1450239511983794e-05 3.7787854294256819e-05 6.9460608615852623e-05 3.7029070807629454e-05 0.00012662711752484869 9.928193264279947e-05 1.6469460643927375e-06 5.8574131423364418e-05 4.5735458822086968e-06 -1.4303913631812798e-05 3.5322386140355325e-05 3.3338944228393334e-05 4.1599960278307852e-05 7.1697345753555033e-05 6.6957692372521596e-06 1.1583789895790175e-05 3.8922481637264621e-05 2.0254376202664872e-05 5.2161251401127757e-05 0.00012195659635828941 0.00020569854213561823 2.5025860828390177e-05 -3.4881711681264329e-05 -2.869255614578077e-05 1.9369959730410551e-05 2.4759949183704449e-05 2.4656673092401567e-05 3.8582516745341718e-05 -4.6544859009919545e-06 2.834623196171877e-05 2.3068159950711967e-05 -2.5887929886204243e-05 -3.554412352872582e-05 -2.6551769514726642e-05 -2.2127323219120061e-05 2.7705256038277866e-05 -3.3675700852896923e-05 5.0800926584730535e-05 4.3972747879999011e-05 -7.6807348581155557e-06 2.3545083443610534e-05 2.7998987599160816e-05 2.4095407568332205e-05 -1.6748120147476233e-05 -1.7649966486105672e-05 -1.2507386136141651e-05 6.6588730478078572e-05 -8.5307538915464949e-06 5.0158101412135e-05 -1.261010058285261e-05 2.017567640488788e-05 -9.2377055805152857e-06 8.7030678825078016e-05 0.00014875582897656012 1.7593637277588609e-05 4.9268104902223941e-06 1.2438247064053276e-06 7.9341314547476741e-05 8.9818367935977882e-05 0.0001490954980595139 2.9316946647153612e-06 0.00013887375625592623 -2.3038847528963208e-07 2.4543797322705606e-05 3.2422469212545386e-05 2.8293678294759642e-05 1.5216827838156367e-05 1.9279476774237904e-05 9.4492403653861098e-05 1.7287864160951299e-05 1.2274889125385376e-05 -1.729202118577805e-06 -3.0903219125661069e-05 3.2375187896266106e-06 7.567276152516567e-05 6.0273545242553591e-05 7.0889004706501009e-05 9.3723744849999398e-05 -6.3033855234992842e-06 -2.3114535890683902e-05 6.3575780083200794e-05 6.8529381232789268e-05 3.2388929600781825e-05 2.166297276692263e-05 2.8178116937990236e-05 3.8683354832805535e-05 0.00015415326545518233 -1.6725449233498477e-05 -1.336180594118263e-05 2.1909397266771945e-05 0.00012506132509493046 1.9170368165094325e-05 4.2037579177563386e-06 -1.1799472124721005e-05 4.6552647633257838e-05 
</DataArray>
</CellData>
</Piece>
</UnstructuredGrid>
</VTKFile>
