<?xml version="1.0"?>
<VTKFile type="UnstructuredGrid" version="0.1" byte_order="LittleEndian">
<UnstructuredGrid>
<Piece NumberOfPoints="3142" NumberOfCells="1054">
<Points>
<DataArray type="Float64" NumberOfComponents="3" format="ascii">
0.5 0.29999999999999999 0 0.54999999999999993 0.29999999999999999 0 0.54999999999999993 0.29999999999999999 0 0.59999999999999976 0.29999999999999999 0 0.59999999999999976 0.29999999999999999 0 0.6499999999999998 0.29999999999999999 0 0.6499999999999998 0.29999999999999999 0 0.69999999999999984 0.29999999999999999 0 0.69999999999999984 0.29999999999999999 0 0.74999999999999989 0.29999999999999999 0 0.74999999999999989 0.29999999999999999 0 0.79999999999999982 0.29999999999999999 0 0.79999999999999982 0.29999999999999999 0 0.84999999999999987 0.29999999999999999 0 0.84999999999999987 0.29999999999999999 0 0.89999999999999991 0.29999999999999999 0 0.89999999999999991 0.29999999999999999 0 0.94999999999999996 0.29999999999999999 0 0.94999999999999996 0.29999999999999999 0 1 0.29999999999999999 0 0.5 0.69999999999999996 0 0.54999999999999993 0.69999999999999996 0 0.54999999999999993 0.69999999999999996 0 0.59999999999999976 0.69999999999999996 0 0.59999999999999976 0.69999999999999996 0 0.6499999999999998 0.69999999999999996 0 0.6499999999999998 0.69999999999999996 0 0.69999999999999984 0.69999999999999996 0 0.69999999999999984 0.69999999999999996 0 0.74999999999999989 0.69999999999999996 0 0.74999999999999989 0.69999999999999996 0 0.79999999999999982 0.69999999999999996 0 0.79999999999999982 0.69999999999999996 0 0.84999999999999987 0.69999999999999996 0 0.84999999999999987 0.69999999999999996 0 0.89999999999999991 0.69999999999999996 0 0.89999999999999991 0.69999999999999996 0 0.94999999999999996 0.69999999999999996 0 0.94999999999999996 0.69999999999999996 0 1 0.69999999999999996 0 0.40076539126862748 0.34589349467022118 0 0.33277555741076909 0.36432196682010132 0 0.36575549820117997 0.31677992835137742 0 0.38083244760691543 0.38531983672244652 0 0.33277555741076909 0.36432196682010132 0 0.40076539126862748 0.34589349467022118 0 0.56836770495988642 0.3523062350852913 0 0.52289427570932567 0.3932284363388488 0 0.52752007115234678 0.33170632466418198 0 0.52752007115234678 0.33170632466418198 0 0.52289427570932567 0.3932284363388488 0 0.49077833859261139 0.35229981449445641 0 0.10000000000041601 1 0 0.053064897599294662 0.95186845269532028 0 0.10266856499240549 0.95548163909968886 0 0.099999999999814668 0 0 0.10266856499169109 0.044518360900210059 0 0.053064897599215843 0.048131547304697528 0 0.050000000000207989 1 0 0.053064897599294662 0.95186845269532028 0 0.10000000000041601 1 0 0.049999999999899652 0 0 0.099999999999814668 0 0 0.053064897599215843 0.048131547304697528 0 0.24999999999941211 0 0 0.29999999999926641 0 0 0.27499999999933927 0.060310814194988557 0 0.30000000000124832 1 0 0.25000000000104028 1 0 0.27609987656793722 0.94991445621608572 0 0.15720202157091859 0.60665697304410315 0 0.19914261668318661 0.62286739485272158 0 0.16500388252850301 0.66612077714085194 0 0.2236846579037573 0.67380363126050236 0 0.16500388252850301 0.66612077714085194 0 0.19914261668318661 0.62286739485272158 0 0.1247745017231483 0.27198077544791172 0 0.168349569971391 0.28054490850913671 0 0.14223753364722069 0.3341983344262433 0 0 0.75000000000034661 0 0 0.7000000000006934 0 0.049706944316475897 0.72477277076253799 0 0 0.30000000000124832 0 0 0.25000000000104028 0 0.049706944316556423 0.27522722923869108 0 0.59999999999999976 0.29999999999999999 0 0.61959173890754571 0.33832250091341232 0 0.56836770495988642 0.3523062350852913 0 0.5 0.69999999999999996 0 0.43323420005758778 0.6913544522562407 0 0.47913475093885149 0.66010775372412711 0 1 0.14999999999961891 0 0.95391631417672862 0.19584263333809451 0 0.93677536231883773 0.14999999999999089 0 1 0.84999999999982645 0 0.95391631417670719 0.89584263333814784 0 0.93677536231884972 0.85000000000000286 0 1 0.84999999999982645 0 0.93677536231884972 0.85000000000000286 0 0.95386563387742829 0.80414874155775029 0 1 0.14999999999961891 0 0.93677536231883773 0.14999999999999089 0 0.95386563387744361 0.1041487415577465 0 0.90416666666660628 0.9041666666666166 0 0.88088768115933802 0.84674609810493673 0 0.93677536231884972 0.85000000000000286 0 0.90416666666668166 0.20416666666667119 0 0.88088768115941807 0.14674609810479519 0 0.93677536231883773 0.14999999999999089 0 0.1247745017231483 0.27198077544791172 0 0.14223753364722069 0.3341983344262433 0 0.093851963071650835 0.30582068233324772 0 0.5 0.69999999999999996 0 0.45582236402875981 0.73896743678908217 0 0.43323420005758778 0.6913544522562407 0 0.55000000000173355 1 0 0.50000000000205869 1 0 0.52122150208832174 0.94089974453840242 0 0.49999999999869432 0 0 0.5499999999988151 0 0 0.52375890611712683 0.059318771819432882 0 0.54999999999999993 0.29999999999999999 0 0.59999999999999976 0.29999999999999999 0 0.56836770495988642 0.3523062350852913 0 0.50202631463681879 0.87892870825713787 0 0.44003836461056539 0.88093474584252718 0 0.45677673713123867 0.84253684404072415 0 0.33403534827021109 0.84402799729020661 0 0.35864759629805099 0.87963482415279515 0 0.30864387279288652 0.89906554525974958 0 0.53245488764484505 0.55078124999999989 0 0.47793794143994173 0.52940715638744962 0 0.53330375813596242 0.50827942741749099 0 0.82709327591102189 0.14937141670914489 0 0.81283102246527783 0.1881007222486438 0 0.77144070960558853 0.14311854477243749 0 0.82709327591091286 0.84937141670920724 0 0.81159157511211755 0.88795995483179491 0 0.76901770135486491 0.84293557325473656 0 0.77144070960558853 0.14311854477243749 0 0.81283102246527783 0.1881007222486438 0 0.76587607630038135 0.18880039518954719 0 0.76901770135486491 0.84293557325473656 0 0.81159157511211755 0.88795995483179491 0 0.76891166905518427 0.88835469571185499 0 0.33403534827021109 0.84402799729020661 0 0.30864387279288652 0.89906554525974958 0 0.29209212897034281 0.84715728365233667 0 0.57412547362576272 0.58273804879550706 0 0.5166924242153631 0.59825134841919447 0 0.53245488764484505 0.55078124999999989 0 0.50202631463681879 0.87892870825713787 0 0.47401147028110507 0.91529957330468115 0 0.44003836461056539 0.88093474584252718 0 0.5 0.69999999999999996 0 0.54999999999999993 0.69999999999999996 0 0.55363780716230748 0.74348740161571747 0 1 0.34999999999993492 0 0.95871855522754235 0.40006508612975411 0 0.95780851984364423 0.34215720972155339 0 1 0.64999999999986979 0 0.9578014258160763 0.65787212321113708 0 0.95867599106212187 0.60011091146651041 0 0.46666084890304671 0.57634471035397938 0 0.47793794143994173 0.52940715638744962 0 0.53245488764484505 0.55078124999999989 0 0.94999999999999996 0.29999999999999999 0 0.89898474358614167 0.25391965591104898 0 0.94399509803921056 0.24399509803922639 0 0.94999999999979179 1 0 0.89898474358632463 0.95391965591118966 0 0.94399509803919068 0.9439950980391687 0 0 0.65000000000104008 0 0.050069554451969707 0.61308520079857043 0 0.046634677244967337 0.671418230738282 0 0 0.35000000000145642 0 0.046389130980076937 0.32668781832131749 0 0.050583896093752537 0.38543522283434112 0 0.50202631463681879 0.87892870825713787 0 0.50627822638148745 0.8263979829520941 0 0.55899371797446828 0.85003102233514438 0 0.54782696902220018 0.79245182748204157 0 0.55899371797446828 0.85003102233514438 0 0.50627822638148745 0.8263979829520941 0 0.50945740445113552 0.75476055527778108 0 0.5 0.69999999999999996 0 0.55363780716230748 0.74348740161571747 0 0.84999999999965292 1 0 0.85170973911348691 0.93569607295217616 0 0.89898474358632463 0.95391965591118966 0 0.84999999999999987 0.29999999999999999 0 0.8517097391133297 0.2356960729520409 0 0.89898474358614167 0.25391965591104898 0 0.86956835336234861 0.571283299838105 0 0.82862096804812391 0.55037090955459045 0 0.86907294890112186 0.52008116128001669 0 0.49102375406324739 0.49123754822244059 0 0.53330375813596242 0.50827942741749099 0 0.47793794143994173 0.52940715638744962 0 0.57611405284611883 0.50165903596042916 0 0.61547661924074692 0.48539576058873962 0 0.62042975506801734 0.54295974692364424 0 0.71406021706547751 0.63292083137662503 0 0.67529834988829951 0.61613270668143583 0 0.71809016091162536 0.58185040402320831 0 0.65000000000104008 1 0 0.62065498684670595 0.95224934003983619 0 0.68015064798562208 0.95924320340003011 0 0.84999999999960507 0 0 0.899991664607802 0.045289349238254978 0 0.85491058998398861 0.060047533455626502 0 0.84999999999999987 0.69999999999999996 0 0.89999166460796554 0.74528934923809909 0 0.85491058998424563 0.76004753345552634 0 0.89999999999999991 0.29999999999999999 0 0.89898474358614167 0.25391965591104898 0 0.94999999999999996 0.29999999999999999 0 0.94999999999979179 1 0 0.89999999999958358 1 0 0.89898474358632463 0.95391965591118966 0 0.86411095495256451 0.42388805655111889 0 0.81308179852519835 0.39754945808726527 0 0.86844634540301924 0.38530937474099819 0 0.5 0.29999999999999999 0 0.49695729691142171 0.25014895411178018 0 0.54248833945060504 0.2520322959927106 0 0.86411095495256451 0.42388805655111889 0 0.81973119833356312 0.43505687159469048 0 0.81308179852519835 0.39754945808726527 0 0.67323294229744413 0.57556450033612505 0 0.71809016091162536 0.58185040402320831 0 0.67529834988829951 0.61613270668143583 0 0.6236733212988993 0.14864538214901801 0 0.68391457121233579 0.14440470121196541 0 0.64011864159029941 0.18789607982138171 0 0 0.050000000000207989 0 0.053064897599215843 0.048131547304697528 0 0.044310582753132287 0.101412518374475 0 0 0.94999999999979179 0 0.0443105827531413 0.89858748162559932 0 0.053064897599294662 0.95186845269532028 0 1 0.34999999999993492 0 1 0.39999999999978308 0 0.95871855522754235 0.40006508612975411 0 1 0.59999999999973963 0 1 0.64999999999986979 0 0.95867599106212187 0.60011091146651041 0 0 0.84999999999965292 0 0.065374659239661639 0.8551091961254178 0 0.0443105827531413 0.89858748162559932 0 0 0.15000000000062411 0 0.044310582753132287 0.101412518374475 0 0.065374659239632718 0.1448908038746782 0 0.16500388252850301 0.66612077714085194 0 0.1020579365089687 0.69352219419301997 0 0.1241190223511371 0.64391885572885044 0 0.14999999999970359 0 0 0.14618258501891079 0.062070108745602003 0 0.10266856499169109 0.044518360900210059 0 0.15000000000062411 1 0 0.10266856499240549 0.95548163909968886 0 0.14617343800780541 0.93808063414349496 0 0.7152569930854884 0.5237994455134295 0 0.67569444444444449 0.53500863336860327 0 0.69385896817107129 0.48377516041410151 0 0.6541250972820879 0.49999999999999989 0 0.62042975506801734 0.54295974692364424 0 0.61547661924074692 0.48539576058873962 0 0.94999999999999996 0.69999999999999996 0 0.94399509803918602 0.75600490196082126 0 0.89999166460796554 0.74528934923809909 0 0.94999999999986839 0 0 0.94399509803922566 0.056004901960802607 0 0.899991664607802 0.045289349238254978 0 0.6541250972820879 0.49999999999999989 0 0.69385896817107129 0.48377516041410151 0 0.67569444444444449 0.53500863336860327 0 0.82862096804812391 0.55037090955459045 0 0.81723410853263523 0.59419663659258926 0 0.77151014687832564 0.54436834383023036 0 0.7250000000005199 0.89375000000045834 0 0.66412543161245952 0.88015090885499059 0 0.68697391633157634 0.84450604838764298 0 0 0.94999999999979179 0 0 0.89999999999958358 0 0.0443105827531413 0.89858748162559932 0 0 0.10000000000041601 0 0 0.050000000000207989 0 0.044310582753132287 0.101412518374475 0 0.16500388252850301 0.66612077714085194 0 0.15332765547575641 0.71200081858233666 0 0.1020579365089687 0.69352219419301997 0 0.90299850604011456 0.79563452813489832 0 0.93677536231884972 0.85000000000000286 0 0.88088768115933802 0.84674609810493673 0 0.90299850604006393 0.09563452813493091 0 0.93677536231883773 0.14999999999999089 0 0.88088768115941807 0.14674609810479519 0 0.68391457121233579 0.14440470121196541 0 0.6865991819015953 0.189116534044597 0 0.64011864159029941 0.18789607982138171 0 0.085622222639554768 0.53333248912060549 0 0.1216098864341134 0.50637075089503902 0 0.1154888278694548 0.56733818459978413 0 0.21858834311891909 0.81980263716112767 0 0.22556077506376701 0.77837424984191617 0 0.26104540868854792 0.81401944968719064 0 0.81723410853263523 0.59419663659258926 0 0.77293540622714185 0.59448302402785813 0 0.77151014687832564 0.54436834383023036 0 0.1154888278694548 0.56733818459978413 0 0.1216098864341134 0.50637075089503902 0 0.14934928745814749 0.55042914607228977 0 0.1216098864341134 0.50637075089503902 0 0.068743045408989428 0.48853989837882689 0 0.113541300460994 0.46208784312094731 0 0.078358742472063481 0.43365249433908948 0 0.113541300460994 0.46208784312094731 0 0.068743045408989428 0.48853989837882689 0 0.83573492347052902 0.36590755630746369 0 0.81308179852519835 0.39754945808726527 0 0.78145581580700685 0.34881365920033602 0 0.57611405284611883 0.50165903596042916 0 0.62042975506801734 0.54295974692364424 0 0.57435499076887508 0.54267261987897775 0 0.86956835336234861 0.571283299838105 0 0.81723410853263523 0.59419663659258926 0 0.82862096804812391 0.55037090955459045 0 0.46666084890304671 0.57634471035397938 0 0.53245488764484505 0.55078124999999989 0 0.5166924242153631 0.59825134841919447 0 0.89999999999999991 0.69999999999999996 0 0.94999999999999996 0.69999999999999996 0 0.89999166460796554 0.74528934923809909 0 0.89999999999973679 0 0 0.94999999999986839 0 0 0.899991664607802 0.045289349238254978 0 0.84999999999960507 0 0 0.89999999999973679 0 0 0.899991664607802 0.045289349238254978 0 0.84999999999999987 0.69999999999999996 0 0.89999999999999991 0.69999999999999996 0 0.89999166460796554 0.74528934923809909 0 0.43545892161006339 0.61093128915313821 0 0.4089290844030305 0.58728915500154233 0 0.46666084890304671 0.57634471035397938 0 0.1650278706801647 0.38791388161335733 0 0.1117088112799664 0.38831403004970022 0 0.14223753364722069 0.3341983344262433 0 0.087545339447545459 0.35122518864182262 0 0.14223753364722069 0.3341983344262433 0 0.1117088112799664 0.38831403004970022 0 0.6916490518212759 0.75387992374886192 0 0.72501250972655151 0.74067302935308721 0 0.72500000000000064 0.7952620967744265 0 0.72501250972655151 0.74067302935308721 0 0.75841349681148107 0.75422312624214749 0 0.72500000000000064 0.7952620967744265 0 0.57412547362576272 0.58273804879550706 0 0.53245488764484505 0.55078124999999989 0 0.57435499076887508 0.54267261987897775 0 1 0.54999999999963112 0 0.95867599106212187 0.60011091146651041 0 0.93732437411268477 0.55911392101136159 0 1 0.44999999999963131 0 0.93814194660195893 0.44426664081746747 0 0.95871855522754235 0.40006508612975411 0 0.4089290844030305 0.58728915500154233 0 0.42644501560315817 0.54603747078095544 0 0.46666084890304671 0.57634471035397938 0 0.89999999999958358 1 0 0.84999999999965292 1 0 0.89898474358632463 0.95391965591118966 0 0.84999999999999987 0.29999999999999999 0 0.89898474358614167 0.25391965591104898 0 0.89999999999999991 0.29999999999999999 0 0.29999999999926641 0 0 0.32541448401678508 0.046215317981507749 0 0.27499999999933927 0.060310814194988557 0 0.30000000000124832 1 0 0.27609987656793722 0.94991445621608572 0 0.32544832635163229 0.95485394099568932 0 0.57412547362576272 0.58273804879550706 0 0.62042975506801734 0.54295974692364424 0 0.63065402604362242 0.59661356661633302 0 0.5 0.29999999999999999 0 0.54248833945060504 0.2520322959927106 0 0.54999999999999993 0.29999999999999999 0 0.67323294229744413 0.57556450033612505 0 0.62042975506801734 0.54295974692364424 0 0.67569444444444449 0.53500863336860327 0 0.6541250972820879 0.49999999999999989 0 0.67569444444444449 0.53500863336860327 0 0.62042975506801734 0.54295974692364424 0 1 0.14999999999961891 0 1 0.19999999999974799 0 0.95391631417672862 0.19584263333809451 0 1 0.84999999999982645 0 1 0.8999999999998336 0 0.95391631417670719 0.89584263333814784 0 1 0.7999999999998193 0 1 0.84999999999982645 0 0.95386563387742829 0.80414874155775029 0 1 0.099999999999753911 0 1 0.14999999999961891 0 0.95386563387744361 0.1041487415577465 0 0.4656888918609538 0.78493261229743638 0 0.50627822638148745 0.8263979829520941 0 0.45677673713123867 0.84253684404072415 0 0.6879972333610942 0.43038561374960838 0 0.72622533758026719 0.40265885511101601 0 0.73483647259922602 0.44789725365921768 0 0.67323294229744413 0.57556450033612505 0 0.67569444444444449 0.53500863336860327 0 0.71809016091162536 0.58185040402320831 0 0.7152569930854884 0.5237994455134295 0 0.71809016091162536 0.58185040402320831 0 0.67569444444444449 0.53500863336860327 0 0.65394964615507722 0.22666784374016369 0 0.59814117807200873 0.23398510860739519 0 0.64011864159029941 0.18789607982138171 0 0.55000000000173355 1 0 0.52122150208832174 0.94089974453840242 0 0.57382506491224949 0.9629411906298494 0 0.39801143831225599 0.16651381068160659 0 0.44288491854585582 0.14116182884956319 0 0.42905200079338551 0.19982395548231649 0 0.47357141910802508 0.1873585799078378 0 0.42905200079338551 0.19982395548231649 0 0.44288491854585582 0.14116182884956319 0 0.90594285160987287 0.4141265964174129 0 0.88594198078881503 0.46167788676578442 0 0.86411095495256451 0.42388805655111889 0 0.65507451745379841 0.92229208810758578 0 0.68015064798562208 0.95924320340003011 0 0.62065498684670595 0.95224934003983619 0 0.35312867752657662 0.084946736076730367 0 0.39591832466117061 0.056982757562006353 0 0.39823268594401579 0.1116623613130045 0 0.43698630808430822 0.080423614171545449 0 0.39823268594401579 0.1116623613130045 0 0.39591832466117061 0.056982757562006353 0 0.4367309254023824 0.92065556789053882 0 0.39641108128798319 0.94356127926187128 0 0.39767323751400468 0.89584229130535065 0 0.35752321586431363 0.9185439911803448 0 0.39767323751400468 0.89584229130535065 0 0.39641108128798319 0.94356127926187128 0 0.77354604466818633 0.40378688774472771 0 0.77972660463949339 0.45529290596363098 0 0.73483647259922602 0.44789725365921768 0 0.5499999999988151 0 0 0.57396793757665954 0.037011367187645222 0 0.52375890611712683 0.059318771819432882 0 0.64753070846764316 0.77332939069435502 0 0.60294066490120068 0.80851322453934582 0 0.59636844454254345 0.75937156204589151 0 0.49102375406324739 0.49123754822244059 0 0.48858720058566618 0.43964267759203868 0 0.53823865529665704 0.45873898050322898 0 0.28307294598219601 0.50789252727458634 0 0.29110487519241501 0.56588143995431495 0 0.25115337790845271 0.54719303014923271 0 0.79680861578988083 0.92656778056766709 0 0.81159157511211755 0.88795995483179491 0 0.85170973911348691 0.93569607295217616 0 0.79680861578956375 0.22656778056752541 0 0.81283102246527783 0.1881007222486438 0 0.8517097391133297 0.2356960729520409 0 0.57412547362576272 0.58273804879550706 0 0.57435499076887508 0.54267261987897775 0 0.62042975506801734 0.54295974692364424 0 0.93814194660195893 0.44426664081746747 0 0.88594198078881503 0.46167788676578442 0 0.90594285160987287 0.4141265964174129 0 0.7152569930854884 0.5237994455134295 0 0.73947346780852752 0.49062440112282169 0 0.77151014687832564 0.54436834383023036 0 0 0.7000000000006934 0 0.046634677244967337 0.671418230738282 0 0.049706944316475897 0.72477277076253799 0 0 0.30000000000124832 0 0.049706944316556423 0.27522722923869108 0 0.046389130980076937 0.32668781832131749 0 0.59814117807200873 0.23398510860739519 0 0.59443395090188023 0.18455690917515069 0 0.64011864159029941 0.18789607982138171 0 0.21858834311891909 0.81980263716112767 0 0.26104540868854792 0.81401944968719064 0 0.2401283238295133 0.85648409884788523 0 0.39536230704883951 0.84069429572832477 0 0.45677673713123867 0.84253684404072415 0 0.44003836461056539 0.88093474584252718 0 0.086179601630648681 0.64647209519980475 0 0.050069554451969707 0.61308520079857043 0 0.1024350934457823 0.60772393977513839 0 0.077693244765132896 0.56932317963405099 0 0.1024350934457823 0.60772393977513839 0 0.050069554451969707 0.61308520079857043 0 0.078358742472063481 0.43365249433908948 0 0.050583896093752537 0.38543522283434112 0 0.1117088112799664 0.38831403004970022 0 0.087545339447545459 0.35122518864182262 0 0.1117088112799664 0.38831403004970022 0 0.050583896093752537 0.38543522283434112 0 0.33403534827021109 0.84402799729020661 0 0.35642984951668422 0.80994399665655703 0 0.39536230704883951 0.84069429572832477 0 0.28307294598219601 0.50789252727458634 0 0.33190227185843768 0.52715113583864037 0 0.29110487519241501 0.56588143995431495 0 0.2236846579037573 0.67380363126050236 0 0.19068556247388771 0.71028988922845504 0 0.16500388252850301 0.66612077714085194 0 0.26104540868854792 0.81401944968719064 0 0.22556077506376701 0.77837424984191617 0 0.2792923945214143 0.77665808831789485 0 0.38244435121258652 0.51653317813019495 0 0.37272913873093971 0.56192925302619479 0 0.33190227185843768 0.52715113583864037 0 0.25195515620380449 0.25883339815888678 0 0.29132859388405002 0.27203693976649962 0 0.24432083401701241 0.3006253385567515 0 0.29348325746214782 0.31350119524708198 0 0.24432083401701241 0.3006253385567515 0 0.29132859388405002 0.27203693976649962 0 0 0.89999999999958358 0 0 0.84999999999965292 0 0.0443105827531413 0.89858748162559932 0 0 0.15000000000062411 0 0 0.10000000000041601 0 0.044310582753132287 0.101412518374475 0 0.59999999999999976 0.69999999999999996 0 0.59636844454254345 0.75937156204589151 0 0.55363780716230748 0.74348740161571747 0 0.1650278706801647 0.38791388161335733 0 0.22033343844674469 0.36963382230740238 0 0.191953871957803 0.42546416763755879 0 0.52289427570932567 0.3932284363388488 0 0.46655310992796922 0.39650496622958609 0 0.49077833859261139 0.35229981449445641 0 0.91696753777131557 0.497780560203536 0 0.88594198078881503 0.46167788676578442 0 0.93814194660195893 0.44426664081746747 0 0.24999999999941211 0 0 0.27499999999933927 0.060310814194988557 0 0.22668068146512929 0.045875643423131329 0 0.25000000000104028 1 0 0.22850979588452081 0.95594428570238643 0 0.27609987656793722 0.94991445621608572 0 0.77846603114747959 0.49850927265137401 0 0.77151014687832564 0.54436834383023036 0 0.73947346780852752 0.49062440112282169 0 0.27499999999933927 0.060310814194988557 0 0.27474541102162192 0.11822029332053539 0 0.24218496799700481 0.089025544070598317 0 0.27270076654418179 0.87751467830216623 0 0.29209212897034281 0.84715728365233667 0 0.30864387279288652 0.89906554525974958 0 0.3096713403101819 0.085471541595262421 0 0.27474541102162192 0.11822029332053539 0 0.27499999999933927 0.060310814194988557 0 0.17933913398461551 0.2350063570234002 0 0.18124454140915969 0.18790916706335251 0 0.224700362040408 0.22206622194729711 0 0.18269480424590959 0.75905448272264375 0 0.22556077506376701 0.77837424984191617 0 0.17777405986036951 0.81832336108265358 0 0.35864759629805099 0.87963482415279515 0 0.33403534827021109 0.84402799729020661 0 0.39536230704883951 0.84069429572832477 0 0.77354604466818633 0.40378688774472771 0 0.73483647259922602 0.44789725365921768 0 0.72622533758026719 0.40265885511101601 0 0.80185942888539485 0.77452061303608133 0 0.85491058998424563 0.76004753345552634 0 0.84725310900444062 0.80779732082917555 0 0.80185942888501827 0.074520613036224564 0 0.85491058998398861 0.060047533455626502 0 0.84725310900442086 0.10779732082922661 0 0.086179601630648681 0.64647209519980475 0 0.046634677244967337 0.671418230738282 0 0.050069554451969707 0.61308520079857043 0 0.087545339447545459 0.35122518864182262 0 0.050583896093752537 0.38543522283434112 0 0.046389130980076937 0.32668781832131749 0 0 0.75000000000034661 0 0.049706944316475897 0.72477277076253799 0 0.04408157711937423 0.7728941757575627 0 0 0.25000000000104028 0 0.044081577119474857 0.2271058242433576 0 0.049706944316556423 0.27522722923869108 0 0.52289427570932567 0.3932284363388488 0 0.56836770495988642 0.3523062350852913 0 0.57744073070774993 0.41535148636609359 0 0.6084546825910605 0.37989672713932537 0 0.57744073070774993 0.41535148636609359 0 0.56836770495988642 0.3523062350852913 0 0.61343887413683884 0.856862479058357 0 0.55899371797446828 0.85003102233514438 0 0.60294066490120068 0.80851322453934582 0 0.54782696902220018 0.79245182748204157 0 0.60294066490120068 0.80851322453934582 0 0.55899371797446828 0.85003102233514438 0 0.40326160981139969 0.73346192995102844 0 0.36622285152418499 0.69092437780804039 0 0.43323420005758778 0.6913544522562407 0 0.52289427570932567 0.3932284363388488 0 0.48858720058566618 0.43964267759203868 0 0.46655310992796922 0.39650496622958609 0 0.15720202157091859 0.60665697304410315 0 0.1154888278694548 0.56733818459978413 0 0.14934928745814749 0.55042914607228977 0 0.6879972333610942 0.43038561374960838 0 0.73483647259922602 0.44789725365921768 0 0.69385896817107129 0.48377516041410151 0 0.7250000000005199 0.89375000000045834 0 0.68987011941058407 0.92105047536677087 0 0.66412543161245952 0.88015090885499059 0 0.83573492347052902 0.36590755630746369 0 0.78145581580700685 0.34881365920033602 0 0.82500000000000062 0.33010209762754811 0 0.82862096804812391 0.55037090955459045 0 0.81441713509985358 0.51161854125224959 0 0.86907294890112186 0.52008116128001669 0 0.19670163708476801 0.31472518408333222 0 0.14223753364722069 0.3341983344262433 0 0.168349569971391 0.28054490850913671 0 0.50202631463681879 0.87892870825713787 0 0.45677673713123867 0.84253684404072415 0 0.50627822638148745 0.8263979829520941 0 0.099999999999814668 0 0 0.14999999999970359 0 0 0.10266856499169109 0.044518360900210059 0 0.15000000000062411 1 0 0.10000000000041601 1 0 0.10266856499240549 0.95548163909968886 0 0.67323294229744413 0.57556450033612505 0 0.63065402604362242 0.59661356661633302 0 0.62042975506801734 0.54295974692364424 0 0.083105206071467416 0.20007701332709979 0 0.13737030665753211 0.20313708640667491 0 0.095326043202144745 0.24554465089224409 0 0.083105206071452636 0.79992298667296435 0 0.090953281884486245 0.7564451946902494 0 0.1382744753146134 0.79650574229207483 0 0.50000000000205869 1 0 0.47135117303824892 0.95556877749289892 0 0.52122150208832174 0.94089974453840242 0 0.49999999999869432 0 0 0.52375890611712683 0.059318771819432882 0 0.47040171442036788 0.044141676406503738 0 0.4656888918609538 0.78493261229743638 0 0.45582236402875981 0.73896743678908217 0 0.50945740445113552 0.75476055527778108 0 0.5 0.69999999999999996 0 0.50945740445113552 0.75476055527778108 0 0.45582236402875981 0.73896743678908217 0 0.55306006949600994 0.20198184231352201 0 0.56202748619534593 0.15054058349222879 0 0.59443395090188023 0.18455690917515069 0 0.6236733212988993 0.14864538214901801 0 0.59443395090188023 0.18455690917515069 0 0.56202748619534593 0.15054058349222879 0 0.57412547362576272 0.58273804879550706 0 0.5498280205245758 0.6290146943450976 0 0.5166924242153631 0.59825134841919447 0 0.91696753777131557 0.497780560203536 0 0.93814194660195893 0.44426664081746747 0 0.96228564064454991 0.48206450662049471 0 0.15720202157091859 0.60665697304410315 0 0.16500388252850301 0.66612077714085194 0 0.1241190223511371 0.64391885572885044 0 0.44288491854585582 0.14116182884956319 0 0.47881186583059909 0.093591717165689425 0 0.48466639505193998 0.1421439844745814 0 1 0.54999999999963112 0 0.93732437411268477 0.55911392101136159 0 0.95631871884947484 0.51827533208233789 0 0.57724883562309992 0.92155686857100794 0 0.57382506491224949 0.9629411906298494 0 0.52122150208832174 0.94089974453840242 0 0.85170973911348691 0.93569607295217616 0 0.81159157511211755 0.88795995483179491 0 0.85600844944837662 0.88483418979512773 0 0.8517097391133297 0.2356960729520409 0 0.81283102246527783 0.1881007222486438 0 0.85600844944842547 0.1848341897950983 0 0.27866744612395528 0.38416094670951489 0 0.29124338931648802 0.43334555462578611 0 0.24049127783545701 0.41270748208749802 0 0.6084546825910605 0.37989672713932537 0 0.56836770495988642 0.3523062350852913 0 0.61959173890754571 0.33832250091341232 0 0.20050006573841939 0.53248514016039872 0 0.25115337790845271 0.54719303014923271 0 0.22549374774072969 0.58452645269293457 0 0.26573297623774761 0.59828298563722948 0 0.22549374774072969 0.58452645269293457 0 0.25115337790845271 0.54719303014923271 0 0.26104540868854792 0.81401944968719064 0 0.29209212897034281 0.84715728365233667 0 0.2401283238295133 0.85648409884788523 0 0.6236733212988993 0.14864538214901801 0 0.65290632656860115 0.11434202593454081 0 0.68391457121233579 0.14440470121196541 0 0.19901705110390991 0.9175543425573498 0 0.19741632902693801 0.86755867406447229 0 0.24536017905392571 0.90704567837671446 0 0.72500000000000064 0.7952620967744265 0 0.76901770135486491 0.84293557325473656 0 0.72863726579783861 0.85390518901155588 0 0.72500000000000064 0.7952620967744265 0 0.72863726579783861 0.85390518901155588 0 0.68697391633157634 0.84450604838764298 0 0.7250000000005199 0.89375000000045834 0 0.68697391633157634 0.84450604838764298 0 0.72863726579783861 0.85390518901155588 0 0.72525833953073282 0.1032114801687094 0 0.77144070960558853 0.14311854477243749 0 0.72634814642510737 0.16106886917518889 0 0.72525833953073282 0.1032114801687094 0 0.72634814642510737 0.16106886917518889 0 0.68391457121233579 0.14440470121196541 0 0.36622285152418499 0.69092437780804039 0 0.3977710372045391 0.65868194622830212 0 0.43323420005758778 0.6913544522562407 0 0 0.65000000000104008 0 0 0.60000000000138687 0 0.050069554451969707 0.61308520079857043 0 0 0.40000000000166441 0 0 0.35000000000145642 0 0.050583896093752537 0.38543522283434112 0 0.22033343844674469 0.36963382230740238 0 0.24049127783545701 0.41270748208749802 0 0.191953871957803 0.42546416763755879 0 0.5 0.29999999999999999 0 0.4604742573284204 0.27846934318264788 0 0.49695729691142171 0.25014895411178018 0 0.19741632902693801 0.86755867406447229 0 0.2401283238295133 0.85648409884788523 0 0.24536017905392571 0.90704567837671446 0 0 0.50000000000205869 0 0.068743045408989428 0.48853989837882689 0 0.044576108720083309 0.53509043209532614 0 0.15000000000062411 1 0 0.14617343800780541 0.93808063414349496 0 0.18474005699953849 0.96231585248064622 0 0.14999999999970359 0 0 0.184418230509967 0.038773194583122873 0 0.14618258501891079 0.062070108745602003 0 0.57667858002728545 0.078486105337742612 0 0.52375890611712683 0.059318771819432882 0 0.57396793757665954 0.037011367187645222 0 0.113541300460994 0.46208784312094731 0 0.078358742472063481 0.43365249433908948 0 0.13773355295499351 0.42497777642586831 0 0.77354604466818633 0.40378688774472771 0 0.78145581580700685 0.34881365920033602 0 0.81308179852519835 0.39754945808726527 0 0.38244435121258652 0.51653317813019495 0 0.33190227185843768 0.52715113583864037 0 0.35024835142131061 0.48654922671676981 0 0.64753070846764316 0.77332939069435502 0 0.65005442820240822 0.82644988530054031 0 0.60294066490120068 0.80851322453934582 0 0.15720202157091859 0.60665697304410315 0 0.1024350934457823 0.60772393977513839 0 0.1154888278694548 0.56733818459978413 0 0.90416666666660628 0.9041666666666166 0 0.85600844944837662 0.88483418979512773 0 0.88088768115933802 0.84674609810493673 0 0.90416666666668166 0.20416666666667119 0 0.85600844944842547 0.1848341897950983 0 0.88088768115941807 0.14674609810479519 0 0.078358742472063481 0.43365249433908948 0 0.1117088112799664 0.38831403004970022 0 0.13773355295499351 0.42497777642586831 0 0.38244435121258652 0.51653317813019495 0 0.3908716102680424 0.47010282357248828 0 0.43507373378304309 0.49699695397193322 0 0.90299850604011456 0.79563452813489832 0 0.95386563387742829 0.80414874155775029 0 0.93677536231884972 0.85000000000000286 0 0.90416666666660628 0.9041666666666166 0 0.93677536231884972 0.85000000000000286 0 0.95391631417670719 0.89584263333814784 0 0.90299850604006393 0.09563452813493091 0 0.95386563387744361 0.1041487415577465 0 0.93677536231883773 0.14999999999999089 0 0.90416666666668166 0.20416666666667119 0 0.93677536231883773 0.14999999999999089 0 0.95391631417672862 0.19584263333809451 0 0.39536230704883951 0.84069429572832477 0 0.44003836461056539 0.88093474584252718 0 0.39767323751400468 0.89584229130535065 0 0.51076801031701946 0.1202837388510348 0 0.52375890611712683 0.059318771819432882 0 0.54979595918804436 0.1060565713905809 0 0.57667858002728545 0.078486105337742612 0 0.54979595918804436 0.1060565713905809 0 0.52375890611712683 0.059318771819432882 0 0.57724883562309992 0.92155686857100794 0 0.52122150208832174 0.94089974453840242 0 0.54783390826260769 0.89287767010860219 0 0.50202631463681879 0.87892870825713787 0 0.54783390826260769 0.89287767010860219 0 0.52122150208832174 0.94089974453840242 0 0.087545339447545459 0.35122518864182262 0 0.093851963071650835 0.30582068233324772 0 0.14223753364722069 0.3341983344262433 0 0.54999999999999993 0.69999999999999996 0 0.59999999999999976 0.69999999999999996 0 0.55363780716230748 0.74348740161571747 0 0.083105206071452636 0.79992298667296435 0 0.1074251789111534 0.83564394292147814 0 0.065374659239661639 0.8551091961254178 0 0.083105206071467416 0.20007701332709979 0 0.065374659239632718 0.1448908038746782 0 0.106902708054812 0.16453234188234539 0 0.52289427570932567 0.3932284363388488 0 0.53823865529665704 0.45873898050322898 0 0.48858720058566618 0.43964267759203868 0 0.13737030665753211 0.20313708640667491 0 0.14377654328998779 0.2442024734791064 0 0.095326043202144745 0.24554465089224409 0 0.1382744753146134 0.79650574229207483 0 0.090953281884486245 0.7564451946902494 0 0.14335651144331049 0.75565258250209677 0 0.27270076654418179 0.87751467830216623 0 0.30864387279288652 0.89906554525974958 0 0.24536017905392571 0.90704567837671446 0 0.27609987656793722 0.94991445621608572 0 0.24536017905392571 0.90704567837671446 0 0.30864387279288652 0.89906554525974958 0 0.90299850604011456 0.79563452813489832 0 0.84725310900444062 0.80779732082917555 0 0.85491058998424563 0.76004753345552634 0 0.90299850604006393 0.09563452813493091 0 0.84725310900442086 0.10779732082922661 0 0.85491058998398861 0.060047533455626502 0 1 0.54999999999963112 0 1 0.59999999999973963 0 0.95867599106212187 0.60011091146651041 0 1 0.39999999999978308 0 1 0.44999999999963131 0 0.95871855522754235 0.40006508612975411 0 0.28040350263641872 0.23054717217092141 0 0.25195515620380449 0.25883339815888678 0 0.224700362040408 0.22206622194729711 0 0.84999999999999987 0.29999999999999999 0 0.87430060258887643 0.34056085888204451 0 0.82500000000000062 0.33010209762754811 0 0.84999999999999987 0.69999999999999996 0 0.82457059160610424 0.66831947184359608 0 0.87712158428786946 0.65709029563313581 0 0.86956835336234861 0.571283299838105 0 0.87159648282691515 0.61285406320581504 0 0.81723410853263523 0.59419663659258926 0 0.43698630808430822 0.080423614171545449 0 0.47881186583059909 0.093591717165689425 0 0.44288491854585582 0.14116182884956319 0 1 0.44999999999963131 0 0.96228564064454991 0.48206450662049471 0 0.93814194660195893 0.44426664081746747 0 0.35752321586431363 0.9185439911803448 0 0.30864387279288652 0.89906554525974958 0 0.35864759629805099 0.87963482415279515 0 0.29124338931648802 0.43334555462578611 0 0.25982634974572738 0.46097799597715272 0 0.24049127783545701 0.41270748208749802 0 0.51076801031701946 0.1202837388510348 0 0.56202748619534593 0.15054058349222879 0 0.51729576145820033 0.1683240575987815 0 0.55306006949600994 0.20198184231352201 0 0.51729576145820033 0.1683240575987815 0 0.56202748619534593 0.15054058349222879 0 0.26429849586623999 0.19346700179430079 0 0.28040350263641872 0.23054717217092141 0 0.224700362040408 0.22206622194729711 0 0.51076801031701946 0.1202837388510348 0 0.48466639505193998 0.1421439844745814 0 0.47881186583059909 0.093591717165689425 0 0.2185883431182947 0.18019736283949719 0 0.26429849586623999 0.19346700179430079 0 0.224700362040408 0.22206622194729711 0 0.18269480424590959 0.75905448272264375 0 0.2248999640082178 0.72584299459689172 0 0.22556077506376701 0.77837424984191617 0 0.51076801031701946 0.1202837388510348 0 0.47881186583059909 0.093591717165689425 0 0.52375890611712683 0.059318771819432882 0 0.50202631463681879 0.87892870825713787 0 0.52122150208832174 0.94089974453840242 0 0.47401147028110507 0.91529957330468115 0 0 0.84999999999965292 0 0.038512288486097702 0.8155852717111195 0 0.065374659239661639 0.8551091961254178 0 0 0.15000000000062411 0 0.065374659239632718 0.1448908038746782 0 0.038512288486115001 0.1844147282893184 0 0.2185883431182947 0.18019736283949719 0 0.224700362040408 0.22206622194729711 0 0.18124454140915969 0.18790916706335251 0 0.21858834311891909 0.81980263716112767 0 0.17777405986036951 0.81832336108265358 0 0.22556077506376701 0.77837424984191617 0 0.1215415378367805 0.72939333680004137 0 0.1020579365089687 0.69352219419301997 0 0.15332765547575641 0.71200081858233666 0 0.49695729691142171 0.25014895411178018 0 0.50760557329222289 0.20700468884612061 0 0.54248833945060504 0.2520322959927106 0 0.15720202157091859 0.60665697304410315 0 0.14934928745814749 0.55042914607228977 0 0.18381867841758909 0.57774125163628387 0 0.90416666666660628 0.9041666666666166 0 0.85170973911348691 0.93569607295217616 0 0.85600844944837662 0.88483418979512773 0 0.90416666666668166 0.20416666666667119 0 0.8517097391133297 0.2356960729520409 0 0.85600844944842547 0.1848341897950983 0 0.17933913398461551 0.2350063570234002 0 0.13737030665753211 0.20313708640667491 0 0.18124454140915969 0.18790916706335251 0 0.18269480424590959 0.75905448272264375 0 0.17777405986036951 0.81832336108265358 0 0.1382744753146134 0.79650574229207483 0 0.1216098864341134 0.50637075089503902 0 0.15801167086041079 0.46008690540259539 0 0.16618607197337229 0.50652878253548905 0 0.50760557329222289 0.20700468884612061 0 0.55306006949600994 0.20198184231352201 0 0.54248833945060504 0.2520322959927106 0 0.75000000000034661 1 0 0.7000000000006934 1 0 0.7250000000005199 0.94981617647078953 0 0.69999999999999984 0.29999999999999999 0 0.72500000000000064 0.2498161764706 0 0.74999999999999989 0.29999999999999999 0 0.72525833953073282 0.1032114801687094 0 0.68391457121233579 0.14440470121196541 0 0.68330259535470161 0.10038702501083881 0 0.43249999999999988 0.43937499999999979 0 0.46655310992796922 0.39650496622958609 0 0.48858720058566618 0.43964267759203868 0 0.19901705110390991 0.9175543425573498 0 0.14617343800780541 0.93808063414349496 0 0.16206583317966519 0.89685560785156404 0 0.19922788606653311 0.085920220746880993 0 0.16141998738593399 0.10404039647458049 0 0.14618258501891079 0.062070108745602003 0 0.31378396441836959 0.70157213313026345 0 0.26439878998046262 0.7048065392091396 0 0.27820712747429932 0.65530134213254643 0 0.1216098864341134 0.50637075089503902 0 0.113541300460994 0.46208784312094731 0 0.15801167086041079 0.46008690540259539 0 0.6084546825910605 0.37989672713932537 0 0.65481233915350323 0.35652751921065562 0 0.63912439215427275 0.41063340167983359 0 0.19901705110390991 0.9175543425573498 0 0.18474005699953849 0.96231585248064622 0 0.14617343800780541 0.93808063414349496 0 0.19922788606653311 0.085920220746880993 0 0.14618258501891079 0.062070108745602003 0 0.184418230509967 0.038773194583122873 0 0.38244435121258652 0.51653317813019495 0 0.35024835142131061 0.48654922671676981 0 0.3908716102680424 0.47010282357248828 0 0.82709327591102189 0.14937141670914489 0 0.77144070960558853 0.14311854477243749 0 0.80076557130237269 0.1154587552654202 0 0.82709327591091286 0.84937141670920724 0 0.76901770135486491 0.84293557325473656 0 0.80041942726660109 0.81543261647703358 0 0.43698630808430822 0.080423614171545449 0 0.44288491854585582 0.14116182884956319 0 0.39823268594401579 0.1116623613130045 0 0.39801143831225599 0.16651381068160659 0 0.39823268594401579 0.1116623613130045 0 0.44288491854585582 0.14116182884956319 0 0.36575549820117997 0.31677992835137742 0 0.3786248352540974 0.27082301512024259 0 0.41914690343363781 0.30688979866601612 0 0.42377727103934271 0.25099357235810238 0 0.41914690343363781 0.30688979866601612 0 0.3786248352540974 0.27082301512024259 0 0.049706944316475897 0.72477277076253799 0 0.1020579365089687 0.69352219419301997 0 0.090953281884486245 0.7564451946902494 0 0.1215415378367805 0.72939333680004137 0 0.090953281884486245 0.7564451946902494 0 0.1020579365089687 0.69352219419301997 0 0.1247745017231483 0.27198077544791172 0 0.093851963071650835 0.30582068233324772 0 0.095326043202144745 0.24554465089224409 0 0.049706944316556423 0.27522722923869108 0 0.095326043202144745 0.24554465089224409 0 0.093851963071650835 0.30582068233324772 0 0.77354604466818633 0.40378688774472771 0 0.81973119833356312 0.43505687159469048 0 0.77972660463949339 0.45529290596363098 0 0.43249999999999988 0.43937499999999979 0 0.43507373378304309 0.49699695397193322 0 0.3908716102680424 0.47010282357248828 0 0.26573297623774761 0.59828298563722948 0 0.2459498854893499 0.63248470766216769 0 0.22549374774072969 0.58452645269293457 0 0.72500000000000064 0.7952620967744265 0 0.77094201086366854 0.79647480515688507 0 0.76901770135486491 0.84293557325473656 0 0.72525833953073282 0.1032114801687094 0 0.76878382444651716 0.097147941686331368 0 0.77144070960558853 0.14311854477243749 0 0.72500000000000064 0.7952620967744265 0 0.68697391633157634 0.84450604838764298 0 0.68024162096458085 0.79868546898116533 0 0.31378396441836959 0.70157213313026345 0 0.29904318922293632 0.74132814928635593 0 0.26439878998046262 0.7048065392091396 0 0.31378396441836959 0.70157213313026345 0 0.35415581127540569 0.73730480045900215 0 0.29904318922293632 0.74132814928635593 0 0.61343887413683884 0.856862479058357 0 0.65005442820240822 0.82644988530054031 0 0.66412543161245952 0.88015090885499059 0 0.68697391633157634 0.84450604838764298 0 0.66412543161245952 0.88015090885499059 0 0.65005442820240822 0.82644988530054031 0 0.083411279318375747 0.91030024466934134 0 0.065374659239661639 0.8551091961254178 0 0.10562472963403439 0.87143394428979881 0 0.083411279318303222 0.089699755330707398 0 0.1053400320299198 0.12877248826361379 0 0.065374659239632718 0.1448908038746782 0 0.55306006949600994 0.20198184231352201 0 0.59443395090188023 0.18455690917515069 0 0.59814117807200873 0.23398510860739519 0 0.84999999999999987 0.29999999999999999 0 0.89999999999999991 0.29999999999999999 0 0.87430060258887643 0.34056085888204451 0 0.84999999999999987 0.69999999999999996 0 0.87712158428786946 0.65709029563313581 0 0.89999999999999991 0.69999999999999996 0 0.34258405725730701 0.4444034294386992 0 0.3908716102680424 0.47010282357248828 0 0.35024835142131061 0.48654922671676981 0 0.26573297623774761 0.59828298563722948 0 0.31502927232353312 0.6134992213375432 0 0.27820712747429932 0.65530134213254643 0 0.91696753777131557 0.497780560203536 0 0.86907294890112186 0.52008116128001669 0 0.88594198078881503 0.46167788676578442 0 0.84723782639812573 0.48638347960178252 0 0.88594198078881503 0.46167788676578442 0 0.86907294890112186 0.52008116128001669 0 0.7152569930854884 0.5237994455134295 0 0.77151014687832564 0.54436834383023036 0 0.71809016091162536 0.58185040402320831 0 0.90416666666660628 0.9041666666666166 0 0.89898474358632463 0.95391965591118966 0 0.85170973911348691 0.93569607295217616 0 0.90416666666668166 0.20416666666667119 0 0.89898474358614167 0.25391965591104898 0 0.8517097391133297 0.2356960729520409 0 0.91750694127107502 0.36982372220068471 0 0.95780851984364423 0.34215720972155339 0 0.95871855522754235 0.40006508612975411 0 0.91750694127105259 0.63017627779935648 0 0.95867599106212187 0.60011091146651041 0 0.9578014258160763 0.65787212321113708 0 0.90299850604011456 0.79563452813489832 0 0.88088768115933802 0.84674609810493673 0 0.84725310900444062 0.80779732082917555 0 0.90299850604006393 0.09563452813493091 0 0.88088768115941807 0.14674609810479519 0 0.84725310900442086 0.10779732082922661 0 0.1216098864341134 0.50637075089503902 0 0.16618607197337229 0.50652878253548905 0 0.14934928745814749 0.55042914607228977 0 0.20050006573841939 0.53248514016039872 0 0.14934928745814749 0.55042914607228977 0 0.16618607197337229 0.50652878253548905 0 0.80185942888539485 0.77452061303608133 0 0.84725310900444062 0.80779732082917555 0 0.80041942726660109 0.81543261647703358 0 0.80185942888501827 0.074520613036224564 0 0.84725310900442086 0.10779732082922661 0 0.80076557130237269 0.1154587552654202 0 0.083105206071452636 0.79992298667296435 0 0.065374659239661639 0.8551091961254178 0 0.038512288486097702 0.8155852717111195 0 0.083105206071467416 0.20007701332709979 0 0.038512288486115001 0.1844147282893184 0 0.065374659239632718 0.1448908038746782 0 0.54782696902220018 0.79245182748204157 0 0.59636844454254345 0.75937156204589151 0 0.60294066490120068 0.80851322453934582 0 0.083411279318375747 0.91030024466934134 0 0.0443105827531413 0.89858748162559932 0 0.065374659239661639 0.8551091961254178 0 0.083411279318303222 0.089699755330707398 0 0.065374659239632718 0.1448908038746782 0 0.044310582753132287 0.101412518374475 0 0.84999999999965292 1 0 0.81486180804382891 0.96321394949790495 0 0.85170973911348691 0.93569607295217616 0 0.84999999999999987 0.29999999999999999 0 0.81486180804364938 0.26321394949780091 0 0.8517097391133297 0.2356960729520409 0 0.4656888918609538 0.78493261229743638 0 0.45677673713123867 0.84253684404072415 0 0.42609163930740518 0.80361684430568059 0 0.39536230704883951 0.84069429572832477 0 0.42609163930740518 0.80361684430568059 0 0.45677673713123867 0.84253684404072415 0 0.6236733212988993 0.14864538214901801 0 0.56202748619534593 0.15054058349222879 0 0.58516465772821369 0.11653801664834119 0 0.57412547362576272 0.58273804879550706 0 0.63065402604362242 0.59661356661633302 0 0.5991018319127801 0.62925360607495295 0 0.61343887413683884 0.856862479058357 0 0.5832743223239254 0.88483152652961872 0 0.55899371797446828 0.85003102233514438 0 0.50202631463681879 0.87892870825713787 0 0.55899371797446828 0.85003102233514438 0 0.54783390826260769 0.89287767010860219 0 0.51076801031701946 0.1202837388510348 0 0.54979595918804436 0.1060565713905809 0 0.56202748619534593 0.15054058349222879 0 0.55306006949600994 0.20198184231352201 0 0.59814117807200873 0.23398510860739519 0 0.54248833945060504 0.2520322959927106 0 0.83573492347052902 0.36590755630746369 0 0.82500000000000062 0.33010209762754811 0 0.87430060258887643 0.34056085888204451 0 0.83758014339878906 0.63222013025741819 0 0.87712158428786946 0.65709029563313581 0 0.82457059160610424 0.66831947184359608 0 0.49102375406324739 0.49123754822244059 0 0.53823865529665704 0.45873898050322898 0 0.53330375813596242 0.50827942741749099 0 0.52289427570932567 0.3932284363388488 0 0.57744073070774993 0.41535148636609359 0 0.53823865529665704 0.45873898050322898 0 0.4089290844030305 0.58728915500154233 0 0.37272913873093971 0.56192925302619479 0 0.42644501560315817 0.54603747078095544 0 0.49695729691142171 0.25014895411178018 0 0.4604742573284204 0.27846934318264788 0 0.46429753744194407 0.22870891180733599 0 0.90299850604011456 0.79563452813489832 0 0.85491058998424563 0.76004753345552634 0 0.89999166460796554 0.74528934923809909 0 0.90299850604006393 0.09563452813493091 0 0.85491058998398861 0.060047533455626502 0 0.899991664607802 0.045289349238254978 0 0.38244435121258652 0.51653317813019495 0 0.42644501560315817 0.54603747078095544 0 0.37272913873093971 0.56192925302619479 0 0.71406021706547751 0.63292083137662503 0 0.71809016091162536 0.58185040402320831 0 0.74994237037456724 0.62775548192980357 0 0.84723782639812573 0.48638347960178252 0 0.86907294890112186 0.52008116128001669 0 0.81441713509985358 0.51161854125224959 0 0.33122374654748771 0.57588941099433744 0 0.33190227185843768 0.52715113583864037 0 0.37272913873093971 0.56192925302619479 0 0.086179601630648681 0.64647209519980475 0 0.1241190223511371 0.64391885572885044 0 0.1020579365089687 0.69352219419301997 0 0.59999999999894682 0 0 0.64999999999907843 0 0 0.61940220174112337 0.047251958781050582 0 0.18269480424590959 0.75905448272264375 0 0.14335651144331049 0.75565258250209677 0 0.15332765547575641 0.71200081858233666 0 0.22549374774072969 0.58452645269293457 0 0.2459498854893499 0.63248470766216769 0 0.19914261668318661 0.62286739485272158 0 0.38244435121258652 0.51653317813019495 0 0.43507373378304309 0.49699695397193322 0 0.42644501560315817 0.54603747078095544 0 0.65000000000104008 1 0 0.60000000000138687 1 0 0.62065498684670595 0.95224934003983619 0 0.078358742472063481 0.43365249433908948 0 0.068743045408989428 0.48853989837882689 0 0.033550201249889847 0.46247875832467239 0 0.2236846579037573 0.67380363126050236 0 0.27820712747429932 0.65530134213254643 0 0.26439878998046262 0.7048065392091396 0 0.6879972333610942 0.43038561374960838 0 0.68128176404677243 0.38629093627004979 0 0.72622533758026719 0.40265885511101601 0 0.72525833953073282 0.1032114801687094 0 0.7010294155333181 0.056779085686491267 0 0.7527966693318906 0.053051678021508272 0 0.18269480424590959 0.75905448272264375 0 0.15332765547575641 0.71200081858233666 0 0.19068556247388771 0.71028988922845504 0 0.1216098864341134 0.50637075089503902 0 0.085622222639554768 0.53333248912060549 0 0.068743045408989428 0.48853989837882689 0 0.25676291524611189 0.7436741304886243 0 0.26439878998046262 0.7048065392091396 0 0.29904318922293632 0.74132814928635593 0 0.65481233915350323 0.35652751921065562 0 0.68128176404677243 0.38629093627004979 0 0.63912439215427275 0.41063340167983359 0 0.83573492347052902 0.36590755630746369 0 0.86844634540301924 0.38530937474099819 0 0.81308179852519835 0.39754945808726527 0 0.27270076654418179 0.87751467830216623 0 0.2401283238295133 0.85648409884788523 0 0.29209212897034281 0.84715728365233667 0 0.84999999999999987 0.69999999999999996 0 0.85491058998424563 0.76004753345552634 0 0.81864958914779962 0.73589050177899629 0 0.84999999999960507 0 0 0.85491058998398861 0.060047533455626502 0 0.81864958914740749 0.035890501779055867 0 0.18381867841758909 0.57774125163628387 0 0.19914261668318661 0.62286739485272158 0 0.15720202157091859 0.60665697304410315 0 0.22549374774072969 0.58452645269293457 0 0.19914261668318661 0.62286739485272158 0 0.18381867841758909 0.57774125163628387 0 0.79680861578988083 0.92656778056766709 0 0.85170973911348691 0.93569607295217616 0 0.81486180804382891 0.96321394949790495 0 0.79680861578956375 0.22656778056752541 0 0.8517097391133297 0.2356960729520409 0 0.81486180804364938 0.26321394949780091 0 0.20050006573841939 0.53248514016039872 0 0.23975172658309729 0.49475499200540818 0 0.25115337790845271 0.54719303014923271 0 0.28307294598219601 0.50789252727458634 0 0.25115337790845271 0.54719303014923271 0 0.23975172658309729 0.49475499200540818 0 0.20050006573841939 0.53248514016039872 0 0.18381867841758909 0.57774125163628387 0 0.14934928745814749 0.55042914607228977 0 0.19922788606653311 0.085920220746880993 0 0.22985637510995899 0.1298347970200906 0 0.18652628422869419 0.14162325200928061 0 0.33758650185219202 0.23837101504325639 0 0.38831533174504851 0.2189834941785925 0 0.3786248352540974 0.27082301512024259 0 0.42377727103934271 0.25099357235810238 0 0.3786248352540974 0.27082301512024259 0 0.38831533174504851 0.2189834941785925 0 0.19922788606653311 0.085920220746880993 0 0.18652628422869419 0.14162325200928061 0 0.16141998738593399 0.10404039647458049 0 0.54782696902220018 0.79245182748204157 0 0.55363780716230748 0.74348740161571747 0 0.59636844454254345 0.75937156204589151 0 0.82709327591091286 0.84937141670920724 0 0.88088768115933802 0.84674609810493673 0 0.85600844944837662 0.88483418979512773 0 0.82709327591102189 0.14937141670914489 0 0.88088768115941807 0.14674609810479519 0 0.85600844944842547 0.1848341897950983 0 0.27866744612395528 0.38416094670951489 0 0.22033343844674469 0.36963382230740238 0 0.25966125648670141 0.34351016742083729 0 0 0.50000000000205869 0 0.033550201249889847 0.46247875832467239 0 0.068743045408989428 0.48853989837882689 0 0.31378396441836959 0.70157213313026345 0 0.36622285152418499 0.69092437780804039 0 0.35415581127540569 0.73730480045900215 0 0.77293540622714185 0.59448302402785813 0 0.71809016091162536 0.58185040402320831 0 0.77151014687832564 0.54436834383023036 0 0.7152569930854884 0.5237994455134295 0 0.69385896817107129 0.48377516041410151 0 0.73947346780852752 0.49062440112282169 0 0.15801167086041079 0.46008690540259539 0 0.191953871957803 0.42546416763755879 0 0.19604738184454831 0.47787523520405789 0 0.57667858002728545 0.078486105337742612 0 0.61940220174112337 0.047251958781050582 0 0.61956000905586006 0.1043312481793135 0 0.65408113592120842 0.073941773121567966 0 0.61956000905586006 0.1043312481793135 0 0.61940220174112337 0.047251958781050582 0 0 0.55000000000173355 0 0 0.50000000000205869 0 0.044576108720083309 0.53509043209532614 0 0.65507451745379841 0.92229208810758578 0 0.62065498684670595 0.95224934003983619 0 0.61885627562261258 0.90282959257498208 0 0.57724883562309992 0.92155686857100794 0 0.61885627562261258 0.90282959257498208 0 0.62065498684670595 0.95224934003983619 0 0.91750694127107502 0.36982372220068471 0 0.86844634540301924 0.38530937474099819 0 0.87430060258887643 0.34056085888204451 0 0.91750694127105259 0.63017627779935648 0 0.87712158428786946 0.65709029563313581 0 0.87159648282691515 0.61285406320581504 0 0.33123028043633618 0.77629643437932982 0 0.29904318922293632 0.74132814928635593 0 0.35415581127540569 0.73730480045900215 0 0.86411095495256451 0.42388805655111889 0 0.84925632466077294 0.45359738909549091 0 0.81973119833356312 0.43505687159469048 0 0.43846182030517877 0.64845797726506715 0 0.47913475093885149 0.66010775372412711 0 0.43323420005758778 0.6913544522562407 0 0.18269480424590959 0.75905448272264375 0 0.19068556247388771 0.71028988922845504 0 0.2248999640082178 0.72584299459689172 0 0.39536230704883951 0.84069429572832477 0 0.38586766253264881 0.78219501014812498 0 0.42609163930740518 0.80361684430568059 0 0.59999999999999976 0.69999999999999996 0 0.63221990677827677 0.73442891067859706 0 0.59636844454254345 0.75937156204589151 0 0.27866744612395528 0.38416094670951489 0 0.24049127783545701 0.41270748208749802 0 0.22033343844674469 0.36963382230740238 0 0.82709327591091286 0.84937141670920724 0 0.84725310900444062 0.80779732082917555 0 0.88088768115933802 0.84674609810493673 0 0.82709327591102189 0.14937141670914489 0 0.84725310900442086 0.10779732082922661 0 0.88088768115941807 0.14674609810479519 0 0.1650278706801647 0.38791388161335733 0 0.18434624290945251 0.35208838264196463 0 0.22033343844674469 0.36963382230740238 0 0.4409427642593301 0.35743108089689513 0 0.49077833859261139 0.35229981449445641 0 0.46655310992796922 0.39650496622958609 0 0.80185942888539485 0.77452061303608133 0 0.81864958914779962 0.73589050177899629 0 0.85491058998424563 0.76004753345552634 0 0.80185942888501827 0.074520613036224564 0 0.81864958914740749 0.035890501779055867 0 0.85491058998398861 0.060047533455626502 0 0.29999999999926641 0 0 0.34999999999912063 0 0 0.32541448401678508 0.046215317981507749 0 0.35000000000145642 1 0 0.30000000000124832 1 0 0.32544832635163229 0.95485394099568932 0 0.4656888918609538 0.78493261229743638 0 0.50731287292894423 0.78963574450233831 0 0.50627822638148745 0.8263979829520941 0 0.2185883431182947 0.18019736283949719 0 0.25557216766470708 0.15874861286892261 0 0.26429849586623999 0.19346700179430079 0 1 0.29999999999999999 0 1 0.34999999999993492 0 0.95780851984364423 0.34215720972155339 0 1 0.29999999999999999 0 0.95780851984364423 0.34215720972155339 0 0.94999999999999996 0.29999999999999999 0 1 0.69999999999999996 0 0.94999999999999996 0.69999999999999996 0 0.9578014258160763 0.65787212321113708 0 1 0.69999999999999996 0 0.9578014258160763 0.65787212321113708 0 1 0.64999999999986979 0 0.91750694127107502 0.36982372220068471 0 0.90594285160987287 0.4141265964174129 0 0.86844634540301924 0.38530937474099819 0 0.91750694127105259 0.63017627779935648 0 0.87159648282691515 0.61285406320581504 0 0.91143117093204207 0.58709913730335972 0 0.74999999999999989 0.69999999999999996 0 0.7750489929959945 0.66593931409600093 0 0.79999999999999982 0.69999999999999996 0 0.74999999999999989 0.29999999999999999 0 0.79999999999999982 0.29999999999999999 0 0.78145581580700685 0.34881365920033602 0 0.54999999999999993 0.69999999999999996 0 0.57484956128872922 0.66573805030881994 0 0.59999999999999976 0.69999999999999996 0 0.90299850604011456 0.79563452813489832 0 0.94399509803918602 0.75600490196082126 0 0.95386563387742829 0.80414874155775029 0 0.90416666666660628 0.9041666666666166 0 0.95391631417670719 0.89584263333814784 0 0.94399509803919068 0.9439950980391687 0 0.90299850604006393 0.09563452813493091 0 0.94399509803922566 0.056004901960802607 0 0.95386563387744361 0.1041487415577465 0 0.90416666666668166 0.20416666666667119 0 0.95391631417672862 0.19584263333809451 0 0.94399509803921056 0.24399509803922639 0 0.22278230690790279 0.44824268025881547 0 0.19604738184454831 0.47787523520405789 0 0.191953871957803 0.42546416763755879 0 0.90299850604011456 0.79563452813489832 0 0.89999166460796554 0.74528934923809909 0 0.94399509803918602 0.75600490196082126 0 0.90299850604006393 0.09563452813493091 0 0.899991664607802 0.045289349238254978 0 0.94399509803922566 0.056004901960802607 0 0.49102375406324739 0.49123754822244059 0 0.47793794143994173 0.52940715638744962 0 0.43507373378304309 0.49699695397193322 0 0.90416666666660628 0.9041666666666166 0 0.94399509803919068 0.9439950980391687 0 0.89898474358632463 0.95391965591118966 0 0.90416666666668166 0.20416666666667119 0 0.94399509803921056 0.24399509803922639 0 0.89898474358614167 0.25391965591104898 0 0.65394964615507722 0.22666784374016369 0 0.62657463266645097 0.26524202571255862 0 0.59814117807200873 0.23398510860739519 0 0.6084546825910605 0.37989672713932537 0 0.63912439215427275 0.41063340167983359 0 0.57744073070774993 0.41535148636609359 0 0.61209567303293111 0.44669033081290321 0 0.57744073070774993 0.41535148636609359 0 0.63912439215427275 0.41063340167983359 0 0.25676291524611189 0.7436741304886243 0 0.22556077506376701 0.77837424984191617 0 0.2248999640082178 0.72584299459689172 0 0.61343887413683884 0.856862479058357 0 0.60294066490120068 0.80851322453934582 0 0.65005442820240822 0.82644988530054031 0 0.64999999999907843 0 0 0.66369801598854572 0.036327466368102787 0 0.61940220174112337 0.047251958781050582 0 0.40326160981139969 0.73346192995102844 0 0.38586766253264881 0.78219501014812498 0 0.35415581127540569 0.73730480045900215 0 0.33123028043633618 0.77629643437932982 0 0.35415581127540569 0.73730480045900215 0 0.38586766253264881 0.78219501014812498 0 0.26573297623774761 0.59828298563722948 0 0.29110487519241501 0.56588143995431495 0 0.31502927232353312 0.6134992213375432 0 0.77846603114747959 0.49850927265137401 0 0.81441713509985358 0.51161854125224959 0 0.77151014687832564 0.54436834383023036 0 0.82862096804812391 0.55037090955459045 0 0.77151014687832564 0.54436834383023036 0 0.81441713509985358 0.51161854125224959 0 0.50000000000205869 1 0 0.45000000000187229 1 0 0.47135117303824892 0.95556877749289892 0 0.44999999999882923 0 0 0.49999999999869432 0 0 0.47040171442036788 0.044141676406503738 0 0 0.7000000000006934 0 0 0.65000000000104008 0 0.046634677244967337 0.671418230738282 0 0 0.35000000000145642 0 0 0.30000000000124832 0 0.046389130980076937 0.32668781832131749 0 0.31378396441836959 0.70157213313026345 0 0.27820712747429932 0.65530134213254643 0 0.32263089806001177 0.66003674931826484 0 0.33122374654748771 0.57588941099433744 0 0.31502927232353312 0.6134992213375432 0 0.29110487519241501 0.56588143995431495 0 0.26573297623774761 0.59828298563722948 0 0.27820712747429932 0.65530134213254643 0 0.2459498854893499 0.63248470766216769 0 0.14474682429600511 0.85524784522713515 0 0.16206583317966519 0.89685560785156404 0 0.1241151115713819 0.9045666525468371 0 0.14332333627550789 0.14578431753966009 0 0.12372429750337779 0.095814237875728972 0 0.16141998738593399 0.10404039647458049 0 0.64753070846764316 0.77332939069435502 0 0.59636844454254345 0.75937156204589151 0 0.63221990677827677 0.73442891067859706 0 0.14474682429600511 0.85524784522713515 0 0.1241151115713819 0.9045666525468371 0 0.10562472963403439 0.87143394428979881 0 0.14332333627550789 0.14578431753966009 0 0.1053400320299198 0.12877248826361379 0 0.12372429750337779 0.095814237875728972 0 0.77354604466818633 0.40378688774472771 0 0.81308179852519835 0.39754945808726527 0 0.81973119833356312 0.43505687159469048 0 0.54782696902220018 0.79245182748204157 0 0.50945740445113552 0.75476055527778108 0 0.55363780716230748 0.74348740161571747 0 0.2236846579037573 0.67380363126050236 0 0.2459498854893499 0.63248470766216769 0 0.27820712747429932 0.65530134213254643 0 0.77293540622714185 0.59448302402785813 0 0.74994237037456724 0.62775548192980357 0 0.71809016091162536 0.58185040402320831 0 0 0.79999999999999982 0 0 0.75000000000034661 0 0.04408157711937423 0.7728941757575627 0 0 0.25000000000104028 0 0 0.20000000000083221 0 0.044081577119474857 0.2271058242433576 0 0.19999999999955789 0 0 0.24999999999941211 0 0 0.22668068146512929 0.045875643423131329 0 0.25000000000104028 1 0 0.20000000000083221 1 0 0.22850979588452081 0.95594428570238643 0 0.47357141910802508 0.1873585799078378 0 0.44288491854585582 0.14116182884956319 0 0.48466639505193998 0.1421439844745814 0 0.59999999999999976 0.29999999999999999 0 0.5794309697024993 0.27124795968204829 0 0.62657463266645097 0.26524202571255862 0 0.43249999999999988 0.43937499999999979 0 0.42161023666869668 0.39493916313643851 0 0.46655310992796922 0.39650496622958609 0 0.31068898841644388 0.47541502461811092 0 0.33190227185843768 0.52715113583864037 0 0.28307294598219601 0.50789252727458634 0 0.35024835142131061 0.48654922671676981 0 0.33190227185843768 0.52715113583864037 0 0.31068898841644388 0.47541502461811092 0 0.35864735590330371 0.63903383440414463 0 0.36622285152418499 0.69092437780804039 0 0.32263089806001177 0.66003674931826484 0 0.31378396441836959 0.70157213313026345 0 0.32263089806001177 0.66003674931826484 0 0.36622285152418499 0.69092437780804039 0 0.86956835336234861 0.571283299838105 0 0.90900154012161016 0.53607784105648792 0 0.91143117093204207 0.58709913730335972 0 0.6499999999999998 0.29999999999999999 0 0.65481233915350323 0.35652751921065562 0 0.61959173890754571 0.33832250091341232 0 0.4409427642593301 0.35743108089689513 0 0.46226845272279993 0.31901800744800313 0 0.49077833859261139 0.35229981449445641 0 0.5 0.29999999999999999 0 0.49077833859261139 0.35229981449445641 0 0.46226845272279993 0.31901800744800313 0 0.14999999999970359 0 0 0.19999999999955789 0 0 0.184418230509967 0.038773194583122873 0 0.20000000000083221 1 0 0.15000000000062411 1 0 0.18474005699953849 0.96231585248064622 0 1 0.49999999999950101 0 1 0.54999999999963112 0 0.95631871884947484 0.51827533208233789 0 0.38586766253264881 0.78219501014812498 0 0.42676259796334498 0.76772545931379299 0 0.42609163930740518 0.80361684430568059 0 0.20050006573841939 0.53248514016039872 0 0.22549374774072969 0.58452645269293457 0 0.18381867841758909 0.57774125163628387 0 0.065374659239661639 0.8551091961254178 0 0.1074251789111534 0.83564394292147814 0 0.10562472963403439 0.87143394428979881 0 0.065374659239632718 0.1448908038746782 0 0.1053400320299198 0.12877248826361379 0 0.106902708054812 0.16453234188234539 0 0.1650278706801647 0.38791388161335733 0 0.14223753364722069 0.3341983344262433 0 0.18434624290945251 0.35208838264196463 0 0.43249999999999988 0.43937499999999979 0 0.46111841286828259 0.46690301029591341 0 0.43507373378304309 0.49699695397193322 0 0.83758014339878906 0.63222013025741819 0 0.81723410853263523 0.59419663659258926 0 0.87159648282691515 0.61285406320581504 0 0.19670163708476801 0.31472518408333222 0 0.18434624290945251 0.35208838264196463 0 0.14223753364722069 0.3341983344262433 0 0.75000000000034661 1 0 0.7250000000005199 0.94981617647078953 0 0.770759834363826 0.95919399014344442 0 0.74999999999999989 0.29999999999999999 0 0.72500000000000064 0.2498161764706 0 0.77075983436335049 0.25919399014334171 0 0.69999999999999984 0.29999999999999999 0 0.67933712972090698 0.25920070958121938 0 0.72500000000000064 0.2498161764706 0 0.57611405284611883 0.50165903596042916 0 0.53330375813596242 0.50827942741749099 0 0.53823865529665704 0.45873898050322898 0 0.6499999999999998 0.29999999999999999 0 0.68887083591306764 0.33632058575757479 0 0.65481233915350323 0.35652751921065562 0 0.27866744612395528 0.38416094670951489 0 0.33277555741076909 0.36432196682010132 0 0.31778888742534622 0.40581751814196781 0 0.49102375406324739 0.49123754822244059 0 0.43507373378304309 0.49699695397193322 0 0.46111841286828259 0.46690301029591341 0 0.94999999999999996 0.69999999999999996 0 0.97166519676947294 0.73337114490064459 0 0.94399509803918602 0.75600490196082126 0 0.94999999999986839 0 0 0.97166519676946894 0.033371144900598393 0 0.94399509803922566 0.056004901960802607 0 0.94999999999999996 0.29999999999999999 0 0.94399509803921056 0.24399509803922639 0 0.97166519676951801 0.26662885509932011 0 0.94999999999979179 1 0 0.94399509803919068 0.9439950980391687 0 0.97166519676946206 0.96662885509935492 0 0.34258405725730701 0.4444034294386992 0 0.29124338931648802 0.43334555462578611 0 0.31778888742534622 0.40581751814196781 0 0.27866744612395528 0.38416094670951489 0 0.31778888742534622 0.40581751814196781 0 0.29124338931648802 0.43334555462578611 0 0.36575549820117997 0.31677992835137742 0 0.33277555741076909 0.36432196682010132 0 0.32752639306529541 0.32610012995269699 0 0.35752321586431363 0.9185439911803448 0 0.32544832635163229 0.95485394099568932 0 0.30864387279288652 0.89906554525974958 0 0.27609987656793722 0.94991445621608572 0 0.30864387279288652 0.89906554525974958 0 0.32544832635163229 0.95485394099568932 0 0.33123028043633618 0.77629643437932982 0 0.30857225866488791 0.81101973481716805 0 0.2792923945214143 0.77665808831789485 0 0.33758650185219202 0.23837101504325639 0 0.29132859388405002 0.27203693976649962 0 0.28040350263641872 0.23054717217092141 0 0.4409427642593301 0.35743108089689513 0 0.41914690343363781 0.30688979866601612 0 0.46226845272279993 0.31901800744800313 0 0.14332333627550789 0.14578431753966009 0 0.13737030665753211 0.20313708640667491 0 0.106902708054812 0.16453234188234539 0 0.083105206071467416 0.20007701332709979 0 0.106902708054812 0.16453234188234539 0 0.13737030665753211 0.20313708640667491 0 0.083105206071452636 0.79992298667296435 0 0.1382744753146134 0.79650574229207483 0 0.1074251789111534 0.83564394292147814 0 0.14474682429600511 0.85524784522713515 0 0.1074251789111534 0.83564394292147814 0 0.1382744753146134 0.79650574229207483 0 0.65408113592120842 0.073941773121567966 0 0.7010294155333181 0.056779085686491267 0 0.68330259535470161 0.10038702501083881 0 0.72525833953073282 0.1032114801687094 0 0.68330259535470161 0.10038702501083881 0 0.7010294155333181 0.056779085686491267 0 0.049706944316475897 0.72477277076253799 0 0.046634677244967337 0.671418230738282 0 0.1020579365089687 0.69352219419301997 0 0.086179601630648681 0.64647209519980475 0 0.1020579365089687 0.69352219419301997 0 0.046634677244967337 0.671418230738282 0 0.087545339447545459 0.35122518864182262 0 0.046389130980076937 0.32668781832131749 0 0.093851963071650835 0.30582068233324772 0 0.049706944316556423 0.27522722923869108 0 0.093851963071650835 0.30582068233324772 0 0.046389130980076937 0.32668781832131749 0 0.82709327591091286 0.84937141670920724 0 0.80041942726660109 0.81543261647703358 0 0.84725310900444062 0.80779732082917555 0 0.82709327591102189 0.14937141670914489 0 0.80076557130237269 0.1154587552654202 0 0.84725310900442086 0.10779732082922661 0 0.17933913398461551 0.2350063570234002 0 0.14377654328998779 0.2442024734791064 0 0.13737030665753211 0.20313708640667491 0 0.18269480424590959 0.75905448272264375 0 0.1382744753146134 0.79650574229207483 0 0.14335651144331049 0.75565258250209677 0 0.33758650185219202 0.23837101504325639 0 0.3786248352540974 0.27082301512024259 0 0.33402499257867951 0.28911035184473982 0 0.14332333627550789 0.14578431753966009 0 0.18124454140915969 0.18790916706335251 0 0.13737030665753211 0.20313708640667491 0 0.14474682429600511 0.85524784522713515 0 0.1382744753146134 0.79650574229207483 0 0.17777405986036951 0.81832336108265358 0 0.5 0.29999999999999999 0 0.52752007115234678 0.33170632466418198 0 0.49077833859261139 0.35229981449445641 0 0.27866744612395528 0.38416094670951489 0 0.29644548887253103 0.34914008784168082 0 0.33277555741076909 0.36432196682010132 0 0 0.84999999999965292 0 0 0.79999999999999982 0 0.038512288486097702 0.8155852717111195 0 0 0.20000000000083221 0 0 0.15000000000062411 0 0.038512288486115001 0.1844147282893184 0 0.40326160981139969 0.73346192995102844 0 0.35415581127540569 0.73730480045900215 0 0.36622285152418499 0.69092437780804039 0 0.91696753777131557 0.497780560203536 0 0.96228564064454991 0.48206450662049471 0 0.95631871884947484 0.51827533208233789 0 0.33758650185219202 0.23837101504325639 0 0.31255190597181792 0.19850845631528771 0 0.3572130504031617 0.1874703368446563 0 0.59814117807200873 0.23398510860739519 0 0.62657463266645097 0.26524202571255862 0 0.5794309697024993 0.27124795968204829 0 0.34258405725730701 0.4444034294386992 0 0.31068898841644388 0.47541502461811092 0 0.29124338931648802 0.43334555462578611 0 0.38083244760691543 0.38531983672244652 0 0.35221190152536241 0.40457127605439203 0 0.33277555741076909 0.36432196682010132 0 0.083411279318375747 0.91030024466934134 0 0.10266856499240549 0.95548163909968886 0 0.053064897599294662 0.95186845269532028 0 0.083411279318303222 0.089699755330707398 0 0.053064897599215843 0.048131547304697528 0 0.10266856499169109 0.044518360900210059 0 0.42377727103934271 0.25099357235810238 0 0.4604742573284204 0.27846934318264788 0 0.41914690343363781 0.30688979866601612 0 0.28307294598219601 0.50789252727458634 0 0.25982634974572738 0.46097799597715272 0 0.31068898841644388 0.47541502461811092 0 0.29348325746214782 0.31350119524708198 0 0.29132859388405002 0.27203693976649962 0 0.33402499257867951 0.28911035184473982 0 0.35312867752657662 0.084946736076730367 0 0.39823268594401579 0.1116623613130045 0 0.36246644853392812 0.1399454205365751 0 0.7000000000006934 1 0 0.68015064798562208 0.95924320340003011 0 0.7250000000005199 0.94981617647078953 0 0.42377727103934271 0.25099357235810238 0 0.38831533174504851 0.2189834941785925 0 0.42905200079338551 0.19982395548231649 0 0.53823865529665704 0.45873898050322898 0 0.57744073070774993 0.41535148636609359 0 0.57975577671020095 0.46172033326338591 0 0.33758650185219202 0.23837101504325639 0 0.3572130504031617 0.1874703368446563 0 0.38831533174504851 0.2189834941785925 0 0.29124338931648802 0.43334555462578611 0 0.31068898841644388 0.47541502461811092 0 0.25982634974572738 0.46097799597715272 0 0.6084546825910605 0.37989672713932537 0 0.61959173890754571 0.33832250091341232 0 0.65481233915350323 0.35652751921065562 0 0.40326160981139969 0.73346192995102844 0 0.43323420005758778 0.6913544522562407 0 0.45582236402875981 0.73896743678908217 0 0.33758650185219202 0.23837101504325639 0 0.28040350263641872 0.23054717217092141 0 0.31255190597181792 0.19850845631528771 0 0.79999999999999982 1 0 0.75000000000034661 1 0 0.770759834363826 0.95919399014344442 0 0.74999999999999989 0.29999999999999999 0 0.77075983436335049 0.25919399014334171 0 0.79999999999999982 0.29999999999999999 0 0.6499999999999998 0.29999999999999999 0 0.67933712972090698 0.25920070958121938 0 0.69999999999999984 0.29999999999999999 0 0.39536230704883951 0.84069429572832477 0 0.39767323751400468 0.89584229130535065 0 0.35864759629805099 0.87963482415279515 0 0.54999999999999993 0.69999999999999996 0 0.52584555706968406 0.66664215091846768 0 0.57484956128872922 0.66573805030881994 0 0.35312867752657662 0.084946736076730367 0 0.32541448401678508 0.046215317981507749 0 0.3615861437013822 0.03582617922508851 0 0.35752321586431363 0.9185439911803448 0 0.36184234618600131 0.96443954459096326 0 0.32544832635163229 0.95485394099568932 0 0.35312867752657662 0.084946736076730367 0 0.3615861437013822 0.03582617922508851 0 0.39591832466117061 0.056982757562006353 0 0.35752321586431363 0.9185439911803448 0 0.39641108128798319 0.94356127926187128 0 0.36184234618600131 0.96443954459096326 0 0.083411279318303222 0.089699755330707398 0 0.044310582753132287 0.101412518374475 0 0.053064897599215843 0.048131547304697528 0 0.083411279318375747 0.91030024466934134 0 0.053064897599294662 0.95186845269532028 0 0.0443105827531413 0.89858748162559932 0 0.38083244760691543 0.38531983672244652 0 0.40076539126862748 0.34589349467022118 0 0.42161023666869668 0.39493916313643851 0 0.4409427642593301 0.35743108089689513 0 0.42161023666869668 0.39493916313643851 0 0.40076539126862748 0.34589349467022118 0 0.79999999999999982 0.29999999999999999 0 0.82500000000000062 0.33010209762754811 0 0.78145581580700685 0.34881365920033602 0 0.79999999999999982 0.69999999999999996 0 0.7750489929959945 0.66593931409600093 0 0.82457059160610424 0.66831947184359608 0 0.59999999999999976 0.69999999999999996 0 0.57484956128872922 0.66573805030881994 0 0.62460753523532009 0.66851202781000296 0 0.74999999999999989 0.69999999999999996 0 0.72500000000000064 0.67022701834392062 0 0.7750489929959945 0.66593931409600093 0 0.74999999999999989 0.29999999999999999 0 0.78145581580700685 0.34881365920033602 0 0.73090396928863699 0.33699297293167962 0 0.33758650185219202 0.23837101504325639 0 0.33402499257867951 0.28911035184473982 0 0.29132859388405002 0.27203693976649962 0 0.36575549820117997 0.31677992835137742 0 0.41914690343363781 0.30688979866601612 0 0.40076539126862748 0.34589349467022118 0 0.4409427642593301 0.35743108089689513 0 0.40076539126862748 0.34589349467022118 0 0.41914690343363781 0.30688979866601612 0 0.34258405725730701 0.4444034294386992 0 0.38707855792647411 0.42299362914874578 0 0.3908716102680424 0.47010282357248828 0 0.7000000000006934 1 0 0.65000000000104008 1 0 0.68015064798562208 0.95924320340003011 0 0.49102375406324739 0.49123754822244059 0 0.46111841286828259 0.46690301029591341 0 0.48858720058566618 0.43964267759203868 0 0.4656888918609538 0.78493261229743638 0 0.42676259796334498 0.76772545931379299 0 0.45582236402875981 0.73896743678908217 0 0.40326160981139969 0.73346192995102844 0 0.45582236402875981 0.73896743678908217 0 0.42676259796334498 0.76772545931379299 0 0.59999999999999976 0.29999999999999999 0 0.62657463266645097 0.26524202571255862 0 0.6499999999999998 0.29999999999999999 0 0.40000000000166441 1 0 0.36184234618600131 0.96443954459096326 0 0.39641108128798319 0.94356127926187128 0 0.3999999999989749 0 0 0.39591832466117061 0.056982757562006353 0 0.3615861437013822 0.03582617922508851 0 0.43249999999999988 0.43937499999999979 0 0.48858720058566618 0.43964267759203868 0 0.46111841286828259 0.46690301029591341 0 0.7250000000005199 0.89375000000045834 0 0.7250000000005199 0.94981617647078953 0 0.68987011941058407 0.92105047536677087 0 0.7250000000005199 0.89375000000045834 0 0.75729602384198635 0.92353652857884294 0 0.7250000000005199 0.94981617647078953 0 0.72500000000001008 0.19776155966387679 0 0.75668890529066124 0.2244279804069782 0 0.72500000000000064 0.2498161764706 0 0.72500000000001008 0.19776155966387679 0 0.72500000000000064 0.2498161764706 0 0.69397719155551807 0.2245125647000914 0 0.79999999999999982 0.29999999999999999 0 0.81486180804364938 0.26321394949780091 0 0.84999999999999987 0.29999999999999999 0 0.84999999999965292 1 0 0.79999999999999982 1 0 0.81486180804382891 0.96321394949790495 0 0.1247745017231483 0.27198077544791172 0 0.095326043202144745 0.24554465089224409 0 0.14377654328998779 0.2442024734791064 0 0.1215415378367805 0.72939333680004137 0 0.14335651144331049 0.75565258250209677 0 0.090953281884486245 0.7564451946902494 0 0.72500000000001008 0.19776155966387679 0 0.72634814642510737 0.16106886917518889 0 0.76587607630038135 0.18880039518954719 0 0.72500000000001008 0.19776155966387679 0 0.6865991819015953 0.189116534044597 0 0.72634814642510737 0.16106886917518889 0 0.77144070960558853 0.14311854477243749 0 0.76587607630038135 0.18880039518954719 0 0.72634814642510737 0.16106886917518889 0 0.68391457121233579 0.14440470121196541 0 0.72634814642510737 0.16106886917518889 0 0.6865991819015953 0.189116534044597 0 0.7250000000005199 0.89375000000045834 0 0.72863726579783861 0.85390518901155588 0 0.76891166905518427 0.88835469571185499 0 0.76901770135486491 0.84293557325473656 0 0.76891166905518427 0.88835469571185499 0 0.72863726579783861 0.85390518901155588 0 0 0.20000000000083221 0 0.038512288486115001 0.1844147282893184 0 0.044081577119474857 0.2271058242433576 0 0 0.79999999999999982 0 0.04408157711937423 0.7728941757575627 0 0.038512288486097702 0.8155852717111195 0 0.52375890611712683 0.059318771819432882 0 0.47881186583059909 0.093591717165689425 0 0.47040171442036788 0.044141676406503738 0 0.52122150208832174 0.94089974453840242 0 0.47135117303824892 0.95556877749289892 0 0.47401147028110507 0.91529957330468115 0 0.27474541102162192 0.11822029332053539 0 0.3096713403101819 0.085471541595262421 0 0.32215584939770009 0.1218492143506909 0 0.22278230690790279 0.44824268025881547 0 0.24049127783545701 0.41270748208749802 0 0.25982634974572738 0.46097799597715272 0 0.93732437411268477 0.55911392101136159 0 0.91143117093204207 0.58709913730335972 0 0.90900154012161016 0.53607784105648792 0 0.19901705110390991 0.9175543425573498 0 0.24536017905392571 0.90704567837671446 0 0.22850979588452081 0.95594428570238643 0 0.27609987656793722 0.94991445621608572 0 0.22850979588452081 0.95594428570238643 0 0.24536017905392571 0.90704567837671446 0 0.15720202157091859 0.60665697304410315 0 0.1241190223511371 0.64391885572885044 0 0.1024350934457823 0.60772393977513839 0 0.6499999999999998 0.69999999999999996 0 0.675261390228442 0.65996937624687813 0 0.69999999999999984 0.69999999999999996 0 0.3999999999989749 0 0 0.4320097814748517 0.037406712692169303 0 0.39591832466117061 0.056982757562006353 0 0.40000000000166441 1 0 0.39641108128798319 0.94356127926187128 0 0.4308986359464303 0.96395712492906194 0 0.54999999999999993 0.29999999999999999 0 0.56836770495988642 0.3523062350852913 0 0.52752007115234678 0.33170632466418198 0 0.14474682429600511 0.85524784522713515 0 0.17777405986036951 0.81832336108265358 0 0.19741632902693801 0.86755867406447229 0 0.21858834311891909 0.81980263716112767 0 0.19741632902693801 0.86755867406447229 0 0.17777405986036951 0.81832336108265358 0 0.54782696902220018 0.79245182748204157 0 0.50731287292894423 0.78963574450233831 0 0.50945740445113552 0.75476055527778108 0 0.20000000000083221 1 0 0.18474005699953849 0.96231585248064622 0 0.22850979588452081 0.95594428570238643 0 0.19999999999955789 0 0 0.22668068146512929 0.045875643423131329 0 0.184418230509967 0.038773194583122873 0 0.77846603114747959 0.49850927265137401 0 0.73947346780852752 0.49062440112282169 0 0.77972660463949339 0.45529290596363098 0 0.73483647259922602 0.44789725365921768 0 0.77972660463949339 0.45529290596363098 0 0.73947346780852752 0.49062440112282169 0 0.34258405725730701 0.4444034294386992 0 0.35024835142131061 0.48654922671676981 0 0.31068898841644388 0.47541502461811092 0 0.33123028043633618 0.77629643437932982 0 0.2792923945214143 0.77665808831789485 0 0.29904318922293632 0.74132814928635593 0 0.26573297623774761 0.59828298563722948 0 0.25115337790845271 0.54719303014923271 0 0.29110487519241501 0.56588143995431495 0 0.4656888918609538 0.78493261229743638 0 0.50945740445113552 0.75476055527778108 0 0.50731287292894423 0.78963574450233831 0 0.35312867752657662 0.084946736076730367 0 0.36246644853392812 0.1399454205365751 0 0.32215584939770009 0.1218492143506909 0 0.29348325746214782 0.31350119524708198 0 0.25966125648670141 0.34351016742083729 0 0.24432083401701241 0.3006253385567515 0 0.59999999999999976 0.69999999999999996 0 0.6499999999999998 0.69999999999999996 0 0.63221990677827677 0.73442891067859706 0 0.69999999999921003 0 0 0.7010294155333181 0.056779085686491267 0 0.66369801598854572 0.036327466368102787 0 0.40000000000166441 1 0 0.35000000000145642 1 0 0.36184234618600131 0.96443954459096326 0 0.34999999999912063 0 0 0.3999999999989749 0 0 0.3615861437013822 0.03582617922508851 0 0.43507373378304309 0.49699695397193322 0 0.47793794143994173 0.52940715638744962 0 0.42644501560315817 0.54603747078095544 0 0.14474682429600511 0.85524784522713515 0 0.19741632902693801 0.86755867406447229 0 0.16206583317966519 0.89685560785156404 0 0.19901705110390991 0.9175543425573498 0 0.16206583317966519 0.89685560785156404 0 0.19741632902693801 0.86755867406447229 0 0.35864735590330371 0.63903383440414463 0 0.3977710372045391 0.65868194622830212 0 0.36622285152418499 0.69092437780804039 0 0.7527966693318906 0.053051678021508272 0 0.7010294155333181 0.056779085686491267 0 0.72683645290270404 0.027797073151180601 0 0.71508799138962864 0.36622814920737751 0 0.72622533758026719 0.40265885511101601 0 0.68128176404677243 0.38629093627004979 0 0.79999999999999982 0.69999999999999996 0 0.84999999999999987 0.69999999999999996 0 0.81864958914779962 0.73589050177899629 0 0.79999999999947335 0 0 0.84999999999960507 0 0 0.81864958914740749 0.035890501779055867 0 0.39536230704883951 0.84069429572832477 0 0.35642984951668422 0.80994399665655703 0 0.38586766253264881 0.78219501014812498 0 0.42377727103934271 0.25099357235810238 0 0.46429753744194407 0.22870891180733599 0 0.4604742573284204 0.27846934318264788 0 0.39801143831225599 0.16651381068160659 0 0.42905200079338551 0.19982395548231649 0 0.38831533174504851 0.2189834941785925 0 0.79999999999999982 1 0 0.770759834363826 0.95919399014344442 0 0.81486180804382891 0.96321394949790495 0 0.79999999999999982 0.29999999999999999 0 0.77075983436335049 0.25919399014334171 0 0.81486180804364938 0.26321394949780091 0 0.25195515620380449 0.25883339815888678 0 0.21049769590865089 0.26857363548218488 0 0.224700362040408 0.22206622194729711 0 0.40326160981139969 0.73346192995102844 0 0.42676259796334498 0.76772545931379299 0 0.38586766253264881 0.78219501014812498 0 0.35312867752657662 0.084946736076730367 0 0.3096713403101819 0.085471541595262421 0 0.32541448401678508 0.046215317981507749 0 0.59999999999999976 0.29999999999999999 0 0.6499999999999998 0.29999999999999999 0 0.61959173890754571 0.33832250091341232 0 0.2185883431182947 0.18019736283949719 0 0.18652628422869419 0.14162325200928061 0 0.22985637510995899 0.1298347970200906 0 0.64999999999907843 0 0 0.69999999999921003 0 0 0.66369801598854572 0.036327466368102787 0 0.27499999999933927 0.060310814194988557 0 0.24218496799700481 0.089025544070598317 0 0.22668068146512929 0.045875643423131329 0 0.19922788606653311 0.085920220746880993 0 0.22668068146512929 0.045875643423131329 0 0.24218496799700481 0.089025544070598317 0 0.65507451745379841 0.92229208810758578 0 0.66412543161245952 0.88015090885499059 0 0.68987011941058407 0.92105047536677087 0 0.049706944316475897 0.72477277076253799 0 0.090953281884486245 0.7564451946902494 0 0.04408157711937423 0.7728941757575627 0 0.083105206071452636 0.79992298667296435 0 0.04408157711937423 0.7728941757575627 0 0.090953281884486245 0.7564451946902494 0 0.083105206071467416 0.20007701332709979 0 0.095326043202144745 0.24554465089224409 0 0.044081577119474857 0.2271058242433576 0 0.049706944316556423 0.27522722923869108 0 0.044081577119474857 0.2271058242433576 0 0.095326043202144745 0.24554465089224409 0 0.36575549820117997 0.31677992835137742 0 0.33402499257867951 0.28911035184473982 0 0.3786248352540974 0.27082301512024259 0 0.53245488764484505 0.55078124999999989 0 0.53330375813596242 0.50827942741749099 0 0.57435499076887508 0.54267261987897775 0 0.57611405284611883 0.50165903596042916 0 0.57435499076887508 0.54267261987897775 0 0.53330375813596242 0.50827942741749099 0 0.6499999999999998 0.29999999999999999 0 0.69999999999999984 0.29999999999999999 0 0.68887083591306764 0.33632058575757479 0 0.57611405284611883 0.50165903596042916 0 0.53823865529665704 0.45873898050322898 0 0.57975577671020095 0.46172033326338591 0 0.7750489929959945 0.66593931409600093 0 0.72500000000000064 0.67022701834392062 0 0.74994237037456724 0.62775548192980357 0 0.78145581580700685 0.34881365920033602 0 0.74764719760526988 0.3719647154012321 0 0.73090396928863699 0.33699297293167962 0 0.3999999999989749 0 0 0.44999999999882923 0 0 0.4320097814748517 0.037406712692169303 0 0.45000000000187229 1 0 0.40000000000166441 1 0 0.4308986359464303 0.96395712492906194 0 0.57484956128872922 0.66573805030881994 0 0.5991018319127801 0.62925360607495295 0 0.62460753523532009 0.66851202781000296 0 0.7750489929959945 0.66593931409600093 0 0.79884539758237771 0.62875045078114233 0 0.82457059160610424 0.66831947184359608 0 0.39801143831225599 0.16651381068160659 0 0.36246644853392812 0.1399454205365751 0 0.39823268594401579 0.1116623613130045 0 0.078358742472063481 0.43365249433908948 0 0.033550201249889847 0.46247875832467239 0 0.035463093262830522 0.42673416072819947 0 0.25676291524611189 0.7436741304886243 0 0.2792923945214143 0.77665808831789485 0 0.22556077506376701 0.77837424984191617 0 0.2236846579037573 0.67380363126050236 0 0.2248999640082178 0.72584299459689172 0 0.19068556247388771 0.71028988922845504 0 0.50715858906372158 0.63295939104129484 0 0.5166924242153631 0.59825134841919447 0 0.5498280205245758 0.6290146943450976 0 0.14618258501891079 0.062070108745602003 0 0.12372429750337779 0.095814237875728972 0 0.10266856499169109 0.044518360900210059 0 0.083411279318303222 0.089699755330707398 0 0.10266856499169109 0.044518360900210059 0 0.12372429750337779 0.095814237875728972 0 0.083411279318375747 0.91030024466934134 0 0.1241151115713819 0.9045666525468371 0 0.10266856499240549 0.95548163909968886 0 0.14617343800780541 0.93808063414349496 0 0.10266856499240549 0.95548163909968886 0 0.1241151115713819 0.9045666525468371 0 0.5499999999988151 0 0 0.59999999999894682 0 0 0.57396793757665954 0.037011367187645222 0 0.54782696902220018 0.79245182748204157 0 0.50627822638148745 0.8263979829520941 0 0.50731287292894423 0.78963574450233831 0 0.6499999999999998 0.29999999999999999 0 0.62657463266645097 0.26524202571255862 0 0.67933712972090698 0.25920070958121938 0 0.86956835336234861 0.571283299838105 0 0.86907294890112186 0.52008116128001669 0 0.90900154012161016 0.53607784105648792 0 0.17933913398461551 0.2350063570234002 0 0.224700362040408 0.22206622194729711 0 0.21049769590865089 0.26857363548218488 0 0.43249999999999988 0.43937499999999979 0 0.3908716102680424 0.47010282357248828 0 0.38707855792647411 0.42299362914874578 0 0.27474541102162192 0.11822029332053539 0 0.22985637510995899 0.1298347970200906 0 0.24218496799700481 0.089025544070598317 0 0.64753070846764316 0.77332939069435502 0 0.66427993341343905 0.73232764502436276 0 0.6916490518212759 0.75387992374886192 0 0 0.40000000000166441 0 0.050583896093752537 0.38543522283434112 0 0.035463093262830522 0.42673416072819947 0 0.73483647259922602 0.44789725365921768 0 0.73947346780852752 0.49062440112282169 0 0.69385896817107129 0.48377516041410151 0 0.57484956128872922 0.66573805030881994 0 0.52584555706968406 0.66664215091846768 0 0.5498280205245758 0.6290146943450976 0 0.60000000000138687 1 0 0.55000000000173355 1 0 0.57382506491224949 0.9629411906298494 0 0.068743045408989428 0.48853989837882689 0 0.085622222639554768 0.53333248912060549 0 0.044576108720083309 0.53509043209532614 0 0.083105206071467416 0.20007701332709979 0 0.044081577119474857 0.2271058242433576 0 0.038512288486115001 0.1844147282893184 0 0.083105206071452636 0.79992298667296435 0 0.038512288486097702 0.8155852717111195 0 0.04408157711937423 0.7728941757575627 0 0.28307294598219601 0.50789252727458634 0 0.23975172658309729 0.49475499200540818 0 0.25982634974572738 0.46097799597715272 0 0.43698630808430822 0.080423614171545449 0 0.39591832466117061 0.056982757562006353 0 0.4320097814748517 0.037406712692169303 0 0.4367309254023824 0.92065556789053882 0 0.4308986359464303 0.96395712492906194 0 0.39641108128798319 0.94356127926187128 0 0.80185942888539485 0.77452061303608133 0 0.75841349681148107 0.75422312624214749 0 0.78578450296893509 0.73292684821144505 0 0.80185942888501827 0.074520613036224564 0 0.7527966693318906 0.053051678021508272 0 0.78393852574753176 0.032039079577822822 0 0.6499999999999998 0.69999999999999996 0 0.62460753523532009 0.66851202781000296 0 0.675261390228442 0.65996937624687813 0 0.33123028043633618 0.77629643437932982 0 0.38586766253264881 0.78219501014812498 0 0.35642984951668422 0.80994399665655703 0 0.6405463747586706 0.63290524857395714 0 0.675261390228442 0.65996937624687813 0 0.62460753523532009 0.66851202781000296 0 0.22278230690790279 0.44824268025881547 0 0.191953871957803 0.42546416763755879 0 0.24049127783545701 0.41270748208749802 0 0.077693244765132896 0.56932317963405099 0 0.050069554451969707 0.61308520079857043 0 0.034381862692950467 0.57372682250960894 0 0.25195515620380449 0.25883339815888678 0 0.24432083401701241 0.3006253385567515 0 0.21049769590865089 0.26857363548218488 0 0.46666084890304671 0.57634471035397938 0 0.5166924242153631 0.59825134841919447 0 0.47095389620662098 0.61892551373708504 0 0.50715858906372158 0.63295939104129484 0 0.47095389620662098 0.61892551373708504 0 0.5166924242153631 0.59825134841919447 0 0.72525833953073282 0.1032114801687094 0 0.7527966693318906 0.053051678021508272 0 0.76878382444651716 0.097147941686331368 0 0.80185942888501827 0.074520613036224564 0 0.76878382444651716 0.097147941686331368 0 0.7527966693318906 0.053051678021508272 0 0.72500000000000064 0.7952620967744265 0 0.75841349681148107 0.75422312624214749 0 0.77094201086366854 0.79647480515688507 0 0.80185942888539485 0.77452061303608133 0 0.77094201086366854 0.79647480515688507 0 0.75841349681148107 0.75422312624214749 0 0.72500000000000064 0.7952620967744265 0 0.68024162096458085 0.79868546898116533 0 0.6916490518212759 0.75387992374886192 0 0.64753070846764316 0.77332939069435502 0 0.6916490518212759 0.75387992374886192 0 0.68024162096458085 0.79868546898116533 0 0 0.50000000000205869 0 0 0.45000000000187229 0 0.033550201249889847 0.46247875832467239 0 0.69999999999999984 0.69999999999999996 0 0.675261390228442 0.65996937624687813 0 0.72500000000000064 0.67022701834392062 0 0.71406021706547751 0.63292083137662503 0 0.72500000000000064 0.67022701834392062 0 0.675261390228442 0.65996937624687813 0 0.65408113592120842 0.073941773121567966 0 0.61940220174112337 0.047251958781050582 0 0.66369801598854572 0.036327466368102787 0 0.59999999999894682 0 0 0.61940220174112337 0.047251958781050582 0 0.57396793757665954 0.037011367187645222 0 0.60000000000138687 1 0 0.57382506491224949 0.9629411906298494 0 0.62065498684670595 0.95224934003983619 0 0.33122374654748771 0.57588941099433744 0 0.35765792684946668 0.6000687869219653 0 0.31502927232353312 0.6134992213375432 0 0.35864735590330371 0.63903383440414463 0 0.31502927232353312 0.6134992213375432 0 0.35765792684946668 0.6000687869219653 0 0.15801167086041079 0.46008690540259539 0 0.19604738184454831 0.47787523520405789 0 0.16618607197337229 0.50652878253548905 0 0.078358742472063481 0.43365249433908948 0 0.035463093262830522 0.42673416072819947 0 0.050583896093752537 0.38543522283434112 0 0.19901705110390991 0.9175543425573498 0 0.22850979588452081 0.95594428570238643 0 0.18474005699953849 0.96231585248064622 0 0.19922788606653311 0.085920220746880993 0 0.184418230509967 0.038773194583122873 0 0.22668068146512929 0.045875643423131329 0 0.19922788606653311 0.085920220746880993 0 0.24218496799700481 0.089025544070598317 0 0.22985637510995899 0.1298347970200906 0 0.74999999999999989 0.69999999999999996 0 0.78578450296893509 0.73292684821144505 0 0.75841349681148107 0.75422312624214749 0 0.74999999999934175 0 0 0.78393852574753176 0.032039079577822822 0 0.7527966693318906 0.053051678021508272 0 0 0.60000000000138687 0 0.034381862692950467 0.57372682250960894 0 0.050069554451969707 0.61308520079857043 0 0.2236846579037573 0.67380363126050236 0 0.26439878998046262 0.7048065392091396 0 0.2248999640082178 0.72584299459689172 0 0.6236733212988993 0.14864538214901801 0 0.58516465772821369 0.11653801664834119 0 0.61956000905586006 0.1043312481793135 0 0.26104540868854792 0.81401944968719064 0 0.2792923945214143 0.77665808831789485 0 0.30857225866488791 0.81101973481716805 0 0.42377727103934271 0.25099357235810238 0 0.42905200079338551 0.19982395548231649 0 0.46429753744194407 0.22870891180733599 0 0.27820712747429932 0.65530134213254643 0 0.31502927232353312 0.6134992213375432 0 0.32263089806001177 0.66003674931826484 0 0.61343887413683884 0.856862479058357 0 0.61885627562261258 0.90282959257498208 0 0.5832743223239254 0.88483152652961872 0 0.43698630808430822 0.080423614171545449 0 0.47040171442036788 0.044141676406503738 0 0.47881186583059909 0.093591717165689425 0 0.4367309254023824 0.92065556789053882 0 0.47401147028110507 0.91529957330468115 0 0.47135117303824892 0.95556877749289892 0 0.91696753777131557 0.497780560203536 0 0.95631871884947484 0.51827533208233789 0 0.90900154012161016 0.53607784105648792 0 0.93732437411268477 0.55911392101136159 0 0.90900154012161016 0.53607784105648792 0 0.95631871884947484 0.51827533208233789 0 0.27474541102162192 0.11822029332053539 0 0.25557216766470708 0.15874861286892261 0 0.22985637510995899 0.1298347970200906 0 0.2185883431182947 0.18019736283949719 0 0.22985637510995899 0.1298347970200906 0 0.25557216766470708 0.15874861286892261 0 0.29348325746214782 0.31350119524708198 0 0.33402499257867951 0.28911035184473982 0 0.32752639306529541 0.32610012995269699 0 0.27499999999933927 0.060310814194988557 0 0.32541448401678508 0.046215317981507749 0 0.3096713403101819 0.085471541595262421 0 0.27270076654418179 0.87751467830216623 0 0.24536017905392571 0.90704567837671446 0 0.2401283238295133 0.85648409884788523 0 1 0.44999999999963131 0 1 0.49999999999950101 0 0.96228564064454991 0.48206450662049471 0 0.61343887413683884 0.856862479058357 0 0.66412543161245952 0.88015090885499059 0 0.61885627562261258 0.90282959257498208 0 0 0.45000000000187229 0 0 0.40000000000166441 0 0.035463093262830522 0.42673416072819947 0 0.69999999999999984 0.69999999999999996 0 0.6916490518212759 0.75387992374886192 0 0.66427993341343905 0.73232764502436276 0 0.43846182030517877 0.64845797726506715 0 0.43323420005758778 0.6913544522562407 0 0.3977710372045391 0.65868194622830212 0 0.4367309254023824 0.92065556789053882 0 0.44003836461056539 0.88093474584252718 0 0.47401147028110507 0.91529957330468115 0 0.43846182030517877 0.64845797726506715 0 0.39743091024207589 0.6239520004230239 0 0.43545892161006339 0.61093128915313821 0 0.43846182030517877 0.64845797726506715 0 0.3977710372045391 0.65868194622830212 0 0.39743091024207589 0.6239520004230239 0 0.26429849586623999 0.19346700179430079 0 0.29336099386129338 0.15892013001050981 0 0.31255190597181792 0.19850845631528771 0 0.19670163708476801 0.31472518408333222 0 0.21049769590865089 0.26857363548218488 0 0.24432083401701241 0.3006253385567515 0 0.57724883562309992 0.92155686857100794 0 0.62065498684670595 0.95224934003983619 0 0.57382506491224949 0.9629411906298494 0 0.4409427642593301 0.35743108089689513 0 0.46655310992796922 0.39650496622958609 0 0.42161023666869668 0.39493916313643851 0 0.46666084890304671 0.57634471035397938 0 0.47095389620662098 0.61892551373708504 0 0.43545892161006339 0.61093128915313821 0 0.6879972333610942 0.43038561374960838 0 0.65178832218679827 0.45929119821019959 0 0.63912439215427275 0.41063340167983359 0 0.43698630808430822 0.080423614171545449 0 0.4320097814748517 0.037406712692169303 0 0.47040171442036788 0.044141676406503738 0 0.4367309254023824 0.92065556789053882 0 0.47135117303824892 0.95556877749289892 0 0.4308986359464303 0.96395712492906194 0 0.79680861578988083 0.92656778056766709 0 0.81486180804382891 0.96321394949790495 0 0.770759834363826 0.95919399014344442 0 0.79680861578956375 0.22656778056752541 0 0.81486180804364938 0.26321394949780091 0 0.77075983436335049 0.25919399014334171 0 0.71508799138962864 0.36622814920737751 0 0.68128176404677243 0.38629093627004979 0 0.68887083591306764 0.33632058575757479 0 0.35864735590330371 0.63903383440414463 0 0.32263089806001177 0.66003674931826484 0 0.31502927232353312 0.6134992213375432 0 0.21858834311891909 0.81980263716112767 0 0.2401283238295133 0.85648409884788523 0 0.19741632902693801 0.86755867406447229 0 0.35312867752657662 0.084946736076730367 0 0.32215584939770009 0.1218492143506909 0 0.3096713403101819 0.085471541595262421 0 0.35752321586431363 0.9185439911803448 0 0.35864759629805099 0.87963482415279515 0 0.39767323751400468 0.89584229130535065 0 0.41914690343363781 0.30688979866601612 0 0.4604742573284204 0.27846934318264788 0 0.46226845272279993 0.31901800744800313 0 0.33084213324567391 0.16272720141332131 0 0.32215584939770009 0.1218492143506909 0 0.36246644853392812 0.1399454205365751 0 0.46666084890304671 0.57634471035397938 0 0.42644501560315817 0.54603747078095544 0 0.47793794143994173 0.52940715638744962 0 0 0.60000000000138687 0 0 0.55000000000173355 0 0.034381862692950467 0.57372682250960894 0 0.77354604466818633 0.40378688774472771 0 0.74764719760526988 0.3719647154012321 0 0.78145581580700685 0.34881365920033602 0 0.34999999999912063 0 0 0.3615861437013822 0.03582617922508851 0 0.32541448401678508 0.046215317981507749 0 0.35000000000145642 1 0 0.32544832635163229 0.95485394099568932 0 0.36184234618600131 0.96443954459096326 0 0.57667858002728545 0.078486105337742612 0 0.57396793757665954 0.037011367187645222 0 0.61940220174112337 0.047251958781050582 0 0.47357141910802508 0.1873585799078378 0 0.50760557329222289 0.20700468884612061 0 0.46429753744194407 0.22870891180733599 0 0.49695729691142171 0.25014895411178018 0 0.46429753744194407 0.22870891180733599 0 0.50760557329222289 0.20700468884612061 0 0.33084213324567391 0.16272720141332131 0 0.3572130504031617 0.1874703368446563 0 0.31255190597181792 0.19850845631528771 0 0.6879972333610942 0.43038561374960838 0 0.63912439215427275 0.41063340167983359 0 0.68128176404677243 0.38629093627004979 0 0.65408113592120842 0.073941773121567966 0 0.65290632656860115 0.11434202593454081 0 0.61956000905586006 0.1043312481793135 0 0.33084213324567391 0.16272720141332131 0 0.31255190597181792 0.19850845631528771 0 0.29336099386129338 0.15892013001050981 0 0.61209567303293111 0.44669033081290321 0 0.63912439215427275 0.41063340167983359 0 0.65178832218679827 0.45929119821019959 0 0.086179601630648681 0.64647209519980475 0 0.1024350934457823 0.60772393977513839 0 0.1241190223511371 0.64391885572885044 0 0.44999999999882923 0 0 0.47040171442036788 0.044141676406503738 0 0.4320097814748517 0.037406712692169303 0 0.45000000000187229 1 0 0.4308986359464303 0.96395712492906194 0 0.47135117303824892 0.95556877749289892 0 0.74999999999934175 0 0 0.7527966693318906 0.053051678021508272 0 0.72683645290270404 0.027797073151180601 0 0.74999999999999989 0.69999999999999996 0 0.75841349681148107 0.75422312624214749 0 0.72501250972655151 0.74067302935308721 0 0.69999999999999984 0.69999999999999996 0 0.72501250972655151 0.74067302935308721 0 0.6916490518212759 0.75387992374886192 0 0.74999999999934175 0 0 0.79999999999947335 0 0 0.78393852574753176 0.032039079577822822 0 0.74999999999999989 0.69999999999999996 0 0.79999999999999982 0.69999999999999996 0 0.78578450296893509 0.73292684821144505 0 0.6405463747586706 0.63290524857395714 0 0.5991018319127801 0.62925360607495295 0 0.63065402604362242 0.59661356661633302 0 0.65481233915350323 0.35652751921065562 0 0.68887083591306764 0.33632058575757479 0 0.68128176404677243 0.38629093627004979 0 0.89999999999999991 0.29999999999999999 0 0.94999999999999996 0.29999999999999999 0 0.92012390126144183 0.33123581297173937 0 0.89999999999999991 0.69999999999999996 0 0.92057473616084773 0.66770436535372446 0 0.94999999999999996 0.69999999999999996 0 0.4367309254023824 0.92065556789053882 0 0.39767323751400468 0.89584229130535065 0 0.44003836461056539 0.88093474584252718 0 0.2185883431182947 0.18019736283949719 0 0.18124454140915969 0.18790916706335251 0 0.18652628422869419 0.14162325200928061 0 0.20050006573841939 0.53248514016039872 0 0.19604738184454831 0.47787523520405789 0 0.23975172658309729 0.49475499200540818 0 0.65507451745379841 0.92229208810758578 0 0.61885627562261258 0.90282959257498208 0 0.66412543161245952 0.88015090885499059 0 0.65394964615507722 0.22666784374016369 0 0.67933712972090698 0.25920070958121938 0 0.62657463266645097 0.26524202571255862 0 0.077693244765132896 0.56932317963405099 0 0.034381862692950467 0.57372682250960894 0 0.044576108720083309 0.53509043209532614 0 0.39801143831225599 0.16651381068160659 0 0.38831533174504851 0.2189834941785925 0 0.3572130504031617 0.1874703368446563 0 0.6499999999999998 0.69999999999999996 0 0.69999999999999984 0.69999999999999996 0 0.66427993341343905 0.73232764502436276 0 0.1215415378367805 0.72939333680004137 0 0.15332765547575641 0.71200081858233666 0 0.14335651144331049 0.75565258250209677 0 0.6405463747586706 0.63290524857395714 0 0.63065402604362242 0.59661356661633302 0 0.67529834988829951 0.61613270668143583 0 0.67323294229744413 0.57556450033612505 0 0.67529834988829951 0.61613270668143583 0 0.63065402604362242 0.59661356661633302 0 0.91750694127107502 0.36982372220068471 0 0.87430060258887643 0.34056085888204451 0 0.92012390126144183 0.33123581297173937 0 0.89999999999999991 0.29999999999999999 0 0.92012390126144183 0.33123581297173937 0 0.87430060258887643 0.34056085888204451 0 0.89999999999999991 0.69999999999999996 0 0.87712158428786946 0.65709029563313581 0 0.92057473616084773 0.66770436535372446 0 0.91750694127105259 0.63017627779935648 0 0.92057473616084773 0.66770436535372446 0 0.87712158428786946 0.65709029563313581 0 0.33122374654748771 0.57588941099433744 0 0.29110487519241501 0.56588143995431495 0 0.33190227185843768 0.52715113583864037 0 0.57484956128872922 0.66573805030881994 0 0.5498280205245758 0.6290146943450976 0 0.5991018319127801 0.62925360607495295 0 0.57412547362576272 0.58273804879550706 0 0.5991018319127801 0.62925360607495295 0 0.5498280205245758 0.6290146943450976 0 0.65408113592120842 0.073941773121567966 0 0.66369801598854572 0.036327466368102787 0 0.7010294155333181 0.056779085686491267 0 0.27474541102162192 0.11822029332053539 0 0.32215584939770009 0.1218492143506909 0 0.29336099386129338 0.15892013001050981 0 0.33084213324567391 0.16272720141332131 0 0.29336099386129338 0.15892013001050981 0 0.32215584939770009 0.1218492143506909 0 0.5 0.29999999999999999 0 0.54999999999999993 0.29999999999999999 0 0.52752007115234678 0.33170632466418198 0 0.83573492347052902 0.36590755630746369 0 0.87430060258887643 0.34056085888204451 0 0.86844634540301924 0.38530937474099819 0 0.83758014339878906 0.63222013025741819 0 0.87159648282691515 0.61285406320581504 0 0.87712158428786946 0.65709029563313581 0 0.22278230690790279 0.44824268025881547 0 0.23975172658309729 0.49475499200540818 0 0.19604738184454831 0.47787523520405789 0 1 0.49999999999950101 0 0.95631871884947484 0.51827533208233789 0 0.96228564064454991 0.48206450662049471 0 0.1650278706801647 0.38791388161335733 0 0.13773355295499351 0.42497777642586831 0 0.1117088112799664 0.38831403004970022 0 0.61209567303293111 0.44669033081290321 0 0.57975577671020095 0.46172033326338591 0 0.57744073070774993 0.41535148636609359 0 0.077693244765132896 0.56932317963405099 0 0.1154888278694548 0.56733818459978413 0 0.1024350934457823 0.60772393977513839 0 0.68697391633157634 0.84450604838764298 0 0.65005442820240822 0.82644988530054031 0 0.68024162096458085 0.79868546898116533 0 0.76901770135486491 0.84293557325473656 0 0.77094201086366854 0.79647480515688507 0 0.80041942726660109 0.81543261647703358 0 0.77144070960558853 0.14311854477243749 0 0.76878382444651716 0.097147941686331368 0 0.80076557130237269 0.1154587552654202 0 0.5 0.69999999999999996 0 0.52584555706968406 0.66664215091846768 0 0.54999999999999993 0.69999999999999996 0 0.077693244765132896 0.56932317963405099 0 0.044576108720083309 0.53509043209532614 0 0.085622222639554768 0.53333248912060549 0 0.69999999999921003 0 0 0.72683645290270404 0.027797073151180601 0 0.7010294155333181 0.056779085686491267 0 1 0 0 0.97166519676946894 0.033371144900598393 0 0.94999999999986839 0 0 1 0.69999999999999996 0 0.97166519676947294 0.73337114490064459 0 0.94999999999999996 0.69999999999999996 0 1 0.69999999999999996 0 1 0.74999999999993494 0 0.97166519676947294 0.73337114490064459 0 1 0.29999999999999999 0 0.97166519676951801 0.26662885509932011 0 1 0.24999999999987299 0 1 1 0 0.94999999999979179 1 0 0.97166519676946206 0.96662885509935492 0 1 0 0 1 0.049999999999896842 0 0.97166519676946894 0.033371144900598393 0 1 0.29999999999999999 0 0.94999999999999996 0.29999999999999999 0 0.97166519676951801 0.26662885509932011 0 1 1 0 0.97166519676946206 0.96662885509935492 0 1 0.94999999999997109 0 0 0.55000000000173355 0 0.044576108720083309 0.53509043209532614 0 0.034381862692950467 0.57372682250960894 0 0.6879972333610942 0.43038561374960838 0 0.69385896817107129 0.48377516041410151 0 0.65178832218679827 0.45929119821019959 0 0.33084213324567391 0.16272720141332131 0 0.36246644853392812 0.1399454205365751 0 0.3572130504031617 0.1874703368446563 0 0.65408113592120842 0.073941773121567966 0 0.68330259535470161 0.10038702501083881 0 0.65290632656860115 0.11434202593454081 0 0.16500388252850301 0.66612077714085194 0 0.19068556247388771 0.71028988922845504 0 0.15332765547575641 0.71200081858233666 0 0.82709327591091286 0.84937141670920724 0 0.85600844944837662 0.88483418979512773 0 0.81159157511211755 0.88795995483179491 0 0.82709327591102189 0.14937141670914489 0 0.85600844944842547 0.1848341897950983 0 0.81283102246527783 0.1881007222486438 0 0.79999999999999982 0.29999999999999999 0 0.84999999999999987 0.29999999999999999 0 0.82500000000000062 0.33010209762754811 0 0.79999999999999982 0.69999999999999996 0 0.82457059160610424 0.66831947184359608 0 0.84999999999999987 0.69999999999999996 0 0.59999999999999976 0.69999999999999996 0 0.62460753523532009 0.66851202781000296 0 0.6499999999999998 0.69999999999999996 0 0.39801143831225599 0.16651381068160659 0 0.3572130504031617 0.1874703368446563 0 0.36246644853392812 0.1399454205365751 0 0.69999999999999984 0.29999999999999999 0 0.74999999999999989 0.29999999999999999 0 0.73090396928863699 0.33699297293167962 0 0.69999999999999984 0.69999999999999996 0 0.72500000000000064 0.67022701834392062 0 0.74999999999999989 0.69999999999999996 0 0.6236733212988993 0.14864538214901801 0 0.64011864159029941 0.18789607982138171 0 0.59443395090188023 0.18455690917515069 0 0.20050006573841939 0.53248514016039872 0 0.16618607197337229 0.50652878253548905 0 0.19604738184454831 0.47787523520405789 0 0.79680861578956375 0.22656778056752541 0 0.76587607630038135 0.18880039518954719 0 0.81283102246527783 0.1881007222486438 0 0.79680861578988083 0.92656778056766709 0 0.76891166905518427 0.88835469571185499 0 0.81159157511211755 0.88795995483179491 0 0.71406021706547751 0.63292083137662503 0 0.675261390228442 0.65996937624687813 0 0.67529834988829951 0.61613270668143583 0 0.6405463747586706 0.63290524857395714 0 0.67529834988829951 0.61613270668143583 0 0.675261390228442 0.65996937624687813 0 0.19670163708476801 0.31472518408333222 0 0.168349569971391 0.28054490850913671 0 0.21049769590865089 0.26857363548218488 0 0.47357141910802508 0.1873585799078378 0 0.46429753744194407 0.22870891180733599 0 0.42905200079338551 0.19982395548231649 0 0.59814117807200873 0.23398510860739519 0 0.5794309697024993 0.27124795968204829 0 0.54248833945060504 0.2520322959927106 0 0.6541250972820879 0.49999999999999989 0 0.65178832218679827 0.45929119821019959 0 0.69385896817107129 0.48377516041410151 0 0.54999999999999993 0.29999999999999999 0 0.5794309697024993 0.27124795968204829 0 0.59999999999999976 0.29999999999999999 0 0.7750489929959945 0.66593931409600093 0 0.74994237037456724 0.62775548192980357 0 0.79884539758237771 0.62875045078114233 0 0.77293540622714185 0.59448302402785813 0 0.79884539758237771 0.62875045078114233 0 0.74994237037456724 0.62775548192980357 0 0.14332333627550789 0.14578431753966009 0 0.16141998738593399 0.10404039647458049 0 0.18652628422869419 0.14162325200928061 0 0.38083244760691543 0.38531983672244652 0 0.42161023666869668 0.39493916313643851 0 0.38707855792647411 0.42299362914874578 0 0.43249999999999988 0.43937499999999979 0 0.38707855792647411 0.42299362914874578 0 0.42161023666869668 0.39493916313643851 0 0.43846182030517877 0.64845797726506715 0 0.47095389620662098 0.61892551373708504 0 0.47913475093885149 0.66010775372412711 0 0.50715858906372158 0.63295939104129484 0 0.47913475093885149 0.66010775372412711 0 0.47095389620662098 0.61892551373708504 0 0.69999999999999984 0.69999999999999996 0 0.74999999999999989 0.69999999999999996 0 0.72501250972655151 0.74067302935308721 0 0.4089290844030305 0.58728915500154233 0 0.35765792684946668 0.6000687869219653 0 0.37272913873093971 0.56192925302619479 0 0.69999999999921003 0 0 0.74999999999934175 0 0 0.72683645290270404 0.027797073151180601 0 0.17933913398461551 0.2350063570234002 0 0.21049769590865089 0.26857363548218488 0 0.168349569971391 0.28054490850913671 0 0.14474682429600511 0.85524784522713515 0 0.10562472963403439 0.87143394428979881 0 0.1074251789111534 0.83564394292147814 0 0.14332333627550789 0.14578431753966009 0 0.106902708054812 0.16453234188234539 0 0.1053400320299198 0.12877248826361379 0 0.2236846579037573 0.67380363126050236 0 0.19914261668318661 0.62286739485272158 0 0.2459498854893499 0.63248470766216769 0 0.049999999999899652 0 0 0.053064897599215843 0.048131547304697528 0 0.02576622439977887 0.024532886826226379 0 0 0.050000000000207989 0 0.02576622439977887 0.024532886826226379 0 0.053064897599215843 0.048131547304697528 0 0.050000000000207989 1 0 0.025766224399875661 0.97546711317377799 0 0.053064897599294662 0.95186845269532028 0 0 0.94999999999979179 0 0.053064897599294662 0.95186845269532028 0 0.025766224399875661 0.97546711317377799 0 0.47357141910802508 0.1873585799078378 0 0.48466639505193998 0.1421439844745814 0 0.51729576145820033 0.1683240575987815 0 0.077693244765132896 0.56932317963405099 0 0.085622222639554768 0.53333248912060549 0 0.1154888278694548 0.56733818459978413 0 0.64753070846764316 0.77332939069435502 0 0.63221990677827677 0.73442891067859706 0 0.66427993341343905 0.73232764502436276 0 0.4656888918609538 0.78493261229743638 0 0.42609163930740518 0.80361684430568059 0 0.42676259796334498 0.76772545931379299 0 0.4089290844030305 0.58728915500154233 0 0.39743091024207589 0.6239520004230239 0 0.35765792684946668 0.6000687869219653 0 0.55306006949600994 0.20198184231352201 0 0.50760557329222289 0.20700468884612061 0 0.51729576145820033 0.1683240575987815 0 1 0.8999999999998336 0 1 0.94999999999997109 0 0.97435614836744289 0.92499999999990257 0 1 0.19999999999974799 0 1 0.24999999999987299 0 0.97435614836740092 0.22499999999981049 0 1 0.74999999999993494 0 1 0.7999999999998193 0 0.97435614836745565 0.77499999999987745 0 1 0.049999999999896842 0 1 0.099999999999753911 0 0.97435614836748241 0.074999999999825387 0 0.86411095495256451 0.42388805655111889 0 0.86844634540301924 0.38530937474099819 0 0.90594285160987287 0.4141265964174129 0 0.86956835336234861 0.571283299838105 0 0.91143117093204207 0.58709913730335972 0 0.87159648282691515 0.61285406320581504 0 0 0 0 0.02576622439977887 0.024532886826226379 0 0 0.050000000000207989 0 0 1 0 0 0.94999999999979179 0 0.025766224399875661 0.97546711317377799 0 0 1 0 0.025766224399875661 0.97546711317377799 0 0.050000000000207989 1 0 0 0 0 0.049999999999899652 0 0 0.02576622439977887 0.024532886826226379 0 0.65394964615507722 0.22666784374016369 0 0.64011864159029941 0.18789607982138171 0 0.6865991819015953 0.189116534044597 0 0.25195515620380449 0.25883339815888678 0 0.28040350263641872 0.23054717217092141 0 0.29132859388405002 0.27203693976649962 0 0.61209567303293111 0.44669033081290321 0 0.65178832218679827 0.45929119821019959 0 0.61547661924074692 0.48539576058873962 0 0.6541250972820879 0.49999999999999989 0 0.61547661924074692 0.48539576058873962 0 0.65178832218679827 0.45929119821019959 0 0.19670163708476801 0.31472518408333222 0 0.24432083401701241 0.3006253385567515 0 0.22615676742807109 0.33458786033114157 0 0.15801167086041079 0.46008690540259539 0 0.13773355295499351 0.42497777642586831 0 0.191953871957803 0.42546416763755879 0 0.1650278706801647 0.38791388161335733 0 0.191953871957803 0.42546416763755879 0 0.13773355295499351 0.42497777642586831 0 0.50715858906372158 0.63295939104129484 0 0.52584555706968406 0.66664215091846768 0 0.47913475093885149 0.66010775372412711 0 0.5 0.69999999999999996 0 0.47913475093885149 0.66010775372412711 0 0.52584555706968406 0.66664215091846768 0 0.51076801031701946 0.1202837388510348 0 0.51729576145820033 0.1683240575987815 0 0.48466639505193998 0.1421439844745814 0 0.71406021706547751 0.63292083137662503 0 0.74994237037456724 0.62775548192980357 0 0.72500000000000064 0.67022701834392062 0 0.71508799138962864 0.36622814920737751 0 0.73090396928863699 0.33699297293167962 0 0.74764719760526988 0.3719647154012321 0 0.22278230690790279 0.44824268025881547 0 0.25982634974572738 0.46097799597715272 0 0.23975172658309729 0.49475499200540818 0 0.80185942888539485 0.77452061303608133 0 0.78578450296893509 0.73292684821144505 0 0.81864958914779962 0.73589050177899629 0 0.80185942888501827 0.074520613036224564 0 0.78393852574753176 0.032039079577822822 0 0.81864958914740749 0.035890501779055867 0 0.5 0.29999999999999999 0 0.46226845272279993 0.31901800744800313 0 0.4604742573284204 0.27846934318264788 0 0.6405463747586706 0.63290524857395714 0 0.62460753523532009 0.66851202781000296 0 0.5991018319127801 0.62925360607495295 0 0.79680861578988083 0.92656778056766709 0 0.770759834363826 0.95919399014344442 0 0.75729602384198635 0.92353652857884294 0 0.79680861578956375 0.22656778056752541 0 0.77075983436335049 0.25919399014334171 0 0.75668890529066124 0.2244279804069782 0 0.65394964615507722 0.22666784374016369 0 0.69397719155551807 0.2245125647000914 0 0.67933712972090698 0.25920070958121938 0 0.81973119833356312 0.43505687159469048 0 0.84925632466077294 0.45359738909549091 0 0.81400510706333218 0.47357325943904899 0 0.83758014339878906 0.63222013025741819 0 0.82457059160610424 0.66831947184359608 0 0.79884539758237771 0.62875045078114233 0 0.25676291524611189 0.7436741304886243 0 0.2248999640082178 0.72584299459689172 0 0.26439878998046262 0.7048065392091396 0 0.91696753777131557 0.497780560203536 0 0.90900154012161016 0.53607784105648792 0 0.86907294890112186 0.52008116128001669 0 0.17933913398461551 0.2350063570234002 0 0.168349569971391 0.28054490850913671 0 0.14377654328998779 0.2442024734791064 0 0.1247745017231483 0.27198077544791172 0 0.14377654328998779 0.2442024734791064 0 0.168349569971391 0.28054490850913671 0 0.34258405725730701 0.4444034294386992 0 0.35221190152536241 0.40457127605439203 0 0.38707855792647411 0.42299362914874578 0 0.47357141910802508 0.1873585799078378 0 0.51729576145820033 0.1683240575987815 0 0.50760557329222289 0.20700468884612061 0 0.19670163708476801 0.31472518408333222 0 0.22615676742807109 0.33458786033114157 0 0.18434624290945251 0.35208838264196463 0 0.22033343844674469 0.36963382230740238 0 0.18434624290945251 0.35208838264196463 0 0.22615676742807109 0.33458786033114157 0 0.24432083401701241 0.3006253385567515 0 0.25966125648670141 0.34351016742083729 0 0.22615676742807109 0.33458786033114157 0 0.93814194660195893 0.44426664081746747 0 0.90594285160987287 0.4141265964174129 0 0.95871855522754235 0.40006508612975411 0 0.91750694127107502 0.36982372220068471 0 0.95871855522754235 0.40006508612975411 0 0.90594285160987287 0.4141265964174129 0 0.91750694127105259 0.63017627779935648 0 0.91143117093204207 0.58709913730335972 0 0.95867599106212187 0.60011091146651041 0 0.93732437411268477 0.55911392101136159 0 0.95867599106212187 0.60011091146651041 0 0.91143117093204207 0.58709913730335972 0 0.50715858906372158 0.63295939104129484 0 0.5498280205245758 0.6290146943450976 0 0.52584555706968406 0.66664215091846768 0 0.94399509803918602 0.75600490196082126 0 0.97435614836745565 0.77499999999987745 0 0.95386563387742829 0.80414874155775029 0 0.94399509803922566 0.056004901960802607 0 0.97435614836748241 0.074999999999825387 0 0.95386563387744361 0.1041487415577465 0 0.94399509803921056 0.24399509803922639 0 0.95391631417672862 0.19584263333809451 0 0.97435614836740092 0.22499999999981049 0 0.94399509803919068 0.9439950980391687 0 0.95391631417670719 0.89584263333814784 0 0.97435614836744289 0.92499999999990257 0 0.79680861578988083 0.92656778056766709 0 0.75729602384198635 0.92353652857884294 0 0.76891166905518427 0.88835469571185499 0 0.79680861578956375 0.22656778056752541 0 0.75668890529066124 0.2244279804069782 0 0.76587607630038135 0.18880039518954719 0 0.65394964615507722 0.22666784374016369 0 0.6865991819015953 0.189116534044597 0 0.69397719155551807 0.2245125647000914 0 0.38083244760691543 0.38531983672244652 0 0.38707855792647411 0.42299362914874578 0 0.35221190152536241 0.40457127605439203 0 1 0.7999999999998193 0 0.95386563387742829 0.80414874155775029 0 0.97435614836745565 0.77499999999987745 0 1 0.099999999999753911 0 0.95386563387744361 0.1041487415577465 0 0.97435614836748241 0.074999999999825387 0 1 0.8999999999998336 0 0.97435614836744289 0.92499999999990257 0 0.95391631417670719 0.89584263333814784 0 1 0.19999999999974799 0 0.97435614836740092 0.22499999999981049 0 0.95391631417672862 0.19584263333809451 0 0.84723782639812573 0.48638347960178252 0 0.81400510706333218 0.47357325943904899 0 0.84925632466077294 0.45359738909549091 0 0.54999999999999993 0.29999999999999999 0 0.54248833945060504 0.2520322959927106 0 0.5794309697024993 0.27124795968204829 0 0.94999999999999996 0.29999999999999999 0 0.95780851984364423 0.34215720972155339 0 0.92012390126144183 0.33123581297173937 0 0.94999999999999996 0.69999999999999996 0 0.92057473616084773 0.66770436535372446 0 0.9578014258160763 0.65787212321113708 0 0.15801167086041079 0.46008690540259539 0 0.113541300460994 0.46208784312094731 0 0.13773355295499351 0.42497777642586831 0 0.7250000000005199 0.94981617647078953 0 0.68015064798562208 0.95924320340003011 0 0.68987011941058407 0.92105047536677087 0 0.65507451745379841 0.92229208810758578 0 0.68987011941058407 0.92105047536677087 0 0.68015064798562208 0.95924320340003011 0 0.77846603114747959 0.49850927265137401 0 0.77972660463949339 0.45529290596363098 0 0.81400510706333218 0.47357325943904899 0 0.27866744612395528 0.38416094670951489 0 0.25966125648670141 0.34351016742083729 0 0.29644548887253103 0.34914008784168082 0 0.61209567303293111 0.44669033081290321 0 0.61547661924074692 0.48539576058873962 0 0.57975577671020095 0.46172033326338591 0 0.57611405284611883 0.50165903596042916 0 0.57975577671020095 0.46172033326338591 0 0.61547661924074692 0.48539576058873962 0 0.7250000000005199 0.89375000000045834 0 0.76891166905518427 0.88835469571185499 0 0.75729602384198635 0.92353652857884294 0 0.72500000000001008 0.19776155966387679 0 0.76587607630038135 0.18880039518954719 0 0.75668890529066124 0.2244279804069782 0 0.72500000000001008 0.19776155966387679 0 0.69397719155551807 0.2245125647000914 0 0.6865991819015953 0.189116534044597 0 0.083411279318303222 0.089699755330707398 0 0.12372429750337779 0.095814237875728972 0 0.1053400320299198 0.12877248826361379 0 0.083411279318375747 0.91030024466934134 0 0.10562472963403439 0.87143394428979881 0 0.1241151115713819 0.9045666525468371 0 0.14617343800780541 0.93808063414349496 0 0.1241151115713819 0.9045666525468371 0 0.16206583317966519 0.89685560785156404 0 0.14618258501891079 0.062070108745602003 0 0.16141998738593399 0.10404039647458049 0 0.12372429750337779 0.095814237875728972 0 0.33277555741076909 0.36432196682010132 0 0.35221190152536241 0.40457127605439203 0 0.31778888742534622 0.40581751814196781 0 0.7250000000005199 0.94981617647078953 0 0.75729602384198635 0.92353652857884294 0 0.770759834363826 0.95919399014344442 0 0.72500000000000064 0.2498161764706 0 0.75668890529066124 0.2244279804069782 0 0.77075983436335049 0.25919399014334171 0 0.72500000000000064 0.2498161764706 0 0.67933712972090698 0.25920070958121938 0 0.69397719155551807 0.2245125647000914 0 0.6236733212988993 0.14864538214901801 0 0.61956000905586006 0.1043312481793135 0 0.65290632656860115 0.11434202593454081 0 0.81973119833356312 0.43505687159469048 0 0.81400510706333218 0.47357325943904899 0 0.77972660463949339 0.45529290596363098 0 0.25676291524611189 0.7436741304886243 0 0.29904318922293632 0.74132814928635593 0 0.2792923945214143 0.77665808831789485 0 0.36575549820117997 0.31677992835137742 0 0.32752639306529541 0.32610012995269699 0 0.33402499257867951 0.28911035184473982 0 0.14332333627550789 0.14578431753966009 0 0.18652628422869419 0.14162325200928061 0 0.18124454140915969 0.18790916706335251 0 0.57724883562309992 0.92155686857100794 0 0.5832743223239254 0.88483152652961872 0 0.61885627562261258 0.90282959257498208 0 0.57667858002728545 0.078486105337742612 0 0.61956000905586006 0.1043312481793135 0 0.58516465772821369 0.11653801664834119 0 0.80185942888539485 0.77452061303608133 0 0.80041942726660109 0.81543261647703358 0 0.77094201086366854 0.79647480515688507 0 0.80185942888501827 0.074520613036224564 0 0.80076557130237269 0.1154587552654202 0 0.76878382444651716 0.097147941686331368 0 0.64753070846764316 0.77332939069435502 0 0.68024162096458085 0.79868546898116533 0 0.65005442820240822 0.82644988530054031 0 0.26429849586623999 0.19346700179430079 0 0.25557216766470708 0.15874861286892261 0 0.29336099386129338 0.15892013001050981 0 0.29348325746214782 0.31350119524708198 0 0.29644548887253103 0.34914008784168082 0 0.25966125648670141 0.34351016742083729 0 0.68391457121233579 0.14440470121196541 0 0.65290632656860115 0.11434202593454081 0 0.68330259535470161 0.10038702501083881 0 0.91750694127107502 0.36982372220068471 0 0.92012390126144183 0.33123581297173937 0 0.95780851984364423 0.34215720972155339 0 0.91750694127105259 0.63017627779935648 0 0.9578014258160763 0.65787212321113708 0 0.92057473616084773 0.66770436535372446 0 0.22033343844674469 0.36963382230740238 0 0.22615676742807109 0.33458786033114157 0 0.25966125648670141 0.34351016742083729 0 1 0.94999999999997109 0 0.97166519676946206 0.96662885509935492 0 0.97435614836744289 0.92499999999990257 0 0.94399509803919068 0.9439950980391687 0 0.97435614836744289 0.92499999999990257 0 0.97166519676946206 0.96662885509935492 0 0.94399509803921056 0.24399509803922639 0 0.97435614836740092 0.22499999999981049 0 0.97166519676951801 0.26662885509932011 0 1 0.24999999999987299 0 0.97166519676951801 0.26662885509932011 0 0.97435614836740092 0.22499999999981049 0 1 0.74999999999993494 0 0.97435614836745565 0.77499999999987745 0 0.97166519676947294 0.73337114490064459 0 1 0.049999999999896842 0 0.97435614836748241 0.074999999999825387 0 0.97166519676946894 0.033371144900598393 0 0.94399509803918602 0.75600490196082126 0 0.97166519676947294 0.73337114490064459 0 0.97435614836745565 0.77499999999987745 0 0.94399509803922566 0.056004901960802607 0 0.97166519676946894 0.033371144900598393 0 0.97435614836748241 0.074999999999825387 0 0.77846603114747959 0.49850927265137401 0 0.81400510706333218 0.47357325943904899 0 0.81441713509985358 0.51161854125224959 0 0.77354604466818633 0.40378688774472771 0 0.72622533758026719 0.40265885511101601 0 0.74764719760526988 0.3719647154012321 0 0.71508799138962864 0.36622814920737751 0 0.74764719760526988 0.3719647154012321 0 0.72622533758026719 0.40265885511101601 0 0.84723782639812573 0.48638347960178252 0 0.84925632466077294 0.45359738909549091 0 0.88594198078881503 0.46167788676578442 0 0.86411095495256451 0.42388805655111889 0 0.88594198078881503 0.46167788676578442 0 0.84925632466077294 0.45359738909549091 0 0.43846182030517877 0.64845797726506715 0 0.43545892161006339 0.61093128915313821 0 0.47095389620662098 0.61892551373708504 0 0.33123028043633618 0.77629643437932982 0 0.35642984951668422 0.80994399665655703 0 0.30857225866488791 0.81101973481716805 0 0.33403534827021109 0.84402799729020661 0 0.30857225866488791 0.81101973481716805 0 0.35642984951668422 0.80994399665655703 0 0.26429849586623999 0.19346700179430079 0 0.31255190597181792 0.19850845631528771 0 0.28040350263641872 0.23054717217092141 0 0.57724883562309992 0.92155686857100794 0 0.54783390826260769 0.89287767010860219 0 0.5832743223239254 0.88483152652961872 0 0.55899371797446828 0.85003102233514438 0 0.5832743223239254 0.88483152652961872 0 0.54783390826260769 0.89287767010860219 0 0.4089290844030305 0.58728915500154233 0 0.43545892161006339 0.61093128915313821 0 0.39743091024207589 0.6239520004230239 0 0.77293540622714185 0.59448302402785813 0 0.81723410853263523 0.59419663659258926 0 0.79884539758237771 0.62875045078114233 0 0.83758014339878906 0.63222013025741819 0 0.79884539758237771 0.62875045078114233 0 0.81723410853263523 0.59419663659258926 0 0.35864735590330371 0.63903383440414463 0 0.39743091024207589 0.6239520004230239 0 0.3977710372045391 0.65868194622830212 0 0.56202748619534593 0.15054058349222879 0 0.54979595918804436 0.1060565713905809 0 0.58516465772821369 0.11653801664834119 0 0.57667858002728545 0.078486105337742612 0 0.58516465772821369 0.11653801664834119 0 0.54979595918804436 0.1060565713905809 0 0.33122374654748771 0.57588941099433744 0 0.37272913873093971 0.56192925302619479 0 0.35765792684946668 0.6000687869219653 0 0.35864735590330371 0.63903383440414463 0 0.35765792684946668 0.6000687869219653 0 0.39743091024207589 0.6239520004230239 0 0.71508799138962864 0.36622814920737751 0 0.68887083591306764 0.33632058575757479 0 0.73090396928863699 0.33699297293167962 0 0.29348325746214782 0.31350119524708198 0 0.32752639306529541 0.32610012995269699 0 0.29644548887253103 0.34914008784168082 0 0.33277555741076909 0.36432196682010132 0 0.29644548887253103 0.34914008784168082 0 0.32752639306529541 0.32610012995269699 0 0.34258405725730701 0.4444034294386992 0 0.31778888742534622 0.40581751814196781 0 0.35221190152536241 0.40457127605439203 0 0.79999999999999982 0.69999999999999996 0 0.81864958914779962 0.73589050177899629 0 0.78578450296893509 0.73292684821144505 0 0.79999999999947335 0 0 0.81864958914740749 0.035890501779055867 0 0.78393852574753176 0.032039079577822822 0 0.27474541102162192 0.11822029332053539 0 0.29336099386129338 0.15892013001050981 0 0.25557216766470708 0.15874861286892261 0 0 0.45000000000187229 0 0.035463093262830522 0.42673416072819947 0 0.033550201249889847 0.46247875832467239 0 0.6499999999999998 0.69999999999999996 0 0.66427993341343905 0.73232764502436276 0 0.63221990677827677 0.73442891067859706 0 0.84723782639812573 0.48638347960178252 0 0.81441713509985358 0.51161854125224959 0 0.81400510706333218 0.47357325943904899 0 0.26104540868854792 0.81401944968719064 0 0.30857225866488791 0.81101973481716805 0 0.29209212897034281 0.84715728365233667 0 0.33403534827021109 0.84402799729020661 0 0.29209212897034281 0.84715728365233667 0 0.30857225866488791 0.81101973481716805 0 0.69999999999999984 0.29999999999999999 0 0.73090396928863699 0.33699297293167962 0 0.68887083591306764 0.33632058575757479 0 
</DataArray>
</Points>
<Cells>
<DataArray type="UInt32" Name="connectivity" format="ascii">
0 1 2 3 4 5 6 7 8 9 10 11 12 13 14 15 16 17 18 19 20 21 22 23 24 25 26 27 28 29 30 31 32 33 34 35 36 37 38 39 40 41 42 43 44 45 46 47 48 49 50 51 52 53 54 55 56 57 58 59 60 61 62 63 64 65 66 67 68 69 70 71 72 73 74 75 76 77 78 79 80 81 82 83 84 85 86 87 88 89 90 91 92 93 94 95 96 97 98 99 100 101 102 103 104 105 106 107 108 109 110 111 112 113 114 115 116 117 118 119 120 121 122 123 124 125 126 127 128 129 130 131 132 133 134 135 136 137 138 139 140 141 142 143 144 145 146 147 148 149 150 151 152 153 154 155 156 157 158 159 160 161 162 163 164 165 166 167 168 169 170 171 172 173 174 175 176 177 178 179 180 181 182 183 184 185 186 187 188 189 190 191 192 193 194 195 196 197 198 199 200 201 202 203 204 205 206 207 208 209 210 211 212 213 214 215 216 217 218 219 220 221 222 223 224 225 226 227 228 229 230 231 232 233 234 235 236 237 238 239 240 241 242 243 244 245 246 247 248 249 250 251 252 253 254 255 256 257 258 259 260 261 262 263 264 265 266 267 268 269 270 271 272 273 274 275 276 277 278 279 280 281 282 283 284 285 286 287 288 289 290 291 292 293 294 295 296 297 298 299 300 301 302 303 304 305 306 307 308 309 310 311 312 313 314 315 316 317 318 319 320 321 322 323 324 325 326 327 328 329 330 331 332 333 334 335 336 337 338 339 340 341 342 343 344 345 346 347 348 349 350 351 352 353 354 355 356 357 358 359 360 361 362 363 364 365 366 367 368 369 370 371 372 373 374 375 376 377 378 379 380 381 382 383 384 385 386 387 388 389 390 391 392 393 394 395 396 397 398 399 400 401 402 403 404 405 406 407 408 409 410 411 412 413 414 415 416 417 418 419 420 421 422 423 424 425 426 427 428 429 430 431 432 433 434 435 436 437 438 439 440 441 442 443 444 445 446 447 448 449 450 451 452 453 454 455 456 457 458 459 460 461 462 463 464 465 466 467 468 469 470 471 472 473 474 475 476 477 478 479 480 481 482 483 484 485 486 487 488 489 490 491 492 493 494 495 496 497 498 499 500 501 502 503 504 505 506 507 508 509 510 511 512 513 514 515 516 517 518 519 520 521 522 523 524 525 526 527 528 529 530 531 532 533 534 535 536 537 538 539 540 541 542 543 544 545 546 547 548 549 550 551 552 553 554 555 556 557 558 559 560 561 562 563 564 565 566 567 568 569 570 571 572 573 574 575 576 577 578 579 580 581 582 583 584 585 586 587 588 589 590 591 592 593 594 595 596 597 598 599 600 601 602 603 604 605 606 607 608 609 610 611 612 613 614 615 616 617 618 619 620 621 622 623 624 625 626 627 628 629 630 631 632 633 634 635 636 637 638 639 640 641 642 643 644 645 646 647 648 649 650 651 652 653 654 655 656 657 658 659 660 661 662 663 664 665 666 667 668 669 670 671 672 673 674 675 676 677 678 679 680 681 682 683 684 685 686 687 688 689 690 691 692 693 694 695 696 697 698 699 700 701 702 703 704 705 706 707 708 709 710 711 712 713 714 715 716 717 718 719 720 721 722 723 724 725 726 727 728 729 730 731 732 733 734 735 736 737 738 739 740 741 742 743 744 745 746 747 748 749 750 751 752 753 754 755 756 757 758 759 760 761 762 763 764 765 766 767 768 769 770 771 772 773 774 775 776 777 778 779 780 781 782 783 784 785 786 787 788 789 790 791 792 793 794 795 796 797 798 799 800 801 802 803 804 805 806 807 808 809 810 811 812 813 814 815 816 817 818 819 820 821 822 823 824 825 826 827 828 829 830 831 832 833 834 835 836 837 838 839 840 841 842 843 844 845 846 847 848 849 850 851 852 853 854 855 856 857 858 859 860 861 862 863 864 865 866 867 868 869 870 871 872 873 874 875 876 877 878 879 880 881 882 883 884 885 886 887 888 889 890 891 892 893 894 895 896 897 898 899 900 901 902 903 904 905 906 907 908 909 910 911 912 913 914 915 916 917 918 919 920 921 922 923 924 925 926 927 928 929 930 931 932 933 934 935 936 937 938 939 940 941 942 943 944 945 946 947 948 949 950 951 952 953 954 955 956 957 958 959 960 961 962 963 964 965 966 967 968 969 970 971 972 973 974 975 976 977 978 979 980 981 982 983 984 985 986 987 988 989 990 991 992 993 994 995 996 997 998 999 1000 1001 1002 1003 1004 1005 1006 1007 1008 1009 1010 1011 1012 1013 1014 1015 1016 1017 1018 1019 1020 1021 1022 1023 1024 1025 1026 1027 1028 1029 1030 1031 1032 1033 1034 1035 1036 1037 1038 1039 1040 1041 1042 1043 1044 1045 1046 1047 1048 1049 1050 1051 1052 1053 1054 1055 1056 1057 1058 1059 1060 1061 1062 1063 1064 1065 1066 1067 1068 1069 1070 1071 1072 1073 1074 1075 1076 1077 1078 1079 1080 1081 1082 1083 1084 1085 1086 1087 1088 1089 1090 1091 1092 1093 1094 1095 1096 1097 1098 1099 1100 1101 1102 1103 1104 1105 1106 1107 1108 1109 1110 1111 1112 1113 1114 1115 1116 1117 1118 1119 1120 1121 1122 1123 1124 1125 1126 1127 1128 1129 1130 1131 1132 1133 1134 1135 1136 1137 1138 1139 1140 1141 1142 1143 1144 1145 1146 1147 1148 1149 1150 1151 1152 1153 1154 1155 1156 1157 1158 1159 1160 1161 1162 1163 1164 1165 1166 1167 1168 1169 1170 1171 1172 1173 1174 1175 1176 1177 1178 1179 1180 1181 1182 1183 1184 1185 1186 1187 1188 1189 1190 1191 1192 1193 1194 1195 1196 1197 1198 1199 1200 1201 1202 1203 1204 1205 1206 1207 1208 1209 1210 1211 1212 1213 1214 1215 1216 1217 1218 1219 1220 1221 1222 1223 1224 1225 1226 1227 1228 1229 1230 1231 1232 1233 1234 1235 1236 1237 1238 1239 1240 1241 1242 1243 1244 1245 1246 1247 1248 1249 1250 1251 1252 1253 1254 1255 1256 1257 1258 1259 1260 1261 1262 1263 1264 1265 1266 1267 1268 1269 1270 1271 1272 1273 1274 1275 1276 1277 1278 1279 1280 1281 1282 1283 1284 1285 1286 1287 1288 1289 1290 1291 1292 1293 1294 1295 1296 1297 1298 1299 1300 1301 1302 1303 1304 1305 1306 1307 1308 1309 1310 1311 1312 1313 1314 1315 1316 1317 1318 1319 1320 1321 1322 1323 1324 1325 1326 1327 1328 1329 1330 1331 1332 1333 1334 1335 1336 1337 1338 1339 1340 1341 1342 1343 1344 1345 1346 1347 1348 1349 1350 1351 1352 1353 1354 1355 1356 1357 1358 1359 1360 1361 1362 1363 1364 1365 1366 1367 1368 1369 1370 1371 1372 1373 1374 1375 1376 1377 1378 1379 1380 1381 1382 1383 1384 1385 1386 1387 1388 1389 1390 1391 1392 1393 1394 1395 1396 1397 1398 1399 1400 1401 1402 1403 1404 1405 1406 1407 1408 1409 1410 1411 1412 1413 1414 1415 1416 1417 1418 1419 1420 1421 1422 1423 1424 1425 1426 1427 1428 1429 1430 1431 1432 1433 1434 1435 1436 1437 1438 1439 1440 1441 1442 1443 1444 1445 1446 1447 1448 1449 1450 1451 1452 1453 1454 1455 1456 1457 1458 1459 1460 1461 1462 1463 1464 1465 1466 1467 1468 1469 1470 1471 1472 1473 1474 1475 1476 1477 1478 1479 1480 1481 1482 1483 1484 1485 1486 1487 1488 1489 1490 1491 1492 1493 1494 1495 1496 1497 1498 1499 1500 1501 1502 1503 1504 1505 1506 1507 1508 1509 1510 1511 1512 1513 1514 1515 1516 1517 1518 1519 1520 1521 1522 1523 1524 1525 1526 1527 1528 1529 1530 1531 1532 1533 1534 1535 1536 1537 1538 1539 1540 1541 1542 1543 1544 1545 1546 1547 1548 1549 1550 1551 1552 1553 1554 1555 1556 1557 1558 1559 1560 1561 1562 1563 1564 1565 1566 1567 1568 1569 1570 1571 1572 1573 1574 1575 1576 1577 1578 1579 1580 1581 1582 1583 1584 1585 1586 1587 1588 1589 1590 1591 1592 1593 1594 1595 1596 1597 1598 1599 1600 1601 1602 1603 1604 1605 1606 1607 1608 1609 1610 1611 1612 1613 1614 1615 1616 1617 1618 1619 1620 1621 1622 1623 1624 1625 1626 1627 1628 1629 1630 1631 1632 1633 1634 1635 1636 1637 1638 1639 1640 1641 1642 1643 1644 1645 1646 1647 1648 1649 1650 1651 1652 1653 1654 1655 1656 1657 1658 1659 1660 1661 1662 1663 1664 1665 1666 1667 1668 1669 1670 1671 1672 1673 1674 1675 1676 1677 1678 1679 1680 1681 1682 1683 1684 1685 1686 1687 1688 1689 1690 1691 1692 1693 1694 1695 1696 1697 1698 1699 1700 1701 1702 1703 1704 1705 1706 1707 1708 1709 1710 1711 1712 1713 1714 1715 1716 1717 1718 1719 1720 1721 1722 1723 1724 1725 1726 1727 1728 1729 1730 1731 1732 1733 1734 1735 1736 1737 1738 1739 1740 1741 1742 1743 1744 1745 1746 1747 1748 1749 1750 1751 1752 1753 1754 1755 1756 1757 1758 1759 1760 1761 1762 1763 1764 1765 1766 1767 1768 1769 1770 1771 1772 1773 1774 1775 1776 1777 1778 1779 1780 1781 1782 1783 1784 1785 1786 1787 1788 1789 1790 1791 1792 1793 1794 1795 1796 1797 1798 1799 1800 1801 1802 1803 1804 1805 1806 1807 1808 1809 1810 1811 1812 1813 1814 1815 1816 1817 1818 1819 1820 1821 1822 1823 1824 1825 1826 1827 1828 1829 1830 1831 1832 1833 1834 1835 1836 1837 1838 1839 1840 1841 1842 1843 1844 1845 1846 1847 1848 1849 1850 1851 1852 1853 1854 1855 1856 1857 1858 1859 1860 1861 1862 1863 1864 1865 1866 1867 1868 1869 1870 1871 1872 1873 1874 1875 1876 1877 1878 1879 1880 1881 1882 1883 1884 1885 1886 1887 1888 1889 1890 1891 1892 1893 1894 1895 1896 1897 1898 1899 1900 1901 1902 1903 1904 1905 1906 1907 1908 1909 1910 1911 1912 1913 1914 1915 1916 1917 1918 1919 1920 1921 1922 1923 1924 1925 1926 1927 1928 1929 1930 1931 1932 1933 1934 1935 1936 1937 1938 1939 1940 1941 1942 1943 1944 1945 1946 1947 1948 1949 1950 1951 1952 1953 1954 1955 1956 1957 1958 1959 1960 1961 1962 1963 1964 1965 1966 1967 1968 1969 1970 1971 1972 1973 1974 1975 1976 1977 1978 1979 1980 1981 1982 1983 1984 1985 1986 1987 1988 1989 1990 1991 1992 1993 1994 1995 1996 1997 1998 1999 2000 2001 2002 2003 2004 2005 2006 2007 2008 2009 2010 2011 2012 2013 2014 2015 2016 2017 2018 2019 2020 2021 2022 2023 2024 2025 2026 2027 2028 2029 2030 2031 2032 2033 2034 2035 2036 2037 2038 2039 2040 2041 2042 2043 2044 2045 2046 2047 2048 2049 2050 2051 2052 2053 2054 2055 2056 2057 2058 2059 2060 2061 2062 2063 2064 2065 2066 2067 2068 2069 2070 2071 2072 2073 2074 2075 2076 2077 2078 2079 2080 2081 2082 2083 2084 2085 2086 2087 2088 2089 2090 2091 2092 2093 2094 2095 2096 2097 2098 2099 2100 2101 2102 2103 2104 2105 2106 2107 2108 2109 2110 2111 2112 2113 2114 2115 2116 2117 2118 2119 2120 2121 2122 2123 2124 2125 2126 2127 2128 2129 2130 2131 2132 2133 2134 2135 2136 2137 2138 2139 2140 2141 2142 2143 2144 2145 2146 2147 2148 2149 2150 2151 2152 2153 2154 2155 2156 2157 2158 2159 2160 2161 2162 2163 2164 2165 2166 2167 2168 2169 2170 2171 2172 2173 2174 2175 2176 2177 2178 2179 2180 2181 2182 2183 2184 2185 2186 2187 2188 2189 2190 2191 2192 2193 2194 2195 2196 2197 2198 2199 2200 2201 2202 2203 2204 2205 2206 2207 2208 2209 2210 2211 2212 2213 2214 2215 2216 2217 2218 2219 2220 2221 2222 2223 2224 2225 2226 2227 2228 2229 2230 2231 2232 2233 2234 2235 2236 2237 2238 2239 2240 2241 2242 2243 2244 2245 2246 2247 2248 2249 2250 2251 2252 2253 2254 2255 2256 2257 2258 2259 2260 2261 2262 2263 2264 2265 2266 2267 2268 2269 2270 2271 2272 2273 2274 2275 2276 2277 2278 2279 2280 2281 2282 2283 2284 2285 2286 2287 2288 2289 2290 2291 2292 2293 2294 2295 2296 2297 2298 2299 2300 2301 2302 2303 2304 2305 2306 2307 2308 2309 2310 2311 2312 2313 2314 2315 2316 2317 2318 2319 2320 2321 2322 2323 2324 2325 2326 2327 2328 2329 2330 2331 2332 2333 2334 2335 2336 2337 2338 2339 2340 2341 2342 2343 2344 2345 2346 2347 2348 2349 2350 2351 2352 2353 2354 2355 2356 2357 2358 2359 2360 2361 2362 2363 2364 2365 2366 2367 2368 2369 2370 2371 2372 2373 2374 2375 2376 2377 2378 2379 2380 2381 2382 2383 2384 2385 2386 2387 2388 2389 2390 2391 2392 2393 2394 2395 2396 2397 2398 2399 2400 2401 2402 2403 2404 2405 2406 2407 2408 2409 2410 2411 2412 2413 2414 2415 2416 2417 2418 2419 2420 2421 2422 2423 2424 2425 2426 2427 2428 2429 2430 2431 2432 2433 2434 2435 2436 2437 2438 2439 2440 2441 2442 2443 2444 2445 2446 2447 2448 2449 2450 2451 2452 2453 2454 2455 2456 2457 2458 2459 2460 2461 2462 2463 2464 2465 2466 2467 2468 2469 2470 2471 2472 2473 2474 2475 2476 2477 2478 2479 2480 2481 2482 2483 2484 2485 2486 2487 2488 2489 2490 2491 2492 2493 2494 2495 2496 2497 2498 2499 2500 2501 2502 2503 2504 2505 2506 2507 2508 2509 2510 2511 2512 2513 2514 2515 2516 2517 2518 2519 2520 2521 2522 2523 2524 2525 2526 2527 2528 2529 2530 2531 2532 2533 2534 2535 2536 2537 2538 2539 2540 2541 2542 2543 2544 2545 2546 2547 2548 2549 2550 2551 2552 2553 2554 2555 2556 2557 2558 2559 2560 2561 2562 2563 2564 2565 2566 2567 2568 2569 2570 2571 2572 2573 2574 2575 2576 2577 2578 2579 2580 2581 2582 2583 2584 2585 2586 2587 2588 2589 2590 2591 2592 2593 2594 2595 2596 2597 2598 2599 2600 2601 2602 2603 2604 2605 2606 2607 2608 2609 2610 2611 2612 2613 2614 2615 2616 2617 2618 2619 2620 2621 2622 2623 2624 2625 2626 2627 2628 2629 2630 2631 2632 2633 2634 2635 2636 2637 2638 2639 2640 2641 2642 2643 2644 2645 2646 2647 2648 2649 2650 2651 2652 2653 2654 2655 2656 2657 2658 2659 2660 2661 2662 2663 2664 2665 2666 2667 2668 2669 2670 2671 2672 2673 2674 2675 2676 2677 2678 2679 2680 2681 2682 2683 2684 2685 2686 2687 2688 2689 2690 2691 2692 2693 2694 2695 2696 2697 2698 2699 2700 2701 2702 2703 2704 2705 2706 2707 2708 2709 2710 2711 2712 2713 2714 2715 2716 2717 2718 2719 2720 2721 2722 2723 2724 2725 2726 2727 2728 2729 2730 2731 2732 2733 2734 2735 2736 2737 2738 2739 2740 2741 2742 2743 2744 2745 2746 2747 2748 2749 2750 2751 2752 2753 2754 2755 2756 2757 2758 2759 2760 2761 2762 2763 2764 2765 2766 2767 2768 2769 2770 2771 2772 2773 2774 2775 2776 2777 2778 2779 2780 2781 2782 2783 2784 2785 2786 2787 2788 2789 2790 2791 2792 2793 2794 2795 2796 2797 2798 2799 2800 2801 2802 2803 2804 2805 2806 2807 2808 2809 2810 2811 2812 2813 2814 2815 2816 2817 2818 2819 2820 2821 2822 2823 2824 2825 2826 2827 2828 2829 2830 2831 2832 2833 2834 2835 2836 2837 2838 2839 2840 2841 2842 2843 2844 2845 2846 2847 2848 2849 2850 2851 2852 2853 2854 2855 2856 2857 2858 2859 2860 2861 2862 2863 2864 2865 2866 2867 2868 2869 2870 2871 2872 2873 2874 2875 2876 2877 2878 2879 2880 2881 2882 2883 2884 2885 2886 2887 2888 2889 2890 2891 2892 2893 2894 2895 2896 2897 2898 2899 2900 2901 2902 2903 2904 2905 2906 2907 2908 2909 2910 2911 2912 2913 2914 2915 2916 2917 2918 2919 2920 2921 2922 2923 2924 2925 2926 2927 2928 2929 2930 2931 2932 2933 2934 2935 2936 2937 2938 2939 2940 2941 2942 2943 2944 2945 2946 2947 2948 2949 2950 2951 2952 2953 2954 2955 2956 2957 2958 2959 2960 2961 2962 2963 2964 2965 2966 2967 2968 2969 2970 2971 2972 2973 2974 2975 2976 2977 2978 2979 2980 2981 2982 2983 2984 2985 2986 2987 2988 2989 2990 2991 2992 2993 2994 2995 2996 2997 2998 2999 3000 3001 3002 3003 3004 3005 3006 3007 3008 3009 3010 3011 3012 3013 3014 3015 3016 3017 3018 3019 3020 3021 3022 3023 3024 3025 3026 3027 3028 3029 3030 3031 3032 3033 3034 3035 3036 3037 3038 3039 3040 3041 3042 3043 3044 3045 3046 3047 3048 3049 3050 3051 3052 3053 3054 3055 3056 3057 3058 3059 3060 3061 3062 3063 3064 3065 3066 3067 3068 3069 3070 3071 3072 3073 3074 3075 3076 3077 3078 3079 3080 3081 3082 3083 3084 3085 3086 3087 3088 3089 3090 3091 3092 3093 3094 3095 3096 3097 3098 3099 3100 3101 3102 3103 3104 3105 3106 3107 3108 3109 3110 3111 3112 3113 3114 3115 3116 3117 3118 3119 3120 3121 3122 3123 3124 3125 3126 3127 3128 3129 3130 3131 3132 3133 3134 3135 3136 3137 3138 3139 3140 3141 
</DataArray>
<DataArray type="UInt32" Name="offsets" format="ascii">
2 4 6 8 10 12 14 16 18 20 22 24 26 28 30 32 34 36 38 40 43 46 49 52 55 58 61 64 67 70 73 76 79 82 85 88 91 94 97 100 103 106 109 112 115 118 121 124 127 130 133 136 139 142 145 148 151 154 157 160 163 166 169 172 175 178 181 184 187 190 193 196 199 202 205 208 211 214 217 220 223 226 229 232 235 238 241 244 247 250 253 256 259 262 265 268 271 274 277 280 283 286 289 292 295 298 301 304 307 310 313 316 319 322 325 328 331 334 337 340 343 346 349 352 355 358 361 364 367 370 373 376 379 382 385 388 391 394 397 400 403 406 409 412 415 418 421 424 427 430 433 436 439 442 445 448 451 454 457 460 463 466 469 472 475 478 481 484 487 490 493 496 499 502 505 508 511 514 517 520 523 526 529 532 535 538 541 544 547 550 553 556 559 562 565 568 571 574 577 580 583 586 589 592 595 598 601 604 607 610 613 616 619 622 625 628 631 634 637 640 643 646 649 652 655 658 661 664 667 670 673 676 679 682 685 688 691 694 697 700 703 706 709 712 715 718 721 724 727 730 733 736 739 742 745 748 751 754 757 760 763 766 769 772 775 778 781 784 787 790 793 796 799 802 805 808 811 814 817 820 823 826 829 832 835 838 841 844 847 850 853 856 859 862 865 868 871 874 877 880 883 886 889 892 895 898 901 904 907 910 913 916 919 922 925 928 931 934 937 940 943 946 949 952 955 958 961 964 967 970 973 976 979 982 985 988 991 994 997 1000 1003 1006 1009 1012 1015 1018 1021 1024 1027 1030 1033 1036 1039 1042 1045 1048 1051 1054 1057 1060 1063 1066 1069 1072 1075 1078 1081 1084 1087 1090 1093 1096 1099 1102 1105 1108 1111 1114 1117 1120 1123 1126 1129 1132 1135 1138 1141 1144 1147 1150 1153 1156 1159 1162 1165 1168 1171 1174 1177 1180 1183 1186 1189 1192 1195 1198 1201 1204 1207 1210 1213 1216 1219 1222 1225 1228 1231 1234 1237 1240 1243 1246 1249 1252 1255 1258 1261 1264 1267 1270 1273 1276 1279 1282 1285 1288 1291 1294 1297 1300 1303 1306 1309 1312 1315 1318 1321 1324 1327 1330 1333 1336 1339 1342 1345 1348 1351 1354 1357 1360 1363 1366 1369 1372 1375 1378 1381 1384 1387 1390 1393 1396 1399 1402 1405 1408 1411 1414 1417 1420 1423 1426 1429 1432 1435 1438 1441 1444 1447 1450 1453 1456 1459 1462 1465 1468 1471 1474 1477 1480 1483 1486 1489 1492 1495 1498 1501 1504 1507 1510 1513 1516 1519 1522 1525 1528 1531 1534 1537 1540 1543 1546 1549 1552 1555 1558 1561 1564 1567 1570 1573 1576 1579 1582 1585 1588 1591 1594 1597 1600 1603 1606 1609 1612 1615 1618 1621 1624 1627 1630 1633 1636 1639 1642 1645 1648 1651 1654 1657 1660 1663 1666 1669 1672 1675 1678 1681 1684 1687 1690 1693 1696 1699 1702 1705 1708 1711 1714 1717 1720 1723 1726 1729 1732 1735 1738 1741 1744 1747 1750 1753 1756 1759 1762 1765 1768 1771 1774 1777 1780 1783 1786 1789 1792 1795 1798 1801 1804 1807 1810 1813 1816 1819 1822 1825 1828 1831 1834 1837 1840 1843 1846 1849 1852 1855 1858 1861 1864 1867 1870 1873 1876 1879 1882 1885 1888 1891 1894 1897 1900 1903 1906 1909 1912 1915 1918 1921 1924 1927 1930 1933 1936 1939 1942 1945 1948 1951 1954 1957 1960 1963 1966 1969 1972 1975 1978 1981 1984 1987 1990 1993 1996 1999 2002 2005 2008 2011 2014 2017 2020 2023 2026 2029 2032 2035 2038 2041 2044 2047 2050 2053 2056 2059 2062 2065 2068 2071 2074 2077 2080 2083 2086 2089 2092 2095 2098 2101 2104 2107 2110 2113 2116 2119 2122 2125 2128 2131 2134 2137 2140 2143 2146 2149 2152 2155 2158 2161 2164 2167 2170 2173 2176 2179 2182 2185 2188 2191 2194 2197 2200 2203 2206 2209 2212 2215 2218 2221 2224 2227 2230 2233 2236 2239 2242 2245 2248 2251 2254 2257 2260 2263 2266 2269 2272 2275 2278 2281 2284 2287 2290 2293 2296 2299 2302 2305 2308 2311 2314 2317 2320 2323 2326 2329 2332 2335 2338 2341 2344 2347 2350 2353 2356 2359 2362 2365 2368 2371 2374 2377 2380 2383 2386 2389 2392 2395 2398 2401 2404 2407 2410 2413 2416 2419 2422 2425 2428 2431 2434 2437 2440 2443 2446 2449 2452 2455 2458 2461 2464 2467 2470 2473 2476 2479 2482 2485 2488 2491 2494 2497 2500 2503 2506 2509 2512 2515 2518 2521 2524 2527 2530 2533 2536 2539 2542 2545 2548 2551 2554 2557 2560 2563 2566 2569 2572 2575 2578 2581 2584 2587 2590 2593 2596 2599 2602 2605 2608 2611 2614 2617 2620 2623 2626 2629 2632 2635 2638 2641 2644 2647 2650 2653 2656 2659 2662 2665 2668 2671 2674 2677 2680 2683 2686 2689 2692 2695 2698 2701 2704 2707 2710 2713 2716 2719 2722 2725 2728 2731 2734 2737 2740 2743 2746 2749 2752 2755 2758 2761 2764 2767 2770 2773 2776 2779 2782 2785 2788 2791 2794 2797 2800 2803 2806 2809 2812 2815 2818 2821 2824 2827 2830 2833 2836 2839 2842 2845 2848 2851 2854 2857 2860 2863 2866 2869 2872 2875 2878 2881 2884 2887 2890 2893 2896 2899 2902 2905 2908 2911 2914 2917 2920 2923 2926 2929 2932 2935 2938 2941 2944 2947 2950 2953 2956 2959 2962 2965 2968 2971 2974 2977 2980 2983 2986 2989 2992 2995 2998 3001 3004 3007 3010 3013 3016 3019 3022 3025 3028 3031 3034 3037 3040 3043 3046 3049 3052 3055 3058 3061 3064 3067 3070 3073 3076 3079 3082 3085 3088 3091 3094 3097 3100 3103 3106 3109 3112 3115 3118 3121 3124 3127 3130 3133 3136 3139 3142 
</DataArray>
<DataArray type="UInt32" Name="types" format="ascii">
3 3 3 3 3 3 3 3 3 3 3 3 3 3 3 3 3 3 3 3 5 5 5 5 5 5 5 5 5 5 5 5 5 5 5 5 5 5 5 5 5 5 5 5 5 5 5 5 5 5 5 5 5 5 5 5 5 5 5 5 5 5 5 5 5 5 5 5 5 5 5 5 5 5 5 5 5 5 5 5 5 5 5 5 5 5 5 5 5 5 5 5 5 5 5 5 5 5 5 5 5 5 5 5 5 5 5 5 5 5 5 5 5 5 5 5 5 5 5 5 5 5 5 5 5 5 5 5 5 5 5 5 5 5 5 5 5 5 5 5 5 5 5 5 5 5 5 5 5 5 5 5 5 5 5 5 5 5 5 5 5 5 5 5 5 5 5 5 5 5 5 5 5 5 5 5 5 5 5 5 5 5 5 5 5 5 5 5 5 5 5 5 5 5 5 5 5 5 5 5 5 5 5 5 5 5 5 5 5 5 5 5 5 5 5 5 5 5 5 5 5 5 5 5 5 5 5 5 5 5 5 5 5 5 5 5 5 5 5 5 5 5 5 5 5 5 5 5 5 5 5 5 5 5 5 5 5 5 5 5 5 5 5 5 5 5 5 5 5 5 5 5 5 5 5 5 5 5 5 5 5 5 5 5 5 5 5 5 5 5 5 5 5 5 5 5 5 5 5 5 5 5 5 5 5 5 5 5 5 5 5 5 5 5 5 5 5 5 5 5 5 5 5 5 5 5 5 5 5 5 5 5 5 5 5 5 5 5 5 5 5 5 5 5 5 5 5 5 5 5 5 5 5 5 5 5 5 5 5 5 5 5 5 5 5 5 5 5 5 5 5 5 5 5 5 5 5 5 5 5 5 5 5 5 5 5 5 5 5 5 5 5 5 5 5 5 5 5 5 5 5 5 5 5 5 5 5 5 5 5 5 5 5 5 5 5 5 5 5 5 5 5 5 5 5 5 5 5 5 5 5 5 5 5 5 5 5 5 5 5 5 5 5 5 5 5 5 5 5 5 5 5 5 5 5 5 5 5 5 5 5 5 5 5 5 5 5 5 5 5 5 5 5 5 5 5 5 5 5 5 5 5 5 5 5 5 5 5 5 5 5 5 5 5 5 5 5 5 5 5 5 5 5 5 5 5 5 5 5 5 5 5 5 5 5 5 5 5 5 5 5 5 5 5 5 5 5 5 5 5 5 5 5 5 5 5 5 5 5 5 5 5 5 5 5 5 5 5 5 5 5 5 5 5 5 5 5 5 5 5 5 5 5 5 5 5 5 5 5 5 5 5 5 5 5 5 5 5 5 5 5 5 5 5 5 5 5 5 5 5 5 5 5 5 5 5 5 5 5 5 5 5 5 5 5 5 5 5 5 5 5 5 5 5 5 5 5 5 5 5 5 5 5 5 5 5 5 5 5 5 5 5 5 5 5 5 5 5 5 5 5 5 5 5 5 5 5 5 5 5 5 5 5 5 5 5 5 5 5 5 5 5 5 5 5 5 5 5 5 5 5 5 5 5 5 5 5 5 5 5 5 5 5 5 5 5 5 5 5 5 5 5 5 5 5 5 5 5 5 5 5 5 5 5 5 5 5 5 5 5 5 5 5 5 5 5 5 5 5 5 5 5 5 5 5 5 5 5 5 5 5 5 5 5 5 5 5 5 5 5 5 5 5 5 5 5 5 5 5 5 5 5 5 5 5 5 5 5 5 5 5 5 5 5 5 5 5 5 5 5 5 5 5 5 5 5 5 5 5 5 5 5 5 5 5 5 5 5 5 5 5 5 5 5 5 5 5 5 5 5 5 5 5 5 5 5 5 5 5 5 5 5 5 5 5 5 5 5 5 5 5 5 5 5 5 5 5 5 5 5 5 5 5 5 5 5 5 5 5 5 5 5 5 5 5 5 5 5 5 5 5 5 5 5 5 5 5 5 5 5 5 5 5 5 5 5 5 5 5 5 5 5 5 5 5 5 5 5 5 5 5 5 5 5 5 5 5 5 5 5 5 5 5 5 5 5 5 5 5 5 5 5 5 5 5 5 5 5 5 5 5 5 5 5 5 5 5 5 5 5 5 5 5 5 5 5 5 5 5 5 5 5 5 5 5 5 5 5 5 5 5 5 5 5 5 5 5 5 5 5 5 5 5 5 5 5 5 5 5 5 5 5 5 5 5 5 5 5 5 5 5 5 5 5 5 5 5 5 5 5 5 5 5 5 5 5 5 5 5 5 5 5 5 5 5 5 5 5 5 5 5 5 5 5 5 5 5 5 5 5 5 5 5 5 5 5 5 5 5 5 5 5 5 5 5 5 5 5 5 5 5 5 5 5 5 5 5 5 5 5 5 5 5 5 5 5 5 5 5 5 5 5 5 5 
</DataArray>
</Cells>
<PointData Scalars="" Vectors="displacement," Tensors="">
<DataArray type="Float64" Name="displacement" NumberOfComponents="3" format="ascii">
3.9237146713723809e-06 -7.0611098925154957e-06 0 5.227123355295144e-06 -1.0813044381124179e-05 0 5.227123355295144e-06 -1.0813044381124179e-05 0 5.8053991244324808e-06 -1.5367184768279602e-05 0 5.8053991244324808e-06 -1.5367184768279602e-05 0 6.4873930974169433e-06 -2.0785701711708398e-05 0 6.4873930974169433e-06 -2.0785701711708398e-05 0 7.2266434635470488e-06 -2.6728776426517283e-05 0 7.2266434635470488e-06 -2.6728776426517283e-05 0 8.1125019323666091e-06 -3.3020968178000898e-05 0 8.1125019323666091e-06 -3.3020968178000898e-05 0 9.2448958377402909e-06 -3.9691763988328055e-05 0 9.2448958377402909e-06 -3.9691763988328055e-05 0 1.0419671055452777e-05 -4.5988224976662294e-05 0 1.0419671055452777e-05 -4.5988224976662294e-05 0 1.2572587591245011e-05 -5.354863891259067e-05 0 1.2572587591245011e-05 -5.354863891259067e-05 0 1.3027040465806674e-05 -5.8456134720343961e-05 0 1.3027040465806674e-05 -5.8456134720343961e-05 0 2.2769677316148221e-05 -6.5723418831486184e-05 0 1.3340278083508629e-05 8.9029029633686056e-06 0 2.5892697639084846e-05 1.5976572347604228e-05 0 2.5892697639084846e-05 1.5976572347604228e-05 0 2.6046217169383152e-05 1.9398127797629134e-05 0 2.6046217169383152e-05 1.9398127797629134e-05 0 2.8909609212011693e-05 2.6789946468041274e-05 0 2.8909609212011693e-05 2.6789946468041274e-05 0 3.1001215919711103e-05 3.3195047262292261e-05 0 3.1001215919711103e-05 3.3195047262292261e-05 0 3.3164951804941872e-05 4.0723651877812197e-05 0 3.3164951804941872e-05 4.0723651877812197e-05 0 3.5571277850267454e-05 4.9392609699973442e-05 0 3.5571277850267454e-05 4.9392609699973442e-05 0 3.7228717210212867e-05 5.5614813959206412e-05 0 3.7228717210212867e-05 5.5614813959206412e-05 0 4.2370004216347543e-05 6.7134884897106895e-05 0 4.2370004216347543e-05 6.7134884897106895e-05 0 3.6243229116283127e-05 7.0454167738223769e-05 0 3.6243229116283127e-05 7.0454167738223769e-05 0 7.6313569949287038e-05 8.2288163937242019e-05 0 3.7359077131830341e-06 -1.6839043209188642e-06 0 3.6798149991642467e-06 3.9304655961619858e-07 0 2.8101127897067437e-06 -8.2817615609979634e-07 0 4.4387350406378137e-06 -6.1845821080381808e-07 0 3.6798149991642467e-06 3.9304655961619858e-07 0 3.7359077131830341e-06 -1.6839043209188642e-06 0 3.2018763013492305e-06 -6.482567053543803e-06 0 4.2480103849035684e-06 -4.5119689996860595e-06 0 3.048438897538194e-06 -5.6470264607407728e-06 0 3.048438897538194e-06 -5.6470264607407728e-06 0 4.2480103849035684e-06 -4.5119689996860595e-06 0 3.6285724524320434e-06 -4.7383636289824566e-06 0 -2.7169088412050078e-06 -8.9331416318977382e-07 0 -1.2483740891559622e-06 -8.3302665496385692e-07 0 -2.7302718327954637e-06 -1.4637074715796553e-06 0 -2.0282392122822651e-06 4.4344942944253566e-07 0 -2.0494188020644304e-06 8.4540116166882099e-07 0 -9.5423670326197623e-07 4.812830091131395e-07 0 -1.1200654991287712e-06 -2.9820633178372989e-07 0 -1.2483740891559622e-06 -8.3302665496385692e-07 0 -2.7169088412050078e-06 -8.9331416318977382e-07 0 -8.7480479873417016e-07 9.6543608572488143e-08 0 -2.0282392122822651e-06 4.4344942944253566e-07 0 -9.5423670326197623e-07 4.812830091131395e-07 0 -7.2013920809560548e-06 -5.7417927972123559e-08 0 -9.3501052774607775e-06 -1.0822105249458218e-06 0 -6.6105193592026866e-06 2.7733265445214349e-07 0 -1.4279448269211735e-05 1.4728650795507128e-06 0 -1.057198119575805e-05 -2.5619455333392418e-07 0 -9.960400115862759e-06 -5.7137533103300975e-07 0 3.3677845992045816e-06 -2.327870982431553e-07 0 4.4346143322396931e-06 -1.5278504308679237e-07 0 3.0959451606792859e-06 -1.0046764949397169e-06 0 4.588922296595674e-06 -6.3946870737456153e-07 0 3.0959451606792859e-06 -1.0046764949397169e-06 0 4.4346143322396931e-06 -1.5278504308679237e-07 0 2.6084185844119899e-07 1.7719132044430206e-06 0 5.597626044228902e-07 1.9249541001500982e-06 0 1.1737144701656064e-06 1.7492776874894453e-06 0 1.9197959925166639e-10 -5.1710971816409825e-10 0 4.6036676262921883e-10 -3.5190613107202437e-10 0 4.1445592709793174e-07 -9.9843837205967189e-07 0 2.0574594495708093e-10 3.7466554395233529e-10 0 -2.8151523417132815e-11 4.2413978717229077e-10 0 1.0404798623698422e-07 9.6476224056963632e-07 0 1.3254801837125786e-06 -8.6948576312317301e-06 0 2.4929722581556839e-06 -9.3004515493764431e-06 0 3.2018763013492305e-06 -6.482567053543803e-06 0 1.9036040362394832e-05 1.042325180686575e-05 0 1.3358336374625827e-05 6.0013039159295631e-06 0 1.4565175021842361e-05 6.9240858044836525e-06 0 -8.212182000260908e-06 -0.00010091054315296664 0 4.3331597424224541e-07 -9.1842966933991459e-05 0 -8.6268961835454373e-06 -8.7635647706769821e-05 0 -5.7961533895999889e-06 0.00020086361080130167 0 -2.3750041052502521e-05 0.0001814422176946901 0 -6.4414660117094076e-06 0.00017488740918913804 0 -5.7961533895999889e-06 0.00020086361080130167 0 -6.4414660117094076e-06 0.00017488740918913804 0 1.1720866394921577e-05 0.00018272121803272352 0 -8.212182000260908e-06 -0.00010091054315296664 0 -8.6268961835454373e-06 -8.7635647706769821e-05 0 -1.7225616454672789e-05 -9.0894139865419174e-05 0 -2.6949143562147835e-05 0.00016089839953403666 0 -5.6846562158610057e-06 0.00015146932938135392 0 -6.4414660117094076e-06 0.00017488740918913804 0 1.3505720457392617e-06 -8.0757400404864605e-05 0 -9.4396134596912475e-06 -7.5446173846695702e-05 0 -8.6268961835454373e-06 -8.7635647706769821e-05 0 2.6084185844119899e-07 1.7719132044430206e-06 0 1.1737144701656064e-06 1.7492776874894453e-06 0 4.9176440091496671e-07 1.4811646198593994e-06 0 1.9036040362394832e-05 1.042325180686575e-05 0 1.1668220057988344e-05 8.1951335025251599e-06 0 1.3358336374625827e-05 6.0013039159295631e-06 0 -4.127233174743594e-05 3.554721877591518e-05 0 -3.5751910042353897e-05 2.4298700038364543e-05 0 -2.5392197718346673e-05 2.6721122086751289e-05 0 -2.0865534242984254e-05 -1.2506397790903846e-05 0 -2.3825538542174878e-05 -1.7870374327446949e-05 0 -1.6065710904412933e-05 -1.3817005245767686e-05 0 2.352295556617799e-06 -6.3600749679210067e-06 0 1.3254801837125786e-06 -8.6948576312317301e-06 0 3.2018763013492305e-06 -6.482567053543803e-06 0 -1.2027544187281204e-05 2.0833996581101017e-05 0 -1.0066921604581546e-05 1.0387163220539966e-05 0 -4.3769598223231405e-06 1.1842387394391871e-05 0 -2.9762776472366412e-06 5.650694397885199e-07 0 -7.2316333535163052e-06 2.3504922533521454e-06 0 -7.6547809897358407e-06 -1.8825949591240209e-07 0 9.4722439342609116e-06 -1.9869060956050345e-06 0 8.4342256374591607e-06 2.4136444484226972e-07 0 7.9183086390590151e-06 -2.9215064090087881e-06 0 -8.9904005953237251e-06 -6.3898664808641884e-05 0 -2.4122759036816168e-06 -6.0836361115723802e-05 0 -9.9609808433530163e-06 -5.2410871001916216e-05 0 -7.0154739883824541e-06 0.00012922044764840187 0 -2.0481459166279877e-05 0.00012294207944917756 0 -5.0846759761248712e-06 0.00010594779638334507 0 -9.9609808433530163e-06 -5.2410871001916216e-05 0 -2.4122759036816168e-06 -6.0836361115723802e-05 0 -2.521536117340946e-06 -5.1181780699710814e-05 0 -5.0846759761248712e-06 0.00010594779638334507 0 -2.0481459166279877e-05 0.00012294207944917756 0 -2.0263401434414399e-05 0.0001059840788008799 0 -2.9762776472366412e-06 5.650694397885199e-07 0 -7.6547809897358407e-06 -1.8825949591240209e-07 0 -2.7868321806871288e-06 -1.0472752334246057e-06 0 1.1360940200129856e-05 -4.6324731094498354e-06 0 1.1183209145572368e-05 3.4499841586744041e-07 0 9.4722439342609116e-06 -1.9869060956050345e-06 0 -1.2027544187281204e-05 2.0833996581101017e-05 0 -1.7433762500359528e-05 1.6728298085335708e-05 0 -1.0066921604581548e-05 1.0387163220539966e-05 0 1.9036040362394832e-05 1.042325180686575e-05 0 2.7194624050691318e-05 3.1197982135356711e-05 0 1.5512635166418285e-05 3.1473044214048792e-05 0 8.6960007179673212e-06 -2.7228730929840417e-05 0 7.4080991660136177e-06 -2.8505150102232221e-05 0 6.9968317211586999e-06 -2.71605331946193e-05 0 2.981850401000205e-05 -4.319724070636585e-05 0 2.8568733220867866e-05 -3.6975715042067946e-05 0 2.0733864894052894e-05 -3.5860025858679468e-05 0 1.014193986756186e-05 2.2756324256822605e-06 0 8.4342256374591607e-06 2.4136444484226972e-07 0 9.4722439342609116e-06 -1.9869060956050345e-06 0 2.2421080684393578e-05 -9.0784989647978994e-05 0 1.0943472507791986e-05 -7.9687138294641849e-05 0 1.019528415889402e-05 -9.0033638650323906e-05 0 -6.4139643502002393e-05 0.00017960871169850329 0 -4.5711055467712661e-05 0.00015884083904658621 0 -4.2167030589391085e-05 0.00017712897660959306 0 6.3125484121144945e-10 -2.7985145385571338e-10 0 8.4479578427602231e-07 -3.3651895968165695e-07 0 6.5080148655695431e-07 -6.3845582261022694e-07 0 3.5933230102815241e-10 3.7673190369191406e-10 0 3.0924677409064718e-07 8.3530975309092368e-07 0 5.4672349819759288e-07 7.8393570748602227e-07 0 -1.2027544187281204e-05 2.0833996581101017e-05 0 -2.2632161903194596e-06 2.0253373100724233e-05 0 -7.6122129803818312e-06 3.3926495786279042e-05 0 4.5429015198615217e-06 2.9928691511368406e-05 0 -7.6122129803818312e-06 3.3926495786279042e-05 0 -2.2632161903194592e-06 2.0253373100724236e-05 0 1.0801364532239457e-05 1.7598962094529783e-05 0 1.9036040362394832e-05 1.042325180686575e-05 0 1.5512635166418285e-05 3.1473044214048792e-05 0 -6.2792360309693734e-05 0.0001391029192083622 0 -3.8138781846600523e-05 0.00013940663076159366 0 -4.5711055467712661e-05 0.00015884083904658621 0 1.8766363135473927e-05 -6.791310529986579e-05 0 6.4329119533054853e-06 -6.9127640257734136e-05 0 1.0943472507791986e-05 -7.9687138294641849e-05 0 1.6107152411698808e-05 -2.6577644113505327e-05 0 1.3958700413304425e-05 -2.3184842767643087e-05 0 1.2134869891224589e-05 -2.6006354452153139e-05 0 7.1986147668462041e-06 -1.3038181271634099e-06 0 7.9183086390590151e-06 -2.9215064090087881e-06 0 8.4342256374591607e-06 2.4136444484226972e-07 0 7.9868588603193975e-06 -5.5516903202305549e-06 0 7.7808087097186323e-06 -8.2038399765881876e-06 0 1.0336213514474668e-05 -8.3301862226593665e-06 0 1.8052401453779073e-05 -1.5075311335582027e-05 0 1.598371899897385e-05 -1.2496642497593304e-05 0 1.4543196287322091e-05 -1.5309185571154714e-05 0 -5.1552231224155407e-05 6.4561723693557792e-05 0 -3.4973774041534866e-05 5.3955629619045886e-05 0 -4.0658229614992523e-05 7.3781345092705297e-05 0 -3.6722886113244045e-05 -6.9201298959172458e-05 0 -2.8331369969889509e-05 -7.9511141601132327e-05 0 -2.5083105616270036e-05 -6.9983729364282699e-05 0 4.9126584620595238e-05 0.00013738114593155883 0 3.3604899625055561e-05 0.00015985383921432927 0 2.5984120936511542e-05 0.0001408537440608298 0 2.0441013677758907e-05 -7.8976165735349121e-05 0 1.0943472507791986e-05 -7.9687138294641849e-05 0 2.2421080684393578e-05 -9.0784989647978994e-05 0 -6.4139643502002393e-05 0.00017960871169850329 0 -6.3725866215342948e-05 0.00015944498123084656 0 -4.5711055467712661e-05 0.00015884083904658621 0 6.9618004281793841e-06 -2.4779593614813518e-05 0 5.481103395864213e-06 -2.1687517528823718e-05 0 5.563029310115546e-06 -2.4841948394832213e-05 0 4.2652605343790022e-06 -7.1116568541416243e-06 0 1.5657667255666185e-06 -8.3479992311970273e-06 0 2.4498190926032222e-06 -1.3655382178500688e-05 0 6.9618004281793841e-06 -2.4779593614813518e-05 0 7.1442351270096123e-06 -2.2112368828659631e-05 0 5.481103395864213e-06 -2.1687517528823718e-05 0 1.328494084369928e-05 -1.2221499359039559e-05 0 1.4543196287322091e-05 -1.5309185571154714e-05 0 1.598371899897385e-05 -1.2496642497593304e-05 0 -8.2953398426956287e-06 -2.5912305997956356e-05 0 -9.2510489095071952e-06 -3.5881166691198229e-05 0 -3.2717420303852214e-06 -2.8329398643219637e-05 0 -7.4997437768312275e-10 2.441831248109628e-10 0 -9.5423670326197623e-07 4.812830091131395e-07 0 -6.2231092752124448e-07 6.4508895390734723e-07 0 -1.0196175543731687e-09 -4.0082269493064998e-10 0 -7.6195184358308274e-07 -1.0094228862708331e-06 0 -1.2483740891559622e-06 -8.3302665496385692e-07 0 8.6960007179673212e-06 -2.7228730929840417e-05 0 8.6504643043694509e-06 -2.9272156608816569e-05 0 7.4080991660136177e-06 -2.8505150102232221e-05 0 2.2315981447824662e-05 -4.1061544367130358e-05 0 2.981850401000205e-05 -4.319724070636585e-05 0 2.0733864894052894e-05 -3.5860025858679468e-05 0 -4.1635941633140301e-10 -6.9879959007361819e-10 0 -7.6358337859673252e-07 -1.5580726408865625e-06 0 -7.6195184358308264e-07 -1.0094228862708331e-06 0 -4.0914380978573692e-10 4.6760592272296311e-10 0 -6.2231092752124448e-07 6.4508895390734723e-07 0 -7.3583232761146722e-07 1.0716662412290458e-06 0 3.0959451606792859e-06 -1.0046764949397169e-06 0 1.4063664598873847e-06 -1.3107504827307196e-06 0 2.3020911438427691e-06 -7.5695273927318919e-07 0 -3.4743421571300524e-06 6.497349432272092e-07 0 -2.9752465637129836e-06 1.1837145060299186e-06 0 -2.0494188020644304e-06 8.4540116166882099e-07 0 -4.8166357132303583e-06 -1.2491759846120422e-06 0 -2.7302718327954641e-06 -1.4637074715796553e-06 0 -3.9621962401260197e-06 -1.9994042121231754e-06 0 1.0904597255385284e-05 -1.5006250023780801e-05 0 1.0948878217121296e-05 -1.2263118488466369e-05 0 8.5616700998657106e-06 -1.3484033216612725e-05 0 8.8767651830498139e-06 -1.0721008206207796e-05 0 1.0336213514474668e-05 -8.3301862226593665e-06 0 7.7808087097186323e-06 -8.2038399765881876e-06 0 5.5520124723762273e-05 0.00018014657301040218 0 3.1297235424417423e-05 0.00017892012798772879 0 3.3604899625055561e-05 0.00015985383921432927 0 -3.7568841452869036e-05 -8.9930229874188886e-05 0 -2.6445850512365246e-05 -8.8654036484324265e-05 0 -2.8331369969889509e-05 -7.9511141601132327e-05 0 8.8767651830498139e-06 -1.0721008206207796e-05 0 8.5616700998657106e-06 -1.3484033216612725e-05 0 1.0948878217121296e-05 -1.2263118488466369e-05 0 1.3958700413304425e-05 -2.3184842767643087e-05 0 1.7136630278073043e-05 -2.2454109840101853e-05 0 1.2858207642493863e-05 -1.896738038338725e-05 0 -2.1427945758975817e-05 8.9229980724885846e-05 0 -1.6367964514186439e-05 6.7207253044839499e-05 0 -6.1559805575261435e-06 7.5119233982089113e-05 0 -1.0196175543731687e-09 -4.0082269493064998e-10 0 -9.2922779031492129e-10 -2.9494063726515904e-10 0 -7.6195184358308264e-07 -1.0094228862708331e-06 0 -7.623402824729288e-10 1.8621959924166502e-10 0 -7.4997437768312275e-10 2.441831248109628e-10 0 -6.2231092752124448e-07 6.4508895390734723e-07 0 3.0959451606792859e-06 -1.0046764949397169e-06 0 2.1292481144667267e-06 -1.5819258565932306e-06 0 1.4063664598873847e-06 -1.3107504827307196e-06 0 1.3890509714222657e-05 0.00016105159974191892 0 -6.4414660117094076e-06 0.00017488740918913804 0 -5.6846562158610057e-06 0.00015146932938135392 0 -1.884813964085455e-05 -8.0099340531085311e-05 0 -8.6268961835454373e-06 -8.7635647706769821e-05 0 -9.4396134596912475e-06 -7.5446173846695702e-05 0 -9.2510489095071952e-06 -3.5881166691198229e-05 0 -2.898127312296059e-06 -3.622544640895681e-05 0 -3.2717420303852214e-06 -2.8329398643219637e-05 0 1.6125829319339896e-06 2.6883116251878363e-07 0 2.3473402358761195e-06 6.6648750232611793e-07 0 2.3496726006130526e-06 6.9083843756462902e-08 0 -7.8015972615379332e-07 -2.3168982584880087e-06 0 1.2507246480109413e-06 -2.0347969938017421e-06 0 -3.9110311915138182e-07 -1.7253808767561509e-06 0 1.7136630278073043e-05 -2.2454109840101853e-05 0 1.641954262384069e-05 -1.9208550194901171e-05 0 1.2858207642493863e-05 -1.896738038338725e-05 0 2.3496726006130526e-06 6.9083843756462902e-08 0 2.3473402358761195e-06 6.6648750232611793e-07 0 3.1520638216465866e-06 3.7319797288634071e-07 0 2.3473402358761195e-06 6.6648750232611793e-07 0 1.1903420929684522e-06 4.9860457440646734e-07 0 1.927453575138755e-06 9.3916957906997447e-07 0 1.1527404801959279e-06 8.6682214491199357e-07 0 1.927453575138755e-06 9.3916957906997447e-07 0 1.1903420929684522e-06 4.9860457440646734e-07 0 4.4957671804075823e-06 -2.3088349738305428e-05 0 5.481103395864213e-06 -2.1687517528823718e-05 0 3.2410926589169437e-06 -1.9970565680890754e-05 0 7.9868588603193975e-06 -5.5516903202305549e-06 0 1.0336213514474666e-05 -8.3301862226593665e-06 0 9.6436588618768174e-06 -5.0383981986718711e-06 0 1.6107152411698808e-05 -2.6577644113505327e-05 0 1.7136630278073043e-05 -2.2454109840101853e-05 0 1.3958700413304425e-05 -2.3184842767643087e-05 0 1.014193986756186e-05 2.2756324256822605e-06 0 9.4722439342609133e-06 -1.9869060956050341e-06 0 1.1183209145572368e-05 3.4499841586744041e-07 0 5.2111617100321238e-05 0.00015813686604107245 0 5.5520124723762273e-05 0.00018014657301040218 0 3.3604899625055561e-05 0.00015985383921432927 0 -3.7311898953739297e-05 -7.9631047249604671e-05 0 -3.7568841452869036e-05 -8.9930229874188886e-05 0 -2.8331369969889509e-05 -7.9511141601132327e-05 0 -3.6722886113244045e-05 -6.9201298959172458e-05 0 -3.7311898953739297e-05 -7.9631047249604671e-05 0 -2.8331369969889509e-05 -7.9511141601132327e-05 0 4.9126584620595238e-05 0.00013738114593155883 0 5.2111617100321238e-05 0.00015813686604107245 0 3.3604899625055561e-05 0.00015985383921432927 0 1.1268104523521578e-05 3.8233386357386635e-06 0 1.002873293440166e-05 3.1226828994968489e-06 0 1.014193986756186e-05 2.2756324256822605e-06 0 2.1056490202042156e-06 1.6121999955702421e-06 0 1.380730740441696e-06 1.355619482447952e-06 0 1.1737144701656064e-06 1.7492776874894453e-06 0 7.8826419395918091e-07 1.2916447845734685e-06 0 1.1737144701656064e-06 1.7492776874894453e-06 0 1.380730740441696e-06 1.355619482447952e-06 0 2.16124928216108e-05 7.726636131409388e-05 0 2.7591219849530264e-05 8.9386900241552285e-05 0 9.7055393321983298e-06 8.9169133305505306e-05 0 2.7591219849530264e-05 8.9386900241552285e-05 0 2.4518826015198323e-05 0.00010196223289837574 0 9.7055393321983298e-06 8.9169133305505306e-05 0 1.1360940200129856e-05 -4.6324731094498354e-06 0 9.4722439342609099e-06 -1.986906095605035e-06 0 9.6436588618768174e-06 -5.0383981986718711e-06 0 1.6432901413988264e-05 -3.8031151143670613e-05 0 2.0733864894052894e-05 -3.5860025858679468e-05 0 1.6106392566339737e-05 -3.2351028364943778e-05 0 9.7566651391803545e-06 -3.2015645897379551e-05 0 8.5309054847019497e-06 -2.9045277932742055e-05 0 7.4080991660136177e-06 -2.8505150102232221e-05 0 1.002873293440166e-05 3.1226828994968489e-06 0 8.8787246021811798e-06 1.9328219611153975e-06 0 1.014193986756186e-05 2.2756324256822605e-06 0 -6.3725866215342948e-05 0.00015944498123084656 0 -6.2792360309693734e-05 0.0001391029192083622 0 -4.5711055467712661e-05 0.00015884083904658621 0 1.8766363135473927e-05 -6.791310529986579e-05 0 1.0943472507791986e-05 -7.9687138294641849e-05 0 2.0441013677758907e-05 -7.8976165735349121e-05 0 -9.3501052774607775e-06 -1.0822105249458218e-06 0 -8.9016151199799866e-06 -1.0893095060358457e-06 0 -6.6105193592026866e-06 2.7733265445214349e-07 0 -1.4279448269211735e-05 1.4728650795507128e-06 0 -9.960400115862759e-06 -5.7137533103300975e-07 0 -1.3206539932973067e-05 1.6210053899980142e-06 0 1.1360940200129856e-05 -4.6324731094498354e-06 0 1.0336213514474668e-05 -8.3301862226593665e-06 0 1.3605735085588834e-05 -9.2623352657564467e-06 0 4.2652605343790022e-06 -7.1116568541416243e-06 0 2.4498190926032222e-06 -1.3655382178500688e-05 0 7.7686106845583834e-06 -1.5144131164954462e-05 0 1.328494084369928e-05 -1.2221499359039559e-05 0 1.0336213514474668e-05 -8.3301862226593665e-06 0 1.0948878217121296e-05 -1.2263118488466369e-05 0 8.8767651830498139e-06 -1.0721008206207796e-05 0 1.0948878217121296e-05 -1.2263118488466369e-05 0 1.0336213514474668e-05 -8.3301862226593665e-06 0 -8.212182000260908e-06 -0.00010091054315296664 0 1.992778529889951e-06 -0.00010195251776027627 0 4.3331597424224541e-07 -9.1842966933991459e-05 0 -5.7961533895999889e-06 0.00020086361080130167 0 -2.5059155333990826e-05 0.00019991938466199855 0 -2.3750041052502514e-05 0.0001814422176946901 0 1.4481081601229975e-05 0.0002023746179613826 0 -5.7961533895999889e-06 0.00020086361080130167 0 1.1720866394921577e-05 0.00018272121803272352 0 -1.7840383757277009e-05 -0.0001002852697960706 0 -8.212182000260908e-06 -0.00010091054315296664 0 -1.7225616454672789e-05 -9.0894139865419174e-05 0 5.0492233150170261e-06 1.1427034455851227e-05 0 -2.2632161903194592e-06 2.0253373100724236e-05 0 -4.3769598223231405e-06 1.1842387394391871e-05 0 6.1550483636944617e-06 -1.3175445838846886e-05 0 5.1971376453275932e-06 -1.5908290644519906e-05 0 7.2376828721149312e-06 -1.6358194963927189e-05 0 1.328494084369928e-05 -1.2221499359039559e-05 0 1.0948878217121296e-05 -1.2263118488466369e-05 0 1.4543196287322091e-05 -1.5309185571154714e-05 0 1.0904597255385284e-05 -1.5006250023780801e-05 0 1.4543196287322091e-05 -1.5309185571154714e-05 0 1.0948878217121296e-05 -1.2263118488466369e-05 0 1.9846479004626792e-06 -3.0530959869387045e-05 0 1.8874911673275112e-06 -2.1663501766974632e-05 0 -3.2717420303852214e-06 -2.8329398643219637e-05 0 -4.127233174743594e-05 3.554721877591518e-05 0 -2.5392197718346673e-05 2.6721122086751289e-05 0 -3.4498084147075606e-05 4.0570006525247159e-05 0 -4.0816635986534348e-06 -2.7985483594296902e-06 0 -6.4895156423697079e-06 -5.6368569401537063e-06 0 -2.1191443589869559e-06 -4.1774038972523117e-06 0 -3.2964417770482687e-06 -7.3788507950690104e-06 0 -2.1191443589869559e-06 -4.1774038972523117e-06 0 -6.4895156423697079e-06 -5.6368569401537063e-06 0 6.9702048395314167e-06 -2.6865711996718315e-05 0 8.803450780722134e-06 -2.646244617677714e-05 0 6.9618004281793841e-06 -2.4779593614813518e-05 0 -2.8280298214009893e-05 6.4663975033624397e-05 0 -4.0658229614992523e-05 7.3781345092705297e-05 0 -3.4973774041534866e-05 5.3955629619045886e-05 0 -7.9904396533748565e-06 -1.5646675993564614e-06 0 -1.1092379795305236e-05 -3.8702123289485656e-06 0 -7.6359509807911075e-06 -3.3125428929173199e-06 0 -1.0955896720997726e-05 -5.9883265202344727e-06 0 -7.6359509807911075e-06 -3.3125428929173199e-06 0 -1.1092379795305236e-05 -3.8702123289485656e-06 0 -1.6162172612273313e-05 1.0973745476074064e-05 0 -1.6873782129692676e-05 6.8368251445848687e-06 0 -1.0643104686876748e-05 5.902369989620626e-06 0 -1.158839872839013e-05 2.8389129531159541e-06 0 -1.0643104686876748e-05 5.902369989620626e-06 0 -1.6873782129692676e-05 6.8368251445848687e-06 0 5.4875118189279321e-06 -1.9115790923350728e-05 0 7.8655710932880062e-06 -1.9449488046930434e-05 0 7.2376828721149312e-06 -1.6358194963927189e-05 0 -2.3825538542174878e-05 -1.7870374327446949e-05 0 -2.075379020224501e-05 -2.0169091479209657e-05 0 -1.6065710904412933e-05 -1.3817005245767686e-05 0 1.3531610116951416e-05 6.1764790142574349e-05 0 2.3710208771846948e-06 4.6809450342131735e-05 0 1.4542478764793656e-05 4.4987471644420149e-05 0 7.1986147668462041e-06 -1.3038181271634099e-06 0 5.6431157266577523e-06 -2.4274273295026185e-06 0 6.2180357514885917e-06 -4.0375502404369699e-06 0 5.9637793628692742e-06 1.4659941464324812e-06 0 6.9878566484956929e-06 1.5207778908850687e-06 0 5.7633137815338394e-06 1.144217194762053e-06 0 -3.3930438730746579e-05 0.00011719859044816863 0 -2.0481459166279877e-05 0.00012294207944917756 0 -3.8138781846600523e-05 0.00013940663076159366 0 4.0596736297231521e-06 -5.7374945433654945e-05 0 -2.4122759036816168e-06 -6.0836361115723802e-05 0 6.4329119533054862e-06 -6.9127640257734136e-05 0 1.1360940200129856e-05 -4.6324731094498354e-06 0 9.6436588618768157e-06 -5.0383981986718703e-06 0 1.0336213514474668e-05 -8.3301862226593665e-06 0 8.5309054847019497e-06 -2.9045277932742055e-05 0 8.803450780722134e-06 -2.646244617677714e-05 0 6.9702048395314167e-06 -2.6865711996718315e-05 0 1.0904597255385284e-05 -1.5006250023780801e-05 0 9.3474997527609166e-06 -1.6645271395445045e-05 0 1.2858207642493863e-05 -1.896738038338725e-05 0 4.6036676262921883e-10 -3.5190613107202437e-10 0 6.5080148655695431e-07 -6.3845582261022694e-07 0 4.1445592709793174e-07 -9.9843837205967189e-07 0 2.0574594495708093e-10 3.7466554395233529e-10 0 1.0404798623698422e-07 9.6476224056963632e-07 0 3.0924677409064718e-07 8.3530975309092368e-07 0 1.8874911673275112e-06 -2.1663501766974632e-05 0 -3.8998890501942251e-06 -2.1394885837148137e-05 0 -3.2717420303852214e-06 -2.8329398643219637e-05 0 -7.8015972615379332e-07 -2.3168982584880087e-06 0 -3.9110311915138182e-07 -1.7253808767561509e-06 0 -2.9474750606092042e-06 -2.1468301948934037e-06 0 -3.1390479306697341e-06 4.5299343510491976e-06 0 -4.3769598223231388e-06 1.1842387394391871e-05 0 -1.0066921604581548e-05 1.0387163220539966e-05 0 1.4562820991506663e-06 -7.5536949659811145e-07 0 8.4479578427602231e-07 -3.3651895968165695e-07 0 1.9916997348225245e-06 -3.9184246022477525e-07 0 1.4726924023408258e-06 -3.4801314151396448e-08 0 1.9916997348225245e-06 -3.9184246022477525e-07 0 8.4479578427602231e-07 -3.3651895968165695e-07 0 1.1527404801959279e-06 8.6682214491199357e-07 0 5.4672349819759288e-07 7.8393570748602227e-07 0 1.380730740441696e-06 1.355619482447952e-06 0 7.8826419395918091e-07 1.2916447845734685e-06 0 1.380730740441696e-06 1.355619482447952e-06 0 5.4672349819759288e-07 7.8393570748602227e-07 0 -2.9762776472366412e-06 5.650694397885199e-07 0 5.482480481651617e-07 1.6577694913849343e-06 0 -3.1390479306697341e-06 4.5299343510491976e-06 0 5.9637793628692742e-06 1.4659941464324812e-06 0 7.249645293459162e-06 1.7843487927063892e-06 0 6.9878566484956929e-06 1.5207778908850687e-06 0 4.588922296595674e-06 -6.3946870737456153e-07 0 2.9420731860219484e-06 -1.4406016545863174e-06 0 3.0959451606792859e-06 -1.0046764949397169e-06 0 -3.9110311915138182e-07 -1.7253808767561509e-06 0 1.2507246480109413e-06 -2.0347969938017421e-06 0 2.1332173613372516e-06 -1.0701903599882115e-06 0 7.6484875175076464e-06 1.6058168366433497e-06 0 8.7487341404454177e-06 2.3789727532769579e-06 0 7.249645293459162e-06 1.7843487927063892e-06 0 3.2971454553878302e-07 1.5173263578552867e-06 0 8.8912000249139453e-07 9.4874190079100211e-07 0 1.3889332460054122e-06 1.6071904147310246e-06 0 2.0930471032041955e-06 9.3164143158792922e-07 0 1.3889332460054122e-06 1.6071904147310246e-06 0 8.8912000249139453e-07 9.4874190079100211e-07 0 -9.2922779031490702e-10 -2.9494063726514012e-10 0 -4.1635941633140301e-10 -6.9879959007361819e-10 0 -7.6195184358308264e-07 -1.0094228862708331e-06 0 -4.0914380978573692e-10 4.6760592272296311e-10 0 -7.623402824729288e-10 1.8621959924166502e-10 0 -6.2231092752124448e-07 6.4508895390734723e-07 0 3.1969896468777133e-05 4.7037328853409304e-05 0 1.4542478764793656e-05 4.4987471644420149e-05 0 1.5512635166418285e-05 3.1473044214048792e-05 0 2.1056490202042156e-06 1.6121999955702421e-06 0 2.5890261485405261e-06 1.6570115124886021e-06 0 3.0334063334902945e-06 1.4938795592589997e-06 0 4.2480103849035684e-06 -4.5119689996860595e-06 0 4.6736339173368994e-06 -2.8250630573506204e-06 0 3.6285724524320434e-06 -4.7383636289824566e-06 0 1.1078501064513184e-05 -2.9114720073043326e-05 0 8.803450780722134e-06 -2.646244617677714e-05 0 8.5309054847019497e-06 -2.9045277932742055e-05 0 -7.2013920809560548e-06 -5.7417927972123559e-08 0 -6.6105193592026866e-06 2.7733265445214349e-07 0 -5.4024403066684374e-06 7.9538316263048903e-07 0 -1.057198119575805e-05 -2.5619455333392418e-07 0 -7.779559704360534e-06 -1.5017235413638446e-06 0 -9.960400115862759e-06 -5.7137533103300975e-07 0 1.0142119921064678e-05 -1.9408434398426875e-05 0 1.2858207642493863e-05 -1.896738038338725e-05 0 9.3474997527609166e-06 -1.6645271395445045e-05 0 -6.6105193592026866e-06 2.7733265445214349e-07 0 -4.5812221005825634e-06 7.9221993300370895e-07 0 -4.7934557608714821e-06 1.0323367255742752e-06 0 -4.896219150262964e-06 -1.4601507177990016e-06 0 -2.7868321806871288e-06 -1.0472752334246057e-06 0 -7.6547809897358407e-06 -1.8825949591240209e-07 0 -6.6947074443786575e-06 -2.3324797240554564e-07 0 -4.5812221005825634e-06 7.9221993300370895e-07 0 -6.6105193592026866e-06 2.7733265445214349e-07 0 -2.9870688643155861e-07 1.9613254738706509e-06 0 -1.3105991873127702e-06 1.9034792571032403e-06 0 -6.9099882060025222e-07 1.7890729235949238e-06 0 1.4481115231945026e-06 -2.1277869332798767e-06 0 1.2507246480109413e-06 -2.0347969938017421e-06 0 -6.8077947355315432e-07 -2.5834711989064496e-06 0 -7.2316333535163052e-06 2.3504922533521454e-06 0 -2.9762776472366412e-06 5.650694397885198e-07 0 -3.1390479306697341e-06 4.5299343510491976e-06 0 5.4875118189279321e-06 -1.9115790923350728e-05 0 7.2376828721149312e-06 -1.6358194963927189e-05 0 5.1971376453275932e-06 -1.5908290644519906e-05 0 1.896358303963444e-05 0.00011908051248527785 0 2.5984120936511542e-05 0.0001408537440608298 0 8.148084142601685e-06 0.00013762488849544842 0 -2.1817052445746457e-05 -5.8872834498531917e-05 0 -2.5083105616270036e-05 -6.9983729364282712e-05 0 -1.6374688742075219e-05 -6.8236136702624523e-05 0 1.4562820991506663e-06 -7.5536949659811145e-07 0 6.5080148655695441e-07 -6.3845582261022694e-07 0 8.4479578427602231e-07 -3.3651895968165695e-07 0 7.8826419395918091e-07 1.2916447845734685e-06 0 5.4672349819759288e-07 7.8393570748602217e-07 0 3.0924677409064718e-07 8.3530975309092368e-07 0 1.9197959925166639e-10 -5.1710971816409825e-10 0 4.1445592709793174e-07 -9.9843837205967189e-07 0 8.5245715498255597e-08 -1.0765332641768892e-06 0 -2.8151523417132815e-11 4.2413978717229077e-10 0 -1.149253007451288e-07 8.8241615537733514e-07 0 1.0404798623698422e-07 9.6476224056963632e-07 0 4.2480103849035684e-06 -4.5119689996860595e-06 0 3.2018763013492305e-06 -6.482567053543803e-06 0 4.9542772394500958e-06 -6.3927353891135746e-06 0 3.9468394902110119e-06 -8.3291515027235299e-06 0 4.9542772394500958e-06 -6.3927353891135746e-06 0 3.2018763013492305e-06 -6.482567053543803e-06 0 -9.5146573098898409e-06 5.0362792366298527e-05 0 -7.6122129803818312e-06 3.3926495786279042e-05 0 2.3710208771846948e-06 4.6809450342131735e-05 0 4.5429015198615217e-06 2.9928691511368406e-05 0 2.3710208771846939e-06 4.6809450342131735e-05 0 -7.6122129803818312e-06 3.3926495786279042e-05 0 9.2690502369277774e-06 4.4407290541457848e-06 0 9.5978678338459112e-06 2.7353325351929014e-06 0 1.3358336374625827e-05 6.0013039159295631e-06 0 4.2480103849035684e-06 -4.5119689996860595e-06 0 5.6431157266577523e-06 -2.4274273295026185e-06 0 4.6736339173368994e-06 -2.8250630573506204e-06 0 3.3677845992045816e-06 -2.327870982431553e-07 0 2.3496726006130526e-06 6.9083843756462902e-08 0 3.1520638216465866e-06 3.7319797288634071e-07 0 6.1550483636944617e-06 -1.3175445838846886e-05 0 7.2376828721149312e-06 -1.6358194963927189e-05 0 8.5616700998657106e-06 -1.3484033216612725e-05 0 -2.1427945758975817e-05 8.9229980724885846e-05 0 -2.9171462566428841e-05 7.6682457876534724e-05 0 -1.6367964514186439e-05 6.7207253044839499e-05 0 4.4957671804075823e-06 -2.3088349738305428e-05 0 3.2410926589169437e-06 -1.9970565680890754e-05 0 3.0388002702439018e-06 -2.2810599456260852e-05 0 1.3958700413304425e-05 -2.3184842767643087e-05 0 1.1196956913464394e-05 -2.1961985747810803e-05 0 1.2134869891224589e-05 -2.6006354452153139e-05 0 1.337483110971643e-06 1.8480500908938876e-06 0 1.1737144701656064e-06 1.7492776874894453e-06 0 5.597626044228902e-07 1.9249541001500982e-06 0 -1.2027544187281204e-05 2.0833996581101017e-05 0 -4.3769598223231405e-06 1.1842387394391871e-05 0 -2.2632161903194592e-06 2.0253373100724236e-05 0 -2.0282392122822651e-06 4.4344942944253566e-07 0 -3.4743421571300524e-06 6.497349432272092e-07 0 -2.0494188020644304e-06 8.4540116166882099e-07 0 -4.8166357132303583e-06 -1.2491759846120422e-06 0 -2.7169088412050078e-06 -8.9331416318977382e-07 0 -2.7302718327954637e-06 -1.4637074715796553e-06 0 1.328494084369928e-05 -1.2221499359039559e-05 0 1.3605735085588834e-05 -9.2623352657564467e-06 0 1.0336213514474668e-05 -8.3301862226593665e-06 0 -4.7451067194175392e-07 1.4028407587157335e-06 0 -7.2552533441008854e-07 1.859815121712661e-06 0 -6.0280962225948888e-08 1.5683369411750772e-06 0 -1.7503499838695549e-07 -1.8149604086481011e-06 0 5.2032326479444546e-07 -1.7226767627930223e-06 0 -3.1887963473286858e-08 -2.3765107576149539e-06 0 -3.5751910042353897e-05 2.4298700038364543e-05 0 -2.4350996676620889e-05 1.7333987892340643e-05 0 -2.5392197718346673e-05 2.6721122086751289e-05 0 -2.0865534242984254e-05 -1.2506397790903846e-05 0 -1.6065710904412933e-05 -1.3817005245767686e-05 0 -1.5186390386181345e-05 -9.014634885288958e-06 0 5.0492233150170261e-06 1.1427034455851227e-05 0 1.1668220057988346e-05 8.1951335025251599e-06 0 1.0801364532239457e-05 1.7598962094529783e-05 0 1.9036040362394832e-05 1.042325180686575e-05 0 1.0801364532239457e-05 1.7598962094529783e-05 0 1.1668220057988346e-05 8.1951335025251599e-06 0 -2.134432605967062e-06 -1.5480150036560816e-05 0 -7.5106194334979633e-06 -1.7141732157355381e-05 0 -3.8998890501942251e-06 -2.1394885837148137e-05 0 -8.2953398426956287e-06 -2.5912305997956356e-05 0 -3.8998890501942251e-06 -2.1394885837148137e-05 0 -7.5106194334979633e-06 -1.7141732157355381e-05 0 1.1360940200129856e-05 -4.6324731094498354e-06 0 1.3155245115064176e-05 -1.8559930876577024e-06 0 1.1183209145572368e-05 3.4499841586744041e-07 0 1.1078501064513184e-05 -2.9114720073043326e-05 0 8.5309054847019497e-06 -2.9045277932742055e-05 0 1.0706816696762617e-05 -3.1613841120664456e-05 0 3.3677845992045816e-06 -2.327870982431553e-07 0 3.0959451606792859e-06 -1.0046764949397169e-06 0 2.3020911438427691e-06 -7.5695273927318919e-07 0 -6.4895156423697079e-06 -5.6368569401537063e-06 0 -1.1208846499793645e-05 -8.9949869015876283e-06 0 -7.1787657682603069e-06 -8.9343537859918111e-06 0 1.6432901413988264e-05 -3.8031151143670613e-05 0 1.6106392566339737e-05 -3.2351028364943778e-05 0 1.2943135837093345e-05 -3.2614223427179057e-05 0 -2.4516946758270526e-05 4.0432002410548447e-05 0 -3.4498084147075606e-05 4.0570006525247159e-05 0 -2.5392197718346673e-05 2.6721122086751289e-05 0 -3.8138781846600523e-05 0.00013940663076159366 0 -2.0481459166279877e-05 0.00012294207944917756 0 -1.9665268164830828e-05 0.00014109451609697953 0 6.4329119533054862e-06 -6.9127640257734136e-05 0 -2.4122759036816168e-06 -6.0836361115723802e-05 0 -2.6593627425450988e-06 -7.0105389136197339e-05 0 3.5754198695079598e-06 1.2775403115041657e-06 0 4.7060101141915001e-06 1.2885555574542823e-06 0 3.5981613670803168e-06 1.5034605244932174e-06 0 3.9468394902110119e-06 -8.3291515027235299e-06 0 3.2018763013492305e-06 -6.482567053543803e-06 0 2.4929722581556839e-06 -9.3004515493764431e-06 0 4.3607941203342287e-06 8.5829864686024398e-07 0 5.7633137815338403e-06 1.144217194762053e-06 0 5.2843999747694217e-06 5.9030129663139861e-07 0 6.4970691310352865e-06 9.4326886263331219e-07 0 5.2843999747694217e-06 5.9030129663139861e-07 0 5.7633137815338394e-06 1.144217194762053e-06 0 -3.9110311915138182e-07 -1.7253808767561509e-06 0 -2.7868321806871288e-06 -1.0472752334246055e-06 0 -2.9474750606092042e-06 -2.1468301948934037e-06 0 -8.2953398426956287e-06 -2.5912305997956356e-05 0 -1.312741286632598e-05 -3.0879235024238183e-05 0 -9.2510489095071952e-06 -3.5881166691198229e-05 0 -5.0719761672293549e-06 -2.2237318551054137e-06 0 -2.8950667017102641e-06 -2.58864297479564e-06 0 -6.0353277641209275e-06 -1.8918594462535541e-06 0 9.7055393321983298e-06 8.9169133305505306e-05 0 -5.0846759761248712e-06 0.00010594779638334507 0 -8.8956219661932924e-06 9.0548644139076416e-05 0 9.7055393321983298e-06 8.9169133305505306e-05 0 -8.8956219661932924e-06 9.0548644139076416e-05 0 -6.1559805575261435e-06 7.5119233982089113e-05 0 -2.1427945758975817e-05 8.9229980724885846e-05 0 -6.1559805575261444e-06 7.5119233982089099e-05 0 -8.8956219661932924e-06 9.0548644139076416e-05 0 -1.5881590825978835e-05 -4.363800202773069e-05 0 -9.9609808433530163e-06 -5.2410871001916216e-05 0 -6.9602552320472283e-06 -4.3585670505974653e-05 0 -1.5881590825978835e-05 -4.363800202773069e-05 0 -6.9602552320472283e-06 -4.3585670505974653e-05 0 -9.2510489095071952e-06 -3.5881166691198229e-05 0 9.5978678338459112e-06 2.7353325351929014e-06 0 1.1440482199391197e-05 4.1551708629514061e-06 0 1.3358336374625827e-05 6.0013039159295631e-06 0 6.3125484121144945e-10 -2.7985145385571338e-10 0 8.211116868774347e-10 6.1398398952746651e-12 0 8.4479578427602231e-07 -3.3651895968165695e-07 0 5.819265592275604e-10 2.5065381815880537e-10 0 3.5933230102815241e-10 3.7673190369191406e-10 0 5.4672349819759288e-07 7.8393570748602227e-07 0 2.5890261485405261e-06 1.6570115124886021e-06 0 3.5981613670803168e-06 1.5034605244932174e-06 0 3.0334063334902945e-06 1.4938795592589997e-06 0 4.2652605343790022e-06 -7.1116568541416243e-06 0 2.6789027915525475e-06 -5.1883989402163484e-06 0 1.5657667255666185e-06 -8.3479992311970273e-06 0 -2.8950667017102641e-06 -2.58864297479564e-06 0 -2.9474750606092042e-06 -2.1468301948934037e-06 0 -6.0353277641209275e-06 -1.8918594462535541e-06 0 7.4179580794604562e-10 1.7182119029473387e-10 0 1.1903420929684522e-06 4.9860457440646734e-07 0 7.7185278711679358e-07 1.3929229183330503e-07 0 -4.8166357132303583e-06 -1.2491759846120422e-06 0 -3.9621962401260197e-06 -1.9994042121231754e-06 0 -5.9190508695290366e-06 -1.7537243649137483e-06 0 -3.4743421571300524e-06 6.497349432272092e-07 0 -4.2366218823274043e-06 9.8659723868230383e-07 0 -2.9752465637129831e-06 1.1837145060299186e-06 0 -1.589033041285437e-05 -1.9899389558134605e-05 0 -1.6065710904412933e-05 -1.3817005245767686e-05 0 -2.075379020224501e-05 -2.0169091479209657e-05 0 1.927453575138755e-06 9.3916957906997447e-07 0 1.1527404801959279e-06 8.6682214491199357e-07 0 2.0926290668532822e-06 1.3202643314612522e-06 0 5.4875118189279321e-06 -1.9115790923350728e-05 0 3.2410926589169437e-06 -1.9970565680890754e-05 0 5.481103395864213e-06 -2.1687517528823718e-05 0 7.6484875175076464e-06 1.6058168366433497e-06 0 7.249645293459162e-06 1.7843487927063892e-06 0 6.5774237776534411e-06 1.319501738917425e-06 0 1.3531610116951416e-05 6.1764790142574349e-05 0 -1.3273747954959165e-06 6.2313714394962184e-05 0 2.3710208771846948e-06 4.6809450342131735e-05 0 3.3677845992045816e-06 -2.327870982431553e-07 0 1.9916997348225245e-06 -3.9184246022477525e-07 0 2.3496726006130526e-06 6.9083843756462902e-08 0 -2.6949143562147835e-05 0.00016089839953403666 0 -1.9665268164830828e-05 0.00014109451609697953 0 -5.6846562158610057e-06 0.00015146932938135392 0 1.3505720457392617e-06 -8.0757400404864605e-05 0 -2.6593627425450988e-06 -7.0105389136197339e-05 0 -9.4396134596912475e-06 -7.5446173846695702e-05 0 1.1527404801959279e-06 8.6682214491199357e-07 0 1.380730740441696e-06 1.355619482447952e-06 0 2.0926290668532822e-06 1.3202643314612522e-06 0 7.6484875175076464e-06 1.6058168366433497e-06 0 6.4762313072457794e-06 6.1488250435977215e-07 0 7.3411824825381978e-06 4.9179699892767674e-07 0 1.3890509714222657e-05 0.00016105159974191892 0 1.1720866394921577e-05 0.00018272121803272352 0 -6.4414660117094076e-06 0.00017488740918913804 0 -2.6949143562147835e-05 0.00016089839953403666 0 -6.4414660117094042e-06 0.00017488740918913801 0 -2.3750041052502514e-05 0.0001814422176946901 0 -1.884813964085455e-05 -8.0099340531085311e-05 0 -1.7225616454672789e-05 -9.0894139865419174e-05 0 -8.6268961835454373e-06 -8.7635647706769821e-05 0 1.3505720457392617e-06 -8.0757400404864605e-05 0 -8.6268961835454373e-06 -8.7635647706769821e-05 0 4.3331597424224541e-07 -9.1842966933991459e-05 0 -3.1390479306697341e-06 4.5299343510491976e-06 0 -1.0066921604581548e-05 1.0387163220539966e-05 0 -1.0643104686876748e-05 5.902369989620626e-06 0 -9.650137512364872e-06 -1.1639344001355057e-05 0 -1.6065710904412933e-05 -1.3817005245767686e-05 0 -1.2039930640452801e-05 -1.6240539817924424e-05 0 -1.589033041285437e-05 -1.9899389558134605e-05 0 -1.2039930640452801e-05 -1.6240539817924424e-05 0 -1.6065710904412933e-05 -1.3817005245767686e-05 0 -2.4516946758270526e-05 4.0432002410548447e-05 0 -2.5392197718346673e-05 2.6721122086751289e-05 0 -1.6613736135250638e-05 3.2125600463813283e-05 0 -1.2027544187281204e-05 2.0833996581101017e-05 0 -1.6613736135250638e-05 3.2125600463813283e-05 0 -2.5392197718346673e-05 2.6721122086751289e-05 0 7.8826419395918091e-07 1.2916447845734685e-06 0 4.9176440091496671e-07 1.4811646198593994e-06 0 1.1737144701656064e-06 1.7492776874894453e-06 0 2.7194624050691318e-05 3.1197982135356711e-05 0 3.1969896468777133e-05 4.7037328853409304e-05 0 1.5512635166418285e-05 3.1473044214048792e-05 0 -1.7503499838695549e-07 -1.8149604086481011e-06 0 -8.8425505987483212e-07 -2.20947839427558e-06 0 -7.6358337859673252e-07 -1.5580726408865623e-06 0 -4.7451067194175392e-07 1.4028407587157335e-06 0 -7.3583232761146722e-07 1.0716662412290458e-06 0 -1.0254138854201205e-06 1.566789847723048e-06 0 4.2480103849035684e-06 -4.5119689996860595e-06 0 6.2180357514885917e-06 -4.0375502404369699e-06 0 5.6431157266577523e-06 -2.4274273295026185e-06 0 -7.2552533441008854e-07 1.859815121712661e-06 0 -1.1868636086257211e-07 1.8829761163057257e-06 0 -6.0280962225948888e-08 1.5683369411750772e-06 0 -3.1887963473286858e-08 -2.3765107576149539e-06 0 5.2032326479444546e-07 -1.7226767627930223e-06 0 1.0221276096559228e-06 -2.0268391770543718e-06 0 -4.896219150262964e-06 -1.4601507177990016e-06 0 -7.6547809897358407e-06 -1.8825949591240209e-07 0 -6.0353277641209275e-06 -1.8918594462535541e-06 0 -9.960400115862759e-06 -5.7137533103300975e-07 0 -6.0353277641209275e-06 -1.8918594462535541e-06 0 -7.6547809897358407e-06 -1.8825949591240209e-07 0 1.3890509714222657e-05 0.00016105159974191892 0 8.148084142601685e-06 0.00013762488849544842 0 2.5984120936511542e-05 0.0001408537440608298 0 -1.884813964085455e-05 -8.0099340531085311e-05 0 -1.6374688742075219e-05 -6.8236136702624523e-05 0 -2.5083105616270036e-05 -6.9983729364282699e-05 0 1.6432901413988264e-05 -3.8031151143670613e-05 0 2.2315981447824662e-05 -4.1061544367130358e-05 0 2.0733864894052894e-05 -3.5860025858679468e-05 0 8.6504643043694509e-06 -2.9272156608816569e-05 0 9.7566651391803545e-06 -3.2015645897379551e-05 0 7.4080991660136177e-06 -2.8505150102232221e-05 0 -5.1519816793484536e-07 1.1179663793685354e-06 0 3.2971454553878302e-07 1.5173263578552867e-06 0 -6.9099882060025222e-07 1.7890729235949238e-06 0 2.5510206773170903e-06 -2.4777554080654225e-05 0 4.3880585828278657e-06 -2.5109328261926626e-05 0 3.0388002702439018e-06 -2.2810599456260852e-05 0 2.7747036783805027e-05 -2.3511504364227797e-05 0 2.3746703957912493e-05 -2.2576035439522216e-05 0 2.4617826785074538e-05 -2.7511926922019745e-05 0 1.6107152411698808e-05 -2.6577644113505327e-05 0 1.9892229670738013e-05 -2.7053461088882987e-05 0 1.7136630278073043e-05 -2.2454109840101853e-05 0 -1.0955896720997726e-05 -5.9883265202344727e-06 0 -1.1208846499793645e-05 -8.9949869015876283e-06 0 -6.4895156423697079e-06 -5.6368569401537063e-06 0 9.7566651391803545e-06 -3.2015645897379551e-05 0 1.0706816696762617e-05 -3.1613841120664456e-05 0 8.5309054847019497e-06 -2.9045277932742055e-05 0 -1.158839872839013e-05 2.8389129531159541e-06 0 -7.6547809897358407e-06 -1.8825949591240209e-07 0 -7.2316333535163052e-06 2.3504922533521454e-06 0 4.7060101141915001e-06 1.2885555574542823e-06 0 4.7382024304543429e-06 1.4271173024765731e-06 0 3.5981613670803168e-06 1.5034605244932174e-06 0 -9.650137512364872e-06 -1.1639344001355057e-05 0 -7.5106194334979633e-06 -1.7141732157355381e-05 0 -5.2750700045926848e-06 -1.1701008369019453e-05 0 -2.134432605967062e-06 -1.5480150036560816e-05 0 -5.2750700045926856e-06 -1.1701008369019453e-05 0 -7.5106194334979633e-06 -1.7141732157355381e-05 0 -1.7299582180284396e-06 1.2969196748323933e-06 0 -5.1519816793484536e-07 1.1179663793685354e-06 0 -6.9099882060025222e-07 1.7890729235949238e-06 0 -9.650137512364872e-06 -1.1639344001355057e-05 0 -7.1787657682603069e-06 -8.9343537859918111e-06 0 -1.1208846499793645e-05 -8.9949869015876283e-06 0 -1.8003946513647431e-06 1.7324955181649491e-06 0 -1.7299582180284396e-06 1.2969196748323933e-06 0 -6.9099882060025222e-07 1.7890729235949238e-06 0 1.4481115231945026e-06 -2.1277869332798767e-06 0 3.3477310362186477e-06 -1.402476672272038e-06 0 1.2507246480109413e-06 -2.0347969938017421e-06 0 -9.650137512364872e-06 -1.1639344001355057e-05 0 -1.1208846499793645e-05 -8.9949869015876283e-06 0 -1.6065710904412933e-05 -1.3817005245767686e-05 0 -1.2027544187281204e-05 2.0833996581101017e-05 0 -2.5392197718346673e-05 2.6721122086751289e-05 0 -1.7433762500359528e-05 1.6728298085335708e-05 0 -4.1635941633140301e-10 -6.9879959007361819e-10 0 -1.8588717471647383e-07 -1.0028412610075553e-06 0 -7.6358337859673252e-07 -1.5580726408865623e-06 0 -4.0914380978573692e-10 4.6760592272296311e-10 0 -7.3583232761146722e-07 1.0716662412290458e-06 0 -2.6363887832068059e-07 7.3864374983024941e-07 0 -1.8003946513647431e-06 1.7324955181649491e-06 0 -6.9099882060025222e-07 1.7890729235949238e-06 0 -1.3105991873127702e-06 1.9034792571032403e-06 0 -7.8015972615379332e-07 -2.3168982584880087e-06 0 -6.8077947355315432e-07 -2.5834711989064496e-06 0 1.2507246480109413e-06 -2.0347969938017421e-06 0 1.2554049189267639e-06 -1.7304384860503337e-06 0 1.4063664598873847e-06 -1.3107504827307196e-06 0 2.1292481144667267e-06 -1.5819258565932306e-06 0 1.5657667255666185e-06 -8.3479992311970273e-06 0 -1.8274271106701343e-06 -1.0153756142881692e-05 0 2.4498190926032222e-06 -1.3655382178500688e-05 0 3.3677845992045816e-06 -2.327870982431553e-07 0 3.1520638216465866e-06 3.7319797288634076e-07 0 4.1065049526219049e-06 2.8288057442153867e-07 0 -2.6949143562147835e-05 0.00016089839953403666 0 -3.8138781846600523e-05 0.00013940663076159366 0 -1.9665268164830828e-05 0.00014109451609697953 0 1.3505720457392617e-06 -8.0757400404864605e-05 0 6.4329119533054862e-06 -6.9127640257734136e-05 0 -2.6593627425450988e-06 -7.0105389136197339e-05 0 -2.9870688643155861e-07 1.9613254738706509e-06 0 -7.2552533441008854e-07 1.859815121712661e-06 0 -1.3105991873127702e-06 1.9034792571032403e-06 0 1.4481115231945026e-06 -2.1277869332798767e-06 0 -6.8077947355315432e-07 -2.5834711989064496e-06 0 -3.1887963473286858e-08 -2.3765107576149539e-06 0 2.3473402358761195e-06 6.6648750232611793e-07 0 2.7940059104054932e-06 1.1951070143557244e-06 0 3.3501480514557057e-06 8.791213781992389e-07 0 -1.8274271106701343e-06 -1.0153756142881692e-05 0 -2.134432605967062e-06 -1.5480150036560816e-05 0 2.4498190926032222e-06 -1.3655382178500688e-05 0 -5.8693482689233454e-05 9.9982196144754972e-05 0 -5.5601016104705235e-05 8.1685686009718691e-05 0 -3.9707637546234397e-05 8.980064553359209e-05 0 1.4100424198556824e-05 -3.8149687768911406e-05 0 6.7135712581017711e-06 -4.3077287923027645e-05 0 1.5686588533935181e-05 -4.7315676943392343e-05 0 -1.5881590825978835e-05 -4.363800202773069e-05 0 -9.2510489095071952e-06 -3.5881166691198223e-05 0 -1.5623266625489471e-05 -3.612460226268104e-05 0 5.7679849989395625e-06 -8.4135909530380029e-07 0 4.6736339173368994e-06 -2.82506305735062e-06 0 5.6431157266577523e-06 -2.4274273295026185e-06 0 -5.0719761672293549e-06 -2.2237318551054137e-06 0 -3.9621962401260189e-06 -1.9994042121231754e-06 0 -3.2931995995711365e-06 -2.4250145956628958e-06 0 -3.8487031455625162e-06 1.3531847128453366e-06 0 -2.709686614358378e-06 1.518178840972313e-06 0 -2.9752465637129831e-06 1.1837145060299186e-06 0 6.9546785337500998e-06 7.9985989806979431e-07 0 5.1123970371814511e-06 -4.5012528531598492e-07 0 6.6874266198443002e-06 5.4457183174184864e-07 0 2.3473402358761195e-06 6.6648750232611793e-07 0 1.927453575138755e-06 9.3916957906997447e-07 0 2.7940059104054932e-06 1.1951070143557244e-06 0 3.9468394902110119e-06 -8.3291515027235299e-06 0 3.1284020500639806e-06 -1.1364400045065093e-05 0 5.1124176974783056e-06 -1.0001249344365184e-05 0 -5.0719761672293549e-06 -2.2237318551054137e-06 0 -5.9190508695290366e-06 -1.7537243649137483e-06 0 -3.9621962401260197e-06 -1.9994042121231754e-06 0 -3.8487031455625162e-06 1.3531847128453366e-06 0 -2.9752465637129827e-06 1.1837145060299186e-06 0 -4.2366218823274043e-06 9.8659723868230383e-07 0 7.6484875175076464e-06 1.6058168366433497e-06 0 6.5774237776534411e-06 1.319501738917425e-06 0 6.4762313072457794e-06 6.1488250435977215e-07 0 -8.9904005953237251e-06 -6.3898664808641884e-05 0 -9.9609808433530163e-06 -5.2410871001916216e-05 0 -1.4720793378688289e-05 -5.8504500703850114e-05 0 -7.0154739883824541e-06 0.00012922044764840187 0 -5.0846759761248729e-06 0.00010594779638334507 0 4.587412395016593e-06 0.00011848528963885029 0 -1.0955896720997726e-05 -5.9883265202344727e-06 0 -6.4895156423697071e-06 -5.6368569401537054e-06 0 -7.6359509807911075e-06 -3.3125428929173199e-06 0 -4.0816635986534348e-06 -2.7985483594296902e-06 0 -7.6359509807911075e-06 -3.3125428929173199e-06 0 -6.4895156423697079e-06 -5.6368569401537063e-06 0 2.8101127897067437e-06 -8.2817615609979634e-07 0 1.394636733890888e-06 -1.4517770021935257e-06 0 3.1064483560000103e-06 -2.8405190100421033e-06 0 9.1391473464423412e-07 -3.4651416393339949e-06 0 3.1064483560000103e-06 -2.8405190100421033e-06 0 1.394636733890888e-06 -1.4517770021935257e-06 0 4.1445592709793174e-07 -9.9843837205967189e-07 0 1.4063664598873847e-06 -1.3107504827307196e-06 0 5.2032326479444546e-07 -1.7226767627930223e-06 0 1.2554049189267639e-06 -1.7304384860503337e-06 0 5.2032326479444546e-07 -1.7226767627930223e-06 0 1.4063664598873847e-06 -1.3107504827307196e-06 0 2.6084185844119899e-07 1.7719132044430206e-06 0 4.9176440091496671e-07 1.4811646198593994e-06 0 -6.0280962225948888e-08 1.5683369411750772e-06 0 1.0404798623698422e-07 9.6476224056963632e-07 0 -6.0280962225948888e-08 1.5683369411750772e-06 0 4.9176440091496671e-07 1.4811646198593994e-06 0 5.4875118189279321e-06 -1.9115790923350728e-05 0 7.1442351270096123e-06 -2.2112368828659631e-05 0 7.8655710932880062e-06 -1.9449488046930434e-05 0 5.7679849989395625e-06 -8.4135909530380029e-07 0 7.3411824825381978e-06 4.9179699892767674e-07 0 6.4762313072457794e-06 6.1488250435977215e-07 0 6.4970691310352865e-06 9.4326886263331219e-07 0 5.7915607847596164e-06 3.044642393734034e-07 0 5.2843999747694217e-06 5.9030129663139861e-07 0 9.7055393321983298e-06 8.9169133305505306e-05 0 1.0460044499452412e-05 0.00010687908190109604 0 -5.0846759761248712e-06 0.00010594779638334507 0 -1.5881590825978835e-05 -4.363800202773069e-05 0 -1.7469839392337387e-05 -5.2150984887168254e-05 0 -9.9609808433530163e-06 -5.2410871001916216e-05 0 9.7055393321983298e-06 8.9169133305505306e-05 0 -6.1559805575261435e-06 7.5119233982089113e-05 0 7.3864014810190827e-06 7.294807052389012e-05 0 6.9546785337500998e-06 7.9985989806979431e-07 0 4.6773761683077104e-06 -1.5787687227406097e-07 0 5.1123970371814511e-06 -4.5012528531598492e-07 0 6.9546785337500998e-06 7.9985989806979431e-07 0 6.8567375743510808e-06 1.8443080448152885e-06 0 4.6773761683077104e-06 -1.5787687227406089e-07 0 -9.5146573098898409e-06 5.0362792366298527e-05 0 -1.3273747954959155e-06 6.2313714394962184e-05 0 -1.6367964514186439e-05 6.7207253044839499e-05 0 -6.1559805575261435e-06 7.5119233982089113e-05 0 -1.6367964514186439e-05 6.7207253044839499e-05 0 -1.3273747954959155e-06 6.2313714394962184e-05 0 -1.6903721987360556e-06 -1.6126556487398472e-06 0 -7.6358337859673263e-07 -1.5580726408865623e-06 0 -1.5581844190570196e-06 -2.128173951806357e-06 0 -1.3581678609625312e-06 1.0098011163669964e-06 0 -1.4084499226631427e-06 1.4144864923732337e-06 0 -7.3583232761146722e-07 1.0716662412290458e-06 0 -2.134432605967062e-06 -1.5480150036560816e-05 0 -3.8998890501942251e-06 -2.1394885837148137e-05 0 1.8874911673275112e-06 -2.1663501766974632e-05 0 2.5510206773170903e-06 -2.4777554080654225e-05 0 4.3944458829401066e-06 -2.6839614133626726e-05 0 4.3880585828278657e-06 -2.5109328261926626e-05 0 2.7747036783805027e-05 -2.3511504364227797e-05 0 2.4617826785074538e-05 -2.7511926922019745e-05 0 3.0660787660868523e-05 -2.8261262352461484e-05 0 5.540060299305378e-06 8.9417087307593847e-07 0 6.4762313072457794e-06 6.1488250435977215e-07 0 6.5774237776534411e-06 1.319501738917425e-06 0 6.4970691310352865e-06 9.4326886263331219e-07 0 8.1138775116619467e-06 1.7436694381318481e-06 0 6.6874266198443002e-06 5.4457183174184864e-07 0 1.1078501064513184e-05 -2.9114720073043326e-05 0 1.2134869891224589e-05 -2.6006354452153139e-05 0 8.803450780722134e-06 -2.646244617677714e-05 0 9.9372128924241976e-06 -2.4145686878596058e-05 0 8.803450780722134e-06 -2.646244617677714e-05 0 1.2134869891224589e-05 -2.6006354452153139e-05 0 1.0904597255385284e-05 -1.5006250023780801e-05 0 1.2858207642493861e-05 -1.896738038338725e-05 0 1.4543196287322091e-05 -1.5309185571154714e-05 0 -2.6949143562147835e-05 0.00016089839953403666 0 -4.5711055467712661e-05 0.00015884083904658621 0 -3.8138781846600523e-05 0.00013940663076159366 0 1.3505720457392617e-06 -8.0757400404864605e-05 0 1.0943472507791986e-05 -7.9687138294641849e-05 0 6.4329119533054862e-06 -6.9127640257734136e-05 0 6.0058293664573836e-06 -2.672889587078632e-05 0 6.9968317211586999e-06 -2.71605331946193e-05 0 7.4080991660136177e-06 -2.8505150102232221e-05 0 2.3088796340710594e-05 -3.1724403415687029e-05 0 2.0733864894052894e-05 -3.5860025858679468e-05 0 2.8568733220867866e-05 -3.6975715042067946e-05 0 1.3890509714222657e-05 0.00016105159974191892 0 -5.6846562158610057e-06 0.00015146932938135392 0 8.148084142601685e-06 0.00013762488849544842 0 -1.884813964085455e-05 -8.0099340531085311e-05 0 -9.4396134596912475e-06 -7.5446173846695702e-05 0 -1.6374688742075219e-05 -6.8236136702624523e-05 0 2.3473402358761195e-06 6.6648750232611793e-07 0 3.3501480514557057e-06 8.791213781992389e-07 0 3.1520638216465866e-06 3.7319797288634071e-07 0 4.3607941203342287e-06 8.5829864686024398e-07 0 3.1520638216465866e-06 3.7319797288634071e-07 0 3.3501480514557057e-06 8.791213781992389e-07 0 1.896358303963444e-05 0.00011908051248527785 0 8.148084142601685e-06 0.00013762488849544842 0 4.587412395016593e-06 0.00011848528963885029 0 -2.1817052445746457e-05 -5.8872834498531917e-05 0 -1.6374688742075219e-05 -6.8236136702624523e-05 0 -1.4720793378688289e-05 -5.8504500703850114e-05 0 -1.7503499838695549e-07 -1.8149604086481011e-06 0 -7.6358337859673274e-07 -1.5580726408865623e-06 0 -1.8588717471647383e-07 -1.0028412610075553e-06 0 -4.7451067194175392e-07 1.4028407587157335e-06 0 -2.6363887832068059e-07 7.3864374983024941e-07 0 -7.3583232761146722e-07 1.0716662412290458e-06 0 4.5429015198615217e-06 2.9928691511368406e-05 0 1.4542478764793656e-05 4.4987471644420149e-05 0 2.3710208771846948e-06 4.6809450342131735e-05 0 -1.6903721987360556e-06 -1.6126556487398472e-06 0 -7.6195184358308264e-07 -1.0094228862708331e-06 0 -7.6358337859673252e-07 -1.5580726408865623e-06 0 -1.3581678609625312e-06 1.0098011163669964e-06 0 -7.3583232761146722e-07 1.0716662412290458e-06 0 -6.2231092752124448e-07 6.4508895390734723e-07 0 -6.2792360309693734e-05 0.0001391029192083622 0 -4.7738209310173119e-05 0.0001246832094713086 0 -3.8138781846600523e-05 0.00013940663076159366 0 1.8766363135473927e-05 -6.791310529986579e-05 0 1.0856935430651718e-05 -6.0947930437400633e-05 0 6.4329119533054862e-06 -6.9127640257734136e-05 0 5.0492233150170261e-06 1.1427034455851227e-05 0 -4.3769598223231405e-06 1.1842387394391871e-05 0 1.8760705598788566e-06 7.0119597638352149e-06 0 -3.1390479306697341e-06 4.5299343510491976e-06 0 1.8760705598788564e-06 7.0119597638352158e-06 0 -4.3769598223231405e-06 1.1842387394391871e-05 0 -8.2953398426956287e-06 -2.5912305997956356e-05 0 -7.5106194334979633e-06 -1.7141732157355381e-05 0 -1.1657733714868025e-05 -2.0654513807615025e-05 0 1.1360940200129856e-05 -4.6324731094498354e-06 0 1.3605735085588834e-05 -9.2623352657564467e-06 0 1.4798325128578746e-05 -6.9062182524971412e-06 0 -9.5146573098898409e-06 5.0362792366298527e-05 0 -1.5982941829597314e-05 4.1523642065770358e-05 0 -7.6122129803818312e-06 3.3926495786279042e-05 0 -1.2027544187281204e-05 2.0833996581101017e-05 0 -7.6122129803818312e-06 3.3926495786279042e-05 0 -1.6613736135250638e-05 3.2125600463813283e-05 0 -9.650137512364872e-06 -1.1639344001355057e-05 0 -1.2039930640452801e-05 -1.6240539817924424e-05 0 -7.5106194334979633e-06 -1.7141732157355381e-05 0 -2.134432605967062e-06 -1.5480150036560816e-05 0 1.8874911673275112e-06 -2.1663501766974632e-05 0 2.4498190926032222e-06 -1.3655382178500688e-05 0 4.4957671804075823e-06 -2.3088349738305428e-05 0 3.0388002702439018e-06 -2.2810599456260852e-05 0 4.3880585828278657e-06 -2.5109328261926626e-05 0 2.0850407591404582e-05 -2.4119673785131663e-05 0 2.4617826785074538e-05 -2.7511926922019745e-05 0 2.3746703957912493e-05 -2.2576035439522216e-05 0 7.1986147668462041e-06 -1.3038181271634099e-06 0 6.2180357514885917e-06 -4.0375502404369699e-06 0 7.9183086390590151e-06 -2.9215064090087881e-06 0 4.2480103849035684e-06 -4.5119689996860595e-06 0 4.9542772394500958e-06 -6.3927353891135746e-06 0 6.2180357514885917e-06 -4.0375502404369699e-06 0 1.002873293440166e-05 3.1226828994968489e-06 0 8.7487341404454177e-06 2.3789727532769579e-06 0 8.8787246021811798e-06 1.9328219611153971e-06 0 1.5657667255666185e-06 -8.3479992311970273e-06 0 2.6789027915525475e-06 -5.1883989402163484e-06 0 -1.6521096320141166e-07 -6.0942764624127666e-06 0 1.3890509714222657e-05 0.00016105159974191892 0 2.5984120936511542e-05 0.0001408537440608298 0 3.3604899625055561e-05 0.00015985383921432927 0 -1.884813964085455e-05 -8.0099340531085311e-05 0 -2.5083105616270036e-05 -6.9983729364282699e-05 0 -2.8331369969889509e-05 -7.9511141601132327e-05 0 7.6484875175076464e-06 1.6058168366433497e-06 0 8.8787246021811798e-06 1.9328219611153971e-06 0 8.7487341404454177e-06 2.3789727532769579e-06 0 1.8052401453779073e-05 -1.5075311335582027e-05 0 1.4543196287322091e-05 -1.5309185571154714e-05 0 1.845787565761226e-05 -1.7526621014881579e-05 0 9.9372128924241976e-06 -2.4145686878596058e-05 0 1.2134869891224589e-05 -2.6006354452153139e-05 0 1.1196956913464394e-05 -2.1961985747810803e-05 0 8.1355901188794934e-06 2.0339610521603045e-06 0 7.249645293459162e-06 1.7843487927063892e-06 0 8.7487341404454177e-06 2.3789727532769579e-06 0 1.4562820991506663e-06 -7.5536949659811145e-07 0 2.3020911438427691e-06 -7.5695273927318919e-07 0 1.4063664598873847e-06 -1.3107504827307196e-06 0 -2.691547261886777e-05 -2.4328130470842926e-05 0 -2.9588885866975189e-05 -3.1768785949635782e-05 0 -2.1325189677114588e-05 -2.6335804621264386e-05 0 1.4481115231945026e-06 -2.1277869332798767e-06 0 1.0221276096559228e-06 -2.0268391770543718e-06 0 2.1292481144667267e-06 -1.5819258565932306e-06 0 5.2843999747694217e-06 5.9030129663139861e-07 0 5.7915607847596164e-06 3.044642393734034e-07 0 4.4346143322396931e-06 -1.5278504308679237e-07 0 7.6484875175076464e-06 1.6058168366433497e-06 0 7.3411824825381978e-06 4.9179699892767674e-07 0 8.8787246021811798e-06 1.9328219611153971e-06 0 -5.1552231224155407e-05 6.4561723693557792e-05 0 -4.6897168998400582e-05 4.9122626270697121e-05 0 -3.4973774041534866e-05 5.3955629619045886e-05 0 1.1527404801959279e-06 8.6682214491199357e-07 0 1.1903420929684522e-06 4.9860457440646734e-07 0 5.0028338316191455e-07 3.5448474487107681e-07 0 4.588922296595674e-06 -6.3946870737456153e-07 0 6.6874266198443002e-06 5.4457183174184864e-07 0 5.1123970371814511e-06 -4.5012528531598492e-07 0 6.1550483636944617e-06 -1.3175445838846886e-05 0 4.3442163823821374e-06 -1.2914475890783542e-05 0 5.1971376453275932e-06 -1.5908290644519906e-05 0 -1.5881590825978835e-05 -4.363800202773069e-05 0 -2.269355056817695e-05 -3.9601817460527874e-05 0 -2.4603425696420295e-05 -4.9251841573685407e-05 0 1.4481115231945026e-06 -2.1277869332798767e-06 0 2.1292481144667267e-06 -1.5819258565932306e-06 0 2.9420731860219484e-06 -1.4406016545863174e-06 0 2.3473402358761195e-06 6.6648750232611793e-07 0 1.6125829319339896e-06 2.6883116251878363e-07 0 1.1903420929684522e-06 4.9860457440646734e-07 0 3.3861099553992573e-06 -1.1333399589935624e-06 0 5.1123970371814511e-06 -4.5012528531598492e-07 0 4.6773761683077104e-06 -1.5787687227406089e-07 0 3.1284020500639806e-06 -1.1364400045065093e-05 0 4.3442163823821374e-06 -1.2914475890783542e-05 0 5.1124176974783056e-06 -1.0001249344365184e-05 0 4.4957671804075823e-06 -2.3088349738305428e-05 0 5.563029310115546e-06 -2.4841948394832213e-05 0 5.481103395864213e-06 -2.1687517528823718e-05 0 -4.896219150262964e-06 -1.4601507177990016e-06 0 -2.9474750606092042e-06 -2.1468301948934037e-06 0 -2.7868321806871288e-06 -1.0472752334246057e-06 0 4.9126584620595238e-05 0.00013738114593155883 0 2.5984120936511542e-05 0.0001408537440608298 0 3.3699558180906434e-05 0.00012563793881141891 0 -3.6722886113244045e-05 -6.9201298959172458e-05 0 -2.5083105616270036e-05 -6.9983729364282699e-05 0 -2.9165110164784822e-05 -6.253859807172435e-05 0 4.1065049526219049e-06 2.8288057442153867e-07 0 4.4346143322396931e-06 -1.5278504308679237e-07 0 3.3677845992045816e-06 -2.327870982431553e-07 0 5.2843999747694217e-06 5.9030129663139861e-07 0 4.4346143322396931e-06 -1.5278504308679237e-07 0 4.1065049526219049e-06 2.8288057442153867e-07 0 -3.3930438730746579e-05 0.00011719859044816863 0 -3.8138781846600523e-05 0.00013940663076159366 0 -4.7738209310173126e-05 0.0001246832094713086 0 4.0596736297231521e-06 -5.7374945433654945e-05 0 6.4329119533054853e-06 -6.9127640257734136e-05 0 1.0856935430651718e-05 -6.0947930437400633e-05 0 4.3607941203342287e-06 8.5829864686024398e-07 0 4.8669128760530214e-06 1.3158780149903336e-06 0 5.7633137815338394e-06 1.144217194762053e-06 0 5.9637793628692742e-06 1.4659941464324812e-06 0 5.7633137815338394e-06 1.144217194762053e-06 0 4.8669128760530214e-06 1.3158780149903336e-06 0 4.3607941203342287e-06 8.5829864686024398e-07 0 4.1065049526219049e-06 2.8288057442153867e-07 0 3.1520638216465866e-06 3.7319797288634071e-07 0 -3.8487031455625162e-06 1.3531847128453366e-06 0 -3.3760182685673869e-06 1.4406511323484367e-06 0 -2.3921835960129015e-06 1.721448368067296e-06 0 -1.4317707905230405e-07 -1.6448869943646772e-07 0 -9.4562553342430271e-07 -2.0261742356194157e-06 0 1.394636733890888e-06 -1.4517770021935257e-06 0 9.1391473464423412e-07 -3.4651416393339949e-06 0 1.394636733890888e-06 -1.4517770021935257e-06 0 -9.4562553342430271e-07 -2.0261742356194157e-06 0 -3.8487031455625162e-06 1.3531847128453366e-06 0 -2.3921835960129015e-06 1.721448368067296e-06 0 -2.709686614358378e-06 1.518178840972313e-06 0 4.5429015198615217e-06 2.9928691511368406e-05 0 1.5512635166418285e-05 3.1473044214048792e-05 0 1.4542478764793656e-05 4.4987471644420149e-05 0 -7.0154739883824541e-06 0.00012922044764840187 0 -5.6846562158610023e-06 0.00015146932938135392 0 -1.9665268164830828e-05 0.00014109451609697953 0 -8.9904005953237251e-06 -6.3898664808641884e-05 0 -9.4396134596912475e-06 -7.5446173846695702e-05 0 -2.6593627425450988e-06 -7.0105389136197339e-05 0 3.5754198695079598e-06 1.2775403115041657e-06 0 2.5890261485405257e-06 1.6570115124886021e-06 0 2.5205148224814095e-06 1.4149266295259907e-06 0 7.4179580794604562e-10 1.7182119029473387e-10 0 5.0028338316191455e-07 3.5448474487107681e-07 0 1.1903420929684522e-06 4.9860457440646734e-07 0 6.9546785337500998e-06 7.9985989806979431e-07 0 9.5978678338459112e-06 2.7353325351929014e-06 0 6.8567375743510808e-06 1.8443080448152885e-06 0 1.641954262384069e-05 -1.9208550194901171e-05 0 1.4543196287322091e-05 -1.5309185571154714e-05 0 1.2858207642493863e-05 -1.896738038338725e-05 0 1.0904597255385284e-05 -1.5006250023780801e-05 0 8.5616700998657106e-06 -1.3484033216612725e-05 0 9.3474997527609166e-06 -1.6645271395445045e-05 0 2.7940059104054932e-06 1.1951070143557244e-06 0 3.0334063334902945e-06 1.4938795592589997e-06 0 3.7431686705588614e-06 1.2154367874011402e-06 0 -1.589033041285437e-05 -1.9899389558134605e-05 0 -2.1325189677114588e-05 -2.6335804621264386e-05 0 -1.3831349016601531e-05 -2.5714016280619839e-05 0 -1.8799080449212827e-05 -3.1403522788732122e-05 0 -1.3831349016601531e-05 -2.5714016280619839e-05 0 -2.1325189677114588e-05 -2.6335804621264386e-05 0 8.0482138829854077e-10 -5.7170895224532892e-11 0 7.417958079460877e-10 1.7182119029474147e-10 0 7.7185278711679358e-07 1.3929229183330503e-07 0 -2.8280298214009893e-05 6.4663975033624397e-05 0 -3.4973774041534866e-05 5.3955629619045886e-05 0 -2.1550242696202245e-05 5.2552809774611577e-05 0 -2.4516946758270526e-05 4.0432002410548447e-05 0 -2.1550242696202245e-05 5.2552809774611577e-05 0 -3.4973774041534866e-05 5.3955629619045886e-05 0 6.0058293664573836e-06 -2.672889587078632e-05 0 5.563029310115546e-06 -2.4841948394832213e-05 0 4.3880585828278657e-06 -2.5109328261926626e-05 0 2.3088796340710594e-05 -3.1724403415687029e-05 0 2.4617826785074538e-05 -2.7511926922019745e-05 0 1.9892229670738013e-05 -2.7053461088882987e-05 0 3.2197316190962423e-06 5.662333325159936e-07 0 4.6773761683077104e-06 -1.5787687227406089e-07 0 6.8567375743510808e-06 1.8443080448152885e-06 0 6.9618004281793841e-06 -2.4779593614813518e-05 0 8.205877286914187e-06 -2.4056972693753245e-05 0 7.1442351270096123e-06 -2.2112368828659631e-05 0 1.2829949354462082e-05 5.1205461004465908e-06 0 1.4565175021842361e-05 6.9240858044836525e-06 0 1.3358336374625827e-05 6.0013039159295631e-06 0 1.4481115231945026e-06 -2.1277869332798767e-06 0 2.9420731860219484e-06 -1.4406016545863174e-06 0 3.3477310362186477e-06 -1.402476672272038e-06 0 -3.1390479306697341e-06 4.5299343510491976e-06 0 4.0759806932182022e-06 3.3423363904976389e-06 0 1.8760705598788566e-06 7.0119597638352149e-06 0 3.1969896468777133e-05 4.7037328853409304e-05 0 2.4254351326662324e-05 5.7111376147275649e-05 0 1.4542478764793656e-05 4.4987471644420149e-05 0 3.5754198695079598e-06 1.2775403115041657e-06 0 3.5981613670803168e-06 1.5034605244932174e-06 0 2.5890261485405261e-06 1.6570115124886021e-06 0 -7.0154739883824541e-06 0.00012922044764840187 0 8.148084142601685e-06 0.00013762488849544842 0 -5.6846562158610057e-06 0.00015146932938135392 0 -8.9904005953237251e-06 -6.3898664808641884e-05 0 -1.6374688742075219e-05 -6.8236136702624523e-05 0 -9.4396134596912475e-06 -7.5446173846695702e-05 0 2.1056490202042156e-06 1.6121999955702421e-06 0 1.8601008293659402e-06 1.753265346693748e-06 0 2.5890261485405261e-06 1.6570115124886021e-06 0 4.0751347060242324e-06 -2.9892741365066029e-06 0 3.6285724524320434e-06 -4.7383636289824566e-06 0 4.6736339173368994e-06 -2.8250630573506204e-06 0 1.896358303963444e-05 0.00011908051248527785 0 3.3699558180906434e-05 0.00012563793881141891 0 2.5984120936511542e-05 0.0001408537440608298 0 -2.1817052445746457e-05 -5.8872834498531917e-05 0 -2.9165110164784822e-05 -6.253859807172435e-05 0 -2.5083105616270036e-05 -6.9983729364282699e-05 0 -9.3501052774607775e-06 -1.0822105249458218e-06 0 -1.1870570722721647e-05 -2.688089267051142e-06 0 -8.9016151199799866e-06 -1.0893095060358457e-06 0 -1.8720282247625764e-05 4.4555815706880999e-06 0 -1.4279448269211735e-05 1.4728650795507128e-06 0 -1.3206539932973067e-05 1.6210053899980142e-06 0 5.0492233150170261e-06 1.1427034455851227e-05 0 4.6129062252990149e-06 1.9210596577923998e-05 0 -2.2632161903194592e-06 2.0253373100724236e-05 0 -1.8003946513647431e-06 1.7324955181649491e-06 0 -2.8364646326734063e-06 1.286032116027534e-06 0 -1.7299582180284396e-06 1.2969196748323933e-06 0 1.0398204574368343e-05 -2.7104163093086044e-05 0 8.6960007179673212e-06 -2.7228730929840417e-05 0 6.9968317211586999e-06 -2.71605331946193e-05 0 1.0398204574368343e-05 -2.7104163093086044e-05 0 6.9968317211586999e-06 -2.71605331946193e-05 0 7.0388734715355405e-06 -2.7703271604068875e-05 0 3.9439206560299863e-05 -4.2605569256108319e-05 0 3.4559250119154194e-05 -3.4496448411521669e-05 0 2.8568733220867866e-05 -3.6975715042067946e-05 0 3.9439206560299863e-05 -4.2605569256108319e-05 0 2.8568733220867866e-05 -3.6975715042067946e-05 0 2.981850401000205e-05 -4.319724070636585e-05 0 6.0058293664573836e-06 -2.672889587078632e-05 0 6.9702048395314167e-06 -2.6865711996718315e-05 0 5.563029310115546e-06 -2.4841948394832213e-05 0 2.3088796340710594e-05 -3.1724403415687029e-05 0 1.9892229670738013e-05 -2.7053461088882987e-05 0 1.824241586217107e-05 -3.0506266207379361e-05 0 2.3829316815290153e-05 -1.6114112762388425e-05 0 2.2005383829164199e-05 -1.8864917839680145e-05 0 2.5559725050201542e-05 -1.947800036288334e-05 0 6.5378738444002543e-07 -1.8742119037921719e-05 0 1.3554639260457559e-06 -2.1992187250336373e-05 0 3.2410926589169437e-06 -1.9970565680890754e-05 0 2.0373980256665258e-05 -1.9348017802124983e-06 0 1.6921446902579636e-05 -4.8903499994831944e-06 0 2.0762435834928957e-05 -6.8408146900613916e-06 0 1.3890509714222657e-05 0.00016105159974191892 0 3.1297235424417423e-05 0.00017892012798772881 0 1.1720866394921577e-05 0.00018272121803272352 0 -2.6949143562147835e-05 0.00016089839953403666 0 -2.3750041052502514e-05 0.0001814422176946901 0 -4.2167030589391085e-05 0.00017712897660959306 0 -1.884813964085455e-05 -8.0099340531085311e-05 0 -2.6445850512365246e-05 -8.8654036484324265e-05 0 -1.7225616454672789e-05 -9.0894139865419174e-05 0 1.3505720457392617e-06 -8.0757400404864605e-05 0 4.3331597424224451e-07 -9.1842966933991459e-05 0 1.019528415889402e-05 -9.0033638650323906e-05 0 3.8845826837139234e-06 1.4335782498546646e-06 0 3.7431686705588614e-06 1.2154367874011402e-06 0 3.0334063334902945e-06 1.4938795592589997e-06 0 1.3890509714222657e-05 0.00016105159974191892 0 3.3604899625055568e-05 0.00015985383921432927 0 3.129723542441743e-05 0.00017892012798772881 0 -1.884813964085455e-05 -8.0099340531085311e-05 0 -2.8331369969889509e-05 -7.9511141601132327e-05 0 -2.6445850512365246e-05 -8.8654036484324265e-05 0 7.1986147668462041e-06 -1.3038181271634099e-06 0 8.4342256374591607e-06 2.4136444484226972e-07 0 7.3411824825381978e-06 4.9179699892767674e-07 0 -2.6949143562147835e-05 0.00016089839953403666 0 -4.2167030589391085e-05 0.00017712897660959306 0 -4.5711055467712661e-05 0.00015884083904658621 0 1.3505720457392617e-06 -8.0757400404864605e-05 0 1.019528415889402e-05 -9.0033638650323906e-05 0 1.0943472507791986e-05 -7.9687138294641849e-05 0 1.9846479004626792e-06 -3.0530959869387045e-05 0 6.6060487507790788e-06 -2.6076930342657824e-05 0 1.8874911673275112e-06 -2.1663501766974632e-05 0 3.9468394902110119e-06 -8.3291515027235299e-06 0 5.1124176974783056e-06 -1.0001249344365184e-05 0 4.9542772394500958e-06 -6.3927353891135746e-06 0 6.2657415312813894e-06 -8.1965106059989403e-06 0 4.9542772394500958e-06 -6.3927353891135746e-06 0 5.1124176974783056e-06 -1.0001249344365184e-05 0 3.3861099553992573e-06 -1.1333399589935624e-06 0 1.2507246480109413e-06 -2.0347969938017421e-06 0 3.3477310362186477e-06 -1.402476672272038e-06 0 -9.5146573098898409e-06 5.0362792366298527e-05 0 2.3710208771846948e-06 4.6809450342131735e-05 0 -1.3273747954959155e-06 6.2313714394962184e-05 0 -2.9588885866975189e-05 -3.1768785949635782e-05 0 -2.4657206433216632e-05 -3.344827877068861e-05 0 -2.1325189677114588e-05 -2.6335804621264386e-05 0 9.2690502369277774e-06 4.4407290541457848e-06 0 4.0759806932182031e-06 3.3423363904976385e-06 0 6.8567375743510808e-06 1.8443080448152885e-06 0 3.2197316190962423e-06 5.662333325159936e-07 0 6.8567375743510808e-06 1.8443080448152885e-06 0 4.0759806932182031e-06 3.3423363904976385e-06 0 6.4970691310352865e-06 9.4326886263331219e-07 0 6.9878566484956929e-06 1.5207778908850687e-06 0 8.1138775116619467e-06 1.7436694381318481e-06 0 1.0142119921064678e-05 -1.9408434398426875e-05 0 1.1196956913464394e-05 -2.1961985747810803e-05 0 1.2858207642493863e-05 -1.896738038338725e-05 0 1.3958700413304425e-05 -2.3184842767643087e-05 0 1.2858207642493863e-05 -1.896738038338725e-05 0 1.1196956913464394e-05 -2.1961985747810803e-05 0 -3.5751910042353897e-05 2.4298700038364543e-05 0 -2.9808820087463195e-05 1.5405046158142408e-05 0 -2.4350996676620889e-05 1.7333987892340643e-05 0 -1.7736845201576327e-05 -8.2381501143694769e-06 0 -2.0865534242984254e-05 -1.2506397790903846e-05 0 -1.5186390386181345e-05 -9.014634885288958e-06 0 4.6036676262921883e-10 -3.5190613107202437e-10 0 6.3125484121144945e-10 -2.7985145385571338e-10 0 6.5080148655695431e-07 -6.3845582261022694e-07 0 3.5933230102815241e-10 3.7673190369191406e-10 0 2.0574594495708093e-10 3.7466554395233529e-10 0 3.0924677409064718e-07 8.3530975309092368e-07 0 6.9546785337500998e-06 7.9985989806979431e-07 0 6.6874266198443002e-06 5.4457183174184875e-07 0 8.2335574506424523e-06 1.5808755897860303e-06 0 8.1355901188794934e-06 2.0339610521603045e-06 0 8.1138775116619467e-06 1.7436694381318481e-06 0 6.9878566484956929e-06 1.5207778908850687e-06 0 6.4970691310352865e-06 9.4326886263331219e-07 0 6.6874266198443002e-06 5.4457183174184843e-07 0 5.7915607847596164e-06 3.044642393734034e-07 0 -1.7226517934415318e-06 -2.535384560081445e-06 0 -3.2931995995711365e-06 -2.4250145956628958e-06 0 -2.6230820473666841e-06 -2.1608417372608449e-06 0 -1.7220030472249365e-06 1.7179050141002386e-06 0 -2.1066705168474119e-06 1.3521924584108988e-06 0 -2.709686614358378e-06 1.518178840972313e-06 0 1.3531610116951416e-05 6.1764790142574349e-05 0 1.4542478764793656e-05 4.4987471644420149e-05 0 2.4254351326662324e-05 5.7111376147275649e-05 0 -1.7226517934415318e-06 -2.535384560081445e-06 0 -2.6230820473666837e-06 -2.1608417372608445e-06 0 -1.5581844190570196e-06 -2.128173951806357e-06 0 -1.7220030472249365e-06 1.7179050141002386e-06 0 -1.4084499226631427e-06 1.4144864923732337e-06 0 -2.1066705168474119e-06 1.3521924584108988e-06 0 5.4875118189279321e-06 -1.9115790923350728e-05 0 5.481103395864213e-06 -2.1687517528823718e-05 0 7.1442351270096123e-06 -2.2112368828659631e-05 0 4.5429015198615217e-06 2.9928691511368406e-05 0 1.0801364532239457e-05 1.7598962094529783e-05 0 1.5512635166418285e-05 3.1473044214048792e-05 0 4.588922296595674e-06 -6.3946870737456153e-07 0 5.7915607847596164e-06 3.044642393734034e-07 0 6.6874266198443002e-06 5.4457183174184864e-07 0 1.641954262384069e-05 -1.9208550194901171e-05 0 1.845787565761226e-05 -1.7526621014881579e-05 0 1.4543196287322091e-05 -1.5309185571154714e-05 0 -1.4679858359896263e-10 -4.7893771157359948e-10 0 1.9197959925166639e-10 -5.1710971816409825e-10 0 8.5245715498255597e-08 -1.0765332641768892e-06 0 -2.8151523417132815e-11 4.2413978717229077e-10 0 -2.6527915488509556e-10 3.500990162175907e-10 0 -1.149253007451288e-07 8.8241615537733514e-07 0 -5.2066488563584013e-06 4.9433837084866776e-07 0 -7.2013920809560548e-06 -5.7417927972123585e-08 0 -5.4024403066684374e-06 7.9538316263048903e-07 0 -1.057198119575805e-05 -2.5619455333392418e-07 0 -7.4122456381029659e-06 -1.0584961688331778e-06 0 -7.779559704360534e-06 -1.5017235413638446e-06 0 -3.2964417770482687e-06 -7.3788507950690104e-06 0 -6.4895156423697079e-06 -5.6368569401537063e-06 0 -7.1787657682603069e-06 -8.9343537859918111e-06 0 1.0333224011966668e-05 -2.207297430976727e-05 0 5.8489009879483223e-06 -1.8996736560926498e-05 0 6.6060487507790805e-06 -2.6076930342657824e-05 0 5.7679849989395625e-06 -8.4135909530380029e-07 0 4.7716608371897825e-06 -1.5411180722612765e-06 0 4.6736339173368994e-06 -2.8250630573506204e-06 0 5.8339177857173105e-06 1.3957891344087652e-06 0 7.249645293459162e-06 1.7843487927063892e-06 0 5.9637793628692742e-06 1.4659941464324812e-06 0 6.5774237776534411e-06 1.319501738917425e-06 0 7.249645293459162e-06 1.7843487927063892e-06 0 5.8339177857173105e-06 1.3957891344087652e-06 0 9.7689858683787042e-06 2.7434967598049459e-06 0 9.5978678338459112e-06 2.7353325351929014e-06 0 8.2335574506424523e-06 1.5808755897860303e-06 0 6.9546785337500998e-06 7.9985989806979431e-07 0 8.2335574506424523e-06 1.5808755897860301e-06 0 9.5978678338459112e-06 2.7353325351929014e-06 0 1.6107152411698808e-05 -2.6577644113505327e-05 0 1.3725606352801904e-05 -2.9346514950047555e-05 0 1.824241586217107e-05 -3.0506266207379361e-05 0 6.3573759721595149e-07 -1.1771735271142075e-05 0 3.1284020500639806e-06 -1.1364400045065093e-05 0 2.4929722581556839e-06 -9.3004515493764431e-06 0 4.0751347060242324e-06 -2.9892741365066029e-06 0 3.8091909602177596e-06 -4.7126908090976263e-06 0 3.6285724524320434e-06 -4.7383636289824566e-06 0 4.2652605343790022e-06 -7.1116568541416243e-06 0 3.6285724524320434e-06 -4.7383636289824566e-06 0 3.8091909602177596e-06 -4.7126908090976263e-06 0 -3.4743421571300524e-06 6.497349432272092e-07 0 -5.2066488563584013e-06 4.9433837084866776e-07 0 -4.2366218823274043e-06 9.8659723868230383e-07 0 -7.4122456381029659e-06 -1.0584961688331778e-06 0 -4.8166357132303583e-06 -1.2491759846120422e-06 0 -5.9190508695290366e-06 -1.7537243649137483e-06 0 1.2538098494621307e-05 -3.5001512146925732e-05 0 1.6432901413988264e-05 -3.8031151143670613e-05 0 1.2943135837093345e-05 -3.2614223427179057e-05 0 4.0759806932182031e-06 3.3423363904976385e-06 0 6.8295582696904927e-06 6.3269263535638916e-06 0 1.8760705598788566e-06 7.0119597638352149e-06 0 4.3607941203342287e-06 8.5829864686024398e-07 0 5.2843999747694217e-06 5.903012966313984e-07 0 4.1065049526219049e-06 2.8288057442153867e-07 0 -7.6358337859673252e-07 -1.5580726408865623e-06 0 -8.8425505987483201e-07 -2.20947839427558e-06 0 -1.5581844190570196e-06 -2.128173951806357e-06 0 -7.3583232761146722e-07 1.0716662412290458e-06 0 -1.4084499226631427e-06 1.4144864923732337e-06 0 -1.0254138854201205e-06 1.566789847723048e-06 0 2.1056490202042156e-06 1.6121999955702421e-06 0 1.1737144701656064e-06 1.7492776874894453e-06 0 1.86010082936594e-06 1.753265346693748e-06 0 5.7679849989395625e-06 -8.4135909530380029e-07 0 6.4834117261432443e-06 -9.7848537028912444e-07 0 7.3411824825381978e-06 4.9179699892767674e-07 0 2.0850407591404582e-05 -2.4119673785131663e-05 0 1.7136630278073043e-05 -2.2454109840101853e-05 0 1.9892229670738013e-05 -2.7053461088882987e-05 0 1.337483110971643e-06 1.8480500908938876e-06 0 1.86010082936594e-06 1.753265346693748e-06 0 1.1737144701656064e-06 1.7492776874894453e-06 0 -5.8693482689233454e-05 9.9982196144754972e-05 0 -3.9707637546234397e-05 8.980064553359209e-05 0 -4.4838503688512333e-05 0.00010729275613664774 0 1.5686588533935181e-05 -4.7315676943392343e-05 0 6.7135712581017711e-06 -4.3077287923027645e-05 0 9.2172538253994857e-06 -5.1876536326920839e-05 0 1.4100424198556824e-05 -3.8149687768911406e-05 0 7.1581188952549058e-06 -3.4777655716284001e-05 0 6.7135712581017711e-06 -4.3077287923027645e-05 0 7.9868588603193975e-06 -5.5516903202305549e-06 0 7.9183086390590151e-06 -2.9215064090087881e-06 0 6.2180357514885917e-06 -4.0375502404369699e-06 0 6.3573759721595149e-07 -1.1771735271142075e-05 0 2.2377956516521662e-06 -1.3869682379191385e-05 0 3.1284020500639806e-06 -1.1364400045065093e-05 0 3.5754198695079598e-06 1.2775403115041657e-06 0 3.6798149991642467e-06 3.9304655961619858e-07 0 4.4437405721837931e-06 8.6791354136662495e-07 0 7.1986147668462041e-06 -1.3038181271634099e-06 0 7.3411824825381978e-06 4.9179699892767674e-07 0 6.4834117261432443e-06 -9.7848537028912422e-07 0 5.5520124723762273e-05 0.00018014657301040218 0 4.2622079656494894e-05 0.00019106970647915332 0 3.129723542441743e-05 0.00017892012798772881 0 -3.7568841452869036e-05 -8.9930229874188886e-05 0 -3.0957998328372094e-05 -9.4309519182540866e-05 0 -2.6445850512365246e-05 -8.8654036484324265e-05 0 2.2421080684393578e-05 -9.0784989647978994e-05 0 1.0195284158894018e-05 -9.0033638650323906e-05 0 1.6140174776747072e-05 -9.6519338439802864e-05 0 -6.4139643502002393e-05 0.00017960871169850329 0 -4.2167030589391085e-05 0.00017712897660959306 0 -5.1071597752290082e-05 0.00018823607953112088 0 5.540060299305378e-06 8.9417087307593847e-07 0 4.7060101141915001e-06 1.2885555574542823e-06 0 4.4437405721837931e-06 8.6791354136662495e-07 0 3.5754198695079598e-06 1.2775403115041657e-06 0 4.4437405721837931e-06 8.6791354136662495e-07 0 4.7060101141915001e-06 1.2885555574542823e-06 0 2.8101127897067437e-06 -8.2817615609979634e-07 0 3.6798149991642467e-06 3.9304655961619879e-07 0 2.7144430205794078e-06 2.8016787177210119e-07 0 -1.158839872839013e-05 2.8389129531159541e-06 0 -1.3206539932973067e-05 1.6210053899980142e-06 0 -7.6547809897358407e-06 -1.8825949591240209e-07 0 -9.960400115862759e-06 -5.7137533103300975e-07 0 -7.6547809897358407e-06 -1.8825949591240233e-07 0 -1.3206539932973067e-05 1.6210053899980142e-06 0 3.2197316190962423e-06 5.662333325159936e-07 0 6.9787262203776763e-08 -4.8912227332240744e-07 0 2.1332173613372516e-06 -1.0701903599882115e-06 0 -1.4317707905230405e-07 -1.6448869943646772e-07 0 8.8912000249139453e-07 9.4874190079100211e-07 0 -5.1519816793484536e-07 1.1179663793685354e-06 0 4.0751347060242324e-06 -2.9892741365066029e-06 0 3.1064483560000103e-06 -2.8405190100421033e-06 0 3.8091909602177596e-06 -4.7126908090976263e-06 0 -1.7220030472249365e-06 1.7179050141002386e-06 0 -7.2552533441008854e-07 1.8598151217126608e-06 0 -1.0254138854201205e-06 1.566789847723048e-06 0 -4.7451067194175392e-07 1.4028407587157335e-06 0 -1.0254138854201205e-06 1.566789847723048e-06 0 -7.2552533441008854e-07 1.859815121712661e-06 0 -1.7503499838695549e-07 -1.8149604086481011e-06 0 -3.1887963473286858e-08 -2.3765107576149539e-06 0 -8.8425505987483212e-07 -2.20947839427558e-06 0 -1.7226517934415318e-06 -2.535384560081445e-06 0 -8.8425505987483212e-07 -2.2094783942755796e-06 0 -3.1887963473286858e-08 -2.3765107576149539e-06 0 -1.8799080449212827e-05 -3.1403522788732122e-05 0 -2.2693550568176954e-05 -3.9601817460527874e-05 0 -1.5623266625489471e-05 -3.612460226268104e-05 0 -1.5881590825978835e-05 -4.363800202773069e-05 0 -1.5623266625489471e-05 -3.612460226268104e-05 0 -2.2693550568176954e-05 -3.9601817460527874e-05 0 4.1445592709793174e-07 -9.9843837205967189e-07 0 6.5080148655695431e-07 -6.3845582261022694e-07 0 1.4063664598873847e-06 -1.3107504827307196e-06 0 1.4562820991506663e-06 -7.5536949659811145e-07 0 1.4063664598873847e-06 -1.3107504827307196e-06 0 6.5080148655695431e-07 -6.3845582261022694e-07 0 7.8826419395918091e-07 1.2916447845734685e-06 0 3.0924677409064718e-07 8.3530975309092368e-07 0 4.9176440091496671e-07 1.4811646198593994e-06 0 1.0404798623698422e-07 9.6476224056963632e-07 0 4.9176440091496671e-07 1.4811646198593994e-06 0 3.0924677409064718e-07 8.3530975309092368e-07 0 -7.0154739883824541e-06 0.00012922044764840187 0 4.5874123950165913e-06 0.00011848528963885029 0 8.148084142601685e-06 0.00013762488849544842 0 -8.9904005953237251e-06 -6.3898664808641884e-05 0 -1.4720793378688291e-05 -5.8504500703850114e-05 0 -1.6374688742075219e-05 -6.8236136702624523e-05 0 -2.9870688643155861e-07 1.9613254738706509e-06 0 -1.1868636086257202e-07 1.8829761163057257e-06 0 -7.2552533441008854e-07 1.859815121712661e-06 0 1.4481115231945026e-06 -2.1277869332798767e-06 0 -3.1887963473286858e-08 -2.3765107576149539e-06 0 1.0221276096559228e-06 -2.0268391770543718e-06 0 -1.4317707905230405e-07 -1.6448869943646772e-07 0 1.394636733890888e-06 -1.4517770021935257e-06 0 1.6971100699382476e-06 1.227086481152064e-08 0 -1.7220030472249365e-06 1.7179050141002386e-06 0 -1.3105991873127702e-06 1.9034792571032403e-06 0 -7.2552533441008854e-07 1.859815121712661e-06 0 -1.7226517934415318e-06 -2.535384560081445e-06 0 -3.1887963473286858e-08 -2.3765107576149539e-06 0 -6.8077947355315432e-07 -2.5834711989064496e-06 0 4.2652605343790022e-06 -7.1116568541416243e-06 0 3.048438897538194e-06 -5.6470264607407728e-06 0 3.6285724524320434e-06 -4.7383636289824566e-06 0 3.5754198695079598e-06 1.2775403115041657e-06 0 2.9909421030400892e-06 9.2920369499383349e-07 0 3.6798149991642467e-06 3.9304655961619858e-07 0 -4.1635941633140301e-10 -6.9879959007361819e-10 0 -1.4679858359896263e-10 -4.7893771157359948e-10 0 -1.8588717471647383e-07 -1.0028412610075553e-06 0 -2.6527915488509556e-10 3.500990162175907e-10 0 -4.0914380978573692e-10 4.6760592272296311e-10 0 -2.6363887832068059e-07 7.3864374983024941e-07 0 9.2690502369277774e-06 4.4407290541457848e-06 0 6.8567375743510808e-06 1.8443080448152885e-06 0 9.5978678338459112e-06 2.7353325351929014e-06 0 1.1078501064513184e-05 -2.9114720073043326e-05 0 1.0706816696762617e-05 -3.1613841120664456e-05 0 1.2943135837093345e-05 -3.2614223427179057e-05 0 -1.4317707905230405e-07 -1.6448869943646772e-07 0 -1.8187554406696695e-06 3.7986683349846298e-07 0 -2.5438719948542253e-06 -9.7139121285590479e-07 0 1.8874911673275112e-06 -2.1663501766974632e-05 0 6.6060487507790805e-06 -2.6076930342657824e-05 0 5.8489009879483223e-06 -1.8996736560926498e-05 0 5.540060299305378e-06 8.9417087307593847e-07 0 5.8339177857173105e-06 1.3957891344087652e-06 0 4.7060101141915001e-06 1.2885555574542823e-06 0 4.4387350406378137e-06 -6.1845821080381808e-07 0 4.7141095677831268e-06 2.8974630313166078e-07 0 3.6798149991642467e-06 3.9304655961619858e-07 0 -1.6903721987360556e-06 -1.6126556487398472e-06 0 -2.7302718327954637e-06 -1.4637074715796553e-06 0 -1.2483740891559622e-06 -8.3302665496385692e-07 0 -1.3581678609625312e-06 1.0098011163669964e-06 0 -9.5423670326197623e-07 4.812830091131395e-07 0 -2.0494188020644304e-06 8.4540116166882099e-07 0 9.1391473464423412e-07 -3.4651416393339949e-06 0 2.6789027915525471e-06 -5.1883989402163484e-06 0 3.1064483560000103e-06 -2.8405190100421033e-06 0 5.9637793628692742e-06 1.4659941464324812e-06 0 4.7382024304543429e-06 1.4271173024765731e-06 0 5.8339177857173105e-06 1.3957891344087652e-06 0 2.0930471032041955e-06 9.3164143158792922e-07 0 8.8912000249139453e-07 9.48741900791002e-07 0 1.6971100699382476e-06 1.227086481152064e-08 0 -7.9904396533748565e-06 -1.5646675993564614e-06 0 -7.6359509807911075e-06 -3.3125428929173199e-06 0 -5.1869361568349709e-06 -1.45370174004777e-06 0 -5.5601016104705235e-05 8.1685686009718691e-05 0 -4.0658229614992523e-05 7.3781345092705297e-05 0 -3.9707637546234397e-05 8.980064553359209e-05 0 9.1391473464423412e-07 -3.4651416393339949e-06 0 -9.4562553342430271e-07 -2.0261742356194157e-06 0 -2.1191443589869559e-06 -4.1774038972523117e-06 0 6.2180357514885917e-06 -4.0375502404369699e-06 0 4.9542772394500958e-06 -6.3927353891135746e-06 0 6.5879538483729238e-06 -6.1575002665965626e-06 0 -1.4317707905230405e-07 -1.6448869943646772e-07 0 -2.5438719948542253e-06 -9.7139121285590479e-07 0 -9.4562553342430271e-07 -2.0261742356194157e-06 0 4.7060101141915001e-06 1.2885555574542823e-06 0 5.8339177857173105e-06 1.3957891344087652e-06 0 4.7382024304543429e-06 1.4271173024765731e-06 0 3.9468394902110119e-06 -8.3291515027235299e-06 0 2.4929722581556834e-06 -9.3004515493764431e-06 0 3.1284020500639806e-06 -1.1364400045065093e-05 0 9.2690502369277774e-06 4.4407290541457848e-06 0 1.3358336374625827e-05 6.0013039159295631e-06 0 1.1668220057988346e-05 8.1951335025251599e-06 0 -1.4317707905230405e-07 -1.6448869943646772e-07 0 -5.1519816793484557e-07 1.1179663793685352e-06 0 -1.8187554406696695e-06 3.7986683349846298e-07 0 -6.1152532491001176e-05 0.00011920757370323688 0 -5.8693482689233454e-05 9.9982196144754972e-05 0 -4.4838503688512333e-05 0.00010729275613664774 0 1.5686588533935181e-05 -4.7315676943392343e-05 0 9.2172538253994857e-06 -5.1876536326920839e-05 0 1.7255105143798236e-05 -5.7207444693258071e-05 0 1.2332916553746892e-05 -2.974356337514498e-05 0 7.1581188952549058e-06 -3.4777655716284001e-05 0 1.4100424198556824e-05 -3.8149687768911406e-05 0 -3.1390479306697341e-06 4.5299343510491976e-06 0 -1.0643104686876748e-05 5.902369989620626e-06 0 -7.2316333535163052e-06 2.3504922533521454e-06 0 2.0373980256665258e-05 -1.9348017802124983e-06 0 1.4953568566414463e-05 2.2620695413972346e-06 0 1.6921446902579636e-05 -4.8903499994831944e-06 0 -7.9904396533748565e-06 -1.5646675993564614e-06 0 -8.9016151199799866e-06 -1.0893095060358457e-06 0 -1.0848027753564258e-05 -2.5585713315575508e-06 0 -1.158839872839013e-05 2.8389129531159541e-06 0 -1.6661545224548925e-05 4.2626443862797474e-06 0 -1.3206539932973067e-05 1.6210053899980142e-06 0 -7.9904396533748565e-06 -1.5646675993564614e-06 0 -1.0848027753564258e-05 -2.5585713315575508e-06 0 -1.1092379795305236e-05 -3.8702123289485656e-06 0 -1.158839872839013e-05 2.8389129531159541e-06 0 -1.6873782129692676e-05 6.8368251445848687e-06 0 -1.6661545224548925e-05 4.2626443862797474e-06 0 -1.3581678609625312e-06 1.0098011163669964e-06 0 -6.2231092752124448e-07 6.4508895390734723e-07 0 -9.5423670326197623e-07 4.812830091131395e-07 0 -1.6903721987360556e-06 -1.6126556487398472e-06 0 -1.2483740891559622e-06 -8.3302665496385692e-07 0 -7.6195184358308264e-07 -1.0094228862708331e-06 0 4.4387350406378137e-06 -6.1845821080381808e-07 0 3.7359077131830341e-06 -1.6839043209188642e-06 0 4.7716608371897825e-06 -1.5411180722612765e-06 0 4.0751347060242324e-06 -2.9892741365066029e-06 0 4.7716608371897825e-06 -1.5411180722612765e-06 0 3.7359077131830341e-06 -1.6839043209188642e-06 0 1.3554639260457559e-06 -2.1992187250336373e-05 0 3.0388002702439018e-06 -2.2810599456260852e-05 0 3.2410926589169437e-06 -1.9970565680890754e-05 0 2.5559725050201542e-05 -1.947800036288334e-05 0 2.2005383829164199e-05 -1.8864917839680145e-05 0 2.3746703957912493e-05 -2.2576035439522216e-05 0 2.0762435834928957e-05 -6.8408146900613916e-06 0 1.6921446902579636e-05 -4.8903499994831944e-06 0 1.8557994267412992e-05 -9.0300885310418487e-06 0 2.3829316815290153e-05 -1.6114112762388425e-05 0 2.0999370633689125e-05 -1.5432949810365111e-05 0 2.2005383829164199e-05 -1.8864917839680145e-05 0 6.5378738444002543e-07 -1.8742119037921719e-05 0 3.2410926589169437e-06 -1.9970565680890754e-05 0 2.3579053814320231e-06 -1.677103548540898e-05 0 -1.4317707905230405e-07 -1.6448869943646772e-07 0 1.6971100699382476e-06 1.2270864811520766e-08 0 8.8912000249139453e-07 9.4874190079100211e-07 0 2.8101127897067437e-06 -8.2817615609979634e-07 0 3.1064483560000103e-06 -2.8405190100421033e-06 0 3.7359077131830341e-06 -1.6839043209188642e-06 0 4.0751347060242324e-06 -2.9892741365066029e-06 0 3.7359077131830341e-06 -1.6839043209188642e-06 0 3.1064483560000103e-06 -2.8405190100421033e-06 0 5.540060299305378e-06 8.9417087307593847e-07 0 5.3218197508932796e-06 -1.5304789283882902e-07 0 6.4762313072457794e-06 6.1488250435977215e-07 0 -5.5601016104705235e-05 8.1685686009718691e-05 0 -5.1552231224155407e-05 6.4561723693557792e-05 0 -4.0658229614992523e-05 7.3781345092705297e-05 0 7.1986147668462041e-06 -1.3038181271634099e-06 0 6.4834117261432443e-06 -9.7848537028912401e-07 0 5.6431157266577523e-06 -2.4274273295026185e-06 0 5.0492233150170261e-06 1.1427034455851227e-05 0 6.8295582696904936e-06 6.3269263535638907e-06 0 1.1668220057988346e-05 8.1951335025251599e-06 0 9.2690502369277774e-06 4.4407290541457848e-06 0 1.1668220057988346e-05 8.1951335025251599e-06 0 6.8295582696904927e-06 6.3269263535638916e-06 0 1.0333224011966668e-05 -2.207297430976727e-05 0 6.6060487507790805e-06 -2.6076930342657824e-05 0 1.2332916553746892e-05 -2.974356337514498e-05 0 -2.3986313116577246e-05 8.8096740201026129e-06 0 -1.6661545224548925e-05 4.2626443862797474e-06 0 -1.6873782129692676e-05 6.8368251445848687e-06 0 -1.4703655270435321e-05 -4.9680432107396499e-06 0 -1.1092379795305235e-05 -3.8702123289485656e-06 0 -1.0848027753564258e-05 -2.5585713315575508e-06 0 5.7679849989395625e-06 -8.4135909530380029e-07 0 5.6431157266577523e-06 -2.4274273295026185e-06 0 6.4834117261432443e-06 -9.7848537028912422e-07 0 -2.1427945758975817e-05 8.9229980724885846e-05 0 -3.9707637546234397e-05 8.980064553359209e-05 0 -2.9171462566428838e-05 7.6682457876534711e-05 0 -2.1427945758975817e-05 8.9229980724885846e-05 0 -3.1977725056034332e-05 0.00010170611245663606 0 -3.9707637546234397e-05 8.980064553359209e-05 0 -1.3730411787194981e-06 -4.3244699798787421e-05 0 3.1879399833668452e-06 -4.9265955652663791e-05 0 6.7135712581017711e-06 -4.3077287923027645e-05 0 -1.3730411787194981e-06 -4.3244699798787421e-05 0 6.7135712581017711e-06 -4.3077287923027638e-05 0 2.3024684724235033e-06 -3.747440158787799e-05 0 1.7255105143798236e-05 -5.7207444693258071e-05 0 1.0856935430651718e-05 -6.0947930437400626e-05 0 1.8766363135473927e-05 -6.791310529986579e-05 0 -6.2792360309693734e-05 0.0001391029192083622 0 -6.1152532491001176e-05 0.00011920757370323688 0 -4.7738209310173126e-05 0.0001246832094713086 0 2.6084185844119899e-07 1.7719132044430206e-06 0 -6.0280962225948888e-08 1.5683369411750772e-06 0 -1.1868636086257211e-07 1.8829761163057257e-06 0 1.2554049189267639e-06 -1.7304384860503337e-06 0 1.0221276096559228e-06 -2.0268391770543718e-06 0 5.2032326479444546e-07 -1.7226767627930223e-06 0 -1.3730411787194981e-06 -4.3244699798787421e-05 0 -6.9602552320472283e-06 -4.3585670505974653e-05 0 -2.521536117340946e-06 -5.1181780699710814e-05 0 -1.3730411787194981e-06 -4.3244699798787421e-05 0 -2.898127312296059e-06 -3.622544640895681e-05 0 -6.9602552320472283e-06 -4.3585670505974653e-05 0 -9.9609808433530163e-06 -5.2410871001916216e-05 0 -2.521536117340946e-06 -5.1181780699710814e-05 0 -6.9602552320472283e-06 -4.3585670505974653e-05 0 -9.2510489095071952e-06 -3.5881166691198229e-05 0 -6.9602552320472283e-06 -4.3585670505974653e-05 0 -2.898127312296059e-06 -3.622544640895681e-05 0 -2.1427945758975817e-05 8.9229980724885846e-05 0 -8.8956219661932924e-06 9.0548644139076416e-05 0 -2.0263401434414399e-05 0.0001059840788008799 0 -5.0846759761248712e-06 0.00010594779638334507 0 -2.0263401434414399e-05 0.0001059840788008799 0 -8.8956219661932924e-06 9.0548644139076416e-05 0 -2.6527915488509556e-10 3.500990162175907e-10 0 -2.6363887832068059e-07 7.3864374983024941e-07 0 -1.149253007451288e-07 8.8241615537733514e-07 0 -1.4679858359896263e-10 -4.7893771157359948e-10 0 8.5245715498255597e-08 -1.0765332641768892e-06 0 -1.8588717471647383e-07 -1.0028412610075553e-06 0 -1.6065710904412933e-05 -1.3817005245767686e-05 0 -1.1208846499793645e-05 -8.9949869015876283e-06 0 -1.5186390386181345e-05 -9.014634885288958e-06 0 -2.5392197718346673e-05 2.6721122086751289e-05 0 -2.4350996676620889e-05 1.7333987892340643e-05 0 -1.7433762500359528e-05 1.6728298085335708e-05 0 -4.5812221005825634e-06 7.9221993300370895e-07 0 -6.6947074443786584e-06 -2.3324797240554567e-07 0 -5.3589491249365452e-06 -2.4265953584358429e-07 0 3.8845826837139234e-06 1.4335782498546646e-06 0 3.5981613670803168e-06 1.5034605244932174e-06 0 4.7382024304543429e-06 1.4271173024765731e-06 0 1.6106392566339737e-05 -3.2351028364943778e-05 0 1.824241586217107e-05 -3.0506266207379361e-05 0 1.3725606352801904e-05 -2.9346514950047555e-05 0 -5.0719761672293549e-06 -2.2237318551054137e-06 0 -6.0353277641209266e-06 -1.8918594462535543e-06 0 -7.779559704360534e-06 -1.5017235413638446e-06 0 -9.960400115862759e-06 -5.7137533103300975e-07 0 -7.779559704360534e-06 -1.5017235413638446e-06 0 -6.0353277641209275e-06 -1.8918594462535541e-06 0 3.3677845992045816e-06 -2.327870982431553e-07 0 2.3020911438427691e-06 -7.5695273927318919e-07 0 1.9916997348225245e-06 -3.9184246022477525e-07 0 2.1422627674602465e-05 -1.0167295138792886e-05 0 1.9099088099468575e-05 -1.2440423202707991e-05 0 2.2506537299535794e-05 -1.3100195538370624e-05 0 -1.4703655270435321e-05 -4.9680432107396499e-06 0 -1.3951723389382855e-05 -6.2979475510559902e-06 0 -1.1092379795305236e-05 -3.8702123289485656e-06 0 -2.3986313116577246e-05 8.8096740201026129e-06 0 -1.6873782129692672e-05 6.8368251445848695e-06 0 -2.2303100886572686e-05 1.142642189853498e-05 0 2.352295556617799e-06 -6.3600749679210067e-06 0 3.2018763013492305e-06 -6.4825670535438021e-06 0 3.048438897538194e-06 -5.6470264607407728e-06 0 -1.7226517934415318e-06 -2.535384560081445e-06 0 -6.8077947355315432e-07 -2.5834711989064496e-06 0 -2.8950667017102641e-06 -2.58864297479564e-06 0 -7.8015972615379332e-07 -2.3168982584880087e-06 0 -2.8950667017102641e-06 -2.58864297479564e-06 0 -6.8077947355315432e-07 -2.5834711989064496e-06 0 4.5429015198615217e-06 2.9928691511368406e-05 0 4.6129062252990149e-06 1.9210596577923998e-05 0 1.0801364532239457e-05 1.7598962094529783e-05 0 -7.4122456381029659e-06 -1.0584961688331778e-06 0 -5.9190508695290366e-06 -1.7537243649137483e-06 0 -7.779559704360534e-06 -1.5017235413638446e-06 0 -5.2066488563584013e-06 4.9433837084866776e-07 0 -5.4024403066684374e-06 7.9538316263048903e-07 0 -4.2366218823274043e-06 9.8659723868230383e-07 0 1.0142119921064678e-05 -1.9408434398426875e-05 0 9.3474997527609166e-06 -1.6645271395445045e-05 0 7.8655710932880062e-06 -1.9449488046930434e-05 0 7.2376828721149312e-06 -1.6358194963927189e-05 0 7.8655710932880062e-06 -1.9449488046930434e-05 0 9.3474997527609166e-06 -1.6645271395445045e-05 0 5.540060299305378e-06 8.9417087307593847e-07 0 6.5774237776534411e-06 1.319501738917425e-06 0 5.8339177857173105e-06 1.3957891344087652e-06 0 3.2197316190962423e-06 5.662333325159936e-07 0 2.1332173613372512e-06 -1.0701903599882117e-06 0 4.6773761683077104e-06 -1.5787687227406089e-07 0 6.4970691310352865e-06 9.4326886263331219e-07 0 5.7633137815338394e-06 1.144217194762053e-06 0 6.9878566484956929e-06 1.5207778908850687e-06 0 5.0492233150170261e-06 1.1427034455851227e-05 0 1.0801364532239457e-05 1.7598962094529783e-05 0 4.6129062252990157e-06 1.9210596577923998e-05 0 -7.9904396533748565e-06 -1.5646675993564614e-06 0 -5.1869361568349709e-06 -1.45370174004777e-06 0 -5.3589491249365452e-06 -2.4265953584358429e-07 0 2.0930471032041955e-06 9.3164143158792922e-07 0 2.5205148224814095e-06 1.4149266295259907e-06 0 1.3889332460054122e-06 1.6071904147310246e-06 0 3.1969896468777133e-05 4.7037328853409304e-05 0 3.6113844780055348e-05 6.291748696440243e-05 0 2.4254351326662324e-05 5.7111376147275649e-05 0 -3.1993208297371203e-05 -4.0113081269389134e-05 0 -2.2693550568176954e-05 -3.9601817460527874e-05 0 -2.4657206433216632e-05 -3.344827877068861e-05 0 -2.3986313116577246e-05 8.8096740201026129e-06 0 -1.8720282247625764e-05 4.4555815706880999e-06 0 -1.6661545224548925e-05 4.2626443862797474e-06 0 -1.1870570722721647e-05 -2.688089267051142e-06 0 -1.4703655270435321e-05 -4.9680432107396499e-06 0 -1.0848027753564258e-05 -2.5585713315575508e-06 0 7.3411824825381978e-06 4.9179699892767674e-07 0 8.4342256374591607e-06 2.4136444484226972e-07 0 8.8787246021811798e-06 1.9328219611153971e-06 0 -1.7226517934415318e-06 -2.535384560081445e-06 0 -2.8950667017102641e-06 -2.58864297479564e-06 0 -3.2931995995711365e-06 -2.4250145956628958e-06 0 -5.0719761672293549e-06 -2.2237318551054137e-06 0 -3.2931995995711365e-06 -2.4250145956628958e-06 0 -2.8950667017102641e-06 -2.58864297479564e-06 0 9.7689858683787042e-06 2.7434967598049459e-06 0 1.1440482199391196e-05 4.1551708629514069e-06 0 9.5978678338459112e-06 2.7353325351929014e-06 0 -2.4603425696420295e-05 -4.9251841573685407e-05 0 -2.2693550568176954e-05 -3.9601817460527874e-05 0 -2.8322329468280736e-05 -4.4596494497346728e-05 0 3.5960144054059194e-06 -1.5376815915676324e-05 0 5.1971376453275932e-06 -1.5908290644519906e-05 0 4.3442163823821374e-06 -1.2914475890783542e-05 0 4.6200203522305045e-05 0.00011702903959644041 0 4.9126584620595238e-05 0.00013738114593155883 0 3.3699558180906434e-05 0.00012563793881141891 0 -3.5661671624066173e-05 -5.9053256430484613e-05 0 -3.6722886113244045e-05 -6.9201298959172458e-05 0 -2.9165110164784822e-05 -6.253859807172435e-05 0 -3.1390479306697341e-06 4.5299343510491976e-06 0 5.482480481651617e-07 1.6577694913849343e-06 0 4.0759806932182031e-06 3.3423363904976385e-06 0 9.1391473464423412e-07 -3.4651416393339949e-06 0 -1.6521096320141166e-07 -6.0942764624127666e-06 0 2.6789027915525475e-06 -5.1883989402163484e-06 0 -4.0816635986534348e-06 -2.7985483594296902e-06 0 -2.1191443589869559e-06 -4.1774038972523117e-06 0 -9.4562553342430271e-07 -2.0261742356194157e-06 0 -6.1152532491001176e-05 0.00011920757370323688 0 -4.4838503688512333e-05 0.00010729275613664774 0 -4.7738209310173126e-05 0.0001246832094713086 0 1.7255105143798236e-05 -5.7207444693258071e-05 0 9.2172538253994857e-06 -5.1876536326920839e-05 0 1.0856935430651718e-05 -6.0947930437400633e-05 0 3.2971454553878302e-07 1.5173263578552867e-06 0 4.687913585563691e-07 1.8655324857342789e-06 0 -6.9099882060025222e-07 1.7890729235949238e-06 0 9.2690502369277774e-06 4.4407290541457848e-06 0 6.8295582696904927e-06 6.3269263535638916e-06 0 4.0759806932182031e-06 3.3423363904976385e-06 0 -7.9904396533748565e-06 -1.5646675993564614e-06 0 -6.6947074443786575e-06 -2.3324797240554564e-07 0 -8.9016151199799866e-06 -1.0893095060358457e-06 0 1.3254801837125786e-06 -8.6948576312317301e-06 0 6.3573759721595149e-07 -1.1771735271142075e-05 0 2.4929722581556839e-06 -9.3004515493764431e-06 0 -1.8003946513647431e-06 1.7324955181649491e-06 0 -2.3921835960129015e-06 1.721448368067296e-06 0 -3.3760182685673869e-06 1.4406511323484367e-06 0 -2.9588885866975189e-05 -3.1768785949635782e-05 0 -3.1993208297371203e-05 -4.0113081269389134e-05 0 -2.4657206433216632e-05 -3.344827877068861e-05 0 -6.6105193592026866e-06 2.7733265445214349e-07 0 -4.7934557608714821e-06 1.0323367255742752e-06 0 -5.4024403066684374e-06 7.9538316263048903e-07 0 -3.8487031455625162e-06 1.3531847128453366e-06 0 -5.4024403066684374e-06 7.9538316263048903e-07 0 -4.7934557608714821e-06 1.0323367255742752e-06 0 -2.8280298214009893e-05 6.4663975033624397e-05 0 -1.6367964514186439e-05 6.7207253044839499e-05 0 -2.9171462566428838e-05 7.6682457876534711e-05 0 4.1445592709793174e-07 -9.9843837205967189e-07 0 5.2032326479444546e-07 -1.7226767627930223e-06 0 8.5245715498255597e-08 -1.0765332641768892e-06 0 -1.7503499838695549e-07 -1.8149604086481011e-06 0 8.5245715498255597e-08 -1.0765332641768892e-06 0 5.2032326479444546e-07 -1.7226767627930223e-06 0 -4.7451067194175392e-07 1.4028407587157335e-06 0 -6.0280962225948888e-08 1.5683369411750772e-06 0 -1.149253007451288e-07 8.8241615537733514e-07 0 1.0404798623698422e-07 9.6476224056963632e-07 0 -1.149253007451288e-07 8.8241615537733514e-07 0 -6.0280962225948888e-08 1.5683369411750772e-06 0 2.8101127897067437e-06 -8.2817615609979634e-07 0 1.6971100699382478e-06 1.2270864811520677e-08 0 1.394636733890888e-06 -1.4517770021935257e-06 0 9.4722439342609116e-06 -1.9869060956050345e-06 0 7.9183086390590151e-06 -2.9215064090087881e-06 0 9.6436588618768174e-06 -5.0383981986718711e-06 0 7.9868588603193975e-06 -5.5516903202305549e-06 0 9.6436588618768174e-06 -5.0383981986718711e-06 0 7.9183086390590151e-06 -2.9215064090087881e-06 0 6.3573759721595149e-07 -1.1771735271142075e-05 0 4.0629841172397895e-07 -1.5276710569437221e-05 0 2.2377956516521662e-06 -1.3869682379191385e-05 0 7.9868588603193975e-06 -5.5516903202305549e-06 0 6.2180357514885917e-06 -4.0375502404369699e-06 0 6.5879538483729238e-06 -6.1575002665965626e-06 0 2.2005383829164199e-05 -1.8864917839680145e-05 0 2.0999370633689125e-05 -1.5432949810365111e-05 0 1.845787565761226e-05 -1.7526621014881579e-05 0 3.2410926589169437e-06 -1.9970565680890754e-05 0 3.985011348509088e-06 -1.755027799906512e-05 0 2.3579053814320231e-06 -1.677103548540898e-05 0 -1.4703655270435321e-05 -4.9680432107396499e-06 0 -1.7736845201576327e-05 -8.2381501143694769e-06 0 -1.3951723389382855e-05 -6.2979475510559902e-06 0 -2.9808820087463195e-05 1.5405046158142408e-05 0 -2.3986313116577246e-05 8.8096740201026129e-06 0 -2.2303100886572686e-05 1.142642189853498e-05 0 1.6921446902579636e-05 -4.8903499994831944e-06 0 1.4798325128578746e-05 -6.9062182524971412e-06 0 1.8557994267412992e-05 -9.0300885310418487e-06 0 2.2005383829164199e-05 -1.8864917839680145e-05 0 1.9603303378992316e-05 -2.1036858971206707e-05 0 2.3746703957912493e-05 -2.2576035439522216e-05 0 -4.0816635986534348e-06 -2.7985483594296902e-06 0 -5.1869361568349709e-06 -1.45370174004777e-06 0 -7.6359509807911075e-06 -3.3125428929173199e-06 0 1.1527404801959279e-06 8.6682214491199357e-07 0 5.0028338316191455e-07 3.5448474487107681e-07 0 4.727637970229787e-07 4.7735953795047679e-07 0 3.3861099553992573e-06 -1.1333399589935624e-06 0 2.1332173613372516e-06 -1.0701903599882115e-06 0 1.2507246480109413e-06 -2.0347969938017421e-06 0 4.588922296595674e-06 -6.3946870737456153e-07 0 3.3477310362186477e-06 -1.402476672272038e-06 0 2.9420731860219484e-06 -1.4406016545863174e-06 0 1.2786968085970136e-05 2.5137908278913864e-06 0 1.1183209145572368e-05 3.4499841586744041e-07 0 1.3155245115064176e-05 -1.8559930876577032e-06 0 -2.9752465637129831e-06 1.1837145060299186e-06 0 -2.1066705168474119e-06 1.3521924584108988e-06 0 -2.0494188020644304e-06 8.4540116166882099e-07 0 -1.3581678609625312e-06 1.0098011163669964e-06 0 -2.0494188020644304e-06 8.4540116166882099e-07 0 -2.1066705168474119e-06 1.3521924584108988e-06 0 -1.6903721987360556e-06 -1.6126556487398472e-06 0 -2.6230820473666841e-06 -2.1608417372608449e-06 0 -2.7302718327954637e-06 -1.4637074715796553e-06 0 -3.9621962401260197e-06 -1.9994042121231754e-06 0 -2.7302718327954637e-06 -1.4637074715796553e-06 0 -2.6230820473666841e-06 -2.1608417372608449e-06 0 -2.3825538542174878e-05 -1.7870374327446949e-05 0 -2.691547261886777e-05 -2.4328130470842926e-05 0 -2.075379020224501e-05 -2.0169091479209657e-05 0 4.5429015198615217e-06 2.9928691511368406e-05 0 -2.2632161903194604e-06 2.0253373100724236e-05 0 4.6129062252990157e-06 1.9210596577923998e-05 0 1.2332916553746892e-05 -2.974356337514498e-05 0 6.6060487507790805e-06 -2.6076930342657824e-05 0 7.1581188952549058e-06 -3.4777655716284001e-05 0 1.6107152411698808e-05 -2.6577644113505327e-05 0 1.2134869891224589e-05 -2.6006354452153139e-05 0 1.3725606352801904e-05 -2.9346514950047555e-05 0 -2.9870688643155861e-07 1.9613254738706509e-06 0 -6.9099882060025222e-07 1.7890729235949238e-06 0 4.6879135855636915e-07 1.8655324857342786e-06 0 5.7679849989395625e-06 -8.4135909530380029e-07 0 6.4762313072457794e-06 6.1488250435977215e-07 0 5.3218197508932796e-06 -1.5304789283882902e-07 0 -4.5812221005825634e-06 7.9221993300370895e-07 0 -3.3760182685673869e-06 1.4406511323484367e-06 0 -4.7934557608714821e-06 1.0323367255742752e-06 0 1.3531610116951416e-05 6.1764790142574349e-05 0 2.6917714871783551e-05 6.7835872044160871e-05 0 2.16124928216108e-05 7.726636131409388e-05 0 5.819265592275604e-10 2.5065381815880537e-10 0 5.4672349819759288e-07 7.8393570748602227e-07 0 4.727637970229787e-07 4.7735953795047679e-07 0 7.2376828721149312e-06 -1.6358194963927189e-05 0 9.3474997527609166e-06 -1.6645271395445045e-05 0 8.5616700998657106e-06 -1.3484033216612725e-05 0 1.6921446902579636e-05 -4.8903499994831944e-06 0 1.4953568566414463e-05 2.2620695413972346e-06 0 1.3155245115064176e-05 -1.8559930876577032e-06 0 -4.6897168998400582e-05 4.9122626270697121e-05 0 -4.127233174743594e-05 3.554721877591518e-05 0 -3.4498084147075606e-05 4.0570006525247159e-05 0 1.1903420929684522e-06 4.9860457440646734e-07 0 1.6125829319339898e-06 2.6883116251878363e-07 0 7.7185278711679358e-07 1.3929229183330503e-07 0 -4.7451067194175392e-07 1.4028407587157335e-06 0 -1.149253007451288e-07 8.8241615537733514e-07 0 -2.6363887832068059e-07 7.3864374983024941e-07 0 -1.7503499838695549e-07 -1.8149604086481011e-06 0 -1.8588717471647383e-07 -1.0028412610075553e-06 0 8.5245715498255597e-08 -1.0765332641768892e-06 0 5.9637793628692742e-06 1.4659941464324812e-06 0 4.8669128760530214e-06 1.3158780149903336e-06 0 4.7382024304543429e-06 1.4271173024765731e-06 0 -1.0955896720997726e-05 -5.9883265202344727e-06 0 -1.1092379795305236e-05 -3.8702123289485656e-06 0 -1.3951723389382855e-05 -6.2979475510559902e-06 0 -1.6162172612273313e-05 1.0973745476074064e-05 0 -2.2303100886572686e-05 1.142642189853498e-05 0 -1.6873782129692676e-05 6.8368251445848687e-06 0 1.896358303963444e-05 0.00011908051248527785 0 2.4518826015198323e-05 0.00010196223289837574 0 3.3317842836375013e-05 0.00011243608375243872 0 -2.1817052445746457e-05 -5.8872834498531917e-05 0 -2.4603425696420295e-05 -4.9251841573685407e-05 0 -2.9150855400481961e-05 -5.5575956357503792e-05 0 2.1422627674602465e-05 -1.0167295138792886e-05 0 1.8557994267412992e-05 -9.0300885310418487e-06 0 1.9099088099468575e-05 -1.2440423202707991e-05 0 3.2197316190962423e-06 5.662333325159936e-07 0 4.0759806932182022e-06 3.3423363904976385e-06 0 5.482480481651617e-07 1.6577694913849343e-06 0 1.6270051862059869e-05 -1.0155758657211228e-05 0 1.9099088099468575e-05 -1.2440423202707991e-05 0 1.8557994267412992e-05 -9.0300885310418487e-06 0 3.8845826837139234e-06 1.4335782498546646e-06 0 3.0334063334902945e-06 1.4938795592589997e-06 0 3.5981613670803168e-06 1.5034605244932174e-06 0 1.4726924023408258e-06 -3.4801314151396448e-08 0 8.4479578427602231e-07 -3.3651895968165695e-07 0 5.8877700381678825e-07 -6.7267400797919037e-08 0 3.2971454553878302e-07 1.5173263578552867e-06 0 1.3889332460054122e-06 1.6071904147310246e-06 0 4.6879135855636915e-07 1.8655324857342786e-06 0 1.014193986756186e-05 2.2756324256822605e-06 0 1.1183209145572368e-05 3.4499841586744041e-07 0 1.2035581471942765e-05 4.1092298984473734e-06 0 1.2786968085970136e-05 2.5137908278913864e-06 0 1.2035581471942765e-05 4.1092298984473734e-06 0 1.1183209145572368e-05 3.4499841586744041e-07 0 -1.5881590825978835e-05 -4.363800202773069e-05 0 -2.4603425696420295e-05 -4.9251841573685407e-05 0 -1.7469839392337387e-05 -5.2150984887168254e-05 0 -2.1817052445746457e-05 -5.8872834498531917e-05 0 -1.7469839392337387e-05 -5.2150984887168254e-05 0 -2.4603425696420295e-05 -4.9251841573685407e-05 0 9.7055393321983298e-06 8.9169133305505306e-05 0 2.4518826015198323e-05 0.00010196223289837574 0 1.0460044499452412e-05 0.00010687908190109604 0 1.896358303963444e-05 0.00011908051248527785 0 1.0460044499452412e-05 0.00010687908190109604 0 2.4518826015198323e-05 0.00010196223289837574 0 9.7055393321983298e-06 8.9169133305505306e-05 0 7.3864014810190827e-06 7.294807052389012e-05 0 2.16124928216108e-05 7.726636131409388e-05 0 1.3531610116951416e-05 6.1764790142574349e-05 0 2.16124928216108e-05 7.726636131409388e-05 0 7.3864014810190827e-06 7.294807052389012e-05 0 7.4179580794604562e-10 1.7182119029473387e-10 0 6.895271503538472e-10 2.1051420438019648e-10 0 5.0028338316191455e-07 3.5448474487107681e-07 0 2.2506537299535794e-05 -1.3100195538370624e-05 0 1.9099088099468572e-05 -1.2440423202707991e-05 0 2.0999370633689125e-05 -1.5432949810365111e-05 0 1.8052401453779073e-05 -1.5075311335582027e-05 0 2.0999370633689125e-05 -1.5432949810365111e-05 0 1.9099088099468575e-05 -1.2440423202707991e-05 0 -1.8799080449212827e-05 -3.1403522788732122e-05 0 -2.1325189677114588e-05 -2.6335804621264386e-05 0 -2.4657206433216632e-05 -3.344827877068861e-05 0 -2.691547261886777e-05 -2.4328130470842926e-05 0 -2.1325189677114588e-05 -2.6335804621264386e-05 0 -2.075379020224501e-05 -2.0169091479209657e-05 0 -4.6897168998400582e-05 4.9122626270697121e-05 0 -3.4498084147075606e-05 4.0570006525247159e-05 0 -3.4973774041534866e-05 5.3955629619045886e-05 0 8.1355901188794934e-06 2.0339610521603045e-06 0 9.2340578339404921e-06 2.6058948923553172e-06 0 8.1138775116619467e-06 1.7436694381318481e-06 0 9.7689858683787042e-06 2.7434967598049459e-06 0 8.1138775116619467e-06 1.7436694381318481e-06 0 9.2340578339404921e-06 2.6058948923553172e-06 0 2.7940059104054932e-06 1.1951070143557244e-06 0 3.7431686705588614e-06 1.2154367874011402e-06 0 3.3501480514557057e-06 8.791213781992389e-07 0 1.1527404801959279e-06 8.6682214491199357e-07 0 4.7276379702297864e-07 4.7735953795047668e-07 0 5.4672349819759288e-07 7.8393570748602227e-07 0 -5.0719761672293549e-06 -2.2237318551054137e-06 0 -7.779559704360534e-06 -1.5017235413638446e-06 0 -5.9190508695290366e-06 -1.7537243649137483e-06 0 -3.8487031455625162e-06 1.3531847128453366e-06 0 -4.2366218823274043e-06 9.8659723868230383e-07 0 -5.4024403066684374e-06 7.9538316263048903e-07 0 -3.8487031455625162e-06 1.3531847128453366e-06 0 -4.7934557608714812e-06 1.0323367255742752e-06 0 -3.3760182685673869e-06 1.4406511323484367e-06 0 4.307892599334761e-05 9.7968613370787546e-05 0 3.3317842836375013e-05 0.00011243608375243872 0 2.4518826015198323e-05 0.00010196223289837574 0 -3.407267352034809e-05 -4.9239044545546336e-05 0 -2.9150855400481961e-05 -5.5575956357503799e-05 0 -2.4603425696420295e-05 -4.9251841573685407e-05 0 8.211116868774347e-10 6.1398398952746651e-12 0 5.8877700381678825e-07 -6.7267400797919063e-08 0 8.4479578427602231e-07 -3.3651895968165695e-07 0 4.588922296595674e-06 -6.3946870737456153e-07 0 5.1123970371814511e-06 -4.5012528531598481e-07 0 3.3477310362186477e-06 -1.402476672272038e-06 0 -8.2953398426956287e-06 -2.5912305997956356e-05 0 -1.1657733714868025e-05 -2.0654513807615025e-05 0 -1.3831349016601531e-05 -2.5714016280619839e-05 0 -3.9110311915138182e-07 -1.7253808767561509e-06 0 2.133217361337252e-06 -1.0701903599882115e-06 0 6.9787262203776763e-08 -4.8912227332240744e-07 0 9.1391473464423412e-07 -3.4651416393339949e-06 0 -2.1191443589869559e-06 -4.1774038972523117e-06 0 -1.6521096320141166e-07 -6.0942764624127666e-06 0 6.6874266198443002e-06 5.4457183174184864e-07 0 8.1138775116619467e-06 1.7436694381318481e-06 0 8.2335574506424523e-06 1.5808755897860303e-06 0 -9.5146573098898409e-06 5.0362792366298527e-05 0 -2.1550242696202245e-05 5.2552809774611577e-05 0 -1.5982941829597314e-05 4.1523642065770358e-05 0 -1.0955896720997726e-05 -5.9883265202344727e-06 0 -1.5186390386181345e-05 -9.014634885288958e-06 0 -1.1208846499793645e-05 -8.9949869015876283e-06 0 -1.6162172612273313e-05 1.0973745476074064e-05 0 -1.7433762500359528e-05 1.6728298085335708e-05 0 -2.4350996676620889e-05 1.7333987892340643e-05 0 1.1078501064513184e-05 -2.9114720073043326e-05 0 1.2943135837093345e-05 -3.2614223427179057e-05 0 1.3725606352801904e-05 -2.9346514950047555e-05 0 1.6106392566339737e-05 -3.2351028364943778e-05 0 1.3725606352801904e-05 -2.9346514950047555e-05 0 1.2943135837093345e-05 -3.2614223427179057e-05 0 -4.5812221005825634e-06 7.9221993300370895e-07 0 -2.8364646326734063e-06 1.2860321160275342e-06 0 -3.3760182685673869e-06 1.4406511323484367e-06 0 -1.8003946513647431e-06 1.7324955181649491e-06 0 -3.3760182685673869e-06 1.4406511323484367e-06 0 -2.8364646326734063e-06 1.2860321160275342e-06 0 2.0930471032041955e-06 9.3164143158792922e-07 0 1.6971100699382476e-06 1.227086481152064e-08 0 2.7144430205794078e-06 2.8016787177210119e-07 0 -6.6105193592026866e-06 2.7733265445214349e-07 0 -8.9016151199799866e-06 -1.0893095060358457e-06 0 -6.6947074443786575e-06 -2.3324797240554564e-07 0 -4.896219150262964e-06 -1.4601507177990016e-06 0 -6.0353277641209275e-06 -1.8918594462535541e-06 0 -2.9474750606092042e-06 -2.1468301948934037e-06 0 9.7566651391803545e-06 -3.2015645897379551e-05 0 1.2538098494621309e-05 -3.5001512146925732e-05 0 1.0706816696762617e-05 -3.1613841120664456e-05 0 -9.5146573098898409e-06 5.0362792366298527e-05 0 -1.6367964514186439e-05 6.7207253044839499e-05 0 -2.1550242696202245e-05 5.2552809774611577e-05 0 6.895271503538472e-10 2.1051420438019648e-10 0 5.819265592275604e-10 2.5065381815880537e-10 0 4.727637970229787e-07 4.7735953795047679e-07 0 3.975581087412675e-05 7.9882318868772348e-05 0 2.16124928216108e-05 7.726636131409388e-05 0 2.6917714871783551e-05 6.7835872044160871e-05 0 1.2829949354462082e-05 5.1205461004465908e-06 0 1.3358336374625827e-05 6.0013039159295631e-06 0 1.1440482199391197e-05 4.1551708629514061e-06 0 -1.6162172612273313e-05 1.0973745476074064e-05 0 -1.0066921604581548e-05 1.0387163220539966e-05 0 -1.7433762500359528e-05 1.6728298085335708e-05 0 1.2829949354462082e-05 5.1205461004465908e-06 0 1.084291272884199e-05 3.6762592761161658e-06 0 1.1268104523521578e-05 3.8233386357386635e-06 0 1.2829949354462082e-05 5.1205461004465908e-06 0 1.1440482199391196e-05 4.1551708629514061e-06 0 1.084291272884199e-05 3.6762592761161658e-06 0 -1.7299582180284396e-06 1.2969196748323933e-06 0 -3.2907629916416791e-06 6.6015415893413979e-07 0 -1.8187554406696695e-06 3.7986683349846298e-07 0 1.337483110971643e-06 1.8480500908938876e-06 0 4.6879135855636915e-07 1.8655324857342786e-06 0 1.3889332460054122e-06 1.6071904147310246e-06 0 -2.4516946758270526e-05 4.0432002410548447e-05 0 -3.4973774041534866e-05 5.3955629619045886e-05 0 -3.4498084147075606e-05 4.0570006525247159e-05 0 4.0751347060242324e-06 -2.9892741365066029e-06 0 4.6736339173368994e-06 -2.82506305735062e-06 0 4.7716608371897825e-06 -1.5411180722612765e-06 0 1.014193986756186e-05 2.2756324256822605e-06 0 1.2035581471942765e-05 4.1092298984473734e-06 0 1.1268104523521578e-05 3.8233386357386635e-06 0 6.1550483636944617e-06 -1.3175445838846886e-05 0 7.07848902217929e-06 -1.0649123113118569e-05 0 5.1124176974783056e-06 -1.0001249344365184e-05 0 -1.0955896720997726e-05 -5.9883265202344727e-06 0 -1.3951723389382855e-05 -6.2979475510559911e-06 0 -1.5186390386181345e-05 -9.014634885288958e-06 0 -1.6162172612273313e-05 1.0973745476074064e-05 0 -2.4350996676620889e-05 1.7333987892340643e-05 0 -2.2303100886572686e-05 1.142642189853498e-05 0 -3.3930438730746579e-05 0.00011719859044816863 0 -4.7738209310173126e-05 0.0001246832094713086 0 -4.4838503688512333e-05 0.00010729275613664774 0 4.0596736297231521e-06 -5.7374945433654945e-05 0 1.0856935430651718e-05 -6.0947930437400633e-05 0 9.2172538253994857e-06 -5.1876536326920839e-05 0 3.5960144054059194e-06 -1.5376815915676324e-05 0 4.3442163823821374e-06 -1.2914475890783542e-05 0 2.2377956516521662e-06 -1.3869682379191385e-05 0 9.7689858683787042e-06 2.7434967598049459e-06 0 8.2335574506424523e-06 1.5808755897860303e-06 0 8.1138775116619467e-06 1.7436694381318481e-06 0 -7.8015972615379332e-07 -2.3168982584880087e-06 0 -2.9474750606092042e-06 -2.1468301948934037e-06 0 -2.8950667017102641e-06 -2.58864297479564e-06 0 -7.9904396533748565e-06 -1.5646675993564614e-06 0 -5.3589491249365452e-06 -2.4265953584358429e-07 0 -6.6947074443786575e-06 -2.3324797240554564e-07 0 -1.158839872839013e-05 2.8389129531159541e-06 0 -7.2316333535163052e-06 2.350492253352145e-06 0 -1.0643104686876748e-05 5.902369989620626e-06 0 3.1064483560000103e-06 -2.8405190100421033e-06 0 2.6789027915525475e-06 -5.1883989402163484e-06 0 3.8091909602177596e-06 -4.7126908090976263e-06 0 -3.5666307298672413e-06 -2.5737522217130143e-07 0 -5.3589491249365444e-06 -2.4265953584358418e-07 0 -5.1869361568349709e-06 -1.45370174004777e-06 0 1.014193986756186e-05 2.2756324256822605e-06 0 8.8787246021811798e-06 1.9328219611153971e-06 0 8.4342256374591607e-06 2.4136444484226972e-07 0 8.211116868774347e-10 6.1398398952746651e-12 0 8.0482138829843293e-10 -5.7170895224520568e-11 0 5.8877700381678825e-07 -6.7267400797919037e-08 0 5.4875118189279321e-06 -1.9115790923350728e-05 0 3.985011348509088e-06 -1.755027799906512e-05 0 3.2410926589169437e-06 -1.9970565680890754e-05 0 -1.1870570722721647e-05 -2.688089267051142e-06 0 -1.0848027753564258e-05 -2.5585713315575508e-06 0 -8.9016151199799866e-06 -1.0893095060358457e-06 0 -1.8720282247625764e-05 4.4555815706880999e-06 0 -1.3206539932973067e-05 1.6210053899980142e-06 0 -1.6661545224548925e-05 4.2626443862797474e-06 0 -1.589033041285437e-05 -1.9899389558134605e-05 0 -2.075379020224501e-05 -2.0169091479209657e-05 0 -2.1325189677114588e-05 -2.6335804621264386e-05 0 -3.2964417770482687e-06 -7.3788507950690104e-06 0 -1.8274271106701343e-06 -1.0153756142881692e-05 0 -1.6521096320141166e-07 -6.0942764624127666e-06 0 1.5657667255666185e-06 -8.3479992311970273e-06 0 -1.6521096320141166e-07 -6.0942764624127666e-06 0 -1.8274271106701343e-06 -1.0153756142881692e-05 0 -3.5666307298672413e-06 -2.5737522217130143e-07 0 -2.5438719948542253e-06 -9.7139121285590479e-07 0 -1.8187554406696695e-06 3.7986683349846298e-07 0 6.1550483636944617e-06 -1.3175445838846886e-05 0 5.1124176974783056e-06 -1.0001249344365184e-05 0 4.3442163823821374e-06 -1.2914475890783542e-05 0 -1.8799080449212827e-05 -3.1403522788732122e-05 0 -1.312741286632598e-05 -3.0879235024238183e-05 0 -1.3831349016601531e-05 -2.5714016280619839e-05 0 -3.5666307298672413e-06 -2.5737522217130143e-07 0 -1.8187554406696695e-06 3.7986683349846298e-07 0 -3.2907629916416791e-06 6.6015415893413979e-07 0 6.2657415312813894e-06 -8.1965106059989403e-06 0 5.1124176974783056e-06 -1.0001249344365184e-05 0 7.07848902217929e-06 -1.0649123113118569e-05 0 1.4562820991506663e-06 -7.5536949659811145e-07 0 1.9916997348225249e-06 -3.9184246022477525e-07 0 2.3020911438427691e-06 -7.5695273927318919e-07 0 -1.7736845201576327e-05 -8.2381501143694769e-06 0 -1.5186390386181345e-05 -9.014634885288958e-06 0 -1.3951723389382855e-05 -6.2979475510559902e-06 0 -2.9808820087463195e-05 1.5405046158142408e-05 0 -2.2303100886572686e-05 1.142642189853498e-05 0 -2.4350996676620889e-05 1.7333987892340643e-05 0 -3.407267352034809e-05 -4.9239044545546336e-05 0 -2.4603425696420295e-05 -4.9251841573685407e-05 0 -2.8322329468280736e-05 -4.4596494497346728e-05 0 4.307892599334761e-05 9.7968613370787546e-05 0 2.4518826015198323e-05 0.00010196223289837574 0 2.7591219849530264e-05 8.9386900241552285e-05 0 3.975581087412675e-05 7.9882318868772348e-05 0 2.7591219849530264e-05 8.9386900241552285e-05 0 2.16124928216108e-05 7.726636131409388e-05 0 -3.407267352034809e-05 -4.9239044545546336e-05 0 -3.5661671624066173e-05 -5.9053256430484613e-05 0 -2.9150855400481961e-05 -5.5575956357503792e-05 0 4.307892599334761e-05 9.7968613370787546e-05 0 4.6200203522305045e-05 0.00011702903959644041 0 3.3317842836375013e-05 0.00011243608375243872 0 1.6270051862059869e-05 -1.0155758657211228e-05 0 1.4798325128578746e-05 -6.9062182524971412e-06 0 1.3605735085588834e-05 -9.2623352657564467e-06 0 3.1284020500639806e-06 -1.1364400045065093e-05 0 2.2377956516521662e-06 -1.3869682379191385e-05 0 4.3442163823821374e-06 -1.2914475890783542e-05 0 4.3944458829401066e-06 -2.6839614133626726e-05 0 7.0388734715355413e-06 -2.7703271604068875e-05 0 5.5828497511281848e-06 -2.6667736309731245e-05 0 3.0660787660868523e-05 -2.8261262352461484e-05 0 2.7898898760468155e-05 -3.2017066866230863e-05 0 3.4559250119154194e-05 -3.4496448411521669e-05 0 -1.6162172612273313e-05 1.0973745476074064e-05 0 -1.0643104686876748e-05 5.902369989620626e-06 0 -1.0066921604581548e-05 1.0387163220539966e-05 0 -1.8003946513647431e-06 1.7324955181649491e-06 0 -1.3105991873127702e-06 1.9034792571032403e-06 0 -2.3921835960129015e-06 1.721448368067296e-06 0 4.3607941203342287e-06 8.5829864686024398e-07 0 3.7431686705588614e-06 1.2154367874011402e-06 0 4.8669128760530214e-06 1.3158780149903336e-06 0 -2.8280298214009893e-05 6.4663975033624397e-05 0 -2.1550242696202245e-05 5.2552809774611577e-05 0 -1.6367964514186439e-05 6.7207253044839499e-05 0 1.9846479004626792e-06 -3.0530959869387045e-05 0 7.1581188952549058e-06 -3.4777655716284001e-05 0 6.6060487507790805e-06 -2.6076930342657824e-05 0 1.4726924023408258e-06 -3.4801314151396448e-08 0 5.8877700381678825e-07 -6.7267400797919037e-08 0 7.7185278711679358e-07 1.3929229183330503e-07 0 -4.0816635986534348e-06 -2.7985483594296902e-06 0 -9.4562553342430281e-07 -2.0261742356194153e-06 0 -2.5438719948542253e-06 -9.7139121285590479e-07 0 3.6113844780055348e-05 6.291748696440243e-05 0 3.9755810874126757e-05 7.9882318868772334e-05 0 2.6917714871783551e-05 6.7835872044160871e-05 0 1.2554049189267639e-06 -1.7304384860503337e-06 0 2.1292481144667267e-06 -1.5819258565932306e-06 0 1.0221276096559228e-06 -2.0268391770543718e-06 0 1.6270051862059869e-05 -1.0155758657211228e-05 0 1.3605735085588834e-05 -9.2623352657564467e-06 0 1.598371899897385e-05 -1.2496642497593304e-05 0 1.328494084369928e-05 -1.2221499359039559e-05 0 1.598371899897385e-05 -1.2496642497593304e-05 0 1.3605735085588834e-05 -9.2623352657564467e-06 0 6.0058293664573836e-06 -2.672889587078632e-05 0 4.3880585828278657e-06 -2.5109328261926626e-05 0 5.5828497511281848e-06 -2.6667736309731245e-05 0 4.3944458829401066e-06 -2.6839614133626726e-05 0 5.5828497511281848e-06 -2.6667736309731245e-05 0 4.3880585828278657e-06 -2.5109328261926626e-05 0 3.0660787660868523e-05 -2.8261262352461484e-05 0 2.4617826785074538e-05 -2.7511926922019745e-05 0 2.7898898760468155e-05 -3.2017066866230863e-05 0 2.3088796340710594e-05 -3.1724403415687029e-05 0 2.7898898760468155e-05 -3.2017066866230863e-05 0 2.4617826785074538e-05 -2.7511926922019745e-05 0 8.1355901188794934e-06 2.0339610521603045e-06 0 6.9878566484956929e-06 1.5207778908850687e-06 0 7.249645293459162e-06 1.7843487927063892e-06 0 1.6921446902579636e-05 -4.8903499994831944e-06 0 1.3155245115064176e-05 -1.8559930876577032e-06 0 1.4798325128578746e-05 -6.9062182524971412e-06 0 1.1360940200129856e-05 -4.6324731094498354e-06 0 1.4798325128578746e-05 -6.906218252497142e-06 0 1.3155245115064176e-05 -1.8559930876577032e-06 0 -1.8799080449212827e-05 -3.1403522788732122e-05 0 -2.4657206433216632e-05 -3.344827877068861e-05 0 -2.2693550568176954e-05 -3.9601817460527874e-05 0 -4.5812221005825634e-06 7.9221993300370895e-07 0 -5.3589491249365452e-06 -2.4265953584358429e-07 0 -3.2907629916416791e-06 6.6015415893413979e-07 0 -3.5666307298672413e-06 -2.5737522217130143e-07 0 -3.2907629916416791e-06 6.6015415893413979e-07 0 -5.3589491249365452e-06 -2.4265953584358429e-07 0 4.2652605343790022e-06 -7.1116568541416243e-06 0 2.352295556617799e-06 -6.3600749679210067e-06 0 3.048438897538194e-06 -5.6470264607407728e-06 0 4.4957671804075823e-06 -2.3088349738305428e-05 0 4.3880585828278657e-06 -2.5109328261926626e-05 0 5.563029310115546e-06 -2.4841948394832213e-05 0 2.0850407591404582e-05 -2.4119673785131663e-05 0 1.9892229670738013e-05 -2.7053461088882987e-05 0 2.4617826785074538e-05 -2.7511926922019745e-05 0 3.8845826837139234e-06 1.4335782498546646e-06 0 4.8669128760530214e-06 1.3158780149903336e-06 0 3.7431686705588614e-06 1.2154367874011402e-06 0 1.2538098494621307e-05 -3.5001512146925732e-05 0 1.2943135837093345e-05 -3.2614223427179057e-05 0 1.0706816696762617e-05 -3.1613841120664456e-05 0 2.1056490202042156e-06 1.6121999955702421e-06 0 2.0926290668532822e-06 1.3202643314612522e-06 0 1.380730740441696e-06 1.355619482447952e-06 0 6.2657415312813894e-06 -8.1965106059989403e-06 0 6.5879538483729238e-06 -6.1575002665965617e-06 0 4.9542772394500958e-06 -6.3927353891135746e-06 0 1.4726924023408258e-06 -3.4801314151396448e-08 0 2.3496726006130526e-06 6.9083843756462902e-08 0 1.9916997348225245e-06 -3.9184246022477525e-07 0 -6.1559805575261435e-06 7.5119233982089113e-05 0 -1.3273747954959155e-06 6.2313714394962184e-05 0 7.3864014810190827e-06 7.294807052389012e-05 0 -5.0846759761248712e-06 0.00010594779638334507 0 1.0460044499452412e-05 0.00010687908190109604 0 4.587412395016593e-06 0.00011848528963885029 0 -9.9609808433530163e-06 -5.2410871001916216e-05 0 -1.7469839392337387e-05 -5.2150984887168254e-05 0 -1.4720793378688289e-05 -5.8504500703850114e-05 0 1.9036040362394832e-05 1.042325180686575e-05 0 1.4953568566414463e-05 2.2620695413972346e-06 0 2.0373980256665258e-05 -1.9348017802124983e-06 0 1.4726924023408258e-06 -3.4801314151396448e-08 0 7.7185278711679358e-07 1.3929229183330503e-07 0 1.6125829319339896e-06 2.6883116251878363e-07 0 -3.1993208297371203e-05 -4.0113081269389134e-05 0 -2.8322329468280736e-05 -4.4596494497346728e-05 0 -2.2693550568176954e-05 -3.9601817460527874e-05 0 -3.7593612679923313e-05 -9.9986569472114688e-05 0 -3.0957998328372094e-05 -9.4309519182540866e-05 0 -3.7568841452869036e-05 -8.9930229874188886e-05 0 6.0697550112799909e-05 0.00020299134252504012 0 4.2622079656494894e-05 0.00019106970647915332 0 5.5520124723762273e-05 0.00018014657301040218 0 6.0697550112799909e-05 0.00020299134252504012 0 3.6763352023766101e-05 0.00020400153594376215 0 4.2622079656494894e-05 0.00019106970647915332 0 2.5799527655146615e-05 -0.00010280892815253867 0 1.6140174776747072e-05 -9.6519338439802864e-05 0 1.3435955317841837e-05 -0.00010315670121338353 0 -6.4183821415959399e-05 0.00019944041161689687 0 -6.4139643502002393e-05 0.00017960871169850329 0 -5.1071597752290082e-05 0.00018823607953112088 0 -3.7593612679923313e-05 -9.9986569472114688e-05 0 -2.766049933597294e-05 -0.00010000671487525744 0 -3.0957998328372094e-05 -9.4309519182540866e-05 0 2.5799527655146615e-05 -0.00010280892815253867 0 2.2421080684393578e-05 -9.0784989647978994e-05 0 1.6140174776747072e-05 -9.6519338439802864e-05 0 -6.4183821415959399e-05 0.00019944041161689687 0 -5.1071597752290082e-05 0.00018823607953112088 0 -4.4547912283244619e-05 0.00019947705658681731 0 8.0482138829854077e-10 -5.7170895224532892e-11 0 7.7185278711679358e-07 1.3929229183330503e-07 0 5.8877700381678825e-07 -6.7267400797919037e-08 0 6.1550483636944617e-06 -1.3175445838846886e-05 0 8.5616700998657106e-06 -1.3484033216612725e-05 0 7.07848902217929e-06 -1.0649123113118569e-05 0 -3.5666307298672413e-06 -2.5737522217130143e-07 0 -5.1869361568349709e-06 -1.45370174004777e-06 0 -2.5438719948542253e-06 -9.7139121285590479e-07 0 -1.8799080449212827e-05 -3.1403522788732122e-05 0 -1.5623266625489471e-05 -3.612460226268104e-05 0 -1.312741286632598e-05 -3.0879235024238183e-05 0 3.0959451606792859e-06 -1.0046764949397169e-06 0 2.9420731860219484e-06 -1.4406016545863174e-06 0 2.1292481144667267e-06 -1.5819258565932306e-06 0 -7.0154739883824541e-06 0.00012922044764840187 0 -1.9665268164830828e-05 0.00014109451609697953 0 -2.0481459166279877e-05 0.00012294207944917756 0 -8.9904005953237251e-06 -6.3898664808641884e-05 0 -2.6593627425450988e-06 -7.0105389136197339e-05 0 -2.4122759036816168e-06 -6.0836361115723802e-05 0 1.3554639260457559e-06 -2.1992187250336373e-05 0 2.5510206773170903e-06 -2.4777554080654225e-05 0 3.0388002702439018e-06 -2.2810599456260852e-05 0 2.5559725050201542e-05 -1.947800036288334e-05 0 2.3746703957912493e-05 -2.2576035439522216e-05 0 2.7747036783805027e-05 -2.3511504364227797e-05 0 2.0762435834928957e-05 -6.8408146900613916e-06 0 1.8557994267412992e-05 -9.0300885310418487e-06 0 2.1422627674602465e-05 -1.0167295138792886e-05 0 -4.0816635986534348e-06 -2.7985483594296902e-06 0 -2.5438719948542253e-06 -9.7139121285590479e-07 0 -5.1869361568349709e-06 -1.45370174004777e-06 0 4.0629841172397895e-07 -1.5276710569437221e-05 0 6.5378738444002511e-07 -1.8742119037921719e-05 0 2.3579053814320231e-06 -1.677103548540898e-05 0 2.2506537299535794e-05 -1.3100195538370624e-05 0 2.0999370633689125e-05 -1.5432949810365111e-05 0 2.3829316815290153e-05 -1.6114112762388425e-05 0 -8.2953398426956287e-06 -2.5912305997956356e-05 0 -3.2717420303852214e-06 -2.8329398643219637e-05 0 -3.8998890501942251e-06 -2.1394885837148137e-05 0 4.3607941203342287e-06 8.5829864686024398e-07 0 3.3501480514557057e-06 8.791213781992389e-07 0 3.7431686705588614e-06 1.2154367874011402e-06 0 4.0596736297231521e-06 -5.7374945433654945e-05 0 -2.521536117340946e-06 -5.1181780699710814e-05 0 -2.4122759036816168e-06 -6.0836361115723802e-05 0 -3.3930438730746579e-05 0.00011719859044816863 0 -2.0263401434414399e-05 0.0001059840788008799 0 -2.0481459166279877e-05 0.00012294207944917756 0 1.8052401453779073e-05 -1.5075311335582027e-05 0 1.9099088099468575e-05 -1.2440423202707991e-05 0 1.598371899897385e-05 -1.2496642497593304e-05 0 1.6270051862059869e-05 -1.0155758657211228e-05 0 1.598371899897385e-05 -1.2496642497593303e-05 0 1.9099088099468575e-05 -1.2440423202707991e-05 0 1.337483110971643e-06 1.8480500908938876e-06 0 5.597626044228902e-07 1.9249541001500982e-06 0 4.6879135855636915e-07 1.8655324857342786e-06 0 -3.2964417770482687e-06 -7.3788507950690104e-06 0 -1.6521096320141158e-07 -6.0942764624127657e-06 0 -2.1191443589869559e-06 -4.1774038972523117e-06 0 1.8874911673275112e-06 -2.1663501766974632e-05 0 5.8489009879483223e-06 -1.8996736560926498e-05 0 2.4498190926032222e-06 -1.3655382178500688e-05 0 8.8767651830498139e-06 -1.0721008206207796e-05 0 7.07848902217929e-06 -1.0649123113118569e-05 0 8.5616700998657106e-06 -1.3484033216612725e-05 0 7.7686106845583834e-06 -1.5144131164954462e-05 0 5.8489009879483223e-06 -1.8996736560926498e-05 0 1.0333224011966668e-05 -2.207297430976727e-05 0 2.2005383829164199e-05 -1.8864917839680145e-05 0 1.845787565761226e-05 -1.7526621014881579e-05 0 1.9603303378992316e-05 -2.1036858971206707e-05 0 1.641954262384069e-05 -1.9208550194901171e-05 0 1.9603303378992316e-05 -2.1036858971206707e-05 0 1.845787565761226e-05 -1.7526621014881579e-05 0 -1.7220030472249365e-06 1.7179050141002386e-06 0 -2.709686614358378e-06 1.518178840972313e-06 0 -2.3921835960129015e-06 1.721448368067296e-06 0 4.4387350406378137e-06 -6.1845821080381808e-07 0 4.7716608371897825e-06 -1.5411180722612765e-06 0 5.3218197508932796e-06 -1.5304789283882902e-07 0 5.7679849989395625e-06 -8.4135909530380029e-07 0 5.3218197508932796e-06 -1.5304789283882902e-07 0 4.7716608371897825e-06 -1.5411180722612765e-06 0 1.2829949354462082e-05 5.1205461004465908e-06 0 1.2035581471942765e-05 4.1092298984473734e-06 0 1.4565175021842361e-05 6.9240858044836525e-06 0 1.2786968085970136e-05 2.5137908278913864e-06 0 1.4565175021842361e-05 6.9240858044836525e-06 0 1.2035581471942765e-05 4.1092298984473734e-06 0 3.975581087412675e-05 7.9882318868772348e-05 0 4.307892599334761e-05 9.7968613370787546e-05 0 2.7591219849530264e-05 8.9386900241552285e-05 0 1.002873293440166e-05 3.1226828994968489e-06 0 9.2340578339404921e-06 2.6058948923553172e-06 0 8.7487341404454177e-06 2.3789727532769579e-06 0 -3.1993208297371203e-05 -4.0113081269389134e-05 0 -3.407267352034809e-05 -4.9239044545546336e-05 0 -2.8322329468280736e-05 -4.4596494497346728e-05 0 -2.9870688643155861e-07 1.9613254738706509e-06 0 4.6879135855636915e-07 1.8655324857342786e-06 0 5.597626044228902e-07 1.9249541001500982e-06 0 -1.7226517934415318e-06 -2.535384560081445e-06 0 -1.5581844190570196e-06 -2.128173951806357e-06 0 -8.8425505987483212e-07 -2.20947839427558e-06 0 -1.7220030472249365e-06 1.7179050141002386e-06 0 -1.0254138854201205e-06 1.566789847723048e-06 0 -1.4084499226631427e-06 1.4144864923732337e-06 0 4.588922296595674e-06 -6.3946870737456153e-07 0 4.4346143322396931e-06 -1.5278504308679237e-07 0 5.7915607847596164e-06 3.044642393734034e-07 0 -8.7480479873417016e-07 9.6543608572488143e-08 0 -9.5423670326197623e-07 4.812830091131395e-07 0 -4.1001582998429117e-07 1.3809917734113887e-07 0 -7.4997437768312275e-10 2.441831248109628e-10 0 -4.1001582998429117e-07 1.380991773411389e-07 0 -9.5423670326197623e-07 4.812830091131395e-07 0 -1.1200654991287712e-06 -2.9820633178372989e-07 0 -5.2772669613533872e-07 -2.7125668903981633e-07 0 -1.2483740891559622e-06 -8.3302665496385692e-07 0 -1.0196175543731687e-09 -4.0082269493064998e-10 0 -1.2483740891559622e-06 -8.3302665496385692e-07 0 -5.2772669613533872e-07 -2.7125668903981633e-07 0 -3.2964417770482687e-06 -7.3788507950690104e-06 0 -7.1787657682603069e-06 -8.9343537859918111e-06 0 -5.2750700045926848e-06 -1.1701008369019453e-05 0 1.4726924023408258e-06 -3.4801314151396448e-08 0 1.6125829319339896e-06 2.6883116251878363e-07 0 2.3496726006130526e-06 6.9083843756462902e-08 0 1.3531610116951416e-05 6.1764790142574349e-05 0 2.4254351326662324e-05 5.7111376147275649e-05 0 2.6917714871783551e-05 6.7835872044160871e-05 0 5.0492233150170261e-06 1.1427034455851227e-05 0 1.8760705598788574e-06 7.0119597638352149e-06 0 6.8295582696904927e-06 6.3269263535638916e-06 0 1.002873293440166e-05 3.1226828994968489e-06 0 1.084291272884199e-05 3.6762592761161658e-06 0 9.2340578339404921e-06 2.6058948923553172e-06 0 -2.134432605967062e-06 -1.5480150036560816e-05 0 -1.8274271106701343e-06 -1.0153756142881692e-05 0 -5.2750700045926848e-06 -1.1701008369019453e-05 0 -2.5059155333990826e-05 0.00019991938466199855 0 -4.4547912283244619e-05 0.00019947705658681731 0 -3.4862755937814406e-05 0.0001894318476138193 0 1.992778529889951e-06 -0.00010195251776027627 0 1.3435955317841837e-05 -0.00010315670121338353 0 6.9285987941691242e-06 -9.675275402196284e-05 0 3.6763352023766101e-05 0.00020400153594376215 0 1.4481081601229975e-05 0.0002023746179613826 0 2.444619074094765e-05 0.00019196478160990994 0 -2.7660499335972936e-05 -0.00010000671487525744 0 -1.7840383757277009e-05 -0.0001002852697960706 0 -2.2783106403383692e-05 -9.4931162795971178e-05 0 6.9618004281793841e-06 -2.4779593614813518e-05 0 5.563029310115546e-06 -2.4841948394832213e-05 0 6.9702048395314167e-06 -2.6865711996718315e-05 0 1.6107152411698808e-05 -2.6577644113505327e-05 0 1.824241586217107e-05 -3.0506266207379361e-05 0 1.9892229670738013e-05 -2.7053461088882987e-05 0 -7.1816284664436463e-10 -2.9470283455535603e-10 0 -4.1001582998429127e-07 1.380991773411389e-07 0 -7.4997437768312275e-10 2.441831248109628e-10 0 -8.0376617379672841e-10 3.2822826550951817e-10 0 -1.0196175543731687e-09 -4.0082269493064998e-10 0 -5.2772669613533872e-07 -2.7125668903981633e-07 0 -8.0376617379672841e-10 3.2822826550951817e-10 0 -5.2772669613533872e-07 -2.7125668903981633e-07 0 -1.1200654991287712e-06 -2.9820633178372989e-07 0 -7.1816284664436463e-10 -2.9470283455535603e-10 0 -8.7480479873417016e-07 9.6543608572488143e-08 0 -4.1001582998429117e-07 1.3809917734113887e-07 0 1.9846479004626792e-06 -3.0530959869387045e-05 0 -3.2717420303852223e-06 -2.8329398643219637e-05 0 -2.898127312296059e-06 -3.622544640895681e-05 0 3.2971454553878302e-07 1.5173263578552867e-06 0 -5.1519816793484536e-07 1.1179663793685354e-06 0 8.8912000249139453e-07 9.4874190079100211e-07 0 6.2657415312813894e-06 -8.1965106059989403e-06 0 7.07848902217929e-06 -1.0649123113118569e-05 0 7.7808087097186323e-06 -8.2038399765881876e-06 0 8.8767651830498139e-06 -1.0721008206207796e-05 0 7.7808087097186323e-06 -8.2038399765881876e-06 0 7.07848902217929e-06 -1.0649123113118569e-05 0 1.337483110971643e-06 1.8480500908938876e-06 0 1.3889332460054122e-06 1.6071904147310246e-06 0 1.9844127698973624e-06 1.6852989616477787e-06 0 2.7940059104054932e-06 1.1951070143557244e-06 0 2.0926290668532822e-06 1.3202643314612522e-06 0 3.0334063334902945e-06 1.4938795592589997e-06 0 2.1056490202042156e-06 1.6121999955702421e-06 0 3.0334063334902945e-06 1.4938795592589997e-06 0 2.0926290668532822e-06 1.3202643314612522e-06 0 1.2786968085970136e-05 2.5137908278913864e-06 0 1.4953568566414463e-05 2.262069541397235e-06 0 1.4565175021842361e-05 6.9240858044836525e-06 0 1.9036040362394832e-05 1.042325180686575e-05 0 1.4565175021842361e-05 6.9240858044836534e-06 0 1.4953568566414463e-05 2.2620695413972346e-06 0 -9.650137512364872e-06 -1.1639344001355057e-05 0 -5.2750700045926848e-06 -1.1701008369019453e-05 0 -7.1787657682603069e-06 -8.9343537859918111e-06 0 1.8052401453779073e-05 -1.5075311335582027e-05 0 1.845787565761226e-05 -1.7526621014881579e-05 0 2.0999370633689125e-05 -1.5432949810365111e-05 0 3.5960144054059194e-06 -1.5376815915676324e-05 0 2.3579053814320231e-06 -1.677103548540898e-05 0 3.985011348509088e-06 -1.755027799906512e-05 0 3.8845826837139234e-06 1.4335782498546646e-06 0 4.7382024304543429e-06 1.4271173024765731e-06 0 4.8669128760530214e-06 1.3158780149903336e-06 0 1.896358303963444e-05 0.00011908051248527785 0 3.3317842836375013e-05 0.00011243608375243872 0 3.3699558180906434e-05 0.00012563793881141891 0 -2.1817052445746457e-05 -5.8872834498531917e-05 0 -2.9150855400481961e-05 -5.5575956357503792e-05 0 -2.9165110164784822e-05 -6.253859807172435e-05 0 4.2652605343790022e-06 -7.1116568541416243e-06 0 3.8091909602177596e-06 -4.7126908090976263e-06 0 2.6789027915525475e-06 -5.1883989402163484e-06 0 1.6270051862059869e-05 -1.0155758657211228e-05 0 1.8557994267412992e-05 -9.0300885310418487e-06 0 1.4798325128578746e-05 -6.9062182524971412e-06 0 -3.3930438730746579e-05 0.00011719859044816863 0 -4.4838503688512333e-05 0.00010729275613664774 0 -3.1977725056034332e-05 0.00010170611245663606 0 4.0596736297231521e-06 -5.7374945433654945e-05 0 9.2172538253994857e-06 -5.1876536326920839e-05 0 3.1879399833668452e-06 -4.9265955652663791e-05 0 1.9846479004626792e-06 -3.0530959869387045e-05 0 2.3024684724235042e-06 -3.747440158787799e-05 0 7.1581188952549058e-06 -3.4777655716284001e-05 0 7.1442351270096123e-06 -2.2112368828659631e-05 0 8.205877286914187e-06 -2.4056972693753245e-05 0 9.0169911969693014e-06 -2.1810840872543016e-05 0 2.0850407591404582e-05 -2.4119673785131663e-05 0 2.3746703957912493e-05 -2.2576035439522216e-05 0 1.9603303378992316e-05 -2.1036858971206707e-05 0 3.3861099553992573e-06 -1.1333399589935624e-06 0 3.3477310362186477e-06 -1.402476672272038e-06 0 5.1123970371814511e-06 -4.5012528531598492e-07 0 1.1078501064513184e-05 -2.9114720073043326e-05 0 1.3725606352801904e-05 -2.9346514950047555e-05 0 1.2134869891224589e-05 -2.6006354452153139e-05 0 -2.9870688643155861e-07 1.9613254738706509e-06 0 5.597626044228902e-07 1.9249541001500982e-06 0 -1.1868636086257211e-07 1.8829761163057257e-06 0 2.6084185844119899e-07 1.7719132044430206e-06 0 -1.1868636086257211e-07 1.8829761163057257e-06 0 5.597626044228902e-07 1.9249541001500982e-06 0 5.540060299305378e-06 8.9417087307593847e-07 0 4.7141095677831268e-06 2.8974630313166084e-07 0 5.3218197508932796e-06 -1.5304789283882902e-07 0 -3.2964417770482687e-06 -7.3788507950690104e-06 0 -5.2750700045926848e-06 -1.1701008369019453e-05 0 -1.8274271106701343e-06 -1.0153756142881692e-05 0 1.337483110971643e-06 1.8480500908938876e-06 0 1.9844127698973624e-06 1.6852989616477787e-06 0 1.86010082936594e-06 1.753265346693748e-06 0 2.5890261485405261e-06 1.6570115124886021e-06 0 1.86010082936594e-06 1.753265346693748e-06 0 1.9844127698973624e-06 1.6852989616477787e-06 0 1.3889332460054122e-06 1.6071904147310246e-06 0 2.5205148224814095e-06 1.4149266295259907e-06 0 1.9844127698973624e-06 1.6852989616477787e-06 0 8.5309054847019497e-06 -2.9045277932742055e-05 0 6.9702048395314158e-06 -2.6865711996718315e-05 0 7.4080991660136177e-06 -2.8505150102232221e-05 0 6.0058293664573836e-06 -2.672889587078632e-05 0 7.4080991660136177e-06 -2.8505150102232221e-05 0 6.9702048395314167e-06 -2.6865711996718315e-05 0 2.3088796340710594e-05 -3.1724403415687029e-05 0 1.824241586217107e-05 -3.0506266207379361e-05 0 2.0733864894052894e-05 -3.5860025858679468e-05 0 1.6106392566339737e-05 -3.2351028364943778e-05 0 2.0733864894052894e-05 -3.5860025858679468e-05 0 1.824241586217107e-05 -3.0506266207379361e-05 0 1.2786968085970136e-05 2.5137908278913864e-06 0 1.3155245115064176e-05 -1.8559930876577032e-06 0 1.4953568566414463e-05 2.2620695413972346e-06 0 3.129723542441743e-05 0.00017892012798772881 0 2.444619074094765e-05 0.00019196478160990994 0 1.1720866394921577e-05 0.00018272121803272352 0 -2.6445850512365246e-05 -8.8654036484324265e-05 0 -2.2783106403383692e-05 -9.4931162795971178e-05 0 -1.7225616454672789e-05 -9.0894139865419174e-05 0 1.019528415889402e-05 -9.0033638650323906e-05 0 4.3331597424224541e-07 -9.1842966933991459e-05 0 6.9285987941691242e-06 -9.675275402196284e-05 0 -4.2167030589391085e-05 0.00017712897660959306 0 -2.3750041052502514e-05 0.0001814422176946901 0 -3.4862755937814406e-05 0.0001894318476138193 0 -3.3930438730746579e-05 0.00011719859044816863 0 -3.1977725056034332e-05 0.00010170611245663606 0 -2.0263401434414399e-05 0.0001059840788008799 0 4.0596736297231521e-06 -5.7374945433654945e-05 0 3.1879399833668452e-06 -4.9265955652663791e-05 0 -2.521536117340946e-06 -5.1181780699710814e-05 0 1.9846479004626792e-06 -3.0530959869387045e-05 0 -2.898127312296059e-06 -3.622544640895681e-05 0 2.3024684724235033e-06 -3.747440158787799e-05 0 4.4387350406378137e-06 -6.1845821080381808e-07 0 5.3218197508932796e-06 -1.5304789283882902e-07 0 4.7141095677831268e-06 2.8974630313166084e-07 0 1.4481081601229975e-05 0.0002023746179613826 0 1.1720866394921577e-05 0.00018272121803272352 0 2.444619074094765e-05 0.00019196478160990994 0 -1.7840383757277009e-05 -0.0001002852697960706 0 -1.7225616454672789e-05 -9.0894139865419174e-05 0 -2.2783106403383692e-05 -9.4931162795971178e-05 0 -2.5059155333990826e-05 0.00019991938466199855 0 -3.4862755937814406e-05 0.0001894318476138193 0 -2.3750041052502514e-05 0.0001814422176946901 0 1.992778529889951e-06 -0.00010195251776027627 0 6.9285987941691259e-06 -9.6752754021962853e-05 0 4.3331597424224541e-07 -9.1842966933991459e-05 0 9.9372128924241976e-06 -2.4145686878596058e-05 0 9.0169911969693014e-06 -2.1810840872543016e-05 0 8.205877286914187e-06 -2.4056972693753245e-05 0 7.7686106845583834e-06 -1.5144131164954462e-05 0 2.4498190926032222e-06 -1.3655382178500688e-05 0 5.8489009879483223e-06 -1.8996736560926498e-05 0 7.0388734715355405e-06 -2.7703271604068875e-05 0 6.9968317211586999e-06 -2.71605331946193e-05 0 5.5828497511281848e-06 -2.6667736309731245e-05 0 3.4559250119154194e-05 -3.4496448411521669e-05 0 2.7898898760468155e-05 -3.2017066866230863e-05 0 2.8568733220867866e-05 -3.6975715042067946e-05 0 2.7940059104054932e-06 1.1951070143557244e-06 0 1.927453575138755e-06 9.3916957906997447e-07 0 2.0926290668532822e-06 1.3202643314612522e-06 0 -3.9707637546234397e-05 8.980064553359209e-05 0 -4.0658229614992523e-05 7.3781345092705297e-05 0 -2.9171462566428838e-05 7.6682457876534711e-05 0 -2.8280298214009893e-05 6.4663975033624397e-05 0 -2.9171462566428838e-05 7.6682457876534711e-05 0 -4.0658229614992523e-05 7.3781345092705297e-05 0 1.0142119921064678e-05 -1.9408434398426875e-05 0 7.8655710932880062e-06 -1.9449488046930434e-05 0 9.0169911969693014e-06 -2.1810840872543016e-05 0 3.5754198695079598e-06 1.2775403115041657e-06 0 2.5205148224814095e-06 1.4149266295259907e-06 0 2.9909421030400892e-06 9.2920369499383349e-07 0 6.2657415312813894e-06 -8.1965106059989403e-06 0 7.7808087097186323e-06 -8.2038399765881876e-06 0 6.5879538483729238e-06 -6.1575002665965626e-06 0 7.9868588603193975e-06 -5.5516903202305549e-06 0 6.5879538483729238e-06 -6.1575002665965626e-06 0 7.7808087097186323e-06 -8.2038399765881876e-06 0 -2.1427945758975817e-05 8.9229980724885846e-05 0 -2.0263401434414399e-05 0.0001059840788008799 0 -3.1977725056034332e-05 0.00010170611245663606 0 -1.3730411787194981e-06 -4.3244699798787421e-05 0 -2.521536117340946e-06 -5.1181780699710814e-05 0 3.1879399833668452e-06 -4.9265955652663791e-05 0 -1.3730411787194981e-06 -4.3244699798787421e-05 0 2.3024684724235033e-06 -3.747440158787799e-05 0 -2.898127312296059e-06 -3.622544640895681e-05 0 -1.3581678609625312e-06 1.0098011163669964e-06 0 -2.1066705168474119e-06 1.3521924584108988e-06 0 -1.4084499226631427e-06 1.4144864923732337e-06 0 -1.6903721987360556e-06 -1.6126556487398472e-06 0 -1.5581844190570196e-06 -2.128173951806357e-06 0 -2.6230820473666841e-06 -2.1608417372608449e-06 0 -3.9621962401260197e-06 -1.9994042121231754e-06 0 -2.6230820473666841e-06 -2.1608417372608449e-06 0 -3.2931995995711365e-06 -2.4250145956628958e-06 0 -2.9752465637129831e-06 1.1837145060299186e-06 0 -2.709686614358378e-06 1.518178840972313e-06 0 -2.1066705168474119e-06 1.3521924584108988e-06 0 3.6798149991642467e-06 3.9304655961619858e-07 0 4.7141095677831268e-06 2.8974630313166084e-07 0 4.4437405721837931e-06 8.6791354136662495e-07 0 -3.9707637546234397e-05 8.980064553359209e-05 0 -3.1977725056034332e-05 0.00010170611245663606 0 -4.4838503688512333e-05 0.00010729275613664774 0 6.7135712581017711e-06 -4.3077287923027645e-05 0 3.1879399833668452e-06 -4.9265955652663791e-05 0 9.2172538253994857e-06 -5.1876536326920839e-05 0 6.7135712581017711e-06 -4.3077287923027645e-05 0 7.1581188952549058e-06 -3.4777655716284001e-05 0 2.3024684724235033e-06 -3.747440158787799e-05 0 -8.2953398426956287e-06 -2.5912305997956356e-05 0 -1.3831349016601531e-05 -2.5714016280619839e-05 0 -1.312741286632598e-05 -3.0879235024238183e-05 0 7.1442351270096123e-06 -2.2112368828659631e-05 0 9.0169911969693014e-06 -2.1810840872543016e-05 0 7.8655710932880062e-06 -1.9449488046930434e-05 0 3.3861099553992573e-06 -1.1333399589935624e-06 0 4.6773761683077104e-06 -1.5787687227406089e-07 0 2.1332173613372516e-06 -1.0701903599882115e-06 0 2.8101127897067437e-06 -8.2817615609979634e-07 0 2.7144430205794074e-06 2.8016787177210124e-07 0 1.6971100699382476e-06 1.227086481152064e-08 0 -1.7220030472249365e-06 1.7179050141002386e-06 0 -2.3921835960129019e-06 1.721448368067296e-06 0 -1.3105991873127702e-06 1.9034792571032403e-06 0 -2.4516946758270526e-05 4.0432002410548447e-05 0 -1.5982941829597311e-05 4.1523642065770365e-05 0 -2.1550242696202245e-05 5.2552809774611577e-05 0 -1.589033041285437e-05 -1.9899389558134605e-05 0 -1.3831349016601531e-05 -2.5714016280619839e-05 0 -1.1657733714868025e-05 -2.0654513807615025e-05 0 1.896358303963444e-05 0.00011908051248527785 0 4.587412395016593e-06 0.00011848528963885029 0 1.0460044499452412e-05 0.00010687908190109604 0 -2.1817052445746457e-05 -5.8872834498531917e-05 0 -1.4720793378688289e-05 -5.8504500703850114e-05 0 -1.7469839392337387e-05 -5.2150984887168254e-05 0 1.3531610116951416e-05 6.1764790142574349e-05 0 7.3864014810190827e-06 7.294807052389012e-05 0 -1.3273747954959155e-06 6.2313714394962184e-05 0 -1.7299582180284396e-06 1.2969196748323933e-06 0 -2.8364646326734059e-06 1.2860321160275342e-06 0 -3.2907629916416791e-06 6.6015415893413979e-07 0 2.0930471032041955e-06 9.3164143158792922e-07 0 2.9909421030400892e-06 9.2920369499383349e-07 0 2.5205148224814095e-06 1.4149266295259907e-06 0 -9.2510489095071952e-06 -3.5881166691198229e-05 0 -1.312741286632598e-05 -3.0879235024238183e-05 0 -1.5623266625489471e-05 -3.612460226268104e-05 0 6.0058293664573836e-06 -2.672889587078632e-05 0 5.5828497511281848e-06 -2.6667736309731245e-05 0 6.9968317211586999e-06 -2.71605331946193e-05 0 2.3088796340710594e-05 -3.1724403415687029e-05 0 2.8568733220867866e-05 -3.6975715042067946e-05 0 2.7898898760468155e-05 -3.2017066866230863e-05 0 2.5890261485405261e-06 1.6570115124886021e-06 0 1.9844127698973624e-06 1.6852989616477787e-06 0 2.5205148224814095e-06 1.4149266295259907e-06 0 -4.4547912283244619e-05 0.00019947705658681731 0 -5.1071597752290082e-05 0.00018823607953112088 0 -3.4862755937814406e-05 0.0001894318476138193 0 -4.2167030589391085e-05 0.00017712897660959306 0 -3.4862755937814406e-05 0.0001894318476138193 0 -5.1071597752290082e-05 0.00018823607953112088 0 1.019528415889402e-05 -9.0033638650323906e-05 0 6.9285987941691242e-06 -9.675275402196284e-05 0 1.6140174776747072e-05 -9.6519338439802864e-05 0 1.3435955317841837e-05 -0.00010315670121338353 0 1.6140174776747072e-05 -9.6519338439802864e-05 0 6.9285987941691242e-06 -9.675275402196284e-05 0 3.6763352023766101e-05 0.00020400153594376215 0 2.444619074094765e-05 0.00019196478160990994 0 4.2622079656494894e-05 0.00019106970647915332 0 -2.7660499335972936e-05 -0.00010000671487525744 0 -2.2783106403383692e-05 -9.4931162795971178e-05 0 -3.0957998328372094e-05 -9.4309519182540866e-05 0 3.129723542441743e-05 0.00017892012798772881 0 4.2622079656494894e-05 0.00019106970647915332 0 2.444619074094765e-05 0.00019196478160990994 0 -2.6445850512365246e-05 -8.8654036484324265e-05 0 -3.0957998328372094e-05 -9.4309519182540866e-05 0 -2.2783106403383692e-05 -9.4931162795971178e-05 0 1.0142119921064678e-05 -1.9408434398426875e-05 0 9.0169911969693014e-06 -2.1810840872543016e-05 0 1.1196956913464394e-05 -2.1961985747810803e-05 0 5.4875118189279321e-06 -1.9115790923350728e-05 0 5.1971376453275932e-06 -1.5908290644519906e-05 0 3.985011348509088e-06 -1.755027799906512e-05 0 3.5960144054059194e-06 -1.5376815915676324e-05 0 3.985011348509088e-06 -1.755027799906512e-05 0 5.1971376453275932e-06 -1.5908290644519906e-05 0 9.9372128924241976e-06 -2.4145686878596058e-05 0 8.205877286914187e-06 -2.4056972693753245e-05 0 8.803450780722134e-06 -2.646244617677714e-05 0 6.9618004281793841e-06 -2.4779593614813518e-05 0 8.803450780722134e-06 -2.646244617677714e-05 0 8.205877286914187e-06 -2.4056972693753245e-05 0 1.2829949354462082e-05 5.1205461004465908e-06 0 1.1268104523521578e-05 3.8233386357386635e-06 0 1.2035581471942765e-05 4.1092298984473734e-06 0 3.2197316190962423e-06 5.662333325159936e-07 0 5.482480481651617e-07 1.6577694913849343e-06 0 6.9787262203776763e-08 -4.8912227332240744e-07 0 -2.9762776472366412e-06 5.650694397885199e-07 0 6.9787262203776763e-08 -4.8912227332240744e-07 0 5.482480481651617e-07 1.6577694913849343e-06 0 -1.7299582180284396e-06 1.2969196748323933e-06 0 -1.8187554406696693e-06 3.7986683349846298e-07 0 -5.1519816793484536e-07 1.1179663793685354e-06 0 -2.4516946758270526e-05 4.0432002410548447e-05 0 -1.6613736135250638e-05 3.2125600463813283e-05 0 -1.5982941829597314e-05 4.1523642065770358e-05 0 -7.6122129803818312e-06 3.3926495786279042e-05 0 -1.5982941829597314e-05 4.1523642065770358e-05 0 -1.6613736135250638e-05 3.2125600463813283e-05 0 1.002873293440166e-05 3.1226828994968489e-06 0 1.1268104523521578e-05 3.8233386357386635e-06 0 1.084291272884199e-05 3.6762592761161658e-06 0 1.641954262384069e-05 -1.9208550194901171e-05 0 1.7136630278073043e-05 -2.2454109840101853e-05 0 1.9603303378992316e-05 -2.1036858971206707e-05 0 2.0850407591404582e-05 -2.4119673785131663e-05 0 1.9603303378992316e-05 -2.1036858971206707e-05 0 1.7136630278073043e-05 -2.2454109840101853e-05 0 9.7689858683787042e-06 2.7434967598049459e-06 0 1.084291272884199e-05 3.6762592761161658e-06 0 1.1440482199391197e-05 4.1551708629514061e-06 0 -7.5106194334979633e-06 -1.7141732157355381e-05 0 -1.2039930640452801e-05 -1.6240539817924424e-05 0 -1.1657733714868025e-05 -2.0654513807615025e-05 0 -1.589033041285437e-05 -1.9899389558134605e-05 0 -1.1657733714868025e-05 -2.0654513807615025e-05 0 -1.2039930640452801e-05 -1.6240539817924424e-05 0 8.1355901188794934e-06 2.0339610521603045e-06 0 8.7487341404454177e-06 2.3789727532769579e-06 0 9.2340578339404921e-06 2.6058948923553172e-06 0 9.7689858683787042e-06 2.7434967598049459e-06 0 9.2340578339404921e-06 2.6058948923553172e-06 0 1.084291272884199e-05 3.6762592761161658e-06 0 3.5960144054059194e-06 -1.5376815915676324e-05 0 2.2377956516521662e-06 -1.3869682379191385e-05 0 2.3579053814320231e-06 -1.677103548540898e-05 0 2.0930471032041955e-06 9.3164143158792922e-07 0 2.7144430205794078e-06 2.8016787177210119e-07 0 2.9909421030400892e-06 9.2920369499383349e-07 0 3.6798149991642467e-06 3.9304655961619858e-07 0 2.9909421030400892e-06 9.2920369499383349e-07 0 2.7144430205794078e-06 2.8016787177210119e-07 0 5.540060299305378e-06 8.9417087307593847e-07 0 4.4437405721837931e-06 8.6791354136662495e-07 0 4.7141095677831268e-06 2.8974630313166084e-07 0 4.6200203522305045e-05 0.00011702903959644041 0 3.3699558180906434e-05 0.00012563793881141891 0 3.3317842836375013e-05 0.00011243608375243872 0 -3.5661671624066173e-05 -5.9053256430484613e-05 0 -2.9165110164784822e-05 -6.253859807172435e-05 0 -2.9150855400481961e-05 -5.5575956357503792e-05 0 -4.5812221005825634e-06 7.9221993300370895e-07 0 -3.2907629916416791e-06 6.6015415893413979e-07 0 -2.8364646326734063e-06 1.2860321160275342e-06 0 6.895271503538472e-10 2.1051420438019648e-10 0 4.7276379702297875e-07 4.7735953795047689e-07 0 5.0028338316191455e-07 3.5448474487107681e-07 0 3.6113844780055348e-05 6.291748696440243e-05 0 2.6917714871783551e-05 6.7835872044160871e-05 0 2.4254351326662324e-05 5.7111376147275649e-05 0 9.9372128924241976e-06 -2.4145686878596058e-05 0 1.1196956913464394e-05 -2.1961985747810803e-05 0 9.0169911969693014e-06 -2.1810840872543016e-05 0 -3.9110311915138182e-07 -1.7253808767561509e-06 0 6.9787262203776247e-08 -4.8912227332240765e-07 0 -2.7868321806871288e-06 -1.0472752334246057e-06 0 -2.9762776472366412e-06 5.650694397885199e-07 0 -2.7868321806871284e-06 -1.0472752334246057e-06 0 6.9787262203776763e-08 -4.8912227332240744e-07 0 4.0629841172397895e-07 -1.5276710569437221e-05 0 2.3579053814320231e-06 -1.677103548540898e-05 0 2.2377956516521662e-06 -1.3869682379191385e-05 0 
</DataArray>
</PointData>
<CellData Scalars="region_id,cross_section_updated,displacement_divergence," Vectors="" Tensors="stress,">
<DataArray type="Float64" Name="region_id" format="ascii">
2 2 2 2 2 2 2 2 2 2 3 3 3 3 3 3 3 3 3 3 1 1 1 1 1 1 1 1 1 1 1 1 1 1 1 1 1 1 1 1 1 1 1 1 1 1 1 1 1 1 1 1 1 1 1 1 1 1 1 1 1 1 1 1 1 1 1 1 1 1 1 1 1 1 1 1 1 1 1 1 1 1 1 1 1 1 1 1 1 1 1 1 1 1 1 1 1 1 1 1 1 1 1 1 1 1 1 1 1 1 1 1 1 1 1 1 1 1 1 1 1 1 1 1 1 1 1 1 1 1 1 1 1 1 1 1 1 1 1 1 1 1 1 1 1 1 1 1 1 1 1 1 1 1 1 1 1 1 1 1 1 1 1 1 1 1 1 1 1 1 1 1 1 1 1 1 1 1 1 1 1 1 1 1 1 1 1 1 1 1 1 1 1 1 1 1 1 1 1 1 1 1 1 1 1 1 1 1 1 1 1 1 1 1 1 1 1 1 1 1 1 1 1 1 1 1 1 1 1 1 1 1 1 1 1 1 1 1 1 1 1 1 1 1 1 1 1 1 1 1 1 1 1 1 1 1 1 1 1 1 1 1 1 1 1 1 1 1 1 1 1 1 1 1 1 1 1 1 1 1 1 1 1 1 1 1 1 1 1 1 1 1 1 1 1 1 1 1 1 1 1 1 1 1 1 1 1 1 1 1 1 1 1 1 1 1 1 1 1 1 1 1 1 1 1 1 1 1 1 1 1 1 1 1 1 1 1 1 1 1 1 1 1 1 1 1 1 1 1 1 1 1 1 1 1 1 1 1 1 1 1 1 1 1 1 1 1 1 1 1 1 1 1 1 1 1 1 1 1 1 1 1 1 1 1 1 1 1 1 1 1 1 1 1 1 1 1 1 1 1 1 1 1 1 1 1 1 1 1 1 1 1 1 1 1 1 1 1 1 1 1 1 1 1 1 1 1 1 1 1 1 1 1 1 1 1 1 1 1 1 1 1 1 1 1 1 1 1 1 1 1 1 1 1 1 1 1 1 1 1 1 1 1 1 1 1 1 1 1 1 1 1 1 1 1 1 1 1 1 1 1 1 1 1 1 1 1 1 1 1 1 1 1 1 1 1 1 1 1 1 1 1 1 1 1 1 1 1 1 1 1 1 1 1 1 1 1 1 1 1 1 1 1 1 1 1 1 1 1 1 1 1 1 1 1 1 1 1 1 1 1 1 1 1 1 1 1 1 1 1 1 1 1 1 1 1 1 1 1 1 1 1 1 1 1 1 1 1 1 1 1 1 1 1 1 1 1 1 1 1 1 1 1 1 1 1 1 1 1 1 1 1 1 1 1 1 1 1 1 1 1 1 1 1 1 1 1 1 1 1 1 1 1 1 1 1 1 1 1 1 1 1 1 1 1 1 1 1 1 1 1 1 1 1 1 1 1 1 1 1 1 1 1 1 1 1 1 1 1 1 1 1 1 1 1 1 1 1 1 1 1 1 1 1 1 1 1 1 1 1 1 1 1 1 1 1 1 1 1 1 1 1 1 1 1 1 1 1 1 1 1 1 1 1 1 1 1 1 1 1 1 1 1 1 1 1 1 1 1 1 1 1 1 1 1 1 1 1 1 1 1 1 1 1 1 1 1 1 1 1 1 1 1 1 1 1 1 1 1 1 1 1 1 1 1 1 1 1 1 1 1 1 1 1 1 1 1 1 1 1 1 1 1 1 1 1 1 1 1 1 1 1 1 1 1 1 1 1 1 1 1 1 1 1 1 1 1 1 1 1 1 1 1 1 1 1 1 1 1 1 1 1 1 1 1 1 1 1 1 1 1 1 1 1 1 1 1 1 1 1 1 1 1 1 1 1 1 1 1 1 1 1 1 1 1 1 1 1 1 1 1 1 1 1 1 1 1 1 1 1 1 1 1 1 1 1 1 1 1 1 1 1 1 1 1 1 1 1 1 1 1 1 1 1 1 1 1 1 1 1 1 1 1 1 1 1 1 1 1 1 1 1 1 1 1 1 1 1 1 1 1 1 1 1 1 1 1 1 1 1 1 1 1 1 1 1 1 1 1 1 1 1 1 1 1 1 1 1 1 1 1 1 1 1 1 1 1 1 1 1 1 1 1 1 1 1 1 1 1 1 1 1 1 1 1 1 1 1 1 1 1 1 1 1 1 1 1 1 1 1 1 1 1 1 1 1 1 1 1 1 1 1 1 1 1 1 1 1 1 1 1 1 1 1 1 1 1 1 1 1 1 1 1 1 1 1 1 1 1 1 1 1 1 1 1 1 1 1 1 1 1 1 1 1 1 1 1 1 1 1 1 1 1 1 1 1 1 1 1 1 1 1 1 1 1 1 1 1 1 1 1 1 1 1 
</DataArray>
<DataArray type="Float64" Name="stress" NumberOfComponents="9" format="ascii">
0.0017880930478208377 -0.0011132785014969866 0 -0.0011132785014969866 0.0052808609876914547 0 0 0 0.0017672385088780735 0.0044463131935730954 -0.0029212449143361783 0 -0.0029212449143361783 0.013301929931494493 0 0 0 0.0044370607812668971 0.0062863568118593166 -0.0041843326925044373 0 -0.0041843326925044373 0.018815422821306941 0 0 0 0.006275444908291565 0.008186703069482543 -0.0051258055463912298 0 -0.0051258055463912298 0.024512797185015298 0 0 0 0.0081748750636244615 0.010310567624240635 -0.0057957229212774715 0 -0.0057957229212774715 0.030875007930717447 0 0 0 0.010296393888739522 0.012784940523407437 -0.0062398548399321494 0 -0.0062398548399321494 0.038282348360278384 0 0 0 0.012766822220921454 0.015698356337651754 -0.0064733684230885409 0 -0.0064733684230885409 0.047019883399021661 0 0 0 0.015679559934168356 0.019106090561045803 -0.0065128653620825485 0 -0.0065128653620825485 0.057180485024846725 0 0 0 0.019071643896473128 0.023054560798115978 -0.006325014967997397 0 -0.006325014967997397 0.069134597410375989 0 0 0 0.023047289552122992 0.027991119905080745 -0.0062148443316164034 0 -0.0062148443316164034 0.083349830956820373 0 0 0 0.027835237715475282 0.0036145364608907533 0.0007386537344764917 0 0.0007386537344764917 0.010040254531115374 0 0 0 0.0034136977480015316 0.00870477721463115 0.0018301828863876231 0 0.0018301828863876231 0.026104506393954362 0 0 0 0.0087023209021463779 0.012765013973689688 0.0026490023232934035 0 0.0026490023232934035 0.038111784830340847 0 0 0 0.012719199701007629 0.016656928212018616 0.003245289874358391 0 0.003245289874358391 0.049836921806763086 0 0 0 0.016623462504695426 0.020758453715277431 0.003710117112189 0 0.003710117112189 0.062136882049177534 0 0 0 0.02072383394111374 0.025116728434337782 0.0040583604275933848 0 0.0040583604275933848 0.075196180436112522 0 0 0 0.025078227217612579 0.029779747570149728 0.0042517802649632373 0 0.0042517802649632373 0.089233166591412671 0 0 0 0.029753228540390603 0.034852468757079286 0.0043751982951274982 0 0.0043751982951274982 0.10422836390284525 0 0 0 0.03477020816498113 0.03995707237914424 0.0042677246671350144 0 0.0042677246671350144 0.12026333074383683 0 0 0 0.04005510078074527 0.046985681500299331 0.0043165937853029629 0 0.0043165937853029629 0.13839254268758572 0 0 0 0.046344556046971269 0.010762021270799452 -0.0023251292370220257 0 -0.0023251292370220257 0.0094937064314055894 0 0 0 0.005063931925551263 0.013233369317300124 -0.0023082307226606506 0 -0.0023082307226606506 0.018723877803618741 0 0 0 0.0079893117802297166 -0.00050828732192782777 -0.0038456694886730633 0 -0.0038456694886730633 0.01721057007874767 0 0 0 0.0041755706892049604 0.00083830086860034285 0.001637322352858385 0 0.001637322352858385 0.018754092744463186 0 0 0 0.0048980984032658739 -0.030920781171879214 -0.0060289931194716087 0 -0.0060289931194716087 0.0024909545949545683 0 0 0 -0.0071074566442311613 -0.022999988585543803 0.0035229917151373183 0 0.0035229917151373183 0.0014549845063148057 0 0 0 -0.0053862510198072538 -0.03418274499654339 -0.004508010912803756 0 -0.004508010912803756 -0.00035026109717623661 0 0 0 -0.0086332515234299068 -0.02466174776675225 0.0027027058927882727 0 0.0027027058927882727 -0.00016544083305319347 0 0 0 -0.0062067971499513621 -0.04595057621258386 0.0028459758511976754 0 0.0028459758511976754 -0.00033408406104862894 0 0 0 -0.011571165068408124 -0.079253883485930599 -0.0065076813725945303 0 -0.0065076813725945303 -0.00048375775774342662 0 0 0 -0.01993441031091852 0.028813048514585653 -0.00041470088047494127 0 -0.00041470088047494127 -0.0052627544517977951 0 0 0 0.0058875735156969635 0.026719004147857849 -0.00074908140824422897 0 -0.00074908140824422897 -0.0053855608811329472 0 0 0 0.0053333608166812258 0.0044787330882558084 0.0069135661116722195 0 0.0069135661116722195 -3.0692026940698502e-05 0 0 0 0.0011120102653287781 0.0099963607451484283 -0.0080332552544500491 0 -0.0080332552544500491 0.0033285959051914896 0 0 0 0.0033312391625849799 0.00250930889594128 0.0077622602038838386 0 0.0077622602038838386 0.0008353808481250739 0 0 0 0.00083617243601658855 -0.0014907361322468241 -0.0076467684798015995 0 -0.0076467684798015995 0.011035822790568445 0 0 0 0.0023862716645804069 0.11355236539710493 0.052545686354994764 0 0.052545686354994764 0.098576015043299853 0 0 0 0.053032095110101193 0.0025632050830840525 -0.0059117261384198372 0 -0.0059117261384198372 -0.01330038857544702 0 0 0 -0.0026842958730908251 0.0079930145413344977 0.011789718843214558 0 0.011789718843214558 -0.0086822806045172563 0 0 0 -0.00017231651579563412 0.005162706452010557 0.0074183550978401853 0 0.0074183550978401853 -0.017173204872391601 0 0 0 -0.003002624605095372 0.0049936948586390972 -0.0079935874496472534 0 -0.0079935874496472534 -0.0060089192486842968 0 0 0 -0.00025380609751124439 0.0075354434592335151 0.018279839761488281 0 0.018279839761488281 -0.0036771724202582234 0 0 0 0.00096456775974373965 0.0027569041686006934 -0.012577585270728719 0 -0.012577585270728719 -0.0035315719147205327 0 0 0 -0.00019366693652994593 0.0069657554044020272 0.0078866240370259952 0 0.0078866240370259952 -0.0001284854314226886 0 0 0 0.0017093174932448331 0.12084899997882301 -0.0066382984575821015 0 -0.0066382984575821015 0.056938889293272746 0 0 0 0.044446972318023928 -0.11657284807585654 0.0040139351404092916 0 0.0040139351404092916 0.0035884448999786711 0 0 0 -0.028246100793969442 -0.062690389885844466 -0.0010609618224932036 0 -0.0010609618224932036 0.0013691054902087441 0 0 0 -0.015330321098908958 -0.019021295465263214 -0.0092966984462494375 0 -0.0092966984462494375 0.0086522974701447319 0 0 0 -0.0025922494987796335 -0.029904608829069743 0.0021631961630614116 0 0.0021631961630614116 0.028512692066101297 0 0 0 -0.00034797919074212869 -0.031178830032677338 -0.01737441282133333 0 -0.01737441282133333 0.002260145104077248 0 0 0 -0.0072296712321500301 0.014006629889758882 -0.0049819590125938481 0 -0.0049819590125938481 0.027078268027188601 0 0 0 0.010271224479236861 -0.00072060000546389502 -0.014992709279352978 0 -0.014992709279352978 0.0028882965119823023 0 0 0 0.00054192412662965039 0.0055742454573228795 0.021614444845726832 0 0.021614444845726832 0.00010181203922765558 0 0 0 0.001419014374137495 0.006459652363471069 -0.016860980111675028 0 -0.016860980111675028 0.0041398238662508913 0 0 0 0.0026498690574303652 -0.0091496854235635361 0.025253710124091833 0 0.025253710124091833 -0.0012083469636730015 0 0 0 -0.0025895080968091344 -0.011818458093167018 -0.020576033473030022 0 -0.020576033473030022 0.00053141763115865936 0 0 0 -0.0028217601155020892 0.025853567279732953 -0.01596214292401036 0 -0.01596214292401036 0.032458883956650295 0 0 0 0.014578112809095812 -0.037901271938890924 -0.003333898937119939 0 -0.003333898937119939 0.0058831432089066771 0 0 0 -0.0080045321824960547 0.18443326946320607 0.053286281930332927 0 0.053286281930332927 0.031150452338642554 0 0 0 0.053895930450462148 0.037575098907184495 0.0036783724916240046 0 0.0036783724916240046 -0.012288283861699556 0 0 0 0.0063217037613712557 0.057447651596052057 -0.0059957349971588858 0 -0.0059957349971588858 -0.0039002670627857894 0 0 0 0.013386846133316505 0.017491475080314046 -0.0061808707893454672 0 -0.0061808707893454672 0.038506993588450777 0 0 0 0.013999617167191218 0.041328745735689121 -0.0049808363838871328 0 -0.0049808363838871328 0.025479316469237734 0 0 0 0.01670201555123163 -0.0088299338354056456 0.0059772222579810297 0 0.0059772222579810297 -0.002201189793023417 0 0 0 -0.0027577809071073212 0.015744446801539979 -0.0053793253920463788 0 -0.0053793253920463788 -0.00096451726379747846 0 0 0 0.0036949823844356243 0.0092328822496421242 0.008157636581599197 0 0.008157636581599197 0.00085380600953736258 0 0 0 0.0025216720647948713 -0.0086327787879571655 0.023286638913765451 0 0.023286638913765451 0.030109170935598131 0 0 0 0.0053690980369102553 -0.00059521976752383021 0.016132603016628361 0 0.016132603016628361 0.022148576279423612 0 0 0 0.0053883391279749837 0.10788714800682081 0.068453650010277284 0 0.068453650010277284 0.11442785310437073 0 0 0 0.055578750277797913 -0.012253711910967427 0.010001019780596643 0 0.010001019780596643 0.0024691901031239638 0 0 0 -0.0024461304519608068 0.030636895528085763 -0.014375773312510054 0 -0.014375773312510054 0.023883951571732807 0 0 0 0.013630211774954683 0.011330319760825519 -3.4784601159978945e-05 0 -3.4784601159978945e-05 -0.0073243211662401553 0 0 0 0.0010014996486462924 0.013806803835218741 -0.0057534127813959873 0 -0.0057534127813959873 0.030247521310916053 0 0 0 0.011013581286533701 0.016579756124640625 -0.0090546815315518635 0 -0.0090546815315518635 0.009237495183475386 0 0 0 0.0064543128270290046 0.02713508117397824 0.0017076625948019425 0 0.0017076625948019425 0.0083538912322643766 0 0 0 0.0088722431015606645 -0.063320246004270386 0.0080399339077821264 0 0.0080399339077821264 -0.0011832731355152504 0 0 0 -0.01612587978494634 -0.0083889544679962569 -0.0061824757377604844 0 -0.0061824757377604844 0.0016217425436886312 0 0 0 -0.0016918029810769619 0.059212749087759087 0.016038754222473139 0 0.016038754222473139 0.044009483243173442 0 0 0 0.025805558082732882 0.055774604202888795 -0.012376276752138038 0 -0.012376276752138038 0.040599524184047012 0 0 0 0.024093532096734007 -0.0082404326849463416 0.0050053776797570632 0 0.0050053776797570632 0.0017604482912547681 0 0 0 -0.0016199960984231154 0.0097217085989732832 -0.0082835634423936433 0 -0.0082835634423936433 -0.0019951102205426618 0 0 0 0.0019316495946076484 0.033462549072602155 -0.025915833806283775 0 -0.025915833806283775 0.045283501984048465 0 0 0 0.019686512764162657 0.007839341182083015 -0.0068467248866939528 0 -0.0068467248866939528 0.0019264607046722837 0 0 0 0.0024414504716888108 0.021314637564798636 -0.0011227615107692254 0 -0.0011227615107692254 0.0035834591563829177 0 0 0 0.0062245241802953571 -0.0049779416311335201 -0.01366993328586031 0 -0.01366993328586031 0.0063737899655523789 0 0 0 0.00034896208360474246 -0.019586538890897308 0.0050093007116749815 0 0.0050093007116749815 -0.0016324453596777023 0 0 0 -0.0053047460626437521 -0.025614397905370855 -0.0084788442605828601 0 -0.0084788442605828601 -0.0022202623501193178 0 0 0 -0.0069586650638725437 0.019764873179261962 -0.0078220388194469859 0 -0.0078220388194469859 -0.037004790091869695 0 0 0 -0.0043099792281519533 0.029340482629014841 0.0096256896766978017 0 0.0096256896766978017 -0.035781361027233727 0 0 0 -0.0016102195995547075 -0.013085489490506832 -0.011726629458481633 0 -0.011726629458481633 -0.0032542499899181759 0 0 0 -0.0040849348701062528 -0.012520859098034484 0.0077048083376582976 0 0.0077048083376582976 -0.0022487248405880303 0 0 0 -0.003692395984655629 0.023780352268021721 -0.0030345008670481319 0 -0.0030345008670481319 -0.0039806397903378796 0 0 0 0.0049499281194209628 -0.025167124415214435 0.0043079617867432078 0 0.0043079617867432078 0.0010628925112194433 0 0 0 -0.006026057975998745 -0.034597522841704031 -0.0076183017885485243 0 -0.0076183017885485243 0.0018718143547838198 0 0 0 -0.0081814271217300547 0.015783279074517528 -0.0072867185103028254 0 -0.0072867185103028254 0.0043688411614251077 0 0 0 0.0050380300589856486 0.015775411965177219 -0.0092396235906918867 0 -0.0092396235906918867 0.0090172280502195667 0 0 0 0.0061981600038491999 0.071416492942210169 0.000189828796325342 0 0.000189828796325342 0.049335185819065708 0 0 0 0.030187919690318837 -0.0062508713523766607 -0.003946591881356154 0 -0.003946591881356154 -0.0015543708555449398 0 0 0 -0.0019513105519803758 0.015184161088572595 -0.0074947696024699195 0 -0.0074947696024699195 0.0040337005539930471 0 0 0 0.0048044654106413898 0.012627453344860658 0.00074760041809321387 0 0.00074760041809321387 0.0015994377837622864 0 0 0 0.0035567227821557482 -0.016595823758407735 0.025047291703543362 0 0.025047291703543362 0.0037336321907255332 0 0 0 -0.0032155478919205782 -0.020610600899959156 -0.0091103386920043834 0 -0.0091103386920043834 -0.0068724591172165733 0 0 0 -0.0068707650042939324 -0.016832963737199912 0.0058215746480514627 0 0.0058215746480514627 -0.0056122244676121069 0 0 0 -0.005611297051203004 0.018742162069280265 -0.0066816553598513864 0 -0.0066816553598513864 -0.0073607103496545244 0 0 0 0.002845362929906435 0.0078272012770904675 0.016031706576607796 0 0.016031706576607796 -0.003851793255752689 0 0 0 0.00099385200533441687 0.0031839163909949675 -0.012890562286734686 0 -0.012890562286734686 -0.0023861116276806538 0 0 0 0.00019945119082848128 0.0061784806769432273 -0.011246973205557897 0 -0.011246973205557897 0.0047303358306495236 0 0 0 0.0027272041268982146 0.022771814649977188 0.0025072876342391291 0 0.0025072876342391291 -0.0024319075280929562 0 0 0 0.0050849767804710564 0.0012256757935317744 -0.014113436888735292 0 -0.014113436888735292 -0.0044653961248237381 0 0 0 -0.00080993008282298799 0.018881420749649158 -0.0010770502988084562 0 -0.0010770502988084562 0.0033837335782032629 0 0 0 0.0055662885819631192 0.026214838939440519 0.0027395795714253331 0 0.0027395795714253331 -0.0012527847990102222 0 0 0 0.006240513535107569 0.021021853688976348 0.0045801790509884368 0 0.0045801790509884368 -0.00064862619654883213 0 0 0 0.0050933068731068825 0.020340015248872804 0.0042120449731686766 0 0.0042120449731686766 0.00084831391816767021 0 0 0 0.0052970822917601176 0.014059708240637736 -0.0077336167573881232 0 -0.0077336167573881232 0.0074275119330414197 0 0 0 0.0053718050434198028 0.021509864047978625 -0.012189313594503697 0 -0.012189313594503697 0.0172482612467173 0 0 0 0.0096895313236739986 0.014638113836791172 -0.0018461025659149005 0 -0.0018461025659149005 0.00030779387474033637 0 0 0 0.0037364769278828702 0.017950961304472844 -0.0059870198545802274 0 -0.0059870198545802274 0.039798397056716089 0 0 0 0.014437339590297228 0.097001066052548657 0.012629520052553245 0 0.012629520052553245 0.072858710257420078 0 0 0 0.042464944077492017 -0.0051227657750998468 -0.0030769214517867294 0 -0.0030769214517867294 0.0010760226189603372 0 0 0 -0.0010116857890348774 -0.013092646210136283 -0.0041219357123220566 0 -0.0041219357123220566 -0.0015811168388122354 0 0 0 -0.0036684407622370463 0.086835816258097998 0.0025970016576524202 0 0.0025970016576524202 0.069465370071829291 0 0 0 0.039075296582481878 0.02697932746380529 0.013578549472313432 0 0.013578549472313432 0.049540914564679947 0 0 0 0.019130060507121315 0.014587377174825819 0.0065288246211680457 0 0.0065288246211680457 -2.1848346455653755e-05 0 0 0 0.0036413822070925396 0.010753261504424315 0.0067464853115798704 0 0.0067464853115798704 0.00027976516747350161 0 0 0 0.0027582566679744541 0.057846474735484654 0.013644287257713328 0 0.013644287257713328 0.015115430933458018 0 0 0 0.018240476417235585 0.047553531435457153 0.020178495233963978 0 0.020178495233963978 0.01168844335552488 0 0 0 0.014810493697745564 0.018769513849798816 -0.01120512110772073 0 -0.01120512110772073 0.016629985053943225 0 0 0 0.0088498747259354998 0.0098450653194123439 0.0026351446091863739 0 0.0026351446091863739 -0.034786779950189528 0 0 0 -0.0062354286576942475 0.0068295095482207857 -0.0047011572090617827 0 -0.0047011572090617827 -0.033076422512181902 0 0 0 -0.0065617282409902999 0.019293627898813649 0.0084855966958493935 0 0.0084855966958493935 0.032664422208163957 0 0 0 0.012989512526744398 -0.020745351989192473 0.006523636694533568 0 0.006523636694533568 -0.00249167800594563 0 0 0 -0.0058092574987842482 0.04831316192313051 -0.0063563366938294008 0 -0.0063563366938294008 0.037761851063152996 0 0 0 0.021518753246570932 -0.039329852005640084 0.0026155598647754699 0 0.0026155598647754699 0.0005300020135788671 0 0 0 -0.0096999624980152986 -0.06377840608593377 -0.006092158410542569 0 -0.006092158410542569 0.00071294856175500507 0 0 0 -0.01576636438104468 0.03042026093688726 -0.010183758862211595 0 -0.010183758862211595 0.008163977231767372 0 0 0 0.0096460595421636527 0.081728783201379981 -0.024295638195424157 0 -0.024295638195424157 0.020971939992659228 0 0 0 0.02567518079850982 0.022123871676959325 -0.0051424133562133906 0 -0.0051424133562133906 0.0038310386700016186 0 0 0 0.0064887275867402394 0.0215320059879038 -0.0092388589679398975 0 -0.0092388589679398975 0.0069780726779522795 0 0 0 0.0071275196664640009 0.010176975003037518 -0.0053578137875082144 0 -0.0053578137875082144 -0.018836466621535628 0 0 0 -0.0021648729046244999 6.4148217857384893e-05 0.0069566853958784591 0 0.0069566853958784591 -0.020122108232511593 0 0 0 -0.0050144900036634965 0.015944365760803603 0.0070964599543219542 0 0.0070964599543219542 -0.026920030828120112 0 0 0 -0.0027439162668292383 -0.00021275646647283189 -0.0048483785918622679 0 -0.0048483785918622679 -0.013410083769308995 0 0 0 -0.0034057100589454567 0.00065277665826127262 0.0064172825863119953 0 0.0064172825863119953 0.037847321634275316 0 0 0 0.0096250245731341263 0.009361945643283992 -0.010131212389442215 0 -0.010131212389442215 0.0065534210426388961 0 0 0 0.0039788416714807151 0.02252202882099795 -0.0038369153658697752 0 -0.0038369153658697752 0.0041740082317705367 0 0 0 0.0066740092631921277 0.018971370493638329 -0.0031883454422018537 0 -0.0031883454422018537 0.0043936989673189174 0 0 0 0.0058412673652393264 0.022334343258777201 -0.011992789055010736 0 -0.011992789055010736 0.007341219696976875 0 0 0 0.0074188907389384773 -0.080609463274080986 0.0081848395740803936 0 0.0081848395740803936 0.0014649889364953816 0 0 0 -0.019786118584396356 -0.011417506751950985 0.0058386683534110452 0 0.0058386683534110452 0.0084558318535099958 0 0 0 -0.0007404187246102395 -0.0037823836309139394 0.0014217740591767856 0 0.0014217740591767856 0.0077864965205833581 0 0 0 0.0010010282224173564 0.0066958467703306102 -0.0041038345020063538 0 -0.0041038345020063538 -0.012546722232084251 0 0 0 -0.0014627188654384171 -0.064287127789103005 0.014814764112874412 0 0.014814764112874412 0.0024513020595271495 0 0 0 -0.015458956432393756 -0.031553917257843928 0.0074207331352901286 0 0.0074207331352901286 0.0024351068271770415 0 0 0 -0.0072797026076667146 -0.03520637333674051 0.002326038257449356 0 0.002326038257449356 0.0017988177176346959 0 0 0 -0.008351888904776443 -0.059813663346186534 -0.0066503249310252456 0 -0.0066503249310252456 0.0042076181599969287 0 0 0 -0.013901511296547403 -0.052484518406656293 -0.01728849361516159 0 -0.01728849361516159 0.0058955937496783517 0 0 0 -0.011647231164244494 0.0085394149002575963 -0.0095096244392502416 0 -0.0095096244392502416 0.0047884457287643012 0 0 0 0.0033319651572554614 -0.046492640241187821 -0.0033071422170519171 0 -0.0033071422170519171 0.00091946802460246557 0 0 0 -0.011393293054146381 0.056733356305777971 0.030210349209763399 0 0.030210349209763399 0.011404635582035638 0 0 0 0.017034497971953388 0.0094763315452382306 -0.0045640174932166898 0 -0.0045640174932166898 0.028481610452776491 0 0 0 0.0094894854995036769 0.02857489770380232 0.0095799036036528836 0 0.0095799036036528836 0.0091134820556090304 0 0 0 0.0094220949398528334 -0.0188329254695217 0.019384133806669035 0 0.019384133806669035 -0.0001382239290361742 0 0 0 -0.0047427873496394546 0.017424963452522896 -0.016003621659766376 0 -0.016003621659766376 0.0066251121993710083 0 0 0 0.0060125189129734691 0.021604941476531848 -0.011423431145718976 0 -0.011423431145718976 0.017571709911004131 0 0 0 0.0097941628468839938 0.0049240892717737905 -0.0047895334018251412 0 -0.0047895334018251412 -0.013658528348251209 0 0 0 -0.0021836097691193546 0.016009003599974508 -0.0051130985238205806 0 -0.0051130985238205806 0.0036560149870018266 0 0 0 0.0049162546467440976 0.01071485301157663 -0.0089060539473032989 0 -0.0089060539473032989 -0.0025680695398563429 0 0 0 0.0020366958679300714 0.0045313565420858131 0.0092037118425901832 0 0.0092037118425901832 0.00011665707784083018 0 0 0 0.0011620034049816619 0.0086574063856349436 -0.01421318353993864 0 -0.01421318353993864 0.0092676490594856137 0 0 0 0.0044812638612801402 -7.352380166878239e-05 -0.018482485523897422 0 -0.018482485523897422 -0.003525624572951247 0 0 0 -0.00089978709365500995 -0.013079933440257055 -0.014516743977416804 0 -0.014516743977416804 0.010386022795650041 0 0 0 -0.000673477661151764 0.021581568469351844 -0.0027779940180069785 0 -0.0027779940180069785 -0.003756471667658209 0 0 0 0.0044562742004234093 0.022980046845440721 -0.0009772842319561068 0 -0.0009772842319561068 -0.00096271780758301617 0 0 0 0.0055043322594644263 0.014591312543728478 0.0057481909427644804 0 0.0057481909427644804 0.00084161428096167848 0 0 0 0.0038582317061725373 0.014157401105780568 0.0067496770840180277 0 0.0067496770840180277 -8.8006770547623819e-05 0 0 0 0.003517348583808237 -0.005976059638889971 -0.017522797082656159 0 -0.017522797082656159 0.0095335879630717366 0 0 0 0.00088938208104544225 0.024603165548766764 0.0085297946031117709 0 0.0085297946031117709 0.0082480956244799439 0 0 0 0.0082128152933116719 0.027799134669152924 -0.0046591153493315629 0 -0.0046591153493315629 -0.0063064501363388516 0 0 0 0.0053731711332035232 0.013827478519396882 -0.017127740903493803 0 -0.017127740903493803 -0.0048924624546042537 0 0 0 0.0022337540161981549 0.023129592334919818 0.010877463440967749 0 0.010877463440967749 0.025887531039719983 0 0 0 0.012254280843659945 0.006270909292682909 0.0048163734343573779 0 0.0048163734343573779 0.0016001216860751996 0 0 0 0.0019677577446895276 0.0082948107444092579 0.0059440585712824401 0 0.0059440585712824401 0.0030911214300263085 0 0 0 0.0028464830436088894 -0.020606846195139177 -0.0091135885260160143 0 -0.0091135885260160143 -0.006860333074053134 0 0 0 -0.006866794817298078 -0.016830528617098956 0.0058244126055965722 0 0.0058244126055965722 -0.0056041732974654104 0 0 0 -0.0056086754786410916 0.095449138993314406 0.013369734284534585 0 0.013369734284534585 0.015983582431343596 0 0 0 0.027858180356164487 0.015193895801716789 0.00588793558489124 0 0.00588793558489124 0.0018465586509949575 0 0 0 0.0042601136131779401 0.0034439634387007714 -0.0032733631238957084 0 -0.0032733631238957084 0.030757383355135226 0 0 0 0.0085503366984589976 0.0051140449413869249 -0.0020147393715549133 0 -0.0020147393715549133 -0.023948444557800652 0 0 0 -0.004708599904103411 -0.033688592942276038 0.0035524740579590828 0 0.0035524740579590828 0.00093823249141274448 0 0 0 -0.0081875901127158191 -0.053807894803208328 -0.0067428662713345643 0 -0.0067428662713345643 0.00088546488079417618 0 0 0 -0.013230607480603541 0.0093436776696716219 -0.0040714363792673791 0 -0.0040714363792673791 0.0019440586153652989 0 0 0 0.0028219340712592224 -0.026235650926337905 0.0078588450949895559 0 0.0078588450949895559 0.00066709172918339582 0 0 0 -0.0063921397992886238 -0.027839484646658218 -0.021682945032787199 0 -0.021682945032787199 -0.0023359500870426776 0 0 0 -0.0075438586834252318 -0.029804277787931269 0.0055236934138966805 0 0.0055236934138966805 -0.00054976566230814563 0 0 0 -0.0075885108625598531 -0.0026233863169816932 0.0071579464504571387 0 0.0071579464504571387 0.00028516290195388749 0 0 0 -0.0005845558537569531 0.010504525857138434 -0.011824345823702679 0 -0.011824345823702679 -0.0042184888914917895 0 0 0 0.0015715092414116602 -0.0084803759155999518 -0.019390590834952974 0 -0.019390590834952974 0.0027804318632200786 0 0 0 -0.0014249860130949657 0.0072892016858858572 -0.0094857048311111081 0 -0.0094857048311111081 0.0055984143109674145 0 0 0 0.0032219039992132936 0.037433665707304664 0.016590945005119595 0 0.016590945005119595 0.010467093237854108 0 0 0 0.011975189736289638 -0.013559840892627739 -0.011272988820365287 0 -0.011272988820365287 -0.0011599744475365714 0 0 0 -0.0036799538350410499 0.020548213784587661 -0.003468002454914086 0 -0.003468002454914086 0.00092238619363690499 0 0 0 0.0053676499945561409 0.010871064456221755 0.0061917981276252603 0 0.0061917981276252603 0.0017673806904922144 0 0 0 0.0031596112866784931 0.0045144081761110365 -0.011381965607113669 0 -0.011381965607113669 -0.0029966716320476081 0 0 0 0.0003794341360158545 -0.00051180631829316793 0.0097112209911216218 0 0.0097112209911216218 -0.00080185580016921623 0 0 0 -0.00032841552961559647 0.004847079685133461 -0.0038764412599590486 0 -0.0038764412599590486 0.0088508011000542064 0 0 0 0.0034244701962969151 0.0028468693648260393 -0.0097335724792198333 0 -0.0097335724792198333 0.010484547507272082 0 0 0 0.0033328542180245252 -0.0017878523770433197 0.022379008207051618 0 0.022379008207051618 0.0081145297332356758 0 0 0 0.0015816693390480752 0.03237749901109771 0.035017432669583334 0 0.035017432669583334 0.022132532925175807 0 0 0 0.013627507984068421 0.066834989363311656 -0.0032632280901993063 0 -0.0032632280901993063 0.019762117676047561 0 0 0 0.021649276759839811 0.0022410126861325593 -0.0011933766383890286 0 -0.0011933766383890286 0.026138035590915876 0 0 0 0.0070947620692621127 0.024232739659693522 0.0015429979788849132 0 0.0015429979788849132 -0.0039194794532971368 0 0 0 0.0050783150515991008 0.0085359806229975826 -0.0096983446567658546 0 -0.0096983446567658546 0.0047145726274196442 0 0 0 0.0033126383126043241 -0.016577478207732699 0.022943319900402492 0 0.022943319900402492 -0.00062493430336085787 0 0 0 -0.0043006031277734724 0.017829680192929687 -0.0093800312026975224 0 -0.0093800312026975224 0.017090666189183645 0 0 0 0.0087300865955283191 0.0059131007719978729 -0.0017532754317367838 0 -0.0017532754317367838 -0.0030427575029467746 0 0 0 0.00071758581726279191 0.0091540818493000171 0.0065614020492357128 0 0.0065614020492357128 -3.7188276178781732e-05 0 0 0 0.002279223393280308 -0.011871961242906848 -0.0036584567565254994 0 -0.0036584567565254994 0.023219687668186051 0 0 0 0.0028369316063197869 -0.031193834556740845 0.0021534545141415106 0 0.0021534545141415106 -0.0010309151997585329 0 0 0 -0.0080561874391248435 -0.04543908012910125 -0.0037337390901807073 0 -0.0037337390901807073 -0.0019347205782406715 0 0 0 -0.011843450176835482 0.023265049122518901 -0.0057444140448333764 0 -0.0057444140448333764 0.0037291566324793857 0 0 0 0.006748551438749549 -0.0057032241206209956 0.0075421648067435917 0 0.0075421648067435917 -0.00041029411848817615 0 0 0 -0.0015283795597772938 0.00034475016227750741 -0.01045093200915369 0 -0.01045093200915369 -0.0041567122759331408 0 0 0 -0.00095299052841390673 -0.085294962624709536 -0.0029575570168724474 0 -0.0029575570168724474 0.0032934274289087573 0 0 0 -0.020500383798950195 -0.047189159250847823 0.0017140060826448672 0 0.0017140060826448672 0.0010695142404161806 0 0 0 -0.011529911252607886 0.047564551351026177 0.0060184837026557303 0 0.0060184837026557303 0.05306199246915129 0 0 0 0.025156635955044374 0.078010465966380463 -0.0045681638618048082 0 -0.0045681638618048082 0.13923663621634058 0 0 0 0.054311775545680258 0.0049274942969956617 -0.013935902513590892 0 -0.013935902513590892 0.010137784211350448 0 0 0 0.0037663196270865326 -0.006952737359000663 -0.010820473127936728 0 -0.010820473127936728 0.0085716075650429935 0 0 0 0.00040471755151059996 0.025727491558864932 -0.014011727466972953 0 -0.014011727466972953 0.026590825616868267 0 0 0 0.013079579293933316 0.00083717215914047571 -0.0052088496322485467 0 -0.0052088496322485467 -0.028301925009696582 0 0 0 -0.006866188212638985 0.023046879771717484 -0.0026397051075391226 0 -0.0026397051075391226 -0.0063131010243794947 0 0 0 0.0041834446868344918 -0.017881798514480594 0.0024238174198871892 0 0.0024238174198871892 0.0055551877309285846 0 0 0 -0.0030816526958880111 0.0058826946369627264 -0.0042084804776711046 0 -0.0042084804776711046 -0.038889060263000541 0 0 0 -0.0082515914065093843 -0.073849527288117736 0.0024622373305153156 0 0.0024622373305153156 0.0012755134167395446 0 0 0 -0.018143503467844508 -0.0081277642554304919 0.017983613338159676 0 0.017983613338159676 -0.0012551021813718144 0 0 0 -0.0023457166092006876 0.0098569149158832525 -0.014065256583866703 0 -0.014065256583866703 0.0044450722770978945 0 0 0 0.0035754967982454255 0.017298748256578324 0.0058390573323190715 0 0.0058390573323190715 0.0073217360205304685 0 0 0 0.0061551210692772015 -0.0018347715377803608 -0.0074961931017554981 0 -0.0074961931017554981 0.0093160032329565046 0 0 0 0.0018703079237940429 0.027770886869123532 0.005387057342596621 0 0.005387057342596621 -0.00048643762927523884 0 0 0 0.0068211123099620723 0.030691558472195943 0.0070379452522267459 0 0.0070379452522267459 0.0026227953853909351 0 0 0 0.0083285884643967169 -0.0099355212742606169 -0.017243984963115598 0 -0.017243984963115598 -0.0027288697966552297 0 0 0 -0.0031660977677289599 -0.0059889528664198999 -0.011891907138415647 0 -0.011891907138415647 0.0022836480060296482 0 0 0 -0.00092632621509752822 -0.033720369358132385 -0.013525854538781799 0 -0.013525854538781799 -0.0037535985472490077 0 0 0 -0.0093684919763453393 0.0096362537617737942 0.025449576818641129 0 0.025449576818641129 0.0030767269089542193 0 0 0 0.0031782451676819479 0.0072850762038470518 0.021060355342964465 0 0.021060355342964465 0.0030279462245676458 0 0 0 0.0025782556071036189 0.0063930547820302275 0.022445929043837909 0 0.022445929043837909 0.002874507043950647 0 0 0 0.0023168904564953019 -0.0043282955724939232 -0.015842887709038411 0 -0.015842887709038411 0.0034178118870883401 0 0 0 -0.00022762092135136802 -0.0061987446420581904 -0.011582892324001615 0 -0.011582892324001615 0.0025809157869897403 0 0 0 -0.00090445721376705701 0.068809033049374788 0.01859524527241134 0 0.01859524527241134 0.02680732800695064 0 0 0 0.023904090264081371 0.020226157114778362 -0.0026893818336476373 0 -0.0026893818336476373 0.0067359512239927215 0 0 0 0.0067405270846927707 0.012956627015118819 0.0061986013882928534 0 0.0061986013882928534 0.0043161860058815796 0 0 0 0.0043182032552500993 0.017710263746792812 0.0061419158589441462 0 0.0061419158589441462 0.0024296455289968526 0 0 0 0.0050349773189474183 0.02469402793081496 -0.0043305428117589861 0 -0.0043305428117589861 0.038872092685088927 0 0 0 0.015891530153975965 -0.018391791154714711 -0.019201883019748251 0 -0.019201883019748251 -0.0020040491201528329 0 0 0 -0.0050989600687168877 0.019033026669846784 0.0026089449458337475 0 0.0026089449458337475 0.0017265020529674156 0 0 0 0.0051898821807035492 -0.04764298807620853 -0.0049552792041744394 0 -0.0049552792041744394 -0.0028717503208907204 0 0 0 -0.012628684599274822 -0.031577270636166763 0.0025342863583541521 0 0.0025342863583541521 -0.0013435014748028572 0 0 0 -0.0082301930277424128 -0.042387447650650889 -0.00010032341120765065 0 -0.00010032341120765065 0.0011822300577439826 0 0 0 -0.010301304398226713 0.017793812581779991 0.0053075653281410683 0 0.0053075653281410683 -0.00030627796976328073 0 0 0 0.0043718836530041768 0.010250345655171487 -0.0089039062237222244 0 -0.0089039062237222244 0.010172309012707353 0 0 0 0.005105663666969705 0.019428796751558473 0.0083948754063249073 0 0.0083948754063249073 0.018088189033372483 0 0 0 0.0093792464462327443 0.032051796764457005 0.020023985576882009 0 0.020023985576882009 0.0049255132518105718 0 0 0 0.0092443275040668231 0.025917677295126531 0.00078070834217057266 0 0.00078070834217057266 -0.0026042367447433423 0 0 0 0.0058283601375957988 -0.0049021921508878297 0.017339844195995768 0 0.017339844195995768 -0.0048255000793502312 0 0 0 -0.0024319230575595707 0.0098727022808369203 -0.014283925517213081 0 -0.014283925517213081 -0.00030784568923514222 0 0 0 0.0023912141479003335 0.017981092254573214 0.0056814796684097127 0 0.0056814796684097127 -0.00017720516806535302 0 0 0 0.0044509717716269669 0.012051732500141103 0.0046933887119526736 0 0.0046933887119526736 0.024032948134752562 0 0 0 0.0090211701587234166 0.022168992285192646 0.016035390513857578 0 0.016035390513857578 -0.0047257418403408025 0 0 0 0.0043608126112129053 -0.0030217512624556297 0.013273268769298463 0 0.013273268769298463 -0.012469654469955405 0 0 0 -0.0038728514331031194 -0.0024514565026889645 -0.0092947488978904758 0 -0.0092947488978904758 -0.0088826608409156016 0 0 0 -0.002833529335901197 0.013338424850236619 -0.012668222901734749 0 -0.012668222901734749 -0.0040470455015717555 0 0 0 0.0023228448371661603 -0.032477752082935435 -0.0086814217666637689 0 -0.0086814217666637689 0.010670881140801836 0 0 0 -0.005451717735533379 -0.025160682067441466 -0.00550257300139953 0 -0.00550257300139953 0.0038696070206416799 0 0 0 -0.0053227687616999655 -0.035817469283122141 -0.0059460367231713301 0 -0.0059460367231713301 0.0043311886341450279 0 0 0 -0.0078715701622442819 -0.059054821752390962 0.015690037333654913 0 0.015690037333654913 0.010749884743083693 0 0 0 -0.012076234252326845 -0.037407126852598449 0.014541209527567336 0 0.014541209527567336 0.0094910905507071819 0 0 0 -0.0069790090754727752 0.010130060678074281 0.0060943531459927459 0 0.0060943531459927459 1.8894269509183402e-05 0 0 0 0.0025372387368958658 0.10653663578692352 0.016067378485791362 0 0.016067378485791362 0.013992472603277184 0 0 0 0.030132277097550231 -0.011155669728349141 -0.011710894037011364 0 -0.011710894037011364 -0.0041221804107583679 0 0 0 -0.0038194625347768747 -0.012012589989111545 0.007575086159008787 0 0.007575086159008787 -0.001274184733386155 0 0 0 -0.0033216936806244254 0.0065400857418293603 -0.0034526569823121953 0 -0.0034526569823121953 0.019573633116789595 0 0 0 0.0065284297146547309 -0.0011300673322157994 0.0085530754391106145 0 0.0085530754391106145 -0.0008536382389894813 0 0 0 -0.00049592639280132082 0.0073239882799758793 -0.012240077392487038 0 -0.012240077392487038 -0.0074773511304658882 0 0 0 -3.8340712622497025e-05 -0.036709345918409977 -0.016841830369444755 0 -0.016841830369444755 0.00020781881103634769 0 0 0 -0.0091253817768434074 -0.036649670733913432 -0.015555760897233763 0 -0.015555760897233763 -0.0009675723463289502 0 0 0 -0.0094043107700606011 0.026657355529479565 0.020094899083467233 0 0.020094899083467233 0.0086348708235925997 0 0 0 0.0088230565882678746 -0.0046694952552381874 -0.012254645318595103 0 -0.012254645318595103 0.0011750532354748433 0 0 0 -0.00087361050494094705 0.022078591589308746 -0.0033490611050590036 0 -0.0033490611050590036 -0.057288858237231358 0 0 0 -0.0088025666619807093 0.014207945405288802 0.0013830291607944689 0 0.0013830291607944689 -0.053791789687758329 0 0 0 -0.0098959610706173817 -0.00075404089782157846 0.00653761807926833 0 0.00653761807926833 0.0016001480524112724 0 0 0 0.00021152678864742175 0.033467524796395198 -0.0073305768758414602 0 -0.0073305768758414602 0.035296156552670321 0 0 0 0.017190920337266435 0.060277282032510704 0.004346429057580925 0 0.004346429057580925 0.061851899353186246 0 0 0 0.03053229534642421 0.020748312328713735 0.0032143447073992304 0 0.0032143447073992304 -0.0010229876045156211 0 0 0 0.0049313311810495145 -0.030875726409875501 0.00017112033326357676 0 0.00017112033326357676 0.0037566516161205987 0 0 0 -0.0067797686984387151 0.0026179817493046653 0.0013558696747590637 0 0.0013558696747590637 -0.041398091761461364 0 0 0 -0.0096950275030391886 -0.036864334807763181 -0.022686379480583885 0 -0.022686379480583885 0.0028364013851851499 0 0 0 -0.0085069833556445078 0.017578606279701328 0.0053913144287833798 0 0.0053913144287833798 0.006005494408331407 0 0 0 0.0058960251720081864 -0.0098931881543868477 -0.0092137748497877064 0 -0.0092137748497877064 0.012128746765614817 0 0 0 0.00055888965280699587 -0.0060964948783082396 -0.0055827772798231479 0 -0.0055827772798231479 0.010686740596267674 0 0 0 0.0011475614294898517 -0.0021796692486557552 0.0085992452085973548 0 0.0085992452085973548 -0.00026208912509510796 0 0 0 -0.00061043959343771732 -0.022434983055757682 -0.0029664762653396348 0 -0.0029664762653396348 0.0058382946930432278 0 0 0 -0.0041491720906785962 -0.0065624932909475013 0.0068296712882132847 0 0.0068296712882132847 0.00086713153915781577 0 0 0 -0.0014238404379474205 0.011302649137514865 -0.012980336560898691 0 -0.012980336560898691 -0.0091744326738319518 0 0 0 0.00053205411592072496 -0.033711607544502448 0.0010329932462537078 0 0.0010329932462537078 0.0051405350539452388 0 0 0 -0.0071427681226392814 -0.060313812303237707 -0.0015820572099042307 0 -0.0015820572099042307 0.017631138956794024 0 0 0 -0.0106706683366109 -0.012441449673842871 -0.012422529053123139 0 -0.012422529053123139 -0.0017332854906614986 0 0 0 -0.0035436837911260923 -0.011928162396302259 0.0084607851211207837 0 0.0084607851211207837 -0.00092260785514169247 0 0 0 -0.0032126925628609884 -0.0081201454735322746 0.009362551356352139 0 0.009362551356352139 -0.00061542319144876692 0 0 0 -0.00218389216624526 -0.0030552540695428267 -0.016957840140648741 0 -0.016957840140648741 -0.0070723028447929187 0 0 0 -0.0025318892285839389 0.018910934802276215 -0.0064354371310540465 0 -0.0064354371310540465 -0.0054037315054596552 0 0 0 0.0033768008242041399 0.024380917819416047 -0.013802200523323982 0 -0.013802200523323982 0.021942878883734321 0 0 0 0.011580949175787583 0.028577349378130331 0.0026485827705701251 0 0.0026485827705701251 -0.0029615353102742364 0 0 0 0.006403953516964018 -0.0057101838617485967 0.018784601085036101 0 0.018784601085036101 -0.00028367197924117349 0 0 0 -0.0014984639602475536 0.013555918374314802 -0.01667560766769588 0 -0.01667560766769588 0.0050648067004281927 0 0 0 0.0046551812686858041 -0.0066396066577071953 0.0090742992925711991 0 0.0090742992925711991 -0.00084087198701447707 0 0 0 -0.0018701196611804211 0.00080818999775822018 -0.01463906127052278 0 -0.01463906127052278 -0.0080156597766182138 0 0 0 -0.001801867444715 0.02390236093109057 0.005127027287004652 0 0.005127027287004652 -0.00019070477592848106 0 0 0 0.0059279140387905197 0.0089319931814367953 -0.0094141422362977022 0 -0.0094141422362977022 0.015763740192229536 0 0 0 0.0061739333434165794 -0.06598311340289198 0.0073662371715932538 0 0.0073662371715932538 -3.1478797497097588e-05 0 0 0 -0.016503648050097408 0.040814690252456043 -0.0081281375887922169 0 -0.0081281375887922169 0.020929553293153824 0 0 0 0.015436060886402453 -0.015889965609061085 -0.01385332581249632 0 -0.01385332581249632 0.0032661696402110918 0 0 0 -0.0031559489922124984 0.0066808098747607857 -0.0018891293166044074 0 -0.0018891293166044074 0.02752819779228461 0 0 0 0.0085522519167613494 -0.034449128307687489 -0.011553617124712104 0 -0.011553617124712104 -0.00058429276956276088 0 0 0 -0.0087583552693125677 -0.024438953988090248 0.0056968030747184687 0 0.0056968030747184687 0.00053369502465348134 0 0 0 -0.0059763147408591934 0.037741067273301364 0.0010531364127146781 0 0.0010531364127146781 -0.0015800601213789255 0 0 0 0.0090402517879806139 0.02084182483943078 0.0045267347186035405 0 0.0045267347186035405 -0.00067700552915272126 0 0 0 0.0050412048275695195 0.0040760860976574304 -0.009942876609958122 0 -0.009942876609958122 0.0091164354695559835 0 0 0 0.0032981303918033639 -0.034657815704255614 -0.011774426670256247 0 -0.011774426670256247 -0.00041696907623598248 0 0 0 -0.0087686961951228964 -0.025024238505977688 0.0061013127245303387 0 0.0061013127245303387 6.9852239489066187e-05 0 0 0 -0.0062385965666221597 0.017867247919483194 0.0069467777829502163 0 0.0069467777829502163 0.026902035844378346 0 0 0 0.011192320940965382 -0.0015095330137063767 -0.014510855335425926 0 -0.014510855335425926 0.00088884659654464571 0 0 0 -0.00015517160429046051 0.0066947566140513892 0.021877627350517376 0 0.021877627350517376 0.0038198906529256504 0 0 0 0.0026286618167441489 -0.024737672189157157 0.0064818258966294062 0 0.0064818258966294062 0.0041115855392227854 0 0 0 -0.0051565216624836017 -0.016851942113675591 0.0026559454411284114 0 0.0026559454411284114 0.0041281318152471156 0 0 0 -0.0031809525746071244 0.015517567965066582 -0.0011907842140667715 0 -0.0011907842140667715 0.0085642366748204454 0 0 0 0.0060204511599717568 0.011299046208577808 -0.00055611951449409391 0 -0.00055611951449409391 0.012047207217218341 0 0 0 0.005836563356449039 0.010741709341809959 -0.0092152977750214644 0 -0.0092152977750214644 -0.0054799087728010926 0 0 0 0.0013154501422522145 0.013339131463289348 -0.0075285077966482632 0 -0.0075285077966482632 -0.0038846105864387588 0 0 0 0.0023636302192126448 0.0026503132732394134 0.0069030703380569304 0 0.0069030703380569304 -0.00044959938631158186 0 0 0 0.00055017847173195744 0.0024177666880753311 0.0086822644915264813 0 0.0086822644915264813 -0.00041093860238656729 0 0 0 0.00050170702142219095 0.006591797480467454 -0.0081106524011730075 0 -0.0081106524011730075 0.0037144700251892648 0 0 0 0.0025765668764141936 0.013211155125653027 0.0039335005851518137 0 0.0039335005851518137 0.029908172839185978 0 0 0 0.010779831991209752 0.032715395103082245 0.0039944409925936654 0 0.0039944409925936654 -0.0012098840937469924 0 0 0 0.0078763777523338102 0.028642851523138502 0.020823955162550728 0 0.020823955162550728 0.0052018962906545951 0 0 0 0.0084611869534482187 -0.014108284284587103 -0.012270935555952003 0 -0.012270935555952003 0.0012764590919596142 0 0 0 -0.0032079562981568444 0.032341672353769835 0.024869642963810779 0 0.024869642963810779 0.0045946123235691694 0 0 0 0.0092340711693348343 0.035236761415866832 -0.0080831021541028086 0 -0.0080831021541028086 -0.0043307205393339002 0 0 0 0.0077265102191332279 0.039248750595029462 -0.0033093998520460268 0 -0.0033093998520460268 0.0014394673227442955 0 0 0 0.010172054479443445 -0.007059563138508973 0.020829949218964083 0 0.020829949218964083 0.0025555789174698251 0 0 0 -0.0011259960552597592 0.0086322817798953344 0.025909274870061672 0 0.025909274870061672 0.0031738967470335 0 0 0 0.0029515446317321947 -0.016209666460847844 -0.011114649686890576 0 -0.011114649686890576 -0.00092746803578738074 0 0 0 -0.0042842836241588061 -0.015168295530459234 0.0068214534738725557 0 0.0068214534738725557 -0.00023480296463972497 0 0 0 -0.0038507746237747388 0.0097756691815353847 -0.0096782681422939582 0 -0.0096782681422939582 0.0087260866913331236 0 0 0 0.0046254389682170993 0.050853621699186807 -0.0072155029990724128 0 -0.0072155029990724128 0.034581651937687585 0 0 0 0.021358818409218577 0.083204438539049463 0.0059054853573603794 0 0.0059054853573603794 0.063133259485085469 0 0 0 0.036584424506033775 0.013288779843189281 0.0043990056717323851 0 0.0043990056717323851 0.01758991997226576 0 0 0 0.0077196749538637607 0.036358112449625474 0.0062449519324921376 0 0.0062449519324921376 5.7294215544853935e-05 0 0 0 0.0091038516662925832 0.001189743646180158 -0.0048955710648898726 0 -0.0048955710648898726 -0.013081331812731078 0 0 0 -0.0029728970416377232 0.005822877383504288 -0.0030859901756579711 0 -0.0030859901756579711 -0.010456695793349291 0 0 0 -0.0011584546024612508 0.013704148885054349 -0.0030641094112696457 0 -0.0030641094112696457 0.0026329376464312437 0 0 0 0.0040842716328714085 -0.016524231515395629 0.012785200036159683 0 0.012785200036159683 -0.0040102605708622341 0 0 0 -0.0051336230215645179 0.023653111807809726 -0.011116721181393174 0 -0.011116721181393174 0.0060872561617858756 0 0 0 0.0074350919923989039 0.025858580296902411 -0.0078887736079288617 0 -0.0078887736079288617 -0.015706430330197363 0 0 0 0.002538037491676276 0.042362010817986628 0.0081766862540728347 0 0.0081766862540728347 -0.0083534684139712212 0 0 0 0.008502135601003824 0.023262912820214088 0.018071224177198308 0 0.018071224177198308 0.0010642203419082286 0 0 0 0.0060817832905304403 -0.0060266686096749067 -0.012395351889844197 0 -0.012395351889844197 -0.003212921938103741 0 0 0 -0.0023098976369446411 0.023105608378009471 0.0035658563359666768 0 0.0035658563359666768 -0.002625321566777538 0 0 0 0.0051200717028079866 0.026925130347180637 0.0046180014371227148 0 0.0046180014371227148 -0.00074574704183244175 0 0 0 0.0065448458263370497 0.022552151436502132 0.023166245680089848 0 0.023166245680089848 0.0073407744577913547 0 0 0 0.0074732314735734828 -0.0070810471593288904 -0.014248899789286285 0 -0.014248899789286285 0.0012864804199064217 0 0 0 -0.0014486416848557004 -0.0052768657521306307 -0.012247452878799433 0 -0.012247452878799433 -0.0031972958925336036 0 0 0 -0.0021185404111660582 -0.0080979476775075339 0.0085854249283024986 0 0.0085854249283024986 -0.0012377579639010934 0 0 0 -0.0023339264103521551 0.039304189969633585 0.022090671132868972 0 0.022090671132868972 0.0087868604216838619 0 0 0 0.012022762597829306 -0.023096888870996805 -0.010714526223063219 0 -0.010714526223063219 -0.0029068133095522253 0 0 0 -0.0065009255451372577 -0.018692324571805682 0.0065575636612858791 0 0.0065575636612858791 -0.0013010433256078133 0 0 0 -0.0049983419743533739 -0.029179527249902693 0.0079908892663127506 0 0.0079908892663127506 -0.0033046664710485452 0 0 0 -0.0081210484302378649 0.033670565608918013 -0.0078655611451254326 0 -0.0078655611451254326 0.02535496676382798 0 0 0 0.014756383093186554 0.014338040562787311 -0.015679479729566924 0 -0.015679479729566924 0.032925785226283533 0 0 0 0.01181595644726771 -0.0064617151863035488 -0.012056416701514125 0 -0.012056416701514125 0.030880578180771334 0 0 0 0.0061047157486169429 -0.0083510746365302313 -0.010538293807771472 0 -0.010538293807771472 0.0042963939857374456 0 0 0 -0.0010136701626982103 0.027556692669045535 -0.0079841762545520417 0 -0.0079841762545520417 0.0031607402616199431 0 0 0 0.0076793582326663834 -0.0028968783762658989 0.025575124117818121 0 0.025575124117818121 0.0080081243260209378 0 0 0 0.0012778114874388291 -0.031969053000362568 0.0085743017850223036 0 0.0085743017850223036 0.011256083189878696 0 0 0 -0.0051782424526209958 -0.021882585462182247 -0.0024083095328096896 0 -0.0024083095328096896 0.0044929843135196323 0 0 0 -0.0043474002871656814 0.027850753402628353 -0.018298545157048429 0 -0.018298545157048429 0.01622865217126862 0 0 0 0.011019851393474223 0.026667765334155394 -0.0053375756676996289 0 -0.0053375756676996289 0.015976948168988009 0 0 0 0.010661178375785854 0.047702925176216937 0.0006139503268140778 0 0.0006139503268140778 0.026199872729040452 0 0 0 0.018475699476314333 0.01087590855955704 -0.0043551932811892093 0 -0.0043551932811892093 0.022819010817036814 0 0 0 0.0084237298441484608 0.0077667035050698816 -0.0045870195676457459 0 -0.0045870195676457459 0.02064330272857709 0 0 0 0.0071025015584117376 0.026222033899673938 0.013327438850897729 0 0.013327438850897729 0.039625485718675461 0 0 0 0.016461879904587348 0.022596446081866662 -0.0075125132411984485 0 -0.0075125132411984485 0.02063425857333534 0 0 0 0.010807676163800489 0.047541887294685559 0.010817608803258549 0 0.010817608803258549 0.014402660903678477 0 0 0 0.015486137049590898 -0.011859477862522061 -0.0088261030253064532 0 -0.0088261030253064532 -0.0029709469242646946 0 0 0 -0.0037076061966967444 0.018800263578244509 0.0091759511928463343 0 0.0091759511928463343 0.023637310753907015 0 0 0 0.01060939358303788 0.025393884920482494 0.00078831675386495381 0 0.00078831675386495381 0.0075892936882289708 0 0 0 0.0082457946521778906 0.0061884808542113229 -0.0050463589907991102 0 -0.0050463589907991102 -0.0065548870024614292 0 0 0 -9.1601537062543925e-05 0.0272865635040682 0.011420800177234014 0 0.011420800177234014 0.014708157467473018 0 0 0 0.010498680242885298 0.021463288625767449 -0.0036845685730519488 0 -0.0036845685730519488 -0.0051422428665519535 0 0 0 0.0040802614398038738 -0.056715641896155217 -0.0034201834151406465 0 -0.0034201834151406465 0.00095152218995864235 0 0 0 -0.013941029926549137 0.011095861343738966 -0.0096390883200106782 0 -0.0096390883200106782 -0.0075757399382607102 0 0 0 0.00088003035136956405 0.030832071331237575 0.0040347982289892512 0 0.0040347982289892512 -0.001562288565541017 0 0 0 0.007317445691424139 0.01842643358149422 0.0085870223338319895 0 0.0085870223338319895 0.035425382557314644 0 0 0 0.013462954034702213 -0.098780237851407382 0.0075235976704621189 0 0.0075235976704621189 0.0015832688961534558 0 0 0 -0.024299242238813523 0.018167381268519727 0.0046677244563599722 0 0.0046677244563599722 0.00039906840186254696 0 0 0 0.0046416124175955673 0.030503745913531867 -0.0027312574911249245 0 -0.0027312574911249245 -0.0063684673674186277 0 0 0 0.0060338196365283068 0.0068990761543761894 -0.01112955687926126 0 -0.01112955687926126 0.0070726845377968722 0 0 0 0.003492940173043281 -0.026463611184571523 -0.010297972143900047 0 -0.010297972143900047 0.0018145079407746456 0 0 0 -0.0061622758109491915 0.019180778318742455 -0.0096457025759266249 0 -0.0096457025759266249 -0.0080851950272087317 0 0 0 0.0027738958228834308 0.022816221804546462 0.0027885482733101671 0 0.0027885482733101671 -0.00012526511201443186 0 0 0 0.0056727391731330092 0.028787097125279416 -0.0065993704813701939 0 -0.0065993704813701939 -0.0044727915572450204 0 0 0 0.0060785763920085988 0.0067315119322228709 -0.011131895880675674 0 -0.011131895880675674 0.008851565493447261 0 0 0 0.0038957693564175347 0.013578905000113245 -0.0071227367421499155 0 -0.0071227367421499155 0.0089379841451008302 0 0 0 0.0056292222863035535 -0.012751931901531162 -0.022043947004247826 0 -0.022043947004247826 -0.0043520024841889673 0 0 0 -0.0042759835964300327 0.065764309652515576 0.005537777690300727 0 0.005537777690300727 0.048449427133385459 0 0 0 0.028553434196475061 -0.019432381707655037 -0.0050779216870122657 0 -0.0050779216870122657 -0.0022350187035497238 0 0 0 -0.0054168501028012336 0.026510324389295823 0.0019670427234118634 0 0.0019670427234118634 -0.0038123956210275407 0 0 0 0.0056744821920670704 0.029249374809637501 0.0028036398364471847 0 0.0028036398364471847 -0.0039792217069185521 0 0 0 0.0063175382756797483 -0.016143368101162237 0.013735909509305422 0 0.013735909509305422 0.00038668311157774582 0 0 0 -0.0039391712473961782 0.019658888809323427 -0.014670009514505228 0 -0.014670009514505228 0.015799940559106052 0 0 0 0.0088647073421073141 0.027185985657795883 0.0075439904533836253 0 0.0075439904533836253 0.0039374963793069109 0 0 0 0.007780870509275702 0.024143560138567631 0.0068720025712827714 0 0.0068720025712827714 0.003449121916835253 0 0 0 0.0068981705138507245 0.025616271078606791 0.0037279418947387963 0 0.0037279418947387963 -0.0027552366016215519 0 0 0 0.0057152586192463131 -0.017758330603472799 0.0069464390578569974 0 0.0069464390578569974 -8.1539380428052172e-05 0 0 0 -0.0044599674959752093 0.0036722247064045373 0.0041885526735398896 0 0.0041885526735398896 0.006071848504482634 0 0 0 0.0024360183027217937 0.013196416423839299 0.0014946498300534112 0 0.0014946498300534112 0.0075885588155118547 0 0 0 0.0051962438098377851 -0.021181815559877547 0.0081206384851583539 0 0.0081206384851583539 -0.00033510562830364916 0 0 0 -0.0053792302970452951 0.071915754057342837 0.038794762710711528 0 0.038794762710711528 0.03009432967518999 0 0 0 0.025502520933133196 0.0075382587539039037 0.020409507760365611 0 0.020409507760365611 5.4298958322540614e-05 0 0 0 0.001898139428056389 0.00042007378918718086 -0.014566941232371997 0 -0.014566941232371997 0.000146038690756356 0 0 0 0.00014152811998580095 0.01403516602966667 0.0056050085169321185 0 0.0056050085169321185 0.0042700973747738513 0 0 0 0.0045763158511101278 0.019882566741158004 0.0036836785536970632 0 0.0036836785536970632 0.0029174652470754453 0 0 0 0.0057000079970583612 0.044598277675768364 -0.0054809903677417492 0 -0.0054809903677417492 0.004045514654536779 0 0 0 0.012160948082576291 0.020429766628555696 4.0901111765169473e-05 0 4.0901111765169473e-05 0.0038139271987347456 0 0 0 0.0060609234568226311 0.010582660094055368 -0.0062041795369345287 0 -0.0062041795369345287 0.0023898801882191179 0 0 0 0.0032431350705686424 0.020969591455896091 0.0060664999837836504 0 0.0060664999837836504 0.0010619555910194867 0 0 0 0.0055078867617288935 -0.032883425272845074 -0.0044104934337395318 0 -0.0044104934337395318 0.001078442015475134 0 0 0 -0.0079512458143424503 -0.02938369492489093 -0.0093917635278085165 0 -0.0093917635278085165 0.0022817197405540224 0 0 0 -0.0067754937960842199 0.020755478153000741 0.0012503322696465827 0 0.0012503322696465827 0.0069136075531758025 0 0 0 0.006917271426544136 -0.042168707195481658 0.022145464016161243 0 0.022145464016161243 0.0035847996247151404 0 0 0 -0.0096459768926916434 -0.053160331699707852 0.011756122096854144 0 0.011756122096854144 0.00094268369844097144 0 0 0 -0.013054412000316762 0.022064690201268083 -0.0038124605418504015 0 -0.0038124605418504015 0.0084045391182514528 0 0 0 0.0076173073298798633 0.037907803203471258 0.0001260289974312212 0 0.0001260289974312212 0.015259088237563834 0 0 0 0.013291722860258731 0.036270807276659378 -0.01508354767615047 0 -0.01508354767615047 -0.00063534418075176374 0 0 0 0.0089088657739769053 0.0062029842487865972 -0.0064789430327791553 0 -0.0064789430327791553 -0.0049203658025506747 0 0 0 0.00032065461155891817 0.055402314589923674 0.021636156283099971 0 0.021636156283099971 0.04519942557966819 0 0 0 0.025150435042397959 0.023616566371876972 -0.0078821522666565648 0 -0.0078821522666565648 -0.0059358489863557797 0 0 0 0.0044201793463802984 0.016844557157462352 -0.014904528135706599 0 -0.014904528135706599 0.012029766160099771 0 0 0 0.0072185808293905376 0.077784476285998744 0.015536403554300582 0 0.015536403554300582 0.010508029908753991 0 0 0 0.022073126548688149 0.014807542933924136 0.004481216343678103 0 0.004481216343678103 0.004307365323162643 0 0 0 0.004778727064271699 0.0078729419640827247 0.020888633844005744 0 0.020888633844005744 0.00087636361322673828 0 0 0 0.0021873263943273935 0.00048862891852374801 -0.014749099224357298 0 -0.014749099224357298 0.00042465010663983449 0 0 0 0.00022831975629089563 0.014367096250779291 0.00539118974290634 0 0.00539118974290634 0.00024513345684339452 0 0 0 0.003653057426905677 0.0018944205829321235 -0.0050489556257773873 0 -0.0050489556257773873 0.027817065869821966 0 0 0 0.0074278716131885268 0.042402154592899199 0.018226987886738266 0 0.018226987886738266 0.02458417916570621 0 0 0 0.016746583439651297 -0.011412434624340551 -0.0091176999692295091 0 -0.0091176999692295091 0.00087223741068875871 0 0 0 -0.0026350493034129063 -0.053487842380940807 0.0021230432642383845 0 0.0021230432642383845 0.00084626135434355543 0 0 0 -0.013160395256649308 -0.09444196779092251 -0.0056703624043911941 0 -0.0056703624043911941 0.00088747124454777865 0 0 0 -0.023388624136593674 0.026150356335949587 -0.0014139339619560418 0 -0.0014139339619560418 0.044473288025964064 0 0 0 0.017655911090478399 -0.0088129760929918817 0.0094337280790974636 0 0.0094337280790974636 0.00017902491079430094 0 0 0 -0.0021584877955493961 0.054924782085053449 -0.01407894243981056 0 -0.01407894243981056 0.015650813510920954 0 0 0 0.0176438988989936 0.084885854677626799 -0.00058386178279531964 0 -0.00058386178279531964 0.039660373451581021 0 0 0 0.031136557032301948 0.12864588287375026 -0.00076406997700129153 0 -0.00076406997700129153 0.073620436387928256 0 0 0 0.050566579815419677 0.083346773870450919 0.018874828742282579 0 0.018874828742282579 0.04040458222894483 0 0 0 0.030937839024848979 0.015065980789227294 -0.0066750238419492069 0 -0.0066750238419492069 -0.010238027643725306 0 0 0 0.0012069882863754641 0.028561806241499621 0.0049065118800721425 0 0.0049065118800721425 -0.006171199335182842 0 0 0 0.0055976517265792225 0.05404352259823203 0.0046893510347414402 0 0.0046893510347414402 0.051384440760366801 0 0 0 0.026356990839649708 0.023528727977503744 -0.0084163764429776855 0 -0.0084163764429776855 0.025678885269744489 0 0 0 0.012301903311812024 0.015362319893446386 0.0033133084440722382 0 0.0033133084440722382 0.021225802671462637 0 0 0 0.0091470306412272939 0.028098800282053027 0.0061765363248205141 0 0.0061765363248205141 0.00010178733458499067 0 0 0 0.0070501469041592824 -0.0014767861627271728 0.011903615000773249 0 0.011903615000773249 -0.0054555776231310915 0 0 0 -0.0017330909464645661 -0.0014483164061650511 -0.0080576326041746915 0 -0.0080576326041746915 -0.0038192005132446916 0 0 0 -0.0013168792298523524 0.015789747248306285 -0.0072948656242104448 0 -0.0072948656242104448 -0.0039456853158919003 0 0 0 0.0029610154831035684 0.020228235556405225 0.0056692331048060311 0 0.0056692331048060311 0.00090177528455906431 0 0 0 0.005282502710241074 0.051410101651705647 0.01584854095306909 0 0.01584854095306909 0.014877579082768155 0 0 0 0.016571920183618277 -0.0033832464044182553 -0.0077635975070768914 0 -0.0077635975070768914 -0.00034186565367352872 0 0 0 -0.00093127801452300152 0.013198527877586377 0.0014810519701204941 0 0.0014810519701204941 0.036994498496846648 0 0 0 0.01254825659360825 -0.0050233474580501092 0.011582179363766265 0 0.011582179363766265 -0.00062327377976778564 0 0 0 -0.0014116553094545292 0.030804822369574381 -0.013938874632764775 0 -0.013938874632764775 0.0076152755970622099 0 0 0 0.0096050244916592309 0.024280610612486125 -0.010016239137070504 0 -0.010016239137070504 0.011276279798139111 0 0 0 0.0088892226026562882 0.0075683587309589156 -0.010144950822417412 0 -0.010144950822417412 0.0064592820550265356 0 0 0 0.0035069101964963628 0.0090088730498757569 -0.0088107334009528415 0 -0.0088107334009528415 0.010018448500807187 0 0 0 0.0047568303876707324 0.023561445657336998 -0.009970794351662841 0 -0.009970794351662841 -0.0051908520894499641 0 0 0 0.0045926483919717601 0.020629359325858132 0.031533505847063492 0 0.031533505847063492 0.009247192856954245 0 0 0 0.0074691380457030943 -0.04058921045379707 -0.0028726421084839804 0 -0.0028726421084839804 0.00043875761946307601 0 0 0 -0.010037613208583512 0.048840132717369727 -0.015602827558573753 0 -0.015602827558573753 0.012256172425750753 0 0 0 0.015274076285780116 0.027953758014320915 -0.011176218333416199 0 -0.011176218333416199 0.0064050466744581466 0 0 0 0.0085897011721947688 0.034568682901004212 0.010396441519542381 0 0.010396441519542381 0.0071336011019506908 0 0 0 0.010425571000738723 0.0083679627204217844 -0.0041156418468234132 0 -0.0041156418468234132 0.0016209099013163586 0 0 0 0.0024972181554345219 0.012833794719392666 -0.0026320823027838787 0 -0.0026320823027838787 -0.00070182294047416161 0 0 0 0.0030329929447296122 -0.12580943955258078 -0.00083314351059433597 0 -0.00083314351059433597 0.002929438453844746 0 0 0 -0.030720000274684023 -0.06634300024782587 0.00053387249156481382 0 0.00053387249156481382 0.0012070979071698296 0 0 0 -0.016283975585164007 0.016731438600388365 -0.0054749343569993562 0 -0.0054749343569993562 0.0055756090336821634 0 0 0 0.0055767619085176322 0.0079922089412001358 0.0072006218846800245 0 0.0072006218846800245 0.0026641137294078198 0 0 0 0.0026640806676519885 0.039277747347784712 0.00076470484818345376 0 0.00076470484818345376 -0.0013370068134529664 0 0 0 0.0094851851335829313 0.030357715117198307 0.0095567473606044517 0 0.0095567473606044517 0.0079900119580223437 0 0 0 0.0095869317688051688 0.031996267682953147 0.0045676795197877864 0 0.0045676795197877864 -0.00021369229677755059 0 0 0 0.0079456438465439049 -0.025975625217684276 -0.013578999666375671 0 -0.013578999666375671 -0.0032000987053612956 0 0 0 -0.0072939309807613945 -0.020751748613273901 0.0073395728835757897 0 0.0073395728835757897 -0.00039461821491366261 0 0 0 -0.0052865917070468891 0.070301888600345697 0.012287244969779093 0 0.012287244969779093 0.012149048261515638 0 0 0 0.020612734215465389 -0.015494980321068164 -0.013197229261541425 0 -0.013197229261541425 -0.00098562848721028135 0 0 0 -0.004120152202069613 -0.0150049237727642 0.0075920844351047593 0 0.0075920844351047593 0.00041431523642750101 0 0 0 -0.0036476521340841738 0.0080567721308955342 -0.008741513961076211 0 -0.008741513961076211 0.0028980494815760149 0 0 0 0.0027387054031179359 0.063582712179238554 0.039023676051941958 0 0.039023676051941958 0.027494245967385256 0 0 0 0.022769239536655939 0.036562742484659988 0.0027402997576139107 0 0.0027402997576139107 -0.0023579287518452931 0 0 0 0.0085512034332036746 0.02129838350063927 0.00074640180589853611 0 0.00074640180589853611 0.0084042859347392418 0 0 0 0.0074256673588446176 0.0023198827345526189 -0.0097667314162414726 0 -0.0097667314162414726 0.00077410858099147403 0 0 0 0.00077349782888602335 -0.0031242116365534614 0.0080054756157836443 0 0.0080054756157836443 -0.0010398243424041284 0 0 0 -0.0010410089947393974 -0.042681805815910204 0.0031597352307208598 0 0.0031597352307208598 -0.00038185107310854602 0 0 0 -0.010765914222254687 -0.067655858581624748 -0.0066046808790194943 0 -0.0066046808790194943 -0.00074450005579039524 0 0 0 -0.017100089659353786 -0.016110501510192672 0.00082930988578594489 0 0.00082930988578594489 0.010576567829730155 0 0 0 -0.0013834834201156346 0.039678867978448523 -0.0070890748223388644 0 -0.0070890748223388644 0.013664494995256682 0 0 0 0.013335840743426308 0.0055924945482793828 -0.0024855659634715928 0 -0.0024855659634715928 0.026338513261009083 0 0 0 0.0079827519523221202 0.024555314395747315 0.0096026571653808797 0 0.0096026571653808797 0.014340085472953616 0 0 0 0.009723849967175232 0.018801645801988592 0.0070612010413420162 0 0.0070612010413420162 0.016276916939648629 0 0 0 0.0087696406854093131 0.043222279828897293 0.0083555098902045599 0 0.0083555098902045599 0.0096203741314094052 0 0 0 0.013210663490076692 0.050804237838471496 0.0054505659840494679 0 0.0054505659840494679 0.0047355954545408464 0 0 0 0.013884958323253101 0.014019756771159325 0.00034279728193231662 0 0.00034279728193231662 -0.015162902401753109 0 0 0 -0.00028578640764842511 -0.00086168920369833132 -0.0082697827428038911 0 -0.0082697827428038911 0.013319285057812935 0 0 0 0.0031143989635286397 0.00027022309342824083 -0.012103514892187871 0 -0.012103514892187871 0.028804002645890142 0 0 0 0.0072685564348295983 0.022838360321608561 -0.022280101021396666 0 -0.022280101021396666 0.04761367622642769 0 0 0 0.01761300913700907 -0.036996611971244917 0.0031947274207134117 0 0.0031947274207134117 -0.00012220716279742055 0 0 0 -0.0092797047835105843 -0.055532824801828154 -0.005915542624528358 0 -0.005915542624528358 -0.00047943921432899717 0 0 0 -0.014003066004039284 0.0037439077856771578 -0.00084285319043536644 0 -0.00084285319043536644 -0.063384329335163539 0 0 0 -0.014910105387371553 0.030583454641106324 -0.022959660191286511 0 -0.022959660191286511 0.032153732048318784 0 0 0 0.015684296672356268 0.029260080048016206 0.0053757273856731361 0 0.0053757273856731361 -0.00030507625207456222 0 0 0 0.0072387509489854193 -0.013623684810314994 -0.013684225849539529 0 -0.013684225849539529 -0.002911361798207196 0 0 0 -0.0041337616521305472 -0.013225290110578675 0.0085463537652108266 0 0.0085463537652108266 -0.00033702650570992948 0 0 0 -0.0033905791540721486 0.01180661683109374 0.0056663801451595861 0 0.0056663801451595861 0.00056265121683779853 0 0 0 0.0030923170119828876 0.0081758014759481662 -0.00035978259591375791 0 -0.00035978259591375791 0.028750365816480116 0 0 0 0.0092315418231070784 0.025956084350773151 0.0004778745935214157 0 0.0004778745935214157 0.010570228687281247 0 0 0 0.0091315782595136341 0.010019380836484248 0.0072074997438641292 0 0.0072074997438641292 0.00099644765552156164 0 0 0 0.0027539571230014524 -0.040683461621910555 0.0081132262536356414 0 0.0081132262536356414 0.0012355538098125507 0 0 0 -0.0098619769530245982 0.029200296531972481 -0.010440830240097509 0 -0.010440830240097509 0.023200621020308843 0 0 0 0.013100229388070317 0.030833759834031305 -0.0085706292497966241 0 -0.0085706292497966241 0.019362065986469279 0 0 0 0.012548956455125215 0.015086111468652661 -0.0095364579240352146 0 -0.0095364579240352146 0.022804255401261894 0 0 0 0.009472591717478638 0.0051432762566831214 -0.0087425313697426094 0 -0.0087425313697426094 0.015389744339469991 0 0 0 0.0051332551490382711 0.014559252121244173 0.003206986013348961 0 0.003206986013348961 0.011664317006144179 0 0 0 0.0065558922818470897 0.0097657283034940055 -0.00033643626835592197 0 -0.00033643626835592197 0.027941401085290675 0 0 0 0.009426782347196171 0.084030998155668613 0.01426894922942834 0 0.01426894922942834 0.057451643297205646 0 0 0 0.035370660363218454 -0.0004216271650311354 -0.0020287780637855413 0 -0.0020287780637855413 0.00087936838484026225 0 0 0 0.00011443530495225396 0.05286316981648026 -0.012345788179060513 0 -0.012345788179060513 0.031319708625224263 0 0 0 0.021045719610426061 -0.00062597714589784914 0.0032291965475232942 0 0.0032291965475232942 0.0012380493729313713 0 0 0 0.00015301805675838054 0.016710546631709882 0.0047098203636591653 0 0.0047098203636591653 0.012523772456227898 0 0 0 0.0073085797719844477 0.014590513677580611 0.0031297541308286667 0 0.0031297541308286667 0.0084683345378302397 0 0 0 0.0057647120538527139 0.012739612873101382 -0.0012999774408402427 0 -0.0012999774408402427 0.01140407849524866 0 0 0 0.0060359228420875065 -0.049403081609287434 -0.011939546353264848 0 -0.011939546353264848 0.00023112654043923667 0 0 0 -0.012292988767212057 -0.061208933487265763 -0.015887029678009184 0 -0.015887029678009184 0.0005473825476303637 0 0 0 -0.01516538773490885 0.02050503547901282 -0.018391276597731786 0 -0.018391276597731786 -0.003702253888660096 0 0 0 0.0042006953975881863 0.0030918462125818068 0.0042594892949292529 0 0.0042594892949292529 0.003052064269224438 0 0 0 0.0015359776204515625 0.02207712291003144 -0.013861284996559517 0 -0.013861284996559517 0.026514325626050848 0 0 0 0.012147862134020571 -0.0116810562755878 0.0087947757945569284 0 0.0087947757945569284 -0.00062010084339195366 0 0 0 -0.0030752892797449392 -0.0059642535995743096 0.0081264653708279164 0 0.0081264653708279164 -0.00093395295294764619 0 0 0 -0.0017245516381304907 -7.6088247584447932e-06 -0.012467731351060466 0 -0.012467731351060466 -0.0042137114969923589 0 0 0 -0.0010553300804376983 -0.01009570557684784 -0.014273866479553083 0 -0.014273866479553083 -0.0053380191988740763 0 0 0 -0.0038584311939304748 -0.029266542163388809 -0.0080160006489092273 0 -0.0080160006489092273 0.0012102694341902254 0 0 0 -0.0070140681822996043 -0.017237813114215905 -0.0096624002545718686 0 -0.0096624002545718686 0.001461256556574364 0 0 0 -0.0039441391394103853 0.01643723501023826 -0.0059994007220940801 0 -0.0059994007220940801 -0.0011243101624530188 0 0 0 0.0038282312119463113 0.01592631493843711 -0.0060476049757051519 0 -0.0060476049757051519 -0.0041947301331628668 0 0 0 0.002932896201318562 0.0076109927896416026 0.0080247638182644934 0 0.0080247638182644934 -5.767041473508927e-05 0 0 0 0.0018883305937266275 0.0062398906559741662 0.0068901217647328369 0 0.0068901217647328369 0.00028152464136304428 0 0 0 0.0016303538243343033 0.019853553979698124 0.020781050493878794 0 0.020781050493878794 0.0020018699281738606 0 0 0 0.0054638559769678574 -0.0069967927744902791 -0.013815489746441978 0 -0.013815489746441978 0.00093705338578353725 0 0 0 -0.0015149348471767965 -0.0013465143152627951 0.0068885376862219856 0 0.0068885376862219856 -0.00022295191117605723 0 0 0 -0.00039236655660971481 0.011991471633286366 -0.010399719007851669 0 -0.010399719007851669 -0.0053723971074737115 0 0 0 0.0016547686314531684 0.010481072052381963 0.0018103079481689047 0 0.0018103079481689047 0.004789136470829891 0 0 0 0.0038175521308029649 -0.0080238626664174764 0.0074045089553730382 0 0.0074045089553730382 0.00017761303650907362 0 0 0 -0.0019615624074771024 -0.0015827546892848328 -0.01308363978743728 0 -0.01308363978743728 -0.0029437408710826091 0 0 0 -0.0011316238900918631 -0.011904741809199943 -0.006327111777972072 0 -0.006327111777972072 0.044582396051387779 0 0 0 0.008169413560546953 0.012677257126679289 0.0024421616133884099 0 0.0024421616133884099 0.0063859493074676036 0 0 0 0.0047658016085367211 -0.0057866039879954792 -0.010412275755637398 0 -0.010412275755637398 -0.0019335583827398634 0 0 0 -0.0019300405926838359 -0.0082059706921410961 0.0076689063510808576 0 0.0076689063510808576 -0.0027378303780524671 0 0 0 -0.002735950267548391 0.052282296754323825 0.0020622483813577323 0 0.0020622483813577323 0.011488152674219709 0 0 0 0.015942612357135892 0.0012445091147982867 -0.0018327905246741105 0 -0.0018327905246741105 -0.041120042184509487 0 0 0 -0.0099688832674277861 -0.0042229302902315321 0.0064402023871507246 0 0.0064402023871507246 0.00352812087378967 0 0 0 -0.00017370235411046705 0.036310247746850183 -0.011406441732272066 0 -0.011406441732272066 0.0077242136671830663 0 0 0 0.011008615353508305 0.016663896633884519 0.0049179373224329664 0 0.0049179373224329664 0.012780282497237103 0 0 0 0.0073610447827804071 0.010793211551488952 -0.0009406596311834982 0 -0.0009406596311834982 0.013869029510406451 0 0 0 0.0061655602654738526 -0.031324064115330438 -0.0095927682001552689 0 -0.0095927682001552689 -0.00084659465437171046 0 0 0 -0.0080426646924255333 -0.023169449589091319 0.0055708163070044576 0 0.0055708163070044576 -0.00027333649564461118 0 0 0 -0.00586069652118398 0.023904437706525228 -0.0045635556490378482 0 -0.0045635556490378482 0.01528465365822481 0 0 0 0.0097972728411875112 0.020255585082834877 0.0067948240067582317 0 0.0067948240067582317 0.0081592790118360271 0 0 0 0.0071037160236677218 0.0092594931944359957 0.0025667691965717879 0 0.0025667691965717879 0.003878782791822786 0 0 0 0.003284568996564693 -0.025972886695027127 0.0043104665422746555 0 0.0043104665422746555 0.0015378033906632768 0 0 0 -0.0061087708260909581 -0.053564703567969996 0.0076161162138351779 0 0.0076161162138351779 0.0014833561504690174 0 0 0 -0.013020336854375369 0.0023915377879852179 0.0042221548335173026 0 0.0042221548335173026 0.010298909345744484 0 0 0 0.0031726117834324288 0.010743492804522504 -0.0066795536993444829 0 -0.0066795536993444829 0.011741077537761935 0 0 0 0.005621142585571115 0.003904361079528791 0.0048905646358149008 0 0.0048905646358149008 0.0034306762765582526 0 0 0 0.001833759339021762 0.020548584732258408 0.0071425352761905307 0 0.0071425352761905307 0.010328552935378654 0 0 0 0.0077192844169092622 0.0026569400049302437 -0.010847312196399866 0 -0.010847312196399866 0.0080671406951023372 0 0 0 0.0026810201750081357 0.067464710699863067 0.0039783832245092951 0 0.0039783832245092951 0.036169863181283526 0 0 0 0.025908643470286652 0.001178466611384133 0.0076095844591159978 0 0.0076095844591159978 0.0008934252488640021 0 0 0 0.00051797296506203485 -0.052432350664178173 0.0079816732257463122 0 0.0079816732257463122 8.2135321690657292e-05 0 0 0 -0.013087553835621879 0.04209305886263362 -0.0093348390640199952 0 -0.0093348390640199952 0.025894113556665266 0 0 0 0.016996793104824687 0.043418839131390358 -0.0063472528315713928 0 -0.0063472528315713928 0.017136028126335745 0 0 0 0.015138716814431491 -0.029164953593801279 -0.021058317484214099 0 -0.021058317484214099 0.013153832623371746 0 0 0 -0.0040027802426073882 0.043159166030706866 -0.0058665286763063193 0 -0.0058665286763063193 -0.0067992705480789811 0 0 0 0.0090899738706569679 -0.041266485062318031 0.0059344512772515484 0 0.0059344512772515484 0.001102193302131349 0 0 0 -0.010041072940046671 -0.07106905341364643 -0.015253624072477101 0 -0.015253624072477101 0.0027691861818811567 0 0 0 -0.017074966807941332 -0.041675628686617047 0.0022697106536069198 0 0.0022697106536069198 -0.00072272339337205171 0 0 0 -0.010599588019997268 -0.073686242597196028 -0.0063426145339130595 0 -0.0063426145339130595 -0.00032542229324847294 0 0 0 -0.018502916222611111 -0.019459040379452841 0.0056315919088480819 0 0.0056315919088480819 -0.0013179030014733254 0 0 0 -0.0051942358452315438 -0.024057373526499694 -0.0091072295904068498 0 -0.0091072295904068498 -0.0014611320831356307 0 0 0 -0.0063796264024088322 0.0098143129042630763 -0.0025185418032316245 0 -0.0025185418032316245 0.018123420354576977 0 0 0 0.0069844333147100106 0.010869097797174302 -0.0071969836377485906 0 -0.0071969836377485906 0.023936864308143672 0 0 0 0.0087014905263294931 0.025096485141864772 -0.0050485612474411301 0 -0.0050485612474411301 0.029574410797065187 0 0 0 0.013667723984732483 0.05279429471671182 0.0018742077714042071 0 0.0018742077714042071 0.058390933894070962 0 0 0 0.027796307152695654 0.035060833915817526 0.0033112309748667967 0 0.0033112309748667967 0.01629605555174804 0 0 0 0.012839222366891369 0.044566604952476302 0.0028510806309659797 0 0.0028510806309659797 0.049385584025233187 0 0 0 0.023488047244427379 0.014529542836826434 -0.0073763092343185066 0 -0.0073763092343185066 0.024460191094941963 0 0 0 0.0097474334829421166 0.005916403063328168 0.0055527248739472273 0 0.0055527248739472273 0.0039892597208247092 0 0 0 0.0024764156960382202 0.016439333436923356 -0.0058916012370544609 0 -0.0058916012370544609 0.019377149842378955 0 0 0 0.0089541208198255749 0.0090787605635241214 -0.0073593266728573335 0 -0.0073593266728573335 0.016500936947343586 0 0 0 0.00639492437771692 0.01496243378772205 0.0035457294011643718 0 0.0035457294011643718 0.02367272904990618 0 0 0 0.0096587907094070526 -0.086312772799723936 0.006113195059581248 0 0.006113195059581248 0.00018391395781325315 0 0 0 -0.021532214710477726 0.0085032346116647242 0.00017445574871114908 0 0.00017445574871114908 0.027562003124873141 0 0 0 0.0090163094341344646 0.042400698582049617 -0.015133690606958142 0 -0.015133690606958142 0.06385198500337444 0 0 0 0.026563170896356028 0.071266770200934443 -0.015877583095534449 0 -0.015877583095534449 0.03071622264252355 0 0 0 0.025495748210864498 0.047153611209338392 -0.00624070424281159 0 -0.00624070424281159 0.013480510954080649 0 0 0 0.015158530540854781 -0.08341126321804386 -0.011577086340848738 0 -0.011577086340848738 0.0032390614318510424 0 0 0 -0.020043050446548222 -0.046730585018975264 0.0048990791966736953 0 0.0048990791966736953 0.0013091756504359725 0 0 0 -0.011355352342134809 0.0069811518313463751 1.95912970473885e-05 0 1.95912970473885e-05 0.028502158714471149 0 0 0 0.00887082763645438 -0.035466586066858041 0.015618955304686488 0 0.015618955304686488 -0.0009652194102600653 0 0 0 -0.0091079513692795544 -0.027074719677812276 0.020352079638748743 0 0.020352079638748743 0.0018320693860884862 0 0 0 -0.0063106625729308918 0.017130074622974889 -0.014947689546835674 0 -0.014947689546835674 0.0091405115137365156 0 0 0 0.0065676465341778512 0.01986199769435857 -0.01115198315430177 0 -0.01115198315430177 0.010051152537532911 0 0 0 0.007478287557972898 0.042341800773752741 -0.011189123963597503 0 -0.011189123963597503 0.03030489085401411 0 0 0 0.018161672906941789 -0.034593406408854888 0.0079996017410440372 0 0.0079996017410440372 0.0011687611704873646 0 0 0 -0.0083561613095919363 -0.00083046292085291185 0.0078370805971577778 0 0.0078370805971577778 0.00020606083477089226 0 0 0 -0.00015610052152050316 0.0086350275561291774 -0.0090122688084100511 0 -0.0090122688084100511 -0.0039326718613073713 0 0 0 0.0011755889237054576 0.0072637251158688097 -0.016492392438211212 0 -0.016492392438211212 0.0047421685481777581 0 0 0 0.0030014734160116428 0.0074905568022251567 -0.012358373783613902 0 -0.012358373783613902 0.0052227298498286334 0 0 0 0.0031783216630134059 -0.00087772961477097788 -0.012718865015040604 0 -0.012718865015040604 0.0031434766669844183 0 0 0 0.00056643676305331847 -0.00091703666373554871 -0.01626260499074092 0 -0.01626260499074092 0.0031919644559947891 0 0 0 0.00056873194806483784 -0.014013544064969838 0.02644345253529623 0 0.02644345253529623 -0.002800292814810923 0 0 0 -0.0042034592199450688 0.0049873438818487086 0.019050780214115659 0 0.019050780214115659 0.0034653117804127826 0 0 0 0.0021131639155652338 -0.0058587359078784203 0.0094639031745473706 0 0.0094639031745473706 -0.0010746275101086999 0 0 0 -0.0017333408544967805 -0.0032019165039786522 -0.012806254234588723 0 -0.012806254234588723 -0.0027585097013979945 0 0 0 -0.0014901065513441628 -0.043030914640965492 -0.0028913950619542245 0 -0.0028913950619542245 0.0032595938659820411 0 0 0 -0.0099428301937458524 -0.076175329355878785 0.0079549808506215874 0 0.0079549808506215874 0.0044968343305027414 0 0 0 -0.017919623756344011 -0.020708648972862436 0.0084379132084664438 0 0.0084379132084664438 0.0010199041596962166 0 0 0 -0.0049221862032915549 0.020067363069302076 0.0068454162764565504 0 0.0068454162764565504 0.0048191203424970304 0 0 0 0.0062216208529497774 0.0076930632305182989 -0.0012766932951795984 0 -0.0012766932951795984 -0.017053228912234264 0 0 0 -0.0023400414204289288 -0.033055576121147422 -0.014693471417206606 0 -0.014693471417206606 0.0010685843592691674 0 0 0 -0.0079967479404695549 -0.05701755765438532 -0.012925001346077339 0 -0.012925001346077339 -0.0025931460848371071 0 0 0 -0.014902675934805616 0.025325452346346557 -0.0014904221524892928 0 -0.0014904221524892928 -0.004028339890077893 0 0 0 0.0053242781140671646 0.033921229483097642 0.0052264407419498615 0 0.0052264407419498615 0.032393472453560113 0 0 0 0.016578675484164446 -0.049983270612991543 0.00036777072308378025 0 0.00036777072308378025 -0.00062721602033898038 0 0 0 -0.012652621658332641 -0.092354936636592527 -0.0014980226812313924 0 -0.0014980226812313924 -0.0014214108898897154 0 0 0 -0.023444086881620554 -0.0041139982871775012 -0.0021147806853551165 0 -0.0021147806853551165 0.0049037974567926745 0 0 0 0.00019744979240378727 -0.015415547144347216 -0.016357162969579338 0 -0.016357162969579338 -0.0047875302406552439 0 0 0 -0.005050769346250622 -0.0020802583301367354 -0.01520667087973911 0 -0.01520667087973911 -0.0036272637334040722 0 0 0 -0.001426880515885201 0.037558511517785331 0.03337256589661302 0 0.03337256589661302 0.078880380125676886 0 0 0 0.029109722910865526 -0.048616949564515961 -0.0052762237990013512 0 -0.0052762237990013512 2.9229730179661934e-05 0 0 0 -0.012146929958584083 -0.031658400936240734 0.0027256274616199519 0 0.0027256274616199519 0.00031595524247047049 0 0 0 -0.0078356114234425615 0.011159161959851699 -0.0070717215669135261 0 -0.0070717215669135261 0.0025351728834694942 0 0 0 0.0034235837108303191 0.0074576601068451209 -0.0081031781767281277 0 -0.0081031781767281277 0.0033054858122300024 0 0 0 0.0026907864797687531 0.019410987803538803 0.0069252525196030843 0 0.0069252525196030843 0.018209954432639154 0 0 0 0.009405235559044477 0.021301047000716083 -0.011640953715359706 0 -0.011640953715359706 -0.0016899960588453522 0 0 0 0.0049027627354676848 0.030086001387373048 0.007792416108702056 0 0.007792416108702056 0.0018758364281457815 0 0 0 0.0079904594538796961 0.034326505494488679 0.0014638828784613311 0 0.0014638828784613311 0.072575008294093912 0 0 0 0.026725378447145676 -0.021100118987298831 0.0083573864748626298 0 0.0083573864748626298 0.0011859690509139994 0 0 0 -0.004978537484096204 0.010003807298653359 0.0038381069865309567 0 0.0038381069865309567 0.0038431797467544174 0 0 0 0.003461746761351945 0.097606347979197428 0.0063764224276355161 0 0.0063764224276355161 0.027606352015787206 0 0 0 0.031303174998746019 -0.040155481843103177 -0.0028020063449253341 0 -0.0028020063449253341 -0.00046435942077073522 0 0 0 -0.01015496031596845 -0.11261449441137414 -0.0023544133410533866 0 -0.0023544133410533866 -0.00081750762262949861 0 0 0 -0.028358000508500909 -0.060649283707814333 0.00050681029029704758 0 0.00050681029029704758 -0.00063044006923940188 0 0 0 -0.015319930944263413 0.011910870087592371 0.0027461979640533742 0 0.0027461979640533742 0.030665595153756553 0 0 0 0.010644116310337234 -0.016500438092211918 -0.013343036911429913 0 -0.013343036911429913 -0.0018683742037399198 0 0 0 -0.0045922030739879577 -0.026116064201473915 -0.01655368792973539 0 -0.01655368792973539 -0.00096715910702269148 0 0 0 -0.0067708058271241517 0.05512715188208106 0.011493249691685446 0 0.011493249691685446 0.012131231410584919 0 0 0 0.016814595823166481 -0.026661893019242933 -0.005401713886384614 0 -0.005401713886384614 -0.0016536206018835653 0 0 0 -0.0070788784052815412 0.006612418362671256 -0.010420872324958169 0 -0.010420872324958169 0.0091367959516134856 0 0 0 0.0039373035785711594 0.081575766112787607 0.01133207592293113 0 0.01133207592293113 0.05743890804779106 0 0 0 0.034753668540144389 -0.022127931315737648 -0.004368632428597796 0 -0.004368632428597796 0.00153393335999219 0 0 0 -0.0051484994889363644 0.0075437230777033008 -0.023044130259555949 0 -0.023044130259555949 0.01270330709523998 0 0 0 0.005061757543235821 0.011537749659726766 9.9163377592290103e-05 0 9.9163377592290103e-05 0.018568802430141168 0 0 0 0.0075266380224669818 0.0012580097531136748 0.0037500601757263479 0 0.0037500601757263479 0.006215623710209936 0 0 0 0.001868408365830904 -0.033592625069786108 0.0064313019204167432 0 0.0064313019204167432 -0.00043802384578928155 0 0 0 -0.0085076622288938752 0.031850201461683492 -0.010034429866625727 0 -0.010034429866625727 0.029733042306782975 0 0 0 0.015395810942116617 0.0028406218805667773 0.0068517726413387259 0 0.0068517726413387259 -0.00011138580728745767 0 0 0 0.00068230901831982729 0.042300996614552638 -0.0080217258807901669 0 -0.0080217258807901669 0.018385431050811502 0 0 0 0.015171606916341035 -0.031308228883007619 0.0055816854081843217 0 0.0055816854081843217 -0.00023162589641235326 0 0 0 -0.0078849636948550017 -0.010290830517588084 -0.0096080964819498307 0 -0.0096080964819498307 0.01327103398301982 0 0 0 0.0007450508663579547 -0.016286120403452977 0.0090729326484715548 0 0.0090729326484715548 -0.00049369730970831235 0 0 0 -0.0041949544282903206 -0.051025452681663419 -0.0051990829353402157 0 -0.0051990829353402157 0.00080027749994981967 0 0 0 -0.012556293795428441 -0.035091196645591891 0.004810279075894373 0 0.004810279075894373 -0.00053191845871614768 0 0 0 -0.0089057787760770148 -0.024994987123718827 0.0058107545946705572 0 0.0058107545946705572 0.00062100549934142324 0 0 0 -0.006093495406094356 -0.037592809180318265 0.022198654741390267 0 0.022198654741390267 0.0023379666475001892 0 0 0 -0.0088137106332045745 0.0072619256291581377 -0.0083885477502169403 0 -0.0083885477502169403 -0.0011769455282787389 0 0 0 0.0015212450252198514 0.0027322828457261323 -0.012319660624951078 0 -0.012319660624951078 -0.004340173357663582 0 0 0 -0.00040197262798436113 -0.0029196329465026303 0.0092548133256771421 0 0.0092548133256771421 -0.00092342236937789732 0 0 0 -0.00096076382897013245 -0.000654113891910182 0.007180142802867928 0 0.007180142802867928 -5.4926644215506741e-05 0 0 0 -0.00017726013403142208 0.0099044677031027793 0.00074038677374770046 0 0.00074038677374770046 0.0085757655573072411 0 0 0 0.0046200583151025047 0.0216977614353253 -0.012821143176962077 0 -0.012821143176962077 0.029221679183101666 0 0 0 0.012729860154606728 0.013459330379676736 -0.0076659097613473413 0 -0.0076659097613473413 0.015095592932012365 0 0 0 0.0071387308279222787 0.0013973050987307056 -0.0084318816887647002 0 -0.0084318816887647002 0.018876023167678391 0 0 0 0.0050683320666022602 0.011801450658747721 -0.0064825843132061897 0 -0.0064825843132061897 0.015074214825354482 0 0 0 0.006718916371025542 0.035677604642289418 0.0030727919263582454 0 0.0030727919263582454 0.022029541895897453 0 0 0 0.014426786634546662 0.012519371021745246 -0.0089724431392836784 0 -0.0089724431392836784 0.013806136108231004 0 0 0 0.0065813767824940694 -0.064631138266632582 0.0026443150154771651 0 0.0026443150154771651 0.00023074079369234113 0 0 0 -0.01610009936823506 -0.12354820513395665 -0.0058490252201371168 0 -0.0058490252201371168 0.0019958307332811898 0 0 0 -0.030388093600168836 0.034284241249202436 -0.0023999578485710965 0 -0.0023999578485710965 0.011375650310531116 0 0 0 0.011414972889933407 0.041377825049318348 0.0036264646601663619 0 0.0036264646601663619 0.024607523134412224 0 0 0 0.016496337045932605 -0.017068207742294457 0.0080096966070757579 0 0.0080096966070757579 0.0041136327818643292 0 0 0 -0.0032386437401075337 0.017541173496579205 0.0044622626261841842 0 0.0044622626261841842 0.0027255280288110625 0 0 0 0.0050666753813475686 0.013812640397805494 -0.012209561019128812 0 -0.012209561019128812 -0.0061976300042726543 0 0 0 0.0019037525983832092 0.021592143416572208 -0.006609575958891608 0 -0.006609575958891608 -0.0086380927532206959 0 0 0 0.0032385126658378794 0.029987131480418441 -0.019723043061625627 0 -0.019723043061625627 0.047597000861534774 0 0 0 0.019396033085488311 -0.026744285858813797 0.0054682191766287141 0 0.0054682191766287141 -0.00036488215216157714 0 0 0 -0.0067772920027438475 -0.020816190900620417 0.0057585699379461147 0 0.0057585699379461147 0.0003337392051572588 0 0 0 -0.0051206129238657895 -0.0262001841442661 -0.0099063357443650163 0 -0.0099063357443650163 0.00035999977036655501 0 0 0 -0.0064600460934748881 -0.037989014995622641 -0.010039415335955131 0 -0.010039415335955131 -0.0017523488450230176 0 0 0 -0.0099353409601614165 -0.065546309382551876 -0.002456244257528759 0 -0.002456244257528759 0.0011168527601685962 0 0 0 -0.016107364155595799 0.027797900823901017 0.030136597948500959 0 0.030136597948500959 0.047389846158512827 0 0 0 0.018796936745603454 0.03477041290432703 -0.0071557773457910645 0 -0.0071557773457910645 0.017182538251874102 0 0 0 0.012988237789050283 0.0063955217142832275 -0.00079843397295109586 0 -0.00079843397295109586 -0.0089491394822839125 0 0 0 -0.00063840444200017081 -0.0018045175583529111 0.0083114081055787221 0 0.0083114081055787221 -3.5533235035474509e-05 0 0 0 -0.00046001269834709813 0.0084354164981925092 0.001104559460255725 0 0.001104559460255725 0.022060028496800409 0 0 0 0.0076238612487482321 -0.020803561934849158 0.0064071418169608721 0 0.0064071418169608721 -0.00040666788770574863 0 0 0 -0.0053025574556387241 0.055213339260732686 0.016798644324839018 0 0.016798644324839018 0.012502279098585367 0 0 0 0.016928904589829485 0.013008290531816222 0.0069384748572744346 0 0.0069384748572744346 0.0022483051252264602 0 0 0 0.0038141489142606705 0.012297122087518162 -0.0084518485911285746 0 -0.0084518485911285746 0.0049690784951125222 0 0 0 0.0043165501456576636 0.056477528411124529 -0.028555291424448924 0 -0.028555291424448924 0.036544318939683108 0 0 0 0.023255461837701902 -0.11938942375825662 0.0065547590667964228 0 0.0065547590667964228 0.0018213127894632919 0 0 0 -0.029392027742198235 0.022178042308831601 0.0018282428508223619 0 0.0018282428508223619 0.0007595002003019098 0 0 0 0.005734385627283377 -0.0068885496593090369 0.0074670206678818813 0 0.0074670206678818813 -0.00070358968387919038 0 0 0 -0.0018980348357970573 -0.0027716251610830113 -0.010029489925431595 0 -0.010029489925431595 -0.001650129988553739 0 0 0 -0.0011054387874091885 0.0241502614071493 0.0079043706745291833 0 0.0079043706745291833 0.0069349322479926659 0 0 0 0.0077712984137854862 -0.041165673208840334 0.0058136701342945407 0 0.0058136701342945407 0.0013128593645123365 0 0 0 -0.0099632034610820097 -0.071242968687177305 -0.013383699168037097 0 -0.013383699168037097 0.0042895097652975132 0 0 0 -0.016738364730469968 0.052505187325500247 0.011565217380101189 0 0.011565217380101189 0.027224999225517355 0 0 0 0.019932546637754456 -0.025083727037614079 -0.0066022896474808856 0 -0.0066022896474808856 -0.0016688731504381771 0 0 0 -0.0066881500470130639 0.033891698337115549 0.003149332209644376 0 0.003149332209644376 0.028365315784756984 0 0 0 0.015564253530468135 0.029208182026850427 -0.019072236901623445 0 -0.019072236901623445 0.0032228881165426854 0 0 0 0.0081077675358482773 0.028569876554842874 0.0030471925679803821 0 0.0030471925679803821 0.011226643439580297 0 0 0 0.0099491299986057963 0.018132268352126401 0.0062319587562098839 0 0.0062319587562098839 0.0037510077668870823 0 0 0 0.0054708190297533717 0.02155428169332264 -0.00060570929932785684 0 -0.00060570929932785684 -0.00013441213499442665 0 0 0 0.0053549673895820528 0.0035173634119696254 0.007037356638141385 0 0.007037356638141385 0.0018589498925539755 0 0 0 0.0013440783261309017 0.021330512569683067 -0.0063062698214234672 0 -0.0063062698214234672 0.059505428971329037 0 0 0 0.020208985385253023 0.021296580186304433 -0.0059217709005004501 0 -0.0059217709005004501 0.055668276035778924 0 0 0 0.019241214055520837 -0.013972751176508647 -0.011325068782302439 0 -0.011325068782302439 0.0005860829257033906 0 0 0 -0.0033466670627013695 -0.017420223773749466 -0.012429248682481964 0 -0.012429248682481964 0.00097462130466818842 0 0 0 -0.0041114006172703332 0.031318945307331481 0.018063101102609114 0 0.018063101102609114 0.012660889616380011 0 0 0 0.010994958730927928 0.038212337699722099 0.020811990709505901 0 0.020811990709505901 0.012164426746410051 0 0 0 0.012594191111532815 0.032015930073355681 0.020693760401939383 0 0.020693760401939383 0.0062026723958323871 0 0 0 0.0095546506172971002 0.0552637061099569 0.017122198481555162 0 0.017122198481555162 0.010104465233261806 0 0 0 0.016342042835804649 0.017868345513959091 0.004224343780506133 0 0.004224343780506133 0.0059552897203525449 0 0 0 0.0059559088085779088 0.037889910947882785 0.0021749605823659368 0 0.0021749605823659368 0.037934894775908334 0 0 0 0.018956201430947797 0.031419930596832527 0.0040882964073605671 0 0.0040882964073605671 0.01961997541827952 0 0 0 0.012759976503778039 -0.041465467362649333 -0.0045470615759575228 0 -0.0045470615759575228 0.0013294533174024181 0 0 0 -0.010034003511311729 -0.046055994634842834 -0.0011811516248410592 0 -0.0011811516248410592 0.00021441587756149127 0 0 0 -0.011460394689320336 -0.079479658325745495 0.0038309681577963217 0 0.0038309681577963217 5.0500062224734243e-05 0 0 0 -0.019857289565880232 0.036688408022122726 0.013204206061004826 0 0.013204206061004826 0.013452230876763026 0 0 0 0.012535159724721441 0.037629517159025849 0.013650859624721729 0 0.013650859624721729 0.015736625490082062 0 0 0 0.013341535662276981 0.022301537446322087 0.0049250909041789678 0 0.0049250909041789678 -0.00058399654902170986 0 0 0 0.0054293852243251003 0.016740655257019232 0.0053971287655755823 0 0.0053971287655755823 0.001451607406894647 0 0 0 0.004548065665978469 -0.051783528540268298 -0.010569152035703262 0 -0.010569152035703262 -0.0034613715595381706 0 0 0 -0.013811225024951627 -0.032815170690122367 0.0046712603112707071 0 0.0046712603112707071 -0.00058196413512158485 0 0 0 -0.0083492837063109844 -0.025742730794752457 0.0077886218100671339 0 0.0077886218100671339 -0.00049194189236152763 0 0 0 -0.0065586681717784943 0.064145322822573569 0.01705869145766592 0 0.01705869145766592 0.034969187942552882 0 0 0 0.024778627691281696 -0.025609523602670214 -0.0065851426880738639 0 -0.0065851426880738639 0.0022417601602364723 0 0 0 -0.0058419408606084078 0.018443678836282052 -0.0022982339127582694 0 -0.0022982339127582694 0.0011921301924313864 0 0 0 0.0049089522571783596 0.031881870838179227 -0.0033946997122914855 0 -0.0033946997122914855 -0.0054134197243684221 0 0 0 0.006617112778452703 -0.018354609642175002 -0.0069293767803482731 0 -0.0069293767803482731 0.0033607778483364381 0 0 0 -0.003748457948459627 0.0047324594615686614 -0.015652034686155523 0 -0.015652034686155523 -0.0037412735736522245 0 0 0 0.00024779647197910966 0.010657160943649206 -0.00029675584294967805 0 -0.00029675584294967805 0.011729154105273087 0 0 0 0.0055965787622305778 0.039195036817208886 0.0083808105193894818 0 0.0083808105193894818 0.0051310733367602897 0 0 0 0.011081527538492284 -0.025930954213690502 0.018067415987138957 0 0.018067415987138957 0.003961132029393466 0 0 0 -0.0054924555460743457 -0.034440752170309452 0.0039952663635025448 0 0.0039952663635025448 0.0027462542578572946 0 0 0 -0.0079236244781130533 -0.061028393814410525 -0.0070707668645956581 0 -0.0070707668645956581 0.0068360613894024036 0 0 0 -0.013548083106252051 0.0034670156607471414 -0.0024547580849248185 0 -0.0024547580849248185 -0.022471756093776274 0 0 0 -0.0047511851082572831 0.0058868695321030728 0.0015181842421074232 0 0.0015181842421074232 -0.031233857341522397 0 0 0 -0.0063367469523547826 -0.01904232964665183 0.0086856067015730759 0 0.0086856067015730759 0.00015590154962763156 0 0 0 -0.0047216070242560538 -0.012187979313253043 0.0074952161416300227 0 0.0074952161416300227 -0.00027039358976843099 0 0 0 -0.0031145932257553707 0.010555432485894413 0.0033399840620434102 0 0.0033399840620434102 0.0074048815033766497 0 0 0 0.0044900784973177631 -0.035250736912512876 0.0076505679702704998 0 0.0076505679702704998 0.0013876048956797515 0 0 0 -0.0084657830042082702 -0.025002343722971145 -0.015883018905120484 0 -0.015883018905120484 -0.0050634907773642324 0 0 0 -0.0075164586250838442 0.0026351975376518351 -0.002318605445732369 0 -0.002318605445732369 -0.062820080811267415 0 0 0 -0.015046220818403854 -0.015330102300279924 0.027294159762451836 0 0.027294159762451836 0.004450019107222758 0 0 0 -0.0027200207982643332 0.015975420245571904 0.0053825723500118498 0 0.0053825723500118498 0.0053242837700966956 0 0 0 0.0053249260039171502 0.078014331738972903 0.0057109235352070797 0 0.0057109235352070797 0.030618632193574635 0 0 0 0.027158240983136822 0.055767270494411818 0.018718217106911926 0 0.018718217106911926 0.044363258162511361 0 0 0 0.025032632164230798 -0.057019574132085513 7.5813462119850294e-05 0 7.5813462119850294e-05 0.010812141332678639 0 0 0 -0.011551858199851732 0.043041716521632474 0.021969423436490942 0 0.021969423436490942 0.049914713014675621 0 0 0 0.023239107384077008 0.051460505601077289 0.017581215395885856 0 0.017581215395885856 0.031579060069984871 0 0 0 0.020759891417765561 -0.0063379263611362683 0.0083466227708375567 0 0.0083466227708375567 0.00028373327994962727 0 0 0 -0.00151354827029666 0.0079300729428468213 0.0061329898910373482 0 0.0061329898910373482 0.00043065329204225108 0 0 0 0.0020901815587222655 -0.068773252901805582 0.018172945210408686 0 0.018172945210408686 0.0064106142133557587 0 0 0 -0.015590659672112428 0.0060513382866883188 -0.0048991055532569879 0 -0.0048991055532569879 0.027044358909345933 0 0 0 0.0082739242990085594 0.031543457894986048 0.016636886171582599 0 0.016636886171582599 0.056627763153901084 0 0 0 0.022042805262221792 0.0083138951656610144 -0.011047260330929932 0 -0.011047260330929932 0.0070493710661152509 0 0 0 0.003840816557944049 -0.048074202955174401 0.00054664821919628293 0 0.00054664821919628293 0.00072473280741530699 0 0 0 -0.011837367536939793 -0.086402522238873306 -0.00017760533733594819 0 -0.00017760533733594819 0.004254407673414673 0 0 0 -0.020537028641364669 -0.035277641704371199 0.013113446384840133 0 0.013113446384840133 -0.0006106793403166666 0 0 0 -0.0089720802611721329 0.027074954569834248 -0.012411909622712491 0 -0.012411909622712491 0.013303779178587494 0 0 0 0.010094683437105428 0.0073447965336146115 -0.0099796058292623002 0 -0.0099796058292623002 0.011889757608300022 0 0 0 0.0048086385354786793 0.045148265877399105 0.0094401780947737952 0 0.0094401780947737952 0.0065074408890411217 0 0 0 0.012913926691610064 -0.017731549025864157 -0.016252665907917033 0 -0.016252665907917033 -0.0072415375517175702 0 0 0 -0.006243271644395431 -0.031016449543519026 0.006497600308428414 0 0.006497600308428414 0.00055552677210087258 0 0 0 -0.0076152306928545313 -0.042512869246979522 -0.01134311722032947 0 -0.01134311722032947 0.0018321078906930691 0 0 0 -0.010170190339071607 0.015806015707687547 -0.0079234212103511913 0 -0.0079234212103511913 0.02001524276822092 0 0 0 0.0089553146189771185 -0.01778622915839604 0.0057738388288771161 0 0.0057738388288771161 0.0011743123386088444 0 0 0 -0.0041529792049468019 0.019428289912113251 0.006703150577142645 0 0.006703150577142645 0.047467831579162255 0 0 0 0.016724030372818884 0.02052171410068249 -0.00078214577189618406 0 -0.00078214577189618406 0.0068419219959100636 0 0 0 0.0068409090241481393 0.01028713265584412 -0.01031317087263281 0 -0.01031317087263281 0.0096394103865252156 0 0 0 0.0049816357605923095 -0.043952194724237836 0.0023289568324795801 0 0.0023289568324795801 0.0016987487228709523 0 0 0 -0.01056336150034172 -0.077026709914760794 -0.0067493220639801982 0 -0.0067493220639801982 0.003349444311202987 0 0 0 -0.018419316400889452 -0.041266610399328066 -0.0077578025346366208 0 -0.0077578025346366208 0.0028880591170877892 0 0 0 -0.0095946378205600414 0.0039429491606207887 -0.004979589590472594 0 -0.004979589590472594 0.013383546800097262 0 0 0 0.0043316239901795214 0.0099602844856029188 -0.0016362459106351868 0 -0.0016362459106351868 0.026105963899659801 0 0 0 0.0090165620963156695 -0.0046447505647378134 0.0067282004769862423 0 0.0067282004769862423 0.0013130767157713344 0 0 0 -0.00083291846224161888 0.007749546884211575 -0.010544310788808006 0 -0.010544310788808006 0.0070989693319916114 0 0 0 0.0037121290540508139 -0.021663882486735977 -0.0070549376757789717 0 -0.0070549376757789717 0.0017384322980421932 0 0 0 -0.0049813625471734312 -0.012042578683832499 0.007148032280011732 0 0.007148032280011732 0.0013561629993206412 0 0 0 -0.0026716039211279628 0.01121149834124395 -0.0098045894032881831 0 -0.0098045894032881831 0.0069543516651664472 0 0 0 0.0045414625016025889 0.022512374724977399 -0.0021150850970460726 0 -0.0021150850970460726 -0.0028130717246457725 0 0 0 0.0049248257500829054 -0.048653603993066043 0.0021618925614004941 0 0.0021618925614004941 0.001326798979288904 0 0 0 -0.011831701253444273 -0.089532269314036267 -0.004500660262774403 0 -0.004500660262774403 0.001862747060555614 0 0 0 -0.02191738056337017 -0.034549658358434557 -0.0034371880721728587 0 -0.0034371880721728587 -0.0011591171025559371 0 0 0 -0.0089271938652475541 0.066531613405018813 0.0079391409366336152 0 0.0079391409366336152 0.039517075448066485 0 0 0 0.026512172213271318 0.061989045741818405 0.014960732439165181 0 0.014960732439165181 0.029475738326402379 0 0 0 0.022866196017055307 -0.034082331883156347 -0.0036003921996009942 0 -0.0036003921996009942 -0.00055111701178001127 0 0 0 -0.0086583622237340618 0.084946395656614992 0.0067670584559284298 0 0.0067670584559284298 0.055077425116569323 0 0 0 0.035005955193295968 0.034378108662210943 -0.0051244322668298099 0 -0.0051244322668298099 0.0079120193024769248 0 0 0 0.01057253199117196 0.0019892758794515103 -0.010566025604351631 0 -0.010566025604351631 0.0099759000064990055 0 0 0 0.0029912939714876324 0.07011863871137447 -0.0053203160138509849 0 -0.0053203160138509849 0.041112550464015962 0 0 0 0.02780779729384758 0.10830265578694259 0.0041949918749681347 0 0.0041949918749681347 0.075406370030545178 0 0 0 0.045927256454371956 -0.040221686654540005 -0.017003345749873777 0 -0.017003345749873777 0.012506532454525321 0 0 0 -0.0069287885500036867 -0.0087913809863820712 0.0074164911657988632 0 0.0074164911657988632 0.00079495551659548164 0 0 0 -0.0019991063674466465 0.02366759256515236 0.0057974986747377968 0 0.0057974986747377968 0.00048020707529902208 0 0 0 0.0060369499101128434 -0.032377699665584125 0.015864446614461625 0 0.015864446614461625 0.00017467771076029592 0 0 0 -0.0080507554887058186 0.030904130556900583 -0.010645676964548267 0 -0.010645676964548267 0.0084892167560632892 0 0 0 0.0098483368282409611 0.022454940593091263 0.00035034447056166834 0 0.00035034447056166834 0.0018418981350235572 0 0 0 0.0060742096820287075 -0.006421864995599505 0.0068853555667603532 0 0.0068853555667603532 0.0054542863387400881 0 0 0 -0.00024189466421485595 0.088313552068293166 0.0090620977665213757 0 0.0090620977665213757 0.031854826184310348 0 0 0 0.030042094563150767 0.014498456364651642 -0.0091370543301264647 0 -0.0091370543301264647 -0.0062909302340490789 0 0 0 0.0020518815326506443 0.026625849460142952 -0.0012659887311700924 0 -0.0012659887311700924 0.0029770848479700601 0 0 0 0.007400733577028272 0.028410421500231563 -0.0023188886184500601 0 -0.0023188886184500601 0.0060948904110967525 0 0 0 0.0086263279778320753 0.032862428997858045 -0.0087616698694200912 0 -0.0087616698694200912 0.0067452582099780667 0 0 0 0.0099019218019590349 0.045570260801856513 -0.0041168151957559351 0 -0.0041168151957559351 0.04104152726402871 0 0 0 0.021652947016471261 0.074108010968476273 0.00053257817894508674 0 0.00053257817894508674 0.071079173007758178 0 0 0 0.036296795994058634 0.054396951329705234 0.0082559158854216275 0 0.0082559158854216275 0.018868965274636607 0 0 0 0.018316479151085474 0.030901036678325135 0.011994284731900211 0 0.011994284731900211 0.01593365101071853 0 0 0 0.01170867192226091 0.03441465560317996 -0.0089322015443121794 0 -0.0089322015443121794 -0.0022201281267527628 0 0 0 0.008048631869106794 0.04215563619617263 -0.018553708471055759 0 -0.018553708471055759 0.02063103235190672 0 0 0 0.015696667137019827 -0.030154516741106696 -0.0089209631988582672 0 -0.0089209631988582672 0.0013794123199764585 0 0 0 -0.007193776105282601 -0.020623678965858476 0.0073078681330033075 0 0.0073078681330033075 0.00057451480597377549 0 0 0 -0.0050122910399711769 -0.012509729605183971 0.0085715452043053069 0 0.0085715452043053069 0.0011085909223336205 0 0 0 -0.0028502846707125873 -0.03265249685153869 0.0039446387860364862 0 0.0039446387860364862 0.02447226802210109 0 0 0 -0.0020450572073593964 0.018604589392666765 -0.0098836880378708192 0 -0.0098836880378708192 0.0051739012096178039 0 0 0 0.0059446226505711353 0.036731231803550646 0.0067958672209048887 0 0.0067958672209048887 0.012650186805123975 0 0 0 0.012345354652168655 0.022953216144417827 0.0069908799169452387 0 0.0069908799169452387 0.0034680606714884155 0 0 0 0.0066053192039765623 0.0056129940889715346 -0.0025693307827899803 0 -0.0025693307827899803 -0.040096890107030436 0 0 0 -0.0086209740045147254 0.014659760431572532 0.005797615699399598 0 0.005797615699399598 0.00023924202772443448 0 0 0 0.0037247506148242416 0.010732438962463689 -0.0097583704954034046 0 -0.0097583704954034046 0.012147665850750694 0 0 0 0.0057200262033035992 0.023473883459460328 0.00031952662971049056 0 0.00031952662971049056 -0.0035955508351059907 0 0 0 0.0049695831560885844 0.016245847684401404 0.020401904130116166 0 0.020401904130116166 0.0013036145073472838 0 0 0 0.004387365547937061 0.017189657887083709 0.024855761986538605 0 0.024855761986538605 0.0018471985495109866 0 0 0 0.0047592141091488127 -0.0069739962912212933 -0.015327756263282644 0 -0.015327756263282644 0.0041049935440367058 0 0 0 -0.00071725068679610871 0.053372919745306516 -0.041617718068789236 0 -0.041617718068789236 0.07449060600261187 0 0 0 0.031965881436979579 0.021485596585419747 0.0013811131719552883 0 0.0013811131719552883 -0.001174007508057115 0 0 0 0.0050778972693406553 -0.035284200498693796 -0.0061492190962465498 0 -0.0061492190962465498 0.0013198235710787376 0 0 0 -0.0084910942319038063 -0.00085626594592391747 -0.001081829507825316 0 -0.001081829507825316 -0.00098343930630173659 0 0 0 -0.00045992631305658005 0.13653713998843808 0.0012667040425271558 0 0.0012667040425271558 0.078256195066906731 0 0 0 0.053698333763836148 0.097070565794333735 -0.013658871654702587 0 -0.013658871654702587 0.053907648197541978 0 0 0 0.03774455349796893 0.062396006589804598 0.0068422761541914179 0 0.0068422761541914179 0.028217827494606329 0 0 0 0.022653458521102787 -0.001470375282852654 0.0017852838883115846 0 0.0017852838883115846 -0.0015837393553237433 0 0 0 -0.00076352865954376625 -0.00041641358369808273 -0.0008673369080645088 0 -0.0008673369080645088 -0.00056857312827875866 0 0 0 -0.00024624667799415484 0.087367545160534243 -0.0033592087715677696 0 -0.0033592087715677696 0.045882029353409237 0 0 0 0.033312393628486037 -0.00057980167378879344 0.001428594317977705 0 0.001428594317977705 -0.00097502658289805311 0 0 0 -0.00038870706417171164 0.018696354316216315 0.00051040738245339246 0 0.00051040738245339246 0.00094244683340806781 0 0 0 0.0049097002874060949 0.012255830743997106 -0.0097488176512753599 0 -0.0097488176512753599 0.0059293411256894635 0 0 0 0.0045462929674216467 -0.011973314607360935 0.0084454217540105292 0 0.0084454217540105292 0.0029243098936449323 0 0 0 -0.002262251178428998 -0.018250207527399087 -0.011598446531431494 0 -0.011598446531431494 0.0025213330411222312 0 0 0 -0.0039322186215692279 0.020543219672023792 -0.0049885848917273767 0 -0.0049885848917273767 -0.0056919747330855495 0 0 0 0.0037128112347345633 -0.0070270860348907727 0.022908456998406823 0 0.022908456998406823 -0.00072323919468653131 0 0 0 -0.0019375813073944093 0.0088038078086058458 -0.016849306548775367 0 -0.016849306548775367 0.0029511161210833414 0 0 0 0.0029387309824223107 0.036324341324246556 -0.0078579203861408597 0 -0.0078579203861408597 0.032457391891374421 0 0 0 0.017195433303905272 0.066585189706767883 0.0041946424050749997 0 0.0041946424050749997 0.059767618169680958 0 0 0 0.031588201969112217 0.022858636565728951 0.0055192245067620799 0 0.0055192245067620799 0.026323631958082599 0 0 0 0.012295567130952895 -0.0094055356383382516 0.0050362196898688372 0 0.0050362196898688372 0.0027431819391952258 0 0 0 -0.0016655884247857525 0.012941850291467133 -0.0082748266529902425 0 -0.0082748266529902425 0.022986256620574408 0 0 0 0.008982026728010406 0.042841272832880001 0.0050232171378785384 0 0.0050232171378785384 0.043865929490360944 0 0 0 0.021676800580810174 0.0062725041955760535 -0.010341929621124013 0 -0.010341929621124013 0.0043098759764997885 0 0 0 0.002645595043018964 0.023958894196874921 0.0056476975508072038 0 0.0056476975508072038 0.00060822593481659609 0 0 0 0.0061417800329228774 0.0075842492677997142 -0.014110419157356668 0 -0.014110419157356668 0.0071875073819203106 0 0 0 0.0036929391624301311 -0.0086787250034554564 0.018324539617751157 0 0.018324539617751157 0.00071768422556006684 0 0 0 -0.0019902601944736809 0.027587219133231033 0.0016119223074075734 0 0.0016119223074075734 0.010503403414304724 0 0 0 0.0095226556368839393 0.031775747747925936 0.0017286774239077332 0 0.0017286774239077332 0.011899839476137097 0 0 0 0.010918896806015765 0.0038304680026400115 0.0072822879359613416 0 0.0072822879359613416 0.0003440316525109427 0 0 0 0.0010436249137877381 -0.00033625651131510489 0.00280863277094235 0 0.00280863277094235 0.01688905711560296 0 0 0 0.0041382001510719656 0.034604712827068992 -0.0092932289805110896 0 -0.0092932289805110896 0.010662131971193839 0 0 0 0.011316711199565718 0.012721534799449936 -0.010017199271735611 0 -0.010017199271735611 0.0065603377948095197 0 0 0 0.004820468148564871 0.058408736820802665 -0.0077222583667596323 0 -0.0077222583667596323 0.011090957508277155 0 0 0 0.017374923582269969 0.031113936592692307 0.0026104614277618898 0 0.0026104614277618898 0.023504547726461211 0 0 0 0.01365462107978839 0.026615677612403341 0.0018302542780921915 0 0.0018302542780921915 0.0098677067351219949 0 0 0 0.0091208460868813374 -0.014560131972985916 0.0072960424517023517 0 0.0072960424517023517 0.00051210540276201005 0 0 0 -0.0035120066425559787 0.0099948152895630929 -0.001437849833416768 0 -0.001437849833416768 0.021209530969546427 0 0 0 0.0078010865647773799 0.010824925708226647 -0.00035932473967579745 0 -0.00035932473967579745 0.026379707899451137 0 0 0 0.0093011584019194425 0.057152161904881288 0.032961180575038454 0 0.032961180575038454 0.08639455593527029 0 0 0 0.035886679460037901 0.029442163872753196 -0.0057466048109121835 0 -0.0057466048109121835 0.098920960474405698 0 0 0 0.032090781086789727 0.084248246991383779 0.0087085496018302535 0 0.0087085496018302535 0.04006537334401683 0 0 0 0.03107840508385018 0.029260643560773156 0.013493999161604339 0 0.013493999161604339 0.02150611889237973 0 0 0 0.012691690613288207 -0.043938818353542741 -0.004122925232739042 0 -0.004122925232739042 0.0012693192095420969 0 0 0 -0.010667374786000217 0.0036283182989349828 0.0071689586863840846 0 0.0071689586863840846 -9.4805552883089894e-05 0 0 0 0.00088337818651297584 -0.013985345910212409 -0.011646569184895096 0 -0.011646569184895096 -0.0027575205739144432 0 0 0 -0.0041857166210317147 -0.014380316639886112 0.0069980670167177992 0 0.0069980670167177992 -0.00053953499358617985 0 0 0 -0.0037299629083680768 0.031450017714425994 0.00035223582526765522 0 0.00035223582526765522 -0.006400419376757293 0 0 0 0.0062623995844171753 -0.020460074614136712 0.0022352546830001858 0 0.0022352546830001858 0.0012994361265095443 0 0 0 -0.0047901596219067939 -0.020095436908531616 0.0028061767608018699 0 0.0028061767608018699 -0.0025413004031956555 0 0 0 -0.0056591843279318182 -0.026448382197262667 -0.0042280514470869439 0 -0.0042280514470869439 0.0022475485573066403 0 0 0 -0.0060502084099890085 -0.026170078669119811 -0.0050668173649806129 0 -0.0050668173649806129 -0.0029281294364956762 0 0 0 -0.0072745520264038731 -0.0060335492417847372 -0.0040813709433368678 0 -0.0040813709433368678 0.010105985077508969 0 0 0 0.0010181089589310563 0.024752980509224875 0.0014287312529716167 0 0.0014287312529716167 -0.00019972457337991492 0 0 0 0.00613831398396124 0.071354119589070397 0.013262175219678651 0 0.013262175219678651 0.011268036985069618 0 0 0 0.020655539143534962 0.02671978033645353 -0.0064608686370507887 0 -0.0064608686370507887 0.031689618806600067 0 0 0 0.014602349785763385 0.035305670468791912 0.017752191330408989 0 0.017752191330408989 0.032897851441443013 0 0 0 0.01705088047755874 0.0081990084009796876 -0.010417032584256514 0 -0.010417032584256514 0.01441074978703244 0 0 0 0.0056524395470030214 -0.00076733438910387699 0.0042277140003319502 0 0.0042277140003319502 -0.0096921104002084223 0 0 0 -0.0026148611973281859 0.027136428299749354 0.0010464432753118924 0 0.0010464432753118924 -0.016643770899640722 0 0 0 0.0026231643500271586 0.042016611015812715 -0.0031940504933993807 0 -0.0031940504933993807 -0.020702046618907025 0 0 0 0.0053286410992264234 -0.00069989253695643518 -0.0027814511478028159 0 -0.0027814511478028159 -0.0061758024896825638 0 0 0 -0.0017189237566599164 0.0090357306683900226 -0.0054270041419990922 0 -0.0054270041419990922 -0.0013563801282333449 0 0 0 0.0019198376350391608 0.017503835241131693 -0.00039034645195752671 0 -0.00039034645195752671 -0.0016282683012469601 0 0 0 0.0039688917349711694 -0.019057017520517035 0.0021440949392782334 0 0.0021440949392782334 -0.0063408429397059122 0 0 0 -0.006349465115055737 -0.024529404698189049 -0.0042088583115871096 0 -0.0042088583115871096 -0.0081609151455736897 0 0 0 -0.0081725799609406839 -0.024942527933880822 -0.0032012268658722005 0 -0.0032012268658722005 -0.0031948328928220904 0 0 0 -0.0070343402066757287 -0.019535269410904669 0.0014454890413456126 0 0.0014454890413456126 -0.002664263535800097 0 0 0 -0.0055498832366761928 0.0069664260258732874 -0.014407916094002604 0 -0.014407916094002604 0.0064331676622458311 0 0 0 0.0033498984220297762 0.0036396605782476193 0.0074731391242461856 0 0.0074731391242461856 0.00089013414953408032 0 0 0 0.0011324486819454249 0.012077504336961781 -0.010028100503697387 0 -0.010028100503697387 0.0097395257107515953 0 0 0 0.0054542575119283371 0.015114714707463076 -0.0089608365178323185 0 -0.0089608365178323185 0.0071891693958294756 0 0 0 0.0055759710258231343 0.0087499389082944089 0.0065273613605252587 0 0.0065273613605252587 0.0024029463155173236 0 0 0 0.0027882213059529336 0.018536516917387676 0.0053033058942193161 0 0.0053033058942193161 0.00037359390099972814 0 0 0 0.0047275277045968544 0.0184953967972637 0.0062383519011108626 0 0.0062383519011108626 0.00031732698912857391 0 0 0 0.0047031809465980711 0.019882313113433102 -0.01693419049447413 0 -0.01693419049447413 0.062017901577887009 0 0 0 0.020475053672830056 0.050852153284638928 -0.0018782112141387287 0 -0.0018782112141387287 0.17797869943645039 0 0 0 0.057207713180272332 -0.015239086856496529 -0.00027717092834125823 0 -0.00027717092834125823 0.0071768434325563887 0 0 0 -0.0020155608559850359 0.03011335521504041 0.0022969706212662352 0 0.0022969706212662352 0.020729388693155271 0 0 0 0.012710685977048913 0.0091420958581238526 -0.0096202880604832341 0 -0.0096202880604832341 0.014320942185318597 0 0 0 0.0058657595108606436 0.020527048994995783 0.0061324815304272919 0 0.0061324815304272919 0.0038336309574850402 0 0 0 0.0060901699881202014 0.054998614247622091 0.015623858712384697 0 0.015623858712384697 0.02330575853770811 0 0 0 0.019576093196332578 -0.021689524838085616 -0.0080441973747394924 0 -0.0080441973747394924 0.00061609939084794618 0 0 0 -0.0052683563618094453 0.036371389446974475 -0.011865999299532533 0 -0.011865999299532533 0.027300059749610014 0 0 0 0.015917862299146136 0.033119313329105955 -0.00040051105374039331 0 -0.00040051105374039331 0.0074647535428157274 0 0 0 0.010146016717980412 -0.023325280760934541 0.015676025634026813 0 0.015676025634026813 0.0017017387396274231 0 0 0 -0.0054058855053267241 0.018049711734535456 -0.013688899691509271 0 -0.013688899691509271 0.013336626551351705 0 0 0 0.0078465845714716931 0.020859285407767547 -0.010621107436266937 0 -0.010621107436266937 0.011898935372254948 0 0 0 0.0081895551950056378 0.0052354452053462175 -0.0061501385496048055 0 -0.0061501385496048055 -0.00016993554774524799 0 0 0 0.0012663774144002493 0.034528031081270422 0.0032611187387881213 0 0.0032611187387881213 0.026057131407643958 0 0 0 0.015146290622228581 0.022437464561052417 -0.009331741694750156 0 -0.009331741694750156 -0.0078187737534094644 0 0 0 0.0036546727019107377 0.0047966125051809028 -0.0014111258754237466 0 -0.0014111258754237466 -0.02149308905829031 0 0 0 -0.0041741191382773934 -0.0003536074809026386 0.008373112412199353 0 0.008373112412199353 -0.0004216505752055455 0 0 0 -0.00019381451402704624 0.003853269669670539 0.0079874445759301541 0 0.0079874445759301541 -0.00021592925223155868 0 0 0 0.0009093351043597455 0.011181962348685678 0.0015009013932746581 0 0.0015009013932746581 0.015176728352558316 0 0 0 0.0065896726753109959 -0.0018478425099869439 -0.0016351968233330322 0 -0.0016351968233330322 0.017626283843951873 0 0 0 0.0039446103334912497 0.010868040558898095 0.0057026287837877356 0 0.0057026287837877356 -0.00018350747435263992 0 0 0 0.0026711332711363677 0.01268452821805742 0.0067849434425326632 0 0.0067849434425326632 0.0029932020918602975 0 0 0 0.0039194325774794328 0.011196910784282137 0.0060954369589364919 0 0.0060954369589364919 0.0018499318327657409 0 0 0 0.0032617106542619685 0.0084548403880741752 -0.0023085601577986226 0 -0.0023085601577986226 -0.029670729772094617 0 0 0 -0.0053039723460051313 0.01336745669942474 -0.0034191974389238267 0 -0.0034191974389238267 -0.0083800201245729511 0 0 0 0.001246859143712975 0.022037764585295584 -0.00019336868579916677 0 -0.00019336868579916677 -0.0062987876972397938 0 0 0 0.003934744222013932 0.017918519753610501 -0.0020257379589136426 0 -0.0020257379589136426 -0.027119072285744228 0 0 0 -0.002300138133033397 0.035413936856699718 -0.016576111134685087 0 -0.016576111134685087 0.061869565637077295 0 0 0 0.024320875623444246 0.035380698550295575 0.0091294488213755631 0 0.0091294488213755631 0.00061577117037625584 0 0 0 0.0089991174301682353 -0.00077078487346848856 -0.004982314913487329 0 -0.004982314913487329 -0.0053242763789422831 0 0 0 -0.0015237653131028317 0.022823024077112841 -0.0079150009422057632 0 -0.0079150009422057632 -0.0022160810344973303 0 0 0 0.0051517357606539194 -0.0010164611955483238 0.0074726890225802478 0 0.0074726890225802478 -0.0077891984125271208 0 0 0 -0.0022014149020186391 -0.024878734276427839 0.020339366939625292 0 0.020339366939625292 -0.00011961016078743114 0 0 0 -0.0062495861093039284 0.016255196471960831 -0.01543985265163909 0 -0.01543985265163909 0.007158358292280953 0 0 0 0.005853388691060446 0.019155518502223357 -0.011904624740766756 0 -0.011904624740766756 0.0073055083975759327 0 0 0 0.0066152567249498362 0.012973576204563953 0.00058029515407210424 0 0.00058029515407210424 0.021228485278479387 0 0 0 0.0085505153707608368 0.018813426862338556 0.0012720554956235364 0 0.0012720554956235364 -0.01382824606586297 0 0 0 0.0012462951991190074 0.0029298216841733282 -0.0041902563739247278 0 -0.0041902563739247278 -0.004259221522958434 0 0 0 -0.00033234995969633196 0.0046426460526445279 0.0064107030398716791 0 0.0064107030398716791 -0.0064849599466896279 0 0 0 -0.0004605784735112195 0.011369196297851603 -0.0021942199590365696 0 -0.0021942199590365696 -0.012839908517497722 0 0 0 -0.00036767805491155769 0.0058502900002473934 -0.0057447232976794438 0 -0.0057447232976794438 -0.0053760896837025118 0 0 0 0.00011855007913624815 0.041199010427143107 -0.013920845442867147 0 -0.013920845442867147 0.003984601851129782 0 0 0 0.01129590306956825 0.0544119158270846 -0.010463716352635155 0 -0.010463716352635155 0.035378885447243935 0 0 0 0.02244770031858212 0.084465595123212861 0.011722422741059113 0 0.011722422741059113 0.066493433965355342 0 0 0 0.037739757272142072 0.021156544066630121 0.0055818386998702238 0 0.0055818386998702238 -0.00010983420753660211 0 0 0 0.0052616774647733788 -0.046963731838797762 0.019376409224897417 0 0.019376409224897417 0.0011788009051016957 0 0 0 -0.011446232733423933 -0.039191991713440344 0.014296301595185277 0 0.014296301595185277 -0.00021144342068879496 0 0 0 -0.0098508587835322015 0.0060787767166726606 -0.0061980515506666611 0 -0.0061980515506666611 0.00091353103451173936 0 0 0 0.0017480769377960928 0.012599745400575593 0.00313801517931618 0 0.00313801517931618 0.0074100407328983545 0 0 0 0.0050024465333684846 0.011533432946404755 -0.0088885771104412203 0 -0.0088885771104412203 0.0092957561527847524 0 0 0 0.0052072972747973772 0.015269597958165395 -0.011040480408576664 0 -0.011040480408576664 0.015093209706015662 0 0 0 0.007590701916045264 -0.016175053493882041 0.017673555765437471 0 0.017673555765437471 -0.00052906647722483768 0 0 0 -0.0041760299927764422 0.01051783475293 -0.012454675616701411 0 -0.012454675616701411 0.0076919810437807712 0 0 0 0.0045524539491775817 0.0095396260852609882 -0.015192032117962495 0 -0.015192032117962495 0.0063311785111961338 0 0 0 0.0039677011491142666 -0.021653528701927566 0.0070199679754812689 0 0.0070199679754812689 -0.00069975701108706406 0 0 0 -0.0055883214282536516 -0.028108643526862237 -0.012222765457894094 0 -0.012222765457894094 -0.0029119124659932327 0 0 0 -0.0077551389982138657 -0.023966877814746459 -0.012107667726316171 0 -0.012107667726316171 0.00085365522526930498 0 0 0 -0.0057783056473692841 -0.019880157222436193 0.0064290908170973188 0 0.0064290908170973188 0.00075309651523985596 0 0 0 -0.0047817651767990878 0.012540032595932303 0.0019717272355544088 0 0.0019717272355544088 0.0099922473209406951 0 0 0 0.0056330699792182326 -0.044349026118496115 0.013792223234716294 0 0.013792223234716294 -0.00051743662788039657 0 0 0 -0.011216615686594045 0.026281596036293042 -0.011175831460649932 0 -0.011175831460649932 0.011943762890393339 0 0 0 0.0095563397316715815 0.025460630001442164 -0.013100343372134282 0 -0.013100343372134282 0.0096917705014214484 0 0 0 0.0087881001257159586 -0.016161765601237062 -0.012585040460004082 0 -0.012585040460004082 0.0054788307387662466 0 0 0 -0.0026707337156176916 0.0076230417198577885 -0.0072070586179688589 0 -0.0072070586179688589 0.00015655615321193139 0 0 0 0.0019448994682674317 0.027538218364057985 -0.013746186038507604 0 -0.013746186038507604 -0.0050484902519469452 0 0 0 0.0056224320280277643 0.0124417816277211 0.00029933917513823402 0 0.00029933917513823402 0.0065420306763721596 0 0 0 0.0047459530760233185 -0.014496590912203743 0.0089212992276196633 0 0.0089212992276196633 -0.00058055378920167378 0 0 0 -0.0037692861753513551 -0.035325699660069723 0.024729987092115602 0 0.024729987092115602 0.0090375084709909403 0 0 0 -0.0065720477972697894 -0.021571591851631045 -0.010680923935110609 0 -0.010680923935110609 0.0056198988851103859 0 0 0 -0.0039879232416301647 0.031138468789852297 0.017478071376415549 0 0.017478071376415549 0.0096593078424604684 0 0 0 0.010199444158078302 -0.014251743557852546 -0.011099894407585187 0 -0.011099894407585187 -0.00087477139709385421 0 0 0 -0.003781628738736463 0.033632209108653777 0.026194741908641073 0 0.026194741908641073 0.004666772629497995 0 0 0 0.0095747454345379568 -0.01282404536774384 0.007339835379577532 0 0.007339835379577532 0.00050572423757288751 0 0 0 -0.0030795802825427463 0.011274427069078576 0.0044312041484366078 0 0.0044312041484366078 0.0048700391045685878 0 0 0 0.0040361165434117871 -0.015507478946863107 -0.009587039280853582 0 -0.009587039280853582 0.0032354186198817469 0 0 0 -0.0030680150817453122 0.03944958672590642 0.00034856982678044268 0 0.00034856982678044268 0.01056410769877434 0 0 0 0.012503423606170176 0.062110650472001094 -0.0033511109001767292 0 -0.0033511109001767292 0.023930152945667027 0 0 0 0.021510200854417072 0.012285163656176283 0.0046180447484923705 0 0.0046180447484923705 0.0019009006891450228 0 0 0 0.0035465160863303231 0.00087567924031373146 0.0022366375071243283 0 0.0022366375071243283 -0.0031229203599387745 0 0 0 -0.00056181027990653831 -0.0048345714298325682 0.0055999200442047314 0 0.0055999200442047314 -0.004424536111291566 0 0 0 -0.0023147768852811446 0.034949488961405262 -0.0014488020443009786 0 -0.0014488020443009786 0.0019803086541929638 0 0 0 0.0092324494038996674 0.038972987935027015 -0.0065890530113392742 0 -0.0065890530113392742 0.0024192112742316141 0 0 0 0.010348049802314629 0.058378373081913404 0.0085331477078407492 0 0.0085331477078407492 0.010588898364420452 0 0 0 0.017241817861583186 0.00060372747967307738 -0.0014346054697670363 0 -0.0014346054697670363 -0.0019449454418989376 0 0 0 -0.00033530449055640954 0.056804268456597029 -0.0024312035390774422 0 -0.0024312035390774422 0.011962693336149854 0 0 0 0.017191740448186721 -0.0034312544174978088 -0.0036805864808686639 0 -0.0036805864808686639 -0.0028872353897231307 0 0 0 -0.0015796224518050961 0.0088903268997657103 -0.0050593155475790186 0 -0.0050593155475790186 -0.00046720299331126647 0 0 0 0.0021057809766136248 0.008566999106321499 -0.0099482132260978913 0 -0.0099482132260978913 0.009349272430482336 0 0 0 0.0044790678842009379 0.0077919780875168043 -0.010098511980536365 0 -0.010098511980536365 0.0091575885402849222 0 0 0 0.0042373916569504178 0.0028533269572913744 -0.0044058555156640811 0 -0.0044058555156640811 -0.0061448803501417404 0 0 0 -0.00082288834821256374 0.0045885453564180334 -0.0075334826216215678 0 -0.0075334826216215678 -0.0066010064176976746 0 0 0 -0.00050311526531984785 0.028786243789745137 0.016358180137023205 0 0.016358180137023205 0.046444132275842438 0 0 0 0.018807594016396877 0.009237382208325786 -0.016244269200310097 0 -0.016244269200310097 0.0018658496915985971 0 0 0 0.0027758079749810967 0.0082966858651145146 -0.021395528217924766 0 -0.021395528217924766 -3.2325341455363699e-05 0 0 0 0.0020660901309147873 -0.0051793002781497875 0.006309902487710968 0 0.006309902487710968 0.0021042292975777185 0 0 0 -0.00076876774514301506 -0.037845794586017723 0.01203913413761587 0 0.01203913413761587 0.002655585141458694 0 0 0 -0.0087975523611398265 -0.026637885002696815 0.021335660524232414 0 0.021335660524232414 0.021772799415609279 0 0 0 -0.0012162713967718286 0.032563220355646474 0.015572791211982955 0 0.015572791211982955 0.030347142378737035 0 0 0 0.015727590683595874 0.020860925294755972 0.00281001507971729 0 0.00281001507971729 0.0091218475143387545 0 0 0 0.0074956932022736678 0.029041838286081922 0.0020077011963798158 0 0.0020077011963798158 0.0083173514721095465 0 0 0 0.0093397974395478811 0.046502034154125238 0.018468798039648897 0 0.018468798039648897 0.029903478206305636 0 0 0 0.019101378090107722 -0.019181726569565835 -0.0086869195009346978 0 -0.0086869195009346978 0.0099298094534173986 0 0 0 -0.0023129792790371057 -0.025049452800578208 -0.0043240566673587721 0 -0.0043240566673587721 0.00077278555767551493 0 0 0 -0.0060691668107256888 0.030627690215800123 0.013320948357473644 0 0.013320948357473644 0.02156926800594039 0 0 0 0.013049239555435129 0.040403941582851155 0.015229222643991798 0 0.015229222643991798 0.016552942956430939 0 0 0 0.014239221134820537 0.0066971611415444776 -0.010268098501019729 0 -0.010268098501019729 0.013175191143613596 0 0 0 0.0049680880712895115 0.011683212089319668 0.0018842340750177648 0 0.0018842340750177648 0.0055696181137532726 0 0 0 0.0043132075507682369 0.0128157796384254 0.0028265972598891785 0 0.0028265972598891785 0.0099073686138533429 0 0 0 0.0056807870630696828 0.014902246493266229 0.0025776213556172683 0 0.0025776213556172683 0.016927578383964078 0 0 0 0.0079574562193075737 0.067231203759585689 0.010799431450357666 0 0.010799431450357666 0.057251784700857122 0 0 0 0.031120747115110703 -0.023076344368945456 -0.0036460148349193311 0 -0.0036460148349193311 0.00036759586985235515 0 0 0 -0.0056771871247732753 -0.012893652224010968 0.0082802598472895665 0 0.0082802598472895665 0.00033104173777538312 0 0 0 -0.0031406526215588962 0.016056894079873721 0.0052573145763949846 0 0.0052573145763949846 0.0023481191763567513 0 0 0 0.004601253314057618 0.076842750917126779 0.0090663921240841105 0 0.0090663921240841105 0.030153722203378086 0 0 0 0.026749118280126272 0.005461753718750878 -0.004710347622751937 0 -0.004710347622751937 -0.0016197817882142029 0 0 0 0.00096049298263414795 0.0043417085599096652 -0.020423514088129591 0 -0.020423514088129591 -0.0024877268125753568 0 0 0 0.00046349543683357579 -0.012073840630324191 -0.018145176962139124 0 -0.018145176962139124 -0.0017218196222451819 0 0 0 -0.0034489150631423415 0.0094502059104125263 -0.0073016595996722444 0 -0.0073016595996722444 0.02181988073525909 0 0 0 0.0078175216614178727 
</DataArray>
<DataArray type="Float64" Name="cross_section_updated" format="ascii">
0.0010043920280985168 0.0010110810864377845 0.0010156749723912693 0.0010204224026517386 0.0010257232675524725 0.0010318944076741963 0.0010391754043310667 0.001047636051410467 0.0010576091348228163 0.0010693932415516813 0.0020165663919577848 0.0020435054637295202 0.0020634814628233329 0.0020830336482551694 0.0021035326202701594 0.0021252948830462501 0.0021486998451275552 0.0021736453893446603 0.0022005205749077291 0.0022301199666015363 1 1 1 1 1 1 1 1 1 1 1 1 1 1 1 1 1 1 1 1 1 1 1 1 1 1 1 1 1 1 1 1 1 1 1 1 1 1 1 1 1 1 1 1 1 1 1 1 1 1 1 1 1 1 1 1 1 1 1 1 1 1 1 1 1 1 1 1 1 1 1 1 1 1 1 1 1 1 1 1 1 1 1 1 1 1 1 1 1 1 1 1 1 1 1 1 1 1 1 1 1 1 1 1 1 1 1 1 1 1 1 1 1 1 1 1 1 1 1 1 1 1 1 1 1 1 1 1 1 1 1 1 1 1 1 1 1 1 1 1 1 1 1 1 1 1 1 1 1 1 1 1 1 1 1 1 1 1 1 1 1 1 1 1 1 1 1 1 1 1 1 1 1 1 1 1 1 1 1 1 1 1 1 1 1 1 1 1 1 1 1 1 1 1 1 1 1 1 1 1 1 1 1 1 1 1 1 1 1 1 1 1 1 1 1 1 1 1 1 1 1 1 1 1 1 1 1 1 1 1 1 1 1 1 1 1 1 1 1 1 1 1 1 1 1 1 1 1 1 1 1 1 1 1 1 1 1 1 1 1 1 1 1 1 1 1 1 1 1 1 1 1 1 1 1 1 1 1 1 1 1 1 1 1 1 1 1 1 1 1 1 1 1 1 1 1 1 1 1 1 1 1 1 1 1 1 1 1 1 1 1 1 1 1 1 1 1 1 1 1 1 1 1 1 1 1 1 1 1 1 1 1 1 1 1 1 1 1 1 1 1 1 1 1 1 1 1 1 1 1 1 1 1 1 1 1 1 1 1 1 1 1 1 1 1 1 1 1 1 1 1 1 1 1 1 1 1 1 1 1 1 1 1 1 1 1 1 1 1 1 1 1 1 1 1 1 1 1 1 1 1 1 1 1 1 1 1 1 1 1 1 1 1 1 1 1 1 1 1 1 1 1 1 1 1 1 1 1 1 1 1 1 1 1 1 1 1 1 1 1 1 1 1 1 1 1 1 1 1 1 1 1 1 1 1 1 1 1 1 1 1 1 1 1 1 1 1 1 1 1 1 1 1 1 1 1 1 1 1 1 1 1 1 1 1 1 1 1 1 1 1 1 1 1 1 1 1 1 1 1 1 1 1 1 1 1 1 1 1 1 1 1 1 1 1 1 1 1 1 1 1 1 1 1 1 1 1 1 1 1 1 1 1 1 1 1 1 1 1 1 1 1 1 1 1 1 1 1 1 1 1 1 1 1 1 1 1 1 1 1 1 1 1 1 1 1 1 1 1 1 1 1 1 1 1 1 1 1 1 1 1 1 1 1 1 1 1 1 1 1 1 1 1 1 1 1 1 1 1 1 1 1 1 1 1 1 1 1 1 1 1 1 1 1 1 1 1 1 1 1 1 1 1 1 1 1 1 1 1 1 1 1 1 1 1 1 1 1 1 1 1 1 1 1 1 1 1 1 1 1 1 1 1 1 1 1 1 1 1 1 1 1 1 1 1 1 1 1 1 1 1 1 1 1 1 1 1 1 1 1 1 1 1 1 1 1 1 1 1 1 1 1 1 1 1 1 1 1 1 1 1 1 1 1 1 1 1 1 1 1 1 1 1 1 1 1 1 1 1 1 1 1 1 1 1 1 1 1 1 1 1 1 1 1 1 1 1 1 1 1 1 1 1 1 1 1 1 1 1 1 1 1 1 1 1 1 1 1 1 1 1 1 1 1 1 1 1 1 1 1 1 1 1 1 1 1 1 1 1 1 1 1 1 1 1 1 1 1 1 1 1 1 1 1 1 1 1 1 1 1 1 1 1 1 1 1 1 1 1 1 1 1 1 1 1 1 1 1 1 1 1 1 1 1 1 1 1 1 1 1 1 1 1 1 1 1 1 1 1 1 1 1 1 1 1 1 1 1 1 1 1 1 1 1 1 1 1 1 1 1 1 1 1 1 1 1 1 1 1 1 1 1 1 1 1 1 1 1 1 1 1 1 1 1 1 1 1 1 1 1 1 1 1 1 1 1 1 1 1 1 1 1 1 1 1 1 1 1 1 1 1 1 1 1 1 1 1 1 1 1 1 1 1 1 1 1 1 1 1 1 1 1 1 1 1 1 1 1 1 1 1 1 1 1 1 1 1 1 1 1 1 1 1 1 1 1 1 1 1 1 1 1 1 1 1 1 1 1 1 1 1 1 1 1 1 1 1 1 1 1 1 1 1 1 1 1 1 1 1 1 1 1 1 1 1 1 1 1 1 1 1 1 1 1 1 1 1 1 1 1 1 1 1 1 1 1 1 1 1 1 1 1 1 1 1 1 1 1 1 1 1 1 1 1 
</DataArray>
<DataArray type="Float64" Name="displacement_divergence" format="ascii">
0.0044180962721951812 0.011092651953167243 0.015688612270728913 0.020437187659061148 0.025740984721848794 0.03191705555230364 0.039198899835420888 0.047679109741182835 0.057618223880307483 0.069588094288688201 0.0085342443700038295 0.021755802255365941 0.031797999252519075 0.041558656261738561 0.051809584852784342 0.062695568044031438 0.074383071350976507 0.086925520412452828 0.10013775195186315 0.11586139011742815 1.2659829813878163e-05 1.9973279450574297e-05 1.0438926723012399e-05 1.2245246008164707e-05 -1.7768641610577889e-05 -1.3465627549518131e-05 -2.1583128808574775e-05 -1.5516992874878399e-05 -2.8927912671020308e-05 -4.9836025777296301e-05 1.4718933789242416e-05 1.3333402041703054e-05 2.7800256633219455e-06 8.3280979064624484e-06 2.090431090041471e-06 5.9656791614510717e-06 0.00013258023777525305 -6.7107396827270106e-06 -4.3079128948970979e-07 -7.5065615127382218e-06 -6.3451524377842322e-07 2.4114193993595486e-06 -4.8416734132463932e-07 4.2732937331120822e-06 0.00011111743079505985 -7.061525198492365e-05 -3.8325802747272378e-05 -6.4806237469490892e-06 -8.6994797685529352e-07 -1.8074178080375035e-05 2.567806119809214e-05 1.3548103165737834e-06 3.5475359353438589e-06 6.6246726435758175e-06 -6.4737702420232697e-06 -7.0544002887552238e-06 3.6445282022739513e-05 -2.0011330456240072e-05 0.00013473982612615515 1.5804259403428222e-05 3.3467115333291335e-05 3.4999042917978058e-05 4.1755038878078798e-05 -6.8944522677687192e-06 9.237455961089062e-06 6.3041801619871788e-06 1.3422745092275694e-05 1.3470847819937361e-05 0.00013894687569449465 -6.1153261299015183e-06 3.4075529437386776e-05 2.5037491216157049e-06 2.753395321633424e-05 1.613578206757248e-05 2.2180607753901575e-05 -4.0314699462365802e-05 -4.2295074526924048e-06 6.4513895206832258e-05 6.0233830241835057e-05 -4.0499902460573549e-06 4.829123986519108e-06 4.9216281910406638e-05 6.1036261792220053e-06 1.5561310450738395e-05 8.7240520901192119e-07 -1.3261865156609382e-05 -1.739666265968136e-05 -1.0774948070379919e-05 -4.0255489988868815e-06 -1.0212337175265632e-05 -9.2309899616390733e-06 1.2374820298552407e-05 -1.5065144939996856e-05 -2.0453567804325119e-05 1.2595075147464163e-05 1.5495400009623054e-05 7.5469799225797677e-05 -4.8782763799512226e-06 1.2011163526603585e-05 8.8918069553894116e-06 -8.0388697298017751e-06 -1.717691251073483e-05 -1.4028242628007512e-05 7.1134073247660823e-06 2.4846300133358513e-06 4.9862797707152847e-07 6.8180103172455199e-06 1.271244195117764e-05 -2.0248252070574798e-06 1.3915721454907783e-05 1.5601283837768934e-05 1.2733267182767201e-05 1.3242705729400289e-05 1.3429512608549598e-05 2.4223828309184983e-05 9.3411923197072016e-06 3.6093348975743087e-05 0.00010616236019373023 -2.529214472587072e-06 -9.1711019055925637e-06 9.7688241456204711e-05 4.7825151267803259e-05 9.1034555177313541e-06 6.8956416699361365e-06 4.5601191043089266e-05 3.7026234244363822e-05 2.2124686814838787e-05 -1.5588571644235664e-05 -1.6404320602475802e-05 3.2473781316860994e-05 -1.4523143746960742e-05 5.379688311642726e-05 -2.4249906245038262e-05 -3.9415910952611712e-05 2.4115148855409155e-05 6.4187951996274564e-05 1.6221818966850573e-05 1.7818799166160044e-05 -5.4121822615615798e-06 -1.2536225009159366e-05 -6.8597906670722977e-06 -8.5142751473637639e-06 2.4062561432835322e-05 9.9471041787017487e-06 1.6685023157980311e-05 1.4603168413098292e-05 1.8547226847346189e-05 -4.9465296460991012e-05 -1.8510468115255825e-06 2.5025705560434078e-06 -3.6567971635961404e-06 -3.8647391080984272e-05 -1.8199256519166761e-05 -2.0879722261941134e-05 -3.4753778241368427e-05 -2.91180779106113e-05 8.329912893138681e-06 -2.8483232635365796e-05 4.2586244929883614e-05 2.3723713748759182e-05 2.3555237349632082e-05 -1.1856968374098875e-05 1.5031297282433681e-05 2.4485407117209994e-05 -5.4590244227983951e-06 1.2290636616860254e-05 5.0917396698251749e-06 2.9050085124541542e-06 1.1203159653200336e-05 -2.2494677341375119e-06 -1.6836941528793731e-06 1.114068550105852e-05 1.3760830648661064e-05 9.6455792654313491e-06 8.793371459520585e-06 2.223455202613588e-06 2.0532038233279186e-05 1.3432927833008804e-05 5.5843850404953874e-06 3.0635702109149879e-05 4.9193943617238168e-06 7.1162076090222326e-06 -1.7166987043245197e-05 -1.4021688696602729e-05 6.964545089041115e-05 1.0650284032944853e-05 2.1375841746147466e-05 -1.1771499760258452e-05 -2.0468975281789533e-05 -3.3076518701508862e-05 7.0548351781480928e-06 -1.5980349498221555e-05 -1.8859646708563085e-05 -1.8971277156399602e-05 -1.4613896343923905e-06 3.9287731035291592e-06 -3.5624650327374264e-06 8.0547599980332167e-06 2.9937974340724267e-05 -9.199884587602486e-06 1.3419124986390356e-05 7.8990282166962322e-06 9.485853400396406e-07 -8.2103882403899281e-07 8.5611754907422873e-06 8.3321355450613276e-06 3.954173347619919e-06 3.406876996017087e-05 5.412319189959952e-05 1.7736905173155289e-05 1.2695787628997743e-05 8.2815957815107798e-06 -1.0751507819433456e-05 2.182521648882085e-05 1.793964543156867e-06 5.6980584832007841e-06 7.0923290157994608e-06 -2.0140468597812111e-05 -2.9608625442088689e-05 1.687137859687383e-05 -3.8209488994432334e-06 -2.3824763210347745e-06 -5.125095949737554e-05 -2.8824778131519689e-05 6.289158988761089e-05 0.00013577943886420064 9.4157990677163906e-06 1.0117938787766083e-06 3.2698948234833262e-05 -1.7165470531597547e-05 1.0458611717086237e-05 -7.7041317397199963e-06 -2.0628978516273508e-05 -4.5358758669611416e-05 -5.8642915230014414e-06 8.9387419956133904e-06 1.5387802673193002e-05 4.6757698094851104e-06 1.7052780774905153e-05 2.0821471160991786e-05 -7.9152444193224023e-06 -2.3158155377438032e-06 -2.3421229940863386e-05 7.9456129192050605e-06 6.4456390177587892e-06 5.7922261412378037e-06 -5.6905230337849378e-07 -2.2611430344176951e-06 5.9760225660203411e-05 1.6851317711731921e-05 1.079550813812525e-05 1.2587443297368541e-05 3.9728825384939916e-05 -1.2747400171792227e-05 1.2974705451758876e-05 -3.1571711498187054e-05 -2.0575482569356002e-05 -2.5753260995566734e-05 1.092970913251045e-05 1.2764159167424333e-05 2.3448116115581841e-05 2.311081876016723e-05 1.4570900343989488e-05 -6.0798076438983543e-06 5.9780353697507643e-06 1.1127429429067403e-05 2.2552925396808567e-05 1.0902031528032055e-05 -9.6821285827577291e-06 -7.0838233397533222e-06 5.8071120929152793e-06 -1.36292943388335e-05 -1.3306921904249905e-05 -1.9678925405610726e-05 -3.0190585630817204e-05 -1.7447522688681966e-05 6.3430968422396625e-06 7.5330692743875581e-05 -9.5486563369421867e-06 -8.3042342015610703e-06 1.6321074286636851e-05 -1.2398159820033027e-06 -9.5851781556256386e-08 -2.2813454442108517e-05 -2.3510776925151509e-05 2.2057641470669791e-05 -2.1840262623522289e-06 -2.2006416654951601e-05 -2.4739902676543398e-05 5.2881697161854895e-07 4.2977300843166004e-05 7.6330738366060618e-05 1.2328327952623809e-05 -1.6949421746096749e-05 -2.4237568757597963e-05 -2.1267458389111267e-05 1.4740062930020445e-05 1.3972241320175114e-06 2.8689035737246315e-06 -1.5260989835942943e-06 -1.0372930226696536e-05 -3.5596010948685592e-06 1.3301352898018181e-06 -1.7856920306598249e-05 -2.6676670841527185e-05 -8.8592094778152288e-06 -8.0317314071524759e-06 -5.459730415613148e-06 -6.3297230714598509e-06 8.4420020605103569e-06 2.8952372939468983e-05 1.6009883792410077e-05 -3.746159900618138e-06 1.1637953171714623e-05 -4.6752991529510531e-06 -4.5046686117874925e-06 1.4819785096976296e-05 1.5434833358541396e-05 -4.1259120125243173e-05 3.8590152216006098e-05 -7.8898724805312546e-06 2.1380629791903377e-05 -2.1895888173281415e-05 -1.4940786852147989e-05 2.2600629469951543e-05 1.26030120689238e-05 8.245325979508401e-06 -2.192174048780725e-05 -1.5596491416555392e-05 2.7980802352413459e-05 -3.8792901072611657e-07 6.5716545418603028e-06 -1.2891304156208961e-05 -7.9523814365178229e-06 1.5051127899929389e-05 1.4591408391122597e-05 3.2886253556305397e-06 5.9090755480316033e-06 1.3754461793298951e-06 1.2542675535554744e-06 6.4414171910355035e-06 2.6949579978024352e-05 1.9690944380834516e-05 2.1152967383620668e-05 -8.0198907453921109e-06 2.3085177923337251e-05 1.9316275547833075e-05 2.5430136198608593e-05 -2.8149901381494934e-06 7.3788615793307167e-06 -1.071070906039702e-05 -9.6269365594368516e-06 1.1563597420542803e-05 5.3397046023046543e-05 9.1461061265084515e-05 1.9299187384659384e-05 2.275962916573148e-05 -7.4322426040942906e-06 -2.8961365061531226e-06 1.0210679082178536e-05 -1.2834057553910889e-05 1.8587729980997121e-05 6.3450937291906358e-06 2.1255339002509521e-05 1.5204458226326456e-05 -5.7747440923616765e-06 1.2800179257019977e-05 1.6362114565842629e-05 1.8683078683933742e-05 -3.6216042121391817e-06 -5.2963510279151464e-06 -5.8348160258803912e-06 3.00569064945734e-05 -1.6252313862843145e-05 -1.249585493588343e-05 -2.0302621075594853e-05 3.6890957732966211e-05 2.9539891118169245e-05 1.5261789371542363e-05 -2.5341754067455518e-06 1.919839558166595e-05 3.1945287185969904e-06 -1.2945606131552494e-05 -1.0868500717914158e-05 2.7549628483685562e-05 2.6652945939464591e-05 4.6189248690785929e-05 2.1059324610371165e-05 1.7756253896029347e-05 4.1154699761468401e-05 2.7019190409501229e-05 3.8715342623976863e-05 -9.2690154917414707e-06 2.6523483957594695e-05 2.0614486630444751e-05 -2.2900384265647257e-07 2.6246700607213262e-05 1.020065359950969e-05 -3.4852574816372924e-05 2.2000758784239047e-06 1.8293614228560354e-05 3.3657385086755547e-05 -6.0748105597033513e-05 1.1604031043988922e-05 1.508454909132078e-05 8.7323504326082554e-06 -1.5405689527373152e-05 6.9347395572085794e-06 1.4181847932832518e-05 1.5196440980021515e-05 9.7394233910438324e-06 1.4073055715758964e-05 -1.0689958991075057e-05 7.1383585491188197e-05 -1.3542125257002944e-05 1.4186205480167667e-05 1.5793845689199336e-05 -9.8479281184903761e-06 2.2161768355268658e-05 1.9452176273189231e-05 1.7245426284626781e-05 1.4288146548115776e-05 -1.1149918739938027e-05 6.0900457568044845e-06 1.2990609524594469e-05 -1.3448075742613239e-05 6.3756302332833021e-05 4.7453485701415103e-06 3.5382029996426818e-07 1.1440789627775308e-05 1.425001999264591e-05 3.0402370206440737e-05 1.5152308642056404e-05 8.1078376764215636e-06 1.3769716904322236e-05 -1.9878114535856089e-05 -1.6938734490210602e-05 1.7293178566360339e-05 -2.4114942231729265e-05 -3.2636030000791731e-05 1.9043268324699754e-05 3.3229307150646893e-05 2.2272164434942245e-05 8.0163652889738866e-07 6.2876087605994927e-05 1.1050448365950734e-05 1.804645207347634e-05 5.5182816371720416e-05 1.1946817660679236e-05 5.4683159858180327e-06 5.7079939072720003e-07 9.1326435672641978e-06 1.8569679032971295e-05 4.1866458599127852e-05 -6.5876232585325217e-06 -3.2900988141623268e-05 -5.847156034148414e-05 4.413977772619595e-05 -5.3962194888734948e-06 4.410974724748397e-05 7.7841392580754894e-05 0.00012641644953854914 7.7344597562122312e-05 3.0174707159386549e-06 1.3994129316447878e-05 6.5892477099124271e-05 3.0754758279530065e-05 2.2867576603068131e-05 1.7625367260398588e-05 -4.3327273661609121e-06 -3.2921980746311412e-06 7.4025387077590599e-06 1.3206256775602705e-05 4.1429800459045671e-05 -2.3281950363074257e-06 3.137064148402064e-05 -3.5291382736351087e-06 2.4012561229147912e-05 2.222305650664071e-05 8.7672754912409504e-06 1.1892075969176859e-05 1.1481620979929405e-05 1.8672845114257939e-05 -2.5094033021458696e-05 3.8185190714450296e-05 2.1474252930486923e-05 2.6063927501846787e-05 6.2430453885864586e-06 7.5824823618241043e-06 -7.6800000686709936e-05 -4.0709938962910021e-05 1.3941904771294077e-05 6.6602016691299715e-06 2.3712962833957331e-05 2.3967329422012918e-05 1.9864109616359743e-05 -1.823482745190351e-05 -1.3216479267617226e-05 5.1531835538663707e-05 -1.030038050517403e-05 -9.1191303352104302e-06 6.8467635077947703e-06 5.6923098841640016e-05 2.1378008583009172e-05 1.8564168397111489e-05 1.933744572215058e-06 -2.6025224868484933e-06 -2.6914785555636718e-05 -4.275022414838448e-05 -3.4587085502890995e-06 3.3339601858565766e-05 1.995687988080529e-05 2.4309624917938103e-05 2.1924101713523331e-05 3.3026658725191702e-05 3.4712395808132725e-05 -7.1446601912104543e-07 7.7859974088215749e-06 1.817139108707398e-05 4.4032522842522635e-05 -2.3199261958776458e-05 -3.5007665010098203e-05 -3.7275263468429018e-05 3.9210741680890693e-05 1.8096877372463507e-05 -1.0334404130326378e-05 -8.4764478851803712e-06 7.730792529957204e-06 2.3078854557767694e-05 2.2828945648784124e-05 6.8848928075036278e-06 -2.4654942382561348e-05 3.275057347017587e-05 3.1372391137812945e-05 2.3681479293696595e-05 1.2833137872595709e-05 1.6389730704617722e-05 2.356695586799045e-05 8.8426650908046602e-05 2.8608826238042673e-07 5.2614299026065717e-05 3.8254514189662789e-07 1.8271449429961107e-05 1.4411780134631799e-05 1.5089807105218773e-05 -3.0732471918030176e-05 -3.79134693372722e-05 1.050173849397045e-05 3.839944051128905e-06 3.0369655335051416e-05 -7.6882231993623517e-06 -4.3113790953262263e-06 -2.6383252010942409e-06 -9.6460779848261862e-06 -1.7535170455749071e-05 -9.8603478485260153e-06 9.5705780298657813e-06 7.3322405032963988e-06 4.7208264843165647e-06 4.0758845608357599e-06 1.3659639942420303e-05 -3.7873371179419565e-06 -9.8091639152428974e-07 4.1369215786329075e-06 9.5438803270074155e-06 -4.9039060186927588e-06 -2.8290597252296561e-06 2.0423533901367389e-05 1.191450402134181e-05 -4.8251014817095895e-06 -6.8398756688709775e-06 3.9856530892839733e-05 -2.4922208168569435e-05 -4.3425588527616342e-07 2.7521538383770748e-05 1.8402611956951019e-05 1.5413900663684627e-05 -2.0106661731063828e-05 -1.4651741302959951e-05 2.4493182102968776e-05 1.7759290059169321e-05 8.2114224914117319e-06 -1.5271927065227414e-05 -3.2550842135938246e-05 7.9315294585810791e-06 1.4052856463927794e-05 4.5843983475543972e-06 1.9298211042273152e-05 6.7025504375203837e-06 6.4771608675716675e-05 1.2949324126550846e-06 -3.2718884589054073e-05 4.249198276206202e-05 3.7846792036078884e-05 -1.0006950606518444e-05 2.2724934676642549e-05 -2.5102682350116702e-05 -4.2687417019853382e-05 -2.6498970049993158e-05 -4.62572905565278e-05 -1.2985589613078864e-05 -1.5949066006022075e-05 1.7461083286775037e-05 2.1753726315823759e-05 3.4169309961831231e-05 6.9490767881739274e-05 3.2098055917228533e-05 5.8720118111068486e-05 2.4368583707355272e-05 6.1910392400955501e-06 2.2385302049563939e-05 1.5987310944292282e-05 2.4146976773517625e-05 -5.3830536776194177e-05 2.2540773585336178e-05 6.640792724089007e-05 6.3739370527161247e-05 3.789632635213682e-05 -5.0107626116370542e-05 -2.8388380855337061e-05 2.2177069091135971e-05 -2.2769878423198721e-05 -1.5776656432327446e-05 1.6419116335444689e-05 1.8695718894932119e-05 4.5404182267354395e-05 -2.0890403273979719e-05 -3.9025130380126305e-07 2.9389723092636419e-06 7.5036835400289531e-06 7.9458041575336189e-06 1.41609190763332e-06 1.4218298701619949e-06 -1.0508648049863042e-05 5.2829097889137963e-06 -4.3333521362419532e-06 -3.7252663783604053e-06 -2.4857075484364726e-05 -4.4799059390860057e-05 -1.2305465508228906e-05 1.5554052132374471e-05 -5.8501035510725085e-06 -1.9991869851173891e-05 -3.7256689837014067e-05 1.3310695285167903e-05 4.1446688710411098e-05 -3.1631554145831567e-05 -5.8610217204051236e-05 4.9362448100945543e-07 -1.2626923365626538e-05 -3.5672012897130114e-06 7.2774307277163842e-05 -3.0367324896460185e-05 -1.9589028558606419e-05 8.5589592770757782e-06 6.7269661994218783e-06 2.3513088897611186e-05 1.2256906838669216e-05 1.9976148634699255e-05 6.6813446117864207e-05 -1.2446343710240517e-05 8.6543669033798625e-06 7.8257937496865274e-05 -2.53874007899211e-05 -7.08950012712523e-05 -3.8299827360658527e-05 2.6610290775843038e-05 -1.1480507684969902e-05 -1.692701456781036e-05 4.203648955791618e-05 -1.7697196013203827e-05 9.8432589464279467e-06 8.6884171350361597e-05 -1.287124872234092e-05 1.2654393858089566e-05 1.8816595056167444e-05 4.6710209145772564e-06 -2.1269155572234758e-05 3.8489527355291655e-05 1.7057725457995742e-06 3.7929017290852583e-05 -1.9712409237137467e-05 1.862627165894864e-06 -1.0487386070725812e-05 -3.1390734488570939e-05 -2.2264446940192516e-05 -1.5233738515235891e-05 -2.2034276583011417e-05 3.8031125630496209e-06 -1.0049315699609004e-06 -2.4019095724253302e-06 -4.4315033507855573e-07 1.1550145787756265e-05 3.1824650386516804e-05 1.784682706980569e-05 1.2670830166505633e-05 1.6797290927563841e-05 3.6066966586366682e-05 1.6453441956235267e-05 -4.0250248420587651e-05 -7.597023400042214e-05 2.8537432224833535e-05 4.1240842614831646e-05 -8.0966093502688702e-06 1.2666688453368922e-05 4.7593814959580265e-06 8.0962816645946886e-06 4.8490082713720765e-05 -1.6943230006859618e-05 -1.2801532309664471e-05 -1.6150115233687223e-05 -2.4838352400403524e-05 -4.0268410388989598e-05 4.6992341864008714e-05 3.2470594472625632e-05 -1.5960111050002842e-06 -1.1500317458677491e-06 1.90596531218706e-05 -1.3256393639096823e-05 4.2322261474573891e-05 9.5353722856516753e-06 1.0791375364144178e-05 5.8138654594254714e-05 -7.3480069355495638e-05 1.4335964068208444e-05 -4.74508708949264e-06 -2.7635969685229718e-06 1.9428246034463721e-05 -2.4908008652705044e-05 -4.1845911826174953e-05 4.9831366594385671e-05 -1.6720375117532755e-05 3.8910633826170251e-05 2.02694188396207e-05 2.4872824996514492e-05 1.3677047574383423e-05 1.3387418473955137e-05 3.3601958153272607e-06 5.0522463463132579e-05 4.8103035138802116e-05 -8.3666676567532286e-06 -1.0278501543175764e-05 2.748739682731957e-05 3.1485477778832489e-05 2.3886626543242941e-05 4.0855107089511752e-05 1.4889772021444771e-05 4.7390503577369547e-05 3.1899941259445075e-05 -2.508500877827953e-05 -2.8650986723301013e-05 -4.9643223914700406e-05 3.1337899311803562e-05 3.3353839155692447e-05 1.3573463060812749e-05 1.1370164164946182e-05 -3.4528062562379043e-05 -2.0873209265777472e-05 -1.6396670429446243e-05 6.1946569228204292e-05 -1.4604852151521098e-05 1.2272380642945901e-05 1.6542781946131775e-05 -9.3711448711492453e-06 6.1949117994777993e-07 1.3991446905576445e-05 2.7703818846230739e-05 -1.3731138865185634e-05 -1.9809061195282646e-05 -3.3870207765630139e-05 -1.1877962770643247e-05 -1.5841867380886896e-05 -1.1804017560640138e-05 -7.78648306438842e-06 1.1225196243294413e-05 -2.1164457510520648e-05 -1.8791146562709624e-05 -3.7615552046009551e-05 -6.8000519956607636e-06 1.3312315009792877e-05 6.7895602457842023e-05 6.2581580410576943e-05 -2.8879645499629381e-05 5.8097768460192584e-05 5.1899728544413869e-05 -3.7838706757416543e-06 5.2254538968056662e-06 -3.8976649180281066e-05 2.0684810747521382e-05 5.5107013155554472e-05 9.6020413948601896e-06 -2.9593418842349529e-05 -5.1342571603411749e-05 -2.2430200652930185e-05 2.5236708592763554e-05 1.2021596338696711e-05 3.2284816729025168e-05 -1.560817911098858e-05 -1.9038076732136341e-05 -2.5425475847679044e-05 2.2388286547442827e-05 -1.0382448012366993e-05 4.181007593204717e-05 1.7102272560370347e-05 1.2454089401480806e-05 -2.6408403750854292e-05 -4.604829100222361e-05 -2.3986594551400155e-05 1.0829059975448748e-05 2.2541405240789167e-05 -2.0822961556040464e-06 9.2803226351270219e-06 -1.2453406367933672e-05 -6.6790098028198971e-06 1.1353656254006484e-05 1.2312064375207254e-05 -2.9579253133610653e-05 -5.479345140842548e-05 -2.2317984663118928e-05 6.6280430533178169e-05 5.7165490042638276e-05 -2.1645905559334808e-05 8.7514887983240232e-05 2.6431329977929819e-05 7.4782349287190551e-06 6.9519493234619038e-05 0.00011481814113592975 -1.7321971375009175e-05 -4.9977659186166155e-06 1.5092374775282093e-05 -2.0126888721764668e-05 2.4620842070602258e-05 1.5185524205071765e-05 -6.0473666053713568e-07 7.5105236407877439e-05 5.1297038316266047e-06 1.8501833942570644e-05 2.1565819944580143e-05 2.4754804504897475e-05 5.413236754117824e-05 9.0741989985146517e-05 4.5791197877713607e-05 2.927167980565228e-05 2.0121579672766974e-05 3.9241667842549599e-05 -1.7984440263206475e-05 -1.253072759992795e-05 -7.1257116767814572e-06 -5.1126430183984976e-06 1.486155662642802e-05 3.0863386630421694e-05 1.6513298009941417e-05 -2.1552435011286961e-05 9.3118765370606057e-06 1.4300065508258969e-05 1.2423957890221455e-05 1.0968413869842783e-05 1.1898035272872229e-05 -1.7931267169903498e-06 7.9914703592448918e-05 1.2694743173351649e-05 -2.1227735579759503e-05 -1.149815782641294e-06 0.00013424583440958988 9.4361383744922733e-05 5.6633646302756916e-05 -1.9088216488593115e-06 -6.156166949850922e-07 8.3280984071214953e-05 -9.7176766043066687e-07 1.2274250718515237e-05 1.1365732418554073e-05 -5.6556279460725027e-06 -9.8305465539229482e-06 9.2820280868364017e-06 -4.843953268486318e-06 7.3468274560558027e-06 4.2988583259763067e-05 7.8970504922780491e-05 3.0738917827382309e-05 -4.1639710619643667e-06 2.2455066820025967e-05 5.4192001452025456e-05 6.6139876075473503e-06 1.5354450082307188e-05 9.2323479060751196e-06 -4.975650486184393e-06 2.380663909220984e-05 2.7297242015039485e-05 2.6090622844693453e-06 1.0345500377679927e-05 2.8291777998914374e-05 1.2051170371412132e-05 4.3437308955674911e-05 3.4136552699470975e-05 2.2802115217203335e-05 -8.7800166063899495e-06 1.9502716411943452e-05 2.3252896004798582e-05 8.9716698650094706e-05 8.022695271697435e-05 7.7696012709625381e-05 3.1729226533220521e-05 -2.6668436965000515e-05 2.2084454662824358e-06 -1.046429155257928e-05 -9.3249072709201799e-06 1.5655998961042937e-05 -1.1975399054766975e-05 -1.4147960819829547e-05 -1.5125521024972514e-05 -1.8186380066009682e-05 2.5452723973276321e-06 1.53457849599031e-05 5.163884785883751e-05 3.6505874464408454e-05 4.2627201193896799e-05 1.4131098867507623e-05 -6.5371529933204994e-06 6.5579108750676535e-06 1.3321602748066717e-05 -4.2973093916498778e-06 4.7995940875979832e-06 9.9222293374279453e-06 -1.5873662787639346e-05 -2.0431449902351706e-05 -1.7585850516689316e-05 -1.3874708091690479e-05 8.3747460550745011e-06 2.8311217048635576e-06 1.3635643779820889e-05 1.3939927564557745e-05 6.9705532648823361e-06 1.181881926149213e-05 1.1757952366495168e-05 5.118763418207515e-05 0.0001430192829506808 -5.0389021399625678e-06 3.1776714942622372e-05 1.4664398777151553e-05 1.5225424970300507e-05 4.894023299083076e-05 -1.3170890904523722e-05 3.9794655747865342e-05 2.5365041794950989e-05 -1.3514713763317391e-05 1.9616461428679523e-05 2.0473887987514051e-05 3.1659435360005929e-06 3.7865726555571421e-05 9.1366817547768594e-06 -1.0435297845693466e-05 -4.8453628506761906e-07 2.2733377608993648e-06 1.6474181688277503e-05 9.8615258337281285e-06 6.6778331778409125e-06 9.7985814436985915e-06 8.1542766356549217e-06 -1.3259930865012841e-05 3.1171478592825069e-06 9.8368605550348977e-06 -5.750345332583551e-06 6.0802189058610637e-05 2.2497793575419582e-05 -3.8094132827565588e-06 1.2879339401634438e-05 -5.5035372550462421e-06 -1.562396527325996e-05 1.4633471727651306e-05 1.6538141812374421e-05 2.1376288426902059e-05 3.1157379977988717e-06 -8.3087489924100338e-07 -1.1514461837774416e-06 -9.1919513727878148e-07 2.9637519784056834e-07 2.8239757673920632e-05 5.6119250796455336e-05 9.4349393180355218e-05 1.3154193661933451e-05 -2.8615581833559695e-05 -2.4627146958830677e-05 4.3701923444902265e-06 1.250611633342122e-05 1.3018243186993444e-05 1.8976754790113124e-05 -1.0440074981941678e-05 1.1381134872943954e-05 9.9192528727855885e-06 -1.3970803570634123e-05 -1.9387847495534657e-05 -1.4445764118423227e-05 -1.1954412941997717e-05 1.4082674948045606e-05 -2.8041539216484748e-05 2.3890849329178537e-05 2.1970250314289758e-05 -6.676834289044318e-06 4.8622486706687278e-06 1.4056080070069399e-05 1.1864882690058302e-05 -9.4232154383783875e-06 -1.643011949317423e-05 -9.9698081040754897e-06 2.5498610395195616e-05 -9.4540718468415336e-06 2.3936863586344588e-05 -7.6989507063568465e-06 1.0090291358529473e-05 -7.6700377043635972e-06 3.1258559015425541e-05 5.3775502136042645e-05 8.866290215825824e-06 -1.4045256997658254e-06 -5.7869422132031043e-06 2.308112350974962e-05 2.5870124505786643e-05 4.3104544653959492e-05 -8.3826122639074629e-07 4.2979351120465449e-05 -3.9490561295134168e-06 5.2644524415341575e-06 1.119766971050234e-05 1.0593479142376042e-05 -2.0572208705314294e-06 -1.2577881632998213e-06 4.7018985040992238e-05 6.9395199374527383e-06 5.1652253272869758e-06 -1.9219193628575352e-06 -2.1993880902849462e-05 -3.0406784919295759e-06 3.9318976708989774e-05 1.8739233005684013e-05 2.3349493598869768e-05 4.7753445225269292e-05 -5.7824481975928292e-06 -1.5172917026814317e-05 3.2623098888587832e-05 3.5598052837051331e-05 1.2420220178223763e-05 1.0783018876920577e-05 1.4201967657674197e-05 1.9893640548268907e-05 7.7801867787776705e-05 -1.4192967811933136e-05 -7.8516315538972492e-06 1.1503133285144045e-05 6.6872795700315905e-05 2.4012324565853048e-06 1.1587385920839416e-06 -8.6222876578558413e-06 1.9543804153544818e-05 
</DataArray>
</CellData>
</Piece>
</UnstructuredGrid>
</VTKFile>
