<?xml version="1.0"?>
<VTKFile type="UnstructuredGrid" version="0.1" byte_order="LittleEndian">
<UnstructuredGrid>
<Piece NumberOfPoints="902" NumberOfCells="306">
<Points>
<DataArray type="Float64" NumberOfComponents="3" format="ascii">
0 0 0 0.073205080756622284 0.073205080756783406 0 0.099999999999814668 0 0 0 0 0 0 0.10000000000041601 0 0.073205080756622284 0.073205080756783406 0 0 0.10000000000041601 0 0.073205080756622284 0.073205080756783406 0 0.091402515083494409 0.15708578875639231 0 0.073205080756622284 0.073205080756783406 0 0.091402515083494409 0.15708578875639231 0 0.15027753147047779 0.085031708671012771 0 0.073205080756622284 0.073205080756783406 0 0.099999999999814668 0 0 0.15027753147047779 0.085031708671012771 0 0 0.20000000000083221 0 0.091402515083494409 0.15708578875639231 0 0.081883829897837504 0.25483250623203502 0 0 0.10000000000041601 0 0 0.20000000000083221 0 0.091402515083494409 0.15708578875639231 0 0.091402515083494409 0.15708578875639231 0 0.15549563120825899 0.22728761896597441 0 0.081883829897837504 0.25483250623203502 0 0.091402515083494409 0.15708578875639231 0 0.15549563120825899 0.22728761896597441 0 0.19770415439635231 0.16188916215834151 0 0.091402515083494409 0.15708578875639231 0 0.19770415439635231 0.16188916215834151 0 0.15027753147047779 0.085031708671012771 0 0.19770415439635231 0.16188916215834151 0 0.24865572115759171 0.085435742792086475 0 0.29474128210898343 0.16200542811217281 0 0.15549563120825899 0.22728761896597441 0 0.19770415439635231 0.16188916215834151 0 0.25 0.25 0 0.19770415439635231 0.16188916215834151 0 0.29474128210898343 0.16200542811217281 0 0.25 0.25 0 0.099999999999814668 0 0 0.15027753147047779 0.085031708671012771 0 0.19999999999955789 0 0 0.19770415439635231 0.16188916215834151 0 0.15027753147047779 0.085031708671012771 0 0.24865572115759171 0.085435742792086475 0 0.15027753147047779 0.085031708671012771 0 0.24865572115759171 0.085435742792086475 0 0.19999999999955789 0 0 0.24865572115759171 0.085435742792086475 0 0.19999999999955789 0 0 0.29999999999926641 0 0 0.24865572115759171 0.085435742792086475 0 0.29999999999926641 0 0 0.34895628004087342 0.081718455239699395 0 0.29999999999926641 0 0 0.34895628004087342 0.081718455239699395 0 0.3999999999989749 0 0 0.24865572115759171 0.085435742792086475 0 0.34895628004087342 0.081718455239699395 0 0.29474128210898343 0.16200542811217281 0 0.29474128210898343 0.16200542811217281 0 0.3464199946918517 0.23853139853342401 0 0.25 0.25 0 0.29474128210898343 0.16200542811217281 0 0.3464199946918517 0.23853139853342401 0 0.40494618262236548 0.1650662896072117 0 0.34895628004087342 0.081718455239699395 0 0.29474128210898343 0.16200542811217281 0 0.40494618262236548 0.1650662896072117 0 0.3464199946918517 0.23853139853342401 0 0.40494618262236548 0.1650662896072117 0 0.42061435012922882 0.23794897811370561 0 0.42061435012922882 0.23794897811370561 0 0.49638486706945439 0.2121184447907791 0 0.48197160777613701 0.29296902118871587 0 0.40494618262236548 0.1650662896072117 0 0.42061435012922882 0.23794897811370561 0 0.49638486706945439 0.2121184447907791 0 0.40494618262236548 0.1650662896072117 0 0.49638486706945439 0.2121184447907791 0 0.49677298727352631 0.1419426259588793 0 0.40494618262236548 0.1650662896072117 0 0.49677298727352631 0.1419426259588793 0 0.44949959448178062 0.082308188761819806 0 0.49677298727352631 0.1419426259588793 0 0.44949959448178062 0.082308188761819806 0 0.54912436800118414 0.07923269986872096 0 0.44949959448178062 0.082308188761819806 0 0.49999999999869432 0 0 0.54912436800118414 0.07923269986872096 0 0.44949959448178062 0.082308188761819806 0 0.49999999999869432 0 0 0.3999999999989749 0 0 0.34895628004087342 0.081718455239699395 0 0.44949959448178062 0.082308188761819806 0 0.3999999999989749 0 0 0.34895628004087342 0.081718455239699395 0 0.40494618262236548 0.1650662896072117 0 0.44949959448178062 0.082308188761819806 0 0.4375 0.4375 0 0.375 0.375 0 0.37209049300057639 0.44668163221273938 0 0.4375 0.4375 0 0.45958432544769412 0.36572680929244022 0 0.375 0.375 0 0.4375 0.4375 0 0.375 0.375 0 0.4375 0.4375 0 0.37209049300057639 0.44668163221273938 0 0.41666666666666657 0.5 0 0.4375 0.4375 0 0.5 0.5 0 0.51443730641548846 0.4230626935845116 0 0.4375 0.4375 0 0.41666666666666657 0.5 0 0.5 0.5 0 0.4375 0.4375 0 0.5 0.5 0 0.4375 0.4375 0 0.45958432544769412 0.36572680929244022 0 0.51443730641548846 0.4230626935845116 0 0.45958432544769412 0.36572680929244022 0 0.48197160777613701 0.29296902118871587 0 0.53795066522196777 0.35232980433802918 0 0.45958432544769412 0.36572680929244022 0 0.48197160777613701 0.29296902118871587 0 0.39571815329053278 0.30366769536745408 0 0.3464199946918517 0.23853139853342401 0 0.42061435012922882 0.23794897811370561 0 0.39571815329053278 0.30366769536745408 0 0.42061435012922882 0.23794897811370561 0 0.48197160777613701 0.29296902118871587 0 0.39571815329053278 0.30366769536745408 0 0.45958432544769412 0.36572680929244022 0 0.39571815329053278 0.30366769536745408 0 0.375 0.375 0 0.375 0.375 0 0.3125 0.3125 0 0.29795246500288208 0.42090816106369688 0 0.39571815329053278 0.30366769536745408 0 0.375 0.375 0 0.3125 0.3125 0 0.375 0.375 0 0.3125 0.3125 0 0.3464199946918517 0.23853139853342401 0 0.39571815329053278 0.30366769536745408 0 0.3125 0.3125 0 0.3464199946918517 0.23853139853342401 0 0.3125 0.3125 0 0.25 0.25 0 0.3125 0.3125 0 0.25 0.25 0 0.2364851416377855 0.35196809740109009 0 0.3125 0.3125 0 0.25 0.25 0 0.3125 0.3125 0 0.29795246500288208 0.42090816106369688 0 0.2364851416377855 0.35196809740109009 0 0.375 0.375 0 0.29795246500288208 0.42090816106369688 0 0.37209049300057639 0.44668163221273938 0 0.37209049300057639 0.44668163221273938 0 0.33333333333333331 0.5 0 0.41666666666666657 0.5 0 0.29795246500288208 0.42090816106369688 0 0.37209049300057639 0.44668163221273938 0 0.33333333333333331 0.5 0 0.29795246500288208 0.42090816106369688 0 0.33333333333333331 0.5 0 0.25 0.5 0 0.20086089844078761 0.43409067997123951 0 0.16586218125878449 0.51810759034366505 0 0.25 0.5 0 0.29795246500288208 0.42090816106369688 0 0.20086089844078761 0.43409067997123951 0 0.25 0.5 0 0.29795246500288208 0.42090816106369688 0 0.20086089844078761 0.43409067997123951 0 0.2364851416377855 0.35196809740109009 0 0.20086089844078761 0.43409067997123951 0 0.2364851416377855 0.35196809740109009 0 0.15692990060445861 0.37320329292197801 0 0.20086089844078761 0.43409067997123951 0 0.15692990060445861 0.37320329292197801 0 0.097900886736469753 0.44336704329953031 0 0.20086089844078761 0.43409067997123951 0 0.097900886736469753 0.44336704329953031 0 0.16586218125878449 0.51810759034366505 0 0.25 0.25 0 0.2364851416377855 0.35196809740109009 0 0.16831836545025089 0.3000279332226779 0 0.15549563120825899 0.22728761896597441 0 0.25 0.25 0 0.16831836545025089 0.3000279332226779 0 0.15692990060445861 0.37320329292197801 0 0.16831836545025089 0.3000279332226779 0 0.08278240412540934 0.34553853769174547 0 0.2364851416377855 0.35196809740109009 0 0.15692990060445861 0.37320329292197801 0 0.16831836545025089 0.3000279332226779 0 0.15549563120825899 0.22728761896597441 0 0.16831836545025089 0.3000279332226779 0 0.081883829897837504 0.25483250623203502 0 0.16831836545025089 0.3000279332226779 0 0.081883829897837504 0.25483250623203502 0 0.08278240412540934 0.34553853769174547 0 0.08278240412540934 0.34553853769174547 0 0 0.30000000000124832 0 0 0.40000000000166441 0 0.081883829897837504 0.25483250623203502 0 0.08278240412540934 0.34553853769174547 0 0 0.30000000000124832 0 0 0.20000000000083221 0 0.081883829897837504 0.25483250623203502 0 0 0.30000000000124832 0 0.15692990060445861 0.37320329292197801 0 0.08278240412540934 0.34553853769174547 0 0.097900886736469753 0.44336704329953031 0 0.08278240412540934 0.34553853769174547 0 0.097900886736469753 0.44336704329953031 0 0 0.40000000000166441 0 0.097900886736469753 0.44336704329953031 0 0 0.50000000000205869 0 0.080137041737376596 0.54953170839333398 0 0.097900886736469753 0.44336704329953031 0 0 0.40000000000166441 0 0 0.50000000000205869 0 0 0.50000000000205869 0 0.080137041737376596 0.54953170839333398 0 0 0.60000000000138687 0 0.097900886736469753 0.44336704329953031 0 0.080137041737376596 0.54953170839333398 0 0.16586218125878449 0.51810759034366505 0 0.080137041737376596 0.54953170839333398 0 0.092210585188327809 0.65716922645417974 0 0.14738305403764121 0.59655284915259177 0 0.080137041737376596 0.54953170839333398 0 0 0.60000000000138687 0 0.092210585188327809 0.65716922645417974 0 0 0.60000000000138687 0 0 0.7000000000006934 0 0.092210585188327809 0.65716922645417974 0 0 0.7000000000006934 0 0.066835488316682207 0.74715275320363728 0 0.092210585188327809 0.65716922645417974 0 0 0.7000000000006934 0 0.066835488316682207 0.74715275320363728 0 0 0.79999999999999982 0 0.066835488316682207 0.74715275320363728 0 0.092210585188327809 0.65716922645417974 0 0.15793426029988769 0.74398998676447015 0 0.092210585188327809 0.65716922645417974 0 0.18829732063548599 0.66099398255167208 0 0.14738305403764121 0.59655284915259177 0 0.092210585188327809 0.65716922645417974 0 0.15793426029988769 0.74398998676447015 0 0.18829732063548599 0.66099398255167208 0 0.15793426029988769 0.74398998676447015 0 0.24021577238288039 0.73972629863776906 0 0.18829732063548599 0.66099398255167208 0 0.24021577238288039 0.73972629863776906 0 0.18829732063548599 0.66099398255167208 0 0.27431461370666999 0.65461381660647655 0 0.18829732063548599 0.66099398255167208 0 0.22112359218785299 0.58198260946245006 0 0.27431461370666999 0.65461381660647655 0 0.22112359218785299 0.58198260946245006 0 0.16586218125878449 0.51810759034366505 0 0.25 0.5 0 0.080137041737376596 0.54953170839333398 0 0.16586218125878449 0.51810759034366505 0 0.14738305403764121 0.59655284915259177 0 0.18829732063548599 0.66099398255167208 0 0.22112359218785299 0.58198260946245006 0 0.14738305403764121 0.59655284915259177 0 0.22112359218785299 0.58198260946245006 0 0.16586218125878449 0.51810759034366505 0 0.14738305403764121 0.59655284915259177 0 0.10000000000041601 1 0 0.073205080757192453 0.92679491924280732 0 0.1501309503580549 0.91511756570841429 0 0 1 0 0 0.89999999999958358 0 0.073205080757192453 0.92679491924280732 0 0.10000000000041601 1 0 0 1 0 0.073205080757192453 0.92679491924280732 0 0 0.89999999999958358 0 0.073205080757192453 0.92679491924280732 0 0.08856781640825595 0.84116524500979684 0 0.073205080757192453 0.92679491924280732 0 0.08856781640825595 0.84116524500979684 0 0.1501309503580549 0.91511756570841429 0 0 0.89999999999958358 0 0.08856781640825595 0.84116524500979684 0 0 0.79999999999999982 0 0.066835488316682207 0.74715275320363728 0 0.08856781640825595 0.84116524500979684 0 0 0.79999999999999982 0 0.066835488316682207 0.74715275320363728 0 0.15793426029988769 0.74398998676447015 0 0.08856781640825595 0.84116524500979684 0 0.15793426029988769 0.74398998676447015 0 0.08856781640825595 0.84116524500979684 0 0.19698204704958311 0.82984289029900649 0 0.24021577238288039 0.73972629863776906 0 0.19698204704958311 0.82984289029900649 0 0.29272065835002509 0.81966004122186487 0 0.15793426029988769 0.74398998676447015 0 0.24021577238288039 0.73972629863776906 0 0.19698204704958311 0.82984289029900649 0 0.19698204704958311 0.82984289029900649 0 0.25000279730609037 0.91142898934179428 0 0.29272065835002509 0.81966004122186487 0 0.08856781640825595 0.84116524500979684 0 0.19698204704958311 0.82984289029900649 0 0.1501309503580549 0.91511756570841429 0 0.19698204704958311 0.82984289029900649 0 0.1501309503580549 0.91511756570841429 0 0.25000279730609037 0.91142898934179428 0 0.1501309503580549 0.91511756570841429 0 0.20000000000083221 1 0 0.25000279730609037 0.91142898934179428 0 0.10000000000041601 1 0 0.1501309503580549 0.91511756570841429 0 0.20000000000083221 1 0 0.30000000000124832 1 0 0.36018312807679881 0.90395343882148016 0 0.40000000000166441 1 0 0.20000000000083221 1 0 0.30000000000124832 1 0 0.25000279730609037 0.91142898934179428 0 0.30000000000124832 1 0 0.25000279730609037 0.91142898934179428 0 0.36018312807679881 0.90395343882148016 0 0.25000279730609037 0.91142898934179428 0 0.36018312807679881 0.90395343882148016 0 0.29272065835002509 0.81966004122186487 0 0.36018312807679881 0.90395343882148016 0 0.29272065835002509 0.81966004122186487 0 0.3859831055955032 0.7911562468105291 0 0.24021577238288039 0.73972629863776906 0 0.29272065835002509 0.81966004122186487 0 0.32850465968734038 0.72497571723197574 0 0.29272065835002509 0.81966004122186487 0 0.3859831055955032 0.7911562468105291 0 0.32850465968734038 0.72497571723197574 0 0.3859831055955032 0.7911562468105291 0 0.46922011776697548 0.77351369004258919 0 0.44913734244298342 0.8579011037016615 0 0.3859831055955032 0.7911562468105291 0 0.46922011776697548 0.77351369004258919 0 0.41400456169167021 0.70705979958180076 0 0.46922011776697548 0.77351369004258919 0 0.44913734244298342 0.8579011037016615 0 0.52379080970865055 0.82526472814768648 0 0.36018312807679881 0.90395343882148016 0 0.3859831055955032 0.7911562468105291 0 0.44913734244298342 0.8579011037016615 0 0.36018312807679881 0.90395343882148016 0 0.44913734244298342 0.8579011037016615 0 0.45000000000186152 0.93710401158983114 0 0.44913734244298342 0.8579011037016615 0 0.45000000000186152 0.93710401158983114 0 0.53853961848507526 0.91052613143614081 0 0.45000000000186152 0.93710401158983114 0 0.50000000000205869 1 0 0.53853961848507526 0.91052613143614081 0 0.45000000000186152 0.93710401158983114 0 0.40000000000166441 1 0 0.50000000000205869 1 0 0.36018312807679881 0.90395343882148016 0 0.45000000000186152 0.93710401158983114 0 0.40000000000166441 1 0 0.30438298808748598 0.57540927256642327 0 0.35694548412345278 0.64361853624604293 0 0.38429639916174169 0.5696787164162832 0 0.33333333333333331 0.5 0 0.41666666666666657 0.5 0 0.33333333333333331 0.5 0 0.30438298808748598 0.57540927256642327 0 0.38429639916174169 0.5696787164162832 0 0.22112359218785299 0.58198260946245006 0 0.25 0.5 0 0.30438298808748598 0.57540927256642327 0 0.33333333333333331 0.5 0 0.25 0.5 0 0.30438298808748598 0.57540927256642327 0 0.33333333333333331 0.5 0 0.25 0.5 0 0.30438298808748598 0.57540927256642327 0 0.27431461370666999 0.65461381660647655 0 0.35694548412345278 0.64361853624604293 0 0.22112359218785299 0.58198260946245006 0 0.30438298808748598 0.57540927256642327 0 0.27431461370666999 0.65461381660647655 0 0.24021577238288039 0.73972629863776906 0 0.27431461370666999 0.65461381660647655 0 0.32850465968734038 0.72497571723197574 0 0.32850465968734038 0.72497571723197574 0 0.35694548412345278 0.64361853624604293 0 0.41400456169167021 0.70705979958180076 0 0.27431461370666999 0.65461381660647655 0 0.32850465968734038 0.72497571723197574 0 0.35694548412345278 0.64361853624604293 0 0.35694548412345278 0.64361853624604293 0 0.43190667360534168 0.6338044761171725 0 0.41400456169167021 0.70705979958180076 0 0.3859831055955032 0.7911562468105291 0 0.32850465968734038 0.72497571723197574 0 0.41400456169167021 0.70705979958180076 0 0.46922011776697548 0.77351369004258919 0 0.41400456169167021 0.70705979958180076 0 0.48992236780659748 0.69705563000365345 0 0.43190667360534168 0.6338044761171725 0 0.48992236780659748 0.69705563000365345 0 0.50325413700727362 0.62834294463932405 0 0.43190667360534168 0.6338044761171725 0 0.41400456169167021 0.70705979958180076 0 0.48992236780659748 0.69705563000365345 0 0.43190667360534168 0.6338044761171725 0 0.45932917084445313 0.56578811481719171 0 0.50325413700727362 0.62834294463932405 0 0.45932917084445313 0.56578811481719171 0 0.51061056534295712 0.57312092011422733 0 0.50325413700727362 0.62834294463932405 0 0.35694548412345278 0.64361853624604293 0 0.43190667360534168 0.6338044761171725 0 0.38429639916174169 0.5696787164162832 0 0.43190667360534168 0.6338044761171725 0 0.45932917084445313 0.56578811481719171 0 0.38429639916174169 0.5696787164162832 0 0.33333333333333331 0.5 0 0.38429639916174169 0.5696787164162832 0 0.41666666666666657 0.5 0 0.45932917084445313 0.56578811481719171 0 0.38429639916174169 0.5696787164162832 0 0.41666666666666657 0.5 0 0.45932917084445313 0.56578811481719171 0 0.41666666666666657 0.5 0 0.5 0.5 0 0.41666666666666657 0.5 0 0.5 0.5 0 0.45932917084445313 0.56578811481719171 0 0.5 0.5 0 0.51061056534295712 0.57312092011422733 0 0.5 0.5 0 0.59999999999999976 0.5 0 0.5 0.5 0 0.59999999999999976 0.5 0 0.5625 0.5625 0 0.5 0.5 0 0.5625 0.5625 0 0.51061056534295712 0.57312092011422733 0 0.5 0.5 0 0.5625 0.5625 0 0.59999999999999976 0.5 0 0.5625 0.5625 0 0.65313871162836923 0.56208240931645903 0 0.5625 0.5625 0 0.625 0.625 0 0.65313871162836923 0.56208240931645903 0 0.5625 0.5625 0 0.625 0.625 0 0.5625 0.5625 0 0.56828204399108151 0.61921795600891838 0 0.625 0.625 0 0.56828204399108151 0.61921795600891838 0 0.51061056534295712 0.57312092011422733 0 0.50325413700727362 0.62834294463932405 0 0.5625 0.5625 0 0.56828204399108151 0.61921795600891838 0 0.51061056534295712 0.57312092011422733 0 0.48992236780659748 0.69705563000365345 0 0.55991272404133086 0.6760277657225735 0 0.50325413700727362 0.62834294463932405 0 0.56828204399108151 0.61921795600891838 0 0.55991272404133086 0.6760277657225735 0 0.50325413700727362 0.62834294463932405 0 0.46922011776697548 0.77351369004258919 0 0.48992236780659748 0.69705563000365345 0 0.55970163348305024 0.75080633321688517 0 0.48992236780659748 0.69705563000365345 0 0.55991272404133086 0.6760277657225735 0 0.55970163348305024 0.75080633321688517 0 0.61911758580022647 0.70002807341198925 0 0.55970163348305024 0.75080633321688517 0 0.64846471110503368 0.7610277027090997 0 0.55991272404133086 0.6760277657225735 0 0.61911758580022647 0.70002807341198925 0 0.55970163348305024 0.75080633321688517 0 0.56828204399108151 0.61921795600891838 0 0.55991272404133086 0.6760277657225735 0 0.625 0.625 0 0.55991272404133086 0.6760277657225735 0 0.61911758580022647 0.70002807341198925 0 0.625 0.625 0 0.625 0.625 0 0.6875 0.6875 0 0.69201159065998896 0.62048840934001104 0 0.61911758580022647 0.70002807341198925 0 0.625 0.625 0 0.6875 0.6875 0 0.625 0.625 0 0.6875 0.6875 0 0.61911758580022647 0.70002807341198925 0 0.6875 0.6875 0 0.64846471110503368 0.7610277027090997 0 0.6875 0.6875 0 0.64846471110503368 0.7610277027090997 0 0.75 0.75 0 0.6875 0.6875 0 0.75 0.75 0 0.75989579748454794 0.66142208951066328 0 0.6875 0.6875 0 0.75 0.75 0 0.6875 0.6875 0 0.69201159065998896 0.62048840934001104 0 0.75989579748454794 0.66142208951066328 0 0.69201159065998896 0.62048840934001104 0 0.74685358701831439 0.58150382891824492 0 0.75989579748454794 0.66142208951066328 0 0.69201159065998896 0.62048840934001104 0 0.74685358701831439 0.58150382891824492 0 0.65313871162836923 0.56208240931645903 0 0.69999999999999984 0.5 0 0.79999999999999982 0.5 0 0.74685358701831439 0.58150382891824492 0 0.69999999999999984 0.5 0 0.79999999999999982 0.5 0 0.74685358701831439 0.58150382891824492 0 0.69999999999999984 0.5 0 0.65313871162836923 0.56208240931645903 0 0.59999999999999976 0.5 0 0.69999999999999984 0.5 0 0.59999999999999976 0.5 0 0.69999999999999984 0.5 0 0.65313871162836923 0.56208240931645903 0 0.625 0.625 0 0.69201159065998896 0.62048840934001104 0 0.65313871162836923 0.56208240931645903 0 0.60000000000138687 1 0 0.53853961848507526 0.91052613143614081 0 0.64926043220195895 0.91383679218108282 0 0.60000000000138687 1 0 0.50000000000205869 1 0 0.53853961848507526 0.91052613143614081 0 0.53853961848507526 0.91052613143614081 0 0.60235533636516836 0.83357638234115594 0 0.64926043220195895 0.91383679218108282 0 0.53853961848507526 0.91052613143614081 0 0.60235533636516836 0.83357638234115594 0 0.52379080970865055 0.82526472814768648 0 0.44913734244298342 0.8579011037016615 0 0.53853961848507526 0.91052613143614081 0 0.52379080970865055 0.82526472814768648 0 0.60235533636516836 0.83357638234115594 0 0.52379080970865055 0.82526472814768648 0 0.55970163348305024 0.75080633321688517 0 0.46922011776697548 0.77351369004258919 0 0.52379080970865055 0.82526472814768648 0 0.55970163348305024 0.75080633321688517 0 0.60235533636516836 0.83357638234115594 0 0.55970163348305024 0.75080633321688517 0 0.64846471110503368 0.7610277027090997 0 0.60235533636516836 0.83357638234115594 0 0.64846471110503368 0.7610277027090997 0 0.7000020149222177 0.83415812519521837 0 0.64846471110503368 0.7610277027090997 0 0.7000020149222177 0.83415812519521837 0 0.75 0.75 0 0.60235533636516836 0.83357638234115594 0 0.7000020149222177 0.83415812519521837 0 0.64926043220195895 0.91383679218108282 0 0.7000020149222177 0.83415812519521837 0 0.64926043220195895 0.91383679218108282 0 0.74990398477387488 0.91482605081002355 0 0.74990398477387488 0.91482605081002355 0 0.7000000000006934 1 0 0.79999999999999982 1 0 0.64926043220195895 0.91383679218108282 0 0.74990398477387488 0.91482605081002355 0 0.7000000000006934 1 0 0.60000000000138687 1 0 0.64926043220195895 0.91383679218108282 0 0.7000000000006934 1 0 0.79999999999999982 1 0 0.84972343667254391 0.91496957197099094 0 0.89999999999958358 1 0 0.74990398477387488 0.91482605081002355 0 0.79999999999999982 1 0 0.84972343667254391 0.91496957197099094 0 0.74990398477387488 0.91482605081002355 0 0.84972343667254391 0.91496957197099094 0 0.80157081937057084 0.83842482832452347 0 0.84972343667254391 0.91496957197099094 0 0.80157081937057084 0.83842482832452347 0 0.90849008766191841 0.84288279534025123 0 0.80157081937057084 0.83842482832452347 0 0.84418394508769212 0.773149552060308 0 0.90849008766191841 0.84288279534025123 0 0.7000020149222177 0.83415812519521837 0 0.74990398477387488 0.91482605081002355 0 0.80157081937057084 0.83842482832452347 0 0.7000020149222177 0.83415812519521837 0 0.80157081937057084 0.83842482832452347 0 0.75 0.75 0 0.80157081937057084 0.83842482832452347 0 0.75 0.75 0 0.84418394508769212 0.773149552060308 0 0.84418394508769212 0.773149552060308 0 0.90849008766191841 0.84288279534025123 0 0.91774987785492024 0.74446742543575928 0 1 0.79999999999999982 0 0.90849008766191841 0.84288279534025123 0 0.91774987785492024 0.74446742543575928 0 1 0.79999999999999982 0 0.90849008766191841 0.84288279534025123 0 1 0.89999999999999991 0 0.84972343667254391 0.91496957197099094 0 0.90849008766191841 0.84288279534025123 0 0.92679491924305324 0.92679491924316471 0 0.90849008766191841 0.84288279534025123 0 0.92679491924305324 0.92679491924316471 0 1 0.89999999999999991 0 0.92679491924305324 0.92679491924316471 0 1 0.89999999999999991 0 1 1 0 0.92679491924305324 0.92679491924316471 0 1 1 0 0.89999999999958358 1 0 0.84972343667254391 0.91496957197099094 0 0.92679491924305324 0.92679491924316471 0 0.89999999999958358 1 0 0.79999999999999982 0.5 0 0.89999999999999991 0.5 0 0.84123805554876707 0.59680309078067073 0 0.79999999999999982 0.5 0 0.89999999999999991 0.5 0 0.74685358701831439 0.58150382891824492 0 0.84123805554876707 0.59680309078067073 0 0.79999999999999982 0.5 0 0.74685358701831439 0.58150382891824492 0 0.84123805554876707 0.59680309078067073 0 0.75989579748454794 0.66142208951066328 0 0.75 0.75 0 0.84418394508769212 0.773149552060308 0 0.83890624185782958 0.69626544663594958 0 0.75 0.75 0 0.75989579748454794 0.66142208951066328 0 0.83890624185782958 0.69626544663594958 0 0.84418394508769212 0.773149552060308 0 0.83890624185782958 0.69626544663594958 0 0.91774987785492024 0.74446742543575928 0 0.84123805554876707 0.59680309078067073 0 0.75989579748454794 0.66142208951066328 0 0.83890624185782958 0.69626544663594958 0 0.84123805554876707 0.59680309078067073 0 0.83890624185782958 0.69626544663594958 0 0.91502196414490444 0.65023695573082385 0 0.83890624185782958 0.69626544663594958 0 0.91502196414490444 0.65023695573082385 0 0.91774987785492024 0.74446742543575928 0 1 0.79999999999999982 0 0.91774987785492024 0.74446742543575928 0 1 0.69999999999999984 0 0.91502196414490444 0.65023695573082385 0 0.91774987785492024 0.74446742543575928 0 1 0.69999999999999984 0 0.91502196414490444 0.65023695573082385 0 1 0.69999999999999984 0 1 0.59999999999999976 0 0.91502196414490444 0.65023695573082385 0 1 0.59999999999999976 0 0.9267949192431123 0.57320508075688748 0 0.84123805554876707 0.59680309078067073 0 0.91502196414490444 0.65023695573082385 0 0.9267949192431123 0.57320508075688748 0 0.84123805554876707 0.59680309078067073 0 0.9267949192431123 0.57320508075688748 0 0.89999999999999991 0.5 0 0.89999999999999991 0.5 0 1 0.5 0 0.9267949192431123 0.57320508075688748 0 0.89999999999999991 0.5 0 1 0.5 0 1 0.59999999999999976 0 0.9267949192431123 0.57320508075688748 0 1 0.5 0 1 0.5 0 1 0.39999999999973668 0 0.92692772226615627 0.42692772226608527 0 0.89999999999999991 0.5 0 1 0.5 0 0.92692772226615627 0.42692772226608527 0 1 0.39999999999973668 0 0.92692772226615627 0.42692772226608527 0 0.9390432307803237 0.34999999999960513 0 0.92692772226615627 0.42692772226608527 0 0.84999999999999998 0.44473470008005372 0 0.86315719642252953 0.37137843546999749 0 0.92692772226615627 0.42692772226608527 0 0.86315719642252953 0.37137843546999749 0 0.9390432307803237 0.34999999999960513 0 0.89999999999999991 0.5 0 0.92692772226615627 0.42692772226608527 0 0.84999999999999998 0.44473470008005372 0 0.79999999999999982 0.5 0 0.89999999999999991 0.5 0 0.84999999999999998 0.44473470008005372 0 0.84999999999999998 0.44473470008005372 0 0.77037265046857561 0.40537414349831652 0 0.86315719642252953 0.37137843546999749 0 0.69999999999999984 0.5 0 0.79999999999999982 0.5 0 0.77037265046857561 0.40537414349831652 0 0.79999999999999982 0.5 0 0.84999999999999998 0.44473470008005372 0 0.77037265046857561 0.40537414349831652 0 0.77037265046857561 0.40537414349831652 0 0.80098314916214353 0.29821695223768352 0 0.70429891134180211 0.31826793154456973 0 0.77037265046857561 0.40537414349831652 0 0.80098314916214353 0.29821695223768352 0 0.86315719642252953 0.37137843546999749 0 0.80098314916214353 0.29821695223768352 0 0.86315719642252953 0.37137843546999749 0 0.90612513992130683 0.2689611572755029 0 0.80098314916214353 0.29821695223768352 0 0.90612513992130683 0.2689611572755029 0 0.82804875980116233 0.20223501309006731 0 0.86315719642252953 0.37137843546999749 0 0.90612513992130683 0.2689611572755029 0 0.9390432307803237 0.34999999999960513 0 1 0.39999999999973668 0 0.9390432307803237 0.34999999999960513 0 1 0.29999999999947341 0 0.90612513992130683 0.2689611572755029 0 0.9390432307803237 0.34999999999960513 0 1 0.29999999999947341 0 0.90612513992130683 0.2689611572755029 0 1 0.29999999999947341 0 1 0.19999999999948739 0 0.90612513992130683 0.2689611572755029 0 1 0.19999999999948739 0 0.91622867597293034 0.15490381056726649 0 1 0.19999999999948739 0 0.91622867597293034 0.15490381056726649 0 1 0.099999999999778932 0 0.90612513992130683 0.2689611572755029 0 0.91622867597293034 0.15490381056726649 0 0.82804875980116233 0.20223501309006731 0 1 0 0 1 0.099999999999778932 0 0.92679491924283741 0.073205080757032887 0 1 0 0 0.92679491924283741 0.073205080757032887 0 0.89999999999973679 0 0 0.91622867597293034 0.15490381056726649 0 1 0.099999999999778932 0 0.92679491924283741 0.073205080757032887 0 0.91622867597293034 0.15490381056726649 0 0.92679491924283741 0.073205080757032887 0 0.84086402007378613 0.097558427428716066 0 0.92679491924283741 0.073205080757032887 0 0.89999999999973679 0 0 0.84086402007378613 0.097558427428716066 0 0.89999999999973679 0 0 0.84086402007378613 0.097558427428716066 0 0.79999999999947335 0 0 0.84086402007378613 0.097558427428716066 0 0.76667895216258231 0.15605762470516529 0 0.73928714325231959 0.084329337206986266 0 0.84086402007378613 0.097558427428716066 0 0.79999999999947335 0 0 0.73928714325231959 0.084329337206986266 0 0.91622867597293034 0.15490381056726649 0 0.84086402007378613 0.097558427428716066 0 0.82804875980116233 0.20223501309006731 0 0.84086402007378613 0.097558427428716066 0 0.82804875980116233 0.20223501309006731 0 0.76667895216258231 0.15605762470516529 0 0.82804875980116233 0.20223501309006731 0 0.76667895216258231 0.15605762470516529 0 0.73785529459718069 0.23276325864008299 0 0.80098314916214353 0.29821695223768352 0 0.82804875980116233 0.20223501309006731 0 0.73785529459718069 0.23276325864008299 0 0.73785529459718069 0.23276325864008299 0 0.68733954308846279 0.16340208715997401 0 0.65013787896763531 0.24738705877289749 0 0.76667895216258231 0.15605762470516529 0 0.73785529459718069 0.23276325864008299 0 0.68733954308846279 0.16340208715997401 0 0.76667895216258231 0.15605762470516529 0 0.68733954308846279 0.16340208715997401 0 0.73928714325231959 0.084329337206986266 0 0.68733954308846279 0.16340208715997401 0 0.64661073844116768 0.083938889182861035 0 0.58390992419284726 0.17098750676586491 0 0.68733954308846279 0.16340208715997401 0 0.65013787896763531 0.24738705877289749 0 0.58390992419284726 0.17098750676586491 0 0.79999999999947335 0 0 0.69999999999921003 0 0 0.73928714325231959 0.084329337206986266 0 0.69999999999921003 0 0 0.73928714325231959 0.084329337206986266 0 0.64661073844116768 0.083938889182861035 0 0.68733954308846279 0.16340208715997401 0 0.73928714325231959 0.084329337206986266 0 0.64661073844116768 0.083938889182861035 0 0.69999999999921003 0 0 0.64661073844116768 0.083938889182861035 0 0.59999999999894682 0 0 0.64661073844116768 0.083938889182861035 0 0.59999999999894682 0 0 0.54912436800118414 0.07923269986872096 0 0.64661073844116768 0.083938889182861035 0 0.54912436800118414 0.07923269986872096 0 0.58390992419284726 0.17098750676586491 0 0.49999999999869432 0 0 0.59999999999894682 0 0 0.54912436800118414 0.07923269986872096 0 0.65013787896763531 0.24738705877289749 0 0.58390992419284726 0.17098750676586491 0 0.56331152681373342 0.26926005188416458 0 0.49677298727352631 0.1419426259588793 0 0.54912436800118414 0.07923269986872096 0 0.58390992419284726 0.17098750676586491 0 0.49638486706945439 0.2121184447907791 0 0.49677298727352631 0.1419426259588793 0 0.58390992419284726 0.17098750676586491 0 0.49638486706945439 0.2121184447907791 0 0.58390992419284726 0.17098750676586491 0 0.56331152681373342 0.26926005188416458 0 0.48197160777613701 0.29296902118871587 0 0.56331152681373342 0.26926005188416458 0 0.53795066522196777 0.35232980433802918 0 0.49638486706945439 0.2121184447907791 0 0.48197160777613701 0.29296902118871587 0 0.56331152681373342 0.26926005188416458 0 0.65013787896763531 0.24738705877289749 0 0.56331152681373342 0.26926005188416458 0 0.61953310281942287 0.33623578723476061 0 0.61953310281942287 0.33623578723476061 0 0.53795066522196777 0.35232980433802918 0 0.59493019080807719 0.41959199530426949 0 0.56331152681373342 0.26926005188416458 0 0.61953310281942287 0.33623578723476061 0 0.53795066522196777 0.35232980433802918 0 0.53795066522196777 0.35232980433802918 0 0.51443730641548846 0.4230626935845116 0 0.59493019080807719 0.41959199530426949 0 0.51443730641548846 0.4230626935845116 0 0.55234187430589132 0.46066367222219529 0 0.59493019080807719 0.41959199530426949 0 0.45958432544769412 0.36572680929244022 0 0.53795066522196777 0.35232980433802918 0 0.51443730641548846 0.4230626935845116 0 0.5 0.5 0 0.51443730641548846 0.4230626935845116 0 0.55234187430589132 0.46066367222219529 0 0.5 0.5 0 0.59999999999999976 0.5 0 0.55234187430589132 0.46066367222219529 0 0.59999999999999976 0.5 0 0.59493019080807719 0.41959199530426949 0 0.6422748717904081 0.45615324511504501 0 0.59999999999999976 0.5 0 0.55234187430589132 0.46066367222219529 0 0.59493019080807719 0.41959199530426949 0 0.59493019080807719 0.41959199530426949 0 0.67416929635355571 0.4050209851559104 0 0.6422748717904081 0.45615324511504501 0 0.61953310281942287 0.33623578723476061 0 0.59493019080807719 0.41959199530426949 0 0.67416929635355571 0.4050209851559104 0 0.69999999999999984 0.5 0 0.67416929635355571 0.4050209851559104 0 0.6422748717904081 0.45615324511504501 0 0.59999999999999976 0.5 0 0.69999999999999984 0.5 0 0.6422748717904081 0.45615324511504501 0 0.69999999999999984 0.5 0 0.77037265046857561 0.40537414349831652 0 0.67416929635355571 0.4050209851559104 0 0.77037265046857561 0.40537414349831652 0 0.67416929635355571 0.4050209851559104 0 0.70429891134180211 0.31826793154456973 0 0.73785529459718069 0.23276325864008299 0 0.65013787896763531 0.24738705877289749 0 0.70429891134180211 0.31826793154456973 0 0.80098314916214353 0.29821695223768352 0 0.73785529459718069 0.23276325864008299 0 0.70429891134180211 0.31826793154456973 0 0.65013787896763531 0.24738705877289749 0 0.61953310281942287 0.33623578723476061 0 0.70429891134180211 0.31826793154456973 0 0.61953310281942287 0.33623578723476061 0 0.67416929635355571 0.4050209851559104 0 0.70429891134180211 0.31826793154456973 0 
</DataArray>
</Points>
<Cells>
<DataArray type="UInt32" Name="connectivity" format="ascii">
0 1 2 3 4 5 6 7 8 9 10 11 12 13 14 15 16 17 18 19 20 21 22 23 24 25 26 27 28 29 30 31 32 33 34 35 36 37 38 39 40 41 42 43 44 45 46 47 48 49 50 51 52 53 54 55 56 57 58 59 60 61 62 63 64 65 66 67 68 69 70 71 72 73 74 75 76 77 78 79 80 81 82 83 84 85 86 87 88 89 90 91 92 93 94 95 96 97 98 99 100 101 102 103 104 105 106 107 108 109 110 111 112 113 114 115 116 117 118 119 120 121 122 123 124 125 126 127 128 129 130 131 132 133 134 135 136 137 138 139 140 141 142 143 144 145 146 147 148 149 150 151 152 153 154 155 156 157 158 159 160 161 162 163 164 165 166 167 168 169 170 171 172 173 174 175 176 177 178 179 180 181 182 183 184 185 186 187 188 189 190 191 192 193 194 195 196 197 198 199 200 201 202 203 204 205 206 207 208 209 210 211 212 213 214 215 216 217 218 219 220 221 222 223 224 225 226 227 228 229 230 231 232 233 234 235 236 237 238 239 240 241 242 243 244 245 246 247 248 249 250 251 252 253 254 255 256 257 258 259 260 261 262 263 264 265 266 267 268 269 270 271 272 273 274 275 276 277 278 279 280 281 282 283 284 285 286 287 288 289 290 291 292 293 294 295 296 297 298 299 300 301 302 303 304 305 306 307 308 309 310 311 312 313 314 315 316 317 318 319 320 321 322 323 324 325 326 327 328 329 330 331 332 333 334 335 336 337 338 339 340 341 342 343 344 345 346 347 348 349 350 351 352 353 354 355 356 357 358 359 360 361 362 363 364 365 366 367 368 369 370 371 372 373 374 375 376 377 378 379 380 381 382 383 384 385 386 387 388 389 390 391 392 393 394 395 396 397 398 399 400 401 402 403 404 405 406 407 408 409 410 411 412 413 414 415 416 417 418 419 420 421 422 423 424 425 426 427 428 429 430 431 432 433 434 435 436 437 438 439 440 441 442 443 444 445 446 447 448 449 450 451 452 453 454 455 456 457 458 459 460 461 462 463 464 465 466 467 468 469 470 471 472 473 474 475 476 477 478 479 480 481 482 483 484 485 486 487 488 489 490 491 492 493 494 495 496 497 498 499 500 501 502 503 504 505 506 507 508 509 510 511 512 513 514 515 516 517 518 519 520 521 522 523 524 525 526 527 528 529 530 531 532 533 534 535 536 537 538 539 540 541 542 543 544 545 546 547 548 549 550 551 552 553 554 555 556 557 558 559 560 561 562 563 564 565 566 567 568 569 570 571 572 573 574 575 576 577 578 579 580 581 582 583 584 585 586 587 588 589 590 591 592 593 594 595 596 597 598 599 600 601 602 603 604 605 606 607 608 609 610 611 612 613 614 615 616 617 618 619 620 621 622 623 624 625 626 627 628 629 630 631 632 633 634 635 636 637 638 639 640 641 642 643 644 645 646 647 648 649 650 651 652 653 654 655 656 657 658 659 660 661 662 663 664 665 666 667 668 669 670 671 672 673 674 675 676 677 678 679 680 681 682 683 684 685 686 687 688 689 690 691 692 693 694 695 696 697 698 699 700 701 702 703 704 705 706 707 708 709 710 711 712 713 714 715 716 717 718 719 720 721 722 723 724 725 726 727 728 729 730 731 732 733 734 735 736 737 738 739 740 741 742 743 744 745 746 747 748 749 750 751 752 753 754 755 756 757 758 759 760 761 762 763 764 765 766 767 768 769 770 771 772 773 774 775 776 777 778 779 780 781 782 783 784 785 786 787 788 789 790 791 792 793 794 795 796 797 798 799 800 801 802 803 804 805 806 807 808 809 810 811 812 813 814 815 816 817 818 819 820 821 822 823 824 825 826 827 828 829 830 831 832 833 834 835 836 837 838 839 840 841 842 843 844 845 846 847 848 849 850 851 852 853 854 855 856 857 858 859 860 861 862 863 864 865 866 867 868 869 870 871 872 873 874 875 876 877 878 879 880 881 882 883 884 885 886 887 888 889 890 891 892 893 894 895 896 897 898 899 900 901 
</DataArray>
<DataArray type="UInt32" Name="offsets" format="ascii">
3 6 9 12 15 18 21 24 27 30 33 36 39 42 45 48 51 54 57 60 63 66 69 72 75 78 81 84 87 90 93 96 99 102 105 107 110 113 116 118 121 124 127 130 133 136 139 142 144 147 150 153 155 158 161 164 167 170 173 176 179 182 185 188 191 194 197 200 203 206 209 212 215 218 221 224 227 230 233 236 239 242 245 248 251 254 257 260 263 266 269 272 275 278 281 284 287 290 293 296 299 302 305 308 311 314 317 320 323 326 329 332 335 338 341 344 347 350 353 356 359 362 365 368 371 374 377 379 382 385 388 390 393 396 399 402 405 408 411 414 417 420 423 426 429 432 435 438 441 443 446 448 451 454 456 459 462 464 467 470 473 476 479 482 485 488 491 494 497 500 503 505 508 511 514 516 519 522 525 527 530 533 535 538 541 544 547 550 553 556 559 562 565 568 571 574 577 580 583 586 589 592 595 598 601 604 607 610 613 616 619 622 625 628 631 634 636 639 642 645 648 651 654 657 660 663 666 669 672 675 678 681 683 686 689 692 695 698 701 704 707 710 713 716 719 722 725 728 731 734 737 740 743 746 749 752 755 758 761 764 767 770 773 776 779 782 785 788 791 794 797 800 803 806 809 812 815 818 821 824 827 830 833 836 839 842 845 848 851 854 857 860 863 866 869 872 875 878 881 884 887 890 893 896 899 902 
</DataArray>
<DataArray type="UInt32" Name="types" format="ascii">
5 5 5 5 5 5 5 5 5 5 5 5 5 5 5 5 5 5 5 5 5 5 5 5 5 5 5 5 5 5 5 5 5 5 5 3 5 5 5 3 5 5 5 5 5 5 5 5 3 5 5 5 3 5 5 5 5 5 5 5 5 5 5 5 5 5 5 5 5 5 5 5 5 5 5 5 5 5 5 5 5 5 5 5 5 5 5 5 5 5 5 5 5 5 5 5 5 5 5 5 5 5 5 5 5 5 5 5 5 5 5 5 5 5 5 5 5 5 5 5 5 5 5 5 5 5 5 3 5 5 5 3 5 5 5 5 5 5 5 5 5 5 5 5 5 5 5 5 5 3 5 3 5 5 3 5 5 3 5 5 5 5 5 5 5 5 5 5 5 5 5 3 5 5 5 3 5 5 5 3 5 5 3 5 5 5 5 5 5 5 5 5 5 5 5 5 5 5 5 5 5 5 5 5 5 5 5 5 5 5 5 5 5 5 5 5 3 5 5 5 5 5 5 5 5 5 5 5 5 5 5 5 3 5 5 5 5 5 5 5 5 5 5 5 5 5 5 5 5 5 5 5 5 5 5 5 5 5 5 5 5 5 5 5 5 5 5 5 5 5 5 5 5 5 5 5 5 5 5 5 5 5 5 5 5 5 5 5 5 5 5 5 5 5 5 5 5 5 5 5 5 5 5 5 5 5 
</DataArray>
</Cells>
<PointData Scalars="" Vectors="displacement," Tensors="">
<DataArray type="Float64" Name="displacement" NumberOfComponents="3" format="ascii">
-4.3765434721262978e-07 -9.4504323006746942e-07 0 -0.00025024201831794646 -0.00047018999211492334 0 -3.7090456401307107e-08 -5.2432249535956937e-07 0 -4.3765434721262978e-07 -9.4504323006746942e-07 0 -0.00052244426417663787 -0.00076322254537261732 0 -0.00025024201831794641 -0.00047018999211492324 0 -0.00052244426417663798 -0.00076322254537261743 0 -0.00025024201831794641 -0.00047018999211492324 0 -0.00049080767775518976 -0.0010470682914399453 0 -0.00025024201831794641 -0.00047018999211492324 0 -0.00049080767775518976 -0.0010470682914399453 0 -0.00016852218798204638 -0.00054020542186562705 0 -0.00025024201831794641 -0.00047018999211492324 0 -3.7090456401307107e-08 -5.2432249535956937e-07 0 -0.00016852218798204638 -0.00054020542186562705 0 -0.00077731352476845381 -0.0013127393412955299 0 -0.00049080767775518976 -0.0010470682914399453 0 -0.00070335261267263005 -0.0016814563052038167 0 -0.00052244426417663798 -0.00076322254537261743 0 -0.0007773135247684537 -0.0013127393412955301 0 -0.00049080767775518976 -0.0010470682914399453 0 -0.00049080767775518976 -0.0010470682914399453 0 -0.00045559900902753837 -0.0016730843972604717 0 -0.00070335261267263005 -0.0016814563052038167 0 -0.00049080767775518976 -0.0010470682914399453 0 -0.00045559900902753837 -0.0016730843972604719 0 -0.00018589275861013204 -0.0011355197289051164 0 -0.00049080767775518976 -0.0010470682914399453 0 -0.00018589275861013204 -0.0011355197289051164 0 -0.00016852218798204638 -0.00054020542186562705 0 -0.00018589275861013204 -0.0011355197289051164 0 1.1264780365249759e-05 -0.0004949990333418489 0 0.00017734437515653338 -0.00093963877850420047 0 -0.00045559900902753837 -0.0016730843972604717 0 -0.00018589275861013204 -0.0011355197289051164 0 -0.00015353041903681604 -0.0019190913379336378 0 -0.00018589275861013204 -0.0011355197289051164 0 0.00017734437515653338 -0.00093963877850420058 0 -0.00015353041903681604 -0.0019190913379336378 0 -3.7090456401307107e-08 -5.2432249535956937e-07 0 -0.00016852218798204638 -0.00054020542186562705 0 -2.6495314396144006e-08 -5.6008404008932371e-07 0 -0.00018589275861013204 -0.0011355197289051164 0 -0.00016852218798204638 -0.00054020542186562705 0 1.1264780365249759e-05 -0.0004949990333418489 0 -0.00016852218798204638 -0.00054020542186562705 0 1.126478036524978e-05 -0.00049499903334184879 0 -2.6495314396144006e-08 -5.6008404008932371e-07 0 1.1264780365249759e-05 -0.0004949990333418489 0 -2.6495314396144006e-08 -5.6008404008932371e-07 0 5.3884922307861408e-08 -5.1334093832521425e-07 0 1.1264780365249759e-05 -0.0004949990333418489 0 5.388492230787328e-08 -5.1334093832520758e-07 0 0.00010798146107039737 -0.00044045271810768901 0 5.3884922307861408e-08 -5.1334093832521425e-07 0 0.00010798146107039737 -0.00044045271810768901 0 3.6063055500108711e-08 -5.3634039208592719e-07 0 1.1264780365249759e-05 -0.0004949990333418489 0 0.00010798146107039737 -0.00044045271810768901 0 0.00017734437515653338 -0.00093963877850420047 0 0.00017734437515653338 -0.00093963877850420047 0 0.00051045152396855917 -0.0012824827848724185 0 -0.00015353041903681604 -0.0019190913379336378 0 0.00017734437515653338 -0.00093963877850420047 0 0.00051045152396855917 -0.0012824827848724185 0 0.00037336655247435492 -0.00092493600119847384 0 0.00010798146107039737 -0.00044045271810768901 0 0.00017734437515653338 -0.00093963877850420047 0 0.00037336655247435492 -0.00092493600119847384 0 0.00051045152396855917 -0.0012824827848724185 0 0.00037336655247435492 -0.00092493600119847384 0 0.00081285649574032958 -0.0014621174193474075 0 0.00081285649574032958 -0.0014621174193474075 0 0.00083250771443569758 -0.0015106408196647254 0 0.0015216280145457662 -0.0020924140940797261 0 0.00037336655247435492 -0.00092493600119847384 0 0.00081285649574032958 -0.0014621174193474075 0 0.00083250771443569758 -0.0015106408196647254 0 0.00037336655247435492 -0.00092493600119847384 0 0.00083250771443569758 -0.0015106408196647254 0 0.00043738995570273027 -0.0009783539863372475 0 0.00037336655247435492 -0.00092493600119847384 0 0.00043738995570273027 -0.0009783539863372475 0 0.00016404895873569335 -0.00049290318287764157 0 0.00043738995570273027 -0.0009783539863372475 0 0.00016404895873569337 -0.00049290318287764157 0 0.00022634057698138677 -0.00059196272339286028 0 0.00016404895873569335 -0.00049290318287764157 0 3.5257374488842304e-08 -6.4351899277411329e-07 0 0.00022634057698138677 -0.00059196272339286028 0 0.00016404895873569335 -0.00049290318287764157 0 3.5257374488850093e-08 -6.4351899277412568e-07 0 3.6063055500108711e-08 -5.3634039208592719e-07 0 0.00010798146107039737 -0.00044045271810768901 0 0.00016404895873569335 -0.00049290318287764157 0 3.6063055500108711e-08 -5.3634039208592719e-07 0 0.00010798146107039737 -0.00044045271810768901 0 0.00037336655247435492 -0.00092493600119847384 0 0.00016404895873569335 -0.00049290318287764157 0 -0.00044768652949648402 -0.0066838255639882285 0 -0.00068201213185067389 -0.0052851374209083547 0 8.6730369554196948e-06 -0.0058265076698974646 0 0.0036169334243437391 -0.0026191789462659482 0 0.0024295495706034946 -0.002458061065906248 0 0.002597641766265194 -0.0020054852226494431 0 0.0011378504736986887 -0.0046927505001584883 0 0.0010902343044121724 -0.0036617946386296933 0 -0.00044768652949648402 -0.0066838255639882285 0 8.6730369554196948e-06 -0.0058265076698974646 0 0.00042338946789375091 -0.0067724402100824352 0 0.0036169334243437391 -0.0026191789462659482 0 0.0044676274541202423 -0.0032921366348201081 0 0.0032186406213034367 -0.0031283683179845543 0 -0.00044768652949648402 -0.0066838255639882285 0 0.00042338946789375091 -0.0067724402100824352 0 -0.00023937225181718132 -0.0079990951400233812 0 0.0011378504736986887 -0.0046927505001584883 0 0.0039444291467544213 -0.0054660020141998689 0 0.0036169334243437391 -0.0026191789462659482 0 0.002429549570603495 -0.002458061065906248 0 0.0032186406213034367 -0.0031283683179845543 0 0.002429549570603495 -0.002458061065906248 0 0.0015216280145457662 -0.0020924140940797261 0 0.0022993976684887716 -0.0028278784534085865 0 0.002429549570603495 -0.002458061065906248 0 0.0015216280145457664 -0.0020924140940797261 0 0.0014516592383654774 -0.0017918932907791795 0 0.00051045152396855917 -0.0012824827848724185 0 0.00081285649574032958 -0.0014621174193474075 0 0.0014516592383654774 -0.0017918932907791795 0 0.00081285649574032958 -0.0014621174193474075 0 0.0015216280145457662 -0.0020924140940797261 0 0.0014516592383654774 -0.0017918932907791795 0 0.002429549570603495 -0.002458061065906248 0 0.0014516592383654774 -0.0017918932907791795 0 0.002597641766265194 -0.0020054852226494431 0 -0.00068201213185067389 -0.0052851374209083547 0 -0.00076864409469931281 -0.0037420074438093026 0 -2.7938768579352145e-05 -0.0046355949941559093 0 0.0014516592383654774 -0.0017918932907791795 0 0.002597641766265194 -0.0020054852226494431 0 0.0013135382364768879 -0.0016598128382627547 0 0.0010902343044121724 -0.0036617946386296933 0 0.00027460407524634026 -0.002728665477846851 0 0.00051045152396855917 -0.0012824827848724185 0 0.0014516592383654772 -0.0017918932907791793 0 0.0013135382364768879 -0.0016598128382627547 0 0.00051045152396855917 -0.0012824827848724185 0 0.0013135382364768879 -0.0016598128382627547 0 -0.00015353041903681604 -0.0019190913379336378 0 -0.00076864409469931281 -0.0037420074438093026 0 -0.00015353041903681604 -0.0019190913379336378 0 -0.0005370308191747985 -0.003179961309575736 0 0.00027460407524634026 -0.002728665477846851 0 -9.9424347627712073e-05 -0.0019714354897105201 0 -0.00076864409469931281 -0.0037420074438093026 0 -2.7938768579352145e-05 -0.0046355949941559093 0 -0.0005370308191747985 -0.003179961309575736 0 -0.00068201213185067389 -0.0052851374209083547 0 -2.7938768579352145e-05 -0.0046355949941559093 0 8.6730369554196948e-06 -0.0058265076698974646 0 8.6730369554196948e-06 -0.0058265076698974646 0 0.00091283299253707329 -0.0057067609076417959 0 0.00042338946789375091 -0.0067724402100824352 0 -2.7938768579352145e-05 -0.0046355949941559093 0 8.6730369554196948e-06 -0.0058265076698974646 0 0.00091283299253707329 -0.0057067609076417959 0 -2.7938768579352145e-05 -0.0046355949941559093 0 0.00091283299253707329 -0.0057067609076417959 0 0.0013770759462559351 -0.0047393348645377023 0 0.00024869681777612396 -0.0036010331666186156 0 0.0014738959710011528 -0.0039670213877252298 0 0.0013770759462559351 -0.0047393348645377023 0 -2.7938768579352145e-05 -0.0046355949941559093 0 0.00024869681777612413 -0.0036010331666186161 0 0.0013770759462559351 -0.0047393348645377023 0 -2.7938768579352145e-05 -0.0046355949941559093 0 0.00024869681777612391 -0.0036010331666186152 0 -0.0005370308191747985 -0.003179961309575736 0 0.00024869681777612396 -0.0036010331666186156 0 -0.0005370308191747985 -0.003179961309575736 0 -0.00033576002862913779 -0.0028055449530154128 0 0.00024869681777612396 -0.0036010331666186156 0 -0.00033576002862913779 -0.0028055449530154128 0 0.00026777661070141349 -0.0028050367414130884 0 0.00024869681777612396 -0.0036010331666186156 0 0.00026777661070141333 -0.0028050367414130884 0 0.0014738959710011528 -0.0039670213877252298 0 -0.00015353041903681604 -0.0019190913379336378 0 -0.0005370308191747985 -0.003179961309575736 0 -0.0005768990629974488 -0.0023536686188553963 0 -0.00045559900902753837 -0.0016730843972604717 0 -0.00015353041903681604 -0.0019190913379336378 0 -0.0005768990629974488 -0.0023536686188553963 0 -0.00033576002862913779 -0.0028055449530154128 0 -0.0005768990629974488 -0.0023536686188553963 0 -0.00054874116445085077 -0.0021846661873493769 0 -0.0005370308191747985 -0.003179961309575736 0 -0.00033576002862913779 -0.0028055449530154128 0 -0.0005768990629974488 -0.0023536686188553963 0 -0.00045559900902753837 -0.0016730843972604717 0 -0.0005768990629974488 -0.0023536686188553963 0 -0.00070335261267263005 -0.0016814563052038167 0 -0.0005768990629974488 -0.0023536686188553963 0 -0.00070335261267263005 -0.0016814563052038167 0 -0.00054874116445085077 -0.0021846661873493769 0 -0.00054874116445085077 -0.0021846661873493769 0 -0.00077551852607372939 -0.0016389694143980772 0 -0.00024165289670604158 -0.0018042826871340716 0 -0.00070335261267263005 -0.0016814563052038167 0 -0.00054874116445085077 -0.0021846661873493769 0 -0.00077551852607372939 -0.0016389694143980772 0 -0.00077731352476845381 -0.0013127393412955299 0 -0.00070335261267263005 -0.0016814563052038167 0 -0.00077551852607372939 -0.0016389694143980772 0 -0.00033576002862913779 -0.0028055449530154128 0 -0.00054874116445085077 -0.0021846661873493769 0 0.00026777661070141349 -0.0028050367414130884 0 -0.00054874116445085077 -0.0021846661873493769 0 0.00026777661070141349 -0.0028050367414130884 0 -0.00024165289670604158 -0.0018042826871340716 0 0.00026777661070141349 -0.0028050367414130884 0 0.00087648507334853979 -0.0020689875433276871 0 0.0017670447180437691 -0.0033001538539330542 0 0.00026777661070141349 -0.0028050367414130884 0 -0.00024165289670604158 -0.0018042826871340716 0 0.00087648507334853968 -0.0020689875433276871 0 0.00087648507334853968 -0.0020689875433276871 0 0.0017670447180437691 -0.0033001538539330542 0 0.0023976958005728958 -0.0025472666017362423 0 0.00026777661070141349 -0.0028050367414130884 0 0.0017670447180437691 -0.0033001538539330542 0 0.0014738959710011528 -0.0039670213877252298 0 0.0017670447180437691 -0.0033001538539330542 0 0.0035766604135987162 -0.0042746911745025224 0 0.0027601211567270666 -0.0044531782362859504 0 0.0017670447180437691 -0.0033001538539330542 0 0.0023976958005728958 -0.0025472666017362423 0 0.0035766604135987162 -0.0042746911745025224 0 0.0023976958005728958 -0.0025472666017362423 0 0.0040137517026590562 -0.0032661467583842241 0 0.0035766604135987162 -0.0042746911745025224 0 0.0040137517026590562 -0.0032661467583842241 0 0.0049608591520460986 -0.0046589963619963013 0 0.0035766604135987162 -0.0042746911745025224 0 0.0040137517026590562 -0.0032661467583842241 0 0.0049608591520460986 -0.0046589963619963013 0 0.0056038612596551766 -0.0040748611478252346 0 0.0049608591520460986 -0.0046589963619963013 0 0.0035766604135987162 -0.0042746911745025224 0 0.0052060089117126869 -0.0059382747424228961 0 0.0035766604135987162 -0.0042746911745025224 0 0.0040020515606917365 -0.005565865222606799 0 0.0027601211567270666 -0.0044531782362859504 0 0.0035766604135987162 -0.0042746911745025224 0 0.0052060089117126869 -0.0059382747424228969 0 0.0040020515606917365 -0.005565865222606799 0 0.0052060089117126869 -0.0059382747424228961 0 0.0054676457576650602 -0.007011025010391708 0 0.0040020515606917365 -0.005565865222606799 0 0.0054676457576650602 -0.007011025010391708 0 0.0040020515606917365 -0.005565865222606799 0 0.0042991619672864793 -0.0066069040193716356 0 0.0040020515606917365 -0.005565865222606799 0 0.0028237176045282212 -0.0052002623103826898 0 0.0042991619672864793 -0.0066069040193716356 0 0.0028237176045282212 -0.0052002623103826898 0 0.0014738959710011528 -0.0039670213877252298 0 0.0013770759462559351 -0.0047393348645377023 0 0.0017670447180437691 -0.0033001538539330542 0 0.0014738959710011528 -0.0039670213877252298 0 0.0027601211567270666 -0.0044531782362859504 0 0.0040020515606917365 -0.005565865222606799 0 0.0028237176045282212 -0.0052002623103826898 0 0.0027601211567270666 -0.0044531782362859504 0 0.0028237176045282212 -0.0052002623103826898 0 0.0014738959710011528 -0.0039670213877252298 0 0.0027601211567270666 -0.0044531782362859504 0 0.0091671252808193434 -0.0074176983785715833 0 0.0078527783511458844 -0.0063333497744730337 0 0.0078604104684562252 -0.0074004538517130417 0 0.0089217810005696625 -0.0058053628951199084 0 0.0071972885912045719 -0.0049207384563992908 0 0.0078527783511458844 -0.0063333497744730337 0 0.0091671252808193434 -0.0074176983785715833 0 0.0089217810005696625 -0.0058053628951199084 0 0.0078527783511458844 -0.0063333497744730337 0 0.0071972885912045719 -0.0049207384563992908 0 0.0078527783511458862 -0.0063333497744730337 0 0.0065083444960308693 -0.0058094890359063111 0 0.0078527783511458844 -0.0063333497744730337 0 0.0065083444960308693 -0.0058094890359063111 0 0.0078604104684562252 -0.0074004538517130417 0 0.0071972885912045719 -0.0049207384563992908 0 0.0065083444960308693 -0.0058094890359063111 0 0.0056038612596551766 -0.0040748611478252346 0 0.0049608591520460986 -0.0046589963619963013 0 0.0065083444960308693 -0.0058094890359063111 0 0.0056038612596551766 -0.0040748611478252346 0 0.0049608591520460986 -0.0046589963619963013 0 0.0052060089117126869 -0.0059382747424228961 0 0.0065083444960308693 -0.0058094890359063111 0 0.0052060089117126869 -0.0059382747424228961 0 0.0065083444960308693 -0.0058094890359063111 0 0.0066759646547206054 -0.0072878139406182306 0 0.0054676457576650602 -0.007011025010391708 0 0.0066759646547206054 -0.0072878139406182306 0 0.0068583349307319913 -0.0084715574273537993 0 0.0052060089117126869 -0.0059382747424228961 0 0.0054676457576650602 -0.007011025010391708 0 0.0066759646547206054 -0.0072878139406182306 0 0.0066759646547206054 -0.0072878139406182306 0 0.0080458202951577806 -0.0087729585680135936 0 0.0068583349307319913 -0.0084715574273537993 0 0.0065083444960308693 -0.0058094890359063111 0 0.0066759646547206054 -0.0072878139406182306 0 0.0078604104684562252 -0.0074004538517130417 0 0.0066759646547206054 -0.0072878139406182306 0 0.0078604104684562252 -0.0074004538517130417 0 0.0080458202951577806 -0.0087729585680135936 0 0.0078604104684562252 -0.0074004538517130417 0 0.009327259618951032 -0.0088789089173381391 0 0.0080458202951577806 -0.0087729585680135936 0 0.0091671252808193434 -0.0074176983785715833 0 0.0078604104684562252 -0.0074004538517130417 0 0.009327259618951032 -0.0088789089173381391 0 0.0094298686599721335 -0.010215409637844019 0 0.0081949823420284524 -0.010101046695558741 0 0.0094718363547257167 -0.011379069219125723 0 0.009327259618951032 -0.0088789089173381391 0 0.0094298686599721335 -0.010215409637844019 0 0.0080458202951577806 -0.0087729585680135936 0 0.0094298686599721335 -0.010215409637844019 0 0.0080458202951577806 -0.0087729585680135936 0 0.0081949823420284524 -0.010101046695558741 0 0.0080458202951577806 -0.0087729585680135936 0 0.0081949823420284507 -0.010101046695558741 0 0.0068583349307319913 -0.0084715574273537993 0 0.0081949823420284524 -0.010101046695558741 0 0.0068583349307319913 -0.0084715574273537993 0 0.0068455655393023186 -0.0093089911694420845 0 0.0054676457576650602 -0.007011025010391708 0 0.0068583349307319913 -0.0084715574273537993 0 0.0056464544296687107 -0.0079738947936286129 0 0.0068583349307319913 -0.0084715574273537993 0 0.0068455655393023186 -0.0093089911694420845 0 0.0056464544296687107 -0.0079738947936286129 0 0.0068455655393023186 -0.0093089911694420845 0 0.0070302827426111519 -0.010009879490353233 0 0.0079064590144736577 -0.010636337729529956 0 0.0068455655393023186 -0.0093089911694420845 0 0.0070302827426111519 -0.010009879490353233 0 0.0058259178213374788 -0.0087751127181117366 0 0.0070302827426111519 -0.010009879490353233 0 0.0079064590144736577 -0.010636337729529956 0 0.007858766926668587 -0.01096109438599821 0 0.0081949823420284524 -0.010101046695558741 0 0.0068455655393023186 -0.0093089911694420845 0 0.0079064590144736577 -0.010636337729529956 0 0.0081949823420284524 -0.010101046695558741 0 0.0079064590144736577 -0.010636337729529956 0 0.0087449505260914114 -0.01135575304577765 0 0.0079064590144736577 -0.010636337729529956 0 0.0087449505260914114 -0.01135575304577765 0 0.008638875669293531 -0.01184294331959581 0 0.0087449505260914114 -0.01135575304577765 0 0.0093563314765830394 -0.012311856917456173 0 0.008638875669293531 -0.01184294331959581 0 0.0087449505260914114 -0.01135575304577765 0 0.0094718363547257167 -0.011379069219125723 0 0.0093563314765830394 -0.012311856917456173 0 0.0081949823420284524 -0.010101046695558741 0 0.0087449505260914114 -0.01135575304577765 0 0.0094718363547257167 -0.011379069219125723 0 0.0031438060806788589 -0.0062019383372499334 0 0.0045435634562924826 -0.0074936480515019766 0 0.0035132198144401531 -0.0070606651362894587 0 0.0016789721165160584 -0.0054956788567280439 0 0.00089010010230074904 -0.0074227469839661334 0 0.0021346377461403001 -0.0057067661871381915 0 0.0031438060806788593 -0.0062019383372499334 0 0.0035132198144401531 -0.0070606651362894587 0 0.0028237176045282212 -0.0052002623103826898 0 0.0013770759462559351 -0.0047393348645377014 0 0.0031438060806788589 -0.0062019383372499334 0 0.0021346377461403001 -0.0057067661871381915 0 0.0013770759462559351 -0.0047393348645377023 0 0.0031438060806788589 -0.0062019383372499334 0 0.0016789721165160584 -0.0054956788567280439 0 0.0013113674874929233 -0.0048106890306345166 0 0.0031438060806788589 -0.0062019383372499334 0 0.0042991619672864793 -0.0066069040193716356 0 0.0045435634562924826 -0.0074936480515019766 0 0.0028237176045282212 -0.0052002623103826898 0 0.0031438060806788593 -0.0062019383372499343 0 0.0042991619672864793 -0.0066069040193716356 0 0.0054676457576650602 -0.007011025010391708 0 0.0042991619672864793 -0.0066069040193716356 0 0.0056464544296687107 -0.0079738947936286129 0 0.0056464544296687107 -0.0079738947936286129 0 0.0045435634562924826 -0.0074936480515019766 0 0.0058259178213374788 -0.0087751127181117366 0 0.0042991619672864793 -0.0066069040193716356 0 0.0056464544296687107 -0.0079738947936286129 0 0.0045435634562924826 -0.0074936480515019766 0 0.0045435634562924826 -0.0074936480515019766 0 0.0047992099270511325 -0.0082452328488155507 0 0.0058259178213374788 -0.0087751127181117366 0 0.0068455655393023186 -0.0093089911694420845 0 0.0056464544296687107 -0.0079738947936286129 0 0.0058259178213374788 -0.0087751127181117366 0 0.0070302827426111519 -0.010009879490353233 0 0.0058259178213374788 -0.0087751127181117366 0 0.0061149735248514732 -0.0094623295722886542 0 0.0047992099270511334 -0.0082452328488155507 0 0.0061149735248514732 -0.0094623295722886542 0 0.0050669212429368359 -0.0090007229783299787 0 0.0047992099270511334 -0.0082452328488155507 0 0.0058259178213374788 -0.0087751127181117366 0 0.0061149735248514732 -0.0094623295722886542 0 0.0047992099270511334 -0.0082452328488155507 0 0.0038158060839207841 -0.0079469977012145854 0 0.0050669212429368359 -0.0090007229783299787 0 0.0038158060839207841 -0.0079469977012145854 0 0.0040999339248805611 -0.0086937067954335635 0 0.0050669212429368359 -0.0090007229783299787 0 0.0045435634562924826 -0.0074936480515019766 0 0.0047992099270511334 -0.0082452328488155507 0 0.0035132198144401531 -0.0070606651362894587 0 0.0047992099270511334 -0.0082452328488155507 0 0.0038158060839207841 -0.0079469977012145854 0 0.0035132198144401531 -0.0070606651362894587 0 0.0021346377461403001 -0.0057067661871381915 0 0.0035132198144401531 -0.0070606651362894587 0 0.002617171591051229 -0.0067724524919902914 0 0.0038158060839207841 -0.0079469977012145854 0 0.0035132198144401531 -0.0070606651362894587 0 0.002617171591051229 -0.0067724524919902914 0 0.0038158060839207841 -0.0079469977012145854 0 0.002617171591051229 -0.0067724524919902914 0 0.0028991746054249294 -0.0079990805315241463 0 0.00089010010230074904 -0.0074227469839661334 0 0.0039444291467544213 -0.0054660020141998689 0 0.0038158060839207841 -0.0079469977012145854 0 0.0028991746054249294 -0.0079990805315241463 0 0.0040999339248805611 -0.0086937067954335635 0 0.0039444291467544213 -0.0054660020141998689 0 0.0067509865924085446 -0.0037974829108470866 0 0.0081033326326318041 -0.0032201178041246347 0 0.0082903076735190845 -0.0044320737840498883 0 0.0091501986824341665 -0.0042842136326111 0 0.0028991746054249294 -0.0079990805315241463 0 0.0039600622896378383 -0.0094743603836170559 0 0.0040999339248805611 -0.0086937067954335635 0 0.0039444291467544213 -0.0054660020141998689 0 0.0069427164415686686 -0.0069396761720077506 0 0.0082903076735190845 -0.0044320737840498883 0 0.0091501986824341665 -0.0042842136326111 0 0.0091438156946167595 -0.0056843920751128039 0 0.0091501986824341665 -0.0042842136326111 0 0.0099184239435261383 -0.0057567941804467131 0 0.0091438156946167595 -0.0056843920751128039 0 0.0069427164415686686 -0.0069396761720077506 0 0.0075432606164898735 -0.007967290555037438 0 0.0039600622896378383 -0.0094743603836170559 0 0.0051379473519214559 -0.0097342923923868941 0 0.0054129003110523453 -0.010262319642695498 0 0.0051379473519214559 -0.0097342923923868941 0 0.0040999339248805611 -0.0086937067954335635 0 0.0050669212429368359 -0.0090007229783299787 0 0.0039600622896378383 -0.0094743603836170559 0 0.0051379473519214559 -0.0097342923923868941 0 0.0040999339248805611 -0.0086937067954335635 0 0.0061149735248514732 -0.0094623295722886542 0 0.0061771188627629146 -0.0099553689592027598 0 0.0050669212429368359 -0.0090007229783299787 0 0.0051379473519214559 -0.0097342923923868941 0 0.0061771188627629146 -0.0099553689592027598 0 0.0050669212429368359 -0.0090007229783299787 0 0.0070302827426111519 -0.010009879490353233 0 0.0061149735248514732 -0.0094623295722886542 0 0.0072947668814236626 -0.01056385949374459 0 0.0061149735248514732 -0.0094623295722886542 0 0.0061771188627629146 -0.0099553689592027598 0 0.0072947668814236626 -0.01056385949374459 0 0.006911434687233836 -0.010519708171464151 0 0.0072947668814236626 -0.01056385949374459 0 0.0080330974689886911 -0.011018531945805385 0 0.0061771188627629146 -0.0099553689592027598 0 0.006911434687233836 -0.010519708171464151 0 0.0072947668814236626 -0.01056385949374459 0 0.0051379473519214559 -0.0097342923923868941 0 0.0061771188627629146 -0.0099553689592027598 0 0.0054129003110523453 -0.010262319642695498 0 0.0061771188627629146 -0.0099553689592027598 0 0.006911434687233836 -0.010519708171464151 0 0.0054129003110523453 -0.010262319642695498 0 0.0099184239435261383 -0.0057567941804467131 0 0.0099875638467344097 -0.0076132570389100523 0 0.0097413538827452167 -0.0068599001908527645 0 0.006911434687233836 -0.010519708171464151 0 0.0054129003110523453 -0.010262319642695498 0 0.0071517609690007252 -0.010449056602016676 0 0.0075432606164898735 -0.007967290555037438 0 0.008551514160989945 -0.0089962562008533836 0 0.006911434687233836 -0.010519708171464151 0 0.0071517609690007252 -0.010449056602016676 0 0.0080330974689886911 -0.011018531945805385 0 0.0071517609690007252 -0.010449056602016676 0 0.0080330974689886911 -0.011018531945805385 0 0.0091157846100877633 -0.0098223942531866348 0 0.0099875638467344097 -0.0076132570389100523 0 0.0091157846100877633 -0.0098223942531866348 0 0.0099861530306724119 -0.0082013283062975732 0 0.008551514160989945 -0.0089962562008533836 0 0.0090464285859673185 -0.0097538495438488741 0 0.0099875638467344097 -0.0076132570389100523 0 0.0097413538827452167 -0.0068599001908527645 0 0.0099861530306724119 -0.0082013283062975732 0 0.0097413538827452167 -0.0068599001908527645 0 0.0096117065130715482 -0.0069545373224491119 0 0.0099861530306724119 -0.0082013283062975732 0 0.0097413538827452167 -0.0068599001908527645 0 0.0096117065130715482 -0.0069545373224491119 0 0.0091438156946167595 -0.0056843920751128039 0 0.0062044251397907913 -0.0056241260964793654 0 0.0067673356491439931 -0.0060665876391216237 0 0.0096117065130715482 -0.0069545373224491119 0 0.0087410886559391408 -0.0054439060186346868 0 0.0093797916424365659 -0.0061401826501205183 0 0.0096117065130715482 -0.0069545373224491119 0 0.0087410886559391408 -0.0054439060186346868 0 0.0091438156946167595 -0.0056843920751128039 0 0.0067509865924085446 -0.0037974829108470866 0 0.0062044251397907913 -0.0056241260964793654 0 0.0082903076735190845 -0.0044320737840498883 0 0.0087410886559391408 -0.0054439060186346868 0 0.0091438156946167595 -0.0056843920751128039 0 0.0099184239435261383 -0.0057567941804467131 0 0.0097413538827452167 -0.0068599001908527645 0 0.0091438156946167595 -0.0056843920751128039 0 0.0092046280107120695 -0.012785100142646687 0 0.008638875669293531 -0.01184294331959581 0 0.0088214080153881935 -0.012134674809287045 0 0.0092046280107120695 -0.012785100142646687 0 0.0093563314765830394 -0.012311856917456173 0 0.008638875669293531 -0.01184294331959581 0 0.008638875669293531 -0.01184294331959581 0 0.0082703074729932984 -0.011480503036220256 0 0.0088214080153881935 -0.012134674809287045 0 0.008638875669293531 -0.01184294331959581 0 0.0082703074729932984 -0.011480503036220256 0 0.007858766926668587 -0.01096109438599821 0 0.0079064590144736577 -0.010636337729529956 0 0.008638875669293531 -0.011842943319595811 0 0.007858766926668587 -0.01096109438599821 0 0.0082703074729932984 -0.011480503036220256 0 0.007858766926668587 -0.01096109438599821 0 0.0072947668814236626 -0.01056385949374459 0 0.0070302827426111519 -0.010009879490353233 0 0.007858766926668587 -0.01096109438599821 0 0.0072947668814236626 -0.01056385949374459 0 0.0082703074729932984 -0.011480503036220256 0 0.0072947668814236626 -0.01056385949374459 0 0.0080330974689886911 -0.011018531945805385 0 0.0082703074729932984 -0.011480503036220256 0 0.0080330974689886911 -0.011018531945805385 0 0.0086414271540992248 -0.011311378563544727 0 0.0080330974689886911 -0.011018531945805385 0 0.0086414271540992248 -0.011311378563544727 0 0.0091157846100877633 -0.0098223942531866348 0 0.0082703074729932984 -0.011480503036220256 0 0.0086414271540992248 -0.011311378563544727 0 0.0088214080153881935 -0.012134674809287045 0 0.0086414271540992248 -0.011311378563544727 0 0.0088214080153881935 -0.012134674809287045 0 0.0090716015847591529 -0.011798958006941617 0 0.0090716015847591529 -0.011798958006941617 0 0.0090994964072479666 -0.012751138832993461 0 0.0092300145539110472 -0.01234373071921716 0 0.0088214080153881935 -0.012134674809287045 0 0.0090716015847591529 -0.011798958006941617 0 0.0090994964072479666 -0.012751138832993461 0 0.0092046280107120695 -0.012785100142646687 0 0.0088214080153881935 -0.012134674809287045 0 0.0090994964072479666 -0.012751138832993461 0 0.0092300145539110472 -0.01234373071921716 0 0.0094697231776556118 -0.011245265865276232 0 0.0095880450981658052 -0.011863155474810216 0 0.0090716015847591529 -0.011798958006941617 0 0.0092300145539110472 -0.01234373071921716 0 0.0094697231776556118 -0.011245265865276232 0 0.0090716015847591529 -0.011798958006941617 0 0.0094697231776556118 -0.011245265865276232 0 0.0092791347578226688 -0.010629115155548064 0 0.0094697231776556118 -0.011245265865276232 0 0.0092791347578226688 -0.010629115155548064 0 0.009802182873039654 -0.010232928755009306 0 0.0092791347578226688 -0.010629115155548064 0 0.0096698788560209206 -0.0096228384789633931 0 0.009802182873039654 -0.010232928755009306 0 0.0086414271540992248 -0.011311378563544727 0 0.0090716015847591529 -0.011798958006941617 0 0.0092791347578226688 -0.010629115155548064 0 0.0086414271540992248 -0.011311378563544727 0 0.0092791347578226688 -0.010629115155548064 0 0.0091157846100877633 -0.0098223942531866348 0 0.0092791347578226688 -0.010629115155548064 0 0.0091157846100877633 -0.009822394253186633 0 0.0096698788560209206 -0.0096228384789633931 0 0.0096698788560209206 -0.0096228384789633931 0 0.009802182873039654 -0.010232928755009306 0 0.010144071143113815 -0.0091054654016319812 0 0.010282807925298766 -0.0095587781218576789 0 0.009802182873039654 -0.010232928755009306 0 0.010144071143113815 -0.0091054654016319812 0 0.010282807925298766 -0.0095587781218576789 0 0.009802182873039654 -0.010232928755009306 0 0.01003419808186139 -0.010635909502120273 0 0.0094697231776556118 -0.011245265865276232 0 0.009802182873039654 -0.010232928755009306 0 0.0097466376486438147 -0.011060526301785001 0 0.009802182873039654 -0.010232928755009306 0 0.0097466376486438147 -0.011060526301785001 0 0.01003419808186139 -0.010635909502120273 0 0.0097466376486438147 -0.011060526301785001 0 0.01003419808186139 -0.010635909502120273 0 0.0099625985479572052 -0.011637229229965653 0 0.0097466376486438147 -0.011060526301785001 0 0.0099625985479572052 -0.011637229229965653 0 0.0095880450981658052 -0.011863155474810216 0 0.0094697231776556118 -0.011245265865276232 0 0.0097466376486438147 -0.011060526301785001 0 0.0095880450981658052 -0.011863155474810216 0 0.0067673356491439931 -0.0060665876391216237 0 0.0070787456761114602 -0.0064234346661584257 0 0.01004496864254014 -0.0074712866739682854 0 0.0093797916424365659 -0.0061401826501205183 0 0.0098583394536047291 -0.0064196473299734163 0 0.0096117065130715482 -0.0069545373224491119 0 0.01004496864254014 -0.0074712866739682854 0 0.0093797916424365659 -0.0061401826501205183 0 0.0096117065130715482 -0.0069545373224491119 0 0.01004496864254014 -0.0074712866739682854 0 0.0099861530306724119 -0.0082013283062975732 0 0.0091157846100877633 -0.0098223942531866348 0 0.0096698788560209206 -0.0096228384789633931 0 0.010061312978946545 -0.0086025805973246779 0 0.0091157846100877633 -0.0098223942531866348 0 0.0099861530306724119 -0.0082013283062975732 0 0.010061312978946545 -0.0086025805973246779 0 0.0096698788560209206 -0.0096228384789633931 0 0.010061312978946545 -0.0086025805973246779 0 0.010144071143113815 -0.0091054654016319812 0 0.01004496864254014 -0.0074712866739682854 0 0.0099861530306724119 -0.0082013283062975732 0 0.010061312978946545 -0.0086025805973246779 0 0.01004496864254014 -0.0074712866739682854 0 0.010061312978946545 -0.0086025805973246779 0 0.010312161087696399 -0.0081185427548484488 0 0.010061312978946545 -0.0086025805973246779 0 0.010312161087696399 -0.0081185427548484488 0 0.010144071143113815 -0.0091054654016319812 0 0.010282807925298766 -0.0095587781218576789 0 0.010144071143113815 -0.0091054654016319812 0 0.01051556203281102 -0.0085832581418139979 0 0.010312161087696399 -0.0081185427548484488 0 0.010144071143113815 -0.0091054654016319812 0 0.01051556203281102 -0.0085832581418139979 0 0.010312161087696399 -0.0081185427548484488 0 0.01051556203281102 -0.0085832581418139979 0 0.01053866241125034 -0.0077139063658687116 0 0.010312161087696399 -0.0081185427548484488 0 0.01053866241125034 -0.0077139063658687116 0 0.010255728932566776 -0.0073206095595396477 0 0.01004496864254014 -0.0074712866739682854 0 0.010312161087696399 -0.0081185427548484488 0 0.010255728932566776 -0.0073206095595396477 0 0.01004496864254014 -0.0074712866739682854 0 0.010255728932566776 -0.0073206095595396477 0 0.0098583394536047291 -0.0064196473299734163 0 0.0070787456761114602 -0.0064234346661584257 0 0.0074260204845221049 -0.0069732802683558333 0 0.010255728932566776 -0.0073206095595396477 0 0.0098583394536047291 -0.0064196473299734163 0 0.010223141087539748 -0.0068558440131994709 0 0.01053866241125034 -0.0077139063658687116 0 0.010255728932566776 -0.0073206095595396477 0 0.010223141087539748 -0.0068558440131994709 0 0.0046498619773268877 -0.0067838232435501484 0 0.0040944611182521769 -0.0058370787652106846 0 0.0040190731364223541 -0.005755416895403132 0 0.0043100929511515253 -0.0064916823680441814 0 0.0046498619773268877 -0.0067838232435501484 0 0.0040190731364223541 -0.005755416895403132 0 0.0040944611182521769 -0.0058370787652106846 0 0.0040190731364223541 -0.005755416895403132 0 0.0034840123210898347 -0.0049159919674621527 0 0.0040190731364223541 -0.005755416895403132 0 0.0038532014827447748 -0.0056342053212316773 0 0.0033555243393517914 -0.004795118349923448 0 0.0040190731364223541 -0.005755416895403132 0 0.0033555243393517914 -0.004795118349923448 0 0.0034840123210898347 -0.0049159919674621527 0 0.0043100929511515253 -0.0064916823680441814 0 0.0040190731364223541 -0.005755416895403132 0 0.0038532014827447748 -0.0056342053212316773 0 0.0040869236260997832 -0.0060681555689177944 0 0.0043100929511515253 -0.0064916823680441814 0 0.0038532014827447748 -0.0056342053212316773 0 0.0038532014827447748 -0.0056342053212316773 0 0.0033111487479705829 -0.0047952944207006985 0 0.0033555243393517914 -0.004795118349923448 0 0.0039512775351483219 -0.0055159337287653152 0 0.0040869236260997832 -0.0060681555689177944 0 0.0033111487479705829 -0.0047952944207006985 0 0.0040869236260997832 -0.0060681555689177944 0 0.0038532014827447744 -0.0056342053212316773 0 0.0033111487479705829 -0.0047952944207006985 0 0.0033111487479705829 -0.0047952944207006985 0 0.0024684964505714952 -0.0035960152679492489 0 0.0023067572850865368 -0.0034157888824058102 0 0.0033111487479705829 -0.0047952944207006985 0 0.0024684964505714952 -0.0035960152679492489 0 0.0033555243393517914 -0.004795118349923448 0 0.0024684964505714952 -0.0035960152679492489 0 0.0033555243393517914 -0.004795118349923448 0 0.0026293141074789088 -0.0036975393231979416 0 0.0024684964505714952 -0.0035960152679492489 0 0.0026293141074789088 -0.0036975393231979416 0 0.0016809548948509892 -0.0024758378800572912 0 0.0033555243393517914 -0.004795118349923448 0 0.0026293141074789088 -0.0036975393231979416 0 0.0034840123210898347 -0.0049159919674621527 0 0.0040944611182521769 -0.0058370787652106846 0 0.0034840123210898347 -0.0049159919674621527 0 0.003296256510199558 -0.0047411319432688294 0 0.0026293141074789088 -0.0036975393231979416 0 0.0034840123210898347 -0.0049159919674621527 0 0.003296256510199558 -0.0047411319432688294 0 0.0026293141074789088 -0.0036975393231979416 0 0.003296256510199558 -0.0047411319432688294 0 0.0023934822256887135 -0.0034534272603024318 0 0.0026293141074789088 -0.0036975393231979416 0 0.0023934822256887135 -0.0034534272603024318 0 0.0015649264970686355 -0.0021997544130716159 0 0.0023934822256887135 -0.0034534272603024318 0 0.0015649264970686355 -0.0021997544130716159 0 0.0014100244496274791 -0.0019694745176264314 0 0.0026293141074789088 -0.0036975393231979416 0 0.0015649264970686355 -0.0021997544130716159 0 0.0016809548948509892 -0.0024758378800572912 0 1.0069751143234179e-06 -2.5380599110961305e-06 0 0.0014100244496274791 -0.0019694745176264314 0 0.00071224092863242524 -0.0010370785651122819 0 1.0069751143234179e-06 -2.5380599110961305e-06 0 0.00071224092863242513 -0.0010370785651122817 0 8.1357175432985036e-08 -1.0002864432316786e-06 0 0.0015649264970686355 -0.0021997544130716159 0 0.0014100244496274791 -0.0019694745176264314 0 0.00071224092863242524 -0.0010370785651122819 0 0.0015649264970686355 -0.0021997544130716159 0 0.00071224092863242524 -0.0010370785651122819 0 0.00073889142812156585 -0.0011529215149039076 0 0.00071224092863242524 -0.0010370785651122819 0 8.1357175432984679e-08 -1.0002864432316771e-06 0 0.00073889142812156585 -0.0011529215149039076 0 8.1357175432985036e-08 -1.0002864432316786e-06 0 0.00073889142812156585 -0.0011529215149039076 0 2.0414771818561924e-07 -1.1146532129381311e-06 0 0.00073889142812156585 -0.0011529215149039076 0 0.001065897552609012 -0.0017172572483205837 0 0.00048055826300309165 -0.00086410874828264238 0 0.00073889142812156585 -0.0011529215149039076 0 2.0414771818561924e-07 -1.1146532129381311e-06 0 0.00048055826300309165 -0.00086410874828264238 0 0.0015649264970686355 -0.0021997544130716159 0 0.00073889142812156585 -0.0011529215149039076 0 0.0016809548948509892 -0.0024758378800572912 0 0.00073889142812156585 -0.0011529215149039076 0 0.0016809548948509892 -0.0024758378800572912 0 0.001065897552609012 -0.0017172572483205837 0 0.0016809548948509892 -0.0024758378800572912 0 0.001065897552609012 -0.001717257248320584 0 0.001637959338491618 -0.0025441302350055028 0 0.0024684964505714952 -0.0035960152679492489 0 0.0016809548948509892 -0.0024758378800572912 0 0.001637959338491618 -0.0025441302350055028 0 0.001637959338491618 -0.0025441302350055028 0 0.00092443224034777563 -0.0016161804555568753 0 0.0014960817412698487 -0.0023931551125882656 0 0.001065897552609012 -0.0017172572483205837 0 0.001637959338491618 -0.0025441302350055028 0 0.00092443224034777563 -0.0016161804555568753 0 0.001065897552609012 -0.0017172572483205837 0 0.00092443224034777563 -0.0016161804555568753 0 0.00048055826300309165 -0.00086410874828264238 0 0.00092443224034777563 -0.0016161804555568753 0 0.00035246292817833823 -0.00074800493412652323 0 0.00074174661913341776 -0.0014298154216936556 0 0.00092443224034777563 -0.0016161804555568753 0 0.0014960817412698487 -0.0023931551125882656 0 0.00074174661913341776 -0.0014298154216936556 0 2.0414771818561924e-07 -1.1146532129381311e-06 0 1.2628263016471051e-07 -9.104220506998948e-07 0 0.00048055826300309165 -0.00086410874828264238 0 1.2628263016476909e-07 -9.1042205070000004e-07 0 0.00048055826300309165 -0.00086410874828264238 0 0.00035246292817833823 -0.00074800493412652323 0 0.00092443224034777563 -0.0016161804555568753 0 0.00048055826300309165 -0.00086410874828264238 0 0.00035246292817833823 -0.00074800493412652323 0 1.2628263016476909e-07 -9.1042205070000004e-07 0 0.00035246292817833823 -0.00074800493412652323 0 7.5265844495164685e-08 -7.8881319724760847e-07 0 0.00035246292817833823 -0.00074800493412652323 0 7.5265844495164685e-08 -7.8881319724760847e-07 0 0.00022634057698138677 -0.00059196272339286028 0 0.00035246292817833823 -0.00074800493412652323 0 0.00022634057698138677 -0.00059196272339286028 0 0.00074174661913341776 -0.0014298154216936556 0 3.5257374488850093e-08 -6.4351899277412568e-07 0 7.5265844495164685e-08 -7.8881319724760847e-07 0 0.00022634057698138677 -0.00059196272339286028 0 0.0014960817412698487 -0.0023931551125882656 0 0.00074174661913341776 -0.0014298154216936556 0 0.0014685143108331452 -0.0022575606902571245 0 0.00043738995570273027 -0.0009783539863372475 0 0.00022634057698138677 -0.00059196272339286028 0 0.00074174661913341776 -0.0014298154216936556 0 0.00083250771443569758 -0.0015106408196647254 0 0.00043738995570273027 -0.0009783539863372475 0 0.00074174661913341776 -0.0014298154216936556 0 0.00083250771443569758 -0.0015106408196647254 0 0.00074174661913341776 -0.0014298154216936558 0 0.0014685143108331452 -0.0022575606902571245 0 0.0015216280145457662 -0.0020924140940797261 0 0.0014685143108331452 -0.0022575606902571245 0 0.0022993976684887716 -0.0028278784534085865 0 0.00083250771443569758 -0.0015106408196647254 0 0.0015216280145457662 -0.0020924140940797261 0 0.0014685143108331452 -0.0022575606902571245 0 0.0014960817412698487 -0.0023931551125882656 0 0.0014685143108331452 -0.0022575606902571245 0 0.0022522360260346544 -0.003165612829489562 0 0.0022522360260346544 -0.003165612829489562 0 0.002299397668488772 -0.0028278784534085865 0 0.0031289432481624475 -0.0037541667400268087 0 0.0014685143108331452 -0.0022575606902571245 0 0.0022522360260346544 -0.003165612829489562 0 0.0022993976684887716 -0.0028278784534085865 0 0.0022993976684887716 -0.0028278784534085865 0 0.0032186406213034367 -0.0031283683179845543 0 0.0031289432481624475 -0.0037541667400268087 0 0.0032186406213034367 -0.0031283683179845543 0 0.0036800425699253392 -0.0036758092503556593 0 0.0031289432481624475 -0.0037541667400268087 0 0.002429549570603495 -0.002458061065906248 0 0.0022993976684887716 -0.0028278784534085865 0 0.0032186406213034367 -0.0031283683179845543 0 0.0044676274541202423 -0.0032921366348201081 0 0.0032186406213034367 -0.0031283683179845543 0 0.0036800425699253392 -0.0036758092503556593 0 0.0044676274541202423 -0.0032921366348201081 0 0.0040457055943642238 -0.0043600472892322351 0 0.0036800425699253392 -0.0036758092503556593 0 0.0040457055943642238 -0.0043600472892322351 0 0.0031289432481624475 -0.0037541667400268087 0 0.0035012888001441987 -0.0044668146034314241 0 0.0040457055943642238 -0.0043600472892322351 0 0.0036800425699253392 -0.0036758092503556593 0 0.0031289432481624475 -0.0037541667400268087 0 0.0031289432481624475 -0.0037541667400268087 0 0.003059971219254463 -0.0042197474511819271 0 0.0035012888001441987 -0.0044668146034314241 0 0.0022522360260346544 -0.003165612829489562 0 0.0031289432481624475 -0.0037541667400268087 0 0.003059971219254463 -0.0042197474511819271 0 0.0039512775351483219 -0.0055159337287653152 0 0.003059971219254463 -0.0042197474511819271 0 0.0035012888001441987 -0.0044668146034314241 0 0.0040457055943642238 -0.0043600472892322351 0 0.0039512775351483219 -0.0055159337287653152 0 0.0035012888001441987 -0.0044668146034314241 0 0.0039512775351483219 -0.0055159337287653152 0 0.0033111487479705829 -0.0047952944207006985 0 0.003059971219254463 -0.0042197474511819271 0 0.0033111487479705829 -0.0047952944207006985 0 0.003059971219254463 -0.0042197474511819263 0 0.0023067572850865368 -0.0034157888824058102 0 0.001637959338491618 -0.0025441302350055028 0 0.0014960817412698487 -0.0023931551125882656 0 0.0023067572850865368 -0.0034157888824058102 0 0.0024684964505714952 -0.0035960152679492489 0 0.001637959338491618 -0.0025441302350055028 0 0.0023067572850865368 -0.0034157888824058102 0 0.0014960817412698487 -0.0023931551125882656 0 0.0022522360260346544 -0.003165612829489562 0 0.0023067572850865368 -0.0034157888824058102 0 0.0022522360260346544 -0.003165612829489562 0 0.003059971219254463 -0.0042197474511819271 0 0.0023067572850865368 -0.0034157888824058102 0 
</DataArray>
</PointData>
<CellData Scalars="region_id,cross_section_updated," Vectors="" Tensors="stress,">
<DataArray type="Float64" Name="region_id" format="ascii">
8 8 8 8 8 8 8 8 8 8 8 8 8 8 8 8 8 8 8 8 8 8 8 8 8 8 8 8 8 8 8 8 8 8 8 7 8 8 8 7 8 8 8 8 8 8 8 8 7 8 8 8 7 8 8 8 8 8 8 8 8 8 8 8 8 8 8 8 8 8 8 8 8 8 8 8 8 8 8 8 8 8 8 8 8 8 8 8 8 8 8 8 8 8 8 8 8 8 8 8 8 8 8 8 8 8 8 8 8 8 8 8 8 8 8 8 8 8 8 8 8 8 8 8 8 8 8 6 8 8 8 6 8 8 8 8 8 8 8 8 8 8 8 8 8 8 8 8 8 6 8 6 8 8 7 8 8 7 8 8 8 8 8 8 8 8 8 8 8 8 8 7 8 8 8 7 8 8 8 6 8 8 6 8 8 8 8 8 8 8 8 8 8 8 8 8 8 8 8 8 8 8 8 8 8 8 8 8 8 8 8 8 8 8 8 8 6 8 8 8 8 8 8 8 8 8 8 8 8 8 8 8 6 8 8 8 8 8 8 8 8 8 8 8 8 8 8 8 8 8 8 8 8 8 8 8 8 8 8 8 8 8 8 8 8 8 8 8 8 8 8 8 8 8 8 8 8 8 8 8 8 8 8 8 8 8 8 8 8 8 8 8 8 8 8 8 8 8 8 8 8 8 8 8 8 8 
</DataArray>
<DataArray type="Float64" Name="stress" NumberOfComponents="9" format="ascii">
-2560878.1993497126 -1364875.8012673007 0 -1364875.8012673007 -7695452.6425551251 0 0 0 -2564082.7104762094 -879899.97655436909 -1602918.5138510584 0 -1602918.5138510584 -8424260.0150048286 0 0 0 -2326039.9978897991 96370.160890394822 -811192.04948369623 0 -811192.04948369623 -7622223.3928029686 0 0 0 -1881463.307978143 -901674.04102958529 -1221086.6979465326 0 -1221086.6979465326 -7671574.8961188411 0 0 0 -2143312.2342871074 -755173.7906428806 -1118656.6132978108 0 -1118656.6132978108 -7067081.1456483249 0 0 0 -1955563.7340728017 56093.334387026727 -842419.5729452204 0 -842419.5729452204 -6919397.59480986 0 0 0 -1715826.0651057083 127436.18739300799 -888844.96422704356 0 -888844.96422704356 -5819033.7606890015 0 0 0 -1422899.3933239977 488609.44546669256 -1727553.7222157167 0 -1727553.7222157167 -7009466.1414622795 0 0 0 -1630214.173998897 158328.50612296443 -1062387.2212501629 0 -1062387.2212501629 -9023194.2227728888 0 0 0 -2216216.4291624809 577534.50102992496 -1019670.7883895381 0 -1019670.7883895381 -7743149.829393927 0 0 0 -1791403.8320910009 1681247.6242212346 777192.51648800308 0 777192.51648800308 -6935075.2238048539 0 0 0 -1313456.8998959044 922003.1831789026 -931078.70859486144 0 -931078.70859486144 -8834558.8012440819 0 0 0 -1978138.9045162955 455283.89448316954 69986.088444234483 0 69986.088444234483 -10619759.290737223 0 0 0 -2541118.8490635119 -2538516.9842716502 -792743.48728443519 0 -792743.48728443519 -7615889.9973591156 0 0 0 -2538601.7454076917 -1020160.9620491466 -345831.60470116395 0 -345831.60470116395 -8926345.82333472 0 0 0 -2486626.6963459668 -227756.3549901747 -170527.67312169191 0 -170527.67312169191 -6543265.0680155 0 0 0 -1692755.3557514187 -2314046.3510264535 52868.277575512708 0 52868.277575512708 -6944711.2206538962 0 0 0 -2314689.3929200876 -1044703.8131464513 425492.98209609953 0 425492.98209609953 -6305979.7484301627 0 0 0 -1837670.8903941535 -2153598.2659710478 528240.55939989677 0 528240.55939989677 -6460224.4981752941 0 0 0 -2153455.6910365857 -1173952.4100973499 750162.77612498566 0 750162.77612498566 -6791811.9138176404 0 0 0 -1991441.0809787479 4914635.2532327864 2137142.8444398325 0 2137142.8444398325 -7187583.2554902453 0 0 0 -568237.00056436472 164375.64507947164 1389881.4855939341 0 1389881.4855939341 -4913265.0420951992 0 0 0 -1187222.3492539315 -338962.50351529242 930993.70922318613 0 930993.70922318613 -6528591.659008259 0 0 0 -1716888.5406308877 2204100.7009685142 1068153.1035682196 0 1068153.1035682196 -6559660.1989829242 0 0 0 -1088889.8745036013 930644.65258908644 2332208.4059138722 0 2332208.4059138722 -7991450.0266105942 0 0 0 -1765201.3435053751 -107220.56705562212 1051465.0347773414 0 1051465.0347773414 -7223948.3840275174 0 0 0 -1832792.2377707856 -497931.88146493305 1258743.2053948017 0 1258743.2053948017 -8271413.8087413609 0 0 0 -2192336.4225515733 -708534.27160149068 466571.56237035152 0 466571.56237035152 -7064376.6096462235 0 0 0 -1943227.7203119276 -1972503.9942687694 1109771.5988633805 0 1109771.5988633805 -8312538.6983254189 0 0 0 -2571260.6731485482 -1847157.5315719822 488188.52087833639 0 488188.52087833639 -7781591.0262065772 0 0 0 -2407187.1394446399 -2392548.2328949282 796640.43245281349 0 796640.43245281349 -7177618.9168924214 0 0 0 -2392541.7874468374 -1617862.9678632598 469946.01463785616 0 469946.01463785616 -6606836.7003802266 0 0 0 -2056174.9170608716 -1544261.542899448 932428.58647122444 0 932428.58647122444 -6364308.5148653463 0 0 0 -1977142.5144411987 -10040276.972586036 -1936960.4442450106 0 -1936960.4442450106 -12019562.293011412 0 0 0 -5514959.8163993619 -1826353.6085118945 4278483.2494854406 0 4278483.2494854406 -4904272.2672016378 0 0 0 -1682656.4689283813 204885.13716799769 -3146.333970546606 0 -3146.333970546606 -217473.2974072136 0 0 0 -3147.0400598039851 -8748771.0376948789 -711026.15358124301 0 -711026.15358124301 -9391852.1550565362 0 0 0 -4535155.7981878519 -4047403.4572280589 3418253.6317956354 0 3418253.6317956354 -5075560.7346625105 0 0 0 -2280741.0479726419 -12073550.386745859 -1373476.0319565237 0 -1373476.0319565237 -10770601.12333782 0 0 0 -5711037.8775209151 272567.82573525689 6506.4413267120835 0 6506.4413267120835 -246540.41577133792 0 0 0 6506.8524909797416 -4456754.80234122 3358383.4522283189 0 3358383.4522283189 -6332056.7586505283 0 0 0 -2697202.8902479382 -2136459.5150733702 2697679.2373552267 0 2697679.2373552267 -8005199.561659392 0 0 0 -2535414.7691831887 407338.25673991907 3585139.2489139726 0 3585139.2489139726 -6626411.498138777 0 0 0 -1554768.3103497149 2616287.5066942647 3532015.8797722529 0 3532015.8797722529 -5477654.3393926695 0 0 0 -715341.7081746012 -120570.02056941576 2485169.154631786 0 2485169.154631786 -7133938.2095224299 0 0 0 -1813627.05752296 -2159286.9399259146 4052789.969130055 0 4052789.969130055 -5730931.662671987 0 0 0 -1972554.6506494731 -9837969.4723130316 -3325258.7124991231 0 -3325258.7124991231 -14147344.842501059 0 0 0 -5996328.5787035227 2740151.3625723072 6043297.670723781 0 6043297.670723781 -2889504.7231860291 0 0 0 -37338.340153427329 156499.51763304955 -375.84703497191367 0 -375.84703497191367 -158004.10214255733 0 0 0 -376.14612737692369 1096206.356068478 3990066.1236549234 0 3990066.1236549234 -6170345.4476764984 0 0 0 -1268534.7729020072 9502180.2394175306 8466064.8539474681 0 8466064.8539474681 828047.5175180193 0 0 0 2582556.9392338884 -12175672.549691647 -7723078.4183421675 0 -7723078.4183421675 -19345576.184316628 0 0 0 -7880312.1835020669 60060.373153404682 -1226.0714230291633 0 -1226.0714230291633 -64966.047532002558 0 0 0 -1226.418594649469 -3324917.7672576811 -2257278.47710393 0 -2257278.47710393 -11696729.454082249 0 0 0 -3755411.8053349834 -6615448.5924195163 -1491913.9508923665 0 -1491913.9508923665 -10834773.566720992 0 0 0 -4362555.5397851281 -9867920.581715595 -39886.489560753107 0 -39886.489560753107 -10809130.398843199 0 0 0 -5169262.7451396994 -8185457.0119368397 150877.3719771672 0 150877.3719771672 -10758624.603978008 0 0 0 -4736020.4039787129 -10025141.910778325 1111060.4203402922 0 1111060.4203402922 -12248496.309530683 0 0 0 -5568409.5550772473 -974057.51892778836 1751752.8855589405 0 1751752.8855589405 -9909124.4452954754 0 0 0 -2720795.4910558183 -3959463.4832416065 2268010.7255100198 0 2268010.7255100198 -10353553.693327844 0 0 0 -3578254.2941423617 -6120557.2953984886 -1283568.6316196145 0 -1283568.6316196145 -13090669.570020422 0 0 0 -4802806.7163547277 -3210650.2761118775 1083580.2948007453 0 1083580.2948007453 -9718477.9250362925 0 0 0 -3232282.0502870409 -2046274.8031491851 309653.78968892992 0 309653.78968892992 -8180576.4725374542 0 0 0 -2556712.8189216582 -1741778.396745678 2652337.2156311804 0 2652337.2156311804 -8977511.6330881566 0 0 0 -2679822.5074584596 -1315261.3558859357 -2319092.0960865859 0 -2319092.0960865859 -13974787.349510573 0 0 0 -3822512.1763491258 791064.65811831504 -1079966.5271111592 0 -1079966.5271111592 -9646817.3138352484 0 0 0 -2213938.1639292352 -963944.31876137434 -879775.05329957046 0 -879775.05329957046 -7860547.6241687527 0 0 0 -2206122.9857325326 -4949090.2062601652 -1441096.5305262967 0 -1441096.5305262967 -9337286.0458445847 0 0 0 -3571594.0630261842 -432040.58930718526 -2119479.9339190088 0 -2119479.9339190088 -9526608.7324222885 0 0 0 -2489662.3304323684 -1510019.2611809736 -1281144.3647784414 0 -1281144.3647784414 -6369091.1349239536 0 0 0 -1969777.5990262311 -898075.00103083067 -137559.29633659543 0 -137559.29633659543 -2062699.9095202126 0 0 0 -740193.72763776127 -30995.898857076041 -749186.98530682828 0 -749186.98530682828 -5890265.6478106966 0 0 0 -1480315.3866669426 -235453.91181544121 -920167.1455972949 0 -920167.1455972949 -3558272.0836845059 0 0 0 -948431.49887498654 -2450246.8862298578 804364.02813088428 0 804364.02813088428 -6530017.8771738 0 0 0 -2245066.1908509135 -104222.62255518069 55476.191534778103 0 55476.191534778103 -5487113.9609834589 0 0 0 -1397834.1458846603 -29549.675573712215 1269092.2128958944 0 1269092.2128958944 -7003188.1491510049 0 0 0 -1758184.456181176 -758195.42892921716 852730.18413265795 0 852730.18413265795 -3076250.275697168 0 0 0 -958611.42615659721 139537.27528324351 1122011.7360347565 0 1122011.7360347565 -5055130.8646311164 0 0 0 -1228898.3973369673 -295768.16575694224 1730639.7027294263 0 1730639.7027294263 -6877359.3384329621 0 0 0 -1793281.8760474767 827143.07393904449 1883801.5705860965 0 1883801.5705860965 -7977587.5680012405 0 0 0 -1787611.1235155496 57734.834508039057 970615.72454500198 0 970615.72454500198 -7951116.8387857005 0 0 0 -1973345.5010694154 443984.88435855322 753615.24213092029 0 753615.24213092029 -7520060.042845469 0 0 0 -1769018.7896217275 -64519.328921256587 517797.22938599437 0 517797.22938599437 -9049538.1480877846 0 0 0 -2278514.3692522608 308056.88994024694 306657.34654954448 0 306657.34654954448 -8523601.1907838583 0 0 0 -2053886.0752109028 583480.29674157966 787965.68616779894 0 787965.68616779894 -8671893.737359371 0 0 0 -2022103.360154449 921276.59364793077 1522968.769251181 0 1522968.769251181 -9251898.8056105077 0 0 0 -2082655.5529906377 846138.64776862785 1130280.5015759319 0 1130280.5015759319 -9603915.2791826054 0 0 0 -2189444.1578534916 1034688.1257573515 978312.5208252701 0 978312.5208252701 -9719721.7256446332 0 0 0 -2171258.3999718204 1574931.3902493715 1095625.2263688147 0 1095625.2263688147 -10025124.23736953 0 0 0 -2112548.2117800377 1661332.4247290865 1610686.8124255538 0 1610686.8124255538 -10072813.139980294 0 0 0 -2102870.1788127981 -395934.35919787735 2965284.8604231365 0 2965284.8604231365 -10352484.06955117 0 0 0 -2687104.6071872637 -112753.51741653681 2425443.2663426828 0 2425443.2663426828 -9412348.0280708373 0 0 0 -2381275.3863718398 1129129.2757494785 1841683.0733079948 0 1841683.0733079948 -9892028.516128011 0 0 0 -2190724.8100946322 1561708.0886479095 2199934.1687355191 0 2199934.1687355191 -9082675.2455730438 0 0 0 -1880241.7892312836 -477844.72831236571 681196.27304451168 0 681196.27304451168 -9996717.2138131782 0 0 0 -2618640.4855313823 -368006.15240884054 474497.92233095318 0 474497.92233095318 -9558662.7304502428 0 0 0 -2481667.2207147726 -620236.61056300253 373174.29049344361 0 373174.29049344361 -9711726.7996460944 0 0 0 -2582990.8525522724 15885.352916825563 93702.042212825269 0 93702.042212825269 -9583416.9664423317 0 0 0 -2391882.9033813663 -476497.73601732869 377413.00824704766 0 377413.00824704766 -9596097.9440816753 0 0 0 -2518148.9200247573 -15988.416474074125 112200.44976228289 0 112200.44976228289 -9028020.7636521682 0 0 0 -2261002.2950315643 -11237.718238770962 90663.336605060846 0 90663.336605060846 -9217996.6424821354 0 0 0 -2307308.5901802257 315882.18753484637 543923.9361854092 0 543923.9361854092 -9409250.6975509897 0 0 0 -2273342.1275040396 185365.01646380872 435721.32268933952 0 435721.32268933952 -9629655.2908655852 0 0 0 -2361072.5686004385 417183.80867534876 687588.25387502462 0 687588.25387502462 -9980824.0856583044 0 0 0 -2390910.0692457408 942414.65496547148 712588.83531080908 0 712588.83531080908 -9887491.0229614228 0 0 0 -2236269.0919989832 338218.41694620252 468391.12740866467 0 468391.12740866467 -10032053.466834053 0 0 0 -2423458.762471959 75299.51208948344 409658.39948223345 0 409658.39948223345 -9947268.579804793 0 0 0 -2467992.2669288293 -719767.79616208002 456585.95412622392 0 456585.95412622392 -9898649.719314158 0 0 0 -2654604.3788690604 -728049.78639787063 706395.86500924826 0 706395.86500924826 -9997699.7460162342 0 0 0 -2681437.3831035234 -1611572.4601552859 691217.69994557649 0 691217.69994557649 -9959016.2006585672 0 0 0 -2892647.165203467 -2889282.3942313604 593415.42701087892 0 593415.42701087892 -10010813.414803162 0 0 0 -3225023.9522586353 -2265267.1472347006 672881.64776767476 0 672881.64776767476 -10079290.754365712 0 0 0 -3086139.4754000977 -862771.8153058663 656261.83448926359 0 656261.83448926359 -10028252.766051404 0 0 0 -2722756.1453393102 -908716.40490057319 534285.11782837892 0 534285.11782837892 -10100667.7743247 0 0 0 -2752346.0448063239 637534.12483893335 346827.54777296633 0 346827.54777296633 -10195931.557104856 0 0 0 -2389599.3580664694 1329234.6728555039 760218.5641361326 0 760218.5641361326 -10233943.018672854 0 0 0 -2226177.0864543393 1209776.221771352 977599.43713932112 0 977599.43713932112 -10027806.910140067 0 0 0 -2204507.6720921844 1614256.1958521381 386302.93205524795 0 386302.93205524795 -10052113.402584344 0 0 0 -2109464.3016830534 2243703.1003807411 1333459.5655636434 0 1333459.5655636434 -9758523.7527100444 0 0 0 -1878705.163082324 1447280.9109542333 1176468.9574963674 0 1176468.9574963674 -9588098.7065351009 0 0 0 -2035204.4488952197 204862.46605659835 711631.51740320772 0 711631.51740320772 -10093218.291954622 0 0 0 -2472088.9564745147 -917152.75925519317 -39017.394582215697 0 -39017.394582215697 -9870611.3941492736 0 0 0 -2696941.0383511186 -1229464.2669936079 945135.4060927853 0 945135.4060927853 -10003267.792633722 0 0 0 -2808183.0149068269 -1830237.0976883024 196103.65270643681 0 196103.65270643681 -9933956.2195761949 0 0 0 -2941048.3293161243 -4500470.3461018801 524340.89369393885 0 524340.89369393885 -9805254.9377545863 0 0 0 -3576431.3209641129 -1825579.2894124165 801569.52207199112 0 801569.52207199112 -10072709.630338967 0 0 0 -2974572.229937844 2890683.8711119667 1840509.2813760117 0 1840509.2813760117 -9808367.8936513662 0 0 0 -1729421.005634848 -11360.108232785453 59061.810524471235 0 59061.810524471235 -3787.6393524884479 0 0 0 -3786.9368963184825 2490626.8436961491 1620880.9108764529 0 1620880.9108764529 -10897284.619604886 0 0 0 -2101664.4439771902 2408165.1095596515 2684726.6491079479 0 2684726.6491079479 -10015243.041746594 0 0 0 -1901769.4830467328 6499555.2499983869 2105358.7778147706 0 2105358.7778147706 -9591707.3655644655 0 0 0 -773038.02889151499 5293.4010680052161 21148.143906815618 0 21148.143906815618 1764.1854495274602 0 0 0 1764.3966293831472 2321025.895153217 1810708.7634849101 0 1810708.7634849101 -9546995.6149809435 0 0 0 -1806492.4299569353 2188884.9987069443 1489446.7783746612 0 1489446.7783746612 -9914900.5991910398 0 0 0 -1931503.9001210257 1645971.5318553746 1217886.0065200627 0 1217886.0065200627 -9874151.4555953443 0 0 0 -2057044.9809349887 2434285.0621021725 1589222.9095951766 0 1589222.9095951766 -9753224.7038028911 0 0 0 -1829734.9104251862 1942513.8000699878 1289279.3444824889 0 1289279.3444824889 -10152944.99827005 0 0 0 -2052607.7995500267 2500974.2760276943 1601470.4814926889 0 1601470.4814926889 -9836869.9314371943 0 0 0 -1833973.9138523787 1912777.0493559092 912896.39772089571 0 912896.39772089571 -10222970.872398451 0 0 0 -2077548.455760628 2713887.5829383954 1247097.6593662798 0 1247097.6593662798 -9728027.5301301777 0 0 0 -1753534.9867979512 2430887.3386870623 1980436.1674274057 0 1980436.1674274057 -8688000.3630473167 0 0 0 -1564278.2560900599 3107135.0396169946 2042017.7463041842 0 2042017.7463041842 -9374721.6197185665 0 0 0 -1566896.6450253949 2444653.6777524613 2082928.9216563404 0 2082928.9216563404 -8709932.7806660384 0 0 0 -1566319.7757283859 632173.49926576018 1759664.733173186 0 1759664.733173186 -7639129.0346157849 0 0 0 -1751738.8838375062 2580829.1034879237 1851019.3711478086 0 1851019.3711478086 -9861301.8165815771 0 0 0 -1820118.1782734096 2124388.9521599691 1652249.2079293206 0 1652249.2079293206 -9257326.3850658908 0 0 0 -1783234.3582264874 2917579.2812300548 1104597.6910633445 0 1104597.6910633445 -9776561.8008895516 0 0 0 -1714745.6299148686 1833995.956703566 1109153.9165035274 0 1109153.9165035274 -9907685.5922596008 0 0 0 -2018422.4088890105 737611.39518921822 522237.06441658735 0 522237.06441658735 -8616081.5663823783 0 0 0 -1969617.5427982956 43982.384771960438 116038.95546286988 0 116038.95546286988 14660.919008860365 0 0 0 14660.82594520523 894771.94700381905 986439.26881491393 0 986439.26881491393 -7747891.9883465171 0 0 0 -1713280.0103356689 33678.536065405991 164280.22156673961 0 164280.22156673961 11225.769935285789 0 0 0 11226.076500172931 281311.10803502426 1104218.6354849599 0 1104218.6354849599 -5139267.9842879325 0 0 0 -1214489.2190632261 -2066469.5184118301 -68477.803835317492 0 -68477.803835317492 -8268058.763974905 0 0 0 -2583632.07059668 324075.86663582514 -1134.2610708229477 0 -1134.2610708229477 -280508.72604517057 0 0 0 10891.785147663613 -2777312.5660065711 -690310.36199166998 0 -690310.36199166998 -8309362.4138199538 0 0 0 -2771668.7449566424 -3246944.0643212646 -1271913.1153875552 0 -1271913.1153875552 -9696898.8147657067 0 0 0 -3235960.7197717428 276711.36376733042 -1366.4523018157342 0 -1366.4523018157342 -282178.55188764504 0 0 0 -1366.7970300787129 1842355.8548959298 4620300.7397058308 0 4620300.7397058308 -3302662.4979159981 0 0 0 -365076.66075499821 1461674.9103974774 2280798.4471050128 0 2280798.4471050128 -7189561.5985959768 0 0 0 -1431971.6720496342 633324.72843985725 1982476.0566451773 0 1982476.0566451773 -2974879.4765203036 0 0 0 -585388.68702011835 3536791.9784130752 2702421.2231237106 0 2702421.2231237106 -7978545.1675721705 0 0 0 -1110438.2972897813 2215302.8237207495 2706392.7810207531 0 2706392.7810207531 -5310272.335010279 0 0 0 -773742.37782239541 3846607.6069077086 2078449.4879432246 0 2078449.4879432246 -8810812.0480433702 0 0 0 -1241051.1102839205 3193835.3210674822 2185642.3137295805 0 2185642.3137295805 -7643698.7805207372 0 0 0 -1112465.8648633212 5457772.3477724418 4321647.345900476 0 4321647.345900476 -4632156.0297175646 0 0 0 206404.07951372117 4342360.8330567852 3495115.615623828 0 3495115.615623828 -7251007.7733177245 0 0 0 -727161.73506522924 1452515.2477503438 3977583.9870516211 0 3977583.9870516211 -5046674.9422283545 0 0 0 -898539.92361950688 3388781.845978722 4963877.6596843526 0 4963877.6596843526 -3189554.9618177712 0 0 0 49806.721040248871 -7849784.7952940613 -5513819.3857854679 0 -5513819.3857854679 -15850405.316093788 0 0 0 -5925047.5278469622 7374442.968527535 8381676.6123785302 0 8381676.6123785302 -1166782.7331853174 0 0 0 1551915.0588355605 214030.63529045996 -66.299723190022632 0 -66.299723190022632 -214295.66619138606 0 0 0 -66.257725231465884 4402067.0331849083 5966958.9208432175 0 5966958.9208432175 -7036009.1324643195 0 0 0 -658485.52481984347 14603710.359458439 12134376.191954479 0 12134376.191954479 3180346.2146008313 0 0 0 4446014.1435148194 -12455376.904805541 -10229028.124317221 0 -10229028.124317221 -25499971.741560191 0 0 0 -9488837.1615914255 82535.54445625504 -840.61941356334137 0 -840.61941356334137 -85897.647103265626 0 0 0 -840.52566175261745 -3229158.3890655134 -3484405.0941116735 0 -3484405.0941116735 -13963939.908098673 0 0 0 -4298274.5742910448 -4451384.2463075593 -2775738.344493784 0 -2775738.344493784 -16125721.196274504 0 0 0 -5144276.3606455103 -1154645.9003358409 -1148160.266250208 0 -1148160.266250208 -14126609.605338916 0 0 0 -3820313.8764186874 6754.9386907961452 199883.73657198309 0 199883.73657198309 2251.6797730870312 0 0 0 2251.6546159707941 1851699.2236876972 18995.343373209238 0 18995.343373209238 -14883397.896854475 0 0 0 -3257924.6682916991 -1092660.904878471 -862977.10099321231 0 -862977.10099321231 -13373469.062643118 0 0 0 -3616532.4918803982 -6558.7131251534738 173381.69125638451 0 173381.69125638451 -2186.1728916924912 0 0 0 -2186.2215042114549 804887.61626196653 -91497.832337455984 0 -91497.832337455984 -12010328.588655934 0 0 0 -2801360.2430984899 -5754597.8652760759 -2230841.533195172 0 -2230841.533195172 -11280423.718084231 0 0 0 -4258755.395840086 -1773027.5263700821 1172356.7333836257 0 1172356.7333836257 -10087470.060452431 0 0 0 -2965124.39670562 -4732128.507776022 1053093.3905093712 0 1053093.3905093712 -9341874.6154243648 0 0 0 -3518500.7808000892 -928617.83116721362 1429714.8513934314 0 1429714.8513934314 -7486457.4063082784 0 0 0 -2103768.8093688749 1471559.9672221243 1110914.5602495447 0 1110914.5602495447 -9504937.6311354041 0 0 0 -2008344.4159783274 183312.2689987272 144406.41421744972 0 144406.41421744972 -9449411.4339947999 0 0 0 -2316524.7912490219 1821889.7923379168 1542971.4844811447 0 1542971.4844811447 -8043113.1657361686 0 0 0 -1555305.8433495685 2814325.0839864835 693102.34890905023 0 693102.34890905023 -9119650.2862726301 0 0 0 -1576331.3005715385 5293068.0681606047 1553219.8703947291 0 1553219.8703947291 -7800473.9323774427 0 0 0 -626851.46605420485 2421446.0790434554 2970814.6656468138 0 2970814.6656468138 -4789726.9714888483 0 0 0 -592070.22311134636 8320475.6370357312 4514218.5929495096 0 4514218.5929495096 -9420173.7378572971 0 0 0 -274924.52520538867 849506.79492549598 2579313.3849034733 0 2579313.3849034733 -9524652.5662699938 0 0 0 -2168786.4428361207 -324860.72624315321 2893572.283279717 0 2893572.283279717 -8809489.4655356705 0 0 0 -2283587.5479447171 -1950669.5047825091 2066519.9279223159 0 2066519.9279223159 -10028589.20759508 0 0 0 -2994814.6780944057 -706604.72930580378 2079868.6928983307 0 2079868.6928983307 -10019020.456270307 0 0 0 -2681406.2963940278 -4203418.8572764322 1674468.1449209377 0 1674468.1449209377 -9246045.2609546483 0 0 0 -3362366.0295577794 253078.27981466427 1632129.4038462117 0 1632129.4038462117 -10697742.576755956 0 0 0 -2611166.0742353313 920271.80442019925 2029786.9605586007 0 2029786.9605586007 -10004356.564948544 0 0 0 -2271021.1901320852 166352.64125654846 2217757.9826215333 0 2217757.9826215333 -12263964.380438596 0 0 0 -3024402.9347955137 1636502.6683319658 1418628.472044006 0 1418628.472044006 -10825367.789747134 0 0 0 -2297216.2803537846 945410.38501421735 605804.75708925724 0 605804.75708925724 -13180851.409867495 0 0 0 -3058860.2562133111 3270612.591352053 3457787.913549386 0 3457787.913549386 -10079676.31635426 0 0 0 -1702265.9312505499 2280705.1811546162 2167530.4401180441 0 2167530.4401180441 -13499364.745022714 0 0 0 -2804664.8909670189 2768081.2679067142 1296866.8127609268 0 1296866.8127609268 -11975851.831833422 0 0 0 -2301942.6409816779 1860112.5657538027 -125085.08391430974 0 -125085.08391430974 -11332522.427381366 0 0 0 -2368102.4654068872 45893.156760506332 -410629.86901823431 0 -410629.86901823431 -11994800.0067406 0 0 0 -2987226.7124950215 596047.44613187015 -66685.942956775427 0 -66685.942956775427 -11290718.907423705 0 0 0 -2673667.8653229624 288871.40782357007 1019950.4978899136 0 1019950.4978899136 -11365258.594598651 0 0 0 -2769096.7966937646 -26077.848921952769 248755.13616621494 0 248755.13616621494 -11000858.873791426 0 0 0 -2756734.1806783434 394012.39169923961 567717.37443464622 0 567717.37443464622 -10549406.299784318 0 0 0 -2538848.4770212695 439773.01677340269 585523.47895859182 0 585523.47895859182 -10666391.342954695 0 0 0 -2556654.5815453231 639793.42592465132 1222523.0972052533 0 1222523.0972052533 -9973832.3078051209 0 0 0 -2333509.7204701155 3737.0794609703298 215394.90226765256 0 215394.90226765256 1246.1175199523568 0 0 0 1245.7992452306789 718526.61268940382 815274.54785823077 0 815274.54785823077 -13157950.119313084 0 0 0 -3109855.8766559307 -424774.75214327127 717509.03399702068 0 717509.03399702068 -13224535.864677176 0 0 0 -3412327.6542051211 -1320772.2888510227 406809.04877768178 0 406809.04877768178 -16554361.714857683 0 0 0 -4468783.5009271801 3250007.1613766253 -46633.876609480008 0 -46633.876609480008 -13472135.906451881 0 0 0 -2555532.1862688139 -1149314.7479317756 -2564656.570903562 0 -2564656.570903562 -19564361.217536025 0 0 0 -5178418.9913669424 -144277.61289148778 -1431564.3192602843 0 -1431564.3192602843 -14335409.985492244 0 0 0 -3619921.8995959312 -3506450.2372606806 49130.239591598511 0 49130.239591598511 -13302728.643308982 0 0 0 -4202294.7201424204 -422001.03372185829 -112508.43478643894 0 -112508.43478643894 -12286193.272258472 0 0 0 -3177048.5764950751 -1575170.6502607837 -728641.22327716649 0 -728641.22327716649 -11697569.089946568 0 0 0 -3318184.9350518435 7815.2654079422355 -501017.60317717865 0 -501017.60317717865 -10402941.365329951 0 0 0 -2598781.5249805152 -271.48854416655377 -483595.74813143164 0 -483595.74813143164 -11192698.640555196 0 0 0 -2798242.5322748427 -442791.47161705419 -243496.92340767384 0 -243496.92340767384 -9420682.7672887295 0 0 0 -2465868.5597264506 -147424.38186719269 -97656.007101625204 0 -97656.007101625204 -11342280.217459023 0 0 0 -2872426.1498315483 -874029.51616277546 5495.8122262023389 0 5495.8122262023389 -11526907.797201276 0 0 0 -3100234.3283410072 -388769.78452546895 1051207.1304253656 0 1051207.1304253656 -12678193.205633476 0 0 0 -3266740.7475397289 4167.5830693567987 220231.12984453159 0 220231.12984453159 1389.9553389291978 0 0 0 1389.3846020714846 93306.701898245141 -107516.90051809326 0 -107516.90051809326 -11393732.180225838 0 0 0 -2825106.3695819024 -180183.41608797014 369362.05658314936 0 369362.05658314936 -9212726.2338345796 0 0 0 -2348227.4124806374 -92912.974871823375 379051.90268874913 0 379051.90268874913 -10129578.760551641 0 0 0 -2555622.933855867 -383737.63082325459 925318.80905982479 0 925318.80905982479 -12023821.730081365 0 0 0 -3101889.8402261548 -128866.41098600626 840455.33276632428 0 840455.33276632428 -12598717.175392702 0 0 0 -3181895.8965946771 -225874.78395959362 1230159.6817264101 0 1230159.6817264101 -13119389.484113455 0 0 0 -3336316.067018263 -85748.676440950483 1069506.4410874285 0 1069506.4410874285 -12488304.556417271 0 0 0 -3143513.3082145527 -621945.29274327867 380114.75766230002 0 380114.75766230002 -12634274.45202332 0 0 0 -3314054.9361916538 -1995523.8255555704 805159.4781063291 0 805159.4781063291 -13127989.878322437 0 0 0 -3780878.4259695038 -1090079.31853576 1147856.7711785045 0 1147856.7711785045 -13422268.99403359 0 0 0 -3628087.0781423375 -3061250.5042393133 900565.23018046294 0 900565.23018046294 -13524426.42316471 0 0 0 -4146419.2318510078 -893628.45162463561 1032002.3090000171 0 1032002.3090000171 -13110599.608834229 0 0 0 -3501057.0151147153 -770959.15065232571 1767289.3620998915 0 1767289.3620998915 -13550396.137175865 0 0 0 -3580338.8219570471 -497152.26061301958 1743087.117069032 0 1743087.117069032 -13498494.772263654 0 0 0 -3498911.7582191685 -278188.43123070337 1714039.0819318164 0 1714039.0819318164 -13523937.637599435 0 0 0 -3450531.517207535 -219282.06552307121 1920026.2199851251 0 1920026.2199851251 -13896945.68698819 0 0 0 -3529056.9381278139 -141868.71392049268 1446628.8547123522 0 1446628.8547123522 -13818971.540656161 0 0 0 -3490210.0636441633 -223202.74546724185 744438.10264111497 0 744438.10264111497 -11764500.349171422 0 0 0 -2996925.7736596726 153615.81878204457 700177.83057695255 0 700177.83057695255 -12910719.247746415 0 0 0 -3189275.8572410922 -207236.87736787274 867427.58376313467 0 867427.58376313467 -13804595.577432781 0 0 0 -3502958.1137001626 54790.175152174197 882696.82383594103 0 882696.82383594103 -14701193.606367465 0 0 0 -3661600.8578038225 -420027.35747611243 1143058.8962478777 0 1143058.8962478777 -15968838.374415521 0 0 0 -4097216.4329729071 -745376.52821262891 2224897.2416320015 0 2224897.2416320015 -14644432.326891553 0 0 0 -3847452.2137760441 -2618299.9191468833 3421158.5125742918 0 3421158.5125742918 -21853422.188725587 0 0 0 -6117930.5269681178 -5647878.1239888156 3883805.9720354816 0 3883805.9720354816 -16973254.146010861 0 0 0 -5655283.0674999179 479923.17261952534 1581900.7999162348 0 1581900.7999162348 -16011581.891817182 0 0 0 -3882914.6797994152 -2538499.2815681207 3202048.7805159139 0 3202048.7805159139 -16410695.324380858 0 0 0 -4737298.6514872434 -2647660.4618614786 2601648.877005029 0 2601648.877005029 -15037201.746524841 0 0 0 -4421215.5520965802 -4724196.5844938187 3029360.1545281485 0 3029360.1545281485 -14168660.456113389 0 0 0 -4723214.2601518007 -2680132.371961996 2481441.1029025996 0 2481441.1029025996 -13025707.01222413 0 0 0 -3926459.8460465316 -2514808.3611969934 2200353.3637270508 0 2200353.3637270508 -12814664.932547789 0 0 0 -3832368.323436195 -732203.07326589432 2220289.6800366165 0 2220289.6800366165 -14235292.611071818 0 0 0 -3741873.9210844273 -1611704.3058762301 2701323.0235256199 0 2701323.0235256199 -14358850.508050535 0 0 0 -3992638.70348169 -683886.66346918419 2174807.2152326163 0 2174807.2152326163 -13054312.595380656 0 0 0 -3434549.8147124611 -749724.56854379736 2275797.0499165114 0 2275797.0499165114 -13760435.877711818 0 0 0 -3627540.1115639023 -758908.0459212549 1839667.4325626884 0 1839667.4325626884 -11785984.804862399 0 0 0 -3136223.2126959134 -1590647.5392528377 2426828.5036347033 0 2426828.5036347033 -12972121.808628185 0 0 0 -3640692.3369702562 -1465119.343571472 1972112.2833476721 0 1972112.2833476721 -12241074.084234452 0 0 0 -3426548.3569514807 -1202580.992558179 1422331.0781084844 0 1422331.0781084844 -10683115.518386925 0 0 0 -2971424.1277362751 -1344930.1948523563 2112058.3150701355 0 2112058.3150701355 -11527696.446924187 0 0 0 -3218156.6604441362 -4093100.3557478325 2277874.7160791494 0 2277874.7160791494 -12281792.750060162 0 0 0 -4093723.2764519989 -2235533.1429063003 1540424.8474062295 0 1540424.8474062295 -11061311.506113596 0 0 0 -3324211.1622549742 -2496522.435282765 2117661.7294999696 0 2117661.7294999696 -11824860.100788694 0 0 0 -3580345.6340178652 -3559880.1778169768 1678658.4113362483 0 1678658.4113362483 -10681273.070592355 0 0 0 -3560288.3121023332 -1948161.2581199019 948968.5276528073 0 948968.5276528073 -9432101.736355694 0 0 0 -2845065.7486188994 -2223448.286610588 1616342.122686031 0 1616342.122686031 -10003575.149023566 0 0 0 -3056755.8589085382 -2984387.663916423 1141804.0559144916 0 1141804.0559144916 -8954443.2627894692 0 0 0 -2984707.7316764728 -932728.66359322704 1595623.1589824986 0 1595623.1589824986 -10164869.741541106 0 0 0 -2774399.6012835838 -1055692.4932125681 987002.61254195217 0 987002.61254195217 -9102760.4367117584 0 0 0 -2539613.232481081 -1104118.9926830833 1196570.3586116284 0 1196570.3586116284 -8474376.6617358234 0 0 0 -2394623.9136047265 -405651.75441458263 1838404.2846024437 0 1838404.2846024437 -9872348.663259916 0 0 0 -2569500.1044186233 -306460.31828130782 2534056.6564667495 0 2534056.6564667495 -8866474.7462161556 0 0 0 -2293233.7661243677 -870586.39343402954 1805521.0403113868 0 1805521.0403113868 -8793493.7107696813 0 0 0 -2416020.0260509276 -809281.54397375882 2132263.8249227484 0 2132263.8249227484 -11052949.603719585 0 0 0 -2965557.7869233359 -1610715.3083406761 2044777.0459398106 0 2044777.0459398106 -9917878.0221067891 0 0 0 -2882148.3326118682 -1678758.9080019025 1843667.2766124737 0 1843667.2766124737 -9786651.8180166818 0 0 0 -2866352.6815046472 -3447278.3451594329 1894264.2595548853 0 1894264.2595548853 -8543287.2292135209 0 0 0 -2997641.3935932396 -3249790.2470644936 1913626.5629648268 0 1913626.5629648268 -7954585.5338237584 0 0 0 -2801093.9452220686 -1753358.082778126 2968092.4512046785 0 2968092.4512046785 -7163083.4319878817 0 0 0 -2229110.3786915001 -5608742.2226283103 2086410.656770248 0 2086410.656770248 -6220927.1279047951 0 0 0 -2957417.3376332708 -6845555.4657588229 1491407.5368410782 0 1491407.5368410782 -7035166.8850838542 0 0 0 -3470180.5877106711 -3954952.5232054559 703045.66458998621 0 703045.66458998621 -8702957.2439430263 0 0 0 -3164477.4417871204 -4997503.3181878924 1172938.059212368 0 1172938.059212368 -9125895.9291231483 0 0 0 -3530849.8118277565 -2867688.146224983 598122.56952306442 0 598122.56952306442 -11193570.471935526 0 0 0 -3515314.654540129 -2370277.8299046541 1305527.7541465573 0 1305527.7541465573 -10709736.282240469 0 0 0 -3270003.5280362805 -3378992.0744311269 -274338.95752991736 0 -274338.95752991736 -12828306.53405742 0 0 0 -4051824.6521221418 -4616926.5341079012 -21175.940105594695 0 -21175.940105594695 -10829081.707414865 0 0 0 -3861502.0603806898 -1717986.6839238796 1097763.0417022966 0 1097763.0417022966 -13406848.48898346 0 0 0 -3781208.7932268325 -1441321.4528813343 1454330.5451046599 0 1454330.5451046599 -12566350.993958943 0 0 0 -3501918.1117100697 -901123.71917768568 2155357.1701122774 0 2155357.1701122774 -12706472.257307559 0 0 0 -3401898.9941213094 -453238.96499679051 1959506.2577714063 0 1959506.2577714063 -12837870.351515643 0 0 0 -3322777.3291281098 -1022296.739648276 1699216.2541758157 0 1699216.2541758157 -11514722.852559615 0 0 0 -3134254.8980519706 -1226912.7866651062 1722791.0289712641 0 1722791.0289712641 -12259784.846981704 0 0 0 -3371674.408411704 
</DataArray>
<DataArray type="Float64" Name="cross_section_updated" format="ascii">
1 1 1 1 1 1 1 1 1 1 1 1 1 1 1 1 1 1 1 1 1 1 1 1 1 1 1 1 1 1 1 1 1 1 1 0.0099999911738842817 1 1 1 0.010000005139553347 1 1 1 1 1 1 1 1 0.0099999962613449376 1 1 1 0.0099999956603547442 1 1 1 1 1 1 1 1 1 1 1 1 1 1 1 1 1 1 1 1 1 1 1 1 1 1 1 1 1 1 1 1 1 1 1 1 1 1 1 1 1 1 1 1 1 1 1 1 1 1 1 1 1 1 1 1 1 1 1 1 1 1 1 1 1 1 1 1 1 1 1 1 1 1 0.0099999912192978747 1 1 1 0.0099999973602518041 1 1 1 1 1 1 1 1 1 1 1 1 1 1 1 1 1 0.010000001163295691 1 0.0099999961679389099 1 1 0.010150325577731082 1 1 0.0099999956908967125 1 1 1 1 1 1 1 1 1 1 1 1 1 0.010000000524974486 1 1 1 0.010000001171897635 1 1 1 0.010000000314463948 1 1 0.010000000607656488 1 1 1 1 1 1 1 1 1 1 1 1 1 1 1 1 1 1 1 1 1 1 1 1 1 1 1 1 1 1 1 1 1 0.010000003978434018 1 1 1 1 1 1 1 1 1 1 1 1 1 1 1 0.010000007134210724 1 1 1 1 1 1 1 1 1 1 1 1 1 1 1 1 1 1 1 1 1 1 1 1 1 1 1 1 1 1 1 1 1 1 1 1 1 1 1 1 1 1 1 1 1 1 1 1 1 1 1 1 1 1 1 1 1 1 1 1 1 1 1 1 1 1 1 1 1 1 1 1 1 
</DataArray>
</CellData>
</Piece>
</UnstructuredGrid>
</VTKFile>
