<?xml version="1.0"?>
<VTKFile type="UnstructuredGrid" version="0.1" byte_order="LittleEndian">
<UnstructuredGrid>
<Piece NumberOfPoints="880" NumberOfCells="299">
<Points>
<DataArray type="Float64" NumberOfComponents="3" format="ascii">
-0 0 0 0.18653882694645291 0.22249173546702489 0 0 0.25000000000104189 0 -0 0 0 0.18653882694645291 0.22249173546702489 0 0.24999999999941089 0 0 0.24999999999941089 0 0 0.35015135319464608 0.1900339269648805 0 0.49999999999869182 0 0 0.18653882694645291 0.22249173546702489 0 0.24999999999941089 0 0 0.35015135319464608 0.1900339269648805 0 0.35015135319464608 0.1900339269648805 0 0.49924741621175961 0.21507969613896921 0 0.49999999999869182 0 0 0.35015135319464608 0.1900339269648805 0 0.49924741621175961 0.21507969613896921 0 0.40587285776242238 0.32419148732968017 0 0.37764981543668408 0.41341486499350411 0 0.41576443813007791 0.48093483781626972 0 0.45418244162583959 0.41624787166862259 0 0.37764981543668408 0.41341486499350411 0 0.45418244162583959 0.41624787166862259 0 0.40587285776242238 0.32419148732968017 0 0.41576443813007791 0.48093483781626972 0 0.46566719828045178 0.47702825415921918 0 0.45418244162583959 0.41624787166862259 0 0.41576443813007791 0.48093483781626972 0 0.46566719828045178 0.47702825415921918 0 0.4638583922372429 0.51470588235294135 0 0.46566719828045178 0.47702825415921918 0 0.49954900152271581 0.45107191084564019 0 0.5 0.5 0 0.46566719828045178 0.47702825415921918 0 0.4638583922372429 0.51470588235294135 0 0.5 0.5 0 0.46566719828045178 0.47702825415921918 0 0.49954900152271581 0.45107191084564019 0 0.45418244162583959 0.41624787166862259 0 0.45418244162583959 0.41624787166862259 0 0.49435464945626773 0.33318442629318029 0 0.54876010062294855 0.39662628167175101 0 0.45418244162583959 0.41624787166862259 0 0.49435464945626773 0.33318442629318029 0 0.40587285776242238 0.32419148732968017 0 0.49924741621175961 0.21507969613896921 0 0.49435464945626773 0.33318442629318029 0 0.40587285776242238 0.32419148732968017 0 0.35015135319464608 0.1900339269648805 0 0.40587285776242238 0.32419148732968017 0 0.29145599617909779 0.35026601625021492 0 0.37764981543668408 0.41341486499350411 0 0.40587285776242238 0.32419148732968017 0 0.29145599617909779 0.35026601625021492 0 0.18653882694645291 0.22249173546702489 0 0.35015135319464608 0.1900339269648805 0 0.29145599617909779 0.35026601625021492 0 0.29145599617909779 0.35026601625021492 0 0.32540781287085369 0.49175159894608172 0 0.17872124008781709 0.39692711089439497 0 0.37764981543668408 0.41341486499350411 0 0.29145599617909779 0.35026601625021492 0 0.32540781287085369 0.49175159894608172 0 0.37764981543668408 0.41341486499350411 0 0.41576443813007791 0.48093483781626972 0 0.32540781287085369 0.49175159894608172 0 0.17872124008781709 0.39692711089439497 0 0 0.25000000000104189 0 0 0.50000000000206157 0 0.17872124008781709 0.39692711089439497 0 0 0.50000000000206157 0 0.22453074737734591 0.51613635929252633 0 0.32540781287085369 0.49175159894608172 0 0.17872124008781709 0.39692711089439497 0 0.22453074737734591 0.51613635929252633 0 0.18653882694645291 0.22249173546702489 0 0.29145599617909779 0.35026601625021492 0 0.17872124008781709 0.39692711089439497 0 0.18653882694645291 0.22249173546702489 0 0.17872124008781709 0.39692711089439497 0 0 0.25000000000104189 0 0 0.50000000000206157 0 0.18442368612951149 0.62734948407416979 0 0 0.75000000000034772 0 0.18442368612951149 0.62734948407416979 0 0.22727208279115291 0.72949159435386135 0 0 0.75000000000034772 0 0.18442368612951149 0.62734948407416979 0 0.22727208279115291 0.72949159435386135 0 0.31346558946927339 0.67110784456164874 0 0.18442368612951149 0.62734948407416979 0 0.22453074737734591 0.51613635929252633 0 0.31771010312359771 0.58585679504088894 0 0 0.50000000000206157 0 0.18442368612951149 0.62734948407416979 0 0.22453074737734591 0.51613635929252633 0 0 1 0 0.096516139048187316 0.89789944498939644 0 0 0.75000000000034772 0 0 1 0 0.096516139048187316 0.89789944498939644 0 0.1596341872805197 1 0 0.096516139048187316 0.89789944498939644 0 0 0.75000000000034772 0 0.1644705180525495 0.8200994301041713 0 0.1644705180525495 0.8200994301041713 0 0.2386314078659193 0.92924778694987087 0 0.27155609766735261 0.80398965554903801 0 0.22727208279115291 0.72949159435386135 0 0 0.75000000000034772 0 0.1644705180525495 0.8200994301041713 0 0.22727208279115291 0.72949159435386135 0 0.1644705180525495 0.8200994301041713 0 0.27155609766735261 0.80398965554903801 0 0.096516139048187316 0.89789944498939644 0 0.1644705180525495 0.8200994301041713 0 0.2386314078659193 0.92924778694987087 0 0.096516139048187316 0.89789944498939644 0 0.2386314078659193 0.92924778694987087 0 0.1596341872805197 1 0 0.2386314078659193 0.92924778694987087 0 0.1596341872805197 1 0 0.27591592301363282 1 0 0.36061858902161292 1 0 0.32789203369730929 0.94219211037003092 0 0.27591592301363282 1 0 0.36061858902161292 1 0 0.32789203369730929 0.94219211037003092 0 0.39382242252278338 0.95440420122950598 0 0.2386314078659193 0.92924778694987087 0 0.32789203369730929 0.94219211037003092 0 0.27591592301363282 1 0 0.2386314078659193 0.92924778694987087 0 0.32789203369730929 0.94219211037003092 0 0.31834856208730472 0.88134829947972904 0 0.32789203369730929 0.94219211037003092 0 0.37746652222901839 0.8987532801416368 0 0.39382242252278338 0.95440420122950598 0 0.32789203369730929 0.94219211037003092 0 0.31834856208730472 0.88134829947972904 0 0.37746652222901839 0.8987532801416368 0 0.2386314078659193 0.92924778694987087 0 0.31834856208730472 0.88134829947972904 0 0.27155609766735261 0.80398965554903801 0 0.31834856208730472 0.88134829947972904 0 0.36493375430404612 0.82333914183704071 0 0.37746652222901839 0.8987532801416368 0 0.31834856208730472 0.88134829947972904 0 0.36493375430404612 0.82333914183704071 0 0.27155609766735261 0.80398965554903801 0 0.22727208279115291 0.72949159435386135 0 0.27155609766735261 0.80398965554903801 0 0.32984265945580837 0.74432890077789404 0 0.36493375430404612 0.82333914183704071 0 0.27155609766735261 0.80398965554903801 0 0.32984265945580837 0.74432890077789404 0 0.36493375430404612 0.82333914183704071 0 0.39746869305290999 0.7595658224757349 0 0.32984265945580837 0.74432890077789404 0 0.36493375430404612 0.82333914183704071 0 0.39746869305290999 0.7595658224757349 0 0.42893012659725649 0.81084715169569632 0 0.39746869305290999 0.7595658224757349 0 0.42893012659725649 0.81084715169569632 0 0.44651949253391748 0.77225997208621999 0 0.39746869305290999 0.7595658224757349 0 0.44651949253391748 0.77225997208621999 0 0.43412357948152142 0.72128778687215156 0 0.44651949253391748 0.77225997208621999 0 0.47786860714145291 0.77730227330627721 0 0.47220206448452873 0.74892462649306213 0 0.47786860714145291 0.77730227330627721 0 0.47220206448452873 0.74892462649306213 0 0.5 0.76470588235294124 0 0.47786860714145291 0.77730227330627721 0 0.5 0.79411764705882359 0 0.5 0.76470588235294124 0 0.47062147868881782 0.80650323854033878 0 0.5 0.82352941176470584 0 0.5 0.79411764705882359 0 0.47786860714145291 0.77730227330627721 0 0.47062147868881782 0.80650323854033878 0 0.5 0.79411764705882359 0 0.44651949253391748 0.77225997208621999 0 0.47786860714145291 0.77730227330627721 0 0.47062147868881782 0.80650323854033878 0 0.42893012659725649 0.81084715169569632 0 0.44651949253391748 0.77225997208621999 0 0.47062147868881782 0.80650323854033878 0 0.42893012659725649 0.81084715169569632 0 0.47062147868881782 0.80650323854033878 0 0.46181179062043481 0.83858979842637782 0 0.42893012659725649 0.81084715169569632 0 0.46181179062043481 0.83858979842637782 0 0.42880856207355889 0.86677159981903118 0 0.46181179062043481 0.83858979842637782 0 0.5 0.85294117647058831 0 0.5 0.82352941176470584 0 0.47062147868881782 0.80650323854033878 0 0.46181179062043481 0.83858979842637782 0 0.5 0.82352941176470584 0 0.46181179062043481 0.83858979842637782 0 0.47032448519202857 0.86718057681700655 0 0.5 0.85294117647058831 0 0.47032448519202857 0.86718057681700655 0 0.5 0.88235294117647056 0 0.5 0.85294117647058831 0 0.46181179062043481 0.83858979842637782 0 0.47032448519202857 0.86718057681700655 0 0.42880856207355889 0.86677159981903118 0 0.36493375430404612 0.82333914183704071 0 0.42880856207355889 0.86677159981903118 0 0.37746652222901839 0.8987532801416368 0 0.36493375430404612 0.82333914183704071 0 0.42893012659725649 0.81084715169569632 0 0.42880856207355889 0.86677159981903118 0 0.37746652222901839 0.8987532801416368 0 0.42822627495986648 0.92083108049218854 0 0.39382242252278338 0.95440420122950598 0 0.42880856207355889 0.86677159981903118 0 0.37746652222901839 0.8987532801416368 0 0.42822627495986648 0.92083108049218854 0 0.47032448519202857 0.86718057681700655 0 0.42880856207355889 0.86677159981903118 0 0.46100207326614928 0.89524736819256467 0 0.42880856207355889 0.86677159981903118 0 0.42822627495986648 0.92083108049218854 0 0.46100207326614928 0.89524736819256467 0 0.47032448519202857 0.86718057681700655 0 0.46100207326614928 0.89524736819256467 0 0.5 0.88235294117647056 0 0.46100207326614928 0.89524736819256467 0 0.5 0.91176470588235292 0 0.5 0.88235294117647056 0 0.46100207326614928 0.89524736819256467 0 0.46949408183482899 0.92833826413560594 0 0.5 0.91176470588235292 0 0.46949408183482899 0.92833826413560594 0 0.5 0.94117647058823528 0 0.5 0.91176470588235292 0 0.42822627495986648 0.92083108049218854 0 0.46100207326614928 0.89524736819256467 0 0.46949408183482899 0.92833826413560594 0 0.46949408183482899 0.92833826413560594 0 0.44768478605684647 0.9646709673379662 0 0.47596308696979028 0.95620709615192379 0 0.42822627495986648 0.92083108049218854 0 0.46949408183482899 0.92833826413560594 0 0.44768478605684647 0.9646709673379662 0 0.44768478605684647 0.9646709673379662 0 0.47596308696979028 0.95620709615192379 0 0.47818194888216242 0.97829325975680159 0 0.46949408183482899 0.92833826413560594 0 0.47596308696979028 0.95620709615192379 0 0.5 0.94117647058823528 0 0.47596308696979028 0.95620709615192379 0 0.47818194888216242 0.97829325975680159 0 0.5 0.97058823529411764 0 0.47596308696979028 0.95620709615192379 0 0.5 0.97058823529411764 0 0.5 0.94117647058823528 0 0.47818194888216242 0.97829325975680159 0 0.46726187138417491 1 0 0.5 1 0 0.47818194888216242 0.97829325975680159 0 0.5 0.97058823529411764 0 0.5 1 0 0.44768478605684647 0.9646709673379662 0 0.47818194888216242 0.97829325975680159 0 0.46726187138417491 1 0 0.44768478605684647 0.9646709673379662 0 0.46726187138417491 1 0 0.42231823435723009 1 0 0.44768478605684647 0.9646709673379662 0 0.42231823435723009 1 0 0.39382242252278338 0.95440420122950598 0 0.42822627495986648 0.92083108049218854 0 0.44768478605684647 0.9646709673379662 0 0.39382242252278338 0.95440420122950598 0 0.36061858902161292 1 0 0.42231823435723009 1 0 0.39382242252278338 0.95440420122950598 0 0.31771010312359771 0.58585679504088894 0 0.3872154068451229 0.6301386882447304 0 0.41980724897053312 0.55867199730355355 0 0.32540781287085369 0.49175159894608172 0 0.31771010312359771 0.58585679504088894 0 0.41980724897053312 0.55867199730355355 0 0.32540781287085369 0.49175159894608172 0 0.22453074737734591 0.51613635929252633 0 0.31771010312359771 0.58585679504088894 0 0.18442368612951149 0.62734948407416979 0 0.31771010312359771 0.58585679504088894 0 0.31346558946927339 0.67110784456164874 0 0.22727208279115291 0.72949159435386135 0 0.32984265945580837 0.74432890077789404 0 0.31346558946927339 0.67110784456164874 0 0.39746869305290999 0.7595658224757349 0 0.32984265945580837 0.74432890077789404 0 0.38513711431054509 0.69312683393047636 0 0.32984265945580837 0.74432890077789404 0 0.31346558946927339 0.67110784456164874 0 0.38513711431054509 0.69312683393047636 0 0.31771010312359771 0.58585679504088894 0 0.31346558946927339 0.67110784456164874 0 0.3872154068451229 0.6301386882447304 0 0.31346558946927339 0.67110784456164874 0 0.3872154068451229 0.6301386882447304 0 0.38513711431054509 0.69312683393047636 0 0.3872154068451229 0.6301386882447304 0 0.38513711431054509 0.69312683393047636 0 0.4390556798454946 0.66199025953586599 0 0.3872154068451229 0.6301386882447304 0 0.4390556798454946 0.66199025953586599 0 0.44702869549010399 0.61002701911053991 0 0.39746869305290999 0.7595658224757349 0 0.38513711431054509 0.69312683393047636 0 0.43412357948152142 0.72128778687215156 0 0.38513711431054509 0.69312683393047636 0 0.43412357948152142 0.72128778687215156 0 0.4390556798454946 0.66199025953586599 0 0.43412357948152142 0.72128778687215156 0 0.47636314644728822 0.72058823529411908 0 0.47220206448452873 0.74892462649306213 0 0.44651949253391748 0.77225997208621999 0 0.43412357948152142 0.72128778687215156 0 0.47220206448452873 0.74892462649306213 0 0.43412357948152142 0.72128778687215156 0 0.46330219403010409 0.69594601192744354 0 0.4390556798454946 0.66199025953586599 0 0.43412357948152142 0.72128778687215156 0 0.46330219403010409 0.69594601192744354 0 0.47636314644728822 0.72058823529411908 0 0.46330219403010409 0.69594601192744354 0 0.47636314644728822 0.72058823529411908 0 0.5 0.70588235294117663 0 0.46330219403010409 0.69594601192744354 0 0.5 0.67647058823529438 0 0.5 0.70588235294117663 0 0.47636314644728822 0.72058823529411908 0 0.5 0.73529411764705888 0 0.5 0.70588235294117663 0 0.47220206448452873 0.74892462649306213 0 0.5 0.73529411764705888 0 0.5 0.76470588235294124 0 0.47636314644728822 0.72058823529411908 0 0.47220206448452873 0.74892462649306213 0 0.5 0.73529411764705888 0 0.4390556798454946 0.66199025953586599 0 0.47501372853621993 0.66300743809067952 0 0.47271076880550111 0.63357150722538136 0 0.4390556798454946 0.66199025953586599 0 0.47271076880550111 0.63357150722538136 0 0.44702869549010399 0.61002701911053991 0 0.46330219403010409 0.69594601192744354 0 0.4390556798454946 0.66199025953586599 0 0.47501372853621993 0.66300743809067952 0 0.46330219403010409 0.69594601192744354 0 0.47501372853621993 0.66300743809067952 0 0.5 0.67647058823529438 0 0.47501372853621993 0.66300743809067952 0 0.5 0.64705882352941191 0 0.5 0.67647058823529438 0 0.47501372853621993 0.66300743809067952 0 0.47271076880550111 0.63357150722538136 0 0.5 0.64705882352941191 0 0.47271076880550111 0.63357150722538136 0 0.5 0.61764705882352966 0 0.5 0.64705882352941191 0 0.47784843225772261 0.60532339797118362 0 0.5 0.5882352941176473 0 0.5 0.61764705882352966 0 0.47271076880550111 0.63357150722538136 0 0.47784843225772261 0.60532339797118362 0 0.5 0.61764705882352966 0 0.46950269699300751 0.57713611057881953 0 0.5 0.55882352941176494 0 0.5 0.5882352941176473 0 0.47784843225772261 0.60532339797118362 0 0.46950269699300751 0.57713611057881953 0 0.5 0.5882352941176473 0 0.46950269699300751 0.57713611057881953 0 0.44702869549010399 0.61002701911053991 0 0.41980724897053312 0.55867199730355355 0 0.47784843225772261 0.60532339797118362 0 0.46950269699300751 0.57713611057881953 0 0.44702869549010399 0.61002701911053991 0 0.47271076880550111 0.63357150722538136 0 0.47784843225772261 0.60532339797118362 0 0.44702869549010399 0.61002701911053991 0 0.3872154068451229 0.6301386882447304 0 0.44702869549010399 0.61002701911053991 0 0.41980724897053312 0.55867199730355355 0 0.41576443813007791 0.48093483781626972 0 0.32540781287085369 0.49175159894608172 0 0.41980724897053312 0.55867199730355355 0 0.41576443813007791 0.48093483781626972 0 0.41980724897053312 0.55867199730355355 0 0.4638583922372429 0.51470588235294135 0 0.41980724897053312 0.55867199730355355 0 0.4638583922372429 0.51470588235294135 0 0.47063366764015668 0.5477498568705923 0 0.46950269699300751 0.57713611057881953 0 0.41980724897053312 0.55867199730355355 0 0.47063366764015668 0.5477498568705923 0 0.46950269699300751 0.57713611057881953 0 0.47063366764015668 0.5477498568705923 0 0.5 0.55882352941176494 0 0.47063366764015668 0.5477498568705923 0 0.5 0.52941176470588269 0 0.5 0.55882352941176494 0 0.4638583922372429 0.51470588235294135 0 0.47063366764015668 0.5477498568705923 0 0.5 0.52941176470588269 0 0.4638583922372429 0.51470588235294135 0 0.5 0.5 0 0.5 0.52941176470588269 0 0.5 0.52941176470588269 0 0.52629893369322589 0.51330452493555312 0 0.52820848765230954 0.54540076010342464 0 0.5 0.5 0 0.5 0.52941176470588269 0 0.52629893369322589 0.51330452493555312 0 0.5 0.5 0 0.5 0.52941176470588269 0 0.5 0.52941176470588269 0 0.5 0.55882352941176494 0 0.52820848765230954 0.54540076010342464 0 0.5 0.52941176470588269 0 0.5 0.55882352941176494 0 0.5 0.55882352941176494 0 0.52820848765230954 0.54540076010342464 0 0.52246722155046366 0.57417151085839346 0 0.52820848765230954 0.54540076010342464 0 0.56199650931215228 0.51957997397013023 0 0.55931585964581554 0.57571189932143541 0 0.52629893369322589 0.51330452493555312 0 0.56199650931215228 0.51957997397013023 0 0.54128967150166729 0.47213012589832831 0 0.52629893369322589 0.51330452493555312 0 0.52820848765230954 0.54540076010342464 0 0.56199650931215228 0.51957997397013023 0 0.56199650931215228 0.51957997397013023 0 0.61174067805461174 0.54148194547208961 0 0.60345082206666756 0.47575908627627911 0 0.56199650931215228 0.51957997397013023 0 0.61174067805461174 0.54148194547208961 0 0.55931585964581554 0.57571189932143541 0 0.61174067805461174 0.54148194547208961 0 0.61264973759093866 0.60999664295093947 0 0.55931585964581554 0.57571189932143541 0 0.61264973759093866 0.60999664295093947 0 0.55931585964581554 0.57571189932143541 0 0.55828304378107996 0.63546085023637511 0 0.55931585964581554 0.57571189932143541 0 0.52754891270107895 0.60396918438229519 0 0.55828304378107996 0.63546085023637511 0 0.52754891270107895 0.60396918438229519 0 0.52222323737415433 0.63323059203007803 0 0.55828304378107996 0.63546085023637511 0 0.52820848765230954 0.54540076010342464 0 0.55931585964581554 0.57571189932143541 0 0.52246722155046366 0.57417151085839346 0 0.55931585964581554 0.57571189932143541 0 0.52246722155046366 0.57417151085839346 0 0.52754891270107895 0.60396918438229519 0 0.52246722155046366 0.57417151085839346 0 0.5 0.5882352941176473 0 0.52754891270107895 0.60396918438229519 0 0.5 0.55882352941176494 0 0.52246722155046366 0.57417151085839346 0 0.5 0.5882352941176473 0 0.5 0.55882352941176494 0 0.5 0.5882352941176473 0 0.52754891270107895 0.60396918438229519 0 0.5 0.61764705882352966 0 0.52222323737415433 0.63323059203007803 0 0.5 0.5882352941176473 0 0.5 0.61764705882352966 0 0.5 0.5882352941176473 0 0.52754891270107895 0.60396918438229519 0 0.5 0.61764705882352966 0 0.5 0.61764705882352966 0 0.52222323737415433 0.63323059203007803 0 0.5 0.64705882352941191 0 0.5 0.61764705882352966 0 0.5 0.64705882352941191 0 0.52222323737415433 0.63323059203007803 0 0.5 0.64705882352941191 0 0.52736180768426655 0.66304505109048573 0 0.5 0.64705882352941191 0 0.5 0.67647058823529438 0 0.52736180768426655 0.66304505109048573 0 0.5 0.64705882352941191 0 0.5 0.67647058823529438 0 0.5 0.67647058823529438 0 0.52736180768426655 0.66304505109048573 0 0.52189318962165776 0.69193883095305098 0 0.52736180768426655 0.66304505109048573 0 0.52189318962165776 0.69193883095305098 0 0.55852327729743823 0.69498827241231187 0 0.52736180768426655 0.66304505109048573 0 0.55828304378107996 0.63546085023637511 0 0.55852327729743823 0.69498827241231187 0 0.52222323737415433 0.63323059203007803 0 0.52736180768426655 0.66304505109048573 0 0.55828304378107996 0.63546085023637511 0 0.5 0.73529411764705888 0 0.52547133540542634 0.72058823529411897 0 0.5211984712236245 0.75134107022269114 0 0.5 0.73529411764705888 0 0.52547133540542634 0.72058823529411897 0 0.5 0.70588235294117663 0 0.5 0.73529411764705888 0 0.5 0.70588235294117663 0 0.52547133540542634 0.72058823529411897 0 0.5 0.70588235294117663 0 0.52189318962165776 0.69193883095305098 0 0.5 0.67647058823529438 0 0.5 0.70588235294117663 0 0.52189318962165776 0.69193883095305098 0 0.5 0.67647058823529438 0 0.5 0.70588235294117663 0 0.52547133540542634 0.72058823529411897 0 0.52189318962165776 0.69193883095305098 0 0.55852327729743823 0.69498827241231187 0 0.52547133540542634 0.72058823529411897 0 0.5211984712236245 0.75134107022269114 0 0.55458114032207428 0.75544804615062711 0 0.52547133540542634 0.72058823529411897 0 0.55852327729743823 0.69498827241231187 0 0.55458114032207428 0.75544804615062711 0 0.55852327729743823 0.69498827241231187 0 0.6088970477846376 0.72715446211577472 0 0.55458114032207428 0.75544804615062711 0 0.55852327729743823 0.69498827241231187 0 0.6088970477846376 0.72715446211577472 0 0.60110770968787908 0.67045598539422102 0 0.61264973759093866 0.60999664295093947 0 0.55828304378107996 0.63546085023637511 0 0.60110770968787908 0.67045598539422102 0 0.55828304378107996 0.63546085023637511 0 0.55852327729743823 0.69498827241231187 0 0.60110770968787908 0.67045598539422102 0 0.61264973759093866 0.60999664295093947 0 0.60110770968787908 0.67045598539422102 0 0.66621429167335955 0.68470300534742679 0 0.6088970477846376 0.72715446211577472 0 0.66621429167335955 0.68470300534742679 0 0.6817340940367822 0.76923101696744944 0 0.6088970477846376 0.72715446211577472 0 0.60110770968787908 0.67045598539422102 0 0.66621429167335955 0.68470300534742679 0 0.66621429167335955 0.68470300534742679 0 0.6817340940367822 0.76923101696744944 0 0.7828103453665094 0.69876044407634474 0 0.66621429167335955 0.68470300534742679 0 0.69354174170208815 0.57892485983477626 0 0.7828103453665094 0.69876044407634474 0 0.69354174170208815 0.57892485983477626 0 0.77935529174931761 0.49004815756283893 0 0.66681557370681976 0.49435464945626773 0 0.61174067805461174 0.54148194547208961 0 0.69354174170208815 0.57892485983477626 0 0.66681557370681976 0.49435464945626773 0 0.61174067805461174 0.54148194547208961 0 0.60345082206666756 0.47575908627627911 0 0.66681557370681976 0.49435464945626773 0 0.61174067805461174 0.54148194547208961 0 0.61264973759093866 0.60999664295093947 0 0.69354174170208815 0.57892485983477626 0 0.61264973759093866 0.60999664295093947 0 0.66621429167335955 0.68470300534742679 0 0.69354174170208815 0.57892485983477626 0 0.60145933092659498 0.94808652648958736 0 0.57768176564240026 1 0 0.63938141097836054 1 0 0.60145933092659498 0.94808652648958736 0 0.55381003699196441 0.97073734537240042 0 0.55652711631508067 0.93435010280744335 0 0.60145933092659498 0.94808652648958736 0 0.57768176564240026 1 0 0.55381003699196441 0.97073734537240042 0 0.57768176564240026 1 0 0.53273812861558045 1 0 0.55381003699196441 0.97073734537240042 0 0.53273812861558045 1 0 0.55381003699196441 0.97073734537240042 0 0.52191028766292435 0.97912620202886635 0 0.53273812861558045 1 0 0.52191028766292435 0.97912620202886635 0 0.5 1 0 0.52191028766292435 0.97912620202886635 0 0.5 0.97058823529411764 0 0.5 1 0 0.5 0.97058823529411764 0 0.5 1 0 0.5 0.97058823529411764 0 0.5 0.94117647058823528 0 0.5 0.97058823529411764 0 0.5 0.94117647058823528 0 0.52554900427979434 0.95492408164812537 0 0.52191028766292435 0.97912620202886635 0 0.5 0.97058823529411764 0 0.52554900427979434 0.95492408164812537 0 0.5 0.94117647058823528 0 0.52554900427979434 0.95492408164812537 0 0.52149395742518578 0.9280464911497236 0 0.55381003699196441 0.97073734537240042 0 0.52554900427979434 0.95492408164812537 0 0.55652711631508067 0.93435010280744335 0 0.55381003699196441 0.97073734537240042 0 0.52191028766292435 0.97912620202886635 0 0.52554900427979434 0.95492408164812537 0 0.52554900427979434 0.95492408164812537 0 0.55652711631508067 0.93435010280744335 0 0.52149395742518578 0.9280464911497236 0 0.55652711631508067 0.93435010280744335 0 0.52982914238326484 0.89727189043838895 0 0.57507719038536997 0.89743529736491356 0 0.55652711631508067 0.93435010280744335 0 0.52149395742518578 0.9280464911497236 0 0.52982914238326484 0.89727189043838895 0 0.52149395742518578 0.9280464911497236 0 0.5 0.91176470588235292 0 0.52982914238326484 0.89727189043838895 0 0.5 0.94117647058823528 0 0.5 0.91176470588235292 0 0.5 0.94117647058823528 0 0.52149395742518578 0.9280464911497236 0 0.5 0.91176470588235292 0 0.5 0.91176470588235292 0 0.5 0.88235294117647056 0 0.52982914238326484 0.89727189043838895 0 0.5 0.91176470588235292 0 0.5 0.88235294117647056 0 0.5 0.88235294117647056 0 0.52982914238326484 0.89727189043838895 0 0.51991574276818808 0.86764705882352966 0 0.52982914238326484 0.89727189043838895 0 0.57507719038536997 0.89743529736491356 0 0.54799184932697576 0.8599032232094268 0 0.60145933092659498 0.94808652648958736 0 0.55652711631508067 0.93435010280744335 0 0.57507719038536997 0.89743529736491356 0 0.60145933092659498 0.94808652648958736 0 0.57507719038536997 0.89743529736491356 0 0.63427031498547037 0.88927276979110648 0 0.57507719038536997 0.89743529736491356 0 0.58994607995897996 0.84812355238296233 0 0.63427031498547037 0.88927276979110648 0 0.58994607995897996 0.84812355238296233 0 0.64153141236229239 0.83072478436463804 0 0.63427031498547037 0.88927276979110648 0 0.58994607995897996 0.84812355238296233 0 0.60049020024666178 0.78900583008989877 0 0.64153141236229239 0.83072478436463804 0 0.58994607995897996 0.84812355238296233 0 0.54799184932697576 0.8599032232094268 0 0.55206941203846505 0.81091931303809783 0 0.58994607995897996 0.84812355238296233 0 0.55206941203846505 0.81091931303809783 0 0.60049020024666178 0.78900583008989877 0 0.57507719038536997 0.89743529736491356 0 0.58994607995897996 0.84812355238296233 0 0.54799184932697576 0.8599032232094268 0 0.52982914238326484 0.89727189043838895 0 0.54799184932697576 0.8599032232094268 0 0.51991574276818808 0.86764705882352966 0 0.54799184932697576 0.8599032232094268 0 0.51991574276818808 0.86764705882352966 0 0.52395085592512047 0.83729395211968571 0 0.51991574276818808 0.86764705882352966 0 0.5 0.85294117647058831 0 0.52395085592512047 0.83729395211968571 0 0.5 0.88235294117647056 0 0.5 0.85294117647058831 0 0.5 0.88235294117647056 0 0.51991574276818808 0.86764705882352966 0 0.5 0.85294117647058831 0 0.5 0.82352941176470584 0 0.52395085592512047 0.83729395211968571 0 0.52039202967084142 0.80930587873000437 0 0.5 0.85294117647058831 0 0.5 0.82352941176470584 0 0.5 0.85294117647058831 0 0.5 0.82352941176470584 0 0.52395085592512047 0.83729395211968571 0 0.52395085592512047 0.83729395211968571 0 0.55206941203846505 0.81091931303809783 0 0.52039202967084142 0.80930587873000437 0 0.54799184932697576 0.8599032232094268 0 0.52395085592512047 0.83729395211968571 0 0.55206941203846505 0.81091931303809783 0 0.55206941203846505 0.81091931303809783 0 0.52039202967084142 0.80930587873000437 0 0.52593988039062167 0.78066906966870908 0 0.55206941203846505 0.81091931303809783 0 0.52593988039062167 0.78066906966870908 0 0.55458114032207428 0.75544804615062711 0 0.52039202967084142 0.80930587873000437 0 0.5 0.79411764705882359 0 0.52593988039062167 0.78066906966870908 0 0.5 0.82352941176470584 0 0.5 0.79411764705882359 0 0.5 0.82352941176470584 0 0.52039202967084142 0.80930587873000437 0 0.5 0.79411764705882359 0 0.5 0.73529411764705888 0 0.5 0.76470588235294124 0 0.5 0.73529411764705888 0 0.5 0.76470588235294124 0 0.5211984712236245 0.75134107022269114 0 0.5 0.79411764705882359 0 0.5 0.76470588235294124 0 0.52593988039062167 0.78066906966870908 0 0.5 0.79411764705882359 0 0.5 0.76470588235294124 0 0.5 0.76470588235294124 0 0.52593988039062167 0.78066906966870908 0 0.5211984712236245 0.75134107022269114 0 0.52593988039062167 0.78066906966870908 0 0.5211984712236245 0.75134107022269114 0 0.55458114032207428 0.75544804615062711 0 0.6088970477846376 0.72715446211577472 0 0.55458114032207428 0.75544804615062711 0 0.60049020024666178 0.78900583008989877 0 0.55206941203846505 0.81091931303809783 0 0.55458114032207428 0.75544804615062711 0 0.60049020024666178 0.78900583008989877 0 0.6817340940367822 0.76923101696744944 0 0.70916369539323409 0.86041409043207073 0 0.80987878298654392 0.8110307373443908 0 0.6088970477846376 0.72715446211577472 0 0.60049020024666178 0.78900583008989877 0 0.6817340940367822 0.76923101696744944 0 0.60049020024666178 0.78900583008989877 0 0.6817340940367822 0.76923101696744944 0 0.64153141236229239 0.83072478436463804 0 0.70916369539323409 0.86041409043207073 0 0.64153141236229239 0.83072478436463804 0 0.63427031498547037 0.88927276979110648 0 0.6817340940367822 0.76923101696744944 0 0.70916369539323409 0.86041409043207073 0 0.64153141236229239 0.83072478436463804 0 0.70916369539323409 0.86041409043207073 0 0.68173274398262862 0.93660593960145366 0 0.63427031498547037 0.88927276979110648 0 0.60145933092659498 0.94808652648958736 0 0.68173274398262862 0.93660593960145366 0 0.63427031498547037 0.88927276979110648 0 0.70916369539323409 0.86041409043207073 0 0.68173274398262862 0.93660593960145366 0 0.78222494485339233 0.91531439423588867 0 0.68173274398262862 0.93660593960145366 0 0.72408407698689681 1 0 0.78222494485339233 0.91531439423588867 0 0.60145933092659498 0.94808652648958736 0 0.68173274398262862 0.93660593960145366 0 0.63938141097836054 1 0 0.68173274398262862 0.93660593960145366 0 0.72408407698689681 1 0 0.63938141097836054 1 0 1 1 0 0.89611933618281592 0.89173516444576184 0 1 0.74999999999934008 0 0.72408407698689681 1 0 0.84036581271988753 1 0 0.78222494485339233 0.91531439423588867 0 0.84036581271988753 1 0 0.78222494485339233 0.91531439423588867 0 0.89611933618281592 0.89173516444576184 0 0.6817340940367822 0.76923101696744944 0 0.80987878298654392 0.8110307373443908 0 0.7828103453665094 0.69876044407634474 0 0.80987878298654392 0.8110307373443908 0 0.7828103453665094 0.69876044407634474 0 1 0.74999999999934008 0 0.78222494485339233 0.91531439423588867 0 0.80987878298654392 0.8110307373443908 0 0.89611933618281592 0.89173516444576184 0 0.70916369539323409 0.86041409043207073 0 0.78222494485339233 0.91531439423588867 0 0.80987878298654392 0.8110307373443908 0 0.80987878298654392 0.8110307373443908 0 0.89611933618281592 0.89173516444576184 0 1 0.74999999999934008 0 0.84036581271988753 1 0 1 1 0 0.89611933618281592 0.89173516444576184 0 0.84549316180028322 0.59867304496468476 0 1 0.74999999999934008 0 1 0.49999999999869182 0 0.69354174170208815 0.57892485983477626 0 0.84549316180028322 0.59867304496468476 0 0.77935529174931761 0.49004815756283893 0 0.84549316180028322 0.59867304496468476 0 1 0.49999999999869182 0 0.77935529174931761 0.49004815756283893 0 0.69354174170208815 0.57892485983477626 0 0.84549316180028322 0.59867304496468476 0 0.7828103453665094 0.69876044407634474 0 0.84549316180028322 0.59867304496468476 0 0.7828103453665094 0.69876044407634474 0 1 0.74999999999934008 0 1 0.49999999999869182 0 0.77935529174931761 0.49004815756283893 0 0.80451351819826811 0.35479918680564199 0 0.80451351819826811 0.35479918680564199 0 1 0.24999999999941089 0 0.79923457477009219 0.1751534052300894 0 1 0.49999999999869182 0 0.80451351819826811 0.35479918680564199 0 1 0.24999999999941089 0 1 0 0 0.79923457477009219 0.1751534052300894 0 0.74999999999934008 0 0 1 0.24999999999941089 0 1 0 0 0.79923457477009219 0.1751534052300894 0 0.49999999999869182 0 0 0.62537763927714929 0.14286513648320209 0 0.74999999999934008 0 0 0.79923457477009219 0.1751534052300894 0 0.62537763927714929 0.14286513648320209 0 0.6197279975813802 0.30020319976287241 0 0.79923457477009219 0.1751534052300894 0 0.62537763927714929 0.14286513648320209 0 0.74999999999934008 0 0 0.49924741621175961 0.21507969613896921 0 0.49999999999869182 0 0 0.62537763927714929 0.14286513648320209 0 0.49924741621175961 0.21507969613896921 0 0.62537763927714929 0.14286513648320209 0 0.6197279975813802 0.30020319976287241 0 0.49924741621175961 0.21507969613896921 0 0.49435464945626773 0.33318442629318029 0 0.6197279975813802 0.30020319976287241 0 0.49435464945626773 0.33318442629318029 0 0.6197279975813802 0.30020319976287241 0 0.54876010062294855 0.39662628167175101 0 0.6197279975813802 0.30020319976287241 0 0.54876010062294855 0.39662628167175101 0 0.66576775508844777 0.41353720431697111 0 0.49954900152271581 0.45107191084564019 0 0.45418244162583959 0.41624787166862259 0 0.54876010062294855 0.39662628167175101 0 0.49954900152271581 0.45107191084564019 0 0.54876010062294855 0.39662628167175101 0 0.54128967150166729 0.47213012589832831 0 0.49954900152271581 0.45107191084564019 0 0.5 0.5 0 0.54128967150166729 0.47213012589832831 0 0.5 0.5 0 0.52629893369322589 0.51330452493555312 0 0.54128967150166729 0.47213012589832831 0 0.54876010062294855 0.39662628167175101 0 0.54128967150166729 0.47213012589832831 0 0.60345082206666756 0.47575908627627911 0 0.56199650931215228 0.51957997397013023 0 0.54128967150166729 0.47213012589832831 0 0.60345082206666756 0.47575908627627911 0 0.54876010062294855 0.39662628167175101 0 0.60345082206666756 0.47575908627627911 0 0.66576775508844777 0.41353720431697111 0 0.77935529174931761 0.49004815756283893 0 0.80451351819826811 0.35479918680564199 0 0.66576775508844777 0.41353720431697111 0 0.60345082206666756 0.47575908627627911 0 0.66576775508844777 0.41353720431697111 0 0.66681557370681976 0.49435464945626773 0 0.77935529174931761 0.49004815756283893 0 0.66576775508844777 0.41353720431697111 0 0.66681557370681976 0.49435464945626773 0 0.80451351819826811 0.35479918680564199 0 0.79923457477009219 0.1751534052300894 0 0.6197279975813802 0.30020319976287241 0 0.80451351819826811 0.35479918680564199 0 0.6197279975813802 0.30020319976287241 0 0.66576775508844777 0.41353720431697111 0 
</DataArray>
</Points>
<Cells>
<DataArray type="UInt32" Name="connectivity" format="ascii">
0 1 2 3 4 5 6 7 8 9 10 11 12 13 14 15 16 17 18 19 20 21 22 23 24 25 26 27 28 29 30 31 32 33 34 35 36 37 38 39 40 41 42 43 44 45 46 47 48 49 50 51 52 53 54 55 56 57 58 59 60 61 62 63 64 65 66 67 68 69 70 71 72 73 74 75 76 77 78 79 80 81 82 83 84 85 86 87 88 89 90 91 92 93 94 95 96 97 98 99 100 101 102 103 104 105 106 107 108 109 110 111 112 113 114 115 116 117 118 119 120 121 122 123 124 125 126 127 128 129 130 131 132 133 134 135 136 137 138 139 140 141 142 143 144 145 146 147 148 149 150 151 152 153 154 155 156 157 158 159 160 161 162 163 164 165 166 167 168 169 170 171 172 173 174 175 176 177 178 179 180 181 182 183 184 185 186 187 188 189 190 191 192 193 194 195 196 197 198 199 200 201 202 203 204 205 206 207 208 209 210 211 212 213 214 215 216 217 218 219 220 221 222 223 224 225 226 227 228 229 230 231 232 233 234 235 236 237 238 239 240 241 242 243 244 245 246 247 248 249 250 251 252 253 254 255 256 257 258 259 260 261 262 263 264 265 266 267 268 269 270 271 272 273 274 275 276 277 278 279 280 281 282 283 284 285 286 287 288 289 290 291 292 293 294 295 296 297 298 299 300 301 302 303 304 305 306 307 308 309 310 311 312 313 314 315 316 317 318 319 320 321 322 323 324 325 326 327 328 329 330 331 332 333 334 335 336 337 338 339 340 341 342 343 344 345 346 347 348 349 350 351 352 353 354 355 356 357 358 359 360 361 362 363 364 365 366 367 368 369 370 371 372 373 374 375 376 377 378 379 380 381 382 383 384 385 386 387 388 389 390 391 392 393 394 395 396 397 398 399 400 401 402 403 404 405 406 407 408 409 410 411 412 413 414 415 416 417 418 419 420 421 422 423 424 425 426 427 428 429 430 431 432 433 434 435 436 437 438 439 440 441 442 443 444 445 446 447 448 449 450 451 452 453 454 455 456 457 458 459 460 461 462 463 464 465 466 467 468 469 470 471 472 473 474 475 476 477 478 479 480 481 482 483 484 485 486 487 488 489 490 491 492 493 494 495 496 497 498 499 500 501 502 503 504 505 506 507 508 509 510 511 512 513 514 515 516 517 518 519 520 521 522 523 524 525 526 527 528 529 530 531 532 533 534 535 536 537 538 539 540 541 542 543 544 545 546 547 548 549 550 551 552 553 554 555 556 557 558 559 560 561 562 563 564 565 566 567 568 569 570 571 572 573 574 575 576 577 578 579 580 581 582 583 584 585 586 587 588 589 590 591 592 593 594 595 596 597 598 599 600 601 602 603 604 605 606 607 608 609 610 611 612 613 614 615 616 617 618 619 620 621 622 623 624 625 626 627 628 629 630 631 632 633 634 635 636 637 638 639 640 641 642 643 644 645 646 647 648 649 650 651 652 653 654 655 656 657 658 659 660 661 662 663 664 665 666 667 668 669 670 671 672 673 674 675 676 677 678 679 680 681 682 683 684 685 686 687 688 689 690 691 692 693 694 695 696 697 698 699 700 701 702 703 704 705 706 707 708 709 710 711 712 713 714 715 716 717 718 719 720 721 722 723 724 725 726 727 728 729 730 731 732 733 734 735 736 737 738 739 740 741 742 743 744 745 746 747 748 749 750 751 752 753 754 755 756 757 758 759 760 761 762 763 764 765 766 767 768 769 770 771 772 773 774 775 776 777 778 779 780 781 782 783 784 785 786 787 788 789 790 791 792 793 794 795 796 797 798 799 800 801 802 803 804 805 806 807 808 809 810 811 812 813 814 815 816 817 818 819 820 821 822 823 824 825 826 827 828 829 830 831 832 833 834 835 836 837 838 839 840 841 842 843 844 845 846 847 848 849 850 851 852 853 854 855 856 857 858 859 860 861 862 863 864 865 866 867 868 869 870 871 872 873 874 875 876 877 878 879 
</DataArray>
<DataArray type="UInt32" Name="offsets" format="ascii">
3 6 9 12 15 18 21 24 27 30 33 36 39 42 45 48 51 54 57 60 63 66 69 72 75 78 81 84 87 90 93 96 99 102 105 108 111 114 117 120 123 126 129 132 135 138 141 144 147 150 153 156 159 162 165 168 171 174 177 180 183 186 189 192 195 198 201 204 207 210 213 216 219 222 225 228 231 234 237 240 243 246 249 252 255 258 261 264 267 270 273 276 279 282 285 288 291 294 297 300 303 306 309 312 315 318 321 324 327 330 333 336 339 342 345 348 351 354 357 360 363 366 369 372 375 378 381 384 387 390 393 396 399 402 405 408 411 414 417 420 423 425 428 430 433 436 439 442 445 448 451 454 457 460 463 466 469 472 474 477 479 482 485 487 490 493 495 498 501 504 507 510 513 515 518 521 523 526 529 532 535 538 541 544 547 550 553 556 559 562 565 568 571 574 577 580 583 586 589 592 595 597 599 602 605 608 611 614 617 620 623 626 628 631 634 636 639 642 645 648 651 654 657 660 663 666 669 672 675 677 680 683 685 688 691 694 697 700 703 705 708 710 713 716 718 721 724 727 730 733 736 739 742 745 748 751 754 757 760 763 766 769 772 775 778 781 784 787 790 793 796 799 802 805 808 811 814 817 820 823 826 829 832 835 838 841 844 847 850 853 856 859 862 865 868 871 874 877 880 
</DataArray>
<DataArray type="UInt32" Name="types" format="ascii">
5 5 5 5 5 5 5 5 5 5 5 5 5 5 5 5 5 5 5 5 5 5 5 5 5 5 5 5 5 5 5 5 5 5 5 5 5 5 5 5 5 5 5 5 5 5 5 5 5 5 5 5 5 5 5 5 5 5 5 5 5 5 5 5 5 5 5 5 5 5 5 5 5 5 5 5 5 5 5 5 5 5 5 5 5 5 5 5 5 5 5 5 5 5 5 5 5 5 5 5 5 5 5 5 5 5 5 5 5 5 5 5 5 5 5 5 5 5 5 5 5 5 5 5 5 5 5 5 5 5 5 5 5 5 5 5 5 5 5 5 5 3 5 3 5 5 5 5 5 5 5 5 5 5 5 5 5 5 3 5 3 5 5 3 5 5 3 5 5 5 5 5 5 3 5 5 3 5 5 5 5 5 5 5 5 5 5 5 5 5 5 5 5 5 5 5 5 5 5 5 5 3 3 5 5 5 5 5 5 5 5 5 3 5 5 3 5 5 5 5 5 5 5 5 5 5 5 5 5 3 5 5 3 5 5 5 5 5 5 3 5 3 5 5 3 5 5 5 5 5 5 5 5 5 5 5 5 5 5 5 5 5 5 5 5 5 5 5 5 5 5 5 5 5 5 5 5 5 5 5 5 5 5 5 5 5 5 5 5 5 5 5 5 5 5 5 5 5 5 
</DataArray>
</Cells>
<PointData Scalars="" Vectors="displacement," Tensors="">
<DataArray type="Float64" Name="displacement" NumberOfComponents="3" format="ascii">
-8.0774385828555519e-06 2.0841424379758508e-07 0 -0.0025513770890651937 -0.0088633670837142114 0 -0.0016814842536183202 -0.00072508939755564243 0 -8.0774385828555519e-06 2.0841424379758508e-07 0 -0.0025513770890651941 -0.0088633670837142131 0 -3.4282086364042101e-06 -1.4624204069076718e-05 0 -3.4282086364042101e-06 -1.4624204069076718e-05 0 -0.0022651791227856588 -0.016319411413691032 0 -2.6466335977003569e-06 -3.2004769512680323e-05 0 -0.0025513770890651937 -0.0088633670837142114 0 -3.4282086364042101e-06 -1.4624204069076718e-05 0 -0.0022651791227856588 -0.016319411413691032 0 -0.0022651791227856588 -0.016319411413691032 0 0.0019454278369346752 -0.027882985839979495 0 -2.6466335977003569e-06 -3.2004769512680323e-05 0 -0.0022651791227856588 -0.016319411413691032 0 0.0019454278369346752 -0.027882985839979495 0 0.0063010443113732479 -0.034283996091653238 0 0.014922868550334728 -0.039645032420693942 0 0.026071238892543428 -0.053264154297977491 0 0.017574237947499544 -0.053234666444995055 0 0.014922868550334728 -0.039645032420693942 0 0.017574237947499544 -0.053234666444995055 0 0.0063010443113732479 -0.034283996091653238 0 0.026071238892543428 -0.053264154297977491 0 0.028034475339147939 -0.06445777003697617 0 0.017574237947499544 -0.053234666444995055 0 0.026071238892543428 -0.053264154297977491 0 0.028034475339147939 -0.064457770036976142 0 0.035121025488255596 -0.069409802942327278 0 0.028034475339147939 -0.064457770036976156 0 0.025723071378060132 -0.067601053022096166 0 0.037865401366167423 -0.083012404490991482 0 0.028034475339147939 -0.064457770036976156 0 0.035121025488255596 -0.069409802942327264 0 0.037865401366167423 -0.083012404490991482 0 0.028034475339147939 -0.064457770036976156 0 0.025723071378060132 -0.067601053022096166 0 0.017574237947499544 -0.053234666444995055 0 0.017574237947499544 -0.053234666444995055 0 0.010768989995249603 -0.045432434755857884 0 0.020535243636950338 -0.06230898443323088 0 0.017574237947499544 -0.053234666444995055 0 0.010768989995249603 -0.045432434755857884 0 0.0063010443113732479 -0.034283996091653238 0 0.0019454278369346752 -0.027882985839979495 0 0.010768989995249603 -0.045432434755857884 0 0.0063010443113732479 -0.034283996091653238 0 -0.0022651791227856588 -0.016319411413691032 0 0.0063010443113732479 -0.034283996091653238 0 0.006292771853185046 -0.024064996224269615 0 0.014922868550334728 -0.039645032420693942 0 0.0063010443113732488 -0.034283996091653238 0 0.006292771853185046 -0.024064996224269615 0 -0.0025513770890651937 -0.0088633670837142114 0 -0.0022651791227856588 -0.016319411413691032 0 0.006292771853185046 -0.024064996224269615 0 0.006292771853185046 -0.024064996224269615 0 0.023692019190120407 -0.037510037193784318 0 0.0094092985028748737 -0.014578246757779039 0 0.014922868550334728 -0.039645032420693942 0 0.006292771853185046 -0.024064996224269615 0 0.023692019190120407 -0.037510037193784318 0 0.014922868550334728 -0.039645032420693942 0 0.026071238892543428 -0.053264154297977491 0 0.023692019190120407 -0.037510037193784318 0 0.0094092985028748737 -0.014578246757779039 0 -0.0016814842536183202 -0.00072508939755564243 0 0.020401739403097668 0.0029679667982185002 0 0.0094092985028748737 -0.014578246757779039 0 0.020401739403097668 0.0029679667982185002 0 0.025171875365570359 -0.024824166573839457 0 0.023692019190120407 -0.037510037193784318 0 0.0094092985028748737 -0.014578246757779039 0 0.025171875365570359 -0.024824166573839457 0 -0.0025513770890651937 -0.0088633670837142114 0 0.006292771853185046 -0.024064996224269615 0 0.0094092985028748737 -0.014578246757779039 0 -0.0025513770890651937 -0.0088633670837142114 0 0.0094092985028748737 -0.014578246757779039 0 -0.0016814842536183202 -0.00072508939755564243 0 0.020401739403097668 0.0029679667982185002 0 0.039433593488604611 -0.023032372641468749 0 0.057249975266712771 0.0036096915672749084 0 0.039433593488604611 -0.023032372641468749 0 0.055364816658663892 -0.03231962587455179 0 0.057249975266712771 0.0036096915672749084 0 0.039433593488604611 -0.023032372641468749 0 0.055364816658663892 -0.03231962587455179 0 0.048085196827221767 -0.046050102945136562 0 0.039433593488604611 -0.023032372641468749 0 0.025171875365570359 -0.024824166573839457 0 0.036940816225884514 -0.042681946378349801 0 0.020401739403097668 0.0029679667982185002 0 0.039433593488604604 -0.023032372641468752 0 0.025171875365570359 -0.024824166573839457 0 0.098746590166481935 0.0041031006376755974 0 0.081640447840972241 -0.01203085664902556 0 0.057249975266712771 0.0036096915672749084 0 0.098746590166481935 0.0041031006376755974 0 0.081640447840972255 -0.01203085664902556 0 0.099146382166418856 -0.022904852194978797 0 0.081640447840972241 -0.01203085664902556 0 0.057249975266712771 0.0036096915672749084 0 0.06887994350783716 -0.023128441994661773 0 0.06887994350783716 -0.023128441994661773 0 0.086780450918631569 -0.036833376409561795 0 0.066624769106073164 -0.041905319845376272 0 0.055364816658663892 -0.03231962587455179 0 0.057249975266712765 0.0036096915672749119 0 0.06887994350783716 -0.023128441994661773 0 0.055364816658663892 -0.03231962587455179 0 0.06887994350783716 -0.023128441994661773 0 0.066624769106073164 -0.041905319845376272 0 0.081640447840972241 -0.01203085664902556 0 0.06887994350783716 -0.023128441994661776 0 0.086780450918631569 -0.036833376409561795 0 0.081640447840972241 -0.01203085664902556 0 0.086780450918631569 -0.036833376409561795 0 0.099146382166418856 -0.022904852194978797 0 0.086780450918631569 -0.036833376409561795 0 0.099146382166418856 -0.022904852194978797 0 0.099529647797509294 -0.043871198052243293 0 0.099084457893170372 -0.060815738570939963 0 0.088519470572973949 -0.054200283086678243 0 0.099529647797509294 -0.043871198052243293 0 0.099084457893170372 -0.060815738570939963 0 0.088519470572973949 -0.054200283086678243 0 0.08950943969951583 -0.068311632007087578 0 0.086780450918631569 -0.036833376409561795 0 0.088519470572973949 -0.054200283086678243 0 0.099529647797509294 -0.043871198052243293 0 0.086780450918631569 -0.036833376409561795 0 0.088519470572973949 -0.054200283086678243 0 0.078682593760756925 -0.052071657098762658 0 0.088519470572973949 -0.054200283086678243 0 0.08076562117617378 -0.064594929359241035 0 0.08950943969951583 -0.068311632007087578 0 0.088519470572973949 -0.054200283086678243 0 0.078682593760756911 -0.052071657098762658 0 0.08076562117617378 -0.064594929359241035 0 0.086780450918631569 -0.036833376409561795 0 0.078682593760756925 -0.052071657098762658 0 0.066624769106073164 -0.041905319845376272 0 0.078682593760756925 -0.052071657098762658 0 0.06966270971694867 -0.060902130423396941 0 0.08076562117617378 -0.064594929359241035 0 0.078682593760756925 -0.052071657098762658 0 0.06966270971694867 -0.060902130423396941 0 0.066624769106073164 -0.041905319845376272 0 0.055364816658663892 -0.03231962587455179 0 0.066624769106073164 -0.041905319845376272 0 0.058496185924635472 -0.051814494391116836 0 0.06966270971694867 -0.060902130423396941 0 0.066624769106073164 -0.041905319845376272 0 0.058496185924635472 -0.051814494391116836 0 0.06966270971694867 -0.060902130423396941 0 0.061052787763643174 -0.066370173504184393 0 0.058496185924635472 -0.051814494391116836 0 0.06966270971694867 -0.060902130423396941 0 0.061052787763643174 -0.066370173504184393 0 0.067956593667971202 -0.074441050550654073 0 0.061052787763643174 -0.066370173504184393 0 0.067956593667971202 -0.074441050550654073 0 0.062926238415174363 -0.077362599377478386 0 0.061052787763643174 -0.066370173504184393 0 0.062926238415174363 -0.077362599377478386 0 0.0565270115357214 -0.073264317781098418 0 0.062926238415174363 -0.077362599377478386 0 0.063633172246235159 -0.084337389149332392 0 0.060147824124503868 -0.082379856450247035 0 0.063633172246235159 -0.084337389149332392 0 0.060147824124503868 -0.082379856450247035 0 0.062115356868576235 -0.08884803630345281 0 0.063633172246235159 -0.084337389149332392 0 0.065737661809936287 -0.089571739359959324 0 0.062115356868576235 -0.08884803630345281 0 0.067351557137147799 -0.08346536635289642 0 0.069457102412853119 -0.090266110966211913 0 0.065737661809936287 -0.089571739359959324 0 0.063633172246235159 -0.084337389149332392 0 0.067351557137147799 -0.08346536635289642 0 0.065737661809936287 -0.089571739359959324 0 0.062926238415174363 -0.077362599377478386 0 0.063633172246235159 -0.084337389149332379 0 0.067351557137147799 -0.08346536635289642 0 0.067956593667971202 -0.074441050550654073 0 0.062926238415174363 -0.077362599377478386 0 0.067351557137147799 -0.08346536635289642 0 0.067956593667971202 -0.074441050550654073 0 0.067351557137147786 -0.083465366352896406 0 0.071562113380430933 -0.082271114506545492 0 0.067956593667971202 -0.074441050550654073 0 0.07156211338043092 -0.082271114506545479 0 0.075533255504378005 -0.075570806769420823 0 0.071562113380430933 -0.082271114506545492 0 0.073247584655661821 -0.090919462766841055 0 0.069457102412853119 -0.090266110966211913 0 0.067351557137147799 -0.08346536635289642 0 0.071562113380430933 -0.082271114506545492 0 0.069457102412853119 -0.090266110966211913 0 0.071562113380430933 -0.082271114506545492 0 0.075312929306434809 -0.084731146280252759 0 0.073247584655661821 -0.090919462766841055 0 0.075312929306434809 -0.084731146280252759 0 0.077077823921734748 -0.091521397819754324 0 0.073247584655661821 -0.090919462766841055 0 0.071562113380430933 -0.082271114506545492 0 0.075312929306434809 -0.084731146280252759 0 0.075533255504378005 -0.075570806769420823 0 0.06966270971694867 -0.060902130423396941 0 0.075533255504378005 -0.075570806769420823 0 0.08076562117617378 -0.064594929359241035 0 0.06966270971694867 -0.060902130423396941 0 0.067956593667971202 -0.074441050550654073 0 0.075533255504378005 -0.075570806769420823 0 0.08076562117617378 -0.064594929359241035 0 0.083282707498913547 -0.076145553793371998 0 0.08950943969951583 -0.068311632007087578 0 0.075533255504378005 -0.075570806769420823 0 0.08076562117617378 -0.064594929359241035 0 0.083282707498913547 -0.076145553793371998 0 0.075312929306434809 -0.084731146280252759 0 0.075533255504378005 -0.075570806769420823 0 0.079166023906248162 -0.083246169874525003 0 0.075533255504378005 -0.075570806769420823 0 0.083282707498913547 -0.076145553793371998 0 0.079166023906248162 -0.083246169874525003 0 0.075312929306434809 -0.084731146280252759 0 0.079166023906248162 -0.083246169874525003 0 0.077077823921734748 -0.091521397819754324 0 0.079166023906248162 -0.083246169874525003 0 0.080884857294570053 -0.092071072009887525 0 0.077077823921734748 -0.091521397819754324 0 0.079166023906248162 -0.083246169874525003 0 0.083455877299370762 -0.085693265115949088 0 0.080884857294570053 -0.092071072009887525 0 0.083455877299370762 -0.085693265115949088 0 0.084538058398836213 -0.092570675822778198 0 0.080884857294570053 -0.092071072009887525 0 0.083282707498913547 -0.076145553793371998 0 0.079166023906248162 -0.083246169874525003 0 0.083455877299370762 -0.085693265115949088 0 0.083455877299370762 -0.085693265115949088 0 0.089425850279577002 -0.080818671092925135 0 0.087096110697291701 -0.087538447451475876 0 0.083282707498913547 -0.076145553793371998 0 0.083455877299370762 -0.085693265115949088 0 0.089425850279577015 -0.080818671092925148 0 0.089425850279577015 -0.080818671092925148 0 0.087096110697291701 -0.087538447451475876 0 0.089903357870546027 -0.088241146024687911 0 0.083455877299370762 -0.085693265115949088 0 0.087096110697291701 -0.087538447451475876 0 0.084538058398836213 -0.092570675822778198 0 0.087096110697291701 -0.087538447451475876 0 0.089903357870546027 -0.088241146024687911 0 0.087749359318232925 -0.09301826663306309 0 0.087096110697291701 -0.087538447451475876 0 0.087749359318232925 -0.09301826663306309 0 0.084538058398836213 -0.092570675822778198 0 0.089903357870546027 -0.088241146024687911 0 0.094887139804659237 -0.08485971357185132 0 0.090388148175546024 -0.09328867898162585 0 0.089903357870546027 -0.088241146024687911 0 0.087749359318232925 -0.09301826663306309 0 0.090388148175546024 -0.09328867898162585 0 0.089425850279577015 -0.080818671092925148 0 0.089903357870546027 -0.088241146024687911 0 0.094887139804659237 -0.08485971357185132 0 0.089425850279577015 -0.080818671092925148 0 0.094887139804659237 -0.08485971357185132 0 0.097548109678756212 -0.074387576215596163 0 0.089425850279577015 -0.080818671092925148 0 0.097548109678756212 -0.074387576215596149 0 0.08950943969951583 -0.068311632007087578 0 0.083282707498913547 -0.076145553793371998 0 0.089425850279577015 -0.080818671092925148 0 0.08950943969951583 -0.068311632007087578 0 0.099084457893170372 -0.060815738570939963 0 0.097548109678756212 -0.074387576215596163 0 0.08950943969951583 -0.068311632007087578 0 0.036940816225884514 -0.042681946378349801 0 0.044738816156631576 -0.05929612717180438 0 0.037625388916628852 -0.061704506619847659 0 0.023692019190120407 -0.037510037193784318 0 0.036940816225884514 -0.042681946378349801 0 0.037625388916628852 -0.061704506619847659 0 0.023692019190120407 -0.037510037193784318 0 0.025171875365570362 -0.024824166573839457 0 0.036940816225884514 -0.042681946378349801 0 0.039433593488604611 -0.023032372641468749 0 0.036940816225884514 -0.042681946378349801 0 0.048085196827221767 -0.046050102945136562 0 0.055364816658663892 -0.03231962587455179 0 0.058496185924635472 -0.051814494391116836 0 0.048085196827221767 -0.046050102945136562 0 0.061052787763643174 -0.066370173504184393 0 0.058496185924635472 -0.051814494391116836 0 0.052413375120521653 -0.061633308827288111 0 0.058496185924635472 -0.051814494391116836 0 0.048085196827221767 -0.046050102945136562 0 0.052413375120521653 -0.061633308827288111 0 0.036940816225884514 -0.042681946378349801 0 0.048085196827221767 -0.046050102945136562 0 0.044738816156631576 -0.05929612717180438 0 0.048085196827221767 -0.046050102945136562 0 0.044738816156631576 -0.05929612717180438 0 0.052413375120521653 -0.061633308827288111 0 0.044738816156631576 -0.05929612717180438 0 0.052413375120521653 -0.061633308827288111 0 0.049725152284215597 -0.072297897619091653 0 0.044738816156631576 -0.05929612717180438 0 0.049725152284215597 -0.072297897619091653 0 0.044544951395804791 -0.071735323285614494 0 0.061052787763643174 -0.066370173504184393 0 0.052413375120521653 -0.061633308827288111 0 0.0565270115357214 -0.073264317781098418 0 0.052413375120521653 -0.061633308827288111 0 0.0565270115357214 -0.073264317781098418 0 0.049725152284215597 -0.072297897619091653 0 0.0565270115357214 -0.073264317781098418 0 0.056805381009296177 -0.082500781557296871 0 0.060147824124503868 -0.082379856450247035 0 0.062926238415174363 -0.077362599377478386 0 0.0565270115357214 -0.073264317781098418 0 0.060147824124503868 -0.082379856450247035 0 0.0565270115357214 -0.073264317781098418 0 0.053930186983447995 -0.078903814776750514 0 0.049725152284215597 -0.072297897619091653 0 0.0565270115357214 -0.073264317781098418 0 0.053930186983447995 -0.078903814776750514 0 0.056805381009296177 -0.082500781557296857 0 0.053930186983447995 -0.078903814776750514 0 0.056805381009296177 -0.082500781557296857 0 0.0552513575779413 -0.08735349546983151 0 0.053930186983447995 -0.078903814776750514 0 0.052041657186317487 -0.086600586232748647 0 0.0552513575779413 -0.08735349546983151 0 0.056805381009296177 -0.082500781557296857 0 0.058613986522465855 -0.088105101055999016 0 0.0552513575779413 -0.08735349546983151 0 0.060147824124503868 -0.082379856450247035 0 0.058613986522465855 -0.088105101055999016 0 0.062115356868576235 -0.08884803630345281 0 0.056805381009296177 -0.082500781557296857 0 0.060147824124503868 -0.082379856450247022 0 0.058613986522465855 -0.088105101055999016 0 0.049725152284215597 -0.072297897619091653 0 0.050389086598420854 -0.080507448534272857 0 0.047452812934385392 -0.078966337036189826 0 0.049725152284215597 -0.072297897619091653 0 0.047452812934385386 -0.078966337036189826 0 0.044544951395804791 -0.071735323285614494 0 0.053930186983447995 -0.078903814776750514 0 0.049725152284215597 -0.072297897619091639 0 0.050389086598420854 -0.080507448534272857 0 0.053930186983447995 -0.078903814776750514 0 0.050389086598420854 -0.080507448534272857 0 0.052041657186317487 -0.086600586232748647 0 0.050389086598420854 -0.080507448534272857 0 0.048997157684602256 -0.085862615682179136 0 0.052041657186317487 -0.086600586232748647 0 0.050389086598420854 -0.080507448534272857 0 0.047452812934385392 -0.078966337036189826 0 0.048997157684602256 -0.085862615682179136 0 0.047452812934385392 -0.078966337036189826 0 0.046138350361996698 -0.085150256181402151 0 0.048997157684602256 -0.085862615682179136 0 0.044741801567704291 -0.079212727363616661 0 0.043491793232769686 -0.084495757982730596 0 0.046138350361996698 -0.085150256181402151 0 0.047452812934385392 -0.078966337036189826 0 0.044741801567704291 -0.079212727363616661 0 0.046138350361996698 -0.085150256181402151 0 0.041826116091315868 -0.075846111489874316 0 0.04113323278884802 -0.08387540709934313 0 0.043491793232769686 -0.084495757982730596 0 0.044741801567704291 -0.079212727363616661 0 0.041826116091315868 -0.075846111489874316 0 0.043491793232769686 -0.084495757982730596 0 0.041826116091315868 -0.075846111489874316 0 0.044544951395804791 -0.071735323285614494 0 0.037625388916628852 -0.061704506619847659 0 0.044741801567704291 -0.079212727363616661 0 0.041826116091315868 -0.075846111489874316 0 0.044544951395804791 -0.071735323285614494 0 0.047452812934385392 -0.078966337036189826 0 0.044741801567704291 -0.079212727363616661 0 0.044544951395804791 -0.071735323285614494 0 0.044738816156631576 -0.05929612717180438 0 0.044544951395804798 -0.071735323285614494 0 0.037625388916628852 -0.061704506619847659 0 0.026071238892543428 -0.053264154297977491 0 0.023692019190120407 -0.037510037193784318 0 0.037625388916628852 -0.061704506619847659 0 0.026071238892543428 -0.053264154297977491 0 0.037625388916628852 -0.061704506619847659 0 0.035121025488255596 -0.069409802942327278 0 0.037625388916628852 -0.061704506619847659 0 0.035121025488255596 -0.069409802942327278 0 0.03931117085058302 -0.07436342866617264 0 0.041826116091315868 -0.075846111489874316 0 0.037625388916628852 -0.061704506619847659 0 0.03931117085058302 -0.07436342866617264 0 0.041826116091315868 -0.075846111489874316 0 0.03931117085058302 -0.07436342866617264 0 0.04113323278884802 -0.08387540709934313 0 0.03931117085058302 -0.07436342866617264 0 0.039083080432570881 -0.083426167481620198 0 0.04113323278884802 -0.08387540709934313 0 0.035121025488255596 -0.069409802942327278 0 0.03931117085058302 -0.07436342866617264 0 0.039083080432570881 -0.083426167481620198 0 0.035121025488255596 -0.069409802942327278 0 0.037865401366167416 -0.083012404490991468 0 0.039083080432570881 -0.083426167481620198 0 0.0391696019233903 -0.084084612389863908 0 0.037047865764584527 -0.081342240397298621 0 0.039210758426865583 -0.084377759689917578 0 0.037865401366167423 -0.083012404490991482 0 0.0391696019233903 -0.084084612389863908 0 0.037047865764584527 -0.081342240397298621 0 0.037887757504337621 -0.083251524114230827 0 0.039111081210028036 -0.083711799864538056 0 0.0391696019233903 -0.084084612389863908 0 0.041185469880795196 -0.084642217867227074 0 0.039210758426865583 -0.084377759689917578 0 0.039111081210028036 -0.083711799864538056 0 0.041163501656242225 -0.084288103464445971 0 0.041185469880795196 -0.084642217867227074 0 0.039210758426865583 -0.084377759689917578 0 0.041763024664689292 -0.086199513500178376 0 0.039210758426865583 -0.084377759689917578 0 0.037198121716129295 -0.083294595568162377 0 0.041494123289390818 -0.08949081006497682 0 0.037047865764584527 -0.081342240397298621 0 0.037198121716129295 -0.083294595568162377 0 0.032196296565594112 -0.075489170726933064 0 0.037047865764584527 -0.081342240397298621 0 0.039210758426865583 -0.084377759689917578 0 0.037198121716129295 -0.083294595568162377 0 0.037198121716129295 -0.083294595568162377 0 0.039483188603665155 -0.091095751309706111 0 0.033323900234871341 -0.080617417866215818 0 0.037198121716129295 -0.083294595568162377 0 0.039483188603665155 -0.091095751309706097 0 0.041494123289390818 -0.08949081006497682 0 0.039483188603665155 -0.091095751309706111 0 0.045630727971837759 -0.10114532053619454 0 0.041494123289390818 -0.08949081006497682 0 0.045630727971837759 -0.10114532053619454 0 0.041494123289390818 -0.08949081006497682 0 0.047312295102492297 -0.09530682699576952 0 0.041494123289390818 -0.08949081006497682 0 0.044156902270716246 -0.088547540189609295 0 0.047312295102492297 -0.09530682699576952 0 0.044156902270716246 -0.088547540189609295 0 0.047287031757625275 -0.089605455013787597 0 0.047312295102492297 -0.09530682699576952 0 0.039210758426865583 -0.084377759689917578 0 0.041494123289390818 -0.08949081006497682 0 0.041763024664689292 -0.086199513500178376 0 0.041494123289390818 -0.08949081006497682 0 0.041763024664689292 -0.086199513500178376 0 0.044156902270716246 -0.088547540189609295 0 0.041763024664689292 -0.086199513500178376 0 0.043569560883141678 -0.085365718774576896 0 0.044156902270716246 -0.088547540189609295 0 0.041185469880795196 -0.084642217867227074 0 0.041763024664689292 -0.086199513500178376 0 0.043569560883141678 -0.085365718774576896 0 0.041163501656242225 -0.084288103464445971 0 0.043529636129976602 -0.084933527366036363 0 0.044156902270716246 -0.088547540189609295 0 0.04621425727019058 -0.086108031873909432 0 0.047287031757625275 -0.089605455013787597 0 0.043529636129976602 -0.084933527366036363 0 0.046176272731458592 -0.085636817986625355 0 0.043569560883141678 -0.085365718774576896 0 0.044156902270716246 -0.088547540189609295 0 0.046214257270190587 -0.086108031873909446 0 0.046214257270190587 -0.086108031873909446 0 0.047287031757625275 -0.089605455013787597 0 0.049079528666031914 -0.086886237256995666 0 0.046176272731458592 -0.085636817986625355 0 0.049038277715425328 -0.086377794245500503 0 0.047287031757625275 -0.089605455013787597 0 0.049079528666031914 -0.086886237256995666 0 0.050134336494708276 -0.092121948830779121 0 0.049079528666031914 -0.086886237256995666 0 0.05212577393384802 -0.087685520347179746 0 0.050134336494708276 -0.092121948830779121 0 0.049038277715425328 -0.086377794245500503 0 0.052083576023986632 -0.087144877592784192 0 0.05212577393384802 -0.087685520347179746 0 0.050134336494708276 -0.092121948830779121 0 0.053529414075887419 -0.092679267382620015 0 0.050134336494708276 -0.092121948830779121 0 0.053529414075887419 -0.092679267382620015 0 0.053911298349541142 -0.10081700896894623 0 0.050134336494708276 -0.092121948830779121 0 0.047312295102492297 -0.09530682699576952 0 0.053911298349541142 -0.10081700896894623 0 0.047287031757625275 -0.089605455013787597 0 0.050134336494708276 -0.092121948830779121 0 0.047312295102492297 -0.09530682699576952 0 0.058697684203977682 -0.089297086153107275 0 0.056536376563641189 -0.095091158986370994 0 0.060379860733053528 -0.095639344768839576 0 0.058697684203977682 -0.089297086153107275 0 0.056536376563641189 -0.095091158986370994 0 0.055336228603776808 -0.088493417565760443 0 0.0586557257730939 -0.088699302889058917 0 0.055293695074412112 -0.08792301867634815 0 0.056536376563641189 -0.095091158986370994 0 0.055336228603776808 -0.088493417565760429 0 0.053529414075887419 -0.092679267382620015 0 0.05212577393384802 -0.087685520347179746 0 0.055336228603776808 -0.088493417565760443 0 0.053529414075887419 -0.092679267382620015 0 0.052083576023986632 -0.087144877592784192 0 0.055293695074412112 -0.08792301867634815 0 0.056536376563641189 -0.095091158986370994 0 0.053529414075887419 -0.092679267382620015 0 0.053911298349541142 -0.10081700896894623 0 0.056536376563641189 -0.095091158986370994 0 0.060379860733053528 -0.095639344768839576 0 0.060918204390951559 -0.10535691889156648 0 0.056536376563641189 -0.095091158986370994 0 0.053911298349541142 -0.10081700896894623 0 0.060918204390951559 -0.10535691889156648 0 0.053911298349541142 -0.10081700896894623 0 0.059114648348206324 -0.11673063716811992 0 0.060918204390951559 -0.10535691889156648 0 0.053911298349541142 -0.10081700896894623 0 0.059114648348206324 -0.11673063716811992 0 0.052349804676169197 -0.1072817867522997 0 0.045630727971837759 -0.10114532053619454 0 0.047312295102492297 -0.09530682699576952 0 0.052349804676169197 -0.1072817867522997 0 0.047312295102492297 -0.09530682699576952 0 0.053911298349541142 -0.10081700896894623 0 0.052349804676169197 -0.1072817867522997 0 0.045630727971837759 -0.10114532053619454 0 0.052349804676169197 -0.1072817867522997 0 0.057076247643836495 -0.12373487289480781 0 0.059114648348206324 -0.11673063716811992 0 0.057076247643836495 -0.12373487289480781 0 0.069647786596796032 -0.14387326799692138 0 0.059114648348206324 -0.11673063716811992 0 0.052349804676169197 -0.1072817867522997 0 0.057076247643836495 -0.12373487289480781 0 0.057076247643836495 -0.12373487289480781 0 0.069647786596796032 -0.14387326799692138 0 0.067302572767417357 -0.15153089681749685 0 0.057076247643836495 -0.12373487289480781 0 0.045727937883477288 -0.10924089642115442 0 0.067302572767417357 -0.15153089681749685 0 0.045727937883477288 -0.10924089642115442 0 0.041702993406490987 -0.10390955658522377 0 0.036887443931581318 -0.090530794978557247 0 0.039483188603665155 -0.091095751309706111 0 0.045727937883477288 -0.10924089642115442 0 0.036887443931581318 -0.090530794978557247 0 0.039483188603665155 -0.091095751309706111 0 0.033323900234871341 -0.080617417866215818 0 0.036887443931581318 -0.090530794978557247 0 0.039483188603665155 -0.091095751309706111 0 0.045630727971837759 -0.10114532053619454 0 0.045727937883477288 -0.10924089642115442 0 0.045630727971837759 -0.10114532053619454 0 0.057076247643836495 -0.12373487289480781 0 0.045727937883477288 -0.10924089642115442 0 0.098881728391434248 -0.1548950046547955 0 0.11673983938208639 -0.15748306139863716 0 0.12262757542824218 -0.18590829650022328 0 0.098881728391434248 -0.1548950046547955 0 0.098820951681878863 -0.13409153275617297 0 0.088884226566113986 -0.12736105661140887 0 0.098881728391434248 -0.1548950046547955 0 0.1167398393820864 -0.15748306139863716 0 0.098820951681878877 -0.134091532756173 0 0.1167398393820864 -0.15748306139863716 0 0.10863028416717233 -0.12853219168522731 0 0.098820951681878877 -0.134091532756173 0 0.10863028416717233 -0.12853219168522731 0 0.098820951681878877 -0.134091532756173 0 0.093652859356696955 -0.1115997650851986 0 0.10863028416717233 -0.12853219168522731 0 0.093652859356696955 -0.1115997650851986 0 0.090502622927115459 -0.094408910415637468 0 0.093652859356696955 -0.1115997650851986 0 0.087776871665925571 -0.094029930351388749 0 0.090502622927115459 -0.094408910415637468 0 0.087768030793677454 -0.093516446430976743 0 0.090378088166660861 -0.093742215034587947 0 0.087768030793677454 -0.093516446430976743 0 0.084562468337664273 -0.093172039021717043 0 0.087776871665925571 -0.094029930351388749 0 0.084588308800701742 -0.093811349503213751 0 0.088845080137103211 -0.11067256434276487 0 0.093652859356696955 -0.1115997650851986 0 0.087776871665925571 -0.094029930351388749 0 0.088845080137103211 -0.11067256434276487 0 0.084588308800701742 -0.093811349503213751 0 0.088845080137103211 -0.11067256434276487 0 0.084355704834234366 -0.10577843174178536 0 0.098820951681878877 -0.134091532756173 0 0.088845080137103211 -0.11067256434276487 0 0.088884226566113986 -0.12736105661140887 0 0.098820951681878877 -0.134091532756173 0 0.093652859356696955 -0.1115997650851986 0 0.088845080137103211 -0.11067256434276487 0 0.088845080137103211 -0.11067256434276487 0 0.088884226566113986 -0.12736105661140887 0 0.084355704834234366 -0.10577843174178536 0 0.088884226566113986 -0.12736105661140887 0 0.079623629899816362 -0.10787851312233179 0 0.083004409322863862 -0.13054717320640963 0 0.088884226566113986 -0.12736105661140887 0 0.084355704834234366 -0.10577843174178536 0 0.079623629899816362 -0.10787851312233179 0 0.084355704834234366 -0.10577843174178536 0 0.0809409177695916 -0.093396624574662371 0 0.079623629899816362 -0.10787851312233179 0 0.084562468337664273 -0.093172039021717043 0 0.080912874634586851 -0.09272007649577961 0 0.084588308800701742 -0.093811349503213751 0 0.084355704834234366 -0.10577843174178536 0 0.0809409177695916 -0.093396624574662371 0 0.0809409177695916 -0.093396624574662371 0 0.077140473351452091 -0.092861017441231361 0 0.079623629899816362 -0.10787851312233179 0 0.080912874634586851 -0.09272007649577961 0 0.077108892573172452 -0.092181579449601217 0 0.077140473351452091 -0.092861017441231361 0 0.079623629899816362 -0.10787851312233179 0 0.07532900769228934 -0.10136025730895847 0 0.079623629899816362 -0.10787851312233179 0 0.083004409322863862 -0.13054717320640963 0 0.074952671279879438 -0.11294241496945752 0 0.098881728391434248 -0.1548950046547955 0 0.088884226566113986 -0.12736105661140887 0 0.083004409322863862 -0.13054717320640963 0 0.098881728391434248 -0.1548950046547955 0 0.083004409322863862 -0.13054717320640963 0 0.087739714635991964 -0.15423815619370257 0 0.083004409322863862 -0.13054717320640963 0 0.075693177039153917 -0.12843408777545201 0 0.087739714635991964 -0.15423815619370257 0 0.075693177039153917 -0.12843408777545201 0 0.077091516359844001 -0.14402819068307321 0 0.087739714635991964 -0.15423815619370257 0 0.075693177039153917 -0.12843408777545201 0 0.067260024596653367 -0.12344013545669323 0 0.077091516359844001 -0.14402819068307321 0 0.075693177039153917 -0.12843408777545201 0 0.074952671279879438 -0.11294241496945752 0 0.068247188858692284 -0.1097025735357767 0 0.075693177039153917 -0.12843408777545201 0 0.068247188858692284 -0.1097025735357767 0 0.067260024596653367 -0.12344013545669323 0 0.083004409322863862 -0.13054717320640963 0 0.075693177039153917 -0.12843408777545201 0 0.074952671279879438 -0.11294241496945752 0 0.079623629899816362 -0.10787851312233179 0 0.074952671279879424 -0.11294241496945752 0 0.07532900769228934 -0.10136025730895847 0 0.074952671279879438 -0.11294241496945752 0 0.07532900769228934 -0.10136025730895847 0 0.071158553392854082 -0.10125983736231289 0 0.07532900769228934 -0.10136025730895847 0 0.073316199634492513 -0.092254610375766918 0 0.071158553392854082 -0.10125983736231289 0 0.077108892573172452 -0.092181579449601217 0 0.073281901097323257 -0.091577360682460099 0 0.077140473351452091 -0.092861017441231361 0 0.07532900769228934 -0.10136025730895847 0 0.073316199634492513 -0.092254610375766918 0 0.069532123282359137 -0.091575632045353267 0 0.071158553392854082 -0.10125983736231289 0 0.06766458521060803 -0.098358356072805311 0 0.073281901097323257 -0.091577360682460099 0 0.069494264911681286 -0.090914155965684848 0 0.073316199634492513 -0.092254610375766918 0 0.069532123282359137 -0.091575632045353267 0 0.071158553392854082 -0.10125983736231289 0 0.071158553392854082 -0.10125983736231289 0 0.068247188858692284 -0.1097025735357767 0 0.06766458521060803 -0.098358356072805311 0 0.074952671279879438 -0.11294241496945752 0 0.071158553392854082 -0.10125983736231289 0 0.068247188858692284 -0.1097025735357767 0 0.068247188858692284 -0.1097025735357767 0 0.06766458521060803 -0.098358356072805311 0 0.063788995405791318 -0.098615083321347566 0 0.068247188858692284 -0.1097025735357767 0 0.063788995405791318 -0.098615083321347566 0 0.060918204390951559 -0.10535691889156648 0 0.06766458521060803 -0.098358356072805311 0 0.065816586060342394 -0.090850208991874293 0 0.063788995405791318 -0.098615083321347566 0 0.069494264911681286 -0.090914155965684848 0 0.06577700538555814 -0.090205700789046606 0 0.069532123282359137 -0.091575632045353267 0 0.06766458521060803 -0.098358356072805311 0 0.065816586060342394 -0.090850208991874293 0 0.0586557257730939 -0.088699302889058917 0 0.062156318852457149 -0.089463676418603588 0 0.058697684203977682 -0.089297086153107275 0 0.062197577938318815 -0.090086190965463345 0 0.060379860733053528 -0.095639344768839576 0 0.065816586060342394 -0.090850208991874293 0 0.062197577938318815 -0.090086190965463345 0 0.063788995405791318 -0.098615083321347566 0 0.06577700538555814 -0.090205700789046606 0 0.062156318852457149 -0.089463676418603588 0 0.062197577938318815 -0.090086190965463345 0 0.063788995405791318 -0.098615083321347566 0 0.060379860733053528 -0.095639344768839576 0 0.063788995405791318 -0.098615083321347566 0 0.060379860733053528 -0.095639344768839576 0 0.060918204390951559 -0.10535691889156648 0 0.059114648348206324 -0.11673063716811992 0 0.060918204390951559 -0.1053569188915665 0 0.067260024596653367 -0.12344013545669323 0 0.068247188858692284 -0.1097025735357767 0 0.060918204390951559 -0.10535691889156648 0 0.067260024596653367 -0.12344013545669323 0 0.069647786596796032 -0.14387326799692138 0 0.089358529476572954 -0.17272033216460247 0 0.089454483748093699 -0.18586702863641852 0 0.059114648348206324 -0.11673063716811992 0 0.067260024596653367 -0.12344013545669323 0 0.069647786596796032 -0.14387326799692138 0 0.067260024596653367 -0.12344013545669323 0 0.069647786596796032 -0.14387326799692138 0 0.077091516359844001 -0.14402819068307321 0 0.089358529476572954 -0.17272033216460247 0 0.077091516359844001 -0.14402819068307321 0 0.087739714635991964 -0.15423815619370257 0 0.069647786596796032 -0.14387326799692138 0 0.089358529476572954 -0.17272033216460247 0 0.077091516359844001 -0.14402819068307321 0 0.089358529476572954 -0.17272033216460247 0 0.10540569809110904 -0.18428821576515206 0 0.087739714635991964 -0.15423815619370257 0 0.098881728391434248 -0.1548950046547955 0 0.10540569809110903 -0.18428821576515206 0 0.087739714635991964 -0.15423815619370257 0 0.089358529476572954 -0.17272033216460247 0 0.10540569809110903 -0.18428821576515206 0 0.1099129795945141 -0.20744822867413992 0 0.10540569809110903 -0.18428821576515206 0 0.12783935776893912 -0.21496784348970405 0 0.1099129795945141 -0.20744822867413992 0 0.098881728391434248 -0.1548950046547955 0 0.10540569809110903 -0.18428821576515206 0 0.12262757542824218 -0.18590829650022328 0 0.10540569809110903 -0.18428821576515206 0 0.12783935776893912 -0.21496784348970405 0 0.12262757542824218 -0.18590829650022328 0 0.14876512684729296 -0.27896839941021467 0 0.11527308541670583 -0.22621969492228097 0 0.09547379810973261 -0.20629769186879635 0 0.12783935776893912 -0.21496784348970405 0 0.13535776009587924 -0.24439300799632521 0 0.1099129795945141 -0.20744822867413992 0 0.13535776009587927 -0.24439300799632521 0 0.1099129795945141 -0.20744822867413992 0 0.11527308541670583 -0.22621969492228097 0 0.069647786596796032 -0.14387326799692138 0 0.089454483748093699 -0.18586702863641852 0 0.067302572767417357 -0.15153089681749685 0 0.089454483748093699 -0.18586702863641852 0 0.067302572767417357 -0.15153089681749685 0 0.09547379810973261 -0.20629769186879635 0 0.1099129795945141 -0.20744822867413992 0 0.089454483748093699 -0.18586702863641852 0 0.11527308541670583 -0.22621969492228097 0 0.089358529476572954 -0.17272033216460247 0 0.1099129795945141 -0.20744822867413992 0 0.089454483748093699 -0.18586702863641852 0 0.089454483748093699 -0.18586702863641852 0 0.11527308541670583 -0.22621969492228097 0 0.09547379810973261 -0.20629769186879635 0 0.13535776009587927 -0.24439300799632521 0 0.14876512684729296 -0.27896839941021467 0 0.11527308541670583 -0.22621969492228097 0 0.058571158849239406 -0.1384815363603599 0 0.09547379810973261 -0.20629769186879635 0 0.059434337669161126 -0.13481768519990786 0 0.045727937883477288 -0.10924089642115442 0 0.058571158849239406 -0.1384815363603599 0 0.041702993406490987 -0.10390955658522377 0 0.058571158849239406 -0.1384815363603599 0 0.059434337669161126 -0.13481768519990786 0 0.041702993406490987 -0.10390955658522377 0 0.045727937883477288 -0.10924089642115442 0 0.058571158849239406 -0.1384815363603599 0 0.067302572767417357 -0.15153089681749685 0 0.058571158849239406 -0.1384815363603599 0 0.067302572767417357 -0.15153089681749685 0 0.09547379810973261 -0.20629769186879635 0 0.059434337669161126 -0.13481768519990786 0 0.041702993406490987 -0.10390955658522377 0 0.028902611991622577 -0.076459028742874788 0 0.028902611991622577 -0.076459028742874788 0 0.034041027634815202 -0.069625852245900718 0 0.010581409699637443 -0.035319201754271251 0 0.059434337669161126 -0.13481768519990786 0 0.028902611991622577 -0.076459028742874788 0 0.034041027634815202 -0.069625852245900718 0 3.1894486565610953e-05 -8.0823610984548594e-05 0 0.010581409699637443 -0.035319201754271251 0 -5.8336817572715989e-06 -3.8063428047864777e-05 0 0.034041027634815202 -0.069625852245900718 0 3.1894486565610953e-05 -8.0823610984548594e-05 0 0.010581409699637443 -0.035319201754271251 0 -2.6466335977003569e-06 -3.2004769512680323e-05 0 0.0027205251330848163 -0.022206167814242197 0 -5.8336817572715989e-06 -3.8063428047864777e-05 0 0.010581409699637443 -0.035319201754271251 0 0.0027205251330848163 -0.022206167814242197 0 0.012888941303662955 -0.050375814003919037 0 0.010581409699637443 -0.035319201754271251 0 0.0027205251330848163 -0.022206167814242197 0 -5.8336817572715989e-06 -3.8063428047864777e-05 0 0.0019454278369346752 -0.027882985839979495 0 -2.6466335977003569e-06 -3.2004769512680323e-05 0 0.0027205251330848163 -0.022206167814242197 0 0.0019454278369346752 -0.027882985839979495 0 0.0027205251330848163 -0.022206167814242197 0 0.012888941303662955 -0.050375814003919037 0 0.0019454278369346752 -0.027882985839979495 0 0.010768989995249603 -0.045432434755857884 0 0.012888941303662955 -0.050375814003919037 0 0.010768989995249603 -0.045432434755857884 0 0.012888941303662955 -0.050375814003919037 0 0.020535243636950338 -0.06230898443323088 0 0.012888941303662955 -0.050375814003919037 0 0.020535243636950334 -0.06230898443323088 0 0.027400027019446913 -0.075878859162360035 0 0.025723071378060132 -0.067601053022096166 0 0.017574237947499544 -0.053234666444995055 0 0.020535243636950338 -0.06230898443323088 0 0.025723071378060132 -0.067601053022096166 0 0.020535243636950338 -0.06230898443323088 0 0.032196296565594112 -0.075489170726933064 0 0.025723071378060132 -0.067601053022096166 0 0.037865401366167423 -0.083012404490991482 0 0.032196296565594112 -0.075489170726933064 0 0.037865401366167423 -0.083012404490991482 0 0.037047865764584527 -0.081342240397298621 0 0.032196296565594112 -0.075489170726933064 0 0.020535243636950338 -0.06230898443323088 0 0.032196296565594112 -0.075489170726933064 0 0.033323900234871341 -0.080617417866215818 0 0.037198121716129295 -0.083294595568162377 0 0.032196296565594112 -0.075489170726933064 0 0.033323900234871341 -0.080617417866215818 0 0.020535243636950338 -0.06230898443323088 0 0.033323900234871341 -0.080617417866215818 0 0.027400027019446913 -0.075878859162360035 0 0.041702993406490987 -0.10390955658522377 0 0.028902611991622577 -0.076459028742874788 0 0.027400027019446913 -0.075878859162360035 0 0.033323900234871341 -0.080617417866215818 0 0.027400027019446913 -0.075878859162360035 0 0.036887443931581318 -0.090530794978557247 0 0.041702993406490987 -0.10390955658522377 0 0.027400027019446913 -0.075878859162360049 0 0.036887443931581318 -0.090530794978557247 0 0.028902611991622577 -0.076459028742874788 0 0.010581409699637443 -0.035319201754271251 0 0.012888941303662955 -0.050375814003919037 0 0.028902611991622577 -0.076459028742874788 0 0.012888941303662957 -0.050375814003919037 0 0.027400027019446913 -0.075878859162360035 0 
</DataArray>
</PointData>
<CellData Scalars="region_id," Vectors="" Tensors="stress,">
<DataArray type="Float64" Name="region_id" format="ascii">
1 1 1 1 1 1 1 1 1 1 1 1 1 1 1 1 1 1 1 1 1 1 1 1 1 1 1 1 1 1 1 1 1 1 1 1 1 1 1 1 1 1 1 1 1 1 1 1 1 1 1 1 1 1 1 1 1 1 1 1 1 1 1 1 1 1 1 1 1 1 1 1 1 1 1 1 1 1 1 1 1 1 1 1 1 1 1 1 1 1 1 1 1 1 1 1 1 1 1 1 1 1 1 1 1 1 1 1 1 1 1 1 1 1 1 1 1 1 1 1 1 1 1 1 1 1 1 1 1 1 1 1 1 1 1 1 1 1 1 1 1 6 1 6 1 1 1 1 1 1 1 1 1 1 1 1 1 1 6 1 6 1 1 6 1 1 6 1 1 1 1 1 1 6 1 1 6 1 1 1 1 1 1 1 1 1 1 1 1 1 1 1 1 1 1 1 1 1 1 1 1 6 6 1 1 1 1 1 1 1 1 1 6 1 1 6 1 1 1 1 1 1 1 1 1 1 1 1 1 6 1 1 6 1 1 1 1 1 1 6 1 6 1 1 6 1 1 1 1 1 1 1 1 1 1 1 1 1 1 1 1 1 1 1 1 1 1 1 1 1 1 1 1 1 1 1 1 1 1 1 1 1 1 1 1 1 1 1 1 1 1 1 1 1 1 1 1 1 1 
</DataArray>
<DataArray type="Float64" Name="stress" NumberOfComponents="9" format="ascii">
-0.0079409816970511075 -0.020299700506395617 0 -0.020299700506395617 -0.0057415978960150714 0 0 0 -0.0034206448982665458 -0.015892896083797521 -0.0046023628386381134 0 -0.0046023628386381134 -0.047738198394707276 0 0 0 -0.015907773619626201 -0.034301332213702608 -0.0047891987332919755 0 -0.0047891987332919755 -0.10291400080160326 0 0 0 -0.034303833253826473 -0.023038506811721666 -0.027311051339943548 0 -0.027311051339943548 -0.067342875040606917 0 0 0 -0.022595345463082145 -0.019830206028310208 -0.018648679352505228 0 -0.018648679352505228 -0.14494244249066729 0 0 0 -0.041193162129744373 -0.021134188305319601 -0.0012648136041585704 0 -0.0012648136041585704 -0.12365366484515483 0 0 0 -0.036196963287618594 -0.0064854166614152775 -0.01002711685801122 0 -0.01002711685801122 -0.11270620929041081 0 0 0 -0.029797906487956549 -0.0091146082562117148 -0.026787153013060779 0 -0.026787153013060779 -0.12560645872423415 0 0 0 -0.033680266745111459 0.0063759152982881817 -0.029207360481517491 0 -0.029207360481517491 -0.14741297412152132 0 0 0 -0.035259264705808313 0.0080283295258741783 -0.01791737642982591 0 -0.01791737642982591 -0.14957622325321918 0 0 0 -0.035386973431836388 0.020482318324903548 -0.033871826024981289 0 -0.033871826024981289 -0.32588922981757462 0 0 0 -0.076351727873167574 0.12561106427371882 -0.097145423887013971 0 -0.097145423887013971 -0.12077360509812182 0 0 0 0.0012093647938992216 0.0082980024585356249 -0.017205540079353182 0 -0.017205540079353182 -0.15295433108655665 0 0 0 -0.036164082157005284 0.0020369366992426807 -0.0081645614690882828 0 -0.0081645614690882828 -0.16570448487806738 0 0 0 -0.040916887044706168 -0.010812866578128522 -0.0038509258224157239 0 -0.0038509258224157239 -0.1610565474060342 0 0 0 -0.042967353496040694 -0.0099997385604861985 -0.01358006440148507 0 -0.01358006440148507 -0.16671145549870142 0 0 0 -0.044177798514796897 -0.019344948193718368 -0.020465988489688836 0 -0.020465988489688836 -0.10078392295040475 0 0 0 -0.030032217786030782 -0.009507683019637593 -0.0027381528524443449 0 -0.0027381528524443449 -0.10471564839511957 0 0 0 -0.028555832853689296 -0.012077215850419015 -0.00047905842409074612 0 -0.00047905842409074612 -0.078830618842252426 0 0 0 -0.02272695867316786 -0.0018445394441812361 0.0022290374283412615 0 0.0022290374283412615 -0.073226055226796538 0 0 0 -0.018767648667744424 -0.010467779358673795 -0.0059142011056302762 0 -0.0059142011056302762 -0.070337515800224626 0 0 0 -0.020201323789724612 0.01311725009336065 -0.018079492831714367 0 -0.018079492831714367 -0.09882235028806674 0 0 0 -0.02142627504867653 -0.0067659163732577392 -0.00052961405314919672 0 -0.00052961405314919672 0.013501734310819472 0 0 0 0.0016839544843904332 -0.0012986379528602821 0.002657524525831137 0 0.002657524525831137 -0.042538174026917924 0 0 0 -0.010959202994944559 0.0052171832810981728 -0.0031727040814223534 0 -0.0031727040814223534 -0.034982005582337883 0 0 0 -0.007441205575309931 -0.013990187916266536 -0.012382640463515893 0 -0.012382640463515893 -0.044369006103752322 0 0 0 -0.014589798505004716 -0.0073980701661280216 0.0080128888440952097 0 0.0080128888440952097 -0.039744293141067311 0 0 0 -0.011785590826798833 0.0027278780892165426 0.0018555474012677707 0 0.0018555474012677707 0.0036473183777316273 0 0 0 0.00159379911673706 -0.002801002734650615 -0.0026375473148766712 0 -0.0026375473148766712 -0.026223421959824675 0 0 0 -0.007256106173618812 0.012295970937657011 -0.0091846766166000515 0 -0.0091846766166000515 -0.015919392488211448 0 0 0 -0.00090585538763858497 0.011986203316395314 -0.0094240490038848268 0 -0.0094240490038848268 -0.040527764442320285 0 0 0 -0.0071353902814812464 0.002947317879802 0.0042743054548199169 0 0.0042743054548199169 -0.028677931225231823 0 0 0 -0.0064326533363574523 -0.0011853365771170811 0.0003643920642081586 0 0.0003643920642081586 0.0017100998413401881 0 0 0 0.00013119081605577221 0.0022402906789967536 0.00028921338989273265 0 0.00028921338989273265 -0.001293290979043793 0 0 0 0.00023674992498823322 0.000892405743387642 0.00070326958344070489 0 0.00070326958344070489 0.00079876814893714565 0 0 0 0.00042279347308116222 0.0016015859188687198 -0.0057787106527644461 0 -0.0057787106527644461 -0.0056834296514809979 0 0 0 -0.0010204609331530556 0.0031406457137394123 -0.0023571713755703881 0 -0.0023571713755703881 -0.0082092045117391765 0 0 0 -0.0012671396994999307 -0.0071248520094584072 -0.011396412711930287 0 -0.011396412711930287 -0.026304368116419397 0 0 0 -0.0083573050314694336 -0.0032968814926042367 -0.0034816285954178822 0 -0.0034816285954178822 -0.0098595012844128194 0 0 0 -0.0032890956942542571 -0.0016543626567823433 -0.00089489436923406371 0 -0.00089489436923406371 0.0011616471189480615 0 0 0 -0.00012317888445859126 0.0021733105621932203 -0.00073932896482090116 0 -0.00073932896482090116 -0.0040272966615099159 0 0 0 -0.00046349652482913228 -0.0067817452586435845 -0.0057245997002810245 0 -0.0057245997002810245 -0.0035263118739335408 0 0 0 -0.0025770142831442466 -0.022244030054849206 -0.0083013890933796297 0 -0.0083013890933796297 0.00060690013494690831 0 0 0 -0.0054092824799756301 -0.0073141574295593759 -0.0044222227532958319 0 -0.0044222227532958319 0.0010944213496622002 0 0 0 -0.0015549340199743633 -0.0066948728373820154 -0.012636314925818577 0 -0.012636314925818577 -0.0071076946791235329 0 0 0 -0.0034506418791264704 -0.019519830818580719 -0.020710448341369037 0 -0.020710448341369037 -0.010884712704695376 0 0 0 -0.0076011358808191209 -0.016291960169033434 -0.01903408819483482 0 -0.01903408819483482 -0.0073969744872789955 0 0 0 -0.0059222336640781664 -0.011608820775619644 -0.01549168688900486 0 -0.01549168688900486 -0.016225214462679938 0 0 0 -0.006958508809574937 -0.016020782311288617 -0.02357279988765254 0 -0.02357279988765254 -0.020775888010199917 0 0 0 -0.0091991675803721473 -0.0035014255862088339 -0.018301244485353974 0 -0.018301244485353974 -0.011364402374160976 0 0 0 -0.0037164569900924038 0.004509665132941626 -0.016828358951217537 0 -0.016828358951217537 -0.016808310534204285 0 0 0 -0.0030746613503156717 -0.0065729724597908268 -0.02322819221858452 0 -0.02322819221858452 -0.03116547305995232 0 0 0 -0.0094346113799357312 -0.0006840619404814563 -0.028794725706184576 0 -0.028794725706184576 -0.023250969384650821 0 0 0 -0.0059837578312831041 -0.010264611938375023 -0.032613137839231976 0 -0.032613137839231976 -0.02970567940772928 0 0 0 -0.009992572836526048 -0.0046767575460448518 -0.034320666882677098 0 -0.034320666882677098 -0.026786474665056126 0 0 0 -0.0078658080527752028 -0.0037525658292710817 -0.037154366179725062 0 -0.037154366179725062 -0.030736200292199145 0 0 0 -0.0086221915303675845 -0.0066817404563868088 -0.038465475222271478 0 -0.038465475222271478 -0.02928776942543454 0 0 0 -0.0089923774704554482 -0.0087334802649278731 -0.038273723344975474 0 -0.038273723344975474 -0.030001464353821561 0 0 0 -0.0096837361546874834 -0.008024008328625154 -0.037863437279315293 0 -0.037863437279315293 -0.028920966958844829 0 0 0 -0.0092362438218676068 -0.011387783876871671 -0.036537486305158851 0 -0.036537486305158851 -0.028978471545717088 0 0 0 -0.010091563855647356 -0.01138031049677779 -0.036435356353907489 0 -0.036435356353907489 -0.029671198946469302 0 0 0 -0.010262877360811551 -0.0073650709908072987 -0.036293827925100164 0 -0.036293827925100164 -0.028461599459621567 0 0 0 -0.008956667612607383 -0.010810712366595865 -0.035619089985167385 0 -0.035619089985167385 -0.02930965089513915 0 0 0 -0.010030090815433879 -0.010183027854490101 -0.035140015664281959 0 -0.035140015664281959 -0.027783018501291501 0 0 0 -0.0094915115889451229 -0.013848193096599015 -0.034083767395963471 0 -0.034083767395963471 -0.026675979308206532 0 0 0 -0.010131043101201276 -0.014041603408731618 -0.03569676144577677 0 -0.03569676144577677 -0.028375426439060547 0 0 0 -0.010604257461948263 -0.013624461216678041 -0.035252584165297529 0 -0.035252584165297529 -0.02877816043477599 0 0 0 -0.01060065541286348 -0.015364032516200332 -0.034267257517058836 0 -0.034267257517058836 -0.027477963833752561 0 0 0 -0.010710499087488223 -0.01671755605995684 -0.035249937955349031 0 -0.035249937955349031 -0.027402696605640209 0 0 0 -0.011030063166399318 -0.016105301992107218 -0.034913989183793848 0 -0.034913989183793848 -0.027135734349864715 0 0 0 -0.010810259085492907 -0.015966491660351134 -0.029041457406567828 0 -0.029041457406567828 -0.018313114742452674 0 0 0 -0.0085699016007009243 -0.0085249926050777747 -0.032045016937795476 0 -0.032045016937795476 -0.024889783647915831 0 0 0 -0.0083536940632483736 -0.025755534831652271 -0.025665435285239124 0 -0.025665435285239124 -0.0084717655202810604 0 0 0 -0.0085568250879832775 -0.020451252350968341 -0.031470935773162179 0 -0.031470935773162179 -0.020706995123063621 0 0 0 -0.010289561868508046 -0.016090353532561608 -0.034147192675571009 0 -0.034147192675571009 -0.027030429527339805 0 0 0 -0.010780195764975575 -0.021817516008469089 -0.033458611159664864 0 -0.033458611159664864 -0.021219370202306714 0 0 0 -0.010759221552693978 -0.018889087679321515 -0.033793368670392621 0 -0.033793368670392621 -0.027353041985531235 0 0 0 -0.011560532416213354 -0.020373378008207821 -0.035574742473104548 0 -0.035574742473104548 -0.026725976631566617 0 0 0 -0.011774838659943665 -0.021710159071856139 -0.034395561364776839 0 -0.034395561364776839 -0.026238911629554051 0 0 0 -0.011987267675352409 -0.026952179868357629 -0.037635051445929601 0 -0.037635051445929601 -0.027103024903620376 0 0 0 -0.013513801192994501 -0.030519974199025746 -0.037488314448364202 0 -0.037488314448364202 -0.026484223051539413 0 0 0 -0.014251049312641428 -0.052706961370636685 -0.040282563608185606 0 -0.040282563608185606 -0.028590004228347343 0 0 0 -0.02032424139974609 -0.029497473215874037 -0.032071298643535445 0 -0.032071298643535445 -0.014363830816717993 0 0 0 -0.010965326008147813 -0.05474271724731139 -0.043403581893747156 0 -0.043403581893747156 -0.026472765452793645 0 0 0 -0.020303870675026037 -0.032080665570045019 -0.03333457839731202 0 -0.03333457839731202 -0.027099951684036894 0 0 0 -0.014795154313520353 -0.066186058028942479 -0.035989482785920179 0 -0.035989482785920179 -0.03217717096178957 0 0 0 -0.024590807247683116 -0.051864078316641971 -0.043874417196399174 0 -0.043874417196399174 -0.033520652825213215 0 0 0 -0.021346182785463963 -0.15440688063027641 -0.038801753207487355 0 -0.038801753207487355 -0.023465108454410855 0 0 0 -0.044467997271171789 -0.084127296101855098 -0.052992284500097353 0 -0.052992284500097353 -0.037849386541827901 0 0 0 -0.03049417066092075 -0.074255206183439837 -0.024656152117640051 0 -0.024656152117640051 0.0042848607247520931 0 0 0 -0.017492586364671991 -0.065154607727449909 -0.01824550700194294 0 -0.01824550700194294 -0.0060019958717270061 0 0 0 -0.017789150899794104 -0.042507261052115497 -0.013409728441290791 0 -0.013409728441290791 0.0001956382539661794 0 0 0 -0.01057790569953726 -0.038591131556972497 -0.031055331794411334 0 -0.031055331794411334 -0.016977700254163008 0 0 0 -0.013892207952784036 -0.028194653552705895 -0.011240572754856251 0 -0.011240572754856251 -0.004902557963128773 0 0 0 -0.0082743028789586948 0.022014490208579485 -0.034033688682623298 0 -0.034033688682623298 -0.054907902554741983 0 0 0 -0.0082233530865406523 0.025505718469152009 -0.024377433924945874 0 -0.024377433924945874 -0.068044700815651005 0 0 0 -0.010634745586624746 -0.0029213053609841999 0.00022293218811191007 0 0.00022293218811191007 -0.071972835811608127 0 0 0 -0.018723535293148102 0.0077721973289964774 -0.01216040505742251 0 -0.01216040505742251 -0.048167910073533604 0 0 0 -0.010098928186134282 -0.0026174515945569521 -0.01790633559624337 0 -0.01790633559624337 -0.040793678683265888 0 0 0 -0.01085278256945571 -0.0024325425190647731 -0.031791716462947817 0 -0.031791716462947817 -0.035706647787236312 0 0 0 -0.0095347975765752158 0.0086009379924548435 -0.027729587416372492 0 -0.027729587416372492 -0.031603166346863942 0 0 0 -0.0057505570886022539 0.013691751979369959 -0.030067660736005364 0 -0.030067660736005364 -0.048587275396788934 0 0 0 -0.0087238808543547881 0.0097379411187204501 -0.032546888928191631 0 -0.032546888928191631 -0.043511040035357773 0 0 0 -0.0084432747291593446 0.0072901623382945827 -0.040377995788088539 0 -0.040377995788088539 -0.045013879387413643 0 0 0 -0.0094309292622796956 0.020286528083640731 -0.047412036058760598 0 -0.047412036058760598 -0.041302579407890061 0 0 0 -0.0052540128310624157 0.00019560072483444657 -0.036716860254179862 0 -0.036716860254179862 -0.032445979327070995 0 0 0 -0.0080625946505590712 0.0068914299167863735 -0.040607156620878271 0 -0.040607156620878271 -0.034397802400795596 0 0 0 -0.0068765931210023057 -0.00088685171987257227 -0.039966897754997115 0 -0.039966897754997115 -0.030067312280139369 0 0 0 -0.0077385410000032628 -0.0049906063986717153 -0.038185593554569408 0 -0.038185593554569408 -0.030400281852098643 0 0 0 -0.0088477220626926312 -0.00021321089986148234 -0.043168352414269862 0 -0.043168352414269862 -0.037291614758829805 0 0 0 -0.0093762064146728497 -0.0017844863278605461 -0.042785000636882509 0 -0.042785000636882509 -0.03238850327902032 0 0 0 -0.0085432474017202997 -0.004997508508834958 -0.043494688993001462 0 -0.043494688993001462 -0.031467587073912062 0 0 0 -0.0091162738956865885 -0.0024956839931709052 -0.045675716333085203 0 -0.045675716333085203 -0.028137402995928706 0 0 0 -0.0076582717472748474 -0.0037595016874767406 -0.042749002796240165 0 -0.042749002796240165 -0.028511396487500562 0 0 0 -0.0080677245437443812 -0.0062693315735073973 -0.03971948245784751 0 -0.03971948245784751 -0.029033562165493798 0 0 0 -0.0088257234347501878 -0.0077564346044023402 -0.04052333071246883 0 -0.04052333071246883 -0.032444016087096461 0 0 0 -0.0100501126728747 0.0049848052173784296 -0.051522565901867087 0 -0.051522565901867087 -0.035212219624412011 0 0 0 -0.0075568536017582844 0.0040227784060109517 -0.054203823592091971 0 -0.054203823592091971 -0.049181711596725908 0 0 0 -0.011289733297678795 0.0054562197548273517 -0.045785536015682804 0 -0.045785536015682804 -0.032493517338895828 0 0 0 -0.006759324396017119 -0.0044924896212463206 -0.046684121376117771 0 -0.046684121376117771 -0.035532071902023565 0 0 0 -0.010006140380817652 0.0024004983715089079 -0.050730743485462138 0 -0.050730743485462138 -0.025963565843484471 0 0 0 -0.0058907668679937242 -0.0044565225720042123 -0.054720365477530342 0 -0.054720365477530342 -0.037639333517922424 0 0 0 -0.010523964022481541 0.00057464200688484013 -0.057416269066396741 0 -0.057416269066396741 -0.025643357225883623 0 0 0 -0.0062671788047496957 0.006680359841251482 -0.066271208362640111 0 -0.066271208362640111 -0.021509681391404634 0 0 0 -0.0037073303875383434 -0.0040207302472576312 -0.060101028134527112 0 -0.060101028134527112 -0.040113504647099396 0 0 0 -0.011033558723589187 0.022082198242000528 -0.078301119062325841 0 -0.078301119062325841 -0.01513732595685191 0 0 0 0.001736218071287432 0.0069269559452893037 -0.068538835091324746 0 -0.068538835091324746 -0.040086258682515474 0 0 0 -0.0082898256843067508 0.02934651914478964 -0.06079781024957559 0 -0.06079781024957559 -0.049305533767460052 0 0 0 -0.004989753655667617 0.0072402816509647416 -0.060963999547596015 0 -0.060963999547596015 -0.046167710046380317 0 0 0 -0.009731857098853991 0.011395551418052374 -0.059307467815382542 0 -0.059307467815382542 -0.035043920878415791 0 0 0 -0.0059120923650908264 0.013954629976781152 -0.046573247592306799 0 -0.046573247592306799 -0.07237897806881044 0 0 0 -0.014606087023007308 0.013064661252706278 -0.01593720362313391 0 -0.01593720362313391 -0.10113024573263041 0 0 0 -0.022016396119981074 0.066545770242460833 -0.050078784384331332 0 -0.050078784384331332 -0.078692768464611276 0 0 0 -0.0030367495555375691 0.031571809235686366 -0.061786303005043286 0 -0.061786303005043286 -0.090459116557166208 0 0 0 -0.014721826830369933 0.038169468365153669 -0.069795358122819895 0 -0.069795358122819895 -0.051854089572254125 0 0 0 -0.003421155301775114 0.01040923150130782 -0.085523373609837083 0 -0.085523373609837083 -0.062685903235622759 0 0 0 -0.013069167933578568 0.036803548870820491 -0.099377095581487107 0 -0.099377095581487107 -0.0040245738458111191 0 0 0 0.0081947437562523984 0.045253633591657544 -0.097097780538202172 0 -0.097097780538202172 -0.066835449679609416 0 0 0 -0.005395454021987961 0.10570872514316076 -0.136277071369307 0 -0.136277071369307 0.020230437254252553 0 0 0 0.031484790599353385 -0.084517909762403032 0.045749015725666475 0 0.045749015725666475 -0.13189138416380519 0 0 0 -0.054102323481552306 -0.078804969314643744 0.050516881883690523 0 0.050516881883690523 -0.065153729570653879 0 0 0 -0.035989674721324409 -0.1068460755014371 0.34683042325156066 0 0.34683042325156066 -1.7048820796150039 0 0 0 -0.45293203877909605 -0.052451692370558266 0.027557342442114052 0 0.027557342442114052 -0.037706389435890497 0 0 0 -0.022539520451612356 0.048778600724517673 -0.059219545403948359 0 -0.059219545403948359 -2.0738015220916282 0 0 0 -0.50625573034173499 -0.064007862141129301 0.023860024921791401 0 0.023860024921791401 -0.093758235965720083 0 0 0 -0.039441524526712124 -0.046535803223856864 0.0088799035751214728 0 0.0088799035751214728 -0.13602274230874234 0 0 0 -0.045639636383149829 -0.07954086701283869 0.033706837888018121 0 0.033706837888018121 -0.18898448236668841 0 0 0 -0.067131337344881636 -0.046176368211105684 0.011751578191126821 0 0.011751578191126821 -0.11383150201621617 0 0 0 -0.04000196755683047 -0.053206619268228783 0.00054767184598300545 0 0.00054767184598300545 -0.17545585249955775 0 0 0 -0.057165617941946523 -0.031795016487393801 -0.011555188307681319 0 -0.011555188307681319 -0.13374344103475133 0 0 0 -0.041384614380536311 -0.033942553888504923 -0.014335865667496894 0 -0.014335865667496894 -0.16599694023331407 0 0 0 -0.049984873530454832 -0.022243943531304655 -0.02263973978146111 0 -0.02263973978146111 -0.11408872747848364 0 0 0 -0.03408316775244713 -0.036344962181390827 -0.0082679060279819971 0 -0.0082679060279819971 -0.11812277423272555 0 0 0 -0.038616934103529177 -0.032702528313704571 -0.019292404983634048 0 -0.019292404983634048 -0.07938883929992202 0 0 0 -0.028022841903406759 -0.045286629889915053 0.00023080714429579707 0 0.00023080714429579707 -0.10093258683281281 0 0 0 -0.036554804180681799 -0.038487969768232322 -0.0017899878193145674 0 -0.0017899878193145674 -0.081120426240017363 0 0 0 -0.029902099002062421 -0.058848239536302138 0.002751512880566076 0 0.002751512880566076 -0.089461240636321993 0 0 0 -0.037077370043156144 -0.045440206029342844 0.011419702433031365 0 0.011419702433031365 -0.041385701583001033 0 0 0 -0.021706476903086136 -0.097748052247993655 -0.05560023518160051 0 -0.05560023518160051 -2.3733200338509448 0 0 0 -0.61776702152474172 -0.051439939148788305 -0.0057706039925594643 0 -0.0057706039925594643 -0.078440790789195525 0 0 0 -0.032470182484495957 -0.034427892605435773 -0.056047190691742799 0 -0.056047190691742799 -2.5620766148708753 0 0 0 -0.64912612686916304 -0.046138039771462802 -0.0044652216280705037 0 -0.0044652216280705037 -0.042300568326281596 0 0 0 -0.022109652024436155 -0.034632003680036716 -0.016561548926232073 0 -0.016561548926232073 -0.039766916453272128 0 0 0 -0.018599730033327377 -0.058060374328874786 -0.070467756452728736 0 -0.070467756452728736 -2.7066273569638497 0 0 0 -0.69117193282320954 -0.045886360629182832 -0.023654102288648504 0 -0.023654102288648504 -0.076291407120470556 0 0 0 -0.030544441937413236 -0.037224787427028484 -0.028760518252892942 0 -0.028760518252892942 -0.041395595879685713 0 0 0 -0.01965509582667866 -0.044306978544682352 -0.075505678851868652 0 -0.075505678851868652 -2.7967245989969456 0 0 0 -0.71025789438539277 -0.042048019235544576 -0.029930237345262456 0 -0.029930237345262456 -0.072781128279084228 0 0 0 -0.02870728687865709 -0.023393663708985823 -0.039804454422308622 0 -0.039804454422308622 -0.072208014347538541 0 0 0 -0.023900419514131077 -0.027607686440693002 -0.029633550980929679 0 -0.029633550980929679 -0.10714304529389551 0 0 0 -0.033687682933647101 -0.029422802056801645 -0.023251197616987573 0 -0.023251197616987573 -0.071429642625913115 0 0 0 -0.025213111170678759 -0.038060119726829766 -0.05417615122421382 0 -0.05417615122421382 -0.070011949283530051 0 0 0 -0.027018017252589788 -0.033570865438317554 -0.051584279052282356 0 -0.051584279052282356 -0.040336669247217127 0 0 0 -0.018476883671383559 -0.044334285202694446 -0.091452635867199206 0 -0.091452635867199206 -2.8301021731651304 0 0 0 -0.71860911459191357 -0.039777927874488972 -0.048000629883881762 0 -0.048000629883881762 -0.07284734741844634 0 0 0 -0.028156318823233439 -0.026597899860172358 -0.039813227889202052 0 -0.039813227889202052 -0.038165705747251089 0 0 0 -0.016190901401855751 -0.044345233450826527 -0.08395051214142768 0 -0.08395051214142768 -2.8368400742089648 0 0 0 -0.72029632691496204 -0.020766564866319309 -0.045067132014492639 0 -0.045067132014492639 -0.067757316160844128 0 0 0 -0.022130970256790644 -0.022031211489141056 -0.063586230386066811 0 -0.063586230386066811 -0.068454947643115327 0 0 0 -0.022621539783064082 -0.023322557845858571 -0.050840603414131769 0 -0.050840603414131769 -0.1048195104412164 0 0 0 -0.03203551707176866 -0.0030011942424312821 -0.055809798994141235 0 -0.055809798994141235 -0.098987864794095604 0 0 0 -0.025497264759131832 -0.018383632663398708 -0.045764384005404612 0 -0.045764384005404612 -0.15023702812939232 0 0 0 -0.04215516519819773 -0.025755379984833793 -0.021832654366538917 0 -0.021832654366538917 -0.15149586396343384 0 0 0 -0.044312810987066964 -0.0041378633517106765 -0.037565445194053915 0 -0.037565445194053915 -0.099234748717934959 0 0 0 -0.02584315301741141 -0.0018858913271001254 -0.040510492567602308 0 -0.040510492567602308 -0.15394761931547868 0 0 0 -0.038958377660644777 0.0028025688879126376 -0.050493331057205326 0 -0.050493331057205326 -0.20170539884819627 0 0 0 -0.049725707490070992 0.0031041806575698022 -0.044086621708946394 0 -0.044086621708946394 -0.14405574202198351 0 0 0 -0.035237890341103459 0.0060760081057500415 -0.031517299529462695 0 -0.031517299529462695 -0.21010998549774274 0 0 0 -0.051008494347998257 0.0099719753167462621 -0.03566232298198585 0 -0.03566232298198585 -0.20212863309659085 0 0 0 -0.048039164444961147 -0.017112543281627202 -0.014360149498458652 0 -0.014360149498458652 -0.1992763807269875 0 0 0 -0.05409723100215369 -0.03070615702961077 -0.018773279973405083 0 -0.018773279973405083 -0.19871212210741196 0 0 0 -0.057354569784255682 -0.022218863027360897 -0.0095696653725299008 0 -0.0095696653725299008 -0.16214599235339408 0 0 0 -0.046091213845188689 -0.015262045344909332 -0.026548646102764528 0 -0.026548646102764528 -0.15934089447128494 0 0 0 -0.043650734954048649 -0.015828416092210362 -0.020034771334438262 0 -0.020034771334438262 -0.19815208696755204 0 0 0 -0.053495125764940643 0.010164512146747851 -0.029199427393576727 0 -0.029199427393576727 -0.27486892140062036 0 0 0 -0.066176102313468044 0.072866224949126757 -0.10423806834807803 0 -0.10423806834807803 -0.2163258862376507 0 0 0 -0.035864915322130875 0.12505931962950589 -0.059167309113845601 0 -0.059167309113845601 -0.29896121414101184 0 0 0 -0.043475473627876515 0.10697574891673178 -0.071603943374093051 0 -0.071603943374093051 -0.25647543813352058 0 0 0 -0.037374922304197478 0.21353748511662096 -0.1002854314844861 0 -0.1002854314844861 -0.34691984248870211 0 0 0 -0.033345589343019677 0.5562586554762462 -0.24480654036738936 0 -0.24480654036738936 -0.10311871482604462 0 0 0 0.1132849851625507 0.27333022879920632 -0.28168087457679014 0 -0.28168087457679014 0.077365732602982185 0 0 0 0.087673990350547237 0.54487729466131896 -0.71411227741702987 0 -0.71411227741702987 -0.63716170420991602 0 0 0 -0.023071102387177689 -0.0018175792438341887 -0.14510985734460746 0 -0.14510985734460746 -1.2496567306628208 0 0 0 -0.31286857747676322 0.12696005969074586 -0.21901831132003546 0 -0.21901831132003546 0.034392821136434826 0 0 0 0.040338220206795006 0.15622630371123791 -0.20706779413377663 0 -0.20706779413377663 -0.10801099712504936 0 0 0 0.012053826646547083 0.06429274047159117 -0.18287929962863592 0 -0.18287929962863592 -0.074369322030663376 0 0 0 -0.0025191453897681626 0.13581385213298036 -0.16346147832862223 0 -0.16346147832862223 -0.20747062420411666 0 0 0 -0.017914193017783964 0.2075815395285765 -0.2049606404736809 0 -0.2049606404736809 -0.091081056410502015 0 0 0 0.029125120779518454 0.085721096435437349 -0.17917216128549085 0 -0.17917216128549085 -0.069166277415217969 0 0 0 0.0041387047550549561 0.022751973030718853 -0.12156801691120278 0 -0.12156801691120278 -0.16856666250051688 0 0 0 -0.036453672367449563 0.078636395283061766 -0.16765556723613917 0 -0.16765556723613917 -0.074091704877780273 0 0 0 0.0011361726013203732 0.013076424311846635 -0.14303643957848811 0 -0.14303643957848811 -0.073335890546368798 0 0 0 -0.015064866558630374 0.023196226047502932 -0.16900505423535606 0 -0.16900505423535606 -1.6313853520509838 0 0 0 -0.40204728150087021 0.072279042299541851 -0.17654691999930594 0 -0.17654691999930594 0.0090523233577179951 0 0 0 0.020332841414314684 0.015059109135043755 -0.14605094532593932 0 -0.14605094532593932 -0.014404982327416145 0 0 0 0.00016353170190701381 -0.020096554369501973 -0.15692876897992392 0 -0.15692876897992392 -1.959648138930902 0 0 0 -0.49493617332518625 -0.0092874926868395935 -0.13273258284617884 0 -0.13273258284617884 -0.069143377448450671 0 0 0 -0.019607717533822511 0.045842530141825932 -0.13582713501065488 0 -0.13582713501065488 -0.099704556340138861 0 0 0 -0.013465506549578121 0.10395053089561479 -0.12762714319905472 0 -0.12762714319905472 -0.17026698710194887 0 0 0 -0.016579114051583632 0.036363390995630906 -0.072669379884967467 0 -0.072669379884967467 -0.25880019168766299 0 0 0 -0.055609200173007745 0.057509517914813346 -0.097558044623629825 0 -0.097558044623629825 -0.16283283688304029 0 0 0 -0.026330829742056749 0.022321797127559773 -0.073423808737405061 0 -0.073423808737405061 -0.22842785709638846 0 0 0 -0.051526514992207284 0.037142265745275904 -0.078014718795209159 0 -0.078014718795209159 -0.14468584037842525 0 0 0 -0.026885893658287086 0.02923502924982424 -0.10217267751371506 0 -0.10217267751371506 -0.096065118996532917 0 0 0 -0.016707522436677058 -0.0011155892291462299 -0.079596193185074049 0 -0.079596193185074049 -0.15710529290185882 0 0 0 -0.039555220532751401 0.010333663434682339 -0.09950230843044694 0 -0.09950230843044694 -0.17623853796069522 0 0 0 -0.041476218631503303 -0.00082105210057592526 -0.11856180148497275 0 -0.11856180148497275 -0.080332226323102329 0 0 0 -0.020288319605919702 0.0063644728474774315 -0.11535932749053757 0 -0.11535932749053757 -0.062265351469249275 0 0 0 -0.013975219655443016 -0.023769390165130799 -0.11070561724231354 0 -0.11070561724231354 -0.070174254295563898 0 0 0 -0.023485911115173508 -0.034151072023860252 -0.14482605365071777 0 -0.14482605365071777 -2.2026837528399597 0 0 0 -0.55920870621588392 -0.0021813096440455038 -0.1247835527426393 0 -0.1247835527426393 -0.022719466122192333 0 0 0 -0.0062251939415591817 -0.027517523008189215 -0.098629551328826337 0 -0.098629551328826337 -0.069305493223013492 0 0 0 -0.024205754057800455 -0.040143324794030377 -0.13815216366140248 0 -0.13815216366140248 -2.4186035477695782 0 0 0 -0.61468671814088793 -0.016473745976320453 -0.10496432868289585 0 -0.10496432868289585 -0.030115529441775202 0 0 0 -0.01164731885452408 -0.0088702066952099923 -0.092735772474170197 0 -0.092735772474170197 -0.065368464332986598 0 0 0 -0.018559667757049203 -0.0071794751291397452 -0.10153645384630261 0 -0.10153645384630261 -0.10783691798955131 0 0 0 -0.02875409827967268 -0.010265747663003255 -0.087011368266625422 0 -0.087011368266625422 -0.067233478224506094 0 0 0 -0.01937480647187706 -0.016940781363895208 -0.073653045311773635 0 -0.073653045311773635 -0.10452159711289521 0 0 0 -0.030365594619197633 -0.03247204742308929 -0.077593684387592399 0 -0.077593684387592399 -0.068958375949344397 0 0 0 -0.0253576058431082 -0.039828320755191271 -0.12050846658507908 0 -0.12050846658507908 -2.5826068808599416 0 0 0 -0.65560880040385427 -0.014026426965657812 -0.089396671929255156 0 -0.089396671929255156 -0.030984151728056464 0 0 0 -0.01125264467342868 -0.044035492654302288 -0.099472930303534213 0 -0.099472930303534213 -2.7868064980331724 0 0 0 -0.70771049767185445 -0.023601782731269425 -0.063951487068946378 0 -0.063951487068946378 -0.036485462105203793 0 0 0 -0.015021811209118139 -0.027636366338378959 -0.075905008942647845 0 -0.075905008942647845 -0.036920509203963281 0 0 0 -0.016139218885585782 -0.042281222910219185 -0.10911490283370995 0 -0.10911490283370995 -2.7051687911098838 0 0 0 -0.68686250350503997 -0.035029081961085451 -0.071084640422079959 0 -0.071084640422079959 -0.068898299746400937 0 0 0 -0.025981845426871653 -0.019967682588269059 -0.067330797520498198 0 -0.067330797520498198 -0.06586338725237717 0 0 0 -0.021457767460161675 -0.013239287762757179 -0.059718931804949804 0 -0.059718931804949804 -0.16161170993574725 0 0 0 -0.043712749424625996 0.011039161581081182 -0.076759816397486635 0 -0.076759816397486635 -0.095621363706417661 0 0 0 -0.021145550531334066 0.015246424709121381 -0.024322606189565832 0 -0.024322606189565832 -0.25249562792880809 0 0 0 -0.059312300804921808 0.017238398740742192 -0.058834306989705487 0 -0.058834306989705487 -0.15163345202631762 0 0 0 -0.033598763321393652 0.0045740897360111443 -0.053208552877665516 0 -0.053208552877665516 -0.21024830135261796 0 0 0 -0.05141855290415176 0.02944491197231891 -0.054367818111525357 0 -0.054367818111525357 -0.21981671962840865 0 0 0 -0.047592951914022574 0.032586930801836 -0.057033343147631532 0 -0.057033343147631532 -0.2210975139219602 0 0 0 -0.04712764578003098 0.031414701258898337 -0.040352274670044319 0 -0.040352274670044319 -0.28759633970116738 0 0 0 -0.064045409610567261 0.047664994283485251 -0.057802006553031471 0 -0.057802006553031471 -0.23384341725925184 0 0 0 -0.046544605743941814 0.014561925877389192 -0.015532986019012651 0 -0.015532986019012651 -0.26628038027467538 0 0 0 -0.062929613599321421 0.010337291081704558 -0.0031849740744144261 0 -0.0031849740744144261 -0.30489444162077173 0 0 0 -0.073639287634766792 0.039890457586322148 -0.019397286689808307 0 -0.019397286689808307 -0.30533567576042353 0 0 0 -0.066361304543525401 -0.028064984597898079 -0.012122797346337255 0 -0.012122797346337255 -0.28109198521121126 0 0 0 -0.07728924245227764 0.0040233690810021483 0.003333743571780734 0 0.003333743571780734 -0.30872056248223234 0 0 0 -0.076174298350307534 -0.027422378958050442 0.0012083984552535192 0 0.0012083984552535192 -0.28916882521369525 0 0 0 -0.079147801042936394 0.0016435020263895761 0.0045596456990151246 0 0.0045596456990151246 -0.30120732045380505 0 0 0 -0.074890954606853966 0.019010912850377815 -0.029479262834990111 0 -0.029479262834990111 -0.25626113311396392 0 0 0 -0.0593125550658965 0.001882194140658433 -0.0059260177937560665 0 -0.0059260177937560665 -0.27651059113716075 0 0 0 -0.068657099249125608 0.0052389059935068483 0.0004244071831973617 0 0.0004244071831973617 -0.28114698335702026 0 0 0 -0.068977019340878187 0.022931841276182863 -0.016355158156497407 0 -0.016355158156497407 -0.2885321827368037 0 0 0 -0.066400085365155181 0.0053301345117047205 0.005395403833969914 0 0.005395403833969914 -0.30413674102755572 0 0 0 -0.074701651628962806 -0.010973771357411732 0.0048698120046740279 0 0.0048698120046740279 -0.30168312716206147 0 0 0 -0.078164224629868162 0.0028126050084018583 -0.0058906807814947948 0 -0.0058906807814947948 -0.30404382678366604 0 0 0 -0.075307805443816045 -0.0035109981755851449 -0.020521824155571203 0 -0.020521824155571203 -0.23411310304143429 0 0 0 -0.059406025304254817 -0.0053084147132494985 -0.0079655543074450275 0 -0.0079655543074450275 -0.25729773998942229 0 0 0 -0.065651538675667864 -0.01159433237771812 -0.013063572806026186 0 -0.013063572806026186 -0.2513453393882441 0 0 0 -0.065734917941490556 0.013618547442978385 -0.018446620074308362 0 -0.018446620074308362 -0.26339588452794827 0 0 0 -0.062444334271242435 -0.0002941792826451628 -0.0084630660142832517 0 -0.0084630660142832517 -0.24235354635691875 0 0 0 -0.060661931409890929 0.0050580744072607625 0.0052765061369584726 0 0.0052765061369584726 -0.23987646970452492 0 0 0 -0.058704598824316057 -0.0074212035524380687 -0.0013071644800200094 0 -0.0013071644800200094 -0.28062555512204312 0 0 0 -0.072011689668620329 -0.080371645772887523 0.024092834232119064 0 0.024092834232119064 -0.24159785787319421 0 0 0 -0.080492375911520433 -0.031909296830019918 0.027545810960867778 0 0.027545810960867778 -0.3073618877863481 0 0 0 -0.084817796154092004 -0.062090973140849395 0.0076192355606265203 0 0.0076192355606265203 -0.1862321252061058 0 0 0 -0.062080774586738795 -0.032626747639938614 0.0095673027597827434 0 0.0095673027597827434 -0.20345510556126783 0 0 0 -0.059020463300301612 -0.033029041349648132 0.0041024651767873135 0 0.0041024651767873135 -0.21384222271228448 0 0 0 -0.061717816015483158 -0.038212979205039577 -0.0080370779565598488 0 -0.0080370779565598488 -0.15097081714285415 0 0 0 -0.047295949086973432 -0.019595347579169864 0.00300136523672484 0 0.00300136523672484 -0.19975523075813131 0 0 0 -0.054837644584325301 -0.016393908847969964 -0.0012570652220511014 0 -0.0012570652220511014 -0.16747094816205307 0 0 0 -0.045966214252505765 -0.019578138303187054 0.0098013040641636989 0 0.0098013040641636989 -0.20861828035427199 0 0 0 -0.057049104664364747 -0.024400656197570536 0.0088190589674054798 0 0.0088190589674054798 -0.20974462555714546 0 0 0 -0.058536320438679013 -0.015110582866266153 0.0036781629725592679 0 0.0036781629725592679 -0.24649701248680922 0 0 0 -0.065401898838268913 0.01456677821968333 0.026240291373401392 0 0.026240291373401392 -0.19148868624425908 0 0 0 -0.04423047700614402 -0.089855121142790192 0.087071213600464104 0 0.087071213600464104 -0.36563293228041105 0 0 0 -0.11387201335580026 -0.13211408579808981 0.081721443063847043 0 0.081721443063847043 -0.15125683824232872 0 0 0 -0.07084273101010452 -0.061785029972821079 0.033379077552576963 0 0.033379077552576963 -0.214383045531229 0 0 0 -0.069042018876012509 -0.03798295196899637 0.010097593956505557 0 0.010097593956505557 -0.15330681345388419 0 0 0 -0.047822441355720113 -0.020119132661135464 0.017120677466078815 0 0.017120677466078815 -0.18589648426692496 0 0 0 -0.051503904232015091 -0.022165505300283696 0.0028446981487363077 0 0.0028446981487363077 -0.24328892236864341 0 0 0 -0.066363606917231727 -0.045736492684101515 0.0053883098196649271 0 0.0053883098196649271 -0.20719535626165908 0 0 0 -0.063232962236440149 -0.015156240894661333 -0.003590030817310963 0 -0.003590030817310963 -0.19669607394941302 0 0 0 -0.05296307871101863 -0.022302112407244383 0.01046912201803428 0 0.01046912201803428 -0.24938254013189759 0 0 0 -0.067921163134785495 -0.0096324692184306393 0.0082570705736894068 0 0.0082570705736894068 -0.20647007558027441 0 0 0 -0.054025636199676264 
</DataArray>
</CellData>
</Piece>
</UnstructuredGrid>
</VTKFile>
