<?xml version="1.0"?>
<VTKFile type="UnstructuredGrid" version="0.1" byte_order="LittleEndian">
<UnstructuredGrid>
<Piece NumberOfPoints="880" NumberOfCells="299">
<Points>
<DataArray type="Float64" NumberOfComponents="3" format="ascii">
-0 0 0 0.18653882694645291 0.22249173546702489 0 0 0.25000000000104189 0 -0 0 0 0.18653882694645291 0.22249173546702489 0 0.24999999999941089 0 0 0.24999999999941089 0 0 0.35015135319464608 0.1900339269648805 0 0.49999999999869182 0 0 0.18653882694645291 0.22249173546702489 0 0.24999999999941089 0 0 0.35015135319464608 0.1900339269648805 0 0.35015135319464608 0.1900339269648805 0 0.49924741621175961 0.21507969613896921 0 0.49999999999869182 0 0 0.35015135319464608 0.1900339269648805 0 0.49924741621175961 0.21507969613896921 0 0.40587285776242238 0.32419148732968017 0 0.37764981543668408 0.41341486499350411 0 0.41576443813007791 0.48093483781626972 0 0.45418244162583959 0.41624787166862259 0 0.37764981543668408 0.41341486499350411 0 0.45418244162583959 0.41624787166862259 0 0.40587285776242238 0.32419148732968017 0 0.41576443813007791 0.48093483781626972 0 0.46566719828045178 0.47702825415921918 0 0.45418244162583959 0.41624787166862259 0 0.41576443813007791 0.48093483781626972 0 0.46566719828045178 0.47702825415921918 0 0.4638583922372429 0.51470588235294135 0 0.46566719828045178 0.47702825415921918 0 0.49954900152271581 0.45107191084564019 0 0.5 0.5 0 0.46566719828045178 0.47702825415921918 0 0.4638583922372429 0.51470588235294135 0 0.5 0.5 0 0.46566719828045178 0.47702825415921918 0 0.49954900152271581 0.45107191084564019 0 0.45418244162583959 0.41624787166862259 0 0.45418244162583959 0.41624787166862259 0 0.49435464945626773 0.33318442629318029 0 0.54876010062294855 0.39662628167175101 0 0.45418244162583959 0.41624787166862259 0 0.49435464945626773 0.33318442629318029 0 0.40587285776242238 0.32419148732968017 0 0.49924741621175961 0.21507969613896921 0 0.49435464945626773 0.33318442629318029 0 0.40587285776242238 0.32419148732968017 0 0.35015135319464608 0.1900339269648805 0 0.40587285776242238 0.32419148732968017 0 0.29145599617909779 0.35026601625021492 0 0.37764981543668408 0.41341486499350411 0 0.40587285776242238 0.32419148732968017 0 0.29145599617909779 0.35026601625021492 0 0.18653882694645291 0.22249173546702489 0 0.35015135319464608 0.1900339269648805 0 0.29145599617909779 0.35026601625021492 0 0.29145599617909779 0.35026601625021492 0 0.32540781287085369 0.49175159894608172 0 0.17872124008781709 0.39692711089439497 0 0.37764981543668408 0.41341486499350411 0 0.29145599617909779 0.35026601625021492 0 0.32540781287085369 0.49175159894608172 0 0.37764981543668408 0.41341486499350411 0 0.41576443813007791 0.48093483781626972 0 0.32540781287085369 0.49175159894608172 0 0.17872124008781709 0.39692711089439497 0 0 0.25000000000104189 0 0 0.50000000000206157 0 0.17872124008781709 0.39692711089439497 0 0 0.50000000000206157 0 0.22453074737734591 0.51613635929252633 0 0.32540781287085369 0.49175159894608172 0 0.17872124008781709 0.39692711089439497 0 0.22453074737734591 0.51613635929252633 0 0.18653882694645291 0.22249173546702489 0 0.29145599617909779 0.35026601625021492 0 0.17872124008781709 0.39692711089439497 0 0.18653882694645291 0.22249173546702489 0 0.17872124008781709 0.39692711089439497 0 0 0.25000000000104189 0 0 0.50000000000206157 0 0.18442368612951149 0.62734948407416979 0 0 0.75000000000034772 0 0.18442368612951149 0.62734948407416979 0 0.22727208279115291 0.72949159435386135 0 0 0.75000000000034772 0 0.18442368612951149 0.62734948407416979 0 0.22727208279115291 0.72949159435386135 0 0.31346558946927339 0.67110784456164874 0 0.18442368612951149 0.62734948407416979 0 0.22453074737734591 0.51613635929252633 0 0.31771010312359771 0.58585679504088894 0 0 0.50000000000206157 0 0.18442368612951149 0.62734948407416979 0 0.22453074737734591 0.51613635929252633 0 0 1 0 0.096516139048187316 0.89789944498939644 0 0 0.75000000000034772 0 0 1 0 0.096516139048187316 0.89789944498939644 0 0.1596341872805197 1 0 0.096516139048187316 0.89789944498939644 0 0 0.75000000000034772 0 0.1644705180525495 0.8200994301041713 0 0.1644705180525495 0.8200994301041713 0 0.2386314078659193 0.92924778694987087 0 0.27155609766735261 0.80398965554903801 0 0.22727208279115291 0.72949159435386135 0 0 0.75000000000034772 0 0.1644705180525495 0.8200994301041713 0 0.22727208279115291 0.72949159435386135 0 0.1644705180525495 0.8200994301041713 0 0.27155609766735261 0.80398965554903801 0 0.096516139048187316 0.89789944498939644 0 0.1644705180525495 0.8200994301041713 0 0.2386314078659193 0.92924778694987087 0 0.096516139048187316 0.89789944498939644 0 0.2386314078659193 0.92924778694987087 0 0.1596341872805197 1 0 0.2386314078659193 0.92924778694987087 0 0.1596341872805197 1 0 0.27591592301363282 1 0 0.36061858902161292 1 0 0.32789203369730929 0.94219211037003092 0 0.27591592301363282 1 0 0.36061858902161292 1 0 0.32789203369730929 0.94219211037003092 0 0.39382242252278338 0.95440420122950598 0 0.2386314078659193 0.92924778694987087 0 0.32789203369730929 0.94219211037003092 0 0.27591592301363282 1 0 0.2386314078659193 0.92924778694987087 0 0.32789203369730929 0.94219211037003092 0 0.31834856208730472 0.88134829947972904 0 0.32789203369730929 0.94219211037003092 0 0.37746652222901839 0.8987532801416368 0 0.39382242252278338 0.95440420122950598 0 0.32789203369730929 0.94219211037003092 0 0.31834856208730472 0.88134829947972904 0 0.37746652222901839 0.8987532801416368 0 0.2386314078659193 0.92924778694987087 0 0.31834856208730472 0.88134829947972904 0 0.27155609766735261 0.80398965554903801 0 0.31834856208730472 0.88134829947972904 0 0.36493375430404612 0.82333914183704071 0 0.37746652222901839 0.8987532801416368 0 0.31834856208730472 0.88134829947972904 0 0.36493375430404612 0.82333914183704071 0 0.27155609766735261 0.80398965554903801 0 0.22727208279115291 0.72949159435386135 0 0.27155609766735261 0.80398965554903801 0 0.32984265945580837 0.74432890077789404 0 0.36493375430404612 0.82333914183704071 0 0.27155609766735261 0.80398965554903801 0 0.32984265945580837 0.74432890077789404 0 0.36493375430404612 0.82333914183704071 0 0.39746869305290999 0.7595658224757349 0 0.32984265945580837 0.74432890077789404 0 0.36493375430404612 0.82333914183704071 0 0.39746869305290999 0.7595658224757349 0 0.42893012659725649 0.81084715169569632 0 0.39746869305290999 0.7595658224757349 0 0.42893012659725649 0.81084715169569632 0 0.44651949253391748 0.77225997208621999 0 0.39746869305290999 0.7595658224757349 0 0.44651949253391748 0.77225997208621999 0 0.43412357948152142 0.72128778687215156 0 0.44651949253391748 0.77225997208621999 0 0.47786860714145291 0.77730227330627721 0 0.47220206448452873 0.74892462649306213 0 0.47786860714145291 0.77730227330627721 0 0.47220206448452873 0.74892462649306213 0 0.5 0.76470588235294124 0 0.47786860714145291 0.77730227330627721 0 0.5 0.79411764705882359 0 0.5 0.76470588235294124 0 0.47062147868881782 0.80650323854033878 0 0.5 0.82352941176470584 0 0.5 0.79411764705882359 0 0.47786860714145291 0.77730227330627721 0 0.47062147868881782 0.80650323854033878 0 0.5 0.79411764705882359 0 0.44651949253391748 0.77225997208621999 0 0.47786860714145291 0.77730227330627721 0 0.47062147868881782 0.80650323854033878 0 0.42893012659725649 0.81084715169569632 0 0.44651949253391748 0.77225997208621999 0 0.47062147868881782 0.80650323854033878 0 0.42893012659725649 0.81084715169569632 0 0.47062147868881782 0.80650323854033878 0 0.46181179062043481 0.83858979842637782 0 0.42893012659725649 0.81084715169569632 0 0.46181179062043481 0.83858979842637782 0 0.42880856207355889 0.86677159981903118 0 0.46181179062043481 0.83858979842637782 0 0.5 0.85294117647058831 0 0.5 0.82352941176470584 0 0.47062147868881782 0.80650323854033878 0 0.46181179062043481 0.83858979842637782 0 0.5 0.82352941176470584 0 0.46181179062043481 0.83858979842637782 0 0.47032448519202857 0.86718057681700655 0 0.5 0.85294117647058831 0 0.47032448519202857 0.86718057681700655 0 0.5 0.88235294117647056 0 0.5 0.85294117647058831 0 0.46181179062043481 0.83858979842637782 0 0.47032448519202857 0.86718057681700655 0 0.42880856207355889 0.86677159981903118 0 0.36493375430404612 0.82333914183704071 0 0.42880856207355889 0.86677159981903118 0 0.37746652222901839 0.8987532801416368 0 0.36493375430404612 0.82333914183704071 0 0.42893012659725649 0.81084715169569632 0 0.42880856207355889 0.86677159981903118 0 0.37746652222901839 0.8987532801416368 0 0.42822627495986648 0.92083108049218854 0 0.39382242252278338 0.95440420122950598 0 0.42880856207355889 0.86677159981903118 0 0.37746652222901839 0.8987532801416368 0 0.42822627495986648 0.92083108049218854 0 0.47032448519202857 0.86718057681700655 0 0.42880856207355889 0.86677159981903118 0 0.46100207326614928 0.89524736819256467 0 0.42880856207355889 0.86677159981903118 0 0.42822627495986648 0.92083108049218854 0 0.46100207326614928 0.89524736819256467 0 0.47032448519202857 0.86718057681700655 0 0.46100207326614928 0.89524736819256467 0 0.5 0.88235294117647056 0 0.46100207326614928 0.89524736819256467 0 0.5 0.91176470588235292 0 0.5 0.88235294117647056 0 0.46100207326614928 0.89524736819256467 0 0.46949408183482899 0.92833826413560594 0 0.5 0.91176470588235292 0 0.46949408183482899 0.92833826413560594 0 0.5 0.94117647058823528 0 0.5 0.91176470588235292 0 0.42822627495986648 0.92083108049218854 0 0.46100207326614928 0.89524736819256467 0 0.46949408183482899 0.92833826413560594 0 0.46949408183482899 0.92833826413560594 0 0.44768478605684647 0.9646709673379662 0 0.47596308696979028 0.95620709615192379 0 0.42822627495986648 0.92083108049218854 0 0.46949408183482899 0.92833826413560594 0 0.44768478605684647 0.9646709673379662 0 0.44768478605684647 0.9646709673379662 0 0.47596308696979028 0.95620709615192379 0 0.47818194888216242 0.97829325975680159 0 0.46949408183482899 0.92833826413560594 0 0.47596308696979028 0.95620709615192379 0 0.5 0.94117647058823528 0 0.47596308696979028 0.95620709615192379 0 0.47818194888216242 0.97829325975680159 0 0.5 0.97058823529411764 0 0.47596308696979028 0.95620709615192379 0 0.5 0.97058823529411764 0 0.5 0.94117647058823528 0 0.47818194888216242 0.97829325975680159 0 0.46726187138417491 1 0 0.5 1 0 0.47818194888216242 0.97829325975680159 0 0.5 0.97058823529411764 0 0.5 1 0 0.44768478605684647 0.9646709673379662 0 0.47818194888216242 0.97829325975680159 0 0.46726187138417491 1 0 0.44768478605684647 0.9646709673379662 0 0.46726187138417491 1 0 0.42231823435723009 1 0 0.44768478605684647 0.9646709673379662 0 0.42231823435723009 1 0 0.39382242252278338 0.95440420122950598 0 0.42822627495986648 0.92083108049218854 0 0.44768478605684647 0.9646709673379662 0 0.39382242252278338 0.95440420122950598 0 0.36061858902161292 1 0 0.42231823435723009 1 0 0.39382242252278338 0.95440420122950598 0 0.31771010312359771 0.58585679504088894 0 0.3872154068451229 0.6301386882447304 0 0.41980724897053312 0.55867199730355355 0 0.32540781287085369 0.49175159894608172 0 0.31771010312359771 0.58585679504088894 0 0.41980724897053312 0.55867199730355355 0 0.32540781287085369 0.49175159894608172 0 0.22453074737734591 0.51613635929252633 0 0.31771010312359771 0.58585679504088894 0 0.18442368612951149 0.62734948407416979 0 0.31771010312359771 0.58585679504088894 0 0.31346558946927339 0.67110784456164874 0 0.22727208279115291 0.72949159435386135 0 0.32984265945580837 0.74432890077789404 0 0.31346558946927339 0.67110784456164874 0 0.39746869305290999 0.7595658224757349 0 0.32984265945580837 0.74432890077789404 0 0.38513711431054509 0.69312683393047636 0 0.32984265945580837 0.74432890077789404 0 0.31346558946927339 0.67110784456164874 0 0.38513711431054509 0.69312683393047636 0 0.31771010312359771 0.58585679504088894 0 0.31346558946927339 0.67110784456164874 0 0.3872154068451229 0.6301386882447304 0 0.31346558946927339 0.67110784456164874 0 0.3872154068451229 0.6301386882447304 0 0.38513711431054509 0.69312683393047636 0 0.3872154068451229 0.6301386882447304 0 0.38513711431054509 0.69312683393047636 0 0.4390556798454946 0.66199025953586599 0 0.3872154068451229 0.6301386882447304 0 0.4390556798454946 0.66199025953586599 0 0.44702869549010399 0.61002701911053991 0 0.39746869305290999 0.7595658224757349 0 0.38513711431054509 0.69312683393047636 0 0.43412357948152142 0.72128778687215156 0 0.38513711431054509 0.69312683393047636 0 0.43412357948152142 0.72128778687215156 0 0.4390556798454946 0.66199025953586599 0 0.43412357948152142 0.72128778687215156 0 0.47636314644728822 0.72058823529411908 0 0.47220206448452873 0.74892462649306213 0 0.44651949253391748 0.77225997208621999 0 0.43412357948152142 0.72128778687215156 0 0.47220206448452873 0.74892462649306213 0 0.43412357948152142 0.72128778687215156 0 0.46330219403010409 0.69594601192744354 0 0.4390556798454946 0.66199025953586599 0 0.43412357948152142 0.72128778687215156 0 0.46330219403010409 0.69594601192744354 0 0.47636314644728822 0.72058823529411908 0 0.46330219403010409 0.69594601192744354 0 0.47636314644728822 0.72058823529411908 0 0.5 0.70588235294117663 0 0.46330219403010409 0.69594601192744354 0 0.5 0.67647058823529438 0 0.5 0.70588235294117663 0 0.47636314644728822 0.72058823529411908 0 0.5 0.73529411764705888 0 0.5 0.70588235294117663 0 0.47220206448452873 0.74892462649306213 0 0.5 0.73529411764705888 0 0.5 0.76470588235294124 0 0.47636314644728822 0.72058823529411908 0 0.47220206448452873 0.74892462649306213 0 0.5 0.73529411764705888 0 0.4390556798454946 0.66199025953586599 0 0.47501372853621993 0.66300743809067952 0 0.47271076880550111 0.63357150722538136 0 0.4390556798454946 0.66199025953586599 0 0.47271076880550111 0.63357150722538136 0 0.44702869549010399 0.61002701911053991 0 0.46330219403010409 0.69594601192744354 0 0.4390556798454946 0.66199025953586599 0 0.47501372853621993 0.66300743809067952 0 0.46330219403010409 0.69594601192744354 0 0.47501372853621993 0.66300743809067952 0 0.5 0.67647058823529438 0 0.47501372853621993 0.66300743809067952 0 0.5 0.64705882352941191 0 0.5 0.67647058823529438 0 0.47501372853621993 0.66300743809067952 0 0.47271076880550111 0.63357150722538136 0 0.5 0.64705882352941191 0 0.47271076880550111 0.63357150722538136 0 0.5 0.61764705882352966 0 0.5 0.64705882352941191 0 0.47784843225772261 0.60532339797118362 0 0.5 0.5882352941176473 0 0.5 0.61764705882352966 0 0.47271076880550111 0.63357150722538136 0 0.47784843225772261 0.60532339797118362 0 0.5 0.61764705882352966 0 0.46950269699300751 0.57713611057881953 0 0.5 0.55882352941176494 0 0.5 0.5882352941176473 0 0.47784843225772261 0.60532339797118362 0 0.46950269699300751 0.57713611057881953 0 0.5 0.5882352941176473 0 0.46950269699300751 0.57713611057881953 0 0.44702869549010399 0.61002701911053991 0 0.41980724897053312 0.55867199730355355 0 0.47784843225772261 0.60532339797118362 0 0.46950269699300751 0.57713611057881953 0 0.44702869549010399 0.61002701911053991 0 0.47271076880550111 0.63357150722538136 0 0.47784843225772261 0.60532339797118362 0 0.44702869549010399 0.61002701911053991 0 0.3872154068451229 0.6301386882447304 0 0.44702869549010399 0.61002701911053991 0 0.41980724897053312 0.55867199730355355 0 0.41576443813007791 0.48093483781626972 0 0.32540781287085369 0.49175159894608172 0 0.41980724897053312 0.55867199730355355 0 0.41576443813007791 0.48093483781626972 0 0.41980724897053312 0.55867199730355355 0 0.4638583922372429 0.51470588235294135 0 0.41980724897053312 0.55867199730355355 0 0.4638583922372429 0.51470588235294135 0 0.47063366764015668 0.5477498568705923 0 0.46950269699300751 0.57713611057881953 0 0.41980724897053312 0.55867199730355355 0 0.47063366764015668 0.5477498568705923 0 0.46950269699300751 0.57713611057881953 0 0.47063366764015668 0.5477498568705923 0 0.5 0.55882352941176494 0 0.47063366764015668 0.5477498568705923 0 0.5 0.52941176470588269 0 0.5 0.55882352941176494 0 0.4638583922372429 0.51470588235294135 0 0.47063366764015668 0.5477498568705923 0 0.5 0.52941176470588269 0 0.4638583922372429 0.51470588235294135 0 0.5 0.5 0 0.5 0.52941176470588269 0 0.5 0.52941176470588269 0 0.52629893369322589 0.51330452493555312 0 0.52820848765230954 0.54540076010342464 0 0.5 0.5 0 0.5 0.52941176470588269 0 0.52629893369322589 0.51330452493555312 0 0.5 0.5 0 0.5 0.52941176470588269 0 0.5 0.52941176470588269 0 0.5 0.55882352941176494 0 0.52820848765230954 0.54540076010342464 0 0.5 0.52941176470588269 0 0.5 0.55882352941176494 0 0.5 0.55882352941176494 0 0.52820848765230954 0.54540076010342464 0 0.52246722155046366 0.57417151085839346 0 0.52820848765230954 0.54540076010342464 0 0.56199650931215228 0.51957997397013023 0 0.55931585964581554 0.57571189932143541 0 0.52629893369322589 0.51330452493555312 0 0.56199650931215228 0.51957997397013023 0 0.54128967150166729 0.47213012589832831 0 0.52629893369322589 0.51330452493555312 0 0.52820848765230954 0.54540076010342464 0 0.56199650931215228 0.51957997397013023 0 0.56199650931215228 0.51957997397013023 0 0.61174067805461174 0.54148194547208961 0 0.60345082206666756 0.47575908627627911 0 0.56199650931215228 0.51957997397013023 0 0.61174067805461174 0.54148194547208961 0 0.55931585964581554 0.57571189932143541 0 0.61174067805461174 0.54148194547208961 0 0.61264973759093866 0.60999664295093947 0 0.55931585964581554 0.57571189932143541 0 0.61264973759093866 0.60999664295093947 0 0.55931585964581554 0.57571189932143541 0 0.55828304378107996 0.63546085023637511 0 0.55931585964581554 0.57571189932143541 0 0.52754891270107895 0.60396918438229519 0 0.55828304378107996 0.63546085023637511 0 0.52754891270107895 0.60396918438229519 0 0.52222323737415433 0.63323059203007803 0 0.55828304378107996 0.63546085023637511 0 0.52820848765230954 0.54540076010342464 0 0.55931585964581554 0.57571189932143541 0 0.52246722155046366 0.57417151085839346 0 0.55931585964581554 0.57571189932143541 0 0.52246722155046366 0.57417151085839346 0 0.52754891270107895 0.60396918438229519 0 0.52246722155046366 0.57417151085839346 0 0.5 0.5882352941176473 0 0.52754891270107895 0.60396918438229519 0 0.5 0.55882352941176494 0 0.52246722155046366 0.57417151085839346 0 0.5 0.5882352941176473 0 0.5 0.55882352941176494 0 0.5 0.5882352941176473 0 0.52754891270107895 0.60396918438229519 0 0.5 0.61764705882352966 0 0.52222323737415433 0.63323059203007803 0 0.5 0.5882352941176473 0 0.5 0.61764705882352966 0 0.5 0.5882352941176473 0 0.52754891270107895 0.60396918438229519 0 0.5 0.61764705882352966 0 0.5 0.61764705882352966 0 0.52222323737415433 0.63323059203007803 0 0.5 0.64705882352941191 0 0.5 0.61764705882352966 0 0.5 0.64705882352941191 0 0.52222323737415433 0.63323059203007803 0 0.5 0.64705882352941191 0 0.52736180768426655 0.66304505109048573 0 0.5 0.64705882352941191 0 0.5 0.67647058823529438 0 0.52736180768426655 0.66304505109048573 0 0.5 0.64705882352941191 0 0.5 0.67647058823529438 0 0.5 0.67647058823529438 0 0.52736180768426655 0.66304505109048573 0 0.52189318962165776 0.69193883095305098 0 0.52736180768426655 0.66304505109048573 0 0.52189318962165776 0.69193883095305098 0 0.55852327729743823 0.69498827241231187 0 0.52736180768426655 0.66304505109048573 0 0.55828304378107996 0.63546085023637511 0 0.55852327729743823 0.69498827241231187 0 0.52222323737415433 0.63323059203007803 0 0.52736180768426655 0.66304505109048573 0 0.55828304378107996 0.63546085023637511 0 0.5 0.73529411764705888 0 0.52547133540542634 0.72058823529411897 0 0.5211984712236245 0.75134107022269114 0 0.5 0.73529411764705888 0 0.52547133540542634 0.72058823529411897 0 0.5 0.70588235294117663 0 0.5 0.73529411764705888 0 0.5 0.70588235294117663 0 0.52547133540542634 0.72058823529411897 0 0.5 0.70588235294117663 0 0.52189318962165776 0.69193883095305098 0 0.5 0.67647058823529438 0 0.5 0.70588235294117663 0 0.52189318962165776 0.69193883095305098 0 0.5 0.67647058823529438 0 0.5 0.70588235294117663 0 0.52547133540542634 0.72058823529411897 0 0.52189318962165776 0.69193883095305098 0 0.55852327729743823 0.69498827241231187 0 0.52547133540542634 0.72058823529411897 0 0.5211984712236245 0.75134107022269114 0 0.55458114032207428 0.75544804615062711 0 0.52547133540542634 0.72058823529411897 0 0.55852327729743823 0.69498827241231187 0 0.55458114032207428 0.75544804615062711 0 0.55852327729743823 0.69498827241231187 0 0.6088970477846376 0.72715446211577472 0 0.55458114032207428 0.75544804615062711 0 0.55852327729743823 0.69498827241231187 0 0.6088970477846376 0.72715446211577472 0 0.60110770968787908 0.67045598539422102 0 0.61264973759093866 0.60999664295093947 0 0.55828304378107996 0.63546085023637511 0 0.60110770968787908 0.67045598539422102 0 0.55828304378107996 0.63546085023637511 0 0.55852327729743823 0.69498827241231187 0 0.60110770968787908 0.67045598539422102 0 0.61264973759093866 0.60999664295093947 0 0.60110770968787908 0.67045598539422102 0 0.66621429167335955 0.68470300534742679 0 0.6088970477846376 0.72715446211577472 0 0.66621429167335955 0.68470300534742679 0 0.6817340940367822 0.76923101696744944 0 0.6088970477846376 0.72715446211577472 0 0.60110770968787908 0.67045598539422102 0 0.66621429167335955 0.68470300534742679 0 0.66621429167335955 0.68470300534742679 0 0.6817340940367822 0.76923101696744944 0 0.7828103453665094 0.69876044407634474 0 0.66621429167335955 0.68470300534742679 0 0.69354174170208815 0.57892485983477626 0 0.7828103453665094 0.69876044407634474 0 0.69354174170208815 0.57892485983477626 0 0.77935529174931761 0.49004815756283893 0 0.66681557370681976 0.49435464945626773 0 0.61174067805461174 0.54148194547208961 0 0.69354174170208815 0.57892485983477626 0 0.66681557370681976 0.49435464945626773 0 0.61174067805461174 0.54148194547208961 0 0.60345082206666756 0.47575908627627911 0 0.66681557370681976 0.49435464945626773 0 0.61174067805461174 0.54148194547208961 0 0.61264973759093866 0.60999664295093947 0 0.69354174170208815 0.57892485983477626 0 0.61264973759093866 0.60999664295093947 0 0.66621429167335955 0.68470300534742679 0 0.69354174170208815 0.57892485983477626 0 0.60145933092659498 0.94808652648958736 0 0.57768176564240026 1 0 0.63938141097836054 1 0 0.60145933092659498 0.94808652648958736 0 0.55381003699196441 0.97073734537240042 0 0.55652711631508067 0.93435010280744335 0 0.60145933092659498 0.94808652648958736 0 0.57768176564240026 1 0 0.55381003699196441 0.97073734537240042 0 0.57768176564240026 1 0 0.53273812861558045 1 0 0.55381003699196441 0.97073734537240042 0 0.53273812861558045 1 0 0.55381003699196441 0.97073734537240042 0 0.52191028766292435 0.97912620202886635 0 0.53273812861558045 1 0 0.52191028766292435 0.97912620202886635 0 0.5 1 0 0.52191028766292435 0.97912620202886635 0 0.5 0.97058823529411764 0 0.5 1 0 0.5 0.97058823529411764 0 0.5 1 0 0.5 0.97058823529411764 0 0.5 0.94117647058823528 0 0.5 0.97058823529411764 0 0.5 0.94117647058823528 0 0.52554900427979434 0.95492408164812537 0 0.52191028766292435 0.97912620202886635 0 0.5 0.97058823529411764 0 0.52554900427979434 0.95492408164812537 0 0.5 0.94117647058823528 0 0.52554900427979434 0.95492408164812537 0 0.52149395742518578 0.9280464911497236 0 0.55381003699196441 0.97073734537240042 0 0.52554900427979434 0.95492408164812537 0 0.55652711631508067 0.93435010280744335 0 0.55381003699196441 0.97073734537240042 0 0.52191028766292435 0.97912620202886635 0 0.52554900427979434 0.95492408164812537 0 0.52554900427979434 0.95492408164812537 0 0.55652711631508067 0.93435010280744335 0 0.52149395742518578 0.9280464911497236 0 0.55652711631508067 0.93435010280744335 0 0.52982914238326484 0.89727189043838895 0 0.57507719038536997 0.89743529736491356 0 0.55652711631508067 0.93435010280744335 0 0.52149395742518578 0.9280464911497236 0 0.52982914238326484 0.89727189043838895 0 0.52149395742518578 0.9280464911497236 0 0.5 0.91176470588235292 0 0.52982914238326484 0.89727189043838895 0 0.5 0.94117647058823528 0 0.5 0.91176470588235292 0 0.5 0.94117647058823528 0 0.52149395742518578 0.9280464911497236 0 0.5 0.91176470588235292 0 0.5 0.91176470588235292 0 0.5 0.88235294117647056 0 0.52982914238326484 0.89727189043838895 0 0.5 0.91176470588235292 0 0.5 0.88235294117647056 0 0.5 0.88235294117647056 0 0.52982914238326484 0.89727189043838895 0 0.51991574276818808 0.86764705882352966 0 0.52982914238326484 0.89727189043838895 0 0.57507719038536997 0.89743529736491356 0 0.54799184932697576 0.8599032232094268 0 0.60145933092659498 0.94808652648958736 0 0.55652711631508067 0.93435010280744335 0 0.57507719038536997 0.89743529736491356 0 0.60145933092659498 0.94808652648958736 0 0.57507719038536997 0.89743529736491356 0 0.63427031498547037 0.88927276979110648 0 0.57507719038536997 0.89743529736491356 0 0.58994607995897996 0.84812355238296233 0 0.63427031498547037 0.88927276979110648 0 0.58994607995897996 0.84812355238296233 0 0.64153141236229239 0.83072478436463804 0 0.63427031498547037 0.88927276979110648 0 0.58994607995897996 0.84812355238296233 0 0.60049020024666178 0.78900583008989877 0 0.64153141236229239 0.83072478436463804 0 0.58994607995897996 0.84812355238296233 0 0.54799184932697576 0.8599032232094268 0 0.55206941203846505 0.81091931303809783 0 0.58994607995897996 0.84812355238296233 0 0.55206941203846505 0.81091931303809783 0 0.60049020024666178 0.78900583008989877 0 0.57507719038536997 0.89743529736491356 0 0.58994607995897996 0.84812355238296233 0 0.54799184932697576 0.8599032232094268 0 0.52982914238326484 0.89727189043838895 0 0.54799184932697576 0.8599032232094268 0 0.51991574276818808 0.86764705882352966 0 0.54799184932697576 0.8599032232094268 0 0.51991574276818808 0.86764705882352966 0 0.52395085592512047 0.83729395211968571 0 0.51991574276818808 0.86764705882352966 0 0.5 0.85294117647058831 0 0.52395085592512047 0.83729395211968571 0 0.5 0.88235294117647056 0 0.5 0.85294117647058831 0 0.5 0.88235294117647056 0 0.51991574276818808 0.86764705882352966 0 0.5 0.85294117647058831 0 0.5 0.82352941176470584 0 0.52395085592512047 0.83729395211968571 0 0.52039202967084142 0.80930587873000437 0 0.5 0.85294117647058831 0 0.5 0.82352941176470584 0 0.5 0.85294117647058831 0 0.5 0.82352941176470584 0 0.52395085592512047 0.83729395211968571 0 0.52395085592512047 0.83729395211968571 0 0.55206941203846505 0.81091931303809783 0 0.52039202967084142 0.80930587873000437 0 0.54799184932697576 0.8599032232094268 0 0.52395085592512047 0.83729395211968571 0 0.55206941203846505 0.81091931303809783 0 0.55206941203846505 0.81091931303809783 0 0.52039202967084142 0.80930587873000437 0 0.52593988039062167 0.78066906966870908 0 0.55206941203846505 0.81091931303809783 0 0.52593988039062167 0.78066906966870908 0 0.55458114032207428 0.75544804615062711 0 0.52039202967084142 0.80930587873000437 0 0.5 0.79411764705882359 0 0.52593988039062167 0.78066906966870908 0 0.5 0.82352941176470584 0 0.5 0.79411764705882359 0 0.5 0.82352941176470584 0 0.52039202967084142 0.80930587873000437 0 0.5 0.79411764705882359 0 0.5 0.73529411764705888 0 0.5 0.76470588235294124 0 0.5 0.73529411764705888 0 0.5 0.76470588235294124 0 0.5211984712236245 0.75134107022269114 0 0.5 0.79411764705882359 0 0.5 0.76470588235294124 0 0.52593988039062167 0.78066906966870908 0 0.5 0.79411764705882359 0 0.5 0.76470588235294124 0 0.5 0.76470588235294124 0 0.52593988039062167 0.78066906966870908 0 0.5211984712236245 0.75134107022269114 0 0.52593988039062167 0.78066906966870908 0 0.5211984712236245 0.75134107022269114 0 0.55458114032207428 0.75544804615062711 0 0.6088970477846376 0.72715446211577472 0 0.55458114032207428 0.75544804615062711 0 0.60049020024666178 0.78900583008989877 0 0.55206941203846505 0.81091931303809783 0 0.55458114032207428 0.75544804615062711 0 0.60049020024666178 0.78900583008989877 0 0.6817340940367822 0.76923101696744944 0 0.70916369539323409 0.86041409043207073 0 0.80987878298654392 0.8110307373443908 0 0.6088970477846376 0.72715446211577472 0 0.60049020024666178 0.78900583008989877 0 0.6817340940367822 0.76923101696744944 0 0.60049020024666178 0.78900583008989877 0 0.6817340940367822 0.76923101696744944 0 0.64153141236229239 0.83072478436463804 0 0.70916369539323409 0.86041409043207073 0 0.64153141236229239 0.83072478436463804 0 0.63427031498547037 0.88927276979110648 0 0.6817340940367822 0.76923101696744944 0 0.70916369539323409 0.86041409043207073 0 0.64153141236229239 0.83072478436463804 0 0.70916369539323409 0.86041409043207073 0 0.68173274398262862 0.93660593960145366 0 0.63427031498547037 0.88927276979110648 0 0.60145933092659498 0.94808652648958736 0 0.68173274398262862 0.93660593960145366 0 0.63427031498547037 0.88927276979110648 0 0.70916369539323409 0.86041409043207073 0 0.68173274398262862 0.93660593960145366 0 0.78222494485339233 0.91531439423588867 0 0.68173274398262862 0.93660593960145366 0 0.72408407698689681 1 0 0.78222494485339233 0.91531439423588867 0 0.60145933092659498 0.94808652648958736 0 0.68173274398262862 0.93660593960145366 0 0.63938141097836054 1 0 0.68173274398262862 0.93660593960145366 0 0.72408407698689681 1 0 0.63938141097836054 1 0 1 1 0 0.89611933618281592 0.89173516444576184 0 1 0.74999999999934008 0 0.72408407698689681 1 0 0.84036581271988753 1 0 0.78222494485339233 0.91531439423588867 0 0.84036581271988753 1 0 0.78222494485339233 0.91531439423588867 0 0.89611933618281592 0.89173516444576184 0 0.6817340940367822 0.76923101696744944 0 0.80987878298654392 0.8110307373443908 0 0.7828103453665094 0.69876044407634474 0 0.80987878298654392 0.8110307373443908 0 0.7828103453665094 0.69876044407634474 0 1 0.74999999999934008 0 0.78222494485339233 0.91531439423588867 0 0.80987878298654392 0.8110307373443908 0 0.89611933618281592 0.89173516444576184 0 0.70916369539323409 0.86041409043207073 0 0.78222494485339233 0.91531439423588867 0 0.80987878298654392 0.8110307373443908 0 0.80987878298654392 0.8110307373443908 0 0.89611933618281592 0.89173516444576184 0 1 0.74999999999934008 0 0.84036581271988753 1 0 1 1 0 0.89611933618281592 0.89173516444576184 0 0.84549316180028322 0.59867304496468476 0 1 0.74999999999934008 0 1 0.49999999999869182 0 0.69354174170208815 0.57892485983477626 0 0.84549316180028322 0.59867304496468476 0 0.77935529174931761 0.49004815756283893 0 0.84549316180028322 0.59867304496468476 0 1 0.49999999999869182 0 0.77935529174931761 0.49004815756283893 0 0.69354174170208815 0.57892485983477626 0 0.84549316180028322 0.59867304496468476 0 0.7828103453665094 0.69876044407634474 0 0.84549316180028322 0.59867304496468476 0 0.7828103453665094 0.69876044407634474 0 1 0.74999999999934008 0 1 0.49999999999869182 0 0.77935529174931761 0.49004815756283893 0 0.80451351819826811 0.35479918680564199 0 0.80451351819826811 0.35479918680564199 0 1 0.24999999999941089 0 0.79923457477009219 0.1751534052300894 0 1 0.49999999999869182 0 0.80451351819826811 0.35479918680564199 0 1 0.24999999999941089 0 1 0 0 0.79923457477009219 0.1751534052300894 0 0.74999999999934008 0 0 1 0.24999999999941089 0 1 0 0 0.79923457477009219 0.1751534052300894 0 0.49999999999869182 0 0 0.62537763927714929 0.14286513648320209 0 0.74999999999934008 0 0 0.79923457477009219 0.1751534052300894 0 0.62537763927714929 0.14286513648320209 0 0.6197279975813802 0.30020319976287241 0 0.79923457477009219 0.1751534052300894 0 0.62537763927714929 0.14286513648320209 0 0.74999999999934008 0 0 0.49924741621175961 0.21507969613896921 0 0.49999999999869182 0 0 0.62537763927714929 0.14286513648320209 0 0.49924741621175961 0.21507969613896921 0 0.62537763927714929 0.14286513648320209 0 0.6197279975813802 0.30020319976287241 0 0.49924741621175961 0.21507969613896921 0 0.49435464945626773 0.33318442629318029 0 0.6197279975813802 0.30020319976287241 0 0.49435464945626773 0.33318442629318029 0 0.6197279975813802 0.30020319976287241 0 0.54876010062294855 0.39662628167175101 0 0.6197279975813802 0.30020319976287241 0 0.54876010062294855 0.39662628167175101 0 0.66576775508844777 0.41353720431697111 0 0.49954900152271581 0.45107191084564019 0 0.45418244162583959 0.41624787166862259 0 0.54876010062294855 0.39662628167175101 0 0.49954900152271581 0.45107191084564019 0 0.54876010062294855 0.39662628167175101 0 0.54128967150166729 0.47213012589832831 0 0.49954900152271581 0.45107191084564019 0 0.5 0.5 0 0.54128967150166729 0.47213012589832831 0 0.5 0.5 0 0.52629893369322589 0.51330452493555312 0 0.54128967150166729 0.47213012589832831 0 0.54876010062294855 0.39662628167175101 0 0.54128967150166729 0.47213012589832831 0 0.60345082206666756 0.47575908627627911 0 0.56199650931215228 0.51957997397013023 0 0.54128967150166729 0.47213012589832831 0 0.60345082206666756 0.47575908627627911 0 0.54876010062294855 0.39662628167175101 0 0.60345082206666756 0.47575908627627911 0 0.66576775508844777 0.41353720431697111 0 0.77935529174931761 0.49004815756283893 0 0.80451351819826811 0.35479918680564199 0 0.66576775508844777 0.41353720431697111 0 0.60345082206666756 0.47575908627627911 0 0.66576775508844777 0.41353720431697111 0 0.66681557370681976 0.49435464945626773 0 0.77935529174931761 0.49004815756283893 0 0.66576775508844777 0.41353720431697111 0 0.66681557370681976 0.49435464945626773 0 0.80451351819826811 0.35479918680564199 0 0.79923457477009219 0.1751534052300894 0 0.6197279975813802 0.30020319976287241 0 0.80451351819826811 0.35479918680564199 0 0.6197279975813802 0.30020319976287241 0 0.66576775508844777 0.41353720431697111 0 
</DataArray>
</Points>
<Cells>
<DataArray type="UInt32" Name="connectivity" format="ascii">
0 1 2 3 4 5 6 7 8 9 10 11 12 13 14 15 16 17 18 19 20 21 22 23 24 25 26 27 28 29 30 31 32 33 34 35 36 37 38 39 40 41 42 43 44 45 46 47 48 49 50 51 52 53 54 55 56 57 58 59 60 61 62 63 64 65 66 67 68 69 70 71 72 73 74 75 76 77 78 79 80 81 82 83 84 85 86 87 88 89 90 91 92 93 94 95 96 97 98 99 100 101 102 103 104 105 106 107 108 109 110 111 112 113 114 115 116 117 118 119 120 121 122 123 124 125 126 127 128 129 130 131 132 133 134 135 136 137 138 139 140 141 142 143 144 145 146 147 148 149 150 151 152 153 154 155 156 157 158 159 160 161 162 163 164 165 166 167 168 169 170 171 172 173 174 175 176 177 178 179 180 181 182 183 184 185 186 187 188 189 190 191 192 193 194 195 196 197 198 199 200 201 202 203 204 205 206 207 208 209 210 211 212 213 214 215 216 217 218 219 220 221 222 223 224 225 226 227 228 229 230 231 232 233 234 235 236 237 238 239 240 241 242 243 244 245 246 247 248 249 250 251 252 253 254 255 256 257 258 259 260 261 262 263 264 265 266 267 268 269 270 271 272 273 274 275 276 277 278 279 280 281 282 283 284 285 286 287 288 289 290 291 292 293 294 295 296 297 298 299 300 301 302 303 304 305 306 307 308 309 310 311 312 313 314 315 316 317 318 319 320 321 322 323 324 325 326 327 328 329 330 331 332 333 334 335 336 337 338 339 340 341 342 343 344 345 346 347 348 349 350 351 352 353 354 355 356 357 358 359 360 361 362 363 364 365 366 367 368 369 370 371 372 373 374 375 376 377 378 379 380 381 382 383 384 385 386 387 388 389 390 391 392 393 394 395 396 397 398 399 400 401 402 403 404 405 406 407 408 409 410 411 412 413 414 415 416 417 418 419 420 421 422 423 424 425 426 427 428 429 430 431 432 433 434 435 436 437 438 439 440 441 442 443 444 445 446 447 448 449 450 451 452 453 454 455 456 457 458 459 460 461 462 463 464 465 466 467 468 469 470 471 472 473 474 475 476 477 478 479 480 481 482 483 484 485 486 487 488 489 490 491 492 493 494 495 496 497 498 499 500 501 502 503 504 505 506 507 508 509 510 511 512 513 514 515 516 517 518 519 520 521 522 523 524 525 526 527 528 529 530 531 532 533 534 535 536 537 538 539 540 541 542 543 544 545 546 547 548 549 550 551 552 553 554 555 556 557 558 559 560 561 562 563 564 565 566 567 568 569 570 571 572 573 574 575 576 577 578 579 580 581 582 583 584 585 586 587 588 589 590 591 592 593 594 595 596 597 598 599 600 601 602 603 604 605 606 607 608 609 610 611 612 613 614 615 616 617 618 619 620 621 622 623 624 625 626 627 628 629 630 631 632 633 634 635 636 637 638 639 640 641 642 643 644 645 646 647 648 649 650 651 652 653 654 655 656 657 658 659 660 661 662 663 664 665 666 667 668 669 670 671 672 673 674 675 676 677 678 679 680 681 682 683 684 685 686 687 688 689 690 691 692 693 694 695 696 697 698 699 700 701 702 703 704 705 706 707 708 709 710 711 712 713 714 715 716 717 718 719 720 721 722 723 724 725 726 727 728 729 730 731 732 733 734 735 736 737 738 739 740 741 742 743 744 745 746 747 748 749 750 751 752 753 754 755 756 757 758 759 760 761 762 763 764 765 766 767 768 769 770 771 772 773 774 775 776 777 778 779 780 781 782 783 784 785 786 787 788 789 790 791 792 793 794 795 796 797 798 799 800 801 802 803 804 805 806 807 808 809 810 811 812 813 814 815 816 817 818 819 820 821 822 823 824 825 826 827 828 829 830 831 832 833 834 835 836 837 838 839 840 841 842 843 844 845 846 847 848 849 850 851 852 853 854 855 856 857 858 859 860 861 862 863 864 865 866 867 868 869 870 871 872 873 874 875 876 877 878 879 
</DataArray>
<DataArray type="UInt32" Name="offsets" format="ascii">
3 6 9 12 15 18 21 24 27 30 33 36 39 42 45 48 51 54 57 60 63 66 69 72 75 78 81 84 87 90 93 96 99 102 105 108 111 114 117 120 123 126 129 132 135 138 141 144 147 150 153 156 159 162 165 168 171 174 177 180 183 186 189 192 195 198 201 204 207 210 213 216 219 222 225 228 231 234 237 240 243 246 249 252 255 258 261 264 267 270 273 276 279 282 285 288 291 294 297 300 303 306 309 312 315 318 321 324 327 330 333 336 339 342 345 348 351 354 357 360 363 366 369 372 375 378 381 384 387 390 393 396 399 402 405 408 411 414 417 420 423 425 428 430 433 436 439 442 445 448 451 454 457 460 463 466 469 472 474 477 479 482 485 487 490 493 495 498 501 504 507 510 513 515 518 521 523 526 529 532 535 538 541 544 547 550 553 556 559 562 565 568 571 574 577 580 583 586 589 592 595 597 599 602 605 608 611 614 617 620 623 626 628 631 634 636 639 642 645 648 651 654 657 660 663 666 669 672 675 677 680 683 685 688 691 694 697 700 703 705 708 710 713 716 718 721 724 727 730 733 736 739 742 745 748 751 754 757 760 763 766 769 772 775 778 781 784 787 790 793 796 799 802 805 808 811 814 817 820 823 826 829 832 835 838 841 844 847 850 853 856 859 862 865 868 871 874 877 880 
</DataArray>
<DataArray type="UInt32" Name="types" format="ascii">
5 5 5 5 5 5 5 5 5 5 5 5 5 5 5 5 5 5 5 5 5 5 5 5 5 5 5 5 5 5 5 5 5 5 5 5 5 5 5 5 5 5 5 5 5 5 5 5 5 5 5 5 5 5 5 5 5 5 5 5 5 5 5 5 5 5 5 5 5 5 5 5 5 5 5 5 5 5 5 5 5 5 5 5 5 5 5 5 5 5 5 5 5 5 5 5 5 5 5 5 5 5 5 5 5 5 5 5 5 5 5 5 5 5 5 5 5 5 5 5 5 5 5 5 5 5 5 5 5 5 5 5 5 5 5 5 5 5 5 5 5 3 5 3 5 5 5 5 5 5 5 5 5 5 5 5 5 5 3 5 3 5 5 3 5 5 3 5 5 5 5 5 5 3 5 5 3 5 5 5 5 5 5 5 5 5 5 5 5 5 5 5 5 5 5 5 5 5 5 5 5 3 3 5 5 5 5 5 5 5 5 5 3 5 5 3 5 5 5 5 5 5 5 5 5 5 5 5 5 3 5 5 3 5 5 5 5 5 5 3 5 3 5 5 3 5 5 5 5 5 5 5 5 5 5 5 5 5 5 5 5 5 5 5 5 5 5 5 5 5 5 5 5 5 5 5 5 5 5 5 5 5 5 5 5 5 5 5 5 5 5 5 5 5 5 5 5 5 5 
</DataArray>
</Cells>
<PointData Scalars="" Vectors="displacement," Tensors="">
<DataArray type="Float64" Name="displacement" NumberOfComponents="3" format="ascii">
5.6010374936749766e-05 2.7258738751600155e-05 0 0.030935619866848996 0.0076512684204897491 0 3.5039748390774511e-05 -3.5200176228117777e-06 0 5.6010374936749766e-05 2.7258738751600155e-05 0 0.030935619866848993 0.0076512684204897465 0 0.049196351455081153 0.02321297339966033 0 0.049196351455081153 0.02321297339966033 0 0.06249446684348807 0.014932933482603579 0 0.094388777194652496 0.029298275702104137 0 0.030935619866848996 0.0076512684204897491 0 0.049196351455081153 0.02321297339966033 0 0.06249446684348807 0.014932933482603579 0 0.06249446684348807 0.014932933482603579 0 0.090258648993027962 0.015666549169195562 0 0.094388777194652496 0.029298275702104137 0 0.06249446684348807 0.014932933482603579 0 0.090258648993027962 0.015666549169195562 0 0.070732758263320594 0.0077730195041916441 0 0.064515594705394835 0.0027640197253351729 0 0.071677576005151525 -0.0011170987855160977 0 0.078833891515308521 0.0017328095529503121 0 0.064515594705394835 0.0027640197253351729 0 0.078833891515308521 0.0017328095529503121 0 0.070732758263320594 0.0077730195041916441 0 0.071677576005151525 -0.0011170987855160977 0 0.080782774334753601 -0.0025995909520573983 0 0.078833891515308521 0.0017328095529503121 0 0.071677576005151525 -0.0011170987855160977 0 0.080782774334753615 -0.0025995909520573979 0 0.081101645631713112 -0.0045929228862284293 0 0.080782774334753615 -0.0025995909520573979 0 0.087746088495859242 -0.0013334580158836967 0 0.087718803182349092 -0.007708962751684598 0 0.080782774334753615 -0.0025995909520573979 0 0.081101645631713112 -0.0045929228862284285 0 0.087718803182349092 -0.007708962751684598 0 0.080782774334753615 -0.0025995909520573979 0 0.087746088495859242 -0.0013334580158836967 0 0.078833891515308521 0.0017328095529503121 0 0.078833891515308521 0.0017328095529503121 0 0.087705995763648806 0.0078212033453685832 0 0.097750807070213871 0.0039936924738583979 0 0.078833891515308521 0.0017328095529503121 0 0.087705995763648806 0.0078212033453685832 0 0.070732758263320594 0.0077730195041916441 0 0.090258648993027962 0.015666549169195562 0 0.087705995763648806 0.0078212033453685832 0 0.070732758263320594 0.0077730195041916441 0 0.06249446684348807 0.014932933482603579 0 0.070732758263320594 0.0077730195041916441 0 0.048903423596432322 0.0052340231709719631 0 0.064515594705394835 0.0027640197253351729 0 0.070732758263320594 0.0077730195041916441 0 0.048903423596432322 0.0052340231709719631 0 0.030935619866848996 0.0076512684204897491 0 0.06249446684348807 0.014932933482603579 0 0.048903423596432322 0.0052340231709719631 0 0.048903423596432322 0.0052340231709719631 0 0.055318843805474326 -0.00016571732727596055 0 0.028882841987279678 0.0025998344491401666 0 0.064515594705394835 0.0027640197253351729 0 0.048903423596432322 0.0052340231709719631 0 0.055318843805474326 -0.00016571732727596055 0 0.064515594705394835 0.0027640197253351729 0 0.071677576005151525 -0.0011170987855160979 0 0.055318843805474326 -0.00016571732727596055 0 0.028882841987279678 0.0025998344491401666 0 3.5039748390774511e-05 -3.5200176228117777e-06 0 4.1082711559649314e-05 1.7999073184268169e-06 0 0.028882841987279678 0.0025998344491401666 0 4.1082711559649314e-05 1.7999073184268169e-06 0 0.037743998020939307 -0.00062831839929096357 0 0.055318843805474326 -0.00016571732727596055 0 0.028882841987279678 0.0025998344491401666 0 0.037743998020939307 -0.00062831839929096357 0 0.030935619866848996 0.0076512684204897491 0 0.048903423596432322 0.0052340231709719631 0 0.028882841987279678 0.0025998344491401666 0 0.030935619866848996 0.0076512684204897491 0 0.028882841987279678 0.0025998344491401666 0 3.5039748390774511e-05 -3.5200176228117777e-06 0 4.1082711559649314e-05 1.7999073184268169e-06 0 0.030448994162374413 -0.0034461574061541078 0 3.562289119011337e-05 -2.1685621913444985e-06 0 0.030448994162374413 -0.0034461574061541078 0 0.039083140439938678 -0.0078765033958868944 0 3.562289119011337e-05 -2.1685621913444985e-06 0 0.030448994162374413 -0.0034461574061541078 0 0.039083140439938678 -0.0078765033958868944 0 0.054570708518287298 -0.0070912646954162436 0 0.030448994162374413 -0.0034461574061541078 0 0.037743998020939307 -0.00062831839929096357 0 0.054693320843162793 -0.0038017934168618124 0 4.1082711559649314e-05 1.7999073184268169e-06 0 0.03044899416237442 -0.0034461574061541065 0 0.037743998020939307 -0.00062831839929096357 0 5.3832256115552244e-05 -1.9481393760147032e-05 0 0.015969252480020114 -0.0073383485332311907 0 3.562289119011337e-05 -2.1685621913444985e-06 0 5.3832256115552244e-05 -1.9481393760147032e-05 0 0.015969252480020114 -0.0073383485332311916 0 0.032050710597243917 -0.01824928838075195 0 0.015969252480020114 -0.0073383485332311907 0 3.562289119011337e-05 -2.1685621913444985e-06 0 0.028031937929947147 -0.0083739111008213404 0 0.028031937929947147 -0.0083739111008213404 0 0.043454490580427683 -0.018195971831163622 0 0.047849552687555946 -0.012374792277880273 0 0.039083140439938678 -0.0078765033958868944 0 3.5622891190110056e-05 -2.1685621913425088e-06 0 0.028031937929947147 -0.0083739111008213404 0 0.039083140439938678 -0.0078765033958868944 0 0.028031937929947147 -0.0083739111008213404 0 0.047849552687555946 -0.012374792277880273 0 0.015969252480020114 -0.0073383485332311907 0 0.02803193792994715 -0.0083739111008213421 0 0.043454490580427683 -0.018195971831163622 0 0.015969252480020114 -0.0073383485332311907 0 0.043454490580427683 -0.018195971831163622 0 0.032050710597243917 -0.01824928838075195 0 0.043454490580427683 -0.018195971831163622 0 0.032050710597243917 -0.01824928838075195 0 0.051227543042028277 -0.023111477909324496 0 0.064474387906575822 -0.023157456145536149 0 0.059369293152023418 -0.020326140412931872 0 0.051227543042028277 -0.023111477909324496 0 0.064474387906575822 -0.023157456145536149 0 0.059369293152023418 -0.020326140412931872 0 0.070789758393038138 -0.01980276808601281 0 0.043454490580427683 -0.018195971831163622 0 0.059369293152023418 -0.020326140412931872 0 0.051227543042028277 -0.023111477909324496 0 0.043454490580427683 -0.018195971831163622 0 0.059369293152023418 -0.020326140412931872 0 0.057300388015060884 -0.01690345217882 0 0.059369293152023418 -0.020326140412931872 0 0.068109250695117085 -0.017320358336645213 0 0.070789758393038138 -0.01980276808601281 0 0.059369293152023418 -0.020326140412931872 0 0.057300388015060884 -0.01690345217882 0 0.068109250695117085 -0.017320358336645213 0 0.043454490580427683 -0.018195971831163622 0 0.057300388015060884 -0.01690345217882 0 0.047849552687555946 -0.012374792277880273 0 0.057300388015060884 -0.01690345217882 0 0.065411711540797085 -0.014056683499506995 0 0.068109250695117085 -0.017320358336645213 0 0.057300388015060884 -0.01690345217882 0 0.065411711540797085 -0.014056683499506995 0 0.047849552687555946 -0.012374792277880273 0 0.039083140439938678 -0.0078765033958868944 0 0.047849552687555946 -0.012374792277880273 0 0.058294668923435426 -0.010390891490292386 0 0.065411711540797085 -0.014056683499506995 0 0.047849552687555946 -0.012374792277880273 0 0.058294668923435426 -0.010390891490292386 0 0.065411711540797085 -0.014056683499506995 0 0.070813277941242508 -0.011326723618524092 0 0.058294668923435426 -0.010390891490292386 0 0.065411711540797085 -0.014056683499506995 0 0.070813277941242508 -0.011326723618524092 0 0.076706524606772353 -0.01263448407356522 0 0.070813277941242508 -0.011326723618524092 0 0.076706524606772353 -0.012634484073565218 0 0.079487563190034777 -0.011352204484082947 0 0.070813277941242508 -0.011326723618524092 0 0.079487563190034777 -0.011352204484082947 0 0.077022839035426949 -0.010116360772169776 0 0.079487563190034777 -0.011352204484082947 0 0.084828253010237581 -0.011042104436321157 0 0.083748573559257869 -0.010606305237881759 0 0.084828253010237581 -0.011042104436321157 0 0.083748573559257869 -0.010606305237881759 0 0.088429424855296021 -0.010538102544277863 0 0.084828253010237581 -0.011042104436321157 0 0.088589824763229449 -0.010866767268801071 0 0.088429424855296021 -0.010538102544277863 0 0.083816885026403831 -0.011717957225273017 0 0.088760434589515297 -0.011183668089737571 0 0.088589824763229449 -0.010866767268801071 0 0.084828253010237581 -0.011042104436321157 0 0.083816885026403831 -0.011717957225273017 0 0.088589824763229449 -0.010866767268801071 0 0.079487563190034777 -0.011352204484082947 0 0.084828253010237567 -0.011042104436321155 0 0.083816885026403831 -0.011717957225273017 0 0.076706524606772353 -0.01263448407356522 0 0.079487563190034777 -0.011352204484082947 0 0.083816885026403831 -0.011717957225273017 0 0.076706524606772353 -0.01263448407356522 0 0.083816885026403817 -0.011717957225273017 0 0.082630550568101896 -0.012612981160468538 0 0.076706524606772353 -0.01263448407356522 0 0.082630550568101882 -0.012612981160468538 0 0.077169204791503201 -0.014514219562209343 0 0.082630550568101896 -0.012612981160468538 0 0.088931162423206617 -0.011485561574668259 0 0.088760434589515297 -0.011183668089737571 0 0.083816885026403831 -0.011717957225273017 0 0.082630550568101896 -0.012612981160468538 0 0.088760434589515297 -0.011183668089737571 0 0.082630550568101896 -0.012612981160468538 0 0.084182655649009938 -0.012899855296601211 0 0.088931162423206617 -0.011485561574668259 0 0.084182655649009938 -0.012899855296601211 0 0.089097651793613813 -0.011758466690959949 0 0.088931162423206617 -0.011485561574668259 0 0.082630550568101896 -0.012612981160468538 0 0.084182655649009938 -0.012899855296601211 0 0.077169204791503201 -0.014514219562209343 0 0.065411711540797085 -0.014056683499506995 0 0.077169204791503201 -0.014514219562209343 0 0.068109250695117085 -0.017320358336645213 0 0.065411711540797085 -0.014056683499506995 0 0.076706524606772353 -0.01263448407356522 0 0.077169204791503201 -0.014514219562209343 0 0.068109250695117085 -0.017320358336645213 0 0.077179564100835041 -0.016583039752103925 0 0.070789758393038138 -0.01980276808601281 0 0.077169204791503201 -0.014514219562209343 0 0.068109250695117085 -0.017320358336645213 0 0.077179564100835041 -0.016583039752103925 0 0.084182655649009938 -0.012899855296601211 0 0.077169204791503201 -0.014514219562209343 0 0.082836848622998796 -0.013942041984020189 0 0.077169204791503201 -0.014514219562209343 0 0.077179564100835041 -0.016583039752103925 0 0.082836848622998796 -0.013942041984020189 0 0.084182655649009938 -0.012899855296601211 0 0.082836848622998796 -0.013942041984020189 0 0.089097651793613813 -0.011758466690959949 0 0.082836848622998796 -0.013942041984020189 0 0.089253630960307445 -0.012011441530017958 0 0.089097651793613813 -0.011758466690959949 0 0.082836848622998796 -0.013942041984020189 0 0.084372467291448663 -0.014262942578218611 0 0.089253630960307445 -0.012011441530017958 0 0.084372467291448663 -0.014262942578218611 0 0.089376373502007209 -0.012225170126324673 0 0.089253630960307445 -0.012011441530017958 0 0.077179564100835041 -0.016583039752103925 0 0.082836848622998796 -0.013942041984020189 0 0.084372467291448663 -0.014262942578218611 0 0.084372467291448663 -0.014262942578218611 0 0.080192839710448507 -0.017345867880445297 0 0.085320153967955545 -0.014455763854852264 0 0.077179564100835041 -0.016583039752103925 0 0.084372467291448663 -0.014262942578218611 0 0.080192839710448521 -0.017345867880445297 0 0.080192839710448521 -0.017345867880445297 0 0.085320153967955545 -0.014455763854852264 0 0.085501170406116905 -0.014888816818881261 0 0.084372467291448663 -0.014262942578218611 0 0.085320153967955545 -0.014455763854852264 0 0.089376373502007209 -0.012225170126324673 0 0.085320153967955545 -0.014455763854852264 0 0.085501170406116905 -0.014888816818881261 0 0.089465207669194788 -0.012387524191061313 0 0.085320153967955545 -0.014455763854852264 0 0.089465207669194788 -0.012387524191061313 0 0.089376373502007209 -0.012225170126324673 0 0.085501170406116905 -0.014888816818881261 0 0.081973633717701888 -0.017655464917215709 0 0.089500234302658327 -0.012538477432538388 0 0.085501170406116905 -0.014888816818881261 0 0.089465207669194788 -0.012387524191061313 0 0.089500234302658327 -0.012538477432538388 0 0.080192839710448521 -0.017345867880445297 0 0.085501170406116905 -0.014888816818881261 0 0.081973633717701888 -0.017655464917215709 0 0.080192839710448521 -0.017345867880445297 0 0.081973633717701888 -0.017655464917215709 0 0.074234294294331538 -0.020991536329435689 0 0.080192839710448521 -0.017345867880445297 0 0.074234294294331524 -0.020991536329435692 0 0.070789758393038138 -0.01980276808601281 0 0.077179564100835041 -0.016583039752103925 0 0.080192839710448521 -0.017345867880445297 0 0.070789758393038138 -0.01980276808601281 0 0.064474387906575822 -0.023157456145536149 0 0.074234294294331538 -0.020991536329435689 0 0.070789758393038138 -0.01980276808601281 0 0.054693320843162793 -0.0038017934168618124 0 0.067883204752150844 -0.0066562588324657864 0 0.073337621771998318 -0.0046070259837151656 0 0.055318843805474326 -0.00016571732727596055 0 0.054693320843162793 -0.0038017934168618124 0 0.073337621771998318 -0.0046070259837151656 0 0.055318843805474326 -0.00016571732727596055 0 0.037743998020939307 -0.00062831839929096379 0 0.054693320843162793 -0.0038017934168618124 0 0.030448994162374413 -0.0034461574061541078 0 0.054693320843162793 -0.0038017934168618124 0 0.054570708518287298 -0.0070912646954162436 0 0.039083140439938678 -0.0078765033958868944 0 0.058294668923435426 -0.010390891490292386 0 0.054570708518287298 -0.0070912646954162436 0 0.070813277941242508 -0.011326723618524092 0 0.058294668923435426 -0.010390891490292386 0 0.068017671424309881 -0.0088909614062542344 0 0.058294668923435426 -0.010390891490292386 0 0.054570708518287298 -0.0070912646954162436 0 0.068017671424309881 -0.0088909614062542344 0 0.054693320843162793 -0.0038017934168618124 0 0.054570708518287298 -0.0070912646954162436 0 0.067883204752150844 -0.0066562588324657864 0 0.054570708518287298 -0.0070912646954162436 0 0.067883204752150844 -0.0066562588324657864 0 0.068017671424309881 -0.0088909614062542344 0 0.067883204752150844 -0.0066562588324657864 0 0.068017671424309881 -0.0088909614062542344 0 0.07749622517044423 -0.0085143043703865707 0 0.067883204752150844 -0.0066562588324657864 0 0.07749622517044423 -0.0085143043703865707 0 0.078668610471462383 -0.0071771554696558786 0 0.070813277941242508 -0.011326723618524092 0 0.068017671424309881 -0.0088909614062542344 0 0.077022839035426949 -0.010116360772169776 0 0.068017671424309881 -0.0088909614062542344 0 0.077022839035426949 -0.010116360772169776 0 0.07749622517044423 -0.0085143043703865707 0 0.077022839035426949 -0.010116360772169776 0 0.08426332444143099 -0.010050912169521512 0 0.083748573559257869 -0.010606305237881759 0 0.079487563190034777 -0.011352204484082947 0 0.077022839035426949 -0.010116360772169776 0 0.083748573559257869 -0.010606305237881759 0 0.077022839035426949 -0.010116360772169776 0 0.081956931992842347 -0.0095656799198384351 0 0.07749622517044423 -0.0085143043703865707 0 0.077022839035426949 -0.010116360772169776 0 0.081956931992842347 -0.0095656799198384351 0 0.084263324441430976 -0.01005091216952151 0 0.081956931992842347 -0.0095656799198384351 0 0.084263324441430976 -0.01005091216952151 0 0.088145755410388021 -0.0098582627899144633 0 0.081956931992842347 -0.0095656799198384351 0 0.088027089697340896 -0.0095141259418771041 0 0.088145755410388021 -0.0098582627899144633 0 0.084263324441430976 -0.01005091216952151 0 0.08828110169975624 -0.010199080140444589 0 0.088145755410388021 -0.0098582627899144633 0 0.083748573559257869 -0.010606305237881759 0 0.08828110169975624 -0.010199080140444589 0 0.088429424855296021 -0.010538102544277863 0 0.084263324441430976 -0.01005091216952151 0 0.083748573559257869 -0.010606305237881759 0 0.08828110169975624 -0.010199080140444589 0 0.07749622517044423 -0.0085143043703865707 0 0.083745893053918635 -0.0090369857987427256 0 0.083293157513737962 -0.0084060741384590961 0 0.07749622517044423 -0.0085143043703865707 0 0.083293157513737962 -0.0084060741384590961 0 0.078668610471462383 -0.0071771554696558786 0 0.081956931992842347 -0.0095656799198384351 0 0.077496225170444216 -0.0085143043703865707 0 0.083745893053918635 -0.0090369857987427256 0 0.081956931992842347 -0.0095656799198384351 0 0.083745893053918635 -0.0090369857987427256 0 0.088027089697340896 -0.0095141259418771041 0 0.083745893053918635 -0.0090369857987427256 0 0.087923672361243738 -0.0091779217558754459 0 0.088027089697340896 -0.0095141259418771041 0 0.083745893053918635 -0.0090369857987427256 0 0.083293157513737948 -0.0084060741384590961 0 0.087923672361243738 -0.0091779217558754459 0 0.083293157513737962 -0.0084060741384590961 0 0.087836507160291635 -0.0088495514912751341 0 0.087923672361243738 -0.0091779217558754459 0 0.084044458281560028 -0.0079811033375112358 0 0.087764887830179078 -0.0085452768240037395 0 0.087836507160291635 -0.0088495514912751341 0 0.083293157513737962 -0.0084060741384590961 0 0.084044458281560028 -0.0079811033375112358 0 0.087836507160291635 -0.0088495514912751341 0 0.082489037571391213 -0.0070486392850397251 0 0.087724122669305987 -0.0082464433785874522 0 0.087764887830179078 -0.0085452768240037395 0 0.084044458281560028 -0.0079811033375112358 0 0.082489037571391213 -0.0070486392850397251 0 0.087764887830179078 -0.0085452768240037395 0 0.082489037571391213 -0.0070486392850397251 0 0.078668610471462383 -0.0071771554696558786 0 0.073337621771998318 -0.0046070259837151656 0 0.084044458281560028 -0.0079811033375112358 0 0.082489037571391213 -0.0070486392850397251 0 0.078668610471462383 -0.0071771554696558786 0 0.083293157513737962 -0.0084060741384590961 0 0.084044458281560028 -0.0079811033375112358 0 0.078668610471462383 -0.0071771554696558786 0 0.067883204752150844 -0.0066562588324657864 0 0.078668610471462383 -0.0071771554696558786 0 0.073337621771998318 -0.0046070259837151656 0 0.071677576005151525 -0.0011170987855160977 0 0.055318843805474326 -0.0001657173272759606 0 0.073337621771998318 -0.0046070259837151656 0 0.071677576005151525 -0.0011170987855160977 0 0.073337621771998318 -0.0046070259837151656 0 0.081101645631713112 -0.0045929228862284293 0 0.073337621771998318 -0.0046070259837151656 0 0.081101645631713112 -0.0045929228862284293 0 0.082611696901825099 -0.006239166205390413 0 0.082489037571391213 -0.0070486392850397251 0 0.073337621771998318 -0.0046070259837151647 0 0.082611696901825099 -0.006239166205390413 0 0.082489037571391213 -0.0070486392850397251 0 0.082611696901825099 -0.006239166205390413 0 0.087724122669305987 -0.0082464433785874522 0 0.082611696901825099 -0.006239166205390413 0 0.087679830124462316 -0.0080242335375021144 0 0.087724122669305987 -0.0082464433785874522 0 0.081101645631713112 -0.0045929228862284293 0 0.082611696901825099 -0.006239166205390413 0 0.087679830124462316 -0.0080242335375021144 0 0.081101645631713112 -0.0045929228862284293 0 0.087718803182349078 -0.0077089627516845971 0 0.087679830124462316 -0.0080242335375021144 0 0.087760773382663915 -0.0080261125872770206 0 0.092321307877588368 -0.0052639023758509216 0 0.092565274306519771 -0.0062965301918717371 0 0.087718803182349092 -0.007708962751684598 0 0.087760773382663901 -0.0080261125872770206 0 0.092321307877588368 -0.0052639023758509216 0 0.087718604111710397 -0.0078033248093187582 0 0.087720612590047917 -0.0080062739452670378 0 0.087760773382663915 -0.0080261125872770206 0 0.087780209797401129 -0.0082620810370719992 0 0.092565274306519771 -0.0062965301918717371 0 0.087720612590047917 -0.0080062739452670378 0 0.087751840666195471 -0.0082672172115062191 0 0.087780209797401129 -0.0082620810370719992 0 0.092565274306519771 -0.0062965301918717371 0 0.091585792541760982 -0.0073357499170303656 0 0.092565274306519771 -0.0062965301918717371 0 0.099010858593419487 -0.0032821701606951716 0 0.098008433165659561 -0.0058516802962156958 0 0.092321307877588368 -0.0052639023758509216 0 0.099010858593419487 -0.0032821701606951716 0 0.096044895211775755 -0.001448105508904695 0 0.092321307877588368 -0.0052639023758509216 0 0.092565274306519771 -0.0062965301918717371 0 0.099010858593419487 -0.0032821701606951716 0 0.099010858593419487 -0.0032821701606951716 0 0.10792865417980536 -0.0026808774870599201 0 0.10745507884833005 0.00055985387234175539 0 0.099010858593419487 -0.0032821701606951716 0 0.10792865417980536 -0.0026808774870599201 0 0.098008433165659561 -0.0058516802962156958 0 0.10792865417980536 -0.0026808774870599201 0 0.10756991419306354 -0.0059345564905956402 0 0.098008433165659561 -0.0058516802962156958 0 0.10756991419306354 -0.0059345564905956402 0 0.098008433165659561 -0.0058516802962156958 0 0.097815890063022853 -0.0078973813599356405 0 0.098008433165659561 -0.0058516802962156958 0 0.09242349369148703 -0.0078203362948506567 0 0.097815890063022853 -0.0078973813599356405 0 0.09242349369148703 -0.0078203362948506567 0 0.091652018209999075 -0.0085591865560513715 0 0.097815890063022853 -0.0078973813599356405 0 0.092565274306519771 -0.0062965301918717371 0 0.098008433165659561 -0.0058516802962156967 0 0.091585792541760982 -0.0073357499170303656 0 0.098008433165659561 -0.0058516802962156958 0 0.091585792541760982 -0.0073357499170303656 0 0.09242349369148703 -0.0078203362948506567 0 0.091585792541760982 -0.0073357499170303656 0 0.087834242345429997 -0.0085629188447054073 0 0.09242349369148703 -0.0078203362948506567 0 0.087780209797401129 -0.0082620810370719992 0 0.091585792541760982 -0.0073357499170303656 0 0.087834242345429997 -0.0085629188447054073 0 0.087751840666195471 -0.0082672172115062191 0 0.087799811941716738 -0.0085548643763977816 0 0.09242349369148703 -0.0078203362948506567 0 0.087904196190807041 -0.0088773812378312392 0 0.091652018209999075 -0.0085591865560513732 0 0.087799811941716738 -0.0085548643763977816 0 0.087870209083888831 -0.0088669771005821831 0 0.087834242345429997 -0.0085629188447054073 0 0.09242349369148703 -0.0078203362948506567 0 0.087904196190807055 -0.0088773812378312392 0 0.087904196190807055 -0.0088773812378312392 0 0.091652018209999075 -0.0085591865560513732 0 0.087994069022671637 -0.0092096549220437932 0 0.087870209083888831 -0.0088669771005821831 0 0.087958914752393758 -0.0091950747752563029 0 0.091652018209999075 -0.0085591865560513732 0 0.087994069022671637 -0.0092096549220437932 0 0.092549284753083161 -0.0090617707773434572 0 0.087994069022671637 -0.0092096549220437932 0 0.088098035513359998 -0.0095519707809723856 0 0.092549284753083161 -0.0090617707773434572 0 0.087958914752393758 -0.0091950747752563029 0 0.088062552152562784 -0.0095341579880991057 0 0.088098035513359998 -0.0095519707809723856 0 0.092549284753083161 -0.0090617707773434572 0 0.091781165727687825 -0.009647483438424467 0 0.092549284753083161 -0.0090617707773434572 0 0.091781165727687825 -0.009647483438424467 0 0.09797761445235556 -0.0095865697420623262 0 0.092549284753083161 -0.0090617707773434572 0 0.097815890063022853 -0.0078973813599356405 0 0.09797761445235556 -0.0095865697420623262 0 0.091652018209999075 -0.0085591865560513732 0 0.092549284753083161 -0.0090617707773434572 0 0.097815890063022853 -0.0078973813599356405 0 0.088351634344337862 -0.010247047473024552 0 0.092436554081173267 -0.010183699589779506 0 0.091910097354604092 -0.010699579593360585 0 0.088351634344337862 -0.010247047473024552 0 0.092436554081173267 -0.010183699589779506 0 0.088216987445101619 -0.0099000726235512135 0 0.088316335122549119 -0.010222606702652213 0 0.088181415966451598 -0.0098788263371209061 0 0.092436554081173267 -0.010183699589779506 0 0.088216987445101605 -0.0099000726235512117 0 0.091781165727687825 -0.009647483438424467 0 0.088098035513359998 -0.0095519707809723856 0 0.088216987445101619 -0.0099000726235512135 0 0.091781165727687825 -0.009647483438424467 0 0.088062552152562784 -0.0095341579880991057 0 0.088181415966451598 -0.0098788263371209061 0 0.092436554081173267 -0.010183699589779506 0 0.091781165727687825 -0.009647483438424467 0 0.09797761445235556 -0.0095865697420623262 0 0.092436554081173267 -0.010183699589779506 0 0.091910097354604078 -0.010699579593360584 0 0.097502217468836597 -0.011206093798598073 0 0.092436554081173267 -0.010183699589779506 0 0.09797761445235556 -0.0095865697420623262 0 0.097502217468836597 -0.011206093798598073 0 0.09797761445235556 -0.0095865697420623262 0 0.10688359130452259 -0.010751613265476601 0 0.097502217468836597 -0.011206093798598073 0 0.09797761445235556 -0.0095865697420623262 0 0.10688359130452259 -0.010751613265476601 0 0.10545117772419414 -0.0085694041000313713 0 0.10756991419306354 -0.0059345564905956402 0 0.097815890063022853 -0.0078973813599356405 0 0.10545117772419414 -0.0085694041000313713 0 0.097815890063022853 -0.0078973813599356405 0 0.09797761445235556 -0.0095865697420623262 0 0.10545117772419414 -0.0085694041000313713 0 0.10756991419306354 -0.0059345564905956402 0 0.10545117772419414 -0.0085694041000313713 0 0.11728306125632464 -0.0090216590133520066 0 0.10688359130452259 -0.010751613265476601 0 0.11728306125632464 -0.0090216590133520066 0 0.12034360339022747 -0.013367868614954074 0 0.10688359130452259 -0.010751613265476601 0 0.10545117772419414 -0.0085694041000313713 0 0.11728306125632464 -0.0090216590133520066 0 0.11728306125632464 -0.0090216590133520066 0 0.12034360339022747 -0.013367868614954074 0 0.13905154824423038 -0.0098385310271108806 0 0.11728306125632464 -0.0090216590133520066 0 0.12270468546495344 -0.0033036278992042605 0 0.13905154824423038 -0.0098385310271108806 0 0.12270468546495344 -0.0033036278992042605 0 0.13969920101787484 0.0025622836280019897 0 0.11881539665557511 0.00098064279629716871 0 0.10792865417980536 -0.0026808774870599201 0 0.12270468546495344 -0.00330362789920426 0 0.11881539665557511 0.00098064279629716871 0 0.10792865417980536 -0.0026808774870599201 0 0.10745507884833005 0.00055985387234175495 0 0.11881539665557511 0.00098064279629716871 0 0.10792865417980536 -0.0026808774870599201 0 0.10756991419306354 -0.0059345564905956402 0 0.12270468546495344 -0.0033036278992042605 0 0.10756991419306354 -0.0059345564905956402 0 0.11728306125632464 -0.0090216590133520066 0 0.12270468546495344 -0.0033036278992042605 0 0.10807846007671114 -0.020342797271937486 0 0.10606002146777563 -0.021986969560950281 0 0.11691611292995228 -0.0250699691796132 0 0.10807846007671114 -0.020342797271937486 0 0.099886793648904848 -0.018306019049689298 0 0.099354069394249761 -0.016708378847302686 0 0.10807846007671114 -0.020342797271937486 0 0.10606002146777563 -0.021986969560950281 0 0.099886793648904848 -0.018306019049689301 0 0.10606002146777563 -0.021986969560950281 0 0.0977051796810956 -0.018071247893468641 0 0.099886793648904848 -0.018306019049689301 0 0.0977051796810956 -0.018071247893468641 0 0.099886793648904848 -0.018306019049689301 0 0.093799198502322781 -0.015159544824020498 0 0.0977051796810956 -0.018071247893468641 0 0.093799198502322781 -0.015159544824020498 0 0.089579712698071509 -0.012556685775200888 0 0.093799198502322781 -0.015159544824020498 0 0.089509992655947015 -0.012409257671125606 0 0.089579712698071509 -0.012556685775200888 0 0.089487628387246207 -0.012394768682475046 0 0.089538846895994659 -0.012504001401607559 0 0.089487628387246207 -0.012394768682475046 0 0.089403419079486776 -0.012234512620904713 0 0.089509992655947015 -0.012409257671125606 0 0.089430508850380133 -0.012259714771310696 0 0.093966996262478092 -0.014754088782858405 0 0.093799198502322781 -0.015159544824020498 0 0.089509992655947015 -0.012409257671125606 0 0.093966996262478092 -0.014754088782858405 0 0.089430508850380133 -0.012259714771310696 0 0.093966996262478092 -0.014754088782858405 0 0.093049970589531725 -0.013793455961587002 0 0.099886793648904848 -0.018306019049689301 0 0.093966996262478092 -0.014754088782858405 0 0.099354069394249761 -0.016708378847302686 0 0.099886793648904848 -0.018306019049689301 0 0.093799198502322795 -0.015159544824020498 0 0.093966996262478092 -0.014754088782858405 0 0.093966996262478092 -0.014754088782858405 0 0.099354069394249761 -0.016708378847302686 0 0.093049970589531725 -0.013793455961587002 0 0.099354069394249761 -0.016708378847302686 0 0.094139705820053682 -0.013725835675795755 0 0.10211142547832913 -0.016368210962828224 0 0.099354069394249761 -0.016708378847302686 0 0.093049970589531725 -0.013793455961587002 0 0.094139705820053682 -0.013725835675795755 0 0.093049970589531725 -0.013793455961587002 0 0.089310665313622015 -0.01205760495514706 0 0.094139705820053682 -0.013725835675795755 0 0.089403419079486776 -0.012234512620904713 0 0.089282068745697898 -0.012028092590446238 0 0.089430508850380133 -0.012259714771310696 0 0.093049970589531725 -0.013793455961587002 0 0.089310665313622015 -0.01205760495514706 0 0.089310665313622015 -0.01205760495514706 0 0.089158796489266737 -0.011813582954789782 0 0.094139705820053682 -0.013725835675795755 0 0.089282068745697898 -0.012028092590446238 0 0.089128316009718475 -0.011782374491549235 0 0.089158796489266737 -0.011813582954789782 0 0.094139705820053682 -0.013725835675795755 0 0.092326651148160285 -0.012647453661413626 0 0.094139705820053682 -0.013725835675795755 0 0.10211142547832913 -0.016368210962828224 0 0.096986591930679322 -0.013763355725076821 0 0.10807846007671114 -0.020342797271937486 0 0.099354069394249761 -0.016708378847302686 0 0.10211142547832913 -0.016368210962828224 0 0.10807846007671114 -0.020342797271937486 0 0.10211142547832913 -0.016368210962828224 0 0.1128836937862468 -0.018491437283145541 0 0.10211142547832913 -0.016368210962828224 0 0.10427159371866321 -0.014986210745649835 0 0.1128836937862468 -0.018491437283145541 0 0.10427159371866321 -0.014986210745649835 0 0.11349462526878783 -0.015710455158023533 0 0.1128836937862468 -0.018491437283145541 0 0.10427159371866321 -0.014986210745649835 0 0.10572233949099942 -0.013058915248705751 0 0.11349462526878783 -0.015710455158023533 0 0.10427159371866321 -0.014986210745649835 0 0.096986591930679322 -0.013763355725076821 0 0.097389418459528351 -0.012613801951569944 0 0.10427159371866321 -0.014986210745649835 0 0.097389418459528351 -0.012613801951569944 0 0.10572233949099942 -0.013058915248705751 0 0.10211142547832913 -0.016368210962828224 0 0.10427159371866321 -0.014986210745649835 0 0.096986591930679322 -0.013763355725076821 0 0.094139705820053682 -0.013725835675795755 0 0.096986591930679322 -0.013763355725076821 0 0.092326651148160285 -0.012647453661413626 0 0.096986591930679322 -0.013763355725076821 0 0.092326651148160285 -0.012647453661413626 0 0.092785983386969945 -0.012283529675289923 0 0.092326651148160285 -0.012647453661413626 0 0.0889948230760748 -0.011541154900528185 0 0.092785983386969945 -0.012283529675289923 0 0.089128316009718475 -0.011782374491549235 0 0.088962967553724737 -0.011508958437325483 0 0.089158796489266737 -0.011813582954789782 0 0.092326651148160285 -0.012647453661413626 0 0.0889948230760748 -0.011541154900528185 0 0.088827078418526426 -0.01124136381870223 0 0.092785983386969945 -0.012283529675289923 0 0.09208463049278931 -0.011669260599854193 0 0.088962967553724737 -0.011508958437325483 0 0.088793757632339515 -0.011209973550271592 0 0.0889948230760748 -0.011541154900528185 0 0.088827078418526426 -0.01124136381870223 0 0.092785983386969945 -0.012283529675289923 0 0.092785983386969945 -0.012283529675289923 0 0.097389418459528351 -0.012613801951569944 0 0.09208463049278931 -0.011669260599854193 0 0.096986591930679322 -0.013763355725076821 0 0.092785983386969945 -0.012283529675289923 0 0.097389418459528351 -0.012613801951569944 0 0.097389418459528351 -0.012613801951569944 0 0.09208463049278931 -0.011669260599854193 0 0.092795600041913312 -0.011298368465440928 0 0.097389418459528351 -0.012613801951569944 0 0.092795600041913326 -0.01129836846544093 0 0.097502217468836597 -0.011206093798598073 0 0.09208463049278931 -0.011669260599854193 0 0.088658314651840819 -0.010922616659336529 0 0.092795600041913312 -0.011298368465440928 0 0.088793757632339515 -0.011209973550271592 0 0.088624079846901571 -0.010892685820643374 0 0.088827078418526426 -0.01124136381870223 0 0.09208463049278931 -0.011669260599854193 0 0.088658314651840819 -0.010922616659336529 0 0.088316335122549119 -0.010222606702652213 0 0.088464379732763193 -0.010562207344428714 0 0.088351634344337862 -0.010247047473024552 0 0.088499319651674721 -0.010589304019698194 0 0.091910097354604092 -0.010699579593360585 0 0.088658314651840819 -0.010922616659336529 0 0.088499319651674721 -0.010589304019698194 0 0.092795600041913312 -0.011298368465440928 0 0.088624079846901571 -0.010892685820643374 0 0.088464379732763193 -0.010562207344428714 0 0.088499319651674721 -0.010589304019698194 0 0.092795600041913312 -0.011298368465440928 0 0.091910097354604092 -0.010699579593360585 0 0.092795600041913312 -0.011298368465440928 0 0.091910097354604092 -0.010699579593360585 0 0.097502217468836597 -0.011206093798598073 0 0.10688359130452259 -0.010751613265476601 0 0.097502217468836611 -0.011206093798598073 0 0.10572233949099942 -0.013058915248705751 0 0.097389418459528351 -0.012613801951569944 0 0.097502217468836597 -0.011206093798598073 0 0.10572233949099942 -0.013058915248705751 0 0.12034360339022747 -0.013367868614954074 0 0.12639180451393506 -0.018757953976278146 0 0.14476451381288483 -0.016787958108913016 0 0.10688359130452259 -0.010751613265476601 0 0.10572233949099942 -0.013058915248705753 0 0.12034360339022747 -0.013367868614954074 0 0.10572233949099942 -0.013058915248705751 0 0.12034360339022747 -0.013367868614954074 0 0.11349462526878783 -0.015710455158023533 0 0.12639180451393506 -0.018757953976278146 0 0.11349462526878783 -0.015710455158023533 0 0.1128836937862468 -0.018491437283145541 0 0.12034360339022747 -0.013367868614954074 0 0.12639180451393506 -0.018757953976278146 0 0.11349462526878783 -0.015710455158023533 0 0.12639180451393506 -0.018757953976278146 0 0.12267647920878948 -0.022684170612676191 0 0.1128836937862468 -0.018491437283145541 0 0.10807846007671114 -0.020342797271937486 0 0.12267647920878948 -0.022684170612676191 0 0.1128836937862468 -0.018491437283145541 0 0.12639180451393506 -0.018757953976278146 0 0.12267647920878948 -0.022684170612676191 0 0.140854407923619 -0.022979387804926765 0 0.12267647920878948 -0.022684170612676191 0 0.13170642363759505 -0.027316982786360407 0 0.140854407923619 -0.022979387804926765 0 0.10807846007671114 -0.020342797271937486 0 0.12267647920878948 -0.022684170612676191 0 0.11691611292995228 -0.0250699691796132 0 0.12267647920878948 -0.022684170612676191 0 0.13170642363759505 -0.027316982786360407 0 0.11691611292995228 -0.0250699691796132 0 0.18226511252683295 -0.029787765110728514 0 0.1617636463642991 -0.022228169819777443 0 0.1801099625101803 -0.013401206167171472 0 0.13170642363759505 -0.027316982786360407 0 0.15260617116897326 -0.028601078824129534 0 0.140854407923619 -0.022979387804926765 0 0.15260617116897326 -0.028601078824129534 0 0.140854407923619 -0.022979387804926765 0 0.1617636463642991 -0.022228169819777443 0 0.12034360339022747 -0.013367868614954074 0 0.14476451381288483 -0.016787958108913016 0 0.13905154824423038 -0.0098385310271108806 0 0.14476451381288483 -0.016787958108913016 0 0.13905154824423038 -0.0098385310271108806 0 0.1801099625101803 -0.013401206167171472 0 0.140854407923619 -0.022979387804926765 0 0.14476451381288483 -0.016787958108913016 0 0.1617636463642991 -0.022228169819777443 0 0.12639180451393506 -0.018757953976278146 0 0.140854407923619 -0.022979387804926765 0 0.14476451381288483 -0.016787958108913016 0 0.14476451381288483 -0.016787958108913016 0 0.1617636463642991 -0.022228169819777443 0 0.1801099625101803 -0.013401206167171472 0 0.15260617116897326 -0.028601078824129534 0 0.18226511252683295 -0.029787765110728514 0 0.1617636463642991 -0.022228169819777443 0 0.15111224599416506 -0.0036018138810330639 0 0.1801099625101803 -0.013401206167171472 0 0.18089557958753535 0.00367151619080395 0 0.12270468546495344 -0.0033036278992042605 0 0.15111224599416506 -0.0036018138810330631 0 0.13969920101787484 0.0025622836280019897 0 0.15111224599416506 -0.0036018138810330639 0 0.18089557958753535 0.00367151619080395 0 0.13969920101787484 0.0025622836280019897 0 0.12270468546495344 -0.0033036278992042605 0 0.15111224599416506 -0.0036018138810330639 0 0.13905154824423038 -0.0098385310271108806 0 0.15111224599416506 -0.0036018138810330639 0 0.13905154824423038 -0.0098385310271108806 0 0.1801099625101803 -0.013401206167171472 0 0.18089557958753535 0.00367151619080395 0 0.13969920101787484 0.0025622836280019897 0 0.14600252632624081 0.011051989378256277 0 0.14600252632624081 0.011051989378256277 0 0.18410077858610302 0.019862267000640029 0 0.1474926231999468 0.022165630731794998 0 0.18089557958753535 0.00367151619080395 0 0.14600252632624081 0.011051989378256277 0 0.18410077858610302 0.019862267000640029 0 0.18740185075888854 0.03558037773076806 0 0.1474926231999468 0.022165630731794998 0 0.14063583265731172 0.032499786762905471 0 0.18410077858610302 0.019862267000640029 0 0.18740185075888854 0.03558037773076806 0 0.1474926231999468 0.022165630731794998 0 0.094388777194652496 0.029298275702104137 0 0.11529207323020754 0.021997189507882355 0 0.14063583265731172 0.032499786762905471 0 0.1474926231999468 0.022165630731794998 0 0.11529207323020754 0.021997189507882355 0 0.11213918310536669 0.011792094898595468 0 0.1474926231999468 0.022165630731794998 0 0.11529207323020754 0.021997189507882355 0 0.14063583265731172 0.032499786762905471 0 0.090258648993027962 0.015666549169195562 0 0.094388777194652496 0.029298275702104137 0 0.11529207323020754 0.021997189507882355 0 0.090258648993027962 0.015666549169195562 0 0.11529207323020754 0.021997189507882355 0 0.11213918310536669 0.011792094898595468 0 0.090258648993027962 0.015666549169195562 0 0.087705995763648806 0.0078212033453685832 0 0.11213918310536669 0.011792094898595468 0 0.087705995763648806 0.0078212033453685832 0 0.11213918310536669 0.011792094898595468 0 0.097750807070213871 0.0039936924738583979 0 0.11213918310536669 0.011792094898595468 0 0.097750807070213871 0.0039936924738583979 0 0.11951785168631578 0.0055944927522146226 0 0.087746088495859242 -0.0013334580158836967 0 0.078833891515308521 0.0017328095529503121 0 0.097750807070213871 0.0039936924738583979 0 0.087746088495859242 -0.0013334580158836967 0 0.097750807070213871 0.0039936924738583979 0 0.096044895211775755 -0.001448105508904695 0 0.087746088495859242 -0.0013334580158836967 0 0.087718803182349092 -0.007708962751684598 0 0.096044895211775755 -0.001448105508904695 0 0.087718803182349092 -0.007708962751684598 0 0.092321307877588368 -0.0052639023758509216 0 0.096044895211775755 -0.001448105508904695 0 0.097750807070213871 0.0039936924738583979 0 0.096044895211775755 -0.001448105508904695 0 0.10745507884833005 0.00055985387234175539 0 0.099010858593419487 -0.0032821701606951716 0 0.096044895211775755 -0.001448105508904695 0 0.10745507884833005 0.00055985387234175539 0 0.097750807070213871 0.0039936924738583979 0 0.10745507884833005 0.00055985387234175539 0 0.11951785168631578 0.0055944927522146226 0 0.13969920101787484 0.0025622836280019897 0 0.14600252632624081 0.011051989378256277 0 0.11951785168631578 0.0055944927522146226 0 0.10745507884833005 0.00055985387234175539 0 0.11951785168631578 0.0055944927522146226 0 0.11881539665557511 0.00098064279629716871 0 0.13969920101787484 0.0025622836280019897 0 0.11951785168631576 0.0055944927522146208 0 0.11881539665557511 0.00098064279629716871 0 0.14600252632624081 0.011051989378256277 0 0.1474926231999468 0.022165630731794998 0 0.11213918310536669 0.011792094898595468 0 0.14600252632624081 0.011051989378256277 0 0.11213918310536668 0.011792094898595465 0 0.11951785168631578 0.0055944927522146226 0 
</DataArray>
</PointData>
<CellData Scalars="region_id," Vectors="" Tensors="stress,">
<DataArray type="Float64" Name="region_id" format="ascii">
1 1 1 1 1 1 1 1 1 1 1 1 1 1 1 1 1 1 1 1 1 1 1 1 1 1 1 1 1 1 1 1 1 1 1 1 1 1 1 1 1 1 1 1 1 1 1 1 1 1 1 1 1 1 1 1 1 1 1 1 1 1 1 1 1 1 1 1 1 1 1 1 1 1 1 1 1 1 1 1 1 1 1 1 1 1 1 1 1 1 1 1 1 1 1 1 1 1 1 1 1 1 1 1 1 1 1 1 1 1 1 1 1 1 1 1 1 1 1 1 1 1 1 1 1 1 1 1 1 1 1 1 1 1 1 1 1 1 1 1 1 6 1 6 1 1 1 1 1 1 1 1 1 1 1 1 1 1 6 1 6 1 1 6 1 1 6 1 1 1 1 1 1 6 1 1 6 1 1 1 1 1 1 1 1 1 1 1 1 1 1 1 1 1 1 1 1 1 1 1 1 6 6 1 1 1 1 1 1 1 1 1 6 1 1 6 1 1 1 1 1 1 1 1 1 1 1 1 1 6 1 1 6 1 1 1 1 1 1 6 1 6 1 1 6 1 1 1 1 1 1 1 1 1 1 1 1 1 1 1 1 1 1 1 1 1 1 1 1 1 1 1 1 1 1 1 1 1 1 1 1 1 1 1 1 1 1 1 1 1 1 1 1 1 1 1 1 1 1 
</DataArray>
<DataArray type="Float64" Name="stress" NumberOfComponents="9" format="ascii">
0.19871863408475568 0.01637354439954776 0 0.01637354439954776 0.066108222001054928 0 0 0 0.066206714021452645 0.21847769327382924 0.026693670592569808 0 0.026693670592569808 0.026436713994157271 0 0 0 0.061228601816996617 0.19436378778373417 -0.00038005720195614934 0 -0.00038005720195614934 0.0046283138830255088 0 0 0 0.049748025416689934 0.20036501463681466 0.00151518391211726 0 0.00151518391211726 0.0020606314687897573 0 0 0 0.050606411526401107 0.20186727371513977 -0.0011928806093273667 0 -0.0011928806093273667 -0.00025805156780028815 0 0 0 0.050402305536834842 0.20308576981206738 -0.00088181943868703185 0 -0.00088181943868703185 0.0041546397801298651 0 0 0 0.051810102398049319 0.20410825238575842 -0.004446547716183075 0 -0.004446547716183075 0.013700720647918746 0 0 0 0.05445224325841929 0.2010848545972786 -0.0086576504967736129 0 -0.0086576504967736129 0.0033450418448244118 0 0 0 0.051107474110525769 0.19284367747513179 -0.014860118187408415 0 -0.014860118187408415 -0.0047417062797040013 0 0 0 0.047025492798856955 0.19876014774062217 -0.0066757681519699092 0 -0.0066757681519699092 0.0080815797967793701 0 0 0 0.051710431884350323 0.19249024875999965 -0.025780569462849665 0 -0.025780569462849665 -0.074217307244915209 0 0 0 0.029568235378771221 0.20502744732467071 -0.036917760276385034 0 -0.036917760276385034 0.0062832797389629075 0 0 0 0.052827681765908345 0.21381151196235818 -0.0083883024456399349 0 -0.0083883024456399349 -0.0017261931984930493 0 0 0 0.053021329690966318 0.20977997920363758 -0.00061325880761347457 0 -0.00061325880761347457 -0.0032703538964072194 0 0 0 0.051627406326807568 0.20397957505833228 -0.0023038849586519382 0 -0.0023038849586519382 -0.0062606249456379215 0 0 0 0.049429737528173548 0.20540236796060193 -0.0025375655337563849 0 -0.0025375655337563849 -0.0020669870856051403 0 0 0 0.050833845218749167 0.20161993183804319 -0.0028526140809476894 0 -0.0028526140809476894 0.0062205137141567723 0 0 0 0.051960111388050012 0.20502063321884528 2.8393557472011083e-05 0 2.8393557472011083e-05 0.011874468232973404 0 0 0 0.054223775362954675 0.20875202658485209 0.0079083013379287123 0 0.0079083013379287123 0.018711224757675511 0 0 0 0.056865812835631906 0.1984137129143973 0.0037468298237827817 0 0.0037468298237827817 0.023666444710729942 0 0 0 0.055520039406281793 0.20016582051166773 0.00057408342551280411 0 0.00057408342551280411 0.026229050859909602 0 0 0 0.056598717842894324 0.19846659427883268 -0.0050723708725235279 0 -0.0050723708725235279 0.014662078040979165 0 0 0 0.053282168079952945 0.19367939771913142 0.005829296896466123 0 0.005829296896466123 0.064582497586126331 0 0 0 0.064565473826314446 0.18993692880884255 0.0036796440969098622 0 0.0036796440969098622 0.034789900820149579 0 0 0 0.056181707407248038 0.20046807865433106 0.0019850354246005943 0 0.0019850354246005943 0.03867281842951615 0 0 0 0.059785224270961806 0.19980483201514967 0.0030856436674841564 0 0.0030856436674841564 0.036266558785860256 0 0 0 0.059017847700252465 0.18708882155479917 0.01305478836917702 0 0.01305478836917702 0.033242824308029023 0 0 0 0.055082911465707041 0.19786861961529986 -0.0074826906163537503 0 -0.0074826906163537503 0.065939274401858164 0 0 0 0.06595197350428951 0.19635596884963863 -0.010060824165868943 0 -0.010060824165868943 0.035811432204864643 0 0 0 0.058041850263625828 0.20671341310821281 -0.0034624989862707678 0 -0.0034624989862707678 0.029701534355134347 0 0 0 0.059103736865836795 0.20642679486416721 -0.004754973999070277 0 -0.004754973999070277 0.037208416857990471 0 0 0 0.060908802930539442 0.1916524743442283 -0.0023484675402410411 0 -0.0023484675402410411 0.036488211394311951 0 0 0 0.057035171434635067 0.19794362894029591 -0.030332368534868075 0 -0.030332368534868075 0.065907341565404981 0 0 0 0.065962742626425208 0.2260191506973209 -0.03224061481138904 0 -0.03224061481138904 0.036653424321367895 0 0 0 0.065668143754672198 0.19755891626400496 -0.018346851183722632 0 -0.018346851183722632 0.041640895645947376 0 0 0 0.05979995297748808 0.20117937474518441 -0.012825645606752537 0 -0.012825645606752537 0.0045405030063112167 0 0 0 0.051429969437873903 0.19324935031423196 -0.016225338689321404 0 -0.016225338689321404 0.030845719479873412 0 0 0 0.056023767448526336 0.20933062338417219 -0.014238587142673689 0 -0.014238587142673689 0.032401908703013196 0 0 0 0.060433133021796349 0.21108451624846022 -0.021953299742965483 0 -0.021953299742965483 0.022584226693993556 0 0 0 0.058417185735613449 0.19283058842466241 -0.0068922324247060116 0 -0.0068922324247060116 -0.0093769704934426046 0 0 0 0.045863404482804959 0.17892431033288247 -0.0075430631533143222 0 -0.0075430631533143222 0.0090386016439896744 0 0 0 0.046990727994218023 0.16820247690711276 -0.00030767967037667598 0 -0.00030767967037667598 0.0041520665116869249 0 0 0 0.043088635854699957 0.18639139292131965 0.0032429862290287437 0 0.0032429862290287437 -0.0015880527231227626 0 0 0 0.046200835049549277 0.1863153008510601 0.00091658698512909337 0 0.00091658698512909337 -0.0036089881964492809 0 0 0 0.045676578163652698 0.19138689050332464 -0.0039577694508008722 0 -0.0039577694508008722 0.0064807641599511356 0 0 0 0.049466913665818943 0.18865197333823444 0.005692885453536814 0 0.005692885453536814 0.0099321753008776437 0 0 0 0.049646037159778084 0.19430309163113663 0.0062213055335394313 0 0.0062213055335394313 0.0030957036414115055 0 0 0 0.049349698818137028 0.1974217854118247 -0.00054341998130383665 0 -0.00054341998130383665 0.012336314749280708 0 0 0 0.052439525040276352 0.19969395900823855 0.0046574834492458389 0 0.0046574834492458389 0.019342497018738469 0 0 0 0.054759114006744214 0.20151264127362309 0.0011546769950190675 0 0.0011546769950190675 0.0090652070213093211 0 0 0 0.052644462073733092 0.2035098012674256 -0.0041328511468461809 0 -0.0041328511468461809 0.014376169006441675 0 0 0 0.054471492568466812 0.20698369886849499 -0.00081555299681251858 0 -0.00081555299681251858 0.023886577023416206 0 0 0 0.057717568972977806 0.20188595664072917 0.0019898833282421188 0 0.0019898833282421188 0.019587581718279054 0 0 0 0.055368384589752025 0.19919891748636087 0.0085327525396081821 0 0.0085327525396081821 0.029119384883276173 0 0 0 0.057079575592409289 0.19786491223834979 0.005946506029002499 0 0.005946506029002499 0.034023219960669066 0 0 0 0.057972033049754734 0.20014348162463211 0.0047395141718186359 0 0.0047395141718186359 0.039259510272703191 0 0 0 0.059850747974333846 0.19646774989363563 0.0067736969496380028 0 0.0067736969496380028 0.04638790405579496 0 0 0 0.06071391348735776 0.19151881404378715 0.0070353136225751733 0 0.0070353136225751733 0.044774842413741023 0 0 0 0.059073414114382078 0.19451632424796933 0.0087466333749902925 0 0.0087466333749902925 0.052919200739948213 0 0 0 0.061858881246979414 0.1935810586582549 0.012092600544130402 0 0.012092600544130402 0.053034083113454644 0 0 0 0.061653785442927406 0.19104135854813895 0.011124464779248527 0 0.011124464779248527 0.044673907199817856 0 0 0 0.058928816436989155 0.1950567184255135 0.008177702100184675 0 0.008177702100184675 0.043796815420336421 0 0 0 0.059713383461462599 0.19565454081089212 0.010158951725813992 0 0.010158951725813992 0.039226579407840134 0 0 0 0.058720280054682938 0.1969245153205014 0.011912748837682778 0 0.011912748837682778 0.041639442640040214 0 0 0 0.059640989490135465 0.19401795964503438 0.015043515670461152 0 0.015043515670461152 0.028886944421906591 0 0 0 0.055726226016735256 0.19126258391662307 0.015673952301135795 0 0.015673952301135795 0.05280552425205487 0 0 0 0.061017027042169575 0.18848586262250761 0.015038914310299634 0 0.015038914310299634 0.041754434684141764 0 0 0 0.057560074326662394 0.18688622955852013 0.017320585408156147 0 0.017320585408156147 0.039686741334448286 0 0 0 0.056643242723242115 0.19156507064019651 0.019546780147569887 0 0.019546780147569887 0.053957664662553528 0 0 0 0.061380683825687551 0.19400342464931697 0.017239493467737746 0 0.017239493467737746 0.041547568701524679 0 0 0 0.058887748337710412 0.19714109590585865 0.01237573621018255 0 0.01237573621018255 0.015102574806167779 0 0 0 0.053060917678006733 0.20038720146091576 0.0097317528087167843 0 0.0097317528087167843 0.030979208024043858 0 0 0 0.057841602371239934 0.19461731820128558 0.013564400551586128 0 0.013564400551586128 0.0050969232014321242 0 0 0 0.049928560350679413 0.19815574826671775 0.013252765366793165 0 0.013252765366793165 0.025587756630287117 0 0 0 0.055935876224251196 0.19296960624546119 0.01890320895952817 0 0.01890320895952817 0.038576464089990159 0 0 0 0.057886517583862734 0.19397647356041448 0.021281607675734171 0 0.021281607675734171 0.024425719689992034 0 0 0 0.054600548312601638 0.18671717602973401 0.022057877618314709 0 0.022057877618314709 0.0400297635176175 0 0 0 0.05668673488683771 0.19131408248514664 0.023380584902852816 0 0.023380584902852816 0.054596806665211828 0 0 0 0.061477722287589617 0.18501270374391615 0.025936214619045328 0 0.025936214619045328 0.03486155058726649 0 0 0 0.054968563582795581 0.19182255711656002 0.029612267050266428 0 0.029612267050266428 0.056189628612796361 0 0 0 0.062003046432339073 0.19865124578717339 0.025033098063290876 0 0.025033098063290876 0.039223322391476745 0 0 0 0.059468642044662595 0.20340436090974734 0.034427647662141098 0 0.034427647662141098 0.037239551228842149 0 0 0 0.060160978034647233 0.19277732764408043 0.022085917416257761 0 0.022085917416257761 0.015113296040534463 0 0 0 0.051972655921153826 0.20248452978298775 0.033517639804781715 0 0.033517639804781715 0.036558354956162331 0 0 0 0.059760721184787591 0.18917385258091796 0.029098977765529693 0 0.029098977765529693 0.036548822340793014 0 0 0 0.05643066873042793 0.20188404761972889 0.03772629652458534 0 0.03772629652458534 0.035232278802206488 0 0 0 0.059279081605483661 0.20255791890297065 0.036946911936107649 0 0.036946911936107649 0.061631265553207915 0 0 0 0.066047296114044529 0.2563537978522506 0.043779940919940724 0 0.043779940919940724 0.033371148262210687 0 0 0 0.0724312365286153 0.21647507205919839 0.045608666073078827 0 0.045608666073078827 0.066683786462164329 0 0 0 0.070789714630340728 0.21328157371843665 0.020430542511432989 0 0.020430542511432989 -0.004613748363019865 0 0 0 0.052166956338853987 0.18668297033963444 0.011684439473903574 0 0.011684439473903574 0.0090056979398785431 0 0 0 0.048922167069878245 0.19342131678275667 0.0077309322189858809 0 0.0077309322189858809 -0.0016173047384694939 0 0 0 0.047951003011071941 0.19522803299961361 0.01755674494711093 0 0.01755674494711093 0.021208430748714285 0 0 0 0.054109115937081939 0.17061665451694186 0.0047158404134161613 0 0.0047158404134161613 0.0056606609878617764 0 0 0 0.044069328876200908 0.20697424295331848 -0.0038988016856172925 0 -0.0038988016856172925 0.029811814102184496 0 0 0 0.059196514263875705 0.2057806658531959 -0.0040417994222541834 0 -0.0040417994222541834 0.025758127516799109 0 0 0 0.057884698342498743 0.19570066284515886 0.001162920843424866 0 0.001162920843424866 0.023596059303307736 0 0 0 0.054824180537116629 0.20543516131010275 -0.0028692858804459662 0 -0.0028692858804459662 0.026528408634704279 0 0 0 0.057990892486201762 0.20679044611440991 -0.0037322272598453669 0 -0.0037322272598453669 0.025298735576765791 0 0 0 0.058022295422793933 0.20572772500550596 0.0008937607176981964 0 0.0008937607176981964 0.030622709926620223 0 0 0 0.059087608733031483 0.20467864064140598 -0.0010182542515902726 0 -0.0010182542515902726 0.023044119646211475 0 0 0 0.056930690071904363 0.20603359307581462 -0.0032859023967722265 0 -0.0032859023967722265 0.026671206649685864 0 0 0 0.058176199931375107 0.20772781443774302 -0.0023305473823735101 0 -0.0023305473823735101 0.03090412778740273 0 0 0 0.059657985556286416 0.20218532569869663 -0.0022700268554703001 0 -0.0022700268554703001 0.029067323913766797 0 0 0 0.057813162403115854 0.20713696230073644 -0.0051689448975721954 0 -0.0051689448975721954 0.03860159658317816 0 0 0 0.061434639720978658 0.20011315981091382 0.0017993118851306195 0 0.0017993118851306195 0.028471704351210853 0 0 0 0.057146216040531245 0.20467701424795706 -0.00083094983330985611 0 -0.00083094983330985611 0.038604272433121312 0 0 0 0.060820321670269607 0.19806941327073874 0.0033003016598346325 0 0.0033003016598346325 0.045308802397247605 0 0 0 0.060844553916996724 0.1959856313811541 0.0049206984982659574 0 0.0049206984982659574 0.037976671995070668 0 0 0 0.058490575844056279 0.19877990688039782 0.0006423373053579054 0 0.0006423373053579054 0.037002450203064918 0 0 0 0.058945589270865753 0.19761818306294612 0.0015720698489329749 0 0.0015720698489329749 0.044183286619063344 0 0 0 0.060450367420502388 0.19355151967167869 0.00073290454912641745 0 0.00073290454912641745 0.045256751686437252 0 0 0 0.059702067839529083 0.19638027924492052 -0.00030801807425008543 0 -0.00030801807425008543 0.052979396726152039 0 0 0 0.062339918992768251 0.19590447471048372 0.002217082884633334 0 0.002217082884633334 0.052941182324268643 0 0 0 0.062211414258688091 0.1940198714863747 0.0056161595876192821 0 0.0056161595876192821 0.052378077983104787 0 0 0 0.061599487367369893 0.19180573537934462 0.0046623771504945566 0 0.0046623771504945566 0.043879074905383064 0 0 0 0.058921202571181913 0.20036819498838296 -0.0048695825301185687 0 -0.0048695825301185687 0.045092149821757521 0 0 0 0.061365086202535071 0.19959740489937325 -0.0067305382742374534 0 -0.0067305382742374534 0.035603438419238242 0 0 0 0.058800210829652783 0.19991056813245994 -0.0026123295506727956 0 -0.0026123295506727956 0.044228385890102584 0 0 0 0.061034738505640646 0.19435636194857681 -0.001288286381333742 0 -0.001288286381333742 0.044339214049305603 0 0 0 0.059673893999470491 0.19876445129765064 -0.0037682642986364284 0 -0.0037682642986364284 0.054061811953557193 0 0 0 0.063206565812802262 0.19432331673668882 -0.0064850850190758813 0 -0.0064850850190758813 0.043447878543286543 0 0 0 0.059442798819993627 0.19739592784205723 -0.0079209626017711504 0 -0.0079209626017711504 0.053889747684514377 0 0 0 0.062821418881642874 0.19965999401834997 -0.012405720106549667 0 -0.012405720106549667 0.05551830340640751 0 0 0 0.063794574356189376 0.19461757294643178 -0.0095522405200515748 0 -0.0095522405200515748 0.043392951185899767 0 0 0 0.059502631033082717 0.20292334665817113 -0.017596262307204277 0 -0.017596262307204277 0.056803422598959596 0 0 0 0.064931692314282571 0.19733729436595016 -0.014827158053493827 0 -0.014827158053493827 0.043601629750056159 0 0 0 0.060234731029001461 0.20558432784519154 -0.012124541748928085 0 -0.012124541748928085 0.036645335383438796 0 0 0 0.060557415807157525 0.2002296495678613 -0.010561824810132417 0 -0.010561824810132417 0.040864512379629084 0 0 0 0.060273540486872723 0.20213903117535573 -0.0095669653369181568 0 -0.0095669653369181568 0.045669259269877832 0 0 0 0.06195207261130832 0.20377548455096473 -0.0058765366273627849 0 -0.0058765366273627849 0.026796646520049164 0 0 0 0.057643032767753483 0.20133125121413376 -0.0015759663510699286 0 -0.0015759663510699286 0.02010031135639774 0 0 0 0.055357890642632877 0.20830010974386146 -0.012281947529186207 0 -0.012281947529186207 0.023892573317474516 0 0 0 0.058048170765333938 0.20444086723961935 -0.013229899319924146 0 -0.013229899319924146 0.023975247942547934 0 0 0 0.05710402879554187 0.2080906618654608 -0.014190570322275081 0 -0.014190570322275081 0.038406886507116905 0 0 0 0.06162438709314446 0.19588496585011841 -0.021858634944829022 0 -0.021858634944829022 0.033567034453879679 0 0 0 0.057363000075999634 0.20520617213215256 -0.025599246613123218 0 -0.025599246613123218 0.060343247140689449 0 0 0 0.06638735481821062 0.20070357773210418 -0.02892970373795313 0 -0.02892970373795313 0.031577291365784216 0 0 0 0.058070217274471994 0.2147729987856512 -0.03676168415304782 0 -0.03676168415304782 0.060157179096235469 0 0 0 0.068732544470471765 0.19133937643592902 0.031882441066820158 0 0.031882441066820158 0.024237547844412233 0 0 0 0.053894231070085202 0.20482920278200309 0.039941582216895324 0 0.039941582216895324 0.05677443355651611 0 0 0 0.065400909084629907 0.20964872432000448 -0.0010265690106585623 0 -0.0010265690106585623 -0.66614595826575851 0 0 0 -0.11412430848645272 0.20072667331186686 0.026609043483815181 0 0.026609043483815181 0.058351101991391152 0 0 0 0.064769443825814649 0.46729947569519936 0.0074367670419377419 0 0.0074367670419377419 -0.79058775366240752 0 0 0 -0.080822069491773618 0.19361740885497733 0.023113895349407693 0 0.023113895349407693 0.038355800283377262 0 0 0 0.057993302284588516 0.20335686667105668 0.018882531971539954 0 0.018882531971539954 0.021824801395279397 0 0 0 0.056295417016583936 0.20203574494947113 0.018645882703998813 0 0.018645882703998813 -0.0052984964718956681 0 0 0 0.049184312119393857 0.21129022112942833 0.023292568314616874 0 0.023292568314616874 0.032189397010273832 0 0 0 0.060869904534925488 0.20221750687709344 0.0077891229926709037 0 0.0077891229926709037 0.009994859485297377 0 0 0 0.053053091590597658 0.20223144869732876 0.0089892528480750925 0 0.0089892528480750925 0.02019107795897819 0 0 0 0.05560563166407672 0.20190495447377846 0.0086170167485645141 0 0.0086170167485645141 0.016233381373073001 0 0 0 0.054534583961712964 0.20166998446586706 0.0080434118423023671 0 0.0080434118423023671 0.031075521724442251 0 0 0 0.058186376547577273 0.19729879386440677 0.012728822872490678 0 0.012728822872490678 0.029835618586318752 0 0 0 0.056783603112681331 0.19610700719870924 0.0097543646128514794 0 0.0097543646128514794 0.042258816919148047 0 0 0 0.059591456029464182 0.19798023759856231 0.01686803887622082 0 0.01686803887622082 0.036285194654087083 0 0 0 0.058566358063162446 0.19992008763563868 0.015850118653147744 0 0.015850118653147744 0.04178979474626493 0 0 0 0.06042747059547586 0.1908836593768192 0.015930201916351298 0 0.015930201916351298 0.038976775225744664 0 0 0 0.057465108650640945 0.19766315872466933 0.020021922235658213 0 0.020021922235658213 0.054977335084718248 0 0 0 0.063160123452347006 0.36144971582393737 -0.0013184236633492219 0 -0.0013184236633492219 -0.92271714606545174 0 0 0 -0.14031685756043544 0.19111031574050361 0.012895401395491321 0 0.012895401395491321 0.042283520671411834 0 0 0 0.058348459102979006 0.39778796970722397 0.004796578838330845 0 0.004796578838330845 -0.99933282313958216 0 0 0 -0.15038621335810376 0.19399593704001505 0.014175922107201908 0 0.014175922107201908 0.053260809555974731 0 0 0 0.061814186648997418 0.19528295504144441 0.010118303169134951 0 0.010118303169134951 0.053043859399706128 0 0 0 0.062081703610287614 0.38230131410296053 0.0015138837179264897 0 0.0015138837179264897 -1.0624671287837941 0 0 0 -0.17004145367019419 0.19077196263789636 0.0074081096284513426 0 0.0074081096284513426 0.042491548567458348 0 0 0 0.058315877801338609 0.19264316360489089 0.0062958392415023157 0 0.0062958392415023157 0.051799732717820221 0 0 0 0.0611107240806779 0.38690169521578355 0.0017908537025803639 0 0.0017908537025803639 -1.1007745535046638 0 0 0 -0.1784682145722627 0.19050381084622595 0.00536850246396188 0 0.00536850246396188 0.043652143977565006 0 0 0 0.058538988705947675 0.19460230965563874 0.0034587411166624726 0 0.0034587411166624726 0.043910706573055978 0 0 0 0.059628254057173834 0.19518209357373587 0.0057281138485924948 0 0.0057281138485924948 0.034739339072155234 0 0 0 0.057480358161472789 0.19697968024850887 0.0080982132970513904 0 0.0080982132970513904 0.04407489015411209 0 0 0 0.060263642600655074 0.18919237130495026 -0.00088473978589755087 0 -0.00088473978589755087 0.044010923676674252 0 0 0 0.058300823745406211 0.19090071771663175 0.00010157447475474257 0 0.00010157447475474257 0.051049951364644075 0 0 0 0.060487667270318859 0.38304677864857695 0.0039357198591645215 0 0.0039357198591645215 -1.1190945327773534 0 0 0 -0.18401193853219411 0.18969004495634656 0.00080055671880577273 0 0.00080055671880577273 0.043313024933179956 0 0 0 0.058250767472381781 0.19371497910186261 0.0032175342052371825 0 0.0032175342052371825 0.051947166209761919 0 0 0 0.061415536327906084 0.38431814972636857 0.0023454414247225941 0 0.0023454414247225941 -1.1218911625435908 0 0 0 -0.18439325320429134 0.19516964514450474 0.0020087981523363302 0 0.0020087981523363302 0.044658674713789655 0 0 0 0.059957079964573556 0.19269890869814266 -0.0027345235030299675 0 -0.0027345235030299675 0.044429401291619361 0 0 0 0.059282077497440439 0.19339129525764248 0.00016304575620133821 0 0.00016304575620133821 0.03569479744402676 0 0 0 0.057271523175417241 0.19859610271459971 -0.00090572811234324729 0 -0.00090572811234324729 0.037223940938063083 0 0 0 0.058955010913165587 0.19585618171764654 0.0010625833691790473 0 0.0010625833691790473 0.023998881382113507 0 0 0 0.054963765774939929 0.19868814969943072 0.006544368561161442 0 0.006544368561161442 0.023252547176340149 0 0 0 0.05548517421894273 0.20062236368108757 0.0038099499846599438 0 0.0038099499846599438 0.036573326705698496 0 0 0 0.059298922596696613 0.200923204688958 0.00085993558980910351 0 0.00085993558980910351 0.020994841254462892 0 0 0 0.055479511485855344 0.19993286214673686 -0.0017623773199452325 0 -0.0017623773199452325 0.013160993774863738 0 0 0 0.053273463980400164 0.20251793225822085 0.00073116941850806527 0 0.00073116941850806527 0.026229177977704618 0 0 0 0.057186777558981237 0.20324838410504856 0.00045873177344704641 0 0.00045873177344704641 0.013065841921823005 0 0 0 0.054078556506717959 0.20279225282691854 -0.001361562873645035 0 -0.001361562873645035 0.0098062177608423812 0 0 0 0.053149617646940234 0.20033083950181926 -0.00021323733834959901 0 -0.00021323733834959901 0.0087050804799163831 0 0 0 0.052258979995433844 0.20132016965960459 0.0020949482964563097 0 0.0020949482964563097 0.0069318452031148191 0 0 0 0.052063003715679804 0.19994644179840818 0.0023689914924192529 0 0.0023689914924192529 0.011102940209362394 0 0 0 0.052762345501942684 0.20190759485055765 0.002612463513887428 0 0.002612463513887428 0.016446724178611805 0 0 0 0.054588579757292352 0.20275120834425306 0.0039262560157028083 0 0.0039262560157028083 0.013520827400243365 0 0 0 0.054068008936124047 0.18931762369624269 -0.0033037012193288251 0 -0.0033037012193288251 0.0049108553720160764 0 0 0 0.048557119767064658 0.20301735979327518 -0.014987722668617379 0 -0.014987722668617379 0.015585226342297531 0 0 0 0.054650646533893177 0.20916001398979081 -0.0091733371513235962 0 -0.0091733371513235962 -0.00016149517285551918 0 0 0 0.052249629704233969 0.20118896448306001 -0.011126048460981601 0 -0.011126048460981601 0.0086997334678492466 0 0 0 0.052472174487727286 0.22238645876848395 -0.01660913447760673 0 -0.01660913447760673 -0.0087755953738496428 0 0 0 0.053402715848658633 0.2769895054569082 -0.044026929178090396 0 -0.044026929178090396 0.036741862459215291 0 0 0 0.078432841979030957 0.23180113243323983 -0.048480462351288431 0 -0.048480462351288431 0.071920318236616709 0 0 0 0.075930362667464335 0.59702379497252878 -0.010226473555576376 0 -0.010226473555576376 -0.19714272972981917 0 0 0 0.099970266310606348 0.3755737670153394 0.0019684084520861234 0 0.0019684084520861234 -0.45600406095661583 0 0 0 -0.020107573485290686 0.2092935218325796 -0.036877052984826186 0 -0.036877052984826186 0.064341084777572277 0 0 0 0.068408651652537789 0.2115145919424897 -0.036462793031506943 0 -0.036462793031506943 0.034607742553894871 0 0 0 0.061530583624096274 0.19877401944835954 -0.030939409794600581 0 -0.030939409794600581 0.0418656776869748 0 0 0 0.060159924283833405 0.21138335660068205 -0.027197115097062824 0 -0.027197115097062824 0.01589665020215203 0 0 0 0.056820001700708639 0.22299810714888949 -0.033851869516454525 0 -0.033851869516454525 0.039257827680499124 0 0 0 0.065563983707347256 0.20485506688186439 -0.028700653122791575 0 -0.028700653122791575 0.042861127214900763 0 0 0 0.061929048524191455 0.19595779858945706 -0.017778944503101163 0 -0.017778944503101163 0.024262762118864523 0 0 0 0.055055140177080554 0.203758531455876 -0.02650115729960445 0 -0.02650115729960445 0.042763644020168967 0 0 0 0.06163054386901104 0.19194334384114634 -0.022365881644897098 0 -0.022365881644897098 0.042676584477799651 0 0 0 0.058654982079736545 0.38628696870114254 0.0036203137227559523 0 0.0036203137227559523 -0.61985432089551296 0 0 0 -0.058391838048521549 0.2023114804491094 -0.028591959664064415 0 -0.028591959664064415 0.060107310816835235 0 0 0 0.065604697816486049 0.19395984173693048 -0.021917492184978654 0 -0.021917492184978654 0.055803416032686126 0 0 0 0.062440814442404118 0.37489767930514972 0.0065443430143972137 0 0.0065443430143972137 -0.76617174556486134 0 0 0 -0.097818516564927904 0.1893588577331192 -0.019493562549944637 0 -0.019493562549944637 0.04396870512013562 0 0 0 0.058331890713313905 0.20044034265411514 -0.019547733594682017 0 -0.019547733594682017 0.037659758165837998 0 0 0 0.059525025204988286 0.20843807810325718 -0.019137360106009797 0 -0.019137360106009797 0.023376459418349926 0 0 0 0.057953634380401811 0.1996236539624805 -0.0088344390390581173 0 -0.0088344390390581173 0.0070421735163365695 0 0 0 0.05166645686970428 0.20408236617785108 -0.011964196266094532 0 -0.011964196266094532 0.024799159104618315 0 0 0 0.057220381320617325 0.19895270379526062 -0.0076484757499018299 0 -0.0076484757499018299 0.011501552479763144 0 0 0 0.05261356406875578 0.20277406869410836 -0.007527400337978829 0 -0.007527400337978829 0.027749161427606001 0 0 0 0.057630807530428527 0.19991395462757308 -0.012084763898660325 0 -0.012084763898660325 0.038356389848545613 0 0 0 0.059567586119029667 0.19524958834115277 -0.0077418030351009137 0 -0.0077418030351009137 0.025352983711836391 0 0 0 0.055150643013247319 0.19542989377520142 -0.012439008666462859 0 -0.012439008666462859 0.022242407679544718 0 0 0 0.054418075363686653 0.19242575288014951 -0.016158876879725836 0 -0.016158876879725836 0.041582813893020987 0 0 0 0.058502141693292813 0.19437958185039542 -0.014998302823533288 0 -0.014998302823533288 0.045666912505543611 0 0 0 0.060011623588984694 0.18796375897406839 -0.014419893876250908 0 -0.014419893876250908 0.043835952681471946 0 0 0 0.057949927913885008 0.37698625738221381 0.0034547207720834194 0 0.0034547207720834194 -0.86592680419067847 0 0 0 -0.12223513670210195 0.19211040367513907 -0.017253738711999228 0 -0.017253738711999228 0.054156743790492623 0 0 0 0.06156678686640811 0.18826124493725607 -0.011590284005743648 0 -0.011590284005743648 0.043864409511928548 0 0 0 0.058031413612296162 0.37520744488233504 0.0035473834347357069 0 0.0035473834347357069 -0.95924937542127964 0 0 0 -0.1460104826346651 0.19034101614811472 -0.012780603142267422 0 -0.012780603142267422 0.052574582148483373 0 0 0 0.060728899574149287 0.19341413932405038 -0.010038794708430249 0 -0.010038794708430249 0.044978652598004543 0 0 0 0.059598197980513898 0.19245014508950775 -0.012302035468295877 0 -0.012302035468295877 0.035866190891052863 0 0 0 0.057079083995140181 0.19307654252564538 -0.0085326627642020904 0 -0.0085326627642020904 0.044577312950855985 0 0 0 0.05941346386912541 0.19263554310108261 -0.0057149451759852254 0 -0.0057149451759852254 0.036180711281479511 0 0 0 0.057204063595640633 0.18858677611071317 -0.0067269154226462374 0 -0.0067269154226462374 0.044177106843679037 0 0 0 0.058190970738598011 0.37929099344046335 0.0036715491954382173 0 0.0036715491954382173 -1.024266501638067 0 0 0 -0.16124387704934406 0.19216335527023065 -0.0091218802465840576 0 -0.0091218802465840576 0.052494554777080371 0 0 0 0.061164477511827506 0.38070777294592517 0.0030030538904739501 0 0.0030030538904739501 -1.1047157365274529 0 0 0 -0.18100199089536773 0.19222100469224357 -0.0030069015842555114 0 -0.0030069015842555114 0.05166116413805049 0 0 0 0.060970542207573572 0.1902243355613478 -0.0059820317549594548 0 -0.0059820317549594548 0.051319973456232237 0 0 0 0.06038607725439496 0.38085738228846822 0.0030904233165358619 0 0.0030904233165358619 -1.0715828129756915 0 0 0 -0.17268135767182002 0.18884133644225368 -0.0050432023029176321 0 -0.0050432023029176321 0.043997533128567634 0 0 0 0.058209717392705557 0.19321876980524788 -0.0038975306794226672 0 -0.0038975306794226672 0.044855826865521933 0 0 0 0.059518649167692665 0.19485597843484881 -0.002739351760354676 0 -0.002739351760354676 0.02343469342872484 0 0 0 0.054572667965893454 0.19917236377443578 -0.0060922481782391819 0 -0.0060922481782391819 0.038302141259929305 0 0 0 0.059368626258591364 0.20212350242053545 0.00070748405113010143 0 0.00070748405113010143 0.0069562290323291406 0 0 0 0.052269932863216156 0.20203279085874135 -0.0029769918994766581 0 -0.0029769918994766581 0.025621712044788976 0 0 0 0.056913625725882586 0.19883838075221585 -0.0032322409216572062 0 -0.0032322409216572062 0.014801694323856807 0 0 0 0.053410018769018103 0.20209404241214585 -0.004170276647020292 0 -0.004170276647020292 0.013661730234648339 0 0 0 0.053938943161698574 0.20239764008825301 -0.0046753945384809537 0 -0.0046753945384809537 0.011477231743517113 0 0 0 0.05346871795794253 0.20059293501501352 -0.0033633987030159823 0 -0.0033633987030159823 0.0014579469279145107 0 0 0 0.050512720485731855 0.20115168945479583 -0.0060505858132364858 0 -0.0060505858132364858 0.011700719698454709 0 0 0 0.05321310228831258 0.19879779446569362 0.0010852129353593476 0 0.0010852129353593476 0.0055395596392884411 0 0 0 0.051084338526245554 0.19695706534423149 0.0011124203061254612 0 0.0011124203061254612 -0.00079984046544145926 0 0 0 0.049039306219697522 0.19877372696688242 -0.0017362405363851065 0 -0.0017362405363851065 -0.0011066786183508981 0 0 0 0.049416762087132887 0.18739455565137608 -0.00029620748521148876 0 -0.00029620748521148876 0.0034173790112312086 0 0 0 0.047702983665651844 0.19982732705767114 0.0016644899555384937 0 0.0016644899555384937 -0.0033068758064350862 0 0 0 0.049130112812809018 0.192159838438696 0.0017320943293661155 0 0.0017320943293661155 0.0013316498423547873 0 0 0 0.048372872070262751 0.19823551149572347 0.0019549822498201724 0 0.0019549822498201724 -0.00014733221775958816 0 0 0 0.049522044819490942 0.20250998900828132 -0.00067715966229227147 0 -0.00067715966229227147 0.0032915016332042968 0 0 0 0.051450372660371467 0.20068422591029264 0.0014873761662242205 0 0.0014873761662242205 0.0013599623411787165 0 0 0 0.050511047062867853 0.19885454554798337 0.0023244766527761168 0 0.0023244766527761168 0.0012510844491257778 0 0 0 0.050026407499277274 0.20135251744842506 0.00061086266900173963 0 0.00061086266900173963 0.00068299667286253474 0 0 0 0.050508878530321856 0.20077958340817495 0.0024261809300780909 0 0.0024261809300780909 -0.0017299274649504454 0 0 0 0.049762413985806199 0.19787489187752361 0.0014643018543434683 0 0.0014643018543434683 -0.00091346160624874995 0 0 0 0.049240357567818763 0.20159201115776859 0.00012770237516340419 0 0.00012770237516340419 -0.0056462783412500051 0 0 0 0.048986433204129674 0.2016953056855369 -0.0014539283663984658 0 -0.0014539283663984658 0.0028846854899683659 0 0 0 0.051144997793876386 0.1999316879915565 -0.00042177757937921639 0 -0.00042177757937921639 0.0010477843178134348 0 0 0 0.050244868077342422 0.20133114268552124 0.0010055745373900686 0 0.0010055745373900686 0.004434026156130963 0 0 0 0.051441292210413096 0.20207587276663991 -0.0013276907741539591 0 -0.0013276907741539591 -9.9274146530915763e-05 0 0 0 0.050494149655027187 0.2001597745867347 -0.0015931865019135477 0 -0.0015931865019135477 0.0013105066107038793 0 0 0 0.050367570299359628 0.20010357934666501 -0.00083409528397057273 0 -0.00083409528397057273 0.00034540182844092215 0 0 0 0.050112245293776447 0.19971434800516419 -0.00098855890314352227 0 -0.00098855890314352227 -0.002509087453777939 0 0 0 0.049301315137846531 0.19949114969935405 -0.00044515383376350637 0 -0.00044515383376350637 -0.00013158260054091375 0 0 0 0.049839891774703257 0.19956970467441543 -0.00049518507954696145 0 -0.00049518507954696145 -0.00054070422389914036 0 0 0 0.049757250112629083 0.19704856378468952 -0.0012894769628576663 0 -0.0012894769628576663 -0.00081661856643458486 0 0 0 0.049057986304563754 0.19946079903977124 -0.00014850262595847343 0 -0.00014850262595847343 -0.0022028903466303623 0 0 0 0.049314477173285243 0.20027719372546615 -0.00041722404037222195 0 -0.00041722404037222195 5.2229210047355368e-05 0 0 0 0.050082355733878411 0.20009334553955116 -0.0018454981612644056 0 -0.0018454981612644056 -0.00085543119644631161 0 0 0 0.049809478585776203 0.20335694996445078 5.8638779780045835e-05 0 5.8638779780045835e-05 -0.00088879756501944462 0 0 0 0.050617038099857833 0.203205815590041 0.00026610063455088234 0 0.00026610063455088234 -0.0024859118116362456 0 0 0 0.050179975944601198 0.20303998935181056 0.0022870820104899268 0 0.0022870820104899268 -0.0084667712075511201 0 0 0 0.048643304536064927 0.19956565111653676 0.0047248562421355646 0 0.0047248562421355646 -0.0017444057722322479 0 0 0 0.049455311336076127 0.20157425566610684 0.00031238792108863496 0 0.00031238792108863496 -0.032896095061063127 0 0 0 0.042169540151260974 0.21270485446024551 0.011693084338615253 0 0.011693084338615253 -0.0025974847804990549 0 0 0 0.05252684241993661 0.18768096948742177 0.02435379298206633 0 0.02435379298206633 -0.07705238506876376 0 0 0 0.027657146104664684 0.20383562331679533 0.038216024751076695 0 0.038216024751076695 0.014958123991455692 0 0 0 0.054698436827062928 0.19318585279900657 0.012757440478828404 0 0.012757440478828404 -0.0086516735167475357 0 0 0 0.046133544820564761 0.1998833649947776 0.0069624428412073253 0 0.0069624428412073253 0.008890912970499331 0 0 0 0.052193569491319314 0.20089588256395494 0.0062279647072147788 0 0.0062279647072147788 0.0043375650286391898 0 0 0 0.051308361898148455 0.19886604710874095 0.00072191165836672788 0 0.00072191165836672788 0.0020812950581670479 0 0 0 0.050236835541726983 0.19607805572100712 0.0049702930891689428 0 0.0049702930891689428 0.0041388128139171979 0 0 0 0.05005421713373117 0.19927516997451872 0.00030850007013667573 0 0.00030850007013667573 0.0053652257247799057 0 0 0 0.051160098924824628 0.19988673914091293 0.00023936485279551362 0 0.00023936485279551362 0.00018914685812246703 0 0 0 0.050018971499758827 0.19955431789185657 0.0012783421360797716 0 0.0012783421360797716 0.0022044513868740567 0 0 0 0.050439692319682594 
</DataArray>
</CellData>
</Piece>
</UnstructuredGrid>
</VTKFile>
