<?xml version="1.0"?>
<VTKFile type="UnstructuredGrid" version="0.1" byte_order="LittleEndian">
<UnstructuredGrid>
<Piece NumberOfPoints="880" NumberOfCells="299">
<Points>
<DataArray type="Float64" NumberOfComponents="3" format="ascii">
-0 0 0 0.18653882694645291 0.22249173546702489 0 0 0.25000000000104189 0 -0 0 0 0.18653882694645291 0.22249173546702489 0 0.24999999999941089 0 0 0.24999999999941089 0 0 0.35015135319464608 0.1900339269648805 0 0.49999999999869182 0 0 0.18653882694645291 0.22249173546702489 0 0.24999999999941089 0 0 0.35015135319464608 0.1900339269648805 0 0.35015135319464608 0.1900339269648805 0 0.49924741621175961 0.21507969613896921 0 0.49999999999869182 0 0 0.35015135319464608 0.1900339269648805 0 0.49924741621175961 0.21507969613896921 0 0.40587285776242238 0.32419148732968017 0 0.37764981543668408 0.41341486499350411 0 0.41576443813007791 0.48093483781626972 0 0.45418244162583959 0.41624787166862259 0 0.37764981543668408 0.41341486499350411 0 0.45418244162583959 0.41624787166862259 0 0.40587285776242238 0.32419148732968017 0 0.41576443813007791 0.48093483781626972 0 0.46566719828045178 0.47702825415921918 0 0.45418244162583959 0.41624787166862259 0 0.41576443813007791 0.48093483781626972 0 0.46566719828045178 0.47702825415921918 0 0.4638583922372429 0.51470588235294135 0 0.46566719828045178 0.47702825415921918 0 0.49954900152271581 0.45107191084564019 0 0.5 0.5 0 0.46566719828045178 0.47702825415921918 0 0.4638583922372429 0.51470588235294135 0 0.5 0.5 0 0.46566719828045178 0.47702825415921918 0 0.49954900152271581 0.45107191084564019 0 0.45418244162583959 0.41624787166862259 0 0.45418244162583959 0.41624787166862259 0 0.49435464945626773 0.33318442629318029 0 0.54876010062294855 0.39662628167175101 0 0.45418244162583959 0.41624787166862259 0 0.49435464945626773 0.33318442629318029 0 0.40587285776242238 0.32419148732968017 0 0.49924741621175961 0.21507969613896921 0 0.49435464945626773 0.33318442629318029 0 0.40587285776242238 0.32419148732968017 0 0.35015135319464608 0.1900339269648805 0 0.40587285776242238 0.32419148732968017 0 0.29145599617909779 0.35026601625021492 0 0.37764981543668408 0.41341486499350411 0 0.40587285776242238 0.32419148732968017 0 0.29145599617909779 0.35026601625021492 0 0.18653882694645291 0.22249173546702489 0 0.35015135319464608 0.1900339269648805 0 0.29145599617909779 0.35026601625021492 0 0.29145599617909779 0.35026601625021492 0 0.32540781287085369 0.49175159894608172 0 0.17872124008781709 0.39692711089439497 0 0.37764981543668408 0.41341486499350411 0 0.29145599617909779 0.35026601625021492 0 0.32540781287085369 0.49175159894608172 0 0.37764981543668408 0.41341486499350411 0 0.41576443813007791 0.48093483781626972 0 0.32540781287085369 0.49175159894608172 0 0.17872124008781709 0.39692711089439497 0 0 0.25000000000104189 0 0 0.50000000000206157 0 0.17872124008781709 0.39692711089439497 0 0 0.50000000000206157 0 0.22453074737734591 0.51613635929252633 0 0.32540781287085369 0.49175159894608172 0 0.17872124008781709 0.39692711089439497 0 0.22453074737734591 0.51613635929252633 0 0.18653882694645291 0.22249173546702489 0 0.29145599617909779 0.35026601625021492 0 0.17872124008781709 0.39692711089439497 0 0.18653882694645291 0.22249173546702489 0 0.17872124008781709 0.39692711089439497 0 0 0.25000000000104189 0 0 0.50000000000206157 0 0.18442368612951149 0.62734948407416979 0 0 0.75000000000034772 0 0.18442368612951149 0.62734948407416979 0 0.22727208279115291 0.72949159435386135 0 0 0.75000000000034772 0 0.18442368612951149 0.62734948407416979 0 0.22727208279115291 0.72949159435386135 0 0.31346558946927339 0.67110784456164874 0 0.18442368612951149 0.62734948407416979 0 0.22453074737734591 0.51613635929252633 0 0.31771010312359771 0.58585679504088894 0 0 0.50000000000206157 0 0.18442368612951149 0.62734948407416979 0 0.22453074737734591 0.51613635929252633 0 0 1 0 0.096516139048187316 0.89789944498939644 0 0 0.75000000000034772 0 0 1 0 0.096516139048187316 0.89789944498939644 0 0.1596341872805197 1 0 0.096516139048187316 0.89789944498939644 0 0 0.75000000000034772 0 0.1644705180525495 0.8200994301041713 0 0.1644705180525495 0.8200994301041713 0 0.2386314078659193 0.92924778694987087 0 0.27155609766735261 0.80398965554903801 0 0.22727208279115291 0.72949159435386135 0 0 0.75000000000034772 0 0.1644705180525495 0.8200994301041713 0 0.22727208279115291 0.72949159435386135 0 0.1644705180525495 0.8200994301041713 0 0.27155609766735261 0.80398965554903801 0 0.096516139048187316 0.89789944498939644 0 0.1644705180525495 0.8200994301041713 0 0.2386314078659193 0.92924778694987087 0 0.096516139048187316 0.89789944498939644 0 0.2386314078659193 0.92924778694987087 0 0.1596341872805197 1 0 0.2386314078659193 0.92924778694987087 0 0.1596341872805197 1 0 0.27591592301363282 1 0 0.36061858902161292 1 0 0.32789203369730929 0.94219211037003092 0 0.27591592301363282 1 0 0.36061858902161292 1 0 0.32789203369730929 0.94219211037003092 0 0.39382242252278338 0.95440420122950598 0 0.2386314078659193 0.92924778694987087 0 0.32789203369730929 0.94219211037003092 0 0.27591592301363282 1 0 0.2386314078659193 0.92924778694987087 0 0.32789203369730929 0.94219211037003092 0 0.31834856208730472 0.88134829947972904 0 0.32789203369730929 0.94219211037003092 0 0.37746652222901839 0.8987532801416368 0 0.39382242252278338 0.95440420122950598 0 0.32789203369730929 0.94219211037003092 0 0.31834856208730472 0.88134829947972904 0 0.37746652222901839 0.8987532801416368 0 0.2386314078659193 0.92924778694987087 0 0.31834856208730472 0.88134829947972904 0 0.27155609766735261 0.80398965554903801 0 0.31834856208730472 0.88134829947972904 0 0.36493375430404612 0.82333914183704071 0 0.37746652222901839 0.8987532801416368 0 0.31834856208730472 0.88134829947972904 0 0.36493375430404612 0.82333914183704071 0 0.27155609766735261 0.80398965554903801 0 0.22727208279115291 0.72949159435386135 0 0.27155609766735261 0.80398965554903801 0 0.32984265945580837 0.74432890077789404 0 0.36493375430404612 0.82333914183704071 0 0.27155609766735261 0.80398965554903801 0 0.32984265945580837 0.74432890077789404 0 0.36493375430404612 0.82333914183704071 0 0.39746869305290999 0.7595658224757349 0 0.32984265945580837 0.74432890077789404 0 0.36493375430404612 0.82333914183704071 0 0.39746869305290999 0.7595658224757349 0 0.42893012659725649 0.81084715169569632 0 0.39746869305290999 0.7595658224757349 0 0.42893012659725649 0.81084715169569632 0 0.44651949253391748 0.77225997208621999 0 0.39746869305290999 0.7595658224757349 0 0.44651949253391748 0.77225997208621999 0 0.43412357948152142 0.72128778687215156 0 0.44651949253391748 0.77225997208621999 0 0.47786860714145291 0.77730227330627721 0 0.47220206448452873 0.74892462649306213 0 0.47786860714145291 0.77730227330627721 0 0.47220206448452873 0.74892462649306213 0 0.5 0.76470588235294124 0 0.47786860714145291 0.77730227330627721 0 0.5 0.79411764705882359 0 0.5 0.76470588235294124 0 0.47062147868881782 0.80650323854033878 0 0.5 0.82352941176470584 0 0.5 0.79411764705882359 0 0.47786860714145291 0.77730227330627721 0 0.47062147868881782 0.80650323854033878 0 0.5 0.79411764705882359 0 0.44651949253391748 0.77225997208621999 0 0.47786860714145291 0.77730227330627721 0 0.47062147868881782 0.80650323854033878 0 0.42893012659725649 0.81084715169569632 0 0.44651949253391748 0.77225997208621999 0 0.47062147868881782 0.80650323854033878 0 0.42893012659725649 0.81084715169569632 0 0.47062147868881782 0.80650323854033878 0 0.46181179062043481 0.83858979842637782 0 0.42893012659725649 0.81084715169569632 0 0.46181179062043481 0.83858979842637782 0 0.42880856207355889 0.86677159981903118 0 0.46181179062043481 0.83858979842637782 0 0.5 0.85294117647058831 0 0.5 0.82352941176470584 0 0.47062147868881782 0.80650323854033878 0 0.46181179062043481 0.83858979842637782 0 0.5 0.82352941176470584 0 0.46181179062043481 0.83858979842637782 0 0.47032448519202857 0.86718057681700655 0 0.5 0.85294117647058831 0 0.47032448519202857 0.86718057681700655 0 0.5 0.88235294117647056 0 0.5 0.85294117647058831 0 0.46181179062043481 0.83858979842637782 0 0.47032448519202857 0.86718057681700655 0 0.42880856207355889 0.86677159981903118 0 0.36493375430404612 0.82333914183704071 0 0.42880856207355889 0.86677159981903118 0 0.37746652222901839 0.8987532801416368 0 0.36493375430404612 0.82333914183704071 0 0.42893012659725649 0.81084715169569632 0 0.42880856207355889 0.86677159981903118 0 0.37746652222901839 0.8987532801416368 0 0.42822627495986648 0.92083108049218854 0 0.39382242252278338 0.95440420122950598 0 0.42880856207355889 0.86677159981903118 0 0.37746652222901839 0.8987532801416368 0 0.42822627495986648 0.92083108049218854 0 0.47032448519202857 0.86718057681700655 0 0.42880856207355889 0.86677159981903118 0 0.46100207326614928 0.89524736819256467 0 0.42880856207355889 0.86677159981903118 0 0.42822627495986648 0.92083108049218854 0 0.46100207326614928 0.89524736819256467 0 0.47032448519202857 0.86718057681700655 0 0.46100207326614928 0.89524736819256467 0 0.5 0.88235294117647056 0 0.46100207326614928 0.89524736819256467 0 0.5 0.91176470588235292 0 0.5 0.88235294117647056 0 0.46100207326614928 0.89524736819256467 0 0.46949408183482899 0.92833826413560594 0 0.5 0.91176470588235292 0 0.46949408183482899 0.92833826413560594 0 0.5 0.94117647058823528 0 0.5 0.91176470588235292 0 0.42822627495986648 0.92083108049218854 0 0.46100207326614928 0.89524736819256467 0 0.46949408183482899 0.92833826413560594 0 0.46949408183482899 0.92833826413560594 0 0.44768478605684647 0.9646709673379662 0 0.47596308696979028 0.95620709615192379 0 0.42822627495986648 0.92083108049218854 0 0.46949408183482899 0.92833826413560594 0 0.44768478605684647 0.9646709673379662 0 0.44768478605684647 0.9646709673379662 0 0.47596308696979028 0.95620709615192379 0 0.47818194888216242 0.97829325975680159 0 0.46949408183482899 0.92833826413560594 0 0.47596308696979028 0.95620709615192379 0 0.5 0.94117647058823528 0 0.47596308696979028 0.95620709615192379 0 0.47818194888216242 0.97829325975680159 0 0.5 0.97058823529411764 0 0.47596308696979028 0.95620709615192379 0 0.5 0.97058823529411764 0 0.5 0.94117647058823528 0 0.47818194888216242 0.97829325975680159 0 0.46726187138417491 1 0 0.5 1 0 0.47818194888216242 0.97829325975680159 0 0.5 0.97058823529411764 0 0.5 1 0 0.44768478605684647 0.9646709673379662 0 0.47818194888216242 0.97829325975680159 0 0.46726187138417491 1 0 0.44768478605684647 0.9646709673379662 0 0.46726187138417491 1 0 0.42231823435723009 1 0 0.44768478605684647 0.9646709673379662 0 0.42231823435723009 1 0 0.39382242252278338 0.95440420122950598 0 0.42822627495986648 0.92083108049218854 0 0.44768478605684647 0.9646709673379662 0 0.39382242252278338 0.95440420122950598 0 0.36061858902161292 1 0 0.42231823435723009 1 0 0.39382242252278338 0.95440420122950598 0 0.31771010312359771 0.58585679504088894 0 0.3872154068451229 0.6301386882447304 0 0.41980724897053312 0.55867199730355355 0 0.32540781287085369 0.49175159894608172 0 0.31771010312359771 0.58585679504088894 0 0.41980724897053312 0.55867199730355355 0 0.32540781287085369 0.49175159894608172 0 0.22453074737734591 0.51613635929252633 0 0.31771010312359771 0.58585679504088894 0 0.18442368612951149 0.62734948407416979 0 0.31771010312359771 0.58585679504088894 0 0.31346558946927339 0.67110784456164874 0 0.22727208279115291 0.72949159435386135 0 0.32984265945580837 0.74432890077789404 0 0.31346558946927339 0.67110784456164874 0 0.39746869305290999 0.7595658224757349 0 0.32984265945580837 0.74432890077789404 0 0.38513711431054509 0.69312683393047636 0 0.32984265945580837 0.74432890077789404 0 0.31346558946927339 0.67110784456164874 0 0.38513711431054509 0.69312683393047636 0 0.31771010312359771 0.58585679504088894 0 0.31346558946927339 0.67110784456164874 0 0.3872154068451229 0.6301386882447304 0 0.31346558946927339 0.67110784456164874 0 0.3872154068451229 0.6301386882447304 0 0.38513711431054509 0.69312683393047636 0 0.3872154068451229 0.6301386882447304 0 0.38513711431054509 0.69312683393047636 0 0.4390556798454946 0.66199025953586599 0 0.3872154068451229 0.6301386882447304 0 0.4390556798454946 0.66199025953586599 0 0.44702869549010399 0.61002701911053991 0 0.39746869305290999 0.7595658224757349 0 0.38513711431054509 0.69312683393047636 0 0.43412357948152142 0.72128778687215156 0 0.38513711431054509 0.69312683393047636 0 0.43412357948152142 0.72128778687215156 0 0.4390556798454946 0.66199025953586599 0 0.43412357948152142 0.72128778687215156 0 0.47636314644728822 0.72058823529411908 0 0.47220206448452873 0.74892462649306213 0 0.44651949253391748 0.77225997208621999 0 0.43412357948152142 0.72128778687215156 0 0.47220206448452873 0.74892462649306213 0 0.43412357948152142 0.72128778687215156 0 0.46330219403010409 0.69594601192744354 0 0.4390556798454946 0.66199025953586599 0 0.43412357948152142 0.72128778687215156 0 0.46330219403010409 0.69594601192744354 0 0.47636314644728822 0.72058823529411908 0 0.46330219403010409 0.69594601192744354 0 0.47636314644728822 0.72058823529411908 0 0.5 0.70588235294117663 0 0.46330219403010409 0.69594601192744354 0 0.5 0.67647058823529438 0 0.5 0.70588235294117663 0 0.47636314644728822 0.72058823529411908 0 0.5 0.73529411764705888 0 0.5 0.70588235294117663 0 0.47220206448452873 0.74892462649306213 0 0.5 0.73529411764705888 0 0.5 0.76470588235294124 0 0.47636314644728822 0.72058823529411908 0 0.47220206448452873 0.74892462649306213 0 0.5 0.73529411764705888 0 0.4390556798454946 0.66199025953586599 0 0.47501372853621993 0.66300743809067952 0 0.47271076880550111 0.63357150722538136 0 0.4390556798454946 0.66199025953586599 0 0.47271076880550111 0.63357150722538136 0 0.44702869549010399 0.61002701911053991 0 0.46330219403010409 0.69594601192744354 0 0.4390556798454946 0.66199025953586599 0 0.47501372853621993 0.66300743809067952 0 0.46330219403010409 0.69594601192744354 0 0.47501372853621993 0.66300743809067952 0 0.5 0.67647058823529438 0 0.47501372853621993 0.66300743809067952 0 0.5 0.64705882352941191 0 0.5 0.67647058823529438 0 0.47501372853621993 0.66300743809067952 0 0.47271076880550111 0.63357150722538136 0 0.5 0.64705882352941191 0 0.47271076880550111 0.63357150722538136 0 0.5 0.61764705882352966 0 0.5 0.64705882352941191 0 0.47784843225772261 0.60532339797118362 0 0.5 0.5882352941176473 0 0.5 0.61764705882352966 0 0.47271076880550111 0.63357150722538136 0 0.47784843225772261 0.60532339797118362 0 0.5 0.61764705882352966 0 0.46950269699300751 0.57713611057881953 0 0.5 0.55882352941176494 0 0.5 0.5882352941176473 0 0.47784843225772261 0.60532339797118362 0 0.46950269699300751 0.57713611057881953 0 0.5 0.5882352941176473 0 0.46950269699300751 0.57713611057881953 0 0.44702869549010399 0.61002701911053991 0 0.41980724897053312 0.55867199730355355 0 0.47784843225772261 0.60532339797118362 0 0.46950269699300751 0.57713611057881953 0 0.44702869549010399 0.61002701911053991 0 0.47271076880550111 0.63357150722538136 0 0.47784843225772261 0.60532339797118362 0 0.44702869549010399 0.61002701911053991 0 0.3872154068451229 0.6301386882447304 0 0.44702869549010399 0.61002701911053991 0 0.41980724897053312 0.55867199730355355 0 0.41576443813007791 0.48093483781626972 0 0.32540781287085369 0.49175159894608172 0 0.41980724897053312 0.55867199730355355 0 0.41576443813007791 0.48093483781626972 0 0.41980724897053312 0.55867199730355355 0 0.4638583922372429 0.51470588235294135 0 0.41980724897053312 0.55867199730355355 0 0.4638583922372429 0.51470588235294135 0 0.47063366764015668 0.5477498568705923 0 0.46950269699300751 0.57713611057881953 0 0.41980724897053312 0.55867199730355355 0 0.47063366764015668 0.5477498568705923 0 0.46950269699300751 0.57713611057881953 0 0.47063366764015668 0.5477498568705923 0 0.5 0.55882352941176494 0 0.47063366764015668 0.5477498568705923 0 0.5 0.52941176470588269 0 0.5 0.55882352941176494 0 0.4638583922372429 0.51470588235294135 0 0.47063366764015668 0.5477498568705923 0 0.5 0.52941176470588269 0 0.4638583922372429 0.51470588235294135 0 0.5 0.5 0 0.5 0.52941176470588269 0 0.5 0.52941176470588269 0 0.52629893369322589 0.51330452493555312 0 0.52820848765230954 0.54540076010342464 0 0.5 0.5 0 0.5 0.52941176470588269 0 0.52629893369322589 0.51330452493555312 0 0.5 0.5 0 0.5 0.52941176470588269 0 0.5 0.52941176470588269 0 0.5 0.55882352941176494 0 0.52820848765230954 0.54540076010342464 0 0.5 0.52941176470588269 0 0.5 0.55882352941176494 0 0.5 0.55882352941176494 0 0.52820848765230954 0.54540076010342464 0 0.52246722155046366 0.57417151085839346 0 0.52820848765230954 0.54540076010342464 0 0.56199650931215228 0.51957997397013023 0 0.55931585964581554 0.57571189932143541 0 0.52629893369322589 0.51330452493555312 0 0.56199650931215228 0.51957997397013023 0 0.54128967150166729 0.47213012589832831 0 0.52629893369322589 0.51330452493555312 0 0.52820848765230954 0.54540076010342464 0 0.56199650931215228 0.51957997397013023 0 0.56199650931215228 0.51957997397013023 0 0.61174067805461174 0.54148194547208961 0 0.60345082206666756 0.47575908627627911 0 0.56199650931215228 0.51957997397013023 0 0.61174067805461174 0.54148194547208961 0 0.55931585964581554 0.57571189932143541 0 0.61174067805461174 0.54148194547208961 0 0.61264973759093866 0.60999664295093947 0 0.55931585964581554 0.57571189932143541 0 0.61264973759093866 0.60999664295093947 0 0.55931585964581554 0.57571189932143541 0 0.55828304378107996 0.63546085023637511 0 0.55931585964581554 0.57571189932143541 0 0.52754891270107895 0.60396918438229519 0 0.55828304378107996 0.63546085023637511 0 0.52754891270107895 0.60396918438229519 0 0.52222323737415433 0.63323059203007803 0 0.55828304378107996 0.63546085023637511 0 0.52820848765230954 0.54540076010342464 0 0.55931585964581554 0.57571189932143541 0 0.52246722155046366 0.57417151085839346 0 0.55931585964581554 0.57571189932143541 0 0.52246722155046366 0.57417151085839346 0 0.52754891270107895 0.60396918438229519 0 0.52246722155046366 0.57417151085839346 0 0.5 0.5882352941176473 0 0.52754891270107895 0.60396918438229519 0 0.5 0.55882352941176494 0 0.52246722155046366 0.57417151085839346 0 0.5 0.5882352941176473 0 0.5 0.55882352941176494 0 0.5 0.5882352941176473 0 0.52754891270107895 0.60396918438229519 0 0.5 0.61764705882352966 0 0.52222323737415433 0.63323059203007803 0 0.5 0.5882352941176473 0 0.5 0.61764705882352966 0 0.5 0.5882352941176473 0 0.52754891270107895 0.60396918438229519 0 0.5 0.61764705882352966 0 0.5 0.61764705882352966 0 0.52222323737415433 0.63323059203007803 0 0.5 0.64705882352941191 0 0.5 0.61764705882352966 0 0.5 0.64705882352941191 0 0.52222323737415433 0.63323059203007803 0 0.5 0.64705882352941191 0 0.52736180768426655 0.66304505109048573 0 0.5 0.64705882352941191 0 0.5 0.67647058823529438 0 0.52736180768426655 0.66304505109048573 0 0.5 0.64705882352941191 0 0.5 0.67647058823529438 0 0.5 0.67647058823529438 0 0.52736180768426655 0.66304505109048573 0 0.52189318962165776 0.69193883095305098 0 0.52736180768426655 0.66304505109048573 0 0.52189318962165776 0.69193883095305098 0 0.55852327729743823 0.69498827241231187 0 0.52736180768426655 0.66304505109048573 0 0.55828304378107996 0.63546085023637511 0 0.55852327729743823 0.69498827241231187 0 0.52222323737415433 0.63323059203007803 0 0.52736180768426655 0.66304505109048573 0 0.55828304378107996 0.63546085023637511 0 0.5 0.73529411764705888 0 0.52547133540542634 0.72058823529411897 0 0.5211984712236245 0.75134107022269114 0 0.5 0.73529411764705888 0 0.52547133540542634 0.72058823529411897 0 0.5 0.70588235294117663 0 0.5 0.73529411764705888 0 0.5 0.70588235294117663 0 0.52547133540542634 0.72058823529411897 0 0.5 0.70588235294117663 0 0.52189318962165776 0.69193883095305098 0 0.5 0.67647058823529438 0 0.5 0.70588235294117663 0 0.52189318962165776 0.69193883095305098 0 0.5 0.67647058823529438 0 0.5 0.70588235294117663 0 0.52547133540542634 0.72058823529411897 0 0.52189318962165776 0.69193883095305098 0 0.55852327729743823 0.69498827241231187 0 0.52547133540542634 0.72058823529411897 0 0.5211984712236245 0.75134107022269114 0 0.55458114032207428 0.75544804615062711 0 0.52547133540542634 0.72058823529411897 0 0.55852327729743823 0.69498827241231187 0 0.55458114032207428 0.75544804615062711 0 0.55852327729743823 0.69498827241231187 0 0.6088970477846376 0.72715446211577472 0 0.55458114032207428 0.75544804615062711 0 0.55852327729743823 0.69498827241231187 0 0.6088970477846376 0.72715446211577472 0 0.60110770968787908 0.67045598539422102 0 0.61264973759093866 0.60999664295093947 0 0.55828304378107996 0.63546085023637511 0 0.60110770968787908 0.67045598539422102 0 0.55828304378107996 0.63546085023637511 0 0.55852327729743823 0.69498827241231187 0 0.60110770968787908 0.67045598539422102 0 0.61264973759093866 0.60999664295093947 0 0.60110770968787908 0.67045598539422102 0 0.66621429167335955 0.68470300534742679 0 0.6088970477846376 0.72715446211577472 0 0.66621429167335955 0.68470300534742679 0 0.6817340940367822 0.76923101696744944 0 0.6088970477846376 0.72715446211577472 0 0.60110770968787908 0.67045598539422102 0 0.66621429167335955 0.68470300534742679 0 0.66621429167335955 0.68470300534742679 0 0.6817340940367822 0.76923101696744944 0 0.7828103453665094 0.69876044407634474 0 0.66621429167335955 0.68470300534742679 0 0.69354174170208815 0.57892485983477626 0 0.7828103453665094 0.69876044407634474 0 0.69354174170208815 0.57892485983477626 0 0.77935529174931761 0.49004815756283893 0 0.66681557370681976 0.49435464945626773 0 0.61174067805461174 0.54148194547208961 0 0.69354174170208815 0.57892485983477626 0 0.66681557370681976 0.49435464945626773 0 0.61174067805461174 0.54148194547208961 0 0.60345082206666756 0.47575908627627911 0 0.66681557370681976 0.49435464945626773 0 0.61174067805461174 0.54148194547208961 0 0.61264973759093866 0.60999664295093947 0 0.69354174170208815 0.57892485983477626 0 0.61264973759093866 0.60999664295093947 0 0.66621429167335955 0.68470300534742679 0 0.69354174170208815 0.57892485983477626 0 0.60145933092659498 0.94808652648958736 0 0.57768176564240026 1 0 0.63938141097836054 1 0 0.60145933092659498 0.94808652648958736 0 0.55381003699196441 0.97073734537240042 0 0.55652711631508067 0.93435010280744335 0 0.60145933092659498 0.94808652648958736 0 0.57768176564240026 1 0 0.55381003699196441 0.97073734537240042 0 0.57768176564240026 1 0 0.53273812861558045 1 0 0.55381003699196441 0.97073734537240042 0 0.53273812861558045 1 0 0.55381003699196441 0.97073734537240042 0 0.52191028766292435 0.97912620202886635 0 0.53273812861558045 1 0 0.52191028766292435 0.97912620202886635 0 0.5 1 0 0.52191028766292435 0.97912620202886635 0 0.5 0.97058823529411764 0 0.5 1 0 0.5 0.97058823529411764 0 0.5 1 0 0.5 0.97058823529411764 0 0.5 0.94117647058823528 0 0.5 0.97058823529411764 0 0.5 0.94117647058823528 0 0.52554900427979434 0.95492408164812537 0 0.52191028766292435 0.97912620202886635 0 0.5 0.97058823529411764 0 0.52554900427979434 0.95492408164812537 0 0.5 0.94117647058823528 0 0.52554900427979434 0.95492408164812537 0 0.52149395742518578 0.9280464911497236 0 0.55381003699196441 0.97073734537240042 0 0.52554900427979434 0.95492408164812537 0 0.55652711631508067 0.93435010280744335 0 0.55381003699196441 0.97073734537240042 0 0.52191028766292435 0.97912620202886635 0 0.52554900427979434 0.95492408164812537 0 0.52554900427979434 0.95492408164812537 0 0.55652711631508067 0.93435010280744335 0 0.52149395742518578 0.9280464911497236 0 0.55652711631508067 0.93435010280744335 0 0.52982914238326484 0.89727189043838895 0 0.57507719038536997 0.89743529736491356 0 0.55652711631508067 0.93435010280744335 0 0.52149395742518578 0.9280464911497236 0 0.52982914238326484 0.89727189043838895 0 0.52149395742518578 0.9280464911497236 0 0.5 0.91176470588235292 0 0.52982914238326484 0.89727189043838895 0 0.5 0.94117647058823528 0 0.5 0.91176470588235292 0 0.5 0.94117647058823528 0 0.52149395742518578 0.9280464911497236 0 0.5 0.91176470588235292 0 0.5 0.91176470588235292 0 0.5 0.88235294117647056 0 0.52982914238326484 0.89727189043838895 0 0.5 0.91176470588235292 0 0.5 0.88235294117647056 0 0.5 0.88235294117647056 0 0.52982914238326484 0.89727189043838895 0 0.51991574276818808 0.86764705882352966 0 0.52982914238326484 0.89727189043838895 0 0.57507719038536997 0.89743529736491356 0 0.54799184932697576 0.8599032232094268 0 0.60145933092659498 0.94808652648958736 0 0.55652711631508067 0.93435010280744335 0 0.57507719038536997 0.89743529736491356 0 0.60145933092659498 0.94808652648958736 0 0.57507719038536997 0.89743529736491356 0 0.63427031498547037 0.88927276979110648 0 0.57507719038536997 0.89743529736491356 0 0.58994607995897996 0.84812355238296233 0 0.63427031498547037 0.88927276979110648 0 0.58994607995897996 0.84812355238296233 0 0.64153141236229239 0.83072478436463804 0 0.63427031498547037 0.88927276979110648 0 0.58994607995897996 0.84812355238296233 0 0.60049020024666178 0.78900583008989877 0 0.64153141236229239 0.83072478436463804 0 0.58994607995897996 0.84812355238296233 0 0.54799184932697576 0.8599032232094268 0 0.55206941203846505 0.81091931303809783 0 0.58994607995897996 0.84812355238296233 0 0.55206941203846505 0.81091931303809783 0 0.60049020024666178 0.78900583008989877 0 0.57507719038536997 0.89743529736491356 0 0.58994607995897996 0.84812355238296233 0 0.54799184932697576 0.8599032232094268 0 0.52982914238326484 0.89727189043838895 0 0.54799184932697576 0.8599032232094268 0 0.51991574276818808 0.86764705882352966 0 0.54799184932697576 0.8599032232094268 0 0.51991574276818808 0.86764705882352966 0 0.52395085592512047 0.83729395211968571 0 0.51991574276818808 0.86764705882352966 0 0.5 0.85294117647058831 0 0.52395085592512047 0.83729395211968571 0 0.5 0.88235294117647056 0 0.5 0.85294117647058831 0 0.5 0.88235294117647056 0 0.51991574276818808 0.86764705882352966 0 0.5 0.85294117647058831 0 0.5 0.82352941176470584 0 0.52395085592512047 0.83729395211968571 0 0.52039202967084142 0.80930587873000437 0 0.5 0.85294117647058831 0 0.5 0.82352941176470584 0 0.5 0.85294117647058831 0 0.5 0.82352941176470584 0 0.52395085592512047 0.83729395211968571 0 0.52395085592512047 0.83729395211968571 0 0.55206941203846505 0.81091931303809783 0 0.52039202967084142 0.80930587873000437 0 0.54799184932697576 0.8599032232094268 0 0.52395085592512047 0.83729395211968571 0 0.55206941203846505 0.81091931303809783 0 0.55206941203846505 0.81091931303809783 0 0.52039202967084142 0.80930587873000437 0 0.52593988039062167 0.78066906966870908 0 0.55206941203846505 0.81091931303809783 0 0.52593988039062167 0.78066906966870908 0 0.55458114032207428 0.75544804615062711 0 0.52039202967084142 0.80930587873000437 0 0.5 0.79411764705882359 0 0.52593988039062167 0.78066906966870908 0 0.5 0.82352941176470584 0 0.5 0.79411764705882359 0 0.5 0.82352941176470584 0 0.52039202967084142 0.80930587873000437 0 0.5 0.79411764705882359 0 0.5 0.73529411764705888 0 0.5 0.76470588235294124 0 0.5 0.73529411764705888 0 0.5 0.76470588235294124 0 0.5211984712236245 0.75134107022269114 0 0.5 0.79411764705882359 0 0.5 0.76470588235294124 0 0.52593988039062167 0.78066906966870908 0 0.5 0.79411764705882359 0 0.5 0.76470588235294124 0 0.5 0.76470588235294124 0 0.52593988039062167 0.78066906966870908 0 0.5211984712236245 0.75134107022269114 0 0.52593988039062167 0.78066906966870908 0 0.5211984712236245 0.75134107022269114 0 0.55458114032207428 0.75544804615062711 0 0.6088970477846376 0.72715446211577472 0 0.55458114032207428 0.75544804615062711 0 0.60049020024666178 0.78900583008989877 0 0.55206941203846505 0.81091931303809783 0 0.55458114032207428 0.75544804615062711 0 0.60049020024666178 0.78900583008989877 0 0.6817340940367822 0.76923101696744944 0 0.70916369539323409 0.86041409043207073 0 0.80987878298654392 0.8110307373443908 0 0.6088970477846376 0.72715446211577472 0 0.60049020024666178 0.78900583008989877 0 0.6817340940367822 0.76923101696744944 0 0.60049020024666178 0.78900583008989877 0 0.6817340940367822 0.76923101696744944 0 0.64153141236229239 0.83072478436463804 0 0.70916369539323409 0.86041409043207073 0 0.64153141236229239 0.83072478436463804 0 0.63427031498547037 0.88927276979110648 0 0.6817340940367822 0.76923101696744944 0 0.70916369539323409 0.86041409043207073 0 0.64153141236229239 0.83072478436463804 0 0.70916369539323409 0.86041409043207073 0 0.68173274398262862 0.93660593960145366 0 0.63427031498547037 0.88927276979110648 0 0.60145933092659498 0.94808652648958736 0 0.68173274398262862 0.93660593960145366 0 0.63427031498547037 0.88927276979110648 0 0.70916369539323409 0.86041409043207073 0 0.68173274398262862 0.93660593960145366 0 0.78222494485339233 0.91531439423588867 0 0.68173274398262862 0.93660593960145366 0 0.72408407698689681 1 0 0.78222494485339233 0.91531439423588867 0 0.60145933092659498 0.94808652648958736 0 0.68173274398262862 0.93660593960145366 0 0.63938141097836054 1 0 0.68173274398262862 0.93660593960145366 0 0.72408407698689681 1 0 0.63938141097836054 1 0 1 1 0 0.89611933618281592 0.89173516444576184 0 1 0.74999999999934008 0 0.72408407698689681 1 0 0.84036581271988753 1 0 0.78222494485339233 0.91531439423588867 0 0.84036581271988753 1 0 0.78222494485339233 0.91531439423588867 0 0.89611933618281592 0.89173516444576184 0 0.6817340940367822 0.76923101696744944 0 0.80987878298654392 0.8110307373443908 0 0.7828103453665094 0.69876044407634474 0 0.80987878298654392 0.8110307373443908 0 0.7828103453665094 0.69876044407634474 0 1 0.74999999999934008 0 0.78222494485339233 0.91531439423588867 0 0.80987878298654392 0.8110307373443908 0 0.89611933618281592 0.89173516444576184 0 0.70916369539323409 0.86041409043207073 0 0.78222494485339233 0.91531439423588867 0 0.80987878298654392 0.8110307373443908 0 0.80987878298654392 0.8110307373443908 0 0.89611933618281592 0.89173516444576184 0 1 0.74999999999934008 0 0.84036581271988753 1 0 1 1 0 0.89611933618281592 0.89173516444576184 0 0.84549316180028322 0.59867304496468476 0 1 0.74999999999934008 0 1 0.49999999999869182 0 0.69354174170208815 0.57892485983477626 0 0.84549316180028322 0.59867304496468476 0 0.77935529174931761 0.49004815756283893 0 0.84549316180028322 0.59867304496468476 0 1 0.49999999999869182 0 0.77935529174931761 0.49004815756283893 0 0.69354174170208815 0.57892485983477626 0 0.84549316180028322 0.59867304496468476 0 0.7828103453665094 0.69876044407634474 0 0.84549316180028322 0.59867304496468476 0 0.7828103453665094 0.69876044407634474 0 1 0.74999999999934008 0 1 0.49999999999869182 0 0.77935529174931761 0.49004815756283893 0 0.80451351819826811 0.35479918680564199 0 0.80451351819826811 0.35479918680564199 0 1 0.24999999999941089 0 0.79923457477009219 0.1751534052300894 0 1 0.49999999999869182 0 0.80451351819826811 0.35479918680564199 0 1 0.24999999999941089 0 1 0 0 0.79923457477009219 0.1751534052300894 0 0.74999999999934008 0 0 1 0.24999999999941089 0 1 0 0 0.79923457477009219 0.1751534052300894 0 0.49999999999869182 0 0 0.62537763927714929 0.14286513648320209 0 0.74999999999934008 0 0 0.79923457477009219 0.1751534052300894 0 0.62537763927714929 0.14286513648320209 0 0.6197279975813802 0.30020319976287241 0 0.79923457477009219 0.1751534052300894 0 0.62537763927714929 0.14286513648320209 0 0.74999999999934008 0 0 0.49924741621175961 0.21507969613896921 0 0.49999999999869182 0 0 0.62537763927714929 0.14286513648320209 0 0.49924741621175961 0.21507969613896921 0 0.62537763927714929 0.14286513648320209 0 0.6197279975813802 0.30020319976287241 0 0.49924741621175961 0.21507969613896921 0 0.49435464945626773 0.33318442629318029 0 0.6197279975813802 0.30020319976287241 0 0.49435464945626773 0.33318442629318029 0 0.6197279975813802 0.30020319976287241 0 0.54876010062294855 0.39662628167175101 0 0.6197279975813802 0.30020319976287241 0 0.54876010062294855 0.39662628167175101 0 0.66576775508844777 0.41353720431697111 0 0.49954900152271581 0.45107191084564019 0 0.45418244162583959 0.41624787166862259 0 0.54876010062294855 0.39662628167175101 0 0.49954900152271581 0.45107191084564019 0 0.54876010062294855 0.39662628167175101 0 0.54128967150166729 0.47213012589832831 0 0.49954900152271581 0.45107191084564019 0 0.5 0.5 0 0.54128967150166729 0.47213012589832831 0 0.5 0.5 0 0.52629893369322589 0.51330452493555312 0 0.54128967150166729 0.47213012589832831 0 0.54876010062294855 0.39662628167175101 0 0.54128967150166729 0.47213012589832831 0 0.60345082206666756 0.47575908627627911 0 0.56199650931215228 0.51957997397013023 0 0.54128967150166729 0.47213012589832831 0 0.60345082206666756 0.47575908627627911 0 0.54876010062294855 0.39662628167175101 0 0.60345082206666756 0.47575908627627911 0 0.66576775508844777 0.41353720431697111 0 0.77935529174931761 0.49004815756283893 0 0.80451351819826811 0.35479918680564199 0 0.66576775508844777 0.41353720431697111 0 0.60345082206666756 0.47575908627627911 0 0.66576775508844777 0.41353720431697111 0 0.66681557370681976 0.49435464945626773 0 0.77935529174931761 0.49004815756283893 0 0.66576775508844777 0.41353720431697111 0 0.66681557370681976 0.49435464945626773 0 0.80451351819826811 0.35479918680564199 0 0.79923457477009219 0.1751534052300894 0 0.6197279975813802 0.30020319976287241 0 0.80451351819826811 0.35479918680564199 0 0.6197279975813802 0.30020319976287241 0 0.66576775508844777 0.41353720431697111 0 
</DataArray>
</Points>
<Cells>
<DataArray type="UInt32" Name="connectivity" format="ascii">
0 1 2 3 4 5 6 7 8 9 10 11 12 13 14 15 16 17 18 19 20 21 22 23 24 25 26 27 28 29 30 31 32 33 34 35 36 37 38 39 40 41 42 43 44 45 46 47 48 49 50 51 52 53 54 55 56 57 58 59 60 61 62 63 64 65 66 67 68 69 70 71 72 73 74 75 76 77 78 79 80 81 82 83 84 85 86 87 88 89 90 91 92 93 94 95 96 97 98 99 100 101 102 103 104 105 106 107 108 109 110 111 112 113 114 115 116 117 118 119 120 121 122 123 124 125 126 127 128 129 130 131 132 133 134 135 136 137 138 139 140 141 142 143 144 145 146 147 148 149 150 151 152 153 154 155 156 157 158 159 160 161 162 163 164 165 166 167 168 169 170 171 172 173 174 175 176 177 178 179 180 181 182 183 184 185 186 187 188 189 190 191 192 193 194 195 196 197 198 199 200 201 202 203 204 205 206 207 208 209 210 211 212 213 214 215 216 217 218 219 220 221 222 223 224 225 226 227 228 229 230 231 232 233 234 235 236 237 238 239 240 241 242 243 244 245 246 247 248 249 250 251 252 253 254 255 256 257 258 259 260 261 262 263 264 265 266 267 268 269 270 271 272 273 274 275 276 277 278 279 280 281 282 283 284 285 286 287 288 289 290 291 292 293 294 295 296 297 298 299 300 301 302 303 304 305 306 307 308 309 310 311 312 313 314 315 316 317 318 319 320 321 322 323 324 325 326 327 328 329 330 331 332 333 334 335 336 337 338 339 340 341 342 343 344 345 346 347 348 349 350 351 352 353 354 355 356 357 358 359 360 361 362 363 364 365 366 367 368 369 370 371 372 373 374 375 376 377 378 379 380 381 382 383 384 385 386 387 388 389 390 391 392 393 394 395 396 397 398 399 400 401 402 403 404 405 406 407 408 409 410 411 412 413 414 415 416 417 418 419 420 421 422 423 424 425 426 427 428 429 430 431 432 433 434 435 436 437 438 439 440 441 442 443 444 445 446 447 448 449 450 451 452 453 454 455 456 457 458 459 460 461 462 463 464 465 466 467 468 469 470 471 472 473 474 475 476 477 478 479 480 481 482 483 484 485 486 487 488 489 490 491 492 493 494 495 496 497 498 499 500 501 502 503 504 505 506 507 508 509 510 511 512 513 514 515 516 517 518 519 520 521 522 523 524 525 526 527 528 529 530 531 532 533 534 535 536 537 538 539 540 541 542 543 544 545 546 547 548 549 550 551 552 553 554 555 556 557 558 559 560 561 562 563 564 565 566 567 568 569 570 571 572 573 574 575 576 577 578 579 580 581 582 583 584 585 586 587 588 589 590 591 592 593 594 595 596 597 598 599 600 601 602 603 604 605 606 607 608 609 610 611 612 613 614 615 616 617 618 619 620 621 622 623 624 625 626 627 628 629 630 631 632 633 634 635 636 637 638 639 640 641 642 643 644 645 646 647 648 649 650 651 652 653 654 655 656 657 658 659 660 661 662 663 664 665 666 667 668 669 670 671 672 673 674 675 676 677 678 679 680 681 682 683 684 685 686 687 688 689 690 691 692 693 694 695 696 697 698 699 700 701 702 703 704 705 706 707 708 709 710 711 712 713 714 715 716 717 718 719 720 721 722 723 724 725 726 727 728 729 730 731 732 733 734 735 736 737 738 739 740 741 742 743 744 745 746 747 748 749 750 751 752 753 754 755 756 757 758 759 760 761 762 763 764 765 766 767 768 769 770 771 772 773 774 775 776 777 778 779 780 781 782 783 784 785 786 787 788 789 790 791 792 793 794 795 796 797 798 799 800 801 802 803 804 805 806 807 808 809 810 811 812 813 814 815 816 817 818 819 820 821 822 823 824 825 826 827 828 829 830 831 832 833 834 835 836 837 838 839 840 841 842 843 844 845 846 847 848 849 850 851 852 853 854 855 856 857 858 859 860 861 862 863 864 865 866 867 868 869 870 871 872 873 874 875 876 877 878 879 
</DataArray>
<DataArray type="UInt32" Name="offsets" format="ascii">
3 6 9 12 15 18 21 24 27 30 33 36 39 42 45 48 51 54 57 60 63 66 69 72 75 78 81 84 87 90 93 96 99 102 105 108 111 114 117 120 123 126 129 132 135 138 141 144 147 150 153 156 159 162 165 168 171 174 177 180 183 186 189 192 195 198 201 204 207 210 213 216 219 222 225 228 231 234 237 240 243 246 249 252 255 258 261 264 267 270 273 276 279 282 285 288 291 294 297 300 303 306 309 312 315 318 321 324 327 330 333 336 339 342 345 348 351 354 357 360 363 366 369 372 375 378 381 384 387 390 393 396 399 402 405 408 411 414 417 420 423 425 428 430 433 436 439 442 445 448 451 454 457 460 463 466 469 472 474 477 479 482 485 487 490 493 495 498 501 504 507 510 513 515 518 521 523 526 529 532 535 538 541 544 547 550 553 556 559 562 565 568 571 574 577 580 583 586 589 592 595 597 599 602 605 608 611 614 617 620 623 626 628 631 634 636 639 642 645 648 651 654 657 660 663 666 669 672 675 677 680 683 685 688 691 694 697 700 703 705 708 710 713 716 718 721 724 727 730 733 736 739 742 745 748 751 754 757 760 763 766 769 772 775 778 781 784 787 790 793 796 799 802 805 808 811 814 817 820 823 826 829 832 835 838 841 844 847 850 853 856 859 862 865 868 871 874 877 880 
</DataArray>
<DataArray type="UInt32" Name="types" format="ascii">
5 5 5 5 5 5 5 5 5 5 5 5 5 5 5 5 5 5 5 5 5 5 5 5 5 5 5 5 5 5 5 5 5 5 5 5 5 5 5 5 5 5 5 5 5 5 5 5 5 5 5 5 5 5 5 5 5 5 5 5 5 5 5 5 5 5 5 5 5 5 5 5 5 5 5 5 5 5 5 5 5 5 5 5 5 5 5 5 5 5 5 5 5 5 5 5 5 5 5 5 5 5 5 5 5 5 5 5 5 5 5 5 5 5 5 5 5 5 5 5 5 5 5 5 5 5 5 5 5 5 5 5 5 5 5 5 5 5 5 5 5 3 5 3 5 5 5 5 5 5 5 5 5 5 5 5 5 5 3 5 3 5 5 3 5 5 3 5 5 5 5 5 5 3 5 5 3 5 5 5 5 5 5 5 5 5 5 5 5 5 5 5 5 5 5 5 5 5 5 5 5 3 3 5 5 5 5 5 5 5 5 5 3 5 5 3 5 5 5 5 5 5 5 5 5 5 5 5 5 3 5 5 3 5 5 5 5 5 5 3 5 3 5 5 3 5 5 5 5 5 5 5 5 5 5 5 5 5 5 5 5 5 5 5 5 5 5 5 5 5 5 5 5 5 5 5 5 5 5 5 5 5 5 5 5 5 5 5 5 5 5 5 5 5 5 5 5 5 5 
</DataArray>
</Cells>
<PointData Scalars="" Vectors="displacement," Tensors="">
<DataArray type="Float64" Name="displacement" NumberOfComponents="3" format="ascii">
-2.6334260925339869e-05 -9.5736449837133884e-06 0 -0.0021368901505308168 -0.021501638279789872 0 2.3050430733986936e-06 -9.8191866343739036e-06 0 -2.6334260925339869e-05 -9.5736449837133884e-06 0 -0.0021368901505308155 -0.021501638279789868 0 -0.0080921469998919606 -0.028374548933957994 0 -0.0080921469998919606 -0.028374548933957994 0 -0.0025453250357045159 -0.038150349757628037 0 -9.3132520860364932e-05 -0.041326952740159816 0 -0.0021368901505308168 -0.021501638279789872 0 -0.0080921469998919606 -0.028374548933957994 0 -0.0025453250357045164 -0.038150349757628037 0 -0.0025453250357045164 -0.038150349757628037 0 0.0003446543035498386 -0.044472318627136791 0 -9.3132520860364932e-05 -0.041326952740159816 0 -0.0025453250357045164 -0.038150349757628037 0 0.0003446543035498386 -0.044472318627136791 0 -0.0027162475673560187 -0.046147717660552812 0 -0.0035190806472685993 -0.047445670124861145 0 -0.0032113516502310598 -0.056238682147840759 0 -0.0023568704808000964 -0.056468897579863973 0 -0.0035190806472685993 -0.047445670124861145 0 -0.0023568704808000964 -0.056468897579863973 0 -0.0027162475673560187 -0.046147717660552812 0 -0.0032113516502310598 -0.056238682147840759 0 -0.0025441541225928476 -0.06371833297037223 0 -0.0023568704808000964 -0.056468897579863973 0 -0.0032113516502310598 -0.056238682147840759 0 -0.0025441541225928485 -0.063718332970372216 0 -0.0013107354555509966 -0.06685728423820117 0 -0.0025441541225928481 -0.063718332970372216 0 0.00013142087326047179 -0.062699608717498412 0 -9.7029942557541466e-05 -0.076290920731675649 0 -0.0025441541225928481 -0.063718332970372216 0 -0.0013107354555509968 -0.06685728423820117 0 -9.7029942557541466e-05 -0.076290920731675649 0 -0.0025441541225928481 -0.063718332970372216 0 0.00013142087326047179 -0.062699608717498412 0 -0.0023568704808000964 -0.056468897579863973 0 -0.0023568704808000964 -0.056468897579863973 0 -0.00014917003588944464 -0.050275073037606144 0 0.0022932569762759928 -0.053998985055895315 0 -0.0023568704808000964 -0.056468897579863973 0 -0.00014917003588944464 -0.050275073037606144 0 -0.0027162475673560187 -0.046147717660552812 0 0.0003446543035498386 -0.044472318627136791 0 -0.00014917003588944521 -0.050275073037606137 0 -0.0027162475673560187 -0.046147717660552812 0 -0.0025453250357045164 -0.038150349757628037 0 -0.0027162475673560187 -0.046147717660552812 0 -0.0032335835316478941 -0.035619766790563126 0 -0.0035190806472685993 -0.047445670124861145 0 -0.0027162475673560187 -0.046147717660552812 0 -0.0032335835316478941 -0.035619766790563126 0 -0.0021368901505308168 -0.021501638279789872 0 -0.0025453250357045164 -0.038150349757628037 0 -0.0032335835316478941 -0.035619766790563126 0 -0.0032335835316478941 -0.035619766790563126 0 -0.0036909527178013626 -0.043467883125567063 0 -0.0026873370244605865 -0.022546125970604521 0 -0.0035190806472685993 -0.047445670124861145 0 -0.0032335835316478941 -0.035619766790563126 0 -0.0036909527178013626 -0.043467883125567063 0 -0.0035190806472685993 -0.047445670124861145 0 -0.0032113516502310603 -0.056238682147840759 0 -0.0036909527178013626 -0.043467883125567063 0 -0.0026873370244605865 -0.022546125970604521 0 2.3050430733986936e-06 -9.8191866343739036e-06 0 -5.4329359911404591e-06 -1.169818623353729e-05 0 -0.0026873370244605865 -0.022546125970604521 0 -5.4329359911404591e-06 -1.169818623353729e-05 0 -0.0028745880669313528 -0.030075932500240574 0 -0.0036909527178013626 -0.043467883125567063 0 -0.0026873370244605865 -0.022546125970604521 0 -0.0028745880669313528 -0.030075932500240574 0 -0.0021368901505308168 -0.021501638279789872 0 -0.0032335835316478941 -0.035619766790563126 0 -0.0026873370244605865 -0.022546125970604521 0 -0.0021368901505308168 -0.021501638279789872 0 -0.0026873370244605865 -0.022546125970604521 0 2.3050430733986936e-06 -9.8191866343739036e-06 0 -5.4329359911404591e-06 -1.169818623353729e-05 0 -0.0021006739234647686 -0.025548283945965491 0 -4.9268104140310783e-06 -7.4827457766616433e-06 0 -0.0021006739234647686 -0.025548283945965491 0 -0.0013715868810167328 -0.032843065546315255 0 -4.9268104140310783e-06 -7.4827457766616433e-06 0 -0.0021006739234647686 -0.025548283945965491 0 -0.0013715868810167328 -0.032843065546315255 0 -0.0022667474308025069 -0.047099621899736543 0 -0.0021006739234647686 -0.025548283945965491 0 -0.0028745880669313528 -0.030075932500240574 0 -0.0026837091874572765 -0.045562951405938398 0 -5.4329359911404591e-06 -1.169818623353729e-05 0 -0.0021006739234647694 -0.025548283945965498 0 -0.0028745880669313528 -0.030075932500240574 0 3.0658639803860957e-05 -1.1593101617268384e-05 0 0.0028631829526224659 -0.011585027869822602 0 -4.9268104140310783e-06 -7.4827457766616433e-06 0 3.0658639803860957e-05 -1.1593101617268384e-05 0 0.0028631829526224672 -0.011585027869822604 0 0.015056336416692486 -0.022935505502694992 0 0.0028631829526224659 -0.011585027869822602 0 -4.9268104140310783e-06 -7.4827457766616433e-06 0 0.00067197714347348768 -0.022859726218073084 0 0.00067197714347348768 -0.022859726218073084 0 0.0083692730519500901 -0.036373343506211624 0 8.8525621662860116e-05 -0.041993193408015779 0 -0.0013715868810167328 -0.032843065546315255 0 -4.9268104140317653e-06 -7.4827457766591928e-06 0 0.00067197714347348768 -0.022859726218073084 0 -0.0013715868810167328 -0.032843065546315255 0 0.00067197714347348768 -0.022859726218073084 0 8.8525621662860116e-05 -0.041993193408015779 0 0.0028631829526224659 -0.011585027869822602 0 0.00067197714347348801 -0.022859726218073088 0 0.0083692730519500901 -0.036373343506211624 0 0.0028631829526224659 -0.011585027869822602 0 0.0083692730519500901 -0.036373343506211624 0 0.015056336416692486 -0.022935505502694992 0 0.0083692730519500901 -0.036373343506211624 0 0.015056336416692486 -0.022935505502694992 0 0.019104144452162072 -0.043689431810818531 0 0.018167786715653174 -0.060654829429135131 0 0.0095101657729973425 -0.054225352875291746 0 0.019104144452162072 -0.043689431810818531 0 0.018167786715653174 -0.060654829429135131 0 0.0095101657729973425 -0.054225352875291746 0 0.0083615492149040557 -0.068953427480515833 0 0.0083692730519500901 -0.036373343506211624 0 0.0095101657729973425 -0.054225352875291746 0 0.019104144452162072 -0.043689431810818531 0 0.0083692730519500901 -0.036373343506211624 0 0.0095101657729973425 -0.054225352875291746 0 0.0041248794224799535 -0.052061887482827467 0 0.0095101657729973425 -0.054225352875291746 0 0.0037557036527392103 -0.065216422987519798 0 0.0083615492149040557 -0.068953427480515833 0 0.0095101657729973425 -0.054225352875291746 0 0.0041248794224799526 -0.052061887482827467 0 0.0037557036527392103 -0.065216422987519798 0 0.0083692730519500901 -0.036373343506211624 0 0.0041248794224799535 -0.052061887482827467 0 8.8525621662860116e-05 -0.041993193408015779 0 0.0041248794224799535 -0.052061887482827467 0 0.00027157505293701775 -0.061191744279227356 0 0.0037557036527392103 -0.065216422987519798 0 0.0041248794224799535 -0.052061887482827467 0 0.00027157505293701775 -0.061191744279227356 0 8.8525621662860116e-05 -0.041993193408015779 0 -0.0013715868810167328 -0.032843065546315255 0 8.8525621662860116e-05 -0.041993193408015779 0 -0.0012993608924055508 -0.052105472357218532 0 0.00027157505293701775 -0.061191744279227356 0 8.8525621662860116e-05 -0.041993193408015779 0 -0.0012993608924055508 -0.052105472357218532 0 0.00027157505293701775 -0.061191744279227356 0 -0.00094544807422280031 -0.065855282607739804 0 -0.0012993608924055508 -0.052105472357218532 0 0.00027157505293701775 -0.061191744279227356 0 -0.00094544807422280031 -0.065855282607739804 0 -0.00026804509071861368 -0.074170213612909611 0 -0.00094544807422280031 -0.065855282607739804 0 -0.00026804509071861373 -0.074170213612909611 0 -0.00055313216856420688 -0.075892039740660888 0 -0.00094544807422280031 -0.065855282607739804 0 -0.00055313216856420688 -0.075892039740660888 0 -0.00090188954007399942 -0.071351621019051181 0 -0.00055313216856420688 -0.075892039740660888 0 -0.00030585606759617461 -0.081897383244472308 0 -0.00042393235168002963 -0.07954402217500986 0 -0.00030585606759617461 -0.081897383244472308 0 -0.00042393235168002963 -0.07954402217500986 0 -0.0001391542089366771 -0.085107042945418182 0 -0.00030585606759617461 -0.081897383244472308 0 -0.00013069901044439276 -0.086597293887102259 0 -0.0001391542089366771 -0.085107042945418182 0 -0.00024090937569062044 -0.08204598051027584 0 -0.00012329340111476422 -0.088189193841246863 0 -0.00013069901044439276 -0.086597293887102259 0 -0.00030585606759617461 -0.081897383244472308 0 -0.00024090937569062044 -0.08204598051027584 0 -0.00013069901044439276 -0.086597293887102259 0 -0.00055313216856420688 -0.075892039740660888 0 -0.00030585606759617456 -0.081897383244472294 0 -0.00024090937569062044 -0.08204598051027584 0 -0.00026804509071861368 -0.074170213612909611 0 -0.00055313216856420688 -0.075892039740660888 0 -0.00024090937569062044 -0.08204598051027584 0 -0.00026804509071861368 -0.074170213612909611 0 -0.00024090937569062041 -0.082045980510275826 0 -6.3705924090349977e-05 -0.082009360457742778 0 -0.00026804509071861368 -0.074170213612909611 0 -6.3705924090350059e-05 -0.082009360457742764 0 0.00076662139792255731 -0.07633306737088863 0 -6.3705924090349977e-05 -0.082009360457742778 0 -0.00011599693827298232 -0.089882292839633088 0 -0.00012329340111476422 -0.088189193841246863 0 -0.00024090937569062044 -0.08204598051027584 0 -6.3705924090349977e-05 -0.082009360457742778 0 -0.00012329340111476422 -0.088189193841246863 0 -6.3705924090349977e-05 -0.082009360457742778 0 0.00018996386710843101 -0.085118411438901434 0 -0.00011599693827298232 -0.089882292839633088 0 0.00018996386710843101 -0.085118411438901434 0 -0.00011960123684166245 -0.09168533349730025 0 -0.00011599693827298232 -0.089882292839633088 0 -6.3705924090349977e-05 -0.082009360457742778 0 0.00018996386710843101 -0.085118411438901434 0 0.00076662139792255731 -0.07633306737088863 0 0.00027157505293701775 -0.061191744279227356 0 0.00076662139792255731 -0.07633306737088863 0 0.0037557036527392103 -0.065216422987519798 0 0.00027157505293701775 -0.061191744279227356 0 -0.00026804509071861352 -0.074170213612909611 0 0.00076662139792255731 -0.07633306737088863 0 0.0037557036527392103 -0.065216422987519798 0 0.0030758231515656009 -0.077574221216382785 0 0.0083615492149040557 -0.068953427480515833 0 0.00076662139792255731 -0.07633306737088863 0 0.0037557036527392108 -0.065216422987519798 0 0.0030758231515656009 -0.077574221216382785 0 0.00018996386710843101 -0.085118411438901434 0 0.00076662139792255731 -0.07633306737088863 0 0.00073948454398613977 -0.084656379690105366 0 0.00076662139792255731 -0.07633306737088863 0 0.0030758231515656017 -0.077574221216382785 0 0.00073948454398613977 -0.084656379690105366 0 0.00018996386710843101 -0.085118411438901434 0 0.00073948454398613977 -0.084656379690105366 0 -0.00011960123684166245 -0.09168533349730025 0 0.00073948454398613977 -0.084656379690105366 0 -0.00013141184317681695 -0.093585555451046784 0 -0.00011960123684166245 -0.09168533349730025 0 0.00073948454398613977 -0.084656379690105366 0 0.0010632968727473586 -0.088038898875152469 0 -0.00013141184317681695 -0.093585555451046784 0 0.0010632968727473586 -0.088038898875152469 0 -0.00012962001752045478 -0.09559660502164094 0 -0.00013141184317681695 -0.093585555451046784 0 0.0030758231515656009 -0.077574221216382785 0 0.00073948454398613977 -0.084656379690105366 0 0.0010632968727473586 -0.088038898875152469 0 0.0010632968727473586 -0.088038898875152469 0 0.0051844945457803059 -0.08279247516137013 0 0.0019042408693426649 -0.090737412190424596 0 0.0030758231515656009 -0.077574221216382785 0 0.0010632968727473586 -0.088038898875152469 0 0.0051844945457803059 -0.082792475161370144 0 0.0051844945457803059 -0.082792475161370144 0 0.0019042408693426651 -0.09073741219042461 0 0.0028465555005724812 -0.092028508067772852 0 0.0010632968727473586 -0.088038898875152469 0 0.0019042408693426647 -0.090737412190424596 0 -0.00012962001752045478 -0.09559660502164094 0 0.0019042408693426649 -0.090737412190424596 0 0.0028465555005724812 -0.092028508067772852 0 -0.00012386802705503024 -0.097737544309608307 0 0.0019042408693426649 -0.090737412190424596 0 -0.00012386802705503024 -0.097737544309608307 0 -0.00012962001752045478 -0.09559660502164094 0 0.0028465555005724812 -0.092028508067772852 0 0.0091005451708819508 -0.086995668403986648 0 -7.4058734418200951e-05 -0.099904785827530651 0 0.0028465555005724812 -0.092028508067772852 0 -0.00012386802705503005 -0.097737544309608293 0 -7.4058734418200951e-05 -0.099904785827530651 0 0.0051844945457803059 -0.082792475161370144 0 0.0028465555005724812 -0.092028508067772852 0 0.0091005451708819508 -0.086995668403986648 0 0.0051844945457803059 -0.082792475161370144 0 0.0091005451708819508 -0.086995668403986648 0 0.014599898007783553 -0.074953922593951533 0 0.0051844945457803059 -0.082792475161370144 0 0.014599898007783553 -0.074953922593951519 0 0.0083615492149040557 -0.068953427480515833 0 0.0030758231515656009 -0.077574221216382785 0 0.0051844945457803059 -0.082792475161370144 0 0.0083615492149040557 -0.068953427480515833 0 0.018167786715653174 -0.060654829429135131 0 0.014599898007783553 -0.074953922593951533 0 0.0083615492149040557 -0.068953427480515833 0 -0.0026837091874572765 -0.045562951405938398 0 -0.0018816959288378956 -0.058889016364644463 0 -0.0018112062731522461 -0.061235130807478368 0 -0.0036909527178013626 -0.043467883125567063 0 -0.0026837091874572765 -0.045562951405938398 0 -0.0018112062731522461 -0.061235130807478368 0 -0.0036909527178013626 -0.043467883125567063 0 -0.0028745880669313528 -0.030075932500240574 0 -0.0026837091874572765 -0.045562951405938398 0 -0.0021006739234647686 -0.025548283945965491 0 -0.0026837091874572765 -0.045562951405938398 0 -0.0022667474308025069 -0.047099621899736543 0 -0.0013715868810167328 -0.032843065546315255 0 -0.0012993608924055508 -0.052105472357218532 0 -0.0022667474308025069 -0.047099621899736543 0 -0.00094544807422280031 -0.065855282607739804 0 -0.0012993608924055508 -0.052105472357218532 0 -0.0015430966966111781 -0.061011039589422611 0 -0.0012993608924055508 -0.052105472357218532 0 -0.0022667474308025069 -0.047099621899736543 0 -0.0015430966966111781 -0.061011039589422611 0 -0.0026837091874572765 -0.045562951405938398 0 -0.0022667474308025069 -0.047099621899736543 0 -0.0018816959288378956 -0.058889016364644463 0 -0.0022667474308025069 -0.047099621899736543 0 -0.0018816959288378956 -0.058889016364644463 0 -0.0015430966966111781 -0.061011039589422611 0 -0.0018816959288378956 -0.058889016364644463 0 -0.0015430966966111781 -0.061011039589422611 0 -0.000976743670454399 -0.069759368991185011 0 -0.0018816959288378956 -0.058889016364644463 0 -0.00097674367045439878 -0.069759368991185011 0 -0.00086233500439338549 -0.068928586820691098 0 -0.00094544807422280031 -0.065855282607739804 0 -0.0015430966966111781 -0.061011039589422611 0 -0.00090188954007399942 -0.071351621019051181 0 -0.0015430966966111781 -0.061011039589422611 0 -0.00090188954007399942 -0.071351621019051181 0 -0.000976743670454399 -0.069759368991185011 0 -0.00090188954007399942 -0.071351621019051181 0 -0.00042387185405124751 -0.07899181007835647 0 -0.00042393235168002963 -0.07954402217500986 0 -0.00055313216856420688 -0.075892039740660888 0 -0.00090188954007399942 -0.071351621019051181 0 -0.00042393235168002963 -0.07954402217500986 0 -0.00090188954007399942 -0.071351621019051181 0 -0.0005989679850800677 -0.075601746401013581 0 -0.000976743670454399 -0.069759368991185011 0 -0.00090188954007399942 -0.071351621019051181 0 -0.0005989679850800677 -0.075601746401013581 0 -0.00042387185405124756 -0.078991810078356456 0 -0.0005989679850800677 -0.075601746401013581 0 -0.00042387185405124751 -0.078991810078356456 0 -0.00015481768083743116 -0.082433396266941864 0 -0.0005989679850800677 -0.075601746401013581 0 -0.00015744545285066046 -0.081248473821192296 0 -0.00015481768083743116 -0.082433396266941864 0 -0.00042387185405124756 -0.078991810078356456 0 -0.00014922969430436944 -0.083718903500009809 0 -0.00015481768083743116 -0.082433396266941864 0 -0.00042393235168002963 -0.07954402217500986 0 -0.00014922969430436941 -0.083718903500009809 0 -0.0001391542089366771 -0.085107042945418182 0 -0.00042387185405124756 -0.078991810078356456 0 -0.00042393235168002968 -0.079544022175009846 0 -0.00014922969430436944 -0.083718903500009809 0 -0.000976743670454399 -0.069759368991185011 0 -0.00045918443465052506 -0.076315740595510106 0 -0.00045522871558102582 -0.074711375744830499 0 -0.000976743670454399 -0.069759368991185011 0 -0.00045522871558102587 -0.074711375744830499 0 -0.00086233500439338549 -0.068928586820691098 0 -0.0005989679850800677 -0.075601746401013581 0 -0.00097674367045439922 -0.069759368991185011 0 -0.00045918443465052506 -0.076315740595510106 0 -0.0005989679850800677 -0.075601746401013581 0 -0.00045918443465052506 -0.076315740595510106 0 -0.00015744545285066049 -0.081248473821192296 0 -0.00045918443465052506 -0.076315740595510106 0 -0.00015452735319282178 -0.080169535630451233 0 -0.00015744545285066049 -0.081248473821192296 0 -0.00045918443465052506 -0.076315740595510106 0 -0.00045522871558102587 -0.074711375744830499 0 -0.00015452735319282178 -0.080169535630451233 0 -0.00045522871558102582 -0.074711375744830499 0 -0.00014940770039650693 -0.079192769702654986 0 -0.00015452735319282178 -0.080169535630451233 0 -0.00038407405014220396 -0.074554897520609245 0 -0.00014847616672496785 -0.078339366240861324 0 -0.00014940770039650693 -0.079192769702654986 0 -0.00045522871558102582 -0.074711375744830499 0 -0.00038407405014220396 -0.074554897520609245 0 -0.00014940770039650693 -0.079192769702654986 0 -0.0005668132934828474 -0.071735904267864775 0 -0.00013391572999383927 -0.07757013383140432 0 -0.00014847616672496785 -0.078339366240861324 0 -0.00038407405014220396 -0.074554897520609245 0 -0.0005668132934828474 -0.071735904267864775 0 -0.00014847616672496785 -0.078339366240861324 0 -0.0005668132934828474 -0.071735904267864775 0 -0.00086233500439338549 -0.068928586820691098 0 -0.0018112062731522461 -0.061235130807478368 0 -0.00038407405014220396 -0.074554897520609245 0 -0.0005668132934828474 -0.071735904267864775 0 -0.00086233500439338549 -0.068928586820691098 0 -0.00045522871558102582 -0.074711375744830499 0 -0.00038407405014220396 -0.074554897520609245 0 -0.00086233500439338549 -0.068928586820691098 0 -0.0018816959288378956 -0.058889016364644463 0 -0.00086233500439338571 -0.068928586820691098 0 -0.0018112062731522461 -0.061235130807478368 0 -0.0032113516502310598 -0.056238682147840759 0 -0.0036909527178013626 -0.043467883125567063 0 -0.0018112062731522461 -0.061235130807478368 0 -0.0032113516502310598 -0.056238682147840759 0 -0.0018112062731522461 -0.061235130807478368 0 -0.0013107354555509966 -0.06685728423820117 0 -0.0018112062731522461 -0.061235130807478368 0 -0.0013107354555509966 -0.06685728423820117 0 -0.0005573122603128015 -0.070500156754810681 0 -0.0005668132934828474 -0.071735904267864775 0 -0.0018112062731522461 -0.061235130807478368 0 -0.0005573122603128015 -0.070500156754810681 0 -0.0005668132934828474 -0.071735904267864775 0 -0.0005573122603128015 -0.070500156754810681 0 -0.00013391572999383924 -0.07757013383140432 0 -0.0005573122603128015 -0.070500156754810681 0 -0.00015662804532232778 -0.077025877122286424 0 -0.00013391572999383924 -0.07757013383140432 0 -0.0013107354555509966 -0.06685728423820117 0 -0.00055731226031280139 -0.070500156754810694 0 -0.00015662804532232778 -0.077025877122286424 0 -0.0013107354555509966 -0.06685728423820117 0 -9.7029942557541547e-05 -0.076290920731675635 0 -0.00015662804532232778 -0.077025877122286424 0 -6.3781184048887369e-05 -0.077019415560500321 0 0.00046231773877901459 -0.069422027329809594 0 0.00039426208026140715 -0.070858728961285908 0 -9.7029942557541466e-05 -0.076290920731675649 0 -6.3781184048887423e-05 -0.077019415560500321 0 0.00046231773877901459 -0.069422027329809594 0 -9.7457832329883508e-05 -0.076525245605974776 0 -0.00010966074417123981 -0.076988047412232155 0 -6.3781184048887369e-05 -0.077019415560500321 0 -6.9402382318151893e-05 -0.077576468706977 0 0.00039426208026140715 -0.070858728961285908 0 -0.00010966074417123981 -0.076988047412232155 0 -0.00010221233932725084 -0.077609560413775286 0 -6.9402382318151893e-05 -0.077576468706977 0 0.00039426208026140715 -0.070858728961285908 0 0.0002310304356271145 -0.073324898954501241 0 0.00039426208026140715 -0.070858728961285908 0 0.0018150732465835914 -0.062071527237060775 0 0.00095474482587688467 -0.06602544130630747 0 0.00046231773877901459 -0.069422027329809594 0 0.0018150732465835914 -0.062071527237060775 0 0.002761324397171418 -0.061553299791194629 0 0.00046231773877901459 -0.069422027329809594 0 0.0003942620802614071 -0.070858728961285908 0 0.0018150732465835914 -0.062071527237060775 0 0.0018150732465835914 -0.062071527237060775 0 0.002479370708918053 -0.054854040607112291 0 0.0036218631314631497 -0.052653742158827732 0 0.0018150732465835914 -0.062071527237060775 0 0.002479370708918053 -0.054854040607112291 0 0.00095474482587688467 -0.06602544130630747 0 0.002479370708918053 -0.054854040607112291 0 0.0018105422742694104 -0.057955860857594389 0 0.00095474482587688467 -0.06602544130630747 0 0.0018105422742694104 -0.057955860857594389 0 0.00095474482587688467 -0.06602544130630747 0 0.00071772913026488553 -0.069082844289029055 0 0.00095474482587688467 -0.06602544130630747 0 0.00025030979586759225 -0.073529045347174124 0 0.00071772913026488553 -0.069082844289029055 0 0.00025030979586759225 -0.073529045347174124 0 0.00020981324014944944 -0.075659206626652209 0 0.00071772913026488553 -0.069082844289029055 0 0.00039426208026140715 -0.070858728961285908 0 0.00095474482587688456 -0.06602544130630747 0 0.0002310304356271145 -0.073324898954501241 0 0.00095474482587688467 -0.06602544130630747 0 0.0002310304356271145 -0.073324898954501241 0 0.00025030979586759225 -0.073529045347174124 0 0.0002310304356271145 -0.073324898954501241 0 -5.2689843208913842e-05 -0.078337016307789789 0 0.00025030979586759225 -0.073529045347174124 0 -6.9402382318151893e-05 -0.077576468706977 0 0.0002310304356271145 -0.073324898954501241 0 -5.2689843208913842e-05 -0.078337016307789789 0 -0.00010221233932725084 -0.077609560413775286 0 -0.00010024636151418847 -0.078350970920217172 0 0.00025030979586759225 -0.073529045347174124 0 -4.7443365893136942e-05 -0.079195257814863737 0 0.00020981324014944942 -0.075659206626652223 0 -0.00010024636151418847 -0.078350970920217172 0 -9.8602051358420367e-05 -0.079212937854843707 0 -5.2689843208913842e-05 -0.078337016307789789 0 0.00025030979586759225 -0.073529045347174124 0 -4.7443365893136969e-05 -0.079195257814863737 0 -4.7443365893136969e-05 -0.079195257814863737 0 0.00020981324014944942 -0.075659206626652223 0 -3.7826877058961156e-05 -0.080169665660699774 0 -9.8602051358420367e-05 -0.079212937854843707 0 -9.6134083723182871e-05 -0.080185533675967272 0 0.00020981324014944942 -0.075659206626652223 0 -3.7826877058961156e-05 -0.080169665660699774 0 0.00026394455432270797 -0.075915420868842204 0 -3.7826877058961156e-05 -0.080169665660699774 0 -2.9610065182125772e-05 -0.081250820988252592 0 0.00026394455432270797 -0.075915420868842204 0 -9.6134083723182871e-05 -0.080185533675967272 0 -9.3477619940971523e-05 -0.081265925856378901 0 -2.9610065182125772e-05 -0.081250820988252592 0 0.00026394455432270797 -0.075915420868842204 0 0.00021415761860253798 -0.078073225803429361 0 0.00026394455432270797 -0.075915420868842204 0 0.00021415761860253798 -0.078073225803429361 0 0.0006302298018510832 -0.07158798799455858 0 0.00026394455432270797 -0.075915420868842204 0 0.00071772913026488553 -0.069082844289029055 0 0.0006302298018510832 -0.07158798799455858 0 0.00020981324014944942 -0.075659206626652223 0 0.00026394455432270797 -0.075915420868842204 0 0.00071772913026488553 -0.069082844289029055 0 1.4196611398552806e-06 -0.083723561478888445 0 0.00026087567845571645 -0.078681459417897073 0 0.00021869453456046522 -0.080834139518127318 0 1.4196611398552806e-06 -0.083723561478888445 0 0.00026087567845571645 -0.078681459417897073 0 -1.5346229549569689e-05 -0.082436191692595875 0 -7.3861830156779287e-05 -0.083737017564112129 0 -8.5119704043520406e-05 -0.082450420727986584 0 0.00026087567845571645 -0.078681459417897073 0 -1.5346229549569665e-05 -0.082436191692595862 0 0.00021415761860253798 -0.078073225803429361 0 -2.9610065182125772e-05 -0.081250820988252592 0 -1.5346229549569662e-05 -0.082436191692595875 0 0.00021415761860253798 -0.078073225803429361 0 -9.3477619940971523e-05 -0.081265925856378901 0 -8.5119704043520406e-05 -0.082450420727986584 0 0.00026087567845571645 -0.078681459417897073 0 0.00021415761860253801 -0.078073225803429361 0 0.0006302298018510832 -0.07158798799455858 0 0.00026087567845571645 -0.078681459417897073 0 0.00021869453456046519 -0.080834139518127304 0 0.00053655933719857531 -0.074977632156256052 0 0.00026087567845571645 -0.078681459417897073 0 0.0006302298018510832 -0.07158798799455858 0 0.00053655933719857531 -0.074977632156256052 0 0.0006302298018510832 -0.07158798799455858 0 0.0010959557588702431 -0.063470417272993032 0 0.00053655933719857531 -0.074977632156256052 0 0.0006302298018510832 -0.07158798799455858 0 0.0010959557588702429 -0.063470417272993032 0 0.001137719558133711 -0.062658422103300082 0 0.0018105422742694104 -0.057955860857594389 0 0.00071772913026488553 -0.069082844289029055 0 0.001137719558133711 -0.062658422103300082 0 0.00071772913026488553 -0.069082844289029055 0 0.0006302298018510832 -0.07158798799455858 0 0.001137719558133711 -0.062658422103300082 0 0.0018105422742694104 -0.057955860857594389 0 0.0011377195581337113 -0.062658422103300082 0 0.0016777338518943904 -0.051208070075259779 0 0.0010959557588702431 -0.063470417272993032 0 0.0016777338518943904 -0.051208070075259779 0 0.00091004263166083986 -0.050466043618885834 0 0.0010959557588702431 -0.063470417272993032 0 0.001137719558133711 -0.062658422103300082 0 0.0016777338518943904 -0.051208070075259779 0 0.0016777338518943904 -0.051208070075259779 0 0.00091004263166083986 -0.050466043618885834 0 0.0017166002097351041 -0.030955017955295882 0 0.0016777338518943904 -0.051208070075259779 0 0.0029643030720812756 -0.043298045464135106 0 0.0017166002097351041 -0.030955017955295882 0 0.0029643030720812756 -0.043298045464135106 0 0.0029939696180492207 -0.029171550273247724 0 0.0033998843760929373 -0.044493845747590563 0 0.002479370708918053 -0.054854040607112291 0 0.0029643030720812756 -0.043298045464135106 0 0.0033998843760929373 -0.044493845747590563 0 0.002479370708918053 -0.054854040607112291 0 0.0036218631314631497 -0.052653742158827732 0 0.0033998843760929373 -0.044493845747590563 0 0.002479370708918053 -0.054854040607112291 0 0.0018105422742694104 -0.057955860857594389 0 0.0029643030720812756 -0.043298045464135106 0 0.0018105422742694104 -0.057955860857594389 0 0.0016777338518943904 -0.051208070075259779 0 0.0029643030720812756 -0.043298045464135106 0 -0.0071970462359427882 -0.07025679108007292 0 -0.014527459978887007 -0.074856672561220347 0 -0.018159227074414815 -0.06075797679994293 0 -0.0071970462359427882 -0.07025679108007292 0 -0.0063443802426402917 -0.082258312159344718 0 -0.0030534781533043719 -0.081548545753329107 0 -0.0071970462359427882 -0.07025679108007292 0 -0.014527459978887009 -0.074856672561220347 0 -0.0063443802426402926 -0.082258312159344732 0 -0.014527459978887009 -0.074856672561220347 0 -0.0091570203111737639 -0.087068335593902757 0 -0.0063443802426402926 -0.082258312159344732 0 -0.0091570203111737639 -0.087068335593902757 0 -0.0063443802426402926 -0.082258312159344732 0 -0.002952357019471667 -0.09198600062081197 0 -0.0091570203111737639 -0.087068335593902757 0 -0.002952357019471667 -0.09198600062081197 0 7.3418636945127711e-05 -0.099904595214917374 0 -0.002952357019471667 -0.09198600062081197 0 0.00011212114132912552 -0.097742692855379371 0 7.3418636945127711e-05 -0.099904595214917374 0 -6.0862097837297755e-06 -0.097750654934916179 0 -2.5002449601831806e-10 -0.099999209597338656 0 -6.0862097837297755e-06 -0.097750654934916179 0 -2.056071815395778e-05 -0.095618611057517441 0 0.00011212114132912552 -0.097742692855379371 0 8.8231828431517277e-05 -0.095599776936877101 0 -0.0018893590269348625 -0.090399853215557574 0 -0.002952357019471667 -0.09198600062081197 0 0.00011212114132912552 -0.097742692855379371 0 -0.0018893590269348625 -0.090399853215557574 0 8.8231828431517453e-05 -0.095599776936877101 0 -0.0018893590269348625 -0.090399853215557574 0 -0.00091722852473879687 -0.090067761288275316 0 -0.0063443802426402926 -0.082258312159344732 0 -0.0018893590269348625 -0.090399853215557574 0 -0.0030534781533043719 -0.081548545753329107 0 -0.0063443802426402926 -0.082258312159344732 0 -0.0029523570194716674 -0.09198600062081197 0 -0.0018893590269348625 -0.090399853215557574 0 -0.0018893590269348625 -0.090399853215557574 0 -0.0030534781533043719 -0.081548545753329107 0 -0.00091722852473879687 -0.090067761288275316 0 -0.0030534781533043719 -0.081548545753329107 0 -0.00045099739781443706 -0.086684325777116225 0 -0.0018694555783048716 -0.076324776001638214 0 -0.0030534781533043719 -0.081548545753329107 0 -0.00091722852473879687 -0.090067761288275316 0 -0.00045099739781443706 -0.086684325777116225 0 -0.00091722852473879687 -0.090067761288275316 0 8.1594383366744442e-05 -0.09358603671994839 0 -0.00045099739781443706 -0.086684325777116225 0 -2.056071815395778e-05 -0.095618611057517441 0 -2.4845170708838202e-05 -0.093603731414645508 0 8.8231828431517453e-05 -0.095599776936877101 0 -0.00091722852473879687 -0.090067761288275316 0 8.1594383366744442e-05 -0.09358603671994839 0 8.1594383366744442e-05 -0.09358603671994839 0 8.4024658440914524e-05 -0.091682282597587914 0 -0.00045099739781443706 -0.086684325777116225 0 -2.4845170708838202e-05 -0.093603731414645508 0 -1.7940586958868466e-05 -0.091699828042715828 0 8.4024658440914524e-05 -0.091682282597587914 0 -0.00045099739781443706 -0.086684325777116225 0 -6.3166508374448561e-05 -0.087038959301419264 0 -0.00045099739781443706 -0.086684325777116225 0 -0.0018694555783048716 -0.076324776001638214 0 -0.00025847745757187092 -0.081016289775251119 0 -0.0071970462359427882 -0.07025679108007292 0 -0.0030534781533043719 -0.081548545753329107 0 -0.0018694555783048716 -0.076324776001638214 0 -0.0071970462359427882 -0.07025679108007292 0 -0.0018694555783048716 -0.076324776001638214 0 -0.0034010347184110627 -0.062642376503713945 0 -0.0018694555783048716 -0.076324776001638214 0 -0.000619361120113469 -0.071675585145162812 0 -0.0034010347184110627 -0.062642376503713945 0 -0.000619361120113469 -0.071675585145162812 0 -0.00077976297463967531 -0.060066199549369974 0 -0.0034010347184110627 -0.062642376503713945 0 -0.000619361120113469 -0.071675585145162812 0 0.00047278529740377737 -0.067380338740774995 0 -0.00077976297463967553 -0.060066199549369974 0 -0.000619361120113469 -0.071675585145162812 0 -0.00025847745757187092 -0.081016289775251119 0 0.00021386670238713638 -0.077986650118922987 0 -0.000619361120113469 -0.071675585145162812 0 0.00021386670238713638 -0.077986650118922987 0 0.00047278529740377737 -0.067380338740774995 0 -0.0018694555783048716 -0.076324776001638214 0 -0.00061936112011346878 -0.071675585145162812 0 -0.00025847745757187092 -0.081016289775251119 0 -0.00045099739781443706 -0.086684325777116225 0 -0.00025847745757187081 -0.081016289775251105 0 -6.3166508374448561e-05 -0.087038959301419264 0 -0.00025847745757187092 -0.081016289775251119 0 -6.3166508374448561e-05 -0.087038959301419264 0 7.6813480678968754e-05 -0.084657544749173572 0 -6.3166508374448561e-05 -0.087038959301419264 0 7.73471955516955e-05 -0.089885225819121187 0 7.6813480678968754e-05 -0.084657544749173572 0 -1.7940586958868466e-05 -0.091699828042715828 0 -1.9319872532166682e-05 -0.089900630158207859 0 8.4024658440914524e-05 -0.091682282597587914 0 -6.3166508374448561e-05 -0.087038959301419264 0 7.73471955516955e-05 -0.089885225819121187 0 5.9925032843324644e-05 -0.088193019308198173 0 7.6813480678968754e-05 -0.084657544749173572 0 0.00013659789144436485 -0.083840191818047916 0 -1.9319872532166682e-05 -0.089900630158207859 0 -3.1648375832232414e-05 -0.088206846756545193 0 7.73471955516955e-05 -0.089885225819121187 0 5.9925032843324644e-05 -0.088193019308198173 0 7.6813480678968754e-05 -0.084657544749173572 0 7.6813480678968754e-05 -0.084657544749173572 0 0.00021386670238713638 -0.077986650118922987 0 0.00013659789144436485 -0.083840191818047916 0 -0.00025847745757187092 -0.081016289775251119 0 7.6813480678968754e-05 -0.084657544749173572 0 0.00021386670238713638 -0.077986650118922987 0 0.00021386670238713638 -0.077986650118922987 0 0.00013659789144436485 -0.083840191818047916 0 0.00024042642679799855 -0.081418939351966174 0 0.00021386670238713638 -0.077986650118922987 0 0.0002404264267979986 -0.081418939351966174 0 0.00053655933719857531 -0.074977632156256052 0 0.00013659789144436485 -0.083840191818047916 0 4.1761987037145866e-05 -0.086601581154852725 0 0.00024042642679799855 -0.081418939351966174 0 -3.1648375832232414e-05 -0.088206846756545193 0 -4.444004614141581e-05 -0.086615267611587415 0 5.9925032843324644e-05 -0.088193019308198173 0 0.00013659789144436485 -0.083840191818047916 0 4.1761987037145866e-05 -0.086601581154852725 0 -7.3861830156779287e-05 -0.083737017564112129 0 -5.8348622398966727e-05 -0.085125359927536073 0 1.4196611398552806e-06 -0.083723561478888445 0 2.2554008841577906e-05 -0.085112222745962668 0 0.00021869453456046522 -0.080834139518127318 0 4.1761987037145866e-05 -0.086601581154852725 0 2.2554008841577906e-05 -0.085112222745962668 0 0.00024042642679799855 -0.081418939351966174 0 -4.444004614141581e-05 -0.086615267611587415 0 -5.8348622398966727e-05 -0.085125359927536073 0 2.2554008841577906e-05 -0.085112222745962668 0 0.00024042642679799857 -0.081418939351966174 0 0.00021869453456046522 -0.080834139518127318 0 0.00024042642679799855 -0.081418939351966174 0 0.00021869453456046522 -0.080834139518127318 0 0.00053655933719857531 -0.074977632156256052 0 0.0010959557588702431 -0.063470417272993032 0 0.0005365593371985752 -0.074977632156256052 0 0.00047278529740377737 -0.067380338740774995 0 0.00021386670238713638 -0.077986650118922987 0 0.00053655933719857531 -0.074977632156256066 0 0.00047278529740377737 -0.067380338740774995 0 0.00091004263166083986 -0.050466043618885834 0 -0.0027017960655054251 -0.0463797092756024 0 -0.00040952640887708915 -0.026844135351031004 0 0.0010959557588702431 -0.063470417272993032 0 0.00047278529740377737 -0.067380338740774995 0 0.00091004263166083986 -0.050466043618885834 0 0.00047278529740377737 -0.067380338740774995 0 0.00091004263166083986 -0.050466043618885834 0 -0.00077976297463967553 -0.060066199549369974 0 -0.0027017960655054251 -0.0463797092756024 0 -0.00077976297463967553 -0.060066199549369974 0 -0.0034010347184110627 -0.062642376503713945 0 0.00091004263166083986 -0.050466043618885834 0 -0.0027017960655054251 -0.0463797092756024 0 -0.00077976297463967553 -0.060066199549369974 0 -0.0027017960655054251 -0.0463797092756024 0 -0.0090693304202177274 -0.052204487323039603 0 -0.0034010347184110627 -0.062642376503713945 0 -0.0071970462359427882 -0.07025679108007292 0 -0.0090693304202177239 -0.052204487323039603 0 -0.0034010347184110627 -0.062642376503713945 0 -0.0027017960655054251 -0.0463797092756024 0 -0.0090693304202177256 -0.052204487323039603 0 -0.0070887426130165172 -0.032338603561986527 0 -0.0090693304202177256 -0.052204487323039603 0 -0.01907761481137267 -0.043427148172887974 0 -0.0070887426130165172 -0.032338603561986527 0 -0.0071970462359427882 -0.07025679108007292 0 -0.0090693304202177256 -0.052204487323039603 0 -0.018159227074414815 -0.06075797679994293 0 -0.0090693304202177256 -0.052204487323039603 0 -0.01907761481137267 -0.043427148172887974 0 -0.018159227074414815 -0.06075797679994293 0 -3.1110301743652659e-05 -1.1496440128457678e-05 0 -0.0028439862493308678 -0.012669475946561638 0 5.3690532343294208e-06 -7.3913290861386217e-06 0 -0.01907761481137267 -0.043427148172887974 0 -0.015020279823506547 -0.02306330295644328 0 -0.0070887426130165172 -0.032338603561986527 0 -0.015020279823506549 -0.023063302956443283 0 -0.0070887426130165172 -0.032338603561986527 0 -0.0028439862493308678 -0.012669475946561638 0 0.00091004263166083986 -0.050466043618885834 0 -0.00040952640887708915 -0.026844135351031004 0 0.0017166002097351041 -0.030955017955295882 0 -0.00040952640887708915 -0.026844135351031004 0 0.0017166002097351041 -0.030955017955295882 0 5.3690532343294208e-06 -7.3913290861386217e-06 0 -0.0070887426130165172 -0.032338603561986527 0 -0.00040952640887708915 -0.026844135351031004 0 -0.0028439862493308678 -0.012669475946561638 0 -0.0027017960655054251 -0.0463797092756024 0 -0.0070887426130165172 -0.032338603561986527 0 -0.00040952640887708915 -0.026844135351031004 0 -0.00040952640887708915 -0.026844135351031004 0 -0.0028439862493308678 -0.012669475946561636 0 5.3690532343294208e-06 -7.3913290861386217e-06 0 -0.015020279823506549 -0.023063302956443283 0 -3.1110301743652659e-05 -1.1496440128457678e-05 0 -0.0028439862493308678 -0.012669475946561638 0 0.0018762050418502218 -0.021009557768911905 0 5.3690532343294208e-06 -7.3913290861386217e-06 0 4.9216568582933197e-06 -1.2104105859793829e-05 0 0.0029643030720812756 -0.043298045464135106 0 0.0018762050418502218 -0.021009557768911901 0 0.0029939696180492207 -0.029171550273247724 0 0.0018762050418502218 -0.021009557768911905 0 4.9216568582933197e-06 -1.2104105859793829e-05 0 0.0029939696180492207 -0.029171550273247724 0 0.0029643030720812756 -0.043298045464135106 0 0.0018762050418502218 -0.021009557768911905 0 0.0017166002097351041 -0.030955017955295882 0 0.0018762050418502218 -0.021009557768911905 0 0.0017166002097351041 -0.030955017955295882 0 5.3690532343294208e-06 -7.3913290861386217e-06 0 4.9216568582933197e-06 -1.2104105859793829e-05 0 0.0029939696180492207 -0.029171550273247724 0 0.0027976923013432794 -0.024395783287454096 0 0.0027976923013432794 -0.024395783287454096 0 -1.2502939124644803e-06 -9.678549399938022e-06 0 0.0025378828665750834 -0.022663640076995402 0 4.9216568582933197e-06 -1.2104105859793829e-05 0 0.0027976923013432794 -0.024395783287454096 0 -1.2502939124644803e-06 -9.678549399938022e-06 0 2.4864502067561917e-05 -9.0691395488725295e-06 0 0.0025378828665750834 -0.022663640076995402 0 0.0089897489145004134 -0.028329612225231549 0 -1.2502939124644803e-06 -9.678549399938022e-06 0 2.4864502067561917e-05 -9.0691395488725295e-06 0 0.0025378828665750834 -0.022663640076995402 0 -9.3132520860364932e-05 -0.041326952740159816 0 0.0025239428878655267 -0.038754407408474099 0 0.0089897489145004134 -0.028329612225231549 0 0.0025378828665750834 -0.022663640076995402 0 0.0025239428878655267 -0.038754407408474099 0 0.0028042552992699524 -0.043150559566842911 0 0.0025378828665750834 -0.022663640076995402 0 0.0025239428878655267 -0.038754407408474099 0 0.0089897489145004134 -0.028329612225231549 0 0.0003446543035498386 -0.044472318627136791 0 -9.3132520860364932e-05 -0.041326952740159816 0 0.0025239428878655267 -0.038754407408474099 0 0.0003446543035498386 -0.044472318627136791 0 0.0025239428878655267 -0.038754407408474099 0 0.0028042552992699524 -0.043150559566842911 0 0.0003446543035498386 -0.044472318627136791 0 -0.00014917003588944464 -0.050275073037606144 0 0.0028042552992699524 -0.043150559566842911 0 -0.00014917003588944464 -0.050275073037606144 0 0.0028042552992699524 -0.043150559566842911 0 0.0022932569762759928 -0.053998985055895315 0 0.0028042552992699524 -0.043150559566842911 0 0.0022932569762759928 -0.053998985055895315 0 0.0035995345242673172 -0.042054632879225243 0 0.00013142087326047179 -0.062699608717498412 0 -0.0023568704808000964 -0.056468897579863973 0 0.0022932569762759928 -0.053998985055895315 0 0.00013142087326047179 -0.062699608717498412 0 0.0022932569762759928 -0.053998985055895315 0 0.002761324397171418 -0.061553299791194629 0 0.00013142087326047179 -0.062699608717498412 0 -9.7029942557541466e-05 -0.076290920731675649 0 0.002761324397171418 -0.061553299791194629 0 -9.7029942557541466e-05 -0.076290920731675649 0 0.00046231773877901459 -0.069422027329809594 0 0.002761324397171418 -0.061553299791194629 0 0.0022932569762759928 -0.053998985055895315 0 0.002761324397171418 -0.061553299791194629 0 0.0036218631314631497 -0.052653742158827732 0 0.0018150732465835914 -0.062071527237060775 0 0.002761324397171418 -0.061553299791194629 0 0.0036218631314631497 -0.052653742158827732 0 0.0022932569762759928 -0.053998985055895315 0 0.0036218631314631497 -0.052653742158827732 0 0.0035995345242673172 -0.042054632879225243 0 0.0029939696180492207 -0.029171550273247724 0 0.0027976923013432794 -0.024395783287454096 0 0.0035995345242673172 -0.042054632879225243 0 0.0036218631314631497 -0.052653742158827732 0 0.0035995345242673172 -0.042054632879225243 0 0.0033998843760929373 -0.044493845747590563 0 0.0029939696180492207 -0.029171550273247724 0 0.0035995345242673172 -0.04205463287922525 0 0.0033998843760929373 -0.044493845747590563 0 0.0027976923013432794 -0.024395783287454096 0 0.0025378828665750834 -0.022663640076995402 0 0.0028042552992699524 -0.043150559566842911 0 0.0027976923013432794 -0.024395783287454096 0 0.0028042552992699529 -0.043150559566842911 0 0.0035995345242673172 -0.042054632879225243 0 
</DataArray>
</PointData>
<CellData Scalars="region_id," Vectors="" Tensors="stress,">
<DataArray type="Float64" Name="region_id" format="ascii">
1 1 1 1 1 1 1 1 1 1 1 1 1 1 1 1 1 1 1 1 1 1 1 1 1 1 1 1 1 1 1 1 1 1 1 1 1 1 1 1 1 1 1 1 1 1 1 1 1 1 1 1 1 1 1 1 1 1 1 1 1 1 1 1 1 1 1 1 1 1 1 1 1 1 1 1 1 1 1 1 1 1 1 1 1 1 1 1 1 1 1 1 1 1 1 1 1 1 1 1 1 1 1 1 1 1 1 1 1 1 1 1 1 1 1 1 1 1 1 1 1 1 1 1 1 1 1 1 1 1 1 1 1 1 1 1 1 1 1 1 1 6 1 6 1 1 1 1 1 1 1 1 1 1 1 1 1 1 6 1 6 1 1 6 1 1 6 1 1 1 1 1 1 6 1 1 6 1 1 1 1 1 1 1 1 1 1 1 1 1 1 1 1 1 1 1 1 1 1 1 1 6 6 1 1 1 1 1 1 1 1 1 6 1 1 6 1 1 1 1 1 1 1 1 1 1 1 1 1 6 1 1 6 1 1 1 1 1 1 6 1 6 1 1 6 1 1 1 1 1 1 1 1 1 1 1 1 1 1 1 1 1 1 1 1 1 1 1 1 1 1 1 1 1 1 1 1 1 1 1 1 1 1 1 1 1 1 1 1 1 1 1 1 1 1 1 1 1 1 
</DataArray>
<DataArray type="Float64" Name="stress" NumberOfComponents="9" format="ascii">
-0.013741514487496029 -0.046039694992458788 0 -0.046039694992458788 -0.0045815524735414604 0 0 0 -0.0045807667402593729 -0.039304485288447599 -0.038358453489827277 0 -0.038358453489827277 -0.014671052806326759 0 0 0 -0.013493884523693593 0.028740156176010272 -0.015793413920577433 0 -0.015793413920577433 -0.016166916803868073 0 0 0 0.003143309843035548 0.0043702089992967361 -0.029499041294557993 0 -0.029499041294557993 0.0035671559755239973 0 0 0 0.0019843412437051816 0.016930720374888561 -0.015127934082890676 0 -0.015127934082890676 -0.010104563361769986 0 0 0 0.0017065392532796542 0.0072204650137096538 -0.017936638938003426 0 -0.017936638938003426 -0.045753780786492115 0 0 0 -0.0096333289431955738 -0.0076081474673690141 -0.047837381720974126 0 -0.047837381720974126 -0.071904752805038608 0 0 0 -0.01987822506810194 -0.0020894046150724543 -0.04805980398740519 0 -0.04805980398740519 -0.055353916861261343 0 0 0 -0.014360830369083477 -0.020325339902590722 -0.064970655534687269 0 -0.064970655534687269 -0.10237558305242489 0 0 0 -0.030675230738753834 -0.01714777556074476 -0.049397022100942538 0 -0.049397022100942538 -0.10262018080642576 0 0 0 -0.029941989091792687 -0.02060872245466816 -0.074725993491764509 0 -0.074725993491764509 -0.30138562165752791 0 0 0 -0.080498586028048935 0.018303476583079459 -0.10630425879452832 0 -0.10630425879452832 -0.098166633942193868 0 0 0 -0.019965789339778495 0.036642976346901224 -0.027711999477775306 0 -0.027711999477775306 -0.10421593381456895 0 0 0 -0.016893239366916946 0.030688070019049885 0.0034881771190387045 0 0.0034881771190387045 -0.063205239129277391 0 0 0 -0.0081292922775569043 -0.00075704113506799842 -0.019678602044231247 0 -0.019678602044231247 -0.099000674052054982 0 0 0 -0.02493942879678071 0.014836596337339372 -0.017777985954704117 0 -0.017777985954704117 -0.049295115284608101 0 0 0 -0.0086146297368171615 -0.0031794001659268822 -0.039738973566860653 0 -0.039738973566860653 -0.021907150480532739 0 0 0 -0.0062716376616148845 -0.015622213206992801 -0.044356242123255646 0 -0.044356242123255646 -0.055387907783811946 0 0 0 -0.017752530247701175 -0.01359916349402214 -0.044788250723364079 0 -0.044788250723364079 -0.029242653417077658 0 0 0 -0.010710454227774946 -0.016807109937054001 -0.05130319197311814 0 -0.05130319197311814 -0.032422171655848125 0 0 0 -0.012307320398225529 -0.012316279572795991 -0.048047151206919783 0 -0.048047151206919783 -0.033283945772897228 0 0 0 -0.011400056336423298 -0.012320843049311553 -0.058212683097499968 0 -0.058212683097499968 -0.054507962412302657 0 0 0 -0.016707201365403518 -0.018031715626637222 -0.050448920864294103 0 -0.050448920864294103 -0.0060185889405021701 0 0 0 -0.0060125761417848473 -0.020447582463220579 -0.051839206016435747 0 -0.051839206016435747 -0.019661844395260225 0 0 0 -0.010027356714620198 -0.013749525783839783 -0.053613682158797402 0 -0.053613682158797402 -0.016441356246481797 0 0 0 -0.0075477205075804021 -0.012079943870144043 -0.04964866939377062 0 -0.04964866939377062 -0.016182925763335437 0 0 0 -0.0070657174083698718 -0.01890526939064742 -0.048225195279796254 0 -0.048225195279796254 -0.018275606102538301 0 0 0 -0.0092952188732964274 -0.013628155567199637 -0.055390628538437597 0 -0.055390628538437597 -0.0045247326431171056 0 0 0 -0.0045382220525791864 -0.010374409955867157 -0.054443475287971277 0 -0.054443475287971277 -0.014568426017878647 0 0 0 -0.0062357089934364446 -0.0058198396140143188 -0.063009018729244207 0 -0.063009018729244207 -0.0036280460558308358 0 0 0 -0.0023619714174612921 -0.0090414929565990204 -0.059525911589121669 0 -0.059525911589121669 -0.019165388351727014 0 0 0 -0.0070517203270814843 -0.0184857798476247 -0.05243047676955806 0 -0.05243047676955806 -0.014039394331939459 0 0 0 -0.0081312935448910467 0.035391327048834936 -0.047914785152515404 0 -0.047914785152515404 0.011779571498025044 0 0 0 0.011792724636714994 0.10399279174979881 -0.032947125057991113 0 -0.032947125057991113 0.010776172230374803 0 0 0 0.028692240995043417 -3.1253010951151627e-05 -0.049247033878766097 0 -0.049247033878766097 0.018301275287614771 0 0 0 0.0045675055691659014 0.0047442061515722833 -0.04466527798263642 0 -0.04466527798263642 -0.000750041692057557 0 0 0 0.00099854111487868158 -0.00080708485806524344 -0.049559031324111859 0 -0.049559031324111859 0.011158027869885734 0 0 0 0.0025877357529551087 -0.0088537633668857724 -0.064002134032363239 0 -0.064002134032363239 -0.019218059583745672 0 0 0 -0.0070179557376578577 0.030238717726313688 -0.048424315320093017 0 -0.048424315320093017 0.0034331168330195005 0 0 0 0.0084179586398333006 0.01568325929760038 -0.025209710118315149 0 -0.025209710118315149 0.0011006422883419464 0 0 0 0.004195975396485585 0.038032268570729832 -0.018039563455857194 0 -0.018039563455857194 0.002703682520151407 0 0 0 0.010183987772720338 -0.01239758373838 -0.01770793629894088 0 -0.01770793629894088 -0.0018178935153107534 0 0 0 -0.0035538693134226501 -0.05373127360493235 -0.019285871537182309 0 -0.019285871537182309 0.00025524696425927029 0 0 0 -0.01336900666016827 -0.011119256283432744 -0.017329941681294148 0 -0.017329941681294148 -0.0014086140526401447 0 0 0 -0.0031319675840181804 -0.0017801492546025144 -0.044343460075389869 0 -0.044343460075389869 -0.0051640142524802535 0 0 0 -0.0017360408767707614 -0.042197790887358144 -0.052060796019959277 0 -0.052060796019959277 -0.015754237036377461 0 0 0 -0.014488006980933943 -0.040915516328335247 -0.051395496844020727 0 -0.051395496844020727 -0.014372152726626369 0 0 0 -0.013821917263740338 -0.022527951984203348 -0.05592469469430239 0 -0.05592469469430239 -0.016204631286341475 0 0 0 -0.0096831458176362128 -0.031933875728103411 -0.067108868875623784 0 -0.067108868875623784 -0.029025669897826401 0 0 0 -0.015239886406482439 -0.014793316174399801 -0.058372061560444444 0 -0.058372061560444444 -0.011995365935201285 0 0 0 -0.0066971705274002924 -0.007695453846466721 -0.06601607856975264 0 -0.06601607856975264 -0.015625720419854716 0 0 0 -0.0058302935665803524 -0.013289472611364039 -0.071702463311745845 0 -0.071702463311745845 -0.032256770535367241 0 0 0 -0.01138656078668282 -0.0099734953942636206 -0.071050643222088095 0 -0.071050643222088095 -0.032600097761326441 0 0 0 -0.010643398288897543 -0.019748930502953982 -0.077183835122241362 0 -0.077183835122241362 -0.042518680808955822 0 0 0 -0.015566902827977402 -0.010874212662351446 -0.073395151815994986 0 -0.073395151815994986 -0.0500432047883137 0 0 0 -0.015229354362666148 -0.0088073718647126986 -0.075414310238806237 0 -0.075414310238806237 -0.047688360882260694 0 0 0 -0.014123933186743431 -0.0095145394449918097 -0.072586857277818884 0 -0.072586857277818884 -0.052409548218325774 0 0 0 -0.015481021915829452 -0.008716806932241028 -0.068089991683017992 0 -0.068089991683017992 -0.05459907783354101 0 0 0 -0.015828971191445496 -0.01103222209304966 -0.069431474159011852 0 -0.069431474159011852 -0.057723841516092111 0 0 0 -0.017189015902285609 -0.017020786429501333 -0.070994469027691465 0 -0.070994469027691465 -0.063406500480144068 0 0 0 -0.020106821727411628 -0.013165403410601295 -0.068758139244162519 0 -0.068758139244162519 -0.05625461638461482 0 0 0 -0.017355004948804098 -0.011555123071897766 -0.071760706678539316 0 -0.071760706678539316 -0.057836669446957867 0 0 0 -0.017347948129713853 -0.015633041772565692 -0.074150716829356034 0 -0.074150716829356034 -0.051671907839140108 0 0 0 -0.016826237402926547 -0.01937259907565192 -0.075391197852979625 0 -0.075391197852979625 -0.06215749045028085 0 0 0 -0.020382522381483303 -0.026902085801653874 -0.074766864339897654 0 -0.074766864339897654 -0.050696476735577756 0 0 0 -0.01939964063430788 -0.024781179185572544 -0.073711927805646116 0 -0.073711927805646116 -0.069663450069997523 0 0 0 -0.023611157313892628 -0.018587294962623069 -0.070103245642938461 0 -0.070103245642938461 -0.057978278968281338 0 0 0 -0.019141393482726199 -0.027686305184543847 -0.070268532046815713 0 -0.070268532046815713 -0.06611097853980008 0 0 0 -0.023449320931086093 -0.03696416815064163 -0.076028220051211126 0 -0.076028220051211126 -0.077711663901609551 0 0 0 -0.028668958013063017 -0.03517074948606938 -0.079246242809835721 0 -0.079246242809835721 -0.060652877201474942 0 0 0 -0.023955906671886212 -0.0383159965142571 -0.070280460553839852 0 -0.070280460553839852 -0.029576322532229415 0 0 0 -0.016973079761621601 -0.021440034063348046 -0.076779167411873753 0 -0.076779167411873753 -0.048887480312921561 0 0 0 -0.017581878594067457 -0.065938414993583327 -0.05849783078698137 0 -0.05849783078698137 -0.016596406280561249 0 0 0 -0.020633705318536255 -0.048373827853195661 -0.076003525722584175 0 -0.076003525722584175 -0.043284162313795171 0 0 0 -0.022914497541747791 -0.038304505785843102 -0.07846747636396309 0 -0.07846747636396309 -0.069995188260257191 0 0 0 -0.027074923511525073 -0.056114101095747174 -0.077472091785117936 0 -0.077472091785117936 -0.045905638788693442 0 0 0 -0.025504934971110126 -0.040473203645703393 -0.073034554134060015 0 -0.073034554134060015 -0.065501436589026074 0 0 0 -0.026493660058682478 -0.052437160791093618 -0.080801127552374508 0 -0.080801127552374508 -0.086393769786238472 0 0 0 -0.034707732644333023 -0.055150361592164465 -0.076361833602174523 0 -0.076361833602174523 -0.070394409643530831 0 0 0 -0.031386192808923963 -0.074306370243990782 -0.087563684673520159 0 -0.087563684673520159 -0.097702854508211701 0 0 0 -0.043002306188050676 -0.079212540189981029 -0.089239685153979176 0 -0.089239685153979176 -0.067964317115473349 0 0 0 -0.03679421432636365 -0.13184586783403074 -0.094564318025506022 0 -0.094564318025506022 -0.075478402934525235 0 0 0 -0.051831067692139077 -0.077901914635007063 -0.070570705170575926 0 -0.070570705170575926 -0.033483465125990541 0 0 0 -0.027846344940249512 -0.13199817569026373 -0.094802448220424218 0 -0.094802448220424218 -0.075304848003503899 0 0 0 -0.05182575592344163 -0.086325657168145276 -0.074361640666694484 0 -0.074361640666694484 -0.075259110959829623 0 0 0 -0.040396192031993794 -0.15274219329757041 -0.087289782109347902 0 -0.087289782109347902 -0.084052251571491099 0 0 0 -0.05919861121726519 -0.13050690106697371 -0.098991086109164739 0 -0.098991086109164739 -0.121147031865942 0 0 0 -0.062913483233228762 -0.32289576317597068 -0.098873582795282244 0 -0.098873582795282244 -0.071912374825887637 0 0 0 -0.098702034500464442 -0.19213108104650867 -0.11439777189243538 0 -0.11439777189243538 -0.14264231939881977 0 0 0 -0.083693350111332165 -0.17524454580955129 -0.051233772927916643 0 -0.051233772927916643 0.010826855196606644 0 0 0 -0.041104422653236217 -0.13503459276867508 -0.035712058077228104 0 -0.035712058077228104 -0.013548260279419466 0 0 0 -0.037145713262023483 -0.10272460048516391 -0.026413221355567729 0 -0.026413221355567729 0.00084205720696139963 0 0 0 -0.025470635819550613 -0.091522189950414445 -0.069899835176704617 0 -0.069899835176704617 -0.036320638026308694 0 0 0 -0.031960706994180688 -0.064097712188316058 -0.023518009136758347 0 -0.023518009136758347 -0.0072476018122227259 0 0 0 -0.017836328500134724 -0.0056118595674432559 -0.064582394722221936 0 -0.064582394722221936 -0.047005205706041719 0 0 0 -0.013154266318371244 -0.00025850931777701008 -0.060529562162171785 0 -0.060529562162171785 -0.038053808021932152 0 0 0 -0.0095780793349272628 -0.020255875114755933 -0.052271708029965461 0 -0.052271708029965461 -0.042795076537482712 0 0 0 -0.015762737913059655 -0.013837169779603475 -0.061391931320426266 0 -0.061391931320426266 -0.032242350573535306 0 0 0 -0.011519880088284723 -0.012394422200705191 -0.068145915924970213 0 -0.068145915924970213 -0.033191729948361837 0 0 0 -0.011396538037266757 -0.010668087071488863 -0.074670318520002679 0 -0.074670318520002679 -0.042713235065872768 0 0 0 -0.013345330534340394 -0.0029375884090984683 -0.069642494901672292 0 -0.069642494901672292 -0.029559348778910977 0 0 0 -0.0081242342970023751 -0.00089270559275403047 -0.067761751319100283 0 -0.067761751319100283 -0.028802489793647142 0 0 0 -0.0074237988466002956 -0.0058438623561055114 -0.070501686938022723 0 -0.070501686938022723 -0.044285256865399525 0 0 0 -0.012532279805376245 0.00072651596075257521 -0.071760617288077588 0 -0.071760617288077588 -0.042212300484398321 0 0 0 -0.010371446130911396 0.0030216456225599098 -0.072884651643220555 0 -0.072884651643220555 -0.045939446714609034 0 0 0 -0.010729450273012309 -0.0044678947359529375 -0.072812849683412839 0 -0.072812849683412839 -0.041768615217426253 0 0 0 -0.011559127488344811 -0.0027936649959380278 -0.07379281465991272 0 -0.07379281465991272 -0.046139672567570678 0 0 0 -0.012233334390877204 -0.0048511954568370985 -0.071991320343523291 0 -0.071991320343523291 -0.050855591701565839 0 0 0 -0.01392669678960079 -0.0067989854640756464 -0.071259635298661417 0 -0.071259635298661417 -0.049875118072384317 0 0 0 -0.014168525884114991 -0.0019544709674890193 -0.071938343170057095 0 -0.071938343170057095 -0.045452838872992007 0 0 0 -0.011851827460120368 -0.002933658557889629 -0.072185785601504904 0 -0.072185785601504904 -0.045072983595455085 0 0 0 -0.01200166053833629 -0.003906815232638583 -0.069222008337834318 0 -0.069222008337834318 -0.049751034748211964 0 0 0 -0.013414462495212831 -0.0016204803990018668 -0.070064811552496997 0 -0.070064811552496997 -0.043513347498851829 0 0 0 -0.011283456974463535 -0.0036816621328905619 -0.069042167457079917 0 -0.069042167457079917 -0.047848283030227812 0 0 0 -0.012882486290779704 -0.0068185772607367579 -0.069194696540562317 0 -0.069194696540562317 -0.052616049640389573 0 0 0 -0.014858656725281527 -0.0051288216611780901 -0.068230260466520143 0 -0.068230260466520143 -0.049459321256122957 0 0 0 -0.013647035729325324 0.0011838906702115182 -0.072982556066971016 0 -0.072982556066971016 -0.04262161928881758 0 0 0 -0.010359432154651627 0.0010779586676985531 -0.073739673209257339 0 -0.073739673209257339 -0.046898955036885015 0 0 0 -0.011455249092296671 0.00015320639912497214 -0.072104052195991364 0 -0.072104052195991364 -0.045520999243952476 0 0 0 -0.01134194821120682 -0.0018221878542459269 -0.070174796051373001 0 -0.070174796051373001 -0.044038012863759857 0 0 0 -0.011465050179501501 -0.0001179791150711651 -0.071100346789258695 0 -0.071100346789258695 -0.039168818089232893 0 0 0 -0.0098216993010760145 -0.0023297054018019681 -0.072428746898782759 0 -0.072428746898782759 -0.043889439613758852 0 0 0 -0.011554786253890142 4.2078486683694294e-05 -0.073508787437915113 0 -0.073508787437915113 -0.035410018152516098 0 0 0 -0.0088419849164580455 0.0011272586036956689 -0.077303673585191968 0 -0.077303673585191968 -0.030574346013151121 0 0 0 -0.0073617718523641962 -0.0027729376174762399 -0.07514833350646688 0 -0.07514833350646688 -0.043175918271366909 0 0 0 -0.01148721397221078 0.0062152646394533217 -0.083001081788676823 0 -0.083001081788676823 -0.025825740503155448 0 0 0 -0.004902618965925587 -0.00081895053184383171 -0.079667462225339047 0 -0.079667462225339047 -0.043190989652545309 0 0 0 -0.01100248504609741 0.0083286605208229836 -0.074932597645479715 0 -0.074932597645479715 -0.047439046139516328 0 0 0 -0.0097775964046731834 0.0013640455413602148 -0.074983759725085752 0 -0.074983759725085752 -0.04644788708938441 0 0 0 -0.011270960387006201 0.0027395605708271653 -0.07532993249605513 0 -0.07532993249605513 -0.041591371293045576 0 0 0 -0.0097129526805545818 0.0030303854977865585 -0.070878343617813977 0 -0.070878343617813977 -0.054068041803510436 0 0 0 -0.012759414076430942 -0.013726976521993062 -0.052193773592024449 0 -0.052193773592024449 -0.064918050031702257 0 0 0 -0.01966125663842383 0.011551124685330223 -0.066301375095271342 0 -0.066301375095271342 -0.054594591721655428 0 0 0 -0.010760866759081261 0.0060694003537522523 -0.072116701036030628 0 -0.072116701036030628 -0.072421832813660547 0 0 0 -0.016588108114977018 0.0099762901385623826 -0.076915329351344208 0 -0.076915329351344208 -0.04944968629745583 0 0 0 -0.0098683490397234452 -0.003035355026798317 -0.088579391801663743 0 -0.088579391801663743 -0.054967439682863134 0 0 0 -0.014500698677415227 0.0095499798165255001 -0.093200396448228973 0 -0.093200396448228973 -0.016555050045166997 0 0 0 -0.0017512675571602632 0.006725722647505622 -0.096116316745518904 0 -0.096116316745518904 -0.058919199653300725 0 0 0 -0.013048369251448672 0.029313518226249613 -0.10928511842879463 0 -0.10928511842879463 -0.016883245690733961 0 0 0 0.003107568133879024 -0.0022506720560441229 0.099633427066390223 0 0.099633427066390223 -0.064506470825874906 0 0 0 -0.016689285720479896 0.014928799458568485 0.10993846000834928 0 0.10993846000834928 -0.021443812639184785 0 0 0 -0.0016287532951542419 -0.072329288869497077 -0.0036728365320755074 0 -0.0036728365320755074 -1.702537646983552 0 0 0 -0.44371673396325867 0.012039411371636242 0.091577030833917217 0 0.091577030833917217 -0.016189323655008962 0 0 0 -0.0010374780708430691 0.09890357159595109 0.010383203014669107 0 0.010383203014669107 -2.2210526283981622 0 0 0 -0.53053726420055969 0.0013332690853147255 0.086167848094134025 0 0.086167848094134025 -0.044571862272612783 0 0 0 -0.010809648296824514 0.013697499218532305 0.080090892967313643 0 0.080090892967313643 -0.059666084125460594 0 0 0 -0.011492146226732058 0.010147326580850158 0.074235460689077826 0 0.074235460689077826 -0.11304791423636207 0 0 0 -0.025725146913877839 0.02336033347914869 0.08464707979003383 0 0.08464707979003383 -0.053669716473101869 0 0 0 -0.0075773457484883261 0.0047624291888447856 0.059616647488892394 0 0.059616647488892394 -0.05689156892930014 0 0 0 -0.013032284935113825 -0.0012547496205467246 0.063237132769561333 0 0.063237132769561333 -0.066767790841357089 0 0 0 -0.017005635115475926 0.0079413036452679713 0.068758809282427613 0 0.068758809282427613 -0.048218566980687688 0 0 0 -0.010069315833854942 0.0028613184079826492 0.071409643953883523 0 0.071409643953883523 -0.050269473273695464 0 0 0 -0.011852038716428259 0.003595991173717894 0.076011554456550667 0 0.076011554456550667 -0.049812627629917783 0 0 0 -0.011554159114049944 0.0011502201094077957 0.07438500424616834 0 0.07438500424616834 -0.041391670288848825 0 0 0 -0.010060362544860202 0.0053331234724202092 0.079307228731056445 0 0.079307228731056445 -0.047081978659121226 0 0 0 -0.010437213796675393 0.0073345287544267501 0.078832798987588479 0 0.078832798987588479 -0.041209133039081358 0 0 0 -0.0084686510711635687 -0.0020949638571075013 0.078532668766850056 0 0.078532668766850056 -0.043968309384815996 0 0 0 -0.011515818310481096 0.0052372076800808465 0.082986920384605312 0 0.082986920384605312 -0.025836790429450307 0 0 0 -0.0051498956873423651 -0.046520261610670355 -0.0052961551764951764 0 -0.0052961551764951764 -2.7043555238998302 0 0 0 -0.68771894637763575 -0.0021988497731086909 0.07480695739883847 0 0.07480695739883847 -0.042201235465008757 0 0 0 -0.01110002130952914 0.014228917024603938 0.0019599035374540108 0 0.0019599035374540108 -3.1213237772369999 0 0 0 -0.77677371505309201 0.0014039897890967268 0.076547534789868421 0 0.076547534789868421 -0.030657562060183441 0 0 0 -0.0073133930677715675 0.00036414712378074476 0.073069420482716585 0 0.073069420482716585 -0.035217142167726756 0 0 0 -0.0087132487609864473 -0.010741452904770354 -0.0018798489306846022 0 -0.0018798489306846022 -3.5308613289099999 0 0 0 -0.88540069545369249 -0.0024403715229053269 0.07135158582520762 0 0.07135158582520762 -0.042790913071143688 0 0 0 -0.011307821148512032 -0.0016648663325750132 0.070894893979923657 0 0.070894893979923657 -0.039764855323440547 0 0 0 -0.010357430414003835 -0.0021181825453981951 -0.0013416038738682801 0 -0.0013416038738682801 -3.9189283684745488 0 0 0 -0.98026163775497965 -0.0035828309777530265 0.069960429852115813 0 0.069960429852115813 -0.045612281801535204 0 0 0 -0.012298778194822058 -0.0026246526588676045 0.072336483383935168 0 0.072336483383935168 -0.044110057069130015 0 0 0 -0.011683677431999523 -0.0011490298373544872 0.072497338623899621 0 0.072497338623899621 -0.046059222006773703 0 0 0 -0.011802062961032034 0.00076544304517203732 0.073702947550929099 0 0.073702947550929099 -0.042899306479537713 0 0 0 -0.010533465858591468 -0.0062243700827746551 0.068529958901882182 0 0.068529958901882182 -0.051356662900953864 0 0 0 -0.01439525824593213 -0.0048898582827490156 0.069300439648863454 0 0.069300439648863454 -0.048318563677126836 0 0 0 -0.013302105489968907 -0.0090468567381926657 0.00040389942068941309 0 0.00040389942068941309 -4.6690734779279852 0 0 0 -1.1695300836665374 -0.0042815608619932721 0.068949238969242543 0 0.068949238969242543 -0.046996741593220204 0 0 0 -0.012819575613803202 -0.0031709298138198339 0.069640344963765921 0 0.069640344963765921 -0.044046420815456511 0 0 0 -0.011804337657319142 -0.0070719916480748157 0.0010815801919648038 0 0.0010815801919648038 -4.2981253982465359 0 0 0 -1.0762993474736597 -0.0039099948186299138 0.072362863059986182 0 0.072362863059986182 -0.048020919411049856 0 0 0 -0.012982728557420053 -0.0065096155405717365 0.072362563578442174 0 0.072362563578442174 -0.05001759392714572 0 0 0 -0.014131802366929472 -0.0051168207006392352 0.071773158402447301 0 0.071773158402447301 -0.048968112321324142 0 0 0 -0.013521233255490928 -0.0057037695137212019 0.075266381798716975 0 0.075266381798716975 -0.048553299019316931 0 0 0 -0.013564267133259589 -0.0032063334510867292 0.073786930308656795 0 0.073786930308656795 -0.043699112833487597 0 0 0 -0.011726361571143484 0.0026165606848648215 0.070699041885497971 0 0.070699041885497971 -0.044471641987649413 0 0 0 -0.01046377032569612 -0.0038784587163969856 0.073400927778448311 0 0.073400927778448311 -0.046978716424907627 0 0 0 -0.012714293785326083 -0.0046141443746803221 0.070397615922507428 0 0.070397615922507428 -0.04680009146486519 0 0 0 -0.012853558959886428 -0.0071236864870291017 0.073766485969039425 0 0.073766485969039425 -0.031015062691506223 0 0 0 -0.0095346872946338868 -0.0054091124324264078 0.073047474676401214 0 0.073047474676401214 -0.044123567501663519 0 0 0 -0.012383169983522443 -0.0077022256732660367 0.066880925667191157 0 0.066880925667191157 -0.027780792407468127 0 0 0 -0.0088707545201835193 -0.0095057330585623968 0.066194879591611813 0 0.066194879591611813 -0.034102481714147606 0 0 0 -0.010902053693177486 -0.015926891684643785 0.052438067624005394 0 0.052438067624005394 -0.035753480703145435 0 0 0 -0.012920093096947333 -0.0026410298308743863 0.059752800693273864 0 0.059752800693273864 -0.038921533963873878 0 0 0 -0.010390640948687108 -0.018661385453510614 0.050534532947465793 0 0.050534532947465793 -0.061295372056380193 0 0 0 -0.019989189377472648 -0.0064219042985590004 0.061232512917522158 0 0.061232512917522158 -0.052737747304736383 0 0 0 -0.014789912900823831 0.0003582491564803475 0.063945775644610403 0 0.063945775644610403 -0.032997725785356868 0 0 0 -0.0081598691572191545 -0.064212855995835233 0.02413626884507114 0 0.02413626884507114 -0.0042800346052144222 0 0 0 -0.017123222650262532 -0.076043177482983171 0.062549137603444604 0 0.062549137603444604 -0.026120024971834965 0 0 0 -0.025540800613704451 -0.1167361463177008 0.030859255722396117 0 0.030859255722396117 -0.0024282853684840511 0 0 0 -0.029791107921546156 -0.13087793197243736 0.035818937276121121 0 0.035818937276121121 -0.010256932949432418 0 0 0 -0.035283716230467554 -0.16758028567075511 0.043931936665927429 0 0.043931936665927429 0.016795415162369043 0 0 0 -0.037696217627096518 -0.32545621095506905 0.096438749837822746 0 0.096438749837822746 -0.074136102080803346 0 0 0 -0.099898078258968126 -0.19662431430372562 0.11602661589474217 0 0.11602661589474217 -0.14394643034048649 0 0 0 -0.085142686161052916 -0.75723510240977521 -0.0016389610429996537 0 -0.0016389610429996537 -8.4071699431890767 0 0 0 -2.2911012613997128 -0.17653358724537282 0.00304440936906758 0 0.00304440936906758 -7.7910569911142229 0 0 0 -1.9918976445898844 -0.12255272153300267 0.097417725188909898 0 0.097417725188909898 -0.11856732448868357 0 0 0 -0.060280011505421616 -0.14898497641905184 0.084387153197583498 0 0.084387153197583498 -0.075895853243039824 0 0 0 -0.056220207415522694 -0.094420242190913495 0.080836489699982139 0 0.080836489699982139 -0.081464695724858593 0 0 0 -0.043971234478942911 -0.12251787423887051 0.075557436108641907 0 0.075557436108641907 -0.038785743636610803 0 0 0 -0.04032590446887041 -0.15548445570814651 0.094871872986854733 0 0.094871872986854733 -0.073695259470459185 0 0 0 -0.057294928794651367 -0.087352859773165425 0.089810021230764758 0 0.089810021230764758 -0.082890843531270963 0 0 0 -0.042560925826109042 -0.04797570573044635 0.072521924704026075 0 0.072521924704026075 -0.044163643970954514 0 0 0 -0.02303483742535023 -0.083466400471093438 0.08821778919830478 0 0.08821778919830478 -0.072655077035408411 0 0 0 -0.039030369376625407 -0.056619531494732978 0.072764208945663267 0 0.072764208945663267 -0.07694181775372666 0 0 0 -0.033390337312114826 -0.15508787933278989 -0.001479512800926841 0 -0.001479512800926841 -7.3589927979268079 0 0 0 -1.8785201693149243 -0.083355933032588148 0.086310653095616363 0 0.086310653095616363 -0.10081695621147668 0 0 0 -0.046043222311016319 -0.047364927740829108 0.079937402967230398 0 0.079937402967230398 -0.08483112541788225 0 0 0 -0.033049013289678006 -0.089515854867776579 -0.0042509722785553095 0 -0.0042509722785553095 -6.9346615138215855 0 0 0 -1.7560443421723297 -0.037597928563921856 0.074210777980877496 0 0.074210777980877496 -0.069024922449643533 0 0 0 -0.026655712753391514 -0.053661530910639299 0.083497202314967919 0 0.083497202314967919 -0.060904615056239564 0 0 0 -0.028641536491719521 -0.091004446803272354 0.074947301783757414 0 0.074947301783757414 -0.044411905478835667 0 0 0 -0.033854088070527033 -0.045429755174163283 0.058204804324868853 0 0.058204804324868853 -0.015736738432310493 0 0 0 -0.015291623401618409 -0.04703322965105769 0.077208164166311155 0 0.077208164166311155 -0.043038096391427305 0 0 0 -0.022517831510621228 -0.029523013624581318 0.068903952437990301 0 0.068903952437990301 -0.027753200846728499 0 0 0 -0.014319053617827426 -0.025764815914533501 0.077254560038564679 0 0.077254560038564679 -0.045491988735239575 0 0 0 -0.0178142011624432 -0.031637189575338343 0.079832138397015501 0 0.079832138397015501 -0.057855706515336225 0 0 0 -0.022373224022668614 -0.018548299577000382 0.073380270368216316 0 0.073380270368216316 -0.045155175692059846 0 0 0 -0.015925868817265043 -0.03247251284831143 0.073513322039788442 0 0.073513322039788442 -0.042461843365627416 0 0 0 -0.018733589053484767 -0.033512373786765415 0.075822062604522289 0 0.075822062604522289 -0.069579078954681073 0 0 0 -0.02577286318536165 -0.030986315410146847 0.077786608662503587 0 0.077786608662503587 -0.065625626463742481 0 0 0 -0.024152985468472332 -0.025645838818456834 0.071136555565396775 0 0.071136555565396775 -0.066301300376212957 0 0 0 -0.022986784798667559 -0.065088948287424397 0.0021116688281495044 0 0.0021116688281495044 -6.5467873105783632 0 0 0 -1.6529690647164434 -0.033107633968793015 0.075303572577861133 0 0.075303572577861133 -0.076209137155324846 0 0 0 -0.027329192781029299 -0.018200098949299415 0.06998255062392944 0 0.06998255062392944 -0.061272604102593498 0 0 0 -0.019868175762973062 -0.044170019564609309 0.0032498716092845825 0 0.0032498716092845825 -6.1575111432180805 0 0 0 -1.5504202906956757 -0.022576363709496006 0.07250855786019228 0 0.07250855786019228 -0.068896144032640105 0 0 0 -0.022868126935533972 -0.018139881477893471 0.074010267636104188 0 0.074010267636104188 -0.062626521487033404 0 0 0 -0.020191600741231719 -0.023695343603656771 0.073755154584094096 0 0.073755154584094096 -0.056609553580860394 0 0 0 -0.020076224296129208 -0.016192119415032513 0.073649053092446626 0 0.073649053092446626 -0.05689083241175652 0 0 0 -0.018270737956697092 -0.011836374397047211 0.071565519589094073 0 0.071565519589094073 -0.052896044453798252 0 0 0 -0.016183104712711338 -0.012676075958650057 0.068396623522003375 0 0.068396623522003375 -0.058585478261587998 0 0 0 -0.017815388555059486 -0.030471048504888687 0.0011712022169376723 0 0.0011712022169376723 -5.7822840485487772 0 0 0 -1.4531887742633989 -0.01661474059700252 0.070533455036046022 0 0.070533455036046022 -0.063254403893662658 0 0 0 -0.019967286122666295 -0.014000174921607433 0.001422403704395947 0 0.001422403704395947 -5.0397216963245262 0 0 0 -1.263430467811526 -0.0072390637587230709 0.069105041251271704 0 0.069105041251271704 -0.05277513653880038 0 0 0 -0.015003550074380697 -0.010658592371620479 0.069677589305377596 0 0.069677589305377596 -0.057566929086286134 0 0 0 -0.017056380364476764 -0.021259158750989549 -1.8472879617092985e-05 0 -1.8472879617092985e-05 -5.4104849204096803 0 0 0 -1.3579360197901638 -0.0084968283428084046 0.068420115160674033 0 0.068420115160674033 -0.053716701675693646 0 0 0 -0.015553382504625457 -0.0081665476020927052 0.072273628255198896 0 0.072273628255198896 -0.055290259276408849 0 0 0 -0.015864201719625354 -0.0082941185753565017 0.07329013454844957 0 0.07329013454844957 -0.04227591617208204 0 0 0 -0.012642508686859566 -0.014775837461352265 0.077149047345507427 0 0.077149047345507427 -0.053195854207083115 0 0 0 -0.016992922917108761 -0.0012276632056362445 0.059079768813332739 0 0.059079768813332739 -0.012990642102276476 0 0 0 -0.0035545763269781948 -0.010808893716374973 0.075895371844844961 0 0.075895371844844961 -0.042122493055549243 0 0 0 -0.013232846692981054 -0.011381595325987259 0.069562128949094831 0 0.069562128949094831 -0.029173016753463399 0 0 0 -0.010138653019862665 -0.017146131155532485 0.065773562704986466 0 0.065773562704986466 -0.024838274862902354 0 0 0 -0.010496101504608668 -0.022652257130325218 0.069880628278464862 0 0.069880628278464862 -0.027288989970830291 0 0 0 -0.012485311775288901 -0.031056891497528272 0.049914653538218612 0 0.049914653538218612 -0.0082116218088898463 0 0 0 -0.009817128326604474 -0.04419487995447996 0.05599325467005864 0 0.05599325467005864 -0.019377189453009258 0 0 0 -0.015893017351872374 0.00031588373599800851 0.045473364578191067 0 0.045473364578191067 -0.0059883738059506308 0 0 0 -0.0014181225174881226 -0.012204914924931365 0.019615550746264587 0 0.019615550746264587 0.0019024469021446389 0 0 0 -0.0025756170056966954 -0.051381457010368392 0.020617647684683306 0 0.020617647684683306 0.00093120109167110776 0 0 0 -0.012612563979674363 -0.012304770426556561 0.021590859104570481 0 0.021590859104570481 -0.0022183460078214479 0 0 0 -0.0036307791085945229 0.032669468756826914 0.048688942869794409 0 0.048688942869794409 0.010872307778495094 0 0 0 0.0108854441338305 0.037588441442966733 0.023004459896365567 0 0.023004459896365567 0.0011100254177747182 0 0 0 0.0096746167151853524 0.015619828366945109 0.026660718388608229 0 0.026660718388608229 -0.0032343864370562581 0 0 0 0.0030963604824722005 -0.0087647703057457116 0.067699913346579391 0 0.067699913346579391 -0.011984198963645998 0 0 0 -0.0051872423173479343 -0.0033812912770945685 0.049544036114906188 0 0.049544036114906188 0.0014303305409049125 0 0 0 -0.00048774018404742093 0.027567863004941264 0.045549801893936356 0 0.045549801893936356 0.0014104329892680664 0 0 0 0.0072445739985523387 -0.01249952558389332 0.050631947642011191 0 0.050631947642011191 -0.005700703568069454 0 0 0 -0.0045500572879906831 0.00068343764350196218 0.049154501279490642 0 0.049154501279490642 0.019922805414127831 0 0 0 0.0051515607644074535 0.10402058186612523 0.03211629628917468 0 0.03211629628917468 0.011591380904653947 0 0 0 0.028902990692694808 -0.014524684716458231 0.054365465003545811 0 0.054365465003545811 -0.004821453724585199 0 0 0 -0.0048365346102608566 -0.013743750116722533 0.056896709713573752 0 0.056896709713573752 -0.020994784068043781 0 0 0 -0.0086846335461915752 -0.018333045742974272 0.052121229476061681 0 0.052121229476061681 -0.011952146388515494 0 0 0 -0.0075712980328724311 -0.010491861486924617 0.056784690362999511 0 0.056784690362999511 -0.01089893774929146 0 0 0 -0.0053476998090540434 -0.011374052050954892 0.055553806038233108 0 0.055553806038233108 -0.013204033795524173 0 0 0 -0.0061445214616197737 -0.02045443706528291 0.052630285524919121 0 0.052630285524919121 -0.01816624766869071 0 0 0 -0.0096551711834934051 -0.021239499214296589 0.047824086623287888 0 0.047824086623287888 -0.021054545930147467 0 0 0 -0.010573511286111011 -0.017169397243971422 0.049906088358950718 0 0.049906088358950718 -0.0057334814555525708 0 0 0 -0.0057257196748809972 -0.042829170918933838 0.034610623201896021 0 0.034610623201896021 -0.013736992277963961 0 0 0 -0.014141540799224452 -0.015130959175567057 0.045093764841643798 0 0.045093764841643798 -0.0050462532072202484 0 0 0 -0.0050443030956968263 0.032550326234342217 0.015369409000222385 0 0.015369409000222385 -0.018609903669289871 0 0 0 0.0034851056412630865 -0.010080601364330935 0.039546413211302596 0 0.039546413211302596 -0.029444903307292825 0 0 0 -0.0098813761679059364 0.011435548214972655 0.020969075931412152 0 0.020969075931412152 0.010938984070498869 0 0 0 0.0055936330713678845 0.016378748821843918 0.01565391568182084 0 0.01565391568182084 -0.010001323914107784 0 0 0 0.0015943562269340318 0.011672514620807803 0.01296174832357673 0 0.01296174832357673 -0.02476548271956297 0 0 0 -0.0032732420246887745 0.00832804518016831 0.016457800472204159 0 0.016457800472204159 -0.047670404395068089 0 0 0 -0.0098355898037249465 -0.0020810498673742295 0.019478560745532988 0 0.019478560745532988 -0.094193064028238571 0 0 0 -0.024068528473903172 -0.00057338420317433469 0.043840426104355873 0 0.043840426104355873 -0.036225586167738744 0 0 0 -0.00919974259272828 -0.0066023361848726869 -0.0011346444162973479 0 -0.0011346444162973479 -0.18101048405186115 0 0 0 -0.046903205059183412 0.031354848096902255 0.03443023426945746 0 0.03443023426945746 -0.088436177784537939 0 0 0 -0.014270332421908893 -0.032933330486440517 0.065244919874538954 0 0.065244919874538954 -0.30893350511315038 0 0 0 -0.0854667088998977 0.017744734234205195 0.10463671130237689 0 0.10463671130237689 -0.080571668467294355 0 0 0 -0.015706733558272123 -0.018072197237803192 0.062271952352320081 0 0.062271952352320081 -0.097110470716046823 0 0 0 -0.02879566698846249 -0.011647160920091881 0.04836140438106945 0 0.04836140438106945 -0.084222251087185174 0 0 0 -0.023967353001819292 -0.012149213851899446 0.048304469064088418 0 0.048304469064088418 -0.06751029463748226 0 0 0 -0.019914877122345367 -0.01177986292670187 0.0489344240787144 0 0.0489344240787144 -0.017399315710296737 0 0 0 -0.0072947946592496482 -0.016135799733032002 0.054290176496198994 0 0.054290176496198994 -0.039483172405969658 0 0 0 -0.013904743034750422 -0.01721192217293635 0.053002322118902823 0 0.053002322118902823 -0.039797190300032925 0 0 0 -0.014252278118242284 -0.0056542470489491271 0.042686969448438528 0 0.042686969448438528 -0.015468763423599119 0 0 0 -0.0052807526181370586 -0.017221704857255549 0.048032802870007781 0 0.048032802870007781 -0.043996659531593818 0 0 0 -0.015304591097212356 
</DataArray>
</CellData>
</Piece>
</UnstructuredGrid>
</VTKFile>
