<?xml version="1.0"?>
<VTKFile type="UnstructuredGrid" version="0.1" byte_order="LittleEndian">
<UnstructuredGrid>
<Piece NumberOfPoints="880" NumberOfCells="299">
<Points>
<DataArray type="Float64" NumberOfComponents="3" format="ascii">
-0 0 0 0.18653882694645291 0.22249173546702489 0 0 0.25000000000104189 0 -0 0 0 0.18653882694645291 0.22249173546702489 0 0.24999999999941089 0 0 0.24999999999941089 0 0 0.35015135319464608 0.1900339269648805 0 0.49999999999869182 0 0 0.18653882694645291 0.22249173546702489 0 0.24999999999941089 0 0 0.35015135319464608 0.1900339269648805 0 0.35015135319464608 0.1900339269648805 0 0.49924741621175961 0.21507969613896921 0 0.49999999999869182 0 0 0.35015135319464608 0.1900339269648805 0 0.49924741621175961 0.21507969613896921 0 0.40587285776242238 0.32419148732968017 0 0.37764981543668408 0.41341486499350411 0 0.41576443813007791 0.48093483781626972 0 0.45418244162583959 0.41624787166862259 0 0.37764981543668408 0.41341486499350411 0 0.45418244162583959 0.41624787166862259 0 0.40587285776242238 0.32419148732968017 0 0.41576443813007791 0.48093483781626972 0 0.46566719828045178 0.47702825415921918 0 0.45418244162583959 0.41624787166862259 0 0.41576443813007791 0.48093483781626972 0 0.46566719828045178 0.47702825415921918 0 0.4638583922372429 0.51470588235294135 0 0.46566719828045178 0.47702825415921918 0 0.49954900152271581 0.45107191084564019 0 0.5 0.5 0 0.46566719828045178 0.47702825415921918 0 0.4638583922372429 0.51470588235294135 0 0.5 0.5 0 0.46566719828045178 0.47702825415921918 0 0.49954900152271581 0.45107191084564019 0 0.45418244162583959 0.41624787166862259 0 0.45418244162583959 0.41624787166862259 0 0.49435464945626773 0.33318442629318029 0 0.54876010062294855 0.39662628167175101 0 0.45418244162583959 0.41624787166862259 0 0.49435464945626773 0.33318442629318029 0 0.40587285776242238 0.32419148732968017 0 0.49924741621175961 0.21507969613896921 0 0.49435464945626773 0.33318442629318029 0 0.40587285776242238 0.32419148732968017 0 0.35015135319464608 0.1900339269648805 0 0.40587285776242238 0.32419148732968017 0 0.29145599617909779 0.35026601625021492 0 0.37764981543668408 0.41341486499350411 0 0.40587285776242238 0.32419148732968017 0 0.29145599617909779 0.35026601625021492 0 0.18653882694645291 0.22249173546702489 0 0.35015135319464608 0.1900339269648805 0 0.29145599617909779 0.35026601625021492 0 0.29145599617909779 0.35026601625021492 0 0.32540781287085369 0.49175159894608172 0 0.17872124008781709 0.39692711089439497 0 0.37764981543668408 0.41341486499350411 0 0.29145599617909779 0.35026601625021492 0 0.32540781287085369 0.49175159894608172 0 0.37764981543668408 0.41341486499350411 0 0.41576443813007791 0.48093483781626972 0 0.32540781287085369 0.49175159894608172 0 0.17872124008781709 0.39692711089439497 0 0 0.25000000000104189 0 0 0.50000000000206157 0 0.17872124008781709 0.39692711089439497 0 0 0.50000000000206157 0 0.22453074737734591 0.51613635929252633 0 0.32540781287085369 0.49175159894608172 0 0.17872124008781709 0.39692711089439497 0 0.22453074737734591 0.51613635929252633 0 0.18653882694645291 0.22249173546702489 0 0.29145599617909779 0.35026601625021492 0 0.17872124008781709 0.39692711089439497 0 0.18653882694645291 0.22249173546702489 0 0.17872124008781709 0.39692711089439497 0 0 0.25000000000104189 0 0 0.50000000000206157 0 0.18442368612951149 0.62734948407416979 0 0 0.75000000000034772 0 0.18442368612951149 0.62734948407416979 0 0.22727208279115291 0.72949159435386135 0 0 0.75000000000034772 0 0.18442368612951149 0.62734948407416979 0 0.22727208279115291 0.72949159435386135 0 0.31346558946927339 0.67110784456164874 0 0.18442368612951149 0.62734948407416979 0 0.22453074737734591 0.51613635929252633 0 0.31771010312359771 0.58585679504088894 0 0 0.50000000000206157 0 0.18442368612951149 0.62734948407416979 0 0.22453074737734591 0.51613635929252633 0 0 1 0 0.096516139048187316 0.89789944498939644 0 0 0.75000000000034772 0 0 1 0 0.096516139048187316 0.89789944498939644 0 0.1596341872805197 1 0 0.096516139048187316 0.89789944498939644 0 0 0.75000000000034772 0 0.1644705180525495 0.8200994301041713 0 0.1644705180525495 0.8200994301041713 0 0.2386314078659193 0.92924778694987087 0 0.27155609766735261 0.80398965554903801 0 0.22727208279115291 0.72949159435386135 0 0 0.75000000000034772 0 0.1644705180525495 0.8200994301041713 0 0.22727208279115291 0.72949159435386135 0 0.1644705180525495 0.8200994301041713 0 0.27155609766735261 0.80398965554903801 0 0.096516139048187316 0.89789944498939644 0 0.1644705180525495 0.8200994301041713 0 0.2386314078659193 0.92924778694987087 0 0.096516139048187316 0.89789944498939644 0 0.2386314078659193 0.92924778694987087 0 0.1596341872805197 1 0 0.2386314078659193 0.92924778694987087 0 0.1596341872805197 1 0 0.27591592301363282 1 0 0.36061858902161292 1 0 0.32789203369730929 0.94219211037003092 0 0.27591592301363282 1 0 0.36061858902161292 1 0 0.32789203369730929 0.94219211037003092 0 0.39382242252278338 0.95440420122950598 0 0.2386314078659193 0.92924778694987087 0 0.32789203369730929 0.94219211037003092 0 0.27591592301363282 1 0 0.2386314078659193 0.92924778694987087 0 0.32789203369730929 0.94219211037003092 0 0.31834856208730472 0.88134829947972904 0 0.32789203369730929 0.94219211037003092 0 0.37746652222901839 0.8987532801416368 0 0.39382242252278338 0.95440420122950598 0 0.32789203369730929 0.94219211037003092 0 0.31834856208730472 0.88134829947972904 0 0.37746652222901839 0.8987532801416368 0 0.2386314078659193 0.92924778694987087 0 0.31834856208730472 0.88134829947972904 0 0.27155609766735261 0.80398965554903801 0 0.31834856208730472 0.88134829947972904 0 0.36493375430404612 0.82333914183704071 0 0.37746652222901839 0.8987532801416368 0 0.31834856208730472 0.88134829947972904 0 0.36493375430404612 0.82333914183704071 0 0.27155609766735261 0.80398965554903801 0 0.22727208279115291 0.72949159435386135 0 0.27155609766735261 0.80398965554903801 0 0.32984265945580837 0.74432890077789404 0 0.36493375430404612 0.82333914183704071 0 0.27155609766735261 0.80398965554903801 0 0.32984265945580837 0.74432890077789404 0 0.36493375430404612 0.82333914183704071 0 0.39746869305290999 0.7595658224757349 0 0.32984265945580837 0.74432890077789404 0 0.36493375430404612 0.82333914183704071 0 0.39746869305290999 0.7595658224757349 0 0.42893012659725649 0.81084715169569632 0 0.39746869305290999 0.7595658224757349 0 0.42893012659725649 0.81084715169569632 0 0.44651949253391748 0.77225997208621999 0 0.39746869305290999 0.7595658224757349 0 0.44651949253391748 0.77225997208621999 0 0.43412357948152142 0.72128778687215156 0 0.44651949253391748 0.77225997208621999 0 0.47786860714145291 0.77730227330627721 0 0.47220206448452873 0.74892462649306213 0 0.47786860714145291 0.77730227330627721 0 0.47220206448452873 0.74892462649306213 0 0.5 0.76470588235294124 0 0.47786860714145291 0.77730227330627721 0 0.5 0.79411764705882359 0 0.5 0.76470588235294124 0 0.47062147868881782 0.80650323854033878 0 0.5 0.82352941176470584 0 0.5 0.79411764705882359 0 0.47786860714145291 0.77730227330627721 0 0.47062147868881782 0.80650323854033878 0 0.5 0.79411764705882359 0 0.44651949253391748 0.77225997208621999 0 0.47786860714145291 0.77730227330627721 0 0.47062147868881782 0.80650323854033878 0 0.42893012659725649 0.81084715169569632 0 0.44651949253391748 0.77225997208621999 0 0.47062147868881782 0.80650323854033878 0 0.42893012659725649 0.81084715169569632 0 0.47062147868881782 0.80650323854033878 0 0.46181179062043481 0.83858979842637782 0 0.42893012659725649 0.81084715169569632 0 0.46181179062043481 0.83858979842637782 0 0.42880856207355889 0.86677159981903118 0 0.46181179062043481 0.83858979842637782 0 0.5 0.85294117647058831 0 0.5 0.82352941176470584 0 0.47062147868881782 0.80650323854033878 0 0.46181179062043481 0.83858979842637782 0 0.5 0.82352941176470584 0 0.46181179062043481 0.83858979842637782 0 0.47032448519202857 0.86718057681700655 0 0.5 0.85294117647058831 0 0.47032448519202857 0.86718057681700655 0 0.5 0.88235294117647056 0 0.5 0.85294117647058831 0 0.46181179062043481 0.83858979842637782 0 0.47032448519202857 0.86718057681700655 0 0.42880856207355889 0.86677159981903118 0 0.36493375430404612 0.82333914183704071 0 0.42880856207355889 0.86677159981903118 0 0.37746652222901839 0.8987532801416368 0 0.36493375430404612 0.82333914183704071 0 0.42893012659725649 0.81084715169569632 0 0.42880856207355889 0.86677159981903118 0 0.37746652222901839 0.8987532801416368 0 0.42822627495986648 0.92083108049218854 0 0.39382242252278338 0.95440420122950598 0 0.42880856207355889 0.86677159981903118 0 0.37746652222901839 0.8987532801416368 0 0.42822627495986648 0.92083108049218854 0 0.47032448519202857 0.86718057681700655 0 0.42880856207355889 0.86677159981903118 0 0.46100207326614928 0.89524736819256467 0 0.42880856207355889 0.86677159981903118 0 0.42822627495986648 0.92083108049218854 0 0.46100207326614928 0.89524736819256467 0 0.47032448519202857 0.86718057681700655 0 0.46100207326614928 0.89524736819256467 0 0.5 0.88235294117647056 0 0.46100207326614928 0.89524736819256467 0 0.5 0.91176470588235292 0 0.5 0.88235294117647056 0 0.46100207326614928 0.89524736819256467 0 0.46949408183482899 0.92833826413560594 0 0.5 0.91176470588235292 0 0.46949408183482899 0.92833826413560594 0 0.5 0.94117647058823528 0 0.5 0.91176470588235292 0 0.42822627495986648 0.92083108049218854 0 0.46100207326614928 0.89524736819256467 0 0.46949408183482899 0.92833826413560594 0 0.46949408183482899 0.92833826413560594 0 0.44768478605684647 0.9646709673379662 0 0.47596308696979028 0.95620709615192379 0 0.42822627495986648 0.92083108049218854 0 0.46949408183482899 0.92833826413560594 0 0.44768478605684647 0.9646709673379662 0 0.44768478605684647 0.9646709673379662 0 0.47596308696979028 0.95620709615192379 0 0.47818194888216242 0.97829325975680159 0 0.46949408183482899 0.92833826413560594 0 0.47596308696979028 0.95620709615192379 0 0.5 0.94117647058823528 0 0.47596308696979028 0.95620709615192379 0 0.47818194888216242 0.97829325975680159 0 0.5 0.97058823529411764 0 0.47596308696979028 0.95620709615192379 0 0.5 0.97058823529411764 0 0.5 0.94117647058823528 0 0.47818194888216242 0.97829325975680159 0 0.46726187138417491 1 0 0.5 1 0 0.47818194888216242 0.97829325975680159 0 0.5 0.97058823529411764 0 0.5 1 0 0.44768478605684647 0.9646709673379662 0 0.47818194888216242 0.97829325975680159 0 0.46726187138417491 1 0 0.44768478605684647 0.9646709673379662 0 0.46726187138417491 1 0 0.42231823435723009 1 0 0.44768478605684647 0.9646709673379662 0 0.42231823435723009 1 0 0.39382242252278338 0.95440420122950598 0 0.42822627495986648 0.92083108049218854 0 0.44768478605684647 0.9646709673379662 0 0.39382242252278338 0.95440420122950598 0 0.36061858902161292 1 0 0.42231823435723009 1 0 0.39382242252278338 0.95440420122950598 0 0.31771010312359771 0.58585679504088894 0 0.3872154068451229 0.6301386882447304 0 0.41980724897053312 0.55867199730355355 0 0.32540781287085369 0.49175159894608172 0 0.31771010312359771 0.58585679504088894 0 0.41980724897053312 0.55867199730355355 0 0.32540781287085369 0.49175159894608172 0 0.22453074737734591 0.51613635929252633 0 0.31771010312359771 0.58585679504088894 0 0.18442368612951149 0.62734948407416979 0 0.31771010312359771 0.58585679504088894 0 0.31346558946927339 0.67110784456164874 0 0.22727208279115291 0.72949159435386135 0 0.32984265945580837 0.74432890077789404 0 0.31346558946927339 0.67110784456164874 0 0.39746869305290999 0.7595658224757349 0 0.32984265945580837 0.74432890077789404 0 0.38513711431054509 0.69312683393047636 0 0.32984265945580837 0.74432890077789404 0 0.31346558946927339 0.67110784456164874 0 0.38513711431054509 0.69312683393047636 0 0.31771010312359771 0.58585679504088894 0 0.31346558946927339 0.67110784456164874 0 0.3872154068451229 0.6301386882447304 0 0.31346558946927339 0.67110784456164874 0 0.3872154068451229 0.6301386882447304 0 0.38513711431054509 0.69312683393047636 0 0.3872154068451229 0.6301386882447304 0 0.38513711431054509 0.69312683393047636 0 0.4390556798454946 0.66199025953586599 0 0.3872154068451229 0.6301386882447304 0 0.4390556798454946 0.66199025953586599 0 0.44702869549010399 0.61002701911053991 0 0.39746869305290999 0.7595658224757349 0 0.38513711431054509 0.69312683393047636 0 0.43412357948152142 0.72128778687215156 0 0.38513711431054509 0.69312683393047636 0 0.43412357948152142 0.72128778687215156 0 0.4390556798454946 0.66199025953586599 0 0.43412357948152142 0.72128778687215156 0 0.47636314644728822 0.72058823529411908 0 0.47220206448452873 0.74892462649306213 0 0.44651949253391748 0.77225997208621999 0 0.43412357948152142 0.72128778687215156 0 0.47220206448452873 0.74892462649306213 0 0.43412357948152142 0.72128778687215156 0 0.46330219403010409 0.69594601192744354 0 0.4390556798454946 0.66199025953586599 0 0.43412357948152142 0.72128778687215156 0 0.46330219403010409 0.69594601192744354 0 0.47636314644728822 0.72058823529411908 0 0.46330219403010409 0.69594601192744354 0 0.47636314644728822 0.72058823529411908 0 0.5 0.70588235294117663 0 0.46330219403010409 0.69594601192744354 0 0.5 0.67647058823529438 0 0.5 0.70588235294117663 0 0.47636314644728822 0.72058823529411908 0 0.5 0.73529411764705888 0 0.5 0.70588235294117663 0 0.47220206448452873 0.74892462649306213 0 0.5 0.73529411764705888 0 0.5 0.76470588235294124 0 0.47636314644728822 0.72058823529411908 0 0.47220206448452873 0.74892462649306213 0 0.5 0.73529411764705888 0 0.4390556798454946 0.66199025953586599 0 0.47501372853621993 0.66300743809067952 0 0.47271076880550111 0.63357150722538136 0 0.4390556798454946 0.66199025953586599 0 0.47271076880550111 0.63357150722538136 0 0.44702869549010399 0.61002701911053991 0 0.46330219403010409 0.69594601192744354 0 0.4390556798454946 0.66199025953586599 0 0.47501372853621993 0.66300743809067952 0 0.46330219403010409 0.69594601192744354 0 0.47501372853621993 0.66300743809067952 0 0.5 0.67647058823529438 0 0.47501372853621993 0.66300743809067952 0 0.5 0.64705882352941191 0 0.5 0.67647058823529438 0 0.47501372853621993 0.66300743809067952 0 0.47271076880550111 0.63357150722538136 0 0.5 0.64705882352941191 0 0.47271076880550111 0.63357150722538136 0 0.5 0.61764705882352966 0 0.5 0.64705882352941191 0 0.47784843225772261 0.60532339797118362 0 0.5 0.5882352941176473 0 0.5 0.61764705882352966 0 0.47271076880550111 0.63357150722538136 0 0.47784843225772261 0.60532339797118362 0 0.5 0.61764705882352966 0 0.46950269699300751 0.57713611057881953 0 0.5 0.55882352941176494 0 0.5 0.5882352941176473 0 0.47784843225772261 0.60532339797118362 0 0.46950269699300751 0.57713611057881953 0 0.5 0.5882352941176473 0 0.46950269699300751 0.57713611057881953 0 0.44702869549010399 0.61002701911053991 0 0.41980724897053312 0.55867199730355355 0 0.47784843225772261 0.60532339797118362 0 0.46950269699300751 0.57713611057881953 0 0.44702869549010399 0.61002701911053991 0 0.47271076880550111 0.63357150722538136 0 0.47784843225772261 0.60532339797118362 0 0.44702869549010399 0.61002701911053991 0 0.3872154068451229 0.6301386882447304 0 0.44702869549010399 0.61002701911053991 0 0.41980724897053312 0.55867199730355355 0 0.41576443813007791 0.48093483781626972 0 0.32540781287085369 0.49175159894608172 0 0.41980724897053312 0.55867199730355355 0 0.41576443813007791 0.48093483781626972 0 0.41980724897053312 0.55867199730355355 0 0.4638583922372429 0.51470588235294135 0 0.41980724897053312 0.55867199730355355 0 0.4638583922372429 0.51470588235294135 0 0.47063366764015668 0.5477498568705923 0 0.46950269699300751 0.57713611057881953 0 0.41980724897053312 0.55867199730355355 0 0.47063366764015668 0.5477498568705923 0 0.46950269699300751 0.57713611057881953 0 0.47063366764015668 0.5477498568705923 0 0.5 0.55882352941176494 0 0.47063366764015668 0.5477498568705923 0 0.5 0.52941176470588269 0 0.5 0.55882352941176494 0 0.4638583922372429 0.51470588235294135 0 0.47063366764015668 0.5477498568705923 0 0.5 0.52941176470588269 0 0.4638583922372429 0.51470588235294135 0 0.5 0.5 0 0.5 0.52941176470588269 0 0.5 0.52941176470588269 0 0.52629893369322589 0.51330452493555312 0 0.52820848765230954 0.54540076010342464 0 0.5 0.5 0 0.5 0.52941176470588269 0 0.52629893369322589 0.51330452493555312 0 0.5 0.5 0 0.5 0.52941176470588269 0 0.5 0.52941176470588269 0 0.5 0.55882352941176494 0 0.52820848765230954 0.54540076010342464 0 0.5 0.52941176470588269 0 0.5 0.55882352941176494 0 0.5 0.55882352941176494 0 0.52820848765230954 0.54540076010342464 0 0.52246722155046366 0.57417151085839346 0 0.52820848765230954 0.54540076010342464 0 0.56199650931215228 0.51957997397013023 0 0.55931585964581554 0.57571189932143541 0 0.52629893369322589 0.51330452493555312 0 0.56199650931215228 0.51957997397013023 0 0.54128967150166729 0.47213012589832831 0 0.52629893369322589 0.51330452493555312 0 0.52820848765230954 0.54540076010342464 0 0.56199650931215228 0.51957997397013023 0 0.56199650931215228 0.51957997397013023 0 0.61174067805461174 0.54148194547208961 0 0.60345082206666756 0.47575908627627911 0 0.56199650931215228 0.51957997397013023 0 0.61174067805461174 0.54148194547208961 0 0.55931585964581554 0.57571189932143541 0 0.61174067805461174 0.54148194547208961 0 0.61264973759093866 0.60999664295093947 0 0.55931585964581554 0.57571189932143541 0 0.61264973759093866 0.60999664295093947 0 0.55931585964581554 0.57571189932143541 0 0.55828304378107996 0.63546085023637511 0 0.55931585964581554 0.57571189932143541 0 0.52754891270107895 0.60396918438229519 0 0.55828304378107996 0.63546085023637511 0 0.52754891270107895 0.60396918438229519 0 0.52222323737415433 0.63323059203007803 0 0.55828304378107996 0.63546085023637511 0 0.52820848765230954 0.54540076010342464 0 0.55931585964581554 0.57571189932143541 0 0.52246722155046366 0.57417151085839346 0 0.55931585964581554 0.57571189932143541 0 0.52246722155046366 0.57417151085839346 0 0.52754891270107895 0.60396918438229519 0 0.52246722155046366 0.57417151085839346 0 0.5 0.5882352941176473 0 0.52754891270107895 0.60396918438229519 0 0.5 0.55882352941176494 0 0.52246722155046366 0.57417151085839346 0 0.5 0.5882352941176473 0 0.5 0.55882352941176494 0 0.5 0.5882352941176473 0 0.52754891270107895 0.60396918438229519 0 0.5 0.61764705882352966 0 0.52222323737415433 0.63323059203007803 0 0.5 0.5882352941176473 0 0.5 0.61764705882352966 0 0.5 0.5882352941176473 0 0.52754891270107895 0.60396918438229519 0 0.5 0.61764705882352966 0 0.5 0.61764705882352966 0 0.52222323737415433 0.63323059203007803 0 0.5 0.64705882352941191 0 0.5 0.61764705882352966 0 0.5 0.64705882352941191 0 0.52222323737415433 0.63323059203007803 0 0.5 0.64705882352941191 0 0.52736180768426655 0.66304505109048573 0 0.5 0.64705882352941191 0 0.5 0.67647058823529438 0 0.52736180768426655 0.66304505109048573 0 0.5 0.64705882352941191 0 0.5 0.67647058823529438 0 0.5 0.67647058823529438 0 0.52736180768426655 0.66304505109048573 0 0.52189318962165776 0.69193883095305098 0 0.52736180768426655 0.66304505109048573 0 0.52189318962165776 0.69193883095305098 0 0.55852327729743823 0.69498827241231187 0 0.52736180768426655 0.66304505109048573 0 0.55828304378107996 0.63546085023637511 0 0.55852327729743823 0.69498827241231187 0 0.52222323737415433 0.63323059203007803 0 0.52736180768426655 0.66304505109048573 0 0.55828304378107996 0.63546085023637511 0 0.5 0.73529411764705888 0 0.52547133540542634 0.72058823529411897 0 0.5211984712236245 0.75134107022269114 0 0.5 0.73529411764705888 0 0.52547133540542634 0.72058823529411897 0 0.5 0.70588235294117663 0 0.5 0.73529411764705888 0 0.5 0.70588235294117663 0 0.52547133540542634 0.72058823529411897 0 0.5 0.70588235294117663 0 0.52189318962165776 0.69193883095305098 0 0.5 0.67647058823529438 0 0.5 0.70588235294117663 0 0.52189318962165776 0.69193883095305098 0 0.5 0.67647058823529438 0 0.5 0.70588235294117663 0 0.52547133540542634 0.72058823529411897 0 0.52189318962165776 0.69193883095305098 0 0.55852327729743823 0.69498827241231187 0 0.52547133540542634 0.72058823529411897 0 0.5211984712236245 0.75134107022269114 0 0.55458114032207428 0.75544804615062711 0 0.52547133540542634 0.72058823529411897 0 0.55852327729743823 0.69498827241231187 0 0.55458114032207428 0.75544804615062711 0 0.55852327729743823 0.69498827241231187 0 0.6088970477846376 0.72715446211577472 0 0.55458114032207428 0.75544804615062711 0 0.55852327729743823 0.69498827241231187 0 0.6088970477846376 0.72715446211577472 0 0.60110770968787908 0.67045598539422102 0 0.61264973759093866 0.60999664295093947 0 0.55828304378107996 0.63546085023637511 0 0.60110770968787908 0.67045598539422102 0 0.55828304378107996 0.63546085023637511 0 0.55852327729743823 0.69498827241231187 0 0.60110770968787908 0.67045598539422102 0 0.61264973759093866 0.60999664295093947 0 0.60110770968787908 0.67045598539422102 0 0.66621429167335955 0.68470300534742679 0 0.6088970477846376 0.72715446211577472 0 0.66621429167335955 0.68470300534742679 0 0.6817340940367822 0.76923101696744944 0 0.6088970477846376 0.72715446211577472 0 0.60110770968787908 0.67045598539422102 0 0.66621429167335955 0.68470300534742679 0 0.66621429167335955 0.68470300534742679 0 0.6817340940367822 0.76923101696744944 0 0.7828103453665094 0.69876044407634474 0 0.66621429167335955 0.68470300534742679 0 0.69354174170208815 0.57892485983477626 0 0.7828103453665094 0.69876044407634474 0 0.69354174170208815 0.57892485983477626 0 0.77935529174931761 0.49004815756283893 0 0.66681557370681976 0.49435464945626773 0 0.61174067805461174 0.54148194547208961 0 0.69354174170208815 0.57892485983477626 0 0.66681557370681976 0.49435464945626773 0 0.61174067805461174 0.54148194547208961 0 0.60345082206666756 0.47575908627627911 0 0.66681557370681976 0.49435464945626773 0 0.61174067805461174 0.54148194547208961 0 0.61264973759093866 0.60999664295093947 0 0.69354174170208815 0.57892485983477626 0 0.61264973759093866 0.60999664295093947 0 0.66621429167335955 0.68470300534742679 0 0.69354174170208815 0.57892485983477626 0 0.60145933092659498 0.94808652648958736 0 0.57768176564240026 1 0 0.63938141097836054 1 0 0.60145933092659498 0.94808652648958736 0 0.55381003699196441 0.97073734537240042 0 0.55652711631508067 0.93435010280744335 0 0.60145933092659498 0.94808652648958736 0 0.57768176564240026 1 0 0.55381003699196441 0.97073734537240042 0 0.57768176564240026 1 0 0.53273812861558045 1 0 0.55381003699196441 0.97073734537240042 0 0.53273812861558045 1 0 0.55381003699196441 0.97073734537240042 0 0.52191028766292435 0.97912620202886635 0 0.53273812861558045 1 0 0.52191028766292435 0.97912620202886635 0 0.5 1 0 0.52191028766292435 0.97912620202886635 0 0.5 0.97058823529411764 0 0.5 1 0 0.5 0.97058823529411764 0 0.5 1 0 0.5 0.97058823529411764 0 0.5 0.94117647058823528 0 0.5 0.97058823529411764 0 0.5 0.94117647058823528 0 0.52554900427979434 0.95492408164812537 0 0.52191028766292435 0.97912620202886635 0 0.5 0.97058823529411764 0 0.52554900427979434 0.95492408164812537 0 0.5 0.94117647058823528 0 0.52554900427979434 0.95492408164812537 0 0.52149395742518578 0.9280464911497236 0 0.55381003699196441 0.97073734537240042 0 0.52554900427979434 0.95492408164812537 0 0.55652711631508067 0.93435010280744335 0 0.55381003699196441 0.97073734537240042 0 0.52191028766292435 0.97912620202886635 0 0.52554900427979434 0.95492408164812537 0 0.52554900427979434 0.95492408164812537 0 0.55652711631508067 0.93435010280744335 0 0.52149395742518578 0.9280464911497236 0 0.55652711631508067 0.93435010280744335 0 0.52982914238326484 0.89727189043838895 0 0.57507719038536997 0.89743529736491356 0 0.55652711631508067 0.93435010280744335 0 0.52149395742518578 0.9280464911497236 0 0.52982914238326484 0.89727189043838895 0 0.52149395742518578 0.9280464911497236 0 0.5 0.91176470588235292 0 0.52982914238326484 0.89727189043838895 0 0.5 0.94117647058823528 0 0.5 0.91176470588235292 0 0.5 0.94117647058823528 0 0.52149395742518578 0.9280464911497236 0 0.5 0.91176470588235292 0 0.5 0.91176470588235292 0 0.5 0.88235294117647056 0 0.52982914238326484 0.89727189043838895 0 0.5 0.91176470588235292 0 0.5 0.88235294117647056 0 0.5 0.88235294117647056 0 0.52982914238326484 0.89727189043838895 0 0.51991574276818808 0.86764705882352966 0 0.52982914238326484 0.89727189043838895 0 0.57507719038536997 0.89743529736491356 0 0.54799184932697576 0.8599032232094268 0 0.60145933092659498 0.94808652648958736 0 0.55652711631508067 0.93435010280744335 0 0.57507719038536997 0.89743529736491356 0 0.60145933092659498 0.94808652648958736 0 0.57507719038536997 0.89743529736491356 0 0.63427031498547037 0.88927276979110648 0 0.57507719038536997 0.89743529736491356 0 0.58994607995897996 0.84812355238296233 0 0.63427031498547037 0.88927276979110648 0 0.58994607995897996 0.84812355238296233 0 0.64153141236229239 0.83072478436463804 0 0.63427031498547037 0.88927276979110648 0 0.58994607995897996 0.84812355238296233 0 0.60049020024666178 0.78900583008989877 0 0.64153141236229239 0.83072478436463804 0 0.58994607995897996 0.84812355238296233 0 0.54799184932697576 0.8599032232094268 0 0.55206941203846505 0.81091931303809783 0 0.58994607995897996 0.84812355238296233 0 0.55206941203846505 0.81091931303809783 0 0.60049020024666178 0.78900583008989877 0 0.57507719038536997 0.89743529736491356 0 0.58994607995897996 0.84812355238296233 0 0.54799184932697576 0.8599032232094268 0 0.52982914238326484 0.89727189043838895 0 0.54799184932697576 0.8599032232094268 0 0.51991574276818808 0.86764705882352966 0 0.54799184932697576 0.8599032232094268 0 0.51991574276818808 0.86764705882352966 0 0.52395085592512047 0.83729395211968571 0 0.51991574276818808 0.86764705882352966 0 0.5 0.85294117647058831 0 0.52395085592512047 0.83729395211968571 0 0.5 0.88235294117647056 0 0.5 0.85294117647058831 0 0.5 0.88235294117647056 0 0.51991574276818808 0.86764705882352966 0 0.5 0.85294117647058831 0 0.5 0.82352941176470584 0 0.52395085592512047 0.83729395211968571 0 0.52039202967084142 0.80930587873000437 0 0.5 0.85294117647058831 0 0.5 0.82352941176470584 0 0.5 0.85294117647058831 0 0.5 0.82352941176470584 0 0.52395085592512047 0.83729395211968571 0 0.52395085592512047 0.83729395211968571 0 0.55206941203846505 0.81091931303809783 0 0.52039202967084142 0.80930587873000437 0 0.54799184932697576 0.8599032232094268 0 0.52395085592512047 0.83729395211968571 0 0.55206941203846505 0.81091931303809783 0 0.55206941203846505 0.81091931303809783 0 0.52039202967084142 0.80930587873000437 0 0.52593988039062167 0.78066906966870908 0 0.55206941203846505 0.81091931303809783 0 0.52593988039062167 0.78066906966870908 0 0.55458114032207428 0.75544804615062711 0 0.52039202967084142 0.80930587873000437 0 0.5 0.79411764705882359 0 0.52593988039062167 0.78066906966870908 0 0.5 0.82352941176470584 0 0.5 0.79411764705882359 0 0.5 0.82352941176470584 0 0.52039202967084142 0.80930587873000437 0 0.5 0.79411764705882359 0 0.5 0.73529411764705888 0 0.5 0.76470588235294124 0 0.5 0.73529411764705888 0 0.5 0.76470588235294124 0 0.5211984712236245 0.75134107022269114 0 0.5 0.79411764705882359 0 0.5 0.76470588235294124 0 0.52593988039062167 0.78066906966870908 0 0.5 0.79411764705882359 0 0.5 0.76470588235294124 0 0.5 0.76470588235294124 0 0.52593988039062167 0.78066906966870908 0 0.5211984712236245 0.75134107022269114 0 0.52593988039062167 0.78066906966870908 0 0.5211984712236245 0.75134107022269114 0 0.55458114032207428 0.75544804615062711 0 0.6088970477846376 0.72715446211577472 0 0.55458114032207428 0.75544804615062711 0 0.60049020024666178 0.78900583008989877 0 0.55206941203846505 0.81091931303809783 0 0.55458114032207428 0.75544804615062711 0 0.60049020024666178 0.78900583008989877 0 0.6817340940367822 0.76923101696744944 0 0.70916369539323409 0.86041409043207073 0 0.80987878298654392 0.8110307373443908 0 0.6088970477846376 0.72715446211577472 0 0.60049020024666178 0.78900583008989877 0 0.6817340940367822 0.76923101696744944 0 0.60049020024666178 0.78900583008989877 0 0.6817340940367822 0.76923101696744944 0 0.64153141236229239 0.83072478436463804 0 0.70916369539323409 0.86041409043207073 0 0.64153141236229239 0.83072478436463804 0 0.63427031498547037 0.88927276979110648 0 0.6817340940367822 0.76923101696744944 0 0.70916369539323409 0.86041409043207073 0 0.64153141236229239 0.83072478436463804 0 0.70916369539323409 0.86041409043207073 0 0.68173274398262862 0.93660593960145366 0 0.63427031498547037 0.88927276979110648 0 0.60145933092659498 0.94808652648958736 0 0.68173274398262862 0.93660593960145366 0 0.63427031498547037 0.88927276979110648 0 0.70916369539323409 0.86041409043207073 0 0.68173274398262862 0.93660593960145366 0 0.78222494485339233 0.91531439423588867 0 0.68173274398262862 0.93660593960145366 0 0.72408407698689681 1 0 0.78222494485339233 0.91531439423588867 0 0.60145933092659498 0.94808652648958736 0 0.68173274398262862 0.93660593960145366 0 0.63938141097836054 1 0 0.68173274398262862 0.93660593960145366 0 0.72408407698689681 1 0 0.63938141097836054 1 0 1 1 0 0.89611933618281592 0.89173516444576184 0 1 0.74999999999934008 0 0.72408407698689681 1 0 0.84036581271988753 1 0 0.78222494485339233 0.91531439423588867 0 0.84036581271988753 1 0 0.78222494485339233 0.91531439423588867 0 0.89611933618281592 0.89173516444576184 0 0.6817340940367822 0.76923101696744944 0 0.80987878298654392 0.8110307373443908 0 0.7828103453665094 0.69876044407634474 0 0.80987878298654392 0.8110307373443908 0 0.7828103453665094 0.69876044407634474 0 1 0.74999999999934008 0 0.78222494485339233 0.91531439423588867 0 0.80987878298654392 0.8110307373443908 0 0.89611933618281592 0.89173516444576184 0 0.70916369539323409 0.86041409043207073 0 0.78222494485339233 0.91531439423588867 0 0.80987878298654392 0.8110307373443908 0 0.80987878298654392 0.8110307373443908 0 0.89611933618281592 0.89173516444576184 0 1 0.74999999999934008 0 0.84036581271988753 1 0 1 1 0 0.89611933618281592 0.89173516444576184 0 0.84549316180028322 0.59867304496468476 0 1 0.74999999999934008 0 1 0.49999999999869182 0 0.69354174170208815 0.57892485983477626 0 0.84549316180028322 0.59867304496468476 0 0.77935529174931761 0.49004815756283893 0 0.84549316180028322 0.59867304496468476 0 1 0.49999999999869182 0 0.77935529174931761 0.49004815756283893 0 0.69354174170208815 0.57892485983477626 0 0.84549316180028322 0.59867304496468476 0 0.7828103453665094 0.69876044407634474 0 0.84549316180028322 0.59867304496468476 0 0.7828103453665094 0.69876044407634474 0 1 0.74999999999934008 0 1 0.49999999999869182 0 0.77935529174931761 0.49004815756283893 0 0.80451351819826811 0.35479918680564199 0 0.80451351819826811 0.35479918680564199 0 1 0.24999999999941089 0 0.79923457477009219 0.1751534052300894 0 1 0.49999999999869182 0 0.80451351819826811 0.35479918680564199 0 1 0.24999999999941089 0 1 0 0 0.79923457477009219 0.1751534052300894 0 0.74999999999934008 0 0 1 0.24999999999941089 0 1 0 0 0.79923457477009219 0.1751534052300894 0 0.49999999999869182 0 0 0.62537763927714929 0.14286513648320209 0 0.74999999999934008 0 0 0.79923457477009219 0.1751534052300894 0 0.62537763927714929 0.14286513648320209 0 0.6197279975813802 0.30020319976287241 0 0.79923457477009219 0.1751534052300894 0 0.62537763927714929 0.14286513648320209 0 0.74999999999934008 0 0 0.49924741621175961 0.21507969613896921 0 0.49999999999869182 0 0 0.62537763927714929 0.14286513648320209 0 0.49924741621175961 0.21507969613896921 0 0.62537763927714929 0.14286513648320209 0 0.6197279975813802 0.30020319976287241 0 0.49924741621175961 0.21507969613896921 0 0.49435464945626773 0.33318442629318029 0 0.6197279975813802 0.30020319976287241 0 0.49435464945626773 0.33318442629318029 0 0.6197279975813802 0.30020319976287241 0 0.54876010062294855 0.39662628167175101 0 0.6197279975813802 0.30020319976287241 0 0.54876010062294855 0.39662628167175101 0 0.66576775508844777 0.41353720431697111 0 0.49954900152271581 0.45107191084564019 0 0.45418244162583959 0.41624787166862259 0 0.54876010062294855 0.39662628167175101 0 0.49954900152271581 0.45107191084564019 0 0.54876010062294855 0.39662628167175101 0 0.54128967150166729 0.47213012589832831 0 0.49954900152271581 0.45107191084564019 0 0.5 0.5 0 0.54128967150166729 0.47213012589832831 0 0.5 0.5 0 0.52629893369322589 0.51330452493555312 0 0.54128967150166729 0.47213012589832831 0 0.54876010062294855 0.39662628167175101 0 0.54128967150166729 0.47213012589832831 0 0.60345082206666756 0.47575908627627911 0 0.56199650931215228 0.51957997397013023 0 0.54128967150166729 0.47213012589832831 0 0.60345082206666756 0.47575908627627911 0 0.54876010062294855 0.39662628167175101 0 0.60345082206666756 0.47575908627627911 0 0.66576775508844777 0.41353720431697111 0 0.77935529174931761 0.49004815756283893 0 0.80451351819826811 0.35479918680564199 0 0.66576775508844777 0.41353720431697111 0 0.60345082206666756 0.47575908627627911 0 0.66576775508844777 0.41353720431697111 0 0.66681557370681976 0.49435464945626773 0 0.77935529174931761 0.49004815756283893 0 0.66576775508844777 0.41353720431697111 0 0.66681557370681976 0.49435464945626773 0 0.80451351819826811 0.35479918680564199 0 0.79923457477009219 0.1751534052300894 0 0.6197279975813802 0.30020319976287241 0 0.80451351819826811 0.35479918680564199 0 0.6197279975813802 0.30020319976287241 0 0.66576775508844777 0.41353720431697111 0 
</DataArray>
</Points>
<Cells>
<DataArray type="UInt32" Name="connectivity" format="ascii">
0 1 2 3 4 5 6 7 8 9 10 11 12 13 14 15 16 17 18 19 20 21 22 23 24 25 26 27 28 29 30 31 32 33 34 35 36 37 38 39 40 41 42 43 44 45 46 47 48 49 50 51 52 53 54 55 56 57 58 59 60 61 62 63 64 65 66 67 68 69 70 71 72 73 74 75 76 77 78 79 80 81 82 83 84 85 86 87 88 89 90 91 92 93 94 95 96 97 98 99 100 101 102 103 104 105 106 107 108 109 110 111 112 113 114 115 116 117 118 119 120 121 122 123 124 125 126 127 128 129 130 131 132 133 134 135 136 137 138 139 140 141 142 143 144 145 146 147 148 149 150 151 152 153 154 155 156 157 158 159 160 161 162 163 164 165 166 167 168 169 170 171 172 173 174 175 176 177 178 179 180 181 182 183 184 185 186 187 188 189 190 191 192 193 194 195 196 197 198 199 200 201 202 203 204 205 206 207 208 209 210 211 212 213 214 215 216 217 218 219 220 221 222 223 224 225 226 227 228 229 230 231 232 233 234 235 236 237 238 239 240 241 242 243 244 245 246 247 248 249 250 251 252 253 254 255 256 257 258 259 260 261 262 263 264 265 266 267 268 269 270 271 272 273 274 275 276 277 278 279 280 281 282 283 284 285 286 287 288 289 290 291 292 293 294 295 296 297 298 299 300 301 302 303 304 305 306 307 308 309 310 311 312 313 314 315 316 317 318 319 320 321 322 323 324 325 326 327 328 329 330 331 332 333 334 335 336 337 338 339 340 341 342 343 344 345 346 347 348 349 350 351 352 353 354 355 356 357 358 359 360 361 362 363 364 365 366 367 368 369 370 371 372 373 374 375 376 377 378 379 380 381 382 383 384 385 386 387 388 389 390 391 392 393 394 395 396 397 398 399 400 401 402 403 404 405 406 407 408 409 410 411 412 413 414 415 416 417 418 419 420 421 422 423 424 425 426 427 428 429 430 431 432 433 434 435 436 437 438 439 440 441 442 443 444 445 446 447 448 449 450 451 452 453 454 455 456 457 458 459 460 461 462 463 464 465 466 467 468 469 470 471 472 473 474 475 476 477 478 479 480 481 482 483 484 485 486 487 488 489 490 491 492 493 494 495 496 497 498 499 500 501 502 503 504 505 506 507 508 509 510 511 512 513 514 515 516 517 518 519 520 521 522 523 524 525 526 527 528 529 530 531 532 533 534 535 536 537 538 539 540 541 542 543 544 545 546 547 548 549 550 551 552 553 554 555 556 557 558 559 560 561 562 563 564 565 566 567 568 569 570 571 572 573 574 575 576 577 578 579 580 581 582 583 584 585 586 587 588 589 590 591 592 593 594 595 596 597 598 599 600 601 602 603 604 605 606 607 608 609 610 611 612 613 614 615 616 617 618 619 620 621 622 623 624 625 626 627 628 629 630 631 632 633 634 635 636 637 638 639 640 641 642 643 644 645 646 647 648 649 650 651 652 653 654 655 656 657 658 659 660 661 662 663 664 665 666 667 668 669 670 671 672 673 674 675 676 677 678 679 680 681 682 683 684 685 686 687 688 689 690 691 692 693 694 695 696 697 698 699 700 701 702 703 704 705 706 707 708 709 710 711 712 713 714 715 716 717 718 719 720 721 722 723 724 725 726 727 728 729 730 731 732 733 734 735 736 737 738 739 740 741 742 743 744 745 746 747 748 749 750 751 752 753 754 755 756 757 758 759 760 761 762 763 764 765 766 767 768 769 770 771 772 773 774 775 776 777 778 779 780 781 782 783 784 785 786 787 788 789 790 791 792 793 794 795 796 797 798 799 800 801 802 803 804 805 806 807 808 809 810 811 812 813 814 815 816 817 818 819 820 821 822 823 824 825 826 827 828 829 830 831 832 833 834 835 836 837 838 839 840 841 842 843 844 845 846 847 848 849 850 851 852 853 854 855 856 857 858 859 860 861 862 863 864 865 866 867 868 869 870 871 872 873 874 875 876 877 878 879 
</DataArray>
<DataArray type="UInt32" Name="offsets" format="ascii">
3 6 9 12 15 18 21 24 27 30 33 36 39 42 45 48 51 54 57 60 63 66 69 72 75 78 81 84 87 90 93 96 99 102 105 108 111 114 117 120 123 126 129 132 135 138 141 144 147 150 153 156 159 162 165 168 171 174 177 180 183 186 189 192 195 198 201 204 207 210 213 216 219 222 225 228 231 234 237 240 243 246 249 252 255 258 261 264 267 270 273 276 279 282 285 288 291 294 297 300 303 306 309 312 315 318 321 324 327 330 333 336 339 342 345 348 351 354 357 360 363 366 369 372 375 378 381 384 387 390 393 396 399 402 405 408 411 414 417 420 423 425 428 430 433 436 439 442 445 448 451 454 457 460 463 466 469 472 474 477 479 482 485 487 490 493 495 498 501 504 507 510 513 515 518 521 523 526 529 532 535 538 541 544 547 550 553 556 559 562 565 568 571 574 577 580 583 586 589 592 595 597 599 602 605 608 611 614 617 620 623 626 628 631 634 636 639 642 645 648 651 654 657 660 663 666 669 672 675 677 680 683 685 688 691 694 697 700 703 705 708 710 713 716 718 721 724 727 730 733 736 739 742 745 748 751 754 757 760 763 766 769 772 775 778 781 784 787 790 793 796 799 802 805 808 811 814 817 820 823 826 829 832 835 838 841 844 847 850 853 856 859 862 865 868 871 874 877 880 
</DataArray>
<DataArray type="UInt32" Name="types" format="ascii">
5 5 5 5 5 5 5 5 5 5 5 5 5 5 5 5 5 5 5 5 5 5 5 5 5 5 5 5 5 5 5 5 5 5 5 5 5 5 5 5 5 5 5 5 5 5 5 5 5 5 5 5 5 5 5 5 5 5 5 5 5 5 5 5 5 5 5 5 5 5 5 5 5 5 5 5 5 5 5 5 5 5 5 5 5 5 5 5 5 5 5 5 5 5 5 5 5 5 5 5 5 5 5 5 5 5 5 5 5 5 5 5 5 5 5 5 5 5 5 5 5 5 5 5 5 5 5 5 5 5 5 5 5 5 5 5 5 5 5 5 5 3 5 3 5 5 5 5 5 5 5 5 5 5 5 5 5 5 3 5 3 5 5 3 5 5 3 5 5 5 5 5 5 3 5 5 3 5 5 5 5 5 5 5 5 5 5 5 5 5 5 5 5 5 5 5 5 5 5 5 5 3 3 5 5 5 5 5 5 5 5 5 3 5 5 3 5 5 5 5 5 5 5 5 5 5 5 5 5 3 5 5 3 5 5 5 5 5 5 3 5 3 5 5 3 5 5 5 5 5 5 5 5 5 5 5 5 5 5 5 5 5 5 5 5 5 5 5 5 5 5 5 5 5 5 5 5 5 5 5 5 5 5 5 5 5 5 5 5 5 5 5 5 5 5 5 5 5 5 
</DataArray>
</Cells>
<PointData Scalars="" Vectors="displacement," Tensors="">
<DataArray type="Float64" Name="displacement" NumberOfComponents="3" format="ascii">
-6.5647415608394844e-05 -1.5833472319385093e-05 0 -0.012248298155811136 -0.021314977424454744 0 -2.983580704621662e-06 -3.7195100391692391e-06 0 -6.5647415608394844e-05 -1.5833472319385093e-05 0 -0.012248298155811131 -0.021314977424454741 0 -0.041938932068205891 -0.040757415898659277 0 -0.041938932068205891 -0.040757415898659277 0 -0.027805975120419824 -0.052918180397418996 0 -0.07216971954960931 -0.090304489764215373 0 -0.012248298155811136 -0.021314977424454744 0 -0.041938932068205891 -0.040757415898659277 0 -0.027805975120419824 -0.052918180397418989 0 -0.027805975120419824 -0.052918180397418989 0 -0.033033596792690939 -0.086346193316908126 0 -0.07216971954960931 -0.090304489764215373 0 -0.027805975120419824 -0.052918180397418989 0 -0.033033596792690939 -0.086346193316908126 0 -0.014324676593374889 -0.063164369950652638 0 -0.00308676418041016 -0.056247808203828832 0 0.0049250332101064241 -0.065032085030637926 0 -0.0033903317791674735 -0.07384048868248784 0 -0.00308676418041016 -0.056247808203828832 0 -0.0033903317791674735 -0.07384048868248784 0 -0.014324676593374889 -0.063164369950652638 0 0.0049250332101064241 -0.065032085030637926 0 0.005686242010688407 -0.076547283208347583 0 -0.0033903317791674735 -0.07384048868248784 0 0.0049250332101064241 -0.065032085030637926 0 0.0056862420106884052 -0.076547283208347583 0 0.010429146378017371 -0.076887814105977406 0 0.005686242010688407 -0.076547283208347597 0 0.0013939991992639549 -0.085290094333537597 0 0.012070810101000903 -0.085838792291217395 0 0.005686242010688407 -0.076547283208347597 0 0.010429146378017369 -0.076887814105977392 0 0.012070810101000903 -0.085838792291217395 0 0.005686242010688407 -0.076547283208347597 0 0.0013939991992639549 -0.085290094333537597 0 -0.0033903317791674735 -0.07384048868248784 0 -0.0033903317791674735 -0.07384048868248784 0 -0.015565621462272316 -0.084341808994139247 0 -0.0074747539786432062 -0.097700418401267197 0 -0.0033903317791674735 -0.07384048868248784 0 -0.015565621462272316 -0.084341808994139247 0 -0.014324676593374889 -0.063164369950652638 0 -0.033033596792690939 -0.086346193316908126 0 -0.015565621462272316 -0.084341808994139247 0 -0.014324676593374889 -0.063164369950652638 0 -0.027805975120419824 -0.052918180397418989 0 -0.014324676593374889 -0.063164369950652638 0 -0.0076733672544176063 -0.038924476541827444 0 -0.00308676418041016 -0.056247808203828832 0 -0.014324676593374889 -0.063164369950652638 0 -0.0076733672544176063 -0.038924476541827444 0 -0.012248298155811136 -0.021314977424454744 0 -0.027805975120419824 -0.052918180397418989 0 -0.0076733672544176063 -0.038924476541827444 0 -0.0076733672544176063 -0.038924476541827444 0 0.0036483765446263107 -0.0458234705211178 0 -0.0027072459779013389 -0.019767786591329647 0 -0.00308676418041016 -0.056247808203828832 0 -0.0076733672544176063 -0.038924476541827444 0 0.0036483765446263107 -0.0458234705211178 0 -0.00308676418041016 -0.056247808203828832 0 0.0049250332101064241 -0.065032085030637926 0 0.0036483765446263107 -0.0458234705211178 0 -0.0027072459779013389 -0.019767786591329647 0 -2.983580704621662e-06 -3.7195100391692391e-06 0 4.658623808569513e-07 -7.6570107299731383e-06 0 -0.0027072459779013389 -0.019767786591329647 0 4.658623808569513e-07 -7.6570107299731383e-06 0 0.0035775211450995484 -0.028070989340796534 0 0.0036483765446263107 -0.0458234705211178 0 -0.0027072459779013389 -0.019767786591329647 0 0.0035775211450995484 -0.028070989340796534 0 -0.012248298155811136 -0.021314977424454744 0 -0.0076733672544176063 -0.038924476541827444 0 -0.0027072459779013389 -0.019767786591329647 0 -0.012248298155811136 -0.021314977424454744 0 -0.0027072459779013385 -0.019767786591329647 0 -2.983580704621662e-06 -3.7195100391692391e-06 0 4.658623808569513e-07 -7.6570107299731383e-06 0 0.0063876486287889707 -0.023114897220095392 0 9.8441828384836002e-06 -4.711377422163136e-06 0 0.0063876486287889707 -0.023114897220095392 0 0.01248075779784347 -0.0312488486747566 0 9.8441828384836002e-06 -4.711377422163136e-06 0 0.0063876486287889707 -0.023114897220095392 0 0.01248075779784347 -0.0312488486747566 0 0.014180627175173172 -0.046402349828040923 0 0.0063876486287889707 -0.023114897220095392 0 0.0035775211450995484 -0.028070989340796534 0 0.0099476012265210193 -0.04575668424932431 0 4.658623808569513e-07 -7.6570107299731383e-06 0 0.0063876486287889698 -0.023114897220095396 0 0.0035775211450995484 -0.028070989340796534 0 5.0994486578917783e-05 -1.8657397964673576e-05 0 0.0095202788675578642 -0.012443427444881569 0 9.8441828384836002e-06 -4.711377422163136e-06 0 5.0994486578917783e-05 -1.8657397964673576e-05 0 0.0095202788675578659 -0.012443427444881569 0 0.028037635221148095 -0.027264366179901009 0 0.0095202788675578642 -0.012443427444881569 0 9.8441828384836002e-06 -4.711377422163136e-06 0 0.011979646474175385 -0.022506249110861708 0 0.011979646474175385 -0.022506249110861708 0 0.027563734278291112 -0.038818269807564844 0 0.019574656184749913 -0.041417394933734759 0 0.01248075779784347 -0.0312488486747566 0 9.8441828384810744e-06 -4.7113774221604365e-06 0 0.011979646474175385 -0.022506249110861708 0 0.01248075779784347 -0.0312488486747566 0 0.011979646474175385 -0.022506249110861708 0 0.019574656184749913 -0.041417394933734759 0 0.0095202788675578642 -0.012443427444881569 0 0.011979646474175387 -0.022506249110861711 0 0.027563734278291112 -0.038818269807564844 0 0.0095202788675578642 -0.012443427444881569 0 0.027563734278291112 -0.038818269807564844 0 0.028037635221148095 -0.027264366179901009 0 0.027563734278291112 -0.038818269807564844 0 0.028037635221148095 -0.027264366179901009 0 0.041397377186737 -0.047868172231321074 0 0.047707761101471222 -0.063334731377136494 0 0.036786722302258587 -0.055961144753085654 0 0.041397377186737 -0.047868172231321074 0 0.047707761101471222 -0.063334731377136494 0 0.036786722302258587 -0.055961144753085654 0 0.042340924796821305 -0.068823970057982534 0 0.027563734278291112 -0.038818269807564844 0 0.036786722302258587 -0.055961144753085654 0 0.041397377186737 -0.047868172231321074 0 0.027563734278291112 -0.038818269807564844 0 0.036786722302258587 -0.055961144753085654 0 0.029540542088270307 -0.052390232302961498 0 0.036786722302258587 -0.055961144753085654 0 0.03521766426447967 -0.064415159464492694 0 0.042340924796821305 -0.068823970057982534 0 0.036786722302258587 -0.055961144753085654 0 0.029540542088270307 -0.052390232302961498 0 0.03521766426447967 -0.064415159464492694 0 0.027563734278291112 -0.038818269807564844 0 0.029540542088270307 -0.052390232302961498 0 0.019574656184749913 -0.041417394933734759 0 0.029540542088270307 -0.052390232302961498 0 0.027618366374978068 -0.060081645661855802 0 0.03521766426447967 -0.064415159464492694 0 0.029540542088270307 -0.052390232302961498 0 0.027618366374978068 -0.060081645661855802 0 0.019574656184749913 -0.041417394933734759 0 0.01248075779784347 -0.0312488486747566 0 0.019574656184749913 -0.041417394933734759 0 0.01963211060364814 -0.051206975341953627 0 0.027618366374978068 -0.060081645661855802 0 0.019574656184749913 -0.041417394933734759 0 0.01963211060364814 -0.051206975341953627 0 0.027618366374978068 -0.060081645661855802 0 0.024787252330808564 -0.065140337095969142 0 0.01963211060364814 -0.051206975341953627 0 0.027618366374978068 -0.060081645661855802 0 0.024787252330808564 -0.065140337095969142 0 0.030632349552789335 -0.072315425495644334 0 0.024787252330808564 -0.065140337095969142 0 0.030632349552789335 -0.072315425495644334 0 0.02850512693758479 -0.075175644393875529 0 0.024787252330808564 -0.065140337095969142 0 0.02850512693758479 -0.075175644393875529 0 0.023878984740494054 -0.071988760603584945 0 0.02850512693758479 -0.075175644393875529 0 0.030552040654055698 -0.081481106775502743 0 0.027940931560104659 -0.080097189474126376 0 0.030552040654055698 -0.081481106775502743 0 0.027940931560104659 -0.080097189474126376 0 0.030537814434099114 -0.085859470186744544 0 0.030552040654055698 -0.081481106775502743 0 0.033078951450293763 -0.085935041322176109 0 0.030537814434099114 -0.085859470186744544 0 0.032650550665922769 -0.08034375713410187 0 0.035639294588309743 -0.086018891966741146 0 0.033078951450293763 -0.085935041322176109 0 0.030552040654055698 -0.081481106775502743 0 0.032650550665922769 -0.08034375713410187 0 0.033078951450293763 -0.085935041322176109 0 0.02850512693758479 -0.075175644393875529 0 0.030552040654055698 -0.081481106775502729 0 0.032650550665922769 -0.08034375713410187 0 0.030632349552789335 -0.072315425495644334 0 0.02850512693758479 -0.075175644393875529 0 0.032650550665922769 -0.08034375713410187 0 0.030632349552789335 -0.072315425495644334 0 0.032650550665922762 -0.080343757134101856 0 0.034975602375151731 -0.079091825381793407 0 0.030632349552789335 -0.072315425495644334 0 0.034975602375151731 -0.079091825381793393 0 0.035470256608746011 -0.073502538411894913 0 0.034975602375151731 -0.079091825381793407 0 0.038183010881983136 -0.086113502388543303 0 0.035639294588309743 -0.086018891966741146 0 0.032650550665922769 -0.08034375713410187 0 0.034975602375151731 -0.079091825381793407 0 0.035639294588309743 -0.086018891966741146 0 0.034975602375151731 -0.079091825381793407 0 0.037874058348692639 -0.081048490223983513 0 0.038183010881983136 -0.086113502388543303 0 0.037874058348692639 -0.081048490223983513 0 0.040666073646089942 -0.086209359410781006 0 0.038183010881983136 -0.086113502388543303 0 0.034975602375151731 -0.079091825381793407 0 0.037874058348692639 -0.081048490223983513 0 0.035470256608746011 -0.073502538411894913 0 0.027618366374978068 -0.060081645661855802 0 0.035470256608746011 -0.073502538411894913 0 0.03521766426447967 -0.064415159464492694 0 0.027618366374978068 -0.060081645661855802 0 0.030632349552789335 -0.072315425495644334 0 0.035470256608746011 -0.073502538411894913 0 0.03521766426447967 -0.064415159464492694 0 0.040363006953587521 -0.074620999581633304 0 0.042340924796821305 -0.068823970057982534 0 0.035470256608746011 -0.073502538411894913 0 0.03521766426447967 -0.064415159464492694 0 0.040363006953587521 -0.074620999581633304 0 0.037874058348692639 -0.081048490223983513 0 0.035470256608746011 -0.073502538411894913 0 0.039821721294184736 -0.079902383405533281 0 0.035470256608746011 -0.073502538411894913 0 0.040363006953587521 -0.074620999581633304 0 0.039821721294184736 -0.079902383405533281 0 0.037874058348692639 -0.081048490223983513 0 0.039821721294184736 -0.079902383405533281 0 0.040666073646089942 -0.086209359410781006 0 0.039821721294184736 -0.079902383405533281 0 0.043028078898795549 -0.086322296485431549 0 0.040666073646089942 -0.086209359410781006 0 0.039821721294184736 -0.079902383405533281 0 0.042954964051028111 -0.081895862381939938 0 0.043028078898795549 -0.086322296485431549 0 0.042954964051028111 -0.081895862381939938 0 0.045151315258342546 -0.086450138819301761 0 0.043028078898795549 -0.086322296485431549 0 0.040363006953587521 -0.074620999581633304 0 0.039821721294184736 -0.079902383405533281 0 0.042954964051028111 -0.081895862381939938 0 0.042954964051028111 -0.081895862381939938 0 0.045525328481407064 -0.078867500302444285 0 0.045495851368585305 -0.083312883904876719 0 0.040363006953587521 -0.074620999581633304 0 0.042954964051028111 -0.081895862381939938 0 0.045525328481407071 -0.078867500302444299 0 0.045525328481407071 -0.078867500302444299 0 0.045495851368585312 -0.083312883904876719 0 0.047267003489683802 -0.083953662468521748 0 0.042954964051028111 -0.081895862381939938 0 0.045495851368585305 -0.083312883904876719 0 0.045151315258342546 -0.086450138819301761 0 0.045495851368585305 -0.083312883904876719 0 0.047267003489683802 -0.083953662468521748 0 0.046849628950855336 -0.086608291459482886 0 0.045495851368585305 -0.083312883904876719 0 0.046849628950855336 -0.086608291459482886 0 0.045151315258342546 -0.086450138819301761 0 0.047267003489683802 -0.083953662468521748 0 0.049952019998936947 -0.082100574286875908 0 0.047978991849459696 -0.086715195080478008 0 0.047267003489683802 -0.083953662468521748 0 0.046849628950855336 -0.086608291459482886 0 0.047978991849459696 -0.086715195080478008 0 0.045525328481407071 -0.078867500302444299 0 0.047267003489683802 -0.083953662468521748 0 0.049952019998936947 -0.082100574286875908 0 0.045525328481407071 -0.078867500302444299 0 0.049952019998936947 -0.082100574286875908 0 0.050032554256542801 -0.074585619299387743 0 0.045525328481407071 -0.078867500302444299 0 0.050032554256542801 -0.074585619299387743 0 0.042340924796821305 -0.068823970057982534 0 0.040363006953587521 -0.074620999581633304 0 0.045525328481407071 -0.078867500302444299 0 0.042340924796821305 -0.068823970057982534 0 0.047707761101471222 -0.063334731377136494 0 0.050032554256542801 -0.074585619299387743 0 0.042340924796821305 -0.068823970057982534 0 0.0099476012265210193 -0.04575668424932431 0 0.015373295894010671 -0.060884019972460589 0 0.011968847433803472 -0.067064504113178505 0 0.0036483765446263107 -0.0458234705211178 0 0.0099476012265210193 -0.04575668424932431 0 0.011968847433803472 -0.067064504113178505 0 0.0036483765446263107 -0.0458234705211178 0 0.0035775211450995489 -0.028070989340796534 0 0.0099476012265210193 -0.04575668424932431 0 0.0063876486287889707 -0.023114897220095392 0 0.0099476012265210193 -0.04575668424932431 0 0.014180627175173172 -0.046402349828040923 0 0.01248075779784347 -0.0312488486747566 0 0.01963211060364814 -0.051206975341953627 0 0.014180627175173172 -0.046402349828040923 0 0.024787252330808564 -0.065140337095969142 0 0.01963211060364814 -0.051206975341953627 0 0.019344230156166591 -0.061415966978965258 0 0.01963211060364814 -0.051206975341953627 0 0.014180627175173172 -0.046402349828040923 0 0.019344230156166591 -0.061415966978965258 0 0.0099476012265210193 -0.04575668424932431 0 0.014180627175173172 -0.046402349828040923 0 0.015373295894010671 -0.060884019972460589 0 0.014180627175173172 -0.046402349828040923 0 0.015373295894010671 -0.060884019972460589 0 0.019344230156166591 -0.061415966978965258 0 0.015373295894010671 -0.060884019972460589 0 0.019344230156166591 -0.061415966978965258 0 0.019734596782390725 -0.072346745433693932 0 0.015373295894010671 -0.060884019972460589 0 0.019734596782390725 -0.072346745433693932 0 0.016435923380780041 -0.073677465727958011 0 0.024787252330808564 -0.065140337095969142 0 0.019344230156166591 -0.061415966978965258 0 0.023878984740494054 -0.071988760603584945 0 0.019344230156166591 -0.061415966978965258 0 0.023878984740494054 -0.071988760603584945 0 0.019734596782390725 -0.072346745433693932 0 0.023878984740494054 -0.071988760603584945 0 0.025803931569654853 -0.080748397393829371 0 0.027940931560104659 -0.080097189474126376 0 0.02850512693758479 -0.075175644393875529 0 0.023878984740494054 -0.071988760603584945 0 0.027940931560104659 -0.080097189474126376 0 0.023878984740494054 -0.071988760603584945 0 0.023321285182353556 -0.077815598319801019 0 0.019734596782390725 -0.072346745433693932 0 0.023878984740494054 -0.071988760603584945 0 0.023321285182353556 -0.077815598319801019 0 0.025803931569654853 -0.080748397393829358 0 0.023321285182353556 -0.077815598319801019 0 0.025803931569654853 -0.080748397393829358 0 0.02558775974185265 -0.085728668194250665 0 0.023321285182353556 -0.077815598319801019 0 0.023214187969904401 -0.085674561203512134 0 0.02558775974185265 -0.085728668194250665 0 0.025803931569654853 -0.080748397393829358 0 0.028035309508732145 -0.085789014405673589 0 0.02558775974185265 -0.085728668194250665 0 0.027940931560104659 -0.080097189474126376 0 0.028035309508732145 -0.085789014405673589 0 0.030537814434099114 -0.085859470186744544 0 0.025803931569654853 -0.080748397393829358 0 0.027940931560104659 -0.080097189474126362 0 0.028035309508732145 -0.085789014405673589 0 0.019734596782390725 -0.072346745433693932 0 0.021235473225662427 -0.080177813476585993 0 0.019018610549417933 -0.079521872098934895 0 0.019734596782390725 -0.072346745433693932 0 0.019018610549417933 -0.079521872098934895 0 0.016435923380780041 -0.073677465727958011 0 0.023321285182353556 -0.077815598319801019 0 0.019734596782390722 -0.072346745433693918 0 0.021235473225662427 -0.080177813476585993 0 0.023321285182353556 -0.077815598319801019 0 0.021235473225662427 -0.080177813476585993 0 0.023214187969904401 -0.085674561203512134 0 0.021235473225662427 -0.080177813476585993 0 0.020928378471964174 -0.085631424225912814 0 0.023214187969904401 -0.085674561203512134 0 0.021235473225662427 -0.080177813476585993 0 0.019018610549417933 -0.079521872098934895 0 0.020928378471964174 -0.085631424225912814 0 0.019018610549417933 -0.079521872098934895 0 0.018747473353102721 -0.085599142548580615 0 0.020928378471964174 -0.085631424225912814 0 0.017166378468792366 -0.080592574627944308 0 0.016695580188624885 -0.085578042207036964 0 0.018747473353102721 -0.085599142548580615 0 0.019018610549417933 -0.079521872098934895 0 0.017166378468792366 -0.080592574627944308 0 0.018747473353102721 -0.085599142548580615 0 0.015002791356499788 -0.078634879253953807 0 0.014807979783066338 -0.085578210953079686 0 0.016695580188624885 -0.085578042207036964 0 0.017166378468792366 -0.080592574627944308 0 0.015002791356499788 -0.078634879253953807 0 0.016695580188624885 -0.085578042207036964 0 0.015002791356499788 -0.078634879253953807 0 0.016435923380780041 -0.073677465727958011 0 0.011968847433803472 -0.067064504113178505 0 0.017166378468792366 -0.080592574627944308 0 0.015002791356499788 -0.078634879253953807 0 0.016435923380780041 -0.073677465727958011 0 0.019018610549417933 -0.079521872098934895 0 0.017166378468792366 -0.080592574627944308 0 0.016435923380780041 -0.073677465727958011 0 0.015373295894010671 -0.060884019972460589 0 0.016435923380780038 -0.073677465727958011 0 0.011968847433803472 -0.067064504113178505 0 0.0049250332101064241 -0.065032085030637926 0 0.0036483765446263107 -0.0458234705211178 0 0.011968847433803472 -0.067064504113178505 0 0.0049250332101064241 -0.065032085030637926 0 0.011968847433803472 -0.067064504113178505 0 0.010429146378017371 -0.076887814105977406 0 0.011968847433803472 -0.067064504113178505 0 0.010429146378017371 -0.076887814105977406 0 0.0131121467818438 -0.078768331074853329 0 0.015002791356499788 -0.078634879253953807 0 0.011968847433803472 -0.067064504113178505 0 0.0131121467818438 -0.078768331074853329 0 0.015002791356499788 -0.078634879253953807 0 0.0131121467818438 -0.078768331074853329 0 0.014807979783066338 -0.085578210953079686 0 0.0131121467818438 -0.078768331074853329 0 0.013144862227894046 -0.085579462016057303 0 0.014807979783066338 -0.085578210953079686 0 0.010429146378017371 -0.076887814105977406 0 0.0131121467818438 -0.078768331074853329 0 0.013144862227894046 -0.085579462016057303 0 0.010429146378017371 -0.076887814105977406 0 0.012070810101000903 -0.085838792291217381 0 0.013144862227894046 -0.085579462016057303 0 0.013150286400735723 -0.086161047723562839 0 0.011310213235831233 -0.091642594568267816 0 0.013516268342185873 -0.092041151172137639 0 0.012070810101000903 -0.085838792291217395 0 0.013150286400735723 -0.086161047723562825 0 0.011310213235831233 -0.091642594568267816 0 0.01208874912827484 -0.085848623712979744 0 0.013133585638255035 -0.085868478798715397 0 0.013150286400735723 -0.086161047723562839 0 0.0148126726950755 -0.086208133856615327 0 0.013516268342185873 -0.092041151172137639 0 0.013133585638255035 -0.085868478798715397 0 0.014814806322749044 -0.085895350265353901 0 0.0148126726950755 -0.086208133856615327 0 0.013516268342185873 -0.092041151172137639 0 0.015632129154480808 -0.090899612295393048 0 0.013516268342185873 -0.092041151172137639 0 0.01034867979954285 -0.10044238190486922 0 0.015451117632888296 -0.099239389801964298 0 0.011310213235831233 -0.091642594568267816 0 0.01034867979954285 -0.10044238190486922 0 0.0045793843509303522 -0.096080324900132408 0 0.011310213235831233 -0.091642594568267816 0 0.013516268342185873 -0.092041151172137639 0 0.01034867979954285 -0.10044238190486922 0 0.01034867979954285 -0.10044238190486922 0 0.011281729533695968 -0.1123419248570133 0 0.0035236699136319809 -0.11126651078178999 0 0.01034867979954285 -0.10044238190486922 0 0.011281729533695967 -0.1123419248570133 0 0.015451117632888296 -0.099239389801964298 0 0.011281729533695968 -0.1123419248570133 0 0.018167931873829764 -0.11191031113106388 0 0.015451117632888296 -0.099239389801964298 0 0.018167931873829764 -0.11191031113106388 0 0.015451117632888296 -0.099239389801964298 0 0.020524077111927132 -0.098863380863159989 0 0.015451117632888296 -0.099239389801964298 0 0.017867651923990032 -0.092033405337169402 0 0.020524077111927132 -0.098863380863159989 0 0.017867651923990032 -0.092033405337169402 0 0.020092399871334553 -0.090976269278817024 0 0.020524077111927132 -0.098863380863159989 0 0.013516268342185873 -0.092041151172137639 0 0.015451117632888296 -0.099239389801964298 0 0.015632129154480808 -0.090899612295393048 0 0.015451117632888296 -0.099239389801964298 0 0.015632129154480808 -0.090899612295393048 0 0.017867651923990032 -0.092033405337169402 0 0.015632129154480808 -0.090899612295393048 0 0.016703200745597186 -0.086281822346897644 0 0.017867651923990032 -0.092033405337169402 0 0.0148126726950755 -0.086208133856615327 0 0.015632129154480808 -0.090899612295393048 0 0.016703200745597186 -0.086281822346897644 0 0.014814806322749044 -0.085895350265353901 0 0.016698032975437156 -0.085930805086688405 0 0.017867651923990032 -0.092033405337169402 0 0.018756505551459017 -0.086348447729453104 0 0.020092399871334557 -0.090976269278817024 0 0.016698032975437156 -0.085930805086688405 0 0.018752427384139 -0.085974891097452016 0 0.016703200745597186 -0.086281822346897644 0 0.017867651923990032 -0.092033405337169402 0 0.018756505551459017 -0.086348447729453118 0 0.018756505551459017 -0.086348447729453118 0 0.020092399871334557 -0.090976269278817024 0 0.020939037220290915 -0.08641954125136217 0 0.018752427384139 -0.085974891097452016 0 0.020933632755860725 -0.086026453494503621 0 0.020092399871334557 -0.090976269278817024 0 0.020939037220290915 -0.08641954125136217 0 0.022589817932809616 -0.092086442205100094 0 0.020939037220290915 -0.08641954125136217 0 0.02322666781011145 -0.086494342422706941 0 0.022589817932809616 -0.092086442205100094 0 0.020933632755860725 -0.086026453494503621 0 0.023220524267502006 -0.08608551385077641 0 0.02322666781011145 -0.086494342422706941 0 0.022589817932809616 -0.092086442205100094 0 0.02491894659445746 -0.0909965637354649 0 0.022589817932809616 -0.092086442205100094 0 0.02491894659445746 -0.0909965637354649 0 0.025886244862547231 -0.098902165592064897 0 0.022589817932809616 -0.092086442205100094 0 0.020524077111927132 -0.098863380863159989 0 0.025886244862547231 -0.098902165592064897 0 0.020092399871334557 -0.090976269278817024 0 0.022589817932809616 -0.092086442205100094 0 0.020524077111927132 -0.098863380863159989 0 0.028050769995695998 -0.086655909918256807 0 0.027506987766948425 -0.091748165028673445 0 0.030108278304470843 -0.090922621405005413 0 0.028050769995695998 -0.086655909918256807 0 0.027506987766948425 -0.091748165028673445 0 0.025601900053802768 -0.086573889463184076 0 0.028043073213745176 -0.086223303097659978 0 0.025594925904372928 -0.086151786652074708 0 0.027506987766948425 -0.091748165028673445 0 0.025601900053802765 -0.086573889463184062 0 0.02491894659445746 -0.0909965637354649 0 0.02322666781011145 -0.086494342422706941 0 0.025601900053802768 -0.086573889463184076 0 0.02491894659445746 -0.0909965637354649 0 0.023220524267502006 -0.08608551385077641 0 0.025594925904372928 -0.086151786652074708 0 0.027506987766948425 -0.091748165028673445 0 0.02491894659445746 -0.0909965637354649 0 0.025886244862547231 -0.098902165592064897 0 0.027506987766948425 -0.091748165028673445 0 0.030108278304470843 -0.090922621405005399 0 0.0315280762848913 -0.097928477600399647 0 0.027506987766948425 -0.091748165028673445 0 0.025886244862547231 -0.098902165592064897 0 0.0315280762848913 -0.097928477600399647 0 0.025886244862547231 -0.098902165592064897 0 0.03006507632355147 -0.11049435662219488 0 0.0315280762848913 -0.097928477600399647 0 0.025886244862547231 -0.098902165592064897 0 0.03006507632355147 -0.11049435662219488 0 0.024174575610759835 -0.10887397201351605 0 0.018167931873829764 -0.11191031113106388 0 0.020524077111927132 -0.098863380863159989 0 0.024174575610759835 -0.10887397201351605 0 0.020524077111927132 -0.098863380863159989 0 0.025886244862547231 -0.098902165592064897 0 0.024174575610759835 -0.10887397201351605 0 0.018167931873829764 -0.11191031113106388 0 0.024174575610759835 -0.10887397201351605 0 0.026288189101225778 -0.12507302181166352 0 0.03006507632355147 -0.11049435662219488 0 0.026288189101225778 -0.12507302181166352 0 0.03663455217283975 -0.12870681694638528 0 0.03006507632355147 -0.11049435662219488 0 0.024174575610759835 -0.10887397201351605 0 0.026288189101225778 -0.12507302181166352 0 0.026288189101225778 -0.12507302181166352 0 0.03663455217283975 -0.12870681694638528 0 0.02884072398171892 -0.15633440336850132 0 0.026288189101225778 -0.12507302181166352 0 0.014254413855565178 -0.13296700065307152 0 0.02884072398171892 -0.15633440336850132 0 0.014254413855565178 -0.13296700065307152 0 0.0022104932215682481 -0.15714096562612848 0 0.0044890666801662912 -0.12705301724258355 0 0.011281729533695968 -0.1123419248570133 0 0.014254413855565176 -0.13296700065307152 0 0.0044890666801662912 -0.12705301724258355 0 0.011281729533695968 -0.1123419248570133 0 0.0035236699136319818 -0.11126651078178999 0 0.0044890666801662912 -0.12705301724258355 0 0.011281729533695968 -0.1123419248570133 0 0.018167931873829764 -0.11191031113106388 0 0.014254413855565178 -0.13296700065307152 0 0.018167931873829764 -0.11191031113106388 0 0.026288189101225778 -0.12507302181166352 0 0.014254413855565178 -0.13296700065307152 0 0.057610696492242999 -0.11016583947965647 0 0.065030803551760732 -0.10664572041843796 0 0.073181318735708142 -0.12164144144016069 0 0.057610696492242999 -0.11016583947965647 0 0.05534099342724446 -0.099247848126241364 0 0.050611977097760691 -0.098920363146903195 0 0.057610696492242999 -0.11016583947965647 0 0.065030803551760732 -0.10664572041843796 0 0.05534099342724446 -0.099247848126241364 0 0.065030803551760732 -0.10664572041843796 0 0.057035693717251264 -0.095862598093221799 0 0.05534099342724446 -0.099247848126241364 0 0.057035693717251264 -0.095862598093221799 0 0.05534099342724446 -0.099247848126241364 0 0.051085091779259566 -0.091696847544822324 0 0.057035693717251264 -0.095862598093221799 0 0.051085091779259566 -0.091696847544822324 0 0.048013395665062408 -0.087111570357577356 0 0.051085091779259566 -0.091696847544822324 0 0.046869146188142384 -0.087088691905045451 0 0.048013395665062408 -0.087111570357577356 0 0.046860430600713134 -0.086848471120238052 0 0.047972255642253193 -0.086894454253009637 0 0.046860430600713134 -0.086848471120238052 0 0.045162660709818905 -0.086787549026764874 0 0.046869146188142384 -0.087088691905045451 0 0.045173299636162532 -0.087130684406194397 0 0.049242152444652541 -0.092019874694850651 0 0.051085091779259566 -0.091696847544822324 0 0.046869146188142384 -0.087088691905045451 0 0.049242152444652541 -0.092019874694850651 0 0.045173299636162532 -0.087130684406194397 0 0.049242152444652541 -0.092019874694850651 0 0.046376143939790296 -0.091118666650432723 0 0.05534099342724446 -0.099247848126241364 0 0.049242152444652541 -0.092019874694850651 0 0.050611977097760691 -0.098920363146903195 0 0.05534099342724446 -0.099247848126241364 0 0.051085091779259566 -0.091696847544822324 0 0.049242152444652541 -0.092019874694850651 0 0.049242152444652541 -0.092019874694850651 0 0.050611977097760691 -0.098920363146903195 0 0.046376143939790296 -0.091118666650432723 0 0.050611977097760691 -0.098920363146903195 0 0.04413500877289208 -0.092691128279290769 0 0.047706650340725076 -0.10273449125083844 0 0.050611977097760691 -0.098920363146903195 0 0.046376143939790296 -0.091118666650432723 0 0.04413500877289208 -0.092691128279290769 0 0.046376143939790296 -0.091118666650432723 0 0.04304949767512524 -0.087107124375058131 0 0.04413500877289208 -0.092691128279290769 0 0.045162660709818905 -0.086787549026764874 0 0.04303884366863895 -0.086713584827291204 0 0.045173299636162532 -0.087130684406194397 0 0.046376143939790296 -0.091118666650432723 0 0.04304949767512524 -0.087107124375058131 0 0.04304949767512524 -0.087107124375058131 0 0.040686666162733275 -0.087057107696349598 0 0.04413500877289208 -0.092691128279290769 0 0.04303884366863895 -0.086713584827291204 0 0.040676671195666356 -0.086632950778060894 0 0.040686666162733275 -0.087057107696349598 0 0.04413500877289208 -0.092691128279290769 0 0.040703412890825928 -0.090769282896647915 0 0.04413500877289208 -0.092691128279290769 0 0.047706650340725076 -0.10273449125083844 0 0.041687445789535663 -0.096492736540496518 0 0.057610696492242999 -0.11016583947965647 0 0.050611977097760691 -0.098920363146903195 0 0.047706650340725076 -0.10273449125083844 0 0.057610696492242999 -0.11016583947965647 0 0.047706650340725076 -0.10273449125083844 0 0.051198237469359781 -0.11715365391163747 0 0.047706650340725076 -0.10273449125083844 0 0.04287414232383318 -0.10590071940735771 0 0.051198237469359781 -0.11715365391163747 0 0.04287414232383318 -0.10590071940735771 0 0.043419566054235338 -0.11859996693088622 0 0.051198237469359781 -0.11715365391163747 0 0.04287414232383318 -0.10590071940735771 0 0.036536719407979597 -0.10834182636790866 0 0.043419566054235345 -0.11859996693088622 0 0.04287414232383318 -0.10590071940735771 0 0.041687445789535663 -0.096492736540496518 0 0.036926240024806344 -0.097319917823423502 0 0.04287414232383318 -0.10590071940735771 0 0.036926240024806344 -0.097319917823423502 0 0.036536719407979597 -0.10834182636790866 0 0.047706650340725076 -0.10273449125083844 0 0.04287414232383318 -0.10590071940735771 0 0.041687445789535663 -0.096492736540496518 0 0.04413500877289208 -0.092691128279290769 0 0.041687445789535656 -0.096492736540496504 0 0.040703412890825928 -0.090769282896647915 0 0.041687445789535663 -0.096492736540496518 0 0.040703412890825928 -0.090769282896647915 0 0.038136223435765997 -0.091515721300198444 0 0.040703412890825928 -0.090769282896647915 0 0.038203036741004809 -0.086988220523898901 0 0.038136223435765997 -0.091515721300198444 0 0.040676671195666356 -0.086632950778060894 0 0.038193002445340581 -0.086550051486449314 0 0.040686666162733275 -0.087057107696349598 0 0.040703412890825928 -0.090769282896647915 0 0.038203036741004809 -0.086988220523898901 0 0.035658725770472723 -0.086909756929869103 0 0.038136223435765997 -0.091515721300198444 0 0.035353061313708398 -0.09081477471537211 0 0.038193002445340581 -0.086550051486449314 0 0.035649170741158767 -0.086464598762014136 0 0.038203036741004809 -0.086988220523898901 0 0.035658725770472723 -0.086909756929869103 0 0.038136223435765997 -0.091515721300198444 0 0.038136223435765997 -0.091515721300198444 0 0.036926240024806344 -0.097319917823423502 0 0.035353061313708398 -0.09081477471537211 0 0.041687445789535663 -0.096492736540496518 0 0.038136223435765997 -0.091515721300198444 0 0.036926240024806344 -0.097319917823423502 0 0.036926240024806344 -0.097319917823423502 0 0.035353061313708398 -0.09081477471537211 0 0.03295280858152938 -0.091881616504720293 0 0.036926240024806344 -0.097319917823423502 0 0.03295280858152938 -0.091881616504720307 0 0.0315280762848913 -0.097928477600399647 0 0.035353061313708398 -0.09081477471537211 0 0.033097196386162549 -0.086825516749965193 0 0.03295280858152938 -0.091881616504720293 0 0.035649170741158767 -0.086464598762014136 0 0.033088144484180286 -0.086380702502552725 0 0.035658725770472723 -0.086909756929869103 0 0.035353061313708398 -0.09081477471537211 0 0.033097196386162549 -0.086825516749965193 0 0.028043073213745176 -0.086223303097659978 0 0.030546370868978 -0.086300182133323522 0 0.028050769995695998 -0.086655909918256807 0 0.030554760144597935 -0.086740342472509432 0 0.030108278304470843 -0.090922621405005413 0 0.033097196386162549 -0.086825516749965193 0 0.030554760144597935 -0.086740342472509432 0 0.03295280858152938 -0.091881616504720293 0 0.033088144484180286 -0.086380702502552725 0 0.030546370868978 -0.086300182133323522 0 0.030554760144597935 -0.086740342472509432 0 0.03295280858152938 -0.091881616504720293 0 0.030108278304470843 -0.090922621405005413 0 0.03295280858152938 -0.091881616504720293 0 0.030108278304470843 -0.090922621405005413 0 0.0315280762848913 -0.097928477600399647 0 0.03006507632355147 -0.11049435662219488 0 0.0315280762848913 -0.09792847760039966 0 0.036536719407979597 -0.10834182636790866 0 0.036926240024806344 -0.097319917823423502 0 0.0315280762848913 -0.097928477600399647 0 0.036536719407979597 -0.10834182636790866 0 0.03663455217283975 -0.12870681694638528 0 0.050999980887192278 -0.13643118364466911 0 0.046039245368054781 -0.1639212481073489 0 0.03006507632355147 -0.11049435662219488 0 0.036536719407979597 -0.10834182636790866 0 0.03663455217283975 -0.12870681694638528 0 0.036536719407979597 -0.10834182636790866 0 0.03663455217283975 -0.12870681694638528 0 0.043419566054235345 -0.11859996693088622 0 0.050999980887192278 -0.13643118364466911 0 0.043419566054235345 -0.11859996693088622 0 0.051198237469359781 -0.11715365391163747 0 0.03663455217283975 -0.12870681694638528 0 0.050999980887192278 -0.13643118364466911 0 0.043419566054235345 -0.11859996693088622 0 0.050999980887192278 -0.13643118364466911 0 0.063171597532221235 -0.13047007002776967 0 0.051198237469359781 -0.11715365391163747 0 0.057610696492242999 -0.11016583947965647 0 0.063171597532221235 -0.13047007002776967 0 0.051198237469359781 -0.11715365391163747 0 0.050999980887192278 -0.13643118364466911 0 0.063171597532221235 -0.13047007002776967 0 0.065197403371966028 -0.15735183914746528 0 0.063171597532221235 -0.13047007002776967 0 0.081443887827458275 -0.14348340800437182 0 0.065197403371966028 -0.15735183914746528 0 0.057610696492242999 -0.11016583947965647 0 0.063171597532221235 -0.13047007002776967 0 0.073181318735708142 -0.12164144144016069 0 0.063171597532221235 -0.13047007002776967 0 0.081443887827458275 -0.14348340800437182 0 0.073181318735708142 -0.12164144144016069 0 0.090736228530360133 -0.22292362956760939 0 0.064259912428013682 -0.18984726104488006 0 0.036823309229430341 -0.21688033265693829 0 0.081443887827458275 -0.14348340800437182 0 0.088574546185034089 -0.17501240547642805 0 0.065197403371966028 -0.15735183914746528 0 0.088574546185034089 -0.17501240547642805 0 0.065197403371966028 -0.15735183914746528 0 0.064259912428013682 -0.18984726104488006 0 0.03663455217283975 -0.12870681694638528 0 0.046039245368054781 -0.1639212481073489 0 0.02884072398171892 -0.15633440336850132 0 0.046039245368054781 -0.1639212481073489 0 0.02884072398171892 -0.15633440336850132 0 0.036823309229430341 -0.21688033265693829 0 0.065197403371966028 -0.15735183914746528 0 0.046039245368054781 -0.1639212481073489 0 0.064259912428013682 -0.18984726104488006 0 0.050999980887192278 -0.13643118364466911 0 0.065197403371966028 -0.15735183914746528 0 0.046039245368054781 -0.1639212481073489 0 0.046039245368054781 -0.1639212481073489 0 0.064259912428013682 -0.18984726104488006 0 0.036823309229430341 -0.21688033265693829 0 0.088574546185034089 -0.17501240547642805 0 0.090736228530360133 -0.22292362956760939 0 0.064259912428013682 -0.18984726104488006 0 0.015764975154035483 -0.17402448878005314 0 0.036823309229430341 -0.21688033265693829 0 0.0023222563317483592 -0.21605231553973167 0 0.014254413855565178 -0.13296700065307152 0 0.015764975154035479 -0.17402448878005314 0 0.0022104932215682481 -0.15714096562612848 0 0.015764975154035483 -0.17402448878005314 0 0.0023222563317483592 -0.21605231553973167 0 0.0022104932215682481 -0.15714096562612848 0 0.014254413855565178 -0.13296700065307152 0 0.015764975154035483 -0.17402448878005314 0 0.02884072398171892 -0.15633440336850132 0 0.015764975154035483 -0.17402448878005314 0 0.02884072398171892 -0.15633440336850132 0 0.036823309229430341 -0.21688033265693829 0 0.0023222563317483592 -0.21605231553973167 0 0.0022104932215682481 -0.15714096562612848 0 -0.017826322408870797 -0.1654988260144229 0 -0.017826322408870797 -0.1654988260144229 0 -0.038087693416703934 -0.22318569786349807 0 -0.05109002234277614 -0.16577954453111687 0 0.0023222563317483592 -0.21605231553973167 0 -0.017826322408870797 -0.1654988260144229 0 -0.038087693416703934 -0.22318569786349807 0 -0.098063462355427691 -0.22899463095658024 0 -0.05109002234277614 -0.16577954453111687 0 -0.09183906771179097 -0.15390520406126248 0 -0.038087693416703934 -0.22318569786349807 0 -0.098063462355427691 -0.22899463095658024 0 -0.05109002234277614 -0.16577954453111687 0 -0.07216971954960931 -0.090304489764215373 0 -0.052285267144806698 -0.1184819214490342 0 -0.09183906771179097 -0.15390520406126248 0 -0.05109002234277614 -0.16577954453111687 0 -0.052285267144806698 -0.1184819214490342 0 -0.023570378083865071 -0.11568544169791503 0 -0.05109002234277614 -0.16577954453111687 0 -0.052285267144806698 -0.1184819214490342 0 -0.09183906771179097 -0.15390520406126248 0 -0.033033596792690939 -0.086346193316908126 0 -0.07216971954960931 -0.090304489764215373 0 -0.052285267144806698 -0.1184819214490342 0 -0.033033596792690939 -0.086346193316908126 0 -0.052285267144806698 -0.1184819214490342 0 -0.023570378083865071 -0.11568544169791503 0 -0.033033596792690939 -0.086346193316908126 0 -0.015565621462272316 -0.084341808994139247 0 -0.023570378083865071 -0.11568544169791503 0 -0.015565621462272316 -0.084341808994139247 0 -0.023570378083865071 -0.11568544169791503 0 -0.0074747539786432062 -0.097700418401267197 0 -0.023570378083865071 -0.11568544169791503 0 -0.0074747539786432071 -0.097700418401267197 0 -0.0067977262301831499 -0.12757057328525609 0 0.0013939991992639549 -0.085290094333537597 0 -0.0033903317791674735 -0.07384048868248784 0 -0.0074747539786432062 -0.097700418401267197 0 0.0013939991992639549 -0.085290094333537597 0 -0.0074747539786432062 -0.097700418401267197 0 0.0045793843509303522 -0.096080324900132408 0 0.0013939991992639549 -0.085290094333537597 0 0.012070810101000903 -0.085838792291217395 0 0.0045793843509303522 -0.096080324900132408 0 0.012070810101000903 -0.085838792291217395 0 0.011310213235831233 -0.091642594568267816 0 0.0045793843509303522 -0.096080324900132408 0 -0.0074747539786432062 -0.097700418401267197 0 0.0045793843509303522 -0.096080324900132408 0 0.0035236699136319809 -0.11126651078178999 0 0.01034867979954285 -0.10044238190486922 0 0.0045793843509303522 -0.096080324900132408 0 0.0035236699136319809 -0.11126651078178999 0 -0.0074747539786432062 -0.097700418401267197 0 0.0035236699136319809 -0.11126651078178999 0 -0.0067977262301831499 -0.12757057328525609 0 0.0022104932215682481 -0.15714096562612848 0 -0.017826322408870797 -0.1654988260144229 0 -0.0067977262301831499 -0.12757057328525609 0 0.0035236699136319809 -0.11126651078178999 0 -0.0067977262301831499 -0.12757057328525609 0 0.0044890666801662912 -0.12705301724258355 0 0.0022104932215682481 -0.15714096562612848 0 -0.0067977262301831464 -0.12757057328525609 0 0.0044890666801662912 -0.12705301724258355 0 -0.017826322408870797 -0.1654988260144229 0 -0.05109002234277614 -0.16577954453111687 0 -0.023570378083865071 -0.11568544169791503 0 -0.017826322408870797 -0.1654988260144229 0 -0.023570378083865064 -0.11568544169791502 0 -0.0067977262301831499 -0.12757057328525609 0 
</DataArray>
</PointData>
<CellData Scalars="region_id," Vectors="" Tensors="stress,">
<DataArray type="Float64" Name="region_id" format="ascii">
1 1 1 1 1 1 1 1 1 1 1 1 1 1 1 1 1 1 1 1 1 1 1 1 1 1 1 1 1 1 1 1 1 1 1 1 1 1 1 1 1 1 1 1 1 1 1 1 1 1 1 1 1 1 1 1 1 1 1 1 1 1 1 1 1 1 1 1 1 1 1 1 1 1 1 1 1 1 1 1 1 1 1 1 1 1 1 1 1 1 1 1 1 1 1 1 1 1 1 1 1 1 1 1 1 1 1 1 1 1 1 1 1 1 1 1 1 1 1 1 1 1 1 1 1 1 1 1 1 1 1 1 1 1 1 1 1 1 1 1 1 6 1 6 1 1 1 1 1 1 1 1 1 1 1 1 1 1 6 1 6 1 1 6 1 1 6 1 1 1 1 1 1 6 1 1 6 1 1 1 1 1 1 1 1 1 1 1 1 1 1 1 1 1 1 1 1 1 1 1 1 6 6 1 1 1 1 1 1 1 1 1 6 1 1 6 1 1 1 1 1 1 1 1 1 1 1 1 1 6 1 1 6 1 1 1 1 1 1 6 1 6 1 1 6 1 1 1 1 1 1 1 1 1 1 1 1 1 1 1 1 1 1 1 1 1 1 1 1 1 1 1 1 1 1 1 1 1 1 1 1 1 1 1 1 1 1 1 1 1 1 1 1 1 1 1 1 1 1 
</DataArray>
<DataArray type="Float64" Name="stress" NumberOfComponents="9" format="ascii">
-0.078710089794733651 -0.045595157583324983 0 -0.045595157583324983 -0.026185010359182487 0 0 0 -0.026223775038479041 -0.1846308817295822 -0.030917712291634106 0 -0.030917712291634106 -0.017914601634235527 0 0 0 -0.050636370840954417 -0.12892527691900746 -0.024035552392451934 0 -0.024035552392451934 0.00017824900605434291 0 0 0 -0.032186756978238293 -0.073585928842542309 -0.029467070637274467 0 -0.029467070637274467 0.011980316703100138 0 0 0 -0.01540140303486056 -0.071664535631172699 -0.018172415998935876 0 -0.018172415998935876 -0.005105249097378306 0 0 0 -0.019192446182137751 -0.059804680021215501 -0.041419265094853157 0 -0.041419265094853157 -0.00073084143286650249 0 0 0 -0.01513388036352048 -0.010382717846293826 -0.042552579170263394 0 -0.042552579170263394 -0.0038288781151045725 0 0 0 -0.0035528989903496344 -0.0083343406486185434 -0.042717142424680977 0 -0.042717142424680977 0.0022898663513560846 0 0 0 -0.0015111185743156286 0.031494420924569 -0.034603098587574432 0 -0.034603098587574432 0.009518355321419314 0 0 0 0.010253194061497051 0.02216694140586406 -0.042096921968318435 0 -0.042096921968318435 -0.01414887889112082 0 0 0 0.0020045156286857546 0.044735250462955345 -0.018766542836061939 0 -0.018766542836061939 0.0055528932668962305 0 0 0 0.012572035932462811 0.10974507575855255 -0.050294367879582302 0 -0.050294367879582302 0.013814036781279071 0 0 0 0.030889778134957989 -0.011397139963773728 -0.041540429066102669 0 -0.041540429066102669 0.00013649346148625341 0 0 0 -0.0028151616255718825 -0.015078089989955273 -0.044620163562708759 0 -0.044620163562708759 0.00020855825960930385 0 0 0 -0.0037173829325864716 -0.029012307126450754 -0.042852180071801416 0 -0.042852180071801416 0.0011788382803735731 0 0 0 -0.0069583672115192674 -0.031911758547953049 -0.037341104170804884 0 -0.037341104170804884 -0.0031424899862906308 0 0 0 -0.0087635621335609617 -0.034376851101449543 -0.038232218289518394 0 -0.038232218289518394 -0.00013725064537395415 0 0 0 -0.0086285254367058639 -0.033529387290341162 -0.037342144610958611 0 -0.037342144610958611 0.00090002265456157193 0 0 0 -0.0081573411589448974 -0.083642512098022662 -0.036672653751493221 0 -0.036672653751493221 -0.008812966815776313 0 0 0 -0.02311386972844974 -0.014836992976191178 -0.036210686489615784 0 -0.036210686489615784 -0.012692766049102723 0 0 0 -0.0068824397563234819 -0.0081400594467873899 -0.047564530565797777 0 -0.047564530565797777 -0.0034023144025257523 0 0 0 -0.0028855934623282786 0.028066038384114075 -0.044016948152663021 0 -0.044016948152663021 -0.00073107581654069387 0 0 0 0.0068337406418932795 -0.018177322064474335 -0.044223701702596832 0 -0.044223701702596832 -0.006075907357772168 0 0 0 -0.0060633073555616266 0.0060899590488367739 -0.030186641204648722 0 -0.030186641204648722 -0.021689306598752761 0 0 0 -0.0038998368874790107 0.014022476948702345 -0.051374831083365699 0 -0.051374831083365699 0.0026962298476060909 0 0 0 0.0041796766990771228 -0.025669243564062312 -0.04627166957602584 0 -0.04627166957602584 -0.0071933527506616718 0 0 0 -0.0082156490786809908 -0.068044542487417203 -0.024635981558634047 0 -0.024635981558634047 -0.018655317819146481 0 0 0 -0.02167496507664092 0.041533470646988681 -0.050105976853659015 0 -0.050105976853659015 0.013857058251109621 0 0 0 0.013847632224524576 0.061203959533281546 -0.041634368454615253 0 -0.041634368454615253 -0.0021717907251762405 0 0 0 0.014758042202026327 0.054355535564068344 -0.055559945570232624 0 -0.055559945570232624 0.013232163848207829 0 0 0 0.016896924853069026 0.039213283773219032 -0.054565986409854356 0 -0.054565986409854356 -0.0069924242739242415 0 0 0 0.0080552148748236907 0.016311502961543933 -0.037888420511967419 0 -0.037888420511967419 0.004906592942280491 0 0 0 0.0053045239759560991 0.11791970539024133 -0.051450789811300947 0 -0.051450789811300947 0.039247065442432325 0 0 0 0.039291692708168416 0.19452111107757972 -0.039076912250094985 0 -0.039076912250094985 0.022547852299162535 0 0 0 0.054267240844185563 0.078292382269230909 -0.046632898218913532 0 -0.046632898218913532 0.033749030934725907 0 0 0 0.028010353300989201 0.089911287674019708 -0.037920722871838258 0 -0.037920722871838258 0.0014622326495732918 0 0 0 0.022843380080898257 0.07011410850833967 -0.041075293077785305 0 -0.041075293077785305 0.024739914277832065 0 0 0 0.023713505696542916 0.082330017645529371 -0.052897492179406772 0 -0.052897492179406772 -0.0034166098665020517 0 0 0 0.019728351944756847 0.12377288691146623 -0.045220818267929203 0 -0.045220818267929203 0.011959265354080373 0 0 0 0.033933038066386659 0.1067309834231816 -0.023478388791920154 0 -0.023478388791920154 -0.0020077871382521706 0 0 0 0.026180799071232386 0.12405491754805045 -0.016884324404586065 0 -0.016884324404586065 0.0045130830130244437 0 0 0 0.032142000140268745 0.079728639110304061 -0.014342146651152882 0 -0.014342146651152882 0.00078458383277840715 0 0 0 0.020128305735770596 0.058380953750100828 -0.013514621567651819 0 -0.013514621567651819 -0.0009208952713665175 0 0 0 0.014365014619683536 0.08584628661285254 -0.014046615973754555 0 -0.014046615973754555 -0.0022239099487607605 0 0 0 0.020905594166022889 0.093978204572297608 -0.033013049925780677 0 -0.033013049925780677 0.00014672429795981046 0 0 0 0.023531232217564368 0.0675663990954814 -0.032650745611621124 0 -0.032650745611621124 -0.0021638590707222516 0 0 0 0.016350635006189773 0.0654703689820679 -0.034427631704612438 0 -0.034427631704612438 -0.008130724638365755 0 0 0 0.014334911085925578 0.078552118216061464 -0.041557296677259228 0 -0.041557296677259228 -0.0042192127169052296 0 0 0 0.018583226374789097 0.073782041415820843 -0.042764033291032844 0 -0.042764033291032844 -0.0019413228389513204 0 0 0 0.017960179644217367 0.071981456235833782 -0.042880613712642401 0 -0.042880613712642401 -0.00154468523922352 0 0 0 0.017609192749152527 0.064336441010403311 -0.052978217796409266 0 -0.052978217796409266 -0.0028633239400818189 0 0 0 0.015368279267580387 0.075790908300251425 -0.050126698747412747 0 -0.050126698747412747 -0.0024025355217656141 0 0 0 0.018347093194621411 0.062027833245045655 -0.050450684944068735 0 -0.050450684944068735 -0.0039964875993750426 0 0 0 0.014507836411417646 0.066228444194295799 -0.047648925061723246 0 -0.047648925061723246 0.00051331054151937394 0 0 0 0.016685438683953835 0.05919778655749991 -0.04797798475122117 0 -0.04797798475122117 0.001475038783235405 0 0 0 0.015168206335183843 0.061536017301072388 -0.049552409317264567 0 -0.049552409317264567 0.0059783147806007353 0 0 0 0.016878583020418225 0.05904818739655382 -0.047244645045441014 0 -0.047244645045441014 0.010200372253266199 0 0 0 0.017312139912455171 0.05241106920900851 -0.047932594418290231 0 -0.047932594418290231 0.008597667767823447 0 0 0 0.015252184244207934 0.057210865861826221 -0.045159492195429474 0 -0.045159492195429474 0.016329575442290967 0 0 0 0.018385110326029075 0.060397942839942376 -0.041787607547051464 0 -0.041787607547051464 0.017091664237089521 0 0 0 0.019372401769257808 0.056447293669621645 -0.043966160429121715 0 -0.043966160429121715 0.0089463443200286097 0 0 0 0.016348409497412675 0.057787748837389241 -0.045900672808671467 0 -0.045900672808671467 0.0080111053235429885 0 0 0 0.016449713540233057 0.062488435817646848 -0.04520665149495573 0 -0.04520665149495573 0.0055383217868167911 0 0 0 0.017006689401115938 0.063422630506233979 -0.042309456033599563 0 -0.042309456033599563 0.0059285522109253641 0 0 0 0.017337795679289725 0.062135588127537611 -0.040477718566464038 0 -0.040477718566464038 -0.0023658711388800935 0 0 0 0.014942429247164379 0.060498132181811881 -0.038470022180593588 0 -0.038470022180593588 0.016734839429912718 0 0 0 0.019308242902930983 0.057005969896574693 -0.039820466669216126 0 -0.039820466669216126 0.0061000214914590511 0 0 0 0.01577649784700863 0.055841440616618943 -0.036833966599457035 0 -0.036833966599457035 0.0021702675905487245 0 0 0 0.014502927051791958 0.059801329629088684 -0.035127824738924396 0 -0.035127824738924396 0.016457361869875342 0 0 0 0.019064672874741007 0.062738832594359278 -0.038893461393785134 0 -0.038893461393785134 0.0055943197795929045 0 0 0 0.017083288093487775 0.063440459054055043 -0.040902341541268483 0 -0.040902341541268483 -0.0059649789585272117 0 0 0 0.014368870023881986 0.068150704085617186 -0.043497198433101888 0 -0.043497198433101888 -0.00037836051675510518 0 0 0 0.016943085892215493 0.053636995574039448 -0.031368656126752575 0 -0.031368656126752575 -0.0067403895608877384 0 0 0 0.011724151503287872 0.064954750846835885 -0.039998293838523991 0 -0.039998293838523991 -0.002613548069323901 0 0 0 0.015585300694378024 0.060647325106066852 -0.037292798461546588 0 -0.037292798461546588 -0.00055564400021967941 0 0 0 0.015022920276461793 0.056462886843242514 -0.035077840417975348 0 -0.035077840417975348 -0.0053019565874145164 0 0 0 0.012790232563957055 0.054328634568691136 -0.032190820818683408 0 -0.032190820818683408 0.0026729669250592503 0 0 0 0.014250400373437444 0.056309601648296903 -0.033074951536333885 0 -0.033074951536333885 0.014674015975439936 0 0 0 0.017745904405934265 0.048624701349049282 -0.029404051190240033 0 -0.029404051190240033 -0.0053285367217520418 0 0 0 0.010824041156824116 0.048201579917234394 -0.030108912430039381 0 -0.030108912430039381 0.011430777997385011 0 0 0 0.014908089478654851 0.051083713913250839 -0.036402444313847648 0 -0.036402444313847648 0.00024071490623844838 0 0 0 0.01283110720487235 0.024080127769162796 -0.030296982768926561 0 -0.030296982768926561 -0.0062916173886051752 0 0 0 0.004447127595139766 0.045924925621420143 -0.029931582303453164 0 -0.029931582303453164 -0.0062968554269722254 0 0 0 0.0099070175486118961 0.021614014416204475 -0.03323556014008705 0 -0.03323556014008705 -0.0064846293669695854 0 0 0 0.0037823462623089998 0.037544368357163516 -0.023686942790106524 0 -0.023686942790106524 -0.0066266082391900349 0 0 0 0.0077294400294934396 0.0041648870136327398 -0.019238379599544775 0 -0.019238379599544775 -0.015906486040759893 0 0 0 -0.0029353997567818924 0.023977551182099877 -0.030455192116173424 0 -0.030455192116173424 0.0022568479767972605 0 0 0 0.0065585997897241732 -0.066537053799289758 -0.019031673963366247 0 -0.019031673963366247 -0.0067568247185494368 0 0 0 -0.018323469629459854 -0.0081372213340893396 -0.033822593926925049 0 -0.033822593926925049 -0.0065894450994528064 0 0 0 -0.0036816666083854255 0.0023004206395571547 -0.017141006590274066 0 -0.017141006590274066 0.0020464732404033015 0 0 0 0.0010867234699902806 -0.00169308891410197 -0.016366601489104071 0 -0.016366601489104071 0.0006547957721325659 0 0 0 -0.00025957328549236491 0.032273151358706398 -0.013912225814640244 0 -0.013912225814640244 -0.0011436448726853676 0 0 0 0.0077823766215053825 0.041917487480831683 -0.033423945175894199 0 -0.033423945175894199 -0.0024574495708044042 0 0 0 0.009865009477506903 0.040254426764511964 -0.014882357516195946 0 -0.014882357516195946 0.00018984659286314098 0 0 0 0.010111068339343721 0.040405425834812436 -0.058735968294747032 0 -0.058735968294747032 0.0029106484898103746 0 0 0 0.010829018581155758 0.0394592779426889 -0.057228419482385467 0 -0.057228419482385467 -0.0046881502937404229 0 0 0 0.0086927819122371401 0.015083908569994087 -0.044403682468528709 0 -0.044403682468528709 -0.0098642525683572124 0 0 0 0.0013049140004092186 0.044882841123566997 -0.049262518192196944 0 -0.049262518192196944 -0.0024084389154528374 0 0 0 0.010618600552028512 0.063972576358791833 -0.052180002950252324 0 -0.052180002950252324 -0.0030343143035586051 0 0 0 0.015234565513808307 0.064914343372014571 -0.052444798437741358 0 -0.052444798437741358 0.0018057988276705128 0 0 0 0.016680035549921257 0.055300466403232204 -0.056258002655781847 0 -0.056258002655781847 -0.0030593043339923465 0 0 0 0.013060290517309989 0.046862248173781818 -0.061752195579322988 0 -0.061752195579322988 -0.0034126159615925078 0 0 0 0.010862408053047303 0.05649740970213768 -0.056017719224252582 0 -0.056017719224252582 0.0026161372674555761 0 0 0 0.014778386742398231 0.047220506939505122 -0.058850514369158557 0 -0.058850514369158557 -0.0007165216098312388 0 0 0 0.011625996332418499 0.046445128762185428 -0.058654942451971115 0 -0.058654942451971115 0.0073733242419895539 0 0 0 0.01345461325104369 0.053925122562495473 -0.053223892438357345 0 -0.053223892438357345 -0.0011267546284555174 0 0 0 0.013199591983510048 0.055454098913006011 -0.054097465241610576 0 -0.054097465241610576 0.0063555948532185713 0 0 0 0.015452423441556118 0.053326411394226891 -0.050078517299873178 0 -0.050078517299873178 0.0097863862342717489 0 0 0 0.01577819940712466 0.054241291406715519 -0.049907162112874826 0 -0.049907162112874826 0.0041726210481207726 0 0 0 0.014603478113708879 0.049232718720755075 -0.054389220983389608 0 -0.054389220983389608 0.0042552867426659535 0 0 0 0.013372001365855146 0.052587568817907715 -0.052640954032683873 0 -0.052640954032683873 0.0079080183869195686 0 0 0 0.015123896801206738 0.046103692414060204 -0.05388970358097267 0 -0.05388970358097267 0.0094804269724462209 0 0 0 0.013896029846626634 0.047155755561681278 -0.053771332438433239 0 -0.053771332438433239 0.013756304989776424 0 0 0 0.015228015137864315 0.050333463295808789 -0.051503693343171619 0 -0.051503693343171619 0.014589265164331344 0 0 0 0.016230682115035089 0.053181019407800179 -0.048338622387771091 0 -0.048338622387771091 0.015171810142426079 0 0 0 0.017088207387556675 0.049154187857427062 -0.050678896301519449 0 -0.050678896301519449 0.0082393922248096274 0 0 0 0.014348395020559374 0.04553382375277093 -0.058171622578704674 0 -0.058171622578704674 0.0095707419963444451 0 0 0 0.013776141437278788 0.041306316780564734 -0.060362673935383304 0 -0.060362673935383304 0.0050645104720230538 0 0 0 0.011592706813146947 0.04519597846677248 -0.056094615019808836 0 -0.056094615019808836 0.0090262031121595143 0 0 0 0.013555545394733026 0.043206854426271868 -0.056110680497924337 0 -0.056110680497924337 0.0085806185851846628 0 0 0 0.012946868252864008 0.044192746414430939 -0.056593170053706787 0 -0.056593170053706787 0.013166481083875414 0 0 0 0.014339806874576588 0.038910369003699471 -0.05951393804860472 0 -0.05951393804860472 0.0076796546492748363 0 0 0 0.01164750591324358 0.039562373656402805 -0.059675277963458284 0 -0.059675277963458284 0.01201670905421981 0 0 0 0.012894770677655654 0.038789771787438143 -0.062340267897640134 0 -0.062340267897640134 0.012164684875830112 0 0 0 0.012738614165816786 0.036865380457733021 -0.06122478833857592 0 -0.06122478833857592 0.0091857416513327905 0 0 0 0.011512780527266453 0.038581214715924128 -0.065395397096997598 0 -0.065395397096997598 0.012866524761791176 0 0 0 0.012861934869428771 0.036163810938764696 -0.063688785227715705 0 -0.063688785227715705 0.0096088958877988961 0 0 0 0.011443176706640912 0.040265850107580214 -0.064931127969152125 0 -0.064931127969152125 0.0063064311282871044 0 0 0 0.01164307030896683 0.039505161488883056 -0.06323550121105137 0 -0.06323550121105137 0.010085807636804445 0 0 0 0.012397742281421986 0.040409445074621825 -0.061181136734331676 0 -0.061181136734331676 0.010283133768958064 0 0 0 0.01267314471089484 0.042655827515693856 -0.060979659721035306 0 -0.060979659721035306 0.00028193821556787846 0 0 0 0.010734441432815434 0.023787836097396375 -0.05002482426130641 0 -0.05002482426130641 -0.0080660083685106798 0 0 0 0.0039304569322214933 0.057762592240690039 -0.059573298117650997 0 -0.059573298117650997 0.0045025637963484882 0 0 0 0.015566289009259618 0.042193490387566146 -0.063566107011863604 0 -0.063566107011863604 0.0041592949682747182 0 0 0 0.011588196338960244 0.042204405207164397 -0.066183852025677004 0 -0.066183852025677004 0.0094206537383589861 0 0 0 0.012906264736380679 0.037880761368523155 -0.065862702856206212 0 -0.065862702856206212 0.0080181104852607432 0 0 0 0.011474717963445916 0.043726707660178388 -0.070145666248639604 0 -0.070145666248639604 0.014620941104048324 0 0 0 0.014586912191056456 0.051805777520451013 -0.066135360004794252 0 -0.066135360004794252 0.0084238315830137411 0 0 0 0.015057402275866161 0.075865337803511901 -0.083023445924666761 0 -0.083023445924666761 0.034693490580310016 0 0 0 0.027639707095955535 -0.032276086784978508 -0.055243956883791134 0 -0.055243956883791134 -0.010776136021067639 0 0 0 -0.010763055701511481 -0.0613691116210517 -0.071376281267797159 0 -0.071376281267797159 -0.032143500886745106 0 0 0 -0.023378153126949203 0.0055421204494905396 0.25780623856201146 0 0.25780623856201146 -0.070160404118468023 0 0 0 -0.016154570917251476 -0.023515793162927994 -0.06040920096871405 0 -0.06040920096871405 -0.0095462548130126404 0 0 0 -0.008265511993985215 0.024157314476497049 -0.13655709117045944 0 -0.13655709117045944 -0.08940141418393921 0 0 0 -0.016311024926864093 -0.015237939763620201 -0.054596761508559521 0 -0.054596761508559521 -0.0069494896676731699 0 0 0 -0.0055468573578230096 -0.02627506872990526 -0.060547110916775115 0 -0.060547110916775115 0.0018220747857835562 0 0 0 -0.0061132484860303427 -0.056010670477654179 -0.042026867630089393 0 -0.042026867630089393 -0.00059512940015071791 0 0 0 -0.014151449969451169 -0.046408031889876827 -0.070332154353237142 0 -0.070332154353237142 -0.013045662190723117 0 0 0 -0.014863423520149771 -0.03635411535057631 -0.049269933712285663 0 -0.049269933712285663 0.0034789761223708027 0 0 0 -0.0082187848070514047 -0.021073046732930867 -0.06144966901419685 0 -0.06144966901419685 0.0034305000909053973 0 0 0 -0.0044106366605064506 -0.012731114073376541 -0.057206265093927455 0 -0.057206265093927455 0.0059249212299067079 0 0 0 -0.0017015482108675133 -0.0034546491161815407 -0.061650015484543852 0 -0.061650015484543852 0.0011549833778292662 0 0 0 -0.00057491643458806863 0.00029755532344499791 -0.055920468025092651 0 -0.055920468025092651 0.0026688558724536904 0 0 0 0.00074160279897461656 0.0071694107345151303 -0.056463846445511834 0 -0.056463846445511834 -0.0014929175180853349 0 0 0 0.0014191233041072893 -0.011681117434228394 -0.061654509621581477 0 -0.061654509621581477 -0.0096977017291086653 0 0 0 -0.0053447047908343759 -0.0095068851984718705 -0.059976989087949677 0 -0.059976989087949677 -0.0025804875715262909 0 0 0 -0.0030218431924997624 -0.0018536478949513491 -0.05283890384136658 0 -0.05283890384136658 -0.0035071862297506584 0 0 0 -0.0013402085311757794 -0.0099261177524312405 -0.057129955990440129 0 -0.057129955990440129 -0.0059811418317159415 0 0 0 -0.003976814896036851 0.025662256873658862 -0.10621783913683203 0 -0.10621783913683203 -0.12002873308234996 0 0 0 -0.023591619052169222 0.0066053458816883737 -0.052004887964864133 0 -0.052004887964864133 0.00052413893262492905 0 0 0 0.0017823712035780481 0.039959557333219209 -0.11219424563194025 0 -0.11219424563194025 -0.14656541325788908 0 0 0 -0.026651463981153256 0.0019701366701194711 -0.055068407629879745 0 -0.055068407629879745 -0.0017595683173055043 0 0 0 5.2642088203436188e-05 0.0087257641033640088 -0.052936555390608264 0 -0.052936555390608264 0.00033026297322003018 0 0 0 0.0022640067691457322 0.048020820107950613 -0.10840510710215767 0 -0.10840510710215767 -0.17099268660480504 0 0 0 -0.030742966624231371 0.014515170354445273 -0.04981080242457181 0 -0.04981080242457181 0.0030113951694441532 0 0 0 0.004381641380972523 0.016849106272885848 -0.051137821052785082 0 -0.051137821052785082 0.0029035796101916683 0 0 0 0.0049381714707693791 0.05850944667179192 -0.10562403345619487 0 -0.10562403345619487 -0.1946890765252931 0 0 0 -0.03404490746336819 0.021108835965384598 -0.048355947755208462 0 -0.048355947755208462 0.0059058858589766672 0 0 0 0.0067536804560901498 0.022037403126388688 -0.052514479745471299 0 -0.052514479745471299 0.0040612666084086646 0 0 0 0.0065246674336992827 0.016295765434180765 -0.051574503383850945 0 -0.051574503383850945 0.0056795069650146246 0 0 0 0.005493818099798875 0.0084226980398843521 -0.054467804188470081 0 -0.054467804188470081 0.003304832095066601 0 0 0 0.0029318825337377452 0.03545608913276932 -0.04470694493169125 0 -0.04470694493169125 0.010736726717155864 0 0 0 0.01154820396248124 0.030951285395959038 -0.0473077945817858 0 -0.0473077945817858 0.007342486628016065 0 0 0 0.0095734430059937203 0.080342427487835266 -0.094753222287067729 0 -0.094753222287067729 -0.2325855001598427 0 0 0 -0.038060768167994752 0.028905191537178965 -0.046126481741631697 0 -0.046126481741631697 0.0086426608026508589 0 0 0 0.0093869630849576779 0.023204948107306 -0.049190419904171945 0 -0.049190419904171945 0.0048500767011314672 0 0 0 0.0070137562021093114 0.069589903177359247 -0.10081875011195507 0 -0.10081875011195507 -0.21715272498272498 0 0 0 -0.036890705451355643 0.023193605903182729 -0.05117279463173996 0 -0.05117279463173996 0.008507871868314365 0 0 0 0.007925369442874225 0.036991219446987245 -0.048243859197572014 0 -0.048243859197572014 0.0099029656943945277 0 0 0 0.011723546285345554 0.030210484085257061 -0.047964427207041527 0 -0.047964427207041527 0.012307744352008321 0 0 0 0.010629557109316345 0.027345347203296511 -0.054407836686290845 0 -0.054407836686290845 0.010241612026847147 0 0 0 0.0093967398075358588 0.023188212837157662 -0.05234363713204282 0 -0.05234363713204282 0.011278984413590099 0 0 0 0.0086167993126869957 0.0061472716787633885 -0.055077194275463315 0 -0.055077194275463315 0.007212201496599846 0 0 0 0.0033398682938409197 0.014122739672200534 -0.057586005203174695 0 -0.057586005203174695 0.0050198914853859591 0 0 0 0.004785657789396624 0.01339743377955846 -0.059225911403071541 0 -0.059225911403071541 0.0072531521471923543 0 0 0 0.0051626464816875994 0.027463098664541996 -0.053412586093826209 0 -0.053412586093826209 0.012638803098666607 0 0 0 0.010025475440802123 0.014348055366466883 -0.059023446790268608 0 -0.059023446790268608 0.010944163634323822 0 0 0 0.0063230547501977874 0.011307385118574209 -0.059129676308711354 0 -0.059129676308711354 0.01057415966070141 0 0 0 0.005470386194818877 0.011594382580997403 -0.061172399191451843 0 -0.061172399191451843 0.0094099598004391272 0 0 0 0.0052510855953591118 -0.013012374161384122 -0.058556367179152746 0 -0.058556367179152746 0.01100792989985977 0 0 0 -0.00050111106538108796 -0.018607934159914907 -0.054313469864764208 0 -0.054313469864764208 0.005957844389486322 0 0 0 -0.0031625224426071741 -0.017926183345244651 -0.053257277831211924 0 -0.053257277831211924 0.010707942082889998 0 0 0 -0.0018045603155886214 -0.0077870311683124957 -0.062377133851103883 0 -0.062377133851103883 0.0077551394409361325 0 0 0 -7.9729318440899255e-06 -0.0029595786433534443 -0.057895232968444232 0 -0.057895232968444232 0.0077508253054177079 0 0 0 0.0011978116655161353 0.1411149407972187 -0.015842758155874437 0 -0.015842758155874437 0.00062523548617665625 0 0 0 0.035435044070848798 0.12530025448831994 -0.041426533220870754 0 -0.041426533220870754 0.012891578680796378 0 0 0 0.034547958292278969 0.15830565071447977 -0.016439064465759268 0 -0.016439064465759268 0.0021257187140257816 0 0 0 0.040107842357126389 0.19063659768897701 -0.021565139385052043 0 -0.021565139385052043 0.0026556524827379135 0 0 0 0.048323062542928508 0.19301722826723589 -0.025808549479122922 0 -0.025808549479122922 -0.0077285454257234321 0 0 0 0.046322170710378141 0.30634382084817868 -0.050074036951904377 0 -0.050074036951904377 0.037143737500162421 0 0 0 0.085871889587085248 0.21239881701573093 -0.068444666631019391 0 -0.068444666631019391 0.069969880460086564 0 0 0 0.070592174368954375 0.2609892567688803 -0.24146938882933 0 -0.24146938882933 -0.079769075928908251 0 0 0 0.045305045210028538 0.16615564351877765 -0.012925013294307064 0 -0.012925013294307064 -0.16555891115615395 0 0 0 0.00014918309062750268 0.1544486700543577 -0.053789867453633455 0 -0.053789867453633455 0.053005818059787657 0 0 0 0.051863622028536227 0.17758097969618092 -0.041732207017035283 0 -0.041732207017035283 0.040780370206380923 0 0 0 0.054590337475640016 0.13102908158085369 -0.039493508700114033 0 -0.039493508700114033 0.038268083693278498 0 0 0 0.042324291318532881 0.15402585889446907 -0.040178772970299481 0 -0.040178772970299481 0.022573064247273678 0 0 0 0.044149730785435937 0.18244467631103389 -0.057053358368274687 0 -0.057053358368274687 0.036113862959489929 0 0 0 0.054639634817631011 0.12550138467638949 -0.052740224906538957 0 -0.052740224906538957 0.041908411539301138 0 0 0 0.041852449053922935 0.090929190392273207 -0.041511229431440477 0 -0.041511229431440477 0.021561933986359527 0 0 0 0.028122781094658156 0.11983876020466888 -0.048178652964587565 0 -0.048178652964587565 0.030568680425499206 0 0 0 0.037601860157542077 0.099360822154026973 -0.036707920809075589 0 -0.036707920809075589 0.033603947841610804 0 0 0 0.033241192498909333 0.15982761361374287 -0.042355777033606046 0 -0.042355777033606046 -0.21496762555364057 0 0 0 -0.013785002984946004 0.1197663845947885 -0.045527902467674131 0 -0.045527902467674131 0.039067684402388281 0 0 0 0.03970851724929414 0.089827632525033244 -0.043075832204298781 0 -0.043075832204298781 0.028128605960515203 0 0 0 0.029489059621387169 0.14240545088466661 -0.052597787147533381 0 -0.052597787147533381 -0.24496433491427183 0 0 0 -0.025639721007422622 0.082310687659626902 -0.038086210466033776 0 -0.038086210466033776 0.025299024348023558 0 0 0 0.026902428001912559 0.091816523699533414 -0.047303568168651847 0 -0.047303568168651847 0.024056674246434095 0 0 0 0.028968299486491933 0.1292131424375127 -0.043302881517718939 0 -0.043302881517718939 0.022318753210480935 0 0 0 0.037882973911998463 0.088825064000697063 -0.036952410921657575 0 -0.036952410921657575 0.0098664971853426042 0 0 0 0.024672890296510153 0.08691712661057216 -0.049646663038445005 0 -0.049646663038445005 0.018686036472592593 0 0 0 0.02640079077079116 0.066929633516776166 -0.043281024637997489 0 -0.043281024637997489 0.015821918082453035 0 0 0 0.020687887899807245 0.058551745244024789 -0.052419992809451199 0 -0.052419992809451199 0.016548500483992923 0 0 0 0.018775061432004525 0.067558964106458563 -0.049127688936831254 0 -0.049127688936831254 0.020575634860538816 0 0 0 0.022033649741749373 0.053130232168354996 -0.044893736473617607 0 -0.044893736473617607 0.018514289954607577 0 0 0 0.017911130530740671 0.07166568352902819 -0.043563282163972428 0 -0.043563282163972428 0.019917699031612446 0 0 0 0.022895845640160173 0.074828492044831663 -0.043080313579476615 0 -0.043080313579476615 0.028207867786279373 0 0 0 0.025759089957777537 0.071676658539986393 -0.04477590882838528 0 -0.04477590882838528 0.021114690129556024 0 0 0 0.023197837167385327 0.068710695659028653 -0.038880932620871111 0 -0.038880932620871111 0.022275081889524984 0 0 0 0.022746444387138798 0.13096721739827899 -0.06714334140531264 0 -0.06714334140531264 -0.25699235844555801 0 0 0 -0.031506285261855282 0.074896295403135582 -0.041472030864023735 0 -0.041472030864023735 0.022467123680166345 0 0 0 0.024340854770825482 0.059674882112187966 -0.039540653439632534 0 -0.039540653439632534 0.019211058483675103 0 0 0 0.019721485148965545 0.12052654187601775 -0.071555079279846723 0 -0.071555079279846723 -0.2697330333262471 0 0 0 -0.037301622862543127 0.063403632416579647 -0.041707693307754923 0 -0.041707693307754923 0.018288931128712438 0 0 0 0.020423140886323132 0.05429587706160377 -0.0446710376513757 0 -0.0446710376513757 0.019244820809010132 0 0 0 0.018385174467653531 0.062531515471655585 -0.04206957372805864 0 -0.04206957372805864 0.020501251876506199 0 0 0 0.020758191837040418 0.052937883844026423 -0.045081294905813252 0 -0.045081294905813252 0.014973959501788148 0 0 0 0.016977960836453754 0.045518881821253632 -0.044327995759109173 0 -0.044327995759109173 0.016740597935252177 0 0 0 0.015564869939126424 0.050317683489016662 -0.041292596276310767 0 -0.041292596276310767 0.016171185406415933 0 0 0 0.016622217223858371 0.11195779532295091 -0.07968507234329536 0 -0.07968507234329536 -0.26694450253924629 0 0 0 -0.038746676804095159 0.053763520176418611 -0.042561211470300897 0 -0.042561211470300897 0.014866062867624041 0 0 0 0.017157395761010719 0.089881696273607758 -0.091050785579568583 0 -0.091050785579568583 -0.24885407058165754 0 0 0 -0.039743093576973365 0.037987010844026024 -0.045586295704711066 0 -0.045586295704711066 0.0096002496471129777 0 0 0 0.011896815122784638 0.045941861541230589 -0.04398985748381401 0 -0.04398985748381401 0.012224966718014318 0 0 0 0.01454170706481106 0.10163617605411446 -0.085883310432848248 0 -0.085883310432848248 -0.25814181371967493 0 0 0 -0.039126409416411434 0.043362873742795349 -0.042656833669942218 0 -0.042656833669942218 0.01367682612791743 0 0 0 0.01425992496767825 0.037965205903586069 -0.047230542468985393 0 -0.047230542468985393 0.013993234275625155 0 0 0 0.012989610044802896 0.037048251003678367 -0.048320556098555678 0 -0.048320556098555678 0.016202829719272671 0 0 0 0.013312770180737732 0.044370609727573236 -0.051336926745693345 0 -0.051336926745693345 0.015513054445322152 0 0 0 0.014970916043223877 0.028366276999778589 -0.049542143083895818 0 -0.049542143083895818 0.0070343631441673882 0 0 0 0.0088501600359865151 0.033403660100861918 -0.056839745708810563 0 -0.056839745708810563 0.01194124184240325 0 0 0 0.01133622548581624 0.040272203969731635 -0.047349270541193783 0 -0.047349270541193783 0.014031572844727336 0 0 0 0.013575944203614632 0.058148219623184061 -0.048455353452456607 0 -0.048455353452456607 0.011295390093286617 0 0 0 0.017360902429117697 0.056855430590642325 -0.047299671883505923 0 -0.047299671883505923 0.012313057214920153 0 0 0 0.017292121951390599 0.075374793082714053 -0.031792790154336781 0 -0.031792790154336781 0.00725115792050679 0 0 0 0.020656487750805141 0.10097961683510881 -0.038369069874112746 0 -0.038369069874112746 0.0078147750498689383 0 0 0 0.027198597971244465 0.06233374252624771 -0.03633879951846064 0 -0.03633879951846064 -8.7028654277010453e-05 0 0 0 0.015561678467992751 0.076077245749340605 -0.012694217990130263 0 -0.012694217990130263 0.00053290736681299578 0 0 0 0.0191525382790384 0.10873149185321707 -0.012756482502600114 0 -0.012756482502600114 0.001201426317947174 0 0 0 0.027483229542791032 0.10385529405832739 -0.01392047544262609 0 -0.01392047544262609 -0.00058746953812516267 0 0 0 0.025816956130050639 0.026473998787925501 -0.031024919019795927 0 -0.031024919019795927 -0.016960067222820285 0 0 0 0.0023784828912763456 0.064630910776959594 -0.014879077655759299 0 -0.014879077655759299 -0.0023384866168512097 0 0 0 0.01557310604002704 0.046961733273598538 -0.016386333575938328 0 -0.016386333575938328 0.0038285948116349999 0 0 0 0.012697582021308329 0.029932237594710198 -0.050909942899227539 0 -0.050909942899227539 0.0084473298225984372 0 0 0 0.0095948918543271589 0.00062594827838650946 -0.050258754691790752 0 -0.050258754691790752 -0.00020418074724415369 0 0 0 0.0001054418827855369 0.032480458282543923 -0.03840472610816581 0 -0.03840472610816581 -0.0034651568594163962 0 0 0 0.0072538253557817844 0.051995418208428346 -0.032833023155536156 0 -0.032833023155536156 0.0058253042649565323 0 0 0 0.014455180618346164 0.014420326543886863 -0.031006889569201279 0 -0.031006889569201279 -0.013924220821658562 0 0 0 0.00012402643055703377 0.0092353975382656328 -0.02742922939902407 0 -0.02742922939902407 -0.015626527167247328 0 0 0 -0.0015977824072453961 3.1050103721785849e-05 -0.054449484552583138 0 -0.054449484552583138 -0.0035225229988316009 0 0 0 -0.00087286822377752316 -0.0042315870465525762 -0.057020663312966124 0 -0.057020663312966124 0.0091146227194109919 0 0 0 0.0012207589182146039 -0.0033848149147500672 -0.055735382016825485 0 -0.055735382016825485 0.0066974377441608723 0 0 0 0.00082815570735284005 -0.0050264906823141997 -0.05781532058967552 0 -0.05781532058967552 0.0057464536179661074 0 0 0 0.00017999073391294917 0.0069547056406109031 -0.058133215568807128 0 -0.058133215568807128 0.0043239349105700375 0 0 0 0.0028196601377952768 -0.002536852519684607 -0.048212221483316491 0 -0.048212221483316491 0.011986443831013327 0 0 0 0.0023623978278322078 -0.0011457979399103757 -0.041761254806085224 0 -0.041761254806085224 0.010365078916162229 0 0 0 0.0023048202440629773 -0.0089766520066305588 -0.047262982779809865 0 -0.047262982779809865 0.027443547245947553 0 0 0 0.0046167238098291929 -0.023223170460352494 -0.024284559453250226 0 -0.024284559453250226 0.010002740057282411 0 0 0 -0.0033051076007675206 -0.02031398863581399 -0.021878320426622466 0 -0.021878320426622466 0.018013451651937819 0 0 0 -0.00057513424596902958 -0.084000259489761392 -0.018469056668503153 0 -0.018469056668503153 -0.00023312199401193112 0 0 0 -0.021058345370943338 -0.029027656276563618 -0.036794122203788505 0 -0.036794122203788505 -0.0011937252111025032 0 0 0 -0.0075553453719165442 -0.042337464454212381 -0.012130594299787828 0 -0.012130594299787828 -0.0043467520083231292 0 0 0 -0.01167105411563385 -0.051241763070976672 -0.025177739999070026 0 -0.025177739999070026 0.0016367531481421846 0 0 0 -0.012401252480708622 -0.055460892861736055 -0.027600340462901801 0 -0.027600340462901801 -0.009093778278546627 0 0 0 -0.016138667785070671 -0.027582316168406944 -0.040554137347050212 0 -0.040554137347050212 -0.0020611074504125262 0 0 0 -0.0074108559047048536 -0.028416049019491241 -0.04017941066850883 0 -0.04017941066850883 -0.0061400477874251624 0 0 0 -0.0086390242017291285 -0.020386156613945328 -0.040151257892431902 0 -0.040151257892431902 -0.0081145094693290121 0 0 0 -0.0071251665208186266 -0.013912303994870368 -0.039942403003002391 0 -0.039942403003002391 -0.0047480771502779184 0 0 0 -0.0046650952862871686 -0.0064037455538266119 -0.038910411661237987 0 -0.038910411661237987 -0.0063201047136391963 0 0 0 -0.0031809625668665076 -0.044269307557638318 -0.014201168868468894 0 -0.014201168868468894 -0.0242207916489122 0 0 0 -0.01712252480163752 -0.10384520414769238 -0.041300646566351629 0 -0.041300646566351629 -0.0099056439743661073 0 0 0 -0.028437712030514595 -0.032462886541374011 -0.034833668599756784 0 -0.034833668599756784 -0.013699845184487885 0 0 0 -0.011540682931465526 -0.023626929994152446 -0.045124789322213421 0 -0.045124789322213421 0.0081954257466765323 0 0 0 -0.0038578760618689922 -0.016844732122245631 -0.042447436650523029 0 -0.042447436650523029 0.00030873095902017589 0 0 0 -0.00413400029080635 -0.017090757759229788 -0.049429297311654852 0 -0.049429297311654852 0.0069772351295983026 0 0 0 -0.0025283806574079443 -0.02714922361496408 -0.044792859352295045 0 -0.044792859352295045 0.0012659233221652411 0 0 0 -0.0064708250731997374 -0.013928116826704584 -0.050850210959603626 0 -0.050850210959603626 0.0058804219638282085 0 0 0 -0.0020119237157191217 -0.02476831691665958 -0.034615123986680429 0 -0.034615123986680429 0.0019489050739280728 0 0 0 -0.0057048529606827797 -0.01512780815924597 -0.04692156143036566 0 -0.04692156143036566 0.00058310746262058011 0 0 0 -0.0036361751741563753 
</DataArray>
</CellData>
</Piece>
</UnstructuredGrid>
</VTKFile>
