<?xml version="1.0"?>
<VTKFile type="UnstructuredGrid" version="0.1" byte_order="LittleEndian">
<UnstructuredGrid>
<Piece NumberOfPoints="84" NumberOfCells="28">
<Points>
<DataArray type="Float64" NumberOfComponents="3" format="ascii">
0 0 0 0.29166666666652658 0.2916666666668038 0 0 0.33333333333472032 0 0 0 0 0.33333333333250248 0 0 0.29166666666652658 0.2916666666668038 0 0.33333333333250248 0 0 0.66666666666578889 0 0 0.49999999999981742 0.1726190476194705 0 0.33333333333250248 0 0 0.49999999999981742 0.1726190476194705 0 0.29166666666652658 0.2916666666668038 0 0.50000000000004996 0.49999999999997519 0 0.17261904761971569 0.50000000000021494 0 0.29166666666652658 0.2916666666668038 0 0.50000000000004996 0.49999999999997519 0 0.29166666666652658 0.2916666666668038 0 0.49999999999981742 0.1726190476194705 0 0 0.33333333333472032 0 0.29166666666652658 0.2916666666668038 0 0.17261904761971569 0.50000000000021494 0 0 0.66666666666759111 0 0 0.33333333333472032 0 0.17261904761971569 0.50000000000021494 0 0 0.66666666666759111 0 0.17261904761971569 0.50000000000021494 0 0.29166666666684449 0.7083333333334445 0 0 1 0 0.29166666666684449 0.7083333333334445 0 0.33333333333472032 1 0 0 1 0 0 0.66666666666759111 0 0.29166666666684449 0.7083333333334445 0 0.33333333333472032 1 0 0.29166666666684449 0.7083333333334445 0 0.50000000000021227 0.82738095238030207 0 0.50000000000004996 0.49999999999997519 0 0.29166666666684449 0.7083333333334445 0 0.17261904761971569 0.50000000000021494 0 0.50000000000004996 0.49999999999997519 0 0.50000000000021227 0.82738095238030207 0 0.29166666666684449 0.7083333333334445 0 0.50000000000004996 0.49999999999997519 0 0.82738095238054699 0.49999999999982031 0 0.70833333333346027 0.70833333333323512 0 0.50000000000004996 0.49999999999997519 0 0.70833333333346027 0.70833333333323512 0 0.50000000000021227 0.82738095238030207 0 0.66666666666759111 1 0 0.50000000000021227 0.82738095238030207 0 0.70833333333346027 0.70833333333323512 0 0.66666666666759111 1 0 0.33333333333472032 1 0 0.50000000000021227 0.82738095238030207 0 1 1 0 0.70833333333346027 0.70833333333323512 0 1 0.66666666666578889 0 1 1 0 0.66666666666759111 1 0 0.70833333333346027 0.70833333333323512 0 1 0.66666666666578889 0 0.70833333333346027 0.70833333333323512 0 0.82738095238054699 0.49999999999982031 0 1 0.33333333333250248 0 1 0.66666666666578889 0 0.82738095238054699 0.49999999999982031 0 1 0.33333333333250248 0 0.82738095238054699 0.49999999999982031 0 0.70833333333327586 0.2916666666665107 0 1 0 0 0.70833333333327586 0.2916666666665107 0 0.66666666666578889 0 0 1 0 0 1 0.33333333333250248 0 0.70833333333327586 0.2916666666665107 0 0.66666666666578889 0 0 0.70833333333327586 0.2916666666665107 0 0.49999999999981742 0.1726190476194705 0 0.50000000000004996 0.49999999999997519 0 0.70833333333327586 0.2916666666665107 0 0.82738095238054699 0.49999999999982031 0 0.50000000000004996 0.49999999999997519 0 0.49999999999981742 0.1726190476194705 0 0.70833333333327586 0.2916666666665107 0 
</DataArray>
</Points>
<Cells>
<DataArray type="UInt32" Name="connectivity" format="ascii">
0 1 2 3 4 5 6 7 8 9 10 11 12 13 14 15 16 17 18 19 20 21 22 23 24 25 26 27 28 29 30 31 32 33 34 35 36 37 38 39 40 41 42 43 44 45 46 47 48 49 50 51 52 53 54 55 56 57 58 59 60 61 62 63 64 65 66 67 68 69 70 71 72 73 74 75 76 77 78 79 80 81 82 83 
</DataArray>
<DataArray type="UInt32" Name="offsets" format="ascii">
3 6 9 12 15 18 21 24 27 30 33 36 39 42 45 48 51 54 57 60 63 66 69 72 75 78 81 84 
</DataArray>
<DataArray type="UInt32" Name="types" format="ascii">
5 5 5 5 5 5 5 5 5 5 5 5 5 5 5 5 5 5 5 5 5 5 5 5 5 5 5 5 
</DataArray>
</Cells>
<PointData Scalars="" Vectors="displacement," Tensors="">
<DataArray type="Float64" Name="displacement" NumberOfComponents="3" format="ascii">
-8.9699302710547806e-18 -0.0002999999999991305 0 0.13194999999993678 -0.21835000000010235 0 1.143383349692188e-18 -0.24950000000103661 0 -8.9699302710547806e-18 -0.0002999999999991305 0 0.15079999999962404 -0.00029999999999955258 0 0.13194999999993681 -0.21835000000010232 0 0.15079999999962404 -0.00029999999999951702 0 0.3015999999996028 -0.00030000000000047404 0 0.22619999999991763 -0.12935000000031627 0 0.15079999999962404 -0.00029999999999951702 0 0.22619999999991763 -0.12935000000031627 0 0.13194999999993681 -0.21835000000010232 0 0.22620000000002308 -0.37409999999998178 0 0.078092857143159458 -0.37410000000016058 0 0.13194999999993681 -0.21835000000010232 0 0.22620000000002308 -0.37409999999998178 0 0.13194999999993681 -0.21835000000010227 0 0.22619999999991763 -0.12935000000031627 0 1.143383349692188e-18 -0.24950000000103661 0 0.13194999999993681 -0.21835000000010232 0 0.078092857143159458 -0.37410000000016058 0 -2.7098881272672109e-17 -0.49870000000069109 0 1.143383349692188e-18 -0.24950000000103661 0 0.078092857143159458 -0.37410000000016058 0 -2.7098881272672109e-17 -0.49870000000069109 0 0.078092857143159458 -0.37410000000016058 0 0.1319500000000807 -0.52985000000008342 0 -1.1625870268230253e-16 -0.74790000000000023 0 0.1319500000000807 -0.52985000000008342 0 0.15080000000062793 -0.74790000000000056 0 -1.1625870268230253e-16 -0.74790000000000023 0 -2.7098881272672109e-17 -0.49870000000069109 0 0.1319500000000807 -0.52985000000008342 0 0.15080000000062793 -0.74790000000000056 0 0.1319500000000807 -0.52985000000008342 0 0.22620000000009652 -0.61884999999951462 0 0.22620000000002308 -0.37409999999998178 0 0.1319500000000807 -0.52985000000008342 0 0.078092857143159458 -0.37410000000016058 0 0.22620000000002308 -0.37409999999998178 0 0.22620000000009649 -0.61884999999951473 0 0.1319500000000807 -0.52985000000008342 0 0.22620000000002308 -0.37409999999998178 0 0.37430714285695998 -0.37409999999986659 0 0.32045000000005797 -0.52984999999992732 0 0.22620000000002308 -0.37409999999998178 0 0.32045000000005797 -0.52984999999992732 0 0.22620000000009652 -0.61884999999951462 0 0.30160000000041898 -0.7479000000000009 0 0.22620000000009652 -0.61884999999951462 0 0.32045000000005797 -0.52984999999992732 0 0.30160000000041898 -0.7479000000000009 0 0.15080000000062793 -0.74790000000000056 0 0.22620000000009652 -0.61884999999951462 0 0.45240000000000075 -0.74790000000000112 0 0.32045000000005797 -0.52984999999992732 0 0.45240000000000052 -0.49869999999934472 0 0.45240000000000075 -0.74790000000000112 0 0.30160000000041898 -0.7479000000000009 0 0.32045000000005797 -0.52984999999992732 0 0.45240000000000052 -0.49869999999934472 0 0.32045000000005797 -0.52984999999992732 0 0.37430714285695998 -0.37409999999986659 0 0.45240000000000036 -0.24949999999937988 0 0.45240000000000052 -0.49869999999934472 0 0.37430714285695998 -0.37409999999986659 0 0.45240000000000036 -0.24949999999937988 0 0.37430714285695998 -0.37409999999986659 0 0.32044999999997431 -0.21834999999988416 0 0.45240000000000019 -0.00030000000000110478 0 0.32044999999997431 -0.21834999999988416 0 0.3015999999996028 -0.00030000000000047404 0 0.45240000000000019 -0.00030000000000110478 0 0.45240000000000036 -0.24949999999937988 0 0.32044999999997431 -0.21834999999988416 0 0.3015999999996028 -0.00030000000000047404 0 0.32044999999997431 -0.21834999999988416 0 0.22619999999991763 -0.12935000000031627 0 0.22620000000002308 -0.37409999999998178 0 0.32044999999997431 -0.21834999999988416 0 0.37430714285695998 -0.37409999999986659 0 0.22620000000002308 -0.37409999999998178 0 0.22619999999991763 -0.12935000000031627 0 0.32044999999997431 -0.21834999999988416 0 
</DataArray>
</PointData>
<CellData Scalars="displacement_divergence," Vectors="" Tensors="stress,">
<DataArray type="Float64" Name="stress" NumberOfComponents="9" format="ascii">
0.29500000000000015 -3.3306690738754696e-16 0 -3.3306690738754696e-16 -0.70500000000000196 0 0 0 -0.082000000000000378 0.2949999999999996 -2.1821202252545881e-16 0 -2.1821202252545881e-16 -0.70500000000000129 0 0 0 -0.08200000000000035 0.29499999999999971 -5.3012065223678739e-16 0 -5.3012065223678739e-16 -0.70500000000000063 0 0 0 -0.082000000000000184 0.29500000000000065 -4.4408920985006262e-16 0 -4.4408920985006262e-16 -0.7050000000000014 0 0 0 -0.082000000000000142 0.29500000000000104 -4.4003689566031732e-16 0 -4.4003689566031732e-16 -0.70500000000000096 0 0 0 -0.082000000000000017 0.29500000000000065 -6.106226635438361e-16 0 -6.106226635438361e-16 -0.7050000000000004 0 0 0 -0.081999999999999976 0.29500000000000037 -2.2204460492503131e-16 0 -2.2204460492503131e-16 -0.70500000000000096 0 0 0 -0.082000000000000073 0.29500000000000048 -1.1102230246251565e-16 0 -1.1102230246251565e-16 -0.70500000000000074 0 0 0 -0.082000000000000017 0.29500000000000076 -1.1102230246251565e-16 0 -1.1102230246251565e-16 -0.70500000000000163 0 0 0 -0.082000000000000128 0.29500000000000159 -3.3306690738754696e-16 0 -3.3306690738754696e-16 -0.70500000000000052 0 0 0 -0.08199999999999974 0.29500000000000082 -4.4408920985006262e-16 0 -4.4408920985006262e-16 -0.70500000000000052 0 0 0 -0.081999999999999948 0.2950000000000006 -6.6613381477509392e-16 0 -6.6613381477509392e-16 -0.70500000000000029 0 0 0 -0.081999999999999934 0.29500000000000104 -3.8857805861880479e-16 0 -3.8857805861880479e-16 -0.70500000000000096 0 0 0 -0.081999999999999962 0.29500000000000098 -6.6613381477509392e-16 0 -6.6613381477509392e-16 -0.70500000000000107 0 0 0 -0.082000000000000031 0.29500000000000004 -8.0641511979704215e-16 0 -8.0641511979704215e-16 -0.70500000000000007 0 0 0 -0.081999999999999962 0.29499999999999993 -2.2204460492503131e-16 0 -2.2204460492503131e-16 -0.70500000000000163 0 0 0 -0.08200000000000035 0.29500000000000043 3.3306690738754696e-16 0 3.3306690738754696e-16 -0.70500000000000074 0 0 0 -0.082000000000000017 0.29500000000000093 -1.6827742902824393e-16 0 -1.6827742902824393e-16 -0.70499999999999918 0 0 0 -0.081999999999999629 0.29500000000000021 1.1102230246251565e-16 0 1.1102230246251565e-16 -0.70500000000000074 0 0 0 -0.082000000000000073 0.29499999999999987 2.3502496245462054e-16 0 2.3502496245462054e-16 -0.70500000000000052 0 0 0 -0.082000000000000184 0.2949999999999996 -3.0531133177191805e-16 0 -3.0531133177191805e-16 -0.70499999999999963 0 0 0 -0.082000000000000073 0.29499999999999932 0 0 0 -0.70499999999999985 0 0 0 -0.082000000000000142 0.2949999999999996 1.6653345369377348e-16 0 1.6653345369377348e-16 -0.7050000000000004 0 0 0 -0.082000000000000156 0.2950000000000006 -3.1398494915180208e-16 0 -3.1398494915180208e-16 -0.70500000000000063 0 0 0 -0.08199999999999999 0.29500000000000015 -5.5511151231257827e-17 0 -5.5511151231257827e-17 -0.70499999999999974 0 0 0 -0.081999999999999906 0.29499999999999921 -4.4408920985006262e-16 0 -4.4408920985006262e-16 -0.7050000000000004 0 0 0 -0.082000000000000225 0.29500000000000004 -4.4408920985006262e-16 0 -4.4408920985006262e-16 -0.70499999999999996 0 0 0 -0.08199999999999999 0.29499999999999982 -8.8817841970012523e-16 0 -8.8817841970012523e-16 -0.70500000000000052 0 0 0 -0.082000000000000156 
</DataArray>
<DataArray type="Float64" Name="displacement_divergence" format="ascii">
-0.29520000000000129 -0.29520000000000129 -0.29520000000000068 -0.29520000000000068 -0.29520000000000013 -0.29520000000000007 -0.29519999999999991 -0.29520000000000024 -0.29520000000000057 -0.29519999999999902 -0.29519999999999946 -0.29519999999999985 -0.29519999999999991 -0.29520000000000024 -0.29519999999999991 -0.29520000000000102 -0.29519999999999991 -0.29519999999999857 -0.29520000000000035 -0.2952000000000008 -0.29519999999999991 -0.29519999999999974 -0.29520000000000035 -0.29520000000000007 -0.29519999999999957 -0.29520000000000102 -0.2951999999999998 -0.29520000000000046 
</DataArray>
</CellData>
</Piece>
</UnstructuredGrid>
</VTKFile>
