<?xml version="1.0"?>
<VTKFile type="UnstructuredGrid" version="0.1" byte_order="LittleEndian">
<UnstructuredGrid>
<Piece NumberOfPoints="3162" NumberOfCells="1054">
<Points>
<DataArray type="Float64" NumberOfComponents="3" format="ascii">
0.39507969989512881 0.74417394063201048 0 0.42715538333808079 0.70077759375307946 0 0.44764943295894188 0.73752415265401661 0 0.74417394063200648 0.6049203001048884 0 0.70087539567735502 0.57165914616526226 0 0.73752415265401194 0.55235056704108476 0 0.25582605936799319 0.39507969989513358 0 0.2963043386970643 0.4298320229681446 0 0.26247584734598628 0.44764943295894732 0 0.60492030010488373 0.25582605936799729 0 0.57188338999077359 0.29874123486230147 0 0.55175647814720108 0.26104505532086641 0 0.56566515596461675 0.63670464971409091 0 0.61233489393901674 0.60846740003560018 0 0.60879112811253555 0.66592422311595834 0 0.6519524273377173 0.64249931920594539 0 0.60879112811253555 0.66592422311595834 0 0.61233489393901674 0.60846740003560018 0 0.640156794425081 0.43301393728221721 0 0.60122390529523662 0.39097801071820221 0 0.66346942254826746 0.391530810754116 0 0.6424993192059415 0.3480475726622802 0 0.66346942254826746 0.391530810754116 0 0.60122390529523662 0.39097801071820221 0 0.74198804864688339 0.90892718720327403 0 0.77688977118331393 0.94706199857866258 0 0.71789175274016548 0.95136708251202151 0 0.091072812796719582 0.74198804864687795 0 0.052938001421335763 0.77688977118331159 0 0.04863291748797445 0.71789175274016204 0 0.89586000931544074 0.25714619498770419 0 0.94465622530468663 0.23167460333446291 0 0.94915666091748963 0.28320804985299752 0 0.25714619498771307 0.1041399906845497 0 0.23167460333446299 0.05534377469531044 0 0.28320804985300141 0.050843339082505573 0 0.89999999999958358 1 0 0.84999999999965292 1 0 0.90554214442080472 0.95994154153067524 0 0 0.89999999999958358 0 0 0.84999999999965292 0 0.040058458469322648 0.90554214442079806 0 0.040058458469319477 0.094457855579157729 0 0 0.15000000000062411 0 0 0.10000000000041601 0 0.094457855579188163 0.95994154153068711 0 0.15000000000062411 1 0 0.10000000000041601 1 0 0.90554214442081604 0.040058458469347469 0 0.84999999999960507 0 0 0.89999999999973679 0 0 0.95994154153065969 0.90554214442078618 0 1 0.84999999999960507 0 1 0.89999999999973679 0 1 0.099999999999814668 0 1 0.14999999999970359 0 0.95994154153057998 0.094457855579277675 0 0.099999999999814668 0 0 0.14999999999970359 0 0 0.094457855579284614 0.040058458469418363 0 1 0.19999999999955789 0 0.94465622530468663 0.23167460333446291 0 0.96080966346491015 0.18035159017841959 0 0.19999999999955789 0 0 0.23167460333446299 0.05534377469531044 0 0.18035159017842109 0.039190336535090492 0 0.79999999999999982 1 0 0.77688977118331393 0.94706199857866258 0 0.82675923981951416 0.95611053755456221 0 0 0.79999999999999982 0 0.052938001421335763 0.77688977118331159 0 0.043889462445437968 0.82675923981951283 0 1 0.79999999999947335 0 0.96071093996985157 0.81954008780615684 0 0.9442075111696665 0.76777356182390766 0 0.79999999999947335 0 0 0.82050174006822896 0.038839999600956771 0 0.76543419162344684 0.056452228708420968 0 0.20000000000083221 1 0 0.18045991219397989 0.960710939969875 0 0.23222643817617661 0.94420751116970569 0 0 0.20000000000083221 0 0.038839999600931263 0.17949825993190149 0 0.056452228708379938 0.23456580837661581 0 0.50000000000002642 0.7803135888501761 0 0.53770425635794761 0.80104587463999666 0 0.49771727055908782 0.83998685797641781 0 0.2196864111498267 0.50000000000003153 0 0.1989632851005598 0.53769147668950479 0 0.16001314202358469 0.49771727055909287 0 0.78031358885017377 0.49999999999997569 0 0.80106707846564795 0.46230714888029367 0 0.83998574657308889 0.50228528270184081 0 0.49999999999997108 0.21968641114982909 0 0.46229330881044273 0.19890916456654811 0 0.50228272944093777 0.16001314202359701 0 0.79999999999999982 1 0 0.75000000000034661 1 0 0.77688977118331393 0.94706199857866258 0 0 0.79999999999999982 0 0 0.75000000000034661 0 0.052938001421335763 0.77688977118331159 0 1 0.19999999999955789 0 1 0.24999999999941211 0 0.94465622530468663 0.23167460333446291 0 0.19999999999955789 0 0 0.24999999999941211 0 0 0.23167460333446299 0.05534377469531044 0 1 0.74999999999934175 0 1 0.79999999999947335 0 0.9442075111696665 0.76777356182390766 0 0.74999999999934175 0 0 0.79999999999947335 0 0 0.76543419162344684 0.056452228708420968 0 0.25000000000104028 1 0 0.20000000000083221 1 0 0.23222643817617661 0.94420751116970569 0 0 0.25000000000104028 0 0 0.20000000000083221 0 0.056452228708379938 0.23456580837661581 0 1 0.74999999999934175 0 0.9442075111696665 0.76777356182390766 0 0.94635952848698612 0.71209247961721311 0 0.74999999999934175 0 0 0.76543419162344684 0.056452228708420968 0 0.71174922810186925 0.053730171687687178 0 0.25000000000104028 1 0 0.23222643817617661 0.94420751116970569 0 0.28790752038294382 0.94635952848702642 0 0 0.25000000000104028 0 0.056452228708379938 0.23456580837661581 0 0.053730171687646627 0.28825077189828552 0 0.8289812646369813 0.82898126463698818 0 0.87660297360393757 0.8104127896505644 0 0.88962265630811221 0.85311725681459705 0 0.17101873536300011 0.82898126463696109 0 0.18958721034944021 0.87660297360394568 0 0.14688274318541941 0.88962265630811932 0 0.39507969989512881 0.74417394063201048 0 0.44764943295894188 0.73752415265401661 0 0.43306783640023289 0.78031198216144404 0 0.74417394063200648 0.6049203001048884 0 0.73752415265401194 0.55235056704108476 0 0.78031198216143516 0.56693216359979737 0 0.25582605936799319 0.39507969989513358 0 0.26247584734598628 0.44764943295894732 0 0.21968801783855879 0.43306783640023788 0 0.60492030010488373 0.25582605936799729 0 0.55175647814720108 0.26104505532086641 0 0.56683314878414581 0.21944955250104689 0 0.90554214442080472 0.95994154153067524 0 0.84999999999965292 1 0 0.86696410734367158 0.94753096683315619 0 0.040058458469322648 0.90554214442079806 0 0 0.84999999999965292 0 0.052469033166843738 0.86696410734366991 0 0.054872692726595548 0.13410685639845171 0 0 0.15000000000062411 0 0.040058458469319477 0.094457855579157729 0 0.13834721989462789 0.94095916274077984 0 0.15000000000062411 1 0 0.094457855579188163 0.95994154153068711 0 0.86589314360155567 0.054872692726639853 0 0.84999999999960507 0 0 0.90554214442081604 0.040058458469347469 0 0.94095916274074942 0.86165278010542579 0 1 0.84999999999960507 0 0.95994154153065969 0.90554214442078618 0 0.95994154153057998 0.094457855579277675 0 1 0.14999999999970359 0 0.94100406608115506 0.1383574446607955 0 0.094457855579284614 0.040058458469418363 0 0.14999999999970359 0 0 0.1383574446607988 0.058995933918849157 0 0.1104775404132264 0.2631175359816938 0 0.099694771212264055 0.22074048840547039 0 0.15899695163321451 0.22783674912227669 0 0.73688246401832591 0.11047754041323141 0 0.77925951159456153 0.09969477121230251 0 0.77216325087772952 0.15899695163319821 0 0.88949062093135778 0.73694585442531257 0 0.9041449437197947 0.7786886066890556 0 0.839908789927305 0.77106070975262608 0 0.26305414557470391 0.88949062093136155 0 0.22131139331094829 0.9041449437198319 0 0.22893929024737289 0.83990878992727813 0 0.74198804864688339 0.90892718720327403 0 0.71789175274016548 0.95136708251202151 0 0.70475631558365914 0.90098127745102974 0 0.091072812796719582 0.74198804864687795 0 0.04863291748797445 0.71789175274016204 0 0.099018722548963364 0.70475631558365193 0 0.89586000931544074 0.25714619498770419 0 0.94915666091748963 0.28320804985299752 0 0.89886191075654698 0.29506339503703172 0 0.25714619498771307 0.1041399906845497 0 0.28320804985300141 0.050843339082505573 0 0.29506339503703888 0.1011380892434444 0 0.65773042910151891 0.073296788161472337 0 0.62160809078275991 0.1093532031139005 0 0.6048537357103756 0.060530514380187868 0 0.92670321183853355 0.65773042910151081 0 0.89064679688610338 0.6216080907827598 0 0.93946948561981514 0.60485373571037115 0 0.073296788161418117 0.34226957089850552 0 0.10935320311385981 0.37839190921727089 0 0.06053051438015096 0.39514626428972788 0 0.3422695708985129 0.92670321183858773 0 0.37839190921727062 0.89064679688614412 0 0.39514626428973221 0.93946948561985189 0 0.49771727055908782 0.83998685797641781 0 0.53770425635794761 0.80104587463999666 0 0.54047998161173716 0.84333512669480526 0 0.16001314202358469 0.49771727055909287 0 0.1989632851005598 0.53769147668950479 0 0.1566648733051971 0.54047998161174216 0 0.83998574657308889 0.50228528270184081 0 0.80106707846564795 0.46230714888029367 0 0.84333218736938698 0.4595365182652234 0 0.50228272944093777 0.16001314202359701 0 0.46229330881044273 0.19890916456654811 0 0.45952001838826873 0.15666487330524251 0 0.8289812646369813 0.82898126463698818 0 0.88962265630811221 0.85311725681459705 0 0.85174853583809862 0.87705234031428159 0 0.17101873536300011 0.82898126463696109 0 0.14688274318541941 0.88962265630811932 0 0.1229476596857173 0.85174853583809695 0 0.83199780613337848 0.1690131600686714 0 0.8517485358380722 0.12294765968568611 0 0.88777909259956078 0.1484760565886154 0 0.16901316006868169 0.16800219386663079 0 0.12294765968567151 0.14825146416195439 0 0.1484760565886207 0.1122209074004519 0 0.15899695163321451 0.22783674912227669 0 0.099694771212264055 0.22074048840547039 0 0.12587517708284679 0.1889683322666954 0 0.77216325087772952 0.15899695163319821 0 0.77925951159456153 0.09969477121230251 0 0.8110316677333288 0.125875177082863 0 0.83199780613337848 0.1690131600686714 0 0.88777909259956078 0.1484760565886154 0 0.87355793346388477 0.18922011052113649 0 0.16901316006868169 0.16800219386663079 0 0.1484760565886207 0.1122209074004519 0 0.18922011052115781 0.12644206653611201 0 0.32191828326940508 0.76395804595204586 0 0.34270280102445921 0.71672416762035873 0 0.35837423432538362 0.77730446904312345 0 0.76395804595204597 0.67808171673060369 0 0.71518943060973483 0.65679402931717101 0 0.77730446904309636 0.64162576567462737 0 0.2360419540479583 0.32191828326940741 0 0.28473805236128291 0.34355768118673757 0 0.22269553095687891 0.35837423432538801 0 0.67808171673060202 0.23604195404795861 0 0.65679402931716913 0.28481056939027388 0 0.64162576567462404 0.22269553095690481 0 0.26305414557470391 0.88949062093136155 0 0.28790752038294382 0.94635952848702642 0 0.23222643817617661 0.94420751116970569 0 0.1104775404132264 0.2631175359816938 0 0.053730171687646627 0.28825077189828552 0 0.056452228708379938 0.23456580837661581 0 0.88949062093135778 0.73694585442531257 0 0.94635952848698612 0.71209247961721311 0 0.9442075111696665 0.76777356182390766 0 0.73688246401832591 0.11047754041323141 0 0.71174922810186925 0.053730171687687178 0 0.76543419162344684 0.056452228708420968 0 0.22893929024737289 0.83990878992727813 0 0.22131139331094829 0.9041449437198319 0 0.18958721034944021 0.87660297360394568 0 0.839908789927305 0.77106070975262608 0 0.9041449437197947 0.7786886066890556 0 0.87660297360393757 0.8104127896505644 0 0.35837423432538362 0.77730446904312345 0 0.34270280102445921 0.71672416762035873 0 0.39507969989512881 0.74417394063201048 0 0.77730446904309636 0.64162576567462737 0 0.71518943060973483 0.65679402931717101 0 0.74417394063200648 0.6049203001048884 0 0.22269553095687891 0.35837423432538801 0 0.28473805236128291 0.34355768118673757 0 0.25582605936799319 0.39507969989513358 0 0.64162576567462404 0.22269553095690481 0 0.65679402931716913 0.28481056939027388 0 0.60492030010488373 0.25582605936799729 0 0.57484409313590223 0.58437321637184114 0 0.53542397956703913 0.60119875982347493 0 0.53087311892591971 0.55299263141448529 0 1 0.59999999999894682 0 0.93946948561981514 0.60485373571037115 0 0.95638719633882641 0.5599388881718611 0 0.59999999999894682 0 0 0.6048537357103756 0.060530514380187868 0 0.55993888817186677 0.043612803661174412 0 0.40000000000166441 1 0 0.39514626428973221 0.93946948561985189 0 0.44006111182840962 0.9563871963389079 0 0 0.40000000000166441 0 0.06053051438015096 0.39514626428972788 0 0.043612803661092707 0.44006111182840391 0 0.43590673999053309 0.90289902042279657 0 0.48669777060454272 0.93510666819646593 0 0.44006111182840962 0.9563871963389079 0 0.097100979577207341 0.43590673999053198 0 0.064893331803534807 0.48669777060454478 0 0.043612803661092707 0.44006111182840391 0 0.90289902042272274 0.56409326000946114 0 0.93510666819640953 0.51330222939551939 0 0.95638719633882641 0.5599388881718611 0 0.56409326000946236 0.097100979577281268 0 0.5133022293955174 0.064893331803591428 0 0.55993888817186677 0.043612803661174412 0 0.57387636360620708 0.54318431390135336 0 0.57484409313590223 0.58437321637184114 0 0.53087311892591971 0.55299263141448529 0 1 0.69999999999921003 0 1 0.74999999999934175 0 0.94635952848698612 0.71209247961721311 0 0.69999999999921003 0 0 0.74999999999934175 0 0 0.71174922810186925 0.053730171687687178 0 0.30000000000124832 1 0 0.25000000000104028 1 0 0.28790752038294382 0.94635952848702642 0 0 0.30000000000124832 0 0 0.25000000000104028 0 0.053730171687646627 0.28825077189828552 0 0.90289902042272274 0.56409326000946114 0 0.85130417396420255 0.59518556406638579 0 0.85551478316835361 0.54646211938695222 0 0.43590673999053309 0.90289902042279657 0 0.40481452396081791 0.85130421228141606 0 0.45353891581270822 0.85551523377818905 0 0.56409326000946236 0.097100979577281268 0 0.59518547603920147 0.14869578771864489 0 0.54646108418729233 0.1444847662218687 0 0.097100979577207341 0.43590673999053198 0 0.14869578771858949 0.40481452396082068 0 0.1444847662218138 0.45353891581271188 0 0.90289902042272274 0.56409326000946114 0 0.89064679688610338 0.6216080907827598 0 0.85130417396420255 0.59518556406638579 0 0.56409326000946236 0.097100979577281268 0 0.62160809078275991 0.1093532031139005 0 0.59518547603920147 0.14869578771864489 0 0.43590673999053309 0.90289902042279657 0 0.37839190921727062 0.89064679688614412 0 0.40481452396081791 0.85130421228141606 0 0.097100979577207341 0.43590673999053198 0 0.10935320311385981 0.37839190921727089 0 0.14869578771858949 0.40481452396082068 0 0.74417394063200648 0.6049203001048884 0 0.69288637798153729 0.61204665218001397 0 0.70087539567735502 0.57165914616526226 0 0.39507969989512881 0.74417394063201048 0 0.38642358467307758 0.69286258923597266 0 0.42715538333808079 0.70077759375307946 0 0.60492030010488373 0.25582605936799729 0 0.61204665218000809 0.30711362201846659 0 0.57188338999077359 0.29874123486230147 0 0.25582605936799319 0.39507969989513358 0 0.30597655500381687 0.3934681685211931 0 0.2963043386970643 0.4298320229681446 0 0.51484304721220842 0.69707233951836334 0 0.57051182622447827 0.69668652018496713 0 0.54465502325161819 0.74717983044080061 0 0.30292766048163949 0.51484304721221474 0 0.30429740679959738 0.56913905146460098 0 0.25287139441262568 0.54458355434492378 0 0.70015119067225129 0.48481914991727459 0 0.69595787604187809 0.43071000156707989 0 0.74730218607442667 0.45539100053644521 0 0.48378871228000903 0.29745177826977359 0 0.43059486795334201 0.30395973419063538 0 0.45533136021725079 0.2525687312087147 0 0.91838802593870927 0.18172590289757809 0 0.96080966346491015 0.18035159017841959 0 0.94465622530468663 0.23167460333446291 0 0.18172590289758209 0.08161197406129285 0 0.18035159017842109 0.039190336535090492 0 0.23167460333446299 0.05534377469531044 0 0.81709574086843206 0.91318696080656769 0 0.82675923981951416 0.95611053755456221 0 0.77688977118331393 0.94706199857866258 0 0.086813039193431391 0.81709574086842884 0 0.043889462445437968 0.82675923981951283 0 0.052938001421335763 0.77688977118331159 0 0.91838802593884228 0.81827409710237209 0 0.9442075111696665 0.76777356182390766 0 0.96071093996985157 0.81954008780615684 0 0.82118136511706341 0.082875076569723011 0 0.76543419162344684 0.056452228708420968 0 0.82050174006822896 0.038839999600956771 0 0.1817259028976386 0.91838802593888857 0 0.23222643817617661 0.94420751116970569 0 0.18045991219397989 0.960710939969875 0 0.08287507656968085 0.1788186348829835 0 0.056452228708379938 0.23456580837661581 0 0.038839999600931263 0.17949825993190149 0 0.59819537371016407 0.74380966024143391 0 0.54465502325161819 0.74717983044080061 0 0.57051182622447827 0.69668652018496713 0 0.25619033975856881 0.59819537371016862 0 0.25287139441262568 0.54458355434492378 0 0.30429740679959738 0.56913905146460098 0 0.74380966024142703 0.40180462628984132 0 0.74730218607442667 0.45539100053644521 0 0.69595787604187809 0.43071000156707989 0 0.40180462628983732 0.2561903397585753 0 0.45533136021725079 0.2525687312087147 0 0.43059486795334201 0.30395973419063538 0 0.8312019486901514 0.72745002167959472 0 0.77998481823117694 0.71397317153691997 0 0.80847852346122429 0.67208120229789559 0 0.27254997832041528 0.8312019486901443 0 0.28602682846308641 0.77998481823117594 0 0.32791879770213411 0.80847852346120164 0 0.72767516840721058 0.16853767177393791 0 0.71397317153692708 0.22001518176882201 0 0.67208120229787616 0.1915214765387884 0 0.1685376717739448 0.27232483159280108 0 0.22001518176882229 0.28602682846307981 0 0.19152147653881049 0.32791879770215432 0 0.85607519768343354 0.69380468830529196 0 0.8312019486901514 0.72745002167959472 0 0.80847852346122429 0.67208120229789559 0 0.69379929796456197 0.14392209494791061 0 0.72767516840721058 0.16853767177393791 0 0.67208120229787616 0.1915214765387884 0 0.30619531169472608 0.85607519768342955 0 0.27254997832041528 0.8312019486901443 0 0.32791879770213411 0.80847852346120164 0 0.14392209494791439 0.30620070203545702 0 0.1685376717739448 0.27232483159280108 0 0.19152147653881049 0.32791879770215432 0 0.6519524273377173 0.64249931920594539 0 0.69288637798153729 0.61204665218001397 0 0.71518943060973483 0.65679402931717101 0 0.35944937237716967 0.65164789808436319 0 0.38642358467307758 0.69286258923597266 0 0.34270280102445921 0.71672416762035873 0 0.6424993192059415 0.3480475726622802 0 0.61204665218000809 0.30711362201846659 0 0.65679402931716913 0.28481056939027388 0 0.34804757266227387 0.35750068079406011 0 0.30597655500381687 0.3934681685211931 0 0.28473805236128291 0.34355768118673757 0 0.66919832404887702 0.81820888699730587 0 0.66923299355723143 0.8804077449518628 0 0.63969251517836323 0.84598529912890386 0 0.70085728320704077 0.84350379029875056 0 0.66923299355723143 0.8804077449518628 0 0.66919832404887702 0.81820888699730587 0 0.1817911130026923 0.66919832404888702 0 0.1195922550481313 0.66923299355722787 0 0.1540147008710982 0.63969251517836956 0 0.1564962097012354 0.70085728320703999 0 0.1195922550481313 0.66923299355722787 0 0.1817911130026923 0.66919832404888702 0 0.8182088869973061 0.33080167595111531 0 0.88040774495187946 0.33076700644278889 0 0.84598529912889664 0.36030748482164038 0 0.84350379029877964 0.29914271679296989 0 0.88040774495187946 0.33076700644278889 0 0.8182088869973061 0.33080167595111531 0 0.33080167595110582 0.18179111300269291 0 0.33076700644279272 0.1195922550481146 0 0.3603074848216346 0.15401470087110539 0 0.29914271679297122 0.15649620970120659 0 0.33076700644279272 0.1195922550481146 0 0.33080167595110582 0.18179111300269291 0 0.49189101320880302 0.59024331187324797 0 0.51172471858873747 0.64015771271794875 0 0.45517457031814612 0.62743100079604397 0 0.54901591374940373 0.42306523525165751 0 0.5047849391802508 0.40719950955717021 0 0.54715635490880632 0.37829016026862072 0 0.43590673999053309 0.90289902042279657 0 0.48758069708049379 0.89080072540186539 0 0.48669777060454272 0.93510666819646593 0 0.097100979577207341 0.43590673999053198 0 0.1091992745981364 0.48758069708049778 0 0.064893331803534807 0.48669777060454478 0 0.90289902042272274 0.56409326000946114 0 0.89079805168298443 0.51242544533572376 0 0.93510666819640953 0.51330222939551939 0 0.56409326000946236 0.097100979577281268 0 0.51241930291950477 0.1091992745981813 0 0.5133022293955174 0.064893331803591428 0 0.49189101320880302 0.59024331187324797 0 0.53542397956703913 0.60119875982347493 0 0.51172471858873747 0.64015771271794875 0 0.56566515596461675 0.63670464971409091 0 0.51172471858873747 0.64015771271794875 0 0.53542397956703913 0.60119875982347493 0 0.65773042910151891 0.073296788161472337 0 0.66251865414987876 0.1160340021949529 0 0.62160809078275991 0.1093532031139005 0 0.92670321183853355 0.65773042910151081 0 0.88396545633132484 0.6625197322180193 0 0.89064679688610338 0.6216080907827598 0 0.3422695708985129 0.92670321183858773 0 0.33748026778199908 0.88396545633134682 0 0.37839190921727062 0.89064679688614412 0 0.073296788161418117 0.34226957089850552 0 0.11603400219493119 0.33748134585014028 0 0.10935320311385981 0.37839190921727089 0 0.8289812646369813 0.82898126463698818 0 0.79422489417873421 0.79640925234634441 0 0.839908789927305 0.77106070975262608 0 0.17101873536300011 0.82898126463696109 0 0.20359074765364421 0.79422489417871855 0 0.22893929024737289 0.83990878992727813 0 0.83199780613337848 0.1690131600686714 0 0.80027482104603809 0.20596721135052129 0 0.77216325087772952 0.15899695163319821 0 0.16901316006868169 0.16800219386663079 0 0.20596721135052939 0.19972517895396219 0 0.15899695163321451 0.22783674912227669 0 0.84598529912884157 0.63969251517827153 0 0.80847852346122429 0.67208120229789559 0 0.8028306815476034 0.61296984760642026 0 0.36030748482174152 0.84598529912882459 0 0.32791879770213411 0.80847852346120164 0 0.38703015239361932 0.80283068154761972 0 0.63969251517826664 0.15401470087115929 0 0.67208120229787616 0.1915214765387884 0 0.61296984760641449 0.19716931845240021 0 0.15401470087117619 0.36030748482174652 0 0.19152147653881049 0.32791879770215432 0 0.197169318452384 0.38703015239362498 0 0.61233489393901674 0.60846740003560018 0 0.61866949026800744 0.55492322767366287 0 0.65501639383771026 0.594528181397324 0 0.74198804864688339 0.90892718720327403 0 0.78020430794084783 0.88768307197553598 0 0.77688977118331393 0.94706199857866258 0 0.091072812796719582 0.74198804864687795 0 0.11231692802445629 0.78020430794084028 0 0.052938001421335763 0.77688977118331159 0 0.81709574086843206 0.91318696080656769 0 0.77688977118331393 0.94706199857866258 0 0.78020430794084783 0.88768307197553598 0 0.086813039193431391 0.81709574086842884 0 0.052938001421335763 0.77688977118331159 0 0.11231692802445629 0.78020430794084028 0 0.73982803480991577 0.79629608696991705 0 0.79422489417873421 0.79640925234634441 0 0.78284912262770068 0.83746308049763585 0 0.8289812646369813 0.82898126463698818 0 0.78284912262770068 0.83746308049763585 0 0.79422489417873421 0.79640925234634441 0 0.20370391303007401 0.73982803480989479 0 0.20359074765364421 0.79422489417871855 0 0.16253691950235041 0.78284912262768558 0 0.17101873536300011 0.82898126463696109 0 0.16253691950235041 0.78284912262768558 0 0.20359074765364421 0.79422489417871855 0 0.79629608696994103 0.26017196519011448 0 0.80027482104603809 0.20596721135052129 0 0.84534053180161173 0.2262639405833009 0 0.83199780613337848 0.1690131600686714 0 0.84534053180161173 0.2262639405833009 0 0.80027482104603809 0.20596721135052129 0 0.26017196519013502 0.20370391303005 0 0.20596721135052939 0.19972517895396219 0 0.22626394058331961 0.15465946819838111 0 0.16901316006868169 0.16800219386663079 0 0.22626394058331961 0.15465946819838111 0 0.20596721135052939 0.19972517895396219 0 0.90045039720880915 0.9020090423547924 0 0.94156647488775558 0.94156647488774259 0 0.90554214442080472 0.95994154153067524 0 0.90082758526900886 0.098076845682916511 0 0.94156647488778256 0.058433525112256718 0 0.95994154153057998 0.094457855579277675 0 0.90082758526900886 0.098076845682916511 0 0.90554214442081604 0.040058458469347469 0 0.94156647488778256 0.058433525112256718 0 0.097990957645208238 0.90045039720880915 0 0.058433525112254137 0.94156647488774581 0 0.040058458469322648 0.90554214442079806 0 0.90045039720880915 0.9020090423547924 0 0.95994154153065969 0.90554214442078618 0 0.94156647488775558 0.94156647488774259 0 0.098076845682915317 0.099172414730993488 0 0.058433525112266523 0.058433525112214509 0 0.094457855579284614 0.040058458469418363 0 0.098076845682915317 0.099172414730993488 0 0.040058458469319477 0.094457855579157729 0 0.058433525112266523 0.058433525112214509 0 0.097990957645208238 0.90045039720880915 0 0.094457855579188163 0.95994154153068711 0 0.058433525112254137 0.94156647488774581 0 0.90289902042272274 0.56409326000946114 0 0.93946948561981514 0.60485373571037115 0 0.89064679688610338 0.6216080907827598 0 0.43590673999053309 0.90289902042279657 0 0.39514626428973221 0.93946948561985189 0 0.37839190921727062 0.89064679688614412 0 0.56409326000946236 0.097100979577281268 0 0.6048537357103756 0.060530514380187868 0 0.62160809078275991 0.1093532031139005 0 0.097100979577207341 0.43590673999053198 0 0.06053051438015096 0.39514626428972788 0 0.10935320311385981 0.37839190921727089 0 0.6519524273377173 0.64249931920594539 0 0.64518564541690571 0.69601563325001548 0 0.60879112811253555 0.66592422311595834 0 0.35944937237716967 0.65164789808436319 0 0.30421635384321521 0.64514939193436716 0 0.33231497408081678 0.60779218732873663 0 0.6424993192059415 0.3480475726622802 0 0.69601563325001248 0.35481435458309712 0 0.66346942254826746 0.391530810754116 0 0.34804757266227387 0.35750068079406011 0 0.35481435458309307 0.30398436674998969 0 0.39120887188745579 0.33407577688404289 0 1 0.5499999999988151 0 1 0.59999999999894682 0 0.95638719633882641 0.5599388881718611 0 0.5499999999988151 0 0 0.59999999999894682 0 0 0.55993888817186677 0.043612803661174412 0 0.45000000000187229 1 0 0.40000000000166441 1 0 0.44006111182840962 0.9563871963389079 0 0 0.45000000000187229 0 0 0.40000000000166441 0 0.043612803661092707 0.44006111182840391 0 1 0.049999999999899652 0 0.95994154153057998 0.094457855579277675 0 0.94156647488778256 0.058433525112256718 0 0.049999999999899652 0 0 0.094457855579284614 0.040058458469418363 0 0.058433525112266523 0.058433525112214509 0 0.94999999999986839 0 0 0.94156647488778256 0.058433525112256718 0 0.90554214442081604 0.040058458469347469 0 1 0.94999999999986839 0 0.94156647488775558 0.94156647488774259 0 0.95994154153065969 0.90554214442078618 0 0.94999999999979179 1 0 0.90554214442080472 0.95994154153067524 0 0.94156647488775558 0.94156647488774259 0 0 0.94999999999979179 0 0.040058458469322648 0.90554214442079806 0 0.058433525112254137 0.94156647488774581 0 0 0.050000000000207989 0 0.058433525112266523 0.058433525112214509 0 0.040058458469319477 0.094457855579157729 0 0.050000000000207989 1 0 0.058433525112254137 0.94156647488774581 0 0.094457855579188163 0.95994154153068711 0 0.55000000000173355 1 0 0.55307204985744796 0.94819812235491685 0 0.5931441817276254 0.95886012268751675 0 0 0.55000000000173355 0 0.051801877645083663 0.55307204985745195 0 0.041139877312483641 0.59314418172763017 0 1 0.44999999999882923 0 0.94812782820415209 0.44708943904932719 0 0.95886012268748921 0.4068558182724159 0 0.44999999999882923 0 0 0.44692795014265252 0.051801877645060238 0 0.40685581827241191 0.041139877312511682 0 0.83199780613337848 0.1690131600686714 0 0.77216325087772952 0.15899695163319821 0 0.8110316677333288 0.125875177082863 0 0.16901316006868169 0.16800219386663079 0 0.15899695163321451 0.22783674912227669 0 0.12587517708284679 0.1889683322666954 0 0.73982803480991577 0.79629608696991705 0 0.74154628962857594 0.86274820500026039 0 0.70085728320704077 0.84350379029875056 0 0.20370391303007401 0.73982803480989479 0 0.13725179499972981 0.74154628962856628 0 0.1564962097012354 0.70085728320703999 0 0.79629608696994103 0.26017196519011448 0 0.85389826602741015 0.26318949769600392 0 0.84350379029877964 0.29914271679296989 0 0.26017196519013502 0.20370391303005 0 0.26318949769601319 0.14610173397257309 0 0.29914271679297122 0.15649620970120659 0 0.53432142347292233 0.88563193847251998 0 0.48758069708049379 0.89080072540186539 0 0.49771727055908782 0.83998685797641781 0 0.1143680615274819 0.53432142347292733 0 0.1091992745981364 0.48758069708049778 0 0.16001314202358469 0.49771727055909287 0 0.88561059063756964 0.46572761956237563 0 0.89079805168298443 0.51242544533572376 0 0.83998574657308889 0.50228528270184081 0 0.46567857652706018 0.1143680615275231 0 0.51241930291950477 0.1091992745981813 0 0.50228272944093777 0.16001314202359701 0 0.1104775404132264 0.2631175359816938 0 0.099492119481027347 0.30746398533281638 0 0.053730171687646627 0.28825077189828552 0 0.26305414557470391 0.88949062093136155 0 0.30738136326657722 0.90051880305435028 0 0.28790752038294382 0.94635952848702642 0 0.73688246401832591 0.11047754041323141 0 0.69253601466723103 0.09949211948105087 0 0.71174922810186925 0.053730171687687178 0 0.88949062093135778 0.73694585442531257 0 0.90051880305432697 0.69261863673346957 0 0.94635952848698612 0.71209247961721311 0 0.77998481823117694 0.71397317153691997 0 0.76395804595204597 0.67808171673060369 0 0.80847852346122429 0.67208120229789559 0 0.28602682846308641 0.77998481823117594 0 0.32191828326940508 0.76395804595204586 0 0.32791879770213411 0.80847852346120164 0 0.71397317153692708 0.22001518176882201 0 0.67808171673060202 0.23604195404795861 0 0.67208120229787616 0.1915214765387884 0 0.22001518176882229 0.28602682846307981 0 0.2360419540479583 0.32191828326940741 0 0.19152147653881049 0.32791879770215432 0 0.8289812646369813 0.82898126463698818 0 0.839908789927305 0.77106070975262608 0 0.87660297360393757 0.8104127896505644 0 0.17101873536300011 0.82898126463696109 0 0.22893929024737289 0.83990878992727813 0 0.18958721034944021 0.87660297360394568 0 0.66548584431530877 0.55616712808283064 0 0.64455163611866495 0.50369301794551069 0 0.69798396601998558 0.5289734597937793 0 0.70015119067225129 0.48481914991727459 0 0.69798396601998558 0.5289734597937793 0 0.64455163611866495 0.50369301794551069 0 0.77998481823117694 0.71397317153691997 0 0.73984939806388494 0.70740600291923139 0 0.76395804595204597 0.67808171673060369 0 0.28602682846308641 0.77998481823117594 0 0.2925512105451914 0.73997990291173188 0 0.32191828326940508 0.76395804595204586 0 0.71397317153692708 0.22001518176882201 0 0.70740600291923772 0.26015060193611528 0 0.67808171673060202 0.23604195404795861 0 0.22001518176882229 0.28602682846307981 0 0.26014443552207939 0.29262390443653519 0 0.2360419540479583 0.32191828326940741 0 0.90045039720880915 0.9020090423547924 0 0.90554214442080472 0.95994154153067524 0 0.86696410734367158 0.94753096683315619 0 0.097990957645208238 0.90045039720880915 0 0.040058458469322648 0.90554214442079806 0 0.052469033166843738 0.86696410734366991 0 0.90082758526900886 0.098076845682916511 0 0.95994154153057998 0.094457855579277675 0 0.94100406608115506 0.1383574446607955 0 0.90045039720880915 0.9020090423547924 0 0.94095916274074942 0.86165278010542579 0 0.95994154153065969 0.90554214442078618 0 0.90082758526900886 0.098076845682916511 0 0.86589314360155567 0.054872692726639853 0 0.90554214442081604 0.040058458469347469 0 0.098076845682915317 0.099172414730993488 0 0.094457855579284614 0.040058458469418363 0 0.1383574446607988 0.058995933918849157 0 0.097990957645208238 0.90045039720880915 0 0.13834721989462789 0.94095916274077984 0 0.094457855579188163 0.95994154153068711 0 0.098076845682915317 0.099172414730993488 0 0.054872692726595548 0.13410685639845171 0 0.040058458469319477 0.094457855579157729 0 0.54901591374940373 0.42306523525165751 0 0.54715635490880632 0.37829016026862072 0 0.60122390529523662 0.39097801071820221 0 0.49854341599767982 0.37075914768127122 0 0.54715635490880632 0.37829016026862072 0 0.5047849391802508 0.40719950955717021 0 0.66548584431530877 0.55616712808283064 0 0.65501639383771026 0.594528181397324 0 0.61866949026800744 0.55492322767366287 0 0.50000000000002642 0.7803135888501761 0 0.49771727055908782 0.83998685797641781 0 0.46593838964869061 0.80781872835503554 0 0.2196864111498267 0.50000000000003153 0 0.16001314202358469 0.49771727055909287 0 0.19218127164496679 0.46593838964869538 0 0.78031358885017377 0.49999999999997569 0 0.83998574657308889 0.50228528270184081 0 0.80781854240107975 0.53406203754901738 0 0.49999999999997108 0.21968641114982909 0 0.50228272944093777 0.16001314202359701 0 0.53404982287327418 0.19215288291432539 0 0.70085728320704077 0.84350379029875056 0 0.74154628962857594 0.86274820500026039 0 0.70475631558365914 0.90098127745102974 0 0.1564962097012354 0.70085728320703999 0 0.13725179499972981 0.74154628962856628 0 0.099018722548963364 0.70475631558365193 0 0.84350379029877964 0.29914271679296989 0 0.85389826602741015 0.26318949769600392 0 0.89886191075654698 0.29506339503703172 0 0.29914271679297122 0.15649620970120659 0 0.26318949769601319 0.14610173397257309 0 0.29506339503703888 0.1011380892434444 0 0.74417394063200648 0.6049203001048884 0 0.71518943060973483 0.65679402931717101 0 0.69288637798153729 0.61204665218001397 0 0.39507969989512881 0.74417394063201048 0 0.34270280102445921 0.71672416762035873 0 0.38642358467307758 0.69286258923597266 0 0.60492030010488373 0.25582605936799729 0 0.65679402931716913 0.28481056939027388 0 0.61204665218000809 0.30711362201846659 0 0.25582605936799319 0.39507969989513358 0 0.28473805236128291 0.34355768118673757 0 0.30597655500381687 0.3934681685211931 0 0.88949062093135778 0.73694585442531257 0 0.839908789927305 0.77106070975262608 0 0.8312019486901514 0.72745002167959472 0 0.73688246401832591 0.11047754041323141 0 0.77216325087772952 0.15899695163319821 0 0.72767516840721058 0.16853767177393791 0 0.26305414557470391 0.88949062093136155 0 0.22893929024737289 0.83990878992727813 0 0.27254997832041528 0.8312019486901443 0 0.1104775404132264 0.2631175359816938 0 0.15899695163321451 0.22783674912227669 0 0.1685376717739448 0.27232483159280108 0 0.61233489393901674 0.60846740003560018 0 0.57484409313590223 0.58437321637184114 0 0.61866949026800744 0.55492322767366287 0 0.43565339604028508 0.55159384357101338 0 0.39982789553993509 0.53462762214740622 0 0.45293656999117771 0.51494832297079129 0 0.41009598069569558 0.49083935749285379 0 0.45293656999117771 0.51494832297079129 0 0.39982789553993509 0.53462762214740622 0 0.4434591735942961 0.66641640622551224 0 0.40564717507982689 0.65626423320524974 0 0.45517457031814612 0.62743100079604397 0 0.40653508887824003 0.61580573377480397 0 0.45517457031814612 0.62743100079604397 0 0.40564717507982689 0.65626423320524974 0 0.89586000931544074 0.25714619498770419 0 0.84534053180161173 0.2262639405833009 0 0.89556054516486661 0.21720615046483649 0 0.25714619498771307 0.1041399906845497 0 0.22626394058331961 0.15465946819838111 0 0.21720615046484709 0.1044394548351292 0 0.41009598069569558 0.49083935749285379 0 0.35815651743779398 0.51113440447909086 0 0.37702386074717259 0.45819417564476811 0 0.75000000000034661 1 0 0.71789175274016548 0.95136708251202151 0 0.77688977118331393 0.94706199857866258 0 0 0.75000000000034661 0 0.04863291748797445 0.71789175274016204 0 0.052938001421335763 0.77688977118331159 0 1 0.24999999999941211 0 0.94915666091748963 0.28320804985299752 0 0.94465622530468663 0.23167460333446291 0 0.24999999999941211 0 0 0.28320804985300141 0.050843339082505573 0 0.23167460333446299 0.05534377469531044 0 0.90289902042272274 0.56409326000946114 0 0.95638719633882641 0.5599388881718611 0 0.93946948561981514 0.60485373571037115 0 0.56409326000946236 0.097100979577281268 0 0.55993888817186677 0.043612803661174412 0 0.6048537357103756 0.060530514380187868 0 0.43590673999053309 0.90289902042279657 0 0.44006111182840962 0.9563871963389079 0 0.39514626428973221 0.93946948561985189 0 0.097100979577207341 0.43590673999053198 0 0.043612803661092707 0.44006111182840391 0 0.06053051438015096 0.39514626428972788 0 0.40653508887824003 0.61580573377480397 0 0.40468198875170619 0.57637931869191572 0 0.45030222762303879 0.58443295115431027 0 0.43301393728221038 0.35984320557492139 0 0.43059486795334201 0.30395973419063538 0 0.47253211736503098 0.34081710830804929 0 0.48378871228000903 0.29745177826977359 0 0.47253211736503098 0.34081710830804929 0 0.43059486795334201 0.30395973419063538 0 0.65000000000104008 1 0 0.60000000000138687 1 0 0.63753756910470316 0.95578163339252209 0 0 0.65000000000104008 0 0 0.60000000000138687 0 0.04421836660747535 0.63753756910470205 0 1 0.34999999999912063 0 1 0.3999999999989749 0 0.95581270756939096 0.36248656652865863 0 0.34999999999912063 0 0 0.3999999999989749 0 0 0.36246243089534252 0.044218366607477223 0 0.73982803480991577 0.79629608696991705 0 0.74917861927654894 0.74229989257760443 0 0.78651189793386345 0.75664155808652755 0 0.20370391303007401 0.73982803480989479 0 0.25770010742238642 0.74917861927655205 0 0.24335844191347281 0.78651189793387466 0 0.79629608696994103 0.26017196519011448 0 0.74229989257762263 0.250821380723454 0 0.7582555232258138 0.2115548431873896 0 0.26017196519013502 0.20370391303005 0 0.25082138072344978 0.25770010742236849 0 0.2115548431873881 0.2417444767741872 0 1 0.049999999999899652 0 0.94156647488778256 0.058433525112256718 0 0.96763014295114425 0.032369857048773903 0 0.049999999999899652 0 0 0.058433525112266523 0.058433525112214509 0 0.032369857048753323 0.032369857048862027 0 0.94999999999986839 0 0 0.96763014295114425 0.032369857048773903 0 0.94156647488778256 0.058433525112256718 0 0 0.050000000000207989 0 0.032369857048753323 0.032369857048862027 0 0.058433525112266523 0.058433525112214509 0 1 0.94999999999986839 0 0.96763014295120153 0.96763014295122851 0 0.94156647488775558 0.94156647488774259 0 0.94999999999979179 1 0 0.94156647488775558 0.94156647488774259 0 0.96763014295120153 0.96763014295122851 0 0.050000000000207989 1 0 0.030452409610489669 0.96954759038951022 0 0.058433525112254137 0.94156647488774581 0 0 0.94999999999979179 0 0.058433525112254137 0.94156647488774581 0 0.030452409610489669 0.96954759038951022 0 0.90045039720880915 0.9020090423547924 0 0.88962265630811221 0.85311725681459705 0 0.94095916274074942 0.86165278010542579 0 0.097990957645208238 0.90045039720880915 0 0.14688274318541941 0.88962265630811932 0 0.13834721989462789 0.94095916274077984 0 0.91838802593884228 0.81827409710237209 0 0.94095916274074942 0.86165278010542579 0 0.88962265630811221 0.85311725681459705 0 0.91838802593870927 0.18172590289757809 0 0.88777909259956078 0.1484760565886154 0 0.94100406608115506 0.1383574446607955 0 0.1817259028976386 0.91838802593888857 0 0.13834721989462789 0.94095916274077984 0 0.14688274318541941 0.88962265630811932 0 0.18172590289758209 0.08161197406129285 0 0.1484760565886207 0.1122209074004519 0 0.1383574446607988 0.058995933918849157 0 0.90082758526900886 0.098076845682916511 0 0.94100406608115506 0.1383574446607955 0 0.88777909259956078 0.1484760565886154 0 0.098076845682915317 0.099172414730993488 0 0.1383574446607988 0.058995933918849157 0 0.1484760565886207 0.1122209074004519 0 0.57387636360620708 0.54318431390135336 0 0.61866949026800744 0.55492322767366287 0 0.57484409313590223 0.58437321637184114 0 0.60122390529523662 0.39097801071820221 0 0.54715635490880632 0.37829016026862072 0 0.59596170682035776 0.34609402305862419 0 0.38703015239361932 0.80283068154761972 0 0.32791879770213411 0.80847852346120164 0 0.35837423432538362 0.77730446904312345 0 0.8028306815476034 0.61296984760642026 0 0.80847852346122429 0.67208120229789559 0 0.77730446904309636 0.64162576567462737 0 0.197169318452384 0.38703015239362498 0 0.19152147653881049 0.32791879770215432 0 0.22269553095687891 0.35837423432538801 0 0.61296984760641449 0.19716931845240021 0 0.67208120229787616 0.1915214765387884 0 0.64162576567462404 0.22269553095690481 0 0.39419886675318527 0.41912225240070788 0 0.37702386074717259 0.45819417564476811 0 0.35481422397128459 0.40312981465069342 0 0.33382663527330159 0.44130125047503482 0 0.35481422397128459 0.40312981465069342 0 0.37702386074717259 0.45819417564476811 0 0.40653508887824003 0.61580573377480397 0 0.40564717507982689 0.65626423320524974 0 0.35944937237716967 0.65164789808436319 0 0.53432142347292233 0.88563193847251998 0 0.49771727055908782 0.83998685797641781 0 0.54047998161173716 0.84333512669480526 0 0.1143680615274819 0.53432142347292733 0 0.16001314202358469 0.49771727055909287 0 0.1566648733051971 0.54047998161174216 0 0.88561059063756964 0.46572761956237563 0 0.83998574657308889 0.50228528270184081 0 0.84333218736938698 0.4595365182652234 0 0.46567857652706018 0.1143680615275231 0 0.50228272944093777 0.16001314202359701 0 0.45952001838826873 0.15666487330524251 0 0.37104651296145419 0.60545170748311072 0 0.40653508887824003 0.61580573377480397 0 0.35944937237716967 0.65164789808436319 0 0.6519524273377173 0.64249931920594539 0 0.71518943060973483 0.65679402931717101 0 0.6768914574865772 0.67861120078714243 0 0.35944937237716967 0.65164789808436319 0 0.34270280102445921 0.71672416762035873 0 0.32259853082073792 0.67670072609835186 0 0.6424993192059415 0.3480475726622802 0 0.65679402931716913 0.28481056939027388 0 0.6786112007871401 0.32310854251343019 0 0.34804757266227387 0.35750068079406011 0 0.28473805236128291 0.34355768118673757 0 0.3231032570156932 0.32141443408924047 0 0.73982803480991577 0.79629608696991705 0 0.70085728320704077 0.84350379029875056 0 0.69892030930712212 0.7971997999085858 0 0.20370391303007401 0.73982803480989479 0 0.1564962097012354 0.70085728320703999 0 0.2028002000914135 0.69892030930711557 0 0.79629608696994103 0.26017196519011448 0 0.84350379029877964 0.29914271679296989 0 0.7971997999085878 0.3010796906928917 0 0.26017196519013502 0.20370391303005 0 0.29914271679297122 0.15649620970120659 0 0.30107969069289831 0.20280020009141189 0 0.43301393728221038 0.35984320557492139 0 0.42930823106401639 0.40626685012722968 0 0.39222057657781068 0.38067796690227418 0 0.73982803480991577 0.79629608696991705 0 0.78284912262770068 0.83746308049763585 0 0.74154628962857594 0.86274820500026039 0 0.20370391303007401 0.73982803480989479 0 0.16253691950235041 0.78284912262768558 0 0.13725179499972981 0.74154628962856628 0 0.79629608696994103 0.26017196519011448 0 0.84534053180161173 0.2262639405833009 0 0.85389826602741015 0.26318949769600392 0 0.26017196519013502 0.20370391303005 0 0.22626394058331961 0.15465946819838111 0 0.26318949769601319 0.14610173397257309 0 0.56566515596461675 0.63670464971409091 0 0.57484409313590223 0.58437321637184114 0 0.61233489393901674 0.60846740003560018 0 0.84598529912884157 0.63969251517827153 0 0.85607519768343354 0.69380468830529196 0 0.80847852346122429 0.67208120229789559 0 0.63969251517826664 0.15401470087115929 0 0.69379929796456197 0.14392209494791061 0 0.67208120229787616 0.1915214765387884 0 0.36030748482174152 0.84598529912882459 0 0.30619531169472608 0.85607519768342955 0 0.32791879770213411 0.80847852346120164 0 0.15401470087117619 0.36030748482174652 0 0.14392209494791439 0.30620070203545702 0 0.19152147653881049 0.32791879770215432 0 0.20370391303007401 0.73982803480989479 0 0.24335844191347281 0.78651189793387466 0 0.20359074765364421 0.79422489417871855 0 0.73982803480991577 0.79629608696991705 0 0.78651189793386345 0.75664155808652755 0 0.79422489417873421 0.79640925234634441 0 0.26017196519013502 0.20370391303005 0 0.2115548431873881 0.2417444767741872 0 0.20596721135052939 0.19972517895396219 0 0.79629608696994103 0.26017196519011448 0 0.7582555232258138 0.2115548431873896 0 0.80027482104603809 0.20596721135052129 0 0.51172471858873747 0.64015771271794875 0 0.47818752133962877 0.66454462905280853 0 0.45517457031814612 0.62743100079604397 0 0.54901591374940373 0.42306523525165751 0 0.60122390529523662 0.39097801071820221 0 0.59313386551587477 0.43977047843653239 0 0.640156794425081 0.43301393728221721 0 0.59313386551587477 0.43977047843653239 0 0.60122390529523662 0.39097801071820221 0 0.70252050881959183 0.70358884261915833 0 0.71518943060973483 0.65679402931717101 0 0.73984939806388494 0.70740600291923139 0 0.29641115738084339 0.70252050881958938 0 0.34270280102445921 0.71672416762035873 0 0.2925512105451914 0.73997990291173188 0 0.76395804595204597 0.67808171673060369 0 0.73984939806388494 0.70740600291923139 0 0.71518943060973483 0.65679402931717101 0 0.32191828326940508 0.76395804595204586 0 0.2925512105451914 0.73997990291173188 0 0.34270280102445921 0.71672416762035873 0 0.70358884261915744 0.29747949118041561 0 0.65679402931716913 0.28481056939027388 0 0.70740600291923772 0.26015060193611528 0 0.29747949118041711 0.2964111573808435 0 0.28473805236128291 0.34355768118673757 0 0.26014443552207939 0.29262390443653519 0 0.67808171673060202 0.23604195404795861 0 0.70740600291923772 0.26015060193611528 0 0.65679402931716913 0.28481056939027388 0 0.2360419540479583 0.32191828326940741 0 0.26014443552207939 0.29262390443653519 0 0.28473805236128291 0.34355768118673757 0 0.74198804864688339 0.90892718720327403 0 0.70475631558365914 0.90098127745102974 0 0.74154628962857594 0.86274820500026039 0 0.091072812796719582 0.74198804864687795 0 0.099018722548963364 0.70475631558365193 0 0.13725179499972981 0.74154628962856628 0 0.89586000931544074 0.25714619498770419 0 0.89886191075654698 0.29506339503703172 0 0.85389826602741015 0.26318949769600392 0 0.25714619498771307 0.1041399906845497 0 0.29506339503703888 0.1011380892434444 0 0.26318949769601319 0.14610173397257309 0 0.59819537371016407 0.74380966024143391 0 0.64203711532612107 0.74316477213290444 0 0.61896574319320252 0.795216048370321 0 0.66820316019503978 0.77769800602796979 0 0.61896574319320252 0.795216048370321 0 0.64203711532612107 0.74316477213290444 0 0.25619033975856881 0.59819537371016862 0 0.25684529255773247 0.64203554247963057 0 0.2047839516296828 0.61896574319320252 0 0.22230199397202771 0.66820316019503168 0 0.2047839516296828 0.61896574319320252 0 0.25684529255773247 0.64203554247963057 0 0.74380966024142703 0.40180462628984132 0 0.74316477213289889 0.35796288467388632 0 0.79521604837030013 0.38103425680679831 0 0.77769800602796679 0.33179683980497482 0 0.79521604837030013 0.38103425680679831 0 0.74316477213289889 0.35796288467388632 0 0.40180462628983732 0.2561903397585753 0 0.3579628846738841 0.25683522786710378 0 0.38103425680679859 0.2047839516297037 0 0.33179683980498331 0.2223019939720311 0 0.38103425680679859 0.2047839516297037 0 0.3579628846738841 0.25683522786710378 0 0.92670321183853355 0.65773042910151081 0 0.93946948561981514 0.60485373571037115 0 0.96654491682122368 0.6363613838740827 0 0.65773042910151891 0.073296788161472337 0 0.6048537357103756 0.060530514380187868 0 0.63635157668793507 0.033457646040912177 0 0.3422695708985129 0.92670321183858773 0 0.39514626428973221 0.93946948561985189 0 0.36363861612613613 0.96654491682121313 0 0.073296788161418117 0.34226957089850552 0 0.06053051438015096 0.39514626428972788 0 0.033457646040922301 0.36364842331228431 0 0.6519524273377173 0.64249931920594539 0 0.6768914574865772 0.67861120078714243 0 0.64518564541690571 0.69601563325001548 0 0.35944937237716967 0.65164789808436319 0 0.32259853082073792 0.67670072609835186 0 0.30421635384321521 0.64514939193436716 0 0.6424993192059415 0.3480475726622802 0 0.6786112007871401 0.32310854251343019 0 0.69601563325001248 0.35481435458309712 0 0.34804757266227387 0.35750068079406011 0 0.3231032570156932 0.32141443408924047 0 0.35481435458309307 0.30398436674998969 0 0.73982803480991577 0.79629608696991705 0 0.71159714897733284 0.75039044679290845 0 0.74917861927654894 0.74229989257760443 0 0.20370391303007401 0.73982803480989479 0 0.249609553207091 0.71159714897732929 0 0.25770010742238642 0.74917861927655205 0 0.79629608696994103 0.26017196519011448 0 0.75039044679291111 0.28840285102267788 0 0.74229989257762263 0.250821380723454 0 0.26017196519013502 0.20370391303005 0 0.28840285102268098 0.24960955320708811 0 0.25082138072344978 0.25770010742236849 0 0.43565339604028508 0.55159384357101338 0 0.45030222762303879 0.58443295115431027 0 0.40468198875170619 0.57637931869191572 0 0.3999999999989749 0 0 0.44999999999882923 0 0 0.40685581827241191 0.041139877312511682 0 1 0.3999999999989749 0 1 0.44999999999882923 0 0.95886012268748921 0.4068558182724159 0 0 0.60000000000138687 0 0 0.55000000000173355 0 0.041139877312483641 0.59314418172763017 0 0.60000000000138687 1 0 0.55000000000173355 1 0 0.5931441817276254 0.95886012268751675 0 1 0.049999999999899652 0 1 0.099999999999814668 0 0.95994154153057998 0.094457855579277675 0 0.049999999999899652 0 0 0.099999999999814668 0 0 0.094457855579284614 0.040058458469418363 0 0.94999999999979179 1 0 0.89999999999958358 1 0 0.90554214442080472 0.95994154153067524 0 0 0.94999999999979179 0 0 0.89999999999958358 0 0.040058458469322648 0.90554214442079806 0 1 0.89999999999973679 0 1 0.94999999999986839 0 0.95994154153065969 0.90554214442078618 0 0.89999999999973679 0 0 0.94999999999986839 0 0 0.90554214442081604 0.040058458469347469 0 0.10000000000041601 1 0 0.050000000000207989 1 0 0.094457855579188163 0.95994154153068711 0 0 0.10000000000041601 0 0 0.050000000000207989 0 0.040058458469319477 0.094457855579157729 0 0.88949062093135778 0.73694585442531257 0 0.8312019486901514 0.72745002167959472 0 0.85607519768343354 0.69380468830529196 0 0.73688246401832591 0.11047754041323141 0 0.72767516840721058 0.16853767177393791 0 0.69379929796456197 0.14392209494791061 0 0.26305414557470391 0.88949062093136155 0 0.27254997832041528 0.8312019486901443 0 0.30619531169472608 0.85607519768342955 0 0.1104775404132264 0.2631175359816938 0 0.1685376717739448 0.27232483159280108 0 0.14392209494791439 0.30620070203545702 0 0.51484304721220842 0.69707233951836334 0 0.54465502325161819 0.74717983044080061 0 0.49073113440598592 0.73759004618730417 0 0.30292766048163949 0.51484304721221474 0 0.25287139441262568 0.54458355434492378 0 0.262418491288269 0.49071922292154141 0 0.70015119067225129 0.48481914991727459 0 0.74730218607442667 0.45539100053644521 0 0.73815142352639962 0.50697050072007344 0 0.48378871228000903 0.29745177826977359 0 0.45533136021725079 0.2525687312087147 0 0.50732841191799194 0.2613117081243182 0 0.66548584431530877 0.55616712808283064 0 0.61866949026800744 0.55492322767366287 0 0.64455163611866495 0.50369301794551069 0 0.5586987495249669 0.33382663527330653 0 0.59596170682035776 0.34609402305862419 0 0.54715635490880632 0.37829016026862072 0 0.41009598069569558 0.49083935749285379 0 0.42340342337193693 0.44762131874855388 0 0.46152714345798918 0.47344359412352599 0 0.63969251517836323 0.84598529912890386 0 0.61896574319320252 0.795216048370321 0 0.66919832404887702 0.81820888699730587 0 0.1540147008710982 0.63969251517836956 0 0.2047839516296828 0.61896574319320252 0 0.1817911130026923 0.66919832404888702 0 0.84598529912889664 0.36030748482164038 0 0.79521604837030013 0.38103425680679831 0 0.8182088869973061 0.33080167595111531 0 0.3603074848216346 0.15401470087110539 0 0.38103425680679859 0.2047839516297037 0 0.33080167595110582 0.18179111300269291 0 0.60000000000138687 1 0 0.5931441817276254 0.95886012268751675 0 0.63753756910470316 0.95578163339252209 0 0 0.60000000000138687 0 0.041139877312483641 0.59314418172763017 0 0.04421836660747535 0.63753756910470205 0 1 0.3999999999989749 0 0.95886012268748921 0.4068558182724159 0 0.95581270756939096 0.36248656652865863 0 0.3999999999989749 0 0 0.40685581827241191 0.041139877312511682 0 0.36246243089534252 0.044218366607477223 0 0.6519524273377173 0.64249931920594539 0 0.61233489393901674 0.60846740003560018 0 0.65501639383771026 0.594528181397324 0 0.6424993192059415 0.3480475726622802 0 0.60122390529523662 0.39097801071820221 0 0.59596170682035776 0.34609402305862419 0 0.56566515596461675 0.63670464971409091 0 0.60879112811253555 0.66592422311595834 0 0.57051182622447827 0.69668652018496713 0 0.35984320557492089 0.56698606271778873 0 0.33231497408081678 0.60779218732873663 0 0.30429740679959738 0.56913905146460098 0 0.640156794425081 0.43301393728221721 0 0.66346942254826746 0.391530810754116 0 0.69595787604187809 0.43071000156707989 0 0.43301393728221038 0.35984320557492139 0 0.39120887188745579 0.33407577688404289 0 0.43059486795334201 0.30395973419063538 0 0.59999999999894682 0 0 0.63635157668793507 0.033457646040912177 0 0.6048537357103756 0.060530514380187868 0 1 0.59999999999894682 0 0.96654491682122368 0.6363613838740827 0 0.93946948561981514 0.60485373571037115 0 0 0.40000000000166441 0 0.033457646040922301 0.36364842331228431 0 0.06053051438015096 0.39514626428972788 0 0.40000000000166441 1 0 0.36363861612613613 0.96654491682121313 0 0.39514626428973221 0.93946948561985189 0 0.50000000000002642 0.7803135888501761 0 0.49073113440598592 0.73759004618730417 0 0.54465502325161819 0.74717983044080061 0 0.2196864111498267 0.50000000000003153 0 0.262418491288269 0.49071922292154141 0 0.25287139441262568 0.54458355434492378 0 0.78031358885017377 0.49999999999997569 0 0.73815142352639962 0.50697050072007344 0 0.74730218607442667 0.45539100053644521 0 0.49999999999997108 0.21968641114982909 0 0.50732841191799194 0.2613117081243182 0 0.45533136021725079 0.2525687312087147 0 0.39507969989512881 0.74417394063201048 0 0.43306783640023289 0.78031198216144404 0 0.38703015239361932 0.80283068154761972 0 0.25582605936799319 0.39507969989513358 0 0.21968801783855879 0.43306783640023788 0 0.197169318452384 0.38703015239362498 0 0.74417394063200648 0.6049203001048884 0 0.78031198216143516 0.56693216359979737 0 0.8028306815476034 0.61296984760642026 0 0.60492030010488373 0.25582605936799729 0 0.56683314878414581 0.21944955250104689 0 0.61296984760641449 0.19716931845240021 0 0.77998481823117694 0.71397317153691997 0 0.74917861927654894 0.74229989257760443 0 0.73984939806388494 0.70740600291923139 0 0.28602682846308641 0.77998481823117594 0 0.25770010742238642 0.74917861927655205 0 0.2925512105451914 0.73997990291173188 0 0.71397317153692708 0.22001518176882201 0 0.74229989257762263 0.250821380723454 0 0.70740600291923772 0.26015060193611528 0 0.22001518176882229 0.28602682846307981 0 0.25082138072344978 0.25770010742236849 0 0.26014443552207939 0.29262390443653519 0 0.49189101320880302 0.59024331187324797 0 0.53087311892591971 0.55299263141448529 0 0.53542397956703913 0.60119875982347493 0 0.41009598069569558 0.49083935749285379 0 0.46152714345798918 0.47344359412352599 0 0.45293656999117771 0.51494832297079129 0 0.66820316019503978 0.77769800602796979 0 0.66919832404887702 0.81820888699730587 0 0.61896574319320252 0.795216048370321 0 0.22230199397202771 0.66820316019503168 0 0.1817911130026923 0.66919832404888702 0 0.2047839516296828 0.61896574319320252 0 0.77769800602796679 0.33179683980497482 0 0.8182088869973061 0.33080167595111531 0 0.79521604837030013 0.38103425680679831 0 0.33179683980498331 0.2223019939720311 0 0.33080167595110582 0.18179111300269291 0 0.38103425680679859 0.2047839516297037 0 0.83199780613337848 0.1690131600686714 0 0.87355793346388477 0.18922011052113649 0 0.84534053180161173 0.2262639405833009 0 0.16901316006868169 0.16800219386663079 0 0.18922011052115781 0.12644206653611201 0 0.22626394058331961 0.15465946819838111 0 0.58981073711177334 0.48140931020849848 0 0.62619054498681193 0.46482944251856079 0 0.64455163611866495 0.50369301794551069 0 0.59621567360238914 0.5184866806641607 0 0.58981073711177334 0.48140931020849848 0 0.64455163611866495 0.50369301794551069 0 0.53432142347292233 0.88563193847251998 0 0.54047998161173716 0.84333512669480526 0 0.58267137064684116 0.87013301365640838 0 0.56759263990989184 0.81794319034601648 0 0.58267137064684116 0.87013301365640838 0 0.54047998161173716 0.84333512669480526 0 0.1143680615274819 0.53432142347292733 0 0.1566648733051971 0.54047998161174216 0 0.12986698634359389 0.58267137064684615 0 0.18205680965398621 0.56759263990989739 0 0.12986698634359389 0.58267137064684615 0 0.1566648733051971 0.54047998161174216 0 0.88561059063756964 0.46572761956237563 0 0.84333218736938698 0.4595365182652234 0 0.87012666750595846 0.41743873185103042 0 0.81794319034597418 0.43240736009009317 0 0.87012666750595846 0.41743873185103042 0 0.84333218736938698 0.4595365182652234 0 0.46567857652706018 0.1143680615275231 0 0.45952001838826873 0.15666487330524251 0 0.41732862935313042 0.12986698634362279 0 0.43240736009008851 0.18205680965402779 0 0.41732862935313042 0.12986698634362279 0 0.45952001838826873 0.15666487330524251 0 0.70085728320704077 0.84350379029875056 0 0.70475631558365914 0.90098127745102974 0 0.66923299355723143 0.8804077449518628 0 0.1564962097012354 0.70085728320703999 0 0.099018722548963364 0.70475631558365193 0 0.1195922550481313 0.66923299355722787 0 0.84350379029877964 0.29914271679296989 0 0.89886191075654698 0.29506339503703172 0 0.88040774495187946 0.33076700644278889 0 0.29914271679297122 0.15649620970120659 0 0.29506339503703888 0.1011380892434444 0 0.33076700644279272 0.1195922550481146 0 0.839908789927305 0.77106070975262608 0 0.78651189793386345 0.75664155808652755 0 0.8312019486901514 0.72745002167959472 0 0.22893929024737289 0.83990878992727813 0 0.24335844191347281 0.78651189793387466 0 0.27254997832041528 0.8312019486901443 0 0.77216325087772952 0.15899695163319821 0 0.7582555232258138 0.2115548431873896 0 0.72767516840721058 0.16853767177393791 0 0.15899695163321451 0.22783674912227669 0 0.2115548431873881 0.2417444767741872 0 0.1685376717739448 0.27232483159280108 0 0.89586000931544074 0.25714619498770419 0 0.85389826602741015 0.26318949769600392 0 0.84534053180161173 0.2262639405833009 0 0.25714619498771307 0.1041399906845497 0 0.26318949769601319 0.14610173397257309 0 0.22626394058331961 0.15465946819838111 0 0.49771727055908782 0.83998685797641781 0 0.45353891581270822 0.85551523377818905 0 0.46593838964869061 0.80781872835503554 0 0.16001314202358469 0.49771727055909287 0 0.1444847662218138 0.45353891581271188 0 0.19218127164496679 0.46593838964869538 0 0.83998574657308889 0.50228528270184081 0 0.85551478316835361 0.54646211938695222 0 0.80781854240107975 0.53406203754901738 0 0.50228272944093777 0.16001314202359701 0 0.54646108418729233 0.1444847662218687 0 0.53404982287327418 0.19215288291432539 0 0.51484304721220842 0.69707233951836334 0 0.47818752133962877 0.66454462905280853 0 0.51172471858873747 0.64015771271794875 0 0.30292766048163949 0.51484304721221474 0 0.33436424489304489 0.47849603121740791 0 0.35815651743779398 0.51113440447909086 0 0.6027107599280892 0.83436006790502326 0 0.63969251517836323 0.84598529912890386 0 0.62483828039315681 0.8780818733396436 0 0.1656399320949789 0.60271075992809464 0 0.1540147008710982 0.63969251517836956 0 0.1219181266603569 0.62483828039315903 0 0.83436006790498052 0.39728924007189959 0 0.84598529912889664 0.36030748482164038 0 0.87815187193233801 0.37523526017134418 0 0.3972892400718947 0.16563993209502181 0 0.3603074848216346 0.15401470087110539 0 0.37516171960683908 0.121918126660369 0 0.70015119067225129 0.48481914991727459 0 0.64455163611866495 0.50369301794551069 0 0.66329969176266512 0.46626046872004567 0 0.57387636360620708 0.54318431390135336 0 0.53087311892591971 0.55299263141448529 0 0.554170140907293 0.50922353359177785 0 0.50333998054938722 0.50119715791968966 0 0.50753758205811061 0.4506562873613274 0 0.54783891860069212 0.46640164214823893 0 0.58267137064684116 0.87013301365640838 0 0.6027107599280892 0.83436006790502326 0 0.62483828039315681 0.8780818733396436 0 0.12986698634359389 0.58267137064684615 0 0.1656399320949789 0.60271075992809464 0 0.1219181266603569 0.62483828039315903 0 0.87012666750595846 0.41743873185103042 0 0.83436006790498052 0.39728924007189959 0 0.87815187193233801 0.37523526017134418 0 0.41732862935313042 0.12986698634362279 0 0.3972892400718947 0.16563993209502181 0 0.37516171960683908 0.121918126660369 0 0.35984320557492089 0.56698606271778873 0 0.35815651743779398 0.51113440447909086 0 0.39982789553993509 0.53462762214740622 0 0.43087117257049001 0.8215422551712771 0 0.46593838964869061 0.80781872835503554 0 0.45353891581270822 0.85551523377818905 0 0.17845774482872559 0.43087117257049429 0 0.19218127164496679 0.46593838964869538 0 0.1444847662218138 0.45353891581271188 0 0.8215422551712277 0.56912882742954496 0 0.80781854240107975 0.53406203754901738 0 0.85551478316835361 0.54646211938695222 0 0.56912882742954041 0.17845774482877461 0 0.53404982287327418 0.19215288291432539 0 0.54646108418729233 0.1444847662218687 0 0.89586000931544074 0.25714619498770419 0 0.89556054516486661 0.21720615046483649 0 0.94465622530468663 0.23167460333446291 0 0.91838802593870927 0.18172590289757809 0 0.94465622530468663 0.23167460333446291 0 0.89556054516486661 0.21720615046483649 0 0.25714619498771307 0.1041399906845497 0 0.21720615046484709 0.1044394548351292 0 0.23167460333446299 0.05534377469531044 0 0.18172590289758209 0.08161197406129285 0 0.23167460333446299 0.05534377469531044 0 0.21720615046484709 0.1044394548351292 0 0.50333998054938722 0.50119715791968966 0 0.54783891860069212 0.46640164214823893 0 0.554170140907293 0.50922353359177785 0 0.16901316006868169 0.16800219386663079 0 0.12587517708284679 0.1889683322666954 0 0.12294765968567151 0.14825146416195439 0 0.83199780613337848 0.1690131600686714 0 0.8110316677333288 0.125875177082863 0 0.8517485358380722 0.12294765968568611 0 0.74198804864688339 0.90892718720327403 0 0.74154628962857594 0.86274820500026039 0 0.78020430794084783 0.88768307197553598 0 0.78284912262770068 0.83746308049763585 0 0.78020430794084783 0.88768307197553598 0 0.74154628962857594 0.86274820500026039 0 0.091072812796719582 0.74198804864687795 0 0.13725179499972981 0.74154628962856628 0 0.11231692802445629 0.78020430794084028 0 0.16253691950235041 0.78284912262768558 0 0.11231692802445629 0.78020430794084028 0 0.13725179499972981 0.74154628962856628 0 0.82118136511706341 0.082875076569723011 0 0.77925951159456153 0.09969477121230251 0 0.76543419162344684 0.056452228708420968 0 0.08287507656968085 0.1788186348829835 0 0.099694771212264055 0.22074048840547039 0 0.056452228708379938 0.23456580837661581 0 0.91838802593884228 0.81827409710237209 0 0.9041449437197947 0.7786886066890556 0 0.9442075111696665 0.76777356182390766 0 0.1817259028976386 0.91838802593888857 0 0.22131139331094829 0.9041449437198319 0 0.23222643817617661 0.94420751116970569 0 0.73688246401832591 0.11047754041323141 0 0.76543419162344684 0.056452228708420968 0 0.77925951159456153 0.09969477121230251 0 0.1104775404132264 0.2631175359816938 0 0.056452228708379938 0.23456580837661581 0 0.099694771212264055 0.22074048840547039 0 0.88949062093135778 0.73694585442531257 0 0.9442075111696665 0.76777356182390766 0 0.9041449437197947 0.7786886066890556 0 0.26305414557470391 0.88949062093136155 0 0.23222643817617661 0.94420751116970569 0 0.22131139331094829 0.9041449437198319 0 0.73984939806388494 0.70740600291923139 0 0.71159714897733284 0.75039044679290845 0 0.70252050881959183 0.70358884261915833 0 0.74917861927654894 0.74229989257760443 0 0.71159714897733284 0.75039044679290845 0 0.73984939806388494 0.70740600291923139 0 0.2925512105451914 0.73997990291173188 0 0.249609553207091 0.71159714897732929 0 0.29641115738084339 0.70252050881958938 0 0.25770010742238642 0.74917861927655205 0 0.249609553207091 0.71159714897732929 0 0.2925512105451914 0.73997990291173188 0 0.70740600291923772 0.26015060193611528 0 0.75039044679291111 0.28840285102267788 0 0.70358884261915744 0.29747949118041561 0 0.74229989257762263 0.250821380723454 0 0.75039044679291111 0.28840285102267788 0 0.70740600291923772 0.26015060193611528 0 0.26014443552207939 0.29262390443653519 0 0.28840285102268098 0.24960955320708811 0 0.29747949118041711 0.2964111573808435 0 0.25082138072344978 0.25770010742236849 0 0.28840285102268098 0.24960955320708811 0 0.26014443552207939 0.29262390443653519 0 0.88949062093135778 0.73694585442531257 0 0.85607519768343354 0.69380468830529196 0 0.90051880305432697 0.69261863673346957 0 0.26305414557470391 0.88949062093136155 0 0.30619531169472608 0.85607519768342955 0 0.30738136326657722 0.90051880305435028 0 0.73688246401832591 0.11047754041323141 0 0.69379929796456197 0.14392209494791061 0 0.69253601466723103 0.09949211948105087 0 0.1104775404132264 0.2631175359816938 0 0.14392209494791439 0.30620070203545702 0 0.099492119481027347 0.30746398533281638 0 0.58981073711177334 0.48140931020849848 0 0.54783891860069212 0.46640164214823893 0 0.59313386551587477 0.43977047843653239 0 0.640156794425081 0.43301393728221721 0 0.69595787604187809 0.43071000156707989 0 0.66329969176266512 0.46626046872004567 0 0.70015119067225129 0.48481914991727459 0 0.66329969176266512 0.46626046872004567 0 0.69595787604187809 0.43071000156707989 0 0.8289812646369813 0.82898126463698818 0 0.81306033001437827 0.8677384967307622 0 0.78284912262770068 0.83746308049763585 0 0.17101873536300011 0.82898126463696109 0 0.1322615032692282 0.8130603300143705 0 0.16253691950235041 0.78284912262768558 0 0.84534053180161173 0.2262639405833009 0 0.87355793346388477 0.18922011052113649 0 0.89556054516486661 0.21720615046483649 0 0.22626394058331961 0.15465946819838111 0 0.18922011052115781 0.12644206653611201 0 0.21720615046484709 0.1044394548351292 0 0.90082758526900886 0.098076845682916511 0 0.86148619541339633 0.089689702191568438 0 0.86589314360155567 0.054872692726639853 0 0.098076845682915317 0.099172414730993488 0 0.089689702191541126 0.13851380458662241 0 0.054872692726595548 0.13410685639845171 0 0.84598529912884157 0.63969251517827153 0 0.89064679688610338 0.6216080907827598 0 0.88396545633132484 0.6625197322180193 0 0.63969251517826664 0.15401470087115929 0 0.62160809078275991 0.1093532031139005 0 0.66251865414987876 0.1160340021949529 0 0.36030748482174152 0.84598529912882459 0 0.37839190921727062 0.89064679688614412 0 0.33748026778199908 0.88396545633134682 0 0.15401470087117619 0.36030748482174652 0 0.10935320311385981 0.37839190921727089 0 0.11603400219493119 0.33748134585014028 0 0.82118136511706341 0.082875076569723011 0 0.8517485358380722 0.12294765968568611 0 0.8110316677333288 0.125875177082863 0 0.08287507656968085 0.1788186348829835 0 0.12294765968567151 0.14825146416195439 0 0.12587517708284679 0.1889683322666954 0 0.75000000000034661 1 0 0.7000000000006934 1 0 0.71789175274016548 0.95136708251202151 0 0 0.75000000000034661 0 0 0.7000000000006934 0 0.04863291748797445 0.71789175274016204 0 1 0.24999999999941211 0 1 0.29999999999926641 0 0.94915666091748963 0.28320804985299752 0 0.24999999999941211 0 0 0.29999999999926641 0 0 0.28320804985300141 0.050843339082505573 0 0.55000000000173355 1 0 0.51507566941747085 0.9626786017237855 0 0.55307204985744796 0.94819812235491685 0 0 0.55000000000173355 0 0.037321398276215258 0.51507566941747263 0 0.051801877645083663 0.55307204985745195 0 1 0.44999999999882923 0 0.96266688603193029 0.48495124540067203 0 0.94812782820415209 0.44708943904932719 0 0.44999999999882923 0 0 0.48492433058289169 0.037321398276272413 0 0.44692795014265252 0.051801877645060238 0 0.49854341599767982 0.37075914768127122 0 0.51491507395299929 0.3326740076510219 0 0.54715635490880632 0.37829016026862072 0 0.91838802593884228 0.81827409710237209 0 0.88962265630811221 0.85311725681459705 0 0.87660297360393757 0.8104127896505644 0 0.1817259028976386 0.91838802593888857 0 0.14688274318541941 0.88962265630811932 0 0.18958721034944021 0.87660297360394568 0 0.50333998054938722 0.50119715791968966 0 0.554170140907293 0.50922353359177785 0 0.53087311892591971 0.55299263141448529 0 0.91890123454466932 0.39094742729597309 0 0.95886012268748921 0.4068558182724159 0 0.90991454156957952 0.4312731559748802 0 0.94812782820415209 0.44708943904932719 0 0.90991454156957952 0.4312731559748802 0 0.95886012268748921 0.4068558182724159 0 0.84999999999965292 1 0 0.82675923981951416 0.95611053755456221 0 0.86696410734367158 0.94753096683315619 0 0 0.84999999999965292 0 0.043889462445437968 0.82675923981951283 0 0.052469033166843738 0.86696410734366991 0 0.1817259028976386 0.91838802593888857 0 0.18045991219397989 0.960710939969875 0 0.13834721989462789 0.94095916274077984 0 0.91838802593884228 0.81827409710237209 0 0.96071093996985157 0.81954008780615684 0 0.94095916274074942 0.86165278010542579 0 0.08287507656968085 0.1788186348829835 0 0.038839999600931263 0.17949825993190149 0 0.054872692726595548 0.13410685639845171 0 0.82118136511706341 0.082875076569723011 0 0.82050174006822896 0.038839999600956771 0 0.86589314360155567 0.054872692726639853 0 0.15000000000062411 1 0 0.13834721989462789 0.94095916274077984 0 0.18045991219397989 0.960710939969875 0 1 0.84999999999960507 0 0.94095916274074942 0.86165278010542579 0 0.96071093996985157 0.81954008780615684 0 0 0.15000000000062411 0 0.054872692726595548 0.13410685639845171 0 0.038839999600931263 0.17949825993190149 0 0.84999999999960507 0 0 0.86589314360155567 0.054872692726639853 0 0.82050174006822896 0.038839999600956771 0 1 0.14999999999970359 0 0.96080966346491015 0.18035159017841959 0 0.94100406608115506 0.1383574446607955 0 0.14999999999970359 0 0 0.18035159017842109 0.039190336535090492 0 0.1383574446607988 0.058995933918849157 0 0.91838802593870927 0.18172590289757809 0 0.94100406608115506 0.1383574446607955 0 0.96080966346491015 0.18035159017841959 0 0.18172590289758209 0.08161197406129285 0 0.1383574446607988 0.058995933918849157 0 0.18035159017842109 0.039190336535090492 0 0.40653508887824003 0.61580573377480397 0 0.45030222762303879 0.58443295115431027 0 0.45517457031814612 0.62743100079604397 0 0.50333998054938722 0.50119715791968966 0 0.53087311892591971 0.55299263141448529 0 0.47974773860103892 0.54872726831320284 0 0.33382663527330159 0.44130125047503482 0 0.30597655500381687 0.3934681685211931 0 0.35481422397128459 0.40312981465069342 0 0.34804757266227387 0.35750068079406011 0 0.35481422397128459 0.40312981465069342 0 0.30597655500381687 0.3934681685211931 0 0.39419886675318527 0.41912225240070788 0 0.39222057657781068 0.38067796690227418 0 0.42930823106401639 0.40626685012722968 0 0.5586987495249669 0.33382663527330653 0 0.54715635490880632 0.37829016026862072 0 0.51491507395299929 0.3326740076510219 0 0.84598529912884157 0.63969251517827153 0 0.88396545633132484 0.6625197322180193 0 0.85607519768343354 0.69380468830529196 0 0.63969251517826664 0.15401470087115929 0 0.66251865414987876 0.1160340021949529 0 0.69379929796456197 0.14392209494791061 0 0.36030748482174152 0.84598529912882459 0 0.33748026778199908 0.88396545633134682 0 0.30619531169472608 0.85607519768342955 0 0.15401470087117619 0.36030748482174652 0 0.11603400219493119 0.33748134585014028 0 0.14392209494791439 0.30620070203545702 0 0.41009598069569558 0.49083935749285379 0 0.39982789553993509 0.53462762214740622 0 0.35815651743779398 0.51113440447909086 0 0.43087117257049001 0.8215422551712771 0 0.38703015239361932 0.80283068154761972 0 0.43306783640023289 0.78031198216144404 0 0.8215422551712277 0.56912882742954496 0 0.8028306815476034 0.61296984760642026 0 0.78031198216143516 0.56693216359979737 0 0.17845774482872559 0.43087117257049429 0 0.197169318452384 0.38703015239362498 0 0.21968801783855879 0.43306783640023788 0 0.56912882742954041 0.17845774482877461 0 0.61296984760641449 0.19716931845240021 0 0.56683314878414581 0.21944955250104689 0 0.86696410734367158 0.94753096683315619 0 0.82675923981951416 0.95611053755456221 0 0.85382799508926477 0.91295829388058414 0 0.052469033166843738 0.86696410734366991 0 0.043889462445437968 0.82675923981951283 0 0.087041706119416085 0.85382799508926188 0 0.81709574086843206 0.91318696080656769 0 0.85382799508926477 0.91295829388058414 0 0.82675923981951416 0.95611053755456221 0 0.086813039193431391 0.81709574086842884 0 0.087041706119416085 0.85382799508926188 0 0.043889462445437968 0.82675923981951283 0 0.77998481823117694 0.71397317153691997 0 0.8312019486901514 0.72745002167959472 0 0.78651189793386345 0.75664155808652755 0 0.28602682846308641 0.77998481823117594 0 0.27254997832041528 0.8312019486901443 0 0.24335844191347281 0.78651189793387466 0 0.71397317153692708 0.22001518176882201 0 0.72767516840721058 0.16853767177393791 0 0.7582555232258138 0.2115548431873896 0 0.22001518176882229 0.28602682846307981 0 0.1685376717739448 0.27232483159280108 0 0.2115548431873881 0.2417444767741872 0 0.54901591374940373 0.42306523525165751 0 0.50753758205811061 0.4506562873613274 0 0.5047849391802508 0.40719950955717021 0 0.54901591374940373 0.42306523525165751 0 0.59313386551587477 0.43977047843653239 0 0.54783891860069212 0.46640164214823893 0 0.81709574086843206 0.91318696080656769 0 0.81306033001437827 0.8677384967307622 0 0.85174853583809862 0.87705234031428159 0 0.086813039193431391 0.81709574086842884 0 0.1322615032692282 0.8130603300143705 0 0.1229476596857173 0.85174853583809695 0 0.839908789927305 0.77106070975262608 0 0.79422489417873421 0.79640925234634441 0 0.78651189793386345 0.75664155808652755 0 0.22893929024737289 0.83990878992727813 0 0.20359074765364421 0.79422489417871855 0 0.24335844191347281 0.78651189793387466 0 0.77216325087772952 0.15899695163319821 0 0.80027482104603809 0.20596721135052129 0 0.7582555232258138 0.2115548431873896 0 0.15899695163321451 0.22783674912227669 0 0.20596721135052939 0.19972517895396219 0 0.2115548431873881 0.2417444767741872 0 0.70087539567735502 0.57165914616526226 0 0.65501639383771026 0.594528181397324 0 0.66548584431530877 0.55616712808283064 0 0.69288637798153729 0.61204665218001397 0 0.65501639383771026 0.594528181397324 0 0.70087539567735502 0.57165914616526226 0 0.57188338999077359 0.29874123486230147 0 0.59596170682035776 0.34609402305862419 0 0.5586987495249669 0.33382663527330653 0 0.61204665218000809 0.30711362201846659 0 0.59596170682035776 0.34609402305862419 0 0.57188338999077359 0.29874123486230147 0 0.55307204985744796 0.94819812235491685 0 0.56877264426066887 0.91182300080710277 0 0.5931441817276254 0.95886012268751675 0 0.60938371359314658 0.91847489683800321 0 0.5931441817276254 0.95886012268751675 0 0.56877264426066887 0.91182300080710277 0 0.051801877645083663 0.55307204985745195 0 0.088176999192898689 0.56877264426067353 0 0.041139877312483641 0.59314418172763017 0 0.081525103161997597 0.6093837135931508 0 0.041139877312483641 0.59314418172763017 0 0.088176999192898689 0.56877264426067353 0 0.44692795014265252 0.051801877645060238 0 0.43122735573933979 0.088176999192917438 0 0.40685581827241191 0.041139877312511682 0 0.39061628640684498 0.081525103161991672 0 0.40685581827241191 0.041139877312511682 0 0.43122735573933979 0.088176999192917438 0 0.56566515596461675 0.63670464971409091 0 0.54058719659441246 0.66889411379075558 0 0.51172471858873747 0.64015771271794875 0 0.35984320557492089 0.56698606271778873 0 0.331306197573488 0.54052564146842386 0 0.35815651743779398 0.51113440447909086 0 0.51484304721220842 0.69707233951836334 0 0.51172471858873747 0.64015771271794875 0 0.54058719659441246 0.66889411379075558 0 0.30292766048163949 0.51484304721221474 0 0.35815651743779398 0.51113440447909086 0 0.331306197573488 0.54052564146842386 0 0.90045039720880915 0.9020090423547924 0 0.86696410734367158 0.94753096683315619 0 0.85382799508926477 0.91295829388058414 0 0.097990957645208238 0.90045039720880915 0 0.052469033166843738 0.86696410734366991 0 0.087041706119416085 0.85382799508926188 0 0.82118136511706341 0.082875076569723011 0 0.86589314360155567 0.054872692726639853 0 0.86148619541339633 0.089689702191568438 0 0.08287507656968085 0.1788186348829835 0 0.054872692726595548 0.13410685639845171 0 0.089689702191541126 0.13851380458662241 0 0.67757268808231397 0.93106206656183088 0 0.70475631558365914 0.90098127745102974 0 0.71789175274016548 0.95136708251202151 0 0.068937933438162791 0.67757268808231053 0 0.099018722548963364 0.70475631558365193 0 0.04863291748797445 0.71789175274016204 0 0.93106206656185309 0.32242731191769503 0 0.89886191075654698 0.29506339503703172 0 0.94915666091748963 0.28320804985299752 0 0.32242731191769902 0.068937933438140794 0 0.29506339503703888 0.1011380892434444 0 0.28320804985300141 0.050843339082505573 0 0.59819537371016407 0.74380966024143391 0 0.57578062281532438 0.77751665353176347 0 0.54465502325161819 0.74717983044080061 0 0.25619033975856881 0.59819537371016862 0 0.2224870800581388 0.57577541371134155 0 0.25287139441262568 0.54458355434492378 0 0.74380966024142703 0.40180462628984132 0 0.77752557158083724 0.42422273168818408 0 0.74730218607442667 0.45539100053644521 0 0.40180462628983732 0.2561903397585753 0 0.42421838472613971 0.22246502005787769 0 0.45533136021725079 0.2525687312087147 0 0.56566515596461675 0.63670464971409091 0 0.53542397956703913 0.60119875982347493 0 0.57484409313590223 0.58437321637184114 0 0.59819537371016407 0.74380966024143391 0 0.57051182622447827 0.69668652018496713 0 0.6083790122881827 0.70496300707145865 0 0.25619033975856881 0.59819537371016862 0 0.30429740679959738 0.56913905146460098 0 0.29503699292854352 0.60837901228818936 0 0.74380966024142703 0.40180462628984132 0 0.69595787604187809 0.43071000156707989 0 0.70496300707145554 0.39162098771181952 0 0.40180462628983732 0.2561903397585753 0 0.43059486795334201 0.30395973419063538 0 0.39162098771181342 0.29503699292854563 0 0.50000000000002642 0.7803135888501761 0 0.54465502325161819 0.74717983044080061 0 0.53770425635794761 0.80104587463999666 0 0.2196864111498267 0.50000000000003153 0 0.25287139441262568 0.54458355434492378 0 0.1989632851005598 0.53769147668950479 0 0.78031358885017377 0.49999999999997569 0 0.74730218607442667 0.45539100053644521 0 0.80106707846564795 0.46230714888029367 0 0.49999999999997108 0.21968641114982909 0 0.45533136021725079 0.2525687312087147 0 0.46229330881044273 0.19890916456654811 0 0.51484304721220842 0.69707233951836334 0 0.54058719659441246 0.66889411379075558 0 0.57051182622447827 0.69668652018496713 0 0.30292766048163949 0.51484304721221474 0 0.331306197573488 0.54052564146842386 0 0.30429740679959738 0.56913905146460098 0 0.56566515596461675 0.63670464971409091 0 0.57051182622447827 0.69668652018496713 0 0.54058719659441246 0.66889411379075558 0 0.35984320557492089 0.56698606271778873 0 0.30429740679959738 0.56913905146460098 0 0.331306197573488 0.54052564146842386 0 0.60938371359314658 0.91847489683800321 0 0.58267137064684116 0.87013301365640838 0 0.62483828039315681 0.8780818733396436 0 0.081525103161997597 0.6093837135931508 0 0.12986698634359389 0.58267137064684615 0 0.1219181266603569 0.62483828039315903 0 0.91890123454466932 0.39094742729597309 0 0.87012666750595846 0.41743873185103042 0 0.87815187193233801 0.37523526017134418 0 0.39061628640684498 0.081525103161991672 0 0.41732862935313042 0.12986698634362279 0 0.37516171960683908 0.121918126660369 0 0.5133022293955174 0.064893331803591428 0 0.52499999999875446 0.029444907164469181 0 0.55993888817186677 0.043612803661174412 0 0.064893331803534807 0.48669777060454478 0 0.029444907164209121 0.47500000000196552 0 0.043612803661092707 0.44006111182840391 0 0.93510666819640953 0.51330222939551939 0 0.97055509283553232 0.52499999999875435 0 0.95638719633882641 0.5599388881718611 0 0.48669777060454272 0.93510666819646593 0 0.47500000000196563 0.970555092835793 0 0.44006111182840962 0.9563871963389079 0 0.56759263990989184 0.81794319034601648 0 0.54047998161173716 0.84333512669480526 0 0.53770425635794761 0.80104587463999666 0 0.18205680965398621 0.56759263990989739 0 0.1566648733051971 0.54047998161174216 0 0.1989632851005598 0.53769147668950479 0 0.81794319034597418 0.43240736009009317 0 0.84333218736938698 0.4595365182652234 0 0.80106707846564795 0.46230714888029367 0 0.43240736009008851 0.18205680965402779 0 0.45952001838826873 0.15666487330524251 0 0.46229330881044273 0.19890916456654811 0 0.50333998054938722 0.50119715791968966 0 0.47974773860103892 0.54872726831320284 0 0.45293656999117771 0.51494832297079129 0 0.73982803480991577 0.79629608696991705 0 0.69892030930712212 0.7971997999085858 0 0.71159714897733284 0.75039044679290845 0 0.20370391303007401 0.73982803480989479 0 0.2028002000914135 0.69892030930711557 0 0.249609553207091 0.71159714897732929 0 0.79629608696994103 0.26017196519011448 0 0.7971997999085878 0.3010796906928917 0 0.75039044679291111 0.28840285102267788 0 0.26017196519013502 0.20370391303005 0 0.30107969069289831 0.20280020009141189 0 0.28840285102268098 0.24960955320708811 0 0.43087117257049001 0.8215422551712771 0 0.40481452396081791 0.85130421228141606 0 0.38703015239361932 0.80283068154761972 0 0.36030748482174152 0.84598529912882459 0 0.38703015239361932 0.80283068154761972 0 0.40481452396081791 0.85130421228141606 0 0.17845774482872559 0.43087117257049429 0 0.14869578771858949 0.40481452396082068 0 0.197169318452384 0.38703015239362498 0 0.8215422551712277 0.56912882742954496 0 0.85130417396420255 0.59518556406638579 0 0.8028306815476034 0.61296984760642026 0 0.84598529912884157 0.63969251517827153 0 0.8028306815476034 0.61296984760642026 0 0.85130417396420255 0.59518556406638579 0 0.15401470087117619 0.36030748482174652 0 0.197169318452384 0.38703015239362498 0 0.14869578771858949 0.40481452396082068 0 0.56912882742954041 0.17845774482877461 0 0.59518547603920147 0.14869578771864489 0 0.61296984760641449 0.19716931845240021 0 0.63969251517826664 0.15401470087115929 0 0.61296984760641449 0.19716931845240021 0 0.59518547603920147 0.14869578771864489 0 0.6519524273377173 0.64249931920594539 0 0.65501639383771026 0.594528181397324 0 0.69288637798153729 0.61204665218001397 0 0.6424993192059415 0.3480475726622802 0 0.59596170682035776 0.34609402305862419 0 0.61204665218000809 0.30711362201846659 0 0.35944937237716967 0.65164789808436319 0 0.40564717507982689 0.65626423320524974 0 0.38642358467307758 0.69286258923597266 0 0.90045039720880915 0.9020090423547924 0 0.85174853583809862 0.87705234031428159 0 0.88962265630811221 0.85311725681459705 0 0.097990957645208238 0.90045039720880915 0 0.1229476596857173 0.85174853583809695 0 0.14688274318541941 0.88962265630811932 0 0.90082758526900886 0.098076845682916511 0 0.88777909259956078 0.1484760565886154 0 0.8517485358380722 0.12294765968568611 0 0.098076845682915317 0.099172414730993488 0 0.1484760565886207 0.1122209074004519 0 0.12294765968567151 0.14825146416195439 0 0.35815651743779398 0.51113440447909086 0 0.33436424489304489 0.47849603121740791 0 0.37702386074717259 0.45819417564476811 0 0.92670321183853355 0.65773042910151081 0 0.94635952848698612 0.71209247961721311 0 0.90051880305432697 0.69261863673346957 0 0.65773042910151891 0.073296788161472337 0 0.71174922810186925 0.053730171687687178 0 0.69253601466723103 0.09949211948105087 0 0.3422695708985129 0.92670321183858773 0 0.28790752038294382 0.94635952848702642 0 0.30738136326657722 0.90051880305435028 0 0.073296788161418117 0.34226957089850552 0 0.053730171687646627 0.28825077189828552 0 0.099492119481027347 0.30746398533281638 0 0.43565339604028508 0.55159384357101338 0 0.45293656999117771 0.51494832297079129 0 0.47974773860103892 0.54872726831320284 0 0.33382663527330159 0.44130125047503482 0 0.2963043386970643 0.4298320229681446 0 0.30597655500381687 0.3934681685211931 0 1 0.69999999999921003 0 0.94635952848698612 0.71209247961721311 0 0.96779701826738695 0.67105375815842694 0 0.69999999999921003 0 0 0.71174922810186925 0.053730171687687178 0 0.67098510785536181 0.032220921767549461 0 0.30000000000124832 1 0 0.28790752038294382 0.94635952848702642 0 0.32894624184180998 0.96779701826738929 0 0 0.30000000000124832 0 0.053730171687646627 0.28825077189828552 0 0.032220921767546963 0.32901489214487523 0 0.56759263990989184 0.81794319034601648 0 0.57578062281532438 0.77751665353176347 0 0.61896574319320252 0.795216048370321 0 0.59819537371016407 0.74380966024143391 0 0.61896574319320252 0.795216048370321 0 0.57578062281532438 0.77751665353176347 0 0.25619033975856881 0.59819537371016862 0 0.2047839516296828 0.61896574319320252 0 0.2224870800581388 0.57577541371134155 0 0.18205680965398621 0.56759263990989739 0 0.2224870800581388 0.57577541371134155 0 0.2047839516296828 0.61896574319320252 0 0.74380966024142703 0.40180462628984132 0 0.79521604837030013 0.38103425680679831 0 0.77752557158083724 0.42422273168818408 0 0.81794319034597418 0.43240736009009317 0 0.77752557158083724 0.42422273168818408 0 0.79521604837030013 0.38103425680679831 0 0.40180462628983732 0.2561903397585753 0 0.38103425680679859 0.2047839516297037 0 0.42421838472613971 0.22246502005787769 0 0.43240736009008851 0.18205680965402779 0 0.42421838472613971 0.22246502005787769 0 0.38103425680679859 0.2047839516297037 0 0.63969251517836323 0.84598529912890386 0 0.6027107599280892 0.83436006790502326 0 0.61896574319320252 0.795216048370321 0 0.1540147008710982 0.63969251517836956 0 0.1656399320949789 0.60271075992809464 0 0.2047839516296828 0.61896574319320252 0 0.84598529912889664 0.36030748482164038 0 0.83436006790498052 0.39728924007189959 0 0.79521604837030013 0.38103425680679831 0 0.3603074848216346 0.15401470087110539 0 0.3972892400718947 0.16563993209502181 0 0.38103425680679859 0.2047839516297037 0 0.53432142347292233 0.88563193847251998 0 0.58267137064684116 0.87013301365640838 0 0.56877264426066887 0.91182300080710277 0 0.1143680615274819 0.53432142347292733 0 0.12986698634359389 0.58267137064684615 0 0.088176999192898689 0.56877264426067353 0 0.91890123454466932 0.39094742729597309 0 0.90991454156957952 0.4312731559748802 0 0.87012666750595846 0.41743873185103042 0 0.46567857652706018 0.1143680615275231 0 0.41732862935313042 0.12986698634362279 0 0.43122735573933979 0.088176999192917438 0 0.60938371359314658 0.91847489683800321 0 0.56877264426066887 0.91182300080710277 0 0.58267137064684116 0.87013301365640838 0 0.081525103161997597 0.6093837135931508 0 0.088176999192898689 0.56877264426067353 0 0.12986698634359389 0.58267137064684615 0 0.88561059063756964 0.46572761956237563 0 0.87012666750595846 0.41743873185103042 0 0.90991454156957952 0.4312731559748802 0 0.39061628640684498 0.081525103161991672 0 0.43122735573933979 0.088176999192917438 0 0.41732862935313042 0.12986698634362279 0 0.56759263990989184 0.81794319034601648 0 0.6027107599280892 0.83436006790502326 0 0.58267137064684116 0.87013301365640838 0 0.18205680965398621 0.56759263990989739 0 0.1656399320949789 0.60271075992809464 0 0.12986698634359389 0.58267137064684615 0 0.81794319034597418 0.43240736009009317 0 0.83436006790498052 0.39728924007189959 0 0.87012666750595846 0.41743873185103042 0 0.43240736009008851 0.18205680965402779 0 0.3972892400718947 0.16563993209502181 0 0.41732862935313042 0.12986698634362279 0 0.77998481823117694 0.71397317153691997 0 0.78651189793386345 0.75664155808652755 0 0.74917861927654894 0.74229989257760443 0 0.28602682846308641 0.77998481823117594 0 0.24335844191347281 0.78651189793387466 0 0.25770010742238642 0.74917861927655205 0 0.71397317153692708 0.22001518176882201 0 0.7582555232258138 0.2115548431873896 0 0.74229989257762263 0.250821380723454 0 0.22001518176882229 0.28602682846307981 0 0.2115548431873881 0.2417444767741872 0 0.25082138072344978 0.25770010742236849 0 0.8215422551712277 0.56912882742954496 0 0.78031198216143516 0.56693216359979737 0 0.80781854240107975 0.53406203754901738 0 0.43087117257049001 0.8215422551712771 0 0.43306783640023289 0.78031198216144404 0 0.46593838964869061 0.80781872835503554 0 0.56912882742954041 0.17845774482877461 0 0.56683314878414581 0.21944955250104689 0 0.53404982287327418 0.19215288291432539 0 0.17845774482872559 0.43087117257049429 0 0.21968801783855879 0.43306783640023788 0 0.19218127164496679 0.46593838964869538 0 0.92670321183853355 0.65773042910151081 0 0.96779701826738695 0.67105375815842694 0 0.94635952848698612 0.71209247961721311 0 0.65773042910151891 0.073296788161472337 0 0.67098510785536181 0.032220921767549461 0 0.71174922810186925 0.053730171687687178 0 0.3422695708985129 0.92670321183858773 0 0.32894624184180998 0.96779701826738929 0 0.28790752038294382 0.94635952848702642 0 0.073296788161418117 0.34226957089850552 0 0.032220921767546963 0.32901489214487523 0 0.053730171687646627 0.28825077189828552 0 0.51484304721220842 0.69707233951836334 0 0.46736891737654429 0.70015537930374983 0 0.47818752133962877 0.66454462905280853 0 0.30292766048163949 0.51484304721221474 0 0.29988655052531688 0.46700727827593119 0 0.33436424489304489 0.47849603121740791 0 0.53432142347292233 0.88563193847251998 0 0.52425337578225772 0.9223731761594427 0 0.48758069708049379 0.89080072540186539 0 0.1143680615274819 0.53432142347292733 0 0.07762682384055844 0.52425337578226128 0 0.1091992745981364 0.48758069708049778 0 0.88561059063756964 0.46572761956237563 0 0.92203742772043751 0.47579485578641628 0 0.89079805168298443 0.51242544533572376 0 0.46567857652706018 0.1143680615275231 0 0.47574662421782782 0.077626823840590969 0 0.51241930291950477 0.1091992745981813 0 0.49189101320880302 0.59024331187324797 0 0.47974773860103892 0.54872726831320284 0 0.53087311892591971 0.55299263141448529 0 0.81709574086843206 0.91318696080656769 0 0.78020430794084783 0.88768307197553598 0 0.81306033001437827 0.8677384967307622 0 0.086813039193431391 0.81709574086842884 0 0.11231692802445629 0.78020430794084028 0 0.1322615032692282 0.8130603300143705 0 0.90045039720880915 0.9020090423547924 0 0.85382799508926477 0.91295829388058414 0 0.85174853583809862 0.87705234031428159 0 0.097990957645208238 0.90045039720880915 0 0.087041706119416085 0.85382799508926188 0 0.1229476596857173 0.85174853583809695 0 0.82118136511706341 0.082875076569723011 0 0.86148619541339633 0.089689702191568438 0 0.8517485358380722 0.12294765968568611 0 0.08287507656968085 0.1788186348829835 0 0.089689702191541126 0.13851380458662241 0 0.12294765968567151 0.14825146416195439 0 0.56759263990989184 0.81794319034601648 0 0.61896574319320252 0.795216048370321 0 0.6027107599280892 0.83436006790502326 0 0.18205680965398621 0.56759263990989739 0 0.2047839516296828 0.61896574319320252 0 0.1656399320949789 0.60271075992809464 0 0.81794319034597418 0.43240736009009317 0 0.79521604837030013 0.38103425680679831 0 0.83436006790498052 0.39728924007189959 0 0.43240736009008851 0.18205680965402779 0 0.38103425680679859 0.2047839516297037 0 0.3972892400718947 0.16563993209502181 0 0.91838802593870927 0.18172590289757809 0 0.87355793346388477 0.18922011052113649 0 0.88777909259956078 0.1484760565886154 0 0.18172590289758209 0.08161197406129285 0 0.18922011052115781 0.12644206653611201 0 0.1484760565886207 0.1122209074004519 0 0.50333998054938722 0.50119715791968966 0 0.46152714345798918 0.47344359412352599 0 0.50753758205811061 0.4506562873613274 0 0.46102425708533701 0.43254199134332588 0 0.50753758205811061 0.4506562873613274 0 0.46152714345798918 0.47344359412352599 0 0.70252050881959183 0.70358884261915833 0 0.67626275269587088 0.72713741921009012 0 0.6768914574865772 0.67861120078714243 0 0.29641115738084339 0.70252050881958938 0 0.27349656744860212 0.67581741996408695 0 0.32259853082073792 0.67670072609835186 0 0.70358884261915744 0.29747949118041561 0 0.72713741921008324 0.32373724730413678 0 0.6786112007871401 0.32310854251343019 0 0.29747949118041711 0.2964111573808435 0 0.32373692627050221 0.27286413781593999 0 0.3231032570156932 0.32141443408924047 0 0.43301393728221038 0.35984320557492139 0 0.39222057657781068 0.38067796690227418 0 0.39120887188745579 0.33407577688404289 0 0.48669777060454272 0.93510666819646593 0 0.48758069708049379 0.89080072540186539 0 0.52425337578225772 0.9223731761594427 0 0.064893331803534807 0.48669777060454478 0 0.1091992745981364 0.48758069708049778 0 0.07762682384055844 0.52425337578226128 0 0.93510666819640953 0.51330222939551939 0 0.89079805168298443 0.51242544533572376 0 0.92203742772043751 0.47579485578641628 0 0.5133022293955174 0.064893331803591428 0 0.51241930291950477 0.1091992745981813 0 0.47574662421782782 0.077626823840590969 0 0.4434591735942961 0.66641640622551224 0 0.42715538333808079 0.70077759375307946 0 0.40564717507982689 0.65626423320524974 0 0.38642358467307758 0.69286258923597266 0 0.40564717507982689 0.65626423320524974 0 0.42715538333808079 0.70077759375307946 0 0.57387636360620708 0.54318431390135336 0 0.554170140907293 0.50922353359177785 0 0.59621567360238914 0.5184866806641607 0 0.84999999999965292 1 0 0.79999999999999982 1 0 0.82675923981951416 0.95611053755456221 0 0 0.84999999999965292 0 0 0.79999999999999982 0 0.043889462445437968 0.82675923981951283 0 1 0.14999999999970359 0 1 0.19999999999955789 0 0.96080966346491015 0.18035159017841959 0 0.14999999999970359 0 0 0.19999999999955789 0 0 0.18035159017842109 0.039190336535090492 0 1 0.79999999999947335 0 1 0.84999999999960507 0 0.96071093996985157 0.81954008780615684 0 0.79999999999947335 0 0 0.84999999999960507 0 0 0.82050174006822896 0.038839999600956771 0 0.20000000000083221 1 0 0.15000000000062411 1 0 0.18045991219397989 0.960710939969875 0 0 0.20000000000083221 0 0 0.15000000000062411 0 0.038839999600931263 0.17949825993190149 0 0.64518564541690571 0.69601563325001548 0 0.6768914574865772 0.67861120078714243 0 0.67626275269587088 0.72713741921009012 0 0.30421635384321521 0.64514939193436716 0 0.32259853082073792 0.67670072609835186 0 0.27349656744860212 0.67581741996408695 0 0.69601563325001248 0.35481435458309712 0 0.6786112007871401 0.32310854251343019 0 0.72713741921008324 0.32373724730413678 0 0.35481435458309307 0.30398436674998969 0 0.3231032570156932 0.32141443408924047 0 0.32373692627050221 0.27286413781593999 0 0.49771727055908782 0.83998685797641781 0 0.48758069708049379 0.89080072540186539 0 0.45353891581270822 0.85551523377818905 0 0.16001314202358469 0.49771727055909287 0 0.1091992745981364 0.48758069708049778 0 0.1444847662218138 0.45353891581271188 0 0.83998574657308889 0.50228528270184081 0 0.89079805168298443 0.51242544533572376 0 0.85551478316835361 0.54646211938695222 0 0.50228272944093777 0.16001314202359701 0 0.51241930291950477 0.1091992745981813 0 0.54646108418729233 0.1444847662218687 0 0.70252050881959183 0.70358884261915833 0 0.6768914574865772 0.67861120078714243 0 0.71518943060973483 0.65679402931717101 0 0.29641115738084339 0.70252050881958938 0 0.32259853082073792 0.67670072609835186 0 0.34270280102445921 0.71672416762035873 0 0.70358884261915744 0.29747949118041561 0 0.6786112007871401 0.32310854251343019 0 0.65679402931716913 0.28481056939027388 0 0.29747949118041711 0.2964111573808435 0 0.3231032570156932 0.32141443408924047 0 0.28473805236128291 0.34355768118673757 0 0.92670321183853355 0.65773042910151081 0 0.96654491682122368 0.6363613838740827 0 0.96779701826738695 0.67105375815842694 0 0.65773042910151891 0.073296788161472337 0 0.63635157668793507 0.033457646040912177 0 0.67098510785536181 0.032220921767549461 0 0.073296788161418117 0.34226957089850552 0 0.033457646040922301 0.36364842331228431 0 0.032220921767546963 0.32901489214487523 0 0.3422695708985129 0.92670321183858773 0 0.36363861612613613 0.96654491682121313 0 0.32894624184180998 0.96779701826738929 0 1 0.64999999999907843 0 1 0.69999999999921003 0 0.96779701826738695 0.67105375815842694 0 0.64999999999907843 0 0 0.69999999999921003 0 0 0.67098510785536181 0.032220921767549461 0 0.35000000000145642 1 0 0.30000000000124832 1 0 0.32894624184180998 0.96779701826738929 0 0 0.35000000000145642 0 0 0.30000000000124832 0 0.032220921767546963 0.32901489214487523 0 0 0.40000000000166441 0 0 0.35000000000145642 0 0.033457646040922301 0.36364842331228431 0 0.40000000000166441 1 0 0.35000000000145642 1 0 0.36363861612613613 0.96654491682121313 0 0.59999999999894682 0 0 0.64999999999907843 0 0 0.63635157668793507 0.033457646040912177 0 1 0.59999999999894682 0 1 0.64999999999907843 0 0.96654491682122368 0.6363613838740827 0 0.81709574086843206 0.91318696080656769 0 0.85174853583809862 0.87705234031428159 0 0.85382799508926477 0.91295829388058414 0 0.086813039193431391 0.81709574086842884 0 0.1229476596857173 0.85174853583809695 0 0.087041706119416085 0.85382799508926188 0 0.90082758526900886 0.098076845682916511 0 0.8517485358380722 0.12294765968568611 0 0.86148619541339633 0.089689702191568438 0 0.098076845682915317 0.099172414730993488 0 0.12294765968567151 0.14825146416195439 0 0.089689702191541126 0.13851380458662241 0 0.59819537371016407 0.74380966024143391 0 0.6083790122881827 0.70496300707145865 0 0.64203711532612107 0.74316477213290444 0 0.64518564541690571 0.69601563325001548 0 0.64203711532612107 0.74316477213290444 0 0.6083790122881827 0.70496300707145865 0 0.25619033975856881 0.59819537371016862 0 0.29503699292854352 0.60837901228818936 0 0.25684529255773247 0.64203554247963057 0 0.30421635384321521 0.64514939193436716 0 0.25684529255773247 0.64203554247963057 0 0.29503699292854352 0.60837901228818936 0 0.74380966024142703 0.40180462628984132 0 0.70496300707145554 0.39162098771181952 0 0.74316477213289889 0.35796288467388632 0 0.69601563325001248 0.35481435458309712 0 0.74316477213289889 0.35796288467388632 0 0.70496300707145554 0.39162098771181952 0 0.40180462628983732 0.2561903397585753 0 0.39162098771181342 0.29503699292854563 0 0.3579628846738841 0.25683522786710378 0 0.35481435458309307 0.30398436674998969 0 0.3579628846738841 0.25683522786710378 0 0.39162098771181342 0.29503699292854563 0 0.8289812646369813 0.82898126463698818 0 0.85174853583809862 0.87705234031428159 0 0.81306033001437827 0.8677384967307622 0 0.17101873536300011 0.82898126463696109 0 0.1229476596857173 0.85174853583809695 0 0.1322615032692282 0.8130603300143705 0 0.8215422551712277 0.56912882742954496 0 0.85551478316835361 0.54646211938695222 0 0.85130417396420255 0.59518556406638579 0 0.43087117257049001 0.8215422551712771 0 0.45353891581270822 0.85551523377818905 0 0.40481452396081791 0.85130421228141606 0 0.56912882742954041 0.17845774482877461 0 0.54646108418729233 0.1444847662218687 0 0.59518547603920147 0.14869578771864489 0 0.17845774482872559 0.43087117257049429 0 0.1444847662218138 0.45353891581271188 0 0.14869578771858949 0.40481452396082068 0 0.49854341599767982 0.37075914768127122 0 0.46543211128216788 0.38788423543681888 0 0.47253211736503098 0.34081710830804929 0 0.43301393728221038 0.35984320557492139 0 0.47253211736503098 0.34081710830804929 0 0.46543211128216788 0.38788423543681888 0 0.36030748482174152 0.84598529912882459 0 0.40481452396081791 0.85130421228141606 0 0.37839190921727062 0.89064679688614412 0 0.84598529912884157 0.63969251517827153 0 0.85130417396420255 0.59518556406638579 0 0.89064679688610338 0.6216080907827598 0 0.15401470087117619 0.36030748482174652 0 0.14869578771858949 0.40481452396082068 0 0.10935320311385981 0.37839190921727089 0 0.63969251517826664 0.15401470087115929 0 0.59518547603920147 0.14869578771864489 0 0.62160809078275991 0.1093532031139005 0 0.64455163611866495 0.50369301794551069 0 0.61866949026800744 0.55492322767366287 0 0.59621567360238914 0.5184866806641607 0 0.64518564541690571 0.69601563325001548 0 0.6083790122881827 0.70496300707145865 0 0.60879112811253555 0.66592422311595834 0 0.30421635384321521 0.64514939193436716 0 0.29503699292854352 0.60837901228818936 0 0.33231497408081678 0.60779218732873663 0 0.69601563325001248 0.35481435458309712 0 0.70496300707145554 0.39162098771181952 0 0.66346942254826746 0.391530810754116 0 0.35481435458309307 0.30398436674998969 0 0.39162098771181342 0.29503699292854563 0 0.39120887188745579 0.33407577688404289 0 0.39507969989512881 0.74417394063201048 0 0.38703015239361932 0.80283068154761972 0 0.35837423432538362 0.77730446904312345 0 0.74417394063200648 0.6049203001048884 0 0.8028306815476034 0.61296984760642026 0 0.77730446904309636 0.64162576567462737 0 0.25582605936799319 0.39507969989513358 0 0.197169318452384 0.38703015239362498 0 0.22269553095687891 0.35837423432538801 0 0.60492030010488373 0.25582605936799729 0 0.61296984760641449 0.19716931845240021 0 0.64162576567462404 0.22269553095690481 0 0.46102425708533701 0.43254199134332588 0 0.46152714345798918 0.47344359412352599 0 0.42340342337193693 0.44762131874855388 0 0.5586987495249669 0.33382663527330653 0 0.52929435216580312 0.29671213472503383 0 0.57188338999077359 0.29874123486230147 0 0.58981073711177334 0.48140931020849848 0 0.554170140907293 0.50922353359177785 0 0.54783891860069212 0.46640164214823893 0 0.35944937237716967 0.65164789808436319 0 0.33231497408081678 0.60779218732873663 0 0.37104651296145419 0.60545170748311072 0 0.58981073711177334 0.48140931020849848 0 0.59621567360238914 0.5184866806641607 0 0.554170140907293 0.50922353359177785 0 0.55000000000173355 1 0 0.50000000000205869 1 0 0.51507566941747085 0.9626786017237855 0 0 0.55000000000173355 0 0 0.50000000000205869 0 0.037321398276215258 0.51507566941747263 0 1 0.44999999999882923 0 1 0.49999999999869432 0 0.96266688603193029 0.48495124540067203 0 0.44999999999882923 0 0 0.49999999999869432 0 0 0.48492433058289169 0.037321398276272413 0 0.78031198216143516 0.56693216359979737 0 0.76797069865873757 0.53315993670164308 0 0.80781854240107975 0.53406203754901738 0 0.43306783640023289 0.78031198216144404 0 0.46634612187967051 0.76767585524061377 0 0.46593838964869061 0.80781872835503554 0 0.56683314878414581 0.21944955250104689 0 0.53265327255359129 0.23135454206919101 0 0.53404982287327418 0.19215288291432539 0 0.21968801783855879 0.43306783640023788 0 0.23232476702437141 0.46634525369567709 0 0.19218127164496679 0.46593838964869538 0 0.5586987495249669 0.33382663527330653 0 0.51491507395299929 0.3326740076510219 0 0.52929435216580312 0.29671213472503383 0 0.43565339604028508 0.55159384357101338 0 0.47974773860103892 0.54872726831320284 0 0.45030222762303879 0.58443295115431027 0 0.50333998054938722 0.50119715791968966 0 0.45293656999117771 0.51494832297079129 0 0.46152714345798918 0.47344359412352599 0 0 0 0 0.032369857048753323 0.032369857048862027 0 0 0.050000000000207989 0 1 0 0 0.96763014295114425 0.032369857048773903 0 0.94999999999986839 0 0 1 0 0 1 0.049999999999899652 0 0.96763014295114425 0.032369857048773903 0 0 0 0 0.049999999999899652 0 0 0.032369857048753323 0.032369857048862027 0 1 1 0 0.94999999999979179 1 0 0.96763014295120153 0.96763014295122851 0 1 1 0 0.96763014295120153 0.96763014295122851 0 1 0.94999999999986839 0 0 1 0 0.030452409610489669 0.96954759038951022 0 0.050000000000207989 1 0 0 1 0 0 0.94999999999979179 0 0.030452409610489669 0.96954759038951022 0 0.35984320557492089 0.56698606271778873 0 0.39982789553993509 0.53462762214740622 0 0.40468198875170619 0.57637931869191572 0 0.41009598069569558 0.49083935749285379 0 0.37702386074717259 0.45819417564476811 0 0.42340342337193693 0.44762131874855388 0 0.39419886675318527 0.41912225240070788 0 0.42340342337193693 0.44762131874855388 0 0.37702386074717259 0.45819417564476811 0 0.60938371359314658 0.91847489683800321 0 0.63753756910470316 0.95578163339252209 0 0.5931441817276254 0.95886012268751675 0 0.081525103161997597 0.6093837135931508 0 0.04421836660747535 0.63753756910470205 0 0.041139877312483641 0.59314418172763017 0 0.91890123454466932 0.39094742729597309 0 0.95581270756939096 0.36248656652865863 0 0.95886012268748921 0.4068558182724159 0 0.39061628640684498 0.081525103161991672 0 0.36246243089534252 0.044218366607477223 0 0.40685581827241191 0.041139877312511682 0 0.66820316019503978 0.77769800602796979 0 0.67626275269587088 0.72713741921009012 0 0.71159714897733284 0.75039044679290845 0 0.22230199397202771 0.66820316019503168 0 0.27349656744860212 0.67581741996408695 0 0.249609553207091 0.71159714897732929 0 0.77769800602796679 0.33179683980497482 0 0.72713741921008324 0.32373724730413678 0 0.75039044679291111 0.28840285102267788 0 0.33179683980498331 0.2223019939720311 0 0.32373692627050221 0.27286413781593999 0 0.28840285102268098 0.24960955320708811 0 0.54901591374940373 0.42306523525165751 0 0.54783891860069212 0.46640164214823893 0 0.50753758205811061 0.4506562873613274 0 0.34804757266227387 0.35750068079406011 0 0.39120887188745579 0.33407577688404289 0 0.39222057657781068 0.38067796690227418 0 0.7000000000006934 1 0 0.6766004019857832 0.9676421564932749 0 0.71789175274016548 0.95136708251202151 0 0 0.7000000000006934 0 0.032357843506722522 0.67660040198578164 0 0.04863291748797445 0.71789175274016204 0 0.67757268808231397 0.93106206656183088 0 0.71789175274016548 0.95136708251202151 0 0.6766004019857832 0.9676421564932749 0 0.068937933438162791 0.67757268808231053 0 0.04863291748797445 0.71789175274016204 0 0.032357843506722522 0.67660040198578164 0 1 0.29999999999926641 0 0.96720628700974665 0.32362438565954771 0 0.94915666091748963 0.28320804985299752 0 0.29999999999926641 0 0 0.32361955853288599 0.032799927825624707 0 0.28320804985300141 0.050843339082505573 0 0.93106206656185309 0.32242731191769503 0 0.94915666091748963 0.28320804985299752 0 0.96720628700974665 0.32362438565954771 0 0.32242731191769902 0.068937933438140794 0 0.28320804985300141 0.050843339082505573 0 0.32361955853288599 0.032799927825624707 0 0.91838802593884228 0.81827409710237209 0 0.87660297360393757 0.8104127896505644 0 0.9041449437197947 0.7786886066890556 0 0.1817259028976386 0.91838802593888857 0 0.18958721034944021 0.87660297360394568 0 0.22131139331094829 0.9041449437198319 0 0.76395804595204597 0.67808171673060369 0 0.77730446904309636 0.64162576567462737 0 0.80847852346122429 0.67208120229789559 0 0.32191828326940508 0.76395804595204586 0 0.35837423432538362 0.77730446904312345 0 0.32791879770213411 0.80847852346120164 0 0.67808171673060202 0.23604195404795861 0 0.64162576567462404 0.22269553095690481 0 0.67208120229787616 0.1915214765387884 0 0.2360419540479583 0.32191828326940741 0 0.22269553095687891 0.35837423432538801 0 0.19152147653881049 0.32791879770215432 0 0.82118136511706341 0.082875076569723011 0 0.8110316677333288 0.125875177082863 0 0.77925951159456153 0.09969477121230251 0 0.08287507656968085 0.1788186348829835 0 0.12587517708284679 0.1889683322666954 0 0.099694771212264055 0.22074048840547039 0 0.43301393728221038 0.35984320557492139 0 0.46543211128216788 0.38788423543681888 0 0.42930823106401639 0.40626685012722968 0 0.43590673999053309 0.90289902042279657 0 0.45353891581270822 0.85551523377818905 0 0.48758069708049379 0.89080072540186539 0 0.097100979577207341 0.43590673999053198 0 0.1444847662218138 0.45353891581271188 0 0.1091992745981364 0.48758069708049778 0 0.90289902042272274 0.56409326000946114 0 0.85551478316835361 0.54646211938695222 0 0.89079805168298443 0.51242544533572376 0 0.56409326000946236 0.097100979577281268 0 0.54646108418729233 0.1444847662218687 0 0.51241930291950477 0.1091992745981813 0 0.51484304721220842 0.69707233951836334 0 0.49073113440598592 0.73759004618730417 0 0.46736891737654429 0.70015537930374983 0 0.44764943295894188 0.73752415265401661 0 0.46736891737654429 0.70015537930374983 0 0.49073113440598592 0.73759004618730417 0 0.30292766048163949 0.51484304721221474 0 0.262418491288269 0.49071922292154141 0 0.29988655052531688 0.46700727827593119 0 0.26247584734598628 0.44764943295894732 0 0.29988655052531688 0.46700727827593119 0 0.262418491288269 0.49071922292154141 0 0.70015119067225129 0.48481914991727459 0 0.73815142352639962 0.50697050072007344 0 0.69798396601998558 0.5289734597937793 0 0.73752415265401194 0.55235056704108476 0 0.69798396601998558 0.5289734597937793 0 0.73815142352639962 0.50697050072007344 0 0.67757268808231397 0.93106206656183088 0 0.6441774148058701 0.91458123574274031 0 0.66923299355723143 0.8804077449518628 0 0.068937933438162791 0.67757268808231053 0 0.085418764257258195 0.64417741480586865 0 0.1195922550481313 0.66923299355722787 0 0.93106206656185309 0.32242731191769503 0 0.91286712511202617 0.35637271447129198 0 0.88040774495187946 0.33076700644278889 0 0.32242731191769902 0.068937933438140794 0 0.35582258519414178 0.085418764257258431 0 0.33076700644279272 0.1195922550481146 0 0.63969251517836323 0.84598529912890386 0 0.66923299355723143 0.8804077449518628 0 0.62483828039315681 0.8780818733396436 0 0.1540147008710982 0.63969251517836956 0 0.1195922550481313 0.66923299355722787 0 0.1219181266603569 0.62483828039315903 0 0.84598529912889664 0.36030748482164038 0 0.88040774495187946 0.33076700644278889 0 0.87815187193233801 0.37523526017134418 0 0.3603074848216346 0.15401470087110539 0 0.33076700644279272 0.1195922550481146 0 0.37516171960683908 0.121918126660369 0 0.46102425708533701 0.43254199134332588 0 0.5047849391802508 0.40719950955717021 0 0.50753758205811061 0.4506562873613274 0 0.85607519768343354 0.69380468830529196 0 0.88396545633132484 0.6625197322180193 0 0.90051880305432697 0.69261863673346957 0 0.30619531169472608 0.85607519768342955 0 0.33748026778199908 0.88396545633134682 0 0.30738136326657722 0.90051880305435028 0 0.69379929796456197 0.14392209494791061 0 0.66251865414987876 0.1160340021949529 0 0.69253601466723103 0.09949211948105087 0 0.14392209494791439 0.30620070203545702 0 0.11603400219493119 0.33748134585014028 0 0.099492119481027347 0.30746398533281638 0 0.78284912262770068 0.83746308049763585 0 0.81306033001437827 0.8677384967307622 0 0.78020430794084783 0.88768307197553598 0 0.16253691950235041 0.78284912262768558 0 0.1322615032692282 0.8130603300143705 0 0.11231692802445629 0.78020430794084028 0 0.66820316019503978 0.77769800602796979 0 0.64203711532612107 0.74316477213290444 0 0.67626275269587088 0.72713741921009012 0 0.22230199397202771 0.66820316019503168 0 0.25684529255773247 0.64203554247963057 0 0.27349656744860212 0.67581741996408695 0 0.77769800602796679 0.33179683980497482 0 0.74316477213289889 0.35796288467388632 0 0.72713741921008324 0.32373724730413678 0 0.33179683980498331 0.2223019939720311 0 0.3579628846738841 0.25683522786710378 0 0.32373692627050221 0.27286413781593999 0 0.4434591735942961 0.66641640622551224 0 0.45517457031814612 0.62743100079604397 0 0.47818752133962877 0.66454462905280853 0 0.7000000000006934 1 0 0.65000000000104008 1 0 0.6766004019857832 0.9676421564932749 0 0 0.7000000000006934 0 0 0.65000000000104008 0 0.032357843506722522 0.67660040198578164 0 1 0.29999999999926641 0 1 0.34999999999912063 0 0.96720628700974665 0.32362438565954771 0 0.29999999999926641 0 0 0.34999999999912063 0 0 0.32361955853288599 0.032799927825624707 0 0.49854341599767982 0.37075914768127122 0 0.47253211736503098 0.34081710830804929 0 0.51491507395299929 0.3326740076510219 0 0.50000000000205869 1 0 0.45000000000187229 1 0 0.47500000000196563 0.970555092835793 0 0 0.50000000000205869 0 0 0.45000000000187229 0 0.029444907164209121 0.47500000000196552 0 1 0.49999999999869432 0 1 0.5499999999988151 0 0.97055509283553232 0.52499999999875435 0 0.49999999999869432 0 0 0.5499999999988151 0 0 0.52499999999875446 0.029444907164469181 0 0.91838802593870927 0.18172590289757809 0 0.89556054516486661 0.21720615046483649 0 0.87355793346388477 0.18922011052113649 0 0.18172590289758209 0.08161197406129285 0 0.21720615046484709 0.1044394548351292 0 0.18922011052115781 0.12644206653611201 0 0.48378871228000903 0.29745177826977359 0 0.51491507395299929 0.3326740076510219 0 0.47253211736503098 0.34081710830804929 0 0.58981073711177334 0.48140931020849848 0 0.59313386551587477 0.43977047843653239 0 0.62619054498681193 0.46482944251856079 0 0.640156794425081 0.43301393728221721 0 0.62619054498681193 0.46482944251856079 0 0.59313386551587477 0.43977047843653239 0 0 0.45000000000187229 0 0.043612803661092707 0.44006111182840391 0 0.029444907164209121 0.47500000000196552 0 0.45000000000187229 1 0 0.44006111182840962 0.9563871963389079 0 0.47500000000196563 0.970555092835793 0 0.5499999999988151 0 0 0.55993888817186677 0.043612803661174412 0 0.52499999999875446 0.029444907164469181 0 1 0.5499999999988151 0 0.95638719633882641 0.5599388881718611 0 0.97055509283553232 0.52499999999875435 0 0.57051182622447827 0.69668652018496713 0 0.60879112811253555 0.66592422311595834 0 0.6083790122881827 0.70496300707145865 0 0.30429740679959738 0.56913905146460098 0 0.33231497408081678 0.60779218732873663 0 0.29503699292854352 0.60837901228818936 0 0.69595787604187809 0.43071000156707989 0 0.66346942254826746 0.391530810754116 0 0.70496300707145554 0.39162098771181952 0 0.43059486795334201 0.30395973419063538 0 0.39120887188745579 0.33407577688404289 0 0.39162098771181342 0.29503699292854563 0 0.35984320557492089 0.56698606271778873 0 0.37104651296145419 0.60545170748311072 0 0.33231497408081678 0.60779218732873663 0 0.43565339604028508 0.55159384357101338 0 0.40468198875170619 0.57637931869191572 0 0.39982789553993509 0.53462762214740622 0 0.66820316019503978 0.77769800602796979 0 0.71159714897733284 0.75039044679290845 0 0.69892030930712212 0.7971997999085858 0 0.22230199397202771 0.66820316019503168 0 0.249609553207091 0.71159714897732929 0 0.2028002000914135 0.69892030930711557 0 0.77769800602796679 0.33179683980497482 0 0.75039044679291111 0.28840285102267788 0 0.7971997999085878 0.3010796906928917 0 0.33179683980498331 0.2223019939720311 0 0.28840285102268098 0.24960955320708811 0 0.30107969069289831 0.20280020009141189 0 0.34804757266227387 0.35750068079406011 0 0.39222057657781068 0.38067796690227418 0 0.35481422397128459 0.40312981465069342 0 0.67757268808231397 0.93106206656183088 0 0.66923299355723143 0.8804077449518628 0 0.70475631558365914 0.90098127745102974 0 0.068937933438162791 0.67757268808231053 0 0.1195922550481313 0.66923299355722787 0 0.099018722548963364 0.70475631558365193 0 0.93106206656185309 0.32242731191769503 0 0.88040774495187946 0.33076700644278889 0 0.89886191075654698 0.29506339503703172 0 0.32242731191769902 0.068937933438140794 0 0.33076700644279272 0.1195922550481146 0 0.29506339503703888 0.1011380892434444 0 0.53432142347292233 0.88563193847251998 0 0.56877264426066887 0.91182300080710277 0 0.52425337578225772 0.9223731761594427 0 0.1143680615274819 0.53432142347292733 0 0.088176999192898689 0.56877264426067353 0 0.07762682384055844 0.52425337578226128 0 0.46567857652706018 0.1143680615275231 0 0.43122735573933979 0.088176999192917438 0 0.47574662421782782 0.077626823840590969 0 0.39419886675318527 0.41912225240070788 0 0.35481422397128459 0.40312981465069342 0 0.39222057657781068 0.38067796690227418 0 1 0.49999999999869432 0 0.97055509283553232 0.52499999999875435 0 0.96266688603193029 0.48495124540067203 0 0.49999999999869432 0 0 0.52499999999875446 0.029444907164469181 0 0.48492433058289169 0.037321398276272413 0 0.93510666819640953 0.51330222939551939 0 0.96266688603193029 0.48495124540067203 0 0.97055509283553232 0.52499999999875435 0 0.5133022293955174 0.064893331803591428 0 0.48492433058289169 0.037321398276272413 0 0.52499999999875446 0.029444907164469181 0 0 0.50000000000205869 0 0.029444907164209121 0.47500000000196552 0 0.037321398276215258 0.51507566941747263 0 0.50000000000205869 1 0 0.47500000000196563 0.970555092835793 0 0.51507566941747085 0.9626786017237855 0 0.48669777060454272 0.93510666819646593 0 0.51507566941747085 0.9626786017237855 0 0.47500000000196563 0.970555092835793 0 0.064893331803534807 0.48669777060454478 0 0.037321398276215258 0.51507566941747263 0 0.029444907164209121 0.47500000000196552 0 0.55307204985744796 0.94819812235491685 0 0.52425337578225772 0.9223731761594427 0 0.56877264426066887 0.91182300080710277 0 0.051801877645083663 0.55307204985745195 0 0.07762682384055844 0.52425337578226128 0 0.088176999192898689 0.56877264426067353 0 0.44692795014265252 0.051801877645060238 0 0.47574662421782782 0.077626823840590969 0 0.43122735573933979 0.088176999192917438 0 0.70085728320704077 0.84350379029875056 0 0.66919832404887702 0.81820888699730587 0 0.69892030930712212 0.7971997999085858 0 0.1564962097012354 0.70085728320703999 0 0.1817911130026923 0.66919832404888702 0 0.2028002000914135 0.69892030930711557 0 0.84350379029877964 0.29914271679296989 0 0.8182088869973061 0.33080167595111531 0 0.7971997999085878 0.3010796906928917 0 0.29914271679297122 0.15649620970120659 0 0.33080167595110582 0.18179111300269291 0 0.30107969069289831 0.20280020009141189 0 0.33382663527330159 0.44130125047503482 0 0.37702386074717259 0.45819417564476811 0 0.33436424489304489 0.47849603121740791 0 0.44764943295894188 0.73752415265401661 0 0.46634612187967051 0.76767585524061377 0 0.43306783640023289 0.78031198216144404 0 0.73752415265401194 0.55235056704108476 0 0.76797069865873757 0.53315993670164308 0 0.78031198216143516 0.56693216359979737 0 0.26247584734598628 0.44764943295894732 0 0.23232476702437141 0.46634525369567709 0 0.21968801783855879 0.43306783640023788 0 0.55175647814720108 0.26104505532086641 0 0.53265327255359129 0.23135454206919101 0 0.56683314878414581 0.21944955250104689 0 0.65000000000104008 1 0 0.63753756910470316 0.95578163339252209 0 0.6766004019857832 0.9676421564932749 0 0 0.65000000000104008 0 0.04421836660747535 0.63753756910470205 0 0.032357843506722522 0.67660040198578164 0 1 0.34999999999912063 0 0.95581270756939096 0.36248656652865863 0 0.96720628700974665 0.32362438565954771 0 0.34999999999912063 0 0 0.36246243089534252 0.044218366607477223 0 0.32361955853288599 0.032799927825624707 0 0.67757268808231397 0.93106206656183088 0 0.6766004019857832 0.9676421564932749 0 0.63753756910470316 0.95578163339252209 0 0.068937933438162791 0.67757268808231053 0 0.032357843506722522 0.67660040198578164 0 0.04421836660747535 0.63753756910470205 0 0.93106206656185309 0.32242731191769503 0 0.96720628700974665 0.32362438565954771 0 0.95581270756939096 0.36248656652865863 0 0.32242731191769902 0.068937933438140794 0 0.32361955853288599 0.032799927825624707 0 0.36246243089534252 0.044218366607477223 0 0.94812782820415209 0.44708943904932719 0 0.92203742772043751 0.47579485578641628 0 0.90991454156957952 0.4312731559748802 0 0.88561059063756964 0.46572761956237563 0 0.90991454156957952 0.4312731559748802 0 0.92203742772043751 0.47579485578641628 0 0.49189101320880302 0.59024331187324797 0 0.45517457031814612 0.62743100079604397 0 0.45030222762303879 0.58443295115431027 0 0.54465502325161819 0.74717983044080061 0 0.57578062281532438 0.77751665353176347 0 0.53770425635794761 0.80104587463999666 0 0.25287139441262568 0.54458355434492378 0 0.2224870800581388 0.57577541371134155 0 0.1989632851005598 0.53769147668950479 0 0.74730218607442667 0.45539100053644521 0 0.77752557158083724 0.42422273168818408 0 0.80106707846564795 0.46230714888029367 0 0.45533136021725079 0.2525687312087147 0 0.42421838472613971 0.22246502005787769 0 0.46229330881044273 0.19890916456654811 0 0.57387636360620708 0.54318431390135336 0 0.59621567360238914 0.5184866806641607 0 0.61866949026800744 0.55492322767366287 0 0.66923299355723143 0.8804077449518628 0 0.6441774148058701 0.91458123574274031 0 0.62483828039315681 0.8780818733396436 0 0.1195922550481313 0.66923299355722787 0 0.085418764257258195 0.64417741480586865 0 0.1219181266603569 0.62483828039315903 0 0.88040774495187946 0.33076700644278889 0 0.91286712511202617 0.35637271447129198 0 0.87815187193233801 0.37523526017134418 0 0.33076700644279272 0.1195922550481146 0 0.35582258519414178 0.085418764257258431 0 0.37516171960683908 0.121918126660369 0 0.49189101320880302 0.59024331187324797 0 0.45030222762303879 0.58443295115431027 0 0.47974773860103892 0.54872726831320284 0 0.92670321183853355 0.65773042910151081 0 0.90051880305432697 0.69261863673346957 0 0.88396545633132484 0.6625197322180193 0 0.65773042910151891 0.073296788161472337 0 0.69253601466723103 0.09949211948105087 0 0.66251865414987876 0.1160340021949529 0 0.3422695708985129 0.92670321183858773 0 0.30738136326657722 0.90051880305435028 0 0.33748026778199908 0.88396545633134682 0 0.073296788161418117 0.34226957089850552 0 0.099492119481027347 0.30746398533281638 0 0.11603400219493119 0.33748134585014028 0 0.60938371359314658 0.91847489683800321 0 0.6441774148058701 0.91458123574274031 0 0.63753756910470316 0.95578163339252209 0 0.081525103161997597 0.6093837135931508 0 0.085418764257258195 0.64417741480586865 0 0.04421836660747535 0.63753756910470205 0 0.91890123454466932 0.39094742729597309 0 0.91286712511202617 0.35637271447129198 0 0.95581270756939096 0.36248656652865863 0 0.39061628640684498 0.081525103161991672 0 0.35582258519414178 0.085418764257258431 0 0.36246243089534252 0.044218366607477223 0 0.67757268808231397 0.93106206656183088 0 0.63753756910470316 0.95578163339252209 0 0.6441774148058701 0.91458123574274031 0 0.068937933438162791 0.67757268808231053 0 0.04421836660747535 0.63753756910470205 0 0.085418764257258195 0.64417741480586865 0 0.93106206656185309 0.32242731191769503 0 0.95581270756939096 0.36248656652865863 0 0.91286712511202617 0.35637271447129198 0 0.32242731191769902 0.068937933438140794 0 0.36246243089534252 0.044218366607477223 0 0.35582258519414178 0.085418764257258431 0 0.56759263990989184 0.81794319034601648 0 0.53770425635794761 0.80104587463999666 0 0.57578062281532438 0.77751665353176347 0 0.18205680965398621 0.56759263990989739 0 0.1989632851005598 0.53769147668950479 0 0.2224870800581388 0.57577541371134155 0 0.81794319034597418 0.43240736009009317 0 0.80106707846564795 0.46230714888029367 0 0.77752557158083724 0.42422273168818408 0 0.43240736009008851 0.18205680965402779 0 0.46229330881044273 0.19890916456654811 0 0.42421838472613971 0.22246502005787769 0 0.4434591735942961 0.66641640622551224 0 0.46736891737654429 0.70015537930374983 0 0.42715538333808079 0.70077759375307946 0 0.44764943295894188 0.73752415265401661 0 0.42715538333808079 0.70077759375307946 0 0.46736891737654429 0.70015537930374983 0 0.66548584431530877 0.55616712808283064 0 0.69798396601998558 0.5289734597937793 0 0.70087539567735502 0.57165914616526226 0 0.33382663527330159 0.44130125047503482 0 0.29988655052531688 0.46700727827593119 0 0.2963043386970643 0.4298320229681446 0 0.73752415265401194 0.55235056704108476 0 0.70087539567735502 0.57165914616526226 0 0.69798396601998558 0.5289734597937793 0 0.26247584734598628 0.44764943295894732 0 0.2963043386970643 0.4298320229681446 0 0.29988655052531688 0.46700727827593119 0 0.46102425708533701 0.43254199134332588 0 0.46543211128216788 0.38788423543681888 0 0.5047849391802508 0.40719950955717021 0 0.49854341599767982 0.37075914768127122 0 0.5047849391802508 0.40719950955717021 0 0.46543211128216788 0.38788423543681888 0 0.55175647814720108 0.26104505532086641 0 0.57188338999077359 0.29874123486230147 0 0.52929435216580312 0.29671213472503383 0 0.48378871228000903 0.29745177826977359 0 0.52929435216580312 0.29671213472503383 0 0.51491507395299929 0.3326740076510219 0 0.46102425708533701 0.43254199134332588 0 0.42340342337193693 0.44762131874855388 0 0.42930823106401639 0.40626685012722968 0 0.39419886675318527 0.41912225240070788 0 0.42930823106401639 0.40626685012722968 0 0.42340342337193693 0.44762131874855388 0 0.94812782820415209 0.44708943904932719 0 0.96266688603193029 0.48495124540067203 0 0.92203742772043751 0.47579485578641628 0 0.44692795014265252 0.051801877645060238 0 0.48492433058289169 0.037321398276272413 0 0.47574662421782782 0.077626823840590969 0 0.93510666819640953 0.51330222939551939 0 0.92203742772043751 0.47579485578641628 0 0.96266688603193029 0.48495124540067203 0 0.5133022293955174 0.064893331803591428 0 0.47574662421782782 0.077626823840590969 0 0.48492433058289169 0.037321398276272413 0 0.55307204985744796 0.94819812235491685 0 0.51507566941747085 0.9626786017237855 0 0.52425337578225772 0.9223731761594427 0 0.051801877645083663 0.55307204985745195 0 0.037321398276215258 0.51507566941747263 0 0.07762682384055844 0.52425337578226128 0 0.48669777060454272 0.93510666819646593 0 0.52425337578225772 0.9223731761594427 0 0.51507566941747085 0.9626786017237855 0 0.064893331803534807 0.48669777060454478 0 0.07762682384055844 0.52425337578226128 0 0.037321398276215258 0.51507566941747263 0 0.70252050881959183 0.70358884261915833 0 0.71159714897733284 0.75039044679290845 0 0.67626275269587088 0.72713741921009012 0 0.29641115738084339 0.70252050881958938 0 0.249609553207091 0.71159714897732929 0 0.27349656744860212 0.67581741996408695 0 0.70358884261915744 0.29747949118041561 0 0.75039044679291111 0.28840285102267788 0 0.72713741921008324 0.32373724730413678 0 0.29747949118041711 0.2964111573808435 0 0.28840285102268098 0.24960955320708811 0 0.32373692627050221 0.27286413781593999 0 0.48378871228000903 0.29745177826977359 0 0.50732841191799194 0.2613117081243182 0 0.52929435216580312 0.29671213472503383 0 0.50000000000002642 0.7803135888501761 0 0.46634612187967051 0.76767585524061377 0 0.49073113440598592 0.73759004618730417 0 0.44764943295894188 0.73752415265401661 0 0.49073113440598592 0.73759004618730417 0 0.46634612187967051 0.76767585524061377 0 0.73752415265401194 0.55235056704108476 0 0.73815142352639962 0.50697050072007344 0 0.76797069865873757 0.53315993670164308 0 0.78031358885017377 0.49999999999997569 0 0.76797069865873757 0.53315993670164308 0 0.73815142352639962 0.50697050072007344 0 0.2196864111498267 0.50000000000003153 0 0.23232476702437141 0.46634525369567709 0 0.262418491288269 0.49071922292154141 0 0.26247584734598628 0.44764943295894732 0 0.262418491288269 0.49071922292154141 0 0.23232476702437141 0.46634525369567709 0 0.55175647814720108 0.26104505532086641 0 0.50732841191799194 0.2613117081243182 0 0.53265327255359129 0.23135454206919101 0 0.49999999999997108 0.21968641114982909 0 0.53265327255359129 0.23135454206919101 0 0.50732841191799194 0.2613117081243182 0 0.64455163611866495 0.50369301794551069 0 0.62619054498681193 0.46482944251856079 0 0.66329969176266512 0.46626046872004567 0 0.50000000000002642 0.7803135888501761 0 0.46593838964869061 0.80781872835503554 0 0.46634612187967051 0.76767585524061377 0 0.2196864111498267 0.50000000000003153 0 0.19218127164496679 0.46593838964869538 0 0.23232476702437141 0.46634525369567709 0 0.78031358885017377 0.49999999999997569 0 0.80781854240107975 0.53406203754901738 0 0.76797069865873757 0.53315993670164308 0 0.49999999999997108 0.21968641114982909 0 0.53404982287327418 0.19215288291432539 0 0.53265327255359129 0.23135454206919101 0 0.55175647814720108 0.26104505532086641 0 0.52929435216580312 0.29671213472503383 0 0.50732841191799194 0.2613117081243182 0 0.64518564541690571 0.69601563325001548 0 0.67626275269587088 0.72713741921009012 0 0.64203711532612107 0.74316477213290444 0 0.30421635384321521 0.64514939193436716 0 0.27349656744860212 0.67581741996408695 0 0.25684529255773247 0.64203554247963057 0 0.69601563325001248 0.35481435458309712 0 0.72713741921008324 0.32373724730413678 0 0.74316477213289889 0.35796288467388632 0 0.35481435458309307 0.30398436674998969 0 0.32373692627050221 0.27286413781593999 0 0.3579628846738841 0.25683522786710378 0 0.640156794425081 0.43301393728221721 0 0.66329969176266512 0.46626046872004567 0 0.62619054498681193 0.46482944251856079 0 1 0.64999999999907843 0 0.96779701826738695 0.67105375815842694 0 0.96654491682122368 0.6363613838740827 0 0.64999999999907843 0 0 0.67098510785536181 0.032220921767549461 0 0.63635157668793507 0.033457646040912177 0 0.35000000000145642 1 0 0.32894624184180998 0.96779701826738929 0 0.36363861612613613 0.96654491682121313 0 0 0.35000000000145642 0 0.032220921767546963 0.32901489214487523 0 0.033457646040922301 0.36364842331228431 0 0.66820316019503978 0.77769800602796979 0 0.69892030930712212 0.7971997999085858 0 0.66919832404887702 0.81820888699730587 0 0.22230199397202771 0.66820316019503168 0 0.2028002000914135 0.69892030930711557 0 0.1817911130026923 0.66919832404888702 0 0.77769800602796679 0.33179683980497482 0 0.7971997999085878 0.3010796906928917 0 0.8182088869973061 0.33080167595111531 0 0.33179683980498331 0.2223019939720311 0 0.30107969069289831 0.20280020009141189 0 0.33080167595110582 0.18179111300269291 0 0.4434591735942961 0.66641640622551224 0 0.47818752133962877 0.66454462905280853 0 0.46736891737654429 0.70015537930374983 0 0.33382663527330159 0.44130125047503482 0 0.33436424489304489 0.47849603121740791 0 0.29988655052531688 0.46700727827593119 0 0.46102425708533701 0.43254199134332588 0 0.42930823106401639 0.40626685012722968 0 0.46543211128216788 0.38788423543681888 0 0.35984320557492089 0.56698606271778873 0 0.40468198875170619 0.57637931869191572 0 0.37104651296145419 0.60545170748311072 0 0.60938371359314658 0.91847489683800321 0 0.62483828039315681 0.8780818733396436 0 0.6441774148058701 0.91458123574274031 0 0.081525103161997597 0.6093837135931508 0 0.1219181266603569 0.62483828039315903 0 0.085418764257258195 0.64417741480586865 0 0.91890123454466932 0.39094742729597309 0 0.87815187193233801 0.37523526017134418 0 0.91286712511202617 0.35637271447129198 0 0.39061628640684498 0.081525103161991672 0 0.37516171960683908 0.121918126660369 0 0.35582258519414178 0.085418764257258431 0 0.40653508887824003 0.61580573377480397 0 0.37104651296145419 0.60545170748311072 0 0.40468198875170619 0.57637931869191572 0 
</DataArray>
</Points>
<Cells>
<DataArray type="UInt32" Name="connectivity" format="ascii">
0 1 2 3 4 5 6 7 8 9 10 11 12 13 14 15 16 17 18 19 20 21 22 23 24 25 26 27 28 29 30 31 32 33 34 35 36 37 38 39 40 41 42 43 44 45 46 47 48 49 50 51 52 53 54 55 56 57 58 59 60 61 62 63 64 65 66 67 68 69 70 71 72 73 74 75 76 77 78 79 80 81 82 83 84 85 86 87 88 89 90 91 92 93 94 95 96 97 98 99 100 101 102 103 104 105 106 107 108 109 110 111 112 113 114 115 116 117 118 119 120 121 122 123 124 125 126 127 128 129 130 131 132 133 134 135 136 137 138 139 140 141 142 143 144 145 146 147 148 149 150 151 152 153 154 155 156 157 158 159 160 161 162 163 164 165 166 167 168 169 170 171 172 173 174 175 176 177 178 179 180 181 182 183 184 185 186 187 188 189 190 191 192 193 194 195 196 197 198 199 200 201 202 203 204 205 206 207 208 209 210 211 212 213 214 215 216 217 218 219 220 221 222 223 224 225 226 227 228 229 230 231 232 233 234 235 236 237 238 239 240 241 242 243 244 245 246 247 248 249 250 251 252 253 254 255 256 257 258 259 260 261 262 263 264 265 266 267 268 269 270 271 272 273 274 275 276 277 278 279 280 281 282 283 284 285 286 287 288 289 290 291 292 293 294 295 296 297 298 299 300 301 302 303 304 305 306 307 308 309 310 311 312 313 314 315 316 317 318 319 320 321 322 323 324 325 326 327 328 329 330 331 332 333 334 335 336 337 338 339 340 341 342 343 344 345 346 347 348 349 350 351 352 353 354 355 356 357 358 359 360 361 362 363 364 365 366 367 368 369 370 371 372 373 374 375 376 377 378 379 380 381 382 383 384 385 386 387 388 389 390 391 392 393 394 395 396 397 398 399 400 401 402 403 404 405 406 407 408 409 410 411 412 413 414 415 416 417 418 419 420 421 422 423 424 425 426 427 428 429 430 431 432 433 434 435 436 437 438 439 440 441 442 443 444 445 446 447 448 449 450 451 452 453 454 455 456 457 458 459 460 461 462 463 464 465 466 467 468 469 470 471 472 473 474 475 476 477 478 479 480 481 482 483 484 485 486 487 488 489 490 491 492 493 494 495 496 497 498 499 500 501 502 503 504 505 506 507 508 509 510 511 512 513 514 515 516 517 518 519 520 521 522 523 524 525 526 527 528 529 530 531 532 533 534 535 536 537 538 539 540 541 542 543 544 545 546 547 548 549 550 551 552 553 554 555 556 557 558 559 560 561 562 563 564 565 566 567 568 569 570 571 572 573 574 575 576 577 578 579 580 581 582 583 584 585 586 587 588 589 590 591 592 593 594 595 596 597 598 599 600 601 602 603 604 605 606 607 608 609 610 611 612 613 614 615 616 617 618 619 620 621 622 623 624 625 626 627 628 629 630 631 632 633 634 635 636 637 638 639 640 641 642 643 644 645 646 647 648 649 650 651 652 653 654 655 656 657 658 659 660 661 662 663 664 665 666 667 668 669 670 671 672 673 674 675 676 677 678 679 680 681 682 683 684 685 686 687 688 689 690 691 692 693 694 695 696 697 698 699 700 701 702 703 704 705 706 707 708 709 710 711 712 713 714 715 716 717 718 719 720 721 722 723 724 725 726 727 728 729 730 731 732 733 734 735 736 737 738 739 740 741 742 743 744 745 746 747 748 749 750 751 752 753 754 755 756 757 758 759 760 761 762 763 764 765 766 767 768 769 770 771 772 773 774 775 776 777 778 779 780 781 782 783 784 785 786 787 788 789 790 791 792 793 794 795 796 797 798 799 800 801 802 803 804 805 806 807 808 809 810 811 812 813 814 815 816 817 818 819 820 821 822 823 824 825 826 827 828 829 830 831 832 833 834 835 836 837 838 839 840 841 842 843 844 845 846 847 848 849 850 851 852 853 854 855 856 857 858 859 860 861 862 863 864 865 866 867 868 869 870 871 872 873 874 875 876 877 878 879 880 881 882 883 884 885 886 887 888 889 890 891 892 893 894 895 896 897 898 899 900 901 902 903 904 905 906 907 908 909 910 911 912 913 914 915 916 917 918 919 920 921 922 923 924 925 926 927 928 929 930 931 932 933 934 935 936 937 938 939 940 941 942 943 944 945 946 947 948 949 950 951 952 953 954 955 956 957 958 959 960 961 962 963 964 965 966 967 968 969 970 971 972 973 974 975 976 977 978 979 980 981 982 983 984 985 986 987 988 989 990 991 992 993 994 995 996 997 998 999 1000 1001 1002 1003 1004 1005 1006 1007 1008 1009 1010 1011 1012 1013 1014 1015 1016 1017 1018 1019 1020 1021 1022 1023 1024 1025 1026 1027 1028 1029 1030 1031 1032 1033 1034 1035 1036 1037 1038 1039 1040 1041 1042 1043 1044 1045 1046 1047 1048 1049 1050 1051 1052 1053 1054 1055 1056 1057 1058 1059 1060 1061 1062 1063 1064 1065 1066 1067 1068 1069 1070 1071 1072 1073 1074 1075 1076 1077 1078 1079 1080 1081 1082 1083 1084 1085 1086 1087 1088 1089 1090 1091 1092 1093 1094 1095 1096 1097 1098 1099 1100 1101 1102 1103 1104 1105 1106 1107 1108 1109 1110 1111 1112 1113 1114 1115 1116 1117 1118 1119 1120 1121 1122 1123 1124 1125 1126 1127 1128 1129 1130 1131 1132 1133 1134 1135 1136 1137 1138 1139 1140 1141 1142 1143 1144 1145 1146 1147 1148 1149 1150 1151 1152 1153 1154 1155 1156 1157 1158 1159 1160 1161 1162 1163 1164 1165 1166 1167 1168 1169 1170 1171 1172 1173 1174 1175 1176 1177 1178 1179 1180 1181 1182 1183 1184 1185 1186 1187 1188 1189 1190 1191 1192 1193 1194 1195 1196 1197 1198 1199 1200 1201 1202 1203 1204 1205 1206 1207 1208 1209 1210 1211 1212 1213 1214 1215 1216 1217 1218 1219 1220 1221 1222 1223 1224 1225 1226 1227 1228 1229 1230 1231 1232 1233 1234 1235 1236 1237 1238 1239 1240 1241 1242 1243 1244 1245 1246 1247 1248 1249 1250 1251 1252 1253 1254 1255 1256 1257 1258 1259 1260 1261 1262 1263 1264 1265 1266 1267 1268 1269 1270 1271 1272 1273 1274 1275 1276 1277 1278 1279 1280 1281 1282 1283 1284 1285 1286 1287 1288 1289 1290 1291 1292 1293 1294 1295 1296 1297 1298 1299 1300 1301 1302 1303 1304 1305 1306 1307 1308 1309 1310 1311 1312 1313 1314 1315 1316 1317 1318 1319 1320 1321 1322 1323 1324 1325 1326 1327 1328 1329 1330 1331 1332 1333 1334 1335 1336 1337 1338 1339 1340 1341 1342 1343 1344 1345 1346 1347 1348 1349 1350 1351 1352 1353 1354 1355 1356 1357 1358 1359 1360 1361 1362 1363 1364 1365 1366 1367 1368 1369 1370 1371 1372 1373 1374 1375 1376 1377 1378 1379 1380 1381 1382 1383 1384 1385 1386 1387 1388 1389 1390 1391 1392 1393 1394 1395 1396 1397 1398 1399 1400 1401 1402 1403 1404 1405 1406 1407 1408 1409 1410 1411 1412 1413 1414 1415 1416 1417 1418 1419 1420 1421 1422 1423 1424 1425 1426 1427 1428 1429 1430 1431 1432 1433 1434 1435 1436 1437 1438 1439 1440 1441 1442 1443 1444 1445 1446 1447 1448 1449 1450 1451 1452 1453 1454 1455 1456 1457 1458 1459 1460 1461 1462 1463 1464 1465 1466 1467 1468 1469 1470 1471 1472 1473 1474 1475 1476 1477 1478 1479 1480 1481 1482 1483 1484 1485 1486 1487 1488 1489 1490 1491 1492 1493 1494 1495 1496 1497 1498 1499 1500 1501 1502 1503 1504 1505 1506 1507 1508 1509 1510 1511 1512 1513 1514 1515 1516 1517 1518 1519 1520 1521 1522 1523 1524 1525 1526 1527 1528 1529 1530 1531 1532 1533 1534 1535 1536 1537 1538 1539 1540 1541 1542 1543 1544 1545 1546 1547 1548 1549 1550 1551 1552 1553 1554 1555 1556 1557 1558 1559 1560 1561 1562 1563 1564 1565 1566 1567 1568 1569 1570 1571 1572 1573 1574 1575 1576 1577 1578 1579 1580 1581 1582 1583 1584 1585 1586 1587 1588 1589 1590 1591 1592 1593 1594 1595 1596 1597 1598 1599 1600 1601 1602 1603 1604 1605 1606 1607 1608 1609 1610 1611 1612 1613 1614 1615 1616 1617 1618 1619 1620 1621 1622 1623 1624 1625 1626 1627 1628 1629 1630 1631 1632 1633 1634 1635 1636 1637 1638 1639 1640 1641 1642 1643 1644 1645 1646 1647 1648 1649 1650 1651 1652 1653 1654 1655 1656 1657 1658 1659 1660 1661 1662 1663 1664 1665 1666 1667 1668 1669 1670 1671 1672 1673 1674 1675 1676 1677 1678 1679 1680 1681 1682 1683 1684 1685 1686 1687 1688 1689 1690 1691 1692 1693 1694 1695 1696 1697 1698 1699 1700 1701 1702 1703 1704 1705 1706 1707 1708 1709 1710 1711 1712 1713 1714 1715 1716 1717 1718 1719 1720 1721 1722 1723 1724 1725 1726 1727 1728 1729 1730 1731 1732 1733 1734 1735 1736 1737 1738 1739 1740 1741 1742 1743 1744 1745 1746 1747 1748 1749 1750 1751 1752 1753 1754 1755 1756 1757 1758 1759 1760 1761 1762 1763 1764 1765 1766 1767 1768 1769 1770 1771 1772 1773 1774 1775 1776 1777 1778 1779 1780 1781 1782 1783 1784 1785 1786 1787 1788 1789 1790 1791 1792 1793 1794 1795 1796 1797 1798 1799 1800 1801 1802 1803 1804 1805 1806 1807 1808 1809 1810 1811 1812 1813 1814 1815 1816 1817 1818 1819 1820 1821 1822 1823 1824 1825 1826 1827 1828 1829 1830 1831 1832 1833 1834 1835 1836 1837 1838 1839 1840 1841 1842 1843 1844 1845 1846 1847 1848 1849 1850 1851 1852 1853 1854 1855 1856 1857 1858 1859 1860 1861 1862 1863 1864 1865 1866 1867 1868 1869 1870 1871 1872 1873 1874 1875 1876 1877 1878 1879 1880 1881 1882 1883 1884 1885 1886 1887 1888 1889 1890 1891 1892 1893 1894 1895 1896 1897 1898 1899 1900 1901 1902 1903 1904 1905 1906 1907 1908 1909 1910 1911 1912 1913 1914 1915 1916 1917 1918 1919 1920 1921 1922 1923 1924 1925 1926 1927 1928 1929 1930 1931 1932 1933 1934 1935 1936 1937 1938 1939 1940 1941 1942 1943 1944 1945 1946 1947 1948 1949 1950 1951 1952 1953 1954 1955 1956 1957 1958 1959 1960 1961 1962 1963 1964 1965 1966 1967 1968 1969 1970 1971 1972 1973 1974 1975 1976 1977 1978 1979 1980 1981 1982 1983 1984 1985 1986 1987 1988 1989 1990 1991 1992 1993 1994 1995 1996 1997 1998 1999 2000 2001 2002 2003 2004 2005 2006 2007 2008 2009 2010 2011 2012 2013 2014 2015 2016 2017 2018 2019 2020 2021 2022 2023 2024 2025 2026 2027 2028 2029 2030 2031 2032 2033 2034 2035 2036 2037 2038 2039 2040 2041 2042 2043 2044 2045 2046 2047 2048 2049 2050 2051 2052 2053 2054 2055 2056 2057 2058 2059 2060 2061 2062 2063 2064 2065 2066 2067 2068 2069 2070 2071 2072 2073 2074 2075 2076 2077 2078 2079 2080 2081 2082 2083 2084 2085 2086 2087 2088 2089 2090 2091 2092 2093 2094 2095 2096 2097 2098 2099 2100 2101 2102 2103 2104 2105 2106 2107 2108 2109 2110 2111 2112 2113 2114 2115 2116 2117 2118 2119 2120 2121 2122 2123 2124 2125 2126 2127 2128 2129 2130 2131 2132 2133 2134 2135 2136 2137 2138 2139 2140 2141 2142 2143 2144 2145 2146 2147 2148 2149 2150 2151 2152 2153 2154 2155 2156 2157 2158 2159 2160 2161 2162 2163 2164 2165 2166 2167 2168 2169 2170 2171 2172 2173 2174 2175 2176 2177 2178 2179 2180 2181 2182 2183 2184 2185 2186 2187 2188 2189 2190 2191 2192 2193 2194 2195 2196 2197 2198 2199 2200 2201 2202 2203 2204 2205 2206 2207 2208 2209 2210 2211 2212 2213 2214 2215 2216 2217 2218 2219 2220 2221 2222 2223 2224 2225 2226 2227 2228 2229 2230 2231 2232 2233 2234 2235 2236 2237 2238 2239 2240 2241 2242 2243 2244 2245 2246 2247 2248 2249 2250 2251 2252 2253 2254 2255 2256 2257 2258 2259 2260 2261 2262 2263 2264 2265 2266 2267 2268 2269 2270 2271 2272 2273 2274 2275 2276 2277 2278 2279 2280 2281 2282 2283 2284 2285 2286 2287 2288 2289 2290 2291 2292 2293 2294 2295 2296 2297 2298 2299 2300 2301 2302 2303 2304 2305 2306 2307 2308 2309 2310 2311 2312 2313 2314 2315 2316 2317 2318 2319 2320 2321 2322 2323 2324 2325 2326 2327 2328 2329 2330 2331 2332 2333 2334 2335 2336 2337 2338 2339 2340 2341 2342 2343 2344 2345 2346 2347 2348 2349 2350 2351 2352 2353 2354 2355 2356 2357 2358 2359 2360 2361 2362 2363 2364 2365 2366 2367 2368 2369 2370 2371 2372 2373 2374 2375 2376 2377 2378 2379 2380 2381 2382 2383 2384 2385 2386 2387 2388 2389 2390 2391 2392 2393 2394 2395 2396 2397 2398 2399 2400 2401 2402 2403 2404 2405 2406 2407 2408 2409 2410 2411 2412 2413 2414 2415 2416 2417 2418 2419 2420 2421 2422 2423 2424 2425 2426 2427 2428 2429 2430 2431 2432 2433 2434 2435 2436 2437 2438 2439 2440 2441 2442 2443 2444 2445 2446 2447 2448 2449 2450 2451 2452 2453 2454 2455 2456 2457 2458 2459 2460 2461 2462 2463 2464 2465 2466 2467 2468 2469 2470 2471 2472 2473 2474 2475 2476 2477 2478 2479 2480 2481 2482 2483 2484 2485 2486 2487 2488 2489 2490 2491 2492 2493 2494 2495 2496 2497 2498 2499 2500 2501 2502 2503 2504 2505 2506 2507 2508 2509 2510 2511 2512 2513 2514 2515 2516 2517 2518 2519 2520 2521 2522 2523 2524 2525 2526 2527 2528 2529 2530 2531 2532 2533 2534 2535 2536 2537 2538 2539 2540 2541 2542 2543 2544 2545 2546 2547 2548 2549 2550 2551 2552 2553 2554 2555 2556 2557 2558 2559 2560 2561 2562 2563 2564 2565 2566 2567 2568 2569 2570 2571 2572 2573 2574 2575 2576 2577 2578 2579 2580 2581 2582 2583 2584 2585 2586 2587 2588 2589 2590 2591 2592 2593 2594 2595 2596 2597 2598 2599 2600 2601 2602 2603 2604 2605 2606 2607 2608 2609 2610 2611 2612 2613 2614 2615 2616 2617 2618 2619 2620 2621 2622 2623 2624 2625 2626 2627 2628 2629 2630 2631 2632 2633 2634 2635 2636 2637 2638 2639 2640 2641 2642 2643 2644 2645 2646 2647 2648 2649 2650 2651 2652 2653 2654 2655 2656 2657 2658 2659 2660 2661 2662 2663 2664 2665 2666 2667 2668 2669 2670 2671 2672 2673 2674 2675 2676 2677 2678 2679 2680 2681 2682 2683 2684 2685 2686 2687 2688 2689 2690 2691 2692 2693 2694 2695 2696 2697 2698 2699 2700 2701 2702 2703 2704 2705 2706 2707 2708 2709 2710 2711 2712 2713 2714 2715 2716 2717 2718 2719 2720 2721 2722 2723 2724 2725 2726 2727 2728 2729 2730 2731 2732 2733 2734 2735 2736 2737 2738 2739 2740 2741 2742 2743 2744 2745 2746 2747 2748 2749 2750 2751 2752 2753 2754 2755 2756 2757 2758 2759 2760 2761 2762 2763 2764 2765 2766 2767 2768 2769 2770 2771 2772 2773 2774 2775 2776 2777 2778 2779 2780 2781 2782 2783 2784 2785 2786 2787 2788 2789 2790 2791 2792 2793 2794 2795 2796 2797 2798 2799 2800 2801 2802 2803 2804 2805 2806 2807 2808 2809 2810 2811 2812 2813 2814 2815 2816 2817 2818 2819 2820 2821 2822 2823 2824 2825 2826 2827 2828 2829 2830 2831 2832 2833 2834 2835 2836 2837 2838 2839 2840 2841 2842 2843 2844 2845 2846 2847 2848 2849 2850 2851 2852 2853 2854 2855 2856 2857 2858 2859 2860 2861 2862 2863 2864 2865 2866 2867 2868 2869 2870 2871 2872 2873 2874 2875 2876 2877 2878 2879 2880 2881 2882 2883 2884 2885 2886 2887 2888 2889 2890 2891 2892 2893 2894 2895 2896 2897 2898 2899 2900 2901 2902 2903 2904 2905 2906 2907 2908 2909 2910 2911 2912 2913 2914 2915 2916 2917 2918 2919 2920 2921 2922 2923 2924 2925 2926 2927 2928 2929 2930 2931 2932 2933 2934 2935 2936 2937 2938 2939 2940 2941 2942 2943 2944 2945 2946 2947 2948 2949 2950 2951 2952 2953 2954 2955 2956 2957 2958 2959 2960 2961 2962 2963 2964 2965 2966 2967 2968 2969 2970 2971 2972 2973 2974 2975 2976 2977 2978 2979 2980 2981 2982 2983 2984 2985 2986 2987 2988 2989 2990 2991 2992 2993 2994 2995 2996 2997 2998 2999 3000 3001 3002 3003 3004 3005 3006 3007 3008 3009 3010 3011 3012 3013 3014 3015 3016 3017 3018 3019 3020 3021 3022 3023 3024 3025 3026 3027 3028 3029 3030 3031 3032 3033 3034 3035 3036 3037 3038 3039 3040 3041 3042 3043 3044 3045 3046 3047 3048 3049 3050 3051 3052 3053 3054 3055 3056 3057 3058 3059 3060 3061 3062 3063 3064 3065 3066 3067 3068 3069 3070 3071 3072 3073 3074 3075 3076 3077 3078 3079 3080 3081 3082 3083 3084 3085 3086 3087 3088 3089 3090 3091 3092 3093 3094 3095 3096 3097 3098 3099 3100 3101 3102 3103 3104 3105 3106 3107 3108 3109 3110 3111 3112 3113 3114 3115 3116 3117 3118 3119 3120 3121 3122 3123 3124 3125 3126 3127 3128 3129 3130 3131 3132 3133 3134 3135 3136 3137 3138 3139 3140 3141 3142 3143 3144 3145 3146 3147 3148 3149 3150 3151 3152 3153 3154 3155 3156 3157 3158 3159 3160 3161 
</DataArray>
<DataArray type="UInt32" Name="offsets" format="ascii">
3 6 9 12 15 18 21 24 27 30 33 36 39 42 45 48 51 54 57 60 63 66 69 72 75 78 81 84 87 90 93 96 99 102 105 108 111 114 117 120 123 126 129 132 135 138 141 144 147 150 153 156 159 162 165 168 171 174 177 180 183 186 189 192 195 198 201 204 207 210 213 216 219 222 225 228 231 234 237 240 243 246 249 252 255 258 261 264 267 270 273 276 279 282 285 288 291 294 297 300 303 306 309 312 315 318 321 324 327 330 333 336 339 342 345 348 351 354 357 360 363 366 369 372 375 378 381 384 387 390 393 396 399 402 405 408 411 414 417 420 423 426 429 432 435 438 441 444 447 450 453 456 459 462 465 468 471 474 477 480 483 486 489 492 495 498 501 504 507 510 513 516 519 522 525 528 531 534 537 540 543 546 549 552 555 558 561 564 567 570 573 576 579 582 585 588 591 594 597 600 603 606 609 612 615 618 621 624 627 630 633 636 639 642 645 648 651 654 657 660 663 666 669 672 675 678 681 684 687 690 693 696 699 702 705 708 711 714 717 720 723 726 729 732 735 738 741 744 747 750 753 756 759 762 765 768 771 774 777 780 783 786 789 792 795 798 801 804 807 810 813 816 819 822 825 828 831 834 837 840 843 846 849 852 855 858 861 864 867 870 873 876 879 882 885 888 891 894 897 900 903 906 909 912 915 918 921 924 927 930 933 936 939 942 945 948 951 954 957 960 963 966 969 972 975 978 981 984 987 990 993 996 999 1002 1005 1008 1011 1014 1017 1020 1023 1026 1029 1032 1035 1038 1041 1044 1047 1050 1053 1056 1059 1062 1065 1068 1071 1074 1077 1080 1083 1086 1089 1092 1095 1098 1101 1104 1107 1110 1113 1116 1119 1122 1125 1128 1131 1134 1137 1140 1143 1146 1149 1152 1155 1158 1161 1164 1167 1170 1173 1176 1179 1182 1185 1188 1191 1194 1197 1200 1203 1206 1209 1212 1215 1218 1221 1224 1227 1230 1233 1236 1239 1242 1245 1248 1251 1254 1257 1260 1263 1266 1269 1272 1275 1278 1281 1284 1287 1290 1293 1296 1299 1302 1305 1308 1311 1314 1317 1320 1323 1326 1329 1332 1335 1338 1341 1344 1347 1350 1353 1356 1359 1362 1365 1368 1371 1374 1377 1380 1383 1386 1389 1392 1395 1398 1401 1404 1407 1410 1413 1416 1419 1422 1425 1428 1431 1434 1437 1440 1443 1446 1449 1452 1455 1458 1461 1464 1467 1470 1473 1476 1479 1482 1485 1488 1491 1494 1497 1500 1503 1506 1509 1512 1515 1518 1521 1524 1527 1530 1533 1536 1539 1542 1545 1548 1551 1554 1557 1560 1563 1566 1569 1572 1575 1578 1581 1584 1587 1590 1593 1596 1599 1602 1605 1608 1611 1614 1617 1620 1623 1626 1629 1632 1635 1638 1641 1644 1647 1650 1653 1656 1659 1662 1665 1668 1671 1674 1677 1680 1683 1686 1689 1692 1695 1698 1701 1704 1707 1710 1713 1716 1719 1722 1725 1728 1731 1734 1737 1740 1743 1746 1749 1752 1755 1758 1761 1764 1767 1770 1773 1776 1779 1782 1785 1788 1791 1794 1797 1800 1803 1806 1809 1812 1815 1818 1821 1824 1827 1830 1833 1836 1839 1842 1845 1848 1851 1854 1857 1860 1863 1866 1869 1872 1875 1878 1881 1884 1887 1890 1893 1896 1899 1902 1905 1908 1911 1914 1917 1920 1923 1926 1929 1932 1935 1938 1941 1944 1947 1950 1953 1956 1959 1962 1965 1968 1971 1974 1977 1980 1983 1986 1989 1992 1995 1998 2001 2004 2007 2010 2013 2016 2019 2022 2025 2028 2031 2034 2037 2040 2043 2046 2049 2052 2055 2058 2061 2064 2067 2070 2073 2076 2079 2082 2085 2088 2091 2094 2097 2100 2103 2106 2109 2112 2115 2118 2121 2124 2127 2130 2133 2136 2139 2142 2145 2148 2151 2154 2157 2160 2163 2166 2169 2172 2175 2178 2181 2184 2187 2190 2193 2196 2199 2202 2205 2208 2211 2214 2217 2220 2223 2226 2229 2232 2235 2238 2241 2244 2247 2250 2253 2256 2259 2262 2265 2268 2271 2274 2277 2280 2283 2286 2289 2292 2295 2298 2301 2304 2307 2310 2313 2316 2319 2322 2325 2328 2331 2334 2337 2340 2343 2346 2349 2352 2355 2358 2361 2364 2367 2370 2373 2376 2379 2382 2385 2388 2391 2394 2397 2400 2403 2406 2409 2412 2415 2418 2421 2424 2427 2430 2433 2436 2439 2442 2445 2448 2451 2454 2457 2460 2463 2466 2469 2472 2475 2478 2481 2484 2487 2490 2493 2496 2499 2502 2505 2508 2511 2514 2517 2520 2523 2526 2529 2532 2535 2538 2541 2544 2547 2550 2553 2556 2559 2562 2565 2568 2571 2574 2577 2580 2583 2586 2589 2592 2595 2598 2601 2604 2607 2610 2613 2616 2619 2622 2625 2628 2631 2634 2637 2640 2643 2646 2649 2652 2655 2658 2661 2664 2667 2670 2673 2676 2679 2682 2685 2688 2691 2694 2697 2700 2703 2706 2709 2712 2715 2718 2721 2724 2727 2730 2733 2736 2739 2742 2745 2748 2751 2754 2757 2760 2763 2766 2769 2772 2775 2778 2781 2784 2787 2790 2793 2796 2799 2802 2805 2808 2811 2814 2817 2820 2823 2826 2829 2832 2835 2838 2841 2844 2847 2850 2853 2856 2859 2862 2865 2868 2871 2874 2877 2880 2883 2886 2889 2892 2895 2898 2901 2904 2907 2910 2913 2916 2919 2922 2925 2928 2931 2934 2937 2940 2943 2946 2949 2952 2955 2958 2961 2964 2967 2970 2973 2976 2979 2982 2985 2988 2991 2994 2997 3000 3003 3006 3009 3012 3015 3018 3021 3024 3027 3030 3033 3036 3039 3042 3045 3048 3051 3054 3057 3060 3063 3066 3069 3072 3075 3078 3081 3084 3087 3090 3093 3096 3099 3102 3105 3108 3111 3114 3117 3120 3123 3126 3129 3132 3135 3138 3141 3144 3147 3150 3153 3156 3159 3162 
</DataArray>
<DataArray type="UInt32" Name="types" format="ascii">
5 5 5 5 5 5 5 5 5 5 5 5 5 5 5 5 5 5 5 5 5 5 5 5 5 5 5 5 5 5 5 5 5 5 5 5 5 5 5 5 5 5 5 5 5 5 5 5 5 5 5 5 5 5 5 5 5 5 5 5 5 5 5 5 5 5 5 5 5 5 5 5 5 5 5 5 5 5 5 5 5 5 5 5 5 5 5 5 5 5 5 5 5 5 5 5 5 5 5 5 5 5 5 5 5 5 5 5 5 5 5 5 5 5 5 5 5 5 5 5 5 5 5 5 5 5 5 5 5 5 5 5 5 5 5 5 5 5 5 5 5 5 5 5 5 5 5 5 5 5 5 5 5 5 5 5 5 5 5 5 5 5 5 5 5 5 5 5 5 5 5 5 5 5 5 5 5 5 5 5 5 5 5 5 5 5 5 5 5 5 5 5 5 5 5 5 5 5 5 5 5 5 5 5 5 5 5 5 5 5 5 5 5 5 5 5 5 5 5 5 5 5 5 5 5 5 5 5 5 5 5 5 5 5 5 5 5 5 5 5 5 5 5 5 5 5 5 5 5 5 5 5 5 5 5 5 5 5 5 5 5 5 5 5 5 5 5 5 5 5 5 5 5 5 5 5 5 5 5 5 5 5 5 5 5 5 5 5 5 5 5 5 5 5 5 5 5 5 5 5 5 5 5 5 5 5 5 5 5 5 5 5 5 5 5 5 5 5 5 5 5 5 5 5 5 5 5 5 5 5 5 5 5 5 5 5 5 5 5 5 5 5 5 5 5 5 5 5 5 5 5 5 5 5 5 5 5 5 5 5 5 5 5 5 5 5 5 5 5 5 5 5 5 5 5 5 5 5 5 5 5 5 5 5 5 5 5 5 5 5 5 5 5 5 5 5 5 5 5 5 5 5 5 5 5 5 5 5 5 5 5 5 5 5 5 5 5 5 5 5 5 5 5 5 5 5 5 5 5 5 5 5 5 5 5 5 5 5 5 5 5 5 5 5 5 5 5 5 5 5 5 5 5 5 5 5 5 5 5 5 5 5 5 5 5 5 5 5 5 5 5 5 5 5 5 5 5 5 5 5 5 5 5 5 5 5 5 5 5 5 5 5 5 5 5 5 5 5 5 5 5 5 5 5 5 5 5 5 5 5 5 5 5 5 5 5 5 5 5 5 5 5 5 5 5 5 5 5 5 5 5 5 5 5 5 5 5 5 5 5 5 5 5 5 5 5 5 5 5 5 5 5 5 5 5 5 5 5 5 5 5 5 5 5 5 5 5 5 5 5 5 5 5 5 5 5 5 5 5 5 5 5 5 5 5 5 5 5 5 5 5 5 5 5 5 5 5 5 5 5 5 5 5 5 5 5 5 5 5 5 5 5 5 5 5 5 5 5 5 5 5 5 5 5 5 5 5 5 5 5 5 5 5 5 5 5 5 5 5 5 5 5 5 5 5 5 5 5 5 5 5 5 5 5 5 5 5 5 5 5 5 5 5 5 5 5 5 5 5 5 5 5 5 5 5 5 5 5 5 5 5 5 5 5 5 5 5 5 5 5 5 5 5 5 5 5 5 5 5 5 5 5 5 5 5 5 5 5 5 5 5 5 5 5 5 5 5 5 5 5 5 5 5 5 5 5 5 5 5 5 5 5 5 5 5 5 5 5 5 5 5 5 5 5 5 5 5 5 5 5 5 5 5 5 5 5 5 5 5 5 5 5 5 5 5 5 5 5 5 5 5 5 5 5 5 5 5 5 5 5 5 5 5 5 5 5 5 5 5 5 5 5 5 5 5 5 5 5 5 5 5 5 5 5 5 5 5 5 5 5 5 5 5 5 5 5 5 5 5 5 5 5 5 5 5 5 5 5 5 5 5 5 5 5 5 5 5 5 5 5 5 5 5 5 5 5 5 5 5 5 5 5 5 5 5 5 5 5 5 5 5 5 5 5 5 5 5 5 5 5 5 5 5 5 5 5 5 5 5 5 5 5 5 5 5 5 5 5 5 5 5 5 5 5 5 5 5 5 5 5 5 5 5 5 5 5 5 5 5 5 5 5 5 5 5 5 5 5 5 5 5 5 5 5 5 5 5 5 5 5 5 5 5 5 5 5 5 5 5 5 5 5 5 5 5 5 5 5 5 5 5 5 5 5 5 5 5 5 5 5 5 5 5 5 5 5 5 5 5 5 5 5 5 5 5 5 5 5 5 5 5 5 5 5 5 5 5 5 5 5 5 5 5 5 5 5 5 5 5 5 5 5 5 5 5 5 5 5 5 5 5 5 5 5 5 5 5 5 5 5 5 5 5 5 5 5 5 5 5 5 5 5 5 5 5 5 5 5 5 5 5 5 5 5 5 5 5 5 5 5 5 5 5 5 
</DataArray>
</Cells>
<PointData Scalars="" Vectors="displacement," Tensors="">
<DataArray type="Float64" Name="displacement" NumberOfComponents="3" format="ascii">
-0.00026587121088787134 -0.0024131248504220015 0 -0.00018495357219755509 -0.0022504447356908627 0 -0.00013296565441866203 -0.0023853634440887611 0 0.00060709828534054983 -0.0019283450322075044 0 0.00049926380511492168 -0.0017960070922890892 0 0.00058540493007422552 -0.0017371987157450411 0 -0.00055597110870723131 -0.0011772714604675071 0 -0.00047661611087792524 -0.001284381967610879 0 -0.00056208332037717532 -0.0013616556530340791 0 0.00018747280760464594 -0.00065608942418217192 0 0.00014075101786820493 -0.00079369762878564139 0 9.3057183135771224e-05 -0.00066884506535344775 0 0.00016620314055339934 -0.0020122288932386116 0 0.00028286511546202984 -0.0019128185727831186 0 0.00027533651971161141 -0.00212468170578965 0 0.00038296021227050424 -0.0020442840560457583 0 0.00027533651971161141 -0.00212468170578965 0 0.00028286511546202984 -0.0019128185727831186 0 0.00032888832014961477 -0.0012758489159470068 0 0.00022866924940909107 -0.0011167295431782005 0 0.00037012197185196333 -0.0011337003274699761 0 0.00030625291572760027 -0.0009745174674756367 0 0.00037012197185196333 -0.0011337003274699761 0 0.00022866924940909107 -0.0011167295431782005 0 0.00059726589620455678 -0.0030212708268389501 0 0.00067715308944966989 -0.0031572900155477993 0 0.00053700292330080784 -0.0031738601484459414 0 -0.00098376107622838026 -0.0024414123251403127 0 -0.0010612259862527087 -0.0025620118974605719 0 -0.0010696368846372893 -0.0023641573015406635 0 0.00075582868757822954 -0.00081168702849038351 0 0.00081235356241541256 -0.00079086451449936538 0 0.00089516247403363062 -0.00096020615275383379 0 -0.00021212429195234823 -0.00023320350857129843 0 -0.00013052164133459538 -0.00011595691915169219 0 -9.4710827520821364e-05 -0.00010176655949584102 0 0.00094301539149912919 -0.0033269726985866782 0 0.00083724257605868706 -0.0033370743313134751 0 0.00096311511467524842 -0.0031883282467227423 0 -0.0011539548294341392 -0.0029720813146834717 0 -0.001159633123645556 -0.0028062251058991725 0 -0.00107993434822675 -0.0029950707122128593 0 -0.00048229570910840398 -0.00035243053876360343 0 -0.00073684860331826667 -0.00064072527692047134 0 -0.00057705530040337094 -0.00047576182420810482 0 -0.00096334429298355841 -0.0031882204894960538 0 -0.00083729401673034241 -0.0033370660282423786 0 -0.00094315590337043292 -0.0033269052344903679 0 0.00016618319516268441 -9.3813650375668378e-05 0 2.8284889819220514e-08 -1.1180981439173431e-07 0 6.675975961741736e-08 -1.4928849401616414e-07 0 0.0010799406673499417 -0.002995185061797888 0 0.0011597678350899396 -0.0028064470837967661 0 0.0011539431747991831 -0.0029721913777148497 0 0.00057773156090910351 -0.00047541303405790412 0 0.00073830632697610644 -0.00063983252892883791 0 0.00048303689728340844 -0.0003521821192963974 0 -6.674009062377597e-08 -1.5082486555744465e-07 0 -2.8132863986369788e-08 -1.102450760482822e-07 0 -0.00016639123438380715 -9.4357197393718265e-05 0 0.00084978436354315242 -0.00078619941951072272 0 0.00081235356241541256 -0.00079086451449936538 0 0.00074099118307793062 -0.00065361697244249012 0 -3.9907184904536102e-08 -1.273007310371404e-07 0 -0.00013052164133459538 -0.00011595691915169219 0 -0.00011338012023714872 -8.4692324071594031e-05 0 0.00072572375459881015 -0.003343490546231604 0 0.00067715308944966989 -0.0031572900155477993 0 0.00079109291833105808 -0.0031860488874103721 0 -0.0011609113083331601 -0.0026396706875210126 0 -0.0010612259862527087 -0.0025620118974605719 0 -0.0010777414973714766 -0.0027296826525141987 0 0.0011608932501008438 -0.0026401818096742557 0 0.0010867712223528339 -0.0027056513865574288 0 0.0010555187965565281 -0.0025314594114472428 0 3.9222995407917364e-08 -1.2732715343827394e-07 0 0.00011254424576180785 -8.460582429343362e-05 0 0.00013249960703458271 -0.00011781254486382626 0 -0.00072601772905239617 -0.0033433684308921616 0 -0.0007743276402816852 -0.0032029727147402931 0 -0.00065635871394454704 -0.0031473043127093437 0 -0.0008501321381026906 -0.00078627969717878462 0 -0.00073934246675060814 -0.00065086016070640322 0 -0.00081601011801248069 -0.00079838093472380293 0 -3.7437458606057209e-08 -0.0025427434855954684 0 9.5302381311593171e-05 -0.0026197503724912749 0 -5.8526030768089607e-06 -0.0027629494227746831 0 -0.00067684671636623905 -0.001566321047647933 0 -0.00073251874097282534 -0.0017080135726861953 0 -0.00081222128429924746 -0.0015858752761213413 0 0.00067659462683457533 -0.0015663961867694825 0 0.00071353043837101048 -0.0014433180114220908 0 0.00081321006367971686 -0.0016019578286570945 0 -1.5366476678374833e-07 -0.00053791158098498838 0 -5.4611965409013382e-05 -0.00047671188430290515 0 3.4828235809844754e-06 -0.00036454625611601207 0 0.00072572375459881015 -0.003343490546231604 0 0.00061032274726363471 -0.0033474077491004238 0 0.00067715308944966989 -0.0031572900155477993 0 -0.0011609113083331601 -0.0026396706875210126 0 -0.0011615927810932872 -0.0024728919269525994 0 -0.0010612259862527087 -0.0025620118974605719 0 0.00084978436354315242 -0.00078619941951072272 0 0.00093595725640242995 -0.00093157634720596942 0 0.00081235356241541256 -0.00079086451449936538 0 -3.9907184904536102e-08 -1.273007310371404e-07 0 -2.14335131717887e-08 -1.1960246154023639e-07 0 -0.00013052164133459538 -0.00011595691915169219 0 0.0011614734958372622 -0.0024731091856074932 0 0.0011608932501008438 -0.0026401818096742557 0 0.0010555187965565281 -0.0025314594114472428 0 2.3031098893069639e-08 -1.1808515464702351e-07 0 3.9222995407917364e-08 -1.2732715343827394e-07 0 0.00013249960703458271 -0.00011781254486382626 0 -0.00061036383382039841 -0.0033473883536838107 0 -0.00072601772905239617 -0.0033433684308921616 0 -0.00065635871394454704 -0.0031473043127093437 0 -0.000936771914604942 -0.00093146308534578306 0 -0.0008501321381026906 -0.00078627969717878462 0 -0.00081601011801248069 -0.00079838093472380293 0 0.0011614734958372622 -0.0024731091856074932 0 0.0010555187965565281 -0.0025314594114472428 0 0.001059429680292659 -0.0023442534925503062 0 2.3031098893069639e-08 -1.1808515464702351e-07 0 0.00013249960703458271 -0.00011781254486382626 0 9.8407396613856904e-05 -0.00010791796307301495 0 -0.00061036383382039841 -0.0033473883536838107 0 -0.00065635871394454704 -0.0031473043127093442 0 -0.00052361994847175569 -0.0031558829846232493 0 -0.000936771914604942 -0.00093146308534578306 0 -0.00081601011801248069 -0.00079838093472380293 0 -0.00089617414825758049 -0.000972444517793015 0 0.00080592141437063299 -0.0027381956010123611 0 0.0009129179491763384 -0.0026738712188115205 0 0.00093937648134358425 -0.0028221218363197217 0 -0.00080614808783542147 -0.0027380112856194949 0 -0.00076066430223963478 -0.0029060211418769403 0 -0.00085692744324306752 -0.0029504225774903753 0 -0.00026587121088787134 -0.0024131248504220015 0 -0.00013296565441866203 -0.0023853634440887611 0 -0.00016956509298407085 -0.0025443010812613693 0 0.00060709828534054983 -0.0019283450322075044 0 0.00058540493007422552 -0.0017371987157450411 0 0.00068898248305868906 -0.0018038555024107394 0 -0.00055597110870723131 -0.0011772714604675071 0 -0.00056208332037717532 -0.0013616556530340791 0 -0.00065553966527945122 -0.0013296216293743873 0 0.00018747280760464594 -0.00065608942418217192 0 9.3057183135771224e-05 -0.00066884506535344764 0 0.00010610933178952009 -0.00053800675229322668 0 0.00096311511467524842 -0.0031883282467227423 0 0.00083724257605868706 -0.0033370743313134751 0 0.00088173550265991144 -0.003151556433744724 0 -0.00107993434822675 -0.0029950707122128593 0 -0.001159633123645556 -0.0028062251058991725 0 -0.0010582915165551399 -0.0028657712691690274 0 -0.00058341228762111297 -0.00046350595643232284 0 -0.00073684860331826678 -0.00064072527692047134 0 -0.00048229570910840398 -0.00035243053876360343 0 -0.00087109317225731722 -0.0031292288938133887 0 -0.00083729401673034241 -0.0033370660282423786 0 -0.00096334429298355841 -0.0031882204894960538 0 0.00018817786419997011 -0.00013218772906379802 0 2.828488981922018e-08 -1.1180981439173373e-07 0 0.00016618319516268441 -9.3813650375668378e-05 0 0.0010459716322395744 -0.0028485125598220135 0 0.0011597678350899396 -0.0028064470837967661 0 0.0010799406673499417 -0.002995185061797888 0 0.00048303689728340844 -0.0003521821192963974 0 0.00073830632697610644 -0.00063983252892883802 0 0.00058940822073213323 -0.00047062604901583553 0 -0.00016639123438380715 -9.4357197393718265e-05 0 -2.813286398636417e-08 -1.1024507604827902e-07 0 -0.00020039006113635046 -0.00014140372762388824 0 -0.00075220474004257856 -0.00082417710918310065 0 -0.00070364125126753008 -0.00069284641670938184 0 -0.00059885853000827877 -0.00065925762212134913 0 0.00021841585100775853 -0.00024683515610145201 0 0.00023976776237413281 -0.00023254272621005961 0 0.00035468710247167341 -0.00039651670452946837 0 0.00094319529094315149 -0.0024221557171575162 0 0.00097249436808906841 -0.0025660046696754572 0 0.00083305925318774684 -0.0025357260166844115 0 -0.00058661677942258711 -0.0029513430708995847 0 -0.00068462894279068456 -0.0030041697875285533 0 -0.00067074965648171469 -0.0027745700285769304 0 0.00059726589620455678 -0.0030212708268389501 0 0.00053700292330080784 -0.0031738601484459414 0 0.00050798411555966249 -0.0029918682593597264 0 -0.00098376107622838026 -0.0024414123251403127 0 -0.0010696368846372893 -0.0023641573015406635 0 -0.00096715145728791801 -0.0023140097097499924 0 0.00075582868757822954 -0.00081168702849038351 0 0.00089516247403363062 -0.00096020615275383379 0 0.00081084021676266539 -0.00094136775428000762 0 -0.00021212429195234823 -0.00023320350857129843 0 -9.4710827520821364e-05 -0.00010176655949584102 0 -0.00017230960577908227 -0.00022102072926131705 0 9.6729126876239632e-05 -0.00015013588299638933 0 0.00010678888220619171 -0.00023624364211876394 0 5.2118335403069919e-05 -0.00012113509830772699 0 0.0010185375706261949 -0.002159457496516332 0 0.00094136518703798362 -0.0020293911427327169 0 0.0010397092179429 -0.0019859628531732321 0 -0.00091397256703703645 -0.0011243666314481062 0 -0.00086817074368148871 -0.0012124468340321401 0 -0.00097600645191338049 -0.0013054548372051565 0 -0.00039217321505425696 -0.0030839959967955198 0 -0.00030416685055271699 -0.0029516047375983318 0 -0.00026122396544156625 -0.003129238244908991 0 -5.8526030768089607e-06 -0.0027629494227746831 0 9.5302381311593171e-05 -0.0026197503724912749 0 0.00010186428273136498 -0.0027756087160208521 0 -0.00081222128429924746 -0.0015858752761213413 0 -0.00073251874097282534 -0.0017080135726861953 0 -0.00082814917393896905 -0.0017350155489228567 0 0.00081321006367971686 -0.0016019578286570945 0 0.00071353043837101048 -0.0014433180114220906 0 0.00080690252753381402 -0.0014564860348562478 0 3.4828235809844754e-06 -0.00036454625611601207 0 -5.4611965409013388e-05 -0.0004767118843029052 0 -4.7318508675554142e-05 -0.00035822282014997652 0 0.00080592141437063299 -0.0027381956010123611 0 0.00093937648134358425 -0.0028221218363197217 0 0.00085493482645050114 -0.0029062986127657764 0 -0.00080614808783542147 -0.0027380112856194949 0 -0.00085692744324306752 -0.0029504225774903753 0 -0.00091249461736900392 -0.0028173275286080589 0 0.00047122875437460079 -0.00045824417650409586 0 0.0003872847038408896 -0.00032352476037611537 0 0.00051872701847383799 -0.00043219858474763796 0 -0.00046788592777327967 -0.0004542690426460123 0 -0.00049770018001805397 -0.00042177066329667011 0 -0.00036019362133841651 -0.00029130089065950826 0 -0.00059885853000827877 -0.00065925762212134913 0 -0.00070364125126753008 -0.00069284641670938184 0 -0.00059021278152988823 -0.00055676024419233703 0 0.00035468710247167341 -0.00039651670452946837 0 0.00023976776237413281 -0.00023254272621005961 0 0.00033696793214979732 -0.00031405794443698437 0 0.00047122875437460079 -0.00045824417650409586 0 0.00051872701847383799 -0.00043219858474763796 0 0.00058911408960629933 -0.00055646732234906557 0 -0.00046788592777327967 -0.0004542690426460123 0 -0.00036019362133841651 -0.00029130089065950826 0 -0.00033814062960298423 -0.00031613648854661176 0 -0.0004481185978736145 -0.0024926697996732446 0 -0.0003972633735049858 -0.0023175388159242445 0 -0.00035727954796187293 -0.002538136383988413 0 0.0006570033075848651 -0.0021957484760632721 0 0.00053931695010271913 -0.0021085727006995218 0 0.00068792274733348209 -0.0020683166847101863 0 -0.00055175730599231585 -0.00093132878387466075 0 -0.0004625573220771881 -0.00098289628356916406 0 -0.00060807599755915791 -0.0010651920941403205 0 0.00030477436286792739 -0.00060900894413300731 0 0.00030293877464655398 -0.00076221470522519366 0 0.00022922266320612111 -0.00055766952149849489 0 -0.00058661677942258711 -0.0029513430708995847 0 -0.00052361994847175569 -0.0031558829846232493 0 -0.00065635871394454704 -0.0031473043127093437 0 -0.00075220474004257856 -0.00082417710918310065 0 -0.00089617414825758038 -0.00097244451779301489 0 -0.00081601011801248069 -0.00079838093472380293 0 0.00094319529094315149 -0.0024221557171575162 0 0.001059429680292659 -0.0023442534925503062 0 0.0010555187965565281 -0.0025314594114472428 0 0.00021841585100775853 -0.00024683515610145201 0 9.8407396613856904e-05 -0.00010791796307301495 0 0.00013249960703458271 -0.00011781254486382626 0 -0.00067074965648171469 -0.0027745700285769304 0 -0.00068462894279068456 -0.0030041697875285533 0 -0.00076066430223963478 -0.0029060211418769407 0 0.00083305925318774684 -0.0025357260166844115 0 0.00097249436808906841 -0.0025660046696754572 0 0.0009129179491763384 -0.0026738712188115205 0 -0.00035727954796187293 -0.002538136383988413 0 -0.0003972633735049858 -0.0023175388159242445 0 -0.00026587121088787134 -0.0024131248504220015 0 0.00068792274733348209 -0.0020683166847101863 0 0.00053931695010271913 -0.0021085727006995218 0 0.00060709828534054983 -0.0019283450322075044 0 -0.00060807599755915791 -0.0010651920941403205 0 -0.0004625573220771881 -0.00098289628356916406 0 -0.00055597110870723131 -0.0011772714604675071 0 0.00022922266320612111 -0.00055766952149849489 0 0.00030293877464655398 -0.00076221470522519366 0 0.00018747280760464594 -0.00065608942418217192 0 0.00018793297286591251 -0.0018190926696191241 0 8.9234174958751229e-05 -0.0018786308364073085 0 7.6910885305179691e-05 -0.0016993828878626724 0 0.0011517164514827523 -0.001982804060560213 0 0.0010397092179429 -0.0019859628531732321 0 0.0010656467548403727 -0.0018434357899443628 0 1.2525006751565842e-08 -1.1975361450453931e-07 0 5.2118335403069919e-05 -0.00012113509830772699 0 2.2300452672754021e-05 -8.3734946707191869e-05 0 -0.0002485797668382547 -0.0033496320245306119 0 -0.00026122396544156625 -0.003129238244908991 0 -0.0001494823554588415 -0.0031900685638069984 0 -0.0010865765643610469 -0.0013631843666960255 0 -0.00097600645191338049 -0.0013054548372051565 0 -0.0010309984707627159 -0.0014588902953721803 0 -0.00016055956887641628 -0.0029947022770926467 0 -3.3373605042600786e-05 -0.003111913365048638 0 -0.0001494823554588415 -0.0031900685638069984 0 -0.00092573269014103511 -0.0014122081942649662 0 -0.0010084622757184577 -0.0015967340531555278 0 -0.0010309984707627159 -0.0014588902953721803 0 0.00096073826611182327 -0.0018391620172894117 0 0.0010155495665474671 -0.0016836576574860754 0 0.0010656467548403727 -0.0018434357899443628 0 5.0050680580662563e-05 -0.00020313113533639734 0 7.0851823838811782e-06 -0.00012845224971654265 0 2.2300452672754021e-05 -8.3734946707191869e-05 0 0.00018352474438799979 -0.0016667832134847974 0 0.00018793297286591251 -0.0018190926696191241 0 7.6910885305179691e-05 -0.0016993828878626724 0 0.001159124240484716 -0.0023072669005560226 0 0.0011614734958372622 -0.0024731091856074932 0 0.001059429680292659 -0.0023442534925503062 0 1.3860871235001255e-08 -1.2660950519437008e-07 0 2.3031098893069639e-08 -1.1808515464702351e-07 0 9.8407396613856904e-05 -0.00010791796307301495 0 -0.00049167662737292827 -0.0033489429001119929 0 -0.00061036383382039841 -0.0033473883536838107 0 -0.00052361994847175569 -0.0031558829846232493 0 -0.00099919696414802026 -0.0010755258973160274 0 -0.000936771914604942 -0.00093146308534578306 0 -0.00089617414825758049 -0.000972444517793015 0 0.00096073826611182327 -0.0018391620172894117 0 0.00085382491857476832 -0.0019266101149212694 0 0.00085660249720200866 -0.0017610904210613844 0 -0.00016055956887641628 -0.0029947022770926467 0 -0.00023926606467390194 -0.00280665273735559 0 -0.00011701012171440551 -0.0028205254285025355 0 5.0050680580662563e-05 -0.00020313113533639734 0 0.00010776718028761906 -0.00033672148507836631 0 5.2719355032224439e-05 -0.0003232696810555036 0 -0.00092573269014103511 -0.0014122081942649662 0 -0.00080091915800361527 -0.0012731385057256374 0 -0.00083235130510047706 -0.0014422198896688839 0 0.00096073826611182327 -0.0018391620172894117 0 0.00094136518703798362 -0.0020293911427327169 0 0.00085382491857476832 -0.0019266101149212694 0 5.0050680580662563e-05 -0.00020313113533639734 0 0.00010678888220619171 -0.00023624364211876392 0 0.00010776718028761906 -0.00033672148507836631 0 -0.00016055956887641628 -0.0029947022770926467 0 -0.00030416685055271699 -0.0029516047375983318 0 -0.00023926606467390194 -0.00280665273735559 0 -0.00092573269014103511 -0.0014122081942649662 0 -0.00086817074368148871 -0.0012124468340321401 0 -0.00080091915800361527 -0.0012731385057256374 0 0.00060709828534054983 -0.0019283450322075044 0 0.00048280120736117211 -0.0019410063382002405 0 0.00049926380511492168 -0.0017960070922890894 0 -0.00026587121088787134 -0.0024131248504220015 0 -0.00028763904432651199 -0.0022247975453469626 0 -0.00018495357219755509 -0.0022504447356908627 0 0.00018747280760464594 -0.00065608942418217192 0 0.00022406323996234241 -0.0008281986541418707 0 0.00014075101786820493 -0.00079369762878564139 0 -0.00055597110870723131 -0.0011772714604675071 0 -0.0004409822489420481 -0.0011508504496994636 0 -0.00047661611087792524 -0.001284381967610879 0 3.7681582577930206e-05 -0.0022342160922369011 0 0.00017890707923305264 -0.0022350261425949391 0 0.00011322359348226511 -0.0024208100766353563 0 -0.00048268371599286805 -0.001588689118158868 0 -0.00048665221856813604 -0.0017854608027481767 0 -0.0006075891946191672 -0.0017123527753270867 0 0.00048400657532925449 -0.0014807069732191876 0 0.00045896026354442273 -0.001284307626353296 0 0.00058722609842194631 -0.0013930818743143679 0 -3.248101466845594e-05 -0.0007861023173955879 0 -0.00013808363230313007 -0.00081074436154087565 0 -7.8557930565307645e-05 -0.0006409936819022537 0 0.00066133611453010881 -0.00058532246604745236 0 0.00074099118307793062 -0.00065361697244249012 0 0.00081235356241541256 -0.00079086451449936538 0 -0.00023221631937341531 -0.00018896697758391174 0 -0.00011338012023714872 -8.4692324071594031e-05 0 -0.00013052164133459538 -0.00011595691915169219 0 0.00077313970909391092 -0.0030351038209602398 0 0.00079109291833105808 -0.0031860488874103721 0 0.00067715308944966989 -0.0031572900155477993 0 -0.0009913767908727323 -0.0026979327983008578 0 -0.0010777414973714766 -0.0027296826525141987 0 -0.0010612259862527087 -0.0025620118974605719 0 0.0010019787857985783 -0.0027019016539653693 0 0.0010555187965565281 -0.0025314594114472428 0 0.0010867712223528339 -0.0027056513865574288 0 0.00024156209722959681 -0.00019253709680988978 0 0.00013249960703458271 -0.00011781254486382626 0 0.00011254424576180785 -8.460582429343362e-05 0 -0.00077560254457447776 -0.003053512405025409 0 -0.00065635871394454704 -0.0031473043127093437 0 -0.0007743276402816852 -0.0032029727147402931 0 -0.00065182361972953022 -0.00057248887969122049 0 -0.00081601011801248069 -0.00079838093472380293 0 -0.00073934246675060814 -0.00065086016070640322 0 0.00024872381411881317 -0.0024111833155150857 0 0.00011322359348226511 -0.0024208100766353563 0 0.00017890707923305264 -0.0022350261425949391 0 -0.00060542045820703553 -0.0019042192247835719 0 -0.0006075891946191672 -0.0017123527753270867 0 -0.00048665221856813604 -0.0017854608027481767 0 0.00055814070715298064 -0.001201077169321386 0 0.00058722609842194631 -0.0013930818743143679 0 0.00045896026354442273 -0.001284307626353296 0 -0.00017636744914999441 -0.00065837830383237001 0 -7.8557930565307645e-05 -0.0006409936819022537 0 -0.00013808363230313007 -0.00081074436154087565 0 0.00081390712637809148 -0.0023821045376259541 0 0.00069524393803245023 -0.0023266387369985232 0 0.0007616605290796701 -0.002183265419489917 0 -0.00056661174520811924 -0.0027409377538243182 0 -0.00053583840793309113 -0.0025545087737175219 0 -0.00043203747080077415 -0.0026544345339354321 0 0.00030445359393495237 -0.00041284250420515838 0 0.0003510448047916404 -0.00056760700270153488 0 0.00024889648795486789 -0.00046828410859164427 0 -0.000644271987772314 -0.00080295490379418992 0 -0.00055241015837440737 -0.000816334709339274 0 -0.00065365943354817903 -0.00097800141960914825 0 0.00086977751080969323 -0.0022688045920103159 0 0.00081390712637809148 -0.0023821045376259541 0 0.0007616605290796701 -0.002183265419489917 0 0.00022175760888402599 -0.00033335188532617805 0 0.00030445359393495237 -0.00041284250420515838 0 0.00024889648795486789 -0.00046828410859164427 0 -0.00048367025500301269 -0.0028288297360368466 0 -0.00056661174520811924 -0.0027409377538243182 0 -0.00043203747080077415 -0.0026544345339354321 0 -0.00073431482001805218 -0.00093958541495945888 0 -0.000644271987772314 -0.00080295490379418992 0 -0.00065365943354817903 -0.00097800141960914825 0 0.00038296021227050424 -0.0020442840560457583 0 0.00048280120736117211 -0.0019410063382002405 0 0.00053931695010271913 -0.0021085727006995218 0 -0.00035495319796210344 -0.002076203810881856 0 -0.00028763904432651199 -0.0022247975453469626 0 -0.0003972633735049858 -0.0023175388159242445 0 0.00030625291572760027 -0.0009745174674756367 0 0.00022406323996234241 -0.0008281986541418707 0 0.00030293877464655398 -0.00076221470522519366 0 -0.00033071466438262668 -0.0010105862794875132 0 -0.0004409822489420481 -0.0011508504496994636 0 -0.0004625573220771881 -0.00098289628356916406 0 0.00042445705654005437 -0.0026897509645426388 0 0.00042215771407304759 -0.0029161473844019751 0 0.00035039308015254167 -0.0027892395399885792 0 0.00050135359794728713 -0.0027838111290504185 0 0.00042215771407304759 -0.0029161473844019751 0 0.00042445705654005437 -0.0026897509645426388 0 -0.00078376558480676612 -0.0021752259269772803 0 -0.00092222034606190989 -0.0021889153204944843 0 -0.00084544493022793124 -0.0020790115431513065 0 -0.00084193989594513784 -0.0022907965883653442 0 -0.00092222034606190989 -0.0021889153204944843 0 -0.00078376558480676612 -0.0021752259269772803 0 0.00067698179903171764 -0.00099486063213845483 0 0.00080948413648868197 -0.0010439773884997985 0 0.00076037566482417931 -0.0011173385492814106 0 0.00070024004367438396 -0.00090548028294973445 0 0.00080948413648868197 -0.0010439773884997987 0 0.00067698179903171764 -0.00099486063213845483 0 -0.00023495016875685852 -0.00044054421467800456 0 -0.00016287647001785204 -0.00026585450113528056 0 -0.00016597468397270136 -0.00035510060286023868 0 -0.00024842459382634624 -0.00037141658009846179 0 -0.00016287647001785204 -0.00026585450113528056 0 -0.00023495016875685852 -0.00044054421467800456 0 -2.0518650939301846e-05 -0.0018370858858796457 0 2.9610883083403833e-05 -0.0020225799786641094 0 -0.00011359467391856169 -0.0019764351757175134 0 0.00011419941179424539 -0.0012244815321082552 0 1.11313469231027e-05 -0.0011655641968634249 0 0.00010470999067592444 -0.0010647022320079964 0 -0.00016055956887641628 -0.0029947022770926467 0 -3.1237950312151297e-05 -0.0029496559258354303 0 -3.3373605042600786e-05 -0.003111913365048638 0 -0.00092573269014103511 -0.0014122081942649662 0 -0.00091887078035500806 -0.0015771874335382869 0 -0.0010084622757184577 -0.0015967340531555278 0 0.00096073826611182327 -0.0018391620172894117 0 0.0009251661309604448 -0.0016610395590676247 0 0.0010155495665474671 -0.0016836576574860754 0 5.0050680580662563e-05 -0.00020313113533639734 0 1.1198142578233566e-05 -0.00023293126428704944 0 7.0851823838811782e-06 -0.00012845224971654265 0 -2.0518650939301846e-05 -0.0018370858858796457 0 8.9234174958751229e-05 -0.0018786308364073085 0 2.9610883083403833e-05 -0.0020225799786641094 0 0.00016620314055339934 -0.0020122288932386116 0 2.9610883083403833e-05 -0.0020225799786641094 0 8.9234174958751229e-05 -0.0018786308364073085 0 9.6729126876239632e-05 -0.00015013588299638933 0 0.00015329029678425255 -0.00025630401114034451 0 0.00010678888220619171 -0.00023624364211876394 0 0.0010185375706261949 -0.002159457496516332 0 0.0009292789109696134 -0.0021672386720945104 0 0.00094136518703798362 -0.0020293911427327169 0 -0.00039217321505425696 -0.0030839959967955198 0 -0.00040561431892795869 -0.0029286979663166652 0 -0.00030416685055271699 -0.0029516047375983318 0 -0.00091397256703703645 -0.0011243666314481062 0 -0.00082203537923233264 -0.0010698359697723424 0 -0.00086817074368148871 -0.0012124468340321401 0 0.00080592141437063299 -0.0027381956010123611 0 0.00072698799827734361 -0.0026209414571368838 0 0.00083305925318774684 -0.0025357260166844115 0 -0.00080614808783542147 -0.0027380112856194949 0 -0.00073228684372654822 -0.0026134722333472759 0 -0.00067074965648171469 -0.0027745700285769304 0 0.00047122875437460079 -0.00045824417650409586 0 0.00048329096780455339 -0.00055937255626180283 0 0.00035468710247167341 -0.00039651670452946837 0 -0.00046788592777327967 -0.0004542690426460123 0 -0.00046161679089229798 -0.00053569617314843298 0 -0.00059885853000827877 -0.00065925762212134913 0 0.00084524478311324015 -0.0020790873432299213 0 0.0007616605290796701 -0.002183265419489917 0 0.00074570191933302668 -0.0019738940663125543 0 -0.00035052960635526638 -0.0027892538497265415 0 -0.00043203747080077415 -0.0026544345339354321 0 -0.00028501123901464678 -0.0026295971886255518 0 0.00016600284539637311 -0.00035613039025211737 0 0.00024889648795486789 -0.00046828410859164427 0 0.00016632194742152736 -0.00047670291900187505 0 -0.00076068361114427598 -0.0011166758688927715 0 -0.00065365943354817903 -0.00097800141960914825 0 -0.00068424072328208453 -0.0011801599320724312 0 0.00028286511546202984 -0.0019128185727831186 0 0.00029557287987773054 -0.0017162033862175912 0 0.00038843613895690472 -0.0018687468117703269 0 0.00059726589620455678 -0.0030212708268389501 0 0.0006893010725399091 -0.0029454874390828795 0 0.00067715308944966989 -0.0031572900155477993 0 -0.00098376107622838026 -0.0024414123251403127 0 -0.00093804005786474849 -0.0025704571222575452 0 -0.0010612259862527087 -0.0025620118974605719 0 0.00077313970909391092 -0.0030351038209602398 0 0.00067715308944966989 -0.0031572900155477993 0 0.0006893010725399091 -0.0029454874390828795 0 -0.0009913767908727323 -0.0026979327983008578 0 -0.0010612259862527087 -0.0025620118974605719 0 -0.00093804005786474849 -0.0025704571222575452 0 0.00059818045305153099 -0.002616027387098169 0 0.00072698799827734361 -0.0026209414571368838 0 0.00069866861149846184 -0.0027662566749740679 0 0.00080592141437063299 -0.0027381956010123611 0 0.00069866861149846184 -0.0027662566749740679 0 0.00072698799827734361 -0.0026209414571368838 0 -0.00073405227583416151 -0.0024206743496986557 0 -0.00073228684372654822 -0.0026134722333472759 0 -0.00082730600044447517 -0.0025765053044845038 0 -0.00080614808783542147 -0.0027380112856194949 0 -0.00082730600044447517 -0.0025765053044845038 0 -0.00073228684372654822 -0.0026134722333472759 0 0.00055614310645526793 -0.00073686850375338027 0 0.00048329096780455339 -0.00055937255626180283 0 0.00060367667817682669 -0.00065791433637008283 0 0.00047122875437460079 -0.00045824417650409586 0 0.00060367667817682669 -0.00065791433637008283 0 0.00048329096780455339 -0.00055937255626180283 0 -0.00037372520057890038 -0.00052181804193342002 0 -0.00046161679089229798 -0.00053569617314843298 0 -0.00034770113444368601 -0.00038254039379309325 0 -0.00046788592777327967 -0.0004542690426460123 0 -0.00034770113444368601 -0.00038254039379309325 0 -0.00046161679089229798 -0.00053569617314843298 0 0.00095953700303925277 -0.0029898070892119392 0 0.0010398424492972205 -0.0031191517429932088 0 0.00096311511467524842 -0.0031883282467227423 0 0.00038662773301801967 -0.00027231524353097883 0 0.00028665339639871262 -0.00017496672754104524 0 0.00048303689728340844 -0.0003521821192963974 0 0.00038662773301801967 -0.00027231524353097883 0 0.00016618319516268436 -9.3813650375668351e-05 0 0.00028665339639871262 -0.00017496672754104524 0 -0.00096305028104131025 -0.0029838538123358421 0 -0.0010400777150885087 -0.0031189156367524363 0 -0.00107993434822675 -0.0029950707122128593 0 0.00095953700303925277 -0.0029898070892119392 0 0.0010799406673499417 -0.002995185061797888 0 0.0010398424492972205 -0.0031191517429932088 0 -0.00039051801851733981 -0.0002766578429245099 0 -0.00028596144265762241 -0.00017434559447983879 0 -0.00016639123438380715 -9.4357197393718265e-05 0 -0.00039051801851733981 -0.0002766578429245099 0 -0.00048229570910840398 -0.00035243053876360343 0 -0.00028596144265762241 -0.00017434559447983877 0 -0.00096305028104131025 -0.0029838538123358421 0 -0.00096334429298355841 -0.0031882204894960538 0 -0.0010400777150885087 -0.0031189156367524363 0 0.00096073826611182327 -0.0018391620172894117 0 0.0010397092179429 -0.0019859628531732321 0 0.00094136518703798362 -0.0020293911427327169 0 -0.00016055956887641628 -0.0029947022770926467 0 -0.00026122396544156631 -0.003129238244908991 0 -0.00030416685055271699 -0.0029516047375983318 0 5.0050680580662563e-05 -0.00020313113533639734 0 5.2118335403069919e-05 -0.00012113509830772699 0 0.00010678888220619171 -0.00023624364211876394 0 -0.00092573269014103511 -0.0014122081942649662 0 -0.00097600645191338049 -0.0013054548372051565 0 -0.00086817074368148871 -0.0012124468340321401 0 0.00038296021227050424 -0.0020442840560457583 0 0.00036673791308446379 -0.0022400637051423959 0 0.00027533651971161141 -0.00212468170578965 0 -0.00035495319796210344 -0.002076203810881856 0 -0.00049156112736083808 -0.0020620996445155971 0 -0.00042085714890068341 -0.0019201633521942958 0 0.00030625291572760027 -0.0009745174674756367 0 0.00042617492502292201 -0.0010151380230807991 0 0.00037012197185196333 -0.0011337003274699761 0 -0.00033071466438262668 -0.0010105862794875132 0 -0.00028956754912274734 -0.00082459520067562609 0 -0.00022799900202660102 -0.00091868727980957813 0 0.0011416424920818599 -0.0018227875826789652 0 0.0011517164514827523 -0.001982804060560213 0 0.0010656467548403727 -0.0018434357899443628 0 -3.5179728834565298e-10 -1.2552226674221404e-07 0 1.2525006751565842e-08 -1.1975361450453931e-07 0 2.2300452672754021e-05 -8.3734946707191869e-05 0 -0.00012458728523893293 -0.0033489970842909126 0 -0.0002485797668382547 -0.0033496320245306119 0 -0.0001494823554588415 -0.0031900685638069984 0 -0.0011102313548061813 -0.0015140656366746444 0 -0.0010865765643610469 -0.0013631843666960255 0 -0.0010309984707627159 -0.0014588902953721803 0 0.0003750527254410073 -0.00028557377467087439 0 0.00048303689728340844 -0.0003521821192963974 0 0.00028665339639871262 -0.00017496672754104524 0 -1.5283813523367055e-09 -1.0100789576548575e-07 0 -0.00016639123438380715 -9.4357197393718265e-05 0 -0.00028596144265762241 -0.00017434559447983877 0 9.3637728732743688e-10 -1.0149044857604372e-07 0 0.00028665339639871262 -0.00017496672754104524 0 0.00016618319516268441 -9.3813650375668378e-05 0 0.0011496129088354001 -0.0031376839952601092 0 0.0010398424492972205 -0.0031191517429932088 0 0.0010799406673499417 -0.002995185061797888 0 0.0010457608888268101 -0.0033149658882949996 0 0.00096311511467524831 -0.0031883282467227428 0 0.0010398424492972205 -0.0031191517429932088 0 -0.0011498695034521521 -0.0031375946161924595 0 -0.00107993434822675 -0.0029950707122128593 0 -0.0010400777150885087 -0.0031189156367524363 0 -0.00037463379630915265 -0.00028577473819983273 0 -0.00028596144265762241 -0.00017434559447983877 0 -0.00048229570910840398 -0.00035243053876360343 0 -0.0010459636878612719 -0.0033148479752488223 0 -0.0010400777150885087 -0.0031189156367524363 0 -0.00096334429298355841 -0.0031882204894960538 0 0.00012459491243572136 -0.0033492266753023243 0 0.00013224068308596273 -0.0031602153282200224 0 0.0002318326801622691 -0.0031997095284901156 0 -0.0011437460053843741 -0.0018224749529974372 0 -0.001048627392063291 -0.0018181509759618748 0 -0.0010759918812091155 -0.0019523986675409712 0 0.0011123389893224374 -0.0015137084394389059 0 0.0010175891263905139 -0.0014769292508092229 0 0.001018711168353755 -0.0013556982999503922 0 -4.554444273604014e-09 -1.2003545857170097e-07 0 -2.1852842135964936e-05 -0.00010391282871186186 0 -3.2632535707107223e-05 -7.9106016130508805e-05 0 0.00047122875437460079 -0.00045824417650409586 0 0.00035468710247167341 -0.00039651670452946837 0 0.00033696793214979732 -0.00031405794443698437 0 -0.00046788592777327967 -0.0004542690426460123 0 -0.00059885853000827877 -0.00065925762212134913 0 -0.00059021278152988823 -0.00055676024419233703 0 0.00059818045305153099 -0.002616027387098169 0 0.00059885578724299337 -0.0028552317582858236 0 0.00050135359794728713 -0.0027838111290504185 0 -0.00073405227583416151 -0.0024206743496986557 0 -0.00088478516295007121 -0.0024349928465291614 0 -0.00084193989594513784 -0.0022907965883653442 0 0.00055614310645526793 -0.00073686850375338027 0 0.00067826022836284044 -0.00079164311614027066 0 0.00070024004367438396 -0.00090548028294973445 0 -0.00037372520057890038 -0.00052181804193342002 0 -0.00028117752507061586 -0.00034894469118412541 0 -0.00024842459382634624 -0.00037141658009846179 0 8.6103541867880941e-05 -0.00293090115977731 0 -3.1237950312151297e-05 -0.0029496559258354303 0 -5.8526030768089607e-06 -0.0027629494227746831 0 -0.00091921235068971347 -0.0017323277584373007 0 -0.00091887078035500806 -0.0015771874335382869 0 -0.00081222128429924746 -0.0015858752761213413 0 0.00090067742336197288 -0.0015010643852035052 0 0.0009251661309604448 -0.0016610395590676247 0 0.00081321006367971686 -0.0016019578286570945 0 -3.1744290963448254e-05 -0.0002461921823411687 0 1.1198142578233566e-05 -0.00023293126428704944 0 3.4828235809844754e-06 -0.00036454625611601207 0 -0.00075220474004257856 -0.00082417710918310065 0 -0.00082760856767436972 -0.00098430781651329602 0 -0.00089617414825758049 -0.000972444517793015 0 -0.00058661677942258711 -0.0029513430708995847 0 -0.00047862260822301411 -0.0029896930985793533 0 -0.00052361994847175569 -0.0031558829846232493 0 0.00021841585100775853 -0.00024683515610145201 0 0.00016073234368672748 -0.00021620929505242022 0 9.8407396613856904e-05 -0.00010791796307301495 0 0.00094319529094315149 -0.0024221557171575162 0 0.00096538835158130473 -0.0022730545045296529 0 0.001059429680292659 -0.0023442534925503062 0 0.00069524393803245023 -0.0023266387369985232 0 0.0006570033075848651 -0.0021957484760632721 0 0.0007616605290796701 -0.002183265419489917 0 -0.00053583840793309113 -0.0025545087737175219 0 -0.0004481185978736145 -0.0024926697996732446 0 -0.00043203747080077415 -0.0026544345339354321 0 0.0003510448047916404 -0.00056760700270153488 0 0.00030477436286792739 -0.00060900894413300731 0 0.00024889648795486789 -0.00046828410859164427 0 -0.00055241015837440737 -0.000816334709339274 0 -0.00055175730599231585 -0.00093132878387466075 0 -0.00065365943354817903 -0.00097800141960914825 0 0.00080592141437063299 -0.0027381956010123611 0 0.00083305925318774684 -0.0025357260166844115 0 0.0009129179491763384 -0.0026738712188115205 0 -0.00080614808783542147 -0.0027380112856194949 0 -0.00067074965648171469 -0.0027745700285769304 0 -0.00076066430223963478 -0.0029060211418769407 0 0.0004110136653128184 -0.0017306037680127101 0 0.00035350608716530922 -0.0015333410111099295 0 0.00048680686496352425 -0.0016401068669214666 0 0.00048400657532925449 -0.0014807069732191876 0 0.00048680686496352425 -0.0016401068669214666 0 0.00035350608716530922 -0.0015333410111099295 0 0.00069524393803245023 -0.0023266387369985232 0 0.00059961809897344587 -0.0022962399529483494 0 0.0006570033075848651 -0.0021957484760632721 0 -0.00053583840793309113 -0.0025545087737175219 0 -0.00052085481558951808 -0.0024088817457091254 0 -0.0004481185978736145 -0.0024926697996732446 0 0.0003510448047916404 -0.00056760700270153488 0 0.00038077200313024122 -0.00069565891501705631 0 0.00030477436286792739 -0.00060900894413300731 0 -0.00055241015837440737 -0.000816334709339274 0 -0.00047569555166965738 -0.00081824871242689291 0 -0.00055175730599231585 -0.00093132878387466075 0 0.00095953700303925277 -0.0029898070892119392 0 0.00096311511467524842 -0.0031883282467227423 0 0.00088173550265991144 -0.003151556433744724 0 -0.00096305028104131025 -0.0029838538123358421 0 -0.00107993434822675 -0.0029950707122128593 0 -0.0010582915165551399 -0.0028657712691690274 0 0.00038662773301801967 -0.00027231524353097883 0 0.00048303689728340844 -0.0003521821192963974 0 0.00058940822073213323 -0.00047062604901583553 0 0.00095953700303925277 -0.0029898070892119392 0 0.0010459716322395744 -0.0028485125598220135 0 0.0010799406673499417 -0.002995185061797888 0 0.00038662773301801967 -0.00027231524353097883 0 0.00018817786419997011 -0.00013218772906379802 0 0.00016618319516268441 -9.3813650375668378e-05 0 -0.00039051801851733981 -0.0002766578429245099 0 -0.00016639123438380715 -9.4357197393718265e-05 0 -0.00020039006113635046 -0.00014140372762388824 0 -0.00096305028104131025 -0.0029838538123358421 0 -0.00087109317225731722 -0.0031292288938133887 0 -0.00096334429298355841 -0.0031882204894960538 0 -0.00039051801851733981 -0.0002766578429245099 0 -0.00058341228762111297 -0.00046350595643232284 0 -0.00048229570910840398 -0.00035243053876360343 0 0.00011419941179424539 -0.0012244815321082552 0 0.00010470999067592444 -0.0010647022320079964 0 0.00022866924940909107 -0.0011167295431782005 0 -2.8727306164786076e-06 -0.0010368450865338337 0 0.00010470999067592444 -0.0010647022320079964 0 1.11313469231027e-05 -0.0011655641968634249 0 0.0004110136653128184 -0.0017306037680127101 0 0.00038843613895690472 -0.0018687468117703269 0 0.00029557287987773054 -0.0017162033862175912 0 -3.7437458606057209e-08 -0.0025427434855954684 0 -5.8526030768089607e-06 -0.0027629494227746831 0 -8.6222513631056309e-05 -0.0026447420092990002 0 -0.00067684671636623905 -0.001566321047647933 0 -0.00081222128429924746 -0.0015858752761213413 0 -0.00073054169992647108 -0.0014593734716610309 0 0.00067659462683457533 -0.0015663961867694825 0 0.00081321006367971675 -0.0016019578286570945 0 0.00074751874489405862 -0.0016983998095991945 0 -1.5366476678374833e-07 -0.00053791158098498838 0 3.4828235809844754e-06 -0.00036454625611601207 0 4.8821254233592843e-05 -0.00045533584634146606 0 0.00050135359794728713 -0.0027838111290504185 0 0.00059885578724299337 -0.0028552317582858236 0 0.00050798411555966249 -0.0029918682593597264 0 -0.00084193989594513784 -0.0022907965883653442 0 -0.00088478516295007121 -0.0024349928465291614 0 -0.00096715145728791801 -0.0023140097097499924 0 0.00070024004367438396 -0.00090548028294973445 0 0.00067826022836284044 -0.00079164311614027066 0 0.00081084021676266539 -0.00094136775428000762 0 -0.00024842459382634624 -0.00037141658009846179 0 -0.00028117752507061586 -0.00034894469118412546 0 -0.00017230960577908227 -0.00022102072926131705 0 0.00060709828534054983 -0.0019283450322075044 0 0.00053931695010271902 -0.0021085727006995218 0 0.00048280120736117211 -0.0019410063382002405 0 -0.00026587121088787134 -0.0024131248504220015 0 -0.0003972633735049858 -0.0023175388159242445 0 -0.00028763904432651199 -0.0022247975453469626 0 0.00018747280760464594 -0.00065608942418217192 0 0.00030293877464655398 -0.00076221470522519366 0 0.00022406323996234241 -0.0008281986541418707 0 -0.00055597110870723131 -0.0011772714604675071 0 -0.0004625573220771881 -0.00098289628356916406 0 -0.0004409822489420481 -0.0011508504496994636 0 0.00094319529094315149 -0.0024221557171575162 0 0.00083305925318774684 -0.0025357260166844115 0 0.00081390712637809148 -0.0023821045376259541 0 0.00021841585100775853 -0.00024683515610145201 0 0.00035468710247167341 -0.00039651670452946837 0 0.00030445359393495237 -0.00041284250420515838 0 -0.00058661677942258711 -0.0029513430708995847 0 -0.00067074965648171469 -0.00277457002857693 0 -0.00056661174520811924 -0.0027409377538243182 0 -0.00075220474004257856 -0.00082417710918310065 0 -0.00059885853000827877 -0.00065925762212134913 0 -0.000644271987772314 -0.00080295490379418992 0 0.00028286511546202984 -0.0019128185727831186 0 0.00018793297286591251 -0.0018190926696191241 0 0.00029557287987773054 -0.0017162033862175912 0 -0.00016061524902615968 -0.0016969339253650603 0 -0.00024834399738135198 -0.0016386529543061757 0 -0.0001161575042470162 -0.0015599342423790346 0 -0.00021918847674704512 -0.0014762882813063589 0 -0.0001161575042470162 -0.0015599342423790346 0 -0.00024834399738135198 -0.0016386529543061757 0 -0.0001435473522125177 -0.0021219963075438859 0 -0.00023895800763105423 -0.0020874778729707212 0 -0.00011359467391856169 -0.0019764351757175134 0 -0.00023593876744582281 -0.0019376249843018202 0 -0.00011359467391856169 -0.0019764351757175134 0 -0.00023895800763105423 -0.0020874778729707212 0 0.00075582868757822954 -0.00081168702849038351 0 0.00060367667817682669 -0.00065791433637008283 0 0.0006878318780894105 -0.00067617509247306382 0 -0.00021212429195234823 -0.00023320350857129843 0 -0.00034770113444368601 -0.00038254039379309325 0 -0.00025314170660229465 -0.0002446806026025134 0 -0.00021918847674704512 -0.0014762882813063589 0 -0.00034812327496502876 -0.0015602410798346081 0 -0.00029437566956783264 -0.0013632552279237476 0 0.00061032274726363471 -0.0033474077491004238 0 0.00053700292330080795 -0.0031738601484459414 0 0.00067715308944966989 -0.0031572900155477993 0 -0.0011615927810932872 -0.0024728919269525994 0 -0.0010696368846372893 -0.0023641573015406635 0 -0.0010612259862527087 -0.0025620118974605719 0 0.00093595725640242995 -0.00093157634720596942 0 0.00089516247403363062 -0.00096020615275383379 0 0.00081235356241541256 -0.00079086451449936538 0 -2.1433513171797938e-08 -1.1960246154024459e-07 0 -9.4710827520821364e-05 -0.00010176655949584102 0 -0.00013052164133459538 -0.00011595691915169219 0 0.00096073826611182327 -0.0018391620172894117 0 0.0010656467548403727 -0.0018434357899443628 0 0.0010397092179429 -0.0019859628531732321 0 5.0050680580662563e-05 -0.00020313113533639734 0 2.2300452672754021e-05 -8.3734946707191856e-05 0 5.2118335403069919e-05 -0.00012113509830772699 0 -0.00016055956887641628 -0.0029947022770926467 0 -0.0001494823554588415 -0.0031900685638069984 0 -0.00026122396544156625 -0.003129238244908991 0 -0.00092573269014103511 -0.0014122081942649662 0 -0.0010309984707627159 -0.0014588902953721803 0 -0.00097600645191338049 -0.0013054548372051565 0 -0.00023593876744582281 -0.0019376249843018202 0 -0.00023909917360977751 -0.0017919829296666348 0 -0.00012506400060755134 -0.001817249515713484 0 -0.00014548892318557214 -0.0010024173757072678 0 -0.00013808363230313007 -0.00081074436154087565 0 -5.8009805311292464e-05 -0.00093306081849801241 0 -3.248101466845594e-05 -0.0007861023173955879 0 -5.8009805311292464e-05 -0.00093306081849801241 0 -0.00013808363230313007 -0.00081074436154087565 0 0.00037108852750350707 -0.0033495585466699618 0 0.00024850659451172144 -0.0033495933779809114 0 0.00034153209312852152 -0.0031892043209703815 0 -0.0011568098821009625 -0.002144685908018877 0 -0.0011514720316492689 -0.0019824718713256756 0 -0.0010749278048199414 -0.0020974825141537087 0 0.0010494259841034841 -0.0012154806667796863 0 0.0010854210697341525 -0.0013628178230867271 0 0.00098498778072927929 -0.0012152877625175402 0 -1.9703530118269541e-08 -1.2137266658888091e-07 0 -8.6509998418661179e-09 -1.2260121092771519e-07 0 -5.1104806165143536e-05 -8.4632633452582338e-05 0 0.00059818045305153099 -0.002616027387098169 0 0.00062176999016434775 -0.0024231344365214535 0 0.0007103953896341592 -0.002479038466372823 0 -0.00073405227583416151 -0.0024206743496986557 0 -0.00060513998213667394 -0.0024467269127033215 0 -0.00063881541654025795 -0.0025824520428898326 0 0.00055614310645526793 -0.00073686850375338027 0 0.00043838467995122515 -0.00067786779978877695 0 0.00041643761025474807 -0.00055606340424149074 0 -0.00037372520057890038 -0.00052181804193342002 0 -0.00045934771621536314 -0.00070490307424284201 0 -0.00051628164937767072 -0.00067048412750208425 0 0.0003750527254410073 -0.00028557377467087439 0 0.00028665339639871262 -0.00017496672754104524 0 0.00017477523260455953 -0.0001139203173656064 0 -1.5283813523367055e-09 -1.0100789576548575e-07 0 -0.00028596144265762241 -0.00017434559447983877 0 -0.00017433198048286781 -0.00011374210726175775 0 9.3637728732743688e-10 -1.0149044857604372e-07 0 0.00017477523260455953 -0.0001139203173656064 0 0.00028665339639871262 -0.00017496672754104524 0 -0.00037463379630915265 -0.00028577473819983273 0 -0.00017433198048286781 -0.00011374210726175775 0 -0.00028596144265762241 -0.00017434559447983877 0 0.0011496129088354001 -0.0031376839952601092 0 0.0010865802825561748 -0.0032021481990291904 0 0.0010398424492972205 -0.0031191517429932088 0 0.0010457608888268101 -0.0033149658882949996 0 0.0010398424492972205 -0.0031191517429932088 0 0.0010865802825561748 -0.0032021481990291904 0 -0.0010459636878612719 -0.0033148479752488223 0 -0.0010901674386318055 -0.0032080462562915305 0 -0.0010400777150885087 -0.0031189156367524363 0 -0.0011498695034521521 -0.0031375946161924595 0 -0.0010400777150885087 -0.0031189156367524363 0 -0.0010901674386318055 -0.0032080462562915305 0 0.00095953700303925277 -0.0029898070892119392 0 0.00093937648134358425 -0.0028221218363197217 0 0.0010459716322395744 -0.0028485125598220135 0 -0.00096305028104131025 -0.0029838538123358421 0 -0.00085692744324306752 -0.0029504225774903753 0 -0.00087109317225731722 -0.0031292288938133887 0 0.0010019787857985783 -0.0027019016539653693 0 0.0010459716322395744 -0.0028485125598220135 0 0.00093937648134358425 -0.0028221218363197217 0 0.00066133611453010881 -0.00058532246604745236 0 0.00051872701847383799 -0.00043219858474763796 0 0.00058940822073213323 -0.00047062604901583553 0 -0.00077560254457447776 -0.003053512405025409 0 -0.00087109317225731722 -0.0031292288938133887 0 -0.00085692744324306752 -0.0029504225774903753 0 -0.00023221631937341531 -0.00018896697758391174 0 -0.00036019362133841651 -0.00029130089065950826 0 -0.00020039006113635046 -0.00014140372762388824 0 0.00038662773301801967 -0.00027231524353097883 0 0.00058940822073213313 -0.00047062604901583553 0 0.00051872701847383799 -0.00043219858474763796 0 -0.00039051801851733981 -0.0002766578429245099 0 -0.00020039006113635046 -0.00014140372762388824 0 -0.00036019362133841651 -0.00029130089065950826 0 0.00018352474438799979 -0.0016667832134847974 0 0.00029557287987773054 -0.0017162033862175912 0 0.00018793297286591251 -0.0018190926696191241 0 0.00022866924940909107 -0.0011167295431782005 0 0.00010470999067592444 -0.0010647022320079964 0 0.00020476644878477339 -0.0009585208397676592 0 -0.00028501123901464678 -0.0026295971886255518 0 -0.00043203747080077415 -0.0026544345339354321 0 -0.00035727954796187293 -0.002538136383988413 0 0.00074570191933302668 -0.0019738940663125543 0 0.0007616605290796701 -0.0021832654194899165 0 0.00068792274733348209 -0.0020683166847101863 0 -0.00068424072328208453 -0.0011801599320724312 0 -0.00065365943354817892 -0.00097800141960914825 0 -0.00060807599755915791 -0.0010651920941403205 0 0.00016632194742152736 -0.00047670291900187505 0 0.00024889648795486789 -0.00046828410859164427 0 0.00022922266320612111 -0.00055766952149849489 0 -0.00024541633080936166 -0.0012189020453385157 0 -0.00029437566956783264 -0.0013632552279237476 0 -0.00033281639209937884 -0.0011704165989698165 0 -0.00039248042851752947 -0.0013130810803467004 0 -0.00033281639209937884 -0.0011704165989698165 0 -0.00029437566956783264 -0.0013632552279237476 0 -0.00023593876744582281 -0.0019376249843018202 0 -0.00023895800763105423 -0.0020874778729707208 0 -0.00035495319796210344 -0.002076203810881856 0 8.6103541867880941e-05 -0.00293090115977731 0 -5.8526030768089607e-06 -0.0027629494227746831 0 0.00010186428273136498 -0.0027756087160208521 0 -0.00091921235068971347 -0.0017323277584373007 0 -0.00081222128429924746 -0.0015858752761213413 0 -0.00082814917393896905 -0.0017350155489228567 0 0.00090067742336197288 -0.0015010643852035052 0 0.00081321006367971686 -0.0016019578286570948 0 0.00080690252753381402 -0.0014564860348562478 0 -3.1744290963448254e-05 -0.0002461921823411687 0 3.4828235809844868e-06 -0.00036454625611601207 0 -4.7318508675554142e-05 -0.00035822282014997652 0 -0.00032440227754909742 -0.0019043427617477617 0 -0.00023593876744582281 -0.0019376249843018202 0 -0.00035495319796210344 -0.002076203810881856 0 0.00038296021227050424 -0.0020442840560457583 0 0.00053931695010271913 -0.0021085727006995218 0 0.0004455079297708998 -0.002180877679778764 0 -0.00035495319796210344 -0.002076203810881856 0 -0.0003972633735049858 -0.0023175388159242445 0 -0.00044678582125792408 -0.0021740761479215535 0 0.00030625291572760027 -0.0009745174674756367 0 0.00030293877464655398 -0.00076221470522519366 0 0.00036961662162917616 -0.00089919786617198572 0 -0.00033071466438262668 -0.0010105862794875132 0 -0.0004625573220771881 -0.00098289628356916406 0 -0.0003657565245478166 -0.00089280342014004088 0 0.00059818045305153099 -0.002616027387098169 0 0.00050135359794728713 -0.0027838111290504185 0 0.00049832424915487031 -0.0026157609992428854 0 -0.00073405227583416151 -0.0024206743496986557 0 -0.00084193989594513784 -0.0022907965883653442 0 -0.00073546177846158553 -0.0022760247784084269 0 0.00055614310645526793 -0.00073686850375338027 0 0.00070024004367438396 -0.00090548028294973445 0 0.00060436570687871294 -0.0008780127155474974 0 -0.00037372520057890038 -0.00052181804193342002 0 -0.00024842459382634624 -0.00037141658009846179 0 -0.00030548167048526477 -0.00051117822188088307 0 -0.00014548892318557214 -0.0010024173757072678 0 -0.00016186313543087267 -0.0011671964117114799 0 -0.00024079051344333847 -0.0010816766918914584 0 0.00059818045305153099 -0.002616027387098169 0 0.00069866861149846184 -0.0027662566749740679 0 0.00059885578724299337 -0.0028552317582858236 0 -0.00073405227583416151 -0.0024206743496986557 0 -0.00082730600044447517 -0.0025765053044845038 0 -0.00088478516295007121 -0.0024349928465291614 0 0.00055614310645526793 -0.00073686850375338027 0 0.00060367667817682669 -0.00065791433637008283 0 0.00067826022836284044 -0.00079164311614027066 0 -0.00037372520057890038 -0.00052181804193342002 0 -0.00034770113444368601 -0.00038254039379309325 0 -0.00028117752507061586 -0.00034894469118412546 0 0.00016620314055339934 -0.0020122288932386116 0 0.00018793297286591251 -0.0018190926696191241 0 0.00028286511546202984 -0.0019128185727831186 0 0.00084524478311324015 -0.0020790873432299213 0 0.00086977751080969323 -0.0022688045920103159 0 0.0007616605290796701 -0.002183265419489917 0 0.00016600284539637311 -0.00035613039025211737 0 0.00022175760888402599 -0.00033335188532617805 0 0.00024889648795486789 -0.00046828410859164427 0 -0.00035052960635526638 -0.0027892538497265415 0 -0.00048367025500301269 -0.0028288297360368466 0 -0.00043203747080077415 -0.0026544345339354321 0 -0.00076068361114427598 -0.0011166758688927715 0 -0.00073431482001805218 -0.00093958541495945888 0 -0.00065365943354817903 -0.00097800141960914825 0 -0.00073405227583416151 -0.0024206743496986557 0 -0.00063881541654025795 -0.0025824520428898326 0 -0.00073228684372654822 -0.0026134722333472759 0 0.00059818045305153099 -0.002616027387098169 0 0.0007103953896341592 -0.002479038466372823 0 0.00072698799827734361 -0.0026209414571368838 0 -0.00037372520057890038 -0.00052181804193342002 0 -0.00051628164937767072 -0.00067048412750208436 0 -0.00046161679089229798 -0.00053569617314843298 0 0.00055614310645526793 -0.00073686850375338027 0 0.00041643761025474807 -0.00055606340424149074 0 0.00048329096780455339 -0.00055937255626180283 0 2.9610883083403833e-05 -0.0020225799786641094 0 -5.5469473550126765e-05 -0.0021136808164616818 0 -0.00011359467391856169 -0.0019764351757175134 0 0.00011419941179424539 -0.0012244815321082552 0 0.00022866924940909107 -0.0011167295431782005 0 0.00021998338773253926 -0.0012907294242104266 0 0.00032888832014961477 -0.0012758489159470068 0 0.00021998338773253926 -0.0012907294242104266 0 0.00022866924940909107 -0.0011167295431782005 0 0.00050867955249719182 -0.0022761240492309362 0 0.00053931695010271913 -0.0021085727006995218 0 0.00059961809897344587 -0.0022962399529483494 0 -0.00051148198906017506 -0.0022723263890973349 0 -0.0003972633735049858 -0.0023175388159242445 0 -0.00052085481558951808 -0.0024088817457091254 0 0.0006570033075848651 -0.0021957484760632721 0 0.00059961809897344587 -0.0022962399529483494 0 0.00053931695010271913 -0.0021085727006995218 0 -0.0004481185978736145 -0.0024926697996732446 0 -0.00052085481558951808 -0.0024088817457091254 0 -0.0003972633735049858 -0.0023175388159242445 0 0.00040543418200095395 -0.00081976536095709133 0 0.00030293877464655398 -0.00076221470522519366 0 0.00038077200313024122 -0.00069565891501705631 0 -0.00040163623557821311 -0.00081601593842061358 0 -0.0004625573220771881 -0.00098289628356916406 0 -0.00047569555166965738 -0.00081824871242689291 0 0.00030477436286792739 -0.00060900894413300731 0 0.00038077200313024122 -0.00069565891501705631 0 0.00030293877464655398 -0.00076221470522519366 0 -0.00055175730599231585 -0.00093132878387466075 0 -0.00047569555166965738 -0.00081824871242689291 0 -0.0004625573220771881 -0.00098289628356916406 0 0.00059726589620455678 -0.0030212708268389501 0 0.00050798411555966249 -0.0029918682593597264 0 0.00059885578724299337 -0.0028552317582858236 0 -0.00098376107622838026 -0.0024414123251403127 0 -0.00096715145728791801 -0.0023140097097499924 0 -0.00088478516295007121 -0.0024349928465291614 0 0.00075582868757822954 -0.00081168702849038351 0 0.00081084021676266539 -0.00094136775428000762 0 0.00067826022836284044 -0.00079164311614027066 0 -0.00021212429195234823 -0.00023320350857129843 0 -0.00017230960577908227 -0.00022102072926131705 0 -0.00028117752507061586 -0.00034894469118412546 0 0.00024872381411881317 -0.0024111833155150857 0 0.00035875834444632474 -0.0024128596171272879 0 0.00030019662102182161 -0.002601986515313058 0 0.0004232710882717467 -0.002541743771444374 0 0.00030019662102182161 -0.002601986515313058 0 0.00035875834444632474 -0.0024128596171272879 0 -0.00060542045820703553 -0.0019042192247835719 0 -0.00060661527172526416 -0.0020614464356698684 0 -0.00072889978455863418 -0.0019928337774175217 0 -0.00068955139991499896 -0.0021632784228411586 0 -0.00072889978455863418 -0.0019928337774175217 0 -0.00060661527172526416 -0.0020614464356698684 0 0.00055814070715298064 -0.001201077169321386 0 0.0005325863301302217 -0.0010457683877675213 0 0.00066357240906119049 -0.0011544992655702871 0 0.00058974723600227149 -0.0009729027384896801 0 0.00066357240906119049 -0.0011544992655702871 0 0.0005325863301302217 -0.0010457683877675213 0 -0.00017636744914999441 -0.00065837830383237001 0 -0.00025526096655696266 -0.00066737537536941058 0 -0.00018090369027337565 -0.00049932420903320014 0 -0.00027533326660039091 -0.00056331784097100564 0 -0.00018090369027337565 -0.00049932420903320014 0 -0.00025526096655696266 -0.00066737537536941058 0 0.0010185375706261949 -0.002159457496516332 0 0.0010397092179429 -0.0019859628531732321 0 0.0010949882408399065 -0.0020951158158089736 0 9.6729126876239632e-05 -0.00015013588299638933 0 5.2118335403069919e-05 -0.00012113509830772699 0 3.8400958690807938e-05 -6.2916644690243266e-05 0 -0.00039217321505425696 -0.0030839959967955198 0 -0.00026122396544156625 -0.003129238244908991 0 -0.00033855036588729005 -0.0032283772864012635 0 -0.00091397256703703645 -0.0011243666314481062 0 -0.00097600645191338049 -0.0013054548372051565 0 -0.0010047583950700673 -0.0012278542244208842 0 0.00038296021227050424 -0.0020442840560457583 0 0.0004455079297708998 -0.002180877679778764 0 0.00036673791308446379 -0.0022400637051423959 0 -0.00035495319796210344 -0.002076203810881856 0 -0.00044678582125792408 -0.0021740761479215535 0 -0.00049156112736083808 -0.0020620996445155971 0 0.00030625291572760027 -0.0009745174674756367 0 0.00036961662162917616 -0.00089919786617198572 0 0.00042617492502292201 -0.0010151380230807991 0 -0.00033071466438262668 -0.0010105862794875132 0 -0.0003657565245478166 -0.00089280342014004088 0 -0.00028956754912274734 -0.00082459520067562609 0 0.00059818045305153099 -0.002616027387098169 0 0.00053083834193937466 -0.0024472000645184909 0 0.00062176999016434775 -0.0024231344365214535 0 -0.00073405227583416151 -0.0024206743496986557 0 -0.00062540070774911802 -0.0023128920290258741 0 -0.00060513998213667394 -0.0024467269127033215 0 0.00055614310645526793 -0.00073686850375338027 0 0.00049346674960280238 -0.00080792595465994585 0 0.00043838467995122515 -0.00067786779978877706 0 -0.00037372520057890038 -0.00052181804193342002 0 -0.00037800416108941799 -0.00066123021217440593 0 -0.00045934771621536314 -0.00070490307424284201 0 -0.00016061524902615968 -0.0016969339253650603 0 -0.00012506400060755134 -0.001817249515713484 0 -0.00023909917360977751 -0.0017919829296666348 0 -8.6509998418661179e-09 -1.2260121092771519e-07 0 -4.554444273604014e-09 -1.2003545857170097e-07 0 -3.2632535707107223e-05 -7.9106016130508805e-05 0 0.0010854210697341525 -0.0013628178230867271 0 0.0011123389893224374 -0.0015137084394389059 0 0.001018711168353755 -0.0013556982999503922 0 -0.0011514720316492689 -0.0019824718713256756 0 -0.0011437460053843741 -0.0018224749529974372 0 -0.0010759918812091155 -0.0019523986675409712 0 0.00024850659451172144 -0.0033495933779809114 0 0.00012459491243572136 -0.0033492266753023243 0 0.0002318326801622691 -0.0031997095284901156 0 0.0003750527254410073 -0.00028557377467087439 0 0.00057773156090910351 -0.00047541303405790412 0 0.00048303689728340844 -0.0003521821192963974 0 -1.5283813523367055e-09 -1.0100789576548575e-07 0 -6.674009062377597e-08 -1.5082486555744465e-07 0 -0.00016639123438380715 -9.4357197393718265e-05 0 0.0010457608888268101 -0.0033149658882949996 0 0.00094301539149912919 -0.0033269726985866782 0 0.00096311511467524842 -0.0031883282467227423 0 -0.0011498695034521521 -0.0031375946161924595 0 -0.0011539548294341392 -0.0029720813146834717 0 -0.00107993434822675 -0.0029950707122128593 0 0.0011539431747991831 -0.0029721913777148497 0 0.0011496129088354001 -0.0031376839952601092 0 0.0010799406673499417 -0.002995185061797888 0 6.675975961741736e-08 -1.4928849401616414e-07 0 9.3637728732743688e-10 -1.0149044857604372e-07 0 0.00016618319516268441 -9.3813650375668378e-05 0 -0.00094315590337043292 -0.0033269052344903679 0 -0.0010459636878612719 -0.0033148479752488223 0 -0.00096334429298355841 -0.0031882204894960538 0 -0.00057705530040337094 -0.00047576182420810482 0 -0.00037463379630915265 -0.00028577473819983273 0 -0.00048229570910840398 -0.00035243053876360343 0 0.00094319529094315149 -0.0024221557171575162 0 0.00081390712637809148 -0.0023821045376259541 0 0.00086977751080969323 -0.0022688045920103159 0 0.00021841585100775853 -0.00024683515610145201 0 0.00030445359393495237 -0.00041284250420515838 0 0.00022175760888402599 -0.00033335188532617805 0 -0.00058661677942258711 -0.0029513430708995847 0 -0.00056661174520811924 -0.0027409377538243182 0 -0.00048367025500301269 -0.0028288297360368466 0 -0.00075220474004257856 -0.00082417710918310065 0 -0.000644271987772314 -0.00080295490379418992 0 -0.00073431482001805218 -0.00093958541495945888 0 3.7681582577930206e-05 -0.0022342160922369011 0 0.00011322359348226511 -0.0024208100766353563 0 -2.3672665193265145e-05 -0.0023845160831505855 0 -0.00048268371599286805 -0.001588689118158868 0 -0.0006075891946191672 -0.0017123527753270867 0 -0.00057437877409806295 -0.0015158000027629941 0 0.00048400657532925449 -0.0014807069732191876 0 0.00058722609842194631 -0.0013930818743143679 0 0.00057922982024305502 -0.0015740948531144524 0 -3.248101466845594e-05 -0.0007861023173955879 0 -7.8557930565307645e-05 -0.0006409936819022537 0 1.2876651665559839e-05 -0.00066838229852902498 0 0.0004110136653128184 -0.0017306037680127101 0 0.00029557287987773054 -0.0017162033862175912 0 0.00035350608716530922 -0.0015333410111099295 0 0.00012278247769285404 -0.00091169268647769931 0 0.00020476644878477339 -0.0009585208397676592 0 0.00010470999067592444 -0.0010647022320079964 0 -0.00021918847674704512 -0.0014762882813063589 0 -0.00018203124183464978 -0.0013168566375241072 0 -9.3036400533282439e-05 -0.0014068159674978866 0 0.00035039308015254167 -0.0027892395399885792 0 0.00030019662102182166 -0.002601986515313058 0 0.00042445705654005437 -0.0026897509645426388 0 -0.00084544493022793124 -0.0020790115431513065 0 -0.00072889978455863418 -0.0019928337774175217 0 -0.00078376558480676612 -0.0021752259269772803 0 0.00076037566482417931 -0.0011173385492814106 0 0.00066357240906119049 -0.0011544992655702871 0 0.00067698179903171764 -0.00099486063213845483 0 -0.00016597468397270136 -0.00035510060286023868 0 -0.00018090369027337562 -0.00049932420903320014 0 -0.00023495016875685852 -0.00044054421467800456 0 0.00024850659451172144 -0.0033495933779809114 0 0.0002318326801622691 -0.0031997095284901156 0 0.00034153209312852152 -0.0031892043209703815 0 -0.0011514720316492689 -0.0019824718713256756 0 -0.0010759918812091155 -0.0019523986675409712 0 -0.0010749278048199414 -0.0020974825141537087 0 0.0010854210697341525 -0.0013628178230867271 0 0.001018711168353755 -0.0013556982999503922 0 0.00098498778072927929 -0.0012152877625175402 0 -8.6509998418661179e-09 -1.2260121092771519e-07 0 -3.2632535707107223e-05 -7.9106016130508805e-05 0 -5.1104806165143536e-05 -8.4632633452582338e-05 0 0.00038296021227050424 -0.0020442840560457583 0 0.00028286511546202984 -0.0019128185727831186 0 0.00038843613895690472 -0.0018687468117703269 0 0.00030625291572760027 -0.0009745174674756367 0 0.00022866924940909107 -0.0011167295431782005 0 0.00020476644878477339 -0.0009585208397676592 0 0.00016620314055339934 -0.0020122288932386116 0 0.00027533651971161141 -0.00212468170578965 0 0.00017890707923305264 -0.0022350261425949391 0 -0.00034995762503978569 -0.0017647168900581484 0 -0.00042085714890068341 -0.0019201633521942958 0 -0.00048665221856813604 -0.0017854608027481767 0 0.00032888832014961477 -0.0012758489159470068 0 0.00037012197185196333 -0.0011337003274699761 0 0.00045896026354442273 -0.001284307626353296 0 -0.00014548892318557214 -0.0010024173757072678 0 -0.00022799900202660102 -0.00091868727980957813 0 -0.00013808363230313007 -0.00081074436154087565 0 1.2525006751565842e-08 -1.1975361450453931e-07 0 3.8400958690807938e-05 -6.2916644690243266e-05 0 5.2118335403069919e-05 -0.00012113509830772699 0 0.0011517164514827523 -0.001982804060560213 0 0.0010949882408399065 -0.0020951158158089736 0 0.0010397092179429 -0.0019859628531732321 0 -0.0010865765643610469 -0.0013631843666960255 0 -0.0010047583950700673 -0.0012278542244208842 0 -0.00097600645191338049 -0.0013054548372051565 0 -0.0002485797668382547 -0.0033496320245306119 0 -0.00033855036588729005 -0.0032283772864012635 0 -0.00026122396544156625 -0.003129238244908991 0 -3.7437458606057209e-08 -0.0025427434855954684 0 -2.3672665193265145e-05 -0.0023845160831505855 0 0.00011322359348226511 -0.0024208100766353563 0 -0.00067684671636623905 -0.001566321047647933 0 -0.00057437877409806295 -0.0015158000027629941 0 -0.0006075891946191672 -0.0017123527753270867 0 0.00067659462683457533 -0.0015663961867694825 0 0.00057922982024305502 -0.0015740948531144524 0 0.00058722609842194631 -0.0013930818743143679 0 -1.5366476678374833e-07 -0.00053791158098498838 0 1.2876651665559839e-05 -0.00066838229852902498 0 -7.8557930565307645e-05 -0.0006409936819022537 0 -0.00026587121088787134 -0.0024131248504220015 0 -0.00016956509298407085 -0.0025443010812613693 0 -0.00028501123901464678 -0.0026295971886255518 0 -0.00055597110870723131 -0.0011772714604675071 0 -0.00065553966527945133 -0.0013296216293743873 0 -0.00068424072328208453 -0.0011801599320724312 0 0.00060709828534054983 -0.0019283450322075044 0 0.00068898248305868906 -0.0018038555024107394 0 0.00074570191933302668 -0.0019738940663125543 0 0.00018747280760464594 -0.00065608942418217192 0 0.00010610933178952009 -0.00053800675229322679 0 0.00016632194742152736 -0.00047670291900187505 0 0.00069524393803245023 -0.0023266387369985232 0 0.00062176999016434775 -0.0024231344365214535 0 0.00059961809897344587 -0.0022962399529483494 0 -0.00053583840793309113 -0.0025545087737175219 0 -0.00060513998213667394 -0.0024467269127033215 0 -0.00052085481558951808 -0.0024088817457091254 0 0.0003510448047916404 -0.00056760700270153488 0 0.00043838467995122515 -0.00067786779978877706 0 0.00038077200313024122 -0.00069565891501705631 0 -0.00055241015837440737 -0.000816334709339274 0 -0.00045934771621536314 -0.00070490307424284191 0 -0.00047569555166965738 -0.00081824871242689291 0 -2.0518650939301846e-05 -0.0018370858858796457 0 7.6910885305179691e-05 -0.0016993828878626724 0 8.9234174958751229e-05 -0.0018786308364073085 0 -0.00021918847674704512 -0.0014762882813063589 0 -9.3036400533282439e-05 -0.0014068159674978866 0 -0.0001161575042470162 -0.0015599342423790346 0 0.0004232710882717467 -0.002541743771444374 0 0.00042445705654005437 -0.0026897509645426388 0 0.00030019662102182161 -0.002601986515313058 0 -0.00068955139991499896 -0.0021632784228411586 0 -0.00078376558480676612 -0.0021752259269772803 0 -0.00072889978455863418 -0.0019928337774175217 0 0.00058974723600227149 -0.0009729027384896801 0 0.00067698179903171764 -0.00099486063213845483 0 0.00066357240906119049 -0.0011544992655702871 0 -0.00027533326660039091 -0.00056331784097100564 0 -0.00023495016875685852 -0.00044054421467800456 0 -0.00018090369027337565 -0.00049932420903320014 0 0.00047122875437460079 -0.00045824417650409586 0 0.00058911408960629933 -0.00055646732234906557 0 0.00060367667817682669 -0.00065791433637008283 0 -0.00046788592777327967 -0.0004542690426460123 0 -0.00033814062960298423 -0.00031613648854661176 0 -0.00034770113444368601 -0.00038254039379309325 0 0.00021756933011615303 -0.0014416788051925941 0 0.00030266918757993041 -0.0013878896411181907 0 0.00035350608716530922 -0.0015333410111099295 0 0.00023693273844348212 -0.0015787332298174154 0 0.00021756933011615303 -0.0014416788051925941 0 0.00035350608716530922 -0.0015333410111099295 0 8.6103541867880941e-05 -0.00293090115977731 0 0.00010186428273136498 -0.0027756087160208521 0 0.00020749388351507658 -0.0028751882447161292 0 0.00017052734023311134 -0.002682938128661193 0 0.00020749388351507658 -0.0028751882447161292 0 0.00010186428273136498 -0.0027756087160208521 0 -0.00091921235068971347 -0.0017323277584373007 0 -0.00082814917393896905 -0.0017350155489228567 0 -0.00089392655451021874 -0.0018905564328338042 0 -0.00077573721823840161 -0.0018193374632894607 0 -0.00089392655451021874 -0.0018905564328338042 0 -0.00082814917393896905 -0.0017350155489228567 0 0.00090067742336197288 -0.0015010643852035052 0 0.00080690252753381402 -0.0014564860348562478 0 0.00084781077789461651 -0.0013285607556430803 0 0.00074011920105046417 -0.001347944737119371 0 0.00084781077789461651 -0.0013285607556430803 0 0.00080690252753381402 -0.0014564860348562478 0 -3.1744290963448254e-05 -0.0002461921823411687 0 -4.7318508675554142e-05 -0.00035822282014997652 0 -8.4621405329929602e-05 -0.0002865063485401212 0 -9.1539488068050106e-05 -0.00042888221090748864 0 -8.4621405329929616e-05 -0.0002865063485401212 0 -4.7318508675554142e-05 -0.00035822282014997652 0 0.00050135359794728713 -0.0027838111290504185 0 0.00050798411555966249 -0.0029918682593597264 0 0.00042215771407304759 -0.0029161473844019751 0 -0.00084193989594513784 -0.0022907965883653442 0 -0.00096715145728791801 -0.0023140097097499924 0 -0.00092222034606190989 -0.0021889153204944843 0 0.00070024004367438396 -0.00090548028294973445 0 0.00081084021676266539 -0.00094136775428000762 0 0.00080948413648868197 -0.0010439773884997987 0 -0.00024842459382634624 -0.00037141658009846179 0 -0.00017230960577908224 -0.00022102072926131705 0 -0.00016287647001785204 -0.00026585450113528056 0 0.00083305925318774684 -0.0025357260166844115 0 0.0007103953896341592 -0.002479038466372823 0 0.00081390712637809148 -0.0023821045376259541 0 -0.00067074965648171469 -0.0027745700285769304 0 -0.00063881541654025795 -0.0025824520428898326 0 -0.00056661174520811924 -0.0027409377538243182 0 0.00035468710247167341 -0.00039651670452946837 0 0.00041643761025474807 -0.00055606340424149074 0 0.00030445359393495237 -0.00041284250420515838 0 -0.00059885853000827877 -0.00065925762212134913 0 -0.00051628164937767072 -0.00067048412750208425 0 -0.000644271987772314 -0.00080295490379418992 0 0.00075582868757822954 -0.00081168702849038351 0 0.00067826022836284044 -0.00079164311614027066 0 0.00060367667817682669 -0.00065791433637008283 0 -0.00021212429195234823 -0.00023320350857129843 0 -0.00028117752507061586 -0.00034894469118412546 0 -0.00034770113444368601 -0.00038254039379309325 0 -5.8526030768089607e-06 -0.0027629494227746831 0 -0.00011701012171440551 -0.0028205254285025355 0 -8.6222513631056309e-05 -0.0026447420092990002 0 -0.00081222128429924746 -0.0015858752761213413 0 -0.00083235130510047706 -0.0014422198896688839 0 -0.00073054169992647108 -0.0014593734716610309 0 0.00081321006367971686 -0.0016019578286570945 0 0.00085660249720200866 -0.0017610904210613844 0 0.00074751874489405862 -0.0016983998095991945 0 3.4828235809844754e-06 -0.00036454625611601207 0 5.2719355032224439e-05 -0.0003232696810555036 0 4.8821254233592843e-05 -0.00045533584634146606 0 3.7681582577930206e-05 -0.0022342160922369011 0 -5.5469473550126765e-05 -0.0021136808164616818 0 2.9610883083403833e-05 -0.0020225799786641094 0 -0.00048268371599286805 -0.001588689118158868 0 -0.00040006399770650599 -0.0014475438935629705 0 -0.00034812327496502876 -0.0015602410798346081 0 0.00025835268936363675 -0.0027449072840245435 0 0.00035039308015254167 -0.0027892395399885792 0 0.00031238909095143561 -0.0029058582459472134 0 -0.00081684686877777355 -0.0019473111371824013 0 -0.00084544493022793124 -0.0020790115431513065 0 -0.00091464455907090583 -0.0020367228494334124 0 0.00075919041654277464 -0.0012363403233039048 0 0.00076037566482417931 -0.0011173385492814106 0 0.00083969593068993463 -0.001192181811603858 0 -0.00012820627920330513 -0.00038439011611934593 0 -0.00016597468397270136 -0.00035510060286023868 0 -0.00012064844807834934 -0.000268482998610024 0 0.00048400657532925449 -0.0014807069732191876 0 0.00035350608716530916 -0.0015333410111099295 0 0.00039158726100023297 -0.0014023511818023018 0 0.00018352474438799979 -0.0016667832134847974 0 7.6910885305179691e-05 -0.0016993828878626724 0 0.00013301303694813663 -0.0015394063343965819 0 8.0242042625584765e-06 -0.0015072418269632057 0 1.782179743517033e-05 -0.0013224466293303191 0 0.00011502677766215163 -0.0013816831777479712 0 0.00020749388351507658 -0.0028751882447161292 0 0.00025835268936363675 -0.0027449072840245435 0 0.00031238909095143561 -0.0029058582459472134 0 -0.00089392655451021874 -0.0018905564328338042 0 -0.00081684686877777355 -0.0019473111371824013 0 -0.00091464455907090583 -0.0020367228494334124 0 0.00084781077789461651 -0.0013285607556430803 0 0.00075919041654277464 -0.0012363403233039048 0 0.00083969593068993463 -0.001192181811603858 0 -8.4621405329929602e-05 -0.0002865063485401212 0 -0.00012820627920330513 -0.00038439011611934593 0 -0.00012064844807834934 -0.000268482998610024 0 -0.00034995762503978569 -0.0017647168900581484 0 -0.00034812327496502876 -0.0015602410798346081 0 -0.00024834399738135198 -0.0016386529543061757 0 -0.00017446822876879224 -0.0026963052092592267 0 -8.6222513631056309e-05 -0.0026447420092990002 0 -0.00011701012171440551 -0.0028205254285025355 0 -0.0007478582898515372 -0.0013446146523450827 0 -0.00073054169992647108 -0.0014593734716610309 0 -0.00083235130510047706 -0.0014422198896688839 0 0.00078421198160616792 -0.0018262648714014627 0 0.00074751874489405862 -0.0016983998095991945 0 0.00085660249720200866 -0.0017610904210613844 0 9.2565407549273428e-05 -0.00041709915031751087 0 4.8821254233592843e-05 -0.00045533584634146606 0 5.2719355032224439e-05 -0.0003232696810555036 0 0.00075582868757822954 -0.00081168702849038351 0 0.0006878318780894105 -0.00067617509247306382 0 0.00081235356241541256 -0.00079086451449936538 0 0.00066133611453010881 -0.00058532246604745236 0 0.00081235356241541256 -0.00079086451449936538 0 0.0006878318780894105 -0.00067617509247306382 0 -0.00021212429195234823 -0.00023320350857129843 0 -0.00025314170660229465 -0.0002446806026025134 0 -0.00013052164133459538 -0.00011595691915169219 0 -0.00023221631937341531 -0.00018896697758391174 0 -0.00013052164133459538 -0.00011595691915169219 0 -0.00025314170660229465 -0.0002446806026025134 0 8.0242042625584765e-06 -0.0015072418269632057 0 0.00011502677766215163 -0.0013816831777479712 0 0.00013301303694813663 -0.0015394063343965819 0 -0.00046788592777327967 -0.0004542690426460123 0 -0.00059021278152988823 -0.00055676024419233703 0 -0.00049770018001805397 -0.00042177066329667011 0 0.00047122875437460079 -0.00045824417650409586 0 0.00033696793214979732 -0.00031405794443698437 0 0.0003872847038408896 -0.00032352476037611537 0 0.00059726589620455678 -0.0030212708268389501 0 0.00059885578724299337 -0.0028552317582858236 0 0.0006893010725399091 -0.0029454874390828795 0 0.00069866861149846184 -0.0027662566749740679 0 0.0006893010725399091 -0.0029454874390828795 0 0.00059885578724299337 -0.0028552317582858236 0 -0.00098376107622838026 -0.0024414123251403127 0 -0.00088478516295007121 -0.0024349928465291614 0 -0.00093804005786474849 -0.0025704571222575452 0 -0.00082730600044447517 -0.0025765053044845038 0 -0.00093804005786474849 -0.0025704571222575452 0 -0.00088478516295007121 -0.0024349928465291614 0 0.00024156209722959681 -0.00019253709680988978 0 0.00023976776237413281 -0.00023254272621005961 0 0.00013249960703458271 -0.00011781254486382626 0 -0.00065182361972953022 -0.00057248887969122049 0 -0.00070364125126753008 -0.00069284641670938184 0 -0.00081601011801248069 -0.00079838093472380293 0 0.0010019787857985783 -0.0027019016539653693 0 0.00097249436808906841 -0.0025660046696754572 0 0.0010555187965565281 -0.0025314594114472428 0 -0.00077560254457447776 -0.003053512405025409 0 -0.00068462894279068456 -0.0030041697875285533 0 -0.00065635871394454704 -0.0031473043127093437 0 0.00021841585100775853 -0.00024683515610145201 0 0.00013249960703458271 -0.00011781254486382626 0 0.00023976776237413281 -0.00023254272621005961 0 -0.00075220474004257856 -0.00082417710918310065 0 -0.00081601011801248069 -0.00079838093472380293 0 -0.00070364125126753008 -0.00069284641670938184 0 0.00094319529094315149 -0.0024221557171575162 0 0.0010555187965565281 -0.0025314594114472428 0 0.00097249436808906841 -0.0025660046696754572 0 -0.00058661677942258711 -0.0029513430708995847 0 -0.00065635871394454704 -0.0031473043127093437 0 -0.00068462894279068456 -0.0030041697875285533 0 0.00059961809897344587 -0.0022962399529483494 0 0.00053083834193937455 -0.0024472000645184909 0 0.00050867955249719182 -0.0022761240492309362 0 0.00062176999016434775 -0.0024231344365214535 0 0.00053083834193937466 -0.0024472000645184909 0 0.00059961809897344587 -0.0022962399529483494 0 -0.00052085481558951808 -0.0024088817457091254 0 -0.00062540070774911802 -0.0023128920290258741 0 -0.00051148198906017506 -0.0022723263890973349 0 -0.00060513998213667394 -0.0024467269127033215 0 -0.00062540070774911802 -0.0023128920290258741 0 -0.00052085481558951808 -0.0024088817457091254 0 0.00038077200313024122 -0.00069565891501705631 0 0.00049346674960280238 -0.00080792595465994585 0 0.00040543418200095395 -0.00081976536095709133 0 0.00043838467995122515 -0.00067786779978877706 0 0.00049346674960280238 -0.00080792595465994585 0 0.00038077200313024122 -0.00069565891501705631 0 -0.00047569555166965738 -0.00081824871242689291 0 -0.00037800416108941799 -0.00066123021217440593 0 -0.00040163623557821311 -0.00081601593842061358 0 -0.00045934771621536314 -0.00070490307424284201 0 -0.00037800416108941799 -0.00066123021217440593 0 -0.00047569555166965738 -0.00081824871242689291 0 0.00094319529094315149 -0.0024221557171575162 0 0.00086977751080969323 -0.0022688045920103159 0 0.00096538835158130473 -0.0022730545045296529 0 -0.00058661677942258711 -0.0029513430708995847 0 -0.00048367025500301264 -0.0028288297360368466 0 -0.00047862260822301411 -0.0029896930985793533 0 0.00021841585100775853 -0.00024683515610145201 0 0.00022175760888402599 -0.00033335188532617805 0 0.00016073234368672748 -0.00021620929505242022 0 -0.00075220474004257856 -0.00082417710918310065 0 -0.00073431482001805228 -0.00093958541495945888 0 -0.00082760856767436972 -0.00098430781651329602 0 0.00021756933011615303 -0.0014416788051925941 0 0.00011502677766215163 -0.0013816831777479712 0 0.00021998338773253926 -0.0012907294242104266 0 0.00032888832014961477 -0.0012758489159470068 0 0.00045896026354442273 -0.001284307626353296 0 0.00039158726100023297 -0.0014023511818023018 0 0.00048400657532925449 -0.0014807069732191876 0 0.00039158726100023297 -0.0014023511818023018 0 0.00045896026354442273 -0.001284307626353296 0 0.00080592141437063299 -0.0027381956010123611 0 0.00076736307760813288 -0.0028745237880991449 0 0.00069866861149846184 -0.0027662566749740679 0 -0.00080614808783542147 -0.0027380112856194949 0 -0.00089361183516475473 -0.0026830646127652775 0 -0.00082730600044447517 -0.0025765053044845038 0 0.00060367667817682669 -0.00065791433637008283 0 0.00058911408960629933 -0.00055646732234906557 0 0.0006878318780894105 -0.00067617509247306382 0 -0.00034770113444368601 -0.00038254039379309325 0 -0.00033814062960298423 -0.00031613648854661176 0 -0.00025314170660229465 -0.0002446806026025134 0 0.00038662773301801967 -0.00027231524353097883 0 0.00030811201676166452 -0.00022886091384847573 0 0.00018817786419997011 -0.00013218772906379802 0 -0.00039051801851733981 -0.0002766578429245099 0 -0.00053139935278749193 -0.00042720896533800701 0 -0.00058341228762111297 -0.00046350595643232284 0 0.00084524478311324015 -0.0020790873432299213 0 0.00094136518703798362 -0.0020293911427327169 0 0.0009292789109696134 -0.0021672386720945104 0 0.00016600284539637311 -0.00035613039025211737 0 0.00010678888220619171 -0.00023624364211876394 0 0.00015329029678425255 -0.00025630401114034451 0 -0.00035052960635526638 -0.0027892538497265415 0 -0.00030416685055271699 -0.0029516047375983323 0 -0.00040561431892795869 -0.0029286979663166652 0 -0.00076068361114427598 -0.0011166758688927715 0 -0.00086817074368148871 -0.0012124468340321401 0 -0.00082203537923233264 -0.0010698359697723424 0 0.00024156209722959681 -0.00019253709680988978 0 0.0003872847038408896 -0.00032352476037611537 0 0.00033696793214979732 -0.00031405794443698437 0 -0.00065182361972953022 -0.00057248887969122049 0 -0.00049770018001805397 -0.00042177066329667011 0 -0.00059021278152988823 -0.00055676024419233703 0 0.00061032274726363471 -0.0033474077491004238 0 0.00049169470423497132 -0.0033490662045727341 0 0.00053700292330080784 -0.0031738601484459414 0 -0.0011615927810932872 -0.0024728919269525994 0 -0.0011595104402191301 -0.0023073896019068299 0 -0.0010696368846372893 -0.0023641573015406635 0 0.00093595725640242995 -0.00093157634720596942 0 0.00099995182476682602 -0.0010751379920008678 0 0.00089516247403363062 -0.00096020615275383379 0 -2.1433513171797938e-08 -1.1960246154024459e-07 0 -1.3920214372895988e-08 -1.2462919473183317e-07 0 -9.4710827520821364e-05 -0.00010176655949584102 0 0.00012459491243572136 -0.0033492266753023243 0 3.7508906611784223e-05 -0.0032127219669867897 0 0.00013224068308596273 -0.0031602153282200224 0 -0.0011437460053843741 -0.0018224749529974372 0 -0.0010686726013011438 -0.0016998850996088712 0 -0.001048627392063291 -0.0018181509759618748 0 0.0011123389893224374 -0.0015137084394389059 0 0.0010598167858976546 -0.0016049412392898695 0 0.0010175891263905139 -0.0014769292508092229 0 -4.554444273604014e-09 -1.2003545857170097e-07 0 -4.0673430829321735e-06 -7.0519034431262671e-05 0 -2.1852842135964929e-05 -0.00010391282871186185 0 -2.8727306164786076e-06 -0.0010368450865338337 0 3.07044674179271e-05 -0.0009048887662233973 0 0.00010470999067592444 -0.0010647022320079964 0 0.0010019787857985783 -0.0027019016539653693 0 0.00093937648134358425 -0.0028221218363197217 0 0.0009129179491763384 -0.0026738712188115205 0 -0.00077560254457447776 -0.003053512405025409 0 -0.00085692744324306752 -0.0029504225774903753 0 -0.00076066430223963478 -0.0029060211418769407 0 8.0242042625584765e-06 -0.0015072418269632057 0 0.00013301303694813663 -0.0015394063343965819 0 7.6910885305179691e-05 -0.0016993828878626724 0 0.00093367436135418584 -0.001276195755168065 0 0.001018711168353755 -0.0013556982999503922 0 0.00093644723490780412 -0.0014016271927273407 0 0.0010175891263905139 -0.0014769292508092229 0 0.00093644723490780412 -0.0014016271927273407 0 0.001018711168353755 -0.0013556982999503922 0 0.00083724257605868706 -0.0033370743313134751 0 0.00079109291833105808 -0.0031860488874103721 0 0.00088173550265991144 -0.003151556433744724 0 -0.001159633123645556 -0.0028062251058991725 0 -0.0010777414973714766 -0.0027296826525141987 0 -0.0010582915165551399 -0.0028657712691690274 0 -0.00077560254457447776 -0.003053512405025409 0 -0.0007743276402816852 -0.0032029727147402931 0 -0.00087109317225731722 -0.0031292288938133887 0 0.0010019787857985783 -0.0027019016539653693 0 0.0010867712223528339 -0.0027056513865574288 0 0.0010459716322395744 -0.0028485125598220135 0 -0.00065182361972953022 -0.00057248887969122049 0 -0.00073934246675060814 -0.00065086016070640322 0 -0.00058341228762111297 -0.00046350595643232284 0 0.00024156209722959681 -0.00019253709680988978 0 0.00011254424576180785 -8.460582429343362e-05 0 0.00018817786419997011 -0.00013218772906379802 0 -0.00083729401673034241 -0.0033370660282423786 0 -0.00087109317225731722 -0.0031292288938133887 0 -0.0007743276402816852 -0.0032029727147402931 0 0.0011597678350899396 -0.0028064470837967661 0 0.0010459716322395744 -0.0028485125598220135 0 0.0010867712223528339 -0.0027056513865574288 0 -0.00073684860331826678 -0.00064072527692047134 0 -0.00058341228762111297 -0.0004635059564323229 0 -0.00073934246675060814 -0.00065086016070640322 0 2.8284889819220514e-08 -1.1180981439173431e-07 0 0.00018817786419997011 -0.00013218772906379802 0 0.00011254424576180785 -8.460582429343362e-05 0 0.00073830632697610644 -0.00063983252892883791 0 0.00074099118307793073 -0.00065361697244249012 0 0.00058940822073213323 -0.00047062604901583553 0 -2.813286398636417e-08 -1.1024507604827902e-07 0 -0.00011338012023714872 -8.4692324071594031e-05 0 -0.00020039006113635046 -0.00014140372762388824 0 0.00066133611453010881 -0.00058532246604745236 0 0.00058940822073213323 -0.00047062604901583553 0 0.00074099118307793062 -0.00065361697244249012 0 -0.00023221631937341531 -0.00018896697758391174 0 -0.00020039006113635046 -0.00014140372762388824 0 -0.00011338012023714872 -8.4692324071594031e-05 0 -0.00023593876744582281 -0.0019376249843018202 0 -0.00012506400060755134 -0.001817249515713484 0 -0.00011359467391856169 -0.0019764351757175134 0 8.0242042625584765e-06 -0.0015072418269632057 0 7.6910885305179691e-05 -0.0016993828878626724 0 -5.0624892823175087e-05 -0.0016833023894748094 0 -0.00039248042851752947 -0.0013130810803467004 0 -0.0004409822489420481 -0.0011508504496994636 0 -0.00033281639209937884 -0.0011704165989698165 0 -0.00033071466438262668 -0.0010105862794875132 0 -0.00033281639209937884 -0.0011704165989698165 0 -0.0004409822489420481 -0.0011508504496994636 0 -0.00024541633080936166 -0.0012189020453385157 0 -0.00024079051344333847 -0.0010816766918914584 0 -0.00016186313543087267 -0.0011671964117114799 0 0.00012278247769285404 -0.00091169268647769931 0 0.00010470999067592444 -0.0010647022320079964 0 3.07044674179271e-05 -0.0009048887662233973 0 0.00084524478311324015 -0.0020790873432299213 0 0.0009292789109696134 -0.0021672386720945104 0 0.00086977751080969323 -0.0022688045920103159 0 0.00016600284539637311 -0.00035613039025211737 0 0.00015329029678425255 -0.00025630401114034451 0 0.00022175760888402599 -0.00033335188532617805 0 -0.00035052960635526638 -0.0027892538497265415 0 -0.00040561431892795869 -0.0029286979663166652 0 -0.00048367025500301269 -0.0028288297360368466 0 -0.00076068361114427598 -0.0011166758688927715 0 -0.00082203537923233264 -0.0010698359697723424 0 -0.00073431482001805218 -0.00093958541495945888 0 -0.00021918847674704512 -0.0014762882813063589 0 -0.00024834399738135198 -0.0016386529543061757 0 -0.00034812327496502876 -0.0015602410798346081 0 -0.00017446822876879224 -0.0026963052092592267 0 -0.00028501123901464678 -0.0026295971886255518 0 -0.00016956509298407085 -0.0025443010812613693 0 0.00078421198160616792 -0.0018262648714014627 0 0.00074570191933302668 -0.0019738940663125543 0 0.00068898248305868906 -0.0018038555024107394 0 -0.0007478582898515372 -0.0013446146523450827 0 -0.00068424072328208453 -0.0011801599320724312 0 -0.00065553966527945122 -0.0013296216293743873 0 9.2565407549273428e-05 -0.00041709915031751087 0 0.00016632194742152736 -0.00047670291900187505 0 0.00010610933178952009 -0.00053800675229322668 0 0.00088173550265991144 -0.003151556433744724 0 0.00079109291833105808 -0.0031860488874103721 0 0.00085610668859535872 -0.0030318430303580956 0 -0.0010582915165551399 -0.0028657712691690274 0 -0.0010777414973714766 -0.0027296826525141987 0 -0.00098859347450742235 -0.0028234287420830528 0 0.00077313970909391092 -0.0030351038209602398 0 0.00085610668859535872 -0.0030318430303580956 0 0.00079109291833105808 -0.0031860488874103721 0 -0.0009913767908727323 -0.0026979327983008578 0 -0.00098859347450742235 -0.0028234287420830528 0 -0.0010777414973714766 -0.0027296826525141987 0 0.00069524393803245023 -0.0023266387369985232 0 0.00081390712637809148 -0.0023821045376259541 0 0.0007103953896341592 -0.002479038466372823 0 -0.00053583840793309113 -0.0025545087737175219 0 -0.00056661174520811924 -0.0027409377538243182 0 -0.00063881541654025795 -0.0025824520428898326 0 0.0003510448047916404 -0.00056760700270153488 0 0.00030445359393495237 -0.00041284250420515838 0 0.00041643761025474807 -0.00055606340424149074 0 -0.00055241015837440737 -0.000816334709339274 0 -0.000644271987772314 -0.00080295490379418992 0 -0.00051628164937767072 -0.00067048412750208425 0 0.00011419941179424539 -0.0012244815321082552 0 1.782179743517033e-05 -0.0013224466293303191 0 1.11313469231027e-05 -0.0011655641968634249 0 0.00011419941179424539 -0.0012244815321082552 0 0.00021998338773253926 -0.0012907294242104266 0 0.00011502677766215163 -0.0013816831777479712 0 0.00077313970909391092 -0.0030351038209602398 0 0.00076736307760813288 -0.0028745237880991449 0 0.00085493482645050114 -0.0029062986127657764 0 -0.0009913767908727323 -0.0026979327983008578 0 -0.00089361183516475473 -0.0026830646127652775 0 -0.00091249461736900392 -0.0028173275286080589 0 0.00083305925318774684 -0.0025357260166844115 0 0.00072698799827734361 -0.0026209414571368838 0 0.0007103953896341592 -0.002479038466372823 0 -0.00067074965648171469 -0.0027745700285769304 0 -0.00073228684372654822 -0.0026134722333472759 0 -0.00063881541654025795 -0.0025824520428898326 0 0.00035468710247167341 -0.00039651670452946837 0 0.00048329096780455339 -0.00055937255626180283 0 0.00041643761025474807 -0.00055606340424149074 0 -0.00059885853000827877 -0.00065925762212134913 0 -0.00046161679089229798 -0.00053569617314843298 0 -0.00051628164937767072 -0.00067048412750208425 0 0.00049926380511492168 -0.0017960070922890894 0 0.00038843613895690472 -0.0018687468117703269 0 0.0004110136653128184 -0.0017306037680127101 0 0.00048280120736117211 -0.0019410063382002405 0 0.00038843613895690472 -0.0018687468117703269 0 0.00049926380511492168 -0.0017960070922890894 0 0.00014075101786820493 -0.00079369762878564139 0 0.00020476644878477339 -0.0009585208397676592 0 0.00012278247769285404 -0.00091169268647769931 0 0.00022406323996234241 -0.0008281986541418707 0 0.00020476644878477339 -0.0009585208397676592 0 0.00014075101786820493 -0.00079369762878564139 0 0.00013224068308596273 -0.0031602153282200224 0 0.00017192210180962074 -0.003027473072013087 0 0.0002318326801622691 -0.0031997095284901156 0 0.00027291984002629418 -0.0030528077906455562 0 0.0002318326801622691 -0.0031997095284901156 0 0.00017192210180962074 -0.003027473072013087 0 -0.001048627392063291 -0.0018181509759618748 0 -0.00097948210720173626 -0.0018577856879958149 0 -0.0010759918812091155 -0.0019523986675409712 0 -0.00099839525464143165 -0.001995315336513633 0 -0.0010759918812091155 -0.0019523986675409712 0 -0.00097948210720173626 -0.0018577856879958149 0 -2.1852842135964929e-05 -0.00010391282871186185 0 -4.8286484743290848e-05 -0.00018421505901778396 0 -3.2632535707107223e-05 -7.9106016130508805e-05 0 -7.1540404244390738e-05 -0.0001673584335194437 0 -3.2632535707107223e-05 -7.9106016130508805e-05 0 -4.8286484743290848e-05 -0.00018421505901778396 0 0.00016620314055339934 -0.0020122288932386116 0 0.00010293538486579119 -0.0021305386093217939 0 2.9610883083403833e-05 -0.0020225799786641094 0 -0.00034995762503978569 -0.0017647168900581484 0 -0.0004173202886206564 -0.0016744603157084509 0 -0.00034812327496502876 -0.0015602410798346081 0 3.7681582577930206e-05 -0.0022342160922369011 0 2.9610883083403833e-05 -0.0020225799786641094 0 0.00010293538486579119 -0.0021305386093217939 0 -0.00048268371599286805 -0.001588689118158868 0 -0.00034812327496502876 -0.0015602410798346081 0 -0.0004173202886206564 -0.0016744603157084509 0 0.00095953700303925277 -0.0029898070892119392 0 0.00088173550265991144 -0.003151556433744724 0 0.00085610668859535872 -0.0030318430303580956 0 -0.00096305028104131025 -0.0029838538123358421 0 -0.0010582915165551399 -0.0028657712691690274 0 -0.00098859347450742235 -0.0028234287420830528 0 0.00024156209722959681 -0.00019253709680988978 0 0.00018817786419997011 -0.00013218772906379802 0 0.00030811201676166452 -0.00022886091384847573 0 -0.00065182361972953022 -0.00057248887969122049 0 -0.00058341228762111297 -0.00046350595643232284 0 -0.00053139935278749193 -0.00042720896533800701 0 0.00044036489759161898 -0.0031002108496317004 0 0.00050798411555966249 -0.0029918682593597264 0 0.00053700292330080784 -0.0031738601484459414 0 -0.0010283395171841244 -0.0022266691012928618 0 -0.00096715145728791801 -0.0023140097097499924 0 -0.0010696368846372893 -0.0023641573015406635 0 0.00090411094532864497 -0.0010649777714683431 0 0.00081084021676266539 -0.00094136775428000762 0 0.00089516247403363062 -0.00096020615275383379 0 -0.00010221354576696014 -0.00014083987398491523 0 -0.00017230960577908227 -0.00022102072926131705 0 -9.4710827520821364e-05 -0.00010176655949584102 0 0.00024872381411881317 -0.0024111833155150857 0 0.00019170946027617411 -0.0025343806059808234 0 0.00011322359348226511 -0.0024208100766353563 0 -0.00060542045820703553 -0.0019042192247835719 0 -0.00068322013764975976 -0.0018341751017308988 0 -0.0006075891946191672 -0.0017123527753270867 0 0.00055814070715298064 -0.001201077169321386 0 0.00064485764252942591 -0.0012969435825531082 0 0.00058722609842194631 -0.0013930818743143679 0 -0.00017636744914999441 -0.00065837830383237001 0 -0.00012100879553891693 -0.00054974778026434744 0 -7.8557930565307645e-05 -0.0006409936819022537 0 0.00016620314055339934 -0.0020122288932386116 0 8.9234174958751229e-05 -0.0018786308364073085 0 0.00018793297286591251 -0.0018190926696191241 0 0.00024872381411881317 -0.0024111833155150857 0 0.00017890707923305267 -0.0022350261425949387 0 0.00027440184234201425 -0.0022688164546799954 0 -0.00060542045820703553 -0.0019042192247835719 0 -0.00048665221856813604 -0.0017854608027481767 0 -0.00051225830698334968 -0.0019305038468646987 0 0.00055814070715298064 -0.001201077169321386 0 0.00045896026354442273 -0.001284307626353296 0 0.00046449953184864661 -0.0011485754834616008 0 -0.00017636744914999441 -0.00065837830383237001 0 -0.00013808363230313007 -0.00081074436154087565 0 -0.00021153984164437568 -0.00078701937766737645 0 -3.7437458606057209e-08 -0.0025427434855954684 0 0.00011322359348226511 -0.0024208100766353563 0 9.5302381311593171e-05 -0.0026197503724912749 0 -0.00067684671636623905 -0.001566321047647933 0 -0.0006075891946191672 -0.0017123527753270867 0 -0.00073251874097282534 -0.0017080135726861953 0 0.00067659462683457533 -0.0015663961867694825 0 0.00058722609842194631 -0.0013930818743143679 0 0.00071353043837101048 -0.0014433180114220908 0 -1.5366476678374833e-07 -0.00053791158098498838 0 -7.8557930565307645e-05 -0.0006409936819022537 0 -5.4611965409013382e-05 -0.00047671188430290515 0 3.7681582577930206e-05 -0.0022342160922369011 0 0.00010293538486579119 -0.0021305386093217939 0 0.00017890707923305264 -0.0022350261425949391 0 -0.00048268371599286805 -0.001588689118158868 0 -0.0004173202886206564 -0.0016744603157084509 0 -0.00048665221856813604 -0.0017854608027481767 0 0.00016620314055339934 -0.0020122288932386116 0 0.00017890707923305264 -0.0022350261425949391 0 0.00010293538486579119 -0.0021305386093217939 0 -0.00034995762503978569 -0.0017647168900581484 0 -0.00048665221856813604 -0.0017854608027481767 0 -0.0004173202886206564 -0.0016744603157084509 0 0.00027291984002629418 -0.0030528077906455562 0 0.00020749388351507658 -0.0028751882447161287 0 0.00031238909095143561 -0.0029058582459472134 0 -0.00099839525464143165 -0.001995315336513633 0 -0.00089392655451021874 -0.0018905564328338042 0 -0.00091464455907090583 -0.0020367228494334124 0 0.00093367436135418584 -0.001276195755168065 0 0.00084781077789461651 -0.0013285607556430801 0 0.00083969593068993463 -0.001192181811603858 0 -7.1540404244390738e-05 -0.0001673584335194437 0 -8.4621405329929588e-05 -0.0002865063485401212 0 -0.00012064844807834934 -0.000268482998610024 0 7.0851823838811782e-06 -0.00012845224971654265 0 6.8659579456887388e-06 -5.4994589544870945e-05 0 2.2300452672754021e-05 -8.3734946707191869e-05 0 -0.0010084622757184577 -0.0015967340531555278 0 -0.0010701608839537946 -0.0015761686756416793 0 -0.0010309984707627159 -0.0014588902953721803 0 0.0010155495665474671 -0.0016836576574860754 0 0.0010848460473813172 -0.0017354941316098543 0 0.0010656467548403727 -0.0018434357899443628 0 -3.3373605042600786e-05 -0.003111913365048638 0 -6.2437098207474419e-05 -0.0032414503791860644 0 -0.0001494823554588415 -0.0031900685638069984 0 0.00017052734023311134 -0.002682938128661193 0 0.00010186428273136498 -0.0027756087160208521 0 9.5302381311593171e-05 -0.0026197503724912749 0 -0.00077573721823840161 -0.0018193374632894607 0 -0.00082814917393896905 -0.0017350155489228567 0 -0.00073251874097282534 -0.0017080135726861953 0 0.00074011920105046417 -0.001347944737119371 0 0.00080690252753381402 -0.0014564860348562478 0 0.00071353043837101048 -0.0014433180114220908 0 -9.1539488068050106e-05 -0.00042888221090748864 0 -4.7318508675554142e-05 -0.00035822282014997652 0 -5.4611965409013382e-05 -0.00047671188430290515 0 8.0242042625584765e-06 -0.0015072418269632057 0 -5.0624892823175087e-05 -0.0016833023894748094 0 -0.0001161575042470162 -0.0015599342423790346 0 0.00059818045305153099 -0.002616027387098169 0 0.00049832424915487031 -0.002615760999242885 0 0.00053083834193937466 -0.0024472000645184909 0 -0.00073405227583416151 -0.0024206743496986557 0 -0.00073546177846158553 -0.0022760247784084269 0 -0.00062540070774911802 -0.0023128920290258741 0 0.00055614310645526793 -0.00073686850375338027 0 0.00060436570687871294 -0.0008780127155474974 0 0.00049346674960280238 -0.00080792595465994585 0 -0.00037372520057890038 -0.00052181804193342002 0 -0.00030548167048526477 -0.00051117822188088307 0 -0.00037800416108941799 -0.00066123021217440593 0 -0.00017446822876879224 -0.0026963052092592267 0 -0.00023926606467390194 -0.00280665273735559 0 -0.00028501123901464678 -0.0026295971886255518 0 -0.00035052960635526638 -0.0027892538497265415 0 -0.00028501123901464678 -0.0026295971886255518 0 -0.00023926606467390194 -0.00280665273735559 0 -0.0007478582898515372 -0.0013446146523450827 0 -0.00080091915800361527 -0.0012731385057256374 0 -0.00068424072328208453 -0.0011801599320724312 0 0.00078421198160616792 -0.0018262648714014627 0 0.00085382491857476832 -0.0019266101149212694 0 0.00074570191933302668 -0.0019738940663125543 0 0.00084524478311324015 -0.0020790873432299213 0 0.00074570191933302668 -0.0019738940663125543 0 0.00085382491857476832 -0.0019266101149212694 0 -0.00076068361114427598 -0.0011166758688927715 0 -0.00068424072328208453 -0.0011801599320724312 0 -0.00080091915800361527 -0.0012731385057256374 0 9.2565407549273428e-05 -0.00041709915031751087 0 0.00010776718028761905 -0.00033672148507836631 0 0.00016632194742152736 -0.00047670291900187505 0 0.00016600284539637311 -0.00035613039025211737 0 0.00016632194742152736 -0.00047670291900187505 0 0.00010776718028761906 -0.00033672148507836631 0 0.00038296021227050424 -0.0020442840560457583 0 0.00038843613895690472 -0.0018687468117703269 0 0.00048280120736117211 -0.0019410063382002405 0 0.00030625291572760027 -0.0009745174674756367 0 0.00020476644878477339 -0.0009585208397676592 0 0.00022406323996234241 -0.0008281986541418707 0 -0.00035495319796210344 -0.002076203810881856 0 -0.00023895800763105423 -0.0020874778729707212 0 -0.00028763904432651199 -0.0022247975453469626 0 0.00095953700303925277 -0.0029898070892119392 0 0.00085493482645050114 -0.0029062986127657759 0 0.00093937648134358425 -0.0028221218363197217 0 -0.00096305028104131025 -0.0029838538123358421 0 -0.00091249461736900392 -0.0028173275286080585 0 -0.00085692744324306752 -0.0029504225774903753 0 0.00038662773301801967 -0.00027231524353097883 0 0.0005187270184738381 -0.00043219858474763802 0 0.0003872847038408896 -0.00032352476037611537 0 -0.00039051801851733981 -0.0002766578429245099 0 -0.00036019362133841645 -0.00029130089065950826 0 -0.00049770018001805397 -0.00042177066329667011 0 -0.00034812327496502876 -0.0015602410798346081 0 -0.00040006399770650599 -0.0014475438935629705 0 -0.00029437566956783264 -0.0013632552279237476 0 0.0010185375706261949 -0.002159457496516332 0 0.001059429680292659 -0.0023442534925503062 0 0.00096538835158130473 -0.0022730545045296529 0 9.6729126876239632e-05 -0.00015013588299638933 0 9.8407396613856904e-05 -0.00010791796307301495 0 0.00016073234368672748 -0.00021620929505242022 0 -0.00039217321505425696 -0.0030839959967955198 0 -0.00052361994847175569 -0.0031558829846232493 0 -0.00047862260822301411 -0.0029896930985793533 0 -0.00091397256703703645 -0.0011243666314481062 0 -0.00089617414825758049 -0.00097244451779301489 0 -0.00082760856767436972 -0.00098430781651329602 0 -0.00016061524902615968 -0.0016969339253650603 0 -0.00011615750424701619 -0.0015599342423790346 0 -5.0624892823175087e-05 -0.0016833023894748094 0 -0.00039248042851752947 -0.0013130810803467004 0 -0.00047661611087792524 -0.001284381967610879 0 -0.0004409822489420481 -0.0011508504496994636 0 0.001159124240484716 -0.0023072669005560226 0 0.001059429680292659 -0.0023442534925503062 0 0.0010995164724651254 -0.002209948243888558 0 1.3860871235001255e-08 -1.2660950519437008e-07 0 9.8407396613856918e-05 -0.00010791796307301496 0 4.8397734892948163e-05 -6.1051600819792893e-05 0 -0.00049167662737292827 -0.0033489429001119929 0 -0.00052361994847175569 -0.0031558829846232493 0 -0.00042332299822267489 -0.0032330315851643262 0 -0.00099919696414802026 -0.0010755258973160274 0 -0.00089617414825758049 -0.000972444517793015 0 -0.00097741372144571643 -0.0011228551854502505 0 0.00017052734023311134 -0.002682938128661193 0 0.00019170946027617411 -0.0025343806059808234 0 0.00030019662102182161 -0.002601986515313058 0 0.00024872381411881317 -0.0024111833155150857 0 0.00030019662102182161 -0.002601986515313058 0 0.00019170946027617411 -0.0025343806059808234 0 -0.00060542045820703553 -0.0019042192247835719 0 -0.00072889978455863418 -0.0019928337774175217 0 -0.00068322013764975976 -0.0018341751017308988 0 -0.00077573721823840161 -0.0018193374632894607 0 -0.00068322013764975976 -0.0018341751017308988 0 -0.00072889978455863418 -0.0019928337774175217 0 0.00055814070715298064 -0.001201077169321386 0 0.00066357240906119049 -0.0011544992655702871 0 0.00064485764252942591 -0.0012969435825531082 0 0.00074011920105046417 -0.001347944737119371 0 0.00064485764252942591 -0.0012969435825531082 0 0.00066357240906119049 -0.0011544992655702871 0 -0.00017636744914999441 -0.00065837830383237001 0 -0.00018090369027337565 -0.00049932420903320014 0 -0.00012100879553891693 -0.00054974778026434744 0 -9.1539488068050106e-05 -0.00042888221090748864 0 -0.00012100879553891693 -0.00054974778026434744 0 -0.00018090369027337565 -0.00049932420903320014 0 0.00035039308015254167 -0.0027892395399885792 0 0.00025835268936363675 -0.0027449072840245435 0 0.00030019662102182161 -0.002601986515313058 0 -0.00084544493022793124 -0.0020790115431513065 0 -0.00081684686877777355 -0.0019473111371824013 0 -0.00072889978455863418 -0.0019928337774175217 0 0.00076037566482417931 -0.0011173385492814106 0 0.00075919041654277464 -0.0012363403233039048 0 0.00066357240906119049 -0.0011544992655702871 0 -0.00016597468397270136 -0.00035510060286023868 0 -0.00012820627920330513 -0.00038439011611934593 0 -0.00018090369027337565 -0.00049932420903320014 0 8.6103541867880941e-05 -0.00293090115977731 0 0.00020749388351507658 -0.0028751882447161292 0 0.00017192210180962074 -0.003027473072013087 0 -0.00091921235068971347 -0.0017323277584373007 0 -0.00089392655451021874 -0.0018905564328338042 0 -0.00097948210720173626 -0.0018577856879958149 0 0.00093367436135418584 -0.001276195755168065 0 0.00093644723490780412 -0.0014016271927273407 0 0.00084781077789461651 -0.0013285607556430803 0 -3.1744290963448254e-05 -0.0002461921823411687 0 -8.4621405329929602e-05 -0.0002865063485401212 0 -4.8286484743290848e-05 -0.00018421505901778396 0 0.00027291984002629418 -0.0030528077906455562 0 0.00017192210180962074 -0.003027473072013087 0 0.00020749388351507658 -0.0028751882447161292 0 -0.00099839525464143165 -0.001995315336513633 0 -0.00097948210720173604 -0.0018577856879958149 0 -0.00089392655451021874 -0.0018905564328338042 0 0.00090067742336197288 -0.0015010643852035052 0 0.00084781077789461651 -0.0013285607556430803 0 0.00093644723490780412 -0.0014016271927273407 0 -7.1540404244390738e-05 -0.0001673584335194437 0 -4.8286484743290848e-05 -0.00018421505901778396 0 -8.4621405329929602e-05 -0.0002865063485401212 0 0.00017052734023311134 -0.002682938128661193 0 0.00025835268936363675 -0.0027449072840245435 0 0.00020749388351507658 -0.0028751882447161292 0 -0.00077573721823840161 -0.0018193374632894607 0 -0.00081684686877777355 -0.0019473111371824013 0 -0.00089392655451021874 -0.0018905564328338042 0 0.00074011920105046417 -0.001347944737119371 0 0.00075919041654277464 -0.0012363403233039048 0 0.00084781077789461651 -0.0013285607556430803 0 -9.1539488068050106e-05 -0.00042888221090748864 0 -0.0001282062792033051 -0.00038439011611934593 0 -8.4621405329929602e-05 -0.0002865063485401212 0 0.00069524393803245023 -0.0023266387369985232 0 0.0007103953896341592 -0.002479038466372823 0 0.00062176999016434775 -0.0024231344365214535 0 -0.00053583840793309113 -0.0025545087737175219 0 -0.00063881541654025795 -0.0025824520428898326 0 -0.00060513998213667394 -0.0024467269127033215 0 0.0003510448047916404 -0.00056760700270153488 0 0.00041643761025474807 -0.00055606340424149074 0 0.00043838467995122515 -0.00067786779978877706 0 -0.00055241015837440737 -0.000816334709339274 0 -0.00051628164937767072 -0.00067048412750208425 0 -0.00045934771621536314 -0.00070490307424284201 0 0.00078421198160616792 -0.0018262648714014627 0 0.00068898248305868906 -0.0018038555024107394 0 0.00074751874489405862 -0.0016983998095991945 0 -0.00017446822876879224 -0.0026963052092592267 0 -0.00016956509298407085 -0.0025443010812613693 0 -8.6222513631056309e-05 -0.0026447420092990002 0 9.2565407549273428e-05 -0.00041709915031751087 0 0.00010610933178952009 -0.00053800675229322668 0 4.8821254233592843e-05 -0.00045533584634146606 0 -0.0007478582898515372 -0.0013446146523450827 0 -0.00065553966527945122 -0.0013296216293743873 0 -0.00073054169992647108 -0.0014593734716610309 0 0.0010185375706261949 -0.002159457496516332 0 0.0010995164724651254 -0.002209948243888558 0 0.001059429680292659 -0.0023442534925503062 0 9.6729126876239632e-05 -0.00015013588299638933 0 4.8397734892948169e-05 -6.1051600819792893e-05 0 9.8407396613856904e-05 -0.00010791796307301495 0 -0.00039217321505425696 -0.0030839959967955198 0 -0.00042332299822267489 -0.0032330315851643262 0 -0.00052361994847175569 -0.0031558829846232493 0 -0.00091397256703703645 -0.0011243666314481062 0 -0.00097741372144571665 -0.0011228551854502505 0 -0.00089617414825758049 -0.000972444517793015 0 3.7681582577930206e-05 -0.0022342160922369011 0 -8.2943826160091695e-05 -0.0022461269079754619 0 -5.5469473550126765e-05 -0.0021136808164616818 0 -0.00048268371599286805 -0.001588689118158868 0 -0.00047970775795306783 -0.0014167530294668712 0 -0.00040006399770650599 -0.0014475438935629705 0 8.6103541867880941e-05 -0.00293090115977731 0 6.0523389560811367e-05 -0.0030654507677191269 0 -3.1237950312151297e-05 -0.0029496559258354303 0 -0.00091921235068971347 -0.0017323277584373007 0 -0.0009928719257142238 -0.0017142827802387594 0 -0.00091887078035500806 -0.0015771874335382869 0 0.00090067742336197288 -0.0015010643852035052 0 0.00097889293980856699 -0.0015546231748846874 0 0.0009251661309604448 -0.0016610395590676247 0 -3.1744290963448254e-05 -0.0002461921823411687 0 -1.5666893862369788e-05 -0.00015792180365510031 0 1.1198142578233566e-05 -0.00023293126428704944 0 -2.0518650939301846e-05 -0.0018370858858796457 0 -5.0624892823175087e-05 -0.0016833023894748094 0 7.6910885305179691e-05 -0.0016993828878626724 0 0.00077313970909391092 -0.0030351038209602398 0 0.0006893010725399091 -0.0029454874390828791 0 0.00076736307760813288 -0.0028745237880991449 0 -0.0009913767908727323 -0.0026979327983008578 0 -0.00093804005786474849 -0.0025704571222575452 0 -0.00089361183516475473 -0.0026830646127652775 0 0.00095953700303925277 -0.0029898070892119392 0 0.00085610668859535872 -0.0030318430303580956 0 0.00085493482645050114 -0.0029062986127657764 0 -0.00096305028104131025 -0.0029838538123358421 0 -0.00098859347450742235 -0.0028234287420830528 0 -0.00091249461736900392 -0.0028173275286080589 0 0.00024156209722959681 -0.00019253709680988978 0 0.00030811201676166452 -0.00022886091384847573 0 0.0003872847038408896 -0.00032352476037611537 0 -0.00065182361972953022 -0.00057248887969122049 0 -0.00053139935278749193 -0.00042720896533800695 0 -0.00049770018001805397 -0.00042177066329667011 0 0.00017052734023311134 -0.002682938128661193 0 0.00030019662102182161 -0.002601986515313058 0 0.00025835268936363675 -0.0027449072840245435 0 -0.00077573721823840161 -0.0018193374632894607 0 -0.00072889978455863418 -0.0019928337774175217 0 -0.00081684686877777355 -0.0019473111371824013 0 0.00074011920105046417 -0.001347944737119371 0 0.00066357240906119038 -0.0011544992655702871 0 0.00075919041654277464 -0.0012363403233039048 0 -9.1539488068050106e-05 -0.00042888221090748864 0 -0.00018090369027337565 -0.00049932420903320014 0 -0.00012820627920330513 -0.00038439011611934593 0 0.00066133611453010881 -0.00058532246604745236 0 0.00058911408960629933 -0.00055646732234906557 0 0.00051872701847383799 -0.00043219858474763796 0 -0.00023221631937341531 -0.00018896697758391174 0 -0.00033814062960298423 -0.00031613648854661176 0 -0.00036019362133841651 -0.00029130089065950826 0 8.0242042625584765e-06 -0.0015072418269632057 0 -9.3036400533282439e-05 -0.0014068159674978866 0 1.782179743517033e-05 -0.0013224466293303191 0 -9.153293452388474e-05 -0.0012582635269910781 0 1.782179743517033e-05 -0.0013224466293303191 0 -9.3036400533282439e-05 -0.0014068159674978866 0 0.00050867955249719182 -0.0022761240492309362 0 0.00044401267272245416 -0.0023581312918524882 0 0.0004455079297708998 -0.002180877679778764 0 -0.00051148198906017506 -0.0022723263890973349 0 -0.00056722494237604359 -0.0021794682119378847 0 -0.00044678582125792408 -0.0021740761479215535 0 0.00040543418200095395 -0.00081976536095709133 0 0.00047410660500404384 -0.0009187036038680956 0 0.00036961662162917616 -0.00089919786617198572 0 -0.00040163623557821311 -0.00081601593842061358 0 -0.00033085206758702134 -0.00072867078008692588 0 -0.0003657565245478166 -0.00089280342014004088 0 -0.00014548892318557214 -0.0010024173757072678 0 -0.00024079051344333847 -0.0010816766918914584 0 -0.00022799900202660102 -0.00091868727980957813 0 -3.3373605042600786e-05 -0.003111913365048638 0 -3.1237950312151297e-05 -0.0029496559258354303 0 6.0523389560811367e-05 -0.0030654507677191269 0 -0.0010084622757184577 -0.0015967340531555278 0 -0.00091887078035500806 -0.0015771874335382869 0 -0.0009928719257142238 -0.0017142827802387594 0 0.0010155495665474671 -0.0016836576574860754 0 0.0009251661309604448 -0.0016610395590676247 0 0.00097889293980856699 -0.0015546231748846874 0 7.0851823838811782e-06 -0.00012845224971654265 0 1.1198142578233566e-05 -0.00023293126428704944 0 -1.5666893862369788e-05 -0.00015792180365510031 0 -0.0001435473522125177 -0.0021219963075438859 0 -0.00018495357219755509 -0.0022504447356908627 0 -0.00023895800763105423 -0.0020874778729707212 0 -0.00028763904432651199 -0.0022247975453469626 0 -0.00023895800763105423 -0.0020874778729707212 0 -0.00018495357219755509 -0.0022504447356908627 0 0.00018352474438799979 -0.0016667832134847974 0 0.00013301303694813663 -0.0015394063343965819 0 0.00023693273844348212 -0.0015787332298174154 0 0.00083724257605868706 -0.0033370743313134751 0 0.00072572375459881015 -0.003343490546231604 0 0.00079109291833105808 -0.0031860488874103721 0 -0.001159633123645556 -0.0028062251058991725 0 -0.0011609113083331601 -0.0026396706875210126 0 -0.0010777414973714766 -0.0027296826525141987 0 0.00073830632697610644 -0.00063983252892883791 0 0.00084978436354315242 -0.00078619941951072272 0 0.00074099118307793062 -0.00065361697244249012 0 -2.813286398636417e-08 -1.1024507604827902e-07 0 -3.9907184904536102e-08 -1.273007310371404e-07 0 -0.00011338012023714872 -8.4692324071594031e-05 0 0.0011608932501008438 -0.0026401818096742557 0 0.0011597678350899396 -0.0028064470837967661 0 0.0010867712223528339 -0.0027056513865574288 0 3.9222995407917364e-08 -1.2732715343827394e-07 0 2.8284889819220514e-08 -1.1180981439173431e-07 0 0.00011254424576180785 -8.460582429343362e-05 0 -0.00072601772905239617 -0.0033433684308921616 0 -0.00083729401673034241 -0.0033370660282423786 0 -0.0007743276402816852 -0.0032029727147402931 0 -0.0008501321381026906 -0.00078627969717878462 0 -0.00073684860331826678 -0.00064072527692047134 0 -0.00073934246675060814 -0.00065086016070640322 0 0.00036673791308446379 -0.0022400637051423959 0 0.0004455079297708998 -0.002180877679778764 0 0.00044401267272245416 -0.0023581312918524882 0 -0.00049156112736083808 -0.0020620996445155971 0 -0.00044678582125792408 -0.0021740761479215535 0 -0.00056722494237604359 -0.0021794682119378847 0 0.00042617492502292201 -0.0010151380230807991 0 0.00036961662162917616 -0.00089919786617198572 0 0.00047410660500404384 -0.0009187036038680956 0 -0.00028956754912274734 -0.00082459520067562609 0 -0.0003657565245478166 -0.00089280342014004088 0 -0.00033085206758702134 -0.00072867078008692588 0 -5.8526030768089607e-06 -0.0027629494227746831 0 -3.1237950312151297e-05 -0.0029496559258354303 0 -0.00011701012171440551 -0.0028205254285025355 0 -0.00081222128429924746 -0.0015858752761213413 0 -0.00091887078035500806 -0.0015771874335382869 0 -0.00083235130510047706 -0.0014422198896688839 0 0.00081321006367971686 -0.0016019578286570945 0 0.0009251661309604448 -0.0016610395590676247 0 0.00085660249720200866 -0.0017610904210613844 0 3.4828235809844754e-06 -0.00036454625611601207 0 1.1198142578233566e-05 -0.00023293126428704944 0 5.2719355032224439e-05 -0.0003232696810555036 0 0.00050867955249719182 -0.0022761240492309362 0 0.0004455079297708998 -0.002180877679778764 0 0.00053931695010271913 -0.0021085727006995218 0 -0.00051148198906017506 -0.0022723263890973349 0 -0.00044678582125792408 -0.0021740761479215535 0 -0.0003972633735049858 -0.0023175388159242445 0 0.00040543418200095395 -0.00081976536095709133 0 0.00036961662162917616 -0.00089919786617198572 0 0.00030293877464655398 -0.00076221470522519366 0 -0.00040163623557821311 -0.00081601593842061358 0 -0.0003657565245478166 -0.00089280342014004088 0 -0.0004625573220771881 -0.00098289628356916406 0 0.0010185375706261949 -0.002159457496516332 0 0.0010949882408399065 -0.0020951158158089736 0 0.0010995164724651254 -0.002209948243888558 0 9.6729126876239632e-05 -0.00015013588299638933 0 3.8400958690807938e-05 -6.2916644690243266e-05 0 4.8397734892948163e-05 -6.1051600819792893e-05 0 -0.00091397256703703645 -0.0011243666314481062 0 -0.0010047583950700673 -0.0012278542244208842 0 -0.00097741372144571643 -0.0011228551854502505 0 -0.00039217321505425696 -0.0030839959967955198 0 -0.00033855036588729005 -0.0032283772864012635 0 -0.00042332299822267489 -0.0032330315851643262 0 0.0011567009291448853 -0.0021441780560308653 0 0.001159124240484716 -0.0023072669005560226 0 0.0010995164724651254 -0.002209948243888558 0 1.6287738811683184e-08 -1.2012815031725851e-07 0 1.3860871235001255e-08 -1.2660950519437008e-07 0 4.8397734892948163e-05 -6.1051600819792893e-05 0 -0.00037110146995260232 -0.0033496432187518962 0 -0.00049167662737292827 -0.0033489429001119929 0 -0.00042332299822267489 -0.0032330315851643262 0 -0.0010493621747788913 -0.0012168476952215705 0 -0.00099919696414802026 -0.0010755258973160274 0 -0.00097741372144571643 -0.0011228551854502505 0 -0.0010865765643610469 -0.0013631843666960255 0 -0.0010493621747788913 -0.0012168476952215705 0 -0.0010047583950700673 -0.0012278542244208842 0 -0.0002485797668382547 -0.0033496320245306119 0 -0.00037110146995260232 -0.0033496432187518962 0 -0.00033855036588729005 -0.0032283772864012635 0 1.2525006751565842e-08 -1.1975361450453931e-07 0 1.6287738811683184e-08 -1.2012815031725851e-07 0 3.8400958690807938e-05 -6.2916644690243266e-05 0 0.0011517164514827523 -0.001982804060560213 0 0.0011567009291448853 -0.0021441780560308653 0 0.0010949882408399065 -0.0020951158158089736 0 0.00077313970909391092 -0.0030351038209602398 0 0.00085493482645050114 -0.0029062986127657764 0 0.00085610668859535872 -0.0030318430303580956 0 -0.0009913767908727323 -0.0026979327983008578 0 -0.00091249461736900392 -0.0028173275286080589 0 -0.00098859347450742235 -0.0028234287420830528 0 0.00038662773301801967 -0.00027231524353097883 0 0.00038728470384088954 -0.00032352476037611532 0 0.00030811201676166452 -0.00022886091384847573 0 -0.00039051801851733981 -0.0002766578429245099 0 -0.00049770018001805397 -0.00042177066329667011 0 -0.00053139935278749193 -0.00042720896533800701 0 0.00024872381411881317 -0.0024111833155150857 0 0.00027440184234201425 -0.0022688164546799954 0 0.00035875834444632474 -0.0024128596171272879 0 0.00036673791308446379 -0.0022400637051423959 0 0.00035875834444632474 -0.0024128596171272879 0 0.00027440184234201425 -0.0022688164546799954 0 -0.00060542045820703553 -0.0019042192247835719 0 -0.00051225830698334968 -0.0019305038468646987 0 -0.00060661527172526416 -0.0020614464356698684 0 -0.00049156112736083808 -0.0020620996445155971 0 -0.00060661527172526416 -0.0020614464356698684 0 -0.00051225830698334968 -0.0019305038468646987 0 0.00055814070715298064 -0.001201077169321386 0 0.00046449953184864661 -0.0011485754834616008 0 0.0005325863301302217 -0.0010457683877675213 0 0.00042617492502292201 -0.0010151380230807991 0 0.0005325863301302217 -0.0010457683877675213 0 0.00046449953184864661 -0.0011485754834616008 0 -0.00017636744914999441 -0.00065837830383237001 0 -0.00021153984164437568 -0.00078701937766737645 0 -0.00025526096655696266 -0.00066737537536941058 0 -0.00028956754912274734 -0.00082459520067562609 0 -0.00025526096655696266 -0.00066737537536941058 0 -0.00021153984164437568 -0.00078701937766737645 0 0.00080592141437063299 -0.0027381956010123611 0 0.00085493482645050114 -0.0029062986127657759 0 0.00076736307760813288 -0.0028745237880991449 0 -0.00080614808783542147 -0.0027380112856194949 0 -0.00091249461736900392 -0.0028173275286080589 0 -0.00089361183516475473 -0.0026830646127652775 0 0.00078421198160616792 -0.0018262648714014627 0 0.00085660249720200866 -0.0017610904210613844 0 0.00085382491857476832 -0.0019266101149212694 0 -0.00017446822876879224 -0.0026963052092592267 0 -0.00011701012171440553 -0.0028205254285025355 0 -0.00023926606467390194 -0.00280665273735559 0 9.2565407549273428e-05 -0.00041709915031751087 0 5.2719355032224439e-05 -0.0003232696810555036 0 0.00010776718028761906 -0.00033672148507836631 0 -0.0007478582898515372 -0.0013446146523450827 0 -0.00083235130510047706 -0.0014422198896688839 0 -0.00080091915800361527 -0.0012731385057256374 0 -2.8727306164786076e-06 -0.0010368450865338337 0 -7.7364234148212036e-05 -0.0010982757468062411 0 -5.8009805311292464e-05 -0.00093306081849801241 0 -0.00014548892318557214 -0.0010024173757072678 0 -5.8009805311292464e-05 -0.00093306081849801241 0 -7.7364234148212036e-05 -0.0010982757468062411 0 -0.00035052960635526638 -0.0027892538497265415 0 -0.00023926606467390194 -0.00280665273735559 0 -0.00030416685055271699 -0.0029516047375983318 0 0.00084524478311324015 -0.0020790873432299213 0 0.00085382491857476832 -0.0019266101149212694 0 0.00094136518703798362 -0.0020293911427327169 0 -0.00076068361114427598 -0.0011166758688927715 0 -0.00080091915800361527 -0.0012731385057256374 0 -0.00086817074368148871 -0.0012124468340321401 0 0.00016600284539637311 -0.00035613039025211737 0 0.00010776718028761906 -0.00033672148507836631 0 0.00010678888220619171 -0.00023624364211876394 0 0.00035350608716530922 -0.0015333410111099295 0 0.00029557287987773054 -0.0017162033862175912 0 0.00023693273844348212 -0.0015787332298174154 0 0.00036673791308446379 -0.0022400637051423959 0 0.00027440184234201425 -0.0022688164546799954 0 0.00027533651971161141 -0.00212468170578965 0 -0.00049156112736083808 -0.0020620996445155971 0 -0.00051225830698334968 -0.0019305038468646987 0 -0.00042085714890068341 -0.0019201633521942958 0 0.00042617492502292201 -0.0010151380230807991 0 0.00046449953184864661 -0.0011485754834616008 0 0.00037012197185196333 -0.0011337003274699761 0 -0.00028956754912274734 -0.00082459520067562609 0 -0.00021153984164437568 -0.00078701937766737645 0 -0.00022799900202660102 -0.00091868727980957813 0 -0.00026587121088787134 -0.0024131248504220015 0 -0.00028501123901464678 -0.0026295971886255518 0 -0.00035727954796187293 -0.002538136383988413 0 0.00060709828534054983 -0.0019283450322075044 0 0.00074570191933302668 -0.0019738940663125543 0 0.00068792274733348209 -0.0020683166847101863 0 -0.00055597110870723131 -0.0011772714604675071 0 -0.00068424072328208453 -0.0011801599320724312 0 -0.00060807599755915791 -0.0010651920941403205 0 0.00018747280760464594 -0.00065608942418217192 0 0.00016632194742152736 -0.00047670291900187505 0 0.00022922266320612111 -0.00055766952149849489 0 -9.153293452388474e-05 -0.0012582635269910781 0 -9.3036400533282439e-05 -0.0014068159674978866 0 -0.00018203124183464978 -0.0013168566375241072 0 0.00012278247769285404 -0.00091169268647769931 0 5.6543098401930603e-05 -0.0007841870239713414 0 0.00014075101786820493 -0.00079369762878564139 0 0.00021756933011615303 -0.0014416788051925941 0 0.00013301303694813663 -0.0015394063343965819 0 0.00011502677766215163 -0.0013816831777479712 0 -0.00035495319796210344 -0.002076203810881856 0 -0.00042085714890068341 -0.0019201633521942958 0 -0.00032440227754909742 -0.0019043427617477617 0 0.00021756933011615303 -0.0014416788051925941 0 0.00023693273844348212 -0.0015787332298174154 0 0.00013301303694813663 -0.0015394063343965819 0 0.00012459491243572136 -0.0033492266753023243 0 -2.9189976720120546e-08 -0.003348930954262478 0 3.7508906611784223e-05 -0.0032127219669867897 0 -0.0011437460053843741 -0.0018224749529974372 0 -0.0011295095182849281 -0.001665970684557191 0 -0.0010686726013011438 -0.0016998850996088712 0 0.0011123389893224374 -0.0015137084394389059 0 0.0011295337392699361 -0.0016671899397223476 0 0.0010598167858976546 -0.0016049412392898695 0 -4.554444273604014e-09 -1.2003545857170097e-07 0 3.6111032503174482e-09 -1.2214060743729491e-07 0 -4.0673430829321735e-06 -7.0519034431262671e-05 0 0.00068898248305868906 -0.0018038555024107394 0 0.00065458461054209338 -0.0016791789761383758 0 0.00074751874489405862 -0.0016983998095991945 0 -0.00016956509298407085 -0.0025443010812613693 0 -8.5399860291911426e-05 -0.0024964062865413805 0 -8.6222513631056309e-05 -0.0026447420092990002 0 0.00010610933178952009 -0.00053800675229322668 0 5.3528012198831334e-05 -0.0005742381142721689 0 4.8821254233592843e-05 -0.00045533584634146606 0 -0.00065553966527945122 -0.0013296216293743873 0 -0.00063812602508628801 -0.0014414354288918164 0 -0.00073054169992647108 -0.0014593734716610309 0 0.00012278247769285404 -0.00091169268647769931 0 3.07044674179271e-05 -0.0009048887662233973 0 5.6543098401930603e-05 -0.0007841870239713414 0 -0.00016061524902615968 -0.0016969339253650603 0 -5.0624892823175087e-05 -0.0016833023894748094 0 -0.00012506400060755134 -0.001817249515713484 0 8.0242042625584765e-06 -0.0015072418269632057 0 -0.0001161575042470162 -0.0015599342423790346 0 -9.3036400533282439e-05 -0.0014068159674978866 0 -2.1638771043832811e-07 -3.6315517119369291e-07 0 -0.00017433198048286781 -0.00011374210726175775 0 -0.00037463379630915265 -0.00028577473819983273 0 2.1719406685147186e-07 -3.6326587420616053e-07 0 0.00017477523260455951 -0.00011392031736560638 0 9.3637728732743688e-10 -1.0149044857604372e-07 0 2.1719406685147186e-07 -3.6326587420616053e-07 0 0.0003750527254410073 -0.00028557377467087439 0 0.00017477523260455953 -0.0001139203173656064 0 -2.1638771043832811e-07 -3.6315517119369291e-07 0 -1.5283813523367055e-09 -1.0100789576548575e-07 0 -0.00017433198048286781 -0.00011374210726175775 0 0.0011396404338613307 -0.0033022386901081779 0 0.0010457608888268101 -0.0033149658882949996 0 0.0010865802825561748 -0.0032021481990291904 0 0.0011396404338613307 -0.0033022386901081779 0 0.0010865802825561748 -0.0032021481990291904 0 0.0011496129088354001 -0.0031376839952601092 0 -0.0011395679504955147 -0.0033017919717760131 0 -0.0010901674386318055 -0.0032080462562915305 0 -0.0010459636878612719 -0.0033148479752488223 0 -0.0011395679504955147 -0.0033017919717760131 0 -0.0011498695034521521 -0.0031375946161924595 0 -0.0010901674386318055 -0.0032080462562915305 0 -0.00034995762503978569 -0.0017647168900581484 0 -0.00024834399738135198 -0.0016386529543061757 0 -0.00023909917360977751 -0.0017919829296666348 0 -0.00021918847674704512 -0.0014762882813063589 0 -0.00029437566956783264 -0.0013632552279237476 0 -0.00018203124183464978 -0.0013168566375241072 0 -0.00024541633080936166 -0.0012189020453385157 0 -0.00018203124183464978 -0.0013168566375241072 0 -0.00029437566956783264 -0.0013632552279237476 0 0.00027291984002629418 -0.0030528077906455562 0 0.00034153209312852152 -0.0031892043209703815 0 0.0002318326801622691 -0.0031997095284901156 0 -0.00099839525464143165 -0.001995315336513633 0 -0.0010749278048199414 -0.0020974825141537087 0 -0.0010759918812091155 -0.0019523986675409712 0 0.00093367436135418584 -0.001276195755168065 0 0.00098498778072927929 -0.0012152877625175402 0 0.001018711168353755 -0.0013556982999503922 0 -7.1540404244390738e-05 -0.0001673584335194437 0 -5.1104806165143536e-05 -8.4632633452582338e-05 0 -3.2632535707107223e-05 -7.9106016130508805e-05 0 0.0004232710882717467 -0.002541743771444374 0 0.00044401267272245416 -0.0023581312918524882 0 0.00053083834193937466 -0.0024472000645184909 0 -0.00068955139991499896 -0.0021632784228411586 0 -0.00056722494237604359 -0.0021794682119378847 0 -0.00062540070774911802 -0.0023128920290258741 0 0.00058974723600227149 -0.0009729027384896801 0 0.00047410660500404384 -0.0009187036038680956 0 0.00049346674960280238 -0.00080792595465994585 0 -0.00027533326660039091 -0.00056331784097100564 0 -0.00033085206758702134 -0.00072867078008692588 0 -0.00037800416108941799 -0.00066123021217440593 0 0.00011419941179424539 -0.0012244815321082552 0 0.00011502677766215163 -0.0013816831777479712 0 1.782179743517033e-05 -0.0013224466293303191 0 -0.00033071466438262668 -0.0010105862794875132 0 -0.00022799900202660102 -0.00091868727980957813 0 -0.00024079051344333847 -0.0010816766918914584 0 0.00049169470423497132 -0.0033490662045727341 0 0.00043656428967472709 -0.0032325450899714785 0 0.00053700292330080784 -0.0031738601484459414 0 -0.0011595104402191301 -0.0023073896019068299 0 -0.0010995889150407204 -0.0022282260254446566 0 -0.0010696368846372893 -0.0023641573015406635 0 0.00044036489759161898 -0.0031002108496317004 0 0.00053700292330080784 -0.0031738601484459414 0 0.00043656428967472709 -0.0032325450899714785 0 -0.0010283395171841244 -0.0022266691012928618 0 -0.0010696368846372893 -0.0023641573015406635 0 -0.0010995889150407204 -0.0022282260254446566 0 0.00099995182476682602 -0.0010751379920008678 0 0.00097178703132984768 -0.0011060708035958928 0 0.00089516247403363062 -0.00096020615275383379 0 -1.3920214372895988e-08 -1.2462919473183317e-07 0 -4.9612471080021622e-05 -6.2828960349776809e-05 0 -9.4710827520821364e-05 -0.00010176655949584102 0 0.00090411094532864497 -0.0010649777714683431 0 0.00089516247403363062 -0.00096020615275383379 0 0.00097178703132984768 -0.0011060708035958928 0 -0.00010221354576696014 -0.00014083987398491523 0 -9.4710827520821364e-05 -0.00010176655949584102 0 -4.9612471080021615e-05 -6.2828960349776809e-05 0 0.0010019787857985783 -0.0027019016539653693 0 0.0009129179491763384 -0.0026738712188115205 0 0.00097249436808906841 -0.0025660046696754572 0 -0.00077560254457447776 -0.003053512405025409 0 -0.00076066430223963478 -0.0029060211418769407 0 -0.00068462894279068456 -0.0030041697875285533 0 0.0006570033075848651 -0.0021957484760632721 0 0.00068792274733348209 -0.0020683166847101863 0 0.0007616605290796701 -0.002183265419489917 0 -0.0004481185978736145 -0.0024926697996732446 0 -0.00035727954796187293 -0.002538136383988413 0 -0.00043203747080077415 -0.0026544345339354321 0 0.00030477436286792739 -0.00060900894413300731 0 0.00022922266320612111 -0.00055766952149849489 0 0.00024889648795486789 -0.00046828410859164427 0 -0.00055175730599231585 -0.00093132878387466075 0 -0.00060807599755915791 -0.0010651920941403205 0 -0.00065365943354817903 -0.00097800141960914825 0 0.00024156209722959681 -0.00019253709680988978 0 0.00033696793214979732 -0.00031405794443698437 0 0.00023976776237413281 -0.00023254272621005961 0 -0.00065182361972953022 -0.00057248887969122049 0 -0.00059021278152988823 -0.00055676024419233703 0 -0.00070364125126753008 -0.00069284641670938184 0 -0.00014548892318557214 -0.0010024173757072678 0 -7.7364234148212036e-05 -0.0010982757468062411 0 -0.00016186313543087267 -0.0011671964117114799 0 -0.00016055956887641628 -0.0029947022770926467 0 -0.00011701012171440551 -0.0028205254285025355 0 -3.1237950312151297e-05 -0.0029496559258354303 0 -0.00092573269014103511 -0.0014122081942649662 0 -0.00083235130510047706 -0.0014422198896688839 0 -0.00091887078035500806 -0.0015771874335382869 0 0.00096073826611182327 -0.0018391620172894117 0 0.00085660249720200866 -0.0017610904210613844 0 0.0009251661309604448 -0.0016610395590676247 0 5.0050680580662563e-05 -0.00020313113533639734 0 5.2719355032224446e-05 -0.0003232696810555036 0 1.1198142578233566e-05 -0.00023293126428704944 0 3.7681582577930206e-05 -0.0022342160922369011 0 -2.3672665193265145e-05 -0.0023845160831505855 0 -8.2943826160091695e-05 -0.0022461269079754619 0 -0.00013296565441866203 -0.0023853634440887611 0 -8.2943826160091695e-05 -0.0022461269079754619 0 -2.3672665193265145e-05 -0.0023845160831505855 0 -0.00048268371599286805 -0.001588689118158868 0 -0.00057437877409806295 -0.0015158000027629941 0 -0.00047970775795306783 -0.0014167530294668712 0 -0.00056208332037717532 -0.0013616556530340791 0 -0.00047970775795306783 -0.001416753029466871 0 -0.00057437877409806295 -0.0015158000027629941 0 0.00048400657532925449 -0.0014807069732191876 0 0.00057922982024305502 -0.0015740948531144524 0 0.00048680686496352425 -0.0016401068669214666 0 0.00058540493007422552 -0.0017371987157450411 0 0.00048680686496352425 -0.0016401068669214666 0 0.00057922982024305502 -0.0015740948531144524 0 0.00044036489759161898 -0.0031002108496317004 0 0.00035906025551420942 -0.0030396132793522631 0 0.00042215771407304759 -0.0029161473844019751 0 -0.0010283395171841244 -0.0022266691012928618 0 -0.00099276895647513997 -0.0021110947024952087 0 -0.00092222034606190989 -0.0021889153204944843 0 0.00090411094532864497 -0.0010649777714683431 0 0.00089700693060989047 -0.0011584800828009685 0 0.00080948413648868197 -0.0010439773884997987 0 -0.00010221354576696014 -0.00014083987398491523 0 -9.9485440363228521e-05 -0.0001787466034758211 0 -0.00016287647001785204 -0.00026585450113528056 0 0.00035039308015254167 -0.0027892395399885792 0 0.00042215771407304759 -0.0029161473844019751 0 0.00031238909095143561 -0.0029058582459472134 0 -0.00084544493022793124 -0.0020790115431513065 0 -0.00092222034606190989 -0.0021889153204944843 0 -0.00091464455907090583 -0.0020367228494334124 0 0.00076037566482417931 -0.0011173385492814106 0 0.00080948413648868197 -0.0010439773884997987 0 0.00083969593068993463 -0.001192181811603858 0 -0.00016597468397270136 -0.00035510060286023868 0 -0.00016287647001785206 -0.00026585450113528056 0 -0.00012064844807834934 -0.000268482998610024 0 -9.153293452388474e-05 -0.0012582635269910781 0 1.11313469231027e-05 -0.0011655641968634249 0 1.782179743517033e-05 -0.0013224466293303191 0 0.00086977751080969323 -0.0022688045920103159 0 0.0009292789109696134 -0.00216723867209451 0 0.00096538835158130473 -0.0022730545045296529 0 -0.00048367025500301269 -0.0028288297360368466 0 -0.00040561431892795869 -0.0029286979663166652 0 -0.00047862260822301411 -0.0029896930985793533 0 0.00022175760888402599 -0.00033335188532617805 0 0.00015329029678425252 -0.00025630401114034446 0 0.00016073234368672748 -0.00021620929505242022 0 -0.00073431482001805218 -0.00093958541495945888 0 -0.00082203537923233264 -0.0010698359697723424 0 -0.00082760856767436972 -0.00098430781651329602 0 0.00069866861149846184 -0.0027662566749740679 0 0.00076736307760813288 -0.0028745237880991449 0 0.0006893010725399091 -0.0029454874390828795 0 -0.00082730600044447517 -0.0025765053044845038 0 -0.00089361183516475473 -0.0026830646127652775 0 -0.00093804005786474849 -0.0025704571222575452 0 0.0004232710882717467 -0.002541743771444374 0 0.00035875834444632474 -0.0024128596171272879 0 0.00044401267272245416 -0.0023581312918524882 0 -0.00068955139991499896 -0.0021632784228411586 0 -0.00060661527172526416 -0.0020614464356698684 0 -0.00056722494237604359 -0.0021794682119378847 0 0.00058974723600227149 -0.0009729027384896801 0 0.0005325863301302217 -0.0010457683877675213 0 0.00047410660500404384 -0.0009187036038680956 0 -0.00027533326660039091 -0.00056331784097100564 0 -0.00025526096655696266 -0.00066737537536941058 0 -0.00033085206758702134 -0.00072867078008692588 0 -0.0001435473522125177 -0.0021219963075438859 0 -0.0001135946739185617 -0.0019764351757175134 0 -5.5469473550126765e-05 -0.0021136808164616818 0 0.00049169470423497132 -0.0033490662045727341 0 0.00037108852750350707 -0.0033495585466699618 0 0.00043656428967472709 -0.0032325450899714785 0 -0.0011595104402191301 -0.0023073896019068299 0 -0.0011568098821009625 -0.002144685908018877 0 -0.0010995889150407204 -0.0022282260254446566 0 0.00099995182476682602 -0.0010751379920008678 0 0.0010494259841034841 -0.0012154806667796863 0 0.00097178703132984768 -0.0011060708035958928 0 -1.3920214372895988e-08 -1.2462919473183317e-07 0 -1.9703530118269541e-08 -1.2137266658888091e-07 0 -4.9612471080021615e-05 -6.2828960349776809e-05 0 -2.8727306164786076e-06 -0.0010368450865338337 0 -5.8009805311292464e-05 -0.00093306081849801241 0 3.07044674179271e-05 -0.0009048887662233973 0 -2.9189976720120546e-08 -0.003348930954262478 0 -0.00012458728523893293 -0.0033489970842909126 0 -6.2437098207474419e-05 -0.0032414503791860644 0 -0.0011295095182849281 -0.001665970684557191 0 -0.0011102313548061813 -0.0015140656366746444 0 -0.0010701608839537946 -0.0015761686756416793 0 0.0011295337392699361 -0.0016671899397223478 0 0.0011416424920818599 -0.0018227875826789652 0 0.0010848460473813172 -0.0017354941316098543 0 3.6111032503174482e-09 -1.2214060743729491e-07 0 -3.5179728834565298e-10 -1.2552226674221404e-07 0 6.8659579456887388e-06 -5.4994589544870945e-05 0 0.00066133611453010881 -0.00058532246604745236 0 0.0006878318780894105 -0.00067617509247306382 0 0.00058911408960629933 -0.00055646732234906557 0 -0.00023221631937341531 -0.00018896697758391174 0 -0.00025314170660229465 -0.0002446806026025134 0 -0.00033814062960298423 -0.00031613648854661176 0 -3.248101466845594e-05 -0.0007861023173955879 0 3.07044674179271e-05 -0.0009048887662233973 0 -5.8009805311292464e-05 -0.00093306081849801241 0 0.00021756933011615303 -0.0014416788051925941 0 0.00021998338773253926 -0.0012907294242104266 0 0.00030266918757993041 -0.0013878896411181907 0 0.00032888832014961477 -0.0012758489159470068 0 0.00030266918757993041 -0.0013878896411181907 0 0.00021998338773253926 -0.0012907294242104266 0 -0.0011102313548061813 -0.0015140656366746444 0 -0.0010309984707627159 -0.0014588902953721803 0 -0.0010701608839537946 -0.0015761686756416793 0 -0.00012458728523893293 -0.0033489970842909126 0 -0.0001494823554588415 -0.0031900685638069984 0 -6.2437098207474419e-05 -0.0032414503791860644 0 -3.5179728834565298e-10 -1.2552226674221404e-07 0 2.2300452672754021e-05 -8.3734946707191869e-05 0 6.8659579456887388e-06 -5.4994589544870945e-05 0 0.0011416424920818599 -0.0018227875826789652 0 0.0010656467548403727 -0.0018434357899443628 0 0.0010848460473813172 -0.0017354941316098543 0 0.00017890707923305264 -0.0022350261425949391 0 0.00027533651971161141 -0.00212468170578965 0 0.00027440184234201425 -0.0022688164546799954 0 -0.00048665221856813604 -0.0017854608027481767 0 -0.00042085714890068341 -0.0019201633521942958 0 -0.00051225830698334968 -0.0019305038468646987 0 0.00045896026354442273 -0.001284307626353296 0 0.00037012197185196333 -0.0011337003274699761 0 0.00046449953184864661 -0.0011485754834616008 0 -0.00013808363230313007 -0.00081074436154087565 0 -0.00022799900202660102 -0.00091868727980957813 0 -0.00021153984164437568 -0.00078701937766737645 0 -0.00034995762503978569 -0.0017647168900581484 0 -0.00032440227754909742 -0.0019043427617477617 0 -0.00042085714890068341 -0.0019201633521942958 0 -0.00016061524902615968 -0.0016969339253650603 0 -0.00023909917360977751 -0.0017919829296666348 0 -0.00024834399738135198 -0.0016386529543061757 0 0.0004232710882717467 -0.002541743771444374 0 0.00053083834193937466 -0.0024472000645184909 0 0.00049832424915487031 -0.0026157609992428854 0 -0.00068955139991499896 -0.0021632784228411586 0 -0.00062540070774911802 -0.0023128920290258741 0 -0.00073546177846158553 -0.0022760247784084269 0 0.00058974723600227149 -0.0009729027384896801 0 0.00049346674960280238 -0.00080792595465994585 0 0.00060436570687871294 -0.0008780127155474974 0 -0.00027533326660039091 -0.00056331784097100564 0 -0.00037800416108941799 -0.00066123021217440593 0 -0.00030548167048526477 -0.00051117822188088307 0 -0.00033071466438262668 -0.0010105862794875132 0 -0.00024079051344333847 -0.0010816766918914584 0 -0.00033281639209937884 -0.0011704165989698165 0 0.00044036489759161898 -0.0031002108496317004 0 0.00042215771407304759 -0.0029161473844019751 0 0.00050798411555966249 -0.0029918682593597264 0 -0.0010283395171841244 -0.0022266691012928618 0 -0.00092222034606190989 -0.0021889153204944843 0 -0.00096715145728791801 -0.0023140097097499924 0 0.00090411094532864497 -0.0010649777714683431 0 0.00080948413648868197 -0.0010439773884997987 0 0.00081084021676266539 -0.00094136775428000762 0 -0.00010221354576696014 -0.00014083987398491523 0 -0.00016287647001785204 -0.00026585450113528056 0 -0.00017230960577908227 -0.00022102072926131705 0 8.6103541867880941e-05 -0.00293090115977731 0 0.00017192210180962074 -0.003027473072013087 0 6.0523389560811367e-05 -0.0030654507677191269 0 -0.00091921235068971347 -0.0017323277584373007 0 -0.00097948210720173626 -0.0018577856879958149 0 -0.0009928719257142238 -0.0017142827802387594 0 -3.1744290963448254e-05 -0.0002461921823411687 0 -4.8286484743290848e-05 -0.00018421505901778396 0 -1.5666893862369788e-05 -0.00015792180365510031 0 -0.00024541633080936166 -0.0012189020453385157 0 -0.00033281639209937884 -0.0011704165989698165 0 -0.00024079051344333847 -0.0010816766918914584 0 0.0011295337392699361 -0.0016671899397223478 0 0.0010848460473813172 -0.0017354941316098543 0 0.0010598167858976546 -0.0016049412392898695 0 3.6111032503174482e-09 -1.2214060743729491e-07 0 6.8659579456887388e-06 -5.4994589544870938e-05 0 -4.0673430829321735e-06 -7.0519034431262671e-05 0 0.0010155495665474671 -0.0016836576574860754 0 0.0010598167858976546 -0.0016049412392898695 0 0.0010848460473813172 -0.0017354941316098543 0 7.0851823838811782e-06 -0.00012845224971654265 0 -4.0673430829321735e-06 -7.0519034431262658e-05 0 6.8659579456887388e-06 -5.4994589544870945e-05 0 -0.0011295095182849281 -0.001665970684557191 0 -0.0010701608839537946 -0.0015761686756416793 0 -0.0010686726013011438 -0.0016998850996088712 0 -2.9189976720120546e-08 -0.003348930954262478 0 -6.2437098207474419e-05 -0.0032414503791860644 0 3.7508906611784223e-05 -0.0032127219669867897 0 -3.3373605042600786e-05 -0.003111913365048638 0 3.7508906611784229e-05 -0.0032127219669867897 0 -6.2437098207474419e-05 -0.0032414503791860644 0 -0.0010084622757184577 -0.0015967340531555278 0 -0.0010686726013011438 -0.0016998850996088712 0 -0.0010701608839537946 -0.0015761686756416793 0 0.00013224068308596273 -0.0031602153282200224 0 6.0523389560811367e-05 -0.0030654507677191269 0 0.00017192210180962074 -0.003027473072013087 0 -0.001048627392063291 -0.0018181509759618748 0 -0.0009928719257142238 -0.0017142827802387594 0 -0.00097948210720173626 -0.0018577856879958149 0 -2.1852842135964929e-05 -0.00010391282871186185 0 -1.5666893862369792e-05 -0.00015792180365510031 0 -4.8286484743290848e-05 -0.00018421505901778396 0 0.00050135359794728713 -0.0027838111290504185 0 0.00042445705654005437 -0.0026897509645426388 0 0.00049832424915487031 -0.0026157609992428854 0 -0.00084193989594513784 -0.0022907965883653442 0 -0.00078376558480676612 -0.0021752259269772803 0 -0.00073546177846158553 -0.0022760247784084269 0 0.00070024004367438396 -0.00090548028294973445 0 0.00067698179903171764 -0.00099486063213845483 0 0.00060436570687871294 -0.0008780127155474974 0 -0.00024842459382634624 -0.00037141658009846179 0 -0.00023495016875685852 -0.00044054421467800456 0 -0.00030548167048526477 -0.00051117822188088307 0 -0.00039248042851752947 -0.0013130810803467004 0 -0.00029437566956783264 -0.0013632552279237476 0 -0.00040006399770650599 -0.0014475438935629705 0 -0.00013296565441866203 -0.0023853634440887611 0 -8.5399860291911412e-05 -0.0024964062865413805 0 -0.00016956509298407085 -0.0025443010812613693 0 0.00058540493007422552 -0.0017371987157450411 0 0.00065458461054209338 -0.0016791789761383758 0 0.00068898248305868906 -0.0018038555024107394 0 -0.00056208332037717532 -0.0013616556530340791 0 -0.00063812602508628801 -0.0014414354288918164 0 -0.00065553966527945122 -0.0013296216293743873 0 9.3057183135771224e-05 -0.00066884506535344775 0 5.3528012198831334e-05 -0.0005742381142721689 0 0.00010610933178952009 -0.00053800675229322668 0 0.00037108852750350707 -0.0033495585466699618 0 0.00034153209312852152 -0.0031892043209703815 0 0.00043656428967472709 -0.0032325450899714785 0 -0.0011568098821009625 -0.002144685908018877 0 -0.0010749278048199414 -0.0020974825141537087 0 -0.0010995889150407204 -0.0022282260254446566 0 0.0010494259841034841 -0.0012154806667796863 0 0.00098498778072927929 -0.0012152877625175402 0 0.00097178703132984768 -0.0011060708035958928 0 -1.9703530118269541e-08 -1.2137266658888091e-07 0 -5.1104806165143536e-05 -8.4632633452582338e-05 0 -4.9612471080021615e-05 -6.2828960349776809e-05 0 0.00044036489759161898 -0.0031002108496317004 0 0.00043656428967472715 -0.0032325450899714785 0 0.00034153209312852152 -0.0031892043209703815 0 -0.0010283395171841244 -0.0022266691012928618 0 -0.0010995889150407204 -0.0022282260254446566 0 -0.0010749278048199414 -0.0020974825141537087 0 0.00090411094532864497 -0.0010649777714683431 0 0.00097178703132984768 -0.0011060708035958928 0 0.00098498778072927929 -0.0012152877625175402 0 -0.00010221354576696014 -0.00014083987398491523 0 -4.9612471080021615e-05 -6.2828960349776823e-05 0 -5.1104806165143536e-05 -8.4632633452582338e-05 0 0.0010175891263905139 -0.0014769292508092229 0 0.00097889293980856699 -0.0015546231748846874 0 0.00093644723490780412 -0.0014016271927273407 0 0.00090067742336197288 -0.0015010643852035052 0 0.00093644723490780412 -0.0014016271927273407 0 0.00097889293980856699 -0.0015546231748846874 0 -2.0518650939301846e-05 -0.0018370858858796457 0 -0.00011359467391856169 -0.0019764351757175134 0 -0.00012506400060755134 -0.001817249515713484 0 0.00011322359348226511 -0.0024208100766353563 0 0.00019170946027617408 -0.0025343806059808234 0 9.5302381311593171e-05 -0.0026197503724912749 0 -0.0006075891946191672 -0.0017123527753270867 0 -0.00068322013764975976 -0.0018341751017308988 0 -0.00073251874097282534 -0.0017080135726861953 0 0.00058722609842194631 -0.0013930818743143679 0 0.00064485764252942591 -0.0012969435825531082 0 0.00071353043837101048 -0.0014433180114220908 0 -7.8557930565307645e-05 -0.0006409936819022537 0 -0.00012100879553891693 -0.00054974778026434744 0 -5.4611965409013382e-05 -0.00047671188430290515 0 0.00018352474438799979 -0.0016667832134847974 0 0.00023693273844348209 -0.0015787332298174152 0 0.00029557287987773054 -0.0017162033862175912 0 0.00042215771407304759 -0.0029161473844019751 0 0.00035906025551420948 -0.0030396132793522631 0 0.00031238909095143561 -0.0029058582459472134 0 -0.00092222034606190989 -0.0021889153204944843 0 -0.00099276895647513997 -0.0021110947024952091 0 -0.00091464455907090583 -0.0020367228494334124 0 0.00080948413648868197 -0.0010439773884997987 0 0.00089700693060989047 -0.0011584800828009685 0 0.00083969593068993463 -0.001192181811603858 0 -0.00016287647001785204 -0.00026585450113528056 0 -9.9485440363228521e-05 -0.0001787466034758211 0 -0.00012064844807834934 -0.000268482998610024 0 -2.0518650939301846e-05 -0.0018370858858796457 0 -0.00012506400060755134 -0.001817249515713484 0 -5.0624892823175087e-05 -0.0016833023894748094 0 0.0010185375706261949 -0.002159457496516332 0 0.00096538835158130473 -0.0022730545045296529 0 0.0009292789109696134 -0.0021672386720945104 0 9.6729126876239632e-05 -0.00015013588299638933 0 0.00016073234368672748 -0.00021620929505242022 0 0.00015329029678425255 -0.00025630401114034451 0 -0.00039217321505425696 -0.0030839959967955198 0 -0.00047862260822301411 -0.0029896930985793533 0 -0.00040561431892795869 -0.0029286979663166652 0 -0.00091397256703703645 -0.0011243666314481062 0 -0.00082760856767436972 -0.00098430781651329602 0 -0.00082203537923233264 -0.0010698359697723424 0 0.00027291984002629418 -0.0030528077906455562 0 0.00035906025551420948 -0.0030396132793522631 0 0.00034153209312852152 -0.0031892043209703815 0 -0.00099839525464143165 -0.001995315336513633 0 -0.00099276895647513997 -0.0021110947024952091 0 -0.0010749278048199414 -0.0020974825141537087 0 0.00093367436135418584 -0.001276195755168065 0 0.00089700693060989047 -0.0011584800828009685 0 0.00098498778072927929 -0.0012152877625175402 0 -7.1540404244390738e-05 -0.0001673584335194437 0 -9.9485440363228521e-05 -0.0001787466034758211 0 -5.1104806165143536e-05 -8.4632633452582338e-05 0 0.00044036489759161898 -0.0031002108496317004 0 0.00034153209312852152 -0.0031892043209703815 0 0.00035906025551420948 -0.0030396132793522631 0 -0.0010283395171841244 -0.0022266691012928618 0 -0.0010749278048199414 -0.0020974825141537087 0 -0.00099276895647513997 -0.0021110947024952091 0 0.00090411094532864497 -0.0010649777714683431 0 0.00098498778072927929 -0.0012152877625175402 0 0.00089700693060989047 -0.0011584800828009685 0 -0.00010221354576696014 -0.00014083987398491523 0 -5.1104806165143536e-05 -8.4632633452582338e-05 0 -9.9485440363228521e-05 -0.0001787466034758211 0 0.00017052734023311134 -0.002682938128661193 0 9.5302381311593171e-05 -0.0026197503724912749 0 0.00019170946027617411 -0.0025343806059808234 0 -0.00077573721823840161 -0.0018193374632894607 0 -0.00073251874097282534 -0.0017080135726861953 0 -0.00068322013764975976 -0.0018341751017308988 0 0.00074011920105046417 -0.001347944737119371 0 0.00071353043837101048 -0.0014433180114220908 0 0.00064485764252942591 -0.0012969435825531082 0 -9.1539488068050106e-05 -0.00042888221090748864 0 -5.4611965409013375e-05 -0.00047671188430290515 0 -0.00012100879553891693 -0.00054974778026434744 0 -0.0001435473522125177 -0.0021219963075438859 0 -8.2943826160091695e-05 -0.0022461269079754619 0 -0.00018495357219755509 -0.0022504447356908627 0 -0.00013296565441866203 -0.0023853634440887611 0 -0.00018495357219755509 -0.0022504447356908627 0 -8.2943826160091695e-05 -0.0022461269079754619 0 0.0004110136653128184 -0.0017306037680127101 0 0.00048680686496352425 -0.0016401068669214666 0 0.00049926380511492168 -0.0017960070922890894 0 -0.00039248042851752947 -0.0013130810803467004 0 -0.00047970775795306783 -0.0014167530294668712 0 -0.00047661611087792524 -0.001284381967610879 0 0.00058540493007422552 -0.0017371987157450411 0 0.00049926380511492168 -0.0017960070922890894 0 0.00048680686496352425 -0.0016401068669214666 0 -0.00056208332037717532 -0.0013616556530340791 0 -0.00047661611087792524 -0.001284381967610879 0 -0.00047970775795306783 -0.0014167530294668712 0 -9.153293452388474e-05 -0.0012582635269910781 0 -7.7364234148212036e-05 -0.0010982757468062411 0 1.11313469231027e-05 -0.0011655641968634249 0 -2.8727306164786076e-06 -0.0010368450865338337 0 1.1131346923102697e-05 -0.0011655641968634249 0 -7.7364234148212036e-05 -0.0010982757468062411 0 9.3057183135771224e-05 -0.00066884506535344775 0 0.00014075101786820493 -0.00079369762878564139 0 5.6543098401930603e-05 -0.0007841870239713414 0 -3.248101466845594e-05 -0.0007861023173955879 0 5.6543098401930603e-05 -0.0007841870239713414 0 3.07044674179271e-05 -0.0009048887662233973 0 -9.153293452388474e-05 -0.0012582635269910781 0 -0.00018203124183464978 -0.0013168566375241072 0 -0.00016186313543087267 -0.0011671964117114799 0 -0.00024541633080936166 -0.0012189020453385157 0 -0.00016186313543087267 -0.0011671964117114799 0 -0.00018203124183464978 -0.0013168566375241072 0 0.0010175891263905139 -0.0014769292508092229 0 0.0010598167858976546 -0.0016049412392898695 0 0.00097889293980856699 -0.0015546231748846874 0 -2.1852842135964929e-05 -0.00010391282871186185 0 -4.0673430829321735e-06 -7.0519034431262671e-05 0 -1.5666893862369788e-05 -0.00015792180365510031 0 0.0010155495665474671 -0.0016836576574860754 0 0.00097889293980856699 -0.0015546231748846874 0 0.0010598167858976546 -0.0016049412392898695 0 7.0851823838811782e-06 -0.00012845224971654265 0 -1.5666893862369788e-05 -0.00015792180365510031 0 -4.0673430829321735e-06 -7.0519034431262671e-05 0 0.00013224068308596273 -0.0031602153282200224 0 3.7508906611784223e-05 -0.0032127219669867897 0 6.0523389560811367e-05 -0.0030654507677191269 0 -0.001048627392063291 -0.0018181509759618748 0 -0.0010686726013011438 -0.0016998850996088712 0 -0.0009928719257142238 -0.0017142827802387594 0 -3.3373605042600786e-05 -0.003111913365048638 0 6.0523389560811367e-05 -0.0030654507677191269 0 3.7508906611784223e-05 -0.0032127219669867897 0 -0.0010084622757184577 -0.0015967340531555278 0 -0.0009928719257142238 -0.0017142827802387594 0 -0.0010686726013011438 -0.0016998850996088712 0 0.00050867955249719182 -0.0022761240492309362 0 0.00053083834193937477 -0.0024472000645184909 0 0.00044401267272245416 -0.0023581312918524882 0 -0.00051148198906017506 -0.0022723263890973349 0 -0.00062540070774911802 -0.0023128920290258741 0 -0.00056722494237604359 -0.0021794682119378847 0 0.00040543418200095395 -0.00081976536095709133 0 0.00049346674960280249 -0.00080792595465994585 0 0.00047410660500404384 -0.0009187036038680956 0 -0.00040163623557821311 -0.00081601593842061358 0 -0.00037800416108941799 -0.00066123021217440593 0 -0.00033085206758702134 -0.00072867078008692588 0 -3.248101466845594e-05 -0.0007861023173955879 0 1.2876651665559847e-05 -0.00066838229852902498 0 5.6543098401930603e-05 -0.0007841870239713414 0 -3.7437458606057209e-08 -0.0025427434855954684 0 -8.5399860291911412e-05 -0.0024964062865413805 0 -2.3672665193265145e-05 -0.0023845160831505855 0 -0.00013296565441866203 -0.0023853634440887611 0 -2.3672665193265145e-05 -0.0023845160831505855 0 -8.5399860291911412e-05 -0.0024964062865413805 0 0.00058540493007422552 -0.0017371987157450411 0 0.00057922982024305502 -0.0015740948531144524 0 0.00065458461054209338 -0.0016791789761383758 0 0.00067659462683457533 -0.0015663961867694825 0 0.00065458461054209338 -0.0016791789761383758 0 0.00057922982024305502 -0.0015740948531144524 0 -0.00067684671636623905 -0.001566321047647933 0 -0.00063812602508628801 -0.0014414354288918164 0 -0.00057437877409806295 -0.0015158000027629941 0 -0.00056208332037717532 -0.0013616556530340791 0 -0.00057437877409806295 -0.0015158000027629941 0 -0.00063812602508628801 -0.0014414354288918164 0 9.3057183135771224e-05 -0.00066884506535344775 0 1.2876651665559839e-05 -0.00066838229852902498 0 5.3528012198831334e-05 -0.0005742381142721689 0 -1.5366476678374833e-07 -0.00053791158098498838 0 5.3528012198831334e-05 -0.0005742381142721689 0 1.2876651665559839e-05 -0.00066838229852902498 0 0.00035350608716530922 -0.0015333410111099295 0 0.00030266918757993041 -0.0013878896411181907 0 0.00039158726100023297 -0.0014023511818023018 0 -3.7437458606057209e-08 -0.0025427434855954684 0 -8.6222513631056309e-05 -0.0026447420092990002 0 -8.5399860291911412e-05 -0.0024964062865413805 0 -0.00067684671636623905 -0.001566321047647933 0 -0.00073054169992647108 -0.0014593734716610309 0 -0.00063812602508628801 -0.0014414354288918164 0 0.00067659462683457533 -0.0015663961867694825 0 0.00074751874489405862 -0.0016983998095991945 0 0.00065458461054209338 -0.0016791789761383758 0 -1.5366476678374833e-07 -0.00053791158098498838 0 4.8821254233592836e-05 -0.00045533584634146606 0 5.3528012198831334e-05 -0.0005742381142721689 0 9.3057183135771224e-05 -0.00066884506535344775 0 5.6543098401930603e-05 -0.0007841870239713414 0 1.2876651665559839e-05 -0.00066838229852902498 0 0.00036673791308446379 -0.0022400637051423959 0 0.00044401267272245416 -0.0023581312918524882 0 0.00035875834444632474 -0.0024128596171272879 0 -0.00049156112736083808 -0.0020620996445155971 0 -0.00056722494237604359 -0.0021794682119378847 0 -0.00060661527172526416 -0.0020614464356698684 0 0.00042617492502292201 -0.0010151380230807991 0 0.0004741066050040439 -0.0009187036038680956 0 0.0005325863301302217 -0.0010457683877675213 0 -0.00028956754912274734 -0.00082459520067562609 0 -0.00033085206758702134 -0.00072867078008692588 0 -0.00025526096655696266 -0.00066737537536941058 0 0.00032888832014961477 -0.0012758489159470068 0 0.00039158726100023297 -0.0014023511818023018 0 0.00030266918757993041 -0.0013878896411181907 0 0.0011567009291448853 -0.0021441780560308653 0 0.0010995164724651254 -0.002209948243888558 0 0.0010949882408399065 -0.0020951158158089736 0 1.6287738811683184e-08 -1.2012815031725851e-07 0 4.8397734892948163e-05 -6.1051600819792893e-05 0 3.8400958690807938e-05 -6.2916644690243266e-05 0 -0.00037110146995260232 -0.0033496432187518962 0 -0.00042332299822267489 -0.0032330315851643262 0 -0.00033855036588729005 -0.0032283772864012635 0 -0.0010493621747788913 -0.0012168476952215705 0 -0.00097741372144571643 -0.0011228551854502505 0 -0.0010047583950700673 -0.0012278542244208842 0 0.0004232710882717467 -0.002541743771444374 0 0.00049832424915487031 -0.0026157609992428854 0 0.00042445705654005437 -0.0026897509645426388 0 -0.00068955139991499896 -0.0021632784228411586 0 -0.00073546177846158553 -0.0022760247784084269 0 -0.00078376558480676612 -0.0021752259269772803 0 0.00058974723600227149 -0.0009729027384896801 0 0.00060436570687871294 -0.0008780127155474974 0 0.00067698179903171764 -0.00099486063213845483 0 -0.00027533326660039091 -0.00056331784097100564 0 -0.00030548167048526477 -0.00051117822188088307 0 -0.00023495016875685852 -0.00044054421467800456 0 -0.0001435473522125177 -0.0021219963075438859 0 -5.5469473550126765e-05 -0.0021136808164616818 0 -8.2943826160091695e-05 -0.0022461269079754619 0 -0.00039248042851752947 -0.0013130810803467004 0 -0.00040006399770650599 -0.0014475438935629705 0 -0.00047970775795306783 -0.0014167530294668712 0 -9.153293452388474e-05 -0.0012582635269910781 0 -0.00016186313543087267 -0.0011671964117114799 0 -7.7364234148212036e-05 -0.0010982757468062411 0 -0.00034995762503978569 -0.0017647168900581484 0 -0.00023909917360977751 -0.0017919829296666348 0 -0.00032440227754909742 -0.0019043427617477617 0 0.00027291984002629418 -0.0030528077906455562 0 0.00031238909095143561 -0.0029058582459472134 0 0.00035906025551420948 -0.0030396132793522631 0 -0.00099839525464143165 -0.001995315336513633 0 -0.00091464455907090583 -0.0020367228494334124 0 -0.00099276895647513997 -0.0021110947024952091 0 0.00093367436135418584 -0.001276195755168065 0 0.00083969593068993463 -0.001192181811603858 0 0.00089700693060989047 -0.0011584800828009685 0 -7.1540404244390738e-05 -0.0001673584335194437 0 -0.00012064844807834934 -0.000268482998610024 0 -9.9485440363228521e-05 -0.0001787466034758211 0 -0.00023593876744582281 -0.0019376249843018202 0 -0.00032440227754909742 -0.0019043427617477617 0 -0.00023909917360977751 -0.0017919829296666348 0 
</DataArray>
</PointData>
<CellData Scalars="" Vectors="" Tensors="stress,">
<DataArray type="Float64" Name="stress" NumberOfComponents="9" format="ascii">
23134340.125186205 639123.87850230932 0 639123.87850230932 -101535664.77561212 0 0 0 -27440463.627649069 20341023.963915229 -1834580.9518982768 0 -1834580.9518982768 -99790770.545042515 0 0 0 -27807411.303394556 17105761.368565679 10030.061419725418 0 10030.061419725418 -100304208.07277513 0 0 0 -29119456.346473455 1965581.8165913224 2202466.1978824288 0 2202466.1978824288 -99521460.062564492 0 0 0 -34144557.386090577 22763292.656611443 -807947.40706646442 0 -807947.40706646442 -101398569.81392002 0 0 0 -27522347.005058169 22362259.134593368 -1197509.0909384787 0 -1197509.0909384787 -101687506.47380877 0 0 0 -27763836.568725467 15250734.055175424 406945.03302407265 0 406945.03302407265 -101391193.92615938 0 0 0 -30149160.954844356 15626112.77811414 1333320.7705336511 0 1333320.7705336511 -100646970.56730193 0 0 0 -29757300.22621578 19066239.997002125 -549849.67534196377 0 -549849.67534196377 -100024736.33954859 0 0 0 -28335473.719890952 9415353.4530531168 820473.9245300889 0 820473.9245300889 -98313419.923318386 0 0 0 -31114323.264592767 8608170.3603338003 2076735.1265076101 0 2076735.1265076101 -93162554.371743798 0 0 0 -29594034.403993487 -34081192.61615248 -18836590.729827426 0 -18836590.729827426 -93289682.460483402 0 0 0 -44579806.276822552 11564069.469145536 -70507.479695025075 0 -70507.479695025075 -99407088.632260323 0 0 0 -30745056.707089901 1991415.2542551185 -14015.024505257607 0 -14015.024505257607 -100993058.73049581 0 0 0 -34650575.216684282 6363524.4458302259 -5735419.8803101778 0 -5735419.8803101778 -98089457.73635596 0 0 0 -32104076.651683927 11621614.154859066 78344.910247683525 0 78344.910247683525 -99402015.586290836 0 0 0 -30723140.501000881 -54522045.618571073 41459943.872235566 0 41459943.872235566 -101299198.85711555 0 0 0 -54537435.566490307 2006649.0759003162 -11091.400638341904 0 -11091.400638341904 -100915985.21614361 0 0 0 -34618267.649085283 6453434.7832298279 5901717.0952880383 0 5901717.0952880383 -97706301.191367865 0 0 0 -31938503.242848307 -54837442.166061796 -41511258.803771116 0 -41511258.803771116 -101885086.56741478 0 0 0 -54852885.056716792 2455670.9514195323 1916323.3209971189 0 1916323.3209971189 -98043296.203479886 0 0 0 -33455668.838221133 -28074138.844941318 -25820739.557681207 0 -25820739.557681207 -80578435.189386547 0 0 0 -38028400.912014745 16937117.268104792 -199832.03954458237 0 -199832.03954458237 -100003027.27293968 0 0 0 -29073068.501692057 3359976.217716217 105317.79128715396 0 105317.79128715396 -101647698.85066462 0 0 0 -34400702.921531916 3324532.0808881521 -42367.081134080887 0 -42367.081134080887 -101686157.09390807 0 0 0 -34426568.754557014 -28863179.050158247 25626533.959238052 0 25626533.959238052 -81178907.483988345 0 0 0 -38514730.286951303 17158313.57359302 279508.3677855134 0 279508.3677855134 -99868527.085660219 0 0 0 -28948574.729223371 2766788.489205718 -1985016.6983056366 0 -1985016.6983056366 -98387795.656818151 0 0 0 -33467352.508664429 23474310.401518226 -137127.33743914962 0 -137127.33743914962 -100919725.82462955 0 0 0 -27105895.398088813 16886648.882070959 2367650.6145364642 0 2367650.6145364642 -98765037.281271696 0 0 0 -28657435.939720213 16637721.887734592 -1863346.1001129746 0 -1863346.1001129746 -99324681.75390017 0 0 0 -28940435.953157842 -5090658.5444580317 -273070.55808966607 0 -273070.55808966607 -92158785.16318208 0 0 0 -34037305.29767397 17145093.867888689 -117275.06094407331 0 -117275.06094407331 -100045976.91503572 0 0 0 -29015309.066501617 4026919.9268608354 244512.40584236383 0 244512.40584236383 -100464741.92834893 0 0 0 -33753237.700520732 4208198.4473353354 1436950.7684462965 0 1436950.7684462965 -87196771.725693762 0 0 0 -29046000.647425439 -48820645.516555212 -23577162.339702379 0 -23577162.339702379 -90688025.869868591 0 0 0 -48828034.985248327 4166274.6915048505 -302326.26858478785 0 -302326.26858478785 -100570543.82231207 0 0 0 -33741494.195782527 -48631300.539151207 23464289.393178448 0 23464289.393178448 -90333777.454440579 0 0 0 -48637777.297757126 17152567.70969677 71267.125700179458 0 71267.125700179458 -100321111.66086817 0 0 0 -29108990.382909775 4416587.4639180303 -1692366.0652606785 0 -1692366.0652606785 -86965461.006440639 0 0 0 -28892105.739882886 3865624.4575680494 -223227.88506770134 0 -223227.88506770134 -101398397.52142048 0 0 0 -34136470.572347999 -25461349.69249193 21239259.968901977 0 21239259.968901977 -77188718.050257713 0 0 0 -35927523.709962368 19630632.220365524 501127.82112658024 0 501127.82112658024 -99621365.389535666 0 0 0 -27996756.609209538 2172230.3540986776 874188.6295748651 0 874188.6295748651 -96266717.617358327 0 0 0 -32933070.542140901 15388844.80050087 -610481.20228078961 0 -610481.20228078961 -98506452.191803455 0 0 0 -29091162.586956024 16551598.284906626 360102.72649204731 0 360102.72649204731 -99257043.184264302 0 0 0 -28946905.714775324 23400726.496348619 673213.85857211053 0 673213.85857211053 -101055584.75783825 0 0 0 -27179200.391521454 19397114.32853213 -2218326.3928112984 0 -2218326.3928112984 -100137554.8630603 0 0 0 -28259154.187084883 17488626.541624635 564968.41303479671 0 564968.41303479671 -100320304.6520398 0 0 0 -28991087.338645369 4413885.8535833359 2706927.0501615815 0 2706927.0501615815 -95203914.605492711 0 0 0 -31776510.063168287 12264477.809504986 165951.46736133099 0 165951.46736133099 -100528157.22941685 0 0 0 -30892287.796968937 4377524.4892253876 82359.059294342995 0 82359.059294342995 -101229501.73890972 0 0 0 -33898192.037389278 -3936886.088639766 -10619042.508260217 0 -10619042.508260217 -113405218.68486071 0 0 0 -41069736.670725107 12422616.877069116 -191606.42906713486 0 -191606.42906713486 -100627272.33874655 0 0 0 -30871629.411586881 -28176625.971724547 33008247.081979167 0 33008247.081979167 -89783131.340365469 0 0 0 -41285915.059231482 4582468.8639321327 -62143.994843050838 0 -62143.994843050838 -101007901.61452055 0 0 0 -33748901.462706089 -2928034.6143188179 10838844.517825812 0 10838844.517825812 -113163641.5524787 0 0 0 -40632086.658379152 -28468340.637213528 -33061218.552037224 0 -33061218.552037224 -89236142.226416081 0 0 0 -41196569.002270371 7048788.1649177372 -6790046.46136114 0 -6790046.46136114 -99129728.44716534 0 0 0 -32228329.098786741 -21015432.790408492 16831038.679865539 0 16831038.679865539 -97785746.451610565 0 0 0 -41580412.73470667 14507720.389981627 -1276132.1883316636 0 -1276132.1883316636 -97520899.760604501 0 0 0 -29054612.779718041 19373537.449561119 766742.87795448303 0 766742.87795448303 -99505895.204507351 0 0 0 -28046325.214231253 20237686.997968435 -720914.53683483601 0 -720914.53683483601 -100080044.99947453 0 0 0 -27944825.300527096 8697059.4487607479 965487.56370973587 0 965487.56370973587 -99888070.970479488 0 0 0 -31916854.032601595 8206798.0365406275 1348458.7205252051 0 1348458.7205252051 -97991309.651197314 0 0 0 -31424579.065129876 -16574948.711114563 -16264617.143880807 0 -16264617.143880807 -82833152.243350208 0 0 0 -34792835.334062658 -28105648.84701246 9279010.6060350798 0 9279010.6060350798 -87917063.271388024 0 0 0 -40607949.241440162 10668148.125290632 -1641330.4003412127 0 -1641330.4003412127 -97128383.229561806 0 0 0 -30261082.286494851 9907851.2340595126 979598.37625807524 0 979598.37625807524 -94130234.737368226 0 0 0 -29477834.226158202 21882473.565649271 572613.98106825352 0 572613.98106825352 -100428567.94525361 0 0 0 -27491133.032861233 23204698.109451532 -177222.22057914734 0 -177222.22057914734 -100890961.71034813 0 0 0 -27190192.260313988 16781186.998305202 2141040.5473502278 0 2141040.5473502278 -97286357.987421513 0 0 0 -28176809.84619081 16263418.290704012 -2152491.9967736602 0 -2152491.9967736602 -97243240.731603861 0 0 0 -28342937.854315042 -13223035.403730512 -1798195.1256150454 0 -1798195.1256150454 -93568961.431272507 0 0 0 -37377198.892251015 14144249.02566576 -182862.13806867599 0 -182862.13806867599 -100124004.92798853 0 0 0 -30092914.565813065 15122936.328299165 420963.88198375702 0 420963.88198375702 -99769152.416031361 0 0 0 -29626175.630706072 2854577.5197307616 18732648.595155925 0 18732648.595155925 -98000807.588410288 0 0 0 -33301180.524037853 2145005.8225010931 -19257474.340945829 0 -19257474.340945829 -96099104.868667245 0 0 0 -32883934.66615814 5486972.9868597984 -9422538.6411680393 0 -9422538.6411680393 -103935747.66522706 0 0 0 -34457071.137428582 -7561743.3846632876 18357372.827269688 0 18357372.827269688 -90112952.529429734 0 0 0 -34186143.56993258 -3331595.4299840331 15705829.917693198 0 15705829.917693198 -103723562.08302963 0 0 0 -37469305.129554808 -11793887.313646451 -19732935.251778036 0 -19732935.251778036 -101576399.27243605 0 0 0 -39679600.305128828 22166206.825454712 1119758.0092645884 0 1119758.0092645884 -100863310.57780254 0 0 0 -27543986.313321829 20504694.152965307 -1952230.6278339922 0 -1952230.6278339922 -99054998.265817165 0 0 0 -27492606.439498186 12385568.960297465 -2593033.8078286052 0 -2593033.8078286052 -100763975.18767285 0 0 0 -30932442.179581285 2377180.9907535017 5249215.904691726 0 5249215.904691726 -98370686.764654934 0 0 0 -33597727.0208655 19423938.709716678 517305.60073721409 0 517305.60073721409 -100002400.16196465 0 0 0 -28202461.508286834 8916676.6771427393 -1921567.41420044 0 -1921567.41420044 -93084201.129166722 0 0 0 -29458633.558208466 10197231.48208499 -922854.19032815099 0 -922854.19032815099 -98079058.167186975 0 0 0 -30758639.339785814 -33086253.488825146 18140801.413316354 0 18140801.413316354 -92299541.695596874 0 0 0 -43885028.314547703 18144922.819918603 705623.82124817371 0 705623.82124817371 -100177563.62425226 0 0 0 -28711424.281516939 13453493.309157133 -553455.95463629067 0 -553455.95463629067 -99012569.607707977 0 0 0 -29945676.704493046 22865989.880104601 1093205.0099672079 0 1093205.0099672079 -100499073.57852662 0 0 0 -27171579.294447601 19948073.954932332 -1971199.7369539291 0 -1971199.7369539291 -100150365.886801 0 0 0 -28070802.176154137 14103324.168397665 -824786.63562697172 0 -824786.63562697172 -100004403.76046824 0 0 0 -30065377.857224703 2942950.1245276928 5064440.008051008 0 5064440.008051008 -97947350.947862655 0 0 0 -33251540.288167238 22239892.495924234 -552484.91659575701 0 -552484.91659575701 -102221590.93526649 0 0 0 -27993594.453769922 4737205.9935945272 -853440.33677966148 0 -853440.33677966148 -97505580.992089272 0 0 0 -32468931.249473095 -31319367.028191842 7506049.6033216752 0 7506049.6033216752 -78176872.756510213 0 0 0 -38323683.924645714 22658395.776541919 273138.1157708168 0 273138.1157708168 -99874684.607031018 0 0 0 -27025701.090671092 3685382.5705772638 1479462.7250193097 0 1479462.7250193097 -95003651.894327164 0 0 0 -31961394.263312459 22905431.292895317 221170.70016425848 0 221170.70016425848 -100072508.82208157 0 0 0 -27008477.135215044 8352659.3168888092 2205845.3490160704 0 2205845.3490160704 -95168272.816777468 0 0 0 -30385464.724961042 9191287.0839415193 -1610555.3197014928 0 -1610555.3197014928 -95775278.007263303 0 0 0 -30304396.823162556 -28419013.215995319 4189066.1691906173 0 4189066.1691906173 -83847724.814234212 0 0 0 -39293358.310580328 21675621.64523283 -363667.06737691164 0 -363667.06737691164 -102046455.61056328 0 0 0 -28129791.88786551 3603950.1103027309 -112227.52673405409 0 -112227.52673405409 -100116202.27970374 0 0 0 -33779288.259290412 -46803336.391063131 18313833.380065288 0 18313833.380065288 -86930962.129297867 0 0 0 -46807004.482126348 19045703.994948387 292901.32773219829 0 292901.32773219829 -100271928.5202117 0 0 0 -28429178.583842039 4028019.9831282902 399527.8788369 0 399527.8788369 -86485104.298097178 0 0 0 -28859979.510239143 13141149.349343181 -2428719.9563769698 0 -2428719.9563769698 -98439175.230500698 0 0 0 -29854309.05840528 23183027.28716743 460931.47019708157 0 460931.47019708157 -100254914.10846782 0 0 0 -26975160.387455106 -12411912.048849151 4066944.2944818586 0 4066944.2944818586 -85328525.887229115 0 0 0 -34209153.277627386 13131252.913372636 1774354.6836766601 0 1774354.6836766601 -98008391.05129981 0 0 0 -29706998.348274469 14052194.434737742 -2221998.285994947 0 -2221998.285994947 -96445028.180238724 0 0 0 -28837491.810925305 -22828711.05999133 5736607.1074911337 0 5736607.1074911337 -91447036.807620943 0 0 0 -39996511.753664285 22496540.45620513 549533.70973105729 0 549533.70973105729 -100608736.70169163 0 0 0 -27339268.685920477 12676703.604508191 1341154.2620921135 0 1341154.2620921135 -95512278.717206508 0 0 0 -28992451.289444417 20496892.373256922 -1852977.9314322993 0 -1852977.9314322993 -101007960.18690991 0 0 0 -28178873.734778523 23273187.933157802 852861.83520066738 0 852861.83520066738 -100848523.59434688 0 0 0 -27151367.481416225 8163634.9856513739 2736563.4968449473 0 2736563.4968449473 -98156467.289840415 0 0 0 -31497491.306466162 15715240.668110251 391138.19684133306 0 391138.19684133306 -101150665.82530141 0 0 0 -29902398.805016994 23598919.993302822 -419364.22471039928 0 -419364.22471039928 -101137813.16131544 0 0 0 -27138612.608804226 19933664.202817339 1785749.7341438532 0 1785749.7341438532 -101018514.55721232 0 0 0 -28379697.62403832 18436176.8376678 -1085067.7185708284 0 -1085067.7185708284 -100829844.01147331 0 0 0 -28837783.510831974 8518032.0266150832 -1525685.076832965 0 -1525685.076832965 -96117269.387625694 0 0 0 -30659733.076353729 9191874.8096459508 2878466.2750810161 0 2878466.2750810161 -93932357.196913838 0 0 0 -29659168.835543752 -33502315.569487181 -26530664.562388752 0 -26530664.562388752 -93837764.475002423 0 0 0 -44569028.015571371 17404012.411018193 -362088.8221142292 0 -362088.8221142292 -99275028.855881572 0 0 0 -28654855.755702436 9006657.1917586327 173548.20759321749 0 173548.20759321749 -98702781.095504761 0 0 0 -31393643.366311312 8256432.6485445499 -231599.1845279932 0 -231599.1845279932 -99210678.527856588 0 0 0 -31833986.057759285 -32345164.460648067 27410570.525127035 0 27410570.525127035 -92747437.690258637 0 0 0 -43782410.75281734 17686220.511026382 482882.5849288106 0 482882.5849288106 -99182855.673849583 0 0 0 -28523822.306988001 9357330.4488455653 -2880791.4076429009 0 -2880791.4076429009 -94412725.448671877 0 0 0 -29769388.249939203 23162888.768641114 -585374.38628266379 0 -585374.38628266379 -101582641.51925325 0 0 0 -27446913.462714314 20214166.391757675 1876508.0613776445 0 1876508.0613776445 -99796443.561095178 0 0 0 -27853797.009268098 17099200.63976822 -167164.78210136294 0 -167164.78210136294 -100221470.13827015 0 0 0 -29092794.324475668 2441501.2904144526 -1834165.543087773 0 -1834165.543087773 -98769093.256730318 0 0 0 -33714657.188210607 18177374.461126566 -1628184.3936828077 0 -1628184.3936828077 -98756249.9606359 0 0 0 -28202606.424828291 21632069.296463847 1201362.5210196972 0 1201362.5210196972 -99729755.468874812 0 0 0 -27334190.160343766 -4986397.5722953156 10398275.142585218 0 10398275.142585218 -97451962.487714291 0 0 0 -35853426.021003343 9342797.1815646887 -3690450.4382575899 0 -3690450.4382575899 -100115355.3039223 0 0 0 -31770395.342825234 16225041.095965743 -1805766.0398041606 0 -1805766.0398041606 -99304119.101644516 0 0 0 -29077677.30198729 -2475024.2855263948 10493735.846805893 0 10493735.846805893 -91578336.502332509 0 0 0 -32918676.275750637 21132119.895102739 1022464.6377973557 0 1022464.6377973557 -100347810.28103542 0 0 0 -27725491.635076284 13658392.886768043 -2955768.5123545229 0 -2955768.5123545229 -99397706.521491826 0 0 0 -30008759.772153288 21658961.991208792 -1572288.9265552163 0 -1572288.9265552163 -100619074.49029446 0 0 0 -27636039.374680161 22665069.34419024 1073850.6612693071 0 1073850.6612693071 -101007644.08239782 0 0 0 -27419901.15837276 7840018.4079229534 2841358.964944154 0 2841358.964944154 -100636442.69310474 0 0 0 -32478748.499813586 13174892.722270727 -1656851.7632888108 0 -1656851.7632888108 -100835823.62587821 0 0 0 -30681325.816262603 22278993.189829409 -930274.94535720348 0 -930274.94535720348 -99999009.096120924 0 0 0 -27202005.567201793 21650109.46560955 -1012155.8454350233 0 -1012155.8454350233 -100337498.22352099 0 0 0 -27540586.065268874 15581146.194483519 2130439.2674703565 0 2130439.2674703565 -98263517.766407967 0 0 0 -28938830.050173521 15347589.353384733 1591288.774641037 0 1591288.774641037 -98695549.097659111 0 0 0 -29171785.910495996 12864211.237407565 289119.24572874431 0 289119.24572874431 -97866985.407322645 0 0 0 -29750970.959470391 11703521.928029418 1762525.8323417902 0 1762525.8323417902 -100027245.14562714 0 0 0 -30913303.126159191 -11534833.792087164 -9077175.9816047549 0 -9077175.9816047549 -92632854.553720012 0 0 0 -36458690.921032518 -6945511.1725233197 -10990064.35446097 0 -10990064.35446097 -90158401.109475493 0 0 0 -33986369.298699588 22836943.172253013 202219.50488597155 0 202219.50488597155 -102322385.74713814 0 0 0 -27819904.901209712 15945753.418105483 640980.91924381256 0 640980.91924381256 -101145969.11183834 0 0 0 -29820075.492806435 23020256.908757687 160640.42691558599 0 160640.42691558599 -100278882.57099295 0 0 0 -27040518.981782198 10653442.534316361 1649279.5156547427 0 1649279.5156547427 -96153902.800720692 0 0 0 -29925161.093241513 10199910.299645305 -2325989.7963603735 0 -2325989.7963603735 -97381427.196355879 0 0 0 -30513530.913848639 -21331098.733464152 1330279.9424616853 0 1330279.9424616853 -84028562.109438777 0 0 0 -36875881.295016021 22703439.654709935 -184279.44901496172 0 -184279.44901496172 -101861461.73482347 0 0 0 -27705307.728039742 22887618.699170828 -360308.40920187533 0 -360308.40920187533 -102234190.61838007 0 0 0 -27771300.171723127 -17106084.06585259 11321588.839556448 0 11321588.839556448 -85350812.095907718 0 0 0 -35859913.656616099 11350209.12352705 -1526535.9943850935 0 -1526535.9943850935 -98562851.66836834 0 0 0 -30524424.89069438 22311828.013679832 714546.63845336437 0 714546.63845336437 -99911170.169569492 0 0 0 -27159769.754561812 11478318.022149205 1110128.8811338842 0 1110128.8811338842 -96546627.873972654 0 0 0 -29773908.448138237 17864591.342890024 -1170301.871082902 0 -1170301.871082902 -98420555.633441687 0 0 0 -28194587.50169301 18067633.546410799 938648.48193860054 0 938648.48193860054 -99425046.644888639 0 0 0 -28475094.584467292 -2171939.7662953734 12458627.658367813 0 12458627.658367813 -98618211.372140378 0 0 0 -35276552.89845252 203174.66623431444 -12442228.024644256 0 -12442228.024644256 -101982274.86450022 0 0 0 -35622685.069393039 16473538.363209486 -2069459.0509183407 0 -2069459.0509183407 -99350362.314647436 0 0 0 -29006888.383003354 22577885.786158204 942433.27454477549 0 942433.27454477549 -100327192.85146642 0 0 0 -27212257.472857833 -2732014.7230879664 7949202.1706394553 0 7949202.1706394553 -89961152.009563535 0 0 0 -32442608.356428057 15010337.760138452 -424480.64102810621 0 -424480.64102810621 -99167723.432155967 0 0 0 -29455084.985206187 21838287.340505838 -1158431.3771152496 0 -1158431.3771152496 -101857159.99060425 0 0 0 -28006605.42753458 19385482.594897747 -722288.22749882936 0 -722288.22749882936 -99314149.475749016 0 0 0 -27975033.408297777 10381579.951060772 922618.49841278791 0 922618.49841278791 -99124959.376228213 0 0 0 -31060182.798809052 17537248.42390275 -394730.65663170815 0 -394730.65663170815 -100248902.56511068 0 0 0 -28949078.949422836 10085255.61788094 376283.96566694975 0 376283.96566694975 -99852829.98015523 0 0 0 -31418651.026795983 19485562.970298767 -1165803.4559634747 0 -1165803.4559634747 -99126381.730544567 0 0 0 -27874286.566086292 17482148.759390354 -928406.12019585073 0 -928406.12019585073 -99880075.032239914 0 0 0 -28839274.195497513 17151836.970190205 1188507.7634092569 0 1188507.7634092569 -99814044.695336491 0 0 0 -28931772.703801237 17872902.571252584 1082498.9105056524 0 1082498.9105056524 -98512557.287982106 0 0 0 -28223879.150855064 9076252.7205072679 8017616.3946554959 0 8017616.3946554959 -97424281.538088158 0 0 0 -30921810.086153325 1251034.0980639458 12011101.313567281 0 12011101.313567281 -101704153.00266927 0 0 0 -35158591.616611809 1642074.3100181222 -12506540.567355044 0 -12506540.567355044 -96904188.923596263 0 0 0 -33341740.114752382 -773034.98762589693 -12529764.255648643 0 -12529764.255648643 -97850260.726207733 0 0 0 -34518153.49984175 9344866.3496520519 449205.69636893272 0 449205.69636893272 -100853263.87163305 0 0 0 -32027939.132693529 -13158829.413609684 28774474.663775451 0 28774474.663775451 -133303544.56918651 0 0 0 -51261830.893978655 -14527410.54952579 32530555.994438447 0 32530555.994438447 -104128987.54576488 0 0 0 -41529739.333351724 8731215.5329496861 -299301.44926774502 0 -299301.44926774502 -99447159.601213932 0 0 0 -31750580.423892498 8925735.4852089882 322391.09743314236 0 322391.09743314236 -99340606.541893959 0 0 0 -31645204.869839668 -14644764.923710823 -32458867.016200297 0 -32458867.016200297 -103956980.72913538 0 0 0 -41510610.978496157 -11584700.259689271 -28186303.5876166 0 -28186303.5876166 -132609267.08797336 0 0 0 -50467888.571681932 9307556.014953658 -485760.16661214828 0 -485760.16661214828 -100992459.45274472 0 0 0 -32089716.203226522 10275935.564645052 -1653283.0733837485 0 -1653283.0733837485 -97971556.475302219 0 0 0 -30693467.318730116 22854659.909440875 522804.86016589403 0 522804.86016589403 -99935726.236533165 0 0 0 -26978373.214482307 -19410366.386108913 7635957.4638181068 0 7635957.4638181068 -82158949.300374985 0 0 0 -35549260.490269363 9985957.2597507834 1972394.1898694038 0 1972394.1898694038 -96448145.261602402 0 0 0 -30261765.800648153 22610175.526060969 -1187376.8640060425 0 -1187376.8640060425 -100901651.55780774 0 0 0 -27402016.611111373 21764723.237691402 1463887.3658983782 0 1463887.3658983782 -101111001.23708677 0 0 0 -27771197.299788475 12969107.535724282 979798.73221191019 0 979798.73221191019 -100976394.75953412 0 0 0 -30802550.528333426 10985430.156862631 -2415425.4261874557 0 -2415425.4261874557 -100005394.70308186 0 0 0 -31156987.591176733 2824048.3720051907 -543977.42329657078 0 -543977.42329657078 -96951037.264813706 0 0 0 -32944446.112482939 -44721422.335105121 5113928.6442019185 0 5113928.6442019185 -83068786.398383662 0 0 0 -44726573.056721076 22364105.985190868 183880.06584828798 0 183880.06584828798 -100172353.568995 0 0 0 -27232886.654331684 3641985.6577915559 1043378.2968206406 0 1043378.2968206406 -90888943.093799472 0 0 0 -30536435.10260278 6886676.1149112582 19344914.467858195 0 19344914.467858195 -109605960.52554911 0 0 0 -35951749.543723226 -38555405.338255398 -43529582.122827262 0 -43529582.122827262 -115405170.25343183 0 0 0 -53886201.457090534 -38123297.801119164 43422886.063804686 0 43422886.063804686 -115610631.01429605 0 0 0 -53806875.085395306 4001638.9629354477 229307.64078758657 0 229307.64078758657 -101104054.72958231 0 0 0 -33985845.518326283 9198069.3458478451 45375.83280980587 0 45375.83280980587 -99029378.129982471 0 0 0 -31440958.074446917 4022925.3175880909 -265573.16358327866 0 -265573.16358327866 -101032435.48231888 0 0 0 -33953328.557655811 6698666.0343712568 -19146495.201021474 0 -19146495.201021474 -110193309.93788803 0 0 0 -36223125.366230875 9138315.3668198586 -63549.081057310104 0 -63549.081057310104 -99134259.634892464 0 0 0 -31498580.493825197 22542211.114178538 -147329.68309545517 0 -147329.68309545517 -100157180.2181024 0 0 0 -27165239.186373353 3614553.5045630932 864613.00800998881 0 864613.00800998881 -98861267.624304533 0 0 0 -33336349.941909313 4433677.8602100611 -794192.33440897241 0 -794192.33440897241 -94692221.828270197 0 0 0 -31590490.388821125 -30605685.593721949 -4841169.0547848195 0 -4841169.0547848195 -78285116.965618983 0 0 0 -38111780.89576932 -4861640.1652702987 18435889.065284453 0 18435889.065284453 -97776575.454503655 0 0 0 -35923375.466920882 6664073.6342998818 -10922784.814445704 0 -10922784.814445704 -97839241.621042192 0 0 0 -31911308.795359783 20953881.309705973 -1058703.3399957418 0 -1058703.3399957418 -99433094.628211156 0 0 0 -27467724.661476493 17008625.201427698 1454419.5859580785 0 1454419.5859580785 -98058963.961848736 0 0 0 -28367618.566147327 10033170.519961476 4326647.1976894625 0 4326647.1976894625 -98900205.63671577 0 0 0 -31103462.290863991 -11019448.950750347 -12966710.947907642 0 -12966710.947907642 -97891666.733201921 0 0 0 -38118890.48938334 23035005.835910797 -39320.248958103359 0 -39320.248958103359 -100684419.66829395 0 0 0 -27177294.841334105 14322177.114305511 2574221.8168170452 0 2574221.8168170452 -96125180.396607548 0 0 0 -28631051.148805603 14340074.045724958 -2039692.891163826 0 -2039692.891163826 -96011487.216103077 0 0 0 -28584994.609632283 -20483522.58105728 293704.27535775397 0 293704.27535775397 -90743229.420030713 0 0 0 -38929363.200380787 9156742.341183722 -655557.12741521001 0 -655557.12741521001 -97497119.26889056 0 0 0 -30919131.924697459 20790161.177359819 815549.70510265231 0 815549.70510265231 -99920288.786685467 0 0 0 -27695544.663264036 -18329289.972019054 16337389.372259332 0 16337389.372259332 -83903769.11999917 0 0 0 -35781570.68220637 9598070.8205217719 -1035808.3966770768 0 -1035808.3966770768 -99188950.440274179 0 0 0 -31356807.866913378 18935430.743871212 -1842896.1426084042 0 -1842896.1426084042 -99278128.609204173 0 0 0 -28119944.252866507 21408892.86462903 1247555.9236346483 0 1247555.9236346483 -100664832.74239922 0 0 0 -27739578.957219601 2611161.1507329345 7766847.2515480518 0 7766847.2515480518 -94843592.19145143 0 0 0 -32281350.864251465 12837124.453071535 -3653747.43230474 0 -3653747.43230474 -99660183.277080238 0 0 0 -30388070.588403046 14923857.540083826 -614355.3663071394 0 -614355.3663071394 -99599215.567806244 0 0 0 -29636375.309702814 18255352.922967911 842328.08148933947 0 842328.08148933947 -99170094.576575756 0 0 0 -28320159.578762531 20365952.433103442 -1465478.4951558113 0 -1465478.4951558113 -101380695.13145554 0 0 0 -28355159.944423318 19822370.010099739 -1018842.1562895775 0 -1018842.1562895775 -100833524.45147476 0 0 0 -28353904.054481179 19946663.256114483 -1716868.2867349684 0 -1716868.2867349684 -99087993.875132084 0 0 0 -27699465.716656208 21871275.581394255 1310525.7167221308 0 1310525.7167221308 -99702722.463051319 0 0 0 -27241006.408580005 167655.23893670738 7341174.8849264383 0 7341174.8849264383 -99551502.942693457 0 0 0 -34784346.696314886 9117903.6355302334 -3846645.2728523761 0 -3846645.2728523761 -100776024.2580111 0 0 0 -32080342.217868328 12911770.2022205 263157.59540832043 0 263157.59540832043 -98901745.963071525 0 0 0 -30096491.516297758 8789354.0473027229 -132884.71698114276 0 -132884.71698114276 -99422868.928312302 0 0 0 -31721730.208353758 561332.09240162373 16540403.611230703 0 16540403.611230703 -103386562.8002823 0 0 0 -35988830.74775821 8873452.0271260738 68719.302575111389 0 68719.302575111389 -99524813.660481453 0 0 0 -31727976.571674347 -33490369.756316654 36846640.782488182 0 36846640.782488182 -113167583.07302795 0 0 0 -51330283.490270622 -34010839.735690802 -35799199.882473812 0 -35799199.882473812 -113702730.33803864 0 0 0 -51699749.525805309 13031336.070314646 -223507.74611639977 0 -223507.74611639977 -98948676.918732643 0 0 0 -30071069.296946049 798707.9451854527 -16580167.929210693 0 -16580167.929210693 -103952653.77700299 0 0 0 -36103881.041136116 15008102.865456589 -82220.83187276125 0 -82220.83187276125 -101557205.97735387 0 0 0 -30292186.089164011 13547649.401994109 -211310.98289218545 0 -211310.98289218545 -101252173.9337213 0 0 0 -30696583.586104512 21389714.829414487 -1265782.9634911418 0 -1265782.9634911418 -101053102.24191022 0 0 0 -27882185.594373226 23530267.973070502 144450.7842861414 0 144450.7842861414 -100856484.00502114 0 0 0 -27064175.611182928 16773926.529914021 1984178.6953438148 0 1984178.6953438148 -99058836.622511625 0 0 0 -28799718.532409191 17084512.250026464 -2208675.239949923 0 -2208675.239949923 -98569097.860610962 0 0 0 -28519604.963704586 -5605411.1386234947 722086.14200082421 0 722086.14200082421 -92318198.051578999 0 0 0 -34273263.216570869 20446732.001411438 -934393.60999706388 0 -934393.60999706388 -100275489.69810581 0 0 0 -27940065.193843126 13504070.649784446 1454621.4525225759 0 1454621.4525225759 -99312816.143417835 0 0 0 -30033060.922771692 10499055.261456206 3140528.0441104174 0 3140528.0441104174 -99783164.656280965 0 0 0 -31249438.288188621 -5737297.5636014044 -13095661.006666107 0 -13095661.006666107 -87054204.128567308 0 0 0 -32477025.592259049 20927247.767233014 -2042550.5276183486 0 -2042550.5276183486 -100031506.82397234 0 0 0 -27686490.669858694 22614143.595913887 1092602.8888239563 0 1092602.8888239563 -101316247.80452585 0 0 0 -27545736.473014116 8145770.9012756348 2529931.326588124 0 2529931.326588124 -98076568.36537981 0 0 0 -31475779.112436473 15991061.201622128 -1230335.8984218836 0 -1230335.8984218836 -100339417.95372105 0 0 0 -29521924.863234639 14495186.796373129 -1208601.7689352036 0 -1208601.7689352036 -99862389.815459013 0 0 0 -29878521.056679964 -2750260.4580626488 14645341.969453089 0 14645341.969453089 -90700913.816368431 0 0 0 -32707910.996050894 19857111.829277873 995628.03746581078 0 995628.03746581078 -100114032.72448111 0 0 0 -28089922.313321471 10739846.139251053 -5607978.3535954803 0 -5607978.3535954803 -99597980.547726035 0 0 0 -31100347.042966187 22075763.144779325 -723416.69644206762 0 -723416.69644206762 -101572110.55898571 0 0 0 -27823721.594972253 21151691.277044535 698228.55241099 0 698228.55241099 -101937360.54197001 0 0 0 -28274984.242723942 20540558.213711619 285494.90907487273 0 285494.90907487273 -102175105.25295162 0 0 0 -28572091.463734031 22911399.541816473 736006.23588469625 0 736006.23588469625 -101780790.76484275 0 0 0 -27604286.928059101 22818465.072971106 675635.87623502314 0 675635.87623502314 -101619591.93454862 0 0 0 -27580394.401551962 6808096.624525249 7133799.6730335653 0 7133799.6730335653 -100505769.8430984 0 0 0 -32794185.626500607 -21342721.123242259 -17989223.0392882 0 -17989223.0392882 -97435859.771691501 0 0 0 -41572503.313226819 19750863.86050427 370456.12428830564 0 370456.12428830564 -101785066.69290638 0 0 0 -28711970.991340756 19189141.309017181 -384159.34882992506 0 -384159.34882992506 -99864650.53631258 0 0 0 -28236428.229553461 3775114.2980275154 251147.01313412189 0 251147.01313412189 -101200891.34902549 0 0 0 -34099021.967849255 2295953.2957325578 -438426.01285974681 0 -438426.01285974681 -95848483.76145792 0 0 0 -32743385.663003922 -26281203.258768149 -20959285.354581319 0 -20959285.354581319 -77581702.629723221 0 0 0 -36352017.060971975 8552728.224999547 -1700617.8898206651 0 -1700617.8898206651 -96930288.899004459 0 0 0 -30932146.235901713 -31188034.110287528 4896667.7718144059 0 4896667.7718144059 -85496491.307550937 0 0 0 -40839583.896243468 22308572.6759388 363455.93744266033 0 363455.93744266033 -100425443.65554038 0 0 0 -27340904.842860505 9395427.8858155012 1280909.0894857682 0 1280909.0894857682 -92800964.027204275 0 0 0 -29191937.649486065 22304087.157396197 614651.77166122198 0 614651.77166122198 -101795656.69517294 0 0 0 -27822049.338221788 11125061.005603712 -1220551.7972772419 0 -1220551.7972772419 -99679379.370141864 0 0 0 -30994011.427588422 6856562.5271520168 -255372.33496946096 0 -255372.33496946096 -100178981.22219378 0 0 0 -32662846.543264672 21616703.05548811 -218492.7682320505 0 -218492.7682320505 -99948332.031392097 0 0 0 -27416070.141566277 3239496.0020034635 463868.0721937418 0 463868.0721937418 -98079678.580045149 0 0 0 -33194063.902314629 3250915.8209453318 -1171626.6308380961 0 -1171626.6308380961 -88918526.131780475 0 0 0 -29983663.608792357 -44585516.451724753 -11553783.612342117 0 -11553783.612342117 -82814304.873519048 0 0 0 -44589937.463835329 19442685.493113816 -1414791.2479059696 0 -1414791.2479059696 -100074157.31440973 0 0 0 -28221015.137453377 19756825.219294548 1520743.2180126458 0 1520743.2180126458 -99593242.769462109 0 0 0 -27942746.142558575 7072455.4271404147 8311119.6601127312 0 8311119.6601127312 -98126405.776245713 0 0 0 -31868882.62218684 7561684.667449832 -7786020.6270351708 0 -7786020.6270351708 -97762445.551916391 0 0 0 -31570266.30956322 -7499280.019192636 41772972.663714133 0 41772972.663714133 -156327454.98416623 0 0 0 -57339357.251175627 -41229978.98103103 -42293024.334863149 0 -42293024.334863149 -117360680.56965292 0 0 0 -55506730.842739366 -41335761.423242651 42489911.218911983 0 42489911.218911983 -117711383.21325278 0 0 0 -55666500.622773401 -7252641.4994986802 -41580306.457381748 0 -41580306.457381748 -156089470.569222 0 0 0 -57169739.224052206 3841440.6406974792 667363.91275012493 0 667363.91275012493 -101034252.83258724 0 0 0 -34017484.267161608 6836147.2910407782 107052.77646565437 0 107052.77646565437 -100293551.90768945 0 0 0 -32710091.615827203 6656534.5182358027 -117595.32264328003 0 -117595.32264328003 -100457752.75737357 0 0 0 -32830426.383698106 3923421.6428861618 -599325.95716482401 0 -599325.95716482401 -100936177.44549942 0 0 0 -33954464.530914783 10004419.685889363 90083.751994252205 0 90083.751994252205 -100540339.7105267 0 0 0 -31687572.008623004 13280947.128731966 -27298.686926722527 0 -27298.686926722527 -100483899.04515934 0 0 0 -30521033.170749664 11001836.002597332 -201197.7114521265 0 -201197.7114521265 -98908536.161777973 0 0 0 -30767345.055712938 792443.24527958035 12502299.185446918 0 12502299.185446918 -102763563.53649706 0 0 0 -35689892.101926118 16059491.442319393 254294.72416305542 0 254294.72416305542 -98896887.829228401 0 0 0 -28993088.73541832 -27530633.80668626 -27651017.141329084 0 -27651017.141329084 -103894450.28628635 0 0 0 -45998779.432540424 794296.44208499789 17246872.344550334 0 17246872.344550334 -108285032.97919106 0 0 0 -37621757.787987143 -4908883.5297955871 -28168434.645063642 0 -28168434.645063642 -91996896.564013675 0 0 0 -33917023.032833248 21636539.430134773 -864896.14657466114 0 -864896.14657466114 -102031238.91645932 0 0 0 -28138144.820213556 14725113.211306989 1322892.6360631958 0 1322892.6360631958 -100026432.19733357 0 0 0 -29855461.645109296 22482373.602816343 1054346.6225330383 0 1054346.6225330383 -100568900.57290983 0 0 0 -27330284.439532757 18357384.460475445 -2018540.3753956556 0 -2018540.3753956556 -98363298.686884999 0 0 0 -28002069.979243279 12905748.081890851 -1244507.3061424494 0 -1244507.3061424494 -100044986.26198199 0 0 0 -30498733.363031954 -6326900.6861736774 6640863.389886044 0 6640863.389886044 -95992483.82268858 0 0 0 -35811784.578101754 16443351.859597564 -71738.706108540297 0 -71738.706108540297 -101735646.33982235 0 0 0 -29852303.068078697 18759193.128526688 -117484.56422510743 0 -117484.56422510743 -100719628.21619999 0 0 0 -28686152.280685663 22528180.936733931 1063163.3782146573 0 1063163.3782146573 -101749624.10523972 0 0 0 -27727505.108977109 23476966.239469051 -142554.79111087322 0 -142554.79111087322 -100365496.40091848 0 0 0 -26910985.556507587 13991355.266667843 2376568.8253527284 0 2376568.8253527284 -98719459.002080679 0 0 0 -29654836.307394505 13693469.426338673 -2322420.023113668 0 -2322420.023113668 -98656905.303732395 0 0 0 -29737202.557087779 -9468380.4568523765 -1341928.7583163679 0 -1341928.7583163679 -86332514.818481624 0 0 0 -33530313.346366942 22436972.920795679 1043794.0094454885 0 1043794.0094454885 -101325429.58619809 0 0 0 -27610959.832890749 21686562.550683022 -1624570.9578158557 0 -1624570.9578158557 -100638614.30807829 0 0 0 -27633218.115088224 22118964.052230418 1525135.6988440752 0 1525135.6988440752 -100904528.18993223 0 0 0 -27574947.448195636 12167969.149021536 2562418.9354990721 0 2562418.9354990721 -98666983.965075731 0 0 0 -30274655.185618967 14002543.153705239 -2205814.7809327394 0 -2205814.7809327394 -99949969.973562002 0 0 0 -30081599.386949778 21143393.694931507 -1232627.7044253349 0 -1232627.7044253349 -100173762.84210396 0 0 0 -27660629.201510191 17022657.287278414 1546137.6960625648 0 1546137.6960625648 -99750040.692619324 0 0 0 -28954584.191869497 11648159.972512007 3951744.4329762757 0 3951744.4329762757 -99390339.617010236 0 0 0 -30709762.87557441 427966.00721144676 -11075761.352698967 0 -11075761.352698967 -92890577.372882605 0 0 0 -32361913.977984905 14831942.811743185 -376671.71838521957 0 -376671.71838521957 -100894720.10023436 0 0 0 -30121972.05097194 19390866.022387862 -1001899.2022967339 0 -1001899.2022967339 -100278496.92894316 0 0 0 -28310670.817294478 16566838.619537354 1278832.8845706582 0 1278832.8845706582 -98854173.039947748 0 0 0 -28800567.047143579 8017980.4593575001 7767470.1981826425 0 7767470.1981826425 -101621037.70243478 0 0 0 -32761070.035077095 -7068598.7048914135 -13139616.222986162 0 -13139616.222986162 -95799907.120087862 0 0 0 -36003977.038742721 22416862.757746667 -891591.25448524952 0 -891591.25448524952 -102108757.18512493 0 0 0 -27892163.049582511 16918398.253389418 -1827401.1778919697 0 -1827401.1778919697 -97531600.82917881 0 0 0 -28214620.901526153 -13553944.188735276 10192901.244448479 0 10192901.244448479 -96175119.327852368 0 0 0 -38405172.230805665 22023736.310007572 943686.13300769031 0 943686.13300769031 -100140858.06153727 0 0 0 -27340992.61303544 11154886.821297064 -1280251.4876185954 0 -1280251.4876185954 -99005937.674252689 0 0 0 -30747867.798534438 19470776.843670368 1300134.3492691517 0 1300134.3492691517 -98564677.352247953 0 0 0 -27682865.178002119 19728853.980977774 -1249877.1702356935 0 -1249877.1702356935 -98675552.449207306 0 0 0 -27631344.463880062 -1252598.4773536325 -10351830.293318346 0 -10351830.293318346 -101405684.78714186 0 0 0 -35930399.142573416 149241.0922048986 9559369.9021497965 0 9559369.9021497965 -101847661.17405397 0 0 0 -35594447.028647155 23222788.500355005 141153.28403148055 0 141153.28403148055 -101639673.34009457 0 0 0 -27445909.693908572 16752885.174826264 642137.75182774663 0 642137.75182774663 -101432318.51169133 0 0 0 -29637801.667902827 17687606.657373488 102825.823277466 0 102825.823277466 -101226801.92429423 0 0 0 -29238718.343422174 20937314.226074517 -1633930.4931423664 0 -1633930.4931423664 -100297189.62923694 0 0 0 -27775956.391106904 22138078.605930328 1414010.4007507563 0 1414010.4007507563 -99810448.60463047 0 0 0 -27185329.499544859 20115084.014224887 -1947564.0757399797 0 -1947564.0757399797 -100041903.88301373 0 0 0 -27974386.954076171 21786158.532703876 1378943.9124773741 0 1378943.9124773741 -100617845.39518952 0 0 0 -27591090.401870012 6473392.4399340153 5399504.7611863464 0 5399504.7611863464 -99821608.78069675 0 0 0 -32671875.719267011 9172470.2106623948 -3282240.0569798052 0 -3282240.0569798052 -100582005.68936306 0 0 0 -31993337.417545229 7541385.4330762029 5309316.9434996247 0 5309316.9434996247 -96278561.121971369 0 0 0 -31058011.491113305 13895032.80814296 -3170410.2819642425 0 -3170410.2819642425 -99123145.406446517 0 0 0 -29829839.409406215 20553788.67260623 -798948.29989892244 0 -798948.29989892244 -99558439.7566185 0 0 0 -27651627.879404306 13567897.149111658 1178248.4122356176 0 1178248.4122356176 -97283574.92662859 0 0 0 -29300487.222131103 10122907.775587052 3304831.6763316095 0 3304831.6763316095 -97446300.709677994 0 0 0 -30563187.526931792 -25294361.575072348 -16748249.373305004 0 -16748249.373305004 -98940394.155708551 0 0 0 -43482164.505773336 23014965.061007977 -1049867.5003287029 0 -1049867.5003287029 -100665074.35418272 0 0 0 -27177538.25261116 22371732.608301401 -1025394.6622262299 0 -1025394.6622262299 -100873757.57929277 0 0 0 -27475708.739847183 19211579.219897605 2103480.6205483079 0 2103480.6205483079 -100130793.34642403 0 0 0 -28321724.944284342 19714549.257313132 2131122.9669973254 0 2131122.9669973254 -98705832.31022799 0 0 0 -27646949.068520188 16015441.938427404 273040.98175534606 0 273040.98175534606 -100139567.94246249 0 0 0 -29443444.101412341 13692056.634254813 1779438.4173587859 0 1779438.4173587859 -100207214.84052968 0 0 0 -30280305.372196317 3882516.4668793678 -4762987.1403910983 0 -4762987.1403910983 -95084785.326484919 0 0 0 -31920794.100861907 -960873.22026348114 -5074882.844582051 0 -5074882.844582051 -97412865.770289183 0 0 0 -34430808.646693468 7332478.501126349 -942060.15395247936 0 -942060.15395247936 -98245671.716104984 0 0 0 -31819617.625242531 -26393746.957058519 11390340.906951664 0 11390340.906951664 -81197314.267312974 0 0 0 -37656871.428530023 22268556.833523273 424349.84684804082 0 424349.84684804082 -99879131.692961693 0 0 0 -27163701.20080328 7112288.5821305215 1571980.5982926488 0 1571980.5982926488 -95061753.400302172 0 0 0 -30782312.686359912 22129650.68873632 -1401751.3350408077 0 -1401751.3350408077 -101239021.25532198 0 0 0 -27688279.698305011 22118035.178601027 1506875.8252797127 0 1506875.8252797127 -100412892.0725255 0 0 0 -27403199.912873507 12602031.79166007 2762823.0401679575 0 2762823.0401679575 -100345202.15441084 0 0 0 -30710109.626962781 11877982.462706149 -2411796.4646522999 0 -2411796.4646522999 -99533586.055402517 0 0 0 -30679461.257443726 20780771.961412191 -1522436.6396458149 0 -1522436.6396458149 -99440907.852134466 0 0 0 -27531047.561752796 19464644.398670673 1655252.4430751801 0 1655252.4430751801 -100017634.16085768 0 0 0 -28193546.41676569 8564046.7781780958 5222538.7612536699 0 5222538.7612536699 -98476859.318974018 0 0 0 -31469484.389278591 4756930.8293941915 -8089154.6827918887 0 -8089154.6827918887 -99376165.774519742 0 0 0 -33116732.230793983 22049645.1443941 656593.13198047876 0 656593.13198047876 -102243895.77085018 0 0 0 -28067987.719259799 -44793728.529107124 -7929614.1477339165 0 -7929614.1477339165 -83193034.760419831 0 0 0 -44795367.151334435 3738728.5888114888 -1376060.9453175664 0 -1376060.9453175664 -90842602.361482203 0 0 0 -30486355.8204346 3723452.4204228711 432196.81711655855 0 432196.81711655855 -96454706.130140379 0 0 0 -32455938.798401039 22408913.341492891 -150250.1323230835 0 -150250.1323230835 -99996797.596495628 0 0 0 -27155759.489250898 -10457591.900450066 15025903.054544926 0 15025903.054544926 -122455170.64630516 0 0 0 -46519466.891364291 -54933254.952987008 -41532210.854973197 0 -41532210.854973197 -101944374.38780841 0 0 0 -54907170.269278392 9063399.643355608 226761.28420115111 0 226761.28420115111 -100591397.60777235 0 0 0 -32034799.287545681 2342442.804264307 -342097.01178824902 0 -342097.01178824902 -100593024.03357983 0 0 0 -34387703.43026042 2303282.7439221716 294751.42122733593 0 294751.42122733593 -100601381.62701046 0 0 0 -34404334.609081089 -54617943.24302806 41479885.179405972 0 41479885.179405972 -101358096.44296078 0 0 0 -54591613.890096091 9097169.0115785599 -216440.31673580111 0 -216440.31673580111 -100599868.39610958 0 0 0 -32025944.784585953 -10425486.792563453 -14953471.132285371 0 -14953471.132285371 -122528853.50829217 0 0 0 -46534019.105299488 15540173.259999275 -1421958.4624984413 0 -1421958.4624984413 -98059174.461501122 0 0 0 -28881650.420525789 -14594211.852182861 14347703.758313224 0 14347703.758313224 -97011252.901257783 0 0 0 -39061912.663704216 21118715.709042609 1023419.1453610659 0 1023419.1453610659 -99444694.342260718 0 0 0 -27414092.521626174 9782094.3227900267 -2708725.0562824011 0 -2708725.0562824011 -98682568.613742113 0 0 0 -31115166.0018332 23311822.28337431 -152451.78039580584 0 -152451.78039580584 -101806938.17513871 0 0 0 -27473290.562117577 19368470.202510238 1432551.7076150179 0 1432551.7076150179 -100005188.69446039 0 0 0 -28222851.472182512 18527938.499052763 -1108380.5000535548 0 -1108380.5000535548 -100042323.41560745 0 0 0 -28530034.720794082 1203008.6284044087 -799648.46769109368 0 -799648.46769109368 -99198972.649469376 0 0 0 -34298587.407372743 20960347.75262928 -965348.76797953993 0 -965348.76797953993 -101805567.52919865 0 0 0 -28295826.921799302 12188915.918405414 376658.63592520356 0 376658.63592520356 -100231959.90245557 0 0 0 -30815065.394417524 19329255.790274501 -16352.819083869457 0 -16352.819083869457 -102010173.66223794 0 0 0 -28938321.255187035 22339984.18912375 -985082.03388381004 0 -985082.03388381004 -100547218.60595989 0 0 0 -27372532.045892835 16675728.898803949 2135017.4509196579 0 2135017.4509196579 -99016950.850857735 0 0 0 -28819427.683218718 14225031.442908525 496127.35489061475 0 496127.35489061475 -99919052.748778701 0 0 0 -29992907.457054615 -3298058.0938432962 -7417829.8244136721 0 -7417829.8244136721 -91194570.965475529 0 0 0 -33072420.1707616 22112434.912358165 -222472.65541887283 0 -222472.65541887283 -100112909.88826847 0 0 0 -27300166.241568685 2212622.5743875504 821643.46746483445 0 821643.46746483445 -99759897.120560884 0 0 0 -34141546.091160774 2167424.9267619848 -511492.93982518464 0 -511492.93982518464 -94741483.82780242 0 0 0 -32400920.615364075 -29294391.785641987 -8610341.9453507066 0 -8610341.9453507066 -74803162.958409816 0 0 0 -36434144.160418123 22187584.215740204 -1211780.3655603528 0 -1211780.3655603528 -100970538.01956463 0 0 0 -27574033.831338644 12284645.629328072 815070.17128014565 0 815070.17128014565 -101131976.71866727 0 0 0 -31096565.88126868 22942453.926822186 -884004.95431035757 0 -884004.95431035757 -101696866.64378667 0 0 0 -27564044.450937629 21271170.579108119 1524884.2830602527 0 1524884.2830602527 -100945438.03198111 0 0 0 -27885993.608505487 17698829.454139531 234583.57833993435 0 234583.57833993435 -101093575.25078011 0 0 0 -29188161.028824151 11361593.011918843 -1096733.671981588 0 -1096733.671981588 -99568839.383723497 0 0 0 -30872536.230131686 -34536977.189794436 9595563.4587386623 0 9595563.4587386623 -80412023.370861068 0 0 0 -40232150.196229421 4116978.936789155 -573189.78633826971 0 -573189.78633826971 -98797281.081636667 0 0 0 -33138105.75069654 5346459.3029898405 925534.19326856732 0 925534.19326856732 -91635439.978680968 0 0 0 -30201143.236491799 21782053.557954788 278366.79885321856 0 278366.79885321856 -100343840.80011892 0 0 0 -27496625.534757376 23651043.992388308 -124658.18876433372 0 -124658.18876433372 -101119034.62475336 0 0 0 -27113796.72132796 18567178.424555898 2061518.152859062 0 2061518.152859062 -100069553.694381 0 0 0 -28525831.34443891 18367390.507212877 -1472515.328858681 0 -1472515.328858681 -100327323.02749538 0 0 0 -28685976.382099032 3036424.4259359539 38617.561417683959 0 38617.561417683959 -94810023.868194312 0 0 0 -32120759.804790407 23121362.019048214 701198.69357657433 0 701198.69357657433 -100888277.42856503 0 0 0 -27218420.393331051 15800014.121641576 520504.68867251277 0 520504.68867251277 -99367057.342780113 0 0 0 -29248465.127398551 19027672.36364913 -2073849.355232656 0 -2073849.355232656 -99048639.166465044 0 0 0 -28007338.380985498 -3217728.2912025154 4193407.826337859 0 4193407.826337859 -96502275.931621075 0 0 0 -34902001.477988303 19466897.323576689 -1720661.7538144588 0 -1720661.7538144588 -100015823.01278687 0 0 0 -28192123.991224051 20595273.610290051 1514952.4888285398 0 1514952.4888285398 -100261276.58344078 0 0 0 -27883101.040603161 7978766.257458806 6982295.3089485765 0 6982295.3089485765 -95679511.080931187 0 0 0 -30695260.688215315 11236027.916600943 -5151906.528676331 0 -5151906.528676331 -97985728.874514103 0 0 0 -30362395.33526957 22332650.811415672 -9665.2123494148254 0 -9665.2123494148254 -102330669.52737141 0 0 0 -27999306.550584555 19965060.526955366 576233.52669006586 0 576233.52669006586 -102057520.5291996 0 0 0 -28732361.000785589 22620155.714792475 -1075476.2068483233 0 -1075476.2068483233 -100178608.01735711 0 0 0 -27145458.305897728 18248336.348227739 1800289.9300551973 0 1800289.9300551973 -98965240.399620295 0 0 0 -28250916.417987347 13234887.140737414 997352.5836495487 0 997352.5836495487 -99490486.942604423 0 0 0 -30189459.930653572 -3689838.6025541611 -8153969.3694888055 0 -8153969.3694888055 -95403015.332587495 0 0 0 -34682498.877299502 6367778.010004878 11105732.896634564 0 11105732.896634564 -98483468.237274051 0 0 0 -32240491.579544246 -4396830.6821618676 -18303087.239636987 0 -18303087.239636987 -96565028.121089756 0 0 0 -35336650.581138045 19395734.066430211 -199123.28042781353 0 -199123.28042781353 -101996724.09153938 0 0 0 -28910346.508788228 20324473.187342256 -822549.46683907509 0 -822549.46683907509 -101822340.85713831 0 0 0 -28524253.684428722 22936454.767075479 -332523.69868183136 0 -332523.69868183136 -100734401.3095777 0 0 0 -27229281.289875805 23212074.981053591 -435131.91889452934 0 -435131.91889452934 -100621693.79307437 0 0 0 -27093366.584207058 14801191.97475028 2578138.1651321873 0 2578138.1651321873 -96997123.91018033 0 0 0 -28768576.177400589 15699192.839262486 2190257.8951660395 0 2190257.8951660395 -97810597.423889637 0 0 0 -28738991.604619265 14377344.931905985 -1549751.6559614092 0 -1549751.6559614092 -96676077.844296455 0 0 0 -28804556.51933682 14632212.200532436 -1938140.6327679455 0 -1938140.6327679455 -97605441.390812635 0 0 0 -29040630.216598034 -17511035.174527224 -2352072.8422724009 0 -2352072.8422724009 -90998487.776292041 0 0 0 -37978333.032786757 -12534396.604179278 -4348790.0106008798 0 -4348790.0106008798 -91047442.789975137 0 0 0 -36253643.787954047 21559636.259134322 -871123.67423200607 0 -871123.67423200607 -99693117.84104836 0 0 0 -27346718.553670138 14542585.572652578 1684243.3708711118 0 1684243.3708711118 -97462117.503615379 0 0 0 -29021836.17583704 12036176.694865942 1399501.5020658895 0 1399501.5020658895 -96167274.451302052 0 0 0 -29445884.214752555 -19739373.647873547 -12952548.416902736 0 -12952548.416902736 -94572181.007019743 0 0 0 -40009044.129212648 18137067.241212368 -1372785.1559729576 0 -1372785.1559729576 -97903642.686751842 0 0 0 -27918301.405938864 20303821.407190859 1053157.5934323072 0 1053157.5934323072 -99308216.919831991 0 0 0 -27651538.429424465 -9242084.0009634644 12612297.108170152 0 12612297.108170152 -100832538.95774661 0 0 0 -38526118.035548523 5821005.0800153613 -7597433.1453997418 0 -7597433.1453997418 -100735771.99694324 0 0 0 -33220168.420924842 10440498.876469851 5730465.6791375615 0 5730465.6791375615 -98915903.572156549 0 0 0 -30966391.643490314 -5685940.3465552032 -15817103.879357651 0 -15817103.879357651 -89091348.009934142 0 0 0 -33172050.924771279 23234149.813382149 181196.99920761585 0 181196.99920761585 -100818865.1193161 0 0 0 -27154650.357076883 15891632.438958645 2102925.0263537169 0 2102925.0263537169 -97276845.389286399 0 0 0 -28484824.532614708 16255281.413438976 -2196519.5387643576 0 -2196519.5387643576 -97585022.750185251 0 0 0 -28465409.467861235 -13121210.322406858 1859107.7278644219 0 1859107.7278644219 -92660866.359896719 0 0 0 -37023726.838806242 23237262.369243622 147007.59569591284 0 147007.59569591284 -101922742.1505208 0 0 0 -27539917.923447132 19905263.089458346 939658.06386047602 0 939658.06386047602 -101581302.96296799 0 0 0 -28586613.955728531 22919309.12496686 -775619.47308945656 0 -775619.47308945656 -100158539.75128889 0 0 0 -27033730.71921277 14120578.831623912 2051675.7276674509 0 2051675.7276674509 -99181397.119465709 0 0 0 -29771286.400744557 13397251.305322796 -787992.14587706327 0 -787992.14587706327 -98831640.949574769 0 0 0 -29902036.375488371 -7009716.1039404869 -7710438.2787666842 0 -7710438.2787666842 -86109829.127200842 0 0 0 -32591840.830899447 19466069.993970513 -999918.67516857386 0 -999918.67516857386 -101669852.73222113 0 0 0 -28771323.958387733 21505949.782457471 -429529.29168924689 0 -429529.29168924689 -102290468.02988243 0 0 0 -28274581.386598587 19019513.269987188 -337758.1769105792 0 -337758.1769105792 -102364172.69298463 0 0 0 -29170630.79804913 22545217.086671233 -624167.67141842842 0 -624167.67141842842 -100554628.41136479 0 0 0 -27303293.963642716 15770944.136884689 2443249.4049226046 0 2443249.4049226046 -96301819.903688908 0 0 0 -28185806.518381596 14301697.932541966 -853403.68395733833 0 -853403.68395733833 -95734135.691472292 0 0 0 -28501353.215625644 -20311633.769615173 -5891640.2388005927 0 -5891640.2388005927 -93751522.172754556 0 0 0 -39922104.579829395 20816889.837735511 785146.78405696154 0 785146.78405696154 -101611010.61735675 0 0 0 -28277942.272867464 23407400.252643585 409876.81298542023 0 409876.81298542023 -100544376.32176495 0 0 0 -26997941.624192238 15427804.598331332 1665144.9411866665 0 1665144.9411866665 -98969694.305712819 0 0 0 -29239661.397583604 15851502.187829494 -2394375.3662158251 0 -2394375.3662158251 -98747454.971071959 0 0 0 -29013583.474134684 -5977272.8879599571 2797178.8889773972 0 2797178.8889773972 -88391048.181521773 0 0 0 -33028912.37431863 9427766.9913878832 3480651.9856418967 0 3480651.9856418967 -99011000.977257058 0 0 0 -31354131.895054184 4667174.194190681 6701226.9533241987 0 6701226.9533241987 -102592951.01726389 0 0 0 -34274021.88807559 -15545159.766654529 -19314932.153728977 0 -19314932.153728977 -86611356.152797624 0 0 0 -35754780.571808241 -23452910.385403842 -21475716.411405385 0 -21475716.411405385 -92413253.935857236 0 0 0 -40553157.512441382 20397474.891029954 54155.963012754917 0 54155.963012754917 -102108706.72572589 0 0 0 -28598931.142143607 -6102199.7220502794 -16536327.700603187 0 -16536327.700603187 -106930068.2143243 0 0 0 -39561293.77773115 -11697715.460867822 19700741.631144673 0 19700741.631144673 -102311018.65711126 0 0 0 -39903056.941292673 19088715.518691652 -728060.15324234962 0 -728060.15324234962 -100349316.7615432 0 0 0 -28441210.434997924 19781780.062599659 -928903.34276008606 0 -928903.34276008606 -99212266.456165016 0 0 0 -27800670.237747908 12712392.694074631 1110467.6504433705 0 1110467.6504433705 -98868854.86580658 0 0 0 -30154761.760106087 14619802.616554022 1051861.5397163667 0 1051861.5397163667 -98717825.343492031 0 0 0 -29434307.954428673 -21310221.19084093 20887873.450421825 0 20887873.450421825 -92150113.916094869 0 0 0 -39711117.28742753 5001170.359239161 -6700653.8521161079 0 -6700653.8521161079 -102305314.14798671 0 0 0 -34056450.326061606 10248946.799843192 -672652.19266140461 0 -672652.19266140461 -99375692.337292314 0 0 0 -31194360.938107133 17577054.878017187 368821.20528012514 0 368821.20528012514 -100169039.80665874 0 0 0 -28907194.725024462 -14091886.847403899 18326120.4135224 0 18326120.4135224 -86150860.500499055 0 0 0 -35084961.571766019 9179141.3115592599 -3305989.6427467763 0 -3305989.6427467763 -100910349.58444822 0 0 0 -32105922.89551115 9690552.5959854126 -933125.14973348379 0 -933125.14973348379 -100060088.63330078 0 0 0 -31629337.613060236 19232298.361513853 704612.59114360809 0 704612.59114360809 -99661846.09526968 0 0 0 -28150341.706814528 21032546.994958997 -1674168.6158245802 0 -1674168.6158245802 -100141819.68525887 0 0 0 -27688245.441604972 20729528.720821619 -1461767.9268224835 0 -1461767.9268224835 -99624099.416506767 0 0 0 -27613099.743489742 20813940.282120466 1636420.1674534678 0 1636420.1674534678 -100442483.53555822 0 0 0 -27869990.138703108 21210558.188443005 1555889.1198445559 0 1555889.1198445559 -99068949.091802359 0 0 0 -27250436.81617564 10293097.163526177 4705349.1099616885 0 4705349.1099616885 -98013010.711670637 0 0 0 -30701969.741850555 4932838.590766564 6570207.5916295052 0 6570207.5916295052 -101225115.77666506 0 0 0 -33702297.015064523 10952436.878869534 -5042744.562825799 0 -5042744.562825799 -98270990.628674865 0 0 0 -30561493.812431872 6108183.6018251777 -5508638.8431232497 0 -5508638.8431232497 -100172330.15471303 0 0 0 -32922451.293510735 13694008.440021515 -1518432.3797783256 0 -1518432.3797783256 -97551860.597440004 0 0 0 -29350248.255096436 20568770.439968824 844558.08274197578 0 844558.08274197578 -100322764.5981164 0 0 0 -27913897.955351591 -19577847.993593454 13082668.181478079 0 13082668.181478079 -91634023.143728852 0 0 0 -38924154.89806281 10533974.838310242 -2782255.2038195729 0 -2782255.2038195729 -98493973.771556497 0 0 0 -30785999.626636207 18975681.940745711 37217.995691627264 0 37217.995691627264 -101645117.45990396 0 0 0 -28934302.431705356 17558545.571422338 -441436.99091357738 0 -441436.99091357738 -101194687.50068402 0 0 0 -29272649.675241709 18445495.627864003 -309998.96527989209 0 -309998.96527989209 -101010283.41809678 0 0 0 -28897675.726581573 17929191.154423475 -846714.85535264015 0 -846714.85535264015 -99101941.522343159 0 0 0 -28410462.62877202 15165384.949021101 693859.83874046803 0 693859.83874046803 -99680320.838163853 0 0 0 -29580227.561199903 6172855.3309167624 9413530.3264672458 0 9413530.3264672458 -104240023.08241773 0 0 0 -34323508.713025361 -6423557.4407051951 -17828312.83286985 0 -17828312.83286985 -89844110.408212066 0 0 0 -33693683.747121021 -13037979.326000527 31010294.485248867 0 31010294.485248867 -94398470.621599793 0 0 0 -37602757.481660083 263854.36088801175 -16900282.327709079 0 -16900282.327709079 -107852572.09457138 0 0 0 -37656051.206789188 14669218.100019217 -2094053.1403354108 0 -2094053.1403354108 -97128793.990236282 0 0 0 -28860851.56157589 -19412350.294030719 8712013.7777308598 0 8712013.7777308598 -92354376.240506768 0 0 0 -39118354.287088089 22033224.796435118 725691.94642996788 0 725691.94642996788 -100436778.73886251 0 0 0 -27441243.879849434 12138565.5612216 -19725.588695064187 0 -19725.588695064187 -96779782.519240141 0 0 0 -29624425.935306549 -6875703.9400113076 21105482.483204767 0 21105482.483204767 -93876953.128886878 0 0 0 -35263429.974114403 7483901.6320841312 -12479657.295294359 0 -12479657.295294359 -100564442.04551935 0 0 0 -32578189.144702315 19034502.512432337 -256171.39384377003 0 -256171.39384377003 -100225115.93918085 0 0 0 -28416714.69936204 3509450.3865981316 88299.797949910164 0 88299.797949910164 -99957880.589935005 0 0 0 -33756950.571167804 3998278.5181218386 -323402.99719336629 0 -323402.99719336629 -86192708.364283308 0 0 0 -28768050.446156442 -46640393.926736236 -18625742.776649892 0 -18625742.776649892 -86626461.062566087 0 0 0 -46643399.246255808 22892714.147042036 -85888.932611227036 0 -85888.932611227036 -99958092.196371078 0 0 0 -26972882.317265034 4956385.1098252535 980510.40651041269 0 980510.40651041269 -96318128.156179905 0 0 0 -31976610.066224217 3989189.3354853392 -1077575.8494108319 0 -1077575.8494108319 -95612543.456582308 0 0 0 -32068173.942383885 -32962225.773465682 -2851784.6190449744 0 -2851784.6190449744 -79184428.855585381 0 0 0 -39251329.120167874 14274197.522716552 313170.88526031375 0 313170.88526031375 -99372221.622060239 0 0 0 -29784308.434770256 11753216.488755584 -508626.12442374229 0 -508626.12442374229 -100312084.79409122 0 0 0 -30995603.906867385 16083331.417241573 320151.70782381296 0 320151.70782381296 -100171392.57961178 0 0 0 -29430821.40682888 20462738.101863146 -263677.91972842067 0 -263677.91972842067 -102284037.29457378 0 0 0 -28637454.717448711 7447854.9935876131 -1912890.4116261303 0 -1912890.4116261303 -96427681.186210155 0 0 0 -31142939.167417884 8952930.9392118454 -1665235.4812533855 0 -1665235.4812533855 -93239614.528246641 0 0 0 -29500339.256162405 14849986.472678304 -168230.61115598679 0 -168230.61115598679 -99691596.071429968 0 0 0 -29694563.35956347 3854892.1642255783 334173.33401435614 0 334173.33401435614 -101788822.31899834 0 0 0 -34276875.554170609 15123692.214108638 40099.124239563942 0 40099.124239563942 -100601822.71129134 0 0 0 -29917345.674014159 7838069.1937794685 -160493.79902812093 0 -160493.79902812093 -99976383.266247749 0 0 0 -32248409.925364017 2197611.8232902288 -10227700.88447414 0 -10227700.88447414 -107065293.75910962 0 0 0 -36703688.677536786 -29614449.87026111 27365594.217015844 0 27365594.217015844 -91275378.706401318 0 0 0 -42311440.001831852 15274901.375021577 208499.71235704422 0 208499.71235704422 -99420195.504931569 0 0 0 -29450852.945468307 4273307.7300634384 -241130.96719908714 0 -241130.96719908714 -101396244.2264123 0 0 0 -33993027.773721933 9315714.7934598923 -4605336.6789508164 0 -4605336.6789508164 -97358014.601454377 0 0 0 -30814804.932798147 -32699781.04197491 30613107.297217298 0 30613107.297217298 -89700997.564566627 0 0 0 -42840272.512289539 9246932.9629797041 4533199.8762835115 0 4533199.8762835115 -96966441.843579471 0 0 0 -30701828.108209968 -32293955.262582477 -30502832.873959247 0 -30502832.873959247 -89601265.010120958 0 0 0 -42663327.095446192 2437631.5001095235 9583373.2276777625 0 9583373.2276777625 -107737001.86344635 0 0 0 -36854779.627167851 -25452786.294762827 -26369706.1725283 0 -26369706.1725283 -89525458.361281872 0 0 0 -40242385.629615642 22572065.697114706 705601.54336172342 0 705601.54336172342 -102069969.53051519 0 0 0 -27824266.341690063 21590946.88027221 -11649.678698539734 0 -11649.678698539734 -102429727.47474968 0 0 0 -28293573.208067119 15356643.808278263 -59053.451995313168 0 -59053.451995313168 -101561314.28173316 0 0 0 -30171634.665709078 16508014.351416722 -846615.29951491952 0 -846615.29951491952 -100264146.51029563 0 0 0 -29314646.255607709 15860893.526105046 -756282.72569531202 0 -756282.72569531202 -101546628.06036697 0 0 0 -29990007.086991668 10287488.387487665 741589.75616365671 0 741589.75616365671 -100858934.79776758 0 0 0 -31700006.24359791 13922401.643375635 -1947991.8543747067 0 -1947991.8543747067 -98998948.182745218 0 0 0 -29776791.288779259 -9084126.5200972259 9964366.2227560282 0 9964366.2227560282 -87206425.551164538 0 0 0 -33701693.224941596 21949079.46629703 847177.25604820251 0 847177.25604820251 -100176373.74645853 0 0 0 -27379552.998056769 13163889.347259283 -618036.30105130374 0 -618036.30105130374 -98362078.632403255 0 0 0 -29819366.249800503 20500426.908296227 922289.02308177948 0 922289.02308177948 -101721620.97572631 0 0 0 -28427417.923600435 23023942.476449013 658382.57130402327 0 658382.57130402327 -100956555.56408882 0 0 0 -27276414.580673933 17726934.829345942 -2510139.2673975229 0 -2510139.2673975229 -98741648.551011682 0 0 0 -28355149.802582979 16105846.956219494 665438.2750543952 0 665438.2750543952 -99512405.015203118 0 0 0 -29192295.3206442 -3719028.2903749347 3164028.4152491316 0 3164028.4152491316 -92927502.84956181 0 0 0 -33826285.898977876 14938126.153626204 34063.007959634066 0 34063.007959634066 -99786637.89952898 0 0 0 -29696979.111065865 9477378.8172383904 -72144.580674529076 0 -72144.580674529076 -98674204.398609996 0 0 0 -31218888.953480184 15447651.497970104 -233333.76596149988 0 -233333.76596149988 -100347763.87714386 0 0 0 -29715039.332710743 8091142.0752365328 337166.96765112877 0 337166.96765112877 -100760833.77690791 0 0 0 -32434392.095584657 17581422.363049269 -1484122.8452840745 0 -1484122.8452840745 -99730405.240679264 0 0 0 -28752144.007170439 20512806.668335199 1378354.0993831158 0 1378354.0993831158 -100126429.63774753 0 0 0 -27864768.039294362 3111313.5009814799 10371758.058533818 0 10371758.058533818 -93537763.066228151 0 0 0 -31649257.347836345 11637566.782987356 -5689686.5053031221 0 -5689686.5053031221 -98896708.450961828 0 0 0 -30540699.583791137 16696188.263017893 -314556.82832723856 0 -314556.82832723856 -102015140.02532196 0 0 0 -29861633.116806507 17813562.940796614 -434075.57607272267 0 -434075.57607272267 -102128568.72983646 0 0 0 -29510252.026163816 16369527.915425926 -455620.280397892 0 -455620.280397892 -99982281.375350714 0 0 0 -29264463.710973591 12465644.525832891 498574.64190054685 0 498574.64190054685 -99924909.124183178 0 0 0 -30610742.609422684 17103296.147608519 -1333451.3887713552 0 -1333451.3887713552 -99966828.88324976 0 0 0 -29002236.457474232 18772365.703063846 1254333.4455660582 0 1254333.4455660582 -99876325.7892313 0 0 0 -28386386.030158639 4556795.7959197462 11541001.792223707 0 11541001.792223707 -95021767.497187436 0 0 0 -31662740.095443636 9137751.9002630115 -9065487.4283513725 0 -9065487.4283513725 -96473979.170998812 0 0 0 -30567679.544757545 20928375.679398775 -1604870.441447854 0 -1604870.441447854 -101572742.94149065 0 0 0 -28225528.541732073 21595377.274933219 -1484166.3404826224 0 -1484166.3404826224 -100218338.89317441 0 0 0 -27518036.566384435 11706448.475501478 1469409.2259514928 0 1469409.2259514928 -98714575.11527729 0 0 0 -30452844.323921502 7439249.4143939912 1830875.133081615 0 1830875.133081615 -100759170.70275688 0 0 0 -32661972.450926989 22603445.996325254 -293987.76734089851 0 -293987.76734089851 -100287967.48226237 0 0 0 -27189582.520077825 22761308.557736278 -425663.82579493523 0 -425663.82579493523 -99992742.227811337 0 0 0 -27031001.784526229 9158117.7468603849 1608350.8298584521 0 1608350.8298584521 -95532964.285501242 0 0 0 -30231196.28852427 7783625.9849215746 1389375.547847122 0 1389375.547847122 -98594817.861451626 0 0 0 -31783917.156785369 -33825494.044069201 -5760965.3257259615 0 -5760965.3257259615 -86517636.634791583 0 0 0 -42120095.73760128 -21797520.216325998 -7414690.4199994355 0 -7414690.4199994355 -79639327.394645512 0 0 0 -35502896.663840041 23163708.659148335 -379279.01437532902 0 -379279.01437532902 -101711667.20311642 0 0 0 -27491785.490388632 21001800.463376999 1314026.0312024355 0 1314026.0312024355 -101560731.46211195 0 0 0 -28195625.849557281 23255253.826829463 -376504.44102311134 0 -376504.44102311134 -101824694.56396687 0 0 0 -27499304.257998198 20273487.44261384 1337849.5471353307 0 1337849.5471353307 -101047440.24502468 0 0 0 -28270883.480843782 13669099.228932619 -121164.01517629623 0 -121164.01517629623 -100132136.82160568 0 0 0 -30262063.157435894 8611557.5663437843 -75732.694916009903 0 -75732.694916009903 -100689763.35117483 0 0 0 -32227372.024691105 -20694063.085235447 31544216.824219503 0 31544216.824219503 -98223373.193868101 0 0 0 -41621102.697686225 1106880.5385385454 -12105967.635606229 0 -12105967.635606229 -102678874.90999824 0 0 0 -35550198.030010909 20865818.397288561 -651082.09633183479 0 -651082.09633183479 -99831427.588488817 0 0 0 -27637963.216919899 10012705.762319922 1224525.9330226183 0 1224525.9330226183 -97635750.93841362 0 0 0 -30668065.811632991 9667247.9704437852 -28973.879245191813 0 -28973.879245191813 -92988635.484526038 0 0 0 -29162485.629928768 -30619562.845656976 -15709544.388695192 0 -15709544.388695192 -90239450.299395725 0 0 0 -42300654.600768447 23547946.101159096 -613433.80230343342 0 -613433.80230343342 -100853603.3529799 0 0 0 -27056980.038137436 19148451.416092396 2085596.0296857059 0 2085596.0296857059 -100407294.03848267 0 0 0 -28440594.917836547 17281518.566594958 -896614.5941863656 0 -896614.5941863656 -99977230.594095469 0 0 0 -28943499.209625244 4449514.2043420672 -3352630.2384057641 0 -3352630.2384057641 -94425107.270441115 0 0 0 -31491457.573134661 22572963.021524668 -443007.6933618784 0 -443007.6933618784 -101781995.36034536 0 0 0 -27723161.318587303 23237345.254115462 -862944.46068990231 0 -862944.46068990231 -100948699.23756099 0 0 0 -27198973.894206166 20117323.965567112 1937839.826441586 0 1937839.826441586 -100900940.57199144 0 0 0 -28274265.812248707 16766415.770747066 -260361.9413716495 0 -260361.9413716495 -100764062.23869157 0 0 0 -29399176.263780594 9115930.8560310006 -2470967.3385066688 0 -2470967.3385066688 -95847167.906281352 0 0 0 -30355932.96758765 23508015.862695694 -168225.31541061401 0 -168225.31541061401 -101023053.02273417 0 0 0 -27130263.006013393 18552873.32509613 1842837.0657142997 0 1842837.0657142997 -99355466.282436728 0 0 0 -28280907.535069227 17805582.241823971 -1875088.7643409967 0 -1875088.7643409967 -99020041.261278272 0 0 0 -28425060.656808972 -2902131.7973127067 -1819269.3146650046 0 -1819269.3146650046 -95526197.744736671 0 0 0 -34449915.339717299 23221759.090664387 -382980.74046844244 0 -382980.74046844244 -101839740.25232816 0 0 0 -27516293.406582355 20357311.744596958 1291274.8636365533 0 1291274.8636365533 -100752192.5137229 0 0 0 -28138208.269194126 23139514.761286914 -381482.71176171303 0 -381482.71176171303 -101717052.78533524 0 0 0 -27502138.308417022 21048692.540575981 1276311.8886341676 0 1276311.8886341676 -101304222.25049448 0 0 0 -28089435.398471355 22757509.010562778 -624059.04596292973 0 -624059.04596292973 -100140466.27936697 0 0 0 -27084035.04408133 11754267.719981432 1871597.2704526782 0 1871597.2704526782 -98699360.793200493 0 0 0 -30430782.575626612 11344672.004095912 -1722778.0843292177 0 -1722778.0843292177 -97767716.170832157 0 0 0 -30248065.458357692 -14248710.864694849 -7875519.1095649898 0 -7875519.1095649898 -84214918.010752574 0 0 0 -34462270.106406607 -31444279.979986198 1496507.601147145 0 1496507.601147145 -80534140.060932338 0 0 0 -39192447.014321476 6737597.533978343 991680.12319591641 0 991680.12319591641 -93849030.112575054 0 0 0 -30489001.402508855 5860905.939470768 -1760579.1267161071 0 -1760579.1267161071 -96776775.689393759 0 0 0 -31820554.412473083 22734352.820947886 118581.29040908813 0 118581.29040908813 -100096312.00794387 0 0 0 -27076685.71544838 23372096.880379915 -421135.4440652132 0 -421135.4440652132 -100751962.18487453 0 0 0 -27082952.856573105 15987622.257536292 2346068.8957347274 0 2346068.8957347274 -98846501.100691795 0 0 0 -29000607.595104337 15238752.575663567 -1692613.559225142 0 -1692613.559225142 -99330714.30109024 0 0 0 -29432186.603899479 -5434208.8855071366 -2830241.8061828017 0 -2830241.8061828017 -89189913.911753833 0 0 0 -33118442.979041338 20647597.082732975 275430.86092281342 0 275430.86092281342 -102241895.66223419 0 0 0 -28558004.50282532 21174164.548851728 -1203192.6065799855 0 -1203192.6065799855 -100120299.33347559 0 0 0 -27631147.174618721 19499747.431807768 1534397.0206776857 0 1534397.0206776857 -98416283.273582667 0 0 0 -27620787.544621218 9149141.3726507034 5669937.8587031066 0 5669937.8587031066 -100851921.7012943 0 0 0 -32095973.1150252 -2361022.2570772767 -9137183.0477350838 0 -9137183.0477350838 -98318405.958736062 0 0 0 -35237799.875534654 23247334.118770599 663884.99741464853 0 663884.99741464853 -100370795.28424239 0 0 0 -26993211.407914996 22549647.132898092 754247.51202857494 0 754247.51202857494 -100784558.22733784 0 0 0 -27382218.88305378 15189067.856413901 1400507.4940223694 0 1400507.4940223694 -98804265.520641685 0 0 0 -29265319.182479799 16403210.036984921 -2209765.645198226 0 -2209765.645198226 -98827218.974256039 0 0 0 -28848403.128044844 17125450.552008033 -2172032.8031576872 0 -2172032.8031576872 -97273949.785965681 0 0 0 -28051974.731885076 13862190.552879095 125337.12651112676 0 125337.12651112676 -98287200.415991068 0 0 0 -29548753.45208931 -6144146.2784436345 5498099.1875571311 0 5498099.1875571311 -90463373.46724093 0 0 0 -33812631.910989597 -13809834.922706604 6661490.9031189755 0 6661490.9031189755 -95217086.795879573 0 0 0 -38159422.601505145 21408791.934624821 -1654614.1008198857 0 -1654614.1008198857 -101474846.87965599 0 0 0 -28023119.230760902 13840189.743612528 1980048.9121797308 0 1980048.9121797308 -97956009.116531014 0 0 0 -29440536.780521452 22825303.883010626 1136206.1642836109 0 1136206.1642836109 -101147925.8018446 0 0 0 -27412917.671591997 14380907.445161104 -230982.2709493041 0 -230982.2709493041 -98115600.145206451 0 0 0 -29307142.445015907 14086672.859836102 8429.0644042491913 0 8429.0644042491913 -98930819.548828602 0 0 0 -29695451.341147304 -12363829.728153594 23635090.803052142 0 23635090.803052142 -109440892.92586903 0 0 0 -42631652.928907938 -17242835.266292244 -23179193.498942405 0 -23179193.498942405 -108784572.20744848 0 0 0 -44109592.615809262 19303916.924169064 876034.59914055467 0 876034.59914055467 -101387352.89096057 0 0 0 -28729202.588376999 10439412.484531105 -1165444.6159925461 0 -1165444.6159925461 -97540502.602069259 0 0 0 -30485381.54113847 -29290750.74960883 15324136.490533631 0 15324136.490533631 -89736455.532845527 0 0 0 -41659522.198859021 21166140.256900072 674640.62723463774 0 674640.62723463774 -99975213.716261864 0 0 0 -27583175.710776806 8833120.7804952562 581966.44087833166 0 581966.44087833166 -93891819.082005501 0 0 0 -29770544.405528754 21503864.023312509 303018.29469704628 0 303018.29469704628 -102462478.62007809 0 0 0 -28335515.108867943 18233675.489688516 -239888.16835711896 0 -239888.16835711896 -100463002.9264946 0 0 0 -28780264.602882147 3443981.7214429379 -614150.20078644156 0 -614150.20078644156 -99721306.512207508 0 0 0 -33697063.676767826 -33521950.941110555 16638182.076141488 0 16638182.076141488 -79085075.21175921 0 0 0 -39412459.153504416 20780529.438521504 507217.36864638329 0 507217.36864638329 -99554998.772856116 0 0 0 -27571064.267017245 1954367.9977030754 1474750.9051267505 0 1474750.9051267505 -92077149.916233301 0 0 0 -31542973.671485662 23104636.504778892 -688383.50529932976 0 -688383.50529932976 -100970135.90940869 0 0 0 -27252924.791620225 23046222.649583936 -694967.14270985126 0 -694967.14270985126 -101135953.2661624 0 0 0 -27331405.71580255 19585677.206616879 1995279.2798649073 0 1995279.2798649073 -98862893.82715416 0 0 0 -27747025.817188263 17739954.940643787 2371302.1395858973 0 2371302.1395858973 -99093254.010277748 0 0 0 -28473654.674371839 15565256.787532806 -237023.44823840261 0 -237023.44823840261 -99543892.403158665 0 0 0 -29392522.465469122 15622040.600364089 -571276.83170355111 0 -571276.83170355111 -99983866.108598828 0 0 0 -29526638.927882075 -3175555.2496646643 -4469119.8623043001 0 -4469119.8623043001 -98388829.461912841 0 0 0 -35547534.649052143 -2098855.5788220614 -3612173.1501706392 0 -3612173.1501706392 -92836101.193732753 0 0 0 -33227234.870394215 22644798.676687717 -765025.52518966794 0 -765025.52518966794 -100726400.41103458 0 0 0 -27328560.60702157 17380567.695908487 2201189.8049689531 0 2201189.8049689531 -97514869.59506166 0 0 0 -28047005.664703667 14160891.929782987 -165393.78365641832 0 -165393.78365641832 -97841002.137587428 0 0 0 -29288038.572731614 -12022221.954411179 -6998069.7723479718 0 -6998069.7723479718 -95337201.195229053 0 0 0 -37575798.102374077 23148658.424828053 -390508.56523001194 0 -390508.56523001194 -100143049.97710896 0 0 0 -26948037.043298244 12195565.223981082 1904460.2206138372 0 1904460.2206138372 -97495515.083402276 0 0 0 -29854982.450797379 12410647.102662891 -1760238.9681155086 0 -1760238.9681155086 -93827675.141395748 0 0 0 -28495959.813556463 -17333134.231223494 -5146799.411112735 0 -5146799.411112735 -84286187.834202886 0 0 0 -35566762.722899258 22510233.542125225 -470949.92337542772 0 -470949.92337542772 -100520995.07893467 0 0 0 -27303766.537883282 12927357.081708431 2023209.7381566763 0 2023209.7381566763 -95600415.885005355 0 0 0 -28935570.58115375 11732773.834884346 -2406402.7320429683 0 -2406402.7320429683 -97000965.894798875 0 0 0 -29843867.220970213 -27954642.201753989 -6579127.83500777 0 -6579127.83500777 -90676666.081639349 0 0 0 -41520957.899187684 23083365.090049982 -656748.77849328518 0 -656748.77849328518 -100476724.30948019 0 0 0 -27087675.72680068 15415036.106978834 2309965.3493340611 0 2309965.3493340611 -98640958.352269173 0 0 0 -29129072.785851657 14523873.727901638 -1367988.4321869612 0 -1367988.4321869612 -98935521.027343869 0 0 0 -29544076.554804742 -8305523.95017609 -4923512.9660792127 0 -4923512.9660792127 -88497842.385449946 0 0 0 -33881178.217469096 20146252.662771285 -1417158.6945558786 0 -1417158.6945558786 -98424424.344458103 0 0 0 -27397360.088590324 20870799.903644562 1315980.8026499152 0 1315980.8026499152 -99383138.048949718 0 0 0 -27479318.350856543 -1397960.0955960155 8966205.135644272 0 8966205.135644272 -100698450.20896792 0 0 0 -35733743.606597364 4610065.5315378904 -6841993.2294088602 0 -6841993.2294088602 -101803978.349637 0 0 0 -34017869.486334741 17927168.203811407 -2111924.6884152144 0 -2111924.6884152144 -98246510.207509756 0 0 0 -28111769.701294422 23321391.129708275 436812.78184139729 0 436812.78184139729 -100833369.34385073 0 0 0 -27129192.374949947 -7945143.3755027577 3462997.9976335168 0 3462997.9976335168 -95142070.75492081 0 0 0 -36080524.945648246 16552831.925441146 1588494.3013403714 0 1588494.3013403714 -98396656.999588251 0 0 0 -28645338.775951505 6651467.8759288788 -983832.06329265237 0 -983832.06329265237 -99419240.646387815 0 0 0 -32468720.469660521 -28201553.302440818 13391589.055006344 0 13391589.055006344 -81962268.373954833 0 0 0 -38557337.586738467 20710859.89667064 418655.66707146168 0 418655.66707146168 -100314737.44428432 0 0 0 -27861357.141664684 7047211.2195848823 -206080.56725396216 0 -206080.56725396216 -93729377.797552586 0 0 0 -30338758.302288711 23389973.822558641 99527.557193227112 0 99527.557193227112 -101755344.87467575 0 0 0 -27427879.868241072 18855903.861489944 976362.52065867186 0 976362.52065867186 -101049460.01654732 0 0 0 -28767744.654270001 23273137.651685774 -123824.1640291214 0 -123824.1640291214 -100180237.74008656 0 0 0 -26917485.030939996 11119290.034209967 1953100.3297890127 0 1953100.3297890127 -97609073.042782307 0 0 0 -30271424.053000212 10978697.838239551 -2451828.1201918572 0 -2451828.1201918572 -97649998.107438564 0 0 0 -30334955.094219565 -17045503.534777865 -1730353.3195628598 0 -1730353.3195628598 -82944237.027857184 0 0 0 -34996409.196922258 21721797.305567801 -102211.0563403368 0 -102211.0563403368 -102228199.46457398 0 0 0 -28177240.75565201 18390198.425888538 -652755.33129554987 0 -652755.33129554987 -98851500.467100143 0 0 0 -28161455.714424133 13107325.417617202 657070.99827086926 0 657070.99827086926 -98802255.075562716 0 0 0 -29993225.380281091 13479519.751123667 -151585.91263657808 0 -151585.91263657808 -100467256.92468023 0 0 0 -30445708.010744572 11834552.405969143 204993.05019116402 0 204993.05019116402 -99293454.830520988 0 0 0 -30610615.848593235 -17592143.123642236 23287534.380434938 0 23287534.380434938 -100657821.03278363 0 0 0 -41387487.454749078 -1566193.1849728972 -15222626.733484477 0 -15222626.733484477 -105709865.62339625 0 0 0 -37546620.582929209 23224964.967492342 -738886.32607543468 0 -738886.32607543468 -100455494.83356571 0 0 0 -27030685.453125715 17343357.970890403 1926018.8593529463 0 1926018.8593529463 -98567675.184744596 0 0 0 -28428511.024848819 15630855.193171442 -1442267.2597219944 0 -1442267.2597219944 -98655225.77314949 0 0 0 -29058529.70299226 -6926606.2606292963 -6758103.0125172734 0 -6758103.0125172734 -92943202.352746189 0 0 0 -34954433.014681458 6283289.61766541 12067375.662424948 0 12067375.662424948 -103618306.72720778 0 0 0 -34067255.988339841 -4906819.2967053875 -22011490.546123445 0 -22011490.546123445 -92003967.751369029 0 0 0 -33918775.466826044 19279248.034505248 303449.95246124268 0 303449.95246124268 -102061121.07427526 0 0 0 -28973655.563919544 18236531.792661309 -312635.10209983587 0 -312635.10209983587 -101945668.24235845 0 0 0 -29298197.757394195 21485884.594772816 -1533881.107000649 0 -1533881.107000649 -100884236.55841184 0 0 0 -27789423.187273741 21657789.453214765 1574692.599480629 0 1574692.599480629 -99958610.64847374 0 0 0 -27405287.418340802 12477276.628348649 3349641.5402500927 0 3349641.5402500927 -99359326.307616949 0 0 0 -30408717.387744009 11140098.703491807 -3935667.4829092026 0 -3935667.4829092026 -97902382.790505171 0 0 0 -30366799.430454731 12431121.083173752 -1666964.055853039 0 -1666964.055853039 -101024045.83578587 0 0 0 -31007523.66341418 22912964.481320843 -29263.099003076553 0 -29263.099003076553 -100348271.91501372 0 0 0 -27102357.60179235 10815963.699626923 2346499.9076267499 0 2346499.9076267499 -95772465.742442608 0 0 0 -29734775.714985371 11513293.292352676 -1770730.0056841597 0 -1770730.0056841597 -94878195.308380842 0 0 0 -29177715.705609798 -27225760.346931566 906682.13588542491 0 906682.13588542491 -87226927.333382905 0 0 0 -40058440.688110068 23089895.36125052 736215.32963097095 0 736215.32963097095 -101412545.68065822 0 0 0 -27412927.611792564 22847053.081139088 848259.16343021393 0 848259.16343021393 -101687791.4142282 0 0 0 -27594258.416581273 20696464.350860953 -640253.320271492 0 -640253.320271492 -102030402.4237175 0 0 0 -28466878.325499654 14773151.687149525 -12281.194227814674 0 -12281.194227814674 -100014228.53603697 0 0 0 -29834376.897110939 3715163.0438349247 56369.85694694519 0 56369.85694694519 -100494554.28674412 0 0 0 -33872786.935018539 3551272.5150272627 3141672.7732890844 0 3141672.7732890844 -88159709.004099995 0 0 0 -29612952.771175466 -50362930.111558296 -28925040.799682081 0 -28925040.799682081 -93517699.554701716 0 0 0 -50358220.383191004 3676332.0840457748 -99649.669888019562 0 -99649.669888019562 -100337528.33755848 0 0 0 -33831418.688729636 -50764202.022372037 28970536.250064239 0 28970536.250064239 -94263874.492303893 0 0 0 -50759826.78013657 14522745.946492672 -32926.960377636278 0 -32926.960377636278 -100202086.30220938 0 0 0 -29987769.124500751 3857408.9150169166 -3156923.3701765835 0 -3156923.3701765835 -87494884.588964775 0 0 0 -29273116.48588172 22417681.950744867 -1379987.5103834867 0 -1379987.5103834867 -100376475.13550472 0 0 0 -27285577.614665985 21101068.800504088 1654659.5810009837 0 1654659.5810009837 -100984736.71574664 0 0 0 -27959283.770335078 12218125.730456412 2490268.3703691363 0 2490268.3703691363 -99904355.93931818 0 0 0 -30690180.573101699 8824772.6400946975 -3976961.1308978796 0 -3976961.1308978796 -99150475.221729755 0 0 0 -31613995.903572321 23394546.047802269 151783.16240811348 0 151783.16240811348 -100381335.37322223 0 0 0 -26945376.263896883 13484760.701722503 2103742.0925274789 0 2103742.0925274789 -98347607.506311178 0 0 0 -29701996.381605983 13410374.033534288 -2539759.7597451806 0 -2539759.7597451806 -98451783.470493793 0 0 0 -29764493.302935839 -10867575.56497059 1015081.0608140081 0 1015081.0608140081 -85390595.452760965 0 0 0 -33690359.856206037 21709102.582564354 -1694805.8177035451 0 -1694805.8177035451 -99976223.793479681 0 0 0 -27393492.423820257 21607942.156714797 1431418.6624046564 0 1431418.6624046564 -100906123.88429403 0 0 0 -27754363.604652762 8723153.3124730587 2740385.8103312701 0 2740385.8103312701 -99938011.937735915 0 0 0 -31925200.518842161 10942034.366417885 -3612983.8967653513 0 -3612983.8967653513 -100010976.77467597 0 0 0 -31174129.842890263 7446336.388055563 -972385.65779095888 0 -972385.65779095888 -97662447.822687626 0 0 0 -31575639.00212121 -36288782.886779562 12607125.054645523 0 12607125.054645523 -86508618.701463014 0 0 0 -42979090.555884898 7343303.9262999296 979344.8430789113 0 979344.8430789113 -90376008.65982151 0 0 0 -29061446.656732559 21343038.262620449 379350.24898993969 0 379350.24898993969 -100065913.34794903 0 0 0 -27553006.279865026 2214132.0642910004 -416643.70072817802 0 -416643.70072817802 -99170140.903675795 0 0 0 -33934603.093784571 -44124704.752365246 15014557.733679632 0 15014557.733679632 -81943106.691447854 0 0 0 -44123734.005334578 20218776.413859367 310305.80442827725 0 310305.80442827725 -100251023.71120262 0 0 0 -28011286.554070473 2496253.60468526 729979.05342316628 0 729979.05342316628 -85623123.692834109 0 0 0 -29094404.530852124 2635817.1557489461 1206495.5418350697 0 1206495.5418350697 -88634050.13080959 0 0 0 -30099381.541271228 21610370.997182846 262117.27417242527 0 262117.27417242527 -99891257.421046734 0 0 0 -27398310.248352528 -43791046.440858662 11472847.608742276 0 11472847.608742276 -81330529.369663343 0 0 0 -43792551.533682704 2865586.2642097147 -510761.96148633957 0 -510761.96148633957 -97764066.147103861 0 0 0 -33214467.959013138 16175306.95753336 -311565.34853339195 0 -311565.34853339195 -98993551.55898428 0 0 0 -28986385.610507965 12282991.846235037 346252.68112123013 0 346252.68112123013 -98503973.287649155 0 0 0 -30177343.504495144 -8913935.8071179986 23222169.181194387 0 23222169.181194387 -96600495.803316534 0 0 0 -36930051.063652068 813549.29372543097 -19587427.155242652 0 -19587427.155242652 -109381661.29041231 0 0 0 -37998839.19884032 22677766.679664671 -955752.41777074337 0 -955752.41777074337 -101299392.59801626 0 0 0 -27517569.071423113 23003467.126866117 -1132714.3877613544 0 -1132714.3877613544 -100608196.16014946 0 0 0 -27161655.161649212 20867264.292032957 2012477.7815238684 0 2012477.7815238684 -99235349.327262163 0 0 0 -27428829.762330294 20555095.275881052 1809842.2225872725 0 1809842.2225872725 -100779904.42356586 0 0 0 -28078683.201689482 15701475.414136887 1250529.8514292091 0 1250529.8514292091 -100352824.76324224 0 0 0 -29627972.272186756 14108490.942547202 864563.38468106091 0 864563.38468106091 -100854103.50151062 0 0 0 -30360964.395637155 1393600.0730969906 -2782424.9284686446 0 -2782424.9284686446 -99874919.137778968 0 0 0 -34468461.672638714 8116155.9348196536 -3819485.7872754037 0 -3819485.7872754037 -97791183.053728357 0 0 0 -31386259.491618022 16851232.28024137 -359849.74115121365 0 -359849.74115121365 -98863432.030048609 0 0 0 -28704269.912432551 15961011.64794755 574014.19810950756 0 574014.19810950756 -98133583.347293854 0 0 0 -28760400.094771147 16226571.690021992 -2345248.3629027605 0 -2345248.3629027605 -96771936.548399687 0 0 0 -28190877.700432181 22827054.254915237 513779.80208742619 0 513779.80208742619 -100896143.26626134 0 0 0 -27324181.153970957 -16534694.421207234 4050270.0914609879 0 4050270.0914609879 -93069948.089945108 0 0 0 -38361624.8789033 14797520.516164184 1352819.4538931251 0 1352819.4538931251 -97232592.093101978 0 0 0 -28852275.051928163 13989350.567861497 -347393.00722315907 0 -347393.00722315907 -100272938.49513042 0 0 0 -30199255.77454412 12528182.510583639 -131779.51431022584 0 -131779.51431022584 -100934501.19330359 0 0 0 -30942211.538951874 22936959.415534496 728507.99855208397 0 728507.99855208397 -100069404.54461145 0 0 0 -26996355.795177221 13707280.966329381 -2207628.719874382 0 -2207628.719874382 -99092761.043851316 0 0 0 -29884918.027132824 13009810.572121695 1097930.4634712934 0 1097930.4634712934 -98377054.848260522 0 0 0 -29878535.496648714 -9121990.4464006573 7153434.282871481 0 7153434.282871481 -85997558.443880767 0 0 0 -33291842.111598477 20457541.913167596 -777886.17128938437 0 -777886.17128938437 -101632820.68717277 0 0 0 -28411347.570901632 22558785.506541729 -1140834.5283616483 0 -1140834.5283616483 -101493650.11617804 0 0 0 -27627202.613372803 21425574.147630274 1711670.533690691 0 1711670.533690691 -100273015.78880835 0 0 0 -27596604.574412525 15914015.735262424 1377870.3351588249 0 1377870.3351588249 -100356705.39622033 0 0 0 -29554941.381335229 8999823.8875793219 -1987284.1112039313 0 -1987284.1112039313 -98865280.266132236 0 0 0 -31452909.732493639 22764973.289995849 1029393.3154637814 0 1029393.3154637814 -100935364.51954556 0 0 0 -27359636.930342495 19033916.735782623 -2100908.2569732368 0 -2100908.2569732368 -99058732.104717731 0 0 0 -28008685.379127264 16018218.019418716 -981405.99542078376 0 -981405.99542078376 -100171845.55391502 0 0 0 -29453769.637073636 706552.2326021269 4995080.5790910721 0 4995080.5790910721 -94100240.968900591 0 0 0 -32687791.057704441 18318970.802865401 351859.16775107384 0 351859.16775107384 -101926427.28972518 0 0 0 -29262609.770400986 6195989.3807640672 1648439.5784622133 0 1648439.5784622133 -100859686.57954419 0 0 0 -33132294.019573033 19374170.899342775 -566136.34168943763 0 -566136.34168943763 -102358097.42745399 0 0 0 -29044374.284839034 22105518.314911008 1497810.7423251271 0 1497810.7423251271 -101125535.00074768 0 0 0 -27657005.840042949 20413471.440219313 -266982.10805571079 0 -266982.10805571079 -102076454.8097744 0 0 0 -28582044.179344147 22793969.120818138 -49032.36952537045 0 -49032.36952537045 -100095888.67648315 0 0 0 -27055671.84448266 2585484.6750770104 709299.55229437351 0 709299.55229437351 -94918134.984967366 0 0 0 -32316427.60846157 3290285.1493392657 -861412.36013281345 0 -861412.36013281345 -92678462.017343879 0 0 0 -31285861.903801613 -44005448.860210396 -1090544.2170567231 0 -1090544.2170567231 -81733737.080418095 0 0 0 -44008715.079219975 18187843.316886783 -2344529.7008882761 0 -2344529.7008882761 -99275688.458853126 0 0 0 -28380745.799687982 23468996.757286549 414703.76413059235 0 414703.76413059235 -101049808.76767254 0 0 0 -27153284.203634977 -1433924.2513762116 1806932.4431414381 0 1806932.4431414381 -94094068.162838757 0 0 0 -33434797.344975233 17235103.400649607 1304812.9764100313 0 1304812.9764100313 -99746446.490453243 0 0 0 -28878970.081431329 12058260.264549851 547712.96644207928 0 547712.96644207928 -97596551.947768331 0 0 0 -29938402.089126408 21803377.426089764 396859.54095108807 0 396859.54095108807 -101938251.40309954 0 0 0 -28047205.891953468 20290709.303160667 -86940.007295265794 0 -86940.007295265794 -102324629.57109427 0 0 0 -28711872.093776822 -41784483.555141822 -52827254.947819367 0 -52827254.947819367 -198137234.54658511 0 0 0 -83972601.335604414 -81790661.802918941 53917003.779949203 0 53917003.779949203 -152144094.9934935 0 0 0 -81877164.878744364 -41920575.331725396 53006114.487837583 0 53006114.487837583 -198086776.7461541 0 0 0 -84002573.227257848 -81663666.922547176 -53779965.240002297 0 -53779965.240002297 -151906649.23225778 0 0 0 -81749610.654181734 3274161.1054124832 161370.49103731191 0 161370.49103731191 -101210323.70038223 0 0 0 -34277656.908239365 2881926.7774841785 -4449.7839987277985 0 -4449.7839987277985 -99712620.872207642 0 0 0 -33890742.933153152 3200779.5133800507 -112549.4633692503 0 -112549.4633692503 -101031995.34241247 0 0 0 -34240925.540161371 2598785.5712615112 5173.6813197135925 0 5173.6813197135925 -99645180.4357021 0 0 0 -33966238.20255436 21612414.014398217 976040.15015006065 0 976040.15015006065 -101951450.88490009 0 0 0 -28118662.904675722 18910683.693335533 489816.41866287589 0 489816.41866287589 -101700505.25689876 0 0 0 -28976437.547247171 18495512.135732293 -334487.63848143816 0 -334487.63848143816 -101341539.10271788 0 0 0 -28996109.438444972 21980698.125580549 -404576.37493491173 0 -404576.37493491173 -100286318.47770882 0 0 0 -27406967.123245001 8544623.6018819809 1462953.9832229018 0 1462953.9832229018 -96509227.658995867 0 0 0 -30787611.419989824 8691284.5159199238 -1190838.2959681749 0 -1190838.2959681749 -91106611.042742491 0 0 0 -28845364.284387946 -35680262.720456481 -8467549.0177190639 0 -8467549.0177190639 -86795612.911608189 0 0 0 -42866556.471222639 21783090.958114296 -1352298.0362898111 0 -1352298.0362898111 -100591139.19371372 0 0 0 -27582816.88245973 20089855.696941853 1889083.2573821396 0 1889083.2573821396 -99467304.177120209 0 0 0 -27782106.968062401 12021165.042074084 3484727.54433259 0 3484727.54433259 -100478874.54262555 0 0 0 -30960198.325193048 5191161.2256064042 -5807454.3528758585 0 -5807454.3528758585 -96747578.203377709 0 0 0 -32044745.94221995 18426764.44879109 316423.57662385702 0 316423.57662385702 -101735962.20153365 0 0 0 -29158219.213459905 13820853.063619435 -940159.62615375221 0 -940159.62615375221 -100324755.28083003 0 0 0 -30276365.776023746 20622770.424835086 -415194.58887827396 0 -415194.58887827396 -99728692.987268686 0 0 0 -27687072.896851659 2851075.0413513184 477536.51642799377 0 477536.51642799377 -100379063.11181808 0 0 0 -34134795.824663281 20313296.107307911 -443767.51753860712 0 -443767.51753860712 -100378470.04199457 0 0 0 -28022810.877140284 6430149.1467480659 886583.71612358093 0 886583.71612358093 -99424096.178819656 0 0 0 -32547881.461225033 1785677.0375552177 -1092194.831913203 0 -1092194.831913203 -92862493.862505436 0 0 0 -31876885.888732553 -31550453.299167745 -16691510.573526803 0 -16691510.573526803 -77654534.02589348 0 0 0 -38221745.563771434 6142889.0965176821 429317.41160035133 0 429317.41160035133 -93549905.119719863 0 0 0 -30592455.608120918 -29870946.792854004 -14402712.49253552 0 -14402712.49253552 -82506046.501850903 0 0 0 -39331947.653146707 12675125.563849688 -504265.58509770036 0 -504265.58509770036 -98509413.905809402 0 0 0 -30042000.919686079 18366787.059528589 550462.23605966568 0 550462.23605966568 -98864431.269577742 0 0 0 -28174175.473517179 18667600.775274992 -1875129.4009155631 0 -1875129.4009155631 -99762166.261685967 0 0 0 -28383097.920244098 22496265.4555161 1140401.0756513476 0 1140401.0756513476 -100048611.61799526 0 0 0 -27143321.156867743 597125.09670236707 7623376.46949175 0 7623376.46949175 -95841751.091521859 0 0 0 -33335619.098186821 14136875.960454345 -1614176.6213484704 0 -1614176.6213484704 -98812192.625839114 0 0 0 -29636360.832884729 -22374832.950231947 22636424.08191707 0 22636424.08191707 -100444250.47971098 0 0 0 -42986679.200480051 4768385.9190455079 -8477529.5313119739 0 -8477529.5313119739 -99999778.65186882 0 0 0 -33330987.456488192 14924012.275650263 -670609.04658421874 0 -670609.04658421874 -100918005.11299634 0 0 0 -30097897.493071198 22918825.181078196 255338.86473011971 0 255338.86473011971 -100623469.18400884 0 0 0 -27196625.401025891 13387959.019200325 2476335.301177904 0 2476335.301177904 -95405067.179338932 0 0 0 -28705987.856048465 13907628.426081061 -2093493.0299926996 0 -2093493.0299926996 -95706415.230119944 0 0 0 -28629575.381413579 -23004297.674054451 3496470.814304471 0 3496470.814304471 -90612553.079630762 0 0 0 -39765897.76378981 23687323.574932575 81050.508557140827 0 81050.508557140827 -101193117.68886805 0 0 0 -27127027.93987751 23303136.937738657 254563.71500205994 0 254563.71500205994 -101687151.66724944 0 0 0 -27434405.155328631 19223034.291371584 1403332.9390521944 0 1403332.9390521944 -100936533.08880615 0 0 0 -28599724.579102039 18250832.256816983 965114.17372685671 0 965114.17372685671 -100278446.72286153 0 0 0 -28709665.063115597 19381299.245723724 -1621042.2421377897 0 -1621042.2421377897 -101161333.71706581 0 0 0 -28623012.064969659 19753042.300453782 -1587204.8037576973 0 -1587204.8037576973 -100093172.91162181 0 0 0 -28119045.713908792 21765777.256019115 -682241.9998472333 0 -682241.9998472333 -99969265.624226093 0 0 0 -27371220.928872347 11987323.190064549 1570434.1131239533 0 1570434.1131239533 -97130227.569192767 0 0 0 -29800016.532694817 10968901.497023761 -834110.73869135976 0 -834110.73869135976 -94549755.574846983 0 0 0 -29253298.927238047 -26204376.436032787 -12279232.444452923 0 -12279232.444452923 -90505365.353124112 0 0 0 -40848409.626204923 22017212.344738245 -792434.76151204109 0 -792434.76151204109 -100516273.00647688 0 0 0 -27474671.231609106 14885996.715105057 2063087.8371146917 0 2063087.8371146917 -97043136.518240452 0 0 0 -28754998.931097507 12382515.930917621 238783.42129740119 0 238783.42129740119 -97070219.533731937 0 0 0 -29640696.260985017 -18729400.787526071 -8687311.2604911551 0 -8687311.2604911551 -91978127.191612363 0 0 0 -38747634.792698443 17516649.353453398 318569.3530254364 0 318569.3530254364 -101699358.41431618 0 0 0 -29463948.171301961 13606329.519257307 -1703824.6348628402 0 -1703824.6348628402 -97686537.127787828 0 0 0 -29428072.662985563 21780175.296792269 835117.72231566906 0 835117.72231566906 -99670307.031860828 0 0 0 -27261546.107273817 -18572077.649222687 12299601.309692413 0 12299601.309692413 -91024494.443816662 0 0 0 -38358800.232563779 11611326.212559819 -452066.32234579325 0 -452066.32234579325 -96870208.942355752 0 0 0 -29840608.955428541 18003261.226712227 -702494.75194633007 0 -702494.75194633007 -100129679.38632631 0 0 0 -28744246.355864763 14667563.568214417 762220.79685330391 0 762220.79685330391 -98716416.25817275 0 0 0 -29417098.441485643 22508514.357719302 -1239650.7225310206 0 -1239650.7225310206 -100157779.37663078 0 0 0 -27177242.756619096 19581805.028506994 2067851.4699770808 0 2067851.4699770808 -100281085.69247961 0 0 0 -28244748.232390404 13394498.353640795 1701413.9952942133 0 1701413.9952942133 -99543548.031734943 0 0 0 -30152167.387332976 4081064.8880749941 -5258867.4047590494 0 -5258867.4047590494 -97052211.565722585 0 0 0 -32539901.337176681 23039014.617333531 325720.90528357029 0 325720.90528357029 -102119431.02781737 0 0 0 -27678145.743669152 20335493.910584927 -307092.14039266109 0 -307092.14039266109 -100069713.2886858 0 0 0 -27906976.782335281 2625455.2366210492 393064.22617840767 0 393064.22617840767 -98711643.419715583 0 0 0 -33630165.864083022 2612228.3876741389 -893021.85542106628 0 -893021.85542106628 -84958138.4246234 0 0 0 -28821068.512932256 -44612944.36512956 -15120058.453862712 0 -15120058.453862712 -82846001.460103035 0 0 0 -44610631.038831413 10012794.670945883 187067.27303737402 0 187067.27303737402 -101231123.8089745 0 0 0 -31926415.198310137 22752199.74298048 56989.29518532753 0 56989.29518532753 -100098023.63360596 0 0 0 -27071038.361719131 2267282.7606300116 847892.05881839991 0 847892.05881839991 -92259184.90241766 0 0 0 -31497165.749625683 2063599.2576255079 -802789.94568502903 0 -802789.94568502903 -94641226.834350482 0 0 0 -32402169.651853632 -43485238.753499202 2330568.3395404117 0 2330568.3395404117 -80753771.51302579 0 0 0 -43483653.593283743 6509077.0287508667 7973168.2495206594 0 7973168.2495206594 -99057601.203938007 0 0 0 -32391983.461315542 -22126568.744015902 -22515455.529735185 0 -22515455.529735185 -100666046.34978288 0 0 0 -42977415.282829583 11319675.860376239 -334266.39423343539 0 -334266.39423343539 -98062720.888006926 0 0 0 -30360065.759670734 19079771.297709659 -466036.02768224478 0 -466036.02768224478 -101713548.24478701 0 0 0 -28921821.931477115 17397238.810159922 32219.30067461729 0 32219.30067461729 -101721039.26965535 0 0 0 -29513330.160823464 1436934.9344699383 1277895.1841461509 0 1277895.1841461509 -95632412.666875601 0 0 0 -32968417.206341982 22829485.807618856 111721.89114820957 0 111721.89114820957 -99887366.667684793 0 0 0 -26970258.301023006 -33275234.570577104 4026738.2681852039 0 4026738.2681852039 -76555418.744629338 0 0 0 -38440728.660322249 2726869.6286594868 -810067.6453910321 0 -810067.6453910321 -96761694.397601604 0 0 0 -32912188.66912961 23084385.048278809 -825012.16352111101 0 -825012.16352111101 -101200417.48731852 0 0 0 -27340611.353663921 21161866.227025628 1458226.6848003864 0 1458226.6848003864 -100740110.5185473 0 0 0 -27852385.502032399 15618224.702316761 313189.1034578681 0 313189.1034578681 -100919257.10786808 0 0 0 -29855361.341942906 6991175.3586077094 -2377182.566934526 0 -2377182.566934526 -99959366.640455365 0 0 0 -32538866.948646784 21797724.483982146 1259466.6395828128 0 1259466.6395828128 -101617060.19395971 0 0 0 -27936767.498492181 21475369.28278172 519716.86959177256 0 519716.86959177256 -101859483.72175717 0 0 0 -28134440.053641438 21962355.227387905 -1333838.7356953621 0 -1333838.7356953621 -99851965.708889008 0 0 0 -27261363.668525457 18871529.957277536 1745705.8705143929 0 1745705.8705143929 -99335030.572522163 0 0 0 -28162225.215335608 11935597.122701824 3136292.5670399964 0 3136292.5670399964 -99636841.17541039 0 0 0 -30695435.418448031 -314224.85435056686 -8069906.4652722627 0 -8069906.4652722627 -96401344.372270346 0 0 0 -33850449.229317307 14203801.011824012 -1294885.1035623252 0 -1294885.1035623252 -101261468.33498764 0 0 0 -30470183.563107252 21087749.944775701 -723294.16131865978 0 -723294.16131865978 -100300009.66364574 0 0 0 -27724290.901604533 10680906.90525341 1260461.00725694 0 1260461.00725694 -99340669.304328442 0 0 0 -31030916.839675903 9423120.5819509029 435411.75850367546 0 435411.75850367546 -98786216.631311178 0 0 0 -31277083.617276073 -15838187.577932548 -13347546.542269632 0 -13347546.542269632 -84576838.709588736 0 0 0 -35145259.200632438 22765672.950549603 -270789.50507050753 0 -270789.50507050753 -100554426.76991367 0 0 0 -27226063.83677721 11558044.945174456 2329442.0929582715 0 2329442.0929582715 -96015686.759933233 0 0 0 -29560174.635165572 -26762663.845656216 -2305104.4898031168 0 -2305104.4898031168 -88141643.774504751 0 0 0 -40216507.667056352 16822231.811888576 -165326.48347869515 0 -165326.48347869515 -101124496.69732428 0 0 0 -29505792.709902525 1743694.1534254551 -1045060.2550389171 0 -1045060.2550389171 -97037916.253140211 0 0 0 -33352977.734900117 -32009152.50279554 193139.60456301458 0 193139.60456301458 -75048787.012267023 0 0 0 -37470278.830271892 6877860.7859522104 -1568381.5463578105 0 -1568381.5463578105 -94093889.265905619 0 0 0 -30525609.967983842 -35817847.66415152 816039.0870975703 0 816039.0870975703 -83263859.271198273 0 0 0 -41678597.427372456 2305503.5703446865 597909.69380640984 0 597909.69380640984 -95967524.349972248 0 0 0 -32781707.272869587 22922783.280535936 12522.105257630348 0 12522.105257630348 -99959013.923924923 0 0 0 -26962680.72518611 22821942.569700956 18715.400597214699 0 18715.400597214699 -100164059.41211367 0 0 0 -27069740.894844294 5903127.3630928993 1428877.608676374 0 1428877.608676374 -94644308.773249865 0 0 0 -31059413.493554831 23026050.686258078 -251573.67857289314 0 -251573.67857289314 -100059939.12589264 0 0 0 -26961860.953871965 8420578.4924851656 1693097.1464987397 0 1693097.1464987397 -97097607.060509205 0 0 0 -31036959.998808503 -23698785.956924334 -3820751.8630263992 0 -3820751.8630263992 -79689698.455548599 0 0 0 -36185969.544365525 21937321.800927639 -1112183.087861836 0 -1112183.087861836 -99762767.892885685 0 0 0 -27238906.132184982 17676197.030433774 1718164.61177665 0 1718164.61177665 -98574769.261097193 0 0 0 -28314500.280732512 11853732.278133631 2155775.263977617 0 2155775.263977617 -98576973.705656886 0 0 0 -30353134.499633074 -7439550.4933249354 -10572746.739291877 0 -10572746.739291877 -97181953.123188376 0 0 0 -36617526.265779644 18010210.32509017 155997.45071342587 0 155997.45071342587 -101648819.95214319 0 0 0 -29273513.36946857 23309027.716540337 405396.91833519936 0 405396.91833519936 -101396455.23569441 0 0 0 -27330599.631704092 19419095.072724581 -1894220.71215415 0 -1894220.71215415 -99284048.681202888 0 0 0 -27952733.762967467 17405082.273765326 1036795.3712005615 0 1036795.3712005615 -99334266.46832037 0 0 0 -28675214.46809423 -2864804.4190943837 2383299.6350638121 0 2383299.6350638121 -98780930.520582974 0 0 0 -35576007.228887081 21113788.783616662 -280769.84855854511 0 -280769.84855854511 -100133079.68618822 0 0 0 -27656751.81589973 2186068.2313222885 602770.17654845119 0 602770.17654845119 -100538841.30123854 0 0 0 -34423470.57447052 1905116.9153618813 -341308.70087045431 0 -341308.70087045431 -93301091.481701612 0 0 0 -31988591.098218918 -30368035.352257162 -12472998.663668923 0 -12472998.663668923 -75163706.740357786 0 0 0 -36936109.732415229 21514738.567106239 -499286.70805311203 0 -499286.70805311203 -99736684.693352833 0 0 0 -27377681.144186266 7276291.468239069 908654.40597840212 0 908654.40597840212 -97847866.551181793 0 0 0 -31700051.279030085 7226545.7965503931 -1537214.7859019358 0 -1537214.7859019358 -91907415.746471882 0 0 0 -29638304.482472539 -33599023.230466202 -13702888.969990198 0 -13702888.969990198 -84439506.984244347 0 0 0 -41313485.575148687 8172097.616971612 -1950420.637865901 0 -1950420.637865901 -96159371.89466846 0 0 0 -30795545.997193933 11663327.456449628 -1642395.1076261997 0 -1642395.1076261997 -94739721.578379869 0 0 0 -29076737.94267571 22550271.720884442 225097.31110215187 0 225097.31110215187 -101912804.26826882 0 0 0 -27776886.391584516 23236268.997667193 -501463.57389074564 0 -501463.57389074564 -101299642.22546434 0 0 0 -27322180.629728913 18582148.290629029 2237227.9445230961 0 2237227.9445230961 -99002742.272645235 0 0 0 -28147207.893705606 16886761.418033719 -966027.72351849079 0 -966027.72351849079 -100075430.17253184 0 0 0 -29116034.064074278 -2203136.5202113688 -2129825.6072332561 0 -2129825.6072332561 -95283357.761737466 0 0 0 -34120272.998682052 21408124.953691125 -556681.32074588537 0 -556681.32074588537 -101970429.3067205 0 0 0 -28196806.523560166 22216399.357399344 -732050.71518003941 0 -732050.71518003941 -100126838.35385704 0 0 0 -27268653.64876008 11657944.86923635 1673496.4069228768 0 1673496.4069228768 -98837913.593351603 0 0 0 -30512989.053440213 11228087.555870056 -791108.55804350972 0 -791108.55804350972 -97850703.519598365 0 0 0 -30317915.58730495 -14502538.067914754 -10431661.079232968 0 -10431661.079232968 -84624572.454223603 0 0 0 -34694488.682748415 22274802.083580375 317437.78979357332 0 317437.78979357332 -102361561.76239848 0 0 0 -28030365.887586236 11266768.849114895 -1514839.5018850565 0 -1514839.5018850565 -98728108.395070076 0 0 0 -30611468.841084242 -17997772.750473619 11890027.467153512 0 11890027.467153512 -86020244.366851807 0 0 0 -36406305.991063893 21211566.597670317 666329.8718444109 0 666329.8718444109 -100477002.15633202 0 0 0 -27742902.445531845 10577673.591301799 -405950.9708840251 0 -405950.9708840251 -97253806.56826067 0 0 0 -30336646.541935563 22329009.849963427 -545218.51025511324 0 -545218.51025511324 -99830899.849955082 0 0 0 -27125661.499997139 8657865.7118993104 1470849.2977926135 0 1470849.2977926135 -98447570.179478437 0 0 0 -31426396.563652486 8385348.8879172355 -1385381.8472054601 0 -1385381.8472054601 -95628908.498175889 0 0 0 -30535245.863590524 -23381834.638360113 -9910350.2838042639 0 -9910350.2838042639 -82514344.799025595 0 0 0 -37063662.803084999 21357031.893805742 -516833.99944019318 0 -516833.99944019318 -100321818.31053448 0 0 0 -27637675.245855093 8609415.0726741552 1355513.1455336809 0 1355513.1455336809 -98652385.268835545 0 0 0 -31515039.568656564 8595140.8802794814 -388643.03898644447 0 -388643.03898644447 -94385913.012979031 0 0 0 -30026770.246444881 -26786032.864566743 -10827678.74248556 0 -10827678.74248556 -84745037.11640811 0 0 0 -39035874.493341208 23476725.529752254 -455931.03154194355 0 -455931.03154194355 -100632726.99738693 0 0 0 -27004600.513672113 18057098.58617568 2108574.9249747992 0 2108574.9249747992 -98798708.032346964 0 0 0 -28259563.306159854 16953084.710642993 -1569420.9705248475 0 -1569420.9705248475 -98617452.887342572 0 0 0 -28582528.861844838 -5381764.4641469717 -3523685.6973173916 0 -3523685.6973173916 -94449495.972373247 0 0 0 -34940941.152782083 23250954.522990942 484808.48145031929 0 484808.48145031929 -101772793.39526677 0 0 0 -27482643.605296612 23600705.475450635 501469.41250145435 0 501469.41250145435 -101124524.50599694 0 0 0 -27133336.660691142 20842619.086244941 -1302332.5176774263 0 -1302332.5176774263 -100619556.96696115 0 0 0 -27921928.258250594 17416195.65288353 250399.25587165356 0 250399.25587165356 -101171347.7546401 0 0 0 -29314303.235614777 20043978.743699193 -1805174.2590558529 0 -1805174.2590558529 -100941921.94438601 0 0 0 -28314280.12024045 18427998.194249153 782589.91029590368 0 782589.91029590368 -100791818.93072248 0 0 0 -28827337.257765532 15894545.266460948 -446371.88016974926 0 -446371.88016974926 -101532585.69805191 0 0 0 -29973314.151056774 14942020.678490862 251106.97926694155 0 251106.97926694155 -100778484.5952152 0 0 0 -30042762.370853439 8791394.4869841039 1477779.5107873976 0 1477779.5107873976 -96071818.462557018 0 0 0 -30548148.391450495 6386934.4692896605 516045.33122847788 0 516045.33122847788 -99988500.287920594 0 0 0 -32760548.03652072 17518363.974037766 -395803.6956384331 0 -395803.6956384331 -101421536.43670106 0 0 0 -29366110.361932158 16725116.079950809 -2959.6087328344584 0 -2959.6087328344584 -101662551.52405596 0 0 0 -29728102.405436754 8345666.5381905437 -1379715.0343585014 0 -1379715.0343585014 -93374449.261826277 0 0 0 -29760073.953272521 -33286714.967439368 -1409974.4251860958 0 -1409974.4251860958 -84244680.535989463 0 0 0 -41135988.426200092 7121080.1177212596 -1951826.6468684673 0 -1951826.6468684673 -96630347.978797555 0 0 0 -31328243.751376927 -26447318.651900768 -1088004.8699828228 0 -1088004.8699828228 -80588899.661324784 0 0 0 -37462676.409628943 22659204.976665497 -152311.82774317265 0 -152311.82774317265 -100307407.0679698 0 0 0 -27176870.731956482 7489763.8695345521 1777898.8820838332 0 1777898.8820838332 -96251790.843117833 0 0 0 -31066709.440754116 23048548.893111706 -36838.222956836224 0 -36838.222956836224 -100029278.47285748 0 0 0 -26943255.352910995 7793608.1804369092 1440994.4429764748 0 1440994.4429764748 -96129893.454974294 0 0 0 -30917699.846088111 21888522.805540323 -1356146.307677865 0 -1356146.307677865 -99897940.374598026 0 0 0 -27303296.14917016 21025836.430253744 1638477.2214869261 0 1638477.2214869261 -100030429.16295815 0 0 0 -27651607.456446648 8752881.8350844383 3838688.7995460108 0 3838688.7995460108 -99993358.386359692 0 0 0 -31934166.792946339 4235316.141149804 -5683064.6361009479 0 -5683064.6361009479 -101314800.57190076 0 0 0 -33977819.550762847 8616993.9222102165 84313.698547452688 0 84313.698547452688 -95805399.122753561 0 0 0 -30515941.820190072 23370503.681260586 182866.3566981554 0 182866.3566981554 -101471097.48757076 0 0 0 -27335207.832208633 23632506.321794748 297935.36769920564 0 297935.36769920564 -101075084.71099567 0 0 0 -27104902.436220169 19094202.389920525 -1940096.3760778904 0 -1940096.3760778904 -100462853.88304181 0 0 0 -28479028.022592373 18689383.96400851 -1959455.5732206106 0 -1959455.5732206106 -99222007.45539856 0 0 0 -28186418.221986473 18353001.709289432 1375242.3412827253 0 1375242.3412827253 -99560945.121428847 0 0 0 -28422780.194248796 18206940.680975255 1448009.612408042 0 1448009.612408042 -100300101.90788673 0 0 0 -28732606.429419223 4340520.9608403444 1401105.6761089894 0 1401105.6761089894 -95124436.274208307 0 0 0 -31774370.359678745 -2319681.1625957489 332322.62481933832 0 332322.62481933832 -97736001.876555324 0 0 0 -35019489.063702881 18959897.129468143 -706264.56847786903 0 -706264.56847786903 -101314954.14068687 0 0 0 -28824269.953926504 23610080.143420935 159562.89918226004 0 159562.89918226004 -100981825.33062077 0 0 0 -27080110.815520048 17528094.379503369 1976977.6145483851 0 1976977.6145483851 -99163310.373009205 0 0 0 -28572325.597726941 18012308.057361126 -1993236.2851575017 0 -1993236.2851575017 -99556415.150967836 0 0 0 -28540437.482762575 -2287350.8664694428 1480818.7762675732 0 1480818.7762675732 -94588607.27186799 0 0 0 -33906585.348418117 2337871.5050735772 833084.66937056184 0 833084.66937056184 -98824336.614242852 0 0 0 -33770262.7882092 22178080.052803755 -1239392.7145709395 0 -1239392.7145709395 -101071987.64679933 0 0 0 -27612867.657898426 21254987.839152455 1909018.8947091699 0 1909018.8947091699 -99435084.11130476 0 0 0 -27363033.695253253 13757368.768581808 2581160.5522762835 0 2581160.5522762835 -100849549.17826009 0 0 0 -30482263.143387496 6115427.0081475377 -3622000.0802218467 0 -3622000.0802218467 -98821473.04670763 0 0 0 -32447116.113496006 18730279.388299584 -257244.91449958086 0 -257244.91449958086 -101643006.60122371 0 0 0 -29019454.524523497 1654275.2297534943 -539616.74189913273 0 -539616.74189913273 -100823982.13038063 0 0 0 -34709397.415219545 -29427140.665085718 12703424.427315764 0 12703424.427315764 -73763787.394008383 0 0 0 -36116824.820682928 21379044.926208496 269150.94572710991 0 269150.94572710991 -99976146.356709957 0 0 0 -27508985.500675678 1278930.7368404865 716586.49981856346 0 716586.49981856346 -93607055.840884447 0 0 0 -32314843.786415339 21542101.60303545 -1227440.6931958199 0 -1227440.6931958199 -100747146.53459406 0 0 0 -27721765.726045609 18195641.738945961 1896108.9446099997 0 1896108.9446099997 -99076645.311981678 0 0 0 -28308351.250562668 12897074.500023663 2776459.5138159692 0 2776459.5138159692 -100368372.58108425 0 0 0 -30614954.328371108 217360.24944132566 -8068533.4905289263 0 -8068533.4905289263 -93307273.594535708 0 0 0 -32581469.670782894 23397301.332163811 385975.78603733331 0 385975.78603733331 -101470137.03334618 0 0 0 -27325492.49541378 19085237.618588634 746500.06280761957 0 746500.06280761957 -101096383.28577292 0 0 0 -28703900.9835146 15970336.397540152 -16454.207772046328 0 -16454.207772046328 -101361046.95197606 0 0 0 -29886748.694052458 21875305.866089821 1028856.8715331554 0 1028856.8715331554 -101363625.23771763 0 0 0 -27820911.780069828 21984233.677747965 -603784.89460277557 0 -603784.89460277557 -100443681.04297328 0 0 0 -27460806.577829123 12744659.256796837 1856651.6531153619 0 1856651.6531153619 -96417321.359081745 0 0 0 -29285431.735799551 11977266.843211174 -974754.37017914653 0 -974754.37017914653 -93997960.056449413 0 0 0 -28707242.624633431 -27774367.435955733 -8998447.8283019215 0 -8998447.8283019215 -91406846.576911852 0 0 0 -41713424.904503644 22143263.844602823 1043546.9923090935 0 1043546.9923090935 -101944101.97288322 0 0 0 -27930293.344897985 
</DataArray>
</CellData>
</Piece>
</UnstructuredGrid>
</VTKFile>
