<?xml version="1.0"?>
<VTKFile type="UnstructuredGrid" version="0.1" byte_order="LittleEndian">
<UnstructuredGrid>
<Piece NumberOfPoints="84" NumberOfCells="28">
<Points>
<DataArray type="Float64" NumberOfComponents="3" format="ascii">
0 1 0 0.29166666666684449 0.7083333333334445 0 0.33333333333472032 1 0 0 0 0 0.29166666666652658 0.2916666666668038 0 0 0.33333333333472032 0 0 1 0 0 0.66666666666759111 0 0.29166666666684449 0.7083333333334445 0 0 0 0 0.33333333333250248 0 0 0.29166666666652658 0.2916666666668038 0 1 1 0 0.66666666666759111 1 0 0.70833333333346027 0.70833333333323512 0 1 1 0 0.70833333333346027 0.70833333333323512 0 1 0.66666666666578889 0 1 0 0 1 0.33333333333250248 0 0.70833333333327586 0.2916666666665107 0 1 0 0 0.70833333333327586 0.2916666666665107 0 0.66666666666578889 0 0 0.50000000000004996 0.49999999999997519 0 0.29166666666652658 0.2916666666668038 0 0.49999999999981742 0.1726190476194705 0 0.50000000000004996 0.49999999999997519 0 0.29166666666684449 0.7083333333334445 0 0.17261904761971569 0.50000000000021494 0 0.50000000000004996 0.49999999999997519 0 0.17261904761971569 0.50000000000021494 0 0.29166666666652658 0.2916666666668038 0 0.50000000000004996 0.49999999999997519 0 0.50000000000021227 0.82738095238030207 0 0.29166666666684449 0.7083333333334445 0 0.50000000000004996 0.49999999999997519 0 0.49999999999981742 0.1726190476194705 0 0.70833333333327586 0.2916666666665107 0 0.50000000000004996 0.49999999999997519 0 0.82738095238054699 0.49999999999982031 0 0.70833333333346027 0.70833333333323512 0 0.50000000000004996 0.49999999999997519 0 0.70833333333327586 0.2916666666665107 0 0.82738095238054699 0.49999999999982031 0 0.50000000000004996 0.49999999999997519 0 0.70833333333346027 0.70833333333323512 0 0.50000000000021227 0.82738095238030207 0 0.33333333333250248 0 0 0.66666666666578889 0 0 0.49999999999981742 0.1726190476194705 0 1 0.33333333333250248 0 1 0.66666666666578889 0 0.82738095238054699 0.49999999999982031 0 0 0.66666666666759111 0 0 0.33333333333472032 0 0.17261904761971569 0.50000000000021494 0 0.66666666666759111 1 0 0.33333333333472032 1 0 0.50000000000021227 0.82738095238030207 0 0 0.66666666666759111 0 0.17261904761971569 0.50000000000021494 0 0.29166666666684449 0.7083333333334445 0 0.66666666666759111 1 0 0.50000000000021227 0.82738095238030207 0 0.70833333333346027 0.70833333333323512 0 0.33333333333250248 0 0 0.49999999999981742 0.1726190476194705 0 0.29166666666652658 0.2916666666668038 0 1 0.33333333333250248 0 0.82738095238054699 0.49999999999982031 0 0.70833333333327586 0.2916666666665107 0 0 0.33333333333472032 0 0.29166666666652658 0.2916666666668038 0 0.17261904761971569 0.50000000000021494 0 0.33333333333472032 1 0 0.29166666666684449 0.7083333333334445 0 0.50000000000021227 0.82738095238030207 0 0.66666666666578889 0 0 0.70833333333327586 0.2916666666665107 0 0.49999999999981742 0.1726190476194705 0 1 0.66666666666578889 0 0.70833333333346027 0.70833333333323512 0 0.82738095238054699 0.49999999999982031 0 
</DataArray>
</Points>
<Cells>
<DataArray type="UInt32" Name="connectivity" format="ascii">
0 1 2 3 4 5 6 7 8 9 10 11 12 13 14 15 16 17 18 19 20 21 22 23 24 25 26 27 28 29 30 31 32 33 34 35 36 37 38 39 40 41 42 43 44 45 46 47 48 49 50 51 52 53 54 55 56 57 58 59 60 61 62 63 64 65 66 67 68 69 70 71 72 73 74 75 76 77 78 79 80 81 82 83 
</DataArray>
<DataArray type="UInt32" Name="offsets" format="ascii">
3 6 9 12 15 18 21 24 27 30 33 36 39 42 45 48 51 54 57 60 63 66 69 72 75 78 81 84 
</DataArray>
<DataArray type="UInt32" Name="types" format="ascii">
5 5 5 5 5 5 5 5 5 5 5 5 5 5 5 5 5 5 5 5 5 5 5 5 5 5 5 5 
</DataArray>
</Cells>
<PointData Scalars="" Vectors="displacement," Tensors="">
<DataArray type="Float64" Name="displacement" NumberOfComponents="3" format="ascii">
2.9959847398212859e-08 -0.96015023831976309 0 0.070050552340440622 -0.68020481227459839 0 0.080071037017714786 -0.96016751658958144 0 -7.6961285774706916e-09 -0.00030000836618349416 0 0.070043622263916305 -0.28026176603215147 0 -3.6928139602112425e-09 -0.32025308242833889 0 2.9959847398212859e-08 -0.96015023831976309 0 -7.4390455642429716e-09 -0.64020326278447071 0 0.070050552340440622 -0.68020481227459839 0 -7.6961285774706916e-09 -0.00030000836618349416 0 0.080048738859870724 -0.00030000804084766064 0 0.070043622263916319 -0.28026176603215147 0 0.24013886169401921 -0.96025191513293251 0 0.16012292127752237 -0.96021089671349213 0 0.17010077846717161 -0.68023685419285451 0 0.24013886169401921 -0.96025191513293251 0 0.17010077846717161 -0.68023685419285451 0 0.24010757562207879 -0.64026381301121715 0 0.24009554359642762 -0.00029998475939541173 0 0.24009573170327447 -0.32027849211512005 0 0.17008836427337179 -0.28027422912409256 0 0.24009554359642762 -0.00029998475939541173 0 0.17008836427337179 -0.28027422912409256 0 0.16008369177802775 -0.00029999539636298855 0 0.12007314276328336 -0.48024324997687778 0 0.070043622263916319 -0.28026176603215142 0 0.12006866173998784 -0.16599493803483409 0 0.12007314276328336 -0.48024324997687778 0 0.070050552340440622 -0.68020481227459839 0 0.041456472842472489 -0.48023035447353057 0 0.12007314276328336 -0.48024324997687778 0 0.041456472842472489 -0.48023035447353057 0 0.070043622263916319 -0.28026176603215147 0 0.12007314276328336 -0.48024324997687778 0 0.12008584983331431 -0.79449199114055979 0 0.070050552340440622 -0.68020481227459839 0 0.12007314276328336 -0.48024324997687778 0 0.12006866173998784 -0.16599493803483409 0 0.17008836427337179 -0.28027422912409256 0 0.12007314276328336 -0.48024324997687778 0 0.19866986929618596 -0.48026175031635077 0 0.17010077846717161 -0.68023685419285451 0 0.12007314276328336 -0.48024324997687778 0 0.17008836427337179 -0.28027422912409256 0 0.19866986929618596 -0.48026175031635077 0 0.12007314276328336 -0.48024324997687778 0 0.17010077846717161 -0.68023685419285451 0 0.12008584983331433 -0.79449199114055979 0 0.080048738859870724 -0.000300008040847615 0 0.16008369177802775 -0.00029999539636298855 0 0.12006866173998784 -0.16599493803483409 0 0.24009573170327447 -0.32027849211512005 0 0.24010757562207879 -0.64026381301121715 0 0.19866986929618596 -0.48026175031635077 0 -7.4390455642429716e-09 -0.64020326278447071 0 -3.6928139602112425e-09 -0.32025308242833889 0 0.041456472842472489 -0.48023035447353057 0 0.16012292127752237 -0.96021089671349213 0 0.080071037017714786 -0.96016751658958144 0 0.12008584983331433 -0.79449199114055979 0 -7.4390455642429716e-09 -0.64020326278447071 0 0.041456472842472489 -0.48023035447353057 0 0.070050552340440622 -0.68020481227459839 0 0.16012292127752237 -0.96021089671349213 0 0.12008584983331433 -0.79449199114055979 0 0.17010077846717161 -0.68023685419285451 0 0.080048738859870724 -0.000300008040847615 0 0.12006866173998784 -0.16599493803483409 0 0.070043622263916319 -0.28026176603215147 0 0.24009573170327447 -0.32027849211512005 0 0.19866986929618596 -0.48026175031635077 0 0.17008836427337179 -0.28027422912409256 0 -3.6928139602112425e-09 -0.32025308242833889 0 0.070043622263916319 -0.28026176603215147 0 0.041456472842472489 -0.48023035447353057 0 0.080071037017714786 -0.96016751658958144 0 0.070050552340440622 -0.68020481227459839 0 0.12008584983331433 -0.79449199114055979 0 0.16008369177802775 -0.00029999539636298855 0 0.17008836427337179 -0.28027422912409256 0 0.12006866173998784 -0.16599493803483409 0 0.24010757562207879 -0.64026381301121715 0 0.17010077846717161 -0.68023685419285451 0 0.19866986929618596 -0.48026175031635077 0 
</DataArray>
</PointData>
<CellData Scalars="displacement_divergence," Vectors="" Tensors="stress,">
<DataArray type="Float64" Name="stress" NumberOfComponents="9" format="ascii">
0.00027426682857834006 -5.0138447129643993e-06 0 -5.0138447129643993e-06 -0.99979052090486453 0 0 0 -0.19990325081525717 0.00020530097665882874 -4.0205138787108297e-06 0 -4.0205138787108297e-06 -0.99980203119591071 0 0 0 -0.19991934604385037 0.00023677792778106842 -1.1635464077563995e-05 0 -1.1635464077563995e-05 -0.99977510406861614 0 0 0 -0.19990766522816708 0.00019890952018164487 1.3957258191442376e-06 0 1.3957258191442376e-06 -0.99981369387175922 0 0 0 -0.19992295687031553 7.2972986230879222e-05 -1.679393537314208e-05 0 -1.679393537314208e-05 -0.99990736326406138 0 0 0 -0.19996687805556601 5.0706952340440203e-05 2.7196124682271616e-06 0 2.7196124682271616e-06 -0.99995014238964242 0 0 0 -0.1999798870874604 4.5887361119413428e-05 -9.6928265985729567e-06 0 -9.6928265985729567e-06 -0.9999213636488522 0 0 0 -0.19997509525754656 6.4044101106543682e-05 4.5718931715016918e-06 0 4.5718931715016918e-06 -0.99989197132293861 0 0 0 -0.19996558544436641 0.00017396966328697694 -4.867751583259583e-06 0 -4.867751583259583e-06 -0.99983750012841199 0 0 0 -0.19993270609302496 0.00019385502888841222 -4.0134054425378096e-06 0 -4.0134054425378096e-06 -0.99980037887847417 0 0 0 -0.19992130476991715 0.00018917611129737333 -1.4951359858333658e-05 0 -1.4951359858333658e-05 -0.99981909454883811 0 0 0 -0.19992598368750819 0.00019498041408873415 -1.3646070280426414e-05 0 -1.3646070280426414e-05 -0.99983361314646724 0 0 0 -0.1999277265464757 0.00012812503011185931 -8.6521918879478577e-06 0 -8.6521918879478577e-06 -0.99984896128670542 0 0 0 -0.19994416725131872 0.00011008471820217469 -4.7188470322199879e-07 0 -4.7188470322199879e-07 -0.99988163518370721 0 0 0 -0.19995431009310105 0.00011146802033062952 -2.1791501368051414e-05 0 -2.1791501368051414e-05 -0.9998761019751925 0 0 0 -0.19995292679097237 0.00013563452854736813 -1.8092497563459986e-05 0 -1.8092497563459986e-05 -0.9998484496178528 0 0 0 -0.19994256301786112 0.00014764669027134136 5.9209594475284491e-06 0 5.9209594475284491e-06 -0.9998463247160182 0 0 0 -0.19993973560514938 3.2913565631790668e-05 -7.8901815836474043e-06 0 -7.8901815836474043e-06 -0.99994589940903622 0 0 0 -0.19998259716868089 0.00022114750303064978 -5.2712607898630637e-06 0 -5.2712607898630637e-06 -0.99978902673854209 0 0 0 -0.19991357584710223 0.0002004168267477624 -2.7361293321999334e-05 0 -2.7361293321999334e-05 -0.99984688594199156 0 0 0 -0.1999292938230488 0.00022893928108591588 -5.9701225013641945e-06 0 -5.9701225013641945e-06 -0.9998002587840662 0 0 0 -0.19991426390059597 0.00015976022137487167 -4.4284957607665376e-06 0 -4.4284957607665376e-06 -0.99988289656480811 0 0 0 -0.19994462726868656 0.00016902743450411539 -7.3063321373023626e-06 0 -7.3063321373023626e-06 -0.99982371355336153 0 0 0 -0.19993093722377148 4.2845065334695676e-05 4.8818294016150787e-06 0 4.8818294016150787e-06 -0.99991187524347325 0 0 0 -0.1999738060356277 0.00020838353827934419 8.067649094611884e-07 0 8.067649094611884e-07 -0.99979618252922586 0 0 0 -0.19991755979818931 0.00019541142167789349 -1.5457640966998198e-05 0 -1.5457640966998198e-05 -0.99980496925139128 0 0 0 -0.19992191156594263 0.00012873345417859644 -7.7764109615574561e-06 0 -7.7764109615574561e-06 -0.99987261028612984 0 0 0 -0.19994877536639025 5.0304952539770298e-05 -2.3057481469884733e-05 0 -2.3057481469884733e-05 -0.99991178668709502 0 0 0 -0.19997229634691105 
</DataArray>
<DataArray type="Float64" Name="displacement_divergence" format="ascii">
-0.7196517029349252 -0.71970964575786134 -0.71966759482140119 -0.71972264473313585 -0.71988076100003839 -0.71992759351485724 -0.7199103429271676 -0.71987610759971898 -0.71975774193488995 -0.71971669717170195 -0.71973354127502942 -0.71973981556731248 -0.71979900210474701 -0.71983551633516418 -0.71983053644750017 -0.7197932268642997 -0.71978304817853767 -0.71993734980725099 -0.71968887304956797 -0.71974545776297649 -0.71969135004214557 -0.71980065816727157 -0.71975137400557743 -0.71990570172825985 -0.71970321527348147 -0.71971888163739317 -0.71981559131900508 -0.71990026684887898 
</DataArray>
</CellData>
</Piece>
</UnstructuredGrid>
</VTKFile>
