<?xml version="1.0"?>
<VTKFile type="UnstructuredGrid" version="0.1" byte_order="LittleEndian">
<UnstructuredGrid>
<Piece NumberOfPoints="84" NumberOfCells="28">
<Points>
<DataArray type="Float64" NumberOfComponents="3" format="ascii">
0 1 0 0.29166666666684449 0.7083333333334445 0 0.33333333333472032 1 0 0 0 0 0.29166666666652658 0.2916666666668038 0 0 0.33333333333472032 0 0 1 0 0 0.66666666666759111 0 0.29166666666684449 0.7083333333334445 0 0 0 0 0.33333333333250248 0 0 0.29166666666652658 0.2916666666668038 0 1 1 0 0.66666666666759111 1 0 0.70833333333346027 0.70833333333323512 0 1 1 0 0.70833333333346027 0.70833333333323512 0 1 0.66666666666578889 0 1 0 0 1 0.33333333333250248 0 0.70833333333327586 0.2916666666665107 0 1 0 0 0.70833333333327586 0.2916666666665107 0 0.66666666666578889 0 0 0.50000000000004996 0.49999999999997519 0 0.29166666666652658 0.2916666666668038 0 0.49999999999981742 0.1726190476194705 0 0.50000000000004996 0.49999999999997519 0 0.29166666666684449 0.7083333333334445 0 0.17261904761971569 0.50000000000021494 0 0.50000000000004996 0.49999999999997519 0 0.17261904761971569 0.50000000000021494 0 0.29166666666652658 0.2916666666668038 0 0.50000000000004996 0.49999999999997519 0 0.50000000000021227 0.82738095238030207 0 0.29166666666684449 0.7083333333334445 0 0.50000000000004996 0.49999999999997519 0 0.49999999999981742 0.1726190476194705 0 0.70833333333327586 0.2916666666665107 0 0.50000000000004996 0.49999999999997519 0 0.82738095238054699 0.49999999999982031 0 0.70833333333346027 0.70833333333323512 0 0.50000000000004996 0.49999999999997519 0 0.70833333333327586 0.2916666666665107 0 0.82738095238054699 0.49999999999982031 0 0.50000000000004996 0.49999999999997519 0 0.70833333333346027 0.70833333333323512 0 0.50000000000021227 0.82738095238030207 0 0.33333333333250248 0 0 0.66666666666578889 0 0 0.49999999999981742 0.1726190476194705 0 1 0.33333333333250248 0 1 0.66666666666578889 0 0.82738095238054699 0.49999999999982031 0 0 0.66666666666759111 0 0 0.33333333333472032 0 0.17261904761971569 0.50000000000021494 0 0.66666666666759111 1 0 0.33333333333472032 1 0 0.50000000000021227 0.82738095238030207 0 0 0.66666666666759111 0 0.17261904761971569 0.50000000000021494 0 0.29166666666684449 0.7083333333334445 0 0.66666666666759111 1 0 0.50000000000021227 0.82738095238030207 0 0.70833333333346027 0.70833333333323512 0 0.33333333333250248 0 0 0.49999999999981742 0.1726190476194705 0 0.29166666666652658 0.2916666666668038 0 1 0.33333333333250248 0 0.82738095238054699 0.49999999999982031 0 0.70833333333327586 0.2916666666665107 0 0 0.33333333333472032 0 0.29166666666652658 0.2916666666668038 0 0.17261904761971569 0.50000000000021494 0 0.33333333333472032 1 0 0.29166666666684449 0.7083333333334445 0 0.50000000000021227 0.82738095238030207 0 0.66666666666578889 0 0 0.70833333333327586 0.2916666666665107 0 0.49999999999981742 0.1726190476194705 0 1 0.66666666666578889 0 0.70833333333346027 0.70833333333323512 0 0.82738095238054699 0.49999999999982031 0 
</DataArray>
</Points>
<Cells>
<DataArray type="UInt32" Name="connectivity" format="ascii">
0 1 2 3 4 5 6 7 8 9 10 11 12 13 14 15 16 17 18 19 20 21 22 23 24 25 26 27 28 29 30 31 32 33 34 35 36 37 38 39 40 41 42 43 44 45 46 47 48 49 50 51 52 53 54 55 56 57 58 59 60 61 62 63 64 65 66 67 68 69 70 71 72 73 74 75 76 77 78 79 80 81 82 83 
</DataArray>
<DataArray type="UInt32" Name="offsets" format="ascii">
3 6 9 12 15 18 21 24 27 30 33 36 39 42 45 48 51 54 57 60 63 66 69 72 75 78 81 84 
</DataArray>
<DataArray type="UInt32" Name="types" format="ascii">
5 5 5 5 5 5 5 5 5 5 5 5 5 5 5 5 5 5 5 5 5 5 5 5 5 5 5 5 
</DataArray>
</Cells>
<PointData Scalars="" Vectors="displacement," Tensors="">
<DataArray type="Float64" Name="displacement" NumberOfComponents="3" format="ascii">
1.0200978252527847e-06 -0.95520073495551894 0 0.071721206768826457 -0.67705856225067629 0 0.082418521050227206 -0.95578886375955485 0 -2.622609284337634e-07 -0.00030028488087505031 0 0.071485436475311914 -0.27899784880715084 0 -1.2585371942405087e-07 -0.31870215015729103 0 1.0200978252527847e-06 -0.95520073495551894 0 -2.5306472909877068e-07 -0.63700582931505989 0 0.071721206768826457 -0.67705856225067629 0 -2.622609284337634e-07 -0.00030028488087505031 0 0.081659742010845165 -0.00030027388724549836 0 0.071485436475311928 -0.27899784880715084 0 0.24472801955892626 -0.95866191412325241 0 0.16418514992404282 -0.95726555852403439 0 0.17343153632366101 -0.67814938106813893 0 0.24472801955892626 -0.95866191412325241 0 0.17343153632366101 -0.67814938106813893 0 0.24366309325271468 -0.63906711357234258 0 0.24325397097623064 -0.00029948055262392955 0 0.24326016465673683 -0.31956722893315859 0 0.17300925481770194 -0.2794221989290866 0 0.24325397097623064 -0.00029948055262392955 0 0.17300925481770194 -0.2794221989290866 0 0.16285020958063703 -0.0002998433960051146 0 0.12249062166267888 -0.47836726641020438 0 0.071485436475311928 -0.27899784880715078 0 0.12233824177238684 -0.16535531183436578 0 0.12249062166267888 -0.47836726641020438 0 0.071721206768826457 -0.67705856225067629 0 0.042378605620740639 -0.47792822684882336 0 0.12249062166267888 -0.47836726641020438 0 0.042378605620740639 -0.47792822684882336 0 0.071485436475311928 -0.27899784880715084 0 0.12249062166267888 -0.47836726641020438 0 0.12292301975602135 -0.79139408976269432 0 0.071721206768826457 -0.67705856225067629 0 0.12249062166267888 -0.47836726641020438 0 0.12233824177238684 -0.16535531183436578 0 0.17300925481770194 -0.2794221989290866 0 0.12249062166267888 -0.47836726641020438 0 0.20192365273467028 -0.47899710773075788 0 0.17343153632366101 -0.67814938106813893 0 0.12249062166267888 -0.47836726641020438 0 0.17300925481770194 -0.2794221989290866 0 0.20192365273467028 -0.47899710773075788 0 0.12249062166267888 -0.47836726641020438 0 0.17343153632366101 -0.67814938106813893 0 0.12292301975602136 -0.79139408976269432 0 0.081659742010845165 -0.00030027388724545288 0 0.16285020958063703 -0.0002998433960051146 0 0.12233824177238684 -0.16535531183436578 0 0.24326016465673683 -0.31956722893315859 0 0.24366309325271468 -0.63906711357234258 0 0.20192365273467028 -0.47899710773075788 0 -2.5306472909877068e-07 -0.63700582931505989 0 -1.2585371942405087e-07 -0.31870215015729103 0 0.042378605620740639 -0.47792822684882336 0 0.16418514992404282 -0.95726555852403439 0 0.082418521050227206 -0.95578886375955485 0 0.12292301975602136 -0.79139408976269432 0 -2.5306472909877068e-07 -0.63700582931505989 0 0.042378605620740639 -0.47792822684882336 0 0.071721206768826457 -0.67705856225067629 0 0.16418514992404282 -0.95726555852403439 0 0.12292301975602136 -0.79139408976269432 0 0.17343153632366101 -0.67814938106813893 0 0.081659742010845165 -0.00030027388724545288 0 0.12233824177238684 -0.16535531183436578 0 0.071485436475311928 -0.27899784880715084 0 0.24326016465673683 -0.31956722893315859 0 0.20192365273467028 -0.47899710773075788 0 0.17300925481770194 -0.2794221989290866 0 -1.2585371942405087e-07 -0.31870215015729103 0 0.071485436475311928 -0.27899784880715084 0 0.042378605620740639 -0.47792822684882336 0 0.082418521050227206 -0.95578886375955485 0 0.071721206768826457 -0.67705856225067629 0 0.12292301975602136 -0.79139408976269432 0 0.16285020958063703 -0.0002998433960051146 0 0.17300925481770194 -0.2794221989290866 0 0.12233824177238684 -0.16535531183436578 0 0.24366309325271468 -0.63906711357234258 0 0.17343153632366101 -0.67814938106813893 0 0.20192365273467028 -0.47899710773075788 0 
</DataArray>
</PointData>
<CellData Scalars="displacement_divergence," Vectors="" Tensors="stress,">
<DataArray type="Float64" Name="stress" NumberOfComponents="9" format="ascii">
0.0093375884987886293 -0.0001706943449069076 0 -0.0001706943449069076 -0.99286840790558317 0 0 0 -0.19670616388135898 0.0069911289563451828 -0.00013687493447467336 0 -0.00013687493447467336 -0.99325804674557372 0 0 0 -0.19725338355784569 0.00806158125390119 -0.00039607959141385596 0 -0.00039607959141385596 -0.99234368481571711 0 0 0 -0.19685642071236312 0.0067737537203327869 4.7435168172133827e-05 0 4.7435168172133827e-05 -0.99365503851838355 0 0 0 -0.19737625695961014 0.0024850683973075549 -0.0005719126353455206 0 -0.0005719126353455206 -0.99684559684960439 0 0 0 -0.19887210569045932 0.0017268956077540754 9.2468491746711123e-05 0 9.2468491746711123e-05 -0.99830202781702493 0 0 0 -0.19931502644185417 0.0015631073163496557 -0.00033020283801288297 0 -0.00033020283801288297 -0.99732093686257017 0 0 0 -0.19915156590924413 0.0021816799954125351 0.00015556078628976082 0 0.00015556078628976082 -0.99632029746062334 0 0 0 -0.19882772349304217 0.0059245853674726179 -0.0001660458854141067 0 -0.0001660458854141067 -0.99446598185534318 0 0 0 -0.19770827929757415 0.0066010809701183559 -0.00013685972170363048 0 -0.00013685972170363048 -0.99320315301885032 0 0 0 -0.19732041440974646 0.006441955451453929 -0.00050915493915959715 0 -0.00050915493915959715 -0.99383965509350536 0 0 0 -0.19747953992841027 0.0066392289056701323 -0.00046485864995116088 0 -0.00046485864995116088 -0.99433463071522488 0 0 0 -0.19753908036191095 0.0043639774199880563 -0.00029477827478174845 0 -0.00029477827478174845 -0.99485613384221394 0 0 0 -0.19809843128444521 0.0037491512758458523 -1.6371905278966576e-05 0 -1.6371905278966576e-05 -0.99596924490519001 0 0 0 -0.19844401872586892 0.0037963925433965318 -0.00074229753559007516 0 -0.00074229753559007516 -0.99578027983498341 0 0 0 -0.19839677745831735 0.0046188284846392369 -0.000616129293328882 0 -0.000616129293328882 -0.99483973082048305 0 0 0 -0.19804418046716876 0.0050287373369642951 0.00020152495383429059 0 0.00020152495383429059 -0.99476589527468362 0 0 0 -0.19794743158754385 0.0011209775498021747 -0.00026890637863807854 0 -0.00026890637863807854 -0.99815689511014027 0 0 0 -0.1994071835120676 0.0075299828243475253 -0.00017935204645924685 0 -0.00017935204645924685 -0.99281650166332125 0 0 0 -0.19705730376779468 0.0068239698902652357 -0.00093148565692432008 0 -0.00093148565692432008 -0.99478698136305255 0 0 0 -0.19759260229455755 0.0077949561058996419 -0.00020333534969874112 0 -0.00020333534969874112 -0.99319923608105976 0 0 0 -0.19708085599503194 0.0054401506722571158 -0.00015096582563212113 0 -0.00015096582563212113 -0.99601254567497621 0 0 0 -0.19811447900054369 0.0057566824293892593 -0.00024881081713773456 0 -0.00024881081713773456 -0.99399609199050631 0 0 0 -0.19764788191222343 0.0014593868028726087 0.00016602722674852188 0 0.00016602722674852188 -0.99699847898691041 0 0 0 -0.19910781843680758 0.0070958508170768653 2.7308249758356551e-05 0 2.7308249758356551e-05 -0.99305964808010527 0 0 0 -0.19719275945260567 0.0066535805266747794 -0.00052628928962383803 0 -0.00052628928962383803 -0.99336014489334556 0 0 0 -0.1973413128733342 0.004384613449790839 -0.00026492733469141161 0 -0.00026492733469141161 -0.99566098374823309 0 0 0 -0.19825527405968846 0.0017132642054296099 -0.00078529407104094284 0 -0.00078529407104094284 -0.99699568879606337 0 0 0 -0.19905648491812666 
</DataArray>
<DataArray type="Float64" Name="displacement_divergence" format="ascii">
-0.70814218997289213 -0.71011218080824445 -0.70868311456450706 -0.7105545250545966 -0.71593958048565387 -0.71753409519067457 -0.71694563727327887 -0.71577980457495172 -0.71174980547126687 -0.7103534918750869 -0.71092634374227681 -0.7111406893028791 -0.71315435262400273 -0.7143984674131274 -0.71422839884994227 -0.71295904968180723 -0.71261075371515781 -0.71786586064344315 -0.70940629356406093 -0.71133336826040683 -0.70949108158211494 -0.71321212440195758 -0.71153237488400434 -0.71678814637250732 -0.70989393402938017 -0.71042872634400267 -0.71371898661487843 -0.71660334570525608 
</DataArray>
</CellData>
</Piece>
</UnstructuredGrid>
</VTKFile>
