<?xml version="1.0"?>
<VTKFile type="UnstructuredGrid" version="0.1" byte_order="LittleEndian">
<UnstructuredGrid>
<Piece NumberOfPoints="84" NumberOfCells="28">
<Points>
<DataArray type="Float64" NumberOfComponents="3" format="ascii">
0 1 0 0.29166666666684449 0.7083333333334445 0 0.33333333333472032 1 0 0 0 0 0.29166666666652658 0.2916666666668038 0 0 0.33333333333472032 0 0 1 0 0 0.66666666666759111 0 0.29166666666684449 0.7083333333334445 0 0 0 0 0.33333333333250248 0 0 0.29166666666652658 0.2916666666668038 0 1 1 0 0.66666666666759111 1 0 0.70833333333346027 0.70833333333323512 0 1 1 0 0.70833333333346027 0.70833333333323512 0 1 0.66666666666578889 0 1 0 0 1 0.33333333333250248 0 0.70833333333327586 0.2916666666665107 0 1 0 0 0.70833333333327586 0.2916666666665107 0 0.66666666666578889 0 0 0.50000000000004996 0.49999999999997519 0 0.29166666666652658 0.2916666666668038 0 0.49999999999981742 0.1726190476194705 0 0.50000000000004996 0.49999999999997519 0 0.29166666666684449 0.7083333333334445 0 0.17261904761971569 0.50000000000021494 0 0.50000000000004996 0.49999999999997519 0 0.17261904761971569 0.50000000000021494 0 0.29166666666652658 0.2916666666668038 0 0.50000000000004996 0.49999999999997519 0 0.50000000000021227 0.82738095238030207 0 0.29166666666684449 0.7083333333334445 0 0.50000000000004996 0.49999999999997519 0 0.49999999999981742 0.1726190476194705 0 0.70833333333327586 0.2916666666665107 0 0.50000000000004996 0.49999999999997519 0 0.82738095238054699 0.49999999999982031 0 0.70833333333346027 0.70833333333323512 0 0.50000000000004996 0.49999999999997519 0 0.70833333333327586 0.2916666666665107 0 0.82738095238054699 0.49999999999982031 0 0.50000000000004996 0.49999999999997519 0 0.70833333333346027 0.70833333333323512 0 0.50000000000021227 0.82738095238030207 0 0.33333333333250248 0 0 0.66666666666578889 0 0 0.49999999999981742 0.1726190476194705 0 1 0.33333333333250248 0 1 0.66666666666578889 0 0.82738095238054699 0.49999999999982031 0 0 0.66666666666759111 0 0 0.33333333333472032 0 0.17261904761971569 0.50000000000021494 0 0.66666666666759111 1 0 0.33333333333472032 1 0 0.50000000000021227 0.82738095238030207 0 0 0.66666666666759111 0 0.17261904761971569 0.50000000000021494 0 0.29166666666684449 0.7083333333334445 0 0.66666666666759111 1 0 0.50000000000021227 0.82738095238030207 0 0.70833333333346027 0.70833333333323512 0 0.33333333333250248 0 0 0.49999999999981742 0.1726190476194705 0 0.29166666666652658 0.2916666666668038 0 1 0.33333333333250248 0 0.82738095238054699 0.49999999999982031 0 0.70833333333327586 0.2916666666665107 0 0 0.33333333333472032 0 0.29166666666652658 0.2916666666668038 0 0.17261904761971569 0.50000000000021494 0 0.33333333333472032 1 0 0.29166666666684449 0.7083333333334445 0 0.50000000000021227 0.82738095238030207 0 0.66666666666578889 0 0 0.70833333333327586 0.2916666666665107 0 0.49999999999981742 0.1726190476194705 0 1 0.66666666666578889 0 0.70833333333346027 0.70833333333323512 0 0.82738095238054699 0.49999999999982031 0 
</DataArray>
</Points>
<Cells>
<DataArray type="UInt32" Name="connectivity" format="ascii">
0 1 2 3 4 5 6 7 8 9 10 11 12 13 14 15 16 17 18 19 20 21 22 23 24 25 26 27 28 29 30 31 32 33 34 35 36 37 38 39 40 41 42 43 44 45 46 47 48 49 50 51 52 53 54 55 56 57 58 59 60 61 62 63 64 65 66 67 68 69 70 71 72 73 74 75 76 77 78 79 80 81 82 83 
</DataArray>
<DataArray type="UInt32" Name="offsets" format="ascii">
3 6 9 12 15 18 21 24 27 30 33 36 39 42 45 48 51 54 57 60 63 66 69 72 75 78 81 84 
</DataArray>
<DataArray type="UInt32" Name="types" format="ascii">
5 5 5 5 5 5 5 5 5 5 5 5 5 5 5 5 5 5 5 5 5 5 5 5 5 5 5 5 
</DataArray>
</Cells>
<PointData Scalars="" Vectors="displacement," Tensors="">
<DataArray type="Float64" Name="displacement" NumberOfComponents="3" format="ascii">
-0.0010069020763848514 -0.0031687614202286513 0 -0.00043050363623942735 -0.0021352986961463457 0 -0.00035133451593653386 -0.0031208488355364186 0 -9.9178250967028444e-07 -1.0477100417489459e-06 0 -0.00029582477891160663 -0.00070604212732267718 0 -0.00082775152567398085 -0.0010910293375298295 0 -0.0010069020763848514 -0.0031687614202286513 0 -0.00096917307875606931 -0.0020746714762937004 0 -0.00043050363623942735 -0.0021352986961463457 0 -9.9178250967028444e-07 -1.0477100417489459e-06 0 3.5119026390820425e-07 -6.8813511197249718e-07 0 -0.00029582477891160647 -0.00070604212732267697 0 0.0010069020756528211 -0.0031687614200947823 0 0.00035133451514285212 -0.003120848835453007 0 0.00043050363554702489 -0.0021352986960247559 0 0.0010069020756528211 -0.0031687614200947823 0 0.00043050363554702489 -0.0021352986960247559 0 0.00096917307819648188 -0.0020746714760740519 0 9.9178250976978518e-07 -1.0477100414525672e-06 0 0.00082775152524991338 -0.0010910293373883706 0 0.00029582477852863216 -0.00070604212729139188 0 9.9178250976978518e-07 -1.0477100414525672e-06 0 0.00029582477852863216 -0.00070604212729139188 0 -3.5119026409239998e-07 -6.8813511211350794e-07 0 -3.1311586462692058e-13 -0.0013701759777925641 0 -0.00029582477891160642 -0.00070604212732267675 0 -1.2773073193444656e-13 -0.00036660226926806558 0 -3.1311586462692058e-13 -0.0013701759777925641 0 -0.00043050363623942735 -0.0021352986961463457 0 -0.0006283850459410632 -0.0014755166657085712 0 -3.1311586462692058e-13 -0.0013701759777925641 0 -0.0006283850459410632 -0.0014755166657085712 0 -0.00029582477891160647 -0.00070604212732267697 0 -3.1311586462692058e-13 -0.0013701759777925641 0 -3.8245327464889972e-13 -0.0025184770212644376 0 -0.00043050363623942735 -0.0021352986961463457 0 -3.1311586462692058e-13 -0.0013701759777925641 0 -1.2773073193444656e-13 -0.00036660226926806558 0 0.00029582477852863216 -0.00070604212729139188 0 -3.1311586462692058e-13 -0.0013701759777925641 0 0.00062838504542814852 -0.0014755166655518596 0 0.00043050363554702489 -0.0021352986960247559 0 -3.1311586462692058e-13 -0.0013701759777925641 0 0.00029582477852863216 -0.00070604212729139188 0 0.00062838504542814852 -0.0014755166655518596 0 -3.1311586462692058e-13 -0.0013701759777925641 0 0.00043050363554702489 -0.0021352986960247559 0 -3.8245313699784573e-13 -0.0025184770212644371 0 3.5119026390825253e-07 -6.881351119723822e-07 0 -3.5119026409239998e-07 -6.8813511211350794e-07 0 -1.2773073193444656e-13 -0.00036660226926806558 0 0.00082775152524991338 -0.0010910293373883706 0 0.00096917307819648199 -0.0020746714760740519 0 0.00062838504542814852 -0.0014755166655518596 0 -0.00096917307875606931 -0.0020746714762937004 0 -0.00082775152567398085 -0.0010910293375298295 0 -0.0006283850459410632 -0.0014755166657085712 0 0.00035133451514285212 -0.003120848835453007 0 -0.00035133451593653386 -0.0031208488355364186 0 -3.8245313699784573e-13 -0.0025184770212644371 0 -0.00096917307875606931 -0.0020746714762937004 0 -0.0006283850459410632 -0.0014755166657085712 0 -0.00043050363623942735 -0.0021352986961463457 0 0.00035133451514285212 -0.003120848835453007 0 -3.8245313699784573e-13 -0.0025184770212644371 0 0.00043050363554702489 -0.0021352986960247559 0 3.5119026390825253e-07 -6.881351119723822e-07 0 -1.2773073193444656e-13 -0.00036660226926806558 0 -0.00029582477891160647 -0.00070604212732267697 0 0.00082775152524991338 -0.0010910293373883706 0 0.00062838504542814852 -0.0014755166655518596 0 0.00029582477852863216 -0.00070604212729139188 0 -0.00082775152567398085 -0.0010910293375298295 0 -0.00029582477891160647 -0.00070604212732267697 0 -0.0006283850459410632 -0.0014755166657085712 0 -0.00035133451593653386 -0.0031208488355364186 0 -0.00043050363623942735 -0.0021352986961463457 0 -3.8245313699784573e-13 -0.0025184770212644371 0 -3.5119026409239998e-07 -6.8813511211350794e-07 0 0.00029582477852863216 -0.00070604212729139188 0 -1.2773073193444656e-13 -0.00036660226926806558 0 0.00096917307819648188 -0.0020746714760740519 0 0.00043050363554702489 -0.0021352986960247559 0 0.00062838504542814852 -0.0014755166655518596 0 
</DataArray>
</PointData>
<CellData Scalars="" Vectors="" Tensors="stress,">
<DataArray type="Float64" Name="stress" NumberOfComponents="9" format="ascii">
5900645.8597563803 1342172.1205832511 0 1342172.1205832511 -101424668.05112493 0 0 0 -33433407.766979009 -12623706.778284438 -16274580.634217832 0 -16274580.634217832 -107411069.2637112 0 0 0 -42012171.61469847 4145273.9112870917 1478439.4358266592 0 1478439.4358266592 -98760847.334351674 0 0 0 -33115450.69807265 -56250137.166966468 -10138061.811947158 0 -10138061.811947158 -104694764.35698034 0 0 0 -56330715.53338138 5900645.8658890426 -1342172.1224035865 0 -1342172.1224035865 -101424668.05108386 0 0 0 -33433407.764818162 4145273.9223340452 -1478439.4381683096 0 -1478439.4381683096 -98760847.335775495 0 0 0 -33115450.694704503 -12623706.766574576 16274580.62465132 0 16274580.62465132 -107411069.24504493 0 0 0 -42012171.604066819 -56250137.164477348 10138061.7988449 0 10138061.7988449 -104694764.35240513 0 0 0 -56330715.530908868 -9995881.2528299652 -1223809.7314606905 0 -1223809.7314606905 -99704290.203183413 0 0 0 -38395060.009604678 4989503.3409359306 1747811.5183400884 0 1747811.5183400884 -100415532.92858762 0 0 0 -33399110.355678096 1284420.3027747422 -1777038.2810925881 0 -1777038.2810925881 -107296401.42801505 0 0 0 -37104193.393834114 7702209.1649883594 1650513.1508954912 0 1650513.1508954912 -103776894.53557838 0 0 0 -33626139.879706509 -9995881.2513125371 1223809.7215737328 0 1223809.7215737328 -99704290.202371687 0 0 0 -38395060.008789465 4989503.3583693504 -1747811.5202391958 0 -1747811.5202391958 -100415532.91594583 0 0 0 -33399110.345151752 1284420.3254548162 1777038.2775857225 0 1777038.2775857225 -107296401.40565379 0 0 0 -37104193.378069639 7702209.1695849299 -1650513.1493508071 0 -1650513.1493508071 -103776894.53309831 0 0 0 -33626139.877229691 -49552806.223401956 -0.007398391273454763 0 -0.007398391273454763 -91906232.038660675 0 0 0 -49510663.391721912 -1056245.369199648 -1975308.0731275976 0 -1975308.0731275976 -91366483.385183126 0 0 0 -32347955.064034 -1056245.3803276271 1975308.0701522678 0 1975308.0701522678 -91366483.398505926 0 0 0 -32347955.072591722 9922921.9103164077 0.0015536192762505923 0 0.0015536192762505923 -102029264.6374743 0 0 0 -32237219.954505205 3295986.6316347718 1513943.1927756891 0 1513943.1927756891 -100352089.55930588 0 0 0 -33969636.024684876 11008995.043086171 -738835.85537893325 0 -738835.85537893325 -98480716.649114847 0 0 0 -30615102.562110037 -15909170.825646326 -6154573.0871180296 0 -6154573.0871180296 -81793342.554470509 0 0 0 -34195879.683040887 615867.82606703788 -2593399.93809852 0 -2593399.93809852 -98144713.378741965 0 0 0 -34135095.943436213 615867.81823527813 2593399.935080057 0 2593399.935080057 -98144713.396303058 0 0 0 -34135095.952323735 11008995.037497059 738835.85750725865 0 738835.85750725865 -98480716.650620282 0 0 0 -30615102.564593121 -15909170.816833347 6154573.0746734366 0 6154573.0746734366 -81793342.546852157 0 0 0 -34195879.677289918 3295986.6478390992 -1513943.1961098295 0 -1513943.1961098295 -100352089.55004382 0 0 0 -33969636.015771657 
</DataArray>
</CellData>
</Piece>
</UnstructuredGrid>
</VTKFile>
