<?xml version="1.0"?>
<VTKFile type="UnstructuredGrid" version="0.1" byte_order="LittleEndian">
<UnstructuredGrid>
<Piece NumberOfPoints="84" NumberOfCells="28">
<Points>
<DataArray type="Float64" NumberOfComponents="3" format="ascii">
0 1 0 0.29166666666684449 0.7083333333334445 0 0.33333333333472032 1 0 0 0 0 0.29166666666652658 0.2916666666668038 0 0 0.33333333333472032 0 0 1 0 0 0.66666666666759111 0 0.29166666666684449 0.7083333333334445 0 0 0 0 0.33333333333250248 0 0 0.29166666666652658 0.2916666666668038 0 1 1 0 0.66666666666759111 1 0 0.70833333333346027 0.70833333333323512 0 1 1 0 0.70833333333346027 0.70833333333323512 0 1 0.66666666666578889 0 1 0 0 1 0.33333333333250248 0 0.70833333333327586 0.2916666666665107 0 1 0 0 0.70833333333327586 0.2916666666665107 0 0.66666666666578889 0 0 0.50000000000004996 0.49999999999997519 0 0.29166666666652658 0.2916666666668038 0 0.49999999999981742 0.1726190476194705 0 0.50000000000004996 0.49999999999997519 0 0.29166666666684449 0.7083333333334445 0 0.17261904761971569 0.50000000000021494 0 0.50000000000004996 0.49999999999997519 0 0.17261904761971569 0.50000000000021494 0 0.29166666666652658 0.2916666666668038 0 0.50000000000004996 0.49999999999997519 0 0.50000000000021227 0.82738095238030207 0 0.29166666666684449 0.7083333333334445 0 0.50000000000004996 0.49999999999997519 0 0.49999999999981742 0.1726190476194705 0 0.70833333333327586 0.2916666666665107 0 0.50000000000004996 0.49999999999997519 0 0.82738095238054699 0.49999999999982031 0 0.70833333333346027 0.70833333333323512 0 0.50000000000004996 0.49999999999997519 0 0.70833333333327586 0.2916666666665107 0 0.82738095238054699 0.49999999999982031 0 0.50000000000004996 0.49999999999997519 0 0.70833333333346027 0.70833333333323512 0 0.50000000000021227 0.82738095238030207 0 0.33333333333250248 0 0 0.66666666666578889 0 0 0.49999999999981742 0.1726190476194705 0 1 0.33333333333250248 0 1 0.66666666666578889 0 0.82738095238054699 0.49999999999982031 0 0 0.66666666666759111 0 0 0.33333333333472032 0 0.17261904761971569 0.50000000000021494 0 0.66666666666759111 1 0 0.33333333333472032 1 0 0.50000000000021227 0.82738095238030207 0 0 0.66666666666759111 0 0.17261904761971569 0.50000000000021494 0 0.29166666666684449 0.7083333333334445 0 0.66666666666759111 1 0 0.50000000000021227 0.82738095238030207 0 0.70833333333346027 0.70833333333323512 0 0.33333333333250248 0 0 0.49999999999981742 0.1726190476194705 0 0.29166666666652658 0.2916666666668038 0 1 0.33333333333250248 0 0.82738095238054699 0.49999999999982031 0 0.70833333333327586 0.2916666666665107 0 0 0.33333333333472032 0 0.29166666666652658 0.2916666666668038 0 0.17261904761971569 0.50000000000021494 0 0.33333333333472032 1 0 0.29166666666684449 0.7083333333334445 0 0.50000000000021227 0.82738095238030207 0 0.66666666666578889 0 0 0.70833333333327586 0.2916666666665107 0 0.49999999999981742 0.1726190476194705 0 1 0.66666666666578889 0 0.70833333333346027 0.70833333333323512 0 0.82738095238054699 0.49999999999982031 0 
</DataArray>
</Points>
<Cells>
<DataArray type="UInt32" Name="connectivity" format="ascii">
0 1 2 3 4 5 6 7 8 9 10 11 12 13 14 15 16 17 18 19 20 21 22 23 24 25 26 27 28 29 30 31 32 33 34 35 36 37 38 39 40 41 42 43 44 45 46 47 48 49 50 51 52 53 54 55 56 57 58 59 60 61 62 63 64 65 66 67 68 69 70 71 72 73 74 75 76 77 78 79 80 81 82 83 
</DataArray>
<DataArray type="UInt32" Name="offsets" format="ascii">
3 6 9 12 15 18 21 24 27 30 33 36 39 42 45 48 51 54 57 60 63 66 69 72 75 78 81 84 
</DataArray>
<DataArray type="UInt32" Name="types" format="ascii">
5 5 5 5 5 5 5 5 5 5 5 5 5 5 5 5 5 5 5 5 5 5 5 5 5 5 5 5 
</DataArray>
</Cells>
<PointData Scalars="" Vectors="displacement," Tensors="">
<DataArray type="Float64" Name="displacement" NumberOfComponents="3" format="ascii">
2.487847640497543e-07 -0.95905639750735905 0 0.070419779820693834 -0.67950956596028 0 0.080589879099560752 -0.95919987208437285 0 -6.3912410515166962e-08 -0.0003000694736141198 0 0.070362237284571499 -0.27998250355330095 0 -3.0667429822444508e-08 -0.31991039524708231 0 2.487847640497543e-07 -0.95905639750735905 0 -6.176874705886033e-08 -0.6394966990587484 0 0.070419779820693834 -0.67950956596028 0 -6.3912410515166962e-08 -0.0003000694736141198 0 0.080404726644385721 -0.00030006677254808305 0 0.070362237284571513 -0.27998250355330095 0 0.24115308551404629 -0.95990069531314759 0 0.16102071786773142 -0.95956008976009399 0 0.17083685285570158 -0.67977563564017962 0 0.24115308551404629 -0.95990069531314759 0 0.17083685285570158 -0.67977563564017962 0 0.24089329700325632 -0.63999949427104807 0 0.24079339614208242 -0.00029987343360415842 0 0.24079495391396225 -0.32012139278350266 0 0.17073377549189084 -0.28008599572851828 0 0.24079339614208242 -0.00029987343360415842 0 0.17073377549189084 -0.28008599572851828 0 0.16069497712542272 -0.00029996177384288117 0 0.12060737195011355 -0.47982874654073326 0 0.070362237284571513 -0.2799825035533009 0 0.12057016613191843 -0.1658536210406916 0 0.12060737195011355 -0.47982874654073326 0 0.070419779820693834 -0.67950956596028 0 0.041660262134261335 -0.4797216641691508 0 0.12060737195011355 -0.47982874654073326 0 0.041660262134261335 -0.4797216641691508 0 0.070362237284571513 -0.27998250355330095 0 0.12060737195011355 -0.47982874654073326 0 0.12071288447719272 -0.79380744205680542 0 0.070419779820693834 -0.67950956596028 0 0.12060737195011355 -0.47982874654073326 0 0.12057016613191843 -0.1658536210406916 0 0.17073377549189084 -0.28008599572851828 0 0.12060737195011355 -0.47982874654073326 0 0.19938887436730271 -0.4799823699151432 0 0.17083685285570158 -0.67977563564017962 0 0.12060737195011355 -0.47982874654073326 0 0.17073377549189084 -0.28008599572851828 0 0.19938887436730271 -0.4799823699151432 0 0.12060737195011355 -0.47982874654073326 0 0.17083685285570158 -0.67977563564017962 0 0.12071288447719274 -0.79380744205680542 0 0.080404726644385721 -0.00030006677254803741 0 0.16069497712542272 -0.00029996177384288117 0 0.12057016613191843 -0.1658536210406916 0 0.24079495391396225 -0.32012139278350266 0 0.24089329700325632 -0.63999949427104807 0 0.19938887436730271 -0.4799823699151432 0 -6.176874705886033e-08 -0.6394966990587484 0 -3.0667429822444508e-08 -0.31991039524708231 0 0.041660262134261335 -0.4797216641691508 0 0.16102071786773142 -0.95956008976009399 0 0.080589879099560752 -0.95919987208437285 0 0.12071288447719274 -0.79380744205680542 0 -6.176874705886033e-08 -0.6394966990587484 0 0.041660262134261335 -0.4797216641691508 0 0.070419779820693834 -0.67950956596028 0 0.16102071786773142 -0.95956008976009399 0 0.12071288447719274 -0.79380744205680542 0 0.17083685285570158 -0.67977563564017962 0 0.080404726644385721 -0.00030006677254803741 0 0.12057016613191843 -0.1658536210406916 0 0.070362237284571513 -0.27998250355330095 0 0.24079495391396225 -0.32012139278350266 0 0.19938887436730271 -0.4799823699151432 0 0.17073377549189084 -0.28008599572851828 0 -3.0667429822444508e-08 -0.31991039524708231 0 0.070362237284571513 -0.27998250355330095 0 0.041660262134261335 -0.4797216641691508 0 0.080589879099560752 -0.95919987208437285 0 0.070419779820693834 -0.67950956596028 0 0.12071288447719274 -0.79380744205680542 0 0.16069497712542272 -0.00029996177384288117 0 0.17073377549189084 -0.28008599572851828 0 0.12057016613191843 -0.1658536210406916 0 0.24089329700325632 -0.63999949427104807 0 0.17083685285570158 -0.67977563564017962 0 0.19938887436730271 -0.4799823699151432 0 
</DataArray>
</PointData>
<CellData Scalars="displacement_divergence," Vectors="" Tensors="stress,">
<DataArray type="Float64" Name="stress" NumberOfComponents="9" format="ascii">
0.0022774612367071345 -4.1635379456561594e-05 0 -4.1635379456561594e-05 -0.99826053398393855 0 0 0 -0.19919661454944626 0.0017048127428664905 -3.3385627966175946e-05 0 -3.3385627966175946e-05 -0.99835606485221584 0 0 0 -0.19933025042186986 0.0019661666071681687 -9.6618374002543916e-05 0 -9.6618374002543916e-05 -0.99813251600288588 0 0 0 -0.1992332698791435 0.0016517433395240033 1.158831868073187e-05 0 1.158831868073187e-05 -0.99845290860436264 0 0 0 -0.19936023305296774 0.00060595899897986083 -0.0001394555589534644 0 -0.0001394555589534644 -0.99923075958579499 0 0 0 -0.19972496011736307 0.00042106660441731947 2.2580264523952565e-05 0 2.2580264523952565e-05 -0.99958598660282449 0 0 0 -0.19983298399968141 0.00038105273374475901 -8.0491551999961608e-05 0 -8.0491551999961608e-05 -0.99934698478748774 0 0 0 -0.19979318641074861 0.00053183005734840061 3.7961838462474565e-05 0 3.7961838462474565e-05 -0.99910291747621593 0 0 0 -0.19971421748377352 0.0014446404691688397 -4.04279333078017e-05 0 -4.04279333078017e-05 -0.99865060283875162 0 0 0 -0.19944119247391659 0.0016097557129418072 -3.3331148115434139e-05 0 -3.3331148115434139e-05 -0.99834237480643107 0 0 0 -0.19934652381869794 0.001570906495425517 -0.00012415708986146865 0 -0.00012415708986146865 -0.998497771676496 0 0 0 -0.19938537303621401 0.0016190952528787634 -0.00011332132978969511 0 -0.00011332132978969511 -0.99861834828528229 0 0 0 -0.19939985060648072 0.0010639563932047346 -7.1850698789455159e-05 0 -7.1850698789455159e-05 -0.99874577385774266 0 0 0 -0.1995363634929076 0.00091413954079933024 -3.925560315948806e-06 0 -3.925560315948806e-06 -0.99901710896606088 0 0 0 -0.19962059388505227 0.00092562971266330063 -0.00018096102920983625 0 -0.00018096102920983625 -0.99897114827860334 0 0 0 -0.19960910371318802 0.0011262958146940338 -0.00015024068885405306 0 -0.00015024068885405306 -0.99874154814482874 0 0 0 -0.19952305046602697 0.0012260654265670579 4.9165637335373273e-05 0 4.9165637335373273e-05 -0.99872386930683554 0 0 0 -0.19949956077605369 0.00027331325548235843 -6.5524686470697091e-05 0 -6.5524686470697091e-05 -0.99955073883484968 0 0 0 -0.19985548511587348 0.0018363867913522847 -4.3769607667609733e-05 0 -4.3769607667609733e-05 -0.99824810271500408 0 0 0 -0.19928234318473043 0.0016642276060854222 -0.00022720380376324974 0 -0.00022720380376324974 -0.9987285741791867 0 0 0 -0.19941286931462021 0.0019010808168390403 -4.9577519522725488e-05 0 -4.9577519522725488e-05 -0.99834137976512238 0 0 0 -0.19928805978965658 0.0013266297441506536 -3.6778395189007718e-05 0 -3.6778395189007718e-05 -0.99902759248325035 0 0 0 -0.19954019254781996 0.0014036087570958589 -6.0671917731791591e-05 0 -6.0671917731791591e-05 -0.99853611000312215 0 0 0 -0.19942650024920525 0.0003557871567737847 4.0533280779520009e-05 0 4.0533280779520009e-05 -0.9992682081033738 0 0 0 -0.19978248418932001 0.0017304051185026426 6.6960709303454102e-06 0 6.6960709303454102e-06 -0.99830751386718841 0 0 0 -0.19931542174973704 0.0016226663324452051 -0.0001283584056377407 0 -0.0001283584056377407 -0.99838050915757359 0 0 0 -0.19935156856502559 0.0010690073969435998 -6.4577925970643602e-05 0 -6.4577925970643602e-05 -0.99894214432856321 0 0 0 -0.19957462738632392 0.00041772993120814395 -0.0001914703690798214 0 -0.0001914703690798214 -0.99926747786778281 0 0 0 -0.19976994958731487 
</DataArray>
<DataArray type="Float64" Name="displacement_divergence" format="ascii">
-0.71710781237800658 -0.71758890151873156 -0.71723977156491692 -0.71769683899068371 -0.71900985642250692 -0.71939874239885326 -0.71925547107869514 -0.71897118294158457 -0.71798829290609956 -0.71764748574731274 -0.7177873429303705 -0.71783946218333028 -0.71833090857446713 -0.71863413798618803 -0.71859277336747662 -0.71828298167769633 -0.71819841879379331 -0.71947974641714429 -0.71741643546502953 -0.71788632953263409 -0.71743701524276338 -0.71834469317215222 -0.71793540089713892 -0.71921694308155149 -0.71753551829905327 -0.71766564683409273 -0.71846865859076603 -0.71917181851433343 
</DataArray>
</CellData>
</Piece>
</UnstructuredGrid>
</VTKFile>
