<?xml version="1.0"?>
<VTKFile type="UnstructuredGrid" version="0.1" byte_order="LittleEndian">
<UnstructuredGrid>
<Piece NumberOfPoints="84" NumberOfCells="28">
<Points>
<DataArray type="Float64" NumberOfComponents="3" format="ascii">
0 1 0 0.29166666666684449 0.7083333333334445 0 0.33333333333472032 1 0 0 0 0 0.29166666666652658 0.2916666666668038 0 0 0.33333333333472032 0 0 1 0 0 0.66666666666759111 0 0.29166666666684449 0.7083333333334445 0 0 0 0 0.33333333333250248 0 0 0.29166666666652658 0.2916666666668038 0 1 1 0 0.66666666666759111 1 0 0.70833333333346027 0.70833333333323512 0 1 1 0 0.70833333333346027 0.70833333333323512 0 1 0.66666666666578889 0 1 0 0 1 0.33333333333250248 0 0.70833333333327586 0.2916666666665107 0 1 0 0 0.70833333333327586 0.2916666666665107 0 0.66666666666578889 0 0 0.50000000000004996 0.49999999999997519 0 0.29166666666652658 0.2916666666668038 0 0.49999999999981742 0.1726190476194705 0 0.50000000000004996 0.49999999999997519 0 0.29166666666684449 0.7083333333334445 0 0.17261904761971569 0.50000000000021494 0 0.50000000000004996 0.49999999999997519 0 0.17261904761971569 0.50000000000021494 0 0.29166666666652658 0.2916666666668038 0 0.50000000000004996 0.49999999999997519 0 0.50000000000021227 0.82738095238030207 0 0.29166666666684449 0.7083333333334445 0 0.50000000000004996 0.49999999999997519 0 0.49999999999981742 0.1726190476194705 0 0.70833333333327586 0.2916666666665107 0 0.50000000000004996 0.49999999999997519 0 0.82738095238054699 0.49999999999982031 0 0.70833333333346027 0.70833333333323512 0 0.50000000000004996 0.49999999999997519 0 0.70833333333327586 0.2916666666665107 0 0.82738095238054699 0.49999999999982031 0 0.50000000000004996 0.49999999999997519 0 0.70833333333346027 0.70833333333323512 0 0.50000000000021227 0.82738095238030207 0 0.33333333333250248 0 0 0.66666666666578889 0 0 0.49999999999981742 0.1726190476194705 0 1 0.33333333333250248 0 1 0.66666666666578889 0 0.82738095238054699 0.49999999999982031 0 0 0.66666666666759111 0 0 0.33333333333472032 0 0.17261904761971569 0.50000000000021494 0 0.66666666666759111 1 0 0.33333333333472032 1 0 0.50000000000021227 0.82738095238030207 0 0 0.66666666666759111 0 0.17261904761971569 0.50000000000021494 0 0.29166666666684449 0.7083333333334445 0 0.66666666666759111 1 0 0.50000000000021227 0.82738095238030207 0 0.70833333333346027 0.70833333333323512 0 0.33333333333250248 0 0 0.49999999999981742 0.1726190476194705 0 0.29166666666652658 0.2916666666668038 0 1 0.33333333333250248 0 0.82738095238054699 0.49999999999982031 0 0.70833333333327586 0.2916666666665107 0 0 0.33333333333472032 0 0.29166666666652658 0.2916666666668038 0 0.17261904761971569 0.50000000000021494 0 0.33333333333472032 1 0 0.29166666666684449 0.7083333333334445 0 0.50000000000021227 0.82738095238030207 0 0.66666666666578889 0 0 0.70833333333327586 0.2916666666665107 0 0.49999999999981742 0.1726190476194705 0 1 0.66666666666578889 0 0.70833333333346027 0.70833333333323512 0 0.82738095238054699 0.49999999999982031 0 
</DataArray>
</Points>
<Cells>
<DataArray type="UInt32" Name="connectivity" format="ascii">
0 1 2 3 4 5 6 7 8 9 10 11 12 13 14 15 16 17 18 19 20 21 22 23 24 25 26 27 28 29 30 31 32 33 34 35 36 37 38 39 40 41 42 43 44 45 46 47 48 49 50 51 52 53 54 55 56 57 58 59 60 61 62 63 64 65 66 67 68 69 70 71 72 73 74 75 76 77 78 79 80 81 82 83 
</DataArray>
<DataArray type="UInt32" Name="offsets" format="ascii">
3 6 9 12 15 18 21 24 27 30 33 36 39 42 45 48 51 54 57 60 63 66 69 72 75 78 81 84 
</DataArray>
<DataArray type="UInt32" Name="types" format="ascii">
5 5 5 5 5 5 5 5 5 5 5 5 5 5 5 5 5 5 5 5 5 5 5 5 5 5 5 5 
</DataArray>
</Cells>
<PointData Scalars="" Vectors="displacement," Tensors="">
<DataArray type="Float64" Name="displacement" NumberOfComponents="3" format="ascii">
-0.0010423625113888412 -0.0031920809643012056 0 -0.00045092732248442111 -0.0021501030725031736 0 -0.00036554758736260438 -0.0031486429754482553 0 -1.0232456163134972e-06 -1.0660102460915e-06 0 -0.00031191507312980994 -0.00070476241462869211 0 -0.000857502130413307 -0.0011007328000593192 0 -0.0010423625113888412 -0.0031920809643012056 0 -0.0010029355560891831 -0.0020880311065592841 0 -0.00045092732248442111 -0.0021501030725031736 0 -1.0232456163134972e-06 -1.0660102460915e-06 0 3.5595935539691483e-07 -7.0287553418765449e-07 0 -0.00031191507312980978 -0.00070476241462869189 0 0.0010423625125456034 -0.0031920809649240893 0 0.00036554758839787348 -0.0031486429755821182 0 0.00045092732310669857 -0.0021501030726314434 0 0.0010423625125456034 -0.0031920809649240893 0 0.00045092732310669857 -0.0021501030726314434 0 0.0010029355568837597 -0.0020880311070063085 0 1.0232456168478072e-06 -1.0660102464777829e-06 0 0.00085750213064789192 -0.0011007328003641485 0 0.00031191507309928694 -0.00070476241472257383 0 1.0232456168478072e-06 -1.0660102464777829e-06 0 0.00031191507309928694 -0.00070476241472257383 0 -3.5595935566009247e-07 -7.0287553432901624e-07 0 5.4351270288071551e-14 -0.0013743795915684303 0 -0.00031191507312980973 -0.00070476241462869168 0 -6.3314130782133675e-14 -0.00036207419530976233 0 5.4351270288071551e-14 -0.0013743795915684303 0 -0.00045092732248442111 -0.0021501030725031736 0 -0.00065621169189991949 -0.0014836974943665596 0 5.4351270288071551e-14 -0.0013743795915684303 0 -0.00065621169189991949 -0.0014836974943665596 0 -0.00031191507312980978 -0.00070476241462869189 0 5.4351270288071551e-14 -0.0013743795915684303 0 3.7621836296587475e-13 -0.0025386512143010099 0 -0.00045092732248442111 -0.0021501030725031736 0 5.4351270288071551e-14 -0.0013743795915684303 0 -6.3314130782133675e-14 -0.00036207419530976233 0 0.00031191507309928694 -0.00070476241472257383 0 5.4351270288071551e-14 -0.0013743795915684303 0 0.00065621169230737654 -0.001483697494544101 0 0.00045092732310669857 -0.0021501030726314434 0 5.4351270288071551e-14 -0.0013743795915684303 0 0.00031191507309928694 -0.00070476241472257383 0 0.00065621169230737654 -0.001483697494544101 0 5.4351270288071551e-14 -0.0013743795915684303 0 0.00045092732310669857 -0.0021501030726314434 0 3.7621850714728486e-13 -0.0025386512143010095 0 3.5595935539696571e-07 -7.0287553418753972e-07 0 -3.5595935566009247e-07 -7.0287553432901624e-07 0 -6.3314130782133675e-14 -0.00036207419530976233 0 0.00085750213064789192 -0.0011007328003641485 0 0.0010029355568837597 -0.0020880311070063085 0 0.00065621169230737654 -0.001483697494544101 0 -0.0010029355560891831 -0.0020880311065592841 0 -0.000857502130413307 -0.0011007328000593192 0 -0.00065621169189991949 -0.0014836974943665596 0 0.00036554758839787348 -0.0031486429755821182 0 -0.00036554758736260438 -0.0031486429754482553 0 3.7621850714728486e-13 -0.0025386512143010095 0 -0.0010029355560891831 -0.0020880311065592841 0 -0.00065621169189991949 -0.0014836974943665596 0 -0.00045092732248442111 -0.0021501030725031736 0 0.00036554758839787348 -0.0031486429755821182 0 3.7621850714728486e-13 -0.0025386512143010095 0 0.00045092732310669857 -0.0021501030726314434 0 3.5595935539696571e-07 -7.0287553418753972e-07 0 -6.3314130782133675e-14 -0.00036207419530976233 0 -0.00031191507312980978 -0.00070476241462869189 0 0.00085750213064789192 -0.0011007328003641485 0 0.00065621169230737654 -0.001483697494544101 0 0.00031191507309928694 -0.00070476241472257383 0 -0.000857502130413307 -0.0011007328000593192 0 -0.00031191507312980978 -0.00070476241462869189 0 -0.00065621169189991949 -0.0014836974943665596 0 -0.00036554758736260438 -0.0031486429754482553 0 -0.00045092732248442111 -0.0021501030725031736 0 3.7621850714728486e-13 -0.0025386512143010095 0 -3.5595935566009247e-07 -7.0287553432901624e-07 0 0.00031191507309928694 -0.00070476241472257383 0 -6.3314130782133675e-14 -0.00036207419530976233 0 0.0010029355568837597 -0.0020880311070063085 0 0.00045092732310669857 -0.0021501030726314434 0 0.00065621169230737654 -0.001483697494544101 0 
</DataArray>
</PointData>
<CellData Scalars="" Vectors="" Tensors="stress,">
<DataArray type="Float64" Name="stress" NumberOfComponents="9" format="ascii">
7668367.9988672137 1329809.4810036868 0 1329809.4810036868 -101784160.69183302 0 0 0 -32940527.442537993 -11824063.208238475 -16831096.714069869 0 -16831096.714069869 -107874506.94061939 0 0 0 -41894499.552100256 5461376.6917753145 1420651.8988867551 0 1420651.8988867551 -98971553.265504017 0 0 0 -32728561.80080507 -56141835.13409207 -10689630.479680527 0 -10689630.479680527 -104499843.24417908 0 0 0 -56224587.432394899 7668368.0100093782 -1329809.4811225033 0 -1329809.4811225033 -101784160.69277233 0 0 0 -32940527.438967049 5461376.7123185694 -1420651.8998679966 0 -1420651.8998679966 -98971553.270124495 0 0 0 -32728561.795232058 -11824063.194436014 16831096.715154272 0 16831096.715154272 -107874506.9619651 0 0 0 -41894499.554740377 -56141835.141542576 10689630.478642901 0 10689630.478642901 -104499843.25815125 0 0 0 -56224587.439892843 -7271431.2176329978 -1220296.0219679456 0 -1220296.0219679456 -99057935.171275944 0 0 0 -37215278.236118123 7768920.9790305793 1738937.9578555077 0 1738937.9578555077 -100110771.94649565 0 0 0 -32319647.838612765 4070056.8821157366 -1733195.8650966254 0 -1733195.8650966254 -106980090.9836086 0 0 0 -36018511.935522512 10812069.292124067 1671521.1638569385 0 1671521.1638569385 -103603365.5528851 0 0 0 -32476953.691266384 -7271431.215446217 1220296.0245851353 0 1220296.0245851353 -99057935.170103803 0 0 0 -37215278.234942496 7768921.0168471932 -1738937.9478018356 0 -1738937.9478018356 -100110771.92836505 0 0 0 -32319647.819031239 4070056.9195358604 1733195.8754012361 0 1733195.8754012361 -106980090.96623835 0 0 0 -36018511.916345879 10812069.31374523 -1671521.15040797 0 -1671521.15040797 -103603365.54123789 0 0 0 -32476953.679622442 -48939983.001972079 -0.0036643926650867797 0 -0.0036643926650867797 -90766496.6531955 0 0 0 -48897267.879308648 -325637.92651371611 -2049062.4322342128 0 -2049062.4322342128 -91310571.804334968 0 0 0 -32072673.405797049 -325637.94381955266 2049062.4372489005 0 2049062.4372489005 -91310571.800641477 0 0 0 -32072673.410561353 12588314.092077851 0.0040565970795078633 0 0.0040565970795078633 -101952303.95953977 0 0 0 -31277396.453611612 4478517.5483302176 1611828.9793521389 0 1611828.9793521389 -100685709.86502093 0 0 0 -33672517.310841739 14022597.786229283 -814654.4777161479 0 -814654.4777161479 -98226796.840223432 0 0 0 -29471469.668897957 -13583442.216604955 -6437918.5714769624 0 -6437918.5714769624 -80317701.979003638 0 0 0 -32865400.468463004 1839018.8259452954 -2610799.7317624316 0 -2610799.7317624316 -98286595.84744437 0 0 0 -33756651.957524665 1839018.7964538932 2610799.7414639387 0 2610799.7414639387 -98286595.864126623 0 0 0 -33756651.973685443 14022597.780528717 814654.48515935242 0 814654.48515935242 -98226796.839792371 0 0 0 -29471469.670742311 -13583442.198447488 6437918.5666492619 0 6437918.5666492619 -80317701.977852583 0 0 0 -32865400.461705018 4478517.5732221603 -1611828.9761675578 0 -1611828.9761675578 -100685709.86487114 0 0 0 -33672517.302077174 
</DataArray>
</CellData>
</Piece>
</UnstructuredGrid>
</VTKFile>
