<?xml version="1.0"?>
<VTKFile type="UnstructuredGrid" version="0.1" byte_order="LittleEndian">
<UnstructuredGrid>
<Piece NumberOfPoints="84" NumberOfCells="28">
<Points>
<DataArray type="Float64" NumberOfComponents="3" format="ascii">
0 1 0 0.29166666666684449 0.7083333333334445 0 0.33333333333472032 1 0 0 0 0 0.29166666666652658 0.2916666666668038 0 0 0.33333333333472032 0 0 1 0 0 0.66666666666759111 0 0.29166666666684449 0.7083333333334445 0 0 0 0 0.33333333333250248 0 0 0.29166666666652658 0.2916666666668038 0 1 1 0 0.66666666666759111 1 0 0.70833333333346027 0.70833333333323512 0 1 1 0 0.70833333333346027 0.70833333333323512 0 1 0.66666666666578889 0 1 0 0 1 0.33333333333250248 0 0.70833333333327586 0.2916666666665107 0 1 0 0 0.70833333333327586 0.2916666666665107 0 0.66666666666578889 0 0 0.50000000000004996 0.49999999999997519 0 0.29166666666652658 0.2916666666668038 0 0.49999999999981742 0.1726190476194705 0 0.50000000000004996 0.49999999999997519 0 0.29166666666684449 0.7083333333334445 0 0.17261904761971569 0.50000000000021494 0 0.50000000000004996 0.49999999999997519 0 0.17261904761971569 0.50000000000021494 0 0.29166666666652658 0.2916666666668038 0 0.50000000000004996 0.49999999999997519 0 0.50000000000021227 0.82738095238030207 0 0.29166666666684449 0.7083333333334445 0 0.50000000000004996 0.49999999999997519 0 0.49999999999981742 0.1726190476194705 0 0.70833333333327586 0.2916666666665107 0 0.50000000000004996 0.49999999999997519 0 0.82738095238054699 0.49999999999982031 0 0.70833333333346027 0.70833333333323512 0 0.50000000000004996 0.49999999999997519 0 0.70833333333327586 0.2916666666665107 0 0.82738095238054699 0.49999999999982031 0 0.50000000000004996 0.49999999999997519 0 0.70833333333346027 0.70833333333323512 0 0.50000000000021227 0.82738095238030207 0 0.33333333333250248 0 0 0.66666666666578889 0 0 0.49999999999981742 0.1726190476194705 0 1 0.33333333333250248 0 1 0.66666666666578889 0 0.82738095238054699 0.49999999999982031 0 0 0.66666666666759111 0 0 0.33333333333472032 0 0.17261904761971569 0.50000000000021494 0 0.66666666666759111 1 0 0.33333333333472032 1 0 0.50000000000021227 0.82738095238030207 0 0 0.66666666666759111 0 0.17261904761971569 0.50000000000021494 0 0.29166666666684449 0.7083333333334445 0 0.66666666666759111 1 0 0.50000000000021227 0.82738095238030207 0 0.70833333333346027 0.70833333333323512 0 0.33333333333250248 0 0 0.49999999999981742 0.1726190476194705 0 0.29166666666652658 0.2916666666668038 0 1 0.33333333333250248 0 0.82738095238054699 0.49999999999982031 0 0.70833333333327586 0.2916666666665107 0 0 0.33333333333472032 0 0.29166666666652658 0.2916666666668038 0 0.17261904761971569 0.50000000000021494 0 0.33333333333472032 1 0 0.29166666666684449 0.7083333333334445 0 0.50000000000021227 0.82738095238030207 0 0.66666666666578889 0 0 0.70833333333327586 0.2916666666665107 0 0.49999999999981742 0.1726190476194705 0 1 0.66666666666578889 0 0.70833333333346027 0.70833333333323512 0 0.82738095238054699 0.49999999999982031 0 
</DataArray>
</Points>
<Cells>
<DataArray type="UInt32" Name="connectivity" format="ascii">
0 1 2 3 4 5 6 7 8 9 10 11 12 13 14 15 16 17 18 19 20 21 22 23 24 25 26 27 28 29 30 31 32 33 34 35 36 37 38 39 40 41 42 43 44 45 46 47 48 49 50 51 52 53 54 55 56 57 58 59 60 61 62 63 64 65 66 67 68 69 70 71 72 73 74 75 76 77 78 79 80 81 82 83 
</DataArray>
<DataArray type="UInt32" Name="offsets" format="ascii">
3 6 9 12 15 18 21 24 27 30 33 36 39 42 45 48 51 54 57 60 63 66 69 72 75 78 81 84 
</DataArray>
<DataArray type="UInt32" Name="types" format="ascii">
5 5 5 5 5 5 5 5 5 5 5 5 5 5 5 5 5 5 5 5 5 5 5 5 5 5 5 5 
</DataArray>
</Cells>
<PointData Scalars="" Vectors="displacement," Tensors="">
<DataArray type="Float64" Name="displacement" NumberOfComponents="3" format="ascii">
-0.0012439702629058742 -0.0033593148055132646 0 -0.0005340440715579628 -0.0022170528680794648 0 -0.00043667697985700596 -0.0032802631504365381 0 -1.2606731292074645e-06 -1.1726398655749298e-06 0 -0.00037644723750702991 -0.00068160746932202025 0 -0.0010165437667232907 -0.0011452314211410665 0 -0.0012439702629058742 -0.0033593148055132646 0 -0.0011802998552534721 -0.0021709987462611002 0 -0.0005340440715579628 -0.0022170528680794648 0 -1.2606731292074645e-06 -1.1726398655749298e-06 0 4.5352011899785252e-07 -7.7984172561626431e-07 0 -0.00037644723750702969 -0.00068160746932202003 0 0.0012439702628034737 -0.0033593148050591794 0 0.0004366769796195691 -0.0032802631502178953 0 0.00053404407165168655 -0.0022170528677921092 0 0.0012439702628034737 -0.0033593148050591794 0 0.00053404407165168655 -0.0022170528677921092 0 0.0011802998554563085 -0.002170998745872588 0 1.2606731294116439e-06 -1.1726398654717617e-06 0 0.001016543766805689 -0.0011452314210685858 0 0.00037644723747673752 -0.00068160746920138541 0 1.2606731294116439e-06 -1.1726398654717617e-06 0 0.00037644723747673752 -0.00068160746920138541 0 -4.5352011901340235e-07 -7.7984172586144859e-07 0 -3.018971306611732e-14 -0.0013832369649409864 0 -0.00037644723750702964 -0.00068160746932201981 0 -2.8257681399072494e-14 -0.00033402920623125745 0 -3.018971306611732e-14 -0.0013832369649409864 0 -0.0005340440715579628 -0.0022170528680794648 0 -0.00078649961648321655 -0.0015173843659906101 0 -3.018971306611732e-14 -0.0013832369649409864 0 -0.00078649961648321655 -0.0015173843659906101 0 -0.00037644723750702969 -0.00068160746932202003 0 -3.018971306611732e-14 -0.0013832369649409864 0 -7.3434200933373884e-14 -0.0026254135673667999 0 -0.0005340440715579628 -0.0022170528680794648 0 -3.018971306611732e-14 -0.0013832369649409864 0 -2.8257681399072494e-14 -0.00033402920623125745 0 0.00037644723747673752 -0.00068160746920138541 0 -3.018971306611732e-14 -0.0013832369649409864 0 0.00078649961664051726 -0.0015173843657524098 0 0.00053404407165168655 -0.0022170528677921092 0 -3.018971306611732e-14 -0.0013832369649409864 0 0.00037644723747673752 -0.00068160746920138541 0 0.00078649961664051726 -0.0015173843657524098 0 -3.018971306611732e-14 -0.0013832369649409864 0 0.00053404407165168655 -0.0022170528677921092 0 -7.3434030175862872e-14 -0.0026254135673667994 0 4.5352011899791393e-07 -7.7984172561615335e-07 0 -4.5352011901340235e-07 -7.7984172586144859e-07 0 -2.8257681399072494e-14 -0.00033402920623125745 0 0.001016543766805689 -0.0011452314210685858 0 0.0011802998554563085 -0.002170998745872588 0 0.00078649961664051726 -0.0015173843657524098 0 -0.0011802998552534721 -0.0021709987462611002 0 -0.0010165437667232907 -0.0011452314211410665 0 -0.00078649961648321655 -0.0015173843659906101 0 0.0004366769796195691 -0.0032802631502178953 0 -0.00043667697985700596 -0.0032802631504365381 0 -7.3434030175862872e-14 -0.0026254135673667994 0 -0.0011802998552534721 -0.0021709987462611002 0 -0.00078649961648321655 -0.0015173843659906101 0 -0.0005340440715579628 -0.0022170528680794648 0 0.0004366769796195691 -0.0032802631502178953 0 -7.3434030175862872e-14 -0.0026254135673667994 0 0.00053404407165168655 -0.0022170528677921092 0 4.5352011899791393e-07 -7.7984172561615335e-07 0 -2.8257681399072494e-14 -0.00033402920623125745 0 -0.00037644723750702969 -0.00068160746932202003 0 0.001016543766805689 -0.0011452314210685858 0 0.00078649961664051726 -0.0015173843657524098 0 0.00037644723747673752 -0.00068160746920138541 0 -0.0010165437667232907 -0.0011452314211410665 0 -0.00037644723750702969 -0.00068160746932202003 0 -0.00078649961648321655 -0.0015173843659906101 0 -0.00043667697985700596 -0.0032802631504365381 0 -0.0005340440715579628 -0.0022170528680794648 0 -7.3434030175862872e-14 -0.0026254135673667994 0 -4.5352011901340235e-07 -7.7984172586144859e-07 0 0.00037644723747673752 -0.00068160746920138541 0 -2.8257681399072494e-14 -0.00033402920623125745 0 0.0011802998554563085 -0.002170998745872588 0 0.00053404407165168655 -0.0022170528677921092 0 0.00078649961664051726 -0.0015173843657524098 0 
</DataArray>
</PointData>
<CellData Scalars="" Vectors="" Tensors="stress,">
<DataArray type="Float64" Name="stress" NumberOfComponents="9" format="ascii">
19100787.656530708 2250021.5831720978 0 2250021.5831720978 -102920242.87424457 0 0 0 -29336809.32619983 -3839316.372590214 -19465923.522344828 0 -19465923.522344828 -107672750.16407764 0 0 0 -39029223.287833743 14015471.286059044 1603672.4190719724 0 1603672.4190719724 -102143920.93108757 0 0 0 -30844957.375760026 -54239437.104019918 -12903181.203338167 0 -12903181.203338167 -101024244.89287291 0 0 0 -54342288.698912486 19100787.671764761 -2250021.5870433399 0 -2250021.5870433399 -102920242.87006152 0 0 0 -29336809.319403827 14015471.301781595 -1603672.4246610031 0 -1603672.4246610031 -102143920.91597563 0 0 0 -30844957.364967912 -3839316.3521465738 19465923.52286569 0 19465923.52286569 -107672750.14709114 0 0 0 -39029223.274733171 -54239437.094380178 12903181.202322422 0 12903181.202322422 -101024244.87500674 0 0 0 -54342288.68928542 3521126.9563751407 -1629687.8873567283 0 -1629687.8873567283 -96714863.646410108 0 0 0 -32617807.841512237 20277619.210370317 2487466.1922143251 0 2487466.1922143251 -99621497.377469659 0 0 0 -27770357.35848476 15960394.593795612 -1856927.5444303735 0 -1856927.5444303735 -107639200.23680449 0 0 0 -32087581.975053132 22547852.66263644 2080314.4023914784 0 2080314.4023914784 -104606076.09519067 0 0 0 -28720378.201393981 3521126.9621169823 1629687.8929584138 0 1629687.8929584138 -96714863.643325463 0 0 0 -32617807.838422965 20277619.254367948 -2487466.1842438355 0 -2487466.1842438355 -99621497.333697736 0 0 0 -27770357.327765405 15960394.626090109 1856927.5568203181 0 1856927.5568203181 -107639200.21479681 0 0 0 -32087581.956047341 22547852.706143588 -2080314.3913038373 0 -2080314.3913038373 -104606076.07175747 0 0 0 -28720378.177964866 -45164036.226059839 -0.0016438010352430865 0 -0.0016438010352430865 -83720574.664737761 0 0 0 -45109613.811779149 6499514.018460975 -3239993.4014969468 0 -3239993.4014969468 -91186476.27967298 0 0 0 -29640436.7914242 6499513.999616906 3239993.4043572694 0 3239993.4043572694 -91186476.319110036 0 0 0 -29640436.811822623 25018415.932278991 0.0037926973221136975 0 0.0037926973221136975 -103255049.17910242 0 0 0 -27382821.636388183 13345496.117830455 2913057.3635908365 0 2913057.3635908365 -102311971.14783373 0 0 0 -31138266.260501117 26451123.500514805 -985675.82759155333 0 -985675.82759155333 -98508135.511125565 0 0 0 -25219954.203713745 -2833329.9834117889 -7617721.0826948956 0 -7617721.0826948956 -71748143.01418823 0 0 0 -26103515.549159996 11436455.85260199 -3291481.6502343304 0 -3291481.6502343304 -97819225.781553641 0 0 0 -30233969.475133061 11436455.823168933 3291481.6546545178 0 3291481.6546545178 -97819225.819909424 0 0 0 -30233969.498859167 26451123.477948181 985675.83036759496 0 985675.83036759496 -98508135.522086427 0 0 0 -25219954.215448387 -2833329.9660824584 7617721.0850115884 0 7617721.0850115884 -71748142.993742451 0 0 0 -26103515.535938714 13345496.144371748 -2913057.3606420755 0 -2913057.3606420755 -102311971.1192677 0 0 0 -31138266.24121359 
</DataArray>
</CellData>
</Piece>
</UnstructuredGrid>
</VTKFile>
