<?xml version="1.0"?>
<VTKFile type="UnstructuredGrid" version="0.1" byte_order="LittleEndian">
<UnstructuredGrid>
<Piece NumberOfPoints="84" NumberOfCells="28">
<Points>
<DataArray type="Float64" NumberOfComponents="3" format="ascii">
0 0 0 0.29166666666652658 0.2916666666668038 0 0 0.33333333333472032 0 0 0 0 0.33333333333250248 0 0 0.29166666666652658 0.2916666666668038 0 0.33333333333250248 0 0 0.66666666666578889 0 0 0.49999999999981742 0.1726190476194705 0 0.33333333333250248 0 0 0.49999999999981742 0.1726190476194705 0 0.29166666666652658 0.2916666666668038 0 0.50000000000004996 0.49999999999997519 0 0.17261904761971569 0.50000000000021494 0 0.29166666666652658 0.2916666666668038 0 0.50000000000004996 0.49999999999997519 0 0.29166666666652658 0.2916666666668038 0 0.49999999999981742 0.1726190476194705 0 0 0.33333333333472032 0 0.29166666666652658 0.2916666666668038 0 0.17261904761971569 0.50000000000021494 0 0 0.66666666666759111 0 0 0.33333333333472032 0 0.17261904761971569 0.50000000000021494 0 0 0.66666666666759111 0 0.17261904761971569 0.50000000000021494 0 0.29166666666684449 0.7083333333334445 0 0 1 0 0.29166666666684449 0.7083333333334445 0 0.33333333333472032 1 0 0 1 0 0 0.66666666666759111 0 0.29166666666684449 0.7083333333334445 0 0.33333333333472032 1 0 0.29166666666684449 0.7083333333334445 0 0.50000000000021227 0.82738095238030207 0 0.50000000000004996 0.49999999999997519 0 0.29166666666684449 0.7083333333334445 0 0.17261904761971569 0.50000000000021494 0 0.50000000000004996 0.49999999999997519 0 0.50000000000021227 0.82738095238030207 0 0.29166666666684449 0.7083333333334445 0 0.50000000000004996 0.49999999999997519 0 0.82738095238054699 0.49999999999982031 0 0.70833333333346027 0.70833333333323512 0 0.50000000000004996 0.49999999999997519 0 0.70833333333346027 0.70833333333323512 0 0.50000000000021227 0.82738095238030207 0 0.66666666666759111 1 0 0.50000000000021227 0.82738095238030207 0 0.70833333333346027 0.70833333333323512 0 0.66666666666759111 1 0 0.33333333333472032 1 0 0.50000000000021227 0.82738095238030207 0 1 1 0 0.70833333333346027 0.70833333333323512 0 1 0.66666666666578889 0 1 1 0 0.66666666666759111 1 0 0.70833333333346027 0.70833333333323512 0 1 0.66666666666578889 0 0.70833333333346027 0.70833333333323512 0 0.82738095238054699 0.49999999999982031 0 1 0.33333333333250248 0 1 0.66666666666578889 0 0.82738095238054699 0.49999999999982031 0 1 0.33333333333250248 0 0.82738095238054699 0.49999999999982031 0 0.70833333333327586 0.2916666666665107 0 1 0 0 0.70833333333327586 0.2916666666665107 0 0.66666666666578889 0 0 1 0 0 1 0.33333333333250248 0 0.70833333333327586 0.2916666666665107 0 0.66666666666578889 0 0 0.70833333333327586 0.2916666666665107 0 0.49999999999981742 0.1726190476194705 0 0.50000000000004996 0.49999999999997519 0 0.70833333333327586 0.2916666666665107 0 0.82738095238054699 0.49999999999982031 0 0.50000000000004996 0.49999999999997519 0 0.49999999999981742 0.1726190476194705 0 0.70833333333327586 0.2916666666665107 0 
</DataArray>
</Points>
<Cells>
<DataArray type="UInt32" Name="connectivity" format="ascii">
0 1 2 3 4 5 6 7 8 9 10 11 12 13 14 15 16 17 18 19 20 21 22 23 24 25 26 27 28 29 30 31 32 33 34 35 36 37 38 39 40 41 42 43 44 45 46 47 48 49 50 51 52 53 54 55 56 57 58 59 60 61 62 63 64 65 66 67 68 69 70 71 72 73 74 75 76 77 78 79 80 81 82 83 
</DataArray>
<DataArray type="UInt32" Name="offsets" format="ascii">
3 6 9 12 15 18 21 24 27 30 33 36 39 42 45 48 51 54 57 60 63 66 69 72 75 78 81 84 
</DataArray>
<DataArray type="UInt32" Name="types" format="ascii">
5 5 5 5 5 5 5 5 5 5 5 5 5 5 5 5 5 5 5 5 5 5 5 5 5 5 5 5 
</DataArray>
</Cells>
<PointData Scalars="" Vectors="displacement," Tensors="">
<DataArray type="Float64" Name="displacement" NumberOfComponents="3" format="ascii">
-1.0814873721535951e-06 -0.00030115924874423366 0 0.076085716117272009 -0.27495205895782726 0 -5.1850608412365637e-07 -0.31374060586651215 0 -1.0814873721535951e-06 -0.00030115924874423366 0 0.086803847508725801 -0.00030112453024452391 0 0.076085716117272023 -0.27495205895782726 0 0.086803847508725801 -0.00030112453024447913 0 0.17170308457310737 -0.00029937214673125053 0 0.12959211708789128 -0.16330530737087232 0 0.086803847508725801 -0.00030112453024447913 0 0.12959211708789128 -0.16330530737087232 0 0.076085716117272023 -0.27495205895782726 0 0.13020754214136945 -0.47236013396705245 0 0.045316964519684678 -0.47056756520439669 0 0.076085716117272023 -0.27495205895782726 0 0.13020754214136945 -0.47236013396705245 0 0.076085716117272023 -0.27495205895782721 0 0.12959211708789128 -0.16330530737087232 0 -5.1850608412365637e-07 -0.31374060586651215 0 0.076085716117272023 -0.27495205895782726 0 0.045316964519684678 -0.47056756520439669 0 -1.0232895356107976e-06 -0.62679313295872652 0 -5.1850608412365637e-07 -0.31374060586651215 0 0.045316964519684678 -0.47056756520439669 0 -1.0232895356107976e-06 -0.62679313295872652 0 0.045316964519684678 -0.47056756520439669 0 0.077042609381035507 -0.66700408815623091 0 4.1650786114012706e-06 -0.93941634339850888 0 0.077042609381035507 -0.66700408815623091 0 0.089887063507523637 -0.94180722125227445 0 4.1650786114012706e-06 -0.93941634339850888 0 -1.0232895356107976e-06 -0.62679313295872652 0 0.077042609381035507 -0.66700408815623091 0 0.089887063507523637 -0.94180722125227445 0 0.077042609381035507 -0.66700408815623091 0 0.13196571907075458 -0.78148405350868277 0 0.13020754214136945 -0.47236013396705245 0 0.077042609381035507 -0.66700408815623091 0 0.045316964519684678 -0.47056756520439669 0 0.13020754214136945 -0.47236013396705245 0 0.13196571907075458 -0.78148405350868277 0 0.077042609381035507 -0.66700408815623091 0 0.13020754214136945 -0.47236013396705245 0 0.21232954640107854 -0.47493273381981227 0 0.18406598658750276 -0.67145513254886768 0 0.13020754214136945 -0.47236013396705245 0 0.18406598658750276 -0.67145513254886768 0 0.13196571907075458 -0.78148405350868277 0 0.17713299459233461 -0.94782662901765746 0 0.13196571907075458 -0.78148405350868277 0 0.18406598658750276 -0.67145513254886768 0 0.17713299459233461 -0.94782662901765746 0 0.089887063507523637 -0.94180722125227445 0 0.13196571907075458 -0.78148405350868277 0 0.25937253013207545 -0.95353364869417456 0 0.18406598658750276 -0.67145513254886768 0 0.25502613893015386 -0.63520492877031476 0 0.25937253013207545 -0.95353364869417456 0 0.17713299459233461 -0.94782662901765746 0 0.18406598658750276 -0.67145513254886768 0 0.25502613893015386 -0.63520492877031476 0 0.18406598658750276 -0.67145513254886768 0 0.21232954640107854 -0.47493273381981227 0 0.25339086376524672 -0.31727422203428696 0 0.25502613893015386 -0.63520492877031476 0 0.21232954640107854 -0.47493273381981227 0 0.25339086376524672 -0.31727422203428696 0 0.21232954640107854 -0.47493273381981227 0 0.18235488264448668 -0.27668711522509831 0 0.25337577184463189 -0.00029784739730442965 0 0.18235488264448668 -0.27668711522509831 0 0.17170308457310737 -0.00029937214673125053 0 0.25337577184463189 -0.00029784739730442965 0 0.25339086376524672 -0.31727422203428696 0 0.18235488264448668 -0.27668711522509831 0 0.17170308457310737 -0.00029937214673125053 0 0.18235488264448668 -0.27668711522509831 0 0.12959211708789128 -0.16330530737087232 0 0.13020754214136945 -0.47236013396705245 0 0.18235488264448668 -0.27668711522509831 0 0.21232954640107854 -0.47493273381981227 0 0.13020754214136945 -0.47236013396705245 0 0.12959211708789128 -0.16330530737087232 0 0.18235488264448668 -0.27668711522509831 0 
</DataArray>
</PointData>
<CellData Scalars="displacement_divergence," Vectors="" Tensors="stress,">
<DataArray type="Float64" Name="stress" NumberOfComponents="9" format="ascii">
0.028653051614103753 -0.00055841615845941828 0 -0.00055841615845941828 -0.97233500777292325 0 0 0 -0.18873639123176389 0.027777448951865735 0.00018930730227540574 0 0.00018930730227540574 -0.97395181664646646 0 0 0 -0.18923487353892016 0.020690465335588548 0.0008196240406395626 0 0.0008196240406395626 -0.97847860196256453 0 0 0 -0.19155762732539519 0.023660700298156312 -0.0010185623416774092 0 -0.0010185623416774092 -0.97533542979771115 0 0 0 -0.19033494589991096 0.026423676321056522 -0.0020803524415601718 0 -0.0020803524415601718 -0.97473082808471245 0 0 0 -0.18966143035273125 0.024332685743781474 -0.00069037519145542792 0 -0.00069037519145542792 -0.97727309500778814 0 0 0 -0.19058808185280132 0.029071375840261426 0.00010428720947378012 0 0.00010428720947378012 -0.97155314136527515 0 0 0 -0.18849635310500273 0.030823259994042507 -0.00072644840987212689 0 -0.00072644840987212689 -0.97058333216601667 0 0 0 -0.18795201443439485 0.031899851765118226 -0.00082861450994886621 0 -0.00082861450994886621 -0.97215509491198349 0 0 0 -0.18805104862937294 0.038177020129013139 -0.00068989471348679388 0 -0.00068989471348679388 -0.97082814984067545 0 0 0 -0.18653022594233248 0.032977740345195211 -0.0016121629586521857 0 -0.0016121629586521857 -0.96870309754073036 0 0 0 -0.187145071439107 0.027277726465117696 -0.0021494006130857723 0 -0.0021494006130857723 -0.97281944626066519 0 0 0 -0.1891083439591095 0.027067235877811902 -0.00056876333660227374 0 -0.00056876333660227374 -0.97215658985770181 0 0 0 -0.18901787079597798 0.027226491961496926 -0.0019048549473774656 0 -0.0019048549473774656 -0.97676948464396018 0 0 0 -0.18990859853649264 0.015439919253906864 -7.6243614887933886e-05 0 -7.6243614887933886e-05 -0.98342946810941179 0 0 0 -0.19359790977110103 0.018990929068092632 -0.0025218743817737588 0 -0.0025218743817737588 -0.9788283753673106 0 0 0 -0.19196748925984364 0.022347056117746678 -0.00062069553501797881 0 -0.00062069553501797881 -0.98361322815740859 0 0 0 -0.19225323440793241 0.027985264218841399 -0.0037966149300315446 0 -0.0037966149300315446 -0.97863308168628471 0 0 0 -0.19012956349348875 0.007120166703886599 0.00037458012728663892 0 0.00037458012728663892 -0.99299720808347081 0 0 0 -0.19717540827591684 0.010241429011087377 -0.0023524175283372714 0 -0.0023524175283372714 -0.98702847820526207 0 0 0 -0.19535740983883487 0.0070651315860360553 -0.0032271574621026422 0 -0.0032271574621026422 -0.98763299067720256 0 0 0 -0.1961135718182333 0.004623431398732173 -0.0011103512445220787 0 -0.0011103512445220787 -0.99237760070054359 0 0 0 -0.19755083386036232 0.0060282547191832514 0.00067597748805758862 0 0.00067597748805758862 -0.98763662242526673 0 0 0 -0.19632167354121674 0.0090156874070379169 0.00063435188287607673 0 0.00063435188287607673 -0.98484584126321628 0 0 0 -0.1951660307712357 0.0064590959186912938 -0.0013597922136721619 0 -0.0013597922136721619 -0.98893639676336664 0 0 0 -0.19649546016893507 0.018058069648245412 -0.0010880066541603672 0 -0.0010880066541603672 -0.98214085511732863 0 0 0 -0.19281655709381665 0.015636935047825762 -0.0030499844883988825 0 -0.0030499844883988825 -0.98264140493372143 0 0 0 -0.19340089397717913 0.017979526964596131 -0.0012132008440256525 0 -0.0012132008440256525 -0.97886138470258333 0 0 0 -0.19217637154759745 
</DataArray>
<DataArray type="Float64" Name="displacement_divergence" format="ascii">
-0.67945100843435002 -0.68124554474011245 -0.68960745837142268 -0.68520580523967956 -0.68278114926983235 -0.68611709467008475 -0.67858687117800986 -0.67662725196382156 -0.67698377506574259 -0.67150881339239721 -0.67372225718078538 -0.68079003825279383 -0.68046433486552083 -0.6836709547313734 -0.69695247517596393 -0.69108296133543634 -0.69211164386855684 -0.68446642857655959 -0.70983146979330103 -0.70328667541980572 -0.70600885854563966 -0.71118300189730421 -0.70675802474838023 -0.7025977107764485 -0.70738365660816616 -0.69413960553774023 -0.69624321831784441 -0.69183493757135039 
</DataArray>
</CellData>
</Piece>
</UnstructuredGrid>
</VTKFile>
