<?xml version="1.0"?>
<VTKFile type="UnstructuredGrid" version="0.1" byte_order="LittleEndian">
<UnstructuredGrid>
<Piece NumberOfPoints="84" NumberOfCells="28">
<Points>
<DataArray type="Float64" NumberOfComponents="3" format="ascii">
0 0 0 0.29166666666652658 0.2916666666668038 0 0 0.33333333333472032 0 0 0 0 0.33333333333250248 0 0 0.29166666666652658 0.2916666666668038 0 0.33333333333250248 0 0 0.66666666666578889 0 0 0.49999999999981742 0.1726190476194705 0 0.33333333333250248 0 0 0.49999999999981742 0.1726190476194705 0 0.29166666666652658 0.2916666666668038 0 0.50000000000004996 0.49999999999997519 0 0.17261904761971569 0.50000000000021494 0 0.29166666666652658 0.2916666666668038 0 0.50000000000004996 0.49999999999997519 0 0.29166666666652658 0.2916666666668038 0 0.49999999999981742 0.1726190476194705 0 0 0.33333333333472032 0 0.29166666666652658 0.2916666666668038 0 0.17261904761971569 0.50000000000021494 0 0 0.66666666666759111 0 0 0.33333333333472032 0 0.17261904761971569 0.50000000000021494 0 0 0.66666666666759111 0 0.17261904761971569 0.50000000000021494 0 0.29166666666684449 0.7083333333334445 0 0 1 0 0.29166666666684449 0.7083333333334445 0 0.33333333333472032 1 0 0 1 0 0 0.66666666666759111 0 0.29166666666684449 0.7083333333334445 0 0.33333333333472032 1 0 0.29166666666684449 0.7083333333334445 0 0.50000000000021227 0.82738095238030207 0 0.50000000000004996 0.49999999999997519 0 0.29166666666684449 0.7083333333334445 0 0.17261904761971569 0.50000000000021494 0 0.50000000000004996 0.49999999999997519 0 0.50000000000021227 0.82738095238030207 0 0.29166666666684449 0.7083333333334445 0 0.50000000000004996 0.49999999999997519 0 0.82738095238054699 0.49999999999982031 0 0.70833333333346027 0.70833333333323512 0 0.50000000000004996 0.49999999999997519 0 0.70833333333346027 0.70833333333323512 0 0.50000000000021227 0.82738095238030207 0 0.66666666666759111 1 0 0.50000000000021227 0.82738095238030207 0 0.70833333333346027 0.70833333333323512 0 0.66666666666759111 1 0 0.33333333333472032 1 0 0.50000000000021227 0.82738095238030207 0 1 1 0 0.70833333333346027 0.70833333333323512 0 1 0.66666666666578889 0 1 1 0 0.66666666666759111 1 0 0.70833333333346027 0.70833333333323512 0 1 0.66666666666578889 0 0.70833333333346027 0.70833333333323512 0 0.82738095238054699 0.49999999999982031 0 1 0.33333333333250248 0 1 0.66666666666578889 0 0.82738095238054699 0.49999999999982031 0 1 0.33333333333250248 0 0.82738095238054699 0.49999999999982031 0 0.70833333333327586 0.2916666666665107 0 1 0 0 0.70833333333327586 0.2916666666665107 0 0.66666666666578889 0 0 1 0 0 1 0.33333333333250248 0 0.70833333333327586 0.2916666666665107 0 0.66666666666578889 0 0 0.70833333333327586 0.2916666666665107 0 0.49999999999981742 0.1726190476194705 0 0.50000000000004996 0.49999999999997519 0 0.70833333333327586 0.2916666666665107 0 0.82738095238054699 0.49999999999982031 0 0.50000000000004996 0.49999999999997519 0 0.49999999999981742 0.1726190476194705 0 0.70833333333327586 0.2916666666665107 0 
</DataArray>
</Points>
<Cells>
<DataArray type="UInt32" Name="connectivity" format="ascii">
0 1 2 3 4 5 6 7 8 9 10 11 12 13 14 15 16 17 18 19 20 21 22 23 24 25 26 27 28 29 30 31 32 33 34 35 36 37 38 39 40 41 42 43 44 45 46 47 48 49 50 51 52 53 54 55 56 57 58 59 60 61 62 63 64 65 66 67 68 69 70 71 72 73 74 75 76 77 78 79 80 81 82 83 
</DataArray>
<DataArray type="UInt32" Name="offsets" format="ascii">
3 6 9 12 15 18 21 24 27 30 33 36 39 42 45 48 51 54 57 60 63 66 69 72 75 78 81 84 
</DataArray>
<DataArray type="UInt32" Name="types" format="ascii">
5 5 5 5 5 5 5 5 5 5 5 5 5 5 5 5 5 5 5 5 5 5 5 5 5 5 5 5 
</DataArray>
</Cells>
<PointData Scalars="" Vectors="displacement," Tensors="">
<DataArray type="Float64" Name="displacement" NumberOfComponents="3" format="ascii">
-2.6226092843373026e-07 -0.00030028488087505064 0 0.071485436475311998 -0.27899784880715106 0 -1.2585371942397231e-07 -0.31870215015729136 0 -2.6226092843373026e-07 -0.00030028488087505064 0 0.081659742010845235 -0.00030027388724549852 0 0.071485436475312011 -0.27899784880715106 0 0.081659742010845235 -0.00030027388724545304 0 0.16285020958063723 -0.00029984339600511493 0 0.12233824177238696 -0.16535531183436594 0 0.081659742010845235 -0.00030027388724545304 0 0.12233824177238696 -0.16535531183436594 0 0.071485436475312011 -0.27899784880715106 0 0.12249062166267899 -0.47836726641020494 0 0.042378605620740639 -0.4779282268488238 0 0.071485436475312011 -0.27899784880715106 0 0.12249062166267899 -0.47836726641020494 0 0.071485436475312011 -0.27899784880715101 0 0.12233824177238696 -0.16535531183436594 0 -1.2585371942397231e-07 -0.31870215015729136 0 0.071485436475312011 -0.27899784880715106 0 0.042378605620740639 -0.4779282268488238 0 -2.5306472909901097e-07 -0.63700582931506056 0 -1.2585371942397231e-07 -0.31870215015729136 0 0.042378605620740639 -0.4779282268488238 0 -2.5306472909901097e-07 -0.63700582931506056 0 0.042378605620740639 -0.4779282268488238 0 0.071721206768826484 -0.67705856225067718 0 1.0200978252530895e-06 -0.95520073495551994 0 0.071721206768826484 -0.67705856225067718 0 0.082418521050227206 -0.95578886375955596 0 1.0200978252530895e-06 -0.95520073495551994 0 -2.5306472909901097e-07 -0.63700582931506056 0 0.071721206768826484 -0.67705856225067718 0 0.082418521050227206 -0.95578886375955596 0 0.071721206768826484 -0.67705856225067718 0 0.12292301975602132 -0.79139408976269532 0 0.12249062166267899 -0.47836726641020494 0 0.071721206768826484 -0.67705856225067718 0 0.042378605620740639 -0.4779282268488238 0 0.12249062166267899 -0.47836726641020494 0 0.12292301975602131 -0.79139408976269532 0 0.071721206768826484 -0.67705856225067718 0 0.12249062166267899 -0.47836726641020494 0 0.2019236527346705 -0.47899710773075832 0 0.17343153632366107 -0.67814938106813949 0 0.12249062166267899 -0.47836726641020494 0 0.17343153632366107 -0.67814938106813949 0 0.12292301975602132 -0.79139408976269532 0 0.16418514992404257 -0.95726555852403517 0 0.12292301975602132 -0.79139408976269532 0 0.17343153632366107 -0.67814938106813949 0 0.16418514992404257 -0.95726555852403517 0 0.082418521050227206 -0.95578886375955596 0 0.12292301975602132 -0.79139408976269532 0 0.24472801955892587 -0.95866191412325252 0 0.17343153632366107 -0.67814938106813949 0 0.24366309325271474 -0.63906711357234258 0 0.24472801955892587 -0.95866191412325252 0 0.16418514992404257 -0.95726555852403517 0 0.17343153632366107 -0.67814938106813949 0 0.24366309325271474 -0.63906711357234258 0 0.17343153632366107 -0.67814938106813949 0 0.2019236527346705 -0.47899710773075832 0 0.24326016465673714 -0.31956722893315881 0 0.24366309325271474 -0.63906711357234258 0 0.2019236527346705 -0.47899710773075832 0 0.24326016465673714 -0.31956722893315881 0 0.2019236527346705 -0.47899710773075832 0 0.17300925481770216 -0.27942219892908693 0 0.24325397097623092 -0.00029948055262392972 0 0.17300925481770216 -0.27942219892908693 0 0.16285020958063723 -0.00029984339600511493 0 0.24325397097623092 -0.00029948055262392972 0 0.24326016465673714 -0.31956722893315881 0 0.17300925481770216 -0.27942219892908693 0 0.16285020958063723 -0.00029984339600511493 0 0.17300925481770216 -0.27942219892908693 0 0.12233824177238696 -0.16535531183436594 0 0.12249062166267899 -0.47836726641020494 0 0.17300925481770216 -0.27942219892908693 0 0.2019236527346705 -0.47899710773075832 0 0.12249062166267899 -0.47836726641020494 0 0.12233824177238696 -0.16535531183436594 0 0.17300925481770216 -0.27942219892908693 0 
</DataArray>
</PointData>
<CellData Scalars="displacement_divergence," Vectors="" Tensors="stress,">
<DataArray type="Float64" Name="stress" NumberOfComponents="9" format="ascii">
0.0069911289563452383 -0.00013687493447461785 0 -0.00013687493447461785 -0.99325804674557472 0 0 0 -0.19725338355784588 0.0067737537203328424 4.7435168172175623e-05 0 4.7435168172175623e-05 -0.99365503851838433 0 0 0 -0.19737625695961031 0.0050287373369644617 0.00020152495383429043 0 0.00020152495383429043 -0.99476589527468462 0 0 0 -0.19794743158754402 0.0057566824293893148 -0.00024881081713784559 0 -0.00024881081713784559 -0.9939960919905072 0 0 0 -0.19764788191222357 0.006441955451453929 -0.00050915493915993021 0 -0.00050915493915993021 -0.99383965509350647 0 0 0 -0.19747953992841055 0.0059245853674725346 -0.00016604588541430099 0 -0.00016604588541430099 -0.99446598185534441 0 0 0 -0.1977082792975744 0.0070958508170769763 2.7308249758439818e-05 0 2.7308249758439818e-05 -0.99305964808010616 0 0 0 -0.19719275945260584 0.0075299828243472477 -0.00017935204645880276 0 -0.00017935204645880276 -0.99281650166332236 0 0 0 -0.19705730376779496 0.0077949561058991979 -0.00020333534969896316 0 -0.00020333534969896316 -0.99319923608106131 0 0 0 -0.19708085599503244 0.0093375884987884072 -0.0001706943449069076 0 -0.0001706943449069076 -0.99286840790558406 0 0 0 -0.1967061638813592 0.0080615812539010789 -0.000396079591414078 0 -0.000396079591414078 -0.992343684815718 0 0 0 -0.19685642071236345 0.0066535805266743353 -0.00052628928962406007 0 -0.00052628928962406007 -0.99336014489334601 0 0 0 -0.19734131287333442 0.0066010809701183004 -0.0001368597217037415 0 -0.0001368597217037415 -0.99320315301885231 0 0 0 -0.19732041440974685 0.0066392289056696882 -0.00046485864995116088 0 -0.00046485864995116088 -0.99433463071522643 0 0 0 -0.19753908036191134 0.0037491512758460743 -1.6371905278966576e-05 0 -1.6371905278966576e-05 -0.99596924490519001 0 0 0 -0.19844401872586881 0.0046188284846391259 -0.00061612929332865995 0 -0.00061612929332865995 -0.99483973082048394 0 0 0 -0.19804418046716898 0.0054401506722567827 -0.00015096582563178806 0 -0.00015096582563178806 -0.9960125456749771 0 0 0 -0.19811447900054413 0.0068239698902647916 -0.00093148565692409804 0 -0.00093148565692409804 -0.99478698136305077 0 0 0 -0.19759260229455733 0.0017268956077540754 9.2468491746933168e-05 0 9.2468491746933168e-05 -0.99830202781702493 0 0 0 -0.19931502644185417 0.0024850683973072218 -0.00057191263534529856 0 -0.00057191263534529856 -0.99684559684960483 0 0 0 -0.19887210569045954 0.0017132642054296099 -0.000785294071040471 0 -0.000785294071040471 -0.99699568879606248 0 0 0 -0.19905648491812655 0.0011209775498021747 -0.0002689063786374124 0 -0.0002689063786374124 -0.99815689511013961 0 0 0 -0.19940718351206749 0.0014593868028727197 0.00016602722674863291 0 0.00016602722674863291 -0.9969984789869113 0 0 0 -0.19910781843680775 0.0021816799954124245 0.00015556078628978874 0 0.00015556078628978874 -0.99632029746062456 0 0 0 -0.19882772349304245 0.0015631073163497667 -0.00033020283801266093 0 -0.00033020283801266093 -0.99732093686257106 0 0 0 -0.19915156590924424 0.0043846134497909708 -0.00026492733469141161 0 -0.00026492733469141161 -0.9956609837482342 0 0 0 -0.19825527405968868 0.0037963925433965873 -0.00074229753558996414 0 -0.00074229753558996414 -0.99578027983498418 0 0 0 -0.19839677745831752 0.0043639774199883616 -0.00029477827478185947 0 -0.00029477827478185947 -0.99485613384221505 0 0 0 -0.1980984312844454 
</DataArray>
<DataArray type="Float64" Name="displacement_divergence" format="ascii">
-0.71011218080824523 -0.71055452505459704 -0.71261075371515847 -0.71153237488400489 -0.71092634374227814 -0.71174980547126787 -0.70989393402938106 -0.70940629356406193 -0.70949108158211671 -0.70814218997289302 -0.70868311456450817 -0.71042872634400367 -0.71035349187508845 -0.71114068930288066 -0.7143984674131274 -0.71295904968180834 -0.71321212440195847 -0.71133336826040683 -0.71753409519067546 -0.71593958048565476 -0.71660334570525608 -0.71786586064344271 -0.71678814637250765 -0.71577980457495283 -0.7169456372732792 -0.7137189866148792 -0.71422839884994249 -0.71315435262400351 
</DataArray>
</CellData>
</Piece>
</UnstructuredGrid>
</VTKFile>
