<?xml version="1.0"?>
<VTKFile type="UnstructuredGrid" version="0.1" byte_order="LittleEndian">
<UnstructuredGrid>
<Piece NumberOfPoints="3162" NumberOfCells="1054">
<Points>
<DataArray type="Float64" NumberOfComponents="3" format="ascii">
0.39507969989512881 0.74417394063201048 0 0.42715538333808079 0.70077759375307946 0 0.44764943295894188 0.73752415265401661 0 0.74417394063200648 0.6049203001048884 0 0.70087539567735502 0.57165914616526226 0 0.73752415265401194 0.55235056704108476 0 0.25582605936799319 0.39507969989513358 0 0.2963043386970643 0.4298320229681446 0 0.26247584734598628 0.44764943295894732 0 0.60492030010488373 0.25582605936799729 0 0.57188338999077359 0.29874123486230147 0 0.55175647814720108 0.26104505532086641 0 0.56566515596461675 0.63670464971409091 0 0.61233489393901674 0.60846740003560018 0 0.60879112811253555 0.66592422311595834 0 0.6519524273377173 0.64249931920594539 0 0.60879112811253555 0.66592422311595834 0 0.61233489393901674 0.60846740003560018 0 0.640156794425081 0.43301393728221721 0 0.60122390529523662 0.39097801071820221 0 0.66346942254826746 0.391530810754116 0 0.6424993192059415 0.3480475726622802 0 0.66346942254826746 0.391530810754116 0 0.60122390529523662 0.39097801071820221 0 0.74198804864688339 0.90892718720327403 0 0.77688977118331393 0.94706199857866258 0 0.71789175274016548 0.95136708251202151 0 0.091072812796719582 0.74198804864687795 0 0.052938001421335763 0.77688977118331159 0 0.04863291748797445 0.71789175274016204 0 0.89586000931544074 0.25714619498770419 0 0.94465622530468663 0.23167460333446291 0 0.94915666091748963 0.28320804985299752 0 0.25714619498771307 0.1041399906845497 0 0.23167460333446299 0.05534377469531044 0 0.28320804985300141 0.050843339082505573 0 0.89999999999958358 1 0 0.84999999999965292 1 0 0.90554214442080472 0.95994154153067524 0 0 0.89999999999958358 0 0 0.84999999999965292 0 0.040058458469322648 0.90554214442079806 0 0.040058458469319477 0.094457855579157729 0 0 0.15000000000062411 0 0 0.10000000000041601 0 0.094457855579188163 0.95994154153068711 0 0.15000000000062411 1 0 0.10000000000041601 1 0 0.90554214442081604 0.040058458469347469 0 0.84999999999960507 0 0 0.89999999999973679 0 0 0.95994154153065969 0.90554214442078618 0 1 0.84999999999960507 0 1 0.89999999999973679 0 1 0.099999999999814668 0 1 0.14999999999970359 0 0.95994154153057998 0.094457855579277675 0 0.099999999999814668 0 0 0.14999999999970359 0 0 0.094457855579284614 0.040058458469418363 0 1 0.19999999999955789 0 0.94465622530468663 0.23167460333446291 0 0.96080966346491015 0.18035159017841959 0 0.19999999999955789 0 0 0.23167460333446299 0.05534377469531044 0 0.18035159017842109 0.039190336535090492 0 0.79999999999999982 1 0 0.77688977118331393 0.94706199857866258 0 0.82675923981951416 0.95611053755456221 0 0 0.79999999999999982 0 0.052938001421335763 0.77688977118331159 0 0.043889462445437968 0.82675923981951283 0 1 0.79999999999947335 0 0.96071093996985157 0.81954008780615684 0 0.9442075111696665 0.76777356182390766 0 0.79999999999947335 0 0 0.82050174006822896 0.038839999600956771 0 0.76543419162344684 0.056452228708420968 0 0.20000000000083221 1 0 0.18045991219397989 0.960710939969875 0 0.23222643817617661 0.94420751116970569 0 0 0.20000000000083221 0 0.038839999600931263 0.17949825993190149 0 0.056452228708379938 0.23456580837661581 0 0.50000000000002642 0.7803135888501761 0 0.53770425635794761 0.80104587463999666 0 0.49771727055908782 0.83998685797641781 0 0.2196864111498267 0.50000000000003153 0 0.1989632851005598 0.53769147668950479 0 0.16001314202358469 0.49771727055909287 0 0.78031358885017377 0.49999999999997569 0 0.80106707846564795 0.46230714888029367 0 0.83998574657308889 0.50228528270184081 0 0.49999999999997108 0.21968641114982909 0 0.46229330881044273 0.19890916456654811 0 0.50228272944093777 0.16001314202359701 0 0.79999999999999982 1 0 0.75000000000034661 1 0 0.77688977118331393 0.94706199857866258 0 0 0.79999999999999982 0 0 0.75000000000034661 0 0.052938001421335763 0.77688977118331159 0 1 0.19999999999955789 0 1 0.24999999999941211 0 0.94465622530468663 0.23167460333446291 0 0.19999999999955789 0 0 0.24999999999941211 0 0 0.23167460333446299 0.05534377469531044 0 1 0.74999999999934175 0 1 0.79999999999947335 0 0.9442075111696665 0.76777356182390766 0 0.74999999999934175 0 0 0.79999999999947335 0 0 0.76543419162344684 0.056452228708420968 0 0.25000000000104028 1 0 0.20000000000083221 1 0 0.23222643817617661 0.94420751116970569 0 0 0.25000000000104028 0 0 0.20000000000083221 0 0.056452228708379938 0.23456580837661581 0 1 0.74999999999934175 0 0.9442075111696665 0.76777356182390766 0 0.94635952848698612 0.71209247961721311 0 0.74999999999934175 0 0 0.76543419162344684 0.056452228708420968 0 0.71174922810186925 0.053730171687687178 0 0.25000000000104028 1 0 0.23222643817617661 0.94420751116970569 0 0.28790752038294382 0.94635952848702642 0 0 0.25000000000104028 0 0.056452228708379938 0.23456580837661581 0 0.053730171687646627 0.28825077189828552 0 0.8289812646369813 0.82898126463698818 0 0.87660297360393757 0.8104127896505644 0 0.88962265630811221 0.85311725681459705 0 0.17101873536300011 0.82898126463696109 0 0.18958721034944021 0.87660297360394568 0 0.14688274318541941 0.88962265630811932 0 0.39507969989512881 0.74417394063201048 0 0.44764943295894188 0.73752415265401661 0 0.43306783640023289 0.78031198216144404 0 0.74417394063200648 0.6049203001048884 0 0.73752415265401194 0.55235056704108476 0 0.78031198216143516 0.56693216359979737 0 0.25582605936799319 0.39507969989513358 0 0.26247584734598628 0.44764943295894732 0 0.21968801783855879 0.43306783640023788 0 0.60492030010488373 0.25582605936799729 0 0.55175647814720108 0.26104505532086641 0 0.56683314878414581 0.21944955250104689 0 0.90554214442080472 0.95994154153067524 0 0.84999999999965292 1 0 0.86696410734367158 0.94753096683315619 0 0.040058458469322648 0.90554214442079806 0 0 0.84999999999965292 0 0.052469033166843738 0.86696410734366991 0 0.054872692726595548 0.13410685639845171 0 0 0.15000000000062411 0 0.040058458469319477 0.094457855579157729 0 0.13834721989462789 0.94095916274077984 0 0.15000000000062411 1 0 0.094457855579188163 0.95994154153068711 0 0.86589314360155567 0.054872692726639853 0 0.84999999999960507 0 0 0.90554214442081604 0.040058458469347469 0 0.94095916274074942 0.86165278010542579 0 1 0.84999999999960507 0 0.95994154153065969 0.90554214442078618 0 0.95994154153057998 0.094457855579277675 0 1 0.14999999999970359 0 0.94100406608115506 0.1383574446607955 0 0.094457855579284614 0.040058458469418363 0 0.14999999999970359 0 0 0.1383574446607988 0.058995933918849157 0 0.1104775404132264 0.2631175359816938 0 0.099694771212264055 0.22074048840547039 0 0.15899695163321451 0.22783674912227669 0 0.73688246401832591 0.11047754041323141 0 0.77925951159456153 0.09969477121230251 0 0.77216325087772952 0.15899695163319821 0 0.88949062093135778 0.73694585442531257 0 0.9041449437197947 0.7786886066890556 0 0.839908789927305 0.77106070975262608 0 0.26305414557470391 0.88949062093136155 0 0.22131139331094829 0.9041449437198319 0 0.22893929024737289 0.83990878992727813 0 0.74198804864688339 0.90892718720327403 0 0.71789175274016548 0.95136708251202151 0 0.70475631558365914 0.90098127745102974 0 0.091072812796719582 0.74198804864687795 0 0.04863291748797445 0.71789175274016204 0 0.099018722548963364 0.70475631558365193 0 0.89586000931544074 0.25714619498770419 0 0.94915666091748963 0.28320804985299752 0 0.89886191075654698 0.29506339503703172 0 0.25714619498771307 0.1041399906845497 0 0.28320804985300141 0.050843339082505573 0 0.29506339503703888 0.1011380892434444 0 0.65773042910151891 0.073296788161472337 0 0.62160809078275991 0.1093532031139005 0 0.6048537357103756 0.060530514380187868 0 0.92670321183853355 0.65773042910151081 0 0.89064679688610338 0.6216080907827598 0 0.93946948561981514 0.60485373571037115 0 0.073296788161418117 0.34226957089850552 0 0.10935320311385981 0.37839190921727089 0 0.06053051438015096 0.39514626428972788 0 0.3422695708985129 0.92670321183858773 0 0.37839190921727062 0.89064679688614412 0 0.39514626428973221 0.93946948561985189 0 0.49771727055908782 0.83998685797641781 0 0.53770425635794761 0.80104587463999666 0 0.54047998161173716 0.84333512669480526 0 0.16001314202358469 0.49771727055909287 0 0.1989632851005598 0.53769147668950479 0 0.1566648733051971 0.54047998161174216 0 0.83998574657308889 0.50228528270184081 0 0.80106707846564795 0.46230714888029367 0 0.84333218736938698 0.4595365182652234 0 0.50228272944093777 0.16001314202359701 0 0.46229330881044273 0.19890916456654811 0 0.45952001838826873 0.15666487330524251 0 0.8289812646369813 0.82898126463698818 0 0.88962265630811221 0.85311725681459705 0 0.85174853583809862 0.87705234031428159 0 0.17101873536300011 0.82898126463696109 0 0.14688274318541941 0.88962265630811932 0 0.1229476596857173 0.85174853583809695 0 0.83199780613337848 0.1690131600686714 0 0.8517485358380722 0.12294765968568611 0 0.88777909259956078 0.1484760565886154 0 0.16901316006868169 0.16800219386663079 0 0.12294765968567151 0.14825146416195439 0 0.1484760565886207 0.1122209074004519 0 0.15899695163321451 0.22783674912227669 0 0.099694771212264055 0.22074048840547039 0 0.12587517708284679 0.1889683322666954 0 0.77216325087772952 0.15899695163319821 0 0.77925951159456153 0.09969477121230251 0 0.8110316677333288 0.125875177082863 0 0.83199780613337848 0.1690131600686714 0 0.88777909259956078 0.1484760565886154 0 0.87355793346388477 0.18922011052113649 0 0.16901316006868169 0.16800219386663079 0 0.1484760565886207 0.1122209074004519 0 0.18922011052115781 0.12644206653611201 0 0.32191828326940508 0.76395804595204586 0 0.34270280102445921 0.71672416762035873 0 0.35837423432538362 0.77730446904312345 0 0.76395804595204597 0.67808171673060369 0 0.71518943060973483 0.65679402931717101 0 0.77730446904309636 0.64162576567462737 0 0.2360419540479583 0.32191828326940741 0 0.28473805236128291 0.34355768118673757 0 0.22269553095687891 0.35837423432538801 0 0.67808171673060202 0.23604195404795861 0 0.65679402931716913 0.28481056939027388 0 0.64162576567462404 0.22269553095690481 0 0.26305414557470391 0.88949062093136155 0 0.28790752038294382 0.94635952848702642 0 0.23222643817617661 0.94420751116970569 0 0.1104775404132264 0.2631175359816938 0 0.053730171687646627 0.28825077189828552 0 0.056452228708379938 0.23456580837661581 0 0.88949062093135778 0.73694585442531257 0 0.94635952848698612 0.71209247961721311 0 0.9442075111696665 0.76777356182390766 0 0.73688246401832591 0.11047754041323141 0 0.71174922810186925 0.053730171687687178 0 0.76543419162344684 0.056452228708420968 0 0.22893929024737289 0.83990878992727813 0 0.22131139331094829 0.9041449437198319 0 0.18958721034944021 0.87660297360394568 0 0.839908789927305 0.77106070975262608 0 0.9041449437197947 0.7786886066890556 0 0.87660297360393757 0.8104127896505644 0 0.35837423432538362 0.77730446904312345 0 0.34270280102445921 0.71672416762035873 0 0.39507969989512881 0.74417394063201048 0 0.77730446904309636 0.64162576567462737 0 0.71518943060973483 0.65679402931717101 0 0.74417394063200648 0.6049203001048884 0 0.22269553095687891 0.35837423432538801 0 0.28473805236128291 0.34355768118673757 0 0.25582605936799319 0.39507969989513358 0 0.64162576567462404 0.22269553095690481 0 0.65679402931716913 0.28481056939027388 0 0.60492030010488373 0.25582605936799729 0 0.57484409313590223 0.58437321637184114 0 0.53542397956703913 0.60119875982347493 0 0.53087311892591971 0.55299263141448529 0 1 0.59999999999894682 0 0.93946948561981514 0.60485373571037115 0 0.95638719633882641 0.5599388881718611 0 0.59999999999894682 0 0 0.6048537357103756 0.060530514380187868 0 0.55993888817186677 0.043612803661174412 0 0.40000000000166441 1 0 0.39514626428973221 0.93946948561985189 0 0.44006111182840962 0.9563871963389079 0 0 0.40000000000166441 0 0.06053051438015096 0.39514626428972788 0 0.043612803661092707 0.44006111182840391 0 0.43590673999053309 0.90289902042279657 0 0.48669777060454272 0.93510666819646593 0 0.44006111182840962 0.9563871963389079 0 0.097100979577207341 0.43590673999053198 0 0.064893331803534807 0.48669777060454478 0 0.043612803661092707 0.44006111182840391 0 0.90289902042272274 0.56409326000946114 0 0.93510666819640953 0.51330222939551939 0 0.95638719633882641 0.5599388881718611 0 0.56409326000946236 0.097100979577281268 0 0.5133022293955174 0.064893331803591428 0 0.55993888817186677 0.043612803661174412 0 0.57387636360620708 0.54318431390135336 0 0.57484409313590223 0.58437321637184114 0 0.53087311892591971 0.55299263141448529 0 1 0.69999999999921003 0 1 0.74999999999934175 0 0.94635952848698612 0.71209247961721311 0 0.69999999999921003 0 0 0.74999999999934175 0 0 0.71174922810186925 0.053730171687687178 0 0.30000000000124832 1 0 0.25000000000104028 1 0 0.28790752038294382 0.94635952848702642 0 0 0.30000000000124832 0 0 0.25000000000104028 0 0.053730171687646627 0.28825077189828552 0 0.90289902042272274 0.56409326000946114 0 0.85130417396420255 0.59518556406638579 0 0.85551478316835361 0.54646211938695222 0 0.43590673999053309 0.90289902042279657 0 0.40481452396081791 0.85130421228141606 0 0.45353891581270822 0.85551523377818905 0 0.56409326000946236 0.097100979577281268 0 0.59518547603920147 0.14869578771864489 0 0.54646108418729233 0.1444847662218687 0 0.097100979577207341 0.43590673999053198 0 0.14869578771858949 0.40481452396082068 0 0.1444847662218138 0.45353891581271188 0 0.90289902042272274 0.56409326000946114 0 0.89064679688610338 0.6216080907827598 0 0.85130417396420255 0.59518556406638579 0 0.56409326000946236 0.097100979577281268 0 0.62160809078275991 0.1093532031139005 0 0.59518547603920147 0.14869578771864489 0 0.43590673999053309 0.90289902042279657 0 0.37839190921727062 0.89064679688614412 0 0.40481452396081791 0.85130421228141606 0 0.097100979577207341 0.43590673999053198 0 0.10935320311385981 0.37839190921727089 0 0.14869578771858949 0.40481452396082068 0 0.74417394063200648 0.6049203001048884 0 0.69288637798153729 0.61204665218001397 0 0.70087539567735502 0.57165914616526226 0 0.39507969989512881 0.74417394063201048 0 0.38642358467307758 0.69286258923597266 0 0.42715538333808079 0.70077759375307946 0 0.60492030010488373 0.25582605936799729 0 0.61204665218000809 0.30711362201846659 0 0.57188338999077359 0.29874123486230147 0 0.25582605936799319 0.39507969989513358 0 0.30597655500381687 0.3934681685211931 0 0.2963043386970643 0.4298320229681446 0 0.51484304721220842 0.69707233951836334 0 0.57051182622447827 0.69668652018496713 0 0.54465502325161819 0.74717983044080061 0 0.30292766048163949 0.51484304721221474 0 0.30429740679959738 0.56913905146460098 0 0.25287139441262568 0.54458355434492378 0 0.70015119067225129 0.48481914991727459 0 0.69595787604187809 0.43071000156707989 0 0.74730218607442667 0.45539100053644521 0 0.48378871228000903 0.29745177826977359 0 0.43059486795334201 0.30395973419063538 0 0.45533136021725079 0.2525687312087147 0 0.91838802593870927 0.18172590289757809 0 0.96080966346491015 0.18035159017841959 0 0.94465622530468663 0.23167460333446291 0 0.18172590289758209 0.08161197406129285 0 0.18035159017842109 0.039190336535090492 0 0.23167460333446299 0.05534377469531044 0 0.81709574086843206 0.91318696080656769 0 0.82675923981951416 0.95611053755456221 0 0.77688977118331393 0.94706199857866258 0 0.086813039193431391 0.81709574086842884 0 0.043889462445437968 0.82675923981951283 0 0.052938001421335763 0.77688977118331159 0 0.91838802593884228 0.81827409710237209 0 0.9442075111696665 0.76777356182390766 0 0.96071093996985157 0.81954008780615684 0 0.82118136511706341 0.082875076569723011 0 0.76543419162344684 0.056452228708420968 0 0.82050174006822896 0.038839999600956771 0 0.1817259028976386 0.91838802593888857 0 0.23222643817617661 0.94420751116970569 0 0.18045991219397989 0.960710939969875 0 0.08287507656968085 0.1788186348829835 0 0.056452228708379938 0.23456580837661581 0 0.038839999600931263 0.17949825993190149 0 0.59819537371016407 0.74380966024143391 0 0.54465502325161819 0.74717983044080061 0 0.57051182622447827 0.69668652018496713 0 0.25619033975856881 0.59819537371016862 0 0.25287139441262568 0.54458355434492378 0 0.30429740679959738 0.56913905146460098 0 0.74380966024142703 0.40180462628984132 0 0.74730218607442667 0.45539100053644521 0 0.69595787604187809 0.43071000156707989 0 0.40180462628983732 0.2561903397585753 0 0.45533136021725079 0.2525687312087147 0 0.43059486795334201 0.30395973419063538 0 0.8312019486901514 0.72745002167959472 0 0.77998481823117694 0.71397317153691997 0 0.80847852346122429 0.67208120229789559 0 0.27254997832041528 0.8312019486901443 0 0.28602682846308641 0.77998481823117594 0 0.32791879770213411 0.80847852346120164 0 0.72767516840721058 0.16853767177393791 0 0.71397317153692708 0.22001518176882201 0 0.67208120229787616 0.1915214765387884 0 0.1685376717739448 0.27232483159280108 0 0.22001518176882229 0.28602682846307981 0 0.19152147653881049 0.32791879770215432 0 0.85607519768343354 0.69380468830529196 0 0.8312019486901514 0.72745002167959472 0 0.80847852346122429 0.67208120229789559 0 0.69379929796456197 0.14392209494791061 0 0.72767516840721058 0.16853767177393791 0 0.67208120229787616 0.1915214765387884 0 0.30619531169472608 0.85607519768342955 0 0.27254997832041528 0.8312019486901443 0 0.32791879770213411 0.80847852346120164 0 0.14392209494791439 0.30620070203545702 0 0.1685376717739448 0.27232483159280108 0 0.19152147653881049 0.32791879770215432 0 0.6519524273377173 0.64249931920594539 0 0.69288637798153729 0.61204665218001397 0 0.71518943060973483 0.65679402931717101 0 0.35944937237716967 0.65164789808436319 0 0.38642358467307758 0.69286258923597266 0 0.34270280102445921 0.71672416762035873 0 0.6424993192059415 0.3480475726622802 0 0.61204665218000809 0.30711362201846659 0 0.65679402931716913 0.28481056939027388 0 0.34804757266227387 0.35750068079406011 0 0.30597655500381687 0.3934681685211931 0 0.28473805236128291 0.34355768118673757 0 0.66919832404887702 0.81820888699730587 0 0.66923299355723143 0.8804077449518628 0 0.63969251517836323 0.84598529912890386 0 0.70085728320704077 0.84350379029875056 0 0.66923299355723143 0.8804077449518628 0 0.66919832404887702 0.81820888699730587 0 0.1817911130026923 0.66919832404888702 0 0.1195922550481313 0.66923299355722787 0 0.1540147008710982 0.63969251517836956 0 0.1564962097012354 0.70085728320703999 0 0.1195922550481313 0.66923299355722787 0 0.1817911130026923 0.66919832404888702 0 0.8182088869973061 0.33080167595111531 0 0.88040774495187946 0.33076700644278889 0 0.84598529912889664 0.36030748482164038 0 0.84350379029877964 0.29914271679296989 0 0.88040774495187946 0.33076700644278889 0 0.8182088869973061 0.33080167595111531 0 0.33080167595110582 0.18179111300269291 0 0.33076700644279272 0.1195922550481146 0 0.3603074848216346 0.15401470087110539 0 0.29914271679297122 0.15649620970120659 0 0.33076700644279272 0.1195922550481146 0 0.33080167595110582 0.18179111300269291 0 0.49189101320880302 0.59024331187324797 0 0.51172471858873747 0.64015771271794875 0 0.45517457031814612 0.62743100079604397 0 0.54901591374940373 0.42306523525165751 0 0.5047849391802508 0.40719950955717021 0 0.54715635490880632 0.37829016026862072 0 0.43590673999053309 0.90289902042279657 0 0.48758069708049379 0.89080072540186539 0 0.48669777060454272 0.93510666819646593 0 0.097100979577207341 0.43590673999053198 0 0.1091992745981364 0.48758069708049778 0 0.064893331803534807 0.48669777060454478 0 0.90289902042272274 0.56409326000946114 0 0.89079805168298443 0.51242544533572376 0 0.93510666819640953 0.51330222939551939 0 0.56409326000946236 0.097100979577281268 0 0.51241930291950477 0.1091992745981813 0 0.5133022293955174 0.064893331803591428 0 0.49189101320880302 0.59024331187324797 0 0.53542397956703913 0.60119875982347493 0 0.51172471858873747 0.64015771271794875 0 0.56566515596461675 0.63670464971409091 0 0.51172471858873747 0.64015771271794875 0 0.53542397956703913 0.60119875982347493 0 0.65773042910151891 0.073296788161472337 0 0.66251865414987876 0.1160340021949529 0 0.62160809078275991 0.1093532031139005 0 0.92670321183853355 0.65773042910151081 0 0.88396545633132484 0.6625197322180193 0 0.89064679688610338 0.6216080907827598 0 0.3422695708985129 0.92670321183858773 0 0.33748026778199908 0.88396545633134682 0 0.37839190921727062 0.89064679688614412 0 0.073296788161418117 0.34226957089850552 0 0.11603400219493119 0.33748134585014028 0 0.10935320311385981 0.37839190921727089 0 0.8289812646369813 0.82898126463698818 0 0.79422489417873421 0.79640925234634441 0 0.839908789927305 0.77106070975262608 0 0.17101873536300011 0.82898126463696109 0 0.20359074765364421 0.79422489417871855 0 0.22893929024737289 0.83990878992727813 0 0.83199780613337848 0.1690131600686714 0 0.80027482104603809 0.20596721135052129 0 0.77216325087772952 0.15899695163319821 0 0.16901316006868169 0.16800219386663079 0 0.20596721135052939 0.19972517895396219 0 0.15899695163321451 0.22783674912227669 0 0.84598529912884157 0.63969251517827153 0 0.80847852346122429 0.67208120229789559 0 0.8028306815476034 0.61296984760642026 0 0.36030748482174152 0.84598529912882459 0 0.32791879770213411 0.80847852346120164 0 0.38703015239361932 0.80283068154761972 0 0.63969251517826664 0.15401470087115929 0 0.67208120229787616 0.1915214765387884 0 0.61296984760641449 0.19716931845240021 0 0.15401470087117619 0.36030748482174652 0 0.19152147653881049 0.32791879770215432 0 0.197169318452384 0.38703015239362498 0 0.61233489393901674 0.60846740003560018 0 0.61866949026800744 0.55492322767366287 0 0.65501639383771026 0.594528181397324 0 0.74198804864688339 0.90892718720327403 0 0.78020430794084783 0.88768307197553598 0 0.77688977118331393 0.94706199857866258 0 0.091072812796719582 0.74198804864687795 0 0.11231692802445629 0.78020430794084028 0 0.052938001421335763 0.77688977118331159 0 0.81709574086843206 0.91318696080656769 0 0.77688977118331393 0.94706199857866258 0 0.78020430794084783 0.88768307197553598 0 0.086813039193431391 0.81709574086842884 0 0.052938001421335763 0.77688977118331159 0 0.11231692802445629 0.78020430794084028 0 0.73982803480991577 0.79629608696991705 0 0.79422489417873421 0.79640925234634441 0 0.78284912262770068 0.83746308049763585 0 0.8289812646369813 0.82898126463698818 0 0.78284912262770068 0.83746308049763585 0 0.79422489417873421 0.79640925234634441 0 0.20370391303007401 0.73982803480989479 0 0.20359074765364421 0.79422489417871855 0 0.16253691950235041 0.78284912262768558 0 0.17101873536300011 0.82898126463696109 0 0.16253691950235041 0.78284912262768558 0 0.20359074765364421 0.79422489417871855 0 0.79629608696994103 0.26017196519011448 0 0.80027482104603809 0.20596721135052129 0 0.84534053180161173 0.2262639405833009 0 0.83199780613337848 0.1690131600686714 0 0.84534053180161173 0.2262639405833009 0 0.80027482104603809 0.20596721135052129 0 0.26017196519013502 0.20370391303005 0 0.20596721135052939 0.19972517895396219 0 0.22626394058331961 0.15465946819838111 0 0.16901316006868169 0.16800219386663079 0 0.22626394058331961 0.15465946819838111 0 0.20596721135052939 0.19972517895396219 0 0.90045039720880915 0.9020090423547924 0 0.94156647488775558 0.94156647488774259 0 0.90554214442080472 0.95994154153067524 0 0.90082758526900886 0.098076845682916511 0 0.94156647488778256 0.058433525112256718 0 0.95994154153057998 0.094457855579277675 0 0.90082758526900886 0.098076845682916511 0 0.90554214442081604 0.040058458469347469 0 0.94156647488778256 0.058433525112256718 0 0.097990957645208238 0.90045039720880915 0 0.058433525112254137 0.94156647488774581 0 0.040058458469322648 0.90554214442079806 0 0.90045039720880915 0.9020090423547924 0 0.95994154153065969 0.90554214442078618 0 0.94156647488775558 0.94156647488774259 0 0.098076845682915317 0.099172414730993488 0 0.058433525112266523 0.058433525112214509 0 0.094457855579284614 0.040058458469418363 0 0.098076845682915317 0.099172414730993488 0 0.040058458469319477 0.094457855579157729 0 0.058433525112266523 0.058433525112214509 0 0.097990957645208238 0.90045039720880915 0 0.094457855579188163 0.95994154153068711 0 0.058433525112254137 0.94156647488774581 0 0.90289902042272274 0.56409326000946114 0 0.93946948561981514 0.60485373571037115 0 0.89064679688610338 0.6216080907827598 0 0.43590673999053309 0.90289902042279657 0 0.39514626428973221 0.93946948561985189 0 0.37839190921727062 0.89064679688614412 0 0.56409326000946236 0.097100979577281268 0 0.6048537357103756 0.060530514380187868 0 0.62160809078275991 0.1093532031139005 0 0.097100979577207341 0.43590673999053198 0 0.06053051438015096 0.39514626428972788 0 0.10935320311385981 0.37839190921727089 0 0.6519524273377173 0.64249931920594539 0 0.64518564541690571 0.69601563325001548 0 0.60879112811253555 0.66592422311595834 0 0.35944937237716967 0.65164789808436319 0 0.30421635384321521 0.64514939193436716 0 0.33231497408081678 0.60779218732873663 0 0.6424993192059415 0.3480475726622802 0 0.69601563325001248 0.35481435458309712 0 0.66346942254826746 0.391530810754116 0 0.34804757266227387 0.35750068079406011 0 0.35481435458309307 0.30398436674998969 0 0.39120887188745579 0.33407577688404289 0 1 0.5499999999988151 0 1 0.59999999999894682 0 0.95638719633882641 0.5599388881718611 0 0.5499999999988151 0 0 0.59999999999894682 0 0 0.55993888817186677 0.043612803661174412 0 0.45000000000187229 1 0 0.40000000000166441 1 0 0.44006111182840962 0.9563871963389079 0 0 0.45000000000187229 0 0 0.40000000000166441 0 0.043612803661092707 0.44006111182840391 0 1 0.049999999999899652 0 0.95994154153057998 0.094457855579277675 0 0.94156647488778256 0.058433525112256718 0 0.049999999999899652 0 0 0.094457855579284614 0.040058458469418363 0 0.058433525112266523 0.058433525112214509 0 0.94999999999986839 0 0 0.94156647488778256 0.058433525112256718 0 0.90554214442081604 0.040058458469347469 0 1 0.94999999999986839 0 0.94156647488775558 0.94156647488774259 0 0.95994154153065969 0.90554214442078618 0 0.94999999999979179 1 0 0.90554214442080472 0.95994154153067524 0 0.94156647488775558 0.94156647488774259 0 0 0.94999999999979179 0 0.040058458469322648 0.90554214442079806 0 0.058433525112254137 0.94156647488774581 0 0 0.050000000000207989 0 0.058433525112266523 0.058433525112214509 0 0.040058458469319477 0.094457855579157729 0 0.050000000000207989 1 0 0.058433525112254137 0.94156647488774581 0 0.094457855579188163 0.95994154153068711 0 0.55000000000173355 1 0 0.55307204985744796 0.94819812235491685 0 0.5931441817276254 0.95886012268751675 0 0 0.55000000000173355 0 0.051801877645083663 0.55307204985745195 0 0.041139877312483641 0.59314418172763017 0 1 0.44999999999882923 0 0.94812782820415209 0.44708943904932719 0 0.95886012268748921 0.4068558182724159 0 0.44999999999882923 0 0 0.44692795014265252 0.051801877645060238 0 0.40685581827241191 0.041139877312511682 0 0.83199780613337848 0.1690131600686714 0 0.77216325087772952 0.15899695163319821 0 0.8110316677333288 0.125875177082863 0 0.16901316006868169 0.16800219386663079 0 0.15899695163321451 0.22783674912227669 0 0.12587517708284679 0.1889683322666954 0 0.73982803480991577 0.79629608696991705 0 0.74154628962857594 0.86274820500026039 0 0.70085728320704077 0.84350379029875056 0 0.20370391303007401 0.73982803480989479 0 0.13725179499972981 0.74154628962856628 0 0.1564962097012354 0.70085728320703999 0 0.79629608696994103 0.26017196519011448 0 0.85389826602741015 0.26318949769600392 0 0.84350379029877964 0.29914271679296989 0 0.26017196519013502 0.20370391303005 0 0.26318949769601319 0.14610173397257309 0 0.29914271679297122 0.15649620970120659 0 0.53432142347292233 0.88563193847251998 0 0.48758069708049379 0.89080072540186539 0 0.49771727055908782 0.83998685797641781 0 0.1143680615274819 0.53432142347292733 0 0.1091992745981364 0.48758069708049778 0 0.16001314202358469 0.49771727055909287 0 0.88561059063756964 0.46572761956237563 0 0.89079805168298443 0.51242544533572376 0 0.83998574657308889 0.50228528270184081 0 0.46567857652706018 0.1143680615275231 0 0.51241930291950477 0.1091992745981813 0 0.50228272944093777 0.16001314202359701 0 0.1104775404132264 0.2631175359816938 0 0.099492119481027347 0.30746398533281638 0 0.053730171687646627 0.28825077189828552 0 0.26305414557470391 0.88949062093136155 0 0.30738136326657722 0.90051880305435028 0 0.28790752038294382 0.94635952848702642 0 0.73688246401832591 0.11047754041323141 0 0.69253601466723103 0.09949211948105087 0 0.71174922810186925 0.053730171687687178 0 0.88949062093135778 0.73694585442531257 0 0.90051880305432697 0.69261863673346957 0 0.94635952848698612 0.71209247961721311 0 0.77998481823117694 0.71397317153691997 0 0.76395804595204597 0.67808171673060369 0 0.80847852346122429 0.67208120229789559 0 0.28602682846308641 0.77998481823117594 0 0.32191828326940508 0.76395804595204586 0 0.32791879770213411 0.80847852346120164 0 0.71397317153692708 0.22001518176882201 0 0.67808171673060202 0.23604195404795861 0 0.67208120229787616 0.1915214765387884 0 0.22001518176882229 0.28602682846307981 0 0.2360419540479583 0.32191828326940741 0 0.19152147653881049 0.32791879770215432 0 0.8289812646369813 0.82898126463698818 0 0.839908789927305 0.77106070975262608 0 0.87660297360393757 0.8104127896505644 0 0.17101873536300011 0.82898126463696109 0 0.22893929024737289 0.83990878992727813 0 0.18958721034944021 0.87660297360394568 0 0.66548584431530877 0.55616712808283064 0 0.64455163611866495 0.50369301794551069 0 0.69798396601998558 0.5289734597937793 0 0.70015119067225129 0.48481914991727459 0 0.69798396601998558 0.5289734597937793 0 0.64455163611866495 0.50369301794551069 0 0.77998481823117694 0.71397317153691997 0 0.73984939806388494 0.70740600291923139 0 0.76395804595204597 0.67808171673060369 0 0.28602682846308641 0.77998481823117594 0 0.2925512105451914 0.73997990291173188 0 0.32191828326940508 0.76395804595204586 0 0.71397317153692708 0.22001518176882201 0 0.70740600291923772 0.26015060193611528 0 0.67808171673060202 0.23604195404795861 0 0.22001518176882229 0.28602682846307981 0 0.26014443552207939 0.29262390443653519 0 0.2360419540479583 0.32191828326940741 0 0.90045039720880915 0.9020090423547924 0 0.90554214442080472 0.95994154153067524 0 0.86696410734367158 0.94753096683315619 0 0.097990957645208238 0.90045039720880915 0 0.040058458469322648 0.90554214442079806 0 0.052469033166843738 0.86696410734366991 0 0.90082758526900886 0.098076845682916511 0 0.95994154153057998 0.094457855579277675 0 0.94100406608115506 0.1383574446607955 0 0.90045039720880915 0.9020090423547924 0 0.94095916274074942 0.86165278010542579 0 0.95994154153065969 0.90554214442078618 0 0.90082758526900886 0.098076845682916511 0 0.86589314360155567 0.054872692726639853 0 0.90554214442081604 0.040058458469347469 0 0.098076845682915317 0.099172414730993488 0 0.094457855579284614 0.040058458469418363 0 0.1383574446607988 0.058995933918849157 0 0.097990957645208238 0.90045039720880915 0 0.13834721989462789 0.94095916274077984 0 0.094457855579188163 0.95994154153068711 0 0.098076845682915317 0.099172414730993488 0 0.054872692726595548 0.13410685639845171 0 0.040058458469319477 0.094457855579157729 0 0.54901591374940373 0.42306523525165751 0 0.54715635490880632 0.37829016026862072 0 0.60122390529523662 0.39097801071820221 0 0.49854341599767982 0.37075914768127122 0 0.54715635490880632 0.37829016026862072 0 0.5047849391802508 0.40719950955717021 0 0.66548584431530877 0.55616712808283064 0 0.65501639383771026 0.594528181397324 0 0.61866949026800744 0.55492322767366287 0 0.50000000000002642 0.7803135888501761 0 0.49771727055908782 0.83998685797641781 0 0.46593838964869061 0.80781872835503554 0 0.2196864111498267 0.50000000000003153 0 0.16001314202358469 0.49771727055909287 0 0.19218127164496679 0.46593838964869538 0 0.78031358885017377 0.49999999999997569 0 0.83998574657308889 0.50228528270184081 0 0.80781854240107975 0.53406203754901738 0 0.49999999999997108 0.21968641114982909 0 0.50228272944093777 0.16001314202359701 0 0.53404982287327418 0.19215288291432539 0 0.70085728320704077 0.84350379029875056 0 0.74154628962857594 0.86274820500026039 0 0.70475631558365914 0.90098127745102974 0 0.1564962097012354 0.70085728320703999 0 0.13725179499972981 0.74154628962856628 0 0.099018722548963364 0.70475631558365193 0 0.84350379029877964 0.29914271679296989 0 0.85389826602741015 0.26318949769600392 0 0.89886191075654698 0.29506339503703172 0 0.29914271679297122 0.15649620970120659 0 0.26318949769601319 0.14610173397257309 0 0.29506339503703888 0.1011380892434444 0 0.74417394063200648 0.6049203001048884 0 0.71518943060973483 0.65679402931717101 0 0.69288637798153729 0.61204665218001397 0 0.39507969989512881 0.74417394063201048 0 0.34270280102445921 0.71672416762035873 0 0.38642358467307758 0.69286258923597266 0 0.60492030010488373 0.25582605936799729 0 0.65679402931716913 0.28481056939027388 0 0.61204665218000809 0.30711362201846659 0 0.25582605936799319 0.39507969989513358 0 0.28473805236128291 0.34355768118673757 0 0.30597655500381687 0.3934681685211931 0 0.88949062093135778 0.73694585442531257 0 0.839908789927305 0.77106070975262608 0 0.8312019486901514 0.72745002167959472 0 0.73688246401832591 0.11047754041323141 0 0.77216325087772952 0.15899695163319821 0 0.72767516840721058 0.16853767177393791 0 0.26305414557470391 0.88949062093136155 0 0.22893929024737289 0.83990878992727813 0 0.27254997832041528 0.8312019486901443 0 0.1104775404132264 0.2631175359816938 0 0.15899695163321451 0.22783674912227669 0 0.1685376717739448 0.27232483159280108 0 0.61233489393901674 0.60846740003560018 0 0.57484409313590223 0.58437321637184114 0 0.61866949026800744 0.55492322767366287 0 0.43565339604028508 0.55159384357101338 0 0.39982789553993509 0.53462762214740622 0 0.45293656999117771 0.51494832297079129 0 0.41009598069569558 0.49083935749285379 0 0.45293656999117771 0.51494832297079129 0 0.39982789553993509 0.53462762214740622 0 0.4434591735942961 0.66641640622551224 0 0.40564717507982689 0.65626423320524974 0 0.45517457031814612 0.62743100079604397 0 0.40653508887824003 0.61580573377480397 0 0.45517457031814612 0.62743100079604397 0 0.40564717507982689 0.65626423320524974 0 0.89586000931544074 0.25714619498770419 0 0.84534053180161173 0.2262639405833009 0 0.89556054516486661 0.21720615046483649 0 0.25714619498771307 0.1041399906845497 0 0.22626394058331961 0.15465946819838111 0 0.21720615046484709 0.1044394548351292 0 0.41009598069569558 0.49083935749285379 0 0.35815651743779398 0.51113440447909086 0 0.37702386074717259 0.45819417564476811 0 0.75000000000034661 1 0 0.71789175274016548 0.95136708251202151 0 0.77688977118331393 0.94706199857866258 0 0 0.75000000000034661 0 0.04863291748797445 0.71789175274016204 0 0.052938001421335763 0.77688977118331159 0 1 0.24999999999941211 0 0.94915666091748963 0.28320804985299752 0 0.94465622530468663 0.23167460333446291 0 0.24999999999941211 0 0 0.28320804985300141 0.050843339082505573 0 0.23167460333446299 0.05534377469531044 0 0.90289902042272274 0.56409326000946114 0 0.95638719633882641 0.5599388881718611 0 0.93946948561981514 0.60485373571037115 0 0.56409326000946236 0.097100979577281268 0 0.55993888817186677 0.043612803661174412 0 0.6048537357103756 0.060530514380187868 0 0.43590673999053309 0.90289902042279657 0 0.44006111182840962 0.9563871963389079 0 0.39514626428973221 0.93946948561985189 0 0.097100979577207341 0.43590673999053198 0 0.043612803661092707 0.44006111182840391 0 0.06053051438015096 0.39514626428972788 0 0.40653508887824003 0.61580573377480397 0 0.40468198875170619 0.57637931869191572 0 0.45030222762303879 0.58443295115431027 0 0.43301393728221038 0.35984320557492139 0 0.43059486795334201 0.30395973419063538 0 0.47253211736503098 0.34081710830804929 0 0.48378871228000903 0.29745177826977359 0 0.47253211736503098 0.34081710830804929 0 0.43059486795334201 0.30395973419063538 0 0.65000000000104008 1 0 0.60000000000138687 1 0 0.63753756910470316 0.95578163339252209 0 0 0.65000000000104008 0 0 0.60000000000138687 0 0.04421836660747535 0.63753756910470205 0 1 0.34999999999912063 0 1 0.3999999999989749 0 0.95581270756939096 0.36248656652865863 0 0.34999999999912063 0 0 0.3999999999989749 0 0 0.36246243089534252 0.044218366607477223 0 0.73982803480991577 0.79629608696991705 0 0.74917861927654894 0.74229989257760443 0 0.78651189793386345 0.75664155808652755 0 0.20370391303007401 0.73982803480989479 0 0.25770010742238642 0.74917861927655205 0 0.24335844191347281 0.78651189793387466 0 0.79629608696994103 0.26017196519011448 0 0.74229989257762263 0.250821380723454 0 0.7582555232258138 0.2115548431873896 0 0.26017196519013502 0.20370391303005 0 0.25082138072344978 0.25770010742236849 0 0.2115548431873881 0.2417444767741872 0 1 0.049999999999899652 0 0.94156647488778256 0.058433525112256718 0 0.96763014295114425 0.032369857048773903 0 0.049999999999899652 0 0 0.058433525112266523 0.058433525112214509 0 0.032369857048753323 0.032369857048862027 0 0.94999999999986839 0 0 0.96763014295114425 0.032369857048773903 0 0.94156647488778256 0.058433525112256718 0 0 0.050000000000207989 0 0.032369857048753323 0.032369857048862027 0 0.058433525112266523 0.058433525112214509 0 1 0.94999999999986839 0 0.96763014295120153 0.96763014295122851 0 0.94156647488775558 0.94156647488774259 0 0.94999999999979179 1 0 0.94156647488775558 0.94156647488774259 0 0.96763014295120153 0.96763014295122851 0 0.050000000000207989 1 0 0.030452409610489669 0.96954759038951022 0 0.058433525112254137 0.94156647488774581 0 0 0.94999999999979179 0 0.058433525112254137 0.94156647488774581 0 0.030452409610489669 0.96954759038951022 0 0.90045039720880915 0.9020090423547924 0 0.88962265630811221 0.85311725681459705 0 0.94095916274074942 0.86165278010542579 0 0.097990957645208238 0.90045039720880915 0 0.14688274318541941 0.88962265630811932 0 0.13834721989462789 0.94095916274077984 0 0.91838802593884228 0.81827409710237209 0 0.94095916274074942 0.86165278010542579 0 0.88962265630811221 0.85311725681459705 0 0.91838802593870927 0.18172590289757809 0 0.88777909259956078 0.1484760565886154 0 0.94100406608115506 0.1383574446607955 0 0.1817259028976386 0.91838802593888857 0 0.13834721989462789 0.94095916274077984 0 0.14688274318541941 0.88962265630811932 0 0.18172590289758209 0.08161197406129285 0 0.1484760565886207 0.1122209074004519 0 0.1383574446607988 0.058995933918849157 0 0.90082758526900886 0.098076845682916511 0 0.94100406608115506 0.1383574446607955 0 0.88777909259956078 0.1484760565886154 0 0.098076845682915317 0.099172414730993488 0 0.1383574446607988 0.058995933918849157 0 0.1484760565886207 0.1122209074004519 0 0.57387636360620708 0.54318431390135336 0 0.61866949026800744 0.55492322767366287 0 0.57484409313590223 0.58437321637184114 0 0.60122390529523662 0.39097801071820221 0 0.54715635490880632 0.37829016026862072 0 0.59596170682035776 0.34609402305862419 0 0.38703015239361932 0.80283068154761972 0 0.32791879770213411 0.80847852346120164 0 0.35837423432538362 0.77730446904312345 0 0.8028306815476034 0.61296984760642026 0 0.80847852346122429 0.67208120229789559 0 0.77730446904309636 0.64162576567462737 0 0.197169318452384 0.38703015239362498 0 0.19152147653881049 0.32791879770215432 0 0.22269553095687891 0.35837423432538801 0 0.61296984760641449 0.19716931845240021 0 0.67208120229787616 0.1915214765387884 0 0.64162576567462404 0.22269553095690481 0 0.39419886675318527 0.41912225240070788 0 0.37702386074717259 0.45819417564476811 0 0.35481422397128459 0.40312981465069342 0 0.33382663527330159 0.44130125047503482 0 0.35481422397128459 0.40312981465069342 0 0.37702386074717259 0.45819417564476811 0 0.40653508887824003 0.61580573377480397 0 0.40564717507982689 0.65626423320524974 0 0.35944937237716967 0.65164789808436319 0 0.53432142347292233 0.88563193847251998 0 0.49771727055908782 0.83998685797641781 0 0.54047998161173716 0.84333512669480526 0 0.1143680615274819 0.53432142347292733 0 0.16001314202358469 0.49771727055909287 0 0.1566648733051971 0.54047998161174216 0 0.88561059063756964 0.46572761956237563 0 0.83998574657308889 0.50228528270184081 0 0.84333218736938698 0.4595365182652234 0 0.46567857652706018 0.1143680615275231 0 0.50228272944093777 0.16001314202359701 0 0.45952001838826873 0.15666487330524251 0 0.37104651296145419 0.60545170748311072 0 0.40653508887824003 0.61580573377480397 0 0.35944937237716967 0.65164789808436319 0 0.6519524273377173 0.64249931920594539 0 0.71518943060973483 0.65679402931717101 0 0.6768914574865772 0.67861120078714243 0 0.35944937237716967 0.65164789808436319 0 0.34270280102445921 0.71672416762035873 0 0.32259853082073792 0.67670072609835186 0 0.6424993192059415 0.3480475726622802 0 0.65679402931716913 0.28481056939027388 0 0.6786112007871401 0.32310854251343019 0 0.34804757266227387 0.35750068079406011 0 0.28473805236128291 0.34355768118673757 0 0.3231032570156932 0.32141443408924047 0 0.73982803480991577 0.79629608696991705 0 0.70085728320704077 0.84350379029875056 0 0.69892030930712212 0.7971997999085858 0 0.20370391303007401 0.73982803480989479 0 0.1564962097012354 0.70085728320703999 0 0.2028002000914135 0.69892030930711557 0 0.79629608696994103 0.26017196519011448 0 0.84350379029877964 0.29914271679296989 0 0.7971997999085878 0.3010796906928917 0 0.26017196519013502 0.20370391303005 0 0.29914271679297122 0.15649620970120659 0 0.30107969069289831 0.20280020009141189 0 0.43301393728221038 0.35984320557492139 0 0.42930823106401639 0.40626685012722968 0 0.39222057657781068 0.38067796690227418 0 0.73982803480991577 0.79629608696991705 0 0.78284912262770068 0.83746308049763585 0 0.74154628962857594 0.86274820500026039 0 0.20370391303007401 0.73982803480989479 0 0.16253691950235041 0.78284912262768558 0 0.13725179499972981 0.74154628962856628 0 0.79629608696994103 0.26017196519011448 0 0.84534053180161173 0.2262639405833009 0 0.85389826602741015 0.26318949769600392 0 0.26017196519013502 0.20370391303005 0 0.22626394058331961 0.15465946819838111 0 0.26318949769601319 0.14610173397257309 0 0.56566515596461675 0.63670464971409091 0 0.57484409313590223 0.58437321637184114 0 0.61233489393901674 0.60846740003560018 0 0.84598529912884157 0.63969251517827153 0 0.85607519768343354 0.69380468830529196 0 0.80847852346122429 0.67208120229789559 0 0.63969251517826664 0.15401470087115929 0 0.69379929796456197 0.14392209494791061 0 0.67208120229787616 0.1915214765387884 0 0.36030748482174152 0.84598529912882459 0 0.30619531169472608 0.85607519768342955 0 0.32791879770213411 0.80847852346120164 0 0.15401470087117619 0.36030748482174652 0 0.14392209494791439 0.30620070203545702 0 0.19152147653881049 0.32791879770215432 0 0.20370391303007401 0.73982803480989479 0 0.24335844191347281 0.78651189793387466 0 0.20359074765364421 0.79422489417871855 0 0.73982803480991577 0.79629608696991705 0 0.78651189793386345 0.75664155808652755 0 0.79422489417873421 0.79640925234634441 0 0.26017196519013502 0.20370391303005 0 0.2115548431873881 0.2417444767741872 0 0.20596721135052939 0.19972517895396219 0 0.79629608696994103 0.26017196519011448 0 0.7582555232258138 0.2115548431873896 0 0.80027482104603809 0.20596721135052129 0 0.51172471858873747 0.64015771271794875 0 0.47818752133962877 0.66454462905280853 0 0.45517457031814612 0.62743100079604397 0 0.54901591374940373 0.42306523525165751 0 0.60122390529523662 0.39097801071820221 0 0.59313386551587477 0.43977047843653239 0 0.640156794425081 0.43301393728221721 0 0.59313386551587477 0.43977047843653239 0 0.60122390529523662 0.39097801071820221 0 0.70252050881959183 0.70358884261915833 0 0.71518943060973483 0.65679402931717101 0 0.73984939806388494 0.70740600291923139 0 0.29641115738084339 0.70252050881958938 0 0.34270280102445921 0.71672416762035873 0 0.2925512105451914 0.73997990291173188 0 0.76395804595204597 0.67808171673060369 0 0.73984939806388494 0.70740600291923139 0 0.71518943060973483 0.65679402931717101 0 0.32191828326940508 0.76395804595204586 0 0.2925512105451914 0.73997990291173188 0 0.34270280102445921 0.71672416762035873 0 0.70358884261915744 0.29747949118041561 0 0.65679402931716913 0.28481056939027388 0 0.70740600291923772 0.26015060193611528 0 0.29747949118041711 0.2964111573808435 0 0.28473805236128291 0.34355768118673757 0 0.26014443552207939 0.29262390443653519 0 0.67808171673060202 0.23604195404795861 0 0.70740600291923772 0.26015060193611528 0 0.65679402931716913 0.28481056939027388 0 0.2360419540479583 0.32191828326940741 0 0.26014443552207939 0.29262390443653519 0 0.28473805236128291 0.34355768118673757 0 0.74198804864688339 0.90892718720327403 0 0.70475631558365914 0.90098127745102974 0 0.74154628962857594 0.86274820500026039 0 0.091072812796719582 0.74198804864687795 0 0.099018722548963364 0.70475631558365193 0 0.13725179499972981 0.74154628962856628 0 0.89586000931544074 0.25714619498770419 0 0.89886191075654698 0.29506339503703172 0 0.85389826602741015 0.26318949769600392 0 0.25714619498771307 0.1041399906845497 0 0.29506339503703888 0.1011380892434444 0 0.26318949769601319 0.14610173397257309 0 0.59819537371016407 0.74380966024143391 0 0.64203711532612107 0.74316477213290444 0 0.61896574319320252 0.795216048370321 0 0.66820316019503978 0.77769800602796979 0 0.61896574319320252 0.795216048370321 0 0.64203711532612107 0.74316477213290444 0 0.25619033975856881 0.59819537371016862 0 0.25684529255773247 0.64203554247963057 0 0.2047839516296828 0.61896574319320252 0 0.22230199397202771 0.66820316019503168 0 0.2047839516296828 0.61896574319320252 0 0.25684529255773247 0.64203554247963057 0 0.74380966024142703 0.40180462628984132 0 0.74316477213289889 0.35796288467388632 0 0.79521604837030013 0.38103425680679831 0 0.77769800602796679 0.33179683980497482 0 0.79521604837030013 0.38103425680679831 0 0.74316477213289889 0.35796288467388632 0 0.40180462628983732 0.2561903397585753 0 0.3579628846738841 0.25683522786710378 0 0.38103425680679859 0.2047839516297037 0 0.33179683980498331 0.2223019939720311 0 0.38103425680679859 0.2047839516297037 0 0.3579628846738841 0.25683522786710378 0 0.92670321183853355 0.65773042910151081 0 0.93946948561981514 0.60485373571037115 0 0.96654491682122368 0.6363613838740827 0 0.65773042910151891 0.073296788161472337 0 0.6048537357103756 0.060530514380187868 0 0.63635157668793507 0.033457646040912177 0 0.3422695708985129 0.92670321183858773 0 0.39514626428973221 0.93946948561985189 0 0.36363861612613613 0.96654491682121313 0 0.073296788161418117 0.34226957089850552 0 0.06053051438015096 0.39514626428972788 0 0.033457646040922301 0.36364842331228431 0 0.6519524273377173 0.64249931920594539 0 0.6768914574865772 0.67861120078714243 0 0.64518564541690571 0.69601563325001548 0 0.35944937237716967 0.65164789808436319 0 0.32259853082073792 0.67670072609835186 0 0.30421635384321521 0.64514939193436716 0 0.6424993192059415 0.3480475726622802 0 0.6786112007871401 0.32310854251343019 0 0.69601563325001248 0.35481435458309712 0 0.34804757266227387 0.35750068079406011 0 0.3231032570156932 0.32141443408924047 0 0.35481435458309307 0.30398436674998969 0 0.73982803480991577 0.79629608696991705 0 0.71159714897733284 0.75039044679290845 0 0.74917861927654894 0.74229989257760443 0 0.20370391303007401 0.73982803480989479 0 0.249609553207091 0.71159714897732929 0 0.25770010742238642 0.74917861927655205 0 0.79629608696994103 0.26017196519011448 0 0.75039044679291111 0.28840285102267788 0 0.74229989257762263 0.250821380723454 0 0.26017196519013502 0.20370391303005 0 0.28840285102268098 0.24960955320708811 0 0.25082138072344978 0.25770010742236849 0 0.43565339604028508 0.55159384357101338 0 0.45030222762303879 0.58443295115431027 0 0.40468198875170619 0.57637931869191572 0 0.3999999999989749 0 0 0.44999999999882923 0 0 0.40685581827241191 0.041139877312511682 0 1 0.3999999999989749 0 1 0.44999999999882923 0 0.95886012268748921 0.4068558182724159 0 0 0.60000000000138687 0 0 0.55000000000173355 0 0.041139877312483641 0.59314418172763017 0 0.60000000000138687 1 0 0.55000000000173355 1 0 0.5931441817276254 0.95886012268751675 0 1 0.049999999999899652 0 1 0.099999999999814668 0 0.95994154153057998 0.094457855579277675 0 0.049999999999899652 0 0 0.099999999999814668 0 0 0.094457855579284614 0.040058458469418363 0 0.94999999999979179 1 0 0.89999999999958358 1 0 0.90554214442080472 0.95994154153067524 0 0 0.94999999999979179 0 0 0.89999999999958358 0 0.040058458469322648 0.90554214442079806 0 1 0.89999999999973679 0 1 0.94999999999986839 0 0.95994154153065969 0.90554214442078618 0 0.89999999999973679 0 0 0.94999999999986839 0 0 0.90554214442081604 0.040058458469347469 0 0.10000000000041601 1 0 0.050000000000207989 1 0 0.094457855579188163 0.95994154153068711 0 0 0.10000000000041601 0 0 0.050000000000207989 0 0.040058458469319477 0.094457855579157729 0 0.88949062093135778 0.73694585442531257 0 0.8312019486901514 0.72745002167959472 0 0.85607519768343354 0.69380468830529196 0 0.73688246401832591 0.11047754041323141 0 0.72767516840721058 0.16853767177393791 0 0.69379929796456197 0.14392209494791061 0 0.26305414557470391 0.88949062093136155 0 0.27254997832041528 0.8312019486901443 0 0.30619531169472608 0.85607519768342955 0 0.1104775404132264 0.2631175359816938 0 0.1685376717739448 0.27232483159280108 0 0.14392209494791439 0.30620070203545702 0 0.51484304721220842 0.69707233951836334 0 0.54465502325161819 0.74717983044080061 0 0.49073113440598592 0.73759004618730417 0 0.30292766048163949 0.51484304721221474 0 0.25287139441262568 0.54458355434492378 0 0.262418491288269 0.49071922292154141 0 0.70015119067225129 0.48481914991727459 0 0.74730218607442667 0.45539100053644521 0 0.73815142352639962 0.50697050072007344 0 0.48378871228000903 0.29745177826977359 0 0.45533136021725079 0.2525687312087147 0 0.50732841191799194 0.2613117081243182 0 0.66548584431530877 0.55616712808283064 0 0.61866949026800744 0.55492322767366287 0 0.64455163611866495 0.50369301794551069 0 0.5586987495249669 0.33382663527330653 0 0.59596170682035776 0.34609402305862419 0 0.54715635490880632 0.37829016026862072 0 0.41009598069569558 0.49083935749285379 0 0.42340342337193693 0.44762131874855388 0 0.46152714345798918 0.47344359412352599 0 0.63969251517836323 0.84598529912890386 0 0.61896574319320252 0.795216048370321 0 0.66919832404887702 0.81820888699730587 0 0.1540147008710982 0.63969251517836956 0 0.2047839516296828 0.61896574319320252 0 0.1817911130026923 0.66919832404888702 0 0.84598529912889664 0.36030748482164038 0 0.79521604837030013 0.38103425680679831 0 0.8182088869973061 0.33080167595111531 0 0.3603074848216346 0.15401470087110539 0 0.38103425680679859 0.2047839516297037 0 0.33080167595110582 0.18179111300269291 0 0.60000000000138687 1 0 0.5931441817276254 0.95886012268751675 0 0.63753756910470316 0.95578163339252209 0 0 0.60000000000138687 0 0.041139877312483641 0.59314418172763017 0 0.04421836660747535 0.63753756910470205 0 1 0.3999999999989749 0 0.95886012268748921 0.4068558182724159 0 0.95581270756939096 0.36248656652865863 0 0.3999999999989749 0 0 0.40685581827241191 0.041139877312511682 0 0.36246243089534252 0.044218366607477223 0 0.6519524273377173 0.64249931920594539 0 0.61233489393901674 0.60846740003560018 0 0.65501639383771026 0.594528181397324 0 0.6424993192059415 0.3480475726622802 0 0.60122390529523662 0.39097801071820221 0 0.59596170682035776 0.34609402305862419 0 0.56566515596461675 0.63670464971409091 0 0.60879112811253555 0.66592422311595834 0 0.57051182622447827 0.69668652018496713 0 0.35984320557492089 0.56698606271778873 0 0.33231497408081678 0.60779218732873663 0 0.30429740679959738 0.56913905146460098 0 0.640156794425081 0.43301393728221721 0 0.66346942254826746 0.391530810754116 0 0.69595787604187809 0.43071000156707989 0 0.43301393728221038 0.35984320557492139 0 0.39120887188745579 0.33407577688404289 0 0.43059486795334201 0.30395973419063538 0 0.59999999999894682 0 0 0.63635157668793507 0.033457646040912177 0 0.6048537357103756 0.060530514380187868 0 1 0.59999999999894682 0 0.96654491682122368 0.6363613838740827 0 0.93946948561981514 0.60485373571037115 0 0 0.40000000000166441 0 0.033457646040922301 0.36364842331228431 0 0.06053051438015096 0.39514626428972788 0 0.40000000000166441 1 0 0.36363861612613613 0.96654491682121313 0 0.39514626428973221 0.93946948561985189 0 0.50000000000002642 0.7803135888501761 0 0.49073113440598592 0.73759004618730417 0 0.54465502325161819 0.74717983044080061 0 0.2196864111498267 0.50000000000003153 0 0.262418491288269 0.49071922292154141 0 0.25287139441262568 0.54458355434492378 0 0.78031358885017377 0.49999999999997569 0 0.73815142352639962 0.50697050072007344 0 0.74730218607442667 0.45539100053644521 0 0.49999999999997108 0.21968641114982909 0 0.50732841191799194 0.2613117081243182 0 0.45533136021725079 0.2525687312087147 0 0.39507969989512881 0.74417394063201048 0 0.43306783640023289 0.78031198216144404 0 0.38703015239361932 0.80283068154761972 0 0.25582605936799319 0.39507969989513358 0 0.21968801783855879 0.43306783640023788 0 0.197169318452384 0.38703015239362498 0 0.74417394063200648 0.6049203001048884 0 0.78031198216143516 0.56693216359979737 0 0.8028306815476034 0.61296984760642026 0 0.60492030010488373 0.25582605936799729 0 0.56683314878414581 0.21944955250104689 0 0.61296984760641449 0.19716931845240021 0 0.77998481823117694 0.71397317153691997 0 0.74917861927654894 0.74229989257760443 0 0.73984939806388494 0.70740600291923139 0 0.28602682846308641 0.77998481823117594 0 0.25770010742238642 0.74917861927655205 0 0.2925512105451914 0.73997990291173188 0 0.71397317153692708 0.22001518176882201 0 0.74229989257762263 0.250821380723454 0 0.70740600291923772 0.26015060193611528 0 0.22001518176882229 0.28602682846307981 0 0.25082138072344978 0.25770010742236849 0 0.26014443552207939 0.29262390443653519 0 0.49189101320880302 0.59024331187324797 0 0.53087311892591971 0.55299263141448529 0 0.53542397956703913 0.60119875982347493 0 0.41009598069569558 0.49083935749285379 0 0.46152714345798918 0.47344359412352599 0 0.45293656999117771 0.51494832297079129 0 0.66820316019503978 0.77769800602796979 0 0.66919832404887702 0.81820888699730587 0 0.61896574319320252 0.795216048370321 0 0.22230199397202771 0.66820316019503168 0 0.1817911130026923 0.66919832404888702 0 0.2047839516296828 0.61896574319320252 0 0.77769800602796679 0.33179683980497482 0 0.8182088869973061 0.33080167595111531 0 0.79521604837030013 0.38103425680679831 0 0.33179683980498331 0.2223019939720311 0 0.33080167595110582 0.18179111300269291 0 0.38103425680679859 0.2047839516297037 0 0.83199780613337848 0.1690131600686714 0 0.87355793346388477 0.18922011052113649 0 0.84534053180161173 0.2262639405833009 0 0.16901316006868169 0.16800219386663079 0 0.18922011052115781 0.12644206653611201 0 0.22626394058331961 0.15465946819838111 0 0.58981073711177334 0.48140931020849848 0 0.62619054498681193 0.46482944251856079 0 0.64455163611866495 0.50369301794551069 0 0.59621567360238914 0.5184866806641607 0 0.58981073711177334 0.48140931020849848 0 0.64455163611866495 0.50369301794551069 0 0.53432142347292233 0.88563193847251998 0 0.54047998161173716 0.84333512669480526 0 0.58267137064684116 0.87013301365640838 0 0.56759263990989184 0.81794319034601648 0 0.58267137064684116 0.87013301365640838 0 0.54047998161173716 0.84333512669480526 0 0.1143680615274819 0.53432142347292733 0 0.1566648733051971 0.54047998161174216 0 0.12986698634359389 0.58267137064684615 0 0.18205680965398621 0.56759263990989739 0 0.12986698634359389 0.58267137064684615 0 0.1566648733051971 0.54047998161174216 0 0.88561059063756964 0.46572761956237563 0 0.84333218736938698 0.4595365182652234 0 0.87012666750595846 0.41743873185103042 0 0.81794319034597418 0.43240736009009317 0 0.87012666750595846 0.41743873185103042 0 0.84333218736938698 0.4595365182652234 0 0.46567857652706018 0.1143680615275231 0 0.45952001838826873 0.15666487330524251 0 0.41732862935313042 0.12986698634362279 0 0.43240736009008851 0.18205680965402779 0 0.41732862935313042 0.12986698634362279 0 0.45952001838826873 0.15666487330524251 0 0.70085728320704077 0.84350379029875056 0 0.70475631558365914 0.90098127745102974 0 0.66923299355723143 0.8804077449518628 0 0.1564962097012354 0.70085728320703999 0 0.099018722548963364 0.70475631558365193 0 0.1195922550481313 0.66923299355722787 0 0.84350379029877964 0.29914271679296989 0 0.89886191075654698 0.29506339503703172 0 0.88040774495187946 0.33076700644278889 0 0.29914271679297122 0.15649620970120659 0 0.29506339503703888 0.1011380892434444 0 0.33076700644279272 0.1195922550481146 0 0.839908789927305 0.77106070975262608 0 0.78651189793386345 0.75664155808652755 0 0.8312019486901514 0.72745002167959472 0 0.22893929024737289 0.83990878992727813 0 0.24335844191347281 0.78651189793387466 0 0.27254997832041528 0.8312019486901443 0 0.77216325087772952 0.15899695163319821 0 0.7582555232258138 0.2115548431873896 0 0.72767516840721058 0.16853767177393791 0 0.15899695163321451 0.22783674912227669 0 0.2115548431873881 0.2417444767741872 0 0.1685376717739448 0.27232483159280108 0 0.89586000931544074 0.25714619498770419 0 0.85389826602741015 0.26318949769600392 0 0.84534053180161173 0.2262639405833009 0 0.25714619498771307 0.1041399906845497 0 0.26318949769601319 0.14610173397257309 0 0.22626394058331961 0.15465946819838111 0 0.49771727055908782 0.83998685797641781 0 0.45353891581270822 0.85551523377818905 0 0.46593838964869061 0.80781872835503554 0 0.16001314202358469 0.49771727055909287 0 0.1444847662218138 0.45353891581271188 0 0.19218127164496679 0.46593838964869538 0 0.83998574657308889 0.50228528270184081 0 0.85551478316835361 0.54646211938695222 0 0.80781854240107975 0.53406203754901738 0 0.50228272944093777 0.16001314202359701 0 0.54646108418729233 0.1444847662218687 0 0.53404982287327418 0.19215288291432539 0 0.51484304721220842 0.69707233951836334 0 0.47818752133962877 0.66454462905280853 0 0.51172471858873747 0.64015771271794875 0 0.30292766048163949 0.51484304721221474 0 0.33436424489304489 0.47849603121740791 0 0.35815651743779398 0.51113440447909086 0 0.6027107599280892 0.83436006790502326 0 0.63969251517836323 0.84598529912890386 0 0.62483828039315681 0.8780818733396436 0 0.1656399320949789 0.60271075992809464 0 0.1540147008710982 0.63969251517836956 0 0.1219181266603569 0.62483828039315903 0 0.83436006790498052 0.39728924007189959 0 0.84598529912889664 0.36030748482164038 0 0.87815187193233801 0.37523526017134418 0 0.3972892400718947 0.16563993209502181 0 0.3603074848216346 0.15401470087110539 0 0.37516171960683908 0.121918126660369 0 0.70015119067225129 0.48481914991727459 0 0.64455163611866495 0.50369301794551069 0 0.66329969176266512 0.46626046872004567 0 0.57387636360620708 0.54318431390135336 0 0.53087311892591971 0.55299263141448529 0 0.554170140907293 0.50922353359177785 0 0.50333998054938722 0.50119715791968966 0 0.50753758205811061 0.4506562873613274 0 0.54783891860069212 0.46640164214823893 0 0.58267137064684116 0.87013301365640838 0 0.6027107599280892 0.83436006790502326 0 0.62483828039315681 0.8780818733396436 0 0.12986698634359389 0.58267137064684615 0 0.1656399320949789 0.60271075992809464 0 0.1219181266603569 0.62483828039315903 0 0.87012666750595846 0.41743873185103042 0 0.83436006790498052 0.39728924007189959 0 0.87815187193233801 0.37523526017134418 0 0.41732862935313042 0.12986698634362279 0 0.3972892400718947 0.16563993209502181 0 0.37516171960683908 0.121918126660369 0 0.35984320557492089 0.56698606271778873 0 0.35815651743779398 0.51113440447909086 0 0.39982789553993509 0.53462762214740622 0 0.43087117257049001 0.8215422551712771 0 0.46593838964869061 0.80781872835503554 0 0.45353891581270822 0.85551523377818905 0 0.17845774482872559 0.43087117257049429 0 0.19218127164496679 0.46593838964869538 0 0.1444847662218138 0.45353891581271188 0 0.8215422551712277 0.56912882742954496 0 0.80781854240107975 0.53406203754901738 0 0.85551478316835361 0.54646211938695222 0 0.56912882742954041 0.17845774482877461 0 0.53404982287327418 0.19215288291432539 0 0.54646108418729233 0.1444847662218687 0 0.89586000931544074 0.25714619498770419 0 0.89556054516486661 0.21720615046483649 0 0.94465622530468663 0.23167460333446291 0 0.91838802593870927 0.18172590289757809 0 0.94465622530468663 0.23167460333446291 0 0.89556054516486661 0.21720615046483649 0 0.25714619498771307 0.1041399906845497 0 0.21720615046484709 0.1044394548351292 0 0.23167460333446299 0.05534377469531044 0 0.18172590289758209 0.08161197406129285 0 0.23167460333446299 0.05534377469531044 0 0.21720615046484709 0.1044394548351292 0 0.50333998054938722 0.50119715791968966 0 0.54783891860069212 0.46640164214823893 0 0.554170140907293 0.50922353359177785 0 0.16901316006868169 0.16800219386663079 0 0.12587517708284679 0.1889683322666954 0 0.12294765968567151 0.14825146416195439 0 0.83199780613337848 0.1690131600686714 0 0.8110316677333288 0.125875177082863 0 0.8517485358380722 0.12294765968568611 0 0.74198804864688339 0.90892718720327403 0 0.74154628962857594 0.86274820500026039 0 0.78020430794084783 0.88768307197553598 0 0.78284912262770068 0.83746308049763585 0 0.78020430794084783 0.88768307197553598 0 0.74154628962857594 0.86274820500026039 0 0.091072812796719582 0.74198804864687795 0 0.13725179499972981 0.74154628962856628 0 0.11231692802445629 0.78020430794084028 0 0.16253691950235041 0.78284912262768558 0 0.11231692802445629 0.78020430794084028 0 0.13725179499972981 0.74154628962856628 0 0.82118136511706341 0.082875076569723011 0 0.77925951159456153 0.09969477121230251 0 0.76543419162344684 0.056452228708420968 0 0.08287507656968085 0.1788186348829835 0 0.099694771212264055 0.22074048840547039 0 0.056452228708379938 0.23456580837661581 0 0.91838802593884228 0.81827409710237209 0 0.9041449437197947 0.7786886066890556 0 0.9442075111696665 0.76777356182390766 0 0.1817259028976386 0.91838802593888857 0 0.22131139331094829 0.9041449437198319 0 0.23222643817617661 0.94420751116970569 0 0.73688246401832591 0.11047754041323141 0 0.76543419162344684 0.056452228708420968 0 0.77925951159456153 0.09969477121230251 0 0.1104775404132264 0.2631175359816938 0 0.056452228708379938 0.23456580837661581 0 0.099694771212264055 0.22074048840547039 0 0.88949062093135778 0.73694585442531257 0 0.9442075111696665 0.76777356182390766 0 0.9041449437197947 0.7786886066890556 0 0.26305414557470391 0.88949062093136155 0 0.23222643817617661 0.94420751116970569 0 0.22131139331094829 0.9041449437198319 0 0.73984939806388494 0.70740600291923139 0 0.71159714897733284 0.75039044679290845 0 0.70252050881959183 0.70358884261915833 0 0.74917861927654894 0.74229989257760443 0 0.71159714897733284 0.75039044679290845 0 0.73984939806388494 0.70740600291923139 0 0.2925512105451914 0.73997990291173188 0 0.249609553207091 0.71159714897732929 0 0.29641115738084339 0.70252050881958938 0 0.25770010742238642 0.74917861927655205 0 0.249609553207091 0.71159714897732929 0 0.2925512105451914 0.73997990291173188 0 0.70740600291923772 0.26015060193611528 0 0.75039044679291111 0.28840285102267788 0 0.70358884261915744 0.29747949118041561 0 0.74229989257762263 0.250821380723454 0 0.75039044679291111 0.28840285102267788 0 0.70740600291923772 0.26015060193611528 0 0.26014443552207939 0.29262390443653519 0 0.28840285102268098 0.24960955320708811 0 0.29747949118041711 0.2964111573808435 0 0.25082138072344978 0.25770010742236849 0 0.28840285102268098 0.24960955320708811 0 0.26014443552207939 0.29262390443653519 0 0.88949062093135778 0.73694585442531257 0 0.85607519768343354 0.69380468830529196 0 0.90051880305432697 0.69261863673346957 0 0.26305414557470391 0.88949062093136155 0 0.30619531169472608 0.85607519768342955 0 0.30738136326657722 0.90051880305435028 0 0.73688246401832591 0.11047754041323141 0 0.69379929796456197 0.14392209494791061 0 0.69253601466723103 0.09949211948105087 0 0.1104775404132264 0.2631175359816938 0 0.14392209494791439 0.30620070203545702 0 0.099492119481027347 0.30746398533281638 0 0.58981073711177334 0.48140931020849848 0 0.54783891860069212 0.46640164214823893 0 0.59313386551587477 0.43977047843653239 0 0.640156794425081 0.43301393728221721 0 0.69595787604187809 0.43071000156707989 0 0.66329969176266512 0.46626046872004567 0 0.70015119067225129 0.48481914991727459 0 0.66329969176266512 0.46626046872004567 0 0.69595787604187809 0.43071000156707989 0 0.8289812646369813 0.82898126463698818 0 0.81306033001437827 0.8677384967307622 0 0.78284912262770068 0.83746308049763585 0 0.17101873536300011 0.82898126463696109 0 0.1322615032692282 0.8130603300143705 0 0.16253691950235041 0.78284912262768558 0 0.84534053180161173 0.2262639405833009 0 0.87355793346388477 0.18922011052113649 0 0.89556054516486661 0.21720615046483649 0 0.22626394058331961 0.15465946819838111 0 0.18922011052115781 0.12644206653611201 0 0.21720615046484709 0.1044394548351292 0 0.90082758526900886 0.098076845682916511 0 0.86148619541339633 0.089689702191568438 0 0.86589314360155567 0.054872692726639853 0 0.098076845682915317 0.099172414730993488 0 0.089689702191541126 0.13851380458662241 0 0.054872692726595548 0.13410685639845171 0 0.84598529912884157 0.63969251517827153 0 0.89064679688610338 0.6216080907827598 0 0.88396545633132484 0.6625197322180193 0 0.63969251517826664 0.15401470087115929 0 0.62160809078275991 0.1093532031139005 0 0.66251865414987876 0.1160340021949529 0 0.36030748482174152 0.84598529912882459 0 0.37839190921727062 0.89064679688614412 0 0.33748026778199908 0.88396545633134682 0 0.15401470087117619 0.36030748482174652 0 0.10935320311385981 0.37839190921727089 0 0.11603400219493119 0.33748134585014028 0 0.82118136511706341 0.082875076569723011 0 0.8517485358380722 0.12294765968568611 0 0.8110316677333288 0.125875177082863 0 0.08287507656968085 0.1788186348829835 0 0.12294765968567151 0.14825146416195439 0 0.12587517708284679 0.1889683322666954 0 0.75000000000034661 1 0 0.7000000000006934 1 0 0.71789175274016548 0.95136708251202151 0 0 0.75000000000034661 0 0 0.7000000000006934 0 0.04863291748797445 0.71789175274016204 0 1 0.24999999999941211 0 1 0.29999999999926641 0 0.94915666091748963 0.28320804985299752 0 0.24999999999941211 0 0 0.29999999999926641 0 0 0.28320804985300141 0.050843339082505573 0 0.55000000000173355 1 0 0.51507566941747085 0.9626786017237855 0 0.55307204985744796 0.94819812235491685 0 0 0.55000000000173355 0 0.037321398276215258 0.51507566941747263 0 0.051801877645083663 0.55307204985745195 0 1 0.44999999999882923 0 0.96266688603193029 0.48495124540067203 0 0.94812782820415209 0.44708943904932719 0 0.44999999999882923 0 0 0.48492433058289169 0.037321398276272413 0 0.44692795014265252 0.051801877645060238 0 0.49854341599767982 0.37075914768127122 0 0.51491507395299929 0.3326740076510219 0 0.54715635490880632 0.37829016026862072 0 0.91838802593884228 0.81827409710237209 0 0.88962265630811221 0.85311725681459705 0 0.87660297360393757 0.8104127896505644 0 0.1817259028976386 0.91838802593888857 0 0.14688274318541941 0.88962265630811932 0 0.18958721034944021 0.87660297360394568 0 0.50333998054938722 0.50119715791968966 0 0.554170140907293 0.50922353359177785 0 0.53087311892591971 0.55299263141448529 0 0.91890123454466932 0.39094742729597309 0 0.95886012268748921 0.4068558182724159 0 0.90991454156957952 0.4312731559748802 0 0.94812782820415209 0.44708943904932719 0 0.90991454156957952 0.4312731559748802 0 0.95886012268748921 0.4068558182724159 0 0.84999999999965292 1 0 0.82675923981951416 0.95611053755456221 0 0.86696410734367158 0.94753096683315619 0 0 0.84999999999965292 0 0.043889462445437968 0.82675923981951283 0 0.052469033166843738 0.86696410734366991 0 0.1817259028976386 0.91838802593888857 0 0.18045991219397989 0.960710939969875 0 0.13834721989462789 0.94095916274077984 0 0.91838802593884228 0.81827409710237209 0 0.96071093996985157 0.81954008780615684 0 0.94095916274074942 0.86165278010542579 0 0.08287507656968085 0.1788186348829835 0 0.038839999600931263 0.17949825993190149 0 0.054872692726595548 0.13410685639845171 0 0.82118136511706341 0.082875076569723011 0 0.82050174006822896 0.038839999600956771 0 0.86589314360155567 0.054872692726639853 0 0.15000000000062411 1 0 0.13834721989462789 0.94095916274077984 0 0.18045991219397989 0.960710939969875 0 1 0.84999999999960507 0 0.94095916274074942 0.86165278010542579 0 0.96071093996985157 0.81954008780615684 0 0 0.15000000000062411 0 0.054872692726595548 0.13410685639845171 0 0.038839999600931263 0.17949825993190149 0 0.84999999999960507 0 0 0.86589314360155567 0.054872692726639853 0 0.82050174006822896 0.038839999600956771 0 1 0.14999999999970359 0 0.96080966346491015 0.18035159017841959 0 0.94100406608115506 0.1383574446607955 0 0.14999999999970359 0 0 0.18035159017842109 0.039190336535090492 0 0.1383574446607988 0.058995933918849157 0 0.91838802593870927 0.18172590289757809 0 0.94100406608115506 0.1383574446607955 0 0.96080966346491015 0.18035159017841959 0 0.18172590289758209 0.08161197406129285 0 0.1383574446607988 0.058995933918849157 0 0.18035159017842109 0.039190336535090492 0 0.40653508887824003 0.61580573377480397 0 0.45030222762303879 0.58443295115431027 0 0.45517457031814612 0.62743100079604397 0 0.50333998054938722 0.50119715791968966 0 0.53087311892591971 0.55299263141448529 0 0.47974773860103892 0.54872726831320284 0 0.33382663527330159 0.44130125047503482 0 0.30597655500381687 0.3934681685211931 0 0.35481422397128459 0.40312981465069342 0 0.34804757266227387 0.35750068079406011 0 0.35481422397128459 0.40312981465069342 0 0.30597655500381687 0.3934681685211931 0 0.39419886675318527 0.41912225240070788 0 0.39222057657781068 0.38067796690227418 0 0.42930823106401639 0.40626685012722968 0 0.5586987495249669 0.33382663527330653 0 0.54715635490880632 0.37829016026862072 0 0.51491507395299929 0.3326740076510219 0 0.84598529912884157 0.63969251517827153 0 0.88396545633132484 0.6625197322180193 0 0.85607519768343354 0.69380468830529196 0 0.63969251517826664 0.15401470087115929 0 0.66251865414987876 0.1160340021949529 0 0.69379929796456197 0.14392209494791061 0 0.36030748482174152 0.84598529912882459 0 0.33748026778199908 0.88396545633134682 0 0.30619531169472608 0.85607519768342955 0 0.15401470087117619 0.36030748482174652 0 0.11603400219493119 0.33748134585014028 0 0.14392209494791439 0.30620070203545702 0 0.41009598069569558 0.49083935749285379 0 0.39982789553993509 0.53462762214740622 0 0.35815651743779398 0.51113440447909086 0 0.43087117257049001 0.8215422551712771 0 0.38703015239361932 0.80283068154761972 0 0.43306783640023289 0.78031198216144404 0 0.8215422551712277 0.56912882742954496 0 0.8028306815476034 0.61296984760642026 0 0.78031198216143516 0.56693216359979737 0 0.17845774482872559 0.43087117257049429 0 0.197169318452384 0.38703015239362498 0 0.21968801783855879 0.43306783640023788 0 0.56912882742954041 0.17845774482877461 0 0.61296984760641449 0.19716931845240021 0 0.56683314878414581 0.21944955250104689 0 0.86696410734367158 0.94753096683315619 0 0.82675923981951416 0.95611053755456221 0 0.85382799508926477 0.91295829388058414 0 0.052469033166843738 0.86696410734366991 0 0.043889462445437968 0.82675923981951283 0 0.087041706119416085 0.85382799508926188 0 0.81709574086843206 0.91318696080656769 0 0.85382799508926477 0.91295829388058414 0 0.82675923981951416 0.95611053755456221 0 0.086813039193431391 0.81709574086842884 0 0.087041706119416085 0.85382799508926188 0 0.043889462445437968 0.82675923981951283 0 0.77998481823117694 0.71397317153691997 0 0.8312019486901514 0.72745002167959472 0 0.78651189793386345 0.75664155808652755 0 0.28602682846308641 0.77998481823117594 0 0.27254997832041528 0.8312019486901443 0 0.24335844191347281 0.78651189793387466 0 0.71397317153692708 0.22001518176882201 0 0.72767516840721058 0.16853767177393791 0 0.7582555232258138 0.2115548431873896 0 0.22001518176882229 0.28602682846307981 0 0.1685376717739448 0.27232483159280108 0 0.2115548431873881 0.2417444767741872 0 0.54901591374940373 0.42306523525165751 0 0.50753758205811061 0.4506562873613274 0 0.5047849391802508 0.40719950955717021 0 0.54901591374940373 0.42306523525165751 0 0.59313386551587477 0.43977047843653239 0 0.54783891860069212 0.46640164214823893 0 0.81709574086843206 0.91318696080656769 0 0.81306033001437827 0.8677384967307622 0 0.85174853583809862 0.87705234031428159 0 0.086813039193431391 0.81709574086842884 0 0.1322615032692282 0.8130603300143705 0 0.1229476596857173 0.85174853583809695 0 0.839908789927305 0.77106070975262608 0 0.79422489417873421 0.79640925234634441 0 0.78651189793386345 0.75664155808652755 0 0.22893929024737289 0.83990878992727813 0 0.20359074765364421 0.79422489417871855 0 0.24335844191347281 0.78651189793387466 0 0.77216325087772952 0.15899695163319821 0 0.80027482104603809 0.20596721135052129 0 0.7582555232258138 0.2115548431873896 0 0.15899695163321451 0.22783674912227669 0 0.20596721135052939 0.19972517895396219 0 0.2115548431873881 0.2417444767741872 0 0.70087539567735502 0.57165914616526226 0 0.65501639383771026 0.594528181397324 0 0.66548584431530877 0.55616712808283064 0 0.69288637798153729 0.61204665218001397 0 0.65501639383771026 0.594528181397324 0 0.70087539567735502 0.57165914616526226 0 0.57188338999077359 0.29874123486230147 0 0.59596170682035776 0.34609402305862419 0 0.5586987495249669 0.33382663527330653 0 0.61204665218000809 0.30711362201846659 0 0.59596170682035776 0.34609402305862419 0 0.57188338999077359 0.29874123486230147 0 0.55307204985744796 0.94819812235491685 0 0.56877264426066887 0.91182300080710277 0 0.5931441817276254 0.95886012268751675 0 0.60938371359314658 0.91847489683800321 0 0.5931441817276254 0.95886012268751675 0 0.56877264426066887 0.91182300080710277 0 0.051801877645083663 0.55307204985745195 0 0.088176999192898689 0.56877264426067353 0 0.041139877312483641 0.59314418172763017 0 0.081525103161997597 0.6093837135931508 0 0.041139877312483641 0.59314418172763017 0 0.088176999192898689 0.56877264426067353 0 0.44692795014265252 0.051801877645060238 0 0.43122735573933979 0.088176999192917438 0 0.40685581827241191 0.041139877312511682 0 0.39061628640684498 0.081525103161991672 0 0.40685581827241191 0.041139877312511682 0 0.43122735573933979 0.088176999192917438 0 0.56566515596461675 0.63670464971409091 0 0.54058719659441246 0.66889411379075558 0 0.51172471858873747 0.64015771271794875 0 0.35984320557492089 0.56698606271778873 0 0.331306197573488 0.54052564146842386 0 0.35815651743779398 0.51113440447909086 0 0.51484304721220842 0.69707233951836334 0 0.51172471858873747 0.64015771271794875 0 0.54058719659441246 0.66889411379075558 0 0.30292766048163949 0.51484304721221474 0 0.35815651743779398 0.51113440447909086 0 0.331306197573488 0.54052564146842386 0 0.90045039720880915 0.9020090423547924 0 0.86696410734367158 0.94753096683315619 0 0.85382799508926477 0.91295829388058414 0 0.097990957645208238 0.90045039720880915 0 0.052469033166843738 0.86696410734366991 0 0.087041706119416085 0.85382799508926188 0 0.82118136511706341 0.082875076569723011 0 0.86589314360155567 0.054872692726639853 0 0.86148619541339633 0.089689702191568438 0 0.08287507656968085 0.1788186348829835 0 0.054872692726595548 0.13410685639845171 0 0.089689702191541126 0.13851380458662241 0 0.67757268808231397 0.93106206656183088 0 0.70475631558365914 0.90098127745102974 0 0.71789175274016548 0.95136708251202151 0 0.068937933438162791 0.67757268808231053 0 0.099018722548963364 0.70475631558365193 0 0.04863291748797445 0.71789175274016204 0 0.93106206656185309 0.32242731191769503 0 0.89886191075654698 0.29506339503703172 0 0.94915666091748963 0.28320804985299752 0 0.32242731191769902 0.068937933438140794 0 0.29506339503703888 0.1011380892434444 0 0.28320804985300141 0.050843339082505573 0 0.59819537371016407 0.74380966024143391 0 0.57578062281532438 0.77751665353176347 0 0.54465502325161819 0.74717983044080061 0 0.25619033975856881 0.59819537371016862 0 0.2224870800581388 0.57577541371134155 0 0.25287139441262568 0.54458355434492378 0 0.74380966024142703 0.40180462628984132 0 0.77752557158083724 0.42422273168818408 0 0.74730218607442667 0.45539100053644521 0 0.40180462628983732 0.2561903397585753 0 0.42421838472613971 0.22246502005787769 0 0.45533136021725079 0.2525687312087147 0 0.56566515596461675 0.63670464971409091 0 0.53542397956703913 0.60119875982347493 0 0.57484409313590223 0.58437321637184114 0 0.59819537371016407 0.74380966024143391 0 0.57051182622447827 0.69668652018496713 0 0.6083790122881827 0.70496300707145865 0 0.25619033975856881 0.59819537371016862 0 0.30429740679959738 0.56913905146460098 0 0.29503699292854352 0.60837901228818936 0 0.74380966024142703 0.40180462628984132 0 0.69595787604187809 0.43071000156707989 0 0.70496300707145554 0.39162098771181952 0 0.40180462628983732 0.2561903397585753 0 0.43059486795334201 0.30395973419063538 0 0.39162098771181342 0.29503699292854563 0 0.50000000000002642 0.7803135888501761 0 0.54465502325161819 0.74717983044080061 0 0.53770425635794761 0.80104587463999666 0 0.2196864111498267 0.50000000000003153 0 0.25287139441262568 0.54458355434492378 0 0.1989632851005598 0.53769147668950479 0 0.78031358885017377 0.49999999999997569 0 0.74730218607442667 0.45539100053644521 0 0.80106707846564795 0.46230714888029367 0 0.49999999999997108 0.21968641114982909 0 0.45533136021725079 0.2525687312087147 0 0.46229330881044273 0.19890916456654811 0 0.51484304721220842 0.69707233951836334 0 0.54058719659441246 0.66889411379075558 0 0.57051182622447827 0.69668652018496713 0 0.30292766048163949 0.51484304721221474 0 0.331306197573488 0.54052564146842386 0 0.30429740679959738 0.56913905146460098 0 0.56566515596461675 0.63670464971409091 0 0.57051182622447827 0.69668652018496713 0 0.54058719659441246 0.66889411379075558 0 0.35984320557492089 0.56698606271778873 0 0.30429740679959738 0.56913905146460098 0 0.331306197573488 0.54052564146842386 0 0.60938371359314658 0.91847489683800321 0 0.58267137064684116 0.87013301365640838 0 0.62483828039315681 0.8780818733396436 0 0.081525103161997597 0.6093837135931508 0 0.12986698634359389 0.58267137064684615 0 0.1219181266603569 0.62483828039315903 0 0.91890123454466932 0.39094742729597309 0 0.87012666750595846 0.41743873185103042 0 0.87815187193233801 0.37523526017134418 0 0.39061628640684498 0.081525103161991672 0 0.41732862935313042 0.12986698634362279 0 0.37516171960683908 0.121918126660369 0 0.5133022293955174 0.064893331803591428 0 0.52499999999875446 0.029444907164469181 0 0.55993888817186677 0.043612803661174412 0 0.064893331803534807 0.48669777060454478 0 0.029444907164209121 0.47500000000196552 0 0.043612803661092707 0.44006111182840391 0 0.93510666819640953 0.51330222939551939 0 0.97055509283553232 0.52499999999875435 0 0.95638719633882641 0.5599388881718611 0 0.48669777060454272 0.93510666819646593 0 0.47500000000196563 0.970555092835793 0 0.44006111182840962 0.9563871963389079 0 0.56759263990989184 0.81794319034601648 0 0.54047998161173716 0.84333512669480526 0 0.53770425635794761 0.80104587463999666 0 0.18205680965398621 0.56759263990989739 0 0.1566648733051971 0.54047998161174216 0 0.1989632851005598 0.53769147668950479 0 0.81794319034597418 0.43240736009009317 0 0.84333218736938698 0.4595365182652234 0 0.80106707846564795 0.46230714888029367 0 0.43240736009008851 0.18205680965402779 0 0.45952001838826873 0.15666487330524251 0 0.46229330881044273 0.19890916456654811 0 0.50333998054938722 0.50119715791968966 0 0.47974773860103892 0.54872726831320284 0 0.45293656999117771 0.51494832297079129 0 0.73982803480991577 0.79629608696991705 0 0.69892030930712212 0.7971997999085858 0 0.71159714897733284 0.75039044679290845 0 0.20370391303007401 0.73982803480989479 0 0.2028002000914135 0.69892030930711557 0 0.249609553207091 0.71159714897732929 0 0.79629608696994103 0.26017196519011448 0 0.7971997999085878 0.3010796906928917 0 0.75039044679291111 0.28840285102267788 0 0.26017196519013502 0.20370391303005 0 0.30107969069289831 0.20280020009141189 0 0.28840285102268098 0.24960955320708811 0 0.43087117257049001 0.8215422551712771 0 0.40481452396081791 0.85130421228141606 0 0.38703015239361932 0.80283068154761972 0 0.36030748482174152 0.84598529912882459 0 0.38703015239361932 0.80283068154761972 0 0.40481452396081791 0.85130421228141606 0 0.17845774482872559 0.43087117257049429 0 0.14869578771858949 0.40481452396082068 0 0.197169318452384 0.38703015239362498 0 0.8215422551712277 0.56912882742954496 0 0.85130417396420255 0.59518556406638579 0 0.8028306815476034 0.61296984760642026 0 0.84598529912884157 0.63969251517827153 0 0.8028306815476034 0.61296984760642026 0 0.85130417396420255 0.59518556406638579 0 0.15401470087117619 0.36030748482174652 0 0.197169318452384 0.38703015239362498 0 0.14869578771858949 0.40481452396082068 0 0.56912882742954041 0.17845774482877461 0 0.59518547603920147 0.14869578771864489 0 0.61296984760641449 0.19716931845240021 0 0.63969251517826664 0.15401470087115929 0 0.61296984760641449 0.19716931845240021 0 0.59518547603920147 0.14869578771864489 0 0.6519524273377173 0.64249931920594539 0 0.65501639383771026 0.594528181397324 0 0.69288637798153729 0.61204665218001397 0 0.6424993192059415 0.3480475726622802 0 0.59596170682035776 0.34609402305862419 0 0.61204665218000809 0.30711362201846659 0 0.35944937237716967 0.65164789808436319 0 0.40564717507982689 0.65626423320524974 0 0.38642358467307758 0.69286258923597266 0 0.90045039720880915 0.9020090423547924 0 0.85174853583809862 0.87705234031428159 0 0.88962265630811221 0.85311725681459705 0 0.097990957645208238 0.90045039720880915 0 0.1229476596857173 0.85174853583809695 0 0.14688274318541941 0.88962265630811932 0 0.90082758526900886 0.098076845682916511 0 0.88777909259956078 0.1484760565886154 0 0.8517485358380722 0.12294765968568611 0 0.098076845682915317 0.099172414730993488 0 0.1484760565886207 0.1122209074004519 0 0.12294765968567151 0.14825146416195439 0 0.35815651743779398 0.51113440447909086 0 0.33436424489304489 0.47849603121740791 0 0.37702386074717259 0.45819417564476811 0 0.92670321183853355 0.65773042910151081 0 0.94635952848698612 0.71209247961721311 0 0.90051880305432697 0.69261863673346957 0 0.65773042910151891 0.073296788161472337 0 0.71174922810186925 0.053730171687687178 0 0.69253601466723103 0.09949211948105087 0 0.3422695708985129 0.92670321183858773 0 0.28790752038294382 0.94635952848702642 0 0.30738136326657722 0.90051880305435028 0 0.073296788161418117 0.34226957089850552 0 0.053730171687646627 0.28825077189828552 0 0.099492119481027347 0.30746398533281638 0 0.43565339604028508 0.55159384357101338 0 0.45293656999117771 0.51494832297079129 0 0.47974773860103892 0.54872726831320284 0 0.33382663527330159 0.44130125047503482 0 0.2963043386970643 0.4298320229681446 0 0.30597655500381687 0.3934681685211931 0 1 0.69999999999921003 0 0.94635952848698612 0.71209247961721311 0 0.96779701826738695 0.67105375815842694 0 0.69999999999921003 0 0 0.71174922810186925 0.053730171687687178 0 0.67098510785536181 0.032220921767549461 0 0.30000000000124832 1 0 0.28790752038294382 0.94635952848702642 0 0.32894624184180998 0.96779701826738929 0 0 0.30000000000124832 0 0.053730171687646627 0.28825077189828552 0 0.032220921767546963 0.32901489214487523 0 0.56759263990989184 0.81794319034601648 0 0.57578062281532438 0.77751665353176347 0 0.61896574319320252 0.795216048370321 0 0.59819537371016407 0.74380966024143391 0 0.61896574319320252 0.795216048370321 0 0.57578062281532438 0.77751665353176347 0 0.25619033975856881 0.59819537371016862 0 0.2047839516296828 0.61896574319320252 0 0.2224870800581388 0.57577541371134155 0 0.18205680965398621 0.56759263990989739 0 0.2224870800581388 0.57577541371134155 0 0.2047839516296828 0.61896574319320252 0 0.74380966024142703 0.40180462628984132 0 0.79521604837030013 0.38103425680679831 0 0.77752557158083724 0.42422273168818408 0 0.81794319034597418 0.43240736009009317 0 0.77752557158083724 0.42422273168818408 0 0.79521604837030013 0.38103425680679831 0 0.40180462628983732 0.2561903397585753 0 0.38103425680679859 0.2047839516297037 0 0.42421838472613971 0.22246502005787769 0 0.43240736009008851 0.18205680965402779 0 0.42421838472613971 0.22246502005787769 0 0.38103425680679859 0.2047839516297037 0 0.63969251517836323 0.84598529912890386 0 0.6027107599280892 0.83436006790502326 0 0.61896574319320252 0.795216048370321 0 0.1540147008710982 0.63969251517836956 0 0.1656399320949789 0.60271075992809464 0 0.2047839516296828 0.61896574319320252 0 0.84598529912889664 0.36030748482164038 0 0.83436006790498052 0.39728924007189959 0 0.79521604837030013 0.38103425680679831 0 0.3603074848216346 0.15401470087110539 0 0.3972892400718947 0.16563993209502181 0 0.38103425680679859 0.2047839516297037 0 0.53432142347292233 0.88563193847251998 0 0.58267137064684116 0.87013301365640838 0 0.56877264426066887 0.91182300080710277 0 0.1143680615274819 0.53432142347292733 0 0.12986698634359389 0.58267137064684615 0 0.088176999192898689 0.56877264426067353 0 0.91890123454466932 0.39094742729597309 0 0.90991454156957952 0.4312731559748802 0 0.87012666750595846 0.41743873185103042 0 0.46567857652706018 0.1143680615275231 0 0.41732862935313042 0.12986698634362279 0 0.43122735573933979 0.088176999192917438 0 0.60938371359314658 0.91847489683800321 0 0.56877264426066887 0.91182300080710277 0 0.58267137064684116 0.87013301365640838 0 0.081525103161997597 0.6093837135931508 0 0.088176999192898689 0.56877264426067353 0 0.12986698634359389 0.58267137064684615 0 0.88561059063756964 0.46572761956237563 0 0.87012666750595846 0.41743873185103042 0 0.90991454156957952 0.4312731559748802 0 0.39061628640684498 0.081525103161991672 0 0.43122735573933979 0.088176999192917438 0 0.41732862935313042 0.12986698634362279 0 0.56759263990989184 0.81794319034601648 0 0.6027107599280892 0.83436006790502326 0 0.58267137064684116 0.87013301365640838 0 0.18205680965398621 0.56759263990989739 0 0.1656399320949789 0.60271075992809464 0 0.12986698634359389 0.58267137064684615 0 0.81794319034597418 0.43240736009009317 0 0.83436006790498052 0.39728924007189959 0 0.87012666750595846 0.41743873185103042 0 0.43240736009008851 0.18205680965402779 0 0.3972892400718947 0.16563993209502181 0 0.41732862935313042 0.12986698634362279 0 0.77998481823117694 0.71397317153691997 0 0.78651189793386345 0.75664155808652755 0 0.74917861927654894 0.74229989257760443 0 0.28602682846308641 0.77998481823117594 0 0.24335844191347281 0.78651189793387466 0 0.25770010742238642 0.74917861927655205 0 0.71397317153692708 0.22001518176882201 0 0.7582555232258138 0.2115548431873896 0 0.74229989257762263 0.250821380723454 0 0.22001518176882229 0.28602682846307981 0 0.2115548431873881 0.2417444767741872 0 0.25082138072344978 0.25770010742236849 0 0.8215422551712277 0.56912882742954496 0 0.78031198216143516 0.56693216359979737 0 0.80781854240107975 0.53406203754901738 0 0.43087117257049001 0.8215422551712771 0 0.43306783640023289 0.78031198216144404 0 0.46593838964869061 0.80781872835503554 0 0.56912882742954041 0.17845774482877461 0 0.56683314878414581 0.21944955250104689 0 0.53404982287327418 0.19215288291432539 0 0.17845774482872559 0.43087117257049429 0 0.21968801783855879 0.43306783640023788 0 0.19218127164496679 0.46593838964869538 0 0.92670321183853355 0.65773042910151081 0 0.96779701826738695 0.67105375815842694 0 0.94635952848698612 0.71209247961721311 0 0.65773042910151891 0.073296788161472337 0 0.67098510785536181 0.032220921767549461 0 0.71174922810186925 0.053730171687687178 0 0.3422695708985129 0.92670321183858773 0 0.32894624184180998 0.96779701826738929 0 0.28790752038294382 0.94635952848702642 0 0.073296788161418117 0.34226957089850552 0 0.032220921767546963 0.32901489214487523 0 0.053730171687646627 0.28825077189828552 0 0.51484304721220842 0.69707233951836334 0 0.46736891737654429 0.70015537930374983 0 0.47818752133962877 0.66454462905280853 0 0.30292766048163949 0.51484304721221474 0 0.29988655052531688 0.46700727827593119 0 0.33436424489304489 0.47849603121740791 0 0.53432142347292233 0.88563193847251998 0 0.52425337578225772 0.9223731761594427 0 0.48758069708049379 0.89080072540186539 0 0.1143680615274819 0.53432142347292733 0 0.07762682384055844 0.52425337578226128 0 0.1091992745981364 0.48758069708049778 0 0.88561059063756964 0.46572761956237563 0 0.92203742772043751 0.47579485578641628 0 0.89079805168298443 0.51242544533572376 0 0.46567857652706018 0.1143680615275231 0 0.47574662421782782 0.077626823840590969 0 0.51241930291950477 0.1091992745981813 0 0.49189101320880302 0.59024331187324797 0 0.47974773860103892 0.54872726831320284 0 0.53087311892591971 0.55299263141448529 0 0.81709574086843206 0.91318696080656769 0 0.78020430794084783 0.88768307197553598 0 0.81306033001437827 0.8677384967307622 0 0.086813039193431391 0.81709574086842884 0 0.11231692802445629 0.78020430794084028 0 0.1322615032692282 0.8130603300143705 0 0.90045039720880915 0.9020090423547924 0 0.85382799508926477 0.91295829388058414 0 0.85174853583809862 0.87705234031428159 0 0.097990957645208238 0.90045039720880915 0 0.087041706119416085 0.85382799508926188 0 0.1229476596857173 0.85174853583809695 0 0.82118136511706341 0.082875076569723011 0 0.86148619541339633 0.089689702191568438 0 0.8517485358380722 0.12294765968568611 0 0.08287507656968085 0.1788186348829835 0 0.089689702191541126 0.13851380458662241 0 0.12294765968567151 0.14825146416195439 0 0.56759263990989184 0.81794319034601648 0 0.61896574319320252 0.795216048370321 0 0.6027107599280892 0.83436006790502326 0 0.18205680965398621 0.56759263990989739 0 0.2047839516296828 0.61896574319320252 0 0.1656399320949789 0.60271075992809464 0 0.81794319034597418 0.43240736009009317 0 0.79521604837030013 0.38103425680679831 0 0.83436006790498052 0.39728924007189959 0 0.43240736009008851 0.18205680965402779 0 0.38103425680679859 0.2047839516297037 0 0.3972892400718947 0.16563993209502181 0 0.91838802593870927 0.18172590289757809 0 0.87355793346388477 0.18922011052113649 0 0.88777909259956078 0.1484760565886154 0 0.18172590289758209 0.08161197406129285 0 0.18922011052115781 0.12644206653611201 0 0.1484760565886207 0.1122209074004519 0 0.50333998054938722 0.50119715791968966 0 0.46152714345798918 0.47344359412352599 0 0.50753758205811061 0.4506562873613274 0 0.46102425708533701 0.43254199134332588 0 0.50753758205811061 0.4506562873613274 0 0.46152714345798918 0.47344359412352599 0 0.70252050881959183 0.70358884261915833 0 0.67626275269587088 0.72713741921009012 0 0.6768914574865772 0.67861120078714243 0 0.29641115738084339 0.70252050881958938 0 0.27349656744860212 0.67581741996408695 0 0.32259853082073792 0.67670072609835186 0 0.70358884261915744 0.29747949118041561 0 0.72713741921008324 0.32373724730413678 0 0.6786112007871401 0.32310854251343019 0 0.29747949118041711 0.2964111573808435 0 0.32373692627050221 0.27286413781593999 0 0.3231032570156932 0.32141443408924047 0 0.43301393728221038 0.35984320557492139 0 0.39222057657781068 0.38067796690227418 0 0.39120887188745579 0.33407577688404289 0 0.48669777060454272 0.93510666819646593 0 0.48758069708049379 0.89080072540186539 0 0.52425337578225772 0.9223731761594427 0 0.064893331803534807 0.48669777060454478 0 0.1091992745981364 0.48758069708049778 0 0.07762682384055844 0.52425337578226128 0 0.93510666819640953 0.51330222939551939 0 0.89079805168298443 0.51242544533572376 0 0.92203742772043751 0.47579485578641628 0 0.5133022293955174 0.064893331803591428 0 0.51241930291950477 0.1091992745981813 0 0.47574662421782782 0.077626823840590969 0 0.4434591735942961 0.66641640622551224 0 0.42715538333808079 0.70077759375307946 0 0.40564717507982689 0.65626423320524974 0 0.38642358467307758 0.69286258923597266 0 0.40564717507982689 0.65626423320524974 0 0.42715538333808079 0.70077759375307946 0 0.57387636360620708 0.54318431390135336 0 0.554170140907293 0.50922353359177785 0 0.59621567360238914 0.5184866806641607 0 0.84999999999965292 1 0 0.79999999999999982 1 0 0.82675923981951416 0.95611053755456221 0 0 0.84999999999965292 0 0 0.79999999999999982 0 0.043889462445437968 0.82675923981951283 0 1 0.14999999999970359 0 1 0.19999999999955789 0 0.96080966346491015 0.18035159017841959 0 0.14999999999970359 0 0 0.19999999999955789 0 0 0.18035159017842109 0.039190336535090492 0 1 0.79999999999947335 0 1 0.84999999999960507 0 0.96071093996985157 0.81954008780615684 0 0.79999999999947335 0 0 0.84999999999960507 0 0 0.82050174006822896 0.038839999600956771 0 0.20000000000083221 1 0 0.15000000000062411 1 0 0.18045991219397989 0.960710939969875 0 0 0.20000000000083221 0 0 0.15000000000062411 0 0.038839999600931263 0.17949825993190149 0 0.64518564541690571 0.69601563325001548 0 0.6768914574865772 0.67861120078714243 0 0.67626275269587088 0.72713741921009012 0 0.30421635384321521 0.64514939193436716 0 0.32259853082073792 0.67670072609835186 0 0.27349656744860212 0.67581741996408695 0 0.69601563325001248 0.35481435458309712 0 0.6786112007871401 0.32310854251343019 0 0.72713741921008324 0.32373724730413678 0 0.35481435458309307 0.30398436674998969 0 0.3231032570156932 0.32141443408924047 0 0.32373692627050221 0.27286413781593999 0 0.49771727055908782 0.83998685797641781 0 0.48758069708049379 0.89080072540186539 0 0.45353891581270822 0.85551523377818905 0 0.16001314202358469 0.49771727055909287 0 0.1091992745981364 0.48758069708049778 0 0.1444847662218138 0.45353891581271188 0 0.83998574657308889 0.50228528270184081 0 0.89079805168298443 0.51242544533572376 0 0.85551478316835361 0.54646211938695222 0 0.50228272944093777 0.16001314202359701 0 0.51241930291950477 0.1091992745981813 0 0.54646108418729233 0.1444847662218687 0 0.70252050881959183 0.70358884261915833 0 0.6768914574865772 0.67861120078714243 0 0.71518943060973483 0.65679402931717101 0 0.29641115738084339 0.70252050881958938 0 0.32259853082073792 0.67670072609835186 0 0.34270280102445921 0.71672416762035873 0 0.70358884261915744 0.29747949118041561 0 0.6786112007871401 0.32310854251343019 0 0.65679402931716913 0.28481056939027388 0 0.29747949118041711 0.2964111573808435 0 0.3231032570156932 0.32141443408924047 0 0.28473805236128291 0.34355768118673757 0 0.92670321183853355 0.65773042910151081 0 0.96654491682122368 0.6363613838740827 0 0.96779701826738695 0.67105375815842694 0 0.65773042910151891 0.073296788161472337 0 0.63635157668793507 0.033457646040912177 0 0.67098510785536181 0.032220921767549461 0 0.073296788161418117 0.34226957089850552 0 0.033457646040922301 0.36364842331228431 0 0.032220921767546963 0.32901489214487523 0 0.3422695708985129 0.92670321183858773 0 0.36363861612613613 0.96654491682121313 0 0.32894624184180998 0.96779701826738929 0 1 0.64999999999907843 0 1 0.69999999999921003 0 0.96779701826738695 0.67105375815842694 0 0.64999999999907843 0 0 0.69999999999921003 0 0 0.67098510785536181 0.032220921767549461 0 0.35000000000145642 1 0 0.30000000000124832 1 0 0.32894624184180998 0.96779701826738929 0 0 0.35000000000145642 0 0 0.30000000000124832 0 0.032220921767546963 0.32901489214487523 0 0 0.40000000000166441 0 0 0.35000000000145642 0 0.033457646040922301 0.36364842331228431 0 0.40000000000166441 1 0 0.35000000000145642 1 0 0.36363861612613613 0.96654491682121313 0 0.59999999999894682 0 0 0.64999999999907843 0 0 0.63635157668793507 0.033457646040912177 0 1 0.59999999999894682 0 1 0.64999999999907843 0 0.96654491682122368 0.6363613838740827 0 0.81709574086843206 0.91318696080656769 0 0.85174853583809862 0.87705234031428159 0 0.85382799508926477 0.91295829388058414 0 0.086813039193431391 0.81709574086842884 0 0.1229476596857173 0.85174853583809695 0 0.087041706119416085 0.85382799508926188 0 0.90082758526900886 0.098076845682916511 0 0.8517485358380722 0.12294765968568611 0 0.86148619541339633 0.089689702191568438 0 0.098076845682915317 0.099172414730993488 0 0.12294765968567151 0.14825146416195439 0 0.089689702191541126 0.13851380458662241 0 0.59819537371016407 0.74380966024143391 0 0.6083790122881827 0.70496300707145865 0 0.64203711532612107 0.74316477213290444 0 0.64518564541690571 0.69601563325001548 0 0.64203711532612107 0.74316477213290444 0 0.6083790122881827 0.70496300707145865 0 0.25619033975856881 0.59819537371016862 0 0.29503699292854352 0.60837901228818936 0 0.25684529255773247 0.64203554247963057 0 0.30421635384321521 0.64514939193436716 0 0.25684529255773247 0.64203554247963057 0 0.29503699292854352 0.60837901228818936 0 0.74380966024142703 0.40180462628984132 0 0.70496300707145554 0.39162098771181952 0 0.74316477213289889 0.35796288467388632 0 0.69601563325001248 0.35481435458309712 0 0.74316477213289889 0.35796288467388632 0 0.70496300707145554 0.39162098771181952 0 0.40180462628983732 0.2561903397585753 0 0.39162098771181342 0.29503699292854563 0 0.3579628846738841 0.25683522786710378 0 0.35481435458309307 0.30398436674998969 0 0.3579628846738841 0.25683522786710378 0 0.39162098771181342 0.29503699292854563 0 0.8289812646369813 0.82898126463698818 0 0.85174853583809862 0.87705234031428159 0 0.81306033001437827 0.8677384967307622 0 0.17101873536300011 0.82898126463696109 0 0.1229476596857173 0.85174853583809695 0 0.1322615032692282 0.8130603300143705 0 0.8215422551712277 0.56912882742954496 0 0.85551478316835361 0.54646211938695222 0 0.85130417396420255 0.59518556406638579 0 0.43087117257049001 0.8215422551712771 0 0.45353891581270822 0.85551523377818905 0 0.40481452396081791 0.85130421228141606 0 0.56912882742954041 0.17845774482877461 0 0.54646108418729233 0.1444847662218687 0 0.59518547603920147 0.14869578771864489 0 0.17845774482872559 0.43087117257049429 0 0.1444847662218138 0.45353891581271188 0 0.14869578771858949 0.40481452396082068 0 0.49854341599767982 0.37075914768127122 0 0.46543211128216788 0.38788423543681888 0 0.47253211736503098 0.34081710830804929 0 0.43301393728221038 0.35984320557492139 0 0.47253211736503098 0.34081710830804929 0 0.46543211128216788 0.38788423543681888 0 0.36030748482174152 0.84598529912882459 0 0.40481452396081791 0.85130421228141606 0 0.37839190921727062 0.89064679688614412 0 0.84598529912884157 0.63969251517827153 0 0.85130417396420255 0.59518556406638579 0 0.89064679688610338 0.6216080907827598 0 0.15401470087117619 0.36030748482174652 0 0.14869578771858949 0.40481452396082068 0 0.10935320311385981 0.37839190921727089 0 0.63969251517826664 0.15401470087115929 0 0.59518547603920147 0.14869578771864489 0 0.62160809078275991 0.1093532031139005 0 0.64455163611866495 0.50369301794551069 0 0.61866949026800744 0.55492322767366287 0 0.59621567360238914 0.5184866806641607 0 0.64518564541690571 0.69601563325001548 0 0.6083790122881827 0.70496300707145865 0 0.60879112811253555 0.66592422311595834 0 0.30421635384321521 0.64514939193436716 0 0.29503699292854352 0.60837901228818936 0 0.33231497408081678 0.60779218732873663 0 0.69601563325001248 0.35481435458309712 0 0.70496300707145554 0.39162098771181952 0 0.66346942254826746 0.391530810754116 0 0.35481435458309307 0.30398436674998969 0 0.39162098771181342 0.29503699292854563 0 0.39120887188745579 0.33407577688404289 0 0.39507969989512881 0.74417394063201048 0 0.38703015239361932 0.80283068154761972 0 0.35837423432538362 0.77730446904312345 0 0.74417394063200648 0.6049203001048884 0 0.8028306815476034 0.61296984760642026 0 0.77730446904309636 0.64162576567462737 0 0.25582605936799319 0.39507969989513358 0 0.197169318452384 0.38703015239362498 0 0.22269553095687891 0.35837423432538801 0 0.60492030010488373 0.25582605936799729 0 0.61296984760641449 0.19716931845240021 0 0.64162576567462404 0.22269553095690481 0 0.46102425708533701 0.43254199134332588 0 0.46152714345798918 0.47344359412352599 0 0.42340342337193693 0.44762131874855388 0 0.5586987495249669 0.33382663527330653 0 0.52929435216580312 0.29671213472503383 0 0.57188338999077359 0.29874123486230147 0 0.58981073711177334 0.48140931020849848 0 0.554170140907293 0.50922353359177785 0 0.54783891860069212 0.46640164214823893 0 0.35944937237716967 0.65164789808436319 0 0.33231497408081678 0.60779218732873663 0 0.37104651296145419 0.60545170748311072 0 0.58981073711177334 0.48140931020849848 0 0.59621567360238914 0.5184866806641607 0 0.554170140907293 0.50922353359177785 0 0.55000000000173355 1 0 0.50000000000205869 1 0 0.51507566941747085 0.9626786017237855 0 0 0.55000000000173355 0 0 0.50000000000205869 0 0.037321398276215258 0.51507566941747263 0 1 0.44999999999882923 0 1 0.49999999999869432 0 0.96266688603193029 0.48495124540067203 0 0.44999999999882923 0 0 0.49999999999869432 0 0 0.48492433058289169 0.037321398276272413 0 0.78031198216143516 0.56693216359979737 0 0.76797069865873757 0.53315993670164308 0 0.80781854240107975 0.53406203754901738 0 0.43306783640023289 0.78031198216144404 0 0.46634612187967051 0.76767585524061377 0 0.46593838964869061 0.80781872835503554 0 0.56683314878414581 0.21944955250104689 0 0.53265327255359129 0.23135454206919101 0 0.53404982287327418 0.19215288291432539 0 0.21968801783855879 0.43306783640023788 0 0.23232476702437141 0.46634525369567709 0 0.19218127164496679 0.46593838964869538 0 0.5586987495249669 0.33382663527330653 0 0.51491507395299929 0.3326740076510219 0 0.52929435216580312 0.29671213472503383 0 0.43565339604028508 0.55159384357101338 0 0.47974773860103892 0.54872726831320284 0 0.45030222762303879 0.58443295115431027 0 0.50333998054938722 0.50119715791968966 0 0.45293656999117771 0.51494832297079129 0 0.46152714345798918 0.47344359412352599 0 0 0 0 0.032369857048753323 0.032369857048862027 0 0 0.050000000000207989 0 1 0 0 0.96763014295114425 0.032369857048773903 0 0.94999999999986839 0 0 1 0 0 1 0.049999999999899652 0 0.96763014295114425 0.032369857048773903 0 0 0 0 0.049999999999899652 0 0 0.032369857048753323 0.032369857048862027 0 1 1 0 0.94999999999979179 1 0 0.96763014295120153 0.96763014295122851 0 1 1 0 0.96763014295120153 0.96763014295122851 0 1 0.94999999999986839 0 0 1 0 0.030452409610489669 0.96954759038951022 0 0.050000000000207989 1 0 0 1 0 0 0.94999999999979179 0 0.030452409610489669 0.96954759038951022 0 0.35984320557492089 0.56698606271778873 0 0.39982789553993509 0.53462762214740622 0 0.40468198875170619 0.57637931869191572 0 0.41009598069569558 0.49083935749285379 0 0.37702386074717259 0.45819417564476811 0 0.42340342337193693 0.44762131874855388 0 0.39419886675318527 0.41912225240070788 0 0.42340342337193693 0.44762131874855388 0 0.37702386074717259 0.45819417564476811 0 0.60938371359314658 0.91847489683800321 0 0.63753756910470316 0.95578163339252209 0 0.5931441817276254 0.95886012268751675 0 0.081525103161997597 0.6093837135931508 0 0.04421836660747535 0.63753756910470205 0 0.041139877312483641 0.59314418172763017 0 0.91890123454466932 0.39094742729597309 0 0.95581270756939096 0.36248656652865863 0 0.95886012268748921 0.4068558182724159 0 0.39061628640684498 0.081525103161991672 0 0.36246243089534252 0.044218366607477223 0 0.40685581827241191 0.041139877312511682 0 0.66820316019503978 0.77769800602796979 0 0.67626275269587088 0.72713741921009012 0 0.71159714897733284 0.75039044679290845 0 0.22230199397202771 0.66820316019503168 0 0.27349656744860212 0.67581741996408695 0 0.249609553207091 0.71159714897732929 0 0.77769800602796679 0.33179683980497482 0 0.72713741921008324 0.32373724730413678 0 0.75039044679291111 0.28840285102267788 0 0.33179683980498331 0.2223019939720311 0 0.32373692627050221 0.27286413781593999 0 0.28840285102268098 0.24960955320708811 0 0.54901591374940373 0.42306523525165751 0 0.54783891860069212 0.46640164214823893 0 0.50753758205811061 0.4506562873613274 0 0.34804757266227387 0.35750068079406011 0 0.39120887188745579 0.33407577688404289 0 0.39222057657781068 0.38067796690227418 0 0.7000000000006934 1 0 0.6766004019857832 0.9676421564932749 0 0.71789175274016548 0.95136708251202151 0 0 0.7000000000006934 0 0.032357843506722522 0.67660040198578164 0 0.04863291748797445 0.71789175274016204 0 0.67757268808231397 0.93106206656183088 0 0.71789175274016548 0.95136708251202151 0 0.6766004019857832 0.9676421564932749 0 0.068937933438162791 0.67757268808231053 0 0.04863291748797445 0.71789175274016204 0 0.032357843506722522 0.67660040198578164 0 1 0.29999999999926641 0 0.96720628700974665 0.32362438565954771 0 0.94915666091748963 0.28320804985299752 0 0.29999999999926641 0 0 0.32361955853288599 0.032799927825624707 0 0.28320804985300141 0.050843339082505573 0 0.93106206656185309 0.32242731191769503 0 0.94915666091748963 0.28320804985299752 0 0.96720628700974665 0.32362438565954771 0 0.32242731191769902 0.068937933438140794 0 0.28320804985300141 0.050843339082505573 0 0.32361955853288599 0.032799927825624707 0 0.91838802593884228 0.81827409710237209 0 0.87660297360393757 0.8104127896505644 0 0.9041449437197947 0.7786886066890556 0 0.1817259028976386 0.91838802593888857 0 0.18958721034944021 0.87660297360394568 0 0.22131139331094829 0.9041449437198319 0 0.76395804595204597 0.67808171673060369 0 0.77730446904309636 0.64162576567462737 0 0.80847852346122429 0.67208120229789559 0 0.32191828326940508 0.76395804595204586 0 0.35837423432538362 0.77730446904312345 0 0.32791879770213411 0.80847852346120164 0 0.67808171673060202 0.23604195404795861 0 0.64162576567462404 0.22269553095690481 0 0.67208120229787616 0.1915214765387884 0 0.2360419540479583 0.32191828326940741 0 0.22269553095687891 0.35837423432538801 0 0.19152147653881049 0.32791879770215432 0 0.82118136511706341 0.082875076569723011 0 0.8110316677333288 0.125875177082863 0 0.77925951159456153 0.09969477121230251 0 0.08287507656968085 0.1788186348829835 0 0.12587517708284679 0.1889683322666954 0 0.099694771212264055 0.22074048840547039 0 0.43301393728221038 0.35984320557492139 0 0.46543211128216788 0.38788423543681888 0 0.42930823106401639 0.40626685012722968 0 0.43590673999053309 0.90289902042279657 0 0.45353891581270822 0.85551523377818905 0 0.48758069708049379 0.89080072540186539 0 0.097100979577207341 0.43590673999053198 0 0.1444847662218138 0.45353891581271188 0 0.1091992745981364 0.48758069708049778 0 0.90289902042272274 0.56409326000946114 0 0.85551478316835361 0.54646211938695222 0 0.89079805168298443 0.51242544533572376 0 0.56409326000946236 0.097100979577281268 0 0.54646108418729233 0.1444847662218687 0 0.51241930291950477 0.1091992745981813 0 0.51484304721220842 0.69707233951836334 0 0.49073113440598592 0.73759004618730417 0 0.46736891737654429 0.70015537930374983 0 0.44764943295894188 0.73752415265401661 0 0.46736891737654429 0.70015537930374983 0 0.49073113440598592 0.73759004618730417 0 0.30292766048163949 0.51484304721221474 0 0.262418491288269 0.49071922292154141 0 0.29988655052531688 0.46700727827593119 0 0.26247584734598628 0.44764943295894732 0 0.29988655052531688 0.46700727827593119 0 0.262418491288269 0.49071922292154141 0 0.70015119067225129 0.48481914991727459 0 0.73815142352639962 0.50697050072007344 0 0.69798396601998558 0.5289734597937793 0 0.73752415265401194 0.55235056704108476 0 0.69798396601998558 0.5289734597937793 0 0.73815142352639962 0.50697050072007344 0 0.67757268808231397 0.93106206656183088 0 0.6441774148058701 0.91458123574274031 0 0.66923299355723143 0.8804077449518628 0 0.068937933438162791 0.67757268808231053 0 0.085418764257258195 0.64417741480586865 0 0.1195922550481313 0.66923299355722787 0 0.93106206656185309 0.32242731191769503 0 0.91286712511202617 0.35637271447129198 0 0.88040774495187946 0.33076700644278889 0 0.32242731191769902 0.068937933438140794 0 0.35582258519414178 0.085418764257258431 0 0.33076700644279272 0.1195922550481146 0 0.63969251517836323 0.84598529912890386 0 0.66923299355723143 0.8804077449518628 0 0.62483828039315681 0.8780818733396436 0 0.1540147008710982 0.63969251517836956 0 0.1195922550481313 0.66923299355722787 0 0.1219181266603569 0.62483828039315903 0 0.84598529912889664 0.36030748482164038 0 0.88040774495187946 0.33076700644278889 0 0.87815187193233801 0.37523526017134418 0 0.3603074848216346 0.15401470087110539 0 0.33076700644279272 0.1195922550481146 0 0.37516171960683908 0.121918126660369 0 0.46102425708533701 0.43254199134332588 0 0.5047849391802508 0.40719950955717021 0 0.50753758205811061 0.4506562873613274 0 0.85607519768343354 0.69380468830529196 0 0.88396545633132484 0.6625197322180193 0 0.90051880305432697 0.69261863673346957 0 0.30619531169472608 0.85607519768342955 0 0.33748026778199908 0.88396545633134682 0 0.30738136326657722 0.90051880305435028 0 0.69379929796456197 0.14392209494791061 0 0.66251865414987876 0.1160340021949529 0 0.69253601466723103 0.09949211948105087 0 0.14392209494791439 0.30620070203545702 0 0.11603400219493119 0.33748134585014028 0 0.099492119481027347 0.30746398533281638 0 0.78284912262770068 0.83746308049763585 0 0.81306033001437827 0.8677384967307622 0 0.78020430794084783 0.88768307197553598 0 0.16253691950235041 0.78284912262768558 0 0.1322615032692282 0.8130603300143705 0 0.11231692802445629 0.78020430794084028 0 0.66820316019503978 0.77769800602796979 0 0.64203711532612107 0.74316477213290444 0 0.67626275269587088 0.72713741921009012 0 0.22230199397202771 0.66820316019503168 0 0.25684529255773247 0.64203554247963057 0 0.27349656744860212 0.67581741996408695 0 0.77769800602796679 0.33179683980497482 0 0.74316477213289889 0.35796288467388632 0 0.72713741921008324 0.32373724730413678 0 0.33179683980498331 0.2223019939720311 0 0.3579628846738841 0.25683522786710378 0 0.32373692627050221 0.27286413781593999 0 0.4434591735942961 0.66641640622551224 0 0.45517457031814612 0.62743100079604397 0 0.47818752133962877 0.66454462905280853 0 0.7000000000006934 1 0 0.65000000000104008 1 0 0.6766004019857832 0.9676421564932749 0 0 0.7000000000006934 0 0 0.65000000000104008 0 0.032357843506722522 0.67660040198578164 0 1 0.29999999999926641 0 1 0.34999999999912063 0 0.96720628700974665 0.32362438565954771 0 0.29999999999926641 0 0 0.34999999999912063 0 0 0.32361955853288599 0.032799927825624707 0 0.49854341599767982 0.37075914768127122 0 0.47253211736503098 0.34081710830804929 0 0.51491507395299929 0.3326740076510219 0 0.50000000000205869 1 0 0.45000000000187229 1 0 0.47500000000196563 0.970555092835793 0 0 0.50000000000205869 0 0 0.45000000000187229 0 0.029444907164209121 0.47500000000196552 0 1 0.49999999999869432 0 1 0.5499999999988151 0 0.97055509283553232 0.52499999999875435 0 0.49999999999869432 0 0 0.5499999999988151 0 0 0.52499999999875446 0.029444907164469181 0 0.91838802593870927 0.18172590289757809 0 0.89556054516486661 0.21720615046483649 0 0.87355793346388477 0.18922011052113649 0 0.18172590289758209 0.08161197406129285 0 0.21720615046484709 0.1044394548351292 0 0.18922011052115781 0.12644206653611201 0 0.48378871228000903 0.29745177826977359 0 0.51491507395299929 0.3326740076510219 0 0.47253211736503098 0.34081710830804929 0 0.58981073711177334 0.48140931020849848 0 0.59313386551587477 0.43977047843653239 0 0.62619054498681193 0.46482944251856079 0 0.640156794425081 0.43301393728221721 0 0.62619054498681193 0.46482944251856079 0 0.59313386551587477 0.43977047843653239 0 0 0.45000000000187229 0 0.043612803661092707 0.44006111182840391 0 0.029444907164209121 0.47500000000196552 0 0.45000000000187229 1 0 0.44006111182840962 0.9563871963389079 0 0.47500000000196563 0.970555092835793 0 0.5499999999988151 0 0 0.55993888817186677 0.043612803661174412 0 0.52499999999875446 0.029444907164469181 0 1 0.5499999999988151 0 0.95638719633882641 0.5599388881718611 0 0.97055509283553232 0.52499999999875435 0 0.57051182622447827 0.69668652018496713 0 0.60879112811253555 0.66592422311595834 0 0.6083790122881827 0.70496300707145865 0 0.30429740679959738 0.56913905146460098 0 0.33231497408081678 0.60779218732873663 0 0.29503699292854352 0.60837901228818936 0 0.69595787604187809 0.43071000156707989 0 0.66346942254826746 0.391530810754116 0 0.70496300707145554 0.39162098771181952 0 0.43059486795334201 0.30395973419063538 0 0.39120887188745579 0.33407577688404289 0 0.39162098771181342 0.29503699292854563 0 0.35984320557492089 0.56698606271778873 0 0.37104651296145419 0.60545170748311072 0 0.33231497408081678 0.60779218732873663 0 0.43565339604028508 0.55159384357101338 0 0.40468198875170619 0.57637931869191572 0 0.39982789553993509 0.53462762214740622 0 0.66820316019503978 0.77769800602796979 0 0.71159714897733284 0.75039044679290845 0 0.69892030930712212 0.7971997999085858 0 0.22230199397202771 0.66820316019503168 0 0.249609553207091 0.71159714897732929 0 0.2028002000914135 0.69892030930711557 0 0.77769800602796679 0.33179683980497482 0 0.75039044679291111 0.28840285102267788 0 0.7971997999085878 0.3010796906928917 0 0.33179683980498331 0.2223019939720311 0 0.28840285102268098 0.24960955320708811 0 0.30107969069289831 0.20280020009141189 0 0.34804757266227387 0.35750068079406011 0 0.39222057657781068 0.38067796690227418 0 0.35481422397128459 0.40312981465069342 0 0.67757268808231397 0.93106206656183088 0 0.66923299355723143 0.8804077449518628 0 0.70475631558365914 0.90098127745102974 0 0.068937933438162791 0.67757268808231053 0 0.1195922550481313 0.66923299355722787 0 0.099018722548963364 0.70475631558365193 0 0.93106206656185309 0.32242731191769503 0 0.88040774495187946 0.33076700644278889 0 0.89886191075654698 0.29506339503703172 0 0.32242731191769902 0.068937933438140794 0 0.33076700644279272 0.1195922550481146 0 0.29506339503703888 0.1011380892434444 0 0.53432142347292233 0.88563193847251998 0 0.56877264426066887 0.91182300080710277 0 0.52425337578225772 0.9223731761594427 0 0.1143680615274819 0.53432142347292733 0 0.088176999192898689 0.56877264426067353 0 0.07762682384055844 0.52425337578226128 0 0.46567857652706018 0.1143680615275231 0 0.43122735573933979 0.088176999192917438 0 0.47574662421782782 0.077626823840590969 0 0.39419886675318527 0.41912225240070788 0 0.35481422397128459 0.40312981465069342 0 0.39222057657781068 0.38067796690227418 0 1 0.49999999999869432 0 0.97055509283553232 0.52499999999875435 0 0.96266688603193029 0.48495124540067203 0 0.49999999999869432 0 0 0.52499999999875446 0.029444907164469181 0 0.48492433058289169 0.037321398276272413 0 0.93510666819640953 0.51330222939551939 0 0.96266688603193029 0.48495124540067203 0 0.97055509283553232 0.52499999999875435 0 0.5133022293955174 0.064893331803591428 0 0.48492433058289169 0.037321398276272413 0 0.52499999999875446 0.029444907164469181 0 0 0.50000000000205869 0 0.029444907164209121 0.47500000000196552 0 0.037321398276215258 0.51507566941747263 0 0.50000000000205869 1 0 0.47500000000196563 0.970555092835793 0 0.51507566941747085 0.9626786017237855 0 0.48669777060454272 0.93510666819646593 0 0.51507566941747085 0.9626786017237855 0 0.47500000000196563 0.970555092835793 0 0.064893331803534807 0.48669777060454478 0 0.037321398276215258 0.51507566941747263 0 0.029444907164209121 0.47500000000196552 0 0.55307204985744796 0.94819812235491685 0 0.52425337578225772 0.9223731761594427 0 0.56877264426066887 0.91182300080710277 0 0.051801877645083663 0.55307204985745195 0 0.07762682384055844 0.52425337578226128 0 0.088176999192898689 0.56877264426067353 0 0.44692795014265252 0.051801877645060238 0 0.47574662421782782 0.077626823840590969 0 0.43122735573933979 0.088176999192917438 0 0.70085728320704077 0.84350379029875056 0 0.66919832404887702 0.81820888699730587 0 0.69892030930712212 0.7971997999085858 0 0.1564962097012354 0.70085728320703999 0 0.1817911130026923 0.66919832404888702 0 0.2028002000914135 0.69892030930711557 0 0.84350379029877964 0.29914271679296989 0 0.8182088869973061 0.33080167595111531 0 0.7971997999085878 0.3010796906928917 0 0.29914271679297122 0.15649620970120659 0 0.33080167595110582 0.18179111300269291 0 0.30107969069289831 0.20280020009141189 0 0.33382663527330159 0.44130125047503482 0 0.37702386074717259 0.45819417564476811 0 0.33436424489304489 0.47849603121740791 0 0.44764943295894188 0.73752415265401661 0 0.46634612187967051 0.76767585524061377 0 0.43306783640023289 0.78031198216144404 0 0.73752415265401194 0.55235056704108476 0 0.76797069865873757 0.53315993670164308 0 0.78031198216143516 0.56693216359979737 0 0.26247584734598628 0.44764943295894732 0 0.23232476702437141 0.46634525369567709 0 0.21968801783855879 0.43306783640023788 0 0.55175647814720108 0.26104505532086641 0 0.53265327255359129 0.23135454206919101 0 0.56683314878414581 0.21944955250104689 0 0.65000000000104008 1 0 0.63753756910470316 0.95578163339252209 0 0.6766004019857832 0.9676421564932749 0 0 0.65000000000104008 0 0.04421836660747535 0.63753756910470205 0 0.032357843506722522 0.67660040198578164 0 1 0.34999999999912063 0 0.95581270756939096 0.36248656652865863 0 0.96720628700974665 0.32362438565954771 0 0.34999999999912063 0 0 0.36246243089534252 0.044218366607477223 0 0.32361955853288599 0.032799927825624707 0 0.67757268808231397 0.93106206656183088 0 0.6766004019857832 0.9676421564932749 0 0.63753756910470316 0.95578163339252209 0 0.068937933438162791 0.67757268808231053 0 0.032357843506722522 0.67660040198578164 0 0.04421836660747535 0.63753756910470205 0 0.93106206656185309 0.32242731191769503 0 0.96720628700974665 0.32362438565954771 0 0.95581270756939096 0.36248656652865863 0 0.32242731191769902 0.068937933438140794 0 0.32361955853288599 0.032799927825624707 0 0.36246243089534252 0.044218366607477223 0 0.94812782820415209 0.44708943904932719 0 0.92203742772043751 0.47579485578641628 0 0.90991454156957952 0.4312731559748802 0 0.88561059063756964 0.46572761956237563 0 0.90991454156957952 0.4312731559748802 0 0.92203742772043751 0.47579485578641628 0 0.49189101320880302 0.59024331187324797 0 0.45517457031814612 0.62743100079604397 0 0.45030222762303879 0.58443295115431027 0 0.54465502325161819 0.74717983044080061 0 0.57578062281532438 0.77751665353176347 0 0.53770425635794761 0.80104587463999666 0 0.25287139441262568 0.54458355434492378 0 0.2224870800581388 0.57577541371134155 0 0.1989632851005598 0.53769147668950479 0 0.74730218607442667 0.45539100053644521 0 0.77752557158083724 0.42422273168818408 0 0.80106707846564795 0.46230714888029367 0 0.45533136021725079 0.2525687312087147 0 0.42421838472613971 0.22246502005787769 0 0.46229330881044273 0.19890916456654811 0 0.57387636360620708 0.54318431390135336 0 0.59621567360238914 0.5184866806641607 0 0.61866949026800744 0.55492322767366287 0 0.66923299355723143 0.8804077449518628 0 0.6441774148058701 0.91458123574274031 0 0.62483828039315681 0.8780818733396436 0 0.1195922550481313 0.66923299355722787 0 0.085418764257258195 0.64417741480586865 0 0.1219181266603569 0.62483828039315903 0 0.88040774495187946 0.33076700644278889 0 0.91286712511202617 0.35637271447129198 0 0.87815187193233801 0.37523526017134418 0 0.33076700644279272 0.1195922550481146 0 0.35582258519414178 0.085418764257258431 0 0.37516171960683908 0.121918126660369 0 0.49189101320880302 0.59024331187324797 0 0.45030222762303879 0.58443295115431027 0 0.47974773860103892 0.54872726831320284 0 0.92670321183853355 0.65773042910151081 0 0.90051880305432697 0.69261863673346957 0 0.88396545633132484 0.6625197322180193 0 0.65773042910151891 0.073296788161472337 0 0.69253601466723103 0.09949211948105087 0 0.66251865414987876 0.1160340021949529 0 0.3422695708985129 0.92670321183858773 0 0.30738136326657722 0.90051880305435028 0 0.33748026778199908 0.88396545633134682 0 0.073296788161418117 0.34226957089850552 0 0.099492119481027347 0.30746398533281638 0 0.11603400219493119 0.33748134585014028 0 0.60938371359314658 0.91847489683800321 0 0.6441774148058701 0.91458123574274031 0 0.63753756910470316 0.95578163339252209 0 0.081525103161997597 0.6093837135931508 0 0.085418764257258195 0.64417741480586865 0 0.04421836660747535 0.63753756910470205 0 0.91890123454466932 0.39094742729597309 0 0.91286712511202617 0.35637271447129198 0 0.95581270756939096 0.36248656652865863 0 0.39061628640684498 0.081525103161991672 0 0.35582258519414178 0.085418764257258431 0 0.36246243089534252 0.044218366607477223 0 0.67757268808231397 0.93106206656183088 0 0.63753756910470316 0.95578163339252209 0 0.6441774148058701 0.91458123574274031 0 0.068937933438162791 0.67757268808231053 0 0.04421836660747535 0.63753756910470205 0 0.085418764257258195 0.64417741480586865 0 0.93106206656185309 0.32242731191769503 0 0.95581270756939096 0.36248656652865863 0 0.91286712511202617 0.35637271447129198 0 0.32242731191769902 0.068937933438140794 0 0.36246243089534252 0.044218366607477223 0 0.35582258519414178 0.085418764257258431 0 0.56759263990989184 0.81794319034601648 0 0.53770425635794761 0.80104587463999666 0 0.57578062281532438 0.77751665353176347 0 0.18205680965398621 0.56759263990989739 0 0.1989632851005598 0.53769147668950479 0 0.2224870800581388 0.57577541371134155 0 0.81794319034597418 0.43240736009009317 0 0.80106707846564795 0.46230714888029367 0 0.77752557158083724 0.42422273168818408 0 0.43240736009008851 0.18205680965402779 0 0.46229330881044273 0.19890916456654811 0 0.42421838472613971 0.22246502005787769 0 0.4434591735942961 0.66641640622551224 0 0.46736891737654429 0.70015537930374983 0 0.42715538333808079 0.70077759375307946 0 0.44764943295894188 0.73752415265401661 0 0.42715538333808079 0.70077759375307946 0 0.46736891737654429 0.70015537930374983 0 0.66548584431530877 0.55616712808283064 0 0.69798396601998558 0.5289734597937793 0 0.70087539567735502 0.57165914616526226 0 0.33382663527330159 0.44130125047503482 0 0.29988655052531688 0.46700727827593119 0 0.2963043386970643 0.4298320229681446 0 0.73752415265401194 0.55235056704108476 0 0.70087539567735502 0.57165914616526226 0 0.69798396601998558 0.5289734597937793 0 0.26247584734598628 0.44764943295894732 0 0.2963043386970643 0.4298320229681446 0 0.29988655052531688 0.46700727827593119 0 0.46102425708533701 0.43254199134332588 0 0.46543211128216788 0.38788423543681888 0 0.5047849391802508 0.40719950955717021 0 0.49854341599767982 0.37075914768127122 0 0.5047849391802508 0.40719950955717021 0 0.46543211128216788 0.38788423543681888 0 0.55175647814720108 0.26104505532086641 0 0.57188338999077359 0.29874123486230147 0 0.52929435216580312 0.29671213472503383 0 0.48378871228000903 0.29745177826977359 0 0.52929435216580312 0.29671213472503383 0 0.51491507395299929 0.3326740076510219 0 0.46102425708533701 0.43254199134332588 0 0.42340342337193693 0.44762131874855388 0 0.42930823106401639 0.40626685012722968 0 0.39419886675318527 0.41912225240070788 0 0.42930823106401639 0.40626685012722968 0 0.42340342337193693 0.44762131874855388 0 0.94812782820415209 0.44708943904932719 0 0.96266688603193029 0.48495124540067203 0 0.92203742772043751 0.47579485578641628 0 0.44692795014265252 0.051801877645060238 0 0.48492433058289169 0.037321398276272413 0 0.47574662421782782 0.077626823840590969 0 0.93510666819640953 0.51330222939551939 0 0.92203742772043751 0.47579485578641628 0 0.96266688603193029 0.48495124540067203 0 0.5133022293955174 0.064893331803591428 0 0.47574662421782782 0.077626823840590969 0 0.48492433058289169 0.037321398276272413 0 0.55307204985744796 0.94819812235491685 0 0.51507566941747085 0.9626786017237855 0 0.52425337578225772 0.9223731761594427 0 0.051801877645083663 0.55307204985745195 0 0.037321398276215258 0.51507566941747263 0 0.07762682384055844 0.52425337578226128 0 0.48669777060454272 0.93510666819646593 0 0.52425337578225772 0.9223731761594427 0 0.51507566941747085 0.9626786017237855 0 0.064893331803534807 0.48669777060454478 0 0.07762682384055844 0.52425337578226128 0 0.037321398276215258 0.51507566941747263 0 0.70252050881959183 0.70358884261915833 0 0.71159714897733284 0.75039044679290845 0 0.67626275269587088 0.72713741921009012 0 0.29641115738084339 0.70252050881958938 0 0.249609553207091 0.71159714897732929 0 0.27349656744860212 0.67581741996408695 0 0.70358884261915744 0.29747949118041561 0 0.75039044679291111 0.28840285102267788 0 0.72713741921008324 0.32373724730413678 0 0.29747949118041711 0.2964111573808435 0 0.28840285102268098 0.24960955320708811 0 0.32373692627050221 0.27286413781593999 0 0.48378871228000903 0.29745177826977359 0 0.50732841191799194 0.2613117081243182 0 0.52929435216580312 0.29671213472503383 0 0.50000000000002642 0.7803135888501761 0 0.46634612187967051 0.76767585524061377 0 0.49073113440598592 0.73759004618730417 0 0.44764943295894188 0.73752415265401661 0 0.49073113440598592 0.73759004618730417 0 0.46634612187967051 0.76767585524061377 0 0.73752415265401194 0.55235056704108476 0 0.73815142352639962 0.50697050072007344 0 0.76797069865873757 0.53315993670164308 0 0.78031358885017377 0.49999999999997569 0 0.76797069865873757 0.53315993670164308 0 0.73815142352639962 0.50697050072007344 0 0.2196864111498267 0.50000000000003153 0 0.23232476702437141 0.46634525369567709 0 0.262418491288269 0.49071922292154141 0 0.26247584734598628 0.44764943295894732 0 0.262418491288269 0.49071922292154141 0 0.23232476702437141 0.46634525369567709 0 0.55175647814720108 0.26104505532086641 0 0.50732841191799194 0.2613117081243182 0 0.53265327255359129 0.23135454206919101 0 0.49999999999997108 0.21968641114982909 0 0.53265327255359129 0.23135454206919101 0 0.50732841191799194 0.2613117081243182 0 0.64455163611866495 0.50369301794551069 0 0.62619054498681193 0.46482944251856079 0 0.66329969176266512 0.46626046872004567 0 0.50000000000002642 0.7803135888501761 0 0.46593838964869061 0.80781872835503554 0 0.46634612187967051 0.76767585524061377 0 0.2196864111498267 0.50000000000003153 0 0.19218127164496679 0.46593838964869538 0 0.23232476702437141 0.46634525369567709 0 0.78031358885017377 0.49999999999997569 0 0.80781854240107975 0.53406203754901738 0 0.76797069865873757 0.53315993670164308 0 0.49999999999997108 0.21968641114982909 0 0.53404982287327418 0.19215288291432539 0 0.53265327255359129 0.23135454206919101 0 0.55175647814720108 0.26104505532086641 0 0.52929435216580312 0.29671213472503383 0 0.50732841191799194 0.2613117081243182 0 0.64518564541690571 0.69601563325001548 0 0.67626275269587088 0.72713741921009012 0 0.64203711532612107 0.74316477213290444 0 0.30421635384321521 0.64514939193436716 0 0.27349656744860212 0.67581741996408695 0 0.25684529255773247 0.64203554247963057 0 0.69601563325001248 0.35481435458309712 0 0.72713741921008324 0.32373724730413678 0 0.74316477213289889 0.35796288467388632 0 0.35481435458309307 0.30398436674998969 0 0.32373692627050221 0.27286413781593999 0 0.3579628846738841 0.25683522786710378 0 0.640156794425081 0.43301393728221721 0 0.66329969176266512 0.46626046872004567 0 0.62619054498681193 0.46482944251856079 0 1 0.64999999999907843 0 0.96779701826738695 0.67105375815842694 0 0.96654491682122368 0.6363613838740827 0 0.64999999999907843 0 0 0.67098510785536181 0.032220921767549461 0 0.63635157668793507 0.033457646040912177 0 0.35000000000145642 1 0 0.32894624184180998 0.96779701826738929 0 0.36363861612613613 0.96654491682121313 0 0 0.35000000000145642 0 0.032220921767546963 0.32901489214487523 0 0.033457646040922301 0.36364842331228431 0 0.66820316019503978 0.77769800602796979 0 0.69892030930712212 0.7971997999085858 0 0.66919832404887702 0.81820888699730587 0 0.22230199397202771 0.66820316019503168 0 0.2028002000914135 0.69892030930711557 0 0.1817911130026923 0.66919832404888702 0 0.77769800602796679 0.33179683980497482 0 0.7971997999085878 0.3010796906928917 0 0.8182088869973061 0.33080167595111531 0 0.33179683980498331 0.2223019939720311 0 0.30107969069289831 0.20280020009141189 0 0.33080167595110582 0.18179111300269291 0 0.4434591735942961 0.66641640622551224 0 0.47818752133962877 0.66454462905280853 0 0.46736891737654429 0.70015537930374983 0 0.33382663527330159 0.44130125047503482 0 0.33436424489304489 0.47849603121740791 0 0.29988655052531688 0.46700727827593119 0 0.46102425708533701 0.43254199134332588 0 0.42930823106401639 0.40626685012722968 0 0.46543211128216788 0.38788423543681888 0 0.35984320557492089 0.56698606271778873 0 0.40468198875170619 0.57637931869191572 0 0.37104651296145419 0.60545170748311072 0 0.60938371359314658 0.91847489683800321 0 0.62483828039315681 0.8780818733396436 0 0.6441774148058701 0.91458123574274031 0 0.081525103161997597 0.6093837135931508 0 0.1219181266603569 0.62483828039315903 0 0.085418764257258195 0.64417741480586865 0 0.91890123454466932 0.39094742729597309 0 0.87815187193233801 0.37523526017134418 0 0.91286712511202617 0.35637271447129198 0 0.39061628640684498 0.081525103161991672 0 0.37516171960683908 0.121918126660369 0 0.35582258519414178 0.085418764257258431 0 0.40653508887824003 0.61580573377480397 0 0.37104651296145419 0.60545170748311072 0 0.40468198875170619 0.57637931869191572 0 
</DataArray>
</Points>
<Cells>
<DataArray type="UInt32" Name="connectivity" format="ascii">
0 1 2 3 4 5 6 7 8 9 10 11 12 13 14 15 16 17 18 19 20 21 22 23 24 25 26 27 28 29 30 31 32 33 34 35 36 37 38 39 40 41 42 43 44 45 46 47 48 49 50 51 52 53 54 55 56 57 58 59 60 61 62 63 64 65 66 67 68 69 70 71 72 73 74 75 76 77 78 79 80 81 82 83 84 85 86 87 88 89 90 91 92 93 94 95 96 97 98 99 100 101 102 103 104 105 106 107 108 109 110 111 112 113 114 115 116 117 118 119 120 121 122 123 124 125 126 127 128 129 130 131 132 133 134 135 136 137 138 139 140 141 142 143 144 145 146 147 148 149 150 151 152 153 154 155 156 157 158 159 160 161 162 163 164 165 166 167 168 169 170 171 172 173 174 175 176 177 178 179 180 181 182 183 184 185 186 187 188 189 190 191 192 193 194 195 196 197 198 199 200 201 202 203 204 205 206 207 208 209 210 211 212 213 214 215 216 217 218 219 220 221 222 223 224 225 226 227 228 229 230 231 232 233 234 235 236 237 238 239 240 241 242 243 244 245 246 247 248 249 250 251 252 253 254 255 256 257 258 259 260 261 262 263 264 265 266 267 268 269 270 271 272 273 274 275 276 277 278 279 280 281 282 283 284 285 286 287 288 289 290 291 292 293 294 295 296 297 298 299 300 301 302 303 304 305 306 307 308 309 310 311 312 313 314 315 316 317 318 319 320 321 322 323 324 325 326 327 328 329 330 331 332 333 334 335 336 337 338 339 340 341 342 343 344 345 346 347 348 349 350 351 352 353 354 355 356 357 358 359 360 361 362 363 364 365 366 367 368 369 370 371 372 373 374 375 376 377 378 379 380 381 382 383 384 385 386 387 388 389 390 391 392 393 394 395 396 397 398 399 400 401 402 403 404 405 406 407 408 409 410 411 412 413 414 415 416 417 418 419 420 421 422 423 424 425 426 427 428 429 430 431 432 433 434 435 436 437 438 439 440 441 442 443 444 445 446 447 448 449 450 451 452 453 454 455 456 457 458 459 460 461 462 463 464 465 466 467 468 469 470 471 472 473 474 475 476 477 478 479 480 481 482 483 484 485 486 487 488 489 490 491 492 493 494 495 496 497 498 499 500 501 502 503 504 505 506 507 508 509 510 511 512 513 514 515 516 517 518 519 520 521 522 523 524 525 526 527 528 529 530 531 532 533 534 535 536 537 538 539 540 541 542 543 544 545 546 547 548 549 550 551 552 553 554 555 556 557 558 559 560 561 562 563 564 565 566 567 568 569 570 571 572 573 574 575 576 577 578 579 580 581 582 583 584 585 586 587 588 589 590 591 592 593 594 595 596 597 598 599 600 601 602 603 604 605 606 607 608 609 610 611 612 613 614 615 616 617 618 619 620 621 622 623 624 625 626 627 628 629 630 631 632 633 634 635 636 637 638 639 640 641 642 643 644 645 646 647 648 649 650 651 652 653 654 655 656 657 658 659 660 661 662 663 664 665 666 667 668 669 670 671 672 673 674 675 676 677 678 679 680 681 682 683 684 685 686 687 688 689 690 691 692 693 694 695 696 697 698 699 700 701 702 703 704 705 706 707 708 709 710 711 712 713 714 715 716 717 718 719 720 721 722 723 724 725 726 727 728 729 730 731 732 733 734 735 736 737 738 739 740 741 742 743 744 745 746 747 748 749 750 751 752 753 754 755 756 757 758 759 760 761 762 763 764 765 766 767 768 769 770 771 772 773 774 775 776 777 778 779 780 781 782 783 784 785 786 787 788 789 790 791 792 793 794 795 796 797 798 799 800 801 802 803 804 805 806 807 808 809 810 811 812 813 814 815 816 817 818 819 820 821 822 823 824 825 826 827 828 829 830 831 832 833 834 835 836 837 838 839 840 841 842 843 844 845 846 847 848 849 850 851 852 853 854 855 856 857 858 859 860 861 862 863 864 865 866 867 868 869 870 871 872 873 874 875 876 877 878 879 880 881 882 883 884 885 886 887 888 889 890 891 892 893 894 895 896 897 898 899 900 901 902 903 904 905 906 907 908 909 910 911 912 913 914 915 916 917 918 919 920 921 922 923 924 925 926 927 928 929 930 931 932 933 934 935 936 937 938 939 940 941 942 943 944 945 946 947 948 949 950 951 952 953 954 955 956 957 958 959 960 961 962 963 964 965 966 967 968 969 970 971 972 973 974 975 976 977 978 979 980 981 982 983 984 985 986 987 988 989 990 991 992 993 994 995 996 997 998 999 1000 1001 1002 1003 1004 1005 1006 1007 1008 1009 1010 1011 1012 1013 1014 1015 1016 1017 1018 1019 1020 1021 1022 1023 1024 1025 1026 1027 1028 1029 1030 1031 1032 1033 1034 1035 1036 1037 1038 1039 1040 1041 1042 1043 1044 1045 1046 1047 1048 1049 1050 1051 1052 1053 1054 1055 1056 1057 1058 1059 1060 1061 1062 1063 1064 1065 1066 1067 1068 1069 1070 1071 1072 1073 1074 1075 1076 1077 1078 1079 1080 1081 1082 1083 1084 1085 1086 1087 1088 1089 1090 1091 1092 1093 1094 1095 1096 1097 1098 1099 1100 1101 1102 1103 1104 1105 1106 1107 1108 1109 1110 1111 1112 1113 1114 1115 1116 1117 1118 1119 1120 1121 1122 1123 1124 1125 1126 1127 1128 1129 1130 1131 1132 1133 1134 1135 1136 1137 1138 1139 1140 1141 1142 1143 1144 1145 1146 1147 1148 1149 1150 1151 1152 1153 1154 1155 1156 1157 1158 1159 1160 1161 1162 1163 1164 1165 1166 1167 1168 1169 1170 1171 1172 1173 1174 1175 1176 1177 1178 1179 1180 1181 1182 1183 1184 1185 1186 1187 1188 1189 1190 1191 1192 1193 1194 1195 1196 1197 1198 1199 1200 1201 1202 1203 1204 1205 1206 1207 1208 1209 1210 1211 1212 1213 1214 1215 1216 1217 1218 1219 1220 1221 1222 1223 1224 1225 1226 1227 1228 1229 1230 1231 1232 1233 1234 1235 1236 1237 1238 1239 1240 1241 1242 1243 1244 1245 1246 1247 1248 1249 1250 1251 1252 1253 1254 1255 1256 1257 1258 1259 1260 1261 1262 1263 1264 1265 1266 1267 1268 1269 1270 1271 1272 1273 1274 1275 1276 1277 1278 1279 1280 1281 1282 1283 1284 1285 1286 1287 1288 1289 1290 1291 1292 1293 1294 1295 1296 1297 1298 1299 1300 1301 1302 1303 1304 1305 1306 1307 1308 1309 1310 1311 1312 1313 1314 1315 1316 1317 1318 1319 1320 1321 1322 1323 1324 1325 1326 1327 1328 1329 1330 1331 1332 1333 1334 1335 1336 1337 1338 1339 1340 1341 1342 1343 1344 1345 1346 1347 1348 1349 1350 1351 1352 1353 1354 1355 1356 1357 1358 1359 1360 1361 1362 1363 1364 1365 1366 1367 1368 1369 1370 1371 1372 1373 1374 1375 1376 1377 1378 1379 1380 1381 1382 1383 1384 1385 1386 1387 1388 1389 1390 1391 1392 1393 1394 1395 1396 1397 1398 1399 1400 1401 1402 1403 1404 1405 1406 1407 1408 1409 1410 1411 1412 1413 1414 1415 1416 1417 1418 1419 1420 1421 1422 1423 1424 1425 1426 1427 1428 1429 1430 1431 1432 1433 1434 1435 1436 1437 1438 1439 1440 1441 1442 1443 1444 1445 1446 1447 1448 1449 1450 1451 1452 1453 1454 1455 1456 1457 1458 1459 1460 1461 1462 1463 1464 1465 1466 1467 1468 1469 1470 1471 1472 1473 1474 1475 1476 1477 1478 1479 1480 1481 1482 1483 1484 1485 1486 1487 1488 1489 1490 1491 1492 1493 1494 1495 1496 1497 1498 1499 1500 1501 1502 1503 1504 1505 1506 1507 1508 1509 1510 1511 1512 1513 1514 1515 1516 1517 1518 1519 1520 1521 1522 1523 1524 1525 1526 1527 1528 1529 1530 1531 1532 1533 1534 1535 1536 1537 1538 1539 1540 1541 1542 1543 1544 1545 1546 1547 1548 1549 1550 1551 1552 1553 1554 1555 1556 1557 1558 1559 1560 1561 1562 1563 1564 1565 1566 1567 1568 1569 1570 1571 1572 1573 1574 1575 1576 1577 1578 1579 1580 1581 1582 1583 1584 1585 1586 1587 1588 1589 1590 1591 1592 1593 1594 1595 1596 1597 1598 1599 1600 1601 1602 1603 1604 1605 1606 1607 1608 1609 1610 1611 1612 1613 1614 1615 1616 1617 1618 1619 1620 1621 1622 1623 1624 1625 1626 1627 1628 1629 1630 1631 1632 1633 1634 1635 1636 1637 1638 1639 1640 1641 1642 1643 1644 1645 1646 1647 1648 1649 1650 1651 1652 1653 1654 1655 1656 1657 1658 1659 1660 1661 1662 1663 1664 1665 1666 1667 1668 1669 1670 1671 1672 1673 1674 1675 1676 1677 1678 1679 1680 1681 1682 1683 1684 1685 1686 1687 1688 1689 1690 1691 1692 1693 1694 1695 1696 1697 1698 1699 1700 1701 1702 1703 1704 1705 1706 1707 1708 1709 1710 1711 1712 1713 1714 1715 1716 1717 1718 1719 1720 1721 1722 1723 1724 1725 1726 1727 1728 1729 1730 1731 1732 1733 1734 1735 1736 1737 1738 1739 1740 1741 1742 1743 1744 1745 1746 1747 1748 1749 1750 1751 1752 1753 1754 1755 1756 1757 1758 1759 1760 1761 1762 1763 1764 1765 1766 1767 1768 1769 1770 1771 1772 1773 1774 1775 1776 1777 1778 1779 1780 1781 1782 1783 1784 1785 1786 1787 1788 1789 1790 1791 1792 1793 1794 1795 1796 1797 1798 1799 1800 1801 1802 1803 1804 1805 1806 1807 1808 1809 1810 1811 1812 1813 1814 1815 1816 1817 1818 1819 1820 1821 1822 1823 1824 1825 1826 1827 1828 1829 1830 1831 1832 1833 1834 1835 1836 1837 1838 1839 1840 1841 1842 1843 1844 1845 1846 1847 1848 1849 1850 1851 1852 1853 1854 1855 1856 1857 1858 1859 1860 1861 1862 1863 1864 1865 1866 1867 1868 1869 1870 1871 1872 1873 1874 1875 1876 1877 1878 1879 1880 1881 1882 1883 1884 1885 1886 1887 1888 1889 1890 1891 1892 1893 1894 1895 1896 1897 1898 1899 1900 1901 1902 1903 1904 1905 1906 1907 1908 1909 1910 1911 1912 1913 1914 1915 1916 1917 1918 1919 1920 1921 1922 1923 1924 1925 1926 1927 1928 1929 1930 1931 1932 1933 1934 1935 1936 1937 1938 1939 1940 1941 1942 1943 1944 1945 1946 1947 1948 1949 1950 1951 1952 1953 1954 1955 1956 1957 1958 1959 1960 1961 1962 1963 1964 1965 1966 1967 1968 1969 1970 1971 1972 1973 1974 1975 1976 1977 1978 1979 1980 1981 1982 1983 1984 1985 1986 1987 1988 1989 1990 1991 1992 1993 1994 1995 1996 1997 1998 1999 2000 2001 2002 2003 2004 2005 2006 2007 2008 2009 2010 2011 2012 2013 2014 2015 2016 2017 2018 2019 2020 2021 2022 2023 2024 2025 2026 2027 2028 2029 2030 2031 2032 2033 2034 2035 2036 2037 2038 2039 2040 2041 2042 2043 2044 2045 2046 2047 2048 2049 2050 2051 2052 2053 2054 2055 2056 2057 2058 2059 2060 2061 2062 2063 2064 2065 2066 2067 2068 2069 2070 2071 2072 2073 2074 2075 2076 2077 2078 2079 2080 2081 2082 2083 2084 2085 2086 2087 2088 2089 2090 2091 2092 2093 2094 2095 2096 2097 2098 2099 2100 2101 2102 2103 2104 2105 2106 2107 2108 2109 2110 2111 2112 2113 2114 2115 2116 2117 2118 2119 2120 2121 2122 2123 2124 2125 2126 2127 2128 2129 2130 2131 2132 2133 2134 2135 2136 2137 2138 2139 2140 2141 2142 2143 2144 2145 2146 2147 2148 2149 2150 2151 2152 2153 2154 2155 2156 2157 2158 2159 2160 2161 2162 2163 2164 2165 2166 2167 2168 2169 2170 2171 2172 2173 2174 2175 2176 2177 2178 2179 2180 2181 2182 2183 2184 2185 2186 2187 2188 2189 2190 2191 2192 2193 2194 2195 2196 2197 2198 2199 2200 2201 2202 2203 2204 2205 2206 2207 2208 2209 2210 2211 2212 2213 2214 2215 2216 2217 2218 2219 2220 2221 2222 2223 2224 2225 2226 2227 2228 2229 2230 2231 2232 2233 2234 2235 2236 2237 2238 2239 2240 2241 2242 2243 2244 2245 2246 2247 2248 2249 2250 2251 2252 2253 2254 2255 2256 2257 2258 2259 2260 2261 2262 2263 2264 2265 2266 2267 2268 2269 2270 2271 2272 2273 2274 2275 2276 2277 2278 2279 2280 2281 2282 2283 2284 2285 2286 2287 2288 2289 2290 2291 2292 2293 2294 2295 2296 2297 2298 2299 2300 2301 2302 2303 2304 2305 2306 2307 2308 2309 2310 2311 2312 2313 2314 2315 2316 2317 2318 2319 2320 2321 2322 2323 2324 2325 2326 2327 2328 2329 2330 2331 2332 2333 2334 2335 2336 2337 2338 2339 2340 2341 2342 2343 2344 2345 2346 2347 2348 2349 2350 2351 2352 2353 2354 2355 2356 2357 2358 2359 2360 2361 2362 2363 2364 2365 2366 2367 2368 2369 2370 2371 2372 2373 2374 2375 2376 2377 2378 2379 2380 2381 2382 2383 2384 2385 2386 2387 2388 2389 2390 2391 2392 2393 2394 2395 2396 2397 2398 2399 2400 2401 2402 2403 2404 2405 2406 2407 2408 2409 2410 2411 2412 2413 2414 2415 2416 2417 2418 2419 2420 2421 2422 2423 2424 2425 2426 2427 2428 2429 2430 2431 2432 2433 2434 2435 2436 2437 2438 2439 2440 2441 2442 2443 2444 2445 2446 2447 2448 2449 2450 2451 2452 2453 2454 2455 2456 2457 2458 2459 2460 2461 2462 2463 2464 2465 2466 2467 2468 2469 2470 2471 2472 2473 2474 2475 2476 2477 2478 2479 2480 2481 2482 2483 2484 2485 2486 2487 2488 2489 2490 2491 2492 2493 2494 2495 2496 2497 2498 2499 2500 2501 2502 2503 2504 2505 2506 2507 2508 2509 2510 2511 2512 2513 2514 2515 2516 2517 2518 2519 2520 2521 2522 2523 2524 2525 2526 2527 2528 2529 2530 2531 2532 2533 2534 2535 2536 2537 2538 2539 2540 2541 2542 2543 2544 2545 2546 2547 2548 2549 2550 2551 2552 2553 2554 2555 2556 2557 2558 2559 2560 2561 2562 2563 2564 2565 2566 2567 2568 2569 2570 2571 2572 2573 2574 2575 2576 2577 2578 2579 2580 2581 2582 2583 2584 2585 2586 2587 2588 2589 2590 2591 2592 2593 2594 2595 2596 2597 2598 2599 2600 2601 2602 2603 2604 2605 2606 2607 2608 2609 2610 2611 2612 2613 2614 2615 2616 2617 2618 2619 2620 2621 2622 2623 2624 2625 2626 2627 2628 2629 2630 2631 2632 2633 2634 2635 2636 2637 2638 2639 2640 2641 2642 2643 2644 2645 2646 2647 2648 2649 2650 2651 2652 2653 2654 2655 2656 2657 2658 2659 2660 2661 2662 2663 2664 2665 2666 2667 2668 2669 2670 2671 2672 2673 2674 2675 2676 2677 2678 2679 2680 2681 2682 2683 2684 2685 2686 2687 2688 2689 2690 2691 2692 2693 2694 2695 2696 2697 2698 2699 2700 2701 2702 2703 2704 2705 2706 2707 2708 2709 2710 2711 2712 2713 2714 2715 2716 2717 2718 2719 2720 2721 2722 2723 2724 2725 2726 2727 2728 2729 2730 2731 2732 2733 2734 2735 2736 2737 2738 2739 2740 2741 2742 2743 2744 2745 2746 2747 2748 2749 2750 2751 2752 2753 2754 2755 2756 2757 2758 2759 2760 2761 2762 2763 2764 2765 2766 2767 2768 2769 2770 2771 2772 2773 2774 2775 2776 2777 2778 2779 2780 2781 2782 2783 2784 2785 2786 2787 2788 2789 2790 2791 2792 2793 2794 2795 2796 2797 2798 2799 2800 2801 2802 2803 2804 2805 2806 2807 2808 2809 2810 2811 2812 2813 2814 2815 2816 2817 2818 2819 2820 2821 2822 2823 2824 2825 2826 2827 2828 2829 2830 2831 2832 2833 2834 2835 2836 2837 2838 2839 2840 2841 2842 2843 2844 2845 2846 2847 2848 2849 2850 2851 2852 2853 2854 2855 2856 2857 2858 2859 2860 2861 2862 2863 2864 2865 2866 2867 2868 2869 2870 2871 2872 2873 2874 2875 2876 2877 2878 2879 2880 2881 2882 2883 2884 2885 2886 2887 2888 2889 2890 2891 2892 2893 2894 2895 2896 2897 2898 2899 2900 2901 2902 2903 2904 2905 2906 2907 2908 2909 2910 2911 2912 2913 2914 2915 2916 2917 2918 2919 2920 2921 2922 2923 2924 2925 2926 2927 2928 2929 2930 2931 2932 2933 2934 2935 2936 2937 2938 2939 2940 2941 2942 2943 2944 2945 2946 2947 2948 2949 2950 2951 2952 2953 2954 2955 2956 2957 2958 2959 2960 2961 2962 2963 2964 2965 2966 2967 2968 2969 2970 2971 2972 2973 2974 2975 2976 2977 2978 2979 2980 2981 2982 2983 2984 2985 2986 2987 2988 2989 2990 2991 2992 2993 2994 2995 2996 2997 2998 2999 3000 3001 3002 3003 3004 3005 3006 3007 3008 3009 3010 3011 3012 3013 3014 3015 3016 3017 3018 3019 3020 3021 3022 3023 3024 3025 3026 3027 3028 3029 3030 3031 3032 3033 3034 3035 3036 3037 3038 3039 3040 3041 3042 3043 3044 3045 3046 3047 3048 3049 3050 3051 3052 3053 3054 3055 3056 3057 3058 3059 3060 3061 3062 3063 3064 3065 3066 3067 3068 3069 3070 3071 3072 3073 3074 3075 3076 3077 3078 3079 3080 3081 3082 3083 3084 3085 3086 3087 3088 3089 3090 3091 3092 3093 3094 3095 3096 3097 3098 3099 3100 3101 3102 3103 3104 3105 3106 3107 3108 3109 3110 3111 3112 3113 3114 3115 3116 3117 3118 3119 3120 3121 3122 3123 3124 3125 3126 3127 3128 3129 3130 3131 3132 3133 3134 3135 3136 3137 3138 3139 3140 3141 3142 3143 3144 3145 3146 3147 3148 3149 3150 3151 3152 3153 3154 3155 3156 3157 3158 3159 3160 3161 
</DataArray>
<DataArray type="UInt32" Name="offsets" format="ascii">
3 6 9 12 15 18 21 24 27 30 33 36 39 42 45 48 51 54 57 60 63 66 69 72 75 78 81 84 87 90 93 96 99 102 105 108 111 114 117 120 123 126 129 132 135 138 141 144 147 150 153 156 159 162 165 168 171 174 177 180 183 186 189 192 195 198 201 204 207 210 213 216 219 222 225 228 231 234 237 240 243 246 249 252 255 258 261 264 267 270 273 276 279 282 285 288 291 294 297 300 303 306 309 312 315 318 321 324 327 330 333 336 339 342 345 348 351 354 357 360 363 366 369 372 375 378 381 384 387 390 393 396 399 402 405 408 411 414 417 420 423 426 429 432 435 438 441 444 447 450 453 456 459 462 465 468 471 474 477 480 483 486 489 492 495 498 501 504 507 510 513 516 519 522 525 528 531 534 537 540 543 546 549 552 555 558 561 564 567 570 573 576 579 582 585 588 591 594 597 600 603 606 609 612 615 618 621 624 627 630 633 636 639 642 645 648 651 654 657 660 663 666 669 672 675 678 681 684 687 690 693 696 699 702 705 708 711 714 717 720 723 726 729 732 735 738 741 744 747 750 753 756 759 762 765 768 771 774 777 780 783 786 789 792 795 798 801 804 807 810 813 816 819 822 825 828 831 834 837 840 843 846 849 852 855 858 861 864 867 870 873 876 879 882 885 888 891 894 897 900 903 906 909 912 915 918 921 924 927 930 933 936 939 942 945 948 951 954 957 960 963 966 969 972 975 978 981 984 987 990 993 996 999 1002 1005 1008 1011 1014 1017 1020 1023 1026 1029 1032 1035 1038 1041 1044 1047 1050 1053 1056 1059 1062 1065 1068 1071 1074 1077 1080 1083 1086 1089 1092 1095 1098 1101 1104 1107 1110 1113 1116 1119 1122 1125 1128 1131 1134 1137 1140 1143 1146 1149 1152 1155 1158 1161 1164 1167 1170 1173 1176 1179 1182 1185 1188 1191 1194 1197 1200 1203 1206 1209 1212 1215 1218 1221 1224 1227 1230 1233 1236 1239 1242 1245 1248 1251 1254 1257 1260 1263 1266 1269 1272 1275 1278 1281 1284 1287 1290 1293 1296 1299 1302 1305 1308 1311 1314 1317 1320 1323 1326 1329 1332 1335 1338 1341 1344 1347 1350 1353 1356 1359 1362 1365 1368 1371 1374 1377 1380 1383 1386 1389 1392 1395 1398 1401 1404 1407 1410 1413 1416 1419 1422 1425 1428 1431 1434 1437 1440 1443 1446 1449 1452 1455 1458 1461 1464 1467 1470 1473 1476 1479 1482 1485 1488 1491 1494 1497 1500 1503 1506 1509 1512 1515 1518 1521 1524 1527 1530 1533 1536 1539 1542 1545 1548 1551 1554 1557 1560 1563 1566 1569 1572 1575 1578 1581 1584 1587 1590 1593 1596 1599 1602 1605 1608 1611 1614 1617 1620 1623 1626 1629 1632 1635 1638 1641 1644 1647 1650 1653 1656 1659 1662 1665 1668 1671 1674 1677 1680 1683 1686 1689 1692 1695 1698 1701 1704 1707 1710 1713 1716 1719 1722 1725 1728 1731 1734 1737 1740 1743 1746 1749 1752 1755 1758 1761 1764 1767 1770 1773 1776 1779 1782 1785 1788 1791 1794 1797 1800 1803 1806 1809 1812 1815 1818 1821 1824 1827 1830 1833 1836 1839 1842 1845 1848 1851 1854 1857 1860 1863 1866 1869 1872 1875 1878 1881 1884 1887 1890 1893 1896 1899 1902 1905 1908 1911 1914 1917 1920 1923 1926 1929 1932 1935 1938 1941 1944 1947 1950 1953 1956 1959 1962 1965 1968 1971 1974 1977 1980 1983 1986 1989 1992 1995 1998 2001 2004 2007 2010 2013 2016 2019 2022 2025 2028 2031 2034 2037 2040 2043 2046 2049 2052 2055 2058 2061 2064 2067 2070 2073 2076 2079 2082 2085 2088 2091 2094 2097 2100 2103 2106 2109 2112 2115 2118 2121 2124 2127 2130 2133 2136 2139 2142 2145 2148 2151 2154 2157 2160 2163 2166 2169 2172 2175 2178 2181 2184 2187 2190 2193 2196 2199 2202 2205 2208 2211 2214 2217 2220 2223 2226 2229 2232 2235 2238 2241 2244 2247 2250 2253 2256 2259 2262 2265 2268 2271 2274 2277 2280 2283 2286 2289 2292 2295 2298 2301 2304 2307 2310 2313 2316 2319 2322 2325 2328 2331 2334 2337 2340 2343 2346 2349 2352 2355 2358 2361 2364 2367 2370 2373 2376 2379 2382 2385 2388 2391 2394 2397 2400 2403 2406 2409 2412 2415 2418 2421 2424 2427 2430 2433 2436 2439 2442 2445 2448 2451 2454 2457 2460 2463 2466 2469 2472 2475 2478 2481 2484 2487 2490 2493 2496 2499 2502 2505 2508 2511 2514 2517 2520 2523 2526 2529 2532 2535 2538 2541 2544 2547 2550 2553 2556 2559 2562 2565 2568 2571 2574 2577 2580 2583 2586 2589 2592 2595 2598 2601 2604 2607 2610 2613 2616 2619 2622 2625 2628 2631 2634 2637 2640 2643 2646 2649 2652 2655 2658 2661 2664 2667 2670 2673 2676 2679 2682 2685 2688 2691 2694 2697 2700 2703 2706 2709 2712 2715 2718 2721 2724 2727 2730 2733 2736 2739 2742 2745 2748 2751 2754 2757 2760 2763 2766 2769 2772 2775 2778 2781 2784 2787 2790 2793 2796 2799 2802 2805 2808 2811 2814 2817 2820 2823 2826 2829 2832 2835 2838 2841 2844 2847 2850 2853 2856 2859 2862 2865 2868 2871 2874 2877 2880 2883 2886 2889 2892 2895 2898 2901 2904 2907 2910 2913 2916 2919 2922 2925 2928 2931 2934 2937 2940 2943 2946 2949 2952 2955 2958 2961 2964 2967 2970 2973 2976 2979 2982 2985 2988 2991 2994 2997 3000 3003 3006 3009 3012 3015 3018 3021 3024 3027 3030 3033 3036 3039 3042 3045 3048 3051 3054 3057 3060 3063 3066 3069 3072 3075 3078 3081 3084 3087 3090 3093 3096 3099 3102 3105 3108 3111 3114 3117 3120 3123 3126 3129 3132 3135 3138 3141 3144 3147 3150 3153 3156 3159 3162 
</DataArray>
<DataArray type="UInt32" Name="types" format="ascii">
5 5 5 5 5 5 5 5 5 5 5 5 5 5 5 5 5 5 5 5 5 5 5 5 5 5 5 5 5 5 5 5 5 5 5 5 5 5 5 5 5 5 5 5 5 5 5 5 5 5 5 5 5 5 5 5 5 5 5 5 5 5 5 5 5 5 5 5 5 5 5 5 5 5 5 5 5 5 5 5 5 5 5 5 5 5 5 5 5 5 5 5 5 5 5 5 5 5 5 5 5 5 5 5 5 5 5 5 5 5 5 5 5 5 5 5 5 5 5 5 5 5 5 5 5 5 5 5 5 5 5 5 5 5 5 5 5 5 5 5 5 5 5 5 5 5 5 5 5 5 5 5 5 5 5 5 5 5 5 5 5 5 5 5 5 5 5 5 5 5 5 5 5 5 5 5 5 5 5 5 5 5 5 5 5 5 5 5 5 5 5 5 5 5 5 5 5 5 5 5 5 5 5 5 5 5 5 5 5 5 5 5 5 5 5 5 5 5 5 5 5 5 5 5 5 5 5 5 5 5 5 5 5 5 5 5 5 5 5 5 5 5 5 5 5 5 5 5 5 5 5 5 5 5 5 5 5 5 5 5 5 5 5 5 5 5 5 5 5 5 5 5 5 5 5 5 5 5 5 5 5 5 5 5 5 5 5 5 5 5 5 5 5 5 5 5 5 5 5 5 5 5 5 5 5 5 5 5 5 5 5 5 5 5 5 5 5 5 5 5 5 5 5 5 5 5 5 5 5 5 5 5 5 5 5 5 5 5 5 5 5 5 5 5 5 5 5 5 5 5 5 5 5 5 5 5 5 5 5 5 5 5 5 5 5 5 5 5 5 5 5 5 5 5 5 5 5 5 5 5 5 5 5 5 5 5 5 5 5 5 5 5 5 5 5 5 5 5 5 5 5 5 5 5 5 5 5 5 5 5 5 5 5 5 5 5 5 5 5 5 5 5 5 5 5 5 5 5 5 5 5 5 5 5 5 5 5 5 5 5 5 5 5 5 5 5 5 5 5 5 5 5 5 5 5 5 5 5 5 5 5 5 5 5 5 5 5 5 5 5 5 5 5 5 5 5 5 5 5 5 5 5 5 5 5 5 5 5 5 5 5 5 5 5 5 5 5 5 5 5 5 5 5 5 5 5 5 5 5 5 5 5 5 5 5 5 5 5 5 5 5 5 5 5 5 5 5 5 5 5 5 5 5 5 5 5 5 5 5 5 5 5 5 5 5 5 5 5 5 5 5 5 5 5 5 5 5 5 5 5 5 5 5 5 5 5 5 5 5 5 5 5 5 5 5 5 5 5 5 5 5 5 5 5 5 5 5 5 5 5 5 5 5 5 5 5 5 5 5 5 5 5 5 5 5 5 5 5 5 5 5 5 5 5 5 5 5 5 5 5 5 5 5 5 5 5 5 5 5 5 5 5 5 5 5 5 5 5 5 5 5 5 5 5 5 5 5 5 5 5 5 5 5 5 5 5 5 5 5 5 5 5 5 5 5 5 5 5 5 5 5 5 5 5 5 5 5 5 5 5 5 5 5 5 5 5 5 5 5 5 5 5 5 5 5 5 5 5 5 5 5 5 5 5 5 5 5 5 5 5 5 5 5 5 5 5 5 5 5 5 5 5 5 5 5 5 5 5 5 5 5 5 5 5 5 5 5 5 5 5 5 5 5 5 5 5 5 5 5 5 5 5 5 5 5 5 5 5 5 5 5 5 5 5 5 5 5 5 5 5 5 5 5 5 5 5 5 5 5 5 5 5 5 5 5 5 5 5 5 5 5 5 5 5 5 5 5 5 5 5 5 5 5 5 5 5 5 5 5 5 5 5 5 5 5 5 5 5 5 5 5 5 5 5 5 5 5 5 5 5 5 5 5 5 5 5 5 5 5 5 5 5 5 5 5 5 5 5 5 5 5 5 5 5 5 5 5 5 5 5 5 5 5 5 5 5 5 5 5 5 5 5 5 5 5 5 5 5 5 5 5 5 5 5 5 5 5 5 5 5 5 5 5 5 5 5 5 5 5 5 5 5 5 5 5 5 5 5 5 5 5 5 5 5 5 5 5 5 5 5 5 5 5 5 5 5 5 5 5 5 5 5 5 5 5 5 5 5 5 5 5 5 5 5 5 5 5 5 5 5 5 5 5 5 5 5 5 5 5 5 5 5 5 5 5 5 5 5 5 5 5 5 5 5 5 5 5 5 5 5 5 5 5 5 5 5 5 5 5 5 5 5 5 5 5 5 5 5 5 5 5 5 5 5 5 5 5 5 5 5 5 5 5 5 5 5 5 5 5 5 5 5 5 5 5 5 5 5 5 5 5 5 5 5 5 5 5 5 5 5 5 5 5 5 5 5 5 5 5 5 5 5 5 5 
</DataArray>
</Cells>
<PointData Scalars="" Vectors="displacement," Tensors="">
<DataArray type="Float64" Name="displacement" NumberOfComponents="3" format="ascii">
-0.00021112529816156081 -0.0023046394787263674 0 -0.00014652748185028119 -0.0021540825267539611 0 -0.00010556244347255706 -0.0022785115453643049 0 0.00048051799085899492 -0.0018559408868702876 0 0.00039424638232656261 -0.0017331617208415904 0 0.00046263789407151426 -0.0016776386415745252 0 -0.00043698080025714983 -0.0011531080694529958 0 -0.00037459936908350669 -0.001255711374039735 0 -0.00044272430244086215 -0.0013264588654951269 0 0.00014552888384023851 -0.00066671944587206515 0 0.00010954130471118353 -0.00079867637553698693 0 7.2231441145505562e-05 -0.00067972111454114512 0 0.00013122441725133246 -0.0019340997632972087 0 0.00022323901989155257 -0.0018421656275777662 0 0.00021772478516588872 -0.0020380852862348264 0 0.00030273378827737173 -0.0019638683601117092 0 0.00021772478516588874 -0.0020380852862348264 0 0.00022323901989155257 -0.0018421656275777662 0 0.00025806862337057556 -0.0012501999299713855 0 0.00017895681088240378 -0.0011025453773856051 0 0.00029002459376238946 -0.0011164045754338454 0 0.00023933241828704091 -0.00096772828162014761 0 0.00029002459376238946 -0.0011164045754338454 0 0.00017895681088240378 -0.0011025453773856051 0 0.00048164564953063235 -0.0028743420872718011 0 0.00054940851693949136 -0.0030045405152135359 0 0.00043561878940065951 -0.0030147286859845165 0 -0.00079184872759898708 -0.0023426641033797938 0 -0.00086047124983978332 -0.0024601894249413501 0 -0.00086635053187971475 -0.0022707391708250177 0 0.00059892776392307515 -0.00078910638393693555 0 0.00064989710216645593 -0.00075874262705995308 0 0.00071776380238413586 -0.00092166973293204813 0 -0.0001627835574765599 -0.00024617284625160304 0 -9.9504521082780455e-05 -0.00012470343639182178 0 -7.2063184721857986e-05 -0.00011118377431365761 0 0.00077979966398305318 -0.0031857720329808246 0 0.00068861998470988515 -0.0031842566708537852 0 0.00078931400051842065 -0.0030543694717434528 0 -0.00095612328600134253 -0.0028619517988648343 0 -0.0009551932569434959 -0.0026996710766861776 0 -0.00088590756740147846 -0.0028785775381975284 0 -0.00038754808982671999 -0.00033280667576445709 0 -0.00060055260211129167 -0.000594678413155706 0 -0.00047349243429784004 -0.00043490226139074014 0 -0.00078959447495109399 -0.003054358146809258 0 -0.0006888100992082989 -0.0031842454849948161 0 -0.00078003733712977139 -0.0031857737092230469 0 0.0001294662966420742 -9.5952008973427001e-05 0 2.0599778789761792e-08 -1.0159003373994109e-07 0 5.2264436262302841e-08 -1.3352538810876372e-07 0 0.0008856843747830159 -0.0028785868560290574 0 0.00095502555457615136 -0.0026997819459593582 0 0.00095588752125184116 -0.0028619922012390335 0 0.00047401208225421023 -0.00043460304554743126 0 0.00060166823154587706 -0.00059394168999577336 0 0.00038812391851437988 -0.00033259684594005796 0 -5.2269176200451174e-08 -1.3473757352182988e-07 0 -2.0428578688047426e-08 -1.0040965506493462e-07 0 -0.00012965144858198359 -9.6391383772559026e-05 0 0.00069176652169914224 -0.00073842982245672835 0 0.00064989710216645593 -0.00075874262705995308 0 0.00059505785521256935 -0.00062113688334100277 0 -3.0323115916471398e-08 -1.1375030267352372e-07 0 -9.9504521082780455e-05 -0.00012470343639182178 0 -8.6664694616657374e-05 -8.9912165193862064e-05 0 0.00059515815022645111 -0.0031821801484210998 0 0.00054940851693949136 -0.0030045405152135359 0 0.00064403286815217136 -0.0030379025697224774 0 -0.00095371539076815704 -0.0025380788255176898 0 -0.00086047124983978332 -0.0024601894249413501 0 -0.00087752166245888476 -0.0026221191256077256 0 0.00095361387027924013 -0.0025381836715879236 0 0.00088526053828840822 -0.0025990879116474562 0 0.00085507127593514366 -0.0024305128254473096 0 2.9746623518201546e-08 -1.1380999925753998e-07 0 8.5989835712338151e-05 -8.9617092255984623e-05 0 0.00010104274920234435 -0.00012683139931952983 0 -0.00059545755692261607 -0.0031820688595713392 0 -0.00063087511620852591 -0.0030527385533625361 0 -0.00053226622733347116 -0.0029942443924140054 0 -0.00069196455616564218 -0.00073853098614248477 0 -0.00059376715889499908 -0.0006184613682044506 0 -0.00065265527563985776 -0.00076634785750262881 0 -7.1488877312889513e-08 -0.0024236596506719997 0 7.5936732194015406e-05 -0.002494907187865803 0 -4.7230753810313073e-06 -0.0026271693719682279 0 -0.0005352329163486356 -0.0015162927909521686 0 -0.00058068619483999317 -0.0016486127289703006 0 -0.00064504549486156808 -0.0015318348283676006 0 0.00053499345043223122 -0.0015163658139159108 0 0.00056430940988379708 -0.0013995213161148148 0 0.00064586484869182462 -0.0015468900221179203 0 -1.1760545805681251e-07 -0.00055364278018469075 0 -4.2193511294440665e-05 -0.00049370821999176193 0 2.6784109086716131e-06 -0.00038316881244239778 0 0.00059515815022645111 -0.0031821801484210998 0 0.00049971701822042311 -0.0031797913036103946 0 0.00054940851693949136 -0.0030045405152135359 0 -0.00095371539076815704 -0.0025380788255176898 0 -0.00095200396702903073 -0.0023773398007758172 0 -0.00086047124983978332 -0.0024601894249413501 0 0.00069176652169914224 -0.00073842982245672835 0 0.00076128644878023738 -0.00088135946592547969 0 0.00064989710216645593 -0.00075874262705995308 0 -3.0323115916471398e-08 -1.1375030267352372e-07 0 -1.5991230979155748e-08 -1.0710814100404166e-07 0 -9.9504521082780455e-05 -0.00012470343639182178 0 0.00095187926607711605 -0.0023773961198978906 0 0.00095361387027924013 -0.0025381836715879236 0 0.00085507127593514366 -0.0024305128254473096 0 1.7239638287456696e-08 -1.0593497177315969e-07 0 2.9746623518201546e-08 -1.1380999925753998e-07 0 0.00010104274920234435 -0.00012683139931952983 0 -0.00049989590332709356 -0.0031797516848543696 0 -0.00059545755692261607 -0.0031820688595713392 0 -0.00053226622733347116 -0.0029942443924140054 0 -0.00076190717409780316 -0.00088132067042787565 0 -0.00069196455616564218 -0.00073853098614248477 0 -0.00065265527563985776 -0.00076634785750262881 0 0.00095187926607711605 -0.0023773961198978906 0 0.00085507127593514366 -0.0024305128254473096 0 0.00085708387945597009 -0.0022514477613311901 0 1.7239638287456696e-08 -1.0593497177315969e-07 0 0.00010104274920234435 -0.00012683139931952983 0 7.4924646319709981e-05 -0.0001177810259301167 0 -0.00049989590332709356 -0.0031797516848543696 0 -0.00053226622733347116 -0.0029942443924140059 0 -0.00042451316785100909 -0.0029975644159993581 0 -0.00076190717409780316 -0.00088132067042787565 0 -0.00065265527563985776 -0.00076634785750262881 0 -0.00071822615219804733 -0.00093418901104376148 0 0.00064638163196330039 -0.0026172650533068074 0 0.00073416695938222673 -0.0025614010423551012 0 0.00075852145021920064 -0.002703034603806765 0 -0.00064659221060665124 -0.0026171964703553801 0 -0.00061220638942838018 -0.0027729932070893119 0 -0.00069207056405881477 -0.0028198243141036947 0 -0.00021112529816156081 -0.0023046394787263674 0 -0.00010556244347255706 -0.0022785115453643049 0 -0.0001349943666156079 -0.0024253903873032254 0 0.00048051799085899492 -0.0018559408868702876 0 0.00046263789407151426 -0.0016776386415745252 0 0.00054572838747306632 -0.0017390539730775885 0 -0.00043698080025714983 -0.0011531080694529958 0 -0.00044272430244086215 -0.0013264588654951269 0 -0.0005171125567867928 -0.0012939300246295402 0 0.00014552888384023851 -0.00066671944587206515 0 7.2231441145505549e-05 -0.00067972111454114501 0 8.2113589411583076e-05 -0.00055353171436538988 0 0.00078931400051842065 -0.0030543694717434528 0 0.00068861998470988515 -0.0031842566708537852 0 0.0007184969603647041 -0.0030119012196690893 0 -0.00088590756740147846 -0.0028785775381975284 0 -0.0009551932569434959 -0.0026996710766861776 0 -0.00086297215478396835 -0.0027522570353880312 0 -0.00046593169824080084 -0.00044357678212739746 0 -0.00060055260211129167 -0.000594678413155706 0 -0.00038754808982671999 -0.00033280667576445709 0 -0.00070879344552390281 -0.0029898832858315638 0 -0.00068881009920829879 -0.0031842454849948161 0 -0.00078959447495109399 -0.003054358146809258 0 0.00014498963196288905 -0.00013569179793366664 0 2.0599778789761554e-08 -1.0159003373994048e-07 0 0.0001294662966420742 -9.5952008973427001e-05 0 0.00085110382370503319 -0.0027346876561963481 0 0.00095502555457615136 -0.0026997819459593582 0 0.0008856843747830159 -0.0028785868560290574 0 0.00038812391851437988 -0.00033259684594005796 0 0.00060166823154587717 -0.00059394168999577347 0 0.00046999396155397743 -0.0004516410307566974 0 -0.00012965144858198359 -9.6391383772559026e-05 0 -2.0428578688043048e-08 -1.0040965506493136e-07 0 -0.00015441601974468152 -0.00014545118302681818 0 -0.00059542420112446907 -0.00080230877118921649 0 -0.00055730785130677458 -0.00067450901227866214 0 -0.00046987687615582642 -0.00065230745084071424 0 0.00016767486668894775 -0.00026068431294935888 0 0.00018426291978382067 -0.00024252321552775831 0 0.00027459476901054537 -0.00040635986960119717 0 0.00075686774334306423 -0.0023234428323182306 0 0.00078348395211648002 -0.0024612272065259243 0 0.00066635695118319937 -0.0024276438710834139 0 -0.0004719412966342061 -0.0028087319317122721 0 -0.00055222438146057713 -0.0028616473479191719 0 -0.00053716056811497885 -0.0026465367351538949 0 0.00048164564953063235 -0.0028743420872718011 0 0.00043561878940065951 -0.0030147286859845165 0 0.00040909485900173935 -0.002844390130163077 0 -0.00079184872759898708 -0.0023426641033797938 0 -0.00086635053187971475 -0.0022707391708250177 0 -0.00077682447212149366 -0.0022209786082926157 0 0.00059892776392307515 -0.00078910638393693555 0 0.00071776380238413586 -0.00092166973293204813 0 0.00064400613233717553 -0.00091287538771022466 0 -0.0001627835574765599 -0.00024617284625160304 0 -7.2063184721857986e-05 -0.00011118377431365761 0 -0.00013205205644964248 -0.00023513189239124951 0 7.3888189905563654e-05 -0.00016294996378556889 0 8.1880326796635511e-05 -0.00025231096883502957 0 3.9779356076201043e-05 -0.00013250620681079148 0 0.00082020835890376338 -0.002074327246122277 0 0.00075370311223983851 -0.0019503363115518765 0 0.00083814399490039695 -0.0019087846670942888 0 -0.00073072035918272298 -0.0010840394313471316 0 -0.00069085742368472436 -0.0011730404711124641 0 -0.00078333947204544427 -0.0012563774139315771 0 -0.0003170449393458318 -0.0029276548245647264 0 -0.00024477758964204944 -0.0028034766984355759 0 -0.00021165573789639876 -0.0029680599124023654 0 -4.7230753810313073e-06 -0.0026271693719682279 0 7.5936732194015406e-05 -0.002494907187865803 0 8.1501350868425695e-05 -0.0026391014102307704 0 -0.00064504549486156808 -0.0015318348283676006 0 -0.00058068619483999317 -0.0016486127289703006 0 -0.00065880719289241035 -0.0016726453719781585 0 0.00064586484869182462 -0.0015468900221179203 0 0.00056430940988379697 -0.0013995213161148146 0 0.00064042942946899442 -0.0014090817612962255 0 2.6784109086716131e-06 -0.00038316881244239778 0 -4.2193511294440665e-05 -0.00049370821999176193 0 -3.6449244583690442e-05 -0.00037617350907545751 0 0.00064638163196330039 -0.0026172650533068074 0 0.00075852145021920074 -0.002703034603806765 0 0.00068935539740396293 -0.0027781702941174933 0 -0.00064659221060665124 -0.0026171964703553801 0 -0.00069207056405881477 -0.0028198243141036947 0 -0.00073579577624177672 -0.0026971725844961896 0 0.00036758843048754423 -0.00046008547618898413 0 0.0003013636133175451 -0.00032674074757567211 0 0.00040787206935602395 -0.00042699429411231554 0 -0.00036493910116945687 -0.0004564062019229686 0 -0.0003904632347367407 -0.00041871324036974773 0 -0.00027996102481299417 -0.00029511889876357087 0 -0.00046987687615582642 -0.00065230745084071424 0 -0.00055730785130677458 -0.00067450901227866214 0 -0.00046430370250710306 -0.00054889324341050308 0 0.00027459476901054537 -0.00040635986960119717 0 0.00018426291978382067 -0.00024252321552775831 0 0.00026079468667458932 -0.00032165286905726318 0 0.00036758843048754423 -0.00046008547618898413 0 0.00040787206935602395 -0.00042699429411231554 0 0.00046337445882911111 -0.00054873017482268138 0 -0.00036493910116945687 -0.0004564062019229686 0 -0.00027996102481299417 -0.00029511889876357087 0 -0.00026172975515988475 -0.00032365956302427142 0 -0.00035641582501219507 -0.0023798029847628579 0 -0.00031509227538346429 -0.0022170245313727971 0 -0.00028434773650054437 -0.0024209559199982354 0 0.00052162407667840564 -0.0021056603038914698 0 0.00042712125403144652 -0.0020238163687602865 0 0.00054584527905995406 -0.0019868072810667629 0 -0.00043260561836426975 -0.00091960565912217989 0 -0.00036216460075113942 -0.0009720051981858698 0 -0.00047799543644602363 -0.0010450109999360978 0 0.00023661964209979866 -0.00061833923624609872 0 0.00023588251826950427 -0.00076614591919718276 0 0.00017759492230054222 -0.00057061408534043914 0 -0.0004719412966342061 -0.0028087319317122721 0 -0.00042451316785100909 -0.0029975644159993581 0 -0.00053226622733347116 -0.0029942443924140054 0 -0.00059542420112446907 -0.00080230877118921649 0 -0.00071822615219804733 -0.00093418901104376137 0 -0.00065265527563985776 -0.00076634785750262881 0 0.00075686774334306423 -0.0023234428323182306 0 0.00085708387945597009 -0.0022514477613311901 0 0.00085507127593514366 -0.0024305128254473096 0 0.00016767486668894775 -0.00026068431294935888 0 7.4924646319709967e-05 -0.0001177810259301167 0 0.00010104274920234435 -0.00012683139931952983 0 -0.00053716056811497885 -0.0026465367351538949 0 -0.00055222438146057713 -0.0028616473479191719 0 -0.00061220638942838029 -0.0027729932070893124 0 0.00066635695118319937 -0.0024276438710834139 0 0.00078348395211648002 -0.0024612272065259243 0 0.00073416695938222673 -0.0025614010423551012 0 -0.00028434773650054437 -0.0024209559199982354 0 -0.00031509227538346429 -0.0022170245313727971 0 -0.00021112529816156081 -0.0023046394787263674 0 0.00054584527905995406 -0.0019868072810667629 0 0.00042712125403144652 -0.0020238163687602865 0 0.00048051799085899492 -0.0018559408868702876 0 -0.00047799543644602363 -0.0010450109999360978 0 -0.00036216460075113942 -0.0009720051981858698 0 -0.00043698080025714983 -0.0011531080694529958 0 0.00017759492230054222 -0.00057061408534043914 0 0.00023588251826950427 -0.00076614591919718276 0 0.00014552888384023851 -0.00066671944587206515 0 0.00014812540807780818 -0.0017555996887179679 0 7.0339611769762146e-05 -0.0018107299332393472 0 6.0527879671882881e-05 -0.0016450801332995755 0 0.00094032541914745155 -0.0019052677542305252 0 0.00083814399490039695 -0.0019087846670942888 0 0.00086115569170903267 -0.0017720407022256848 0 9.5160429154040149e-09 -1.0691296036668841e-07 0 3.9779356076201043e-05 -0.00013250620681079148 0 1.7009319097423729e-05 -9.2837523332423138e-05 0 -0.00020312971685527585 -0.0031732203988634718 0 -0.00021165573789639876 -0.0029680599124023654 0 -0.00012141122734804067 -0.0030238686787788772 0 -0.00088449572718692321 -0.0013060032125232382 0 -0.00078333947204544427 -0.0012563774139315771 0 -0.0008312677147745501 -0.0014025665078892166 0 -0.00012947378980220038 -0.0028422826400773598 0 -2.7070682108776824e-05 -0.0029507749681488269 0 -0.00012141122734804067 -0.0030238686787788772 0 -0.00073924071742923045 -0.0013624457895023221 0 -0.00081055188830740502 -0.001536613150971275 0 -0.0008312677147745501 -0.0014025665078892166 0 0.00076949401163175634 -0.0017693081276236942 0 0.00081665271612240721 -0.0016196549617850085 0 0.00086115569170903267 -0.0017720407022256848 0 3.8331825755443457e-05 -0.00021912727014865535 0 5.4157875791890305e-06 -0.000141004871185111 0 1.7009319097423729e-05 -9.2837523332423138e-05 0 0.00014447718197652627 -0.0016146567162684808 0 0.00014812540807780818 -0.0017555996887179679 0 6.0527879671882881e-05 -0.0016450801332995755 0 0.00094907356552393588 -0.0022179842512532553 0 0.00095187926607711605 -0.0023773961198978906 0 0.00085708387945597009 -0.0022514477613311901 0 1.0500732485674487e-08 -1.1232946550369484e-07 0 1.7239638287456696e-08 -1.0593497177315969e-07 0 7.4924646319709981e-05 -0.0001177810259301167 0 -0.00040242612838744905 -0.0031772193519245613 0 -0.00049989590332709356 -0.0031797516848543696 0 -0.00042451316785100909 -0.0029975644159993581 0 -0.00081319704943050579 -0.001023060701384373 0 -0.00076190717409780316 -0.00088132067042787565 0 -0.00071822615219804733 -0.00093418901104376148 0 0.00076949401163175634 -0.0017693081276236942 0 0.00068030562674456551 -0.001853494659002217 0 0.00068212112055559778 -0.0016966631271894115 0 -0.00012947378980220038 -0.0028422826400773598 0 -0.000191715707663858 -0.0026684805427787195 0 -9.3807569336154601e-05 -0.0026806582154222584 0 3.8331825755443457e-05 -0.00021912727014865535 0 8.2906366552984087e-05 -0.00035457695876931112 0 4.0549961096357272e-05 -0.00034162350509401874 0 -0.00073924071742923045 -0.0013624457895023221 0 -0.0006348289609664421 -0.0012348132435833193 0 -0.00066120985080646744 -0.0013949073896574442 0 0.00076949401163175634 -0.0017693081276236942 0 0.00075370311223983851 -0.0019503363115518765 0 0.00068030562674456551 -0.001853494659002217 0 3.8331825755443457e-05 -0.00021912727014865535 0 8.1880326796635511e-05 -0.00025231096883502957 0 8.2906366552984101e-05 -0.00035457695876931112 0 -0.00012947378980220038 -0.0028422826400773598 0 -0.00024477758964204944 -0.0028034766984355759 0 -0.000191715707663858 -0.0026684805427787195 0 -0.00073924071742923045 -0.0013624457895023221 0 -0.00069085742368472436 -0.0011730404711124641 0 -0.0006348289609664421 -0.0012348132435833193 0 0.00048051799085899492 -0.0018559408868702876 0 0.00038164078804110328 -0.0018680755123553568 0 0.00039424638232656261 -0.0017331617208415906 0 -0.00021112529816156081 -0.0023046394787263674 0 -0.00022782612986916741 -0.0021306615171143668 0 -0.00014652748185028119 -0.0021540825267539611 0 0.00014552888384023851 -0.00066671944587206515 0 0.00017456854588926307 -0.00083036905771168869 0 0.00010954130471118353 -0.00079867637553698693 0 -0.00043698080025714983 -0.0011531080694529958 0 -0.00034590826881571743 -0.0011310741169779817 0 -0.00037459936908350669 -0.001255711374039735 0 2.9770922585392273e-05 -0.00213891381965099 0 0.00014161399486376205 -0.0021398473485231251 0 8.9846352575729524e-05 -0.0023112011062653821 0 -0.00038051007334161856 -0.0015401087498908802 0 -0.00038428196515634015 -0.0017234109505856062 0 -0.00048030055422681111 -0.0016542387468103934 0 0.00038117581307519607 -0.0014394377508003722 0 0.00036060959540950411 -0.0012560568156157728 0 0.00046281282134393769 -0.0013554441730578722 0 -2.5277131512805009e-05 -0.00079202162704290074 0 -0.00010750548519785735 -0.00081496340334287238 0 -6.0941098103258208e-05 -0.00065313612766891929 0 0.00052481220672922395 -0.00056737917469982504 0 0.00059505785521256935 -0.00062113688334100277 0 0.00064989710216645593 -0.00075874262705995308 0 -0.00017853426421352291 -0.000197035090066203 0 -8.6664694616657374e-05 -8.9912165193862064e-05 0 -9.9504521082780455e-05 -0.00012470343639182178 0 0.00062499243061871559 -0.0028948094854330578 0 0.00064403286815217136 -0.0030379025697224774 0 0.00054940851693949136 -0.0030045405152135359 0 -0.0008009893456752792 -0.0025873296366967758 0 -0.00087752166245888476 -0.0026221191256077256 0 -0.00086047124983978332 -0.0024601894249413501 0 0.00081008435081822211 -0.0025917607862388455 0 0.00085507127593514366 -0.0024305128254473096 0 0.00088526053828840822 -0.0025990879116474562 0 0.00018592031016218479 -0.00020050333948737133 0 0.00010104274920234435 -0.00012683139931952983 0 8.5989835712338151e-05 -8.9617092255984623e-05 0 -0.00062749028928033512 -0.0029122053819392391 0 -0.00053226622733347116 -0.0029942443924140054 0 -0.00063087511620852591 -0.0030527385533625361 0 -0.00051695518679291288 -0.00055556560204750652 0 -0.00065265527563985776 -0.00076634785750262881 0 -0.00059376715889499908 -0.0006184613682044506 0 0.00019740513665006203 -0.0023027851894740375 0 8.9846352575729524e-05 -0.0023112011062653821 0 0.00014161399486376205 -0.0021398473485231251 0 -0.00047928347418482411 -0.0018333993699789499 0 -0.00048030055422681111 -0.0016542387468103934 0 -0.00038428196515634015 -0.0017234109505856062 0 0.0004389233753488383 -0.0011754856757203861 0 0.00046281282134393769 -0.0013554441730578722 0 0.00036060959540950411 -0.0012560568156157728 0 -0.0001369340435295048 -0.00066873311203025001 0 -6.0941098103258208e-05 -0.00065313612766891929 0 -0.00010750548519785735 -0.00081496340334287238 0 0.00064961459009200539 -0.0022825899505151798 0 0.00055302385500334518 -0.0022284525185347964 0 0.00060595800221108459 -0.0020950531005868517 0 -0.00045305339701390539 -0.0026123252496309383 0 -0.00042678177697388393 -0.0024384531368363371 0 -0.00034467045845292622 -0.0025295363132589212 0 0.00023531120519305009 -0.00042523517145318438 0 0.00027250762832919587 -0.00057651702131293853 0 0.00019243076992390696 -0.00048243008994751873 0 -0.00050645434137421008 -0.00079072504524888368 0 -0.00043263675194116523 -0.00080911902736727844 0 -0.00051428885918578188 -0.00095961682241672516 0 0.00069490585187942215 -0.0021768072870401037 0 0.00064961459009200539 -0.0022825899505151798 0 0.00060595800221108459 -0.0020950531005868517 0 0.00017073865203029643 -0.00034867984828060013 0 0.00023531120519305009 -0.00042523517145318438 0 0.00019243076992390696 -0.00048243008994751873 0 -0.00038758772922442813 -0.002692272796748202 0 -0.00045305339701390539 -0.0026123252496309383 0 -0.00034467045845292622 -0.0025295363132589212 0 -0.00057994314327721656 -0.00091739997645652453 0 -0.00050645434137421008 -0.00079072504524888368 0 -0.00051428885918578188 -0.00095961682241672516 0 0.00030273378827737173 -0.0019638683601117092 0 0.00038164078804110333 -0.0018680755123553568 0 0.00042712125403144652 -0.0020238163687602865 0 -0.00028074047018169536 -0.0019933855715038255 0 -0.00022782612986916741 -0.0021306615171143668 0 -0.00031509227538346429 -0.0022170245313727971 0 0.00023933241828704091 -0.00096772828162014761 0 0.00017456854588926307 -0.00083036905771168869 0 0.00023588251826950427 -0.00076614591919718276 0 -0.0002586114600436276 -0.0010012283013494147 0 -0.00034590826881571743 -0.0011310741169779817 0 -0.00036216460075113942 -0.0009720051981858698 0 0.00033879027271977331 -0.0025621753648255329 0 0.00033911893370408141 -0.0027722066908403556 0 0.00028043983873469628 -0.0026534416019993214 0 0.00040118448516690444 -0.0026507674522662861 0 0.00033911893370408146 -0.0027722066908403556 0 0.00033879027271977331 -0.0025621753648255329 0 -0.00062405701348686301 -0.0020877315691018835 0 -0.00073833872278139252 -0.0021017883332253421 0 -0.00067411782149354421 -0.0019974229287013788 0 -0.00067215875013849002 -0.0021972346993889801 0 -0.00073833872278139252 -0.0021017883332253421 0 -0.00062405701348686301 -0.0020877315691018835 0 0.00053324738593352639 -0.00097451982798305936 0 0.00064208574208455865 -0.0010135801562098621 0 0.00060137331651120287 -0.0010875135645037452 0 0.00055203732991761061 -0.00088657786005141685 0 0.00064208574208455876 -0.0010135801562098624 0 0.00053324738593352639 -0.00097451982798305936 0 -0.00018151101475223495 -0.00045506862512928611 0 -0.00012502511293835603 -0.00028149831845792136 0 -0.00012785210648729733 -0.00037197083835080252 0 -0.0001916191626712909 -0.00038591379583373327 0 -0.00012502511293835603 -0.00028149831845792136 0 -0.00018151101475223495 -0.00045506862512928611 0 -1.620826943728159e-05 -0.0017723811220295618 0 2.3336222552873992e-05 -0.0019436431956030519 0 -8.9724289176099269e-05 -0.0019010366402407602 0 8.946653259457749e-05 -0.0012041590367732702 0 8.7068186707181014e-06 -0.001149399139500666 0 8.1849837149120054e-05 -0.0010547639401381206 0 -0.00012947378980220038 -0.0028422826400773598 0 -2.5172322938453054e-05 -0.0028001494054157982 0 -2.7070682108776824e-05 -0.0029507749681488269 0 -0.00073924071742923045 -0.0013624457895023221 0 -0.00073369500440237444 -0.0015205988281478955 0 -0.00081055188830740502 -0.001536613150971275 0 0.00076949401163175634 -0.0017693081276236942 0 0.00073911445819485524 -0.0016002695576263892 0 0.00081665271612240721 -0.0016196549617850085 0 3.8331825755443457e-05 -0.00021912727014865535 0 8.5905067532421527e-06 -0.00024977520317312241 0 5.4157875791890305e-06 -0.000141004871185111 0 -1.620826943728159e-05 -0.0017723811220295618 0 7.0339611769762146e-05 -0.0018107299332393472 0 2.3336222552873992e-05 -0.0019436431956030519 0 0.00013122441725133246 -0.0019340997632972087 0 2.3336222552873992e-05 -0.0019436431956030519 0 7.0339611769762146e-05 -0.0018107299332393472 0 7.3888189905563654e-05 -0.00016294996378556889 0 0.00011764603006365955 -0.00027188136417996285 0 8.1880326796635511e-05 -0.00025231096883502957 0 0.00082020835890376338 -0.002074327246122277 0 0.00074418576431656692 -0.0020810352900631694 0 0.00075370311223983851 -0.0019503363115518765 0 -0.0003170449393458318 -0.0029276548245647264 0 -0.00032607148796529094 -0.0027836595911389941 0 -0.00024477758964204944 -0.0028034766984355759 0 -0.00073072035918272298 -0.0010840394313471316 0 -0.00065263517346959214 -0.0010378850417097085 0 -0.00069085742368472436 -0.0011730404711124641 0 0.00064638163196330039 -0.0026172650533068074 0 0.00058082055698180444 -0.0025046707848866952 0 0.00066635695118319937 -0.0024276438710834139 0 -0.00064659221060665124 -0.0026171964703553801 0 -0.00058512850182199333 -0.0024978272709881982 0 -0.00053716056811497885 -0.0026465367351538949 0 0.00036758843048754423 -0.00046008547618898413 0 0.00037684734709037286 -0.00056134191037132187 0 0.00027459476901054537 -0.00040635986960119717 0 -0.00036493910116945687 -0.0004564062019229686 0 -0.00035955850579355266 -0.00053919414620863938 0 -0.00046987687615582642 -0.00065230745084071424 0 0.00067389869452946923 -0.0019974666943038443 0 0.00060595800221108459 -0.0020950531005868517 0 0.00059218494184644886 -0.0018982717870596592 0 -0.00028062436653392256 -0.0026534597064020796 0 -0.00034467045845292622 -0.0025295363132589212 0 -0.00022725955216216809 -0.0025049278025962378 0 0.00012782103866781826 -0.00037275465643833901 0 0.00019243076992390696 -0.00048243008994751873 0 0.0001285302489337105 -0.00049256017996937313 0 -0.00060162748909066345 -0.0010869865821932195 0 -0.00051428885918578188 -0.00095961682241672516 0 -0.00053963183518157998 -0.0011514147563124778 0 0.00022323901989155257 -0.0018421656275777662 0 0.00023287641116183187 -0.0016600593791006727 0 0.00030661740081640374 -0.0018011752752012822 0 0.00048164564953063235 -0.0028743420872718011 0 0.00055473950702073405 -0.0028068952521829835 0 0.00054940851693949136 -0.0030045405152135359 0 -0.00079184872759898708 -0.0023426641033797938 0 -0.00075420193440807308 -0.0024641036577543632 0 -0.00086047124983978332 -0.0024601894249413501 0 0.00062499243061871559 -0.0028948094854330578 0 0.00054940851693949136 -0.0030045405152135359 0 0.00055473950702073405 -0.0028068952521829835 0 -0.0008009893456752792 -0.0025873296366967758 0 -0.00086047124983978332 -0.0024601894249413501 0 -0.00075420193440807308 -0.0024641036577543632 0 0.0004769666345192607 -0.0024967739291329497 0 0.00058082055698180444 -0.0025046707848866952 0 0.00055954865778720957 -0.0026397297641718468 0 0.00064638163196330039 -0.0026172650533068074 0 0.00055954865778720957 -0.0026397297641718468 0 0.00058082055698180444 -0.0025046707848866952 0 -0.00058483350166986948 -0.0023172169110463503 0 -0.00058512850182199333 -0.0024978272709881982 0 -0.00066215527182431836 -0.002465973261974255 0 -0.00064659221060665124 -0.0026171964703553801 0 -0.00066215527182431836 -0.002465973261974255 0 -0.00058512850182199333 -0.0024978272709881982 0 0.00043519835056319862 -0.00073192306437088849 0 0.00037684734709037281 -0.00056134191037132187 0 0.00047377976170886988 -0.00065026820008666204 0 0.00036758843048754423 -0.00046008547618898413 0 0.00047377976170886988 -0.00065026820008666204 0 0.00037684734709037281 -0.00056134191037132187 0 -0.00028998434940489219 -0.0005310386896931348 0 -0.00035955850579355266 -0.00053919414620863938 0 -0.00026911099576600278 -0.00039280771801895588 0 -0.00036493910116945687 -0.0004564062019229686 0 -0.00026911099576600278 -0.00039280771801895588 0 -0.00035955850579355266 -0.00053919414620863938 0 0.00077903582619613958 -0.002864062095274276 0 0.00085385455266809881 -0.0029953760064466662 0 0.00078931400051842065 -0.0030543694717434528 0 0.00030337429493610362 -0.00027087073622507888 0 0.00022771960841941468 -0.00017028001802372095 0 0.00038812391851437988 -0.00033259684594005796 0 0.00030337429493610362 -0.00027087073622507888 0 0.00012946629664207417 -9.5952008973426974e-05 0 0.00022771960841941468 -0.00017028001802372095 0 -0.00078201246923095683 -0.0028588879421078402 0 -0.00085413675882420673 -0.0029953349909010397 0 -0.00088590756740147846 -0.0028785775381975284 0 0.00077903582619613958 -0.002864062095274276 0 0.0008856843747830159 -0.0028785868560290574 0 0.00085385455266809881 -0.0029953760064466662 0 -0.00030652904346236228 -0.00027494563639786802 0 -0.00022718606156002313 -0.00016977097882216763 0 -0.00012965144858198359 -9.6391383772559026e-05 0 -0.00030652904346236228 -0.00027494563639786802 0 -0.00038754808982671999 -0.00033280667576445709 0 -0.00022718606156002313 -0.0001697709788221676 0 -0.00078201246923095683 -0.0028588879421078402 0 -0.00078959447495109399 -0.003054358146809258 0 -0.00085413675882420673 -0.0029953349909010397 0 0.00076949401163175634 -0.0017693081276236942 0 0.00083814399490039695 -0.0019087846670942888 0 0.00075370311223983851 -0.0019503363115518765 0 -0.00012947378980220038 -0.0028422826400773598 0 -0.00021165573789639879 -0.0029680599124023654 0 -0.00024477758964204944 -0.0028034766984355759 0 3.8331825755443457e-05 -0.00021912727014865535 0 3.9779356076201043e-05 -0.00013250620681079148 0 8.1880326796635511e-05 -0.00025231096883502957 0 -0.00073924071742923045 -0.0013624457895023221 0 -0.00078333947204544427 -0.0012563774139315771 0 -0.00069085742368472436 -0.0011730404711124641 0 0.00030273378827737173 -0.0019638683601117092 0 0.00029050125536824909 -0.0021451188318232714 0 0.00021772478516588872 -0.0020380852862348264 0 -0.00028074047018169536 -0.0019933855715038255 0 -0.00038908199818422473 -0.0019806264185041659 0 -0.00033249423548774965 -0.0018488041785813568 0 0.00023933241828704091 -0.00096772828162014761 0 0.0003336605103698795 -0.0010033822682749042 0 0.00029002459376238946 -0.0011164045754338454 0 -0.0002586114600436276 -0.0010012283013494147 0 -0.00022570728122113022 -0.00082580022404017575 0 -0.00017790486196159693 -0.00091622332528159937 0 0.000932113052033171 -0.0017513593200972691 0 0.00094032541914745155 -0.0019052677542305252 0 0.00086115569170903267 -0.0017720407022256848 0 -2.5844684736777501e-10 -1.1126999290703374e-07 0 9.5160429154040149e-09 -1.0691296036668841e-07 0 1.7009319097423729e-05 -9.2837523332423138e-05 0 -0.00010188081922519028 -0.0031718934260420825 0 -0.00020312971685527585 -0.0031732203988634718 0 -0.00012141122734804067 -0.0030238686787788772 0 -0.00090516251450264355 -0.0014525573394955471 0 -0.00088449572718692321 -0.0013060032125232382 0 -0.0008312677147745501 -0.0014025665078892166 0 0.00031070373419221658 -0.00025518429700560489 0 0.00038812391851437988 -0.00033259684594005791 0 0.00022771960841941468 -0.00017028001802372095 0 4.0145306997288899e-09 -9.4672865616426246e-08 0 -0.00012965144858198359 -9.6391383772559026e-05 0 -0.00022718606156002313 -0.0001697709788221676 0 -4.4862462657799876e-09 -9.5063211879761764e-08 0 0.00022771960841941468 -0.00017028001802372095 0 0.0001294662966420742 -9.5952008973427001e-05 0 0.00095739949246126854 -0.0030245982066632827 0 0.00085385455266809881 -0.0029953760064466662 0 0.0008856843747830159 -0.0028785868560290574 0 0.00086992177018707759 -0.0031866300668666504 0 0.00078931400051842065 -0.0030543694717434532 0 0.00085385455266809881 -0.0029953760064466662 0 -0.00095766924751935199 -0.0030245766909658906 0 -0.00088590756740147846 -0.0028785775381975284 0 -0.00085413675882420673 -0.0029953349909010397 0 -0.00031038919594153264 -0.0002553588261308423 0 -0.00022718606156002313 -0.0001697709788221676 0 -0.00038754808982671999 -0.00033280667576445709 0 -0.00087017935194576334 -0.0031866014145533394 0 -0.00085413675882420673 -0.0029953349909010397 0 -0.00078959447495109399 -0.003054358146809258 0 0.00010175067290604827 -0.0031719391714969299 0 0.00010721393429091981 -0.002996037231490908 0 0.00018821327626978532 -0.003033357974667875 0 -0.00093315843271191601 -0.0017511596913104492 0 -0.00084614047547968167 -0.0017481554711195543 0 -0.00087047127818611243 -0.0018762841561608375 0 0.00090612802692378706 -0.0014522091185749392 0 0.00081929880074847045 -0.0014204193867689608 0 0.00082112987420579367 -0.0013030167477024966 0 -3.4632956758570916e-09 -1.0710054079083449e-07 0 -1.6684040677451253e-05 -0.00011361814091021158 0 -2.4875589693873208e-05 -8.7655934081652101e-05 0 0.00036758843048754423 -0.00046008547618898413 0 0.00027459476901054537 -0.00040635986960119717 0 0.00026079468667458932 -0.00032165286905726318 0 -0.00036493910116945687 -0.0004564062019229686 0 -0.00046987687615582642 -0.00065230745084071424 0 -0.00046430370250710306 -0.00054889324341050308 0 0.0004769666345192607 -0.0024967739291329497 0 0.0004803169536294167 -0.0027196080391649635 0 0.00040118448516690444 -0.0026507674522662861 0 -0.00058483350166986948 -0.0023172169110463503 0 -0.00070834470150709652 -0.0023341275025496348 0 -0.00067215875013849002 -0.0021972346993889801 0 0.00043519835056319862 -0.00073192306437088849 0 0.00053432875045041333 -0.00077664298698293475 0 0.00055203732991761061 -0.00088657786005141685 0 -0.00028998434940489219 -0.0005310386896931348 0 -0.00021697687319070176 -0.00036187141069169847 0 -0.0001916191626712909 -0.00038591379583373327 0 6.9180237903040243e-05 -0.0027828571652343823 0 -2.5172322938453054e-05 -0.0028001494054157982 0 -4.7230753810313073e-06 -0.0026271693719682279 0 -0.00073433293566263426 -0.0016682790229468809 0 -0.00073369500440237444 -0.0015205988281478955 0 -0.00064504549486156808 -0.0015318348283676006 0 0.00071824889556806534 -0.0014485243324925056 0 0.00073911445819485524 -0.0016002695576263892 0 0.00064586484869182462 -0.0015468900221179203 0 -2.4363362521664638e-05 -0.00026326093480754769 0 8.5905067532421527e-06 -0.00024977520317312241 0 2.6784109086716131e-06 -0.00038316881244239778 0 -0.00059542420112446907 -0.00080230877118921649 0 -0.00065794509328762605 -0.00095389463488377267 0 -0.00071822615219804733 -0.00093418901104376148 0 -0.0004719412966342061 -0.0028087319317122721 0 -0.00038552201776265274 -0.0028417590153653081 0 -0.00042451316785100909 -0.0029975644159993581 0 0.00016767486668894775 -0.00026068431294935888 0 0.00012316718462876487 -0.00023044393483102299 0 7.4924646319709981e-05 -0.0001177810259301167 0 0.00075686774334306423 -0.0023234428323182306 0 0.00077524400704142085 -0.0021818109892688619 0 0.00085708387945597009 -0.0022514477613311901 0 0.00055302385500334518 -0.0022284525185347964 0 0.00052162407667840564 -0.0021056603038914698 0 0.00060595800221108459 -0.0020950531005868517 0 -0.00042678177697388393 -0.0024384531368363371 0 -0.00035641582501219507 -0.0023798029847628579 0 -0.00034467045845292622 -0.0025295363132589212 0 0.00027250762832919587 -0.00057651702131293853 0 0.00023661964209979866 -0.00061833923624609872 0 0.00019243076992390696 -0.00048243008994751873 0 -0.00043263675194116523 -0.00080911902736727844 0 -0.00043260561836426975 -0.00091960565912217989 0 -0.00051428885918578188 -0.00095961682241672516 0 0.00064638163196330039 -0.0026172650533068074 0 0.00066635695118319937 -0.0024276438710834139 0 0.00073416695938222673 -0.0025614010423551012 0 -0.00064659221060665124 -0.0026171964703553801 0 -0.00053716056811497885 -0.0026465367351538949 0 -0.00061220638942838029 -0.0027729932070893124 0 0.0003241359118176364 -0.0016728497247565613 0 0.00027815333763779989 -0.0014899493975559152 0 0.00038390220636638734 -0.0015880522730732385 0 0.00038117581307519607 -0.0014394377508003722 0 0.00038390220636638734 -0.0015880522730732385 0 0.00027815333763779989 -0.0014899493975559152 0 0.00055302385500334518 -0.0022284525185347964 0 0.00047609714852462725 -0.0021989391237610969 0 0.00052162407667840564 -0.0021056603038914698 0 -0.00042678177697388393 -0.0024384531368363371 0 -0.00041388064529829005 -0.0023029058974595681 0 -0.00035641582501219507 -0.0023798029847628579 0 0.00027250762832919587 -0.00057651702131293853 0 0.00029644736142110331 -0.00069988362241001968 0 0.00023661964209979866 -0.00061833923624609872 0 -0.00043263675194116523 -0.00080911902736727844 0 -0.00037177948040063527 -0.00081438586801995077 0 -0.00043260561836426975 -0.00091960565912217989 0 0.00077903582619613958 -0.002864062095274276 0 0.00078931400051842065 -0.0030543694717434528 0 0.0007184969603647041 -0.0030119012196690893 0 -0.00078201246923095683 -0.0028588879421078402 0 -0.00088590756740147846 -0.0028785775381975284 0 -0.00086297215478396835 -0.0027522570353880312 0 0.00030337429493610362 -0.00027087073622507888 0 0.00038812391851437988 -0.00033259684594005796 0 0.00046999396155397743 -0.0004516410307566974 0 0.00077903582619613958 -0.002864062095274276 0 0.00085110382370503319 -0.0027346876561963477 0 0.0008856843747830159 -0.0028785868560290574 0 0.00030337429493610362 -0.00027087073622507888 0 0.00014498963196288905 -0.00013569179793366664 0 0.0001294662966420742 -9.5952008973427001e-05 0 -0.00030652904346236228 -0.00027494563639786802 0 -0.00012965144858198359 -9.6391383772559026e-05 0 -0.00015441601974468152 -0.00014545118302681818 0 -0.00078201246923095683 -0.0028588879421078402 0 -0.00070879344552390281 -0.0029898832858315638 0 -0.00078959447495109399 -0.003054358146809258 0 -0.00030652904346236228 -0.00027494563639786802 0 -0.00046593169824080084 -0.00044357678212739746 0 -0.00038754808982671999 -0.00033280667576445709 0 8.946653259457749e-05 -0.0012041590367732702 0 8.1849837149120054e-05 -0.0010547639401381206 0 0.00017895681088240378 -0.0011025453773856051 0 -2.2459724447415779e-06 -0.0010288095568887184 0 8.1849837149120054e-05 -0.0010547639401381206 0 8.7068186707181014e-06 -0.001149399139500666 0 0.0003241359118176364 -0.0016728497247565613 0 0.00030661740081640374 -0.0018011752752012822 0 0.00023287641116183187 -0.0016600593791006727 0 -7.1488877312889513e-08 -0.0024236596506719997 0 -4.7230753810313073e-06 -0.0026271693719682279 0 -6.8818007985554957e-05 -0.0025179481371474951 0 -0.0005352329163486356 -0.0015162927909521686 0 -0.00064504549486156808 -0.0015318348283676006 0 -0.00057807031104236816 -0.0014143080662237738 0 0.00053499345043223122 -0.0015163658139159108 0 0.00064586484869182462 -0.0015468900221179203 0 0.00059264751523996643 -0.0016392203272593518 0 -1.1760545805681251e-07 -0.00055364278018469075 0 2.6784109086716131e-06 -0.00038316881244239778 0 3.7694571868944575e-05 -0.00047305610583533834 0 0.00040118448516690444 -0.0026507674522662861 0 0.0004803169536294167 -0.0027196080391649635 0 0.00040909485900173935 -0.002844390130163077 0 -0.00067215875013849002 -0.0021972346993889801 0 -0.00070834470150709652 -0.0023341275025496348 0 -0.00077682447212149366 -0.0022209786082926157 0 0.00055203732991761061 -0.00088657786005141685 0 0.00053432875045041333 -0.00077664298698293475 0 0.00064400613233717553 -0.00091287538771022466 0 -0.0001916191626712909 -0.00038591379583373327 0 -0.00021697687319070176 -0.00036187141069169852 0 -0.00013205205644964248 -0.00023513189239124951 0 0.00048051799085899492 -0.0018559408868702876 0 0.00042712125403144652 -0.0020238163687602865 0 0.00038164078804110328 -0.0018680755123553568 0 -0.00021112529816156081 -0.0023046394787263674 0 -0.00031509227538346429 -0.0022170245313727971 0 -0.00022782612986916741 -0.0021306615171143668 0 0.00014552888384023851 -0.00066671944587206515 0 0.00023588251826950427 -0.00076614591919718276 0 0.00017456854588926307 -0.00083036905771168869 0 -0.00043698080025714983 -0.0011531080694529958 0 -0.00036216460075113942 -0.0009720051981858698 0 -0.00034590826881571743 -0.0011310741169779817 0 0.00075686774334306423 -0.0023234428323182306 0 0.00066635695118319937 -0.0024276438710834139 0 0.00064961459009200539 -0.0022825899505151798 0 0.00016767486668894775 -0.00026068431294935888 0 0.00027459476901054537 -0.00040635986960119717 0 0.00023531120519305009 -0.00042523517145318438 0 -0.0004719412966342061 -0.0028087319317122721 0 -0.00053716056811497885 -0.0026465367351538945 0 -0.00045305339701390539 -0.0026123252496309383 0 -0.00059542420112446907 -0.00080230877118921649 0 -0.00046987687615582642 -0.00065230745084071424 0 -0.00050645434137421008 -0.00079072504524888368 0 0.00022323901989155257 -0.0018421656275777662 0 0.00014812540807780818 -0.0017555996887179679 0 0.00023287641116183187 -0.0016600593791006727 0 -0.00012651142438400965 -0.0016426337546074309 0 -0.00019552656223413445 -0.0015883676767273493 0 -9.1350033027877645e-05 -0.0015158841514198251 0 -0.00017227885488378704 -0.0014378555571872868 0 -9.1350033027877645e-05 -0.0015158841514198251 0 -0.00019552656223413445 -0.0015883676767273493 0 -0.0001135841406524765 -0.0020354589572835198 0 -0.00018898165896354176 -0.0020036478437258217 0 -8.9724289176099269e-05 -0.0019010366402407602 0 -0.00018628667146978019 -0.0018651376038413662 0 -8.9724289176099269e-05 -0.0019010366402407602 0 -0.00018898165896354176 -0.0020036478437258217 0 0.00059892776392307515 -0.00078910638393693555 0 0.00047377976170886988 -0.00065026820008666204 0 0.00054417569224700889 -0.00065933623095940736 0 -0.0001627835574765599 -0.00024617284625160304 0 -0.00026911099576600278 -0.00039280771801895588 0 -0.00019472754127842611 -0.00025483807271982947 0 -0.00017227885488378704 -0.0014378555571872868 0 -0.00027402750291195479 -0.0015149933312106256 0 -0.00023117989812104244 -0.0013321421422869896 0 0.00049971701822042311 -0.0031797913036103946 0 0.00043561878940065951 -0.0030147286859845165 0 0.00054940851693949136 -0.0030045405152135359 0 -0.00095200396702903073 -0.0023773398007758172 0 -0.00086635053187971475 -0.0022707391708250177 0 -0.00086047124983978332 -0.0024601894249413501 0 0.00076128644878023738 -0.00088135946592547969 0 0.00071776380238413586 -0.00092166973293204824 0 0.00064989710216645593 -0.00075874262705995308 0 -1.5991230979162789e-08 -1.0710814100405048e-07 0 -7.2063184721857986e-05 -0.00011118377431365761 0 -9.9504521082780455e-05 -0.00012470343639182178 0 0.00076949401163175634 -0.0017693081276236942 0 0.00086115569170903267 -0.0017720407022256848 0 0.00083814399490039695 -0.0019087846670942888 0 3.8331825755443457e-05 -0.00021912727014865535 0 1.7009319097423729e-05 -9.2837523332423125e-05 0 3.9779356076201043e-05 -0.00013250620681079148 0 -0.00012947378980220038 -0.0028422826400773598 0 -0.00012141122734804068 -0.0030238686787788772 0 -0.00021165573789639876 -0.0029680599124023654 0 -0.00073924071742923045 -0.0013624457895023221 0 -0.0008312677147745501 -0.0014025665078892166 0 -0.00078333947204544427 -0.0012563774139315771 0 -0.00018628667146978019 -0.0018651376038413662 0 -0.00018854183058874678 -0.0017304267304054436 0 -9.8623684916158586e-05 -0.0017539723373416456 0 -0.00011363733406396784 -0.00099594963944330656 0 -0.00010750548519785736 -0.00081496340334287238 0 -4.5250371124755394e-05 -0.00093114510764387263 0 -2.5277131512805009e-05 -0.00079202162704290074 0 -4.5250371124755394e-05 -0.00093114510764387263 0 -0.00010750548519785735 -0.00081496340334287238 0 0.00030315230097130468 -0.0031748873541333285 0 0.00020293060651758202 -0.0031732069219134436 0 0.00027719919302118866 -0.0030247828646768064 0 -0.00094599125152204427 -0.002060925560713587 0 -0.0009405602012844288 -0.001905010605637671 0 -0.00086970857505789742 -0.0020153414673231541 0 0.000854250731362135 -0.001161779507302654 0 0.00088391595120453569 -0.0013056870603270973 0 0.00079253449628950495 -0.0011675339792249976 0 -1.4923375565605904e-08 -1.0822381000306717e-07 0 -6.5951286835294966e-09 -1.0906471264455149e-07 0 -3.8933065720589081e-05 -9.3891658746239441e-05 0 0.0004769666345192607 -0.0024967739291329497 0 0.00049452164596165411 -0.002317485701776415 0 0.00056613118125088712 -0.0023713967372777579 0 -0.00058483350166986948 -0.0023172169110463503 0 -0.00048147482322929671 -0.0023392799738034659 0 -0.0005094297399547194 -0.0024664032022851741 0 0.00043519835056319862 -0.00073192306437088849 0 0.00034164643038991818 -0.00068049196143406135 0 0.00032374136494511173 -0.00056232021746060871 0 -0.00028998434940489219 -0.0005310386896931348 0 -0.00035831510301716609 -0.00070565640703616674 0 -0.00040330904432888081 -0.00066931105364547241 0 0.00031070373419221658 -0.00025518429700560489 0 0.00022771960841941468 -0.00017028001802372095 0 0.0001408478940971003 -0.0001063400880168227 0 4.0145306997288899e-09 -9.4672865616426246e-08 0 -0.00022718606156002313 -0.0001697709788221676 0 -0.00014050164848242527 -0.00010619652595432475 0 -4.4862462657799876e-09 -9.5063211879761764e-08 0 0.0001408478940971003 -0.0001063400880168227 0 0.00022771960841941468 -0.00017028001802372095 0 -0.00031038919594153264 -0.0002553588261308423 0 -0.00014050164848242527 -0.00010619652595432475 0 -0.00022718606156002313 -0.0001697709788221676 0 0.00095739949246126854 -0.0030245982066632827 0 0.00090077615001623863 -0.0030811761198235935 0 0.00085385455266809881 -0.0029953760064466662 0 0.00086992177018707759 -0.0031866300668666504 0 0.00085385455266809881 -0.0029953760064466662 0 0.00090077615001623863 -0.0030811761198235935 0 -0.00087017935194576334 -0.0031866014145533394 0 -0.00090448549655122831 -0.003087443435413461 0 -0.00085413675882420673 -0.0029953349909010397 0 -0.00095766924751935199 -0.0030245766909658906 0 -0.00085413675882420673 -0.0029953349909010397 0 -0.00090448549655122831 -0.003087443435413461 0 0.00077903582619613958 -0.002864062095274276 0 0.00075852145021920064 -0.002703034603806765 0 0.00085110382370503319 -0.0027346876561963481 0 -0.00078201246923095683 -0.0028588879421078402 0 -0.00069207056405881477 -0.0028198243141036947 0 -0.00070879344552390281 -0.0029898832858315638 0 0.00081008435081822211 -0.0025917607862388455 0 0.00085110382370503319 -0.0027346876561963481 0 0.00075852145021920064 -0.002703034603806765 0 0.00052481220672922395 -0.00056737917469982504 0 0.00040787206935602395 -0.00042699429411231554 0 0.00046999396155397743 -0.0004516410307566974 0 -0.00062749028928033512 -0.0029122053819392391 0 -0.00070879344552390281 -0.0029898832858315638 0 -0.00069207056405881477 -0.0028198243141036947 0 -0.00017853426421352291 -0.000197035090066203 0 -0.00027996102481299417 -0.00029511889876357087 0 -0.00015441601974468152 -0.00014545118302681818 0 0.00030337429493610362 -0.00027087073622507888 0 0.00046999396155397743 -0.0004516410307566974 0 0.00040787206935602395 -0.00042699429411231554 0 -0.00030652904346236228 -0.00027494563639786802 0 -0.00015441601974468152 -0.00014545118302681818 0 -0.00027996102481299417 -0.00029511889876357087 0 0.00014447718197652627 -0.0016146567162684808 0 0.00023287641116183187 -0.0016600593791006727 0 0.00014812540807780818 -0.0017555996887179679 0 0.00017895681088240378 -0.0011025453773856051 0 8.1849837149120054e-05 -0.0010547639401381206 0 0.00015988905091549702 -0.00095404478164576203 0 -0.00022725955216216809 -0.0025049278025962378 0 -0.00034467045845292622 -0.0025295363132589212 0 -0.00028434773650054437 -0.0024209559199982354 0 0.00059218494184644886 -0.0018982717870596592 0 0.00060595800221108448 -0.0020950531005868513 0 0.00054584527905995406 -0.0019868072810667629 0 -0.00053963183518157998 -0.0011514147563124778 0 -0.00051428885918578188 -0.00095961682241672516 0 -0.00047799543644602363 -0.0010450109999360978 0 0.0001285302489337105 -0.00049256017996937313 0 0.00019243076992390696 -0.00048243008994751873 0 0.00017759492230054222 -0.00057061408534043914 0 -0.00019236674027036407 -0.0011978988439546349 0 -0.00023117989812104244 -0.0013321421422869896 0 -0.00026086401375056652 -0.0011514294808117529 0 -0.00030827463819877853 -0.0012840707993475012 0 -0.00026086401375056652 -0.0011514294808117529 0 -0.00023117989812104244 -0.0013321421422869896 0 -0.00018628667146978019 -0.0018651376038413662 0 -0.00018898165896354176 -0.0020036478437258213 0 -0.00028074047018169536 -0.0019933855715038255 0 6.9180237903040243e-05 -0.0027828571652343823 0 -4.7230753810313073e-06 -0.0026271693719682279 0 8.1501350868425695e-05 -0.0026391014102307704 0 -0.00073433293566263426 -0.0016682790229468809 0 -0.00064504549486156797 -0.0015318348283676006 0 -0.00065880719289241035 -0.0016726453719781585 0 0.00071824889556806534 -0.0014485243324925056 0 0.00064586484869182462 -0.0015468900221179205 0 0.00064042942946899442 -0.0014090817612962255 0 -2.4363362521664638e-05 -0.00026326093480754769 0 2.6784109086716216e-06 -0.00038316881244239778 0 -3.6449244583690442e-05 -0.00037617350907545751 0 -0.00025614320720962057 -0.001834275989211229 0 -0.00018628667146978019 -0.0018651376038413662 0 -0.00028074047018169536 -0.0019933855715038255 0 0.00030273378827737173 -0.0019638683601117092 0 0.00042712125403144652 -0.0020238163687602865 0 0.00035282000654822474 -0.0020906930574803788 0 -0.00028074047018169536 -0.0019933855715038255 0 -0.00031509227538346429 -0.0022170245313727971 0 -0.0003539053850133527 -0.0020843597624077307 0 0.00023933241828704091 -0.00096772828162014761 0 0.00023588251826950427 -0.00076614591919718276 0 0.00028869488882764114 -0.00089490524378084716 0 -0.0002586114600436276 -0.0010012283013494147 0 -0.00036216460075113942 -0.0009720051981858698 0 -0.0002856361051849484 -0.00088895831406174224 0 0.0004769666345192607 -0.0024967739291329497 0 0.00040118448516690444 -0.0026507674522662861 0 0.00039716273064531362 -0.0024946510267496507 0 -0.00058483350166986948 -0.0023172169110463503 0 -0.00067215875013849002 -0.0021972346993889801 0 -0.00058541365936789732 -0.0021817007319415108 0 0.00043519835056319862 -0.00073192306437088849 0 0.00055203732991761061 -0.00088657786005141685 0 0.00047448078475539841 -0.00086599357458317045 0 -0.00028998434940489219 -0.0005310386896931348 0 -0.0001916191626712909 -0.00038591379583373327 0 -0.00023665136021187825 -0.00052247906693539522 0 -0.00011363733406396784 -0.00099594963944330656 0 -0.00012674481917499447 -0.0011502971822532858 0 -0.00018837683773878275 -0.0010695067613974156 0 0.0004769666345192607 -0.0024967739291329497 0 0.00055954865778720957 -0.0026397297641718468 0 0.0004803169536294167 -0.0027196080391649635 0 -0.00058483350166986948 -0.0023172169110463503 0 -0.00066215527182431836 -0.002465973261974255 0 -0.00070834470150709652 -0.0023341275025496348 0 0.00043519835056319862 -0.00073192306437088849 0 0.00047377976170886988 -0.00065026820008666204 0 0.00053432875045041333 -0.00077664298698293475 0 -0.00028998434940489219 -0.0005310386896931348 0 -0.00026911099576600278 -0.00039280771801895588 0 -0.00021697687319070176 -0.00036187141069169852 0 0.00013122441725133246 -0.0019340997632972087 0 0.00014812540807780818 -0.0017555996887179679 0 0.00022323901989155257 -0.0018421656275777662 0 0.00067389869452946923 -0.0019974666943038443 0 0.00069490585187942215 -0.0021768072870401037 0 0.00060595800221108459 -0.0020950531005868517 0 0.00012782103866781826 -0.00037275465643833901 0 0.00017073865203029643 -0.00034867984828060013 0 0.00019243076992390696 -0.00048243008994751873 0 -0.00028062436653392256 -0.0026534597064020796 0 -0.00038758772922442813 -0.002692272796748202 0 -0.00034467045845292622 -0.0025295363132589212 0 -0.00060162748909066345 -0.0010869865821932195 0 -0.00057994314327721656 -0.00091739997645652453 0 -0.00051428885918578188 -0.00095961682241672516 0 -0.00058483350166986948 -0.0023172169110463503 0 -0.0005094297399547194 -0.0024664032022851741 0 -0.00058512850182199333 -0.0024978272709881982 0 0.0004769666345192607 -0.0024967739291329497 0 0.00056613118125088712 -0.0023713967372777579 0 0.00058082055698180444 -0.0025046707848866952 0 -0.00028998434940489219 -0.0005310386896931348 0 -0.00040330904432888076 -0.00066931105364547241 0 -0.00035955850579355266 -0.00053919414620863938 0 0.00043519835056319862 -0.00073192306437088849 0 0.00032374136494511173 -0.00056232021746060871 0 0.00037684734709037281 -0.00056134191037132187 0 2.3336222552873992e-05 -0.0019436431956030519 0 -4.3915800352792499e-05 -0.0020277066585300155 0 -8.9724289176099269e-05 -0.0019010366402407602 0 8.946653259457749e-05 -0.0012041590367732702 0 0.00017895681088240378 -0.0011025453773856051 0 0.0001725469710938544 -0.0012652028465455442 0 0.00025806862337057556 -0.0012501999299713855 0 0.0001725469710938544 -0.0012652028465455442 0 0.00017895681088240378 -0.0011025453773856051 0 0.00040344521454054321 -0.0021794150168939564 0 0.00042712125403144652 -0.0020238163687602865 0 0.00047609714852462725 -0.0021989391237610973 0 -0.00040575825709557501 -0.0021759861465779481 0 -0.00031509227538346429 -0.0022170245313727971 0 -0.00041388064529829005 -0.0023029058974595681 0 0.00052162407667840564 -0.0021056603038914698 0 0.00047609714852462725 -0.0021989391237610973 0 0.00042712125403144652 -0.0020238163687602865 0 -0.00035641582501219507 -0.0023798029847628579 0 -0.00041388064529829005 -0.0023029058974595681 0 -0.00031509227538346429 -0.0022170245313727971 0 0.00031644759396426273 -0.00081827444434404671 0 0.00023588251826950427 -0.00076614591919718276 0 0.00029644736142110325 -0.00069988362241001968 0 -0.00031345383188277083 -0.00081479828895264169 0 -0.00036216460075113942 -0.0009720051981858698 0 -0.00037177948040063527 -0.00081438586801995077 0 0.00023661964209979866 -0.00061833923624609872 0 0.00029644736142110325 -0.00069988362241001968 0 0.00023588251826950427 -0.00076614591919718276 0 -0.00043260561836426975 -0.00091960565912217989 0 -0.00037177948040063527 -0.00081438586801995077 0 -0.00036216460075113942 -0.0009720051981858698 0 0.00048164564953063235 -0.0028743420872718011 0 0.00040909485900173935 -0.002844390130163077 0 0.0004803169536294167 -0.0027196080391649635 0 -0.00079184872759898708 -0.0023426641033797938 0 -0.00077682447212149366 -0.0022209786082926157 0 -0.00070834470150709652 -0.0023341275025496348 0 0.00059892776392307515 -0.00078910638393693555 0 0.00064400613233717553 -0.00091287538771022466 0 0.00053432875045041333 -0.00077664298698293475 0 -0.0001627835574765599 -0.00024617284625160304 0 -0.00013205205644964248 -0.00023513189239124951 0 -0.00021697687319070176 -0.00036187141069169852 0 0.00019740513665006203 -0.0023027851894740375 0 0.00028480598676431453 -0.0023049897328901066 0 0.00023910224541023295 -0.0024794828214616997 0 0.00033680601894731766 -0.0024249863651859701 0 0.00023910224541023295 -0.0024794828214616997 0 0.00028480598676431453 -0.0023049897328901066 0 -0.00047928347418482411 -0.0018333993699789499 0 -0.00048077044528846934 -0.0019801912975497046 0 -0.00057870450039724576 -0.0019160944582246446 0 -0.00054775361686033668 -0.0020755805130907787 0 -0.00057870450039724576 -0.0019160944582246446 0 -0.00048077044528846934 -0.0019801912975497046 0 0.0004389233753488383 -0.0011754856757203861 0 0.00041788234800544982 -0.0010293739854397945 0 0.00052286849559000394 -0.0011278733376518073 0 0.00046307202519957542 -0.00095780205707032449 0 0.00052286849559000394 -0.0011278733376518073 0 0.00041788234800544982 -0.0010293739854397945 0 -0.0001369340435295048 -0.00066873311203025001 0 -0.00019830343637198099 -0.00067607141081342395 0 -0.00013990163678419425 -0.00051469752809911028 0 -0.00021345550415729968 -0.00057472040935578215 0 -0.00013990163678419425 -0.00051469752809911028 0 -0.00019830343637198099 -0.00067607141081342395 0 0.00082020835890376338 -0.002074327246122277 0 0.00083814399490039695 -0.0019087846670942888 0 0.00088774318195372409 -0.0020131291985550121 0 7.3888189905563654e-05 -0.00016294996378556889 0 3.9779356076201043e-05 -0.00013250620681079148 0 2.9257153500331838e-05 -7.0183018986880768e-05 0 -0.0003170449393458318 -0.0029276548245647264 0 -0.00021165573789639876 -0.0029680599124023654 0 -0.00027534785028179057 -0.0030612611343863298 0 -0.00073072035918272298 -0.0010840394313471316 0 -0.00078333947204544427 -0.0012563774139315771 0 -0.00081043874517598333 -0.0011783770141123283 0 0.00030273378827737173 -0.0019638683601117092 0 0.00035282000654822474 -0.0020906930574803788 0 0.00029050125536824909 -0.0021451188318232714 0 -0.00028074047018169536 -0.0019933855715038255 0 -0.0003539053850133527 -0.0020843597624077307 0 -0.00038908199818422473 -0.0019806264185041659 0 0.00023933241828704091 -0.00096772828162014761 0 0.00028869488882764114 -0.00089490524378084716 0 0.0003336605103698795 -0.0010033822682749042 0 -0.0002586114600436276 -0.0010012283013494147 0 -0.0002856361051849484 -0.00088895831406174224 0 -0.00022570728122113022 -0.00082580022404017575 0 0.0004769666345192607 -0.0024967739291329497 0 0.00042193377426716935 -0.0023385922519879813 0 0.00049452164596165411 -0.002317485701776415 0 -0.00058483350166986948 -0.0023172169110463503 0 -0.00049685183372756569 -0.0022148165087982922 0 -0.00048147482322929671 -0.0023392799738034659 0 0.00043519835056319862 -0.00073192306437088849 0 0.00038572517432121681 -0.00080382916067189239 0 0.00034164643038991818 -0.00068049196143406146 0 -0.00028998434940489219 -0.0005310386896931348 0 -0.00029409202945560443 -0.00066690425507301909 0 -0.00035831510301716609 -0.00070565640703616674 0 -0.00012651142438400965 -0.0016426337546074309 0 -9.86236849161586e-05 -0.0017539723373416456 0 -0.00018854183058874678 -0.0017304267304054436 0 -6.5951286835294966e-09 -1.0906471264455149e-07 0 -3.4632956758570916e-09 -1.0710054079083449e-07 0 -2.4875589693873208e-05 -8.7655934081652101e-05 0 0.00088391595120453569 -0.0013056870603270973 0 0.00090612802692378706 -0.0014522091185749392 0 0.00082112987420579367 -0.0013030167477024966 0 -0.0009405602012844288 -0.001905010605637671 0 -0.00093315843271191601 -0.0017511596913104492 0 -0.00087047127818611243 -0.0018762841561608375 0 0.00020293060651758202 -0.0031732069219134436 0 0.00010175067290604827 -0.0031719391714969299 0 0.00018821327626978532 -0.003033357974667875 0 0.00031070373419221658 -0.00025518429700560489 0 0.00047401208225421023 -0.00043460304554743126 0 0.00038812391851437988 -0.00033259684594005796 0 4.0145306997288899e-09 -9.4672865616426246e-08 0 -5.2269176200451174e-08 -1.3473757352182988e-07 0 -0.00012965144858198359 -9.6391383772559026e-05 0 0.00086992177018707759 -0.0031866300668666504 0 0.00077979966398305318 -0.0031857720329808246 0 0.00078931400051842065 -0.0030543694717434528 0 -0.00095766924751935199 -0.0030245766909658906 0 -0.00095612328600134253 -0.0028619517988648343 0 -0.00088590756740147846 -0.0028785775381975284 0 0.00095588752125184116 -0.0028619922012390335 0 0.00095739949246126854 -0.0030245982066632827 0 0.0008856843747830159 -0.0028785868560290574 0 5.2264436262302841e-08 -1.3352538810876372e-07 0 -4.4862462657799876e-09 -9.5063211879761764e-08 0 0.0001294662966420742 -9.5952008973427001e-05 0 -0.00078003733712977139 -0.0031857737092230469 0 -0.00087017935194576334 -0.0031866014145533394 0 -0.00078959447495109399 -0.003054358146809258 0 -0.00047349243429784004 -0.00043490226139074014 0 -0.00031038919594153264 -0.0002553588261308423 0 -0.00038754808982671999 -0.00033280667576445709 0 0.00075686774334306423 -0.0023234428323182306 0 0.00064961459009200539 -0.0022825899505151798 0 0.00069490585187942215 -0.0021768072870401037 0 0.00016767486668894775 -0.00026068431294935888 0 0.00023531120519305009 -0.00042523517145318438 0 0.00017073865203029643 -0.00034867984828060013 0 -0.0004719412966342061 -0.0028087319317122721 0 -0.00045305339701390539 -0.0026123252496309383 0 -0.00038758772922442813 -0.002692272796748202 0 -0.00059542420112446907 -0.00080230877118921649 0 -0.00050645434137421008 -0.00079072504524888368 0 -0.00057994314327721656 -0.00091739997645652453 0 2.9770922585392273e-05 -0.00213891381965099 0 8.9846352575729524e-05 -0.0023112011062653821 0 -1.884599660199989e-05 -0.0022775988502613011 0 -0.00038051007334161856 -0.0015401087498908802 0 -0.00048030055422681111 -0.0016542387468103934 0 -0.00045311742399254106 -0.0014707624100164486 0 0.00038117581307519607 -0.0014394377508003722 0 0.00046281282134393769 -0.0013554441730578722 0 0.00045716083955472898 -0.0015252749757867319 0 -2.5277131512805009e-05 -0.00079202162704290074 0 -6.0941098103258208e-05 -0.00065313612766891929 0 9.9888565916735673e-06 -0.00067952702757531451 0 0.0003241359118176364 -0.0016728497247565613 0 0.00023287641116183187 -0.0016600593791006727 0 0.00027815333763779989 -0.0014899493975559152 0 9.5774978301468394e-05 -0.00091055041892204071 0 0.00015988905091549702 -0.00095404478164576203 0 8.1849837149120054e-05 -0.0010547639401381206 0 -0.00017227885488378704 -0.0014378555571872868 0 -0.00014281987464780682 -0.0012898188657159179 0 -7.3056297333518185e-05 -0.0013739100859307613 0 0.00028043983873469628 -0.0026534416019993214 0 0.00023910224541023295 -0.0024794828214616997 0 0.00033879027271977331 -0.0025621753648255329 0 -0.00067411782149354421 -0.0019974229287013788 0 -0.00057870450039724576 -0.0019160944582246446 0 -0.00062405701348686301 -0.0020877315691018835 0 0.00060137331651120287 -0.0010875135645037452 0 0.00052286849559000394 -0.0011278733376518073 0 0.00053324738593352639 -0.00097451982798305936 0 -0.00012785210648729733 -0.00037197083835080252 0 -0.00013990163678419422 -0.00051469752809911028 0 -0.00018151101475223495 -0.00045506862512928611 0 0.00020293060651758202 -0.0031732069219134436 0 0.00018821327626978532 -0.003033357974667875 0 0.00027719919302118866 -0.0030247828646768064 0 -0.0009405602012844288 -0.001905010605637671 0 -0.00087047127818611243 -0.0018762841561608375 0 -0.00086970857505789742 -0.0020153414673231541 0 0.00088391595120453569 -0.0013056870603270973 0 0.00082112987420579367 -0.0013030167477024966 0 0.00079253449628950495 -0.0011675339792249976 0 -6.5951286835294966e-09 -1.0906471264455149e-07 0 -2.4875589693873208e-05 -8.7655934081652101e-05 0 -3.8933065720589081e-05 -9.3891658746239441e-05 0 0.00030273378827737173 -0.0019638683601117092 0 0.00022323901989155259 -0.0018421656275777662 0 0.00030661740081640374 -0.0018011752752012822 0 0.00023933241828704091 -0.00096772828162014761 0 0.00017895681088240378 -0.0011025453773856051 0 0.00015988905091549702 -0.00095404478164576203 0 0.00013122441725133246 -0.0019340997632972087 0 0.00021772478516588872 -0.0020380852862348264 0 0.00014161399486376205 -0.0021398473485231251 0 -0.00027599374883926191 -0.0017048148908407079 0 -0.00033249423548774965 -0.0018488041785813568 0 -0.00038428196515634015 -0.0017234109505856062 0 0.00025806862337057556 -0.0012501999299713855 0 0.00029002459376238946 -0.0011164045754338454 0 0.00036060959540950411 -0.0012560568156157728 0 -0.00011363733406396784 -0.00099594963944330656 0 -0.00017790486196159693 -0.00091622332528159937 0 -0.00010750548519785735 -0.00081496340334287238 0 9.5160429154040149e-09 -1.0691296036668841e-07 0 2.9257153500331838e-05 -7.0183018986880768e-05 0 3.9779356076201043e-05 -0.00013250620681079148 0 0.00094032541914745155 -0.0019052677542305252 0 0.00088774318195372409 -0.0020131291985550121 0 0.00083814399490039695 -0.0019087846670942888 0 -0.00088449572718692321 -0.0013060032125232382 0 -0.00081043874517598333 -0.0011783770141123283 0 -0.00078333947204544427 -0.0012563774139315771 0 -0.00020312971685527585 -0.0031732203988634718 0 -0.00027534785028179057 -0.0030612611343863298 0 -0.00021165573789639876 -0.0029680599124023654 0 -7.1488877312889513e-08 -0.0024236596506719997 0 -1.884599660199989e-05 -0.0022775988502613011 0 8.9846352575729524e-05 -0.0023112011062653821 0 -0.0005352329163486356 -0.0015162927909521686 0 -0.00045311742399254106 -0.0014707624100164486 0 -0.00048030055422681111 -0.0016542387468103934 0 0.00053499345043223122 -0.0015163658139159108 0 0.00045716083955472898 -0.0015252749757867319 0 0.00046281282134393769 -0.0013554441730578722 0 -1.1760545805681251e-07 -0.00055364278018469075 0 9.9888565916735673e-06 -0.00067952702757531451 0 -6.0941098103258208e-05 -0.00065313612766891929 0 -0.00021112529816156081 -0.0023046394787263674 0 -0.0001349943666156079 -0.002425390387303225 0 -0.00022725955216216809 -0.0025049278025962378 0 -0.00043698080025714983 -0.0011531080694529958 0 -0.0005171125567867928 -0.0012939300246295402 0 -0.00053963183518157998 -0.0011514147563124778 0 0.00048051799085899492 -0.0018559408868702876 0 0.00054572838747306632 -0.0017390539730775885 0 0.00059218494184644886 -0.0018982717870596592 0 0.00014552888384023851 -0.00066671944587206515 0 8.2113589411583076e-05 -0.00055353171436538999 0 0.0001285302489337105 -0.00049256017996937313 0 0.00055302385500334518 -0.0022284525185347964 0 0.00049452164596165411 -0.002317485701776415 0 0.00047609714852462725 -0.0021989391237610973 0 -0.00042678177697388393 -0.0024384531368363371 0 -0.00048147482322929671 -0.0023392799738034659 0 -0.00041388064529829005 -0.0023029058974595681 0 0.00027250762832919587 -0.00057651702131293853 0 0.00034164643038991818 -0.00068049196143406146 0 0.00029644736142110325 -0.00069988362241001968 0 -0.00043263675194116523 -0.00080911902736727844 0 -0.00035831510301716609 -0.00070565640703616663 0 -0.00037177948040063527 -0.00081438586801995077 0 -1.620826943728159e-05 -0.0017723811220295618 0 6.0527879671882881e-05 -0.0016450801332995755 0 7.0339611769762146e-05 -0.0018107299332393472 0 -0.00017227885488378704 -0.0014378555571872868 0 -7.3056297333518172e-05 -0.0013739100859307613 0 -9.1350033027877645e-05 -0.0015158841514198251 0 0.00033680601894731766 -0.0024249863651859701 0 0.00033879027271977331 -0.0025621753648255329 0 0.00023910224541023295 -0.0024794828214616997 0 -0.00054775361686033668 -0.0020755805130907787 0 -0.00062405701348686301 -0.0020877315691018835 0 -0.00057870450039724576 -0.0019160944582246446 0 0.00046307202519957542 -0.00095780205707032449 0 0.00053324738593352639 -0.00097451982798305936 0 0.00052286849559000394 -0.0011278733376518073 0 -0.00021345550415729968 -0.00057472040935578215 0 -0.00018151101475223495 -0.00045506862512928611 0 -0.00013990163678419425 -0.00051469752809911028 0 0.00036758843048754423 -0.00046008547618898413 0 0.00046337445882911111 -0.00054873017482268138 0 0.00047377976170886988 -0.00065026820008666204 0 -0.00036493910116945687 -0.0004564062019229686 0 -0.00026172975515988475 -0.00032365956302427142 0 -0.00026911099576600278 -0.00039280771801895588 0 0.00017090856837384441 -0.0014057060323917272 0 0.00023774059342423638 -0.0013550170466618489 0 0.00027815333763779989 -0.0014899493975559152 0 0.00018640652611349654 -0.0015328500950359161 0 0.00017090856837384441 -0.0014057060323917272 0 0.00027815333763779989 -0.0014899493975559152 0 6.9180237903040243e-05 -0.0027828571652343823 0 8.1501350868425695e-05 -0.0026391014102307704 0 0.00016647962980567433 -0.0027317426452760861 0 0.0001361061894713847 -0.0025535885447121225 0 0.00016647962980567433 -0.0027317426452760861 0 8.1501350868425695e-05 -0.0026391014102307704 0 -0.00073433293566263426 -0.0016682790229468809 0 -0.00065880719289241035 -0.0016726453719781585 0 -0.00071354821083489787 -0.0018188952360790327 0 -0.00061613975015371403 -0.0017528739647658864 0 -0.00071354821083489787 -0.0018188952360790327 0 -0.00065880719289241035 -0.0016726453719781585 0 0.00071824889556806534 -0.0014485243324925056 0 0.00064042942946899442 -0.0014090817612962255 0 0.00067375357072250357 -0.0012857780962360539 0 0.00058548085752862925 -0.0013084277616605504 0 0.00067375357072250357 -0.0012857780962360539 0 0.00064042942946899442 -0.0014090817612962255 0 -2.4363362521664638e-05 -0.00026326093480754769 0 -3.6449244583690442e-05 -0.00037617350907545751 0 -6.5013662564294359e-05 -0.00030409287883359943 0 -7.0640429328080033e-05 -0.00044641459377711083 0 -6.5013662564294373e-05 -0.00030409287883359943 0 -3.6449244583690442e-05 -0.00037617350907545751 0 0.00040118448516690444 -0.0026507674522662861 0 0.00040909485900173935 -0.002844390130163077 0 0.00033911893370408146 -0.0027722066908403556 0 -0.00067215875013849002 -0.0021972346993889801 0 -0.00077682447212149366 -0.0022209786082926157 0 -0.00073833872278139252 -0.0021017883332253421 0 0.00055203732991761061 -0.00088657786005141685 0 0.00064400613233717553 -0.00091287538771022466 0 0.00064208574208455876 -0.0010135801562098624 0 -0.0001916191626712909 -0.00038591379583373327 0 -0.00013205205644964245 -0.00023513189239124951 0 -0.00012502511293835603 -0.00028149831845792136 0 0.00066635695118319937 -0.0024276438710834139 0 0.00056613118125088712 -0.0023713967372777579 0 0.00064961459009200539 -0.0022825899505151798 0 -0.00053716056811497885 -0.0026465367351538949 0 -0.0005094297399547194 -0.0024664032022851741 0 -0.00045305339701390539 -0.0026123252496309383 0 0.00027459476901054537 -0.00040635986960119717 0 0.00032374136494511173 -0.00056232021746060871 0 0.00023531120519305009 -0.00042523517145318438 0 -0.00046987687615582642 -0.00065230745084071424 0 -0.00040330904432888081 -0.00066931105364547241 0 -0.00050645434137421008 -0.00079072504524888368 0 0.00059892776392307515 -0.00078910638393693555 0 0.00053432875045041333 -0.00077664298698293475 0 0.00047377976170886988 -0.00065026820008666204 0 -0.0001627835574765599 -0.00024617284625160304 0 -0.00021697687319070176 -0.00036187141069169852 0 -0.00026911099576600278 -0.00039280771801895588 0 -4.7230753810313073e-06 -0.0026271693719682279 0 -9.3807569336154601e-05 -0.0026806582154222584 0 -6.8818007985554957e-05 -0.0025179481371474951 0 -0.00064504549486156808 -0.0015318348283676006 0 -0.00066120985080646744 -0.0013949073896574442 0 -0.00057807031104236816 -0.0014143080662237738 0 0.00064586484869182462 -0.0015468900221179203 0 0.00068212112055559778 -0.0016966631271894115 0 0.00059264751523996643 -0.0016392203272593518 0 2.6784109086716131e-06 -0.00038316881244239778 0 4.0549961096357272e-05 -0.00034162350509401874 0 3.7694571868944575e-05 -0.00047305610583533834 0 2.9770922585392273e-05 -0.00213891381965099 0 -4.3915800352792499e-05 -0.0020277066585300155 0 2.3336222552873992e-05 -0.0019436431956030519 0 -0.00038051007334161856 -0.0015401087498908802 0 -0.00031469911072840902 -0.0014095022007475446 0 -0.00027402750291195479 -0.0015149933312106256 0 0.00020653795605750705 -0.0026114494386482038 0 0.00028043983873469628 -0.0026534416019993214 0 0.00025089949525685127 -0.0027611274542043945 0 -0.00065011603484476093 -0.0018732247374492344 0 -0.00067411782149354421 -0.0019974229287013788 0 -0.00073142569925161826 -0.0019574340869782832 0 0.00060060384500537926 -0.0012015013639978846 0 0.00060137331651120287 -0.0010875135645037452 0 0.00066705169051560465 -0.0011550816902007781 0 -9.8822188782295891e-05 -0.000401886776925382 0 -0.00012785210648729733 -0.00037197083835080252 0 -9.2624593469776346e-05 -0.0002850983751088052 0 0.00038117581307519607 -0.0014394377508003722 0 0.00027815333763779989 -0.0014899493975559152 0 0.00030782107029682257 -0.0013674622500370855 0 0.00014447718197652627 -0.0016146567162684808 0 6.0527879671882881e-05 -0.0016450801332995755 0 0.00010456012190392397 -0.0014968108362765525 0 6.2935287202912692e-06 -0.0014672456757785293 0 1.3965530567187955e-05 -0.0012956293999616462 0 9.0280649003333303e-05 -0.0013505120620707265 0 0.00016647962980567433 -0.0027317426452760861 0 0.00020653795605750702 -0.0026114494386482038 0 0.00025089949525685127 -0.0027611274542043945 0 -0.00071354821083489787 -0.0018188952360790327 0 -0.00065011603484476093 -0.0018732247374492344 0 -0.00073142569925161826 -0.0019574340869782832 0 0.00067375357072250357 -0.0012857780962360539 0 0.00060060384500537926 -0.0012015013639978846 0 0.00066705169051560465 -0.0011550816902007781 0 -6.5013662564294359e-05 -0.00030409287883359943 0 -9.8822188782295891e-05 -0.000401886776925382 0 -9.2624593469776346e-05 -0.0002850983751088052 0 -0.00027599374883926191 -0.0017048148908407079 0 -0.00027402750291195479 -0.0015149933312106256 0 -0.00019552656223413445 -0.0015883676767273493 0 -0.00013939183635436236 -0.0025659464903854991 0 -6.8818007985554957e-05 -0.0025179481371474951 0 -9.3807569336154601e-05 -0.0026806582154222584 0 -0.00059167729402967385 -0.001305053582147354 0 -0.00057807031104236816 -0.0014143080662237738 0 -0.00066120985080646744 -0.0013949073896574442 0 0.00062289266186776177 -0.0017592347078681382 0 0.00059264751523996643 -0.0016392203272593518 0 0.00068212112055559778 -0.0016966631271894115 0 7.1405162267799808e-05 -0.00043508042229394939 0 3.7694571868944575e-05 -0.00047305610583533834 0 4.0549961096357272e-05 -0.00034162350509401874 0 0.00059892776392307515 -0.00078910638393693555 0 0.00054417569224700889 -0.00065933623095940736 0 0.00064989710216645593 -0.00075874262705995308 0 0.00052481220672922395 -0.00056737917469982504 0 0.00064989710216645593 -0.00075874262705995308 0 0.00054417569224700889 -0.00065933623095940736 0 -0.0001627835574765599 -0.00024617284625160304 0 -0.00019472754127842611 -0.00025483807271982947 0 -9.9504521082780455e-05 -0.00012470343639182178 0 -0.00017853426421352291 -0.000197035090066203 0 -9.9504521082780455e-05 -0.00012470343639182178 0 -0.00019472754127842611 -0.00025483807271982947 0 6.2935287202912692e-06 -0.0014672456757785293 0 9.0280649003333303e-05 -0.0013505120620707265 0 0.00010456012190392397 -0.0014968108362765525 0 -0.00036493910116945687 -0.0004564062019229686 0 -0.000464303702507103 -0.00054889324341050308 0 -0.0003904632347367407 -0.00041871324036974773 0 0.00036758843048754423 -0.00046008547618898413 0 0.00026079468667458932 -0.00032165286905726318 0 0.0003013636133175451 -0.00032674074757567211 0 0.00048164564953063235 -0.0028743420872718011 0 0.0004803169536294167 -0.0027196080391649635 0 0.00055473950702073405 -0.0028068952521829835 0 0.00055954865778720957 -0.0026397297641718468 0 0.00055473950702073405 -0.0028068952521829835 0 0.0004803169536294167 -0.0027196080391649635 0 -0.00079184872759898708 -0.0023426641033797938 0 -0.00070834470150709652 -0.0023341275025496348 0 -0.00075420193440807308 -0.0024641036577543632 0 -0.00066215527182431836 -0.002465973261974255 0 -0.00075420193440807308 -0.0024641036577543632 0 -0.00070834470150709652 -0.0023341275025496348 0 0.00018592031016218479 -0.00020050333948737133 0 0.00018426291978382067 -0.00024252321552775831 0 0.00010104274920234435 -0.00012683139931952983 0 -0.00051695518679291288 -0.00055556560204750652 0 -0.00055730785130677458 -0.00067450901227866214 0 -0.00065265527563985776 -0.00076634785750262881 0 0.00081008435081822211 -0.0025917607862388455 0 0.00078348395211648002 -0.0024612272065259243 0 0.00085507127593514366 -0.0024305128254473096 0 -0.00062749028928033512 -0.0029122053819392391 0 -0.00055222438146057713 -0.0028616473479191719 0 -0.00053226622733347116 -0.0029942443924140054 0 0.00016767486668894775 -0.00026068431294935888 0 0.00010104274920234435 -0.00012683139931952983 0 0.00018426291978382067 -0.00024252321552775831 0 -0.00059542420112446907 -0.00080230877118921649 0 -0.00065265527563985776 -0.00076634785750262881 0 -0.00055730785130677458 -0.00067450901227866214 0 0.00075686774334306423 -0.0023234428323182306 0 0.00085507127593514366 -0.0024305128254473096 0 0.00078348395211648002 -0.0024612272065259243 0 -0.0004719412966342061 -0.0028087319317122721 0 -0.00053226622733347116 -0.0029942443924140054 0 -0.00055222438146057713 -0.0028616473479191719 0 0.00047609714852462725 -0.0021989391237610973 0 0.00042193377426716935 -0.0023385922519879813 0 0.00040344521454054321 -0.0021794150168939564 0 0.00049452164596165411 -0.002317485701776415 0 0.00042193377426716935 -0.0023385922519879813 0 0.00047609714852462725 -0.0021989391237610973 0 -0.00041388064529829005 -0.0023029058974595681 0 -0.00049685183372756569 -0.0022148165087982922 0 -0.00040575825709557501 -0.0021759861465779481 0 -0.00048147482322929671 -0.0023392799738034659 0 -0.00049685183372756569 -0.0022148165087982922 0 -0.00041388064529829005 -0.0023029058974595681 0 0.00029644736142110325 -0.00069988362241001968 0 0.00038572517432121681 -0.00080382916067189239 0 0.00031644759396426273 -0.00081827444434404671 0 0.00034164643038991818 -0.00068049196143406146 0 0.00038572517432121681 -0.00080382916067189239 0 0.00029644736142110325 -0.00069988362241001968 0 -0.00037177948040063527 -0.00081438586801995077 0 -0.00029409202945560443 -0.00066690425507301909 0 -0.00031345383188277083 -0.00081479828895264169 0 -0.00035831510301716609 -0.00070565640703616674 0 -0.00029409202945560443 -0.00066690425507301909 0 -0.00037177948040063527 -0.00081438586801995077 0 0.00075686774334306423 -0.0023234428323182306 0 0.00069490585187942215 -0.0021768072870401037 0 0.00077524400704142085 -0.0021818109892688619 0 -0.0004719412966342061 -0.0028087319317122721 0 -0.00038758772922442808 -0.002692272796748202 0 -0.00038552201776265274 -0.0028417590153653081 0 0.00016767486668894775 -0.00026068431294935888 0 0.00017073865203029643 -0.00034867984828060013 0 0.00012316718462876487 -0.00023044393483102299 0 -0.00059542420112446907 -0.00080230877118921649 0 -0.00057994314327721656 -0.00091739997645652464 0 -0.00065794509328762616 -0.00095389463488377267 0 0.00017090856837384441 -0.0014057060323917272 0 9.0280649003333303e-05 -0.0013505120620707265 0 0.0001725469710938544 -0.0012652028465455442 0 0.00025806862337057556 -0.0012501999299713855 0 0.00036060959540950411 -0.0012560568156157728 0 0.00030782107029682257 -0.0013674622500370855 0 0.00038117581307519607 -0.0014394377508003722 0 0.00030782107029682257 -0.0013674622500370855 0 0.00036060959540950411 -0.0012560568156157728 0 0.00064638163196330039 -0.0026172650533068074 0 0.00061693266311915382 -0.0027437463811662236 0 0.00055954865778720957 -0.0026397297641718468 0 -0.00064659221060665124 -0.0026171964703553801 0 -0.00071823565794452353 -0.0025691481419822383 0 -0.00066215527182431836 -0.002465973261974255 0 0.00047377976170886988 -0.00065026820008666204 0 0.00046337445882911111 -0.00054873017482268138 0 0.00054417569224700889 -0.00065933623095940736 0 -0.00026911099576600278 -0.00039280771801895588 0 -0.00026172975515988475 -0.00032365956302427142 0 -0.00019472754127842611 -0.00025483807271982947 0 0.00030337429493610362 -0.00027087073622507888 0 0.00023938898871842277 -0.00023245046836977923 0 0.00014498963196288905 -0.00013569179793366664 0 -0.00030652904346236228 -0.00027494563639786802 0 -0.00042015495669773352 -0.00041737399102033444 0 -0.00046593169824080084 -0.00044357678212739746 0 0.00067389869452946923 -0.0019974666943038443 0 0.00075370311223983851 -0.0019503363115518765 0 0.00074418576431656692 -0.0020810352900631694 0 0.00012782103866781826 -0.00037275465643833901 0 8.1880326796635511e-05 -0.00025231096883502957 0 0.00011764603006365955 -0.00027188136417996285 0 -0.00028062436653392256 -0.0026534597064020796 0 -0.00024477758964204944 -0.0028034766984355759 0 -0.00032607148796529094 -0.0027836595911389941 0 -0.00060162748909066345 -0.0010869865821932195 0 -0.00069085742368472436 -0.0011730404711124641 0 -0.00065263517346959214 -0.0010378850417097085 0 0.00018592031016218479 -0.00020050333948737133 0 0.0003013636133175451 -0.00032674074757567211 0 0.00026079468667458932 -0.00032165286905726318 0 -0.00051695518679291288 -0.00055556560204750652 0 -0.0003904632347367407 -0.00041871324036974773 0 -0.00046430370250710306 -0.00054889324341050308 0 0.00049971701822042311 -0.0031797913036103946 0 0.00040222680870351636 -0.0031772318271614439 0 0.00043561878940065951 -0.0030147286859845165 0 -0.00095200396702903073 -0.0023773398007758172 0 -0.00094933076578008059 -0.0022180791942631346 0 -0.00086635053187971475 -0.0022707391708250177 0 0.00076128644878023738 -0.00088135946592547969 0 0.00081368327024387702 -0.001022745962672486 0 0.00071776380238413586 -0.00092166973293204813 0 -1.5991230979162789e-08 -1.0710814100405048e-07 0 -1.0550984275790519e-08 -1.1081104416393212e-07 0 -7.2063184721857986e-05 -0.00011118377431365761 0 0.00010175067290604827 -0.0031719391714969299 0 3.0457913455094625e-05 -0.0030445509569648013 0 0.00010721393429091981 -0.002996037231490908 0 -0.00093315843271191601 -0.0017511596913104492 0 -0.00086397843903783826 -0.0016343764708018668 0 -0.00084614047547968167 -0.0017481554711195543 0 0.00090612802692378706 -0.0014522091185749392 0 0.00085628810011685694 -0.0015424912952716854 0 0.00081929880074847045 -0.0014204193867689608 0 -3.4632956758570916e-09 -1.0710054079083449e-07 0 -3.1085595738449056e-06 -7.8583985890100518e-05 0 -1.668404067745125e-05 -0.00011361814091021157 0 -2.2459724447415779e-06 -0.0010288095568887184 0 2.3940158010921338e-05 -0.00090458473117921477 0 8.1849837149120054e-05 -0.0010547639401381206 0 0.00081008435081822211 -0.0025917607862388455 0 0.00075852145021920064 -0.002703034603806765 0 0.00073416695938222673 -0.0025614010423551012 0 -0.00062749028928033512 -0.0029122053819392391 0 -0.00069207056405881477 -0.0028198243141036947 0 -0.00061220638942838029 -0.0027729932070893124 0 6.2935287202912692e-06 -0.0014672456757785293 0 0.00010456012190392397 -0.0014968108362765525 0 6.0527879671882881e-05 -0.0016450801332995755 0 0.00074647947587935695 -0.0012305724447958947 0 0.00082112987420579367 -0.0013030167477024966 0 0.00074861857259722869 -0.0013516001737369442 0 0.00081929880074847045 -0.0014204193867689608 0 0.00074861857259722869 -0.0013516001737369442 0 0.00082112987420579367 -0.0013030167477024966 0 0.00068861998470988515 -0.0031842566708537852 0 0.00064403286815217125 -0.0030379025697224774 0 0.0007184969603647041 -0.0030119012196690893 0 -0.0009551932569434959 -0.0026996710766861776 0 -0.00087752166245888476 -0.0026221191256077256 0 -0.00086297215478396835 -0.0027522570353880312 0 -0.00062749028928033512 -0.0029122053819392391 0 -0.00063087511620852591 -0.0030527385533625361 0 -0.00070879344552390281 -0.0029898832858315638 0 0.00081008435081822211 -0.0025917607862388455 0 0.00088526053828840822 -0.0025990879116474562 0 0.00085110382370503319 -0.0027346876561963481 0 -0.00051695518679291288 -0.00055556560204750652 0 -0.00059376715889499908 -0.0006184613682044506 0 -0.00046593169824080084 -0.00044357678212739746 0 0.00018592031016218479 -0.00020050333948737133 0 8.5989835712338151e-05 -8.9617092255984623e-05 0 0.00014498963196288905 -0.00013569179793366664 0 -0.00068881009920829879 -0.0031842454849948161 0 -0.00070879344552390281 -0.0029898832858315638 0 -0.00063087511620852591 -0.0030527385533625361 0 0.00095502555457615136 -0.0026997819459593582 0 0.00085110382370503319 -0.0027346876561963481 0 0.00088526053828840822 -0.0025990879116474562 0 -0.00060055260211129167 -0.000594678413155706 0 -0.00046593169824080089 -0.00044357678212739751 0 -0.00059376715889499908 -0.0006184613682044506 0 2.0599778789761792e-08 -1.0159003373994109e-07 0 0.00014498963196288905 -0.00013569179793366664 0 8.5989835712338151e-05 -8.9617092255984623e-05 0 0.00060166823154587706 -0.00059394168999577336 0 0.00059505785521256935 -0.00062113688334100277 0 0.00046999396155397743 -0.0004516410307566974 0 -2.0428578688043048e-08 -1.0040965506493136e-07 0 -8.6664694616657374e-05 -8.9912165193862064e-05 0 -0.00015441601974468152 -0.00014545118302681818 0 0.00052481220672922395 -0.00056737917469982504 0 0.00046999396155397743 -0.0004516410307566974 0 0.00059505785521256935 -0.00062113688334100277 0 -0.00017853426421352291 -0.000197035090066203 0 -0.00015441601974468152 -0.00014545118302681818 0 -8.6664694616657374e-05 -8.9912165193862064e-05 0 -0.00018628667146978019 -0.0018651376038413662 0 -9.8623684916158586e-05 -0.0017539723373416456 0 -8.9724289176099269e-05 -0.0019010366402407602 0 6.2935287202912692e-06 -0.0014672456757785293 0 6.0527879671882881e-05 -0.0016450801332995755 0 -3.9878560479109684e-05 -0.0016302110703383904 0 -0.00030827463819877853 -0.0012840707993475012 0 -0.00034590826881571743 -0.0011310741169779817 0 -0.00026086401375056652 -0.0011514294808117529 0 -0.0002586114600436276 -0.0010012283013494147 0 -0.00026086401375056652 -0.0011514294808117529 0 -0.00034590826881571743 -0.0011310741169779817 0 -0.00019236674027036407 -0.0011978988439546349 0 -0.00018837683773878275 -0.0010695067613974156 0 -0.00012674481917499447 -0.0011502971822532858 0 9.5774978301468394e-05 -0.00091055041892204071 0 8.1849837149120054e-05 -0.0010547639401381206 0 2.3940158010921338e-05 -0.00090458473117921477 0 0.00067389869452946923 -0.0019974666943038443 0 0.00074418576431656692 -0.0020810352900631694 0 0.00069490585187942215 -0.0021768072870401037 0 0.00012782103866781826 -0.00037275465643833901 0 0.00011764603006365955 -0.00027188136417996285 0 0.00017073865203029643 -0.00034867984828060013 0 -0.00028062436653392256 -0.0026534597064020796 0 -0.00032607148796529094 -0.0027836595911389941 0 -0.00038758772922442813 -0.002692272796748202 0 -0.00060162748909066345 -0.0010869865821932195 0 -0.00065263517346959214 -0.0010378850417097085 0 -0.00057994314327721656 -0.00091739997645652453 0 -0.00017227885488378704 -0.0014378555571872868 0 -0.00019552656223413445 -0.0015883676767273493 0 -0.00027402750291195479 -0.0015149933312106256 0 -0.00013939183635436236 -0.0025659464903854991 0 -0.00022725955216216809 -0.0025049278025962378 0 -0.0001349943666156079 -0.0024253903873032254 0 0.00062289266186776177 -0.0017592347078681382 0 0.00059218494184644886 -0.0018982717870596592 0 0.00054572838747306632 -0.0017390539730775885 0 -0.00059167729402967385 -0.001305053582147354 0 -0.00053963183518157998 -0.0011514147563124778 0 -0.0005171125567867928 -0.0012939300246295402 0 7.1405162267799808e-05 -0.00043508042229394939 0 0.0001285302489337105 -0.00049256017996937313 0 8.2113589411583076e-05 -0.00055353171436538988 0 0.0007184969603647041 -0.0030119012196690893 0 0.00064403286815217136 -0.0030379025697224774 0 0.00069346706329462022 -0.0028968573582882451 0 -0.00086297215478396835 -0.0027522570353880312 0 -0.00087752166245888476 -0.0026221191256077256 0 -0.00080087474595848045 -0.0027071583815195797 0 0.00062499243061871559 -0.0028948094854330578 0 0.00069346706329462022 -0.0028968573582882451 0 0.00064403286815217136 -0.0030379025697224774 0 -0.0008009893456752792 -0.0025873296366967758 0 -0.00080087474595848045 -0.0027071583815195797 0 -0.00087752166245888476 -0.0026221191256077256 0 0.00055302385500334518 -0.0022284525185347964 0 0.00064961459009200539 -0.0022825899505151798 0 0.00056613118125088712 -0.0023713967372777579 0 -0.00042678177697388393 -0.0024384531368363371 0 -0.00045305339701390539 -0.0026123252496309383 0 -0.0005094297399547194 -0.0024664032022851741 0 0.00027250762832919587 -0.00057651702131293853 0 0.00023531120519305009 -0.00042523517145318438 0 0.00032374136494511173 -0.00056232021746060871 0 -0.00043263675194116523 -0.00080911902736727844 0 -0.00050645434137421008 -0.00079072504524888368 0 -0.00040330904432888081 -0.00066931105364547241 0 8.946653259457749e-05 -0.0012041590367732702 0 1.3965530567187955e-05 -0.0012956293999616462 0 8.7068186707181014e-06 -0.001149399139500666 0 8.946653259457749e-05 -0.0012041590367732702 0 0.0001725469710938544 -0.0012652028465455442 0 9.0280649003333303e-05 -0.0013505120620707265 0 0.00062499243061871559 -0.0028948094854330578 0 0.00061693266311915382 -0.0027437463811662236 0 0.00068935539740396293 -0.0027781702941174933 0 -0.0008009893456752792 -0.0025873296366967758 0 -0.00071823565794452353 -0.0025691481419822383 0 -0.00073579577624177672 -0.0026971725844961896 0 0.00066635695118319937 -0.0024276438710834139 0 0.00058082055698180444 -0.0025046707848866952 0 0.00056613118125088712 -0.0023713967372777579 0 -0.00053716056811497885 -0.0026465367351538949 0 -0.00058512850182199333 -0.0024978272709881982 0 -0.0005094297399547194 -0.0024664032022851741 0 0.00027459476901054537 -0.00040635986960119717 0 0.00037684734709037281 -0.00056134191037132187 0 0.00032374136494511173 -0.00056232021746060871 0 -0.00046987687615582642 -0.00065230745084071424 0 -0.00035955850579355266 -0.00053919414620863938 0 -0.00040330904432888081 -0.00066931105364547241 0 0.00039424638232656261 -0.0017331617208415906 0 0.00030661740081640374 -0.0018011752752012822 0 0.0003241359118176364 -0.0016728497247565613 0 0.00038164078804110328 -0.0018680755123553568 0 0.00030661740081640374 -0.0018011752752012822 0 0.00039424638232656261 -0.0017331617208415906 0 0.00010954130471118353 -0.00079867637553698693 0 0.00015988905091549702 -0.00095404478164576203 0 9.5774978301468394e-05 -0.00091055041892204071 0 0.00017456854588926307 -0.00083036905771168869 0 0.00015988905091549702 -0.00095404478164576203 0 0.00010954130471118353 -0.00079867637553698693 0 0.00010721393429091981 -0.002996037231490908 0 0.00013868176504724521 -0.0028728385499547501 0 0.00018821327626978532 -0.003033357974667875 0 0.00022036043751735981 -0.0028970958277847229 0 0.00018821327626978532 -0.003033357974667875 0 0.00013868176504724521 -0.0028728385499547501 0 -0.00084614047547968167 -0.0017481554711195543 0 -0.00078580821705769867 -0.0017869246851222658 0 -0.00087047127818611243 -0.0018762841561608375 0 -0.00080223603142266721 -0.0019179441587934894 0 -0.00087047127818611243 -0.0018762841561608375 0 -0.00078580821705769867 -0.0017869246851222658 0 -1.668404067745125e-05 -0.00011361814091021157 0 -3.6969920536019377e-05 -0.00019883681923200982 0 -2.4875589693873208e-05 -8.7655934081652101e-05 0 -5.4729236588691506e-05 -0.00018158606539612587 0 -2.4875589693873211e-05 -8.7655934081652101e-05 0 -3.6969920536019377e-05 -0.00019883681923200982 0 0.00013122441725133246 -0.0019340997632972087 0 8.1342652725805339e-05 -0.0020432883137356476 0 2.3336222552873992e-05 -0.0019436431956030519 0 -0.00027599374883926191 -0.0017048148908407079 0 -0.00032898084541440015 -0.0016206041341572713 0 -0.00027402750291195479 -0.0015149933312106256 0 2.9770922585392273e-05 -0.00213891381965099 0 2.3336222552873992e-05 -0.0019436431956030519 0 8.1342652725805339e-05 -0.0020432883137356476 0 -0.00038051007334161856 -0.0015401087498908802 0 -0.00027402750291195479 -0.0015149933312106256 0 -0.00032898084541440015 -0.0016206041341572713 0 0.00077903582619613958 -0.002864062095274276 0 0.0007184969603647041 -0.0030119012196690893 0 0.00069346706329462022 -0.0028968573582882451 0 -0.00078201246923095683 -0.0028588879421078402 0 -0.00086297215478396835 -0.0027522570353880312 0 -0.00080087474595848045 -0.0027071583815195797 0 0.00018592031016218479 -0.00020050333948737133 0 0.00014498963196288905 -0.00013569179793366664 0 0.00023938898871842277 -0.00023245046836977923 0 -0.00051695518679291288 -0.00055556560204750652 0 -0.00046593169824080084 -0.00044357678212739746 0 -0.00042015495669773352 -0.00041737399102033444 0 0.00035610874183680282 -0.0029436645150979482 0 0.00040909485900173935 -0.002844390130163077 0 0.00043561878940065951 -0.0030147286859845165 0 -0.00082909059662065066 -0.0021386013033332053 0 -0.00077682447212149366 -0.0022209786082926157 0 -0.00086635053187971475 -0.0022707391708250177 0 0.00072297785834563261 -0.001026102951950999 0 0.00064400613233717553 -0.00091287538771022466 0 0.00071776380238413586 -0.00092166973293204813 0 -7.8014877678418701e-05 -0.00015297360426541439 0 -0.00013205205644964248 -0.00023513189239124951 0 -7.2063184721857986e-05 -0.00011118377431365761 0 0.00019740513665006203 -0.0023027851894740375 0 0.00015248300464780032 -0.0024163599468590194 0 8.9846352575729524e-05 -0.0023112011062653821 0 -0.00047928347418482411 -0.0018333993699789499 0 -0.00054137224498127673 -0.0017676098110412258 0 -0.00048030055422681111 -0.0016542387468103934 0 0.0004389233753488383 -0.0011754856757203861 0 0.00050849705944001412 -0.0012633201665232991 0 0.00046281282134393769 -0.0013554441730578722 0 -0.0001369340435295048 -0.00066873311203025001 0 -9.368864060720151e-05 -0.00056444055355926032 0 -6.0941098103258208e-05 -0.00065313612766891929 0 0.00013122441725133246 -0.0019340997632972087 0 7.0339611769762146e-05 -0.0018107299332393472 0 0.00014812540807780818 -0.0017555996887179679 0 0.00019740513665006203 -0.0023027851894740375 0 0.00014161399486376205 -0.0021398473485231247 0 0.00021736995745494782 -0.0021713258257086477 0 -0.00047928347418482411 -0.0018333993699789499 0 -0.00038428196515634015 -0.0017234109505856062 0 -0.00040510662694216211 -0.0018582815876499979 0 0.0004389233753488383 -0.0011754856757203861 0 0.00036060959540950411 -0.0012560568156157728 0 0.0003644896975878343 -0.0011283314705328919 0 -0.0001369340435295048 -0.00066873311203025001 0 -0.00010750548519785735 -0.00081496340334287238 0 -0.00016468806648443132 -0.00079136374503651068 0 -7.1488877312889513e-08 -0.0024236596506719997 0 8.9846352575729524e-05 -0.0023112011062653821 0 7.5936732194015406e-05 -0.002494907187865803 0 -0.0005352329163486356 -0.0015162927909521686 0 -0.00048030055422681111 -0.0016542387468103934 0 -0.00058068619483999317 -0.0016486127289703006 0 0.00053499345043223122 -0.0015163658139159108 0 0.00046281282134393769 -0.0013554441730578722 0 0.00056430940988379708 -0.0013995213161148148 0 -1.1760545805681251e-07 -0.00055364278018469075 0 -6.0941098103258208e-05 -0.00065313612766891929 0 -4.2193511294440665e-05 -0.00049370821999176193 0 2.9770922585392273e-05 -0.00213891381965099 0 8.1342652725805339e-05 -0.0020432883137356476 0 0.00014161399486376205 -0.0021398473485231251 0 -0.00038051007334161856 -0.0015401087498908802 0 -0.00032898084541440015 -0.0016206041341572713 0 -0.00038428196515634015 -0.0017234109505856062 0 0.00013122441725133246 -0.0019340997632972087 0 0.00014161399486376205 -0.0021398473485231251 0 8.1342652725805339e-05 -0.0020432883137356476 0 -0.00027599374883926191 -0.0017048148908407079 0 -0.00038428196515634015 -0.0017234109505856062 0 -0.00032898084541440015 -0.0016206041341572713 0 0.00022036043751735981 -0.0028970958277847229 0 0.00016647962980567433 -0.0027317426452760857 0 0.00025089949525685127 -0.0027611274542043945 0 -0.00080223603142266721 -0.0019179441587934894 0 -0.00071354821083489787 -0.0018188952360790327 0 -0.00073142569925161826 -0.0019574340869782832 0 0.00074647947587935695 -0.0012305724447958947 0 0.00067375357072250346 -0.0012857780962360539 0 0.00066705169051560465 -0.0011550816902007781 0 -5.4729236588691506e-05 -0.00018158606539612587 0 -6.5013662564294359e-05 -0.00030409287883359943 0 -9.2624593469776346e-05 -0.0002850983751088052 0 5.4157875791890305e-06 -0.000141004871185111 0 5.2308876512237128e-06 -6.1523996394978109e-05 0 1.7009319097423729e-05 -9.2837523332423138e-05 0 -0.00081055188830740502 -0.001536613150971275 0 -0.00086618779127148251 -0.0015148308140897552 0 -0.0008312677147745501 -0.0014025665078892166 0 0.00081665271612240721 -0.0016196549617850085 0 0.00087881225500480609 -0.0016677944319578597 0 0.00086115569170903267 -0.0017720407022256848 0 -2.7070682108776824e-05 -0.0029507749681488269 0 -5.083229980353553e-05 -0.0030714040468217472 0 -0.00012141122734804067 -0.0030238686787788772 0 0.0001361061894713847 -0.0025535885447121225 0 8.1501350868425695e-05 -0.0026391014102307704 0 7.5936732194015406e-05 -0.002494907187865803 0 -0.00061613975015371403 -0.0017528739647658864 0 -0.00065880719289241035 -0.0016726453719781585 0 -0.00058068619483999317 -0.0016486127289703006 0 0.00058548085752862925 -0.0013084277616605504 0 0.00064042942946899442 -0.0014090817612962255 0 0.00056430940988379708 -0.0013995213161148148 0 -7.0640429328080033e-05 -0.00044641459377711083 0 -3.6449244583690442e-05 -0.00037617350907545751 0 -4.2193511294440665e-05 -0.00049370821999176193 0 6.2935287202912692e-06 -0.0014672456757785293 0 -3.9878560479109684e-05 -0.0016302110703383904 0 -9.1350033027877645e-05 -0.0015158841514198251 0 0.0004769666345192607 -0.0024967739291329497 0 0.00039716273064531362 -0.0024946510267496503 0 0.00042193377426716935 -0.0023385922519879813 0 -0.00058483350166986948 -0.0023172169110463503 0 -0.00058541365936789732 -0.0021817007319415108 0 -0.00049685183372756569 -0.0022148165087982922 0 0.00043519835056319862 -0.00073192306437088849 0 0.00047448078475539841 -0.00086599357458317045 0 0.00038572517432121681 -0.00080382916067189239 0 -0.00028998434940489219 -0.0005310386896931348 0 -0.00023665136021187825 -0.00052247906693539522 0 -0.00029409202945560443 -0.00066690425507301909 0 -0.00013939183635436236 -0.0025659464903854991 0 -0.000191715707663858 -0.0026684805427787195 0 -0.00022725955216216809 -0.0025049278025962378 0 -0.00028062436653392256 -0.0026534597064020796 0 -0.00022725955216216809 -0.0025049278025962378 0 -0.000191715707663858 -0.0026684805427787195 0 -0.00059167729402967385 -0.001305053582147354 0 -0.0006348289609664421 -0.0012348132435833193 0 -0.00053963183518157998 -0.0011514147563124778 0 0.00062289266186776177 -0.0017592347078681382 0 0.00068030562674456551 -0.001853494659002217 0 0.00059218494184644886 -0.0018982717870596592 0 0.00067389869452946923 -0.0019974666943038443 0 0.00059218494184644886 -0.0018982717870596592 0 0.00068030562674456551 -0.001853494659002217 0 -0.00060162748909066345 -0.0010869865821932195 0 -0.00053963183518157998 -0.0011514147563124778 0 -0.0006348289609664421 -0.0012348132435833193 0 7.1405162267799808e-05 -0.00043508042229394939 0 8.2906366552984087e-05 -0.00035457695876931112 0 0.0001285302489337105 -0.00049256017996937313 0 0.00012782103866781826 -0.00037275465643833901 0 0.0001285302489337105 -0.00049256017996937313 0 8.2906366552984101e-05 -0.00035457695876931112 0 0.00030273378827737173 -0.0019638683601117092 0 0.00030661740081640374 -0.0018011752752012822 0 0.00038164078804110328 -0.0018680755123553568 0 0.00023933241828704091 -0.00096772828162014761 0 0.00015988905091549702 -0.00095404478164576203 0 0.00017456854588926307 -0.00083036905771168869 0 -0.00028074047018169536 -0.0019933855715038255 0 -0.00018898165896354176 -0.0020036478437258217 0 -0.00022782612986916741 -0.0021306615171143668 0 0.00077903582619613958 -0.002864062095274276 0 0.00068935539740396282 -0.0027781702941174929 0 0.00075852145021920064 -0.002703034603806765 0 -0.00078201246923095683 -0.0028588879421078402 0 -0.00073579577624177672 -0.0026971725844961891 0 -0.00069207056405881477 -0.0028198243141036947 0 0.00030337429493610362 -0.00027087073622507888 0 0.00040787206935602395 -0.0004269942941123156 0 0.0003013636133175451 -0.00032674074757567211 0 -0.00030652904346236228 -0.00027494563639786802 0 -0.00027996102481299412 -0.00029511889876357087 0 -0.0003904632347367407 -0.00041871324036974773 0 -0.00027402750291195479 -0.0015149933312106256 0 -0.00031469911072840902 -0.0014095022007475446 0 -0.00023117989812104244 -0.0013321421422869896 0 0.00082020835890376338 -0.002074327246122277 0 0.00085708387945597009 -0.0022514477613311901 0 0.00077524400704142085 -0.0021818109892688619 0 7.3888189905563654e-05 -0.00016294996378556889 0 7.4924646319709981e-05 -0.0001177810259301167 0 0.00012316718462876487 -0.00023044393483102299 0 -0.0003170449393458318 -0.0029276548245647264 0 -0.00042451316785100909 -0.0029975644159993581 0 -0.00038552201776265274 -0.0028417590153653081 0 -0.00073072035918272298 -0.0010840394313471316 0 -0.00071822615219804733 -0.00093418901104376137 0 -0.00065794509328762616 -0.00095389463488377267 0 -0.00012651142438400965 -0.0016426337546074309 0 -9.1350033027877631e-05 -0.0015158841514198251 0 -3.9878560479109684e-05 -0.0016302110703383904 0 -0.00030827463819877853 -0.0012840707993475012 0 -0.00037459936908350669 -0.001255711374039735 0 -0.00034590826881571743 -0.0011310741169779817 0 0.00094907356552393588 -0.0022179842512532553 0 0.00085708387945597009 -0.0022514477613311901 0 0.00089248287944190482 -0.0021231631855872252 0 1.0500732485674487e-08 -1.1232946550369484e-07 0 7.4924646319709994e-05 -0.00011778102593011671 0 3.682590848584619e-05 -6.7954459034626872e-05 0 -0.00040242612838744905 -0.0031772193519245613 0 -0.00042451316785100909 -0.0029975644159993581 0 -0.00034435355582710959 -0.0030671274521322342 0 -0.00081319704943050579 -0.001023060701384373 0 -0.00071822615219804733 -0.00093418901104376148 0 -0.00078822575311367573 -0.0010763000755105571 0 0.0001361061894713847 -0.0025535885447121225 0 0.00015248300464780032 -0.0024163599468590194 0 0.00023910224541023295 -0.0024794828214616997 0 0.00019740513665006203 -0.0023027851894740375 0 0.00023910224541023298 -0.0024794828214616997 0 0.00015248300464780032 -0.0024163599468590194 0 -0.00047928347418482411 -0.0018333993699789499 0 -0.00057870450039724576 -0.0019160944582246446 0 -0.00054137224498127673 -0.0017676098110412258 0 -0.00061613975015371403 -0.0017528739647658864 0 -0.00054137224498127673 -0.0017676098110412258 0 -0.00057870450039724576 -0.0019160944582246446 0 0.0004389233753488383 -0.0011754856757203861 0 0.00052286849559000394 -0.0011278733376518073 0 0.00050849705944001412 -0.0012633201665232991 0 0.00058548085752862925 -0.0013084277616605504 0 0.00050849705944001412 -0.0012633201665232991 0 0.00052286849559000394 -0.0011278733376518073 0 -0.0001369340435295048 -0.00066873311203025001 0 -0.00013990163678419425 -0.00051469752809911028 0 -9.368864060720151e-05 -0.00056444055355926032 0 -7.0640429328080033e-05 -0.00044641459377711083 0 -9.368864060720151e-05 -0.00056444055355926032 0 -0.00013990163678419425 -0.00051469752809911028 0 0.00028043983873469628 -0.0026534416019993214 0 0.00020653795605750705 -0.0026114494386482038 0 0.00023910224541023295 -0.0024794828214616997 0 -0.00067411782149354421 -0.0019974229287013788 0 -0.00065011603484476093 -0.0018732247374492344 0 -0.00057870450039724576 -0.0019160944582246446 0 0.00060137331651120287 -0.0010875135645037452 0 0.00060060384500537926 -0.0012015013639978846 0 0.00052286849559000394 -0.0011278733376518073 0 -0.00012785210648729733 -0.00037197083835080252 0 -9.8822188782295891e-05 -0.000401886776925382 0 -0.00013990163678419425 -0.00051469752809911028 0 6.9180237903040243e-05 -0.0027828571652343823 0 0.00016647962980567433 -0.0027317426452760861 0 0.00013868176504724521 -0.0028728385499547501 0 -0.00073433293566263426 -0.0016682790229468809 0 -0.00071354821083489787 -0.0018188952360790327 0 -0.00078580821705769867 -0.0017869246851222658 0 0.00074647947587935695 -0.0012305724447958947 0 0.00074861857259722869 -0.0013516001737369442 0 0.00067375357072250357 -0.0012857780962360539 0 -2.4363362521664638e-05 -0.00026326093480754769 0 -6.5013662564294346e-05 -0.00030409287883359943 0 -3.6969920536019377e-05 -0.00019883681923200982 0 0.00022036043751735981 -0.0028970958277847229 0 0.00013868176504724521 -0.0028728385499547501 0 0.00016647962980567433 -0.0027317426452760861 0 -0.00080223603142266721 -0.0019179441587934894 0 -0.00078580821705769867 -0.0017869246851222658 0 -0.00071354821083489787 -0.0018188952360790327 0 0.00071824889556806534 -0.0014485243324925056 0 0.00067375357072250357 -0.0012857780962360539 0 0.00074861857259722869 -0.0013516001737369442 0 -5.4729236588691506e-05 -0.00018158606539612587 0 -3.6969920536019377e-05 -0.00019883681923200982 0 -6.5013662564294359e-05 -0.00030409287883359943 0 0.0001361061894713847 -0.0025535885447121225 0 0.00020653795605750705 -0.0026114494386482038 0 0.00016647962980567433 -0.0027317426452760861 0 -0.00061613975015371403 -0.0017528739647658864 0 -0.00065011603484476093 -0.0018732247374492344 0 -0.00071354821083489787 -0.0018188952360790327 0 0.00058548085752862925 -0.0013084277616605504 0 0.00060060384500537926 -0.0012015013639978846 0 0.00067375357072250357 -0.0012857780962360539 0 -7.0640429328080033e-05 -0.00044641459377711083 0 -9.8822188782295891e-05 -0.000401886776925382 0 -6.5013662564294359e-05 -0.00030409287883359943 0 0.00055302385500334518 -0.0022284525185347964 0 0.00056613118125088712 -0.0023713967372777579 0 0.00049452164596165411 -0.002317485701776415 0 -0.00042678177697388393 -0.0024384531368363371 0 -0.0005094297399547194 -0.0024664032022851741 0 -0.00048147482322929671 -0.0023392799738034659 0 0.00027250762832919587 -0.00057651702131293853 0 0.00032374136494511173 -0.00056232021746060871 0 0.00034164643038991818 -0.00068049196143406146 0 -0.00043263675194116523 -0.00080911902736727844 0 -0.00040330904432888081 -0.00066931105364547241 0 -0.00035831510301716609 -0.00070565640703616674 0 0.00062289266186776177 -0.0017592347078681382 0 0.00054572838747306632 -0.0017390539730775885 0 0.00059264751523996643 -0.0016392203272593518 0 -0.00013939183635436236 -0.0025659464903854991 0 -0.0001349943666156079 -0.0024253903873032254 0 -6.8818007985554957e-05 -0.0025179481371474951 0 7.1405162267799808e-05 -0.00043508042229394939 0 8.2113589411583076e-05 -0.00055353171436538988 0 3.7694571868944575e-05 -0.00047305610583533834 0 -0.00059167729402967385 -0.001305053582147354 0 -0.0005171125567867928 -0.0012939300246295402 0 -0.00057807031104236816 -0.0014143080662237738 0 0.00082020835890376338 -0.002074327246122277 0 0.00089248287944190482 -0.0021231631855872252 0 0.00085708387945597009 -0.0022514477613311901 0 7.3888189905563654e-05 -0.00016294996378556889 0 3.682590848584619e-05 -6.7954459034626872e-05 0 7.4924646319709981e-05 -0.0001177810259301167 0 -0.0003170449393458318 -0.0029276548245647264 0 -0.00034435355582710959 -0.0030671274521322342 0 -0.00042451316785100909 -0.0029975644159993581 0 -0.00073072035918272298 -0.0010840394313471316 0 -0.00078822575311367573 -0.0010763000755105571 0 -0.00071822615219804733 -0.00093418901104376148 0 2.9770922585392273e-05 -0.00213891381965099 0 -6.5742771739589492e-05 -0.0021499427480776347 0 -4.3915800352792499e-05 -0.0020277066585300155 0 -0.00038051007334161856 -0.0015401087498908802 0 -0.00037756838567666915 -0.0013796121426560802 0 -0.00031469911072840902 -0.0014095022007475446 0 6.9180237903040243e-05 -0.0027828571652343823 0 4.8841941400992807e-05 -0.0029076472155201405 0 -2.5172322938453054e-05 -0.0028001494054157982 0 -0.00073433293566263426 -0.0016682790229468809 0 -0.00079703132111950817 -0.0016495953910797021 0 -0.00073369500440237444 -0.0015205988281478955 0 0.00071824889556806534 -0.0014485243324925056 0 0.00078487340492615278 -0.0014970204916950882 0 0.00073911445819485524 -0.0016002695576263892 0 -2.4363362521664638e-05 -0.00026326093480754769 0 -1.198138188192145e-05 -0.0001718581785012991 0 8.5905067532421527e-06 -0.00024977520317312241 0 -1.620826943728159e-05 -0.0017723811220295618 0 -3.9878560479109684e-05 -0.0016302110703383904 0 6.0527879671882881e-05 -0.0016450801332995755 0 0.00062499243061871559 -0.0028948094854330578 0 0.00055473950702073405 -0.0028068952521829835 0 0.00061693266311915382 -0.0027437463811662236 0 -0.0008009893456752792 -0.0025873296366967758 0 -0.00075420193440807308 -0.0024641036577543632 0 -0.00071823565794452353 -0.0025691481419822383 0 0.00077903582619613958 -0.002864062095274276 0 0.00069346706329462022 -0.0028968573582882451 0 0.00068935539740396293 -0.0027781702941174933 0 -0.00078201246923095683 -0.0028588879421078402 0 -0.00080087474595848045 -0.0027071583815195797 0 -0.00073579577624177672 -0.0026971725844961896 0 0.00018592031016218479 -0.00020050333948737133 0 0.00023938898871842277 -0.00023245046836977923 0 0.0003013636133175451 -0.00032674074757567211 0 -0.00051695518679291288 -0.00055556560204750652 0 -0.00042015495669773346 -0.00041737399102033439 0 -0.0003904632347367407 -0.00041871324036974773 0 0.0001361061894713847 -0.0025535885447121225 0 0.00023910224541023295 -0.0024794828214616997 0 0.00020653795605750705 -0.0026114494386482038 0 -0.00061613975015371403 -0.0017528739647658864 0 -0.00057870450039724576 -0.0019160944582246446 0 -0.00065011603484476093 -0.0018732247374492344 0 0.00058548085752862925 -0.0013084277616605504 0 0.00052286849559000394 -0.0011278733376518073 0 0.00060060384500537926 -0.0012015013639978846 0 -7.0640429328080033e-05 -0.00044641459377711083 0 -0.00013990163678419425 -0.00051469752809911028 0 -9.8822188782295891e-05 -0.000401886776925382 0 0.00052481220672922395 -0.00056737917469982504 0 0.00046337445882911111 -0.00054873017482268138 0 0.00040787206935602395 -0.00042699429411231554 0 -0.00017853426421352291 -0.000197035090066203 0 -0.00026172975515988475 -0.00032365956302427142 0 -0.00027996102481299417 -0.00029511889876357087 0 6.2935287202912692e-06 -0.0014672456757785293 0 -7.3056297333518185e-05 -0.0013739100859307613 0 1.3965530567187955e-05 -0.0012956293999616462 0 -7.1756507600753241e-05 -0.0012356942564732004 0 1.3965530567187955e-05 -0.0012956293999616462 0 -7.3056297333518185e-05 -0.0013739100859307613 0 0.00040344521454054321 -0.0021794150168939564 0 0.00035232243168208235 -0.002254998208025643 0 0.00035282000654822474 -0.0020906930574803788 0 -0.00040575825709557501 -0.0021759861465779481 0 -0.00044979826744052709 -0.002090061895904527 0 -0.0003539053850133527 -0.0020843597624077307 0 0.00031644759396426273 -0.00081827444434404671 0 0.0003710144601126739 -0.00091055119604202279 0 0.00028869488882764114 -0.00089490524378084716 0 -0.00031345383188277083 -0.00081479828895264169 0 -0.00025754418986301042 -0.00073309516271330682 0 -0.0002856361051849484 -0.00088895831406174224 0 -0.00011363733406396784 -0.00099594963944330656 0 -0.00018837683773878275 -0.0010695067613974156 0 -0.00017790486196159693 -0.00091622332528159937 0 -2.7070682108776824e-05 -0.0029507749681488269 0 -2.5172322938453054e-05 -0.0028001494054157982 0 4.8841941400992807e-05 -0.0029076472155201405 0 -0.00081055188830740502 -0.001536613150971275 0 -0.00073369500440237444 -0.0015205988281478955 0 -0.00079703132111950817 -0.0016495953910797021 0 0.00081665271612240721 -0.0016196549617850085 0 0.00073911445819485524 -0.0016002695576263892 0 0.00078487340492615278 -0.0014970204916950882 0 5.4157875791890305e-06 -0.000141004871185111 0 8.5905067532421527e-06 -0.00024977520317312241 0 -1.198138188192145e-05 -0.0001718581785012991 0 -0.0001135841406524765 -0.0020354589572835198 0 -0.00014652748185028119 -0.0021540825267539611 0 -0.00018898165896354176 -0.0020036478437258217 0 -0.00022782612986916741 -0.0021306615171143668 0 -0.00018898165896354176 -0.0020036478437258217 0 -0.00014652748185028119 -0.0021540825267539611 0 0.00014447718197652627 -0.0016146567162684808 0 0.00010456012190392397 -0.0014968108362765525 0 0.00018640652611349654 -0.0015328500950359161 0 0.00068861998470988515 -0.0031842566708537852 0 0.00059515815022645111 -0.0031821801484210998 0 0.00064403286815217136 -0.0030379025697224774 0 -0.0009551932569434959 -0.0026996710766861776 0 -0.00095371539076815704 -0.0025380788255176898 0 -0.00087752166245888476 -0.0026221191256077256 0 0.00060166823154587706 -0.00059394168999577336 0 0.00069176652169914224 -0.00073842982245672835 0 0.00059505785521256935 -0.00062113688334100277 0 -2.0428578688043048e-08 -1.0040965506493136e-07 0 -3.0323115916471398e-08 -1.1375030267352372e-07 0 -8.6664694616657374e-05 -8.9912165193862064e-05 0 0.00095361387027924013 -0.0025381836715879236 0 0.00095502555457615136 -0.0026997819459593582 0 0.00088526053828840822 -0.0025990879116474562 0 2.9746623518201546e-08 -1.1380999925753998e-07 0 2.0599778789761792e-08 -1.0159003373994109e-07 0 8.5989835712338151e-05 -8.9617092255984623e-05 0 -0.00059545755692261607 -0.0031820688595713392 0 -0.00068881009920829879 -0.0031842454849948161 0 -0.00063087511620852591 -0.0030527385533625361 0 -0.00069196455616564218 -0.00073853098614248477 0 -0.00060055260211129167 -0.000594678413155706 0 -0.00059376715889499908 -0.0006184613682044506 0 0.00029050125536824909 -0.0021451188318232714 0 0.00035282000654822474 -0.0020906930574803788 0 0.00035232243168208235 -0.002254998208025643 0 -0.00038908199818422473 -0.0019806264185041659 0 -0.0003539053850133527 -0.0020843597624077307 0 -0.00044979826744052709 -0.002090061895904527 0 0.0003336605103698795 -0.0010033822682749042 0 0.00028869488882764114 -0.00089490524378084716 0 0.0003710144601126739 -0.00091055119604202279 0 -0.00022570728122113022 -0.00082580022404017575 0 -0.0002856361051849484 -0.00088895831406174224 0 -0.00025754418986301042 -0.00073309516271330682 0 -4.7230753810313073e-06 -0.0026271693719682279 0 -2.5172322938453054e-05 -0.0028001494054157982 0 -9.3807569336154601e-05 -0.0026806582154222584 0 -0.00064504549486156808 -0.0015318348283676006 0 -0.00073369500440237444 -0.0015205988281478955 0 -0.00066120985080646744 -0.0013949073896574442 0 0.00064586484869182462 -0.0015468900221179203 0 0.00073911445819485524 -0.0016002695576263892 0 0.00068212112055559778 -0.0016966631271894115 0 2.6784109086716131e-06 -0.00038316881244239778 0 8.5905067532421527e-06 -0.00024977520317312241 0 4.0549961096357272e-05 -0.00034162350509401874 0 0.00040344521454054321 -0.0021794150168939564 0 0.00035282000654822474 -0.0020906930574803788 0 0.00042712125403144652 -0.0020238163687602865 0 -0.00040575825709557501 -0.0021759861465779481 0 -0.0003539053850133527 -0.0020843597624077307 0 -0.00031509227538346429 -0.0022170245313727971 0 0.00031644759396426273 -0.00081827444434404671 0 0.00028869488882764114 -0.00089490524378084716 0 0.00023588251826950427 -0.00076614591919718276 0 -0.00031345383188277083 -0.00081479828895264169 0 -0.0002856361051849484 -0.00088895831406174224 0 -0.00036216460075113942 -0.0009720051981858698 0 0.00082020835890376338 -0.002074327246122277 0 0.00088774318195372409 -0.0020131291985550121 0 0.00089248287944190482 -0.0021231631855872252 0 7.3888189905563654e-05 -0.00016294996378556889 0 2.9257153500331838e-05 -7.0183018986880768e-05 0 3.682590848584619e-05 -6.7954459034626872e-05 0 -0.00073072035918272298 -0.0010840394313471316 0 -0.00081043874517598333 -0.0011783770141123283 0 -0.00078822575311367573 -0.0010763000755105571 0 -0.0003170449393458318 -0.0029276548245647264 0 -0.00027534785028179057 -0.0030612611343863298 0 -0.00034435355582710959 -0.0030671274521322342 0 0.00094575363205756137 -0.0020606724957835981 0 0.00094907356552393588 -0.0022179842512532553 0 0.00089248287944190482 -0.0021231631855872252 0 1.2348679289480396e-08 -1.072555790697946e-07 0 1.0500732485674487e-08 -1.1232946550369484e-07 0 3.682590848584619e-05 -6.7954459034626872e-05 0 -0.00030340030721628654 -0.0031749720786476057 0 -0.00040242612838744905 -0.0031772193519245613 0 -0.00034435355582710959 -0.0030671274521322342 0 -0.00085414346744039989 -0.0011627457716243776 0 -0.00081319704943050579 -0.001023060701384373 0 -0.00078822575311367573 -0.0010763000755105571 0 -0.00088449572718692321 -0.0013060032125232382 0 -0.00085414346744039978 -0.0011627457716243776 0 -0.00081043874517598333 -0.0011783770141123283 0 -0.00020312971685527585 -0.0031732203988634718 0 -0.00030340030721628654 -0.0031749720786476057 0 -0.00027534785028179057 -0.0030612611343863298 0 9.5160429154040149e-09 -1.0691296036668841e-07 0 1.2348679289480396e-08 -1.072555790697946e-07 0 2.9257153500331838e-05 -7.0183018986880768e-05 0 0.00094032541914745155 -0.0019052677542305252 0 0.00094575363205756137 -0.0020606724957835981 0 0.00088774318195372409 -0.0020131291985550121 0 0.00062499243061871559 -0.0028948094854330578 0 0.00068935539740396293 -0.0027781702941174933 0 0.00069346706329462022 -0.0028968573582882451 0 -0.0008009893456752792 -0.0025873296366967758 0 -0.00073579577624177672 -0.0026971725844961896 0 -0.00080087474595848045 -0.0027071583815195797 0 0.00030337429493610362 -0.00027087073622507888 0 0.0003013636133175451 -0.00032674074757567205 0 0.00023938898871842277 -0.00023245046836977923 0 -0.00030652904346236228 -0.00027494563639786802 0 -0.0003904632347367407 -0.00041871324036974773 0 -0.00042015495669773352 -0.00041737399102033444 0 0.00019740513665006203 -0.0023027851894740375 0 0.00021736995745494782 -0.0021713258257086477 0 0.00028480598676431453 -0.0023049897328901066 0 0.00029050125536824909 -0.0021451188318232714 0 0.00028480598676431453 -0.0023049897328901066 0 0.00021736995745494782 -0.0021713258257086477 0 -0.00047928347418482411 -0.0018333993699789499 0 -0.00040510662694216211 -0.0018582815876499979 0 -0.00048077044528846934 -0.0019801912975497046 0 -0.00038908199818422473 -0.0019806264185041659 0 -0.00048077044528846934 -0.0019801912975497046 0 -0.00040510662694216211 -0.0018582815876499979 0 0.0004389233753488383 -0.0011754856757203861 0 0.0003644896975878343 -0.0011283314705328919 0 0.00041788234800544982 -0.0010293739854397945 0 0.0003336605103698795 -0.0010033822682749042 0 0.00041788234800544982 -0.0010293739854397945 0 0.0003644896975878343 -0.0011283314705328919 0 -0.0001369340435295048 -0.00066873311203025001 0 -0.00016468806648443132 -0.00079136374503651068 0 -0.00019830343637198099 -0.00067607141081342395 0 -0.00022570728122113022 -0.00082580022404017575 0 -0.00019830343637198099 -0.00067607141081342395 0 -0.00016468806648443132 -0.00079136374503651068 0 0.00064638163196330039 -0.0026172650533068074 0 0.00068935539740396282 -0.0027781702941174929 0 0.00061693266311915382 -0.0027437463811662236 0 -0.00064659221060665124 -0.0026171964703553801 0 -0.00073579577624177672 -0.0026971725844961896 0 -0.00071823565794452353 -0.0025691481419822383 0 0.00062289266186776177 -0.0017592347078681382 0 0.00068212112055559778 -0.0016966631271894115 0 0.00068030562674456551 -0.001853494659002217 0 -0.00013939183635436236 -0.0025659464903854991 0 -9.3807569336154615e-05 -0.0026806582154222584 0 -0.000191715707663858 -0.0026684805427787195 0 7.1405162267799808e-05 -0.00043508042229394939 0 4.0549961096357272e-05 -0.00034162350509401874 0 8.2906366552984101e-05 -0.00035457695876931112 0 -0.00059167729402967385 -0.001305053582147354 0 -0.00066120985080646744 -0.0013949073896574442 0 -0.0006348289609664421 -0.0012348132435833193 0 -2.2459724447415779e-06 -0.0010288095568887184 0 -6.0512172917266835e-05 -0.0010862714779499073 0 -4.5250371124755394e-05 -0.00093114510764387263 0 -0.00011363733406396784 -0.00099594963944330656 0 -4.5250371124755394e-05 -0.00093114510764387263 0 -6.0512172917266835e-05 -0.0010862714779499073 0 -0.00028062436653392256 -0.0026534597064020796 0 -0.000191715707663858 -0.0026684805427787195 0 -0.00024477758964204944 -0.0028034766984355759 0 0.00067389869452946923 -0.0019974666943038443 0 0.00068030562674456551 -0.001853494659002217 0 0.00075370311223983851 -0.0019503363115518765 0 -0.00060162748909066345 -0.0010869865821932195 0 -0.0006348289609664421 -0.0012348132435833193 0 -0.00069085742368472436 -0.0011730404711124641 0 0.00012782103866781826 -0.00037275465643833901 0 8.2906366552984101e-05 -0.00035457695876931112 0 8.1880326796635511e-05 -0.00025231096883502957 0 0.00027815333763779989 -0.0014899493975559152 0 0.00023287641116183187 -0.0016600593791006727 0 0.00018640652611349654 -0.0015328500950359161 0 0.00029050125536824909 -0.0021451188318232714 0 0.00021736995745494782 -0.0021713258257086477 0 0.00021772478516588872 -0.0020380852862348264 0 -0.00038908199818422473 -0.0019806264185041659 0 -0.00040510662694216211 -0.0018582815876499979 0 -0.00033249423548774965 -0.0018488041785813568 0 0.0003336605103698795 -0.0010033822682749042 0 0.0003644896975878343 -0.0011283314705328919 0 0.00029002459376238946 -0.0011164045754338454 0 -0.00022570728122113022 -0.00082580022404017575 0 -0.00016468806648443132 -0.00079136374503651068 0 -0.00017790486196159693 -0.00091622332528159937 0 -0.00021112529816156081 -0.0023046394787263674 0 -0.00022725955216216809 -0.0025049278025962378 0 -0.00028434773650054437 -0.0024209559199982354 0 0.00048051799085899492 -0.0018559408868702876 0 0.00059218494184644886 -0.0018982717870596592 0 0.00054584527905995406 -0.0019868072810667629 0 -0.00043698080025714983 -0.0011531080694529958 0 -0.00053963183518157998 -0.0011514147563124778 0 -0.00047799543644602363 -0.0010450109999360978 0 0.00014552888384023851 -0.00066671944587206515 0 0.0001285302489337105 -0.00049256017996937313 0 0.00017759492230054222 -0.00057061408534043914 0 -7.1756507600753241e-05 -0.0012356942564732004 0 -7.3056297333518185e-05 -0.0013739100859307613 0 -0.00014281987464780682 -0.0012898188657159179 0 9.5774978301468394e-05 -0.00091055041892204071 0 4.3988187970145267e-05 -0.00079009666231490507 0 0.00010954130471118353 -0.00079867637553698693 0 0.00017090856837384441 -0.0014057060323917272 0 0.00010456012190392397 -0.0014968108362765525 0 9.0280649003333303e-05 -0.0013505120620707265 0 -0.00028074047018169536 -0.0019933855715038255 0 -0.00033249423548774965 -0.0018488041785813568 0 -0.00025614320720962057 -0.001834275989211229 0 0.00017090856837384441 -0.0014057060323917272 0 0.00018640652611349654 -0.0015328500950359161 0 0.00010456012190392397 -0.0014968108362765525 0 0.00010175067290604827 -0.0031719391714969299 0 -4.2655873870379548e-08 -0.0031714861697328426 0 3.0457913455094625e-05 -0.0030445509569648013 0 -0.00093315843271191601 -0.0017511596913104492 0 -0.00092133933123347118 -0.0016001479957065913 0 -0.00086397843903783826 -0.0016343764708018668 0 0.00090612802692378706 -0.0014522091185749392 0 0.00092131107445996095 -0.0016007892452230164 0 0.00085628810011685694 -0.0015424912952716854 0 -3.4632956758570916e-09 -1.0710054079083449e-07 0 2.7383033975577838e-09 -1.0868915957514774e-07 0 -3.1085595738449056e-06 -7.8583985890100518e-05 0 0.00054572838747306632 -0.0017390539730775885 0 0.00051774368194821283 -0.0016225941623247515 0 0.00059264751523996643 -0.0016392203272593518 0 -0.0001349943666156079 -0.0024253903873032254 0 -6.7951207293778091e-05 -0.0023809436188935193 0 -6.8818007985554957e-05 -0.0025179481371474951 0 8.2113589411583076e-05 -0.00055353171436538988 0 4.1454018613161759e-05 -0.00058875577394950143 0 3.7694571868944575e-05 -0.00047305610583533834 0 -0.0005171125567867928 -0.0012939300246295402 0 -0.00050370547042701181 -0.0013996924836199918 0 -0.00057807031104236816 -0.0014143080662237738 0 9.5774978301468394e-05 -0.00091055041892204071 0 2.3940158010921338e-05 -0.00090458473117921477 0 4.3988187970145261e-05 -0.00079009666231490507 0 -0.00012651142438400965 -0.0016426337546074309 0 -3.9878560479109684e-05 -0.0016302110703383904 0 -9.8623684916158586e-05 -0.0017539723373416456 0 6.2935287202912692e-06 -0.0014672456757785293 0 -9.1350033027877645e-05 -0.0015158841514198251 0 -7.3056297333518185e-05 -0.0013739100859307613 0 -1.8683156503211059e-07 -3.1383471008852673e-07 0 -0.00014050164848242527 -0.00010619652595432475 0 -0.00031038919594153264 -0.0002553588261308423 0 1.8747319169661187e-07 -3.1390838880895539e-07 0 0.00014084789409710027 -0.00010634008801682267 0 -4.4862462657799876e-09 -9.5063211879761764e-08 0 1.8747319169661187e-07 -3.1390838880895539e-07 0 0.00031070373419221658 -0.00025518429700560489 0 0.0001408478940971003 -0.0001063400880168227 0 -1.8683156503211059e-07 -3.1383471008852673e-07 0 4.0145306997288899e-09 -9.4672865616426246e-08 0 -0.00014050164848242527 -0.00010619652595432475 0 0.00095835313951988317 -0.0031872056725269311 0 0.00086992177018707759 -0.0031866300668666504 0 0.00090077615001623863 -0.0030811761198235935 0 0.00095835313951988317 -0.0031872056725269311 0 0.00090077615001623863 -0.0030811761198235935 0 0.00095739949246126854 -0.0030245982066632827 0 -0.00095857877568449848 -0.0031871324706258778 0 -0.00090448549655122831 -0.003087443435413461 0 -0.00087017935194576334 -0.0031866014145533394 0 -0.00095857877568449848 -0.0031871324706258778 0 -0.00095766924751935199 -0.0030245766909658906 0 -0.00090448549655122831 -0.003087443435413461 0 -0.00027599374883926191 -0.0017048148908407079 0 -0.00019552656223413445 -0.0015883676767273493 0 -0.00018854183058874678 -0.0017304267304054436 0 -0.00017227885488378704 -0.0014378555571872868 0 -0.00023117989812104244 -0.0013321421422869896 0 -0.00014281987464780682 -0.0012898188657159179 0 -0.00019236674027036407 -0.0011978988439546349 0 -0.00014281987464780679 -0.0012898188657159179 0 -0.00023117989812104244 -0.0013321421422869896 0 0.00022036043751735981 -0.0028970958277847229 0 0.00027719919302118866 -0.0030247828646768064 0 0.00018821327626978532 -0.003033357974667875 0 -0.00080223603142266721 -0.0019179441587934894 0 -0.00086970857505789742 -0.0020153414673231541 0 -0.00087047127818611243 -0.0018762841561608375 0 0.00074647947587935695 -0.0012305724447958947 0 0.00079253449628950495 -0.0011675339792249976 0 0.00082112987420579367 -0.0013030167477024966 0 -5.4729236588691506e-05 -0.00018158606539612587 0 -3.8933065720589081e-05 -9.3891658746239441e-05 0 -2.4875589693873208e-05 -8.7655934081652101e-05 0 0.00033680601894731766 -0.0024249863651859701 0 0.00035232243168208235 -0.002254998208025643 0 0.00042193377426716935 -0.0023385922519879813 0 -0.00054775361686033668 -0.0020755805130907787 0 -0.00044979826744052709 -0.002090061895904527 0 -0.00049685183372756569 -0.0022148165087982922 0 0.00046307202519957542 -0.00095780205707032449 0 0.0003710144601126739 -0.00091055119604202279 0 0.00038572517432121681 -0.00080382916067189239 0 -0.00021345550415729968 -0.00057472040935578215 0 -0.00025754418986301042 -0.00073309516271330682 0 -0.00029409202945560443 -0.00066690425507301909 0 8.946653259457749e-05 -0.0012041590367732702 0 9.0280649003333303e-05 -0.0013505120620707265 0 1.3965530567187955e-05 -0.0012956293999616462 0 -0.0002586114600436276 -0.0010012283013494147 0 -0.00017790486196159693 -0.00091622332528159937 0 -0.00018837683773878275 -0.0010695067613974156 0 0.00040222680870351636 -0.0031772318271614439 0 0.00035500051317684207 -0.0030669172808811761 0 0.00043561878940065951 -0.0030147286859845165 0 -0.00094933076578008059 -0.0022180791942631346 0 -0.00089268812743730484 -0.0021408541437501023 0 -0.00086635053187971475 -0.0022707391708250177 0 0.00035610874183680282 -0.0029436645150979482 0 0.00043561878940065951 -0.0030147286859845165 0 0.00035500051317684207 -0.0030669172808811761 0 -0.00082909059662065066 -0.0021386013033332053 0 -0.00086635053187971475 -0.0022707391708250177 0 -0.00089268812743730484 -0.0021408541437501023 0 0.00081368327024387702 -0.001022745962672486 0 0.00078347997421110329 -0.0010598857007179773 0 0.00071776380238413586 -0.00092166973293204813 0 -1.0550984275790519e-08 -1.1081104416393212e-07 0 -3.7731632965303362e-05 -6.9681868306493411e-05 0 -7.2063184721857986e-05 -0.00011118377431365761 0 0.00072297785834563261 -0.001026102951950999 0 0.00071776380238413586 -0.00092166973293204813 0 0.00078347997421110329 -0.0010598857007179773 0 -7.8014877678418701e-05 -0.00015297360426541439 0 -7.2063184721857986e-05 -0.00011118377431365761 0 -3.7731632965303362e-05 -6.9681868306493411e-05 0 0.00081008435081822211 -0.0025917607862388455 0 0.00073416695938222673 -0.0025614010423551012 0 0.00078348395211648002 -0.0024612272065259243 0 -0.00062749028928033512 -0.0029122053819392391 0 -0.00061220638942838029 -0.0027729932070893124 0 -0.00055222438146057713 -0.0028616473479191719 0 0.00052162407667840564 -0.0021056603038914698 0 0.00054584527905995406 -0.0019868072810667629 0 0.00060595800221108459 -0.0020950531005868517 0 -0.00035641582501219507 -0.0023798029847628579 0 -0.00028434773650054437 -0.0024209559199982354 0 -0.00034467045845292622 -0.0025295363132589212 0 0.00023661964209979866 -0.00061833923624609872 0 0.00017759492230054225 -0.00057061408534043914 0 0.00019243076992390696 -0.00048243008994751873 0 -0.00043260561836426975 -0.00091960565912217989 0 -0.00047799543644602363 -0.0010450109999360978 0 -0.00051428885918578188 -0.00095961682241672516 0 0.00018592031016218479 -0.00020050333948737133 0 0.00026079468667458932 -0.00032165286905726318 0 0.00018426291978382067 -0.00024252321552775831 0 -0.00051695518679291288 -0.00055556560204750652 0 -0.00046430370250710306 -0.00054889324341050308 0 -0.00055730785130677458 -0.00067450901227866214 0 -0.00011363733406396784 -0.00099594963944330656 0 -6.0512172917266835e-05 -0.0010862714779499073 0 -0.00012674481917499447 -0.0011502971822532858 0 -0.00012947378980220038 -0.0028422826400773598 0 -9.3807569336154601e-05 -0.0026806582154222584 0 -2.5172322938453054e-05 -0.0028001494054157982 0 -0.00073924071742923045 -0.0013624457895023221 0 -0.00066120985080646744 -0.0013949073896574442 0 -0.00073369500440237444 -0.0015205988281478955 0 0.00076949401163175634 -0.0017693081276236942 0 0.00068212112055559778 -0.0016966631271894115 0 0.00073911445819485524 -0.0016002695576263892 0 3.8331825755443457e-05 -0.00021912727014865535 0 4.0549961096357279e-05 -0.00034162350509401869 0 8.5905067532421527e-06 -0.00024977520317312241 0 2.9770922585392273e-05 -0.00213891381965099 0 -1.884599660199989e-05 -0.0022775988502613011 0 -6.5742771739589492e-05 -0.0021499427480776347 0 -0.00010556244347255706 -0.0022785115453643049 0 -6.5742771739589492e-05 -0.0021499427480776347 0 -1.884599660199989e-05 -0.0022775988502613011 0 -0.00038051007334161856 -0.0015401087498908802 0 -0.00045311742399254106 -0.0014707624100164486 0 -0.00037756838567666915 -0.0013796121426560802 0 -0.00044272430244086215 -0.0013264588654951269 0 -0.00037756838567666915 -0.00137961214265608 0 -0.00045311742399254106 -0.0014707624100164486 0 0.00038117581307519607 -0.0014394377508003722 0 0.00045716083955472898 -0.0015252749757867319 0 0.00038390220636638734 -0.0015880522730732385 0 0.00046263789407151426 -0.0016776386415745252 0 0.00038390220636638734 -0.0015880522730732385 0 0.00045716083955472898 -0.0015252749757867319 0 0.00035610874183680282 -0.0029436645150979482 0 0.00028973849325715154 -0.0028859309793146529 0 0.00033911893370408146 -0.0027722066908403556 0 -0.00082909059662065066 -0.0021386013033332053 0 -0.00079790575474704634 -0.0020282880780047889 0 -0.00073833872278139252 -0.0021017883332253421 0 0.00072297785834563261 -0.001026102951950999 0 0.00071575802618273018 -0.0011184704686229771 0 0.00064208574208455876 -0.0010135801562098624 0 -7.8014877678418701e-05 -0.00015297360426541439 0 -7.6101554607247736e-05 -0.0001927619733760929 0 -0.00012502511293835603 -0.00028149831845792136 0 0.00028043983873469628 -0.0026534416019993214 0 0.00033911893370408141 -0.0027722066908403556 0 0.00025089949525685127 -0.0027611274542043945 0 -0.00067411782149354421 -0.0019974229287013788 0 -0.00073833872278139252 -0.0021017883332253421 0 -0.00073142569925161826 -0.0019574340869782832 0 0.00060137331651120287 -0.0010875135645037452 0 0.00064208574208455876 -0.0010135801562098624 0 0.00066705169051560465 -0.0011550816902007781 0 -0.00012785210648729733 -0.00037197083835080252 0 -0.00012502511293835603 -0.00028149831845792136 0 -9.2624593469776346e-05 -0.0002850983751088052 0 -7.1756507600753241e-05 -0.0012356942564732004 0 8.7068186707181014e-06 -0.001149399139500666 0 1.3965530567187955e-05 -0.0012956293999616462 0 0.00069490585187942215 -0.0021768072870401037 0 0.00074418576431656681 -0.0020810352900631694 0 0.00077524400704142085 -0.0021818109892688619 0 -0.00038758772922442813 -0.002692272796748202 0 -0.00032607148796529094 -0.0027836595911389941 0 -0.00038552201776265274 -0.0028417590153653081 0 0.00017073865203029643 -0.00034867984828060013 0 0.00011764603006365955 -0.00027188136417996279 0 0.00012316718462876487 -0.00023044393483102299 0 -0.00057994314327721656 -0.00091739997645652453 0 -0.00065263517346959214 -0.0010378850417097085 0 -0.00065794509328762616 -0.00095389463488377267 0 0.00055954865778720957 -0.0026397297641718468 0 0.00061693266311915382 -0.0027437463811662236 0 0.00055473950702073405 -0.0028068952521829835 0 -0.00066215527182431836 -0.002465973261974255 0 -0.00071823565794452353 -0.0025691481419822383 0 -0.00075420193440807308 -0.0024641036577543632 0 0.00033680601894731766 -0.0024249863651859701 0 0.00028480598676431453 -0.0023049897328901066 0 0.00035232243168208235 -0.002254998208025643 0 -0.00054775361686033668 -0.0020755805130907787 0 -0.00048077044528846934 -0.0019801912975497046 0 -0.00044979826744052709 -0.002090061895904527 0 0.00046307202519957542 -0.00095780205707032449 0 0.00041788234800544982 -0.0010293739854397945 0 0.0003710144601126739 -0.00091055119604202279 0 -0.00021345550415729968 -0.00057472040935578215 0 -0.00019830343637198102 -0.00067607141081342395 0 -0.00025754418986301042 -0.00073309516271330682 0 -0.0001135841406524765 -0.0020354589572835198 0 -8.9724289176099269e-05 -0.0019010366402407602 0 -4.3915800352792499e-05 -0.0020277066585300155 0 0.00040222680870351636 -0.0031772318271614439 0 0.00030315230097130468 -0.0031748873541333285 0 0.00035500051317684207 -0.0030669172808811761 0 -0.00094933076578008059 -0.0022180791942631346 0 -0.00094599125152204427 -0.002060925560713587 0 -0.00089268812743730484 -0.0021408541437501023 0 0.00081368327024387702 -0.001022745962672486 0 0.000854250731362135 -0.001161779507302654 0 0.00078347997421110329 -0.0010598857007179773 0 -1.0550984275790519e-08 -1.1081104416393212e-07 0 -1.4923375565605904e-08 -1.0822381000306717e-07 0 -3.7731632965303362e-05 -6.9681868306493411e-05 0 -2.2459724447415779e-06 -0.0010288095568887184 0 -4.5250371124755394e-05 -0.00093114510764387263 0 2.3940158010921338e-05 -0.00090458473117921477 0 -4.2655873870379548e-08 -0.0031714861697328426 0 -0.00010188081922519028 -0.0031718934260420825 0 -5.083229980353553e-05 -0.0030714040468217472 0 -0.00092133933123347118 -0.0016001479957065913 0 -0.00090516251450264355 -0.0014525573394955471 0 -0.00086618779127148251 -0.0015148308140897552 0 0.00092131107445996095 -0.0016007892452230166 0 0.000932113052033171 -0.0017513593200972691 0 0.00087881225500480609 -0.0016677944319578597 0 2.7383033975577838e-09 -1.0868915957514774e-07 0 -2.5844684736777501e-10 -1.1126999290703374e-07 0 5.2308876512237128e-06 -6.1523996394978109e-05 0 0.00052481220672922395 -0.00056737917469982504 0 0.00054417569224700889 -0.00065933623095940736 0 0.00046337445882911111 -0.00054873017482268138 0 -0.00017853426421352291 -0.000197035090066203 0 -0.00019472754127842611 -0.00025483807271982947 0 -0.00026172975515988475 -0.00032365956302427142 0 -2.5277131512805009e-05 -0.00079202162704290074 0 2.3940158010921338e-05 -0.00090458473117921477 0 -4.5250371124755394e-05 -0.00093114510764387263 0 0.00017090856837384441 -0.0014057060323917272 0 0.0001725469710938544 -0.0012652028465455442 0 0.00023774059342423638 -0.0013550170466618489 0 0.00025806862337057556 -0.0012501999299713855 0 0.00023774059342423641 -0.0013550170466618489 0 0.0001725469710938544 -0.0012652028465455442 0 -0.00090516251450264355 -0.0014525573394955471 0 -0.0008312677147745501 -0.0014025665078892166 0 -0.00086618779127148251 -0.0015148308140897552 0 -0.00010188081922519028 -0.0031718934260420825 0 -0.00012141122734804067 -0.0030238686787788772 0 -5.083229980353553e-05 -0.0030714040468217472 0 -2.5844684736777501e-10 -1.1126999290703374e-07 0 1.7009319097423729e-05 -9.2837523332423138e-05 0 5.2308876512237128e-06 -6.1523996394978109e-05 0 0.000932113052033171 -0.0017513593200972691 0 0.00086115569170903267 -0.0017720407022256848 0 0.00087881225500480609 -0.0016677944319578597 0 0.00014161399486376205 -0.0021398473485231251 0 0.00021772478516588872 -0.0020380852862348264 0 0.00021736995745494782 -0.0021713258257086477 0 -0.00038428196515634015 -0.0017234109505856062 0 -0.00033249423548774971 -0.0018488041785813568 0 -0.00040510662694216211 -0.0018582815876499979 0 0.00036060959540950411 -0.0012560568156157728 0 0.00029002459376238946 -0.0011164045754338454 0 0.0003644896975878343 -0.0011283314705328919 0 -0.00010750548519785735 -0.00081496340334287238 0 -0.00017790486196159693 -0.00091622332528159937 0 -0.00016468806648443132 -0.00079136374503651068 0 -0.00027599374883926191 -0.0017048148908407079 0 -0.00025614320720962057 -0.001834275989211229 0 -0.00033249423548774965 -0.0018488041785813568 0 -0.00012651142438400965 -0.0016426337546074309 0 -0.00018854183058874681 -0.0017304267304054436 0 -0.00019552656223413445 -0.0015883676767273493 0 0.00033680601894731766 -0.0024249863651859701 0 0.00042193377426716935 -0.0023385922519879813 0 0.00039716273064531362 -0.0024946510267496507 0 -0.00054775361686033668 -0.0020755805130907787 0 -0.00049685183372756569 -0.0022148165087982922 0 -0.00058541365936789732 -0.0021817007319415108 0 0.00046307202519957542 -0.00095780205707032449 0 0.00038572517432121681 -0.00080382916067189239 0 0.00047448078475539841 -0.00086599357458317045 0 -0.00021345550415729968 -0.00057472040935578215 0 -0.00029409202945560443 -0.00066690425507301909 0 -0.00023665136021187825 -0.00052247906693539522 0 -0.0002586114600436276 -0.0010012283013494147 0 -0.00018837683773878275 -0.0010695067613974156 0 -0.00026086401375056652 -0.0011514294808117529 0 0.00035610874183680282 -0.0029436645150979482 0 0.00033911893370408146 -0.0027722066908403556 0 0.00040909485900173935 -0.002844390130163077 0 -0.00082909059662065066 -0.0021386013033332053 0 -0.00073833872278139252 -0.0021017883332253421 0 -0.00077682447212149366 -0.0022209786082926157 0 0.00072297785834563261 -0.001026102951950999 0 0.00064208574208455876 -0.0010135801562098624 0 0.00064400613233717553 -0.00091287538771022466 0 -7.8014877678418701e-05 -0.00015297360426541439 0 -0.00012502511293835603 -0.00028149831845792136 0 -0.00013205205644964248 -0.00023513189239124951 0 6.9180237903040243e-05 -0.0027828571652343823 0 0.00013868176504724521 -0.0028728385499547501 0 4.8841941400992807e-05 -0.0029076472155201405 0 -0.00073433293566263426 -0.0016682790229468809 0 -0.00078580821705769867 -0.0017869246851222658 0 -0.00079703132111950817 -0.0016495953910797021 0 -2.4363362521664638e-05 -0.00026326093480754769 0 -3.6969920536019377e-05 -0.00019883681923200982 0 -1.198138188192145e-05 -0.0001718581785012991 0 -0.00019236674027036407 -0.0011978988439546349 0 -0.00026086401375056652 -0.0011514294808117529 0 -0.00018837683773878275 -0.0010695067613974156 0 0.00092131107445996095 -0.0016007892452230166 0 0.00087881225500480609 -0.0016677944319578597 0 0.00085628810011685694 -0.0015424912952716854 0 2.7383033975577838e-09 -1.0868915957514774e-07 0 5.2308876512237128e-06 -6.1523996394978109e-05 0 -3.1085595738449056e-06 -7.8583985890100518e-05 0 0.00081665271612240721 -0.0016196549617850085 0 0.00085628810011685694 -0.0015424912952716854 0 0.00087881225500480609 -0.0016677944319578597 0 5.4157875791890305e-06 -0.000141004871185111 0 -3.1085595738449056e-06 -7.8583985890100504e-05 0 5.2308876512237128e-06 -6.1523996394978109e-05 0 -0.00092133933123347118 -0.0016001479957065913 0 -0.00086618779127148251 -0.0015148308140897552 0 -0.00086397843903783826 -0.0016343764708018668 0 -4.2655873870379548e-08 -0.0031714861697328426 0 -5.083229980353553e-05 -0.0030714040468217472 0 3.0457913455094625e-05 -0.0030445509569648013 0 -2.7070682108776824e-05 -0.0029507749681488269 0 3.0457913455094625e-05 -0.0030445509569648013 0 -5.083229980353553e-05 -0.0030714040468217472 0 -0.00081055188830740502 -0.001536613150971275 0 -0.00086397843903783826 -0.0016343764708018668 0 -0.00086618779127148251 -0.0015148308140897552 0 0.00010721393429091981 -0.002996037231490908 0 4.8841941400992807e-05 -0.0029076472155201405 0 0.00013868176504724521 -0.0028728385499547501 0 -0.00084614047547968167 -0.0017481554711195543 0 -0.00079703132111950817 -0.0016495953910797021 0 -0.00078580821705769867 -0.0017869246851222658 0 -1.668404067745125e-05 -0.00011361814091021157 0 -1.1981381881921452e-05 -0.0001718581785012991 0 -3.6969920536019377e-05 -0.00019883681923200982 0 0.00040118448516690444 -0.0026507674522662861 0 0.00033879027271977331 -0.0025621753648255329 0 0.00039716273064531362 -0.0024946510267496507 0 -0.00067215875013849002 -0.0021972346993889801 0 -0.00062405701348686301 -0.0020877315691018835 0 -0.00058541365936789732 -0.0021817007319415108 0 0.00055203732991761061 -0.00088657786005141685 0 0.00053324738593352639 -0.00097451982798305936 0 0.00047448078475539841 -0.00086599357458317045 0 -0.0001916191626712909 -0.00038591379583373327 0 -0.00018151101475223495 -0.00045506862512928611 0 -0.00023665136021187825 -0.00052247906693539522 0 -0.00030827463819877853 -0.0012840707993475012 0 -0.00023117989812104244 -0.0013321421422869896 0 -0.00031469911072840902 -0.0014095022007475446 0 -0.00010556244347255706 -0.0022785115453643049 0 -6.7951207293778077e-05 -0.0023809436188935193 0 -0.0001349943666156079 -0.0024253903873032254 0 0.00046263789407151426 -0.0016776386415745252 0 0.00051774368194821283 -0.0016225941623247515 0 0.00054572838747306632 -0.0017390539730775885 0 -0.00044272430244086215 -0.0013264588654951269 0 -0.00050370547042701181 -0.0013996924836199918 0 -0.0005171125567867928 -0.0012939300246295402 0 7.2231441145505562e-05 -0.00067972111454114512 0 4.1454018613161752e-05 -0.00058875577394950143 0 8.2113589411583076e-05 -0.00055353171436538988 0 0.00030315230097130468 -0.0031748873541333285 0 0.00027719919302118866 -0.0030247828646768064 0 0.00035500051317684207 -0.0030669172808811761 0 -0.00094599125152204427 -0.002060925560713587 0 -0.00086970857505789742 -0.0020153414673231541 0 -0.00089268812743730484 -0.0021408541437501023 0 0.000854250731362135 -0.001161779507302654 0 0.00079253449628950495 -0.0011675339792249976 0 0.00078347997421110329 -0.0010598857007179773 0 -1.4923375565605904e-08 -1.0822381000306717e-07 0 -3.8933065720589081e-05 -9.3891658746239441e-05 0 -3.7731632965303362e-05 -6.9681868306493411e-05 0 0.00035610874183680282 -0.0029436645150979482 0 0.00035500051317684207 -0.0030669172808811761 0 0.00027719919302118866 -0.0030247828646768064 0 -0.00082909059662065066 -0.0021386013033332053 0 -0.00089268812743730484 -0.0021408541437501023 0 -0.00086970857505789742 -0.0020153414673231541 0 0.00072297785834563261 -0.001026102951950999 0 0.0007834799742111034 -0.0010598857007179773 0 0.00079253449628950495 -0.0011675339792249976 0 -7.8014877678418701e-05 -0.00015297360426541439 0 -3.7731632965303369e-05 -6.9681868306493424e-05 0 -3.8933065720589081e-05 -9.3891658746239441e-05 0 0.00081929880074847045 -0.0014204193867689608 0 0.00078487340492615278 -0.0014970204916950882 0 0.00074861857259722869 -0.0013516001737369442 0 0.00071824889556806534 -0.0014485243324925056 0 0.00074861857259722869 -0.0013516001737369442 0 0.00078487340492615278 -0.0014970204916950882 0 -1.620826943728159e-05 -0.0017723811220295618 0 -8.9724289176099269e-05 -0.0019010366402407602 0 -9.8623684916158586e-05 -0.0017539723373416456 0 8.9846352575729524e-05 -0.0023112011062653821 0 0.00015248300464780029 -0.0024163599468590194 0 7.5936732194015406e-05 -0.002494907187865803 0 -0.00048030055422681111 -0.0016542387468103934 0 -0.00054137224498127673 -0.0017676098110412258 0 -0.00058068619483999317 -0.0016486127289703006 0 0.00046281282134393769 -0.0013554441730578722 0 0.00050849705944001412 -0.0012633201665232991 0 0.00056430940988379708 -0.0013995213161148148 0 -6.0941098103258208e-05 -0.00065313612766891929 0 -9.368864060720151e-05 -0.00056444055355926032 0 -4.2193511294440665e-05 -0.00049370821999176193 0 0.00014447718197652627 -0.0016146567162684808 0 0.00018640652611349651 -0.0015328500950359161 0 0.00023287641116183187 -0.0016600593791006727 0 0.00033911893370408146 -0.0027722066908403556 0 0.00028973849325715159 -0.0028859309793146533 0 0.00025089949525685127 -0.0027611274542043945 0 -0.00073833872278139252 -0.0021017883332253421 0 -0.00079790575474704634 -0.0020282880780047889 0 -0.00073142569925161826 -0.0019574340869782832 0 0.00064208574208455876 -0.0010135801562098624 0 0.00071575802618273018 -0.0011184704686229771 0 0.00066705169051560465 -0.0011550816902007781 0 -0.00012502511293835603 -0.00028149831845792136 0 -7.6101554607247736e-05 -0.0001927619733760929 0 -9.2624593469776346e-05 -0.0002850983751088052 0 -1.620826943728159e-05 -0.0017723811220295618 0 -9.8623684916158586e-05 -0.0017539723373416456 0 -3.9878560479109684e-05 -0.0016302110703383904 0 0.00082020835890376338 -0.002074327246122277 0 0.00077524400704142085 -0.0021818109892688619 0 0.00074418576431656692 -0.0020810352900631694 0 7.3888189905563654e-05 -0.00016294996378556889 0 0.00012316718462876487 -0.00023044393483102299 0 0.00011764603006365955 -0.00027188136417996285 0 -0.0003170449393458318 -0.0029276548245647264 0 -0.00038552201776265274 -0.0028417590153653081 0 -0.00032607148796529094 -0.0027836595911389941 0 -0.00073072035918272298 -0.0010840394313471316 0 -0.00065794509328762616 -0.00095389463488377267 0 -0.00065263517346959214 -0.0010378850417097085 0 0.00022036043751735981 -0.0028970958277847229 0 0.00028973849325715159 -0.0028859309793146533 0 0.00027719919302118866 -0.0030247828646768064 0 -0.00080223603142266721 -0.0019179441587934894 0 -0.00079790575474704634 -0.0020282880780047889 0 -0.00086970857505789742 -0.0020153414673231541 0 0.00074647947587935695 -0.0012305724447958947 0 0.00071575802618273018 -0.0011184704686229771 0 0.00079253449628950495 -0.0011675339792249976 0 -5.4729236588691506e-05 -0.00018158606539612587 0 -7.6101554607247736e-05 -0.0001927619733760929 0 -3.8933065720589081e-05 -9.3891658746239441e-05 0 0.00035610874183680282 -0.0029436645150979482 0 0.00027719919302118866 -0.0030247828646768064 0 0.00028973849325715159 -0.0028859309793146533 0 -0.00082909059662065066 -0.0021386013033332053 0 -0.00086970857505789742 -0.0020153414673231541 0 -0.00079790575474704634 -0.0020282880780047889 0 0.00072297785834563261 -0.001026102951950999 0 0.00079253449628950495 -0.0011675339792249976 0 0.00071575802618273018 -0.0011184704686229771 0 -7.8014877678418701e-05 -0.00015297360426541439 0 -3.8933065720589081e-05 -9.3891658746239441e-05 0 -7.6101554607247736e-05 -0.0001927619733760929 0 0.0001361061894713847 -0.0025535885447121225 0 7.5936732194015406e-05 -0.002494907187865803 0 0.00015248300464780032 -0.0024163599468590194 0 -0.00061613975015371403 -0.0017528739647658864 0 -0.00058068619483999317 -0.0016486127289703006 0 -0.00054137224498127673 -0.0017676098110412258 0 0.00058548085752862925 -0.0013084277616605504 0 0.00056430940988379708 -0.0013995213161148148 0 0.00050849705944001412 -0.0012633201665232991 0 -7.0640429328080033e-05 -0.00044641459377711083 0 -4.2193511294440665e-05 -0.00049370821999176193 0 -9.368864060720151e-05 -0.00056444055355926032 0 -0.0001135841406524765 -0.0020354589572835198 0 -6.5742771739589492e-05 -0.0021499427480776347 0 -0.00014652748185028119 -0.0021540825267539611 0 -0.00010556244347255706 -0.0022785115453643049 0 -0.00014652748185028119 -0.0021540825267539611 0 -6.5742771739589492e-05 -0.0021499427480776347 0 0.0003241359118176364 -0.0016728497247565613 0 0.00038390220636638734 -0.0015880522730732385 0 0.00039424638232656261 -0.0017331617208415906 0 -0.00030827463819877853 -0.0012840707993475012 0 -0.00037756838567666915 -0.0013796121426560802 0 -0.00037459936908350669 -0.001255711374039735 0 0.00046263789407151426 -0.0016776386415745252 0 0.00039424638232656261 -0.0017331617208415906 0 0.00038390220636638734 -0.0015880522730732385 0 -0.00044272430244086215 -0.0013264588654951269 0 -0.00037459936908350669 -0.001255711374039735 0 -0.00037756838567666915 -0.0013796121426560802 0 -7.1756507600753241e-05 -0.0012356942564732004 0 -6.0512172917266835e-05 -0.0010862714779499073 0 8.7068186707181014e-06 -0.001149399139500666 0 -2.2459724447415779e-06 -0.0010288095568887184 0 8.706818670718098e-06 -0.001149399139500666 0 -6.0512172917266835e-05 -0.0010862714779499073 0 7.2231441145505562e-05 -0.00067972111454114512 0 0.00010954130471118353 -0.00079867637553698693 0 4.3988187970145261e-05 -0.00079009666231490507 0 -2.5277131512805009e-05 -0.00079202162704290074 0 4.3988187970145261e-05 -0.00079009666231490507 0 2.3940158010921338e-05 -0.00090458473117921477 0 -7.1756507600753241e-05 -0.0012356942564732004 0 -0.00014281987464780682 -0.0012898188657159179 0 -0.00012674481917499447 -0.0011502971822532858 0 -0.00019236674027036407 -0.0011978988439546349 0 -0.00012674481917499447 -0.0011502971822532858 0 -0.00014281987464780682 -0.0012898188657159179 0 0.00081929880074847045 -0.0014204193867689608 0 0.00085628810011685694 -0.0015424912952716854 0 0.00078487340492615278 -0.0014970204916950882 0 -1.668404067745125e-05 -0.00011361814091021157 0 -3.1085595738449056e-06 -7.8583985890100518e-05 0 -1.198138188192145e-05 -0.0001718581785012991 0 0.00081665271612240721 -0.0016196549617850085 0 0.00078487340492615278 -0.0014970204916950882 0 0.00085628810011685694 -0.0015424912952716854 0 5.4157875791890305e-06 -0.000141004871185111 0 -1.198138188192145e-05 -0.0001718581785012991 0 -3.1085595738449056e-06 -7.8583985890100518e-05 0 0.00010721393429091981 -0.002996037231490908 0 3.0457913455094625e-05 -0.0030445509569648013 0 4.8841941400992807e-05 -0.0029076472155201405 0 -0.00084614047547968167 -0.0017481554711195543 0 -0.00086397843903783826 -0.0016343764708018668 0 -0.00079703132111950817 -0.0016495953910797021 0 -2.7070682108776824e-05 -0.0029507749681488269 0 4.8841941400992807e-05 -0.0029076472155201405 0 3.0457913455094625e-05 -0.0030445509569648013 0 -0.00081055188830740502 -0.001536613150971275 0 -0.00079703132111950817 -0.0016495953910797021 0 -0.00086397843903783826 -0.0016343764708018668 0 0.00040344521454054321 -0.0021794150168939564 0 0.00042193377426716935 -0.0023385922519879813 0 0.00035232243168208235 -0.002254998208025643 0 -0.00040575825709557501 -0.0021759861465779481 0 -0.00049685183372756569 -0.0022148165087982922 0 -0.00044979826744052709 -0.002090061895904527 0 0.00031644759396426273 -0.00081827444434404671 0 0.00038572517432121681 -0.00080382916067189239 0 0.0003710144601126739 -0.00091055119604202279 0 -0.00031345383188277083 -0.00081479828895264169 0 -0.00029409202945560443 -0.00066690425507301909 0 -0.00025754418986301042 -0.00073309516271330682 0 -2.5277131512805009e-05 -0.00079202162704290074 0 9.9888565916735741e-06 -0.00067952702757531451 0 4.3988187970145261e-05 -0.00079009666231490507 0 -7.1488877312889513e-08 -0.0024236596506719997 0 -6.7951207293778077e-05 -0.0023809436188935193 0 -1.884599660199989e-05 -0.0022775988502613011 0 -0.00010556244347255706 -0.0022785115453643049 0 -1.884599660199989e-05 -0.0022775988502613011 0 -6.7951207293778077e-05 -0.0023809436188935193 0 0.00046263789407151426 -0.0016776386415745252 0 0.00045716083955472898 -0.0015252749757867319 0 0.00051774368194821283 -0.0016225941623247515 0 0.00053499345043223122 -0.0015163658139159108 0 0.00051774368194821283 -0.0016225941623247515 0 0.00045716083955472898 -0.0015252749757867319 0 -0.0005352329163486356 -0.0015162927909521686 0 -0.00050370547042701181 -0.0013996924836199918 0 -0.00045311742399254106 -0.0014707624100164486 0 -0.00044272430244086215 -0.0013264588654951269 0 -0.00045311742399254106 -0.0014707624100164486 0 -0.00050370547042701181 -0.0013996924836199918 0 7.2231441145505562e-05 -0.00067972111454114512 0 9.9888565916735673e-06 -0.00067952702757531451 0 4.1454018613161752e-05 -0.00058875577394950143 0 -1.1760545805681251e-07 -0.00055364278018469075 0 4.1454018613161752e-05 -0.00058875577394950154 0 9.9888565916735673e-06 -0.00067952702757531451 0 0.00027815333763779989 -0.0014899493975559152 0 0.00023774059342423638 -0.0013550170466618489 0 0.00030782107029682257 -0.0013674622500370855 0 -7.1488877312889513e-08 -0.0024236596506719997 0 -6.8818007985554957e-05 -0.0025179481371474951 0 -6.7951207293778077e-05 -0.0023809436188935193 0 -0.0005352329163486356 -0.0015162927909521686 0 -0.00057807031104236816 -0.0014143080662237738 0 -0.00050370547042701181 -0.0013996924836199918 0 0.00053499345043223122 -0.0015163658139159108 0 0.00059264751523996643 -0.0016392203272593518 0 0.00051774368194821283 -0.0016225941623247515 0 -1.1760545805681251e-07 -0.00055364278018469075 0 3.7694571868944569e-05 -0.00047305610583533834 0 4.1454018613161752e-05 -0.00058875577394950143 0 7.2231441145505562e-05 -0.00067972111454114512 0 4.3988187970145261e-05 -0.00079009666231490507 0 9.9888565916735673e-06 -0.00067952702757531451 0 0.00029050125536824909 -0.0021451188318232714 0 0.00035232243168208235 -0.002254998208025643 0 0.00028480598676431453 -0.0023049897328901066 0 -0.00038908199818422473 -0.0019806264185041659 0 -0.00044979826744052709 -0.002090061895904527 0 -0.00048077044528846934 -0.0019801912975497046 0 0.0003336605103698795 -0.0010033822682749042 0 0.0003710144601126739 -0.00091055119604202279 0 0.00041788234800544982 -0.0010293739854397945 0 -0.00022570728122113022 -0.00082580022404017575 0 -0.00025754418986301042 -0.00073309516271330682 0 -0.00019830343637198099 -0.00067607141081342395 0 0.00025806862337057556 -0.0012501999299713855 0 0.00030782107029682257 -0.0013674622500370855 0 0.00023774059342423638 -0.0013550170466618489 0 0.00094575363205756137 -0.0020606724957835981 0 0.00089248287944190482 -0.0021231631855872252 0 0.00088774318195372409 -0.0020131291985550121 0 1.2348679289480396e-08 -1.072555790697946e-07 0 3.682590848584619e-05 -6.7954459034626872e-05 0 2.9257153500331838e-05 -7.0183018986880768e-05 0 -0.00030340030721628654 -0.0031749720786476057 0 -0.00034435355582710959 -0.0030671274521322342 0 -0.00027534785028179057 -0.0030612611343863298 0 -0.00085414346744039989 -0.0011627457716243776 0 -0.00078822575311367573 -0.0010763000755105571 0 -0.00081043874517598333 -0.0011783770141123283 0 0.00033680601894731766 -0.0024249863651859701 0 0.00039716273064531362 -0.0024946510267496507 0 0.00033879027271977331 -0.0025621753648255329 0 -0.00054775361686033668 -0.0020755805130907787 0 -0.00058541365936789732 -0.0021817007319415108 0 -0.00062405701348686301 -0.0020877315691018835 0 0.00046307202519957542 -0.00095780205707032449 0 0.00047448078475539841 -0.00086599357458317045 0 0.00053324738593352639 -0.00097451982798305936 0 -0.00021345550415729968 -0.00057472040935578215 0 -0.00023665136021187825 -0.00052247906693539522 0 -0.00018151101475223495 -0.00045506862512928611 0 -0.0001135841406524765 -0.0020354589572835198 0 -4.3915800352792499e-05 -0.0020277066585300155 0 -6.5742771739589492e-05 -0.0021499427480776347 0 -0.00030827463819877853 -0.0012840707993475012 0 -0.00031469911072840902 -0.0014095022007475446 0 -0.00037756838567666915 -0.0013796121426560802 0 -7.1756507600753241e-05 -0.0012356942564732004 0 -0.00012674481917499447 -0.0011502971822532858 0 -6.0512172917266835e-05 -0.0010862714779499073 0 -0.00027599374883926191 -0.0017048148908407079 0 -0.00018854183058874678 -0.0017304267304054436 0 -0.00025614320720962057 -0.001834275989211229 0 0.00022036043751735981 -0.0028970958277847229 0 0.00025089949525685122 -0.0027611274542043945 0 0.00028973849325715159 -0.0028859309793146533 0 -0.00080223603142266721 -0.0019179441587934894 0 -0.00073142569925161826 -0.0019574340869782832 0 -0.00079790575474704634 -0.0020282880780047889 0 0.00074647947587935695 -0.0012305724447958947 0 0.00066705169051560465 -0.0011550816902007781 0 0.00071575802618273018 -0.0011184704686229771 0 -5.4729236588691506e-05 -0.00018158606539612587 0 -9.2624593469776346e-05 -0.0002850983751088052 0 -7.6101554607247736e-05 -0.0001927619733760929 0 -0.00018628667146978019 -0.0018651376038413662 0 -0.00025614320720962057 -0.001834275989211229 0 -0.00018854183058874678 -0.0017304267304054436 0 
</DataArray>
</PointData>
<CellData Scalars="" Vectors="" Tensors="stress,">
<DataArray type="Float64" Name="stress" NumberOfComponents="9" format="ascii">
7144572.5727055073 593779.26237273216 0 593779.26237273216 -101442876.98522091 0 0 0 -33004406.544380426 4705418.9682264328 -1573884.1279383898 0 -1573884.1279383898 -100834871.10725641 0 0 0 -33645308.248660445 1553667.1875231266 -88546.583032011986 0 -88546.583032011986 -101919938.58721161 0 0 0 -35128194.989891052 -12090064.251149386 1790181.865773052 0 1790181.865773052 -102588232.58493543 0 0 0 -40137403.892629683 6431834.2180105448 -702164.01609191298 0 -702164.01609191298 -101639220.60797524 0 0 0 -33322585.236487627 6209859.8349838257 -1092578.1411543489 0 -1092578.1411543489 -101832387.56300545 0 0 0 -33467884.704807639 -555464.82455706596 382289.91611143947 0 382289.91611143947 -102877060.7995255 0 0 0 -36201383.96842885 -403571.87501317263 1134687.2551710606 0 1134687.2551710606 -102556756.03228104 0 0 0 -36036114.767553031 5478491.0947349072 -606523.79468864202 0 -606523.79468864202 -100083224.02428174 0 0 0 -33111656.525341511 1645778.3974796534 1043277.4493057132 0 1043277.4493057132 -98218647.737915993 0 0 0 -33800504.269152641 13624.01532125473 1890221.1802604198 0 1890221.1802604198 -94629929.640285134 0 0 0 -33115706.968737364 -41232579.282158606 -14631124.257806424 0 -14631124.257806424 -99487178.458924562 0 0 0 -49251915.209379099 2384916.5640604496 -155217.88893110096 0 -155217.88893110096 -99776216.979081154 0 0 0 -34086955.145257235 336532.70549494034 153978.47670149803 0 153978.47670149803 -99683849.884045497 0 0 0 -34771561.012492597 3173202.6934452355 -4346436.2611056119 0 -4346436.2611056119 -96615138.096945465 0 0 0 -32704677.39122501 2417730.6781785488 167159.05411839485 0 167159.05411839485 -99769629.221775055 0 0 0 -34073164.490258694 -55783042.94514212 32299030.398632977 0 32299030.398632977 -103633267.93523249 0 0 0 -55795708.808131106 347656.33580040932 -173400.90896546841 0 -173400.90896546841 -99634495.991028786 0 0 0 -34750393.87932992 3245138.238378644 4475840.4989579916 0 4475840.4989579916 -96307168.301609039 0 0 0 -32571710.522130638 -56037957.851201475 -32344766.269771647 0 -32344766.269771647 -104106882.40653129 0 0 0 -56050694.090206467 -710118.016536057 1697271.3146499544 0 1697271.3146499544 -96670176.179938674 0 0 0 -34083102.968766153 -36349933.689459465 -19802626.703816637 0 -19802626.703816637 -89499043.972870708 0 0 0 -44047142.18181555 4283518.93676126 -263369.43948876858 0 -263369.43948876858 -100066066.01199532 0 0 0 -33523891.47633183 350782.4176132679 342177.28025639057 0 342177.28025639057 -99394702.726932526 0 0 0 -34665372.108261824 382092.50060129166 -352783.50294977427 0 -352783.50294977427 -99405016.613609314 0 0 0 -34658023.439552665 -37016039.37362051 19645841.899269246 0 19645841.899269246 -89985878.375323474 0 0 0 -44450671.212130383 4382750.3459236622 298789.04694753885 0 298789.04694753885 -99988785.093524933 0 0 0 -33462112.161660433 -543860.34653878212 -1746787.8462948203 0 -1746787.8462948203 -97017817.099222124 0 0 0 -34146587.106016278 7786820.1189875603 -149004.15427306294 0 -149004.15427306294 -100759059.62906289 0 0 0 -32540283.828526378 3104229.7266723514 1964603.9027863443 0 1964603.9027863443 -99806703.508675337 0 0 0 -33845865.823700964 2841507.0018561482 -1445153.2440598607 0 -1445153.2440598607 -100369222.99628747 0 0 0 -34134700.598051071 -18219809.918232501 -191041.98148481548 0 -191041.98148481548 -97729562.397713125 0 0 0 -40582280.310580999 4904594.9195718765 -168670.53397105879 0 -168670.53397105879 -99967046.014154911 0 0 0 -33271857.883104086 667578.95685747731 336828.1102668047 0 336828.1102668047 -98556857.326608077 0 0 0 -34261247.429412566 565520.13300874992 1213851.608594209 0 1213851.608594209 -87652192.83248347 0 0 0 -30480335.444816142 -52517260.508683942 -17974185.101025134 0 -17974185.101025134 -97548434.527484313 0 0 0 -52522993.262658879 634280.18941106263 -376947.97180634737 0 -376947.97180634737 -98604650.168538764 0 0 0 -34289629.492694721 -52367443.069421664 17893493.297599852 0 17893493.297599852 -97268116.540618196 0 0 0 -52372445.863513954 4893429.1761374474 176820.16919357225 0 176820.16919357225 -100125521.35303068 0 0 0 -33331232.261912584 654903.71462363005 -1429950.1584536135 0 -1429950.1584536135 -87517934.482769728 0 0 0 -30402060.768851161 517750.77396440506 -420371.10523845255 0 -420371.10523845255 -98759345.110114098 0 0 0 -34384558.017652273 -34634014.004368469 16243196.406599157 0 16243196.406599157 -87253527.529874146 0 0 0 -42660639.536984906 5818875.1367995143 329955.70495855808 0 329955.70495855808 -99856526.642771959 0 0 0 -32913178.027090371 -1163694.4286204576 594208.4816577062 0 594208.4816577062 -94954011.406084418 0 0 0 -33641197.042146742 3381830.0856287479 -999426.56695836782 0 -999426.56695836782 -99221110.322682381 0 0 0 -33543748.08296895 3813077.3637572527 822819.05989170074 0 822819.05989170074 -99673609.412362576 0 0 0 -33551186.217011809 7420312.5104122162 619272.62248641253 0 619272.62248641253 -100938644.1361475 0 0 0 -32731416.069007397 4413487.7037537396 -1933393.5437142849 0 -1933393.5437142849 -100847577.01210225 0 0 0 -33751931.257921904 2352744.8997596949 359047.98034375906 0 359047.98034375906 -101674547.82755658 0 0 0 -34762631.02472885 -10353624.975091457 2165984.8817725573 0 2165984.8817725573 -99536341.166729569 0 0 0 -38461488.149637341 2293237.3539140224 -181166.91742777824 0 -181166.91742777824 -100236243.91536427 0 0 0 -34280052.296507359 513847.37867164612 247772.80128896236 0 247772.80128896236 -99968469.721295834 0 0 0 -34809117.819918156 -6944669.8814164996 -8564093.0174907558 0 -8564093.0174907558 -109873387.38630927 0 0 0 -40886320.043704033 2342409.1104089618 187354.06955420971 0 187354.06955420971 -100283938.01557374 0 0 0 -34279535.116807759 -34849864.901815139 25575778.567862403 0 25575778.567862403 -95431575.18947196 0 0 0 -45598504.031950481 500840.92328810692 -269704.13467957079 0 -269704.13467957079 -99927462.82611227 0 0 0 -34799317.665988207 -6251898.1055042744 8762579.5100388229 0 8762579.5100388229 -109762590.63351765 0 0 0 -40605071.058657721 -35163772.438792519 -25647717.936352283 0 -25647717.936352283 -95048063.994948804 0 0 0 -45574142.751809463 -4166080.1738332808 -5562793.9409467876 0 -5562793.9409467876 -100973667.6888369 0 0 0 -36798911.751934558 -30436277.122471541 13363614.452278394 0 13363614.452278394 -102438334.75767571 0 0 0 -46506114.15805155 3126450.2734451294 -1391454.4996128678 0 -1391454.4996128678 -98404628.61463058 0 0 0 -33347362.419414997 5373724.0801374912 896510.87355431914 0 896510.87355431914 -99793914.280176163 0 0 0 -33047066.570013404 5912015.8192521334 -683645.56325137615 0 -683645.56325137615 -100132895.98603415 0 0 0 -32977308.05837369 1157878.698861599 1177687.9678969383 0 1177687.9678969383 -98997910.79229641 0 0 0 -34244011.232702255 -146482.62196457386 1261235.963565886 0 1261235.963565886 -98257408.586286902 0 0 0 -34441361.922887921 -27561400.474343449 -12641251.009473488 0 -12641251.009473488 -91353572.52024506 0 0 0 -41620240.54810597 -36761736.581075229 7170709.5917044785 0 7170709.5917044785 -95490892.354426876 0 0 0 -46288420.127425738 1795689.1327270269 -1580088.0595480204 0 -1580088.0595480204 -97171832.616876364 0 0 0 -33381650.219452262 929714.00026768446 552499.31263068318 0 552499.31263068318 -95017298.56890893 0 0 0 -32930654.599024475 7339716.2489575148 481799.39113837481 0 481799.39113837481 -100344884.12644506 0 0 0 -32551808.757120371 7836174.1552560329 -128803.22405052185 0 -128803.22405052185 -100670307.88671255 0 0 0 -32491946.806009769 3335489.4872224331 1747871.7560477853 0 1747871.7560477853 -98671728.434719563 0 0 0 -33367683.631623983 2787059.8644251823 -1702651.8772683144 0 -1702651.8772683144 -98748662.533583641 0 0 0 -33586560.934205532 -24684629.542897284 -1425146.6849835366 0 -1425146.6849835366 -99009980.046181679 0 0 0 -43293113.356177628 2764107.0843877792 -788623.25339078903 0 -788623.25339078903 -100028562.96504688 0 0 0 -34042559.558230877 3086600.3433665037 859841.75151968002 0 859841.75151968002 -99925884.688296556 0 0 0 -33893749.52072525 -8760416.5496040732 15136919.596209213 0 15136919.596209213 -101186069.27460521 0 0 0 -38481270.038473263 -9645555.6879884899 -15507466.338260867 0 -15507466.338260867 -99830019.206689358 0 0 0 -38316451.213137239 -5449787.9250717759 -7872575.0093416944 0 -7872575.0093416944 -105026488.6776036 0 0 0 -38666696.810936391 -19505045.303393077 14540877.84244357 0 14540877.84244357 -96227465.051751956 0 0 0 -40506378.624300793 -13605702.894623637 12707873.287926629 0 12707873.287926629 -105504447.82910025 0 0 0 -41688552.753303349 -21821702.21197632 -15828345.23451902 0 -15828345.23451902 -104730067.3404476 0 0 0 -44293119.343348354 6494409.7218797207 1100897.7595419884 0 1100897.7595419884 -100991900.12042534 0 0 0 -33074121.639490962 5286237.8842318058 -1811583.8332412541 0 -1811583.8332412541 -99944758.161860466 0 0 0 -33130482.097170115 -2406322.8060775995 -2261309.5644743592 0 -2261309.5644743592 -102754606.97354043 0 0 0 -36806325.422866344 -11771050.986261398 4242577.28606987 0 4242577.28606987 -101903831.41592455 0 0 0 -39786208.840765089 5687201.231171608 579456.6559625864 0 579456.6559625864 -100046291.01333094 0 0 0 -33025681.423755884 135458.52359545231 -1763245.6200574413 0 -1763245.6200574413 -94625146.100271821 0 0 0 -33071390.651836753 1813339.8464244604 -1093451.0070663989 0 -1093451.0070663989 -98143202.556437016 0 0 0 -33715451.948504448 -40433887.02886562 14097287.724012326 0 14097287.724012326 -98686147.919903964 0 0 0 -48692012.232069358 4418198.4441081285 931607.05839836597 0 931607.05839836597 -100285866.15726268 0 0 0 -33553683.699604034 2486930.7201976776 -1082391.7951663733 0 -1082391.7951663733 -99399629.504722118 0 0 0 -33919444.57458353 6987633.3137868643 988476.72122102976 0 988476.72122102976 -100657802.62309694 0 0 0 -32784559.258258581 4850655.2257285118 -1804722.1054694802 0 -1804722.1054694802 -100835997.90567398 0 0 0 -33594869.937980771 -850360.23309373856 -775958.90285003185 0 -775958.90285003185 -101888995.67818546 0 0 0 -35958774.568947792 -11316469.153998494 4113584.4687072933 0 4113584.4687072933 -101578805.98938194 0 0 0 -39513346.300183177 5778771.3424782753 -489386.69981876016 0 -489386.69981876016 -102429743.91428947 0 0 0 -33827840.400133848 868824.75319802761 -644736.49397391826 0 -644736.49397391826 -95432715.47140336 0 0 0 -33097361.751371861 -39328349.054695494 5743992.1917754784 0 5743992.1917754784 -88327883.377647161 0 0 0 -44679681.351319917 8256679.09377186 142737.95520246029 0 142737.95520246029 -99929251.862485528 0 0 0 -32085400.469049767 -31853.142452836037 1250028.2061670795 0 1250028.2061670795 -93486384.05239296 0 0 0 -32731383.018195987 8290701.7318663597 114164.39241844416 0 114164.39241844416 -100035687.79392958 0 0 0 -32110745.121721983 963644.87985223532 1795974.5177440047 0 1795974.5177440047 -95064165.936746716 0 0 0 -32935182.369913042 1712534.8594070077 -1280455.9681004882 0 -1280455.9681004882 -95482697.455847859 0 0 0 -32819556.90875423 -36997619.604986057 3233234.6686427314 0 3233234.6686427314 -92467523.286049619 0 0 0 -45312800.011862472 5209769.2108197249 -301339.21111661196 0 -301339.21111661196 -102430480.96793568 0 0 0 -34027249.114990592 469625.19081836159 -387804.82356292009 0 -387804.82356292009 -97846736.37061511 0 0 0 -34081988.912929006 -51094647.33170905 13943643.066840274 0 13943643.066840274 -94897760.93694742 0 0 0 -51097342.894029759 6058408.1588120461 229439.58906780402 0 229439.58906780402 -100142699.06419325 0 0 0 -32929501.816883326 728400.21939823928 83508.962846368551 0 83508.962846368551 -86832418.931651875 0 0 0 -30136406.549288772 2235274.0420675278 -2066876.1963314414 0 -2066876.1963314414 -98700823.013620853 0 0 0 -33762942.140043616 7881465.7546901703 386481.15639257431 0 386481.15639257431 -100211221.47196364 0 0 0 -32315414.501045704 -24351706.750960201 3176520.5872091949 0 3176520.5872091949 -93127479.431059688 0 0 0 -41117715.163706943 1979474.3448826075 1341587.0289926529 0 1341587.0289926529 -98647837.498349428 0 0 0 -33833927.103713393 2760838.4928950071 -1966280.6743727922 0 -1966280.6743727922 -97353087.253581464 0 0 0 -33107287.066240311 -32476954.719570488 4473702.1702952906 0 4473702.1702952906 -97888066.556521654 0 0 0 -45627757.446632266 7599320.5803592205 471907.63178689778 0 471907.63178689778 -100469609.86921835 0 0 0 -32504601.25110054 1355243.9475450814 907330.38103628159 0 907330.38103628159 -96919191.892788768 0 0 0 -33447381.78083536 4946346.6563873291 -1627915.0510097593 0 -1627915.0510097593 -101544838.94256139 0 0 0 -33809472.300161004 7132905.3021714687 750916.96269261837 0 750916.96269261837 -100936432.55967659 0 0 0 -32831234.540126801 -7053416.7130145058 2237853.7865028679 0 2237853.7865028679 -101431512.84353246 0 0 0 -37969725.344791435 348676.40480351448 234408.63613797724 0 234408.63613797724 -102556325.22870302 0 0 0 -35772677.08836472 7394288.6114535332 -368398.70712604001 0 -368398.70712604001 -101073786.82765961 0 0 0 -32787824.37567234 4418114.7938925065 1521819.4594058394 0 1521819.4594058394 -101707026.48775296 0 0 0 -34051119.092851043 2868002.5814836919 -838794.93067276478 0 -838794.93067276478 -101976136.6833992 0 0 0 -34687846.935670525 -6852913.4217469692 -1232407.5154429413 0 -1232407.5154429413 -99856137.481299758 0 0 0 -37348167.816066384 1402579.5719509721 2380310.736554563 0 2380310.736554563 -94990799.958395958 0 0 0 -32755877.135255754 -40122390.103696823 -20616534.483774088 0 -20616534.483774088 -99420405.984612495 0 0 0 -48839978.630908236 4653344.1136492491 -497293.90588486195 0 -497293.90588486195 -99605822.325082302 0 0 0 -33233367.374001622 1661712.1743862629 636912.64177134633 0 636912.64177134633 -98552498.027170181 0 0 0 -33911775.048474312 1533653.4764978886 -593786.29526913166 0 -593786.29526913166 -98622766.659259796 0 0 0 -33981189.613966703 -39200271.591259748 21334458.186911564 0 21334458.186911564 -98527667.391432837 0 0 0 -48204778.643942386 4795935.5338549614 488389.53778773546 0 488389.53778773546 -99520436.792572021 0 0 0 -33153575.440551043 1543280.7268680334 -2392264.2263280451 0 -2392264.2263280451 -95382169.019758284 0 0 0 -32843610.902511597 7182966.3947206736 -546863.60738904402 0 -546863.60738904402 -101469188.55630398 0 0 0 -33000177.756554246 4619956.715246357 1586796.6889282465 0 1586796.6889282465 -100829218.57425919 0 0 0 -33673241.650654398 1604634.0668479949 -54829.537008881569 0 -54829.537008881569 -101802557.79368213 0 0 0 -35069273.304391906 -11719735.947993517 -1492447.1463643257 0 -1492447.1463643257 -102001988.49140525 0 0 0 -39802603.553789616 4285963.8884099722 -1696031.9517741203 0 -1696031.9517741203 -99562197.214081764 0 0 0 -33346681.663985133 6356161.3637247086 1167278.5729908347 0 1167278.5729908347 -100107191.09283924 0 0 0 -32812860.40519011 -17769079.803418972 8334254.6818772703 0 8334254.6818772703 -101705662.82004797 0 0 0 -41816159.918213405 -4128467.7312269807 -3173841.1874871477 0 -3173841.1874871477 -102149217.73049808 0 0 0 -37197189.911603749 3449792.8750711679 -1848824.4762442708 0 -1848824.4762442708 -99690281.725357294 0 0 0 -33684171.097600222 -16051841.240079105 8316367.4103739485 0 8316367.4103739485 -97401543.70596984 0 0 0 -39708684.7311171 6070270.4927470684 1030584.4357370734 0 1030584.4357370734 -100343248.95161295 0 0 0 -32995542.460602999 279208.28761163354 -2612381.3001728356 0 -2612381.3001728356 -101151609.45439237 0 0 0 -35305340.408373207 5742416.2930760384 -1411530.5030162036 0 -1411530.5030162036 -101211913.39242578 0 0 0 -33414323.984772444 6611594.3004910946 994956.32051074505 0 994956.32051074505 -101261559.88264287 0 0 0 -33127487.953753233 -7049733.6939580441 2374536.2546157539 0 2374536.2546157539 -103083897.74205321 0 0 0 -38546771.002603948 -2219777.3504558206 -1434428.5714569241 0 -1434428.5714569241 -102731320.38106954 0 0 0 -36732884.206033885 7075906.0804045498 -814656.83261370659 0 -814656.83261370659 -100089086.98516193 0 0 0 -32554613.316664904 6467335.7635501623 -962074.78813266754 0 -962074.78813266754 -100416525.7277894 0 0 0 -32882216.487483859 3277515.0947024822 1911645.0517225664 0 1911645.0517225664 -98904149.245321274 0 0 0 -33469321.952716589 3090700.6422196627 1727898.5418541431 0 1727898.5418541431 -99250505.256563425 0 0 0 -33655931.615020394 320507.75704133511 314738.71059728274 0 314738.71059728274 -99416972.362689018 0 0 0 -34683762.611976624 -710726.09083813429 1751201.1632147431 0 1751201.1632147431 -101336697.04489887 0 0 0 -35716598.097507894 -23378800.451099113 -7194762.2419615239 0 -7194762.2419615239 -98455541.86796549 0 0 0 -42642019.811672583 -19815727.058098793 -8634684.3050039262 0 -8634684.3050039262 -96534495.105278343 0 0 0 -40722577.757181972 6409293.5900240541 181929.44617623091 0 181929.44617623091 -102373369.88147366 0 0 0 -33587426.702007234 -179602.61980056763 538711.77098529041 0 538711.77098529041 -102706890.04015326 0 0 0 -36010272.430983901 8123017.6746957302 168664.63766416907 0 168664.63766416907 -100219325.19943762 0 0 0 -32233707.633659601 1696489.7644934654 1242030.9976305962 0 1242030.9976305962 -96316140.567609191 0 0 0 -33116877.781090617 1386403.5099102557 -1955498.2866173983 0 -1955498.2866173983 -97220549.06559968 0 0 0 -33541950.944491237 -31486270.284024358 1019227.6163712153 0 1019227.6163712153 -92480793.184152782 0 0 0 -43388472.213862017 6243879.9663827419 -168647.74200028181 0 -168647.74200028181 -101973718.16353798 0 0 0 -33505443.36900425 6484990.0999035835 -325152.11656683683 0 -325152.11656683683 -102288834.49944472 0 0 0 -33531345.539839506 -28098699.565349057 8798972.6727069393 0 8798972.6727069393 -93338502.91341278 0 0 0 -42503020.86756663 2045714.2311370373 -1458439.5759502351 0 -1458439.5759502351 -98224911.789778709 0 0 0 -33662719.145524263 7396801.3133468032 553998.34011912346 0 553998.34011912346 -99918394.401683509 0 0 0 -32382557.580918133 1698638.921009779 752769.39608761668 0 752769.39608761668 -97103967.743532419 0 0 0 -33391865.087882996 4329696.592515111 -1363541.1374893785 0 -1363541.1374893785 -99247214.286120176 0 0 0 -33221131.192761779 4346340.6015422344 1220095.6879716516 0 1220095.6879716516 -99870523.328559875 0 0 0 -33433463.95445621 -14330492.029548004 10015790.306454368 0 10015790.306454368 -102169798.33610561 0 0 0 -40775101.627978757 -11887320.024355412 -10134909.600876451 0 -10134909.600876451 -104572480.00673139 0 0 0 -40760930.010880351 3452154.6118409634 -1967326.7983877361 0 -1967326.7983877361 -99830594.960665941 0 0 0 -33732454.12208879 7075448.7816371918 858967.0320584774 0 858967.0320584774 -100322303.51692843 0 0 0 -32636399.157351971 -16357263.026147246 6291794.5316091776 0 6291794.5316091776 -96130278.292164534 0 0 0 -39370639.461409122 1462252.2230688334 -528717.42365920544 0 -528717.42365920544 -100662352.52639675 0 0 0 -34720035.106164753 5614780.2774599046 -1032268.8812302351 0 -1032268.8812302351 -102193592.98832309 0 0 0 -33802584.448802188 5522372.5077710152 -706451.0318121314 0 -706451.0318121314 -99594539.419497013 0 0 0 -32925258.419104338 1939020.4818775654 1049455.9935092926 0 1049455.9935092926 -98698590.049102068 0 0 0 -33865849.348528862 4275066.9832241535 -630044.81083208323 0 -630044.81083208323 -100250256.08199883 0 0 0 -33591316.184571028 1558307.9127960205 862068.92196720839 0 862068.92196720839 -99468668.802285671 0 0 0 -34268626.311321259 5074675.4176967144 -1273751.9373094102 0 -1273751.9373094102 -99670863.389530659 0 0 0 -33108665.790142059 4028335.0267212391 -1206228.6754622608 0 -1206228.6754622608 -100114718.74246264 0 0 0 -33630234.300509453 3856743.8946367535 1425070.148598671 0 1425070.148598671 -100075151.40944864 0 0 0 -33676442.630184054 4313609.5291232467 1315130.4477479458 0 1315130.4477479458 -99329521.2229442 0 0 0 -33255569.092837393 -4464648.8797484748 6567423.0534307361 0 6567423.0534307361 -100449504.53443198 0 0 0 -36719953.694963142 -10921153.334676683 9792136.7914548367 0 9792136.7914548367 -104270921.42504397 0 0 0 -40317226.165902257 -11817565.876096725 -10067611.776703022 0 -10067611.776703022 -101093952.05134141 0 0 0 -39519031.274603397 -13246217.807813168 -10047821.428477976 0 -10047821.428477976 -101601438.36762416 0 0 0 -40196679.66140312 1482231.2445654869 -172579.55259680748 0 -172579.55259680748 -100180015.26819944 0 0 0 -34544224.40827179 -18200380.855129793 23286410.542871311 0 23286410.542871311 -128348822.64370576 0 0 0 -51292221.224592447 -21436413.83676637 25864300.288302951 0 25864300.288302951 -105569873.51870891 0 0 0 -44452200.574416347 1341904.0017077923 212277.95106327534 0 212277.95106327534 -99829048.713484764 0 0 0 -34470500.649122 1363966.6885716915 -201694.49862316251 0 -201694.49862316251 -99804178.013743877 0 0 0 -34454073.963810205 -21528527.891594045 -25810377.581230268 0 -25810377.581230268 -105437538.53806512 0 0 0 -44438123.250380673 -16845137.628543615 -22796712.268371433 0 -22796712.268371433 -127751916.90131038 0 0 0 -50608969.085448891 1472880.2611763924 159963.56242001057 0 159963.56242001057 -100238893.99640998 0 0 0 -34568104.807331756 1782984.4707944393 -1458227.5825312734 0 -1458227.5825312734 -97505971.573465586 0 0 0 -33503045.485934854 7935806.3320250511 365216.75676178932 0 365216.75676178932 -99945697.926883936 0 0 0 -32203462.058200479 -29978332.56706135 5915128.8019148335 0 5915128.8019148335 -91028389.538880497 0 0 0 -42352352.73707965 1314586.0128224492 1500929.2446389198 0 1500929.2446389198 -96540910.731904745 0 0 0 -33329213.65167886 6462879.3009451926 -1053738.7729507089 0 -1053738.7729507089 -101225475.92458504 0 0 0 -33166908.818273991 5817522.0204623938 1330108.9625355825 0 1330108.9625355825 -101527041.56875968 0 0 0 -33498331.841904163 -2440538.9247637987 871778.68397828192 0 871778.68397828192 -102823072.39764833 0 0 0 -36842263.962844133 -4411246.0030813515 -2018739.7903950512 0 -2018739.7903950512 -102442446.60702564 0 0 0 -37398792.413537472 300705.81073019118 -630297.72556871176 0 -630297.72556871176 -94550964.029822856 0 0 0 -32987590.376682427 -49601565.389835626 3900559.8386456827 0 3900559.8386456827 -92128363.71228075 0 0 0 -49605475.185740724 8413042.9085299969 128824.27947443134 0 128824.27947443134 -100088803.31806087 0 0 0 -32086516.143335819 947583.69009643642 649442.14356267452 0 649442.14356267452 -89676917.687917128 0 0 0 -31055266.899237216 1440296.4633981287 15135552.432385515 0 15135552.432385515 -107116075.48232031 0 0 0 -36986522.656622753 -40263666.174045324 -34676693.075120181 0 -34676693.075120181 -113325612.72729751 0 0 0 -53756247.615470007 -39918341.322975181 34584773.009635068 0 34584773.009635068 -113498038.40084034 0 0 0 -53695732.903335422 666579.76672673225 -110838.75436776876 0 -110838.75436776876 -99864043.826313496 0 0 0 -34719112.420855284 1702259.8800871372 -144263.95113217831 0 -144263.95113217831 -99659818.137356758 0 0 0 -34285145.390044451 663860.3464949131 100883.92427873611 0 100883.92427873611 -99845169.105349064 0 0 0 -34713458.065598965 1280726.2611634135 -14971027.015759245 0 -14971027.015759245 -107602889.66498408 0 0 0 -37212757.191337228 1688340.8079692125 141582.22019958496 0 141582.22019958496 -99676785.795114219 0 0 0 -34295955.745500684 8157608.4511265606 -132357.93606734276 0 -132357.93606734276 -100139546.37379605 0 0 0 -32193678.272934213 103859.17005681992 860335.65700246766 0 860335.65700246766 -96331505.888326645 0 0 0 -33679676.351394534 734005.64063322544 -474041.18961682543 0 -474041.18961682543 -93021938.147638798 0 0 0 -32300776.377451897 -38842022.328654863 -3689226.7509554625 0 -3689226.7509554625 -88454629.563318849 0 0 0 -44553828.162190795 -16661272.797642976 14799600.730405461 0 14799600.730405461 -101839896.56719482 0 0 0 -41475409.277693212 -5597935.7820378542 -8877242.061663121 0 -8877242.061663121 -100655234.82691835 0 0 0 -37188609.713134646 6093418.4120018259 -1070611.6525269747 0 -1070611.6525269747 -99812210.511672318 0 0 0 -32801577.234884523 3899139.6958529949 1591753.3079873361 0 1591753.3079873361 -98951944.637503147 0 0 0 -33268481.72957778 -3081043.0233186483 3683346.6705898065 0 3683346.6705898065 -101142278.76344287 0 0 0 -36478162.625366509 -22559933.147698097 -10344734.499934271 0 -10344734.499934271 -102225003.24988572 0 0 0 -43674727.739154331 8013534.5475718975 -63772.599105469882 0 -63772.599105469882 -100470038.25004387 0 0 0 -32359776.295865297 2622309.529213652 2071596.0551049113 0 2071596.0551049113 -97228878.33799544 0 0 0 -33112299.083073631 2619456.7598470002 -1626949.0277420282 0 -1626949.0277420282 -97169200.354705274 0 0 0 -33092410.258200333 -30591182.142368048 230262.55330010876 0 230262.55330010876 -97256924.406330734 0 0 0 -44746837.29204458 438668.11145910621 -715428.78188177943 0 -715428.78188177943 -98004421.985446304 0 0 0 -34148013.855895489 6294598.3971703053 706847.2954851687 0 706847.2954851687 -100001987.05640364 0 0 0 -32797586.030731678 -28940954.947628304 12713151.07203497 0 12713151.07203497 -92178463.761722773 0 0 0 -42391796.548272878 1467836.8645278513 -1195166.3055123091 0 -1195166.3055123091 -98641647.717743158 0 0 0 -34010833.79862532 4606837.3975266814 -1828586.4093626142 0 -1828586.4093626142 -99899241.220419526 0 0 0 -33352341.338012278 6080044.2797563076 1243849.1604201198 0 1243849.1604201198 -100728116.29297543 0 0 0 -33126825.204626799 -11658493.818020582 6224148.5829186365 0 6224148.5829186365 -99433749.017891467 0 0 0 -38882284.992569268 -1586410.2658084035 -3156004.5093474984 0 -3156004.5093474984 -101842794.01049322 0 0 0 -36200221.496705592 3052687.1855131388 -1085104.313606143 0 -1085104.313606143 -99737136.711914361 0 0 0 -33839557.334240317 4577555.9197514057 1036666.0380689949 0 1036666.0380689949 -99631291.176194668 0 0 0 -33268807.339755058 4385324.2539907694 -1234829.246401608 0 -1234829.246401608 -102057714.74485958 0 0 0 -34185336.67180419 3770214.2119969055 -827507.20024234056 0 -827507.20024234056 -101892411.56954551 0 0 0 -34342769.075141914 5055814.4142522812 -1688986.7013227493 0 -1688986.7013227493 -99943569.972765446 0 0 0 -33210714.445479393 6336167.4209306836 1276702.8681505919 0 1276702.8681505919 -100186972.14757031 0 0 0 -32847781.654323757 -13378946.146168053 5963581.7663904727 0 5963581.7663904727 -102907173.37607366 0 0 0 -40700141.832784593 -5126982.7696089745 -3253804.2984544337 0 -3253804.2984544337 -103037151.07756567 0 0 0 -37857446.846511245 2758965.5442123115 -287967.31989908218 0 -287967.31989908218 -99468240.096436143 0 0 0 -33848246.093278199 1643568.7897028923 354951.96436959505 0 354951.96436959505 -99335722.914818287 0 0 0 -34192253.943790674 -6893315.4357864857 13077293.223971741 0 13077293.223971741 -103648967.90150201 0 0 0 -38689799.168050945 1659079.0604810715 -378459.09066903591 0 -378459.09066903591 -99313929.376459837 0 0 0 -34179197.610592604 -38036136.479399942 29304463.721977316 0 29304463.721977316 -113566864.97366995 0 0 0 -53061050.508574478 -38408854.272328556 -28473612.438480929 0 -28473612.438480929 -113979240.39604053 0 0 0 -53335833.133929193 2830766.066742897 306225.76063209772 0 306225.76063209772 -99484353.86278224 0 0 0 -33828755.728613615 -6609495.2823828459 -13142898.924470544 0 -13142898.924470544 -104036973.26110035 0 0 0 -38726263.990219086 -907552.65034557506 -52871.724558889866 0 -52871.724558889866 -103022303.18170813 0 0 0 -36375449.541218773 -2195042.5564711094 -174338.00673273206 0 -174338.00673273206 -102889456.95260549 0 0 0 -36779574.828176975 5163827.5306735337 -1082081.7408259511 0 -1082081.7408259511 -101685526.28494525 0 0 0 -33782594.563994974 7869902.4300424904 139244.57759165764 0 139244.57759165764 -100680454.61044911 0 0 0 -32483693.263142362 2980292.9550606012 1512997.9919713214 0 1512997.9919713214 -100136304.13810754 0 0 0 -34004603.914066553 3286052.2535734177 -1868964.2517726794 0 -1868964.2517726794 -99635038.698113918 0 0 0 -33722145.255589247 -18642946.647690088 539517.15668463707 0 539517.15668463707 -97870907.689821362 0 0 0 -40779849.018129051 5713509.1694068909 -959962.84340459108 0 -959962.84340459108 -100362219.43829751 0 0 0 -33127048.594111681 2430106.2169109583 1620024.2970551252 0 1620024.2970551252 -99430896.138762474 0 0 0 -33950276.472648025 -1008578.7835786045 2784232.2745831311 0 2784232.2745831311 -100992657.46095166 0 0 0 -35700432.685585588 -18760568.839556977 -10312201.18441797 0 -10312201.18441797 -94184783.422116429 0 0 0 -39530873.291585714 5330799.6014335155 -1791224.3593217134 0 -1791224.3593217134 -100677512.44334137 0 0 0 -33371349.494667828 6684745.5200937986 1040041.0323473513 0 1040041.0323473513 -101320963.50512958 0 0 0 -33122676.294762611 -7014411.1692497134 2063903.4937669188 0 2063903.4937669188 -101335899.06355214 0 0 0 -37922608.581480682 412864.01785868406 -1086211.5245369673 0 -1086211.5245369673 -102193995.76803792 0 0 0 -35623396.112562746 2770549.2792403698 -1472598.787191689 0 -1472598.787191689 -99840324.418177366 0 0 0 -33974421.298627853 -16015034.567551255 11609270.721877381 0 11609270.721877381 -96754962.731778353 0 0 0 -39469499.054765403 5300345.1741816998 1053187.4816074967 0 1053187.4816074967 -100245501.08404326 0 0 0 -33230804.568451643 -1597788.5730357766 -4740173.5163851231 0 -4740173.5163851231 -101327185.57878447 0 0 0 -36023740.953137159 5669076.0744460821 -615262.72505250573 0 -615262.72505250573 -102011949.85519958 0 0 0 -33720005.823263645 4736527.8160452843 591375.80923420191 0 591375.80923420191 -102411812.57084394 0 0 0 -34186349.664179564 4097253.4369350672 221304.54259979725 0 221304.54259979725 -102835774.39844584 0 0 0 -34558482.336528778 6639294.8047308922 663083.04312588274 0 663083.04312588274 -101795131.01144743 0 0 0 -33304542.672350645 6424513.7227122784 568463.78505811095 0 568463.78505811095 -101825674.2689352 0 0 0 -33390406.191177845 -4318742.5895233154 5929594.8727498949 0 5929594.8727498949 -102121905.15157568 0 0 0 -37254226.70938468 -30798464.163007289 -14271180.624473102 0 -14271180.624473102 -102204452.35289162 0 0 0 -46551020.780564606 3420097.8549054861 282929.5584526062 0 282929.5584526062 -102705904.98865986 0 0 0 -34750032.496814013 5619254.4249219894 -289439.45219033957 0 -289439.45219033957 -99953488.084424019 0 0 0 -33016981.780825853 488705.05837261677 410616.08868950605 0 410616.08868950605 -98694844.533376455 0 0 0 -34372148.816251278 -963439.08295929432 -283312.23991826177 0 -283312.23991826177 -94564271.530858278 0 0 0 -33434698.71483618 -35251182.806886852 -16019096.67273023 0 -16019096.67273023 -87562956.648139417 0 0 0 -42984948.809259191 1079023.3000484705 -1590675.560944736 0 -1590675.560944736 -96529441.621316195 0 0 0 -33407646.412443757 -39175628.714431867 3764067.6776886396 0 3764067.6776886396 -93758210.375452891 0 0 0 -46526843.681459665 7874875.4687130749 317865.83259320259 0 317865.83259320259 -100306646.79568639 0 0 0 -32351119.964440793 1659437.6572967768 806060.85686910897 0 806060.85686910897 -93317259.659522057 0 0 0 -32080237.700778961 5863171.4773003906 520522.56329149008 0 520522.56329149008 -102101161.70256615 0 0 0 -33683296.578843012 -4432188.1785027608 -1018931.5096307695 0 -1018931.5096307695 -102142095.9235056 0 0 0 -37300999.435703002 -7953835.0464837551 -212105.08919996023 0 -212105.08919996023 -102675914.4270106 0 0 0 -38720412.315723002 7872052.7841393948 -116044.59356135718 0 -116044.59356135718 -99919552.77736187 0 0 0 -32216624.997627974 668973.98193291412 434087.24953001738 0 434087.24953001738 -95587447.903265387 0 0 0 -33221465.872466289 631817.44507474825 -897823.25968036056 0 -897823.25968036056 -88218284.77564463 0 0 0 -30655263.565699507 -49480708.264690243 -8801989.9426345602 0 -8801989.9426345602 -91902261.916575715 0 0 0 -49484039.563443087 4894230.7648973465 -1513955.6363397837 0 -1513955.6363397837 -100372271.3737033 0 0 0 -33417314.213082075 5112239.0192801952 1571502.8066679686 0 1571502.8066679686 -100012653.3161664 0 0 0 -33215145.003910303 -7096614.2180997729 6807583.0833511427 0 6807583.0833511427 -101458980.48120248 0 0 0 -37994458.144755781 -6783588.0160656348 -6339751.8478192389 0 -6339751.8478192389 -101223224.66425087 0 0 0 -37802384.438110746 -10237739.711213425 34430573.994393088 0 34430573.994393088 -145977005.90691149 0 0 0 -54675160.966343716 -41114472.547114491 -34399179.858937718 0 -34399179.858937718 -113895649.20253885 0 0 0 -54253542.612378657 -41197769.643625975 34556009.171760038 0 34556009.171760038 -114180741.45969123 0 0 0 -54382478.886161022 -10037077.267865077 -34277329.703907132 0 -34277329.703907132 -145785378.84995267 0 0 0 -54537859.641236186 449787.41874051094 38314.490310668945 0 38314.490310668945 -100150201.93067694 0 0 0 -34895145.079177856 948993.35312789679 -44234.590966701508 0 -44234.590966701508 -100099080.65654612 0 0 0 -34702530.556196511 919182.90718603134 43607.314662098885 0 43607.314662098885 -100123444.80052519 0 0 0 -34721491.662668705 458269.35331344604 -26326.318709075451 0 -26326.318709075451 -100128755.46912384 0 0 0 -34884670.140533924 1518656.2601051331 -506478.77212429047 0 -506478.77212429047 -100034255.95572495 0 0 0 -34480459.893466949 2486867.3671092987 472077.69921784103 0 472077.69921784103 -100240938.34891129 0 0 0 -34213924.843630791 2125723.7161574364 -673490.67800366879 0 -673490.67800366879 -99030785.913426876 0 0 0 -33916771.769044399 -7675777.5548875332 10015429.209295213 0 10015429.209295213 -103532127.05755782 0 0 0 -38922766.614355862 3859505.0388226509 579260.66241407394 0 579260.66241407394 -99473514.552750587 0 0 0 -33464903.329874754 -34558965.530254588 -21935264.06356366 0 -21935264.06356366 -106929708.36005257 0 0 0 -49521035.861607492 -7804405.7998735607 13921225.752318144 0 13921225.752318144 -108331538.20818478 0 0 0 -40647580.402820468 -15283164.427535832 -22415465.788569022 0 -22415465.788569022 -96768450.246842116 0 0 0 -39218065.136032298 5256925.9625104666 -750971.13458259404 0 -750971.13458259404 -102372592.89150882 0 0 0 -33990483.425149322 -1309808.6764314175 1099502.8556116894 0 1099502.8556116894 -102108460.57467461 0 0 0 -36196394.237887025 6925406.5682907104 981274.36979597807 0 981274.36979597807 -100672294.17212725 0 0 0 -32811410.661342859 4147134.430729121 -1889237.9247759581 0 -1889237.9247759581 -99483972.788687289 0 0 0 -33367893.425285488 -1106066.7649425268 -1206048.5488790274 0 -1206048.5488790274 -101828452.82908592 0 0 0 -36027081.857909918 -18997433.86041981 5308435.7424155734 0 5308435.7424155734 -100547346.60692549 0 0 0 -41840673.163570881 486778.28279513121 -115638.41205012798 0 -115638.41205012798 -102984439.88362551 0 0 0 -35874181.560290635 2492217.8397091031 -120927.15221634507 0 -120927.15221634507 -102151292.3991102 0 0 0 -34880676.095790446 6348122.2903950848 967252.1463406086 0 967252.1463406086 -101839846.00420278 0 0 0 -33422103.299832996 8020085.9200494289 -105066.62807762623 0 -105066.62807762623 -100315221.84339333 0 0 0 -32303297.573170185 2358752.8690173626 1920234.6912721395 0 1920234.6912721395 -99151734.457535505 0 0 0 -33877543.555981398 2008157.1524637938 -1874751.1857626438 0 -1874751.1857626438 -99206261.443490505 0 0 0 -34019336.501859426 -21974978.33171308 -1058697.7038546503 0 -1058697.7038546503 -93770774.055896223 0 0 0 -40511013.335663229 6122660.5484293699 903374.38362328708 0 903374.38362328708 -101705579.48960567 0 0 0 -33454021.629411817 5901557.342705965 -1487789.3400528133 0 -1487789.3400528133 -101003195.36837053 0 0 0 -33285573.308982611 6207392.5798396468 1399200.5307997465 0 1399200.5307997465 -101127578.28864276 0 0 0 -33222064.998081028 -3409775.9108350575 2117400.9320676327 0 2117400.9320676327 -101443632.98899776 0 0 0 -36698693.114941508 -1671390.1832002401 -1865529.7982528731 0 -1865529.7982528731 -102237543.07871413 0 0 0 -36368126.641669989 5994501.5639619827 -1210166.8042616844 0 -1210166.8042616844 -100349814.78408337 0 0 0 -33024359.627042532 3732250.9836504459 1695405.408970058 0 1695405.408970058 -100054144.84599638 0 0 0 -33712662.851821423 -1919924.8260781169 3413065.5325484872 0 3413065.5325484872 -101481527.90931046 0 0 0 -36190508.457386017 -13444927.190272778 -8821688.7879169434 0 -8821688.7879169434 -98173162.374925196 0 0 0 -39066331.347819269 -1120725.499510482 -323358.25090414286 0 -323358.25090414286 -102634765.09944652 0 0 0 -36314421.709634975 4974991.2997802496 -1162330.7214143276 0 -1162330.7214143276 -100406609.53920078 0 0 0 -33401066.383797169 3618159.85297966 1500301.4229212403 0 1500301.4229212403 -99460695.755636692 0 0 0 -33544887.56592989 -4865157.8708001375 6517580.6574698985 0 6517580.6574698985 -103614921.01901543 0 0 0 -37968027.611435533 -19283431.986150116 -10490421.740225375 0 -10490421.740225375 -100490645.0246976 0 0 0 -41920926.953796685 6088240.1979124546 -794622.92730557919 0 -794622.92730557919 -102241000.36080813 0 0 0 -33653466.057013512 3763831.1049751639 -1806157.2730764151 0 -1806157.2730764151 -98664296.359535575 0 0 0 -33215162.839096248 -24890307.352838516 8071432.2146790251 0 8071432.2146790251 -101076540.8871578 0 0 0 -44088396.883998692 6811062.4409122467 876982.74982258677 0 876982.74982258677 -100310734.45019627 0 0 0 -32724885.203249454 -1726289.7129525691 -1255821.5295417607 0 -1255821.5295417607 -100776803.02704498 0 0 0 -35876082.458999172 5008689.4770116806 1448222.8761821985 0 1448222.8761821985 -99454728.355094433 0 0 0 -33056113.60732913 5159975.3316221237 -1391655.7543470263 0 -1391655.7543470263 -99513849.988501072 0 0 0 -33023856.12990737 -13924710.316892028 -8423530.3078517765 0 -8423530.3078517765 -104338741.72309399 0 0 0 -41392208.213995099 -12542157.461254269 7816955.0552101135 0 7816955.0552101135 -104484909.71970838 0 0 0 -40959473.513336927 6813375.5020327568 107590.50715982914 0 107590.50715982914 -101673133.73295116 0 0 0 -33200915.380821347 583362.1554889679 559888.10185986757 0 559888.10185986757 -102842591.57965136 0 0 0 -35790730.298456907 1477514.4514935017 104886.92184788361 0 104886.92184788361 -102614457.04947281 0 0 0 -35397929.909292698 5536556.1278111339 -1576800.4024668932 0 -1576800.4024668932 -100813799.2372663 0 0 0 -33347035.088309348 6364264.0525457859 1338371.8870995641 0 1338371.8870995641 -100354778.16753912 0 0 0 -32896679.940247774 5093515.1720527411 -1833327.4292584062 0 -1833327.4292584062 -100525783.22556257 0 0 0 -33401293.818728328 6217216.9058972597 1335481.0271983743 0 1335481.0271983743 -100744026.81730008 0 0 0 -33084383.468990922 -8116484.9309331179 4442066.9826178551 0 4442066.9826178551 -102738619.93757391 0 0 0 -38799286.703977466 -5484874.1312464327 -2762155.8569223285 0 -2762155.8569223285 -102903131.73657098 0 0 0 -37935802.053736076 -7427485.0476909876 4315242.3866675198 0 4315242.3866675198 -100111065.70865643 0 0 0 -37638492.764721572 -1318040.1357911229 -2681152.2830220163 0 -2681152.2830220163 -101585927.55097836 0 0 0 -36016388.690369308 6182558.561519146 -793958.3079188168 0 -793958.3079188168 -99744454.248226166 0 0 0 -32746663.490347385 2856456.4621269107 1362545.6752668619 0 1362545.6752668619 -98015164.619678736 0 0 0 -33305547.855143368 -1468994.6130699292 2964780.4045293033 0 2964780.4045293033 -99380012.859346837 0 0 0 -35297152.615345873 -34233270.434745997 -13202703.993767047 0 -13202703.993767047 -103590814.31124797 0 0 0 -48238429.661097884 7133034.5449376106 -946354.80639386922 0 -946354.80639386922 -100674987.27129483 0 0 0 -32739683.454225063 6739521.3636214733 -1002180.7334262729 0 -1002180.7334262729 -100910633.04638481 0 0 0 -32959889.088967085 4497800.0530779064 1918115.0769301653 0 1918115.0769301653 -100720921.39404914 0 0 0 -33678092.469339877 4851136.0825567842 1940878.865103662 0 1940878.865103662 -99706555.420771599 0 0 0 -33199396.768375099 1077481.0271570394 353405.76031297445 0 353405.76031297445 -101775525.8758081 0 0 0 -35244315.697027951 -961684.97462373972 1608626.1182724833 0 1608626.1182724833 -102101682.19671851 0 0 0 -36072178.509969771 -10736357.90205124 -3822704.9549252368 0 -3822704.9549252368 -99502815.860733569 0 0 0 -38583710.81697464 -14598911.290324152 -4082317.8832297847 0 -4082317.8832297847 -101376028.85096359 0 0 0 -40591229.049450696 1347162.7712318897 -839496.13845551014 0 -839496.13845551014 -96826184.715451002 0 0 0 -33417657.680476665 -35489213.321877152 8737671.2859050147 0 8737671.2859050147 -90499666.376623496 0 0 0 -44096107.894475222 7737095.4416861534 264926.4783731997 0 264926.4783731997 -99878806.674115658 0 0 0 -32249598.93135047 988571.56152352691 1228585.3759078383 0 1228585.3759078383 -94469597.704532027 0 0 0 -32718359.150053054 6205088.64161551 -1317536.0115905404 0 -1317536.0115905404 -101464857.56960607 0 0 0 -33340919.124796748 6164014.6817922592 1373202.8475704193 0 1373202.8475704193 -100841761.31206703 0 0 0 -33137211.32059598 -2890174.5855172276 2332284.5986165106 0 2332284.5986165106 -102588697.97424185 0 0 0 -36917605.395915687 -3613961.1829066277 -1998823.6760357022 0 -1998823.6760357022 -102014453.28623176 0 0 0 -36969945.064198494 5669538.3602221012 -1494016.7342041731 0 -1494016.7342041731 -99960779.4683671 0 0 0 -33001934.387850761 4834267.2822089195 1682606.6024922132 0 1682606.6024922132 -100434078.13179016 0 0 0 -33459933.797353506 -5729400.9272745252 4318252.6184136271 0 4318252.6184136271 -101422134.27458572 0 0 0 -37503037.320650995 -9394025.3037535548 -6591569.5079031587 0 -6591569.5079031587 -102708726.56419832 0 0 0 -39235963.153783143 5618713.4594628215 568871.32781636715 0 568871.32781636715 -102523189.51102936 0 0 0 -33916566.618048489 -49651458.35917408 -6044696.6543102385 0 -6044696.6543102385 -92213430.476189226 0 0 0 -49652711.092377149 964707.07352182548 -1090145.0384911299 0 -1090145.0384911299 -89647962.805500075 0 0 0 -31039139.506192353 959747.62257989333 374530.59181374311 0 374530.59181374311 -94160698.559096172 0 0 0 -32620332.827780642 8469640.309425354 -48419.308253461364 0 -48419.308253461364 -99904877.839335918 0 0 0 -32002333.135468721 -10400438.206541758 12161902.416816518 0 12161902.416816518 -116011773.52175699 0 0 0 -44244274.104904577 -56119135.333423935 -32362083.219490189 0 -32362083.219490189 -104156927.09704416 0 0 0 -56096621.850663833 1510792.973508358 -53015.586866606507 0 -53015.586866606507 -100190934.42479753 0 0 0 -34538049.50795126 249773.18600559235 40315.263814210892 0 40315.263814210892 -99942363.423153877 0 0 0 -34892406.583001614 240911.4425260424 -54350.520733952522 0 -54350.520733952522 -99935512.560991392 0 0 0 -34893110.391462624 -55864214.718869604 32315556.382235888 0 32315556.382235888 -103682969.41215451 0 0 0 -55841514.445858434 1522432.2845315933 57083.70502824126 0 57083.70502824126 -100192071.26086092 0 0 0 -34534373.641715527 -10373258.113868428 -12102016.699009299 0 -12102016.699009299 -116073868.37463744 0 0 0 -44256494.270977095 3379668.4717853069 -1557557.8041618168 0 -1557557.8041618168 -98750650.663997173 0 0 0 -33379843.767274141 -25621098.045294404 11358572.557019904 0 11358572.557019904 -101877576.67338827 0 0 0 -44624536.151538953 6284700.4879512787 962062.60541367531 0 962062.60541367531 -99780622.298162103 0 0 0 -32723572.633573651 -2294712.4190394878 -2361465.1010663062 0 -2361465.1010663062 -100405347.11728156 0 0 0 -35945020.837712348 7300911.4793217182 -133933.71518665552 0 -133933.71518665552 -101625369.79818368 0 0 0 -33013560.411601782 3738440.9558534622 1172651.3326043487 0 1172651.3326043487 -101233376.01890826 0 0 0 -34123227.272069097 2935312.2372431755 -855006.19772699475 0 -855006.19772699475 -101409936.14502501 0 0 0 -34466118.367723584 -12728613.453829318 -644076.19439294934 0 -644076.19439294934 -102344303.20244968 0 0 0 -40275520.829697639 4725197.2756642103 -828439.86847814638 0 -828439.86847814638 -102462324.33354974 0 0 0 -34207994.470260024 -3430095.2992708683 313319.15689952672 0 313319.15689952672 -102376145.25959456 0 0 0 -37032184.195602894 2921797.2779100835 -31761.338699221611 0 -31761.338699221611 -102925624.0612092 0 0 0 -35001339.374154598 6858726.4618673325 -907310.73088896275 0 -907310.73088896275 -100534337.51492023 0 0 0 -32786463.86856842 3503545.9882540703 2021338.9217108488 0 2021338.9217108488 -99662244.051407576 0 0 0 -33655544.322103977 747979.22801530361 612298.49194768071 0 612298.49194768071 -101349910.75998759 0 0 0 -35210676.036190391 -16832076.479932576 -5851030.6302305609 0 -5851030.6302305609 -97105331.367014974 0 0 0 -39878092.746431679 7776859.2174633741 -186547.70588338375 0 -186547.70588338375 -100192143.6914047 0 0 0 -32345349.565879703 -265891.37031781673 744391.996900931 0 744391.996900931 -96896134.034813404 0 0 0 -34006708.891796112 -353224.27465081215 -337171.64702234417 0 -337171.64702234417 -92946080.036105871 0 0 0 -32654756.508764863 -37857421.677141473 -6567828.3875858225 0 -6567828.3875858225 -85826581.340547174 0 0 0 -43289401.05619102 5926419.5103867054 -1056232.8596375585 0 -1056232.8596375585 -101457556.9489584 0 0 0 -33435898.103500128 -3210140.2788698077 698838.2849483192 0 698838.2849483192 -102967417.84459054 0 0 0 -37162145.343211114 6706865.2854927778 -803905.34052351117 0 -803905.34052351117 -101702909.33809042 0 0 0 -33248615.418409109 5226083.8070122004 1320340.918843627 0 1320340.918843627 -101538225.79442799 0 0 0 -33709249.695595503 1656999.4699693322 248127.8924356997 0 248127.8924356997 -102563065.31448543 0 0 0 -35317123.045580626 -4206492.895067811 -895576.29740086198 0 -895576.29740086198 -102037314.94334328 0 0 0 -37185332.743443787 -41859227.751022704 7319788.9421225861 0 7319788.9421225861 -90069213.00479275 0 0 0 -46174954.264535412 170607.30663061142 -784821.1426281333 0 -784821.1426281333 -96675568.680992603 0 0 0 -33776736.481026769 1105917.9579530954 423237.40529185534 0 423237.40529185534 -90971826.356521249 0 0 0 -31453067.939498842 7692594.6797556877 226624.46150255203 0 226624.46150255203 -100251174.34698248 0 0 0 -32395502.883529425 7637314.9461490512 -135336.64506185055 0 -135336.64506185055 -100974453.68442804 0 0 0 -32667998.558397591 3586328.4586900473 1681027.9243459255 0 1681027.9243459255 -101029810.16594911 0 0 0 -34105218.597540617 3355331.653627634 -1185965.8418914452 0 -1185965.8418914452 -101377099.36603951 0 0 0 -34307618.699344158 -11477432.170866571 37024.478031530976 0 37024.478031530976 -99238569.9222489 0 0 0 -38750600.7325904 7368200.5758801699 615612.3881380558 0 615612.3881380558 -100836512.11507988 0 0 0 -32713909.038719893 1097784.8018266559 311877.92300105095 0 311877.92300105095 -101046744.11426425 0 0 0 -34982135.759353161 4324740.326295495 -1813265.3502081037 0 -1813265.3502081037 -100098321.85450768 0 0 0 -33520753.53487432 -16479325.744967967 3379564.6039322466 0 3379564.6039322466 -100739068.76279145 0 0 0 -41026438.077715844 4839951.6970119476 -1713789.0511847138 0 -1713789.0511847138 -100383755.54661703 0 0 0 -33440331.347361803 5506334.3726806641 1496573.8592169285 0 1496573.8592169285 -100505967.6421032 0 0 0 -33249871.6442976 -6857878.6093930602 5671672.045121491 0 5671672.045121491 -99670727.13605237 0 0 0 -37285012.010905921 -3518512.4767483473 -4286189.2871837318 0 -4286189.2871837318 -100958983.48151481 0 0 0 -36567123.585392058 5830453.0784002542 -2994.5790715813637 0 -2994.5790715813637 -102544209.66540599 0 0 0 -33849814.805451989 3579314.2253452539 482585.73620164394 0 482585.73620164394 -102732910.51305437 0 0 0 -34703758.700698376 7029668.7075587623 -969715.67656117678 0 -969715.67656117678 -100340486.69868666 0 0 0 -32658786.296894897 4182562.2844202518 1772953.8072373625 0 1772953.8072373625 -99804788.699146509 0 0 0 -33467779.245154381 -805521.65765058994 997394.03916235641 0 997394.03916235641 -101314578.43117499 0 0 0 -35742035.031088948 -16891090.387025662 -6513382.2414348722 0 -6513382.2414348722 -100100365.17826901 0 0 0 -40947009.447853155 -5774044.6307551265 9021579.512919113 0 9021579.512919113 -101134678.42272305 0 0 0 -37418053.06871739 -16322872.486417323 -14695989.330578506 0 -14695989.330578506 -100885683.11997092 0 0 0 -41022994.462235898 3102290.8001132011 -140293.91592559218 0 -140293.91592559218 -102898128.00349331 0 0 0 -34928543.021183014 3992706.5903210789 -682619.97153872252 0 -682619.97153872252 -102544865.10817981 0 0 0 -34493255.481250629 7809869.6131526232 -320987.30764627457 0 -320987.30764627457 -100523065.94089389 0 0 0 -32449618.71470964 7853956.2396561503 -337303.3069422245 0 -337303.3069422245 -100503639.62213171 0 0 0 -32427389.183866322 2884730.8078061342 2180069.0993372649 0 2180069.0993372649 -97921442.857650757 0 0 0 -33262849.217445731 3063201.6455335617 1855981.0759574473 0 1855981.0759574473 -98699784.085078955 0 0 0 -33472803.853840828 2365794.6262456179 -1134898.2465443835 0 -1134898.2465443835 -97877745.785676956 0 0 0 -33429182.905800939 1915287.4191356897 -1480922.5989313424 0 -1480922.5989313424 -98821301.278579473 0 0 0 -33917104.850805402 -28276226.444251634 -1830977.7059271336 0 -1830977.7059271336 -97417787.371604681 0 0 0 -43992904.83554972 -24259678.082940847 -3426643.4147077352 0 -3426643.4147077352 -97227983.062265635 0 0 0 -42520681.400822252 6787272.4234506339 -801682.00574469566 0 -801682.00574469566 -99820675.763829052 0 0 0 -32561691.169132546 3140998.3152287006 1631420.391648449 0 1631420.391648449 -98107043.109660149 0 0 0 -33238115.678051233 288096.20444118977 1268535.2492438592 0 1268535.2492438592 -97922389.994179249 0 0 0 -34172002.826408386 -29828161.605196282 -10202111.828909218 0 -10202111.828909218 -100126492.12296055 0 0 0 -45484128.804854855 4378162.4566113949 -1543629.0938028395 0 -1543629.0938028395 -98976593.18311882 0 0 0 -33109450.754277706 5609973.1913327575 1188248.047957778 0 1188248.047957778 -99804238.977963686 0 0 0 -32967993.025320828 -20849042.748249933 10142120.770049259 0 10142120.770049259 -104361873.29470761 0 0 0 -43823820.615035132 -7068012.8760282993 -6297513.656580478 0 -6297513.656580478 -103035789.48424816 0 0 0 -38536330.826096773 -1264110.9980000854 4771368.9283511564 0 4771368.9283511564 -100535019.19759333 0 0 0 -35629695.568457603 -18328327.967396989 -12541748.511542797 0 -12541748.511542797 -95559705.733742937 0 0 0 -39860811.795398965 7864828.4112653732 131676.02101913095 0 131676.02101913095 -100627290.52143717 0 0 0 -32466861.738559961 2672618.445725292 1675012.6039971709 0 1675012.6039971709 -98676906.522081256 0 0 0 -33601500.826724678 3097336.321596086 -1779013.2044162154 0 -1779013.2044162154 -98805234.00118649 0 0 0 -33497764.187856615 -24642994.421598166 1480990.8040149882 0 1480990.8040149882 -98361106.843571484 0 0 0 -43051435.442809373 6923158.9920281172 143491.00635325909 0 143491.00635325909 -101858524.41969824 0 0 0 -33227377.899684668 3834945.8895802498 747198.49654722214 0 747198.49654722214 -102467899.08820164 0 0 0 -34521533.619517684 7494762.4510164261 -666554.29347956181 0 -666554.29347956181 -100201596.76621246 0 0 0 -32447392.010318518 2519851.490624547 1925860.2261793017 0 1925860.2261793017 -99373727.090858459 0 0 0 -33898856.460081935 1370393.1528271735 -428640.23809224367 0 -428640.23809224367 -99757965.983560324 0 0 0 -34435650.49075672 -20011612.728396773 -6044435.5982708819 0 -6044435.5982708819 -93534712.963997722 0 0 0 -39741213.992338061 3495047.333409667 -805079.31653478742 0 -805079.31653478742 -102557582.45563841 0 0 0 -34671887.292780042 5001965.8917992115 -365405.19092983007 0 -365405.19092983007 -102753277.9265945 0 0 0 -34212959.212178349 2670233.3216869757 -287736.90281242132 0 -287736.90281242132 -103129075.46150957 0 0 0 -35160594.748937853 7535263.2570332289 -554052.03777730465 0 -554052.03777730465 -100391552.06185317 0 0 0 -32499701.081686854 3426431.6895139217 2098726.4301598966 0 2098726.4301598966 -97558968.601209402 0 0 0 -32946387.919093609 1837823.8034342527 -577793.19705036283 0 -577793.19705036283 -97529623.841281414 0 0 0 -33492130.013246536 -30372929.118025646 -4643657.1945793852 0 -4643657.1945793852 -99458284.89259848 0 0 0 -45440924.903718442 4506897.9282099344 642968.0035161376 0 642968.0035161376 -102294586.22608256 0 0 0 -34225690.90425548 7824921.6774616241 367151.58402520418 0 367151.58402520418 -100451322.32117605 0 0 0 -32419240.225300074 2427434.9452148676 1214096.6703516841 0 1214096.6703516841 -99961622.080979586 0 0 0 -34136965.497517586 3020284.6473312974 -2073223.472581625 0 -2073223.472581625 -99462733.094434023 0 0 0 -33754856.956485927 -19067427.417638034 2186617.290305458 0 2186617.290305458 -95050714.648995757 0 0 0 -39941349.723321825 348783.44603073644 2881130.7245264053 0 2881130.7245264053 -99538477.163351491 0 0 0 -34716392.801062226 -3805985.9199130833 5634237.9897288978 0 5634237.9897288978 -102780294.63252079 0 0 0 -37305198.193351954 -26386792.866111606 -15100947.090967882 0 -15100947.090967882 -93975186.171068281 0 0 0 -42126692.663012981 -32576953.137584984 -16793987.435442898 0 -16793987.435442898 -98518400.485680878 0 0 0 -45883373.768143058 3871577.1555263996 55945.663895905018 0 55945.663895905018 -102840364.82214069 0 0 0 -34639075.683315039 -16018369.085854501 -13421607.461425215 0 -13421607.461425215 -108261995.83089775 0 0 0 -43498127.720863253 -21809895.94548513 15804561.151391909 0 15804561.151391909 -105344697.5313988 0 0 0 -44504107.716909394 4969616.8277725931 -868426.34218788147 0 -868426.34218788147 -100395305.85731845 0 0 0 -33398991.160341047 5470531.2113407105 -1018217.6107106209 0 -1018217.6107106209 -99648579.902748823 0 0 0 -32962317.041992858 2210978.5198674202 1336461.596966791 0 1336461.596966791 -99212627.946543694 0 0 0 -33950577.29933691 3017227.6233029366 1313715.2865290754 0 1313715.2865290754 -99143606.851015091 0 0 0 -33644232.729699135 -30782702.904793978 16314972.722993772 0 16314972.722993772 -98276065.481412947 0 0 0 -45170568.935172409 -3433060.7385724485 -5588506.3522130847 0 -5588506.3522130847 -102461519.09354836 0 0 0 -37063102.941242307 1809477.5330685377 -935360.22773861885 0 -935360.22773861885 -99159194.588594794 0 0 0 -34072400.969434142 4382798.040725708 605369.2728638649 0 605369.2728638649 -100137485.15590143 0 0 0 -33514140.490311623 -25376940.715372458 14307588.662063569 0 14307588.662063569 -93690711.797304973 0 0 0 -41673678.379437104 100569.95144462585 -2782498.5387394726 0 -2782498.5387394726 -101134842.59129727 0 0 0 -35361995.423948407 1516035.2702403069 -1116480.7811985016 0 -1116480.7811985016 -99438965.586940289 0 0 0 -34273025.610844612 5142749.4732277393 729270.40459275246 0 729270.40459275246 -99878194.509760141 0 0 0 -33157405.762786388 5708579.3345897198 -1608454.6409802437 0 -1608454.6409802437 -100508697.94252253 0 0 0 -33180041.512776494 5529953.4310336113 -1495386.3125523478 0 -1495386.3125523478 -100235499.98013067 0 0 0 -33146941.292183876 5568993.0425519943 1594951.4535364509 0 1594951.4535364509 -100695152.58364487 0 0 0 -33294155.839382172 5872935.350500226 1525226.6126972437 0 1525226.6126972437 -99802933.948805094 0 0 0 -32875499.509406447 -4713667.9941613674 3884140.3615328372 0 3884140.3615328372 -101108281.45570195 0 0 0 -37037682.307452202 -9123714.1355968863 5411721.670594871 0 5411721.670594871 -103878135.36314815 0 0 0 -39550647.324560776 -4252693.8510189056 -4153410.9309499264 0 -4153410.9309499264 -101405300.24429893 0 0 0 -36980297.933361232 -8143572.3488299251 -4546928.6110217944 0 -4546928.6110217944 -102983306.66273844 0 0 0 -38894407.654048979 2662521.8334988356 -1637759.4450163245 0 -1637759.4450163245 -98403163.203290939 0 0 0 -33509224.479427218 6002592.269356966 867601.97831892967 0 867601.97831892967 -100336075.37326527 0 0 0 -33016719.086367846 -29854506.870319724 10267108.024895772 0 10267108.024895772 -97937800.80350852 0 0 0 -44727307.685839891 -675831.82089346647 -2525026.8058734536 0 -2525026.8058734536 -99980742.244189978 0 0 0 -35229800.922779143 2595778.0664147139 53311.586008578539 0 53311.586008578539 -102686830.60384774 0 0 0 -35031868.388101697 1666432.9116234779 -323502.35120153241 0 -323502.35120153241 -102410211.47395444 0 0 0 -35260322.496815681 2513550.6607182026 -213593.11278676987 0 -213593.11278676987 -102315044.08116651 0 0 0 -34930522.697157025 4361499.574333787 -1078114.4356176853 0 -1078114.4356176853 -99610171.731684923 0 0 0 -33337035.255072951 3167215.977080822 1128654.9828615189 0 1128654.9828615189 -99811334.265049934 0 0 0 -33825441.400789261 -4902161.7421278656 7810042.635288775 0 7810042.635288775 -105317546.17530501 0 0 0 -38576897.771101534 -18539242.181558847 -14133419.886647023 0 -14133419.886647023 -95969366.897586852 0 0 0 -40078013.177700967 -21712790.828315169 24664847.526486121 0 24664847.526486121 -98657832.218977511 0 0 0 -42129718.06655243 -7707115.191042468 -13603714.318711683 0 -13603714.318711683 -107810486.810525 0 0 0 -40431160.700548604 3028605.4593632221 -1918091.6840919852 0 -1918091.6840919852 -97948886.712272644 0 0 0 -33222098.438518286 -29769758.45703958 6817495.6036004573 0 6817495.6036004573 -98502095.533579618 0 0 0 -44895148.896716699 7095494.4650788307 666042.98847305775 0 666042.98847305775 -100388660.01929283 0 0 0 -32652607.943974972 469839.45298099518 -202957.10700006783 0 -202957.10700006783 -98229241.419620275 0 0 0 -34215790.688323736 -18134856.211663738 16773801.354683265 0 16773801.354683265 -98874722.496873111 0 0 0 -40953352.547987893 -3309095.8754327297 -10088340.843892276 0 -10088340.843892276 -102204795.85706651 0 0 0 -36929862.106374711 6085561.3558549881 -204812.38295710087 0 -204812.38295710087 -100115625.50207853 0 0 0 -32910522.451178312 468494.49331095343 355508.13516324759 0 355508.13516324759 -97754260.81977886 0 0 0 -34050018.214263655 773277.77023143042 -61471.657984256744 0 -61471.657984256744 -86590694.583671421 0 0 0 -30036095.88470393 -50970133.3475862 -14171880.397714773 0 -14171880.397714773 -94665036.498892546 0 0 0 -50972309.44626756 8522609.4116415977 -30295.145664334297 0 -30295.145664334297 -99925261.546374321 0 0 0 -31990928.24715662 1226928.2211344242 663595.93541610241 0 663595.93541610241 -94303179.008841753 0 0 0 -32576687.775697708 431011.21689665318 -999235.33597609401 0 -999235.33597609401 -93756375.387574673 0 0 0 -32663877.459737182 -40606578.17346292 -2188150.9182664044 0 -2188150.9182664044 -89125934.143885866 0 0 0 -45406379.311072081 -1767059.094963342 257582.48034784198 0 257582.48034784198 -101668110.38392097 0 0 0 -36202309.317609519 1975668.8852351904 -914585.04806536436 0 -914585.04806536436 -99964358.753192902 0 0 0 -34296041.453785062 3483805.2159352303 710368.12580382824 0 710368.12580382824 -100138925.00053024 0 0 0 -33829291.924607992 4050459.7520998716 -219017.71975097805 0 -219017.71975097805 -102756852.00624442 0 0 0 -34547237.288950562 535340.98682951927 -1366196.9979392439 0 -1366196.9979392439 -95951017.622576475 0 0 0 -33395486.822511554 1504151.9633586407 -1308473.2266465575 0 -1308473.2266465575 -93359866.035499096 0 0 0 -32149499.925249338 3463037.5479626656 -267077.35853397846 0 -267077.35853397846 -99788921.804109097 0 0 0 -33714059.489651442 598472.30820441246 334237.49849528074 0 334237.49849528074 -99586197.851363659 0 0 0 -34645703.940105677 3236808.5640892312 396503.25340104103 0 396503.25340104103 -100367436.84264973 0 0 0 -33995719.897496291 982251.53304123878 -540271.82522343844 0 -540271.82522343844 -99638846.694913387 0 0 0 -34529808.306655407 -4447324.066927731 -8358849.0185081046 0 -8358849.0185081046 -105984632.04526484 0 0 0 -38651184.639267415 -37001874.840233259 21352939.579625316 0 21352939.579625316 -97345164.934002623 0 0 0 -47021463.920982547 3700608.8507503271 272841.26079809666 0 272841.26079809666 -99643999.557844996 0 0 0 -33580186.747482896 744514.07141065598 -328616.87763494253 0 -328616.87763494253 -99378243.8042593 0 0 0 -34521805.406497002 4188044.5266805887 -3475457.8159461319 0 -3475457.8159461319 -96465401.754772186 0 0 0 -32297075.029832065 -38886677.652915351 23651313.714596208 0 23651313.714596208 -95557209.548648193 0 0 0 -47055360.520547234 3985929.943667084 3417798.850912258 0 3417798.850912258 -96194063.735486627 0 0 0 -32272846.827136844 -38559613.015920967 -23575167.14406468 0 -23575167.14406468 -95495234.627653956 0 0 0 -46919196.675251223 -4231335.8255409002 7871537.1307670772 0 7871537.1307670772 -106486831.636729 0 0 0 -38751358.611794472 -33752745.837543331 -20549096.79651653 0 -20549096.79651653 -96002073.167275697 0 0 0 -45414186.651686646 6198007.1850523949 631279.27789837122 0 631279.27789837122 -102185805.00144076 0 0 0 -33595729.235735893 5036006.9304965138 -13333.526245117188 0 -13333.526245117188 -102856195.11453903 0 0 0 -34237065.86441499 -289442.86349356174 -125838.35315984488 0 -125838.35315984488 -102945839.99137926 0 0 0 -36132348.99920547 531971.33940406144 -753943.532235533 0 -753943.532235533 -102101162.76268056 0 0 0 -35549216.998146698 -203829.93007343262 -657526.55572861433 0 -657526.55572861433 -103076163.4431597 0 0 0 -36147997.680631571 -5017406.9275223166 614367.39001986384 0 614367.39001986384 -102902524.52479619 0 0 0 -37771976.008311406 2617122.4292391539 -1860773.474345386 0 -1860773.474345386 -99220972.486731052 0 0 0 -33811347.52012217 -21617487.496972248 7817900.7988221347 0 7817900.7988221347 -94411400.65090239 0 0 0 -40610110.851756096 6822868.5137832165 782836.38872945309 0 782836.38872945309 -100180496.94088745 0 0 0 -32675169.949486732 1268970.7672131062 -680167.81513461471 0 -680167.81513461471 -99576083.606627107 0 0 0 -34407489.493794918 4208486.8421410322 776249.40361130238 0 776249.40361130238 -102367734.0914045 0 0 0 -34355736.537242293 7380205.1755571365 619009.08656659722 0 619009.08656659722 -100818645.21046782 0 0 0 -32703454.012218714 3758258.2534362078 -2172084.3987629414 0 -2172084.3987629414 -99672986.758713484 0 0 0 -33570154.976847053 1980054.9764829874 403185.21188896894 0 403185.21188896894 -100901467.16301036 0 0 0 -34622494.265284479 -17097289.744165599 2504350.3904839307 0 2504350.3904839307 -98248934.917357504 0 0 0 -40371178.631533086 3307467.0188348293 -398855.87884071469 0 -398855.87884071469 -99921253.801285267 0 0 0 -33814825.373857737 1636284.3963353634 491953.61157739162 0 491953.61157739162 -99167936.924322963 0 0 0 -34136078.384795666 3402174.7996461391 -525236.47026091628 0 -525236.47026091628 -100213337.62947941 0 0 0 -33883906.990441561 1055637.8524380345 679908.40469741821 0 679908.40469741821 -99822171.57021521 0 0 0 -34568286.801222026 3983679.0240800381 -1633721.9108766317 0 -1633721.9108766317 -100074888.30929232 0 0 0 -33631923.249824286 5569695.268217206 1380343.5703150034 0 1380343.5703150034 -100311324.72694898 0 0 0 -33159570.310556293 -11023348.697400853 8319707.9077592641 0 8319707.9077592641 -98438548.647519767 0 0 0 -38311664.070722178 -2420000.0346419215 -4774954.6198774502 0 -4774954.6198774502 -101439267.73795485 0 0 0 -36350743.720408916 566775.76968407631 -262683.84293666482 0 -262683.84293666482 -103170123.77170658 0 0 0 -35911171.800707936 1601442.1519721746 -346111.65276089311 0 -346111.65276089311 -103136391.36795592 0 0 0 -35537232.225594163 3633195.4088762403 -801828.53947126865 0 -801828.53947126865 -100065326.99464428 0 0 0 -33751246.055018604 2237919.7257010937 926654.84913834184 0 926654.84913834184 -99810419.173639774 0 0 0 -34150374.806778431 3782007.6617090702 -1509718.5946165919 0 -1509718.5946165919 -100146352.23976326 0 0 0 -33727520.602318764 4627927.364174366 1378050.881893158 0 1378050.881893158 -100115957.36805248 0 0 0 -33420810.501357317 -9266598.2266432643 9309737.0887380838 0 9309737.0887380838 -99427902.682350814 0 0 0 -38043075.318147898 -4588041.5486686826 -7397644.249535948 0 -7397644.249535948 -99853452.300256491 0 0 0 -36554522.847123802 5005333.5687246323 -1392076.5932217538 0 -1392076.5932217538 -102033331.4546833 0 0 0 -33959799.260085583 5501569.4190890789 -1296615.9524887502 0 -1296615.9524887502 -101055647.95927691 0 0 0 -33443927.489065409 -3986550.6028030515 1216587.2649694085 0 1216587.2649694085 -101467035.55966866 0 0 0 -36908755.15686512 -7428310.9584003687 1508312.7720415592 0 1508312.7720415592 -103116457.28885996 0 0 0 -38690668.886541069 8214790.6633535624 -204596.01808583736 0 -204596.01808583736 -100148392.90511847 0 0 0 -32176760.784617543 7947850.9055951834 -299415.78684937954 0 -299415.78684937954 -100055933.33178449 0 0 0 -32237828.849166155 1799100.0145176649 1331411.2629162967 0 1331411.2629162967 -95106333.706938982 0 0 0 -32657531.79234755 979989.87424492836 1294485.5967256129 0 1294485.5967256129 -97483505.425131559 0 0 0 -33776230.442810297 -41173181.549629495 -4431080.1710492074 0 -4431080.1710492074 -94547914.156564742 0 0 0 -47502383.497168005 -31954237.678318158 -5696707.6619217023 0 -5696707.6619217023 -89279486.678925216 0 0 0 -42431803.525035173 6780147.2401988506 -332574.44657599926 0 -332574.44657599926 -101734964.61589909 0 0 0 -33234186.081495047 4786248.0373401642 1122925.1444060802 0 1122925.1444060802 -102188968.08817673 0 0 0 -34090952.01779294 6948909.4650741518 -354464.6369279623 0 -354464.6369279623 -101760630.8243354 0 0 0 -33184102.475741535 4216211.3714427948 1119544.894881703 0 1119544.894881703 -101899670.95819426 0 0 0 -34189210.855362892 2772372.6368675232 -472242.49509871006 0 -472242.49509871006 -100056878.45551729 0 0 0 -34049577.036527395 1293592.1426792145 465174.00279438496 0 465174.00279438496 -99890465.884186268 0 0 0 -34508905.809527636 -28944849.796165556 25028890.693372034 0 25028890.693372034 -102326016.3123849 0 0 0 -45944803.137992665 -6741825.2888752818 -9720339.0930037498 0 -9720339.0930037498 -103083856.32305348 0 0 0 -38438988.56417501 6682350.1741807461 -548945.52331930399 0 -548945.52331930399 -99868840.564583302 0 0 0 -32615271.636641026 1945406.6767197847 1195986.6573348045 0 1195986.6573348045 -97416545.95656538 0 0 0 -33414898.747945666 1001051.8290140033 78811.88831859827 0 78811.88831859827 -94176232.035126686 0 0 0 -32611313.072139442 -38566978.362669632 -12179587.941661105 0 -12179587.941661105 -97177224.671955079 0 0 0 -47510471.062118664 7552494.6709033251 -539772.40078651905 0 -539772.40078651905 -100781879.04460907 0 0 0 -32630284.530797124 4303925.2682499886 1834856.8609518111 0 1834856.8609518111 -101045876.51794434 0 0 0 -33859682.937393069 2274693.3507086039 -636054.49972987175 0 -636054.49972987175 -101326956.02088678 0 0 0 -34668291.934562325 -10341029.737544119 -2686673.4275327623 0 -2686673.4275327623 -98960265.034811616 0 0 0 -38255453.170324504 6127711.7790906429 -369741.56822770834 0 -369741.56822770834 -101987455.29344034 0 0 0 -33550910.23002243 7105653.4820562601 -767389.98753094673 0 -767389.98753094673 -100997935.04906654 0 0 0 -32862298.548453689 4753209.4921307564 1699176.2977566719 0 1699176.2977566719 -101415287.70155334 0 0 0 -33831727.37329793 1311156.2677873373 -142509.26591739058 0 -142509.26591739058 -102222266.839674 0 0 0 -35318888.700160384 -6316466.3387303948 -2005903.2915208638 0 -2005903.2915208638 -99641311.610607862 0 0 0 -37085222.282268405 7696623.7654345036 -116374.64848917723 0 -116374.64848917723 -100845063.18756223 0 0 0 -32601953.797744751 3850969.2438595295 1517037.2816821933 0 1517037.2816821933 -100500420.49875212 0 0 0 -33827307.939212322 3059227.8938103318 -1488605.8700931072 0 -1488605.8700931072 -100395973.14008188 0 0 0 -34067860.836195052 -16277012.559510618 -1464817.511194393 0 -1464817.511194393 -100005459.81571418 0 0 0 -40698865.33132866 7013532.4564323425 -351763.15466886759 0 -351763.15466886759 -101781609.0807128 0 0 0 -33168826.818498254 4405614.4406918287 1059172.1248226762 0 1059172.1248226762 -101677827.53660035 0 0 0 -34045274.583567977 6868829.9059599936 -329965.85322678089 0 -329965.85322678089 -101734698.7796492 0 0 0 -33203054.105791181 4952557.107332468 1069377.788816575 0 1069377.788816575 -101991472.0150547 0 0 0 -33963620.217702866 7617248.9153888226 -488545.1654291153 0 -488545.1654291153 -100156104.22870827 0 0 0 -32388599.359661818 1895705.7287261486 1733892.5149157643 0 1733892.5149157643 -98559570.507947922 0 0 0 -33832352.672727585 1241312.7829837799 -1202295.0688846409 0 -1202295.0688846409 -98207849.45116663 0 0 0 -33938287.833863854 -25909095.598928839 -6109515.8245267272 0 -6109515.8245267272 -92442976.626065701 0 0 0 -41423225.27874811 -39425494.485150546 1141548.1525516473 0 1141548.1525516473 -90102372.457978144 0 0 0 -45334753.430095047 1336523.3542513847 730444.39422512054 0 730444.39422512054 -93240548.647773743 0 0 0 -32166408.852732778 656219.87204122543 -1479197.9414585531 0 -1479197.9414585531 -95561321.160274267 0 0 0 -33216785.4508816 8323249.0971735716 138279.03009438515 0 138279.03009438515 -100050703.78132844 0 0 0 -32104609.139454246 7746794.3994436264 -376250.98391103745 0 -376250.98391103745 -100668070.90431166 0 0 0 -32522446.776704073 2888567.4668208361 2044899.4312852621 0 2044899.4312852621 -99619326.263709784 0 0 0 -33855765.578910947 2040959.9945720434 -1219805.1900517941 0 -1219805.1900517941 -100324517.27839708 0 0 0 -34399245.049338698 -18615094.131049246 -2201999.9506776631 0 -2201999.9506776631 -95603099.149692833 0 0 0 -39976367.648259729 4205998.0680170655 228015.16811931133 0 228015.16811931133 -102710722.90141535 0 0 0 -34476653.691689372 5945359.1582300663 -1271770.3548925035 0 -1271770.3548925035 -100433354.32916784 0 0 0 -33070798.309828281 4915963.2683134079 1630486.5468195677 0 1630486.5468195677 -99412757.667263597 0 0 0 -33073878.039632559 -4921796.7665518839 4808014.6179648936 0 4808014.6179648936 -103191724.94114815 0 0 0 -37839732.597694963 -15442007.429603457 -7373731.3551289048 0 -7373731.3551289048 -102067366.53572607 0 0 0 -41128280.887865365 7677649.8869948387 547571.06304192543 0 547571.06304192543 -100329018.83682632 0 0 0 -32427979.132440925 7245456.4455093145 691172.8323597908 0 691172.8323597908 -100691979.97129035 0 0 0 -32706283.234023213 1887585.8830419779 1017463.7798667252 0 1017463.7798667252 -100043564.98304665 0 0 0 -34354592.685001493 3368158.3953912258 -1948461.8348045349 0 -1948461.8348045349 -99501485.147003174 0 0 0 -33646664.363064051 3748728.7575798035 -1984712.8277769983 0 -1984712.8277769983 -98526112.608408451 0 0 0 -33172084.347790003 564821.12029075623 -98078.656855076551 0 -98078.656855076551 -99963259.765823245 0 0 0 -34789453.525936484 -19136655.293383241 4351258.4414793253 0 4351258.4414793253 -96603920.884671271 0 0 0 -40509201.662319064 -25171171.585952729 5257794.6149750203 0 5257794.6149750203 -100334779.7834608 0 0 0 -43927082.979294717 5538640.8682851493 -1477535.1602123976 0 -1477535.1602123976 -101748214.33520623 0 0 0 -33673350.713422328 -2166286.6764111519 1641374.2009621337 0 1641374.2009621337 -100797481.37762082 0 0 0 -36037318.818911135 6617598.4828500748 1012415.6481409818 0 1012415.6481409818 -101306400.41666651 0 0 0 -33141080.676835775 3092487.0644803047 -723088.82180148363 0 -723088.82180148363 -99091497.385742188 0 0 0 -33599653.612441778 3027675.7990261316 646626.23575615883 0 646626.23575615883 -99408140.615523338 0 0 0 -33733162.685773969 -20831174.820941277 19021576.037662491 0 19021576.037662491 -110487516.37849794 0 0 0 -45961541.919803746 -24847646.363989264 -18636967.740235541 0 -18636967.740235541 -109939469.84681875 0 0 0 -47175490.673782825 3174214.0384575129 699404.50623464584 0 699404.50623464584 -102324273.4870497 0 0 0 -34702520.807007313 1971769.9744613767 -1207325.2606092691 0 -1207325.2606092691 -97415172.593784332 0 0 0 -33405190.916763008 -37592081.666801468 11872250.453004941 0 11872250.453004941 -96840621.772534251 0 0 0 -47051446.203767493 6828049.0342271328 546775.91540104151 0 546775.91540104151 -100022213.91385508 0 0 0 -32617957.707869768 237925.54361921549 302367.9129768908 0 302367.9129768908 -94875778.419433057 0 0 0 -33123248.506534994 4982428.2497987151 247528.9908028841 0 247528.9908028841 -102890405.71774781 0 0 0 -34267792.113782227 2202169.9979176521 -249519.32815295458 0 -249519.32815295458 -102066826.29538107 0 0 0 -34952629.704112172 626307.19154381752 -539466.71143676341 0 -539466.71143676341 -97318489.623581886 0 0 0 -33842263.851213455 -40970207.985858008 12696234.112665582 0 12696234.112665582 -88937498.638864949 0 0 0 -45467697.318653032 6900897.6349378228 293764.81267309189 0 293764.81267309189 -99766182.886330128 0 0 0 -32502849.837987363 -743363.14086461067 1211548.7116834447 0 1211548.7116834447 -91301748.400566339 0 0 0 -32215789.039500952 7384921.0032502711 -639820.85751235485 0 -639820.85751235485 -100875539.97217715 0 0 0 -32721716.639124483 7296303.2336745262 -625668.35656619072 0 -625668.35656619072 -101044926.10405707 0 0 0 -32812018.004633904 4603371.7164204121 1773190.6371840239 0 1773190.6371840239 -99984102.383631945 0 0 0 -33383255.733524323 3705641.9590021372 2077334.0413522124 0 2077334.0413522124 -99928014.263584852 0 0 0 -33677830.306604028 731662.07947790623 -57919.190969109535 0 -57919.190969109535 -101253306.87894177 0 0 0 -35182575.679812312 1489655.522991538 -309598.42228352278 0 -309598.42228352278 -101293133.54824615 0 0 0 -34931217.308839202 -16426011.887262911 -3590999.4730149209 0 -3590999.4730149209 -102159202.67813897 0 0 0 -41504825.097890645 -15796571.996679418 -2857901.3502856642 0 -2857901.3502856642 -98124472.78390184 0 0 0 -39872365.673203461 7306730.9335730076 -688082.25200092793 0 -688082.25200092793 -100653891.18922281 0 0 0 -32671506.089477301 3837335.8427891135 1980292.4432042837 0 1980292.4432042837 -98706341.937682509 0 0 0 -33204152.133212745 630749.34537416697 21675.209816604853 0 21675.209816604853 -99641384.191651046 0 0 0 -34653722.196196973 -23681022.407626063 -5541353.9402495325 0 -5541353.9402495325 -100330118.43653321 0 0 0 -43403899.295455754 8057176.2921078205 -264172.53015452623 0 -264172.53015452623 -100115484.93029928 0 0 0 -32220408.023366928 2180699.9107400179 1633964.7718403935 0 1633964.7718403935 -97675971.218011022 0 0 0 -33423344.957544923 1953939.6530343294 -1284563.3597694039 0 -1284563.3597694039 -95181042.354566872 0 0 0 -32629485.945536256 -28274051.277373761 -3999340.3063408434 0 -3999340.3063408434 -92504422.456826895 0 0 0 -42272465.806970209 7842277.0650372505 -371888.93917611241 0 -371888.93917611241 -100330689.18354702 0 0 0 -32370944.241478205 2601301.6789178252 1783429.11101228 0 1783429.11101228 -96391797.940839291 0 0 0 -32826673.691672504 1565122.7764741778 -1849943.2724838257 0 -1849943.2724838257 -97500171.22379142 0 0 0 -33577266.956561148 -36497491.573857725 -5102613.3376470022 0 -5102613.3376470022 -97445903.908112466 0 0 0 -46880188.418689564 7602565.9787302017 -570121.84998333454 0 -570121.84998333454 -100406688.19149494 0 0 0 -32481442.774467707 3006271.0517514944 2079986.431148231 0 2079986.431148231 -99256964.875304818 0 0 0 -33687742.838243604 1892928.2850609422 -914615.7787796855 0 -914615.7787796855 -99963815.012615085 0 0 0 -34324810.354644001 -20953963.991671592 -3847736.5251078047 0 -3847736.5251078047 -95261177.713296473 0 0 0 -40675299.596738786 5301012.8719874322 -1522671.1236031055 0 -1522671.1236031055 -99440659.343714833 0 0 0 -32948876.265104681 5728454.694996357 1375553.0345359296 0 1375553.0345359296 -100002596.56767607 0 0 0 -32995949.655437946 -14387524.620455861 7282787.4014913142 0 7282787.4014913142 -103794535.62102544 0 0 0 -41363721.084518552 -8918332.9989095181 -5680140.1313203871 0 -5680140.1313203871 -104223776.21044657 0 0 0 -39599738.223274693 3800675.5407009125 -1808384.5582154244 0 -1808384.5582154244 -99482601.848232031 0 0 0 -33488674.20763588 7718893.6655633748 359399.93606317043 0 359399.93606317043 -100679581.59013748 0 0 0 -32536240.773600787 -20393627.502350952 2755146.8760083616 0 2755146.8760083616 -99973242.755853921 0 0 0 -42128404.590371698 2361202.4960613251 1185263.9305482619 0 1185263.9305482619 -99951596.132194281 0 0 0 -34156637.772646546 776809.25992155075 -1015601.2733035982 0 -1015601.2733035982 -98168736.788634539 0 0 0 -34087174.635049343 -36997270.838931575 10269916.752097778 0 10269916.752097778 -91098283.032719433 0 0 0 -44833443.85507784 6557058.9155435562 398646.23153209686 0 398646.23153209686 -100235864.4898237 0 0 0 -32787581.950997829 866041.03734648228 -358495.442345649 0 -358495.442345649 -93807991.507601023 0 0 0 -32529682.664589167 7152738.4513232708 78432.119419962168 0 78432.119419962168 -101676174.90755081 0 0 0 -33083202.759679556 2967127.4685056806 752492.27694606781 0 752492.27694606781 -102139740.91972727 0 0 0 -34710414.707927644 8184491.2553198934 -62185.280236363411 0 -62185.280236363411 -100148334.74020803 0 0 0 -32187345.219710767 1751886.2920396328 1597646.8273715228 0 1597646.8273715228 -97527625.100145817 0 0 0 -33521508.582837105 1582755.5266145468 -1956269.756254673 0 -1956269.756254673 -97604964.114749193 0 0 0 -33607773.005846858 -28117988.004090294 -1344648.0173493996 0 -1344648.0173493996 -91569731.99070932 0 0 0 -41890701.998179868 5251185.1461092532 -96623.582781136036 0 -96623.582781136036 -102493090.14396966 0 0 0 -34034666.749251097 4888918.6573369503 -819914.77683663368 0 -819914.77683663368 -99391265.532566547 0 0 0 -33075821.406330347 2702935.1994496584 1001428.3328336477 0 1001428.3328336477 -98976209.438466311 0 0 0 -33695645.98365593 2583530.5068323612 -637853.36816218495 0 -637853.36816218495 -100188391.19348526 0 0 0 -34161701.240328312 2067383.8701851964 676267.58496952057 0 676267.58496952057 -99662248.239594102 0 0 0 -34158202.529293001 -26426317.131484061 18471465.797883637 0 18471465.797883637 -104153236.07932293 0 0 0 -45702843.623782456 -10483310.27003973 -12264267.310962632 0 -12264267.310962632 -106365505.03076196 0 0 0 -40897085.35528063 7647364.6575732231 -591875.66713142395 0 -591875.66713142395 -100380942.67414713 0 0 0 -32456752.305801153 3813530.3594139814 1786038.4435054064 0 1786038.4435054064 -99443456.186341763 0 0 0 -33470474.039424658 1877858.7460671663 -995381.236779809 0 -995381.236779809 -100100944.52120638 0 0 0 -34378080.021298766 -19677764.808564126 -5333691.7146426216 0 -5333691.7146426216 -98422370.679320931 0 0 0 -41335047.420759797 -4087804.6352447569 9824184.5461531952 0 9824184.5461531952 -104574944.19004148 0 0 0 -38031962.08885023 -16688799.132710852 -17471589.269800991 0 -17471589.269800991 -97454120.092001408 0 0 0 -39950021.728649266 2885978.2980847359 260082.67826732993 0 260082.67826732993 -102873448.76470399 0 0 0 -34995614.663316846 1927992.6686034203 -271089.31461520493 0 -271089.31461520493 -102948525.0773201 0 0 0 -35357186.343050957 5904102.3546210527 -1447612.226901114 0 -1447612.226901114 -101066297.45195889 0 0 0 -33306768.284068227 6028142.4913649559 1497109.5939462185 0 1497109.5939462185 -100428880.21204948 0 0 0 -33040258.202239752 -2943086.3973147273 2831559.1576009691 0 2831559.1576009691 -101985478.13771999 0 0 0 -36724997.587262094 -4225840.6823298335 -3219302.051733315 0 -3219302.051733315 -100960725.36779261 0 0 0 -36815298.117542863 -3205782.4363926053 -1396893.1678524464 0 -1396893.1678524464 -103013446.22046244 0 0 0 -37176730.029899299 8225783.4129776135 -69234.999444842339 0 -69234.999444842339 -100178609.14089637 0 0 0 -32183489.004771553 1815577.6019531488 1945717.7229355276 0 1945717.7229355276 -96014670.78541398 0 0 0 -32969682.614211202 2387701.7646812201 -1362305.487700888 0 -1362305.487700888 -95292910.215188503 0 0 0 -32516822.957677484 -36017882.276716121 705198.00537709892 0 705198.00537709892 -94938873.244772077 0 0 0 -45834864.432520874 6825306.927015841 647406.81534612179 0 647406.81534612179 -101439533.96855676 0 0 0 -33114979.464539468 6717798.9477484226 783932.75140088797 0 783932.75140088797 -101709200.38344216 0 0 0 -33246990.502492785 4321827.4549878836 -536769.94157671928 0 -536769.94157671928 -102547172.17843485 0 0 0 -34378870.653206229 3705901.0795068741 -154504.99866080284 0 -154504.99866080284 -99931137.405581951 0 0 0 -33678832.71412611 599459.92356944084 260691.48415529728 0 260691.48415529728 -99118599.222452164 0 0 0 -34481698.754609108 355730.18041489745 2578683.6354734898 0 2578683.6354734898 -88724226.802161843 0 0 0 -30928973.817611534 -53476313.911413237 -22109714.763738636 0 -22109714.763738636 -99301846.364363477 0 0 0 -53472356.096521847 585325.50380648335 -289997.86970150471 0 -289997.86970150471 -99129916.649340346 0 0 0 -34490606.900936946 -53780503.347846396 22135255.655481532 0 22135255.655481532 -99867624.109167993 0 0 0 -53776844.609955035 3592535.1799669266 164313.71964066682 0 164313.71964066682 -100016768.70611286 0 0 0 -33748481.734150887 608166.00107690273 -2555033.0936279893 0 -2555033.0936279893 -88197186.298607901 0 0 0 -30656157.104135845 6489742.3627669811 -1277521.1353154182 0 -1277521.1353154182 -100744241.42097378 0 0 0 -32989074.670372248 5522732.9639185667 1539854.9769793749 0 1539854.9769793749 -101363502.01585197 0 0 0 -33544269.168176532 -3009237.4964673221 2104046.5874383152 0 2104046.5874383152 -102162234.97318017 0 0 0 -36810015.364376515 -6234835.5255734921 -3292110.2513047755 0 -3292110.2513047755 -102045172.99776185 0 0 0 -37898002.98316735 8017581.9304492474 150773.24396681786 0 150773.24396681786 -100333404.38509798 0 0 0 -32310537.859126806 2075315.4282509089 1611413.8969557881 0 1611413.8969557881 -98868713.057846546 0 0 0 -33877689.170358419 2082602.6593134403 -2133070.3428797871 0 -2133070.3428797871 -98846007.019785881 0 0 0 -33867191.526165366 -23122346.113825761 777940.9660743922 0 777940.9660743922 -93107379.938754365 0 0 0 -40680404.11840304 5941611.8486398458 -1521810.2785720825 0 -1521810.2785720825 -100569949.18742561 0 0 0 -33119918.068575025 5941883.0218170881 1376833.9648550749 0 1376833.9648550749 -101175492.79229689 0 0 0 -33331763.419667959 -6163207.5929633975 2298985.455277577 0 2298985.455277577 -102543111.12474239 0 0 0 -38047211.551197052 -4212440.8879722953 -3009303.0384787023 0 -3009303.0384787023 -102500592.06014013 0 0 0 -37349561.531839311 1303480.750936985 -879645.50870901346 0 -879645.50870901346 -96709183.459632874 0 0 0 -33391995.948043585 -43108688.586381763 9656992.6251159534 0 9656992.6251159534 -94555060.549443915 0 0 0 -48182312.197538972 1031712.6117278337 721226.58145719767 0 721226.58145719767 -90979701.841769695 0 0 0 -31481796.230514526 7325351.7724924088 272686.49927771091 0 272686.49927771091 -100016149.17838311 0 0 0 -32441779.092061758 151741.80422985554 -500310.24449026585 0 -500310.24449026585 -96725527.009564161 0 0 0 -33800824.821866989 -49132775.905714847 11424584.918279102 0 11424584.918279102 -91244471.885694683 0 0 0 -49132036.726993337 6995694.0506896973 218399.90240328992 0 218399.90240328992 -100180363.8152914 0 0 0 -32614634.417610168 352974.1618999393 444724.76564711332 0 444724.76564711332 -85769980.214006752 0 0 0 -29895952.118237481 482318.41619429819 945439.54513329268 0 945439.54513329268 -87898715.251750529 0 0 0 -30595738.892444752 7926439.0327694416 140677.19726252556 0 140677.19726252556 -99874430.779820919 0 0 0 -32181797.111467838 -48868386.900645778 8741006.0891257823 0 8741006.0891257823 -90758812.971341103 0 0 0 -48869519.955195405 699065.91442521813 -454686.85618007183 0 -454686.85618007183 -95257267.001564354 0 0 0 -33095370.380498804 3756654.328783989 -697524.12233161926 0 -697524.12233161926 -99548855.66835022 0 0 0 -33527270.468848228 2389050.0346040726 809888.54998874664 0 809888.54998874664 -99106706.853663445 0 0 0 -33851179.886671066 -18412398.561638683 18518872.488570135 0 18518872.488570135 -100304699.09820747 0 0 0 -41550984.180946171 -8794249.8735158443 -15795476.511541635 0 -15795476.511541635 -109833691.22111449 0 0 0 -41519779.383120537 6817053.9161351323 -917454.21931511164 0 -917454.21931511164 -101264406.12571394 0 0 0 -33056573.273352563 6931281.8579629958 -1020103.2814334631 0 -1020103.2814334631 -100832946.97148979 0 0 0 -32865582.789734453 5245184.9829599857 1754855.503678754 0 1754855.503678754 -100311096.21587992 0 0 0 -33273068.931521893 5133456.1652700901 1648463.7558888495 0 1648463.7558888495 -101249515.26271152 0 0 0 -33640620.684104443 232975.00895929337 1119917.7734695524 0 1119917.7734695524 -102264826.39454198 0 0 0 -35711147.984954 -1120146.3747518063 800970.52576449513 0 800970.52576449513 -102589139.19241309 0 0 0 -36298249.948507786 -12480330.299136639 -2274253.577799499 0 -2274253.577799499 -102872752.1033124 0 0 0 -40373578.840857148 -7037875.520451881 -3119390.8749172986 0 -3119390.8749172986 -101159936.16993117 0 0 0 -37869234.091634013 3976506.1323480606 -864450.98563611507 0 -864450.98563611507 -99469683.398024559 0 0 0 -33422612.04298687 3644554.3265395164 1007805.6153850555 0 1007805.6153850555 -99050703.473234653 0 0 0 -33392152.20134306 3267749.9236774445 -2041524.2499580979 0 -2041524.2499580979 -98143603.239310503 0 0 0 -33206548.660471678 7592657.4965957403 455495.68384766579 0 455495.68384766579 -100718374.04389381 0 0 0 -32594000.791554093 -27358261.237409353 3184638.3104747832 0 3184638.3104747832 -98762785.499139488 0 0 0 -44142366.357792139 1807175.1377074718 933833.58935454488 0 933833.58935454488 -98848565.812559128 0 0 0 -33964486.736197948 -1961159.969034493 -303667.56657014787 0 -303667.56657014787 -102311793.85733318 0 0 0 -36495533.83922863 -3134683.7094714642 -109321.20023111999 0 -109321.20023111999 -102833170.01728415 0 0 0 -37088748.804364443 7587172.2662129402 606093.33505873382 0 606093.33505873382 -100104770.97254658 0 0 0 -32381159.547216892 2489182.9341336936 -1943874.6596044302 0 -1943874.6596044302 -99176324.530535281 0 0 0 -33840499.55874069 1429101.9222035855 784656.10576379299 0 784656.10576379299 -99179600.432334244 0 0 0 -34212674.47854574 -21714311.001759619 5610260.9082979262 0 5610260.9082979262 -93543436.572735548 0 0 0 -40340211.651073277 4157070.2481309175 -633607.25337255001 0 -633607.25337255001 -102297743.4891783 0 0 0 -34349235.634366512 6558338.0698671341 -1060461.2979320139 0 -1060461.2979320139 -101523210.14728594 0 0 0 -33237705.227096558 5565682.5386282802 1508041.2066661716 0 1508041.2066661716 -100924961.51232237 0 0 0 -33375747.640792906 107559.09735277295 1213450.8172631264 0 1213450.8172631264 -102299938.34170139 0 0 0 -35767332.735522002 -6140339.6451483965 -1633589.3292808905 0 -1633589.3292808905 -101665525.17531168 0 0 0 -37732052.687161148 7029888.0522783101 976906.69651687145 0 976906.69651687145 -100859990.51955986 0 0 0 -32840535.863548487 4474036.5184931755 -1951185.6749143153 0 -1951185.6749143153 -99925996.395913601 0 0 0 -33408185.957097054 1234335.4431173801 -991972.6413141191 0 -991972.6413141191 -101846132.82290292 0 0 0 -35214129.082924962 -13359445.944977351 3972241.1540243924 0 3972241.1540243924 -98848458.690886945 0 0 0 -39272766.622552522 2030565.4333079085 290658.45121878386 0 290658.45121878386 -102914557.72883919 0 0 0 -35309397.303435899 -8506473.6168261766 1341089.9672606587 0 1341089.9672606587 -103254515.42216408 0 0 0 -39116346.163646698 3057708.649966836 -464341.17032623291 0 -464341.17032623291 -103026308.79033685 0 0 0 -34989010.049129486 5950698.5723590851 1313870.4879714847 0 1313870.4879714847 -101461989.772614 0 0 0 -33428951.920089245 3954566.7332683206 -207307.0429623723 0 -207307.0429623723 -102821346.40834635 0 0 0 -34603372.886277258 8775612.8706791401 -39294.092150861463 0 -39294.092150861463 -100037666.13225889 0 0 0 -31941718.641553164 266438.28761928459 664890.6965957284 0 664890.6965957284 -92786807.448106408 0 0 0 -32382129.206170507 831976.81468040182 -600652.75848305225 0 -600652.75848305225 -90985936.575774074 0 0 0 -31553885.916382845 -49057670.02313149 -833466.57554297429 0 -833466.57554297429 -91114189.013328135 0 0 0 -49060150.662760861 3769185.4285740256 -1991008.0759202838 0 -1991008.0759202838 -100229288.97482479 0 0 0 -33761036.241187871 7656188.7186267376 387038.47392943501 0 387038.47392943501 -100877988.94191074 0 0 0 -32627630.07814908 -15202183.885056734 1426142.011753656 0 1426142.011753656 -98995165.605409741 0 0 0 -39969072.32166326 2723358.9902754426 960955.37324827909 0 960955.37324827909 -100972824.14380896 0 0 0 -34387312.803736627 -3783383.2393664122 456165.29757851548 0 456165.29757851548 -100632498.38109922 0 0 0 -36545558.567162871 5333051.2037065029 331613.31385351717 0 331613.31385351717 -102267074.35338163 0 0 0 -33926908.102386236 3795306.059673667 -85287.88346542418 0 -85287.88346542418 -102993525.78642392 0 0 0 -34719376.904362559 -38017550.047081962 -43741749.17903515 0 -43741749.17903515 -177421752.4374705 0 0 0 -75403755.869593352 -76363168.423903525 43448760.043316655 0 43448760.043316655 -142036695.00206298 0 0 0 -76439952.199088275 -38126682.982099824 43883776.842914708 0 43883776.842914708 -177373068.44716606 0 0 0 -75424913.000243053 -76260849.616436243 -43341706.814100929 0 -43341706.814100929 -141845401.96850413 0 0 0 -76337188.054729134 479299.11047506332 -14171.095500881569 0 -14171.095500881569 -100174295.1747613 0 0 0 -34893248.622499943 367992.0595498085 -43421.82381939888 0 -43421.82381939888 -99867983.268377781 0 0 0 -34824996.923089743 476639.30030322075 22877.936032414436 0 22877.936032414436 -100142725.57185555 0 0 0 -34883130.195043564 326323.19584094605 42947.33802318573 0 42947.33802318573 -99858613.454123259 0 0 0 -34836301.590398677 5284252.8519771099 841754.42611551285 0 841754.42611551285 -102365262.26304269 0 0 0 -33978353.293872833 2639895.2475866079 394420.55620759726 0 394420.55620759726 -102631919.13112533 0 0 0 -34997208.359238505 2149971.4172923565 -295831.00977522135 0 -295831.00977522135 -102615585.15037715 0 0 0 -35162964.806579649 7770048.2336521149 -316755.63844954967 0 -316755.63844954967 -100152812.32953358 0 0 0 -32333967.433558464 1540057.9103837013 1317028.3456626534 0 1317028.3456626534 -96052383.679395676 0 0 0 -33079314.019154191 1534340.7101788521 -834100.90448176861 0 -834100.90448176861 -91830752.883903742 0 0 0 -31603744.260803819 -42640555.003886193 -6508612.3518420272 0 -6508612.3518420272 -94790056.840789691 0 0 0 -48100714.145636559 6221035.2601449788 -1322476.5240064859 0 -1322476.5240064859 -100778861.8557502 0 0 0 -33095239.308461756 5117654.2756874561 1801479.2617388964 0 1801479.2617388964 -100123883.73519039 0 0 0 -33252180.310826302 -2760791.4867182374 2975728.2300629057 0 2975728.2300629057 -102723571.15415442 0 0 0 -36919526.924305499 -9380316.3278916478 -4696439.8649211824 0 -4696439.8649211824 -100593441.30637403 0 0 0 -38490815.171992958 2053814.7641171999 275320.85726982355 0 275320.85726982355 -102841090.8312571 0 0 0 -35275546.623499081 -1978591.9769886136 -800286.10921226442 0 -800286.10921226442 -102392924.47087097 0 0 0 -36530030.756750882 6737967.1882851124 -250824.18608558178 0 -250824.18608558178 -99888135.891520262 0 0 0 -32602559.046132326 386975.79436123371 464980.67234867811 0 464980.67234867811 -97634337.120450735 0 0 0 -34036576.464131474 6318491.9711894989 -429946.95829844475 0 -429946.95829844475 -100324435.9723959 0 0 0 -32902080.400422096 647581.05575597286 988114.65142393112 0 988114.65142393112 -98217746.01199913 0 0 0 -34149557.734685183 -702267.65616309643 -880779.63398002088 0 -880779.63398002088 -91764312.558449626 0 0 0 -32363303.075114429 -39488321.899921164 -12726707.022486094 0 -12726707.022486094 -87867054.497550428 0 0 0 -44574381.739115052 148902.23934417963 578782.85207426548 0 578782.85207426548 -93687968.438761234 0 0 0 -32738673.169796169 -38306443.994778052 -11050587.337025318 0 -11050587.337025318 -91546369.1397513 0 0 0 -45448484.597085267 2585024.1299638748 -943117.57381083071 0 -943117.57381083071 -98808994.605315208 0 0 0 -33678389.666373014 4888512.5942887068 754986.50781738758 0 754986.50781738758 -99392203.742617846 0 0 0 -33076291.901915193 4385456.9589120746 -1809952.8054615855 0 -1809952.8054615855 -100335421.19229794 0 0 0 -33582487.481685221 6892825.049213171 1049929.2222213745 0 1049929.2222213745 -100219837.52789783 0 0 0 -32664454.367539644 -13358953.24466309 6130610.5836304277 0 6130610.5836304277 -100288055.92498696 0 0 0 -39776453.209377557 -372629.18948152661 -1454672.4969535172 0 -1454672.4969535172 -100888821.73940885 0 0 0 -35441507.825111657 -31186096.007490046 17922687.005039297 0 17922687.005039297 -104509819.3610712 0 0 0 -47493570.378996454 -5247455.3246640563 -6947564.413657032 0 -6947564.413657032 -101374434.78881514 0 0 0 -37317661.539717734 -1096121.9950590134 -578410.25594115257 0 -578410.25594115257 -102684488.08788657 0 0 0 -36323213.529031038 8018657.1496994495 165978.33351421356 0 165978.33351421356 -100424733.79069257 0 0 0 -32342126.824347734 2145724.9115655422 1923324.5420212448 0 1923324.5420212448 -96597987.544289827 0 0 0 -33058291.921453476 2697826.3044710159 -1748859.9340500385 0 -1748859.9340500385 -96720474.741909981 0 0 0 -32907926.953103542 -32595509.764626347 2725691.942351371 0 2725691.942351371 -97248378.527026907 0 0 0 -45445360.902078621 7454096.1105875969 77154.000923752785 0 77154.000923752785 -101112895.54984474 0 0 0 -32780579.803740144 7269262.1501119137 230153.5406691432 0 230153.5406691432 -101519502.50988746 0 0 0 -32987584.125921369 3646615.0709996223 1150940.9594026804 0 1150940.9594026804 -101853928.66064763 0 0 0 -34372559.756376743 2658388.8189673424 738214.35864436626 0 738214.35864436626 -101646780.2891221 0 0 0 -34645937.014554143 3856668.7901859283 -1331440.6372393072 0 -1331440.6372393072 -101922212.350245 0 0 0 -34322940.246020555 4090898.3127272129 -1313771.2426204383 0 -1313771.2426204383 -101223367.80258489 0 0 0 -33996364.321450353 7194265.3361480236 -545719.05370056629 0 -545719.05370056629 -99954059.252677441 0 0 0 -32465927.870785475 2466520.7012374997 1450419.7839036584 0 1450419.7839036584 -97287634.121289492 0 0 0 -33187389.697018325 1206613.5676076412 -569587.65527558327 0 -569587.65527558327 -95650830.064339459 0 0 0 -33055475.773856044 -35153065.772646353 -9542940.1627198905 0 -9542940.1627198905 -97333927.461604267 0 0 0 -46370447.631987721 7049242.7387187481 -727285.2368196249 0 -727285.2368196249 -100462658.04917336 0 0 0 -32694695.358659029 3026465.7275700569 1921146.9218425155 0 1921146.9218425155 -98012323.126729012 0 0 0 -33245050.089705467 443065.81914162636 402287.90038740635 0 402287.90038740635 -98622941.126548529 0 0 0 -34362956.357592463 -29203886.281695664 -6825269.3083024323 0 -6825269.3083024323 -98161028.402995765 0 0 0 -44577720.13964197 1238618.6921813488 268370.18509215117 0 268370.18509215117 -102914006.20698881 0 0 0 -35586385.630182505 2804513.8381977081 -1618287.8185067773 0 -1618287.8185067773 -98142189.050940752 0 0 0 -33368186.32445991 6913321.0984151363 731689.59785914421 0 731689.59785914421 -99834979.219464302 0 0 0 -32522580.342367172 -29016386.139545515 9643035.8197467849 0 9643035.8197467849 -97432364.646184891 0 0 0 -44257062.775005624 437761.12069869041 -479930.6935454309 0 -479930.6935454309 -98243209.679234147 0 0 0 -34231906.995487392 4338359.1822564602 -978094.85634374619 0 -978094.85634374619 -100249466.56144667 0 0 0 -33568887.582716465 2948361.2691943645 1169425.5974949002 0 1169425.5974949002 -99315619.124462366 0 0 0 -33728540.24934411 6743504.4764395952 -1147593.094483614 0 -1147593.094483614 -100420123.7060678 0 0 0 -32786816.730369687 4715480.0075211525 1883747.3036175966 0 1883747.3036175966 -100820584.94495225 0 0 0 -33636786.728101015 -1465897.9219805002 1465697.1309840083 0 1465697.1309840083 -101677784.19250441 0 0 0 -36100288.740069687 -10353895.615589023 -4289101.78333956 0 -4289101.78333956 -100897303.66019881 0 0 0 -38937919.746525764 6721722.8341829777 286770.03876340389 0 286770.03876340389 -102122039.61118591 0 0 0 -33390110.871950865 7107629.2080364227 -203047.95333111286 0 -203047.95333111286 -100028126.02267313 0 0 0 -32522173.885122776 423974.21716037462 468889.0606534481 0 468889.0606534481 -96481634.52961342 0 0 0 -33620181.109358639 355996.72875027283 -593025.24946564436 0 -593025.24946564436 -85367413.841795012 0 0 0 -29753995.989565626 -49496373.528876677 -11499208.010648808 0 -11499208.010648808 -91916839.535011187 0 0 0 -49494624.572360747 -5237134.4123471975 154630.95017033815 0 154630.95017033815 -103182210.08238101 0 0 0 -37946770.573154926 8789263.1906175613 37491.96346282959 0 37491.96346282959 -100063555.04707146 0 0 0 -31946002.149758339 385993.96009600163 677657.48527872562 0 677657.48527872562 -90617176.304867744 0 0 0 -31580913.820670009 226914.67316382172 -651585.06184589863 0 -651585.06184589863 -92536322.790689602 0 0 0 -32308292.841133904 -48669543.822783306 1775562.6960508991 0 1775562.6960508991 -90382870.813460544 0 0 0 -48668345.122685336 -3787330.565760076 6479138.3232729435 0 6479138.3232729435 -100624955.36600298 0 0 0 -36544300.076117039 -30913966.028846473 -17831773.878243685 0 -17831773.878243685 -104639146.06400907 0 0 0 -47443589.23249945 -4372432.2243058085 -279290.83319497108 0 -279290.83319497108 -100980945.59454525 0 0 0 -36873682.236597836 2790790.1389893144 -386427.70235419273 0 -386427.70235419273 -102691065.00127533 0 0 0 -34965096.201800123 1311419.2012082338 54629.793909013271 0 54629.793909013271 -102888742.88492608 0 0 0 -35552063.289301157 -635620.55985450745 1119425.2529843897 0 1119425.2529843897 -93517358.763921738 0 0 0 -32953542.763321877 8491681.933714211 35744.107773303986 0 35744.107773303986 -99982297.276572466 0 0 0 -32021715.370000303 -40865217.321592852 3075240.6412633099 0 3075240.6412633099 -87160244.112188756 0 0 0 -44808911.501823559 418610.38534426689 -565762.32318769395 0 -565762.32318769395 -94408412.332818985 0 0 0 -32896430.681616068 6919364.9798488617 -731146.69235444069 0 -731146.69235444069 -101318142.24939203 0 0 0 -33039572.044340134 5266510.1931800842 1295960.8652424812 0 1295960.8652424812 -101461662.78372097 0 0 0 -33668303.406689405 -11859.998774290085 338165.48167473078 0 338165.48167473078 -102532588.05676961 0 0 0 -35890556.819440484 -7820825.0872791409 -1958838.5070719421 0 -1958838.5070719421 -102580834.26928568 0 0 0 -38640580.774797678 5594846.0683375597 1116668.562574625 0 1116668.562574625 -102057503.06707001 0 0 0 -33761929.949556351 5040873.1084674597 422593.04921126366 0 422593.04921126366 -102342915.61772585 0 0 0 -34055714.878240466 6470035.2736384869 -1265793.3601461053 0 -1265793.3601461053 -100174098.42371321 0 0 0 -32796422.102525949 4507132.8738621473 1734757.6854786873 0 1734757.6854786873 -100070217.37956452 0 0 0 -33447079.576995492 -2465554.8143460751 2677541.8288781941 0 2677541.8288781941 -101936255.21049428 0 0 0 -36540633.508694053 -13871557.424054921 -6523147.4071259201 0 -6523147.4071259201 -100568964.20742226 0 0 0 -40054182.571016967 -1559038.0681008101 -1124343.2381786704 0 -1124343.2381786704 -103023009.4128325 0 0 0 -36603716.618326664 6377003.8587976098 -669315.95335590839 0 -669315.95335590839 -100314620.91509807 0 0 0 -32878165.969705045 1589279.8710973263 1421064.9181513488 0 1421064.9181513488 -98949034.920458317 0 0 0 -34075914.267276049 24217.664683580399 656121.05212268978 0 656121.05212268978 -99143627.366700888 0 0 0 -34691793.395706058 -27215517.047642387 -10358030.10414958 0 -10358030.10414958 -92795872.850090325 0 0 0 -42003986.46420642 8032292.5390193462 -252230.029763937 0 -252230.029763937 -100388820.30083084 0 0 0 -32324784.716633797 1913645.8873252869 1972757.6836392283 0 1972757.6836392283 -96510090.873421907 0 0 0 -33108755.745133877 -35623853.032545999 -1783211.0350524969 0 -1783211.0350524969 -95579645.772414237 0 0 0 -45921224.581736103 696033.63747644424 -174218.20937250555 0 -174218.20937250555 -102669949.41491461 0 0 0 -35690870.52210331 -193633.64696311951 -879967.34470266104 0 -879967.34470266104 -94396543.230719805 0 0 0 -33106561.907188892 -39911728.969691694 142548.9671650324 0 142548.9671650324 -86021228.980179965 0 0 0 -44076535.282455079 1262209.1916066408 -1160471.852434814 0 -1160471.852434814 -93479961.722486019 0 0 0 -32276213.385807872 -42750051.706857935 629909.02069290727 0 629909.02069290727 -92171303.104304224 0 0 0 -47222474.183906764 259071.35633921623 444140.29877191782 0 444140.29877191782 -93535795.779911995 0 0 0 -32646853.548250556 8574234.4301564693 40411.697517871857 0 40411.697517871857 -100011913.18716192 0 0 0 -32003187.564952135 8497631.9042303562 3141.9134292602539 0 3141.9134292602539 -100116889.53753757 0 0 0 -32066740.171657801 467858.64049565792 1246372.1947930455 0 1246372.1947930455 -93924667.01685524 0 0 0 -32709882.931726098 8254228.293248415 -164983.17960250378 0 -164983.17960250378 -100074480.41925049 0 0 0 -32137088.244100809 1197288.9807428122 1388824.7499517798 0 1388824.7499517798 -96427301.851611376 0 0 0 -33330504.504804015 -33379902.218644038 -2947538.0969499126 0 -2947538.0969499126 -89307464.533784837 0 0 0 -42940578.363350108 6680223.0805301666 -1035672.7723581791 0 -1035672.7723581791 -100003913.76211786 0 0 0 -32663291.738555908 4111264.8467800617 1740304.9329285622 0 1740304.9329285622 -99359400.112789154 0 0 0 -33336847.34310317 -1652999.4550967813 1903520.7276053429 0 1903520.7276053429 -100622646.39857554 0 0 0 -35796476.04878521 -19841382.631513178 -8419484.6865182668 0 -8419484.6865182668 -101661270.0300163 0 0 0 -42525928.431535363 1964445.3164824247 74697.885943830013 0 74697.885943830013 -102796950.68609476 0 0 0 -35291376.879364371 7472633.1959546804 354562.94918012619 0 354562.94918012619 -101211158.76078296 0 0 0 -32808483.947689891 4214030.1177383661 -1612548.6806507707 0 -1612548.6806507707 -100493709.67767525 0 0 0 -33697887.845977902 2257086.9413778782 753015.26262161136 0 753015.26262161136 -100908715.13075161 0 0 0 -34528069.866280913 -16147225.623420089 1916852.1061436087 0 1916852.1061436087 -102373371.16525739 0 0 0 -41482208.876037091 7075566.9617959261 -244313.72666525841 0 -244313.72666525841 -100185294.46508265 0 0 0 -32588404.626150012 -106633.5076406002 665311.95814037323 0 665311.95814037323 -97641677.783462048 0 0 0 -34211908.951885939 -398992.11528599262 -109606.29977299273 0 -109606.29977299273 -91863725.408001661 0 0 0 -32291951.133150697 -38726493.585868865 -9499194.5424093828 0 -9499194.5424093828 -86113565.136666685 0 0 0 -43694020.55288744 7357919.1230805442 -326868.29997134209 0 -326868.29997134209 -99756832.700427473 0 0 0 -32339619.752071328 1468369.5811374187 859051.86982971244 0 859051.86982971244 -96711630.801636219 0 0 0 -33335141.427174568 1163100.2770246267 -1180329.706728315 0 -1180329.706728315 -92135325.661500216 0 0 0 -31840278.884566426 -41002040.361117154 -10512685.092698082 0 -10512685.092698082 -92941123.876740694 0 0 0 -46880107.483250231 872489.21240115166 -1559183.7415407896 0 -1559183.7415407896 -95791230.197450161 0 0 0 -33221559.344767213 1891958.2841067314 -1214764.7572831511 0 -1214764.7572831511 -95598748.328151107 0 0 0 -32797376.515415609 6080161.8604875803 179062.72112345695 0 179062.72112345695 -102089409.38641834 0 0 0 -33603236.634075761 7426553.7474496365 -471552.01664966345 0 -471552.01664966345 -101129558.98708701 0 0 0 -32796051.833873034 3877677.4001110792 1923764.8601145148 0 1923764.8601145148 -100143274.48994327 0 0 0 -33692958.981441379 2186329.9326793551 -664809.88461452723 0 -664809.88461452723 -101428819.49334466 0 0 0 -34734871.346232772 -15723419.867510498 -1677945.2363306135 0 -1677945.2363306135 -99799909.575988472 0 0 0 -40433165.305224597 4945640.5254259109 -470478.46099990606 0 -470478.46099990606 -102529247.32287121 0 0 0 -34154262.379105806 7195146.2959791422 -609049.11593484879 0 -609049.11593484879 -100155130.149261 0 0 0 -32535994.34864831 1907326.478847146 1625998.6222788095 0 1625998.6222788095 -98660401.175360918 0 0 0 -33863576.143779874 1045386.07924366 -429447.09480920434 0 -429447.09480920434 -98429724.521255493 0 0 0 -34084518.454704165 -26097120.959679648 -8104430.8810567483 0 -8104430.8810567483 -92755242.78021121 0 0 0 -41598327.308961801 5773634.4044653177 274298.17915111035 0 274298.17915111035 -102594988.01538324 0 0 0 -33887473.763821244 1841628.2764387131 -1550991.4296481609 0 -1550991.4296481609 -98549673.469364405 0 0 0 -33847815.817523956 -28878630.547597751 9221648.9138362184 0 9221648.9138362184 -93898169.547403663 0 0 0 -42971880.033250481 6556496.8945426941 632660.63665318489 0 632660.63665318489 -100390630.09812737 0 0 0 -32841946.621254921 808566.50452393293 -598186.16153389215 0 -598186.16153389215 -97899419.368249059 0 0 0 -33981798.502303839 7637419.008351326 -399777.1293553561 0 -399777.1293553561 -99868830.719666481 0 0 0 -32280994.098960638 1499674.8449709713 1286100.5930172801 0 1286100.5930172801 -97463599.118130624 0 0 0 -33587373.495605916 1011698.8091184944 -1069857.9594023228 0 -1069857.9594023228 -95469237.590380698 0 0 0 -33060138.573441759 -33140698.12400981 -7642721.0442007529 0 -7642721.0442007529 -91417290.776400581 0 0 0 -43595296.115143634 6939955.0961277485 -459934.21003657579 0 -459934.21003657579 -100261596.71613264 0 0 0 -32662574.567001581 1247642.8627887964 1337410.632802248 0 1337410.632802248 -97898854.926875353 0 0 0 -33827924.22243011 930815.27146399021 -88434.647947132587 0 -88434.647947132587 -94794006.179288507 0 0 0 -32852116.817738533 -35847877.286839128 -8337409.5187440291 0 -8337409.5187440291 -93173734.127842918 0 0 0 -45157563.99513872 7784840.8505165577 -373516.17888325453 0 -373516.17888325453 -100502401.00520182 0 0 0 -32451146.054140091 3918046.541099906 1805044.4104532599 0 1805044.4104532599 -99851325.658493996 0 0 0 -33576647.691087842 2660667.6968181133 -1185598.0432549119 0 -1185598.0432549119 -100088327.68937516 0 0 0 -34099680.9973948 -18354211.132896304 -2808341.3216668516 0 -2808341.3216668516 -99393788.598570943 0 0 0 -41211799.906013548 7048100.5729554892 443025.82881438732 0 443025.82881438732 -101699644.01984072 0 0 0 -33128040.206409812 7386170.5963125229 445796.36114156246 0 445796.36114156246 -101071846.45943141 0 0 0 -32789986.552091837 4764538.4416201115 -1112435.6220275164 0 -1112435.6220275164 -101569957.23603392 0 0 0 -33881896.578044653 1634445.1505640745 131359.60841545463 0 131359.60841545463 -102473414.94468784 0 0 0 -35293639.427943468 4521142.6415555477 -1545880.2480410635 0 -1545880.2480410635 -101609657.69212914 0 0 0 -33980980.267700791 2830163.8314650059 590203.31776568294 0 590203.31776568294 -101974216.91646218 0 0 0 -34700418.579748869 -182149.62681876123 -382008.62372684479 0 -382008.62372684479 -102940060.88744795 0 0 0 -36092773.679993257 -1066337.3216416687 211784.65806365013 0 211784.65806365013 -102512341.36252168 0 0 0 -36252537.539457187 -6635101.585239619 1198763.7495271266 0 1198763.7495271266 -99807575.553425074 0 0 0 -37254936.998532623 -8377541.4158153534 419673.26588305319 0 419673.26588305319 -102584730.13027716 0 0 0 -38836795.041132212 1244796.7717243433 -345936.22336235642 0 -345936.22336235642 -102736362.86941981 0 0 0 -35522048.13419342 654874.35634732246 -14288.276937514544 0 -14288.276937514544 -102898055.39419937 0 0 0 -35785113.363248348 1559283.4097030759 -991446.29120373726 0 -991446.29120373726 -93287165.038696885 0 0 0 -32104758.570147932 -40791790.495802298 -1080622.609794816 0 -1080622.609794816 -92862839.633221924 0 0 0 -46779120.545158483 761025.54817134142 -1600591.787304163 0 -1600591.787304163 -95745420.107091188 0 0 0 -33244538.095621884 -35537134.948638305 -842683.59353955463 0 -842683.59353955463 -90060926.351914316 0 0 0 -43959321.455193415 8248839.3402717113 -151210.60733777285 0 -151210.60733777285 -100206455.3126359 0 0 0 -32185165.59032774 909836.56179696321 1540915.7119683027 0 1540915.7119683027 -95554488.663186073 0 0 0 -33125628.235486209 8383139.7201423645 9308.1783691644669 0 9308.1783691644669 -100023532.19014931 0 0 0 -32074137.36450243 1317081.0303606987 1130013.240298152 0 1130013.240298152 -95332576.80333209 0 0 0 -32905423.520539999 6248579.6548739076 -1313819.1228997707 0 -1313819.1228997707 -100412101.93432295 0 0 0 -32957232.797807157 5580748.194791317 1582992.1428938955 0 1582992.1428938955 -100657908.62991285 0 0 0 -33277006.15229249 -5835134.956689477 3217462.8191101924 0 3217462.8191101924 -102507753.86921668 0 0 0 -37920011.089067101 -9900123.3508084267 -4675453.5930315554 0 -4675453.5930315554 -103974320.44583434 0 0 0 -39856055.328825042 -6788037.7055191398 74030.04250895977 0 74030.04250895977 -99599646.886734188 0 0 0 -37235689.607288569 7519511.1438298225 178426.03649362922 0 178426.03649362922 -101248741.83178282 0 0 0 -32805230.74078393 7572375.3334748745 256709.07052108692 0 256709.07052108692 -100956344.19334173 0 0 0 -32684389.100953341 4002605.3017211892 -1640656.6569429636 0 -1640656.6569429636 -101284802.44076727 0 0 0 -34048768.998666197 3574376.3449375629 -1613081.5748069286 0 -1613081.5748069286 -100529773.63450658 0 0 0 -33934389.051349163 3211805.0880141854 1065557.1520769596 0 1065557.1520769596 -100935599.37321746 0 0 0 -34203327.999821126 3059263.8101465455 1128431.177051425 0 1128431.177051425 -101429326.09897594 0 0 0 -34429521.801090263 -10404052.591643989 1120158.1281665415 0 1120158.1281665415 -99423685.864500642 0 0 0 -38439708.459650636 -15728201.181957126 255949.84872785211 0 255949.84872785211 -101552910.22553051 0 0 0 -41048388.992620647 2833689.4037734866 -548371.34446460009 0 -548371.34446460009 -102320115.47657013 0 0 0 -34820249.125478804 7789123.0590808392 111995.60839831829 0 111995.60839831829 -100815014.87518501 0 0 0 -32559062.135636568 3023375.0646920204 1574677.338994801 0 1574677.338994801 -100380025.04503751 0 0 0 -34074827.493120909 3563456.5271445513 -1638517.0305249691 0 -1638517.0305249691 -100565972.42878938 0 0 0 -33950880.565575719 -15874033.230427802 1190461.3844875693 0 1190461.3844875693 -99382176.510514975 0 0 0 -40339673.40933001 -11813370.324460715 677506.46881124377 0 677506.46881124377 -102025932.11297637 0 0 0 -39843755.853102893 6390167.2268731594 -1200045.0152221322 0 -1200045.0152221322 -101159660.70661259 0 0 0 -33169322.717908859 5662617.9099395275 1729984.7984293699 0 1729984.7984293699 -100230273.12179279 0 0 0 -33098679.324148655 -1590582.557908237 2203500.4168210626 0 2203500.4168210626 -102928327.37286627 0 0 0 -36581618.47577107 -8560844.9950237274 -2960296.5892638117 0 -2960296.5892638117 -101942394.79525995 0 0 0 -38676133.926599264 2551872.864652276 -179478.91780394316 0 -179478.91780394316 -102763004.74982822 0 0 0 -35073896.159811616 -85303.183209657669 -548695.15811771154 0 -548695.15811771154 -97492482.908485889 0 0 0 -34152225.132093668 -37989136.322177261 9668732.4131488483 0 9668732.4131488483 -85033696.791457951 0 0 0 -43057991.589772314 7289559.0152418613 190777.18550860882 0 190777.18550860882 -100065802.16975117 0 0 0 -32471685.104078531 -445998.01239645481 477976.3781453073 0 477976.3781453073 -91747308.218365908 0 0 0 -32267657.18076694 6177563.2260570526 -1190717.0282024145 0 -1190717.0282024145 -100782237.52219343 0 0 0 -33111636.003647804 4212589.9744101763 1878006.5227543116 0 1878006.5227543116 -99763741.716163635 0 0 0 -33442903.109613895 -1202337.1589581966 2461117.0658913553 0 2461117.0658913553 -102257806.92045617 0 0 0 -36211050.427795053 -13739202.705462754 -6426646.0664405525 0 -6426646.0664405525 -98411104.022547066 0 0 0 -39252607.354803324 7104833.3623046875 353207.23600854352 0 353207.23600854352 -101428381.08938503 0 0 0 -33013241.704478025 3132235.323499376 579809.56077361107 0 579809.56077361107 -102190780.56422634 0 0 0 -34670490.834254451 -96350.677989065647 -11632.030107170343 0 -11632.030107170343 -102781380.98695421 0 0 0 -36007206.082730114 5518200.1664097309 871918.65619753301 0 871918.65619753301 -101864100.74196649 0 0 0 -33721065.201444864 7377037.9774335623 -511369.17514276505 0 -511369.17514276505 -100287512.4708581 0 0 0 -32518666.072698712 2565212.3687343597 1713574.3717204034 0 1713574.3717204034 -97047578.548130035 0 0 0 -33068828.162788153 1616958.2521414757 -579128.63043266535 0 -579128.63043266535 -95424550.889149427 0 0 0 -32832657.422952771 -36417999.364316277 -6986317.6606367901 0 -6986317.6606367901 -98036356.657345489 0 0 0 -47059024.607581608 5885034.0596524477 932016.67626737058 0 932016.67626737058 -102149005.01357198 0 0 0 -33692389.833871841 
</DataArray>
</CellData>
</Piece>
</UnstructuredGrid>
</VTKFile>
