<?xml version="1.0"?>
<VTKFile type="UnstructuredGrid" version="0.1" byte_order="LittleEndian">
<UnstructuredGrid>
<Piece NumberOfPoints="3162" NumberOfCells="1054">
<Points>
<DataArray type="Float64" NumberOfComponents="3" format="ascii">
0.39507969989512881 0.74417394063201048 0 0.42715538333808079 0.70077759375307946 0 0.44764943295894188 0.73752415265401661 0 0.74417394063200648 0.6049203001048884 0 0.70087539567735502 0.57165914616526226 0 0.73752415265401194 0.55235056704108476 0 0.25582605936799319 0.39507969989513358 0 0.2963043386970643 0.4298320229681446 0 0.26247584734598628 0.44764943295894732 0 0.60492030010488373 0.25582605936799729 0 0.57188338999077359 0.29874123486230147 0 0.55175647814720108 0.26104505532086641 0 0.56566515596461675 0.63670464971409091 0 0.61233489393901674 0.60846740003560018 0 0.60879112811253555 0.66592422311595834 0 0.6519524273377173 0.64249931920594539 0 0.60879112811253555 0.66592422311595834 0 0.61233489393901674 0.60846740003560018 0 0.640156794425081 0.43301393728221721 0 0.60122390529523662 0.39097801071820221 0 0.66346942254826746 0.391530810754116 0 0.6424993192059415 0.3480475726622802 0 0.66346942254826746 0.391530810754116 0 0.60122390529523662 0.39097801071820221 0 0.74198804864688339 0.90892718720327403 0 0.77688977118331393 0.94706199857866258 0 0.71789175274016548 0.95136708251202151 0 0.091072812796719582 0.74198804864687795 0 0.052938001421335763 0.77688977118331159 0 0.04863291748797445 0.71789175274016204 0 0.89586000931544074 0.25714619498770419 0 0.94465622530468663 0.23167460333446291 0 0.94915666091748963 0.28320804985299752 0 0.25714619498771307 0.1041399906845497 0 0.23167460333446299 0.05534377469531044 0 0.28320804985300141 0.050843339082505573 0 0.89999999999958358 1 0 0.84999999999965292 1 0 0.90554214442080472 0.95994154153067524 0 0 0.89999999999958358 0 0 0.84999999999965292 0 0.040058458469322648 0.90554214442079806 0 0.040058458469319477 0.094457855579157729 0 0 0.15000000000062411 0 0 0.10000000000041601 0 0.094457855579188163 0.95994154153068711 0 0.15000000000062411 1 0 0.10000000000041601 1 0 0.90554214442081604 0.040058458469347469 0 0.84999999999960507 0 0 0.89999999999973679 0 0 0.95994154153065969 0.90554214442078618 0 1 0.84999999999960507 0 1 0.89999999999973679 0 1 0.099999999999814668 0 1 0.14999999999970359 0 0.95994154153057998 0.094457855579277675 0 0.099999999999814668 0 0 0.14999999999970359 0 0 0.094457855579284614 0.040058458469418363 0 1 0.19999999999955789 0 0.94465622530468663 0.23167460333446291 0 0.96080966346491015 0.18035159017841959 0 0.19999999999955789 0 0 0.23167460333446299 0.05534377469531044 0 0.18035159017842109 0.039190336535090492 0 0.79999999999999982 1 0 0.77688977118331393 0.94706199857866258 0 0.82675923981951416 0.95611053755456221 0 0 0.79999999999999982 0 0.052938001421335763 0.77688977118331159 0 0.043889462445437968 0.82675923981951283 0 1 0.79999999999947335 0 0.96071093996985157 0.81954008780615684 0 0.9442075111696665 0.76777356182390766 0 0.79999999999947335 0 0 0.82050174006822896 0.038839999600956771 0 0.76543419162344684 0.056452228708420968 0 0.20000000000083221 1 0 0.18045991219397989 0.960710939969875 0 0.23222643817617661 0.94420751116970569 0 0 0.20000000000083221 0 0.038839999600931263 0.17949825993190149 0 0.056452228708379938 0.23456580837661581 0 0.50000000000002642 0.7803135888501761 0 0.53770425635794761 0.80104587463999666 0 0.49771727055908782 0.83998685797641781 0 0.2196864111498267 0.50000000000003153 0 0.1989632851005598 0.53769147668950479 0 0.16001314202358469 0.49771727055909287 0 0.78031358885017377 0.49999999999997569 0 0.80106707846564795 0.46230714888029367 0 0.83998574657308889 0.50228528270184081 0 0.49999999999997108 0.21968641114982909 0 0.46229330881044273 0.19890916456654811 0 0.50228272944093777 0.16001314202359701 0 0.79999999999999982 1 0 0.75000000000034661 1 0 0.77688977118331393 0.94706199857866258 0 0 0.79999999999999982 0 0 0.75000000000034661 0 0.052938001421335763 0.77688977118331159 0 1 0.19999999999955789 0 1 0.24999999999941211 0 0.94465622530468663 0.23167460333446291 0 0.19999999999955789 0 0 0.24999999999941211 0 0 0.23167460333446299 0.05534377469531044 0 1 0.74999999999934175 0 1 0.79999999999947335 0 0.9442075111696665 0.76777356182390766 0 0.74999999999934175 0 0 0.79999999999947335 0 0 0.76543419162344684 0.056452228708420968 0 0.25000000000104028 1 0 0.20000000000083221 1 0 0.23222643817617661 0.94420751116970569 0 0 0.25000000000104028 0 0 0.20000000000083221 0 0.056452228708379938 0.23456580837661581 0 1 0.74999999999934175 0 0.9442075111696665 0.76777356182390766 0 0.94635952848698612 0.71209247961721311 0 0.74999999999934175 0 0 0.76543419162344684 0.056452228708420968 0 0.71174922810186925 0.053730171687687178 0 0.25000000000104028 1 0 0.23222643817617661 0.94420751116970569 0 0.28790752038294382 0.94635952848702642 0 0 0.25000000000104028 0 0.056452228708379938 0.23456580837661581 0 0.053730171687646627 0.28825077189828552 0 0.8289812646369813 0.82898126463698818 0 0.87660297360393757 0.8104127896505644 0 0.88962265630811221 0.85311725681459705 0 0.17101873536300011 0.82898126463696109 0 0.18958721034944021 0.87660297360394568 0 0.14688274318541941 0.88962265630811932 0 0.39507969989512881 0.74417394063201048 0 0.44764943295894188 0.73752415265401661 0 0.43306783640023289 0.78031198216144404 0 0.74417394063200648 0.6049203001048884 0 0.73752415265401194 0.55235056704108476 0 0.78031198216143516 0.56693216359979737 0 0.25582605936799319 0.39507969989513358 0 0.26247584734598628 0.44764943295894732 0 0.21968801783855879 0.43306783640023788 0 0.60492030010488373 0.25582605936799729 0 0.55175647814720108 0.26104505532086641 0 0.56683314878414581 0.21944955250104689 0 0.90554214442080472 0.95994154153067524 0 0.84999999999965292 1 0 0.86696410734367158 0.94753096683315619 0 0.040058458469322648 0.90554214442079806 0 0 0.84999999999965292 0 0.052469033166843738 0.86696410734366991 0 0.054872692726595548 0.13410685639845171 0 0 0.15000000000062411 0 0.040058458469319477 0.094457855579157729 0 0.13834721989462789 0.94095916274077984 0 0.15000000000062411 1 0 0.094457855579188163 0.95994154153068711 0 0.86589314360155567 0.054872692726639853 0 0.84999999999960507 0 0 0.90554214442081604 0.040058458469347469 0 0.94095916274074942 0.86165278010542579 0 1 0.84999999999960507 0 0.95994154153065969 0.90554214442078618 0 0.95994154153057998 0.094457855579277675 0 1 0.14999999999970359 0 0.94100406608115506 0.1383574446607955 0 0.094457855579284614 0.040058458469418363 0 0.14999999999970359 0 0 0.1383574446607988 0.058995933918849157 0 0.1104775404132264 0.2631175359816938 0 0.099694771212264055 0.22074048840547039 0 0.15899695163321451 0.22783674912227669 0 0.73688246401832591 0.11047754041323141 0 0.77925951159456153 0.09969477121230251 0 0.77216325087772952 0.15899695163319821 0 0.88949062093135778 0.73694585442531257 0 0.9041449437197947 0.7786886066890556 0 0.839908789927305 0.77106070975262608 0 0.26305414557470391 0.88949062093136155 0 0.22131139331094829 0.9041449437198319 0 0.22893929024737289 0.83990878992727813 0 0.74198804864688339 0.90892718720327403 0 0.71789175274016548 0.95136708251202151 0 0.70475631558365914 0.90098127745102974 0 0.091072812796719582 0.74198804864687795 0 0.04863291748797445 0.71789175274016204 0 0.099018722548963364 0.70475631558365193 0 0.89586000931544074 0.25714619498770419 0 0.94915666091748963 0.28320804985299752 0 0.89886191075654698 0.29506339503703172 0 0.25714619498771307 0.1041399906845497 0 0.28320804985300141 0.050843339082505573 0 0.29506339503703888 0.1011380892434444 0 0.65773042910151891 0.073296788161472337 0 0.62160809078275991 0.1093532031139005 0 0.6048537357103756 0.060530514380187868 0 0.92670321183853355 0.65773042910151081 0 0.89064679688610338 0.6216080907827598 0 0.93946948561981514 0.60485373571037115 0 0.073296788161418117 0.34226957089850552 0 0.10935320311385981 0.37839190921727089 0 0.06053051438015096 0.39514626428972788 0 0.3422695708985129 0.92670321183858773 0 0.37839190921727062 0.89064679688614412 0 0.39514626428973221 0.93946948561985189 0 0.49771727055908782 0.83998685797641781 0 0.53770425635794761 0.80104587463999666 0 0.54047998161173716 0.84333512669480526 0 0.16001314202358469 0.49771727055909287 0 0.1989632851005598 0.53769147668950479 0 0.1566648733051971 0.54047998161174216 0 0.83998574657308889 0.50228528270184081 0 0.80106707846564795 0.46230714888029367 0 0.84333218736938698 0.4595365182652234 0 0.50228272944093777 0.16001314202359701 0 0.46229330881044273 0.19890916456654811 0 0.45952001838826873 0.15666487330524251 0 0.8289812646369813 0.82898126463698818 0 0.88962265630811221 0.85311725681459705 0 0.85174853583809862 0.87705234031428159 0 0.17101873536300011 0.82898126463696109 0 0.14688274318541941 0.88962265630811932 0 0.1229476596857173 0.85174853583809695 0 0.83199780613337848 0.1690131600686714 0 0.8517485358380722 0.12294765968568611 0 0.88777909259956078 0.1484760565886154 0 0.16901316006868169 0.16800219386663079 0 0.12294765968567151 0.14825146416195439 0 0.1484760565886207 0.1122209074004519 0 0.15899695163321451 0.22783674912227669 0 0.099694771212264055 0.22074048840547039 0 0.12587517708284679 0.1889683322666954 0 0.77216325087772952 0.15899695163319821 0 0.77925951159456153 0.09969477121230251 0 0.8110316677333288 0.125875177082863 0 0.83199780613337848 0.1690131600686714 0 0.88777909259956078 0.1484760565886154 0 0.87355793346388477 0.18922011052113649 0 0.16901316006868169 0.16800219386663079 0 0.1484760565886207 0.1122209074004519 0 0.18922011052115781 0.12644206653611201 0 0.32191828326940508 0.76395804595204586 0 0.34270280102445921 0.71672416762035873 0 0.35837423432538362 0.77730446904312345 0 0.76395804595204597 0.67808171673060369 0 0.71518943060973483 0.65679402931717101 0 0.77730446904309636 0.64162576567462737 0 0.2360419540479583 0.32191828326940741 0 0.28473805236128291 0.34355768118673757 0 0.22269553095687891 0.35837423432538801 0 0.67808171673060202 0.23604195404795861 0 0.65679402931716913 0.28481056939027388 0 0.64162576567462404 0.22269553095690481 0 0.26305414557470391 0.88949062093136155 0 0.28790752038294382 0.94635952848702642 0 0.23222643817617661 0.94420751116970569 0 0.1104775404132264 0.2631175359816938 0 0.053730171687646627 0.28825077189828552 0 0.056452228708379938 0.23456580837661581 0 0.88949062093135778 0.73694585442531257 0 0.94635952848698612 0.71209247961721311 0 0.9442075111696665 0.76777356182390766 0 0.73688246401832591 0.11047754041323141 0 0.71174922810186925 0.053730171687687178 0 0.76543419162344684 0.056452228708420968 0 0.22893929024737289 0.83990878992727813 0 0.22131139331094829 0.9041449437198319 0 0.18958721034944021 0.87660297360394568 0 0.839908789927305 0.77106070975262608 0 0.9041449437197947 0.7786886066890556 0 0.87660297360393757 0.8104127896505644 0 0.35837423432538362 0.77730446904312345 0 0.34270280102445921 0.71672416762035873 0 0.39507969989512881 0.74417394063201048 0 0.77730446904309636 0.64162576567462737 0 0.71518943060973483 0.65679402931717101 0 0.74417394063200648 0.6049203001048884 0 0.22269553095687891 0.35837423432538801 0 0.28473805236128291 0.34355768118673757 0 0.25582605936799319 0.39507969989513358 0 0.64162576567462404 0.22269553095690481 0 0.65679402931716913 0.28481056939027388 0 0.60492030010488373 0.25582605936799729 0 0.57484409313590223 0.58437321637184114 0 0.53542397956703913 0.60119875982347493 0 0.53087311892591971 0.55299263141448529 0 1 0.59999999999894682 0 0.93946948561981514 0.60485373571037115 0 0.95638719633882641 0.5599388881718611 0 0.59999999999894682 0 0 0.6048537357103756 0.060530514380187868 0 0.55993888817186677 0.043612803661174412 0 0.40000000000166441 1 0 0.39514626428973221 0.93946948561985189 0 0.44006111182840962 0.9563871963389079 0 0 0.40000000000166441 0 0.06053051438015096 0.39514626428972788 0 0.043612803661092707 0.44006111182840391 0 0.43590673999053309 0.90289902042279657 0 0.48669777060454272 0.93510666819646593 0 0.44006111182840962 0.9563871963389079 0 0.097100979577207341 0.43590673999053198 0 0.064893331803534807 0.48669777060454478 0 0.043612803661092707 0.44006111182840391 0 0.90289902042272274 0.56409326000946114 0 0.93510666819640953 0.51330222939551939 0 0.95638719633882641 0.5599388881718611 0 0.56409326000946236 0.097100979577281268 0 0.5133022293955174 0.064893331803591428 0 0.55993888817186677 0.043612803661174412 0 0.57387636360620708 0.54318431390135336 0 0.57484409313590223 0.58437321637184114 0 0.53087311892591971 0.55299263141448529 0 1 0.69999999999921003 0 1 0.74999999999934175 0 0.94635952848698612 0.71209247961721311 0 0.69999999999921003 0 0 0.74999999999934175 0 0 0.71174922810186925 0.053730171687687178 0 0.30000000000124832 1 0 0.25000000000104028 1 0 0.28790752038294382 0.94635952848702642 0 0 0.30000000000124832 0 0 0.25000000000104028 0 0.053730171687646627 0.28825077189828552 0 0.90289902042272274 0.56409326000946114 0 0.85130417396420255 0.59518556406638579 0 0.85551478316835361 0.54646211938695222 0 0.43590673999053309 0.90289902042279657 0 0.40481452396081791 0.85130421228141606 0 0.45353891581270822 0.85551523377818905 0 0.56409326000946236 0.097100979577281268 0 0.59518547603920147 0.14869578771864489 0 0.54646108418729233 0.1444847662218687 0 0.097100979577207341 0.43590673999053198 0 0.14869578771858949 0.40481452396082068 0 0.1444847662218138 0.45353891581271188 0 0.90289902042272274 0.56409326000946114 0 0.89064679688610338 0.6216080907827598 0 0.85130417396420255 0.59518556406638579 0 0.56409326000946236 0.097100979577281268 0 0.62160809078275991 0.1093532031139005 0 0.59518547603920147 0.14869578771864489 0 0.43590673999053309 0.90289902042279657 0 0.37839190921727062 0.89064679688614412 0 0.40481452396081791 0.85130421228141606 0 0.097100979577207341 0.43590673999053198 0 0.10935320311385981 0.37839190921727089 0 0.14869578771858949 0.40481452396082068 0 0.74417394063200648 0.6049203001048884 0 0.69288637798153729 0.61204665218001397 0 0.70087539567735502 0.57165914616526226 0 0.39507969989512881 0.74417394063201048 0 0.38642358467307758 0.69286258923597266 0 0.42715538333808079 0.70077759375307946 0 0.60492030010488373 0.25582605936799729 0 0.61204665218000809 0.30711362201846659 0 0.57188338999077359 0.29874123486230147 0 0.25582605936799319 0.39507969989513358 0 0.30597655500381687 0.3934681685211931 0 0.2963043386970643 0.4298320229681446 0 0.51484304721220842 0.69707233951836334 0 0.57051182622447827 0.69668652018496713 0 0.54465502325161819 0.74717983044080061 0 0.30292766048163949 0.51484304721221474 0 0.30429740679959738 0.56913905146460098 0 0.25287139441262568 0.54458355434492378 0 0.70015119067225129 0.48481914991727459 0 0.69595787604187809 0.43071000156707989 0 0.74730218607442667 0.45539100053644521 0 0.48378871228000903 0.29745177826977359 0 0.43059486795334201 0.30395973419063538 0 0.45533136021725079 0.2525687312087147 0 0.91838802593870927 0.18172590289757809 0 0.96080966346491015 0.18035159017841959 0 0.94465622530468663 0.23167460333446291 0 0.18172590289758209 0.08161197406129285 0 0.18035159017842109 0.039190336535090492 0 0.23167460333446299 0.05534377469531044 0 0.81709574086843206 0.91318696080656769 0 0.82675923981951416 0.95611053755456221 0 0.77688977118331393 0.94706199857866258 0 0.086813039193431391 0.81709574086842884 0 0.043889462445437968 0.82675923981951283 0 0.052938001421335763 0.77688977118331159 0 0.91838802593884228 0.81827409710237209 0 0.9442075111696665 0.76777356182390766 0 0.96071093996985157 0.81954008780615684 0 0.82118136511706341 0.082875076569723011 0 0.76543419162344684 0.056452228708420968 0 0.82050174006822896 0.038839999600956771 0 0.1817259028976386 0.91838802593888857 0 0.23222643817617661 0.94420751116970569 0 0.18045991219397989 0.960710939969875 0 0.08287507656968085 0.1788186348829835 0 0.056452228708379938 0.23456580837661581 0 0.038839999600931263 0.17949825993190149 0 0.59819537371016407 0.74380966024143391 0 0.54465502325161819 0.74717983044080061 0 0.57051182622447827 0.69668652018496713 0 0.25619033975856881 0.59819537371016862 0 0.25287139441262568 0.54458355434492378 0 0.30429740679959738 0.56913905146460098 0 0.74380966024142703 0.40180462628984132 0 0.74730218607442667 0.45539100053644521 0 0.69595787604187809 0.43071000156707989 0 0.40180462628983732 0.2561903397585753 0 0.45533136021725079 0.2525687312087147 0 0.43059486795334201 0.30395973419063538 0 0.8312019486901514 0.72745002167959472 0 0.77998481823117694 0.71397317153691997 0 0.80847852346122429 0.67208120229789559 0 0.27254997832041528 0.8312019486901443 0 0.28602682846308641 0.77998481823117594 0 0.32791879770213411 0.80847852346120164 0 0.72767516840721058 0.16853767177393791 0 0.71397317153692708 0.22001518176882201 0 0.67208120229787616 0.1915214765387884 0 0.1685376717739448 0.27232483159280108 0 0.22001518176882229 0.28602682846307981 0 0.19152147653881049 0.32791879770215432 0 0.85607519768343354 0.69380468830529196 0 0.8312019486901514 0.72745002167959472 0 0.80847852346122429 0.67208120229789559 0 0.69379929796456197 0.14392209494791061 0 0.72767516840721058 0.16853767177393791 0 0.67208120229787616 0.1915214765387884 0 0.30619531169472608 0.85607519768342955 0 0.27254997832041528 0.8312019486901443 0 0.32791879770213411 0.80847852346120164 0 0.14392209494791439 0.30620070203545702 0 0.1685376717739448 0.27232483159280108 0 0.19152147653881049 0.32791879770215432 0 0.6519524273377173 0.64249931920594539 0 0.69288637798153729 0.61204665218001397 0 0.71518943060973483 0.65679402931717101 0 0.35944937237716967 0.65164789808436319 0 0.38642358467307758 0.69286258923597266 0 0.34270280102445921 0.71672416762035873 0 0.6424993192059415 0.3480475726622802 0 0.61204665218000809 0.30711362201846659 0 0.65679402931716913 0.28481056939027388 0 0.34804757266227387 0.35750068079406011 0 0.30597655500381687 0.3934681685211931 0 0.28473805236128291 0.34355768118673757 0 0.66919832404887702 0.81820888699730587 0 0.66923299355723143 0.8804077449518628 0 0.63969251517836323 0.84598529912890386 0 0.70085728320704077 0.84350379029875056 0 0.66923299355723143 0.8804077449518628 0 0.66919832404887702 0.81820888699730587 0 0.1817911130026923 0.66919832404888702 0 0.1195922550481313 0.66923299355722787 0 0.1540147008710982 0.63969251517836956 0 0.1564962097012354 0.70085728320703999 0 0.1195922550481313 0.66923299355722787 0 0.1817911130026923 0.66919832404888702 0 0.8182088869973061 0.33080167595111531 0 0.88040774495187946 0.33076700644278889 0 0.84598529912889664 0.36030748482164038 0 0.84350379029877964 0.29914271679296989 0 0.88040774495187946 0.33076700644278889 0 0.8182088869973061 0.33080167595111531 0 0.33080167595110582 0.18179111300269291 0 0.33076700644279272 0.1195922550481146 0 0.3603074848216346 0.15401470087110539 0 0.29914271679297122 0.15649620970120659 0 0.33076700644279272 0.1195922550481146 0 0.33080167595110582 0.18179111300269291 0 0.49189101320880302 0.59024331187324797 0 0.51172471858873747 0.64015771271794875 0 0.45517457031814612 0.62743100079604397 0 0.54901591374940373 0.42306523525165751 0 0.5047849391802508 0.40719950955717021 0 0.54715635490880632 0.37829016026862072 0 0.43590673999053309 0.90289902042279657 0 0.48758069708049379 0.89080072540186539 0 0.48669777060454272 0.93510666819646593 0 0.097100979577207341 0.43590673999053198 0 0.1091992745981364 0.48758069708049778 0 0.064893331803534807 0.48669777060454478 0 0.90289902042272274 0.56409326000946114 0 0.89079805168298443 0.51242544533572376 0 0.93510666819640953 0.51330222939551939 0 0.56409326000946236 0.097100979577281268 0 0.51241930291950477 0.1091992745981813 0 0.5133022293955174 0.064893331803591428 0 0.49189101320880302 0.59024331187324797 0 0.53542397956703913 0.60119875982347493 0 0.51172471858873747 0.64015771271794875 0 0.56566515596461675 0.63670464971409091 0 0.51172471858873747 0.64015771271794875 0 0.53542397956703913 0.60119875982347493 0 0.65773042910151891 0.073296788161472337 0 0.66251865414987876 0.1160340021949529 0 0.62160809078275991 0.1093532031139005 0 0.92670321183853355 0.65773042910151081 0 0.88396545633132484 0.6625197322180193 0 0.89064679688610338 0.6216080907827598 0 0.3422695708985129 0.92670321183858773 0 0.33748026778199908 0.88396545633134682 0 0.37839190921727062 0.89064679688614412 0 0.073296788161418117 0.34226957089850552 0 0.11603400219493119 0.33748134585014028 0 0.10935320311385981 0.37839190921727089 0 0.8289812646369813 0.82898126463698818 0 0.79422489417873421 0.79640925234634441 0 0.839908789927305 0.77106070975262608 0 0.17101873536300011 0.82898126463696109 0 0.20359074765364421 0.79422489417871855 0 0.22893929024737289 0.83990878992727813 0 0.83199780613337848 0.1690131600686714 0 0.80027482104603809 0.20596721135052129 0 0.77216325087772952 0.15899695163319821 0 0.16901316006868169 0.16800219386663079 0 0.20596721135052939 0.19972517895396219 0 0.15899695163321451 0.22783674912227669 0 0.84598529912884157 0.63969251517827153 0 0.80847852346122429 0.67208120229789559 0 0.8028306815476034 0.61296984760642026 0 0.36030748482174152 0.84598529912882459 0 0.32791879770213411 0.80847852346120164 0 0.38703015239361932 0.80283068154761972 0 0.63969251517826664 0.15401470087115929 0 0.67208120229787616 0.1915214765387884 0 0.61296984760641449 0.19716931845240021 0 0.15401470087117619 0.36030748482174652 0 0.19152147653881049 0.32791879770215432 0 0.197169318452384 0.38703015239362498 0 0.61233489393901674 0.60846740003560018 0 0.61866949026800744 0.55492322767366287 0 0.65501639383771026 0.594528181397324 0 0.74198804864688339 0.90892718720327403 0 0.78020430794084783 0.88768307197553598 0 0.77688977118331393 0.94706199857866258 0 0.091072812796719582 0.74198804864687795 0 0.11231692802445629 0.78020430794084028 0 0.052938001421335763 0.77688977118331159 0 0.81709574086843206 0.91318696080656769 0 0.77688977118331393 0.94706199857866258 0 0.78020430794084783 0.88768307197553598 0 0.086813039193431391 0.81709574086842884 0 0.052938001421335763 0.77688977118331159 0 0.11231692802445629 0.78020430794084028 0 0.73982803480991577 0.79629608696991705 0 0.79422489417873421 0.79640925234634441 0 0.78284912262770068 0.83746308049763585 0 0.8289812646369813 0.82898126463698818 0 0.78284912262770068 0.83746308049763585 0 0.79422489417873421 0.79640925234634441 0 0.20370391303007401 0.73982803480989479 0 0.20359074765364421 0.79422489417871855 0 0.16253691950235041 0.78284912262768558 0 0.17101873536300011 0.82898126463696109 0 0.16253691950235041 0.78284912262768558 0 0.20359074765364421 0.79422489417871855 0 0.79629608696994103 0.26017196519011448 0 0.80027482104603809 0.20596721135052129 0 0.84534053180161173 0.2262639405833009 0 0.83199780613337848 0.1690131600686714 0 0.84534053180161173 0.2262639405833009 0 0.80027482104603809 0.20596721135052129 0 0.26017196519013502 0.20370391303005 0 0.20596721135052939 0.19972517895396219 0 0.22626394058331961 0.15465946819838111 0 0.16901316006868169 0.16800219386663079 0 0.22626394058331961 0.15465946819838111 0 0.20596721135052939 0.19972517895396219 0 0.90045039720880915 0.9020090423547924 0 0.94156647488775558 0.94156647488774259 0 0.90554214442080472 0.95994154153067524 0 0.90082758526900886 0.098076845682916511 0 0.94156647488778256 0.058433525112256718 0 0.95994154153057998 0.094457855579277675 0 0.90082758526900886 0.098076845682916511 0 0.90554214442081604 0.040058458469347469 0 0.94156647488778256 0.058433525112256718 0 0.097990957645208238 0.90045039720880915 0 0.058433525112254137 0.94156647488774581 0 0.040058458469322648 0.90554214442079806 0 0.90045039720880915 0.9020090423547924 0 0.95994154153065969 0.90554214442078618 0 0.94156647488775558 0.94156647488774259 0 0.098076845682915317 0.099172414730993488 0 0.058433525112266523 0.058433525112214509 0 0.094457855579284614 0.040058458469418363 0 0.098076845682915317 0.099172414730993488 0 0.040058458469319477 0.094457855579157729 0 0.058433525112266523 0.058433525112214509 0 0.097990957645208238 0.90045039720880915 0 0.094457855579188163 0.95994154153068711 0 0.058433525112254137 0.94156647488774581 0 0.90289902042272274 0.56409326000946114 0 0.93946948561981514 0.60485373571037115 0 0.89064679688610338 0.6216080907827598 0 0.43590673999053309 0.90289902042279657 0 0.39514626428973221 0.93946948561985189 0 0.37839190921727062 0.89064679688614412 0 0.56409326000946236 0.097100979577281268 0 0.6048537357103756 0.060530514380187868 0 0.62160809078275991 0.1093532031139005 0 0.097100979577207341 0.43590673999053198 0 0.06053051438015096 0.39514626428972788 0 0.10935320311385981 0.37839190921727089 0 0.6519524273377173 0.64249931920594539 0 0.64518564541690571 0.69601563325001548 0 0.60879112811253555 0.66592422311595834 0 0.35944937237716967 0.65164789808436319 0 0.30421635384321521 0.64514939193436716 0 0.33231497408081678 0.60779218732873663 0 0.6424993192059415 0.3480475726622802 0 0.69601563325001248 0.35481435458309712 0 0.66346942254826746 0.391530810754116 0 0.34804757266227387 0.35750068079406011 0 0.35481435458309307 0.30398436674998969 0 0.39120887188745579 0.33407577688404289 0 1 0.5499999999988151 0 1 0.59999999999894682 0 0.95638719633882641 0.5599388881718611 0 0.5499999999988151 0 0 0.59999999999894682 0 0 0.55993888817186677 0.043612803661174412 0 0.45000000000187229 1 0 0.40000000000166441 1 0 0.44006111182840962 0.9563871963389079 0 0 0.45000000000187229 0 0 0.40000000000166441 0 0.043612803661092707 0.44006111182840391 0 1 0.049999999999899652 0 0.95994154153057998 0.094457855579277675 0 0.94156647488778256 0.058433525112256718 0 0.049999999999899652 0 0 0.094457855579284614 0.040058458469418363 0 0.058433525112266523 0.058433525112214509 0 0.94999999999986839 0 0 0.94156647488778256 0.058433525112256718 0 0.90554214442081604 0.040058458469347469 0 1 0.94999999999986839 0 0.94156647488775558 0.94156647488774259 0 0.95994154153065969 0.90554214442078618 0 0.94999999999979179 1 0 0.90554214442080472 0.95994154153067524 0 0.94156647488775558 0.94156647488774259 0 0 0.94999999999979179 0 0.040058458469322648 0.90554214442079806 0 0.058433525112254137 0.94156647488774581 0 0 0.050000000000207989 0 0.058433525112266523 0.058433525112214509 0 0.040058458469319477 0.094457855579157729 0 0.050000000000207989 1 0 0.058433525112254137 0.94156647488774581 0 0.094457855579188163 0.95994154153068711 0 0.55000000000173355 1 0 0.55307204985744796 0.94819812235491685 0 0.5931441817276254 0.95886012268751675 0 0 0.55000000000173355 0 0.051801877645083663 0.55307204985745195 0 0.041139877312483641 0.59314418172763017 0 1 0.44999999999882923 0 0.94812782820415209 0.44708943904932719 0 0.95886012268748921 0.4068558182724159 0 0.44999999999882923 0 0 0.44692795014265252 0.051801877645060238 0 0.40685581827241191 0.041139877312511682 0 0.83199780613337848 0.1690131600686714 0 0.77216325087772952 0.15899695163319821 0 0.8110316677333288 0.125875177082863 0 0.16901316006868169 0.16800219386663079 0 0.15899695163321451 0.22783674912227669 0 0.12587517708284679 0.1889683322666954 0 0.73982803480991577 0.79629608696991705 0 0.74154628962857594 0.86274820500026039 0 0.70085728320704077 0.84350379029875056 0 0.20370391303007401 0.73982803480989479 0 0.13725179499972981 0.74154628962856628 0 0.1564962097012354 0.70085728320703999 0 0.79629608696994103 0.26017196519011448 0 0.85389826602741015 0.26318949769600392 0 0.84350379029877964 0.29914271679296989 0 0.26017196519013502 0.20370391303005 0 0.26318949769601319 0.14610173397257309 0 0.29914271679297122 0.15649620970120659 0 0.53432142347292233 0.88563193847251998 0 0.48758069708049379 0.89080072540186539 0 0.49771727055908782 0.83998685797641781 0 0.1143680615274819 0.53432142347292733 0 0.1091992745981364 0.48758069708049778 0 0.16001314202358469 0.49771727055909287 0 0.88561059063756964 0.46572761956237563 0 0.89079805168298443 0.51242544533572376 0 0.83998574657308889 0.50228528270184081 0 0.46567857652706018 0.1143680615275231 0 0.51241930291950477 0.1091992745981813 0 0.50228272944093777 0.16001314202359701 0 0.1104775404132264 0.2631175359816938 0 0.099492119481027347 0.30746398533281638 0 0.053730171687646627 0.28825077189828552 0 0.26305414557470391 0.88949062093136155 0 0.30738136326657722 0.90051880305435028 0 0.28790752038294382 0.94635952848702642 0 0.73688246401832591 0.11047754041323141 0 0.69253601466723103 0.09949211948105087 0 0.71174922810186925 0.053730171687687178 0 0.88949062093135778 0.73694585442531257 0 0.90051880305432697 0.69261863673346957 0 0.94635952848698612 0.71209247961721311 0 0.77998481823117694 0.71397317153691997 0 0.76395804595204597 0.67808171673060369 0 0.80847852346122429 0.67208120229789559 0 0.28602682846308641 0.77998481823117594 0 0.32191828326940508 0.76395804595204586 0 0.32791879770213411 0.80847852346120164 0 0.71397317153692708 0.22001518176882201 0 0.67808171673060202 0.23604195404795861 0 0.67208120229787616 0.1915214765387884 0 0.22001518176882229 0.28602682846307981 0 0.2360419540479583 0.32191828326940741 0 0.19152147653881049 0.32791879770215432 0 0.8289812646369813 0.82898126463698818 0 0.839908789927305 0.77106070975262608 0 0.87660297360393757 0.8104127896505644 0 0.17101873536300011 0.82898126463696109 0 0.22893929024737289 0.83990878992727813 0 0.18958721034944021 0.87660297360394568 0 0.66548584431530877 0.55616712808283064 0 0.64455163611866495 0.50369301794551069 0 0.69798396601998558 0.5289734597937793 0 0.70015119067225129 0.48481914991727459 0 0.69798396601998558 0.5289734597937793 0 0.64455163611866495 0.50369301794551069 0 0.77998481823117694 0.71397317153691997 0 0.73984939806388494 0.70740600291923139 0 0.76395804595204597 0.67808171673060369 0 0.28602682846308641 0.77998481823117594 0 0.2925512105451914 0.73997990291173188 0 0.32191828326940508 0.76395804595204586 0 0.71397317153692708 0.22001518176882201 0 0.70740600291923772 0.26015060193611528 0 0.67808171673060202 0.23604195404795861 0 0.22001518176882229 0.28602682846307981 0 0.26014443552207939 0.29262390443653519 0 0.2360419540479583 0.32191828326940741 0 0.90045039720880915 0.9020090423547924 0 0.90554214442080472 0.95994154153067524 0 0.86696410734367158 0.94753096683315619 0 0.097990957645208238 0.90045039720880915 0 0.040058458469322648 0.90554214442079806 0 0.052469033166843738 0.86696410734366991 0 0.90082758526900886 0.098076845682916511 0 0.95994154153057998 0.094457855579277675 0 0.94100406608115506 0.1383574446607955 0 0.90045039720880915 0.9020090423547924 0 0.94095916274074942 0.86165278010542579 0 0.95994154153065969 0.90554214442078618 0 0.90082758526900886 0.098076845682916511 0 0.86589314360155567 0.054872692726639853 0 0.90554214442081604 0.040058458469347469 0 0.098076845682915317 0.099172414730993488 0 0.094457855579284614 0.040058458469418363 0 0.1383574446607988 0.058995933918849157 0 0.097990957645208238 0.90045039720880915 0 0.13834721989462789 0.94095916274077984 0 0.094457855579188163 0.95994154153068711 0 0.098076845682915317 0.099172414730993488 0 0.054872692726595548 0.13410685639845171 0 0.040058458469319477 0.094457855579157729 0 0.54901591374940373 0.42306523525165751 0 0.54715635490880632 0.37829016026862072 0 0.60122390529523662 0.39097801071820221 0 0.49854341599767982 0.37075914768127122 0 0.54715635490880632 0.37829016026862072 0 0.5047849391802508 0.40719950955717021 0 0.66548584431530877 0.55616712808283064 0 0.65501639383771026 0.594528181397324 0 0.61866949026800744 0.55492322767366287 0 0.50000000000002642 0.7803135888501761 0 0.49771727055908782 0.83998685797641781 0 0.46593838964869061 0.80781872835503554 0 0.2196864111498267 0.50000000000003153 0 0.16001314202358469 0.49771727055909287 0 0.19218127164496679 0.46593838964869538 0 0.78031358885017377 0.49999999999997569 0 0.83998574657308889 0.50228528270184081 0 0.80781854240107975 0.53406203754901738 0 0.49999999999997108 0.21968641114982909 0 0.50228272944093777 0.16001314202359701 0 0.53404982287327418 0.19215288291432539 0 0.70085728320704077 0.84350379029875056 0 0.74154628962857594 0.86274820500026039 0 0.70475631558365914 0.90098127745102974 0 0.1564962097012354 0.70085728320703999 0 0.13725179499972981 0.74154628962856628 0 0.099018722548963364 0.70475631558365193 0 0.84350379029877964 0.29914271679296989 0 0.85389826602741015 0.26318949769600392 0 0.89886191075654698 0.29506339503703172 0 0.29914271679297122 0.15649620970120659 0 0.26318949769601319 0.14610173397257309 0 0.29506339503703888 0.1011380892434444 0 0.74417394063200648 0.6049203001048884 0 0.71518943060973483 0.65679402931717101 0 0.69288637798153729 0.61204665218001397 0 0.39507969989512881 0.74417394063201048 0 0.34270280102445921 0.71672416762035873 0 0.38642358467307758 0.69286258923597266 0 0.60492030010488373 0.25582605936799729 0 0.65679402931716913 0.28481056939027388 0 0.61204665218000809 0.30711362201846659 0 0.25582605936799319 0.39507969989513358 0 0.28473805236128291 0.34355768118673757 0 0.30597655500381687 0.3934681685211931 0 0.88949062093135778 0.73694585442531257 0 0.839908789927305 0.77106070975262608 0 0.8312019486901514 0.72745002167959472 0 0.73688246401832591 0.11047754041323141 0 0.77216325087772952 0.15899695163319821 0 0.72767516840721058 0.16853767177393791 0 0.26305414557470391 0.88949062093136155 0 0.22893929024737289 0.83990878992727813 0 0.27254997832041528 0.8312019486901443 0 0.1104775404132264 0.2631175359816938 0 0.15899695163321451 0.22783674912227669 0 0.1685376717739448 0.27232483159280108 0 0.61233489393901674 0.60846740003560018 0 0.57484409313590223 0.58437321637184114 0 0.61866949026800744 0.55492322767366287 0 0.43565339604028508 0.55159384357101338 0 0.39982789553993509 0.53462762214740622 0 0.45293656999117771 0.51494832297079129 0 0.41009598069569558 0.49083935749285379 0 0.45293656999117771 0.51494832297079129 0 0.39982789553993509 0.53462762214740622 0 0.4434591735942961 0.66641640622551224 0 0.40564717507982689 0.65626423320524974 0 0.45517457031814612 0.62743100079604397 0 0.40653508887824003 0.61580573377480397 0 0.45517457031814612 0.62743100079604397 0 0.40564717507982689 0.65626423320524974 0 0.89586000931544074 0.25714619498770419 0 0.84534053180161173 0.2262639405833009 0 0.89556054516486661 0.21720615046483649 0 0.25714619498771307 0.1041399906845497 0 0.22626394058331961 0.15465946819838111 0 0.21720615046484709 0.1044394548351292 0 0.41009598069569558 0.49083935749285379 0 0.35815651743779398 0.51113440447909086 0 0.37702386074717259 0.45819417564476811 0 0.75000000000034661 1 0 0.71789175274016548 0.95136708251202151 0 0.77688977118331393 0.94706199857866258 0 0 0.75000000000034661 0 0.04863291748797445 0.71789175274016204 0 0.052938001421335763 0.77688977118331159 0 1 0.24999999999941211 0 0.94915666091748963 0.28320804985299752 0 0.94465622530468663 0.23167460333446291 0 0.24999999999941211 0 0 0.28320804985300141 0.050843339082505573 0 0.23167460333446299 0.05534377469531044 0 0.90289902042272274 0.56409326000946114 0 0.95638719633882641 0.5599388881718611 0 0.93946948561981514 0.60485373571037115 0 0.56409326000946236 0.097100979577281268 0 0.55993888817186677 0.043612803661174412 0 0.6048537357103756 0.060530514380187868 0 0.43590673999053309 0.90289902042279657 0 0.44006111182840962 0.9563871963389079 0 0.39514626428973221 0.93946948561985189 0 0.097100979577207341 0.43590673999053198 0 0.043612803661092707 0.44006111182840391 0 0.06053051438015096 0.39514626428972788 0 0.40653508887824003 0.61580573377480397 0 0.40468198875170619 0.57637931869191572 0 0.45030222762303879 0.58443295115431027 0 0.43301393728221038 0.35984320557492139 0 0.43059486795334201 0.30395973419063538 0 0.47253211736503098 0.34081710830804929 0 0.48378871228000903 0.29745177826977359 0 0.47253211736503098 0.34081710830804929 0 0.43059486795334201 0.30395973419063538 0 0.65000000000104008 1 0 0.60000000000138687 1 0 0.63753756910470316 0.95578163339252209 0 0 0.65000000000104008 0 0 0.60000000000138687 0 0.04421836660747535 0.63753756910470205 0 1 0.34999999999912063 0 1 0.3999999999989749 0 0.95581270756939096 0.36248656652865863 0 0.34999999999912063 0 0 0.3999999999989749 0 0 0.36246243089534252 0.044218366607477223 0 0.73982803480991577 0.79629608696991705 0 0.74917861927654894 0.74229989257760443 0 0.78651189793386345 0.75664155808652755 0 0.20370391303007401 0.73982803480989479 0 0.25770010742238642 0.74917861927655205 0 0.24335844191347281 0.78651189793387466 0 0.79629608696994103 0.26017196519011448 0 0.74229989257762263 0.250821380723454 0 0.7582555232258138 0.2115548431873896 0 0.26017196519013502 0.20370391303005 0 0.25082138072344978 0.25770010742236849 0 0.2115548431873881 0.2417444767741872 0 1 0.049999999999899652 0 0.94156647488778256 0.058433525112256718 0 0.96763014295114425 0.032369857048773903 0 0.049999999999899652 0 0 0.058433525112266523 0.058433525112214509 0 0.032369857048753323 0.032369857048862027 0 0.94999999999986839 0 0 0.96763014295114425 0.032369857048773903 0 0.94156647488778256 0.058433525112256718 0 0 0.050000000000207989 0 0.032369857048753323 0.032369857048862027 0 0.058433525112266523 0.058433525112214509 0 1 0.94999999999986839 0 0.96763014295120153 0.96763014295122851 0 0.94156647488775558 0.94156647488774259 0 0.94999999999979179 1 0 0.94156647488775558 0.94156647488774259 0 0.96763014295120153 0.96763014295122851 0 0.050000000000207989 1 0 0.030452409610489669 0.96954759038951022 0 0.058433525112254137 0.94156647488774581 0 0 0.94999999999979179 0 0.058433525112254137 0.94156647488774581 0 0.030452409610489669 0.96954759038951022 0 0.90045039720880915 0.9020090423547924 0 0.88962265630811221 0.85311725681459705 0 0.94095916274074942 0.86165278010542579 0 0.097990957645208238 0.90045039720880915 0 0.14688274318541941 0.88962265630811932 0 0.13834721989462789 0.94095916274077984 0 0.91838802593884228 0.81827409710237209 0 0.94095916274074942 0.86165278010542579 0 0.88962265630811221 0.85311725681459705 0 0.91838802593870927 0.18172590289757809 0 0.88777909259956078 0.1484760565886154 0 0.94100406608115506 0.1383574446607955 0 0.1817259028976386 0.91838802593888857 0 0.13834721989462789 0.94095916274077984 0 0.14688274318541941 0.88962265630811932 0 0.18172590289758209 0.08161197406129285 0 0.1484760565886207 0.1122209074004519 0 0.1383574446607988 0.058995933918849157 0 0.90082758526900886 0.098076845682916511 0 0.94100406608115506 0.1383574446607955 0 0.88777909259956078 0.1484760565886154 0 0.098076845682915317 0.099172414730993488 0 0.1383574446607988 0.058995933918849157 0 0.1484760565886207 0.1122209074004519 0 0.57387636360620708 0.54318431390135336 0 0.61866949026800744 0.55492322767366287 0 0.57484409313590223 0.58437321637184114 0 0.60122390529523662 0.39097801071820221 0 0.54715635490880632 0.37829016026862072 0 0.59596170682035776 0.34609402305862419 0 0.38703015239361932 0.80283068154761972 0 0.32791879770213411 0.80847852346120164 0 0.35837423432538362 0.77730446904312345 0 0.8028306815476034 0.61296984760642026 0 0.80847852346122429 0.67208120229789559 0 0.77730446904309636 0.64162576567462737 0 0.197169318452384 0.38703015239362498 0 0.19152147653881049 0.32791879770215432 0 0.22269553095687891 0.35837423432538801 0 0.61296984760641449 0.19716931845240021 0 0.67208120229787616 0.1915214765387884 0 0.64162576567462404 0.22269553095690481 0 0.39419886675318527 0.41912225240070788 0 0.37702386074717259 0.45819417564476811 0 0.35481422397128459 0.40312981465069342 0 0.33382663527330159 0.44130125047503482 0 0.35481422397128459 0.40312981465069342 0 0.37702386074717259 0.45819417564476811 0 0.40653508887824003 0.61580573377480397 0 0.40564717507982689 0.65626423320524974 0 0.35944937237716967 0.65164789808436319 0 0.53432142347292233 0.88563193847251998 0 0.49771727055908782 0.83998685797641781 0 0.54047998161173716 0.84333512669480526 0 0.1143680615274819 0.53432142347292733 0 0.16001314202358469 0.49771727055909287 0 0.1566648733051971 0.54047998161174216 0 0.88561059063756964 0.46572761956237563 0 0.83998574657308889 0.50228528270184081 0 0.84333218736938698 0.4595365182652234 0 0.46567857652706018 0.1143680615275231 0 0.50228272944093777 0.16001314202359701 0 0.45952001838826873 0.15666487330524251 0 0.37104651296145419 0.60545170748311072 0 0.40653508887824003 0.61580573377480397 0 0.35944937237716967 0.65164789808436319 0 0.6519524273377173 0.64249931920594539 0 0.71518943060973483 0.65679402931717101 0 0.6768914574865772 0.67861120078714243 0 0.35944937237716967 0.65164789808436319 0 0.34270280102445921 0.71672416762035873 0 0.32259853082073792 0.67670072609835186 0 0.6424993192059415 0.3480475726622802 0 0.65679402931716913 0.28481056939027388 0 0.6786112007871401 0.32310854251343019 0 0.34804757266227387 0.35750068079406011 0 0.28473805236128291 0.34355768118673757 0 0.3231032570156932 0.32141443408924047 0 0.73982803480991577 0.79629608696991705 0 0.70085728320704077 0.84350379029875056 0 0.69892030930712212 0.7971997999085858 0 0.20370391303007401 0.73982803480989479 0 0.1564962097012354 0.70085728320703999 0 0.2028002000914135 0.69892030930711557 0 0.79629608696994103 0.26017196519011448 0 0.84350379029877964 0.29914271679296989 0 0.7971997999085878 0.3010796906928917 0 0.26017196519013502 0.20370391303005 0 0.29914271679297122 0.15649620970120659 0 0.30107969069289831 0.20280020009141189 0 0.43301393728221038 0.35984320557492139 0 0.42930823106401639 0.40626685012722968 0 0.39222057657781068 0.38067796690227418 0 0.73982803480991577 0.79629608696991705 0 0.78284912262770068 0.83746308049763585 0 0.74154628962857594 0.86274820500026039 0 0.20370391303007401 0.73982803480989479 0 0.16253691950235041 0.78284912262768558 0 0.13725179499972981 0.74154628962856628 0 0.79629608696994103 0.26017196519011448 0 0.84534053180161173 0.2262639405833009 0 0.85389826602741015 0.26318949769600392 0 0.26017196519013502 0.20370391303005 0 0.22626394058331961 0.15465946819838111 0 0.26318949769601319 0.14610173397257309 0 0.56566515596461675 0.63670464971409091 0 0.57484409313590223 0.58437321637184114 0 0.61233489393901674 0.60846740003560018 0 0.84598529912884157 0.63969251517827153 0 0.85607519768343354 0.69380468830529196 0 0.80847852346122429 0.67208120229789559 0 0.63969251517826664 0.15401470087115929 0 0.69379929796456197 0.14392209494791061 0 0.67208120229787616 0.1915214765387884 0 0.36030748482174152 0.84598529912882459 0 0.30619531169472608 0.85607519768342955 0 0.32791879770213411 0.80847852346120164 0 0.15401470087117619 0.36030748482174652 0 0.14392209494791439 0.30620070203545702 0 0.19152147653881049 0.32791879770215432 0 0.20370391303007401 0.73982803480989479 0 0.24335844191347281 0.78651189793387466 0 0.20359074765364421 0.79422489417871855 0 0.73982803480991577 0.79629608696991705 0 0.78651189793386345 0.75664155808652755 0 0.79422489417873421 0.79640925234634441 0 0.26017196519013502 0.20370391303005 0 0.2115548431873881 0.2417444767741872 0 0.20596721135052939 0.19972517895396219 0 0.79629608696994103 0.26017196519011448 0 0.7582555232258138 0.2115548431873896 0 0.80027482104603809 0.20596721135052129 0 0.51172471858873747 0.64015771271794875 0 0.47818752133962877 0.66454462905280853 0 0.45517457031814612 0.62743100079604397 0 0.54901591374940373 0.42306523525165751 0 0.60122390529523662 0.39097801071820221 0 0.59313386551587477 0.43977047843653239 0 0.640156794425081 0.43301393728221721 0 0.59313386551587477 0.43977047843653239 0 0.60122390529523662 0.39097801071820221 0 0.70252050881959183 0.70358884261915833 0 0.71518943060973483 0.65679402931717101 0 0.73984939806388494 0.70740600291923139 0 0.29641115738084339 0.70252050881958938 0 0.34270280102445921 0.71672416762035873 0 0.2925512105451914 0.73997990291173188 0 0.76395804595204597 0.67808171673060369 0 0.73984939806388494 0.70740600291923139 0 0.71518943060973483 0.65679402931717101 0 0.32191828326940508 0.76395804595204586 0 0.2925512105451914 0.73997990291173188 0 0.34270280102445921 0.71672416762035873 0 0.70358884261915744 0.29747949118041561 0 0.65679402931716913 0.28481056939027388 0 0.70740600291923772 0.26015060193611528 0 0.29747949118041711 0.2964111573808435 0 0.28473805236128291 0.34355768118673757 0 0.26014443552207939 0.29262390443653519 0 0.67808171673060202 0.23604195404795861 0 0.70740600291923772 0.26015060193611528 0 0.65679402931716913 0.28481056939027388 0 0.2360419540479583 0.32191828326940741 0 0.26014443552207939 0.29262390443653519 0 0.28473805236128291 0.34355768118673757 0 0.74198804864688339 0.90892718720327403 0 0.70475631558365914 0.90098127745102974 0 0.74154628962857594 0.86274820500026039 0 0.091072812796719582 0.74198804864687795 0 0.099018722548963364 0.70475631558365193 0 0.13725179499972981 0.74154628962856628 0 0.89586000931544074 0.25714619498770419 0 0.89886191075654698 0.29506339503703172 0 0.85389826602741015 0.26318949769600392 0 0.25714619498771307 0.1041399906845497 0 0.29506339503703888 0.1011380892434444 0 0.26318949769601319 0.14610173397257309 0 0.59819537371016407 0.74380966024143391 0 0.64203711532612107 0.74316477213290444 0 0.61896574319320252 0.795216048370321 0 0.66820316019503978 0.77769800602796979 0 0.61896574319320252 0.795216048370321 0 0.64203711532612107 0.74316477213290444 0 0.25619033975856881 0.59819537371016862 0 0.25684529255773247 0.64203554247963057 0 0.2047839516296828 0.61896574319320252 0 0.22230199397202771 0.66820316019503168 0 0.2047839516296828 0.61896574319320252 0 0.25684529255773247 0.64203554247963057 0 0.74380966024142703 0.40180462628984132 0 0.74316477213289889 0.35796288467388632 0 0.79521604837030013 0.38103425680679831 0 0.77769800602796679 0.33179683980497482 0 0.79521604837030013 0.38103425680679831 0 0.74316477213289889 0.35796288467388632 0 0.40180462628983732 0.2561903397585753 0 0.3579628846738841 0.25683522786710378 0 0.38103425680679859 0.2047839516297037 0 0.33179683980498331 0.2223019939720311 0 0.38103425680679859 0.2047839516297037 0 0.3579628846738841 0.25683522786710378 0 0.92670321183853355 0.65773042910151081 0 0.93946948561981514 0.60485373571037115 0 0.96654491682122368 0.6363613838740827 0 0.65773042910151891 0.073296788161472337 0 0.6048537357103756 0.060530514380187868 0 0.63635157668793507 0.033457646040912177 0 0.3422695708985129 0.92670321183858773 0 0.39514626428973221 0.93946948561985189 0 0.36363861612613613 0.96654491682121313 0 0.073296788161418117 0.34226957089850552 0 0.06053051438015096 0.39514626428972788 0 0.033457646040922301 0.36364842331228431 0 0.6519524273377173 0.64249931920594539 0 0.6768914574865772 0.67861120078714243 0 0.64518564541690571 0.69601563325001548 0 0.35944937237716967 0.65164789808436319 0 0.32259853082073792 0.67670072609835186 0 0.30421635384321521 0.64514939193436716 0 0.6424993192059415 0.3480475726622802 0 0.6786112007871401 0.32310854251343019 0 0.69601563325001248 0.35481435458309712 0 0.34804757266227387 0.35750068079406011 0 0.3231032570156932 0.32141443408924047 0 0.35481435458309307 0.30398436674998969 0 0.73982803480991577 0.79629608696991705 0 0.71159714897733284 0.75039044679290845 0 0.74917861927654894 0.74229989257760443 0 0.20370391303007401 0.73982803480989479 0 0.249609553207091 0.71159714897732929 0 0.25770010742238642 0.74917861927655205 0 0.79629608696994103 0.26017196519011448 0 0.75039044679291111 0.28840285102267788 0 0.74229989257762263 0.250821380723454 0 0.26017196519013502 0.20370391303005 0 0.28840285102268098 0.24960955320708811 0 0.25082138072344978 0.25770010742236849 0 0.43565339604028508 0.55159384357101338 0 0.45030222762303879 0.58443295115431027 0 0.40468198875170619 0.57637931869191572 0 0.3999999999989749 0 0 0.44999999999882923 0 0 0.40685581827241191 0.041139877312511682 0 1 0.3999999999989749 0 1 0.44999999999882923 0 0.95886012268748921 0.4068558182724159 0 0 0.60000000000138687 0 0 0.55000000000173355 0 0.041139877312483641 0.59314418172763017 0 0.60000000000138687 1 0 0.55000000000173355 1 0 0.5931441817276254 0.95886012268751675 0 1 0.049999999999899652 0 1 0.099999999999814668 0 0.95994154153057998 0.094457855579277675 0 0.049999999999899652 0 0 0.099999999999814668 0 0 0.094457855579284614 0.040058458469418363 0 0.94999999999979179 1 0 0.89999999999958358 1 0 0.90554214442080472 0.95994154153067524 0 0 0.94999999999979179 0 0 0.89999999999958358 0 0.040058458469322648 0.90554214442079806 0 1 0.89999999999973679 0 1 0.94999999999986839 0 0.95994154153065969 0.90554214442078618 0 0.89999999999973679 0 0 0.94999999999986839 0 0 0.90554214442081604 0.040058458469347469 0 0.10000000000041601 1 0 0.050000000000207989 1 0 0.094457855579188163 0.95994154153068711 0 0 0.10000000000041601 0 0 0.050000000000207989 0 0.040058458469319477 0.094457855579157729 0 0.88949062093135778 0.73694585442531257 0 0.8312019486901514 0.72745002167959472 0 0.85607519768343354 0.69380468830529196 0 0.73688246401832591 0.11047754041323141 0 0.72767516840721058 0.16853767177393791 0 0.69379929796456197 0.14392209494791061 0 0.26305414557470391 0.88949062093136155 0 0.27254997832041528 0.8312019486901443 0 0.30619531169472608 0.85607519768342955 0 0.1104775404132264 0.2631175359816938 0 0.1685376717739448 0.27232483159280108 0 0.14392209494791439 0.30620070203545702 0 0.51484304721220842 0.69707233951836334 0 0.54465502325161819 0.74717983044080061 0 0.49073113440598592 0.73759004618730417 0 0.30292766048163949 0.51484304721221474 0 0.25287139441262568 0.54458355434492378 0 0.262418491288269 0.49071922292154141 0 0.70015119067225129 0.48481914991727459 0 0.74730218607442667 0.45539100053644521 0 0.73815142352639962 0.50697050072007344 0 0.48378871228000903 0.29745177826977359 0 0.45533136021725079 0.2525687312087147 0 0.50732841191799194 0.2613117081243182 0 0.66548584431530877 0.55616712808283064 0 0.61866949026800744 0.55492322767366287 0 0.64455163611866495 0.50369301794551069 0 0.5586987495249669 0.33382663527330653 0 0.59596170682035776 0.34609402305862419 0 0.54715635490880632 0.37829016026862072 0 0.41009598069569558 0.49083935749285379 0 0.42340342337193693 0.44762131874855388 0 0.46152714345798918 0.47344359412352599 0 0.63969251517836323 0.84598529912890386 0 0.61896574319320252 0.795216048370321 0 0.66919832404887702 0.81820888699730587 0 0.1540147008710982 0.63969251517836956 0 0.2047839516296828 0.61896574319320252 0 0.1817911130026923 0.66919832404888702 0 0.84598529912889664 0.36030748482164038 0 0.79521604837030013 0.38103425680679831 0 0.8182088869973061 0.33080167595111531 0 0.3603074848216346 0.15401470087110539 0 0.38103425680679859 0.2047839516297037 0 0.33080167595110582 0.18179111300269291 0 0.60000000000138687 1 0 0.5931441817276254 0.95886012268751675 0 0.63753756910470316 0.95578163339252209 0 0 0.60000000000138687 0 0.041139877312483641 0.59314418172763017 0 0.04421836660747535 0.63753756910470205 0 1 0.3999999999989749 0 0.95886012268748921 0.4068558182724159 0 0.95581270756939096 0.36248656652865863 0 0.3999999999989749 0 0 0.40685581827241191 0.041139877312511682 0 0.36246243089534252 0.044218366607477223 0 0.6519524273377173 0.64249931920594539 0 0.61233489393901674 0.60846740003560018 0 0.65501639383771026 0.594528181397324 0 0.6424993192059415 0.3480475726622802 0 0.60122390529523662 0.39097801071820221 0 0.59596170682035776 0.34609402305862419 0 0.56566515596461675 0.63670464971409091 0 0.60879112811253555 0.66592422311595834 0 0.57051182622447827 0.69668652018496713 0 0.35984320557492089 0.56698606271778873 0 0.33231497408081678 0.60779218732873663 0 0.30429740679959738 0.56913905146460098 0 0.640156794425081 0.43301393728221721 0 0.66346942254826746 0.391530810754116 0 0.69595787604187809 0.43071000156707989 0 0.43301393728221038 0.35984320557492139 0 0.39120887188745579 0.33407577688404289 0 0.43059486795334201 0.30395973419063538 0 0.59999999999894682 0 0 0.63635157668793507 0.033457646040912177 0 0.6048537357103756 0.060530514380187868 0 1 0.59999999999894682 0 0.96654491682122368 0.6363613838740827 0 0.93946948561981514 0.60485373571037115 0 0 0.40000000000166441 0 0.033457646040922301 0.36364842331228431 0 0.06053051438015096 0.39514626428972788 0 0.40000000000166441 1 0 0.36363861612613613 0.96654491682121313 0 0.39514626428973221 0.93946948561985189 0 0.50000000000002642 0.7803135888501761 0 0.49073113440598592 0.73759004618730417 0 0.54465502325161819 0.74717983044080061 0 0.2196864111498267 0.50000000000003153 0 0.262418491288269 0.49071922292154141 0 0.25287139441262568 0.54458355434492378 0 0.78031358885017377 0.49999999999997569 0 0.73815142352639962 0.50697050072007344 0 0.74730218607442667 0.45539100053644521 0 0.49999999999997108 0.21968641114982909 0 0.50732841191799194 0.2613117081243182 0 0.45533136021725079 0.2525687312087147 0 0.39507969989512881 0.74417394063201048 0 0.43306783640023289 0.78031198216144404 0 0.38703015239361932 0.80283068154761972 0 0.25582605936799319 0.39507969989513358 0 0.21968801783855879 0.43306783640023788 0 0.197169318452384 0.38703015239362498 0 0.74417394063200648 0.6049203001048884 0 0.78031198216143516 0.56693216359979737 0 0.8028306815476034 0.61296984760642026 0 0.60492030010488373 0.25582605936799729 0 0.56683314878414581 0.21944955250104689 0 0.61296984760641449 0.19716931845240021 0 0.77998481823117694 0.71397317153691997 0 0.74917861927654894 0.74229989257760443 0 0.73984939806388494 0.70740600291923139 0 0.28602682846308641 0.77998481823117594 0 0.25770010742238642 0.74917861927655205 0 0.2925512105451914 0.73997990291173188 0 0.71397317153692708 0.22001518176882201 0 0.74229989257762263 0.250821380723454 0 0.70740600291923772 0.26015060193611528 0 0.22001518176882229 0.28602682846307981 0 0.25082138072344978 0.25770010742236849 0 0.26014443552207939 0.29262390443653519 0 0.49189101320880302 0.59024331187324797 0 0.53087311892591971 0.55299263141448529 0 0.53542397956703913 0.60119875982347493 0 0.41009598069569558 0.49083935749285379 0 0.46152714345798918 0.47344359412352599 0 0.45293656999117771 0.51494832297079129 0 0.66820316019503978 0.77769800602796979 0 0.66919832404887702 0.81820888699730587 0 0.61896574319320252 0.795216048370321 0 0.22230199397202771 0.66820316019503168 0 0.1817911130026923 0.66919832404888702 0 0.2047839516296828 0.61896574319320252 0 0.77769800602796679 0.33179683980497482 0 0.8182088869973061 0.33080167595111531 0 0.79521604837030013 0.38103425680679831 0 0.33179683980498331 0.2223019939720311 0 0.33080167595110582 0.18179111300269291 0 0.38103425680679859 0.2047839516297037 0 0.83199780613337848 0.1690131600686714 0 0.87355793346388477 0.18922011052113649 0 0.84534053180161173 0.2262639405833009 0 0.16901316006868169 0.16800219386663079 0 0.18922011052115781 0.12644206653611201 0 0.22626394058331961 0.15465946819838111 0 0.58981073711177334 0.48140931020849848 0 0.62619054498681193 0.46482944251856079 0 0.64455163611866495 0.50369301794551069 0 0.59621567360238914 0.5184866806641607 0 0.58981073711177334 0.48140931020849848 0 0.64455163611866495 0.50369301794551069 0 0.53432142347292233 0.88563193847251998 0 0.54047998161173716 0.84333512669480526 0 0.58267137064684116 0.87013301365640838 0 0.56759263990989184 0.81794319034601648 0 0.58267137064684116 0.87013301365640838 0 0.54047998161173716 0.84333512669480526 0 0.1143680615274819 0.53432142347292733 0 0.1566648733051971 0.54047998161174216 0 0.12986698634359389 0.58267137064684615 0 0.18205680965398621 0.56759263990989739 0 0.12986698634359389 0.58267137064684615 0 0.1566648733051971 0.54047998161174216 0 0.88561059063756964 0.46572761956237563 0 0.84333218736938698 0.4595365182652234 0 0.87012666750595846 0.41743873185103042 0 0.81794319034597418 0.43240736009009317 0 0.87012666750595846 0.41743873185103042 0 0.84333218736938698 0.4595365182652234 0 0.46567857652706018 0.1143680615275231 0 0.45952001838826873 0.15666487330524251 0 0.41732862935313042 0.12986698634362279 0 0.43240736009008851 0.18205680965402779 0 0.41732862935313042 0.12986698634362279 0 0.45952001838826873 0.15666487330524251 0 0.70085728320704077 0.84350379029875056 0 0.70475631558365914 0.90098127745102974 0 0.66923299355723143 0.8804077449518628 0 0.1564962097012354 0.70085728320703999 0 0.099018722548963364 0.70475631558365193 0 0.1195922550481313 0.66923299355722787 0 0.84350379029877964 0.29914271679296989 0 0.89886191075654698 0.29506339503703172 0 0.88040774495187946 0.33076700644278889 0 0.29914271679297122 0.15649620970120659 0 0.29506339503703888 0.1011380892434444 0 0.33076700644279272 0.1195922550481146 0 0.839908789927305 0.77106070975262608 0 0.78651189793386345 0.75664155808652755 0 0.8312019486901514 0.72745002167959472 0 0.22893929024737289 0.83990878992727813 0 0.24335844191347281 0.78651189793387466 0 0.27254997832041528 0.8312019486901443 0 0.77216325087772952 0.15899695163319821 0 0.7582555232258138 0.2115548431873896 0 0.72767516840721058 0.16853767177393791 0 0.15899695163321451 0.22783674912227669 0 0.2115548431873881 0.2417444767741872 0 0.1685376717739448 0.27232483159280108 0 0.89586000931544074 0.25714619498770419 0 0.85389826602741015 0.26318949769600392 0 0.84534053180161173 0.2262639405833009 0 0.25714619498771307 0.1041399906845497 0 0.26318949769601319 0.14610173397257309 0 0.22626394058331961 0.15465946819838111 0 0.49771727055908782 0.83998685797641781 0 0.45353891581270822 0.85551523377818905 0 0.46593838964869061 0.80781872835503554 0 0.16001314202358469 0.49771727055909287 0 0.1444847662218138 0.45353891581271188 0 0.19218127164496679 0.46593838964869538 0 0.83998574657308889 0.50228528270184081 0 0.85551478316835361 0.54646211938695222 0 0.80781854240107975 0.53406203754901738 0 0.50228272944093777 0.16001314202359701 0 0.54646108418729233 0.1444847662218687 0 0.53404982287327418 0.19215288291432539 0 0.51484304721220842 0.69707233951836334 0 0.47818752133962877 0.66454462905280853 0 0.51172471858873747 0.64015771271794875 0 0.30292766048163949 0.51484304721221474 0 0.33436424489304489 0.47849603121740791 0 0.35815651743779398 0.51113440447909086 0 0.6027107599280892 0.83436006790502326 0 0.63969251517836323 0.84598529912890386 0 0.62483828039315681 0.8780818733396436 0 0.1656399320949789 0.60271075992809464 0 0.1540147008710982 0.63969251517836956 0 0.1219181266603569 0.62483828039315903 0 0.83436006790498052 0.39728924007189959 0 0.84598529912889664 0.36030748482164038 0 0.87815187193233801 0.37523526017134418 0 0.3972892400718947 0.16563993209502181 0 0.3603074848216346 0.15401470087110539 0 0.37516171960683908 0.121918126660369 0 0.70015119067225129 0.48481914991727459 0 0.64455163611866495 0.50369301794551069 0 0.66329969176266512 0.46626046872004567 0 0.57387636360620708 0.54318431390135336 0 0.53087311892591971 0.55299263141448529 0 0.554170140907293 0.50922353359177785 0 0.50333998054938722 0.50119715791968966 0 0.50753758205811061 0.4506562873613274 0 0.54783891860069212 0.46640164214823893 0 0.58267137064684116 0.87013301365640838 0 0.6027107599280892 0.83436006790502326 0 0.62483828039315681 0.8780818733396436 0 0.12986698634359389 0.58267137064684615 0 0.1656399320949789 0.60271075992809464 0 0.1219181266603569 0.62483828039315903 0 0.87012666750595846 0.41743873185103042 0 0.83436006790498052 0.39728924007189959 0 0.87815187193233801 0.37523526017134418 0 0.41732862935313042 0.12986698634362279 0 0.3972892400718947 0.16563993209502181 0 0.37516171960683908 0.121918126660369 0 0.35984320557492089 0.56698606271778873 0 0.35815651743779398 0.51113440447909086 0 0.39982789553993509 0.53462762214740622 0 0.43087117257049001 0.8215422551712771 0 0.46593838964869061 0.80781872835503554 0 0.45353891581270822 0.85551523377818905 0 0.17845774482872559 0.43087117257049429 0 0.19218127164496679 0.46593838964869538 0 0.1444847662218138 0.45353891581271188 0 0.8215422551712277 0.56912882742954496 0 0.80781854240107975 0.53406203754901738 0 0.85551478316835361 0.54646211938695222 0 0.56912882742954041 0.17845774482877461 0 0.53404982287327418 0.19215288291432539 0 0.54646108418729233 0.1444847662218687 0 0.89586000931544074 0.25714619498770419 0 0.89556054516486661 0.21720615046483649 0 0.94465622530468663 0.23167460333446291 0 0.91838802593870927 0.18172590289757809 0 0.94465622530468663 0.23167460333446291 0 0.89556054516486661 0.21720615046483649 0 0.25714619498771307 0.1041399906845497 0 0.21720615046484709 0.1044394548351292 0 0.23167460333446299 0.05534377469531044 0 0.18172590289758209 0.08161197406129285 0 0.23167460333446299 0.05534377469531044 0 0.21720615046484709 0.1044394548351292 0 0.50333998054938722 0.50119715791968966 0 0.54783891860069212 0.46640164214823893 0 0.554170140907293 0.50922353359177785 0 0.16901316006868169 0.16800219386663079 0 0.12587517708284679 0.1889683322666954 0 0.12294765968567151 0.14825146416195439 0 0.83199780613337848 0.1690131600686714 0 0.8110316677333288 0.125875177082863 0 0.8517485358380722 0.12294765968568611 0 0.74198804864688339 0.90892718720327403 0 0.74154628962857594 0.86274820500026039 0 0.78020430794084783 0.88768307197553598 0 0.78284912262770068 0.83746308049763585 0 0.78020430794084783 0.88768307197553598 0 0.74154628962857594 0.86274820500026039 0 0.091072812796719582 0.74198804864687795 0 0.13725179499972981 0.74154628962856628 0 0.11231692802445629 0.78020430794084028 0 0.16253691950235041 0.78284912262768558 0 0.11231692802445629 0.78020430794084028 0 0.13725179499972981 0.74154628962856628 0 0.82118136511706341 0.082875076569723011 0 0.77925951159456153 0.09969477121230251 0 0.76543419162344684 0.056452228708420968 0 0.08287507656968085 0.1788186348829835 0 0.099694771212264055 0.22074048840547039 0 0.056452228708379938 0.23456580837661581 0 0.91838802593884228 0.81827409710237209 0 0.9041449437197947 0.7786886066890556 0 0.9442075111696665 0.76777356182390766 0 0.1817259028976386 0.91838802593888857 0 0.22131139331094829 0.9041449437198319 0 0.23222643817617661 0.94420751116970569 0 0.73688246401832591 0.11047754041323141 0 0.76543419162344684 0.056452228708420968 0 0.77925951159456153 0.09969477121230251 0 0.1104775404132264 0.2631175359816938 0 0.056452228708379938 0.23456580837661581 0 0.099694771212264055 0.22074048840547039 0 0.88949062093135778 0.73694585442531257 0 0.9442075111696665 0.76777356182390766 0 0.9041449437197947 0.7786886066890556 0 0.26305414557470391 0.88949062093136155 0 0.23222643817617661 0.94420751116970569 0 0.22131139331094829 0.9041449437198319 0 0.73984939806388494 0.70740600291923139 0 0.71159714897733284 0.75039044679290845 0 0.70252050881959183 0.70358884261915833 0 0.74917861927654894 0.74229989257760443 0 0.71159714897733284 0.75039044679290845 0 0.73984939806388494 0.70740600291923139 0 0.2925512105451914 0.73997990291173188 0 0.249609553207091 0.71159714897732929 0 0.29641115738084339 0.70252050881958938 0 0.25770010742238642 0.74917861927655205 0 0.249609553207091 0.71159714897732929 0 0.2925512105451914 0.73997990291173188 0 0.70740600291923772 0.26015060193611528 0 0.75039044679291111 0.28840285102267788 0 0.70358884261915744 0.29747949118041561 0 0.74229989257762263 0.250821380723454 0 0.75039044679291111 0.28840285102267788 0 0.70740600291923772 0.26015060193611528 0 0.26014443552207939 0.29262390443653519 0 0.28840285102268098 0.24960955320708811 0 0.29747949118041711 0.2964111573808435 0 0.25082138072344978 0.25770010742236849 0 0.28840285102268098 0.24960955320708811 0 0.26014443552207939 0.29262390443653519 0 0.88949062093135778 0.73694585442531257 0 0.85607519768343354 0.69380468830529196 0 0.90051880305432697 0.69261863673346957 0 0.26305414557470391 0.88949062093136155 0 0.30619531169472608 0.85607519768342955 0 0.30738136326657722 0.90051880305435028 0 0.73688246401832591 0.11047754041323141 0 0.69379929796456197 0.14392209494791061 0 0.69253601466723103 0.09949211948105087 0 0.1104775404132264 0.2631175359816938 0 0.14392209494791439 0.30620070203545702 0 0.099492119481027347 0.30746398533281638 0 0.58981073711177334 0.48140931020849848 0 0.54783891860069212 0.46640164214823893 0 0.59313386551587477 0.43977047843653239 0 0.640156794425081 0.43301393728221721 0 0.69595787604187809 0.43071000156707989 0 0.66329969176266512 0.46626046872004567 0 0.70015119067225129 0.48481914991727459 0 0.66329969176266512 0.46626046872004567 0 0.69595787604187809 0.43071000156707989 0 0.8289812646369813 0.82898126463698818 0 0.81306033001437827 0.8677384967307622 0 0.78284912262770068 0.83746308049763585 0 0.17101873536300011 0.82898126463696109 0 0.1322615032692282 0.8130603300143705 0 0.16253691950235041 0.78284912262768558 0 0.84534053180161173 0.2262639405833009 0 0.87355793346388477 0.18922011052113649 0 0.89556054516486661 0.21720615046483649 0 0.22626394058331961 0.15465946819838111 0 0.18922011052115781 0.12644206653611201 0 0.21720615046484709 0.1044394548351292 0 0.90082758526900886 0.098076845682916511 0 0.86148619541339633 0.089689702191568438 0 0.86589314360155567 0.054872692726639853 0 0.098076845682915317 0.099172414730993488 0 0.089689702191541126 0.13851380458662241 0 0.054872692726595548 0.13410685639845171 0 0.84598529912884157 0.63969251517827153 0 0.89064679688610338 0.6216080907827598 0 0.88396545633132484 0.6625197322180193 0 0.63969251517826664 0.15401470087115929 0 0.62160809078275991 0.1093532031139005 0 0.66251865414987876 0.1160340021949529 0 0.36030748482174152 0.84598529912882459 0 0.37839190921727062 0.89064679688614412 0 0.33748026778199908 0.88396545633134682 0 0.15401470087117619 0.36030748482174652 0 0.10935320311385981 0.37839190921727089 0 0.11603400219493119 0.33748134585014028 0 0.82118136511706341 0.082875076569723011 0 0.8517485358380722 0.12294765968568611 0 0.8110316677333288 0.125875177082863 0 0.08287507656968085 0.1788186348829835 0 0.12294765968567151 0.14825146416195439 0 0.12587517708284679 0.1889683322666954 0 0.75000000000034661 1 0 0.7000000000006934 1 0 0.71789175274016548 0.95136708251202151 0 0 0.75000000000034661 0 0 0.7000000000006934 0 0.04863291748797445 0.71789175274016204 0 1 0.24999999999941211 0 1 0.29999999999926641 0 0.94915666091748963 0.28320804985299752 0 0.24999999999941211 0 0 0.29999999999926641 0 0 0.28320804985300141 0.050843339082505573 0 0.55000000000173355 1 0 0.51507566941747085 0.9626786017237855 0 0.55307204985744796 0.94819812235491685 0 0 0.55000000000173355 0 0.037321398276215258 0.51507566941747263 0 0.051801877645083663 0.55307204985745195 0 1 0.44999999999882923 0 0.96266688603193029 0.48495124540067203 0 0.94812782820415209 0.44708943904932719 0 0.44999999999882923 0 0 0.48492433058289169 0.037321398276272413 0 0.44692795014265252 0.051801877645060238 0 0.49854341599767982 0.37075914768127122 0 0.51491507395299929 0.3326740076510219 0 0.54715635490880632 0.37829016026862072 0 0.91838802593884228 0.81827409710237209 0 0.88962265630811221 0.85311725681459705 0 0.87660297360393757 0.8104127896505644 0 0.1817259028976386 0.91838802593888857 0 0.14688274318541941 0.88962265630811932 0 0.18958721034944021 0.87660297360394568 0 0.50333998054938722 0.50119715791968966 0 0.554170140907293 0.50922353359177785 0 0.53087311892591971 0.55299263141448529 0 0.91890123454466932 0.39094742729597309 0 0.95886012268748921 0.4068558182724159 0 0.90991454156957952 0.4312731559748802 0 0.94812782820415209 0.44708943904932719 0 0.90991454156957952 0.4312731559748802 0 0.95886012268748921 0.4068558182724159 0 0.84999999999965292 1 0 0.82675923981951416 0.95611053755456221 0 0.86696410734367158 0.94753096683315619 0 0 0.84999999999965292 0 0.043889462445437968 0.82675923981951283 0 0.052469033166843738 0.86696410734366991 0 0.1817259028976386 0.91838802593888857 0 0.18045991219397989 0.960710939969875 0 0.13834721989462789 0.94095916274077984 0 0.91838802593884228 0.81827409710237209 0 0.96071093996985157 0.81954008780615684 0 0.94095916274074942 0.86165278010542579 0 0.08287507656968085 0.1788186348829835 0 0.038839999600931263 0.17949825993190149 0 0.054872692726595548 0.13410685639845171 0 0.82118136511706341 0.082875076569723011 0 0.82050174006822896 0.038839999600956771 0 0.86589314360155567 0.054872692726639853 0 0.15000000000062411 1 0 0.13834721989462789 0.94095916274077984 0 0.18045991219397989 0.960710939969875 0 1 0.84999999999960507 0 0.94095916274074942 0.86165278010542579 0 0.96071093996985157 0.81954008780615684 0 0 0.15000000000062411 0 0.054872692726595548 0.13410685639845171 0 0.038839999600931263 0.17949825993190149 0 0.84999999999960507 0 0 0.86589314360155567 0.054872692726639853 0 0.82050174006822896 0.038839999600956771 0 1 0.14999999999970359 0 0.96080966346491015 0.18035159017841959 0 0.94100406608115506 0.1383574446607955 0 0.14999999999970359 0 0 0.18035159017842109 0.039190336535090492 0 0.1383574446607988 0.058995933918849157 0 0.91838802593870927 0.18172590289757809 0 0.94100406608115506 0.1383574446607955 0 0.96080966346491015 0.18035159017841959 0 0.18172590289758209 0.08161197406129285 0 0.1383574446607988 0.058995933918849157 0 0.18035159017842109 0.039190336535090492 0 0.40653508887824003 0.61580573377480397 0 0.45030222762303879 0.58443295115431027 0 0.45517457031814612 0.62743100079604397 0 0.50333998054938722 0.50119715791968966 0 0.53087311892591971 0.55299263141448529 0 0.47974773860103892 0.54872726831320284 0 0.33382663527330159 0.44130125047503482 0 0.30597655500381687 0.3934681685211931 0 0.35481422397128459 0.40312981465069342 0 0.34804757266227387 0.35750068079406011 0 0.35481422397128459 0.40312981465069342 0 0.30597655500381687 0.3934681685211931 0 0.39419886675318527 0.41912225240070788 0 0.39222057657781068 0.38067796690227418 0 0.42930823106401639 0.40626685012722968 0 0.5586987495249669 0.33382663527330653 0 0.54715635490880632 0.37829016026862072 0 0.51491507395299929 0.3326740076510219 0 0.84598529912884157 0.63969251517827153 0 0.88396545633132484 0.6625197322180193 0 0.85607519768343354 0.69380468830529196 0 0.63969251517826664 0.15401470087115929 0 0.66251865414987876 0.1160340021949529 0 0.69379929796456197 0.14392209494791061 0 0.36030748482174152 0.84598529912882459 0 0.33748026778199908 0.88396545633134682 0 0.30619531169472608 0.85607519768342955 0 0.15401470087117619 0.36030748482174652 0 0.11603400219493119 0.33748134585014028 0 0.14392209494791439 0.30620070203545702 0 0.41009598069569558 0.49083935749285379 0 0.39982789553993509 0.53462762214740622 0 0.35815651743779398 0.51113440447909086 0 0.43087117257049001 0.8215422551712771 0 0.38703015239361932 0.80283068154761972 0 0.43306783640023289 0.78031198216144404 0 0.8215422551712277 0.56912882742954496 0 0.8028306815476034 0.61296984760642026 0 0.78031198216143516 0.56693216359979737 0 0.17845774482872559 0.43087117257049429 0 0.197169318452384 0.38703015239362498 0 0.21968801783855879 0.43306783640023788 0 0.56912882742954041 0.17845774482877461 0 0.61296984760641449 0.19716931845240021 0 0.56683314878414581 0.21944955250104689 0 0.86696410734367158 0.94753096683315619 0 0.82675923981951416 0.95611053755456221 0 0.85382799508926477 0.91295829388058414 0 0.052469033166843738 0.86696410734366991 0 0.043889462445437968 0.82675923981951283 0 0.087041706119416085 0.85382799508926188 0 0.81709574086843206 0.91318696080656769 0 0.85382799508926477 0.91295829388058414 0 0.82675923981951416 0.95611053755456221 0 0.086813039193431391 0.81709574086842884 0 0.087041706119416085 0.85382799508926188 0 0.043889462445437968 0.82675923981951283 0 0.77998481823117694 0.71397317153691997 0 0.8312019486901514 0.72745002167959472 0 0.78651189793386345 0.75664155808652755 0 0.28602682846308641 0.77998481823117594 0 0.27254997832041528 0.8312019486901443 0 0.24335844191347281 0.78651189793387466 0 0.71397317153692708 0.22001518176882201 0 0.72767516840721058 0.16853767177393791 0 0.7582555232258138 0.2115548431873896 0 0.22001518176882229 0.28602682846307981 0 0.1685376717739448 0.27232483159280108 0 0.2115548431873881 0.2417444767741872 0 0.54901591374940373 0.42306523525165751 0 0.50753758205811061 0.4506562873613274 0 0.5047849391802508 0.40719950955717021 0 0.54901591374940373 0.42306523525165751 0 0.59313386551587477 0.43977047843653239 0 0.54783891860069212 0.46640164214823893 0 0.81709574086843206 0.91318696080656769 0 0.81306033001437827 0.8677384967307622 0 0.85174853583809862 0.87705234031428159 0 0.086813039193431391 0.81709574086842884 0 0.1322615032692282 0.8130603300143705 0 0.1229476596857173 0.85174853583809695 0 0.839908789927305 0.77106070975262608 0 0.79422489417873421 0.79640925234634441 0 0.78651189793386345 0.75664155808652755 0 0.22893929024737289 0.83990878992727813 0 0.20359074765364421 0.79422489417871855 0 0.24335844191347281 0.78651189793387466 0 0.77216325087772952 0.15899695163319821 0 0.80027482104603809 0.20596721135052129 0 0.7582555232258138 0.2115548431873896 0 0.15899695163321451 0.22783674912227669 0 0.20596721135052939 0.19972517895396219 0 0.2115548431873881 0.2417444767741872 0 0.70087539567735502 0.57165914616526226 0 0.65501639383771026 0.594528181397324 0 0.66548584431530877 0.55616712808283064 0 0.69288637798153729 0.61204665218001397 0 0.65501639383771026 0.594528181397324 0 0.70087539567735502 0.57165914616526226 0 0.57188338999077359 0.29874123486230147 0 0.59596170682035776 0.34609402305862419 0 0.5586987495249669 0.33382663527330653 0 0.61204665218000809 0.30711362201846659 0 0.59596170682035776 0.34609402305862419 0 0.57188338999077359 0.29874123486230147 0 0.55307204985744796 0.94819812235491685 0 0.56877264426066887 0.91182300080710277 0 0.5931441817276254 0.95886012268751675 0 0.60938371359314658 0.91847489683800321 0 0.5931441817276254 0.95886012268751675 0 0.56877264426066887 0.91182300080710277 0 0.051801877645083663 0.55307204985745195 0 0.088176999192898689 0.56877264426067353 0 0.041139877312483641 0.59314418172763017 0 0.081525103161997597 0.6093837135931508 0 0.041139877312483641 0.59314418172763017 0 0.088176999192898689 0.56877264426067353 0 0.44692795014265252 0.051801877645060238 0 0.43122735573933979 0.088176999192917438 0 0.40685581827241191 0.041139877312511682 0 0.39061628640684498 0.081525103161991672 0 0.40685581827241191 0.041139877312511682 0 0.43122735573933979 0.088176999192917438 0 0.56566515596461675 0.63670464971409091 0 0.54058719659441246 0.66889411379075558 0 0.51172471858873747 0.64015771271794875 0 0.35984320557492089 0.56698606271778873 0 0.331306197573488 0.54052564146842386 0 0.35815651743779398 0.51113440447909086 0 0.51484304721220842 0.69707233951836334 0 0.51172471858873747 0.64015771271794875 0 0.54058719659441246 0.66889411379075558 0 0.30292766048163949 0.51484304721221474 0 0.35815651743779398 0.51113440447909086 0 0.331306197573488 0.54052564146842386 0 0.90045039720880915 0.9020090423547924 0 0.86696410734367158 0.94753096683315619 0 0.85382799508926477 0.91295829388058414 0 0.097990957645208238 0.90045039720880915 0 0.052469033166843738 0.86696410734366991 0 0.087041706119416085 0.85382799508926188 0 0.82118136511706341 0.082875076569723011 0 0.86589314360155567 0.054872692726639853 0 0.86148619541339633 0.089689702191568438 0 0.08287507656968085 0.1788186348829835 0 0.054872692726595548 0.13410685639845171 0 0.089689702191541126 0.13851380458662241 0 0.67757268808231397 0.93106206656183088 0 0.70475631558365914 0.90098127745102974 0 0.71789175274016548 0.95136708251202151 0 0.068937933438162791 0.67757268808231053 0 0.099018722548963364 0.70475631558365193 0 0.04863291748797445 0.71789175274016204 0 0.93106206656185309 0.32242731191769503 0 0.89886191075654698 0.29506339503703172 0 0.94915666091748963 0.28320804985299752 0 0.32242731191769902 0.068937933438140794 0 0.29506339503703888 0.1011380892434444 0 0.28320804985300141 0.050843339082505573 0 0.59819537371016407 0.74380966024143391 0 0.57578062281532438 0.77751665353176347 0 0.54465502325161819 0.74717983044080061 0 0.25619033975856881 0.59819537371016862 0 0.2224870800581388 0.57577541371134155 0 0.25287139441262568 0.54458355434492378 0 0.74380966024142703 0.40180462628984132 0 0.77752557158083724 0.42422273168818408 0 0.74730218607442667 0.45539100053644521 0 0.40180462628983732 0.2561903397585753 0 0.42421838472613971 0.22246502005787769 0 0.45533136021725079 0.2525687312087147 0 0.56566515596461675 0.63670464971409091 0 0.53542397956703913 0.60119875982347493 0 0.57484409313590223 0.58437321637184114 0 0.59819537371016407 0.74380966024143391 0 0.57051182622447827 0.69668652018496713 0 0.6083790122881827 0.70496300707145865 0 0.25619033975856881 0.59819537371016862 0 0.30429740679959738 0.56913905146460098 0 0.29503699292854352 0.60837901228818936 0 0.74380966024142703 0.40180462628984132 0 0.69595787604187809 0.43071000156707989 0 0.70496300707145554 0.39162098771181952 0 0.40180462628983732 0.2561903397585753 0 0.43059486795334201 0.30395973419063538 0 0.39162098771181342 0.29503699292854563 0 0.50000000000002642 0.7803135888501761 0 0.54465502325161819 0.74717983044080061 0 0.53770425635794761 0.80104587463999666 0 0.2196864111498267 0.50000000000003153 0 0.25287139441262568 0.54458355434492378 0 0.1989632851005598 0.53769147668950479 0 0.78031358885017377 0.49999999999997569 0 0.74730218607442667 0.45539100053644521 0 0.80106707846564795 0.46230714888029367 0 0.49999999999997108 0.21968641114982909 0 0.45533136021725079 0.2525687312087147 0 0.46229330881044273 0.19890916456654811 0 0.51484304721220842 0.69707233951836334 0 0.54058719659441246 0.66889411379075558 0 0.57051182622447827 0.69668652018496713 0 0.30292766048163949 0.51484304721221474 0 0.331306197573488 0.54052564146842386 0 0.30429740679959738 0.56913905146460098 0 0.56566515596461675 0.63670464971409091 0 0.57051182622447827 0.69668652018496713 0 0.54058719659441246 0.66889411379075558 0 0.35984320557492089 0.56698606271778873 0 0.30429740679959738 0.56913905146460098 0 0.331306197573488 0.54052564146842386 0 0.60938371359314658 0.91847489683800321 0 0.58267137064684116 0.87013301365640838 0 0.62483828039315681 0.8780818733396436 0 0.081525103161997597 0.6093837135931508 0 0.12986698634359389 0.58267137064684615 0 0.1219181266603569 0.62483828039315903 0 0.91890123454466932 0.39094742729597309 0 0.87012666750595846 0.41743873185103042 0 0.87815187193233801 0.37523526017134418 0 0.39061628640684498 0.081525103161991672 0 0.41732862935313042 0.12986698634362279 0 0.37516171960683908 0.121918126660369 0 0.5133022293955174 0.064893331803591428 0 0.52499999999875446 0.029444907164469181 0 0.55993888817186677 0.043612803661174412 0 0.064893331803534807 0.48669777060454478 0 0.029444907164209121 0.47500000000196552 0 0.043612803661092707 0.44006111182840391 0 0.93510666819640953 0.51330222939551939 0 0.97055509283553232 0.52499999999875435 0 0.95638719633882641 0.5599388881718611 0 0.48669777060454272 0.93510666819646593 0 0.47500000000196563 0.970555092835793 0 0.44006111182840962 0.9563871963389079 0 0.56759263990989184 0.81794319034601648 0 0.54047998161173716 0.84333512669480526 0 0.53770425635794761 0.80104587463999666 0 0.18205680965398621 0.56759263990989739 0 0.1566648733051971 0.54047998161174216 0 0.1989632851005598 0.53769147668950479 0 0.81794319034597418 0.43240736009009317 0 0.84333218736938698 0.4595365182652234 0 0.80106707846564795 0.46230714888029367 0 0.43240736009008851 0.18205680965402779 0 0.45952001838826873 0.15666487330524251 0 0.46229330881044273 0.19890916456654811 0 0.50333998054938722 0.50119715791968966 0 0.47974773860103892 0.54872726831320284 0 0.45293656999117771 0.51494832297079129 0 0.73982803480991577 0.79629608696991705 0 0.69892030930712212 0.7971997999085858 0 0.71159714897733284 0.75039044679290845 0 0.20370391303007401 0.73982803480989479 0 0.2028002000914135 0.69892030930711557 0 0.249609553207091 0.71159714897732929 0 0.79629608696994103 0.26017196519011448 0 0.7971997999085878 0.3010796906928917 0 0.75039044679291111 0.28840285102267788 0 0.26017196519013502 0.20370391303005 0 0.30107969069289831 0.20280020009141189 0 0.28840285102268098 0.24960955320708811 0 0.43087117257049001 0.8215422551712771 0 0.40481452396081791 0.85130421228141606 0 0.38703015239361932 0.80283068154761972 0 0.36030748482174152 0.84598529912882459 0 0.38703015239361932 0.80283068154761972 0 0.40481452396081791 0.85130421228141606 0 0.17845774482872559 0.43087117257049429 0 0.14869578771858949 0.40481452396082068 0 0.197169318452384 0.38703015239362498 0 0.8215422551712277 0.56912882742954496 0 0.85130417396420255 0.59518556406638579 0 0.8028306815476034 0.61296984760642026 0 0.84598529912884157 0.63969251517827153 0 0.8028306815476034 0.61296984760642026 0 0.85130417396420255 0.59518556406638579 0 0.15401470087117619 0.36030748482174652 0 0.197169318452384 0.38703015239362498 0 0.14869578771858949 0.40481452396082068 0 0.56912882742954041 0.17845774482877461 0 0.59518547603920147 0.14869578771864489 0 0.61296984760641449 0.19716931845240021 0 0.63969251517826664 0.15401470087115929 0 0.61296984760641449 0.19716931845240021 0 0.59518547603920147 0.14869578771864489 0 0.6519524273377173 0.64249931920594539 0 0.65501639383771026 0.594528181397324 0 0.69288637798153729 0.61204665218001397 0 0.6424993192059415 0.3480475726622802 0 0.59596170682035776 0.34609402305862419 0 0.61204665218000809 0.30711362201846659 0 0.35944937237716967 0.65164789808436319 0 0.40564717507982689 0.65626423320524974 0 0.38642358467307758 0.69286258923597266 0 0.90045039720880915 0.9020090423547924 0 0.85174853583809862 0.87705234031428159 0 0.88962265630811221 0.85311725681459705 0 0.097990957645208238 0.90045039720880915 0 0.1229476596857173 0.85174853583809695 0 0.14688274318541941 0.88962265630811932 0 0.90082758526900886 0.098076845682916511 0 0.88777909259956078 0.1484760565886154 0 0.8517485358380722 0.12294765968568611 0 0.098076845682915317 0.099172414730993488 0 0.1484760565886207 0.1122209074004519 0 0.12294765968567151 0.14825146416195439 0 0.35815651743779398 0.51113440447909086 0 0.33436424489304489 0.47849603121740791 0 0.37702386074717259 0.45819417564476811 0 0.92670321183853355 0.65773042910151081 0 0.94635952848698612 0.71209247961721311 0 0.90051880305432697 0.69261863673346957 0 0.65773042910151891 0.073296788161472337 0 0.71174922810186925 0.053730171687687178 0 0.69253601466723103 0.09949211948105087 0 0.3422695708985129 0.92670321183858773 0 0.28790752038294382 0.94635952848702642 0 0.30738136326657722 0.90051880305435028 0 0.073296788161418117 0.34226957089850552 0 0.053730171687646627 0.28825077189828552 0 0.099492119481027347 0.30746398533281638 0 0.43565339604028508 0.55159384357101338 0 0.45293656999117771 0.51494832297079129 0 0.47974773860103892 0.54872726831320284 0 0.33382663527330159 0.44130125047503482 0 0.2963043386970643 0.4298320229681446 0 0.30597655500381687 0.3934681685211931 0 1 0.69999999999921003 0 0.94635952848698612 0.71209247961721311 0 0.96779701826738695 0.67105375815842694 0 0.69999999999921003 0 0 0.71174922810186925 0.053730171687687178 0 0.67098510785536181 0.032220921767549461 0 0.30000000000124832 1 0 0.28790752038294382 0.94635952848702642 0 0.32894624184180998 0.96779701826738929 0 0 0.30000000000124832 0 0.053730171687646627 0.28825077189828552 0 0.032220921767546963 0.32901489214487523 0 0.56759263990989184 0.81794319034601648 0 0.57578062281532438 0.77751665353176347 0 0.61896574319320252 0.795216048370321 0 0.59819537371016407 0.74380966024143391 0 0.61896574319320252 0.795216048370321 0 0.57578062281532438 0.77751665353176347 0 0.25619033975856881 0.59819537371016862 0 0.2047839516296828 0.61896574319320252 0 0.2224870800581388 0.57577541371134155 0 0.18205680965398621 0.56759263990989739 0 0.2224870800581388 0.57577541371134155 0 0.2047839516296828 0.61896574319320252 0 0.74380966024142703 0.40180462628984132 0 0.79521604837030013 0.38103425680679831 0 0.77752557158083724 0.42422273168818408 0 0.81794319034597418 0.43240736009009317 0 0.77752557158083724 0.42422273168818408 0 0.79521604837030013 0.38103425680679831 0 0.40180462628983732 0.2561903397585753 0 0.38103425680679859 0.2047839516297037 0 0.42421838472613971 0.22246502005787769 0 0.43240736009008851 0.18205680965402779 0 0.42421838472613971 0.22246502005787769 0 0.38103425680679859 0.2047839516297037 0 0.63969251517836323 0.84598529912890386 0 0.6027107599280892 0.83436006790502326 0 0.61896574319320252 0.795216048370321 0 0.1540147008710982 0.63969251517836956 0 0.1656399320949789 0.60271075992809464 0 0.2047839516296828 0.61896574319320252 0 0.84598529912889664 0.36030748482164038 0 0.83436006790498052 0.39728924007189959 0 0.79521604837030013 0.38103425680679831 0 0.3603074848216346 0.15401470087110539 0 0.3972892400718947 0.16563993209502181 0 0.38103425680679859 0.2047839516297037 0 0.53432142347292233 0.88563193847251998 0 0.58267137064684116 0.87013301365640838 0 0.56877264426066887 0.91182300080710277 0 0.1143680615274819 0.53432142347292733 0 0.12986698634359389 0.58267137064684615 0 0.088176999192898689 0.56877264426067353 0 0.91890123454466932 0.39094742729597309 0 0.90991454156957952 0.4312731559748802 0 0.87012666750595846 0.41743873185103042 0 0.46567857652706018 0.1143680615275231 0 0.41732862935313042 0.12986698634362279 0 0.43122735573933979 0.088176999192917438 0 0.60938371359314658 0.91847489683800321 0 0.56877264426066887 0.91182300080710277 0 0.58267137064684116 0.87013301365640838 0 0.081525103161997597 0.6093837135931508 0 0.088176999192898689 0.56877264426067353 0 0.12986698634359389 0.58267137064684615 0 0.88561059063756964 0.46572761956237563 0 0.87012666750595846 0.41743873185103042 0 0.90991454156957952 0.4312731559748802 0 0.39061628640684498 0.081525103161991672 0 0.43122735573933979 0.088176999192917438 0 0.41732862935313042 0.12986698634362279 0 0.56759263990989184 0.81794319034601648 0 0.6027107599280892 0.83436006790502326 0 0.58267137064684116 0.87013301365640838 0 0.18205680965398621 0.56759263990989739 0 0.1656399320949789 0.60271075992809464 0 0.12986698634359389 0.58267137064684615 0 0.81794319034597418 0.43240736009009317 0 0.83436006790498052 0.39728924007189959 0 0.87012666750595846 0.41743873185103042 0 0.43240736009008851 0.18205680965402779 0 0.3972892400718947 0.16563993209502181 0 0.41732862935313042 0.12986698634362279 0 0.77998481823117694 0.71397317153691997 0 0.78651189793386345 0.75664155808652755 0 0.74917861927654894 0.74229989257760443 0 0.28602682846308641 0.77998481823117594 0 0.24335844191347281 0.78651189793387466 0 0.25770010742238642 0.74917861927655205 0 0.71397317153692708 0.22001518176882201 0 0.7582555232258138 0.2115548431873896 0 0.74229989257762263 0.250821380723454 0 0.22001518176882229 0.28602682846307981 0 0.2115548431873881 0.2417444767741872 0 0.25082138072344978 0.25770010742236849 0 0.8215422551712277 0.56912882742954496 0 0.78031198216143516 0.56693216359979737 0 0.80781854240107975 0.53406203754901738 0 0.43087117257049001 0.8215422551712771 0 0.43306783640023289 0.78031198216144404 0 0.46593838964869061 0.80781872835503554 0 0.56912882742954041 0.17845774482877461 0 0.56683314878414581 0.21944955250104689 0 0.53404982287327418 0.19215288291432539 0 0.17845774482872559 0.43087117257049429 0 0.21968801783855879 0.43306783640023788 0 0.19218127164496679 0.46593838964869538 0 0.92670321183853355 0.65773042910151081 0 0.96779701826738695 0.67105375815842694 0 0.94635952848698612 0.71209247961721311 0 0.65773042910151891 0.073296788161472337 0 0.67098510785536181 0.032220921767549461 0 0.71174922810186925 0.053730171687687178 0 0.3422695708985129 0.92670321183858773 0 0.32894624184180998 0.96779701826738929 0 0.28790752038294382 0.94635952848702642 0 0.073296788161418117 0.34226957089850552 0 0.032220921767546963 0.32901489214487523 0 0.053730171687646627 0.28825077189828552 0 0.51484304721220842 0.69707233951836334 0 0.46736891737654429 0.70015537930374983 0 0.47818752133962877 0.66454462905280853 0 0.30292766048163949 0.51484304721221474 0 0.29988655052531688 0.46700727827593119 0 0.33436424489304489 0.47849603121740791 0 0.53432142347292233 0.88563193847251998 0 0.52425337578225772 0.9223731761594427 0 0.48758069708049379 0.89080072540186539 0 0.1143680615274819 0.53432142347292733 0 0.07762682384055844 0.52425337578226128 0 0.1091992745981364 0.48758069708049778 0 0.88561059063756964 0.46572761956237563 0 0.92203742772043751 0.47579485578641628 0 0.89079805168298443 0.51242544533572376 0 0.46567857652706018 0.1143680615275231 0 0.47574662421782782 0.077626823840590969 0 0.51241930291950477 0.1091992745981813 0 0.49189101320880302 0.59024331187324797 0 0.47974773860103892 0.54872726831320284 0 0.53087311892591971 0.55299263141448529 0 0.81709574086843206 0.91318696080656769 0 0.78020430794084783 0.88768307197553598 0 0.81306033001437827 0.8677384967307622 0 0.086813039193431391 0.81709574086842884 0 0.11231692802445629 0.78020430794084028 0 0.1322615032692282 0.8130603300143705 0 0.90045039720880915 0.9020090423547924 0 0.85382799508926477 0.91295829388058414 0 0.85174853583809862 0.87705234031428159 0 0.097990957645208238 0.90045039720880915 0 0.087041706119416085 0.85382799508926188 0 0.1229476596857173 0.85174853583809695 0 0.82118136511706341 0.082875076569723011 0 0.86148619541339633 0.089689702191568438 0 0.8517485358380722 0.12294765968568611 0 0.08287507656968085 0.1788186348829835 0 0.089689702191541126 0.13851380458662241 0 0.12294765968567151 0.14825146416195439 0 0.56759263990989184 0.81794319034601648 0 0.61896574319320252 0.795216048370321 0 0.6027107599280892 0.83436006790502326 0 0.18205680965398621 0.56759263990989739 0 0.2047839516296828 0.61896574319320252 0 0.1656399320949789 0.60271075992809464 0 0.81794319034597418 0.43240736009009317 0 0.79521604837030013 0.38103425680679831 0 0.83436006790498052 0.39728924007189959 0 0.43240736009008851 0.18205680965402779 0 0.38103425680679859 0.2047839516297037 0 0.3972892400718947 0.16563993209502181 0 0.91838802593870927 0.18172590289757809 0 0.87355793346388477 0.18922011052113649 0 0.88777909259956078 0.1484760565886154 0 0.18172590289758209 0.08161197406129285 0 0.18922011052115781 0.12644206653611201 0 0.1484760565886207 0.1122209074004519 0 0.50333998054938722 0.50119715791968966 0 0.46152714345798918 0.47344359412352599 0 0.50753758205811061 0.4506562873613274 0 0.46102425708533701 0.43254199134332588 0 0.50753758205811061 0.4506562873613274 0 0.46152714345798918 0.47344359412352599 0 0.70252050881959183 0.70358884261915833 0 0.67626275269587088 0.72713741921009012 0 0.6768914574865772 0.67861120078714243 0 0.29641115738084339 0.70252050881958938 0 0.27349656744860212 0.67581741996408695 0 0.32259853082073792 0.67670072609835186 0 0.70358884261915744 0.29747949118041561 0 0.72713741921008324 0.32373724730413678 0 0.6786112007871401 0.32310854251343019 0 0.29747949118041711 0.2964111573808435 0 0.32373692627050221 0.27286413781593999 0 0.3231032570156932 0.32141443408924047 0 0.43301393728221038 0.35984320557492139 0 0.39222057657781068 0.38067796690227418 0 0.39120887188745579 0.33407577688404289 0 0.48669777060454272 0.93510666819646593 0 0.48758069708049379 0.89080072540186539 0 0.52425337578225772 0.9223731761594427 0 0.064893331803534807 0.48669777060454478 0 0.1091992745981364 0.48758069708049778 0 0.07762682384055844 0.52425337578226128 0 0.93510666819640953 0.51330222939551939 0 0.89079805168298443 0.51242544533572376 0 0.92203742772043751 0.47579485578641628 0 0.5133022293955174 0.064893331803591428 0 0.51241930291950477 0.1091992745981813 0 0.47574662421782782 0.077626823840590969 0 0.4434591735942961 0.66641640622551224 0 0.42715538333808079 0.70077759375307946 0 0.40564717507982689 0.65626423320524974 0 0.38642358467307758 0.69286258923597266 0 0.40564717507982689 0.65626423320524974 0 0.42715538333808079 0.70077759375307946 0 0.57387636360620708 0.54318431390135336 0 0.554170140907293 0.50922353359177785 0 0.59621567360238914 0.5184866806641607 0 0.84999999999965292 1 0 0.79999999999999982 1 0 0.82675923981951416 0.95611053755456221 0 0 0.84999999999965292 0 0 0.79999999999999982 0 0.043889462445437968 0.82675923981951283 0 1 0.14999999999970359 0 1 0.19999999999955789 0 0.96080966346491015 0.18035159017841959 0 0.14999999999970359 0 0 0.19999999999955789 0 0 0.18035159017842109 0.039190336535090492 0 1 0.79999999999947335 0 1 0.84999999999960507 0 0.96071093996985157 0.81954008780615684 0 0.79999999999947335 0 0 0.84999999999960507 0 0 0.82050174006822896 0.038839999600956771 0 0.20000000000083221 1 0 0.15000000000062411 1 0 0.18045991219397989 0.960710939969875 0 0 0.20000000000083221 0 0 0.15000000000062411 0 0.038839999600931263 0.17949825993190149 0 0.64518564541690571 0.69601563325001548 0 0.6768914574865772 0.67861120078714243 0 0.67626275269587088 0.72713741921009012 0 0.30421635384321521 0.64514939193436716 0 0.32259853082073792 0.67670072609835186 0 0.27349656744860212 0.67581741996408695 0 0.69601563325001248 0.35481435458309712 0 0.6786112007871401 0.32310854251343019 0 0.72713741921008324 0.32373724730413678 0 0.35481435458309307 0.30398436674998969 0 0.3231032570156932 0.32141443408924047 0 0.32373692627050221 0.27286413781593999 0 0.49771727055908782 0.83998685797641781 0 0.48758069708049379 0.89080072540186539 0 0.45353891581270822 0.85551523377818905 0 0.16001314202358469 0.49771727055909287 0 0.1091992745981364 0.48758069708049778 0 0.1444847662218138 0.45353891581271188 0 0.83998574657308889 0.50228528270184081 0 0.89079805168298443 0.51242544533572376 0 0.85551478316835361 0.54646211938695222 0 0.50228272944093777 0.16001314202359701 0 0.51241930291950477 0.1091992745981813 0 0.54646108418729233 0.1444847662218687 0 0.70252050881959183 0.70358884261915833 0 0.6768914574865772 0.67861120078714243 0 0.71518943060973483 0.65679402931717101 0 0.29641115738084339 0.70252050881958938 0 0.32259853082073792 0.67670072609835186 0 0.34270280102445921 0.71672416762035873 0 0.70358884261915744 0.29747949118041561 0 0.6786112007871401 0.32310854251343019 0 0.65679402931716913 0.28481056939027388 0 0.29747949118041711 0.2964111573808435 0 0.3231032570156932 0.32141443408924047 0 0.28473805236128291 0.34355768118673757 0 0.92670321183853355 0.65773042910151081 0 0.96654491682122368 0.6363613838740827 0 0.96779701826738695 0.67105375815842694 0 0.65773042910151891 0.073296788161472337 0 0.63635157668793507 0.033457646040912177 0 0.67098510785536181 0.032220921767549461 0 0.073296788161418117 0.34226957089850552 0 0.033457646040922301 0.36364842331228431 0 0.032220921767546963 0.32901489214487523 0 0.3422695708985129 0.92670321183858773 0 0.36363861612613613 0.96654491682121313 0 0.32894624184180998 0.96779701826738929 0 1 0.64999999999907843 0 1 0.69999999999921003 0 0.96779701826738695 0.67105375815842694 0 0.64999999999907843 0 0 0.69999999999921003 0 0 0.67098510785536181 0.032220921767549461 0 0.35000000000145642 1 0 0.30000000000124832 1 0 0.32894624184180998 0.96779701826738929 0 0 0.35000000000145642 0 0 0.30000000000124832 0 0.032220921767546963 0.32901489214487523 0 0 0.40000000000166441 0 0 0.35000000000145642 0 0.033457646040922301 0.36364842331228431 0 0.40000000000166441 1 0 0.35000000000145642 1 0 0.36363861612613613 0.96654491682121313 0 0.59999999999894682 0 0 0.64999999999907843 0 0 0.63635157668793507 0.033457646040912177 0 1 0.59999999999894682 0 1 0.64999999999907843 0 0.96654491682122368 0.6363613838740827 0 0.81709574086843206 0.91318696080656769 0 0.85174853583809862 0.87705234031428159 0 0.85382799508926477 0.91295829388058414 0 0.086813039193431391 0.81709574086842884 0 0.1229476596857173 0.85174853583809695 0 0.087041706119416085 0.85382799508926188 0 0.90082758526900886 0.098076845682916511 0 0.8517485358380722 0.12294765968568611 0 0.86148619541339633 0.089689702191568438 0 0.098076845682915317 0.099172414730993488 0 0.12294765968567151 0.14825146416195439 0 0.089689702191541126 0.13851380458662241 0 0.59819537371016407 0.74380966024143391 0 0.6083790122881827 0.70496300707145865 0 0.64203711532612107 0.74316477213290444 0 0.64518564541690571 0.69601563325001548 0 0.64203711532612107 0.74316477213290444 0 0.6083790122881827 0.70496300707145865 0 0.25619033975856881 0.59819537371016862 0 0.29503699292854352 0.60837901228818936 0 0.25684529255773247 0.64203554247963057 0 0.30421635384321521 0.64514939193436716 0 0.25684529255773247 0.64203554247963057 0 0.29503699292854352 0.60837901228818936 0 0.74380966024142703 0.40180462628984132 0 0.70496300707145554 0.39162098771181952 0 0.74316477213289889 0.35796288467388632 0 0.69601563325001248 0.35481435458309712 0 0.74316477213289889 0.35796288467388632 0 0.70496300707145554 0.39162098771181952 0 0.40180462628983732 0.2561903397585753 0 0.39162098771181342 0.29503699292854563 0 0.3579628846738841 0.25683522786710378 0 0.35481435458309307 0.30398436674998969 0 0.3579628846738841 0.25683522786710378 0 0.39162098771181342 0.29503699292854563 0 0.8289812646369813 0.82898126463698818 0 0.85174853583809862 0.87705234031428159 0 0.81306033001437827 0.8677384967307622 0 0.17101873536300011 0.82898126463696109 0 0.1229476596857173 0.85174853583809695 0 0.1322615032692282 0.8130603300143705 0 0.8215422551712277 0.56912882742954496 0 0.85551478316835361 0.54646211938695222 0 0.85130417396420255 0.59518556406638579 0 0.43087117257049001 0.8215422551712771 0 0.45353891581270822 0.85551523377818905 0 0.40481452396081791 0.85130421228141606 0 0.56912882742954041 0.17845774482877461 0 0.54646108418729233 0.1444847662218687 0 0.59518547603920147 0.14869578771864489 0 0.17845774482872559 0.43087117257049429 0 0.1444847662218138 0.45353891581271188 0 0.14869578771858949 0.40481452396082068 0 0.49854341599767982 0.37075914768127122 0 0.46543211128216788 0.38788423543681888 0 0.47253211736503098 0.34081710830804929 0 0.43301393728221038 0.35984320557492139 0 0.47253211736503098 0.34081710830804929 0 0.46543211128216788 0.38788423543681888 0 0.36030748482174152 0.84598529912882459 0 0.40481452396081791 0.85130421228141606 0 0.37839190921727062 0.89064679688614412 0 0.84598529912884157 0.63969251517827153 0 0.85130417396420255 0.59518556406638579 0 0.89064679688610338 0.6216080907827598 0 0.15401470087117619 0.36030748482174652 0 0.14869578771858949 0.40481452396082068 0 0.10935320311385981 0.37839190921727089 0 0.63969251517826664 0.15401470087115929 0 0.59518547603920147 0.14869578771864489 0 0.62160809078275991 0.1093532031139005 0 0.64455163611866495 0.50369301794551069 0 0.61866949026800744 0.55492322767366287 0 0.59621567360238914 0.5184866806641607 0 0.64518564541690571 0.69601563325001548 0 0.6083790122881827 0.70496300707145865 0 0.60879112811253555 0.66592422311595834 0 0.30421635384321521 0.64514939193436716 0 0.29503699292854352 0.60837901228818936 0 0.33231497408081678 0.60779218732873663 0 0.69601563325001248 0.35481435458309712 0 0.70496300707145554 0.39162098771181952 0 0.66346942254826746 0.391530810754116 0 0.35481435458309307 0.30398436674998969 0 0.39162098771181342 0.29503699292854563 0 0.39120887188745579 0.33407577688404289 0 0.39507969989512881 0.74417394063201048 0 0.38703015239361932 0.80283068154761972 0 0.35837423432538362 0.77730446904312345 0 0.74417394063200648 0.6049203001048884 0 0.8028306815476034 0.61296984760642026 0 0.77730446904309636 0.64162576567462737 0 0.25582605936799319 0.39507969989513358 0 0.197169318452384 0.38703015239362498 0 0.22269553095687891 0.35837423432538801 0 0.60492030010488373 0.25582605936799729 0 0.61296984760641449 0.19716931845240021 0 0.64162576567462404 0.22269553095690481 0 0.46102425708533701 0.43254199134332588 0 0.46152714345798918 0.47344359412352599 0 0.42340342337193693 0.44762131874855388 0 0.5586987495249669 0.33382663527330653 0 0.52929435216580312 0.29671213472503383 0 0.57188338999077359 0.29874123486230147 0 0.58981073711177334 0.48140931020849848 0 0.554170140907293 0.50922353359177785 0 0.54783891860069212 0.46640164214823893 0 0.35944937237716967 0.65164789808436319 0 0.33231497408081678 0.60779218732873663 0 0.37104651296145419 0.60545170748311072 0 0.58981073711177334 0.48140931020849848 0 0.59621567360238914 0.5184866806641607 0 0.554170140907293 0.50922353359177785 0 0.55000000000173355 1 0 0.50000000000205869 1 0 0.51507566941747085 0.9626786017237855 0 0 0.55000000000173355 0 0 0.50000000000205869 0 0.037321398276215258 0.51507566941747263 0 1 0.44999999999882923 0 1 0.49999999999869432 0 0.96266688603193029 0.48495124540067203 0 0.44999999999882923 0 0 0.49999999999869432 0 0 0.48492433058289169 0.037321398276272413 0 0.78031198216143516 0.56693216359979737 0 0.76797069865873757 0.53315993670164308 0 0.80781854240107975 0.53406203754901738 0 0.43306783640023289 0.78031198216144404 0 0.46634612187967051 0.76767585524061377 0 0.46593838964869061 0.80781872835503554 0 0.56683314878414581 0.21944955250104689 0 0.53265327255359129 0.23135454206919101 0 0.53404982287327418 0.19215288291432539 0 0.21968801783855879 0.43306783640023788 0 0.23232476702437141 0.46634525369567709 0 0.19218127164496679 0.46593838964869538 0 0.5586987495249669 0.33382663527330653 0 0.51491507395299929 0.3326740076510219 0 0.52929435216580312 0.29671213472503383 0 0.43565339604028508 0.55159384357101338 0 0.47974773860103892 0.54872726831320284 0 0.45030222762303879 0.58443295115431027 0 0.50333998054938722 0.50119715791968966 0 0.45293656999117771 0.51494832297079129 0 0.46152714345798918 0.47344359412352599 0 0 0 0 0.032369857048753323 0.032369857048862027 0 0 0.050000000000207989 0 1 0 0 0.96763014295114425 0.032369857048773903 0 0.94999999999986839 0 0 1 0 0 1 0.049999999999899652 0 0.96763014295114425 0.032369857048773903 0 0 0 0 0.049999999999899652 0 0 0.032369857048753323 0.032369857048862027 0 1 1 0 0.94999999999979179 1 0 0.96763014295120153 0.96763014295122851 0 1 1 0 0.96763014295120153 0.96763014295122851 0 1 0.94999999999986839 0 0 1 0 0.030452409610489669 0.96954759038951022 0 0.050000000000207989 1 0 0 1 0 0 0.94999999999979179 0 0.030452409610489669 0.96954759038951022 0 0.35984320557492089 0.56698606271778873 0 0.39982789553993509 0.53462762214740622 0 0.40468198875170619 0.57637931869191572 0 0.41009598069569558 0.49083935749285379 0 0.37702386074717259 0.45819417564476811 0 0.42340342337193693 0.44762131874855388 0 0.39419886675318527 0.41912225240070788 0 0.42340342337193693 0.44762131874855388 0 0.37702386074717259 0.45819417564476811 0 0.60938371359314658 0.91847489683800321 0 0.63753756910470316 0.95578163339252209 0 0.5931441817276254 0.95886012268751675 0 0.081525103161997597 0.6093837135931508 0 0.04421836660747535 0.63753756910470205 0 0.041139877312483641 0.59314418172763017 0 0.91890123454466932 0.39094742729597309 0 0.95581270756939096 0.36248656652865863 0 0.95886012268748921 0.4068558182724159 0 0.39061628640684498 0.081525103161991672 0 0.36246243089534252 0.044218366607477223 0 0.40685581827241191 0.041139877312511682 0 0.66820316019503978 0.77769800602796979 0 0.67626275269587088 0.72713741921009012 0 0.71159714897733284 0.75039044679290845 0 0.22230199397202771 0.66820316019503168 0 0.27349656744860212 0.67581741996408695 0 0.249609553207091 0.71159714897732929 0 0.77769800602796679 0.33179683980497482 0 0.72713741921008324 0.32373724730413678 0 0.75039044679291111 0.28840285102267788 0 0.33179683980498331 0.2223019939720311 0 0.32373692627050221 0.27286413781593999 0 0.28840285102268098 0.24960955320708811 0 0.54901591374940373 0.42306523525165751 0 0.54783891860069212 0.46640164214823893 0 0.50753758205811061 0.4506562873613274 0 0.34804757266227387 0.35750068079406011 0 0.39120887188745579 0.33407577688404289 0 0.39222057657781068 0.38067796690227418 0 0.7000000000006934 1 0 0.6766004019857832 0.9676421564932749 0 0.71789175274016548 0.95136708251202151 0 0 0.7000000000006934 0 0.032357843506722522 0.67660040198578164 0 0.04863291748797445 0.71789175274016204 0 0.67757268808231397 0.93106206656183088 0 0.71789175274016548 0.95136708251202151 0 0.6766004019857832 0.9676421564932749 0 0.068937933438162791 0.67757268808231053 0 0.04863291748797445 0.71789175274016204 0 0.032357843506722522 0.67660040198578164 0 1 0.29999999999926641 0 0.96720628700974665 0.32362438565954771 0 0.94915666091748963 0.28320804985299752 0 0.29999999999926641 0 0 0.32361955853288599 0.032799927825624707 0 0.28320804985300141 0.050843339082505573 0 0.93106206656185309 0.32242731191769503 0 0.94915666091748963 0.28320804985299752 0 0.96720628700974665 0.32362438565954771 0 0.32242731191769902 0.068937933438140794 0 0.28320804985300141 0.050843339082505573 0 0.32361955853288599 0.032799927825624707 0 0.91838802593884228 0.81827409710237209 0 0.87660297360393757 0.8104127896505644 0 0.9041449437197947 0.7786886066890556 0 0.1817259028976386 0.91838802593888857 0 0.18958721034944021 0.87660297360394568 0 0.22131139331094829 0.9041449437198319 0 0.76395804595204597 0.67808171673060369 0 0.77730446904309636 0.64162576567462737 0 0.80847852346122429 0.67208120229789559 0 0.32191828326940508 0.76395804595204586 0 0.35837423432538362 0.77730446904312345 0 0.32791879770213411 0.80847852346120164 0 0.67808171673060202 0.23604195404795861 0 0.64162576567462404 0.22269553095690481 0 0.67208120229787616 0.1915214765387884 0 0.2360419540479583 0.32191828326940741 0 0.22269553095687891 0.35837423432538801 0 0.19152147653881049 0.32791879770215432 0 0.82118136511706341 0.082875076569723011 0 0.8110316677333288 0.125875177082863 0 0.77925951159456153 0.09969477121230251 0 0.08287507656968085 0.1788186348829835 0 0.12587517708284679 0.1889683322666954 0 0.099694771212264055 0.22074048840547039 0 0.43301393728221038 0.35984320557492139 0 0.46543211128216788 0.38788423543681888 0 0.42930823106401639 0.40626685012722968 0 0.43590673999053309 0.90289902042279657 0 0.45353891581270822 0.85551523377818905 0 0.48758069708049379 0.89080072540186539 0 0.097100979577207341 0.43590673999053198 0 0.1444847662218138 0.45353891581271188 0 0.1091992745981364 0.48758069708049778 0 0.90289902042272274 0.56409326000946114 0 0.85551478316835361 0.54646211938695222 0 0.89079805168298443 0.51242544533572376 0 0.56409326000946236 0.097100979577281268 0 0.54646108418729233 0.1444847662218687 0 0.51241930291950477 0.1091992745981813 0 0.51484304721220842 0.69707233951836334 0 0.49073113440598592 0.73759004618730417 0 0.46736891737654429 0.70015537930374983 0 0.44764943295894188 0.73752415265401661 0 0.46736891737654429 0.70015537930374983 0 0.49073113440598592 0.73759004618730417 0 0.30292766048163949 0.51484304721221474 0 0.262418491288269 0.49071922292154141 0 0.29988655052531688 0.46700727827593119 0 0.26247584734598628 0.44764943295894732 0 0.29988655052531688 0.46700727827593119 0 0.262418491288269 0.49071922292154141 0 0.70015119067225129 0.48481914991727459 0 0.73815142352639962 0.50697050072007344 0 0.69798396601998558 0.5289734597937793 0 0.73752415265401194 0.55235056704108476 0 0.69798396601998558 0.5289734597937793 0 0.73815142352639962 0.50697050072007344 0 0.67757268808231397 0.93106206656183088 0 0.6441774148058701 0.91458123574274031 0 0.66923299355723143 0.8804077449518628 0 0.068937933438162791 0.67757268808231053 0 0.085418764257258195 0.64417741480586865 0 0.1195922550481313 0.66923299355722787 0 0.93106206656185309 0.32242731191769503 0 0.91286712511202617 0.35637271447129198 0 0.88040774495187946 0.33076700644278889 0 0.32242731191769902 0.068937933438140794 0 0.35582258519414178 0.085418764257258431 0 0.33076700644279272 0.1195922550481146 0 0.63969251517836323 0.84598529912890386 0 0.66923299355723143 0.8804077449518628 0 0.62483828039315681 0.8780818733396436 0 0.1540147008710982 0.63969251517836956 0 0.1195922550481313 0.66923299355722787 0 0.1219181266603569 0.62483828039315903 0 0.84598529912889664 0.36030748482164038 0 0.88040774495187946 0.33076700644278889 0 0.87815187193233801 0.37523526017134418 0 0.3603074848216346 0.15401470087110539 0 0.33076700644279272 0.1195922550481146 0 0.37516171960683908 0.121918126660369 0 0.46102425708533701 0.43254199134332588 0 0.5047849391802508 0.40719950955717021 0 0.50753758205811061 0.4506562873613274 0 0.85607519768343354 0.69380468830529196 0 0.88396545633132484 0.6625197322180193 0 0.90051880305432697 0.69261863673346957 0 0.30619531169472608 0.85607519768342955 0 0.33748026778199908 0.88396545633134682 0 0.30738136326657722 0.90051880305435028 0 0.69379929796456197 0.14392209494791061 0 0.66251865414987876 0.1160340021949529 0 0.69253601466723103 0.09949211948105087 0 0.14392209494791439 0.30620070203545702 0 0.11603400219493119 0.33748134585014028 0 0.099492119481027347 0.30746398533281638 0 0.78284912262770068 0.83746308049763585 0 0.81306033001437827 0.8677384967307622 0 0.78020430794084783 0.88768307197553598 0 0.16253691950235041 0.78284912262768558 0 0.1322615032692282 0.8130603300143705 0 0.11231692802445629 0.78020430794084028 0 0.66820316019503978 0.77769800602796979 0 0.64203711532612107 0.74316477213290444 0 0.67626275269587088 0.72713741921009012 0 0.22230199397202771 0.66820316019503168 0 0.25684529255773247 0.64203554247963057 0 0.27349656744860212 0.67581741996408695 0 0.77769800602796679 0.33179683980497482 0 0.74316477213289889 0.35796288467388632 0 0.72713741921008324 0.32373724730413678 0 0.33179683980498331 0.2223019939720311 0 0.3579628846738841 0.25683522786710378 0 0.32373692627050221 0.27286413781593999 0 0.4434591735942961 0.66641640622551224 0 0.45517457031814612 0.62743100079604397 0 0.47818752133962877 0.66454462905280853 0 0.7000000000006934 1 0 0.65000000000104008 1 0 0.6766004019857832 0.9676421564932749 0 0 0.7000000000006934 0 0 0.65000000000104008 0 0.032357843506722522 0.67660040198578164 0 1 0.29999999999926641 0 1 0.34999999999912063 0 0.96720628700974665 0.32362438565954771 0 0.29999999999926641 0 0 0.34999999999912063 0 0 0.32361955853288599 0.032799927825624707 0 0.49854341599767982 0.37075914768127122 0 0.47253211736503098 0.34081710830804929 0 0.51491507395299929 0.3326740076510219 0 0.50000000000205869 1 0 0.45000000000187229 1 0 0.47500000000196563 0.970555092835793 0 0 0.50000000000205869 0 0 0.45000000000187229 0 0.029444907164209121 0.47500000000196552 0 1 0.49999999999869432 0 1 0.5499999999988151 0 0.97055509283553232 0.52499999999875435 0 0.49999999999869432 0 0 0.5499999999988151 0 0 0.52499999999875446 0.029444907164469181 0 0.91838802593870927 0.18172590289757809 0 0.89556054516486661 0.21720615046483649 0 0.87355793346388477 0.18922011052113649 0 0.18172590289758209 0.08161197406129285 0 0.21720615046484709 0.1044394548351292 0 0.18922011052115781 0.12644206653611201 0 0.48378871228000903 0.29745177826977359 0 0.51491507395299929 0.3326740076510219 0 0.47253211736503098 0.34081710830804929 0 0.58981073711177334 0.48140931020849848 0 0.59313386551587477 0.43977047843653239 0 0.62619054498681193 0.46482944251856079 0 0.640156794425081 0.43301393728221721 0 0.62619054498681193 0.46482944251856079 0 0.59313386551587477 0.43977047843653239 0 0 0.45000000000187229 0 0.043612803661092707 0.44006111182840391 0 0.029444907164209121 0.47500000000196552 0 0.45000000000187229 1 0 0.44006111182840962 0.9563871963389079 0 0.47500000000196563 0.970555092835793 0 0.5499999999988151 0 0 0.55993888817186677 0.043612803661174412 0 0.52499999999875446 0.029444907164469181 0 1 0.5499999999988151 0 0.95638719633882641 0.5599388881718611 0 0.97055509283553232 0.52499999999875435 0 0.57051182622447827 0.69668652018496713 0 0.60879112811253555 0.66592422311595834 0 0.6083790122881827 0.70496300707145865 0 0.30429740679959738 0.56913905146460098 0 0.33231497408081678 0.60779218732873663 0 0.29503699292854352 0.60837901228818936 0 0.69595787604187809 0.43071000156707989 0 0.66346942254826746 0.391530810754116 0 0.70496300707145554 0.39162098771181952 0 0.43059486795334201 0.30395973419063538 0 0.39120887188745579 0.33407577688404289 0 0.39162098771181342 0.29503699292854563 0 0.35984320557492089 0.56698606271778873 0 0.37104651296145419 0.60545170748311072 0 0.33231497408081678 0.60779218732873663 0 0.43565339604028508 0.55159384357101338 0 0.40468198875170619 0.57637931869191572 0 0.39982789553993509 0.53462762214740622 0 0.66820316019503978 0.77769800602796979 0 0.71159714897733284 0.75039044679290845 0 0.69892030930712212 0.7971997999085858 0 0.22230199397202771 0.66820316019503168 0 0.249609553207091 0.71159714897732929 0 0.2028002000914135 0.69892030930711557 0 0.77769800602796679 0.33179683980497482 0 0.75039044679291111 0.28840285102267788 0 0.7971997999085878 0.3010796906928917 0 0.33179683980498331 0.2223019939720311 0 0.28840285102268098 0.24960955320708811 0 0.30107969069289831 0.20280020009141189 0 0.34804757266227387 0.35750068079406011 0 0.39222057657781068 0.38067796690227418 0 0.35481422397128459 0.40312981465069342 0 0.67757268808231397 0.93106206656183088 0 0.66923299355723143 0.8804077449518628 0 0.70475631558365914 0.90098127745102974 0 0.068937933438162791 0.67757268808231053 0 0.1195922550481313 0.66923299355722787 0 0.099018722548963364 0.70475631558365193 0 0.93106206656185309 0.32242731191769503 0 0.88040774495187946 0.33076700644278889 0 0.89886191075654698 0.29506339503703172 0 0.32242731191769902 0.068937933438140794 0 0.33076700644279272 0.1195922550481146 0 0.29506339503703888 0.1011380892434444 0 0.53432142347292233 0.88563193847251998 0 0.56877264426066887 0.91182300080710277 0 0.52425337578225772 0.9223731761594427 0 0.1143680615274819 0.53432142347292733 0 0.088176999192898689 0.56877264426067353 0 0.07762682384055844 0.52425337578226128 0 0.46567857652706018 0.1143680615275231 0 0.43122735573933979 0.088176999192917438 0 0.47574662421782782 0.077626823840590969 0 0.39419886675318527 0.41912225240070788 0 0.35481422397128459 0.40312981465069342 0 0.39222057657781068 0.38067796690227418 0 1 0.49999999999869432 0 0.97055509283553232 0.52499999999875435 0 0.96266688603193029 0.48495124540067203 0 0.49999999999869432 0 0 0.52499999999875446 0.029444907164469181 0 0.48492433058289169 0.037321398276272413 0 0.93510666819640953 0.51330222939551939 0 0.96266688603193029 0.48495124540067203 0 0.97055509283553232 0.52499999999875435 0 0.5133022293955174 0.064893331803591428 0 0.48492433058289169 0.037321398276272413 0 0.52499999999875446 0.029444907164469181 0 0 0.50000000000205869 0 0.029444907164209121 0.47500000000196552 0 0.037321398276215258 0.51507566941747263 0 0.50000000000205869 1 0 0.47500000000196563 0.970555092835793 0 0.51507566941747085 0.9626786017237855 0 0.48669777060454272 0.93510666819646593 0 0.51507566941747085 0.9626786017237855 0 0.47500000000196563 0.970555092835793 0 0.064893331803534807 0.48669777060454478 0 0.037321398276215258 0.51507566941747263 0 0.029444907164209121 0.47500000000196552 0 0.55307204985744796 0.94819812235491685 0 0.52425337578225772 0.9223731761594427 0 0.56877264426066887 0.91182300080710277 0 0.051801877645083663 0.55307204985745195 0 0.07762682384055844 0.52425337578226128 0 0.088176999192898689 0.56877264426067353 0 0.44692795014265252 0.051801877645060238 0 0.47574662421782782 0.077626823840590969 0 0.43122735573933979 0.088176999192917438 0 0.70085728320704077 0.84350379029875056 0 0.66919832404887702 0.81820888699730587 0 0.69892030930712212 0.7971997999085858 0 0.1564962097012354 0.70085728320703999 0 0.1817911130026923 0.66919832404888702 0 0.2028002000914135 0.69892030930711557 0 0.84350379029877964 0.29914271679296989 0 0.8182088869973061 0.33080167595111531 0 0.7971997999085878 0.3010796906928917 0 0.29914271679297122 0.15649620970120659 0 0.33080167595110582 0.18179111300269291 0 0.30107969069289831 0.20280020009141189 0 0.33382663527330159 0.44130125047503482 0 0.37702386074717259 0.45819417564476811 0 0.33436424489304489 0.47849603121740791 0 0.44764943295894188 0.73752415265401661 0 0.46634612187967051 0.76767585524061377 0 0.43306783640023289 0.78031198216144404 0 0.73752415265401194 0.55235056704108476 0 0.76797069865873757 0.53315993670164308 0 0.78031198216143516 0.56693216359979737 0 0.26247584734598628 0.44764943295894732 0 0.23232476702437141 0.46634525369567709 0 0.21968801783855879 0.43306783640023788 0 0.55175647814720108 0.26104505532086641 0 0.53265327255359129 0.23135454206919101 0 0.56683314878414581 0.21944955250104689 0 0.65000000000104008 1 0 0.63753756910470316 0.95578163339252209 0 0.6766004019857832 0.9676421564932749 0 0 0.65000000000104008 0 0.04421836660747535 0.63753756910470205 0 0.032357843506722522 0.67660040198578164 0 1 0.34999999999912063 0 0.95581270756939096 0.36248656652865863 0 0.96720628700974665 0.32362438565954771 0 0.34999999999912063 0 0 0.36246243089534252 0.044218366607477223 0 0.32361955853288599 0.032799927825624707 0 0.67757268808231397 0.93106206656183088 0 0.6766004019857832 0.9676421564932749 0 0.63753756910470316 0.95578163339252209 0 0.068937933438162791 0.67757268808231053 0 0.032357843506722522 0.67660040198578164 0 0.04421836660747535 0.63753756910470205 0 0.93106206656185309 0.32242731191769503 0 0.96720628700974665 0.32362438565954771 0 0.95581270756939096 0.36248656652865863 0 0.32242731191769902 0.068937933438140794 0 0.32361955853288599 0.032799927825624707 0 0.36246243089534252 0.044218366607477223 0 0.94812782820415209 0.44708943904932719 0 0.92203742772043751 0.47579485578641628 0 0.90991454156957952 0.4312731559748802 0 0.88561059063756964 0.46572761956237563 0 0.90991454156957952 0.4312731559748802 0 0.92203742772043751 0.47579485578641628 0 0.49189101320880302 0.59024331187324797 0 0.45517457031814612 0.62743100079604397 0 0.45030222762303879 0.58443295115431027 0 0.54465502325161819 0.74717983044080061 0 0.57578062281532438 0.77751665353176347 0 0.53770425635794761 0.80104587463999666 0 0.25287139441262568 0.54458355434492378 0 0.2224870800581388 0.57577541371134155 0 0.1989632851005598 0.53769147668950479 0 0.74730218607442667 0.45539100053644521 0 0.77752557158083724 0.42422273168818408 0 0.80106707846564795 0.46230714888029367 0 0.45533136021725079 0.2525687312087147 0 0.42421838472613971 0.22246502005787769 0 0.46229330881044273 0.19890916456654811 0 0.57387636360620708 0.54318431390135336 0 0.59621567360238914 0.5184866806641607 0 0.61866949026800744 0.55492322767366287 0 0.66923299355723143 0.8804077449518628 0 0.6441774148058701 0.91458123574274031 0 0.62483828039315681 0.8780818733396436 0 0.1195922550481313 0.66923299355722787 0 0.085418764257258195 0.64417741480586865 0 0.1219181266603569 0.62483828039315903 0 0.88040774495187946 0.33076700644278889 0 0.91286712511202617 0.35637271447129198 0 0.87815187193233801 0.37523526017134418 0 0.33076700644279272 0.1195922550481146 0 0.35582258519414178 0.085418764257258431 0 0.37516171960683908 0.121918126660369 0 0.49189101320880302 0.59024331187324797 0 0.45030222762303879 0.58443295115431027 0 0.47974773860103892 0.54872726831320284 0 0.92670321183853355 0.65773042910151081 0 0.90051880305432697 0.69261863673346957 0 0.88396545633132484 0.6625197322180193 0 0.65773042910151891 0.073296788161472337 0 0.69253601466723103 0.09949211948105087 0 0.66251865414987876 0.1160340021949529 0 0.3422695708985129 0.92670321183858773 0 0.30738136326657722 0.90051880305435028 0 0.33748026778199908 0.88396545633134682 0 0.073296788161418117 0.34226957089850552 0 0.099492119481027347 0.30746398533281638 0 0.11603400219493119 0.33748134585014028 0 0.60938371359314658 0.91847489683800321 0 0.6441774148058701 0.91458123574274031 0 0.63753756910470316 0.95578163339252209 0 0.081525103161997597 0.6093837135931508 0 0.085418764257258195 0.64417741480586865 0 0.04421836660747535 0.63753756910470205 0 0.91890123454466932 0.39094742729597309 0 0.91286712511202617 0.35637271447129198 0 0.95581270756939096 0.36248656652865863 0 0.39061628640684498 0.081525103161991672 0 0.35582258519414178 0.085418764257258431 0 0.36246243089534252 0.044218366607477223 0 0.67757268808231397 0.93106206656183088 0 0.63753756910470316 0.95578163339252209 0 0.6441774148058701 0.91458123574274031 0 0.068937933438162791 0.67757268808231053 0 0.04421836660747535 0.63753756910470205 0 0.085418764257258195 0.64417741480586865 0 0.93106206656185309 0.32242731191769503 0 0.95581270756939096 0.36248656652865863 0 0.91286712511202617 0.35637271447129198 0 0.32242731191769902 0.068937933438140794 0 0.36246243089534252 0.044218366607477223 0 0.35582258519414178 0.085418764257258431 0 0.56759263990989184 0.81794319034601648 0 0.53770425635794761 0.80104587463999666 0 0.57578062281532438 0.77751665353176347 0 0.18205680965398621 0.56759263990989739 0 0.1989632851005598 0.53769147668950479 0 0.2224870800581388 0.57577541371134155 0 0.81794319034597418 0.43240736009009317 0 0.80106707846564795 0.46230714888029367 0 0.77752557158083724 0.42422273168818408 0 0.43240736009008851 0.18205680965402779 0 0.46229330881044273 0.19890916456654811 0 0.42421838472613971 0.22246502005787769 0 0.4434591735942961 0.66641640622551224 0 0.46736891737654429 0.70015537930374983 0 0.42715538333808079 0.70077759375307946 0 0.44764943295894188 0.73752415265401661 0 0.42715538333808079 0.70077759375307946 0 0.46736891737654429 0.70015537930374983 0 0.66548584431530877 0.55616712808283064 0 0.69798396601998558 0.5289734597937793 0 0.70087539567735502 0.57165914616526226 0 0.33382663527330159 0.44130125047503482 0 0.29988655052531688 0.46700727827593119 0 0.2963043386970643 0.4298320229681446 0 0.73752415265401194 0.55235056704108476 0 0.70087539567735502 0.57165914616526226 0 0.69798396601998558 0.5289734597937793 0 0.26247584734598628 0.44764943295894732 0 0.2963043386970643 0.4298320229681446 0 0.29988655052531688 0.46700727827593119 0 0.46102425708533701 0.43254199134332588 0 0.46543211128216788 0.38788423543681888 0 0.5047849391802508 0.40719950955717021 0 0.49854341599767982 0.37075914768127122 0 0.5047849391802508 0.40719950955717021 0 0.46543211128216788 0.38788423543681888 0 0.55175647814720108 0.26104505532086641 0 0.57188338999077359 0.29874123486230147 0 0.52929435216580312 0.29671213472503383 0 0.48378871228000903 0.29745177826977359 0 0.52929435216580312 0.29671213472503383 0 0.51491507395299929 0.3326740076510219 0 0.46102425708533701 0.43254199134332588 0 0.42340342337193693 0.44762131874855388 0 0.42930823106401639 0.40626685012722968 0 0.39419886675318527 0.41912225240070788 0 0.42930823106401639 0.40626685012722968 0 0.42340342337193693 0.44762131874855388 0 0.94812782820415209 0.44708943904932719 0 0.96266688603193029 0.48495124540067203 0 0.92203742772043751 0.47579485578641628 0 0.44692795014265252 0.051801877645060238 0 0.48492433058289169 0.037321398276272413 0 0.47574662421782782 0.077626823840590969 0 0.93510666819640953 0.51330222939551939 0 0.92203742772043751 0.47579485578641628 0 0.96266688603193029 0.48495124540067203 0 0.5133022293955174 0.064893331803591428 0 0.47574662421782782 0.077626823840590969 0 0.48492433058289169 0.037321398276272413 0 0.55307204985744796 0.94819812235491685 0 0.51507566941747085 0.9626786017237855 0 0.52425337578225772 0.9223731761594427 0 0.051801877645083663 0.55307204985745195 0 0.037321398276215258 0.51507566941747263 0 0.07762682384055844 0.52425337578226128 0 0.48669777060454272 0.93510666819646593 0 0.52425337578225772 0.9223731761594427 0 0.51507566941747085 0.9626786017237855 0 0.064893331803534807 0.48669777060454478 0 0.07762682384055844 0.52425337578226128 0 0.037321398276215258 0.51507566941747263 0 0.70252050881959183 0.70358884261915833 0 0.71159714897733284 0.75039044679290845 0 0.67626275269587088 0.72713741921009012 0 0.29641115738084339 0.70252050881958938 0 0.249609553207091 0.71159714897732929 0 0.27349656744860212 0.67581741996408695 0 0.70358884261915744 0.29747949118041561 0 0.75039044679291111 0.28840285102267788 0 0.72713741921008324 0.32373724730413678 0 0.29747949118041711 0.2964111573808435 0 0.28840285102268098 0.24960955320708811 0 0.32373692627050221 0.27286413781593999 0 0.48378871228000903 0.29745177826977359 0 0.50732841191799194 0.2613117081243182 0 0.52929435216580312 0.29671213472503383 0 0.50000000000002642 0.7803135888501761 0 0.46634612187967051 0.76767585524061377 0 0.49073113440598592 0.73759004618730417 0 0.44764943295894188 0.73752415265401661 0 0.49073113440598592 0.73759004618730417 0 0.46634612187967051 0.76767585524061377 0 0.73752415265401194 0.55235056704108476 0 0.73815142352639962 0.50697050072007344 0 0.76797069865873757 0.53315993670164308 0 0.78031358885017377 0.49999999999997569 0 0.76797069865873757 0.53315993670164308 0 0.73815142352639962 0.50697050072007344 0 0.2196864111498267 0.50000000000003153 0 0.23232476702437141 0.46634525369567709 0 0.262418491288269 0.49071922292154141 0 0.26247584734598628 0.44764943295894732 0 0.262418491288269 0.49071922292154141 0 0.23232476702437141 0.46634525369567709 0 0.55175647814720108 0.26104505532086641 0 0.50732841191799194 0.2613117081243182 0 0.53265327255359129 0.23135454206919101 0 0.49999999999997108 0.21968641114982909 0 0.53265327255359129 0.23135454206919101 0 0.50732841191799194 0.2613117081243182 0 0.64455163611866495 0.50369301794551069 0 0.62619054498681193 0.46482944251856079 0 0.66329969176266512 0.46626046872004567 0 0.50000000000002642 0.7803135888501761 0 0.46593838964869061 0.80781872835503554 0 0.46634612187967051 0.76767585524061377 0 0.2196864111498267 0.50000000000003153 0 0.19218127164496679 0.46593838964869538 0 0.23232476702437141 0.46634525369567709 0 0.78031358885017377 0.49999999999997569 0 0.80781854240107975 0.53406203754901738 0 0.76797069865873757 0.53315993670164308 0 0.49999999999997108 0.21968641114982909 0 0.53404982287327418 0.19215288291432539 0 0.53265327255359129 0.23135454206919101 0 0.55175647814720108 0.26104505532086641 0 0.52929435216580312 0.29671213472503383 0 0.50732841191799194 0.2613117081243182 0 0.64518564541690571 0.69601563325001548 0 0.67626275269587088 0.72713741921009012 0 0.64203711532612107 0.74316477213290444 0 0.30421635384321521 0.64514939193436716 0 0.27349656744860212 0.67581741996408695 0 0.25684529255773247 0.64203554247963057 0 0.69601563325001248 0.35481435458309712 0 0.72713741921008324 0.32373724730413678 0 0.74316477213289889 0.35796288467388632 0 0.35481435458309307 0.30398436674998969 0 0.32373692627050221 0.27286413781593999 0 0.3579628846738841 0.25683522786710378 0 0.640156794425081 0.43301393728221721 0 0.66329969176266512 0.46626046872004567 0 0.62619054498681193 0.46482944251856079 0 1 0.64999999999907843 0 0.96779701826738695 0.67105375815842694 0 0.96654491682122368 0.6363613838740827 0 0.64999999999907843 0 0 0.67098510785536181 0.032220921767549461 0 0.63635157668793507 0.033457646040912177 0 0.35000000000145642 1 0 0.32894624184180998 0.96779701826738929 0 0.36363861612613613 0.96654491682121313 0 0 0.35000000000145642 0 0.032220921767546963 0.32901489214487523 0 0.033457646040922301 0.36364842331228431 0 0.66820316019503978 0.77769800602796979 0 0.69892030930712212 0.7971997999085858 0 0.66919832404887702 0.81820888699730587 0 0.22230199397202771 0.66820316019503168 0 0.2028002000914135 0.69892030930711557 0 0.1817911130026923 0.66919832404888702 0 0.77769800602796679 0.33179683980497482 0 0.7971997999085878 0.3010796906928917 0 0.8182088869973061 0.33080167595111531 0 0.33179683980498331 0.2223019939720311 0 0.30107969069289831 0.20280020009141189 0 0.33080167595110582 0.18179111300269291 0 0.4434591735942961 0.66641640622551224 0 0.47818752133962877 0.66454462905280853 0 0.46736891737654429 0.70015537930374983 0 0.33382663527330159 0.44130125047503482 0 0.33436424489304489 0.47849603121740791 0 0.29988655052531688 0.46700727827593119 0 0.46102425708533701 0.43254199134332588 0 0.42930823106401639 0.40626685012722968 0 0.46543211128216788 0.38788423543681888 0 0.35984320557492089 0.56698606271778873 0 0.40468198875170619 0.57637931869191572 0 0.37104651296145419 0.60545170748311072 0 0.60938371359314658 0.91847489683800321 0 0.62483828039315681 0.8780818733396436 0 0.6441774148058701 0.91458123574274031 0 0.081525103161997597 0.6093837135931508 0 0.1219181266603569 0.62483828039315903 0 0.085418764257258195 0.64417741480586865 0 0.91890123454466932 0.39094742729597309 0 0.87815187193233801 0.37523526017134418 0 0.91286712511202617 0.35637271447129198 0 0.39061628640684498 0.081525103161991672 0 0.37516171960683908 0.121918126660369 0 0.35582258519414178 0.085418764257258431 0 0.40653508887824003 0.61580573377480397 0 0.37104651296145419 0.60545170748311072 0 0.40468198875170619 0.57637931869191572 0 
</DataArray>
</Points>
<Cells>
<DataArray type="UInt32" Name="connectivity" format="ascii">
0 1 2 3 4 5 6 7 8 9 10 11 12 13 14 15 16 17 18 19 20 21 22 23 24 25 26 27 28 29 30 31 32 33 34 35 36 37 38 39 40 41 42 43 44 45 46 47 48 49 50 51 52 53 54 55 56 57 58 59 60 61 62 63 64 65 66 67 68 69 70 71 72 73 74 75 76 77 78 79 80 81 82 83 84 85 86 87 88 89 90 91 92 93 94 95 96 97 98 99 100 101 102 103 104 105 106 107 108 109 110 111 112 113 114 115 116 117 118 119 120 121 122 123 124 125 126 127 128 129 130 131 132 133 134 135 136 137 138 139 140 141 142 143 144 145 146 147 148 149 150 151 152 153 154 155 156 157 158 159 160 161 162 163 164 165 166 167 168 169 170 171 172 173 174 175 176 177 178 179 180 181 182 183 184 185 186 187 188 189 190 191 192 193 194 195 196 197 198 199 200 201 202 203 204 205 206 207 208 209 210 211 212 213 214 215 216 217 218 219 220 221 222 223 224 225 226 227 228 229 230 231 232 233 234 235 236 237 238 239 240 241 242 243 244 245 246 247 248 249 250 251 252 253 254 255 256 257 258 259 260 261 262 263 264 265 266 267 268 269 270 271 272 273 274 275 276 277 278 279 280 281 282 283 284 285 286 287 288 289 290 291 292 293 294 295 296 297 298 299 300 301 302 303 304 305 306 307 308 309 310 311 312 313 314 315 316 317 318 319 320 321 322 323 324 325 326 327 328 329 330 331 332 333 334 335 336 337 338 339 340 341 342 343 344 345 346 347 348 349 350 351 352 353 354 355 356 357 358 359 360 361 362 363 364 365 366 367 368 369 370 371 372 373 374 375 376 377 378 379 380 381 382 383 384 385 386 387 388 389 390 391 392 393 394 395 396 397 398 399 400 401 402 403 404 405 406 407 408 409 410 411 412 413 414 415 416 417 418 419 420 421 422 423 424 425 426 427 428 429 430 431 432 433 434 435 436 437 438 439 440 441 442 443 444 445 446 447 448 449 450 451 452 453 454 455 456 457 458 459 460 461 462 463 464 465 466 467 468 469 470 471 472 473 474 475 476 477 478 479 480 481 482 483 484 485 486 487 488 489 490 491 492 493 494 495 496 497 498 499 500 501 502 503 504 505 506 507 508 509 510 511 512 513 514 515 516 517 518 519 520 521 522 523 524 525 526 527 528 529 530 531 532 533 534 535 536 537 538 539 540 541 542 543 544 545 546 547 548 549 550 551 552 553 554 555 556 557 558 559 560 561 562 563 564 565 566 567 568 569 570 571 572 573 574 575 576 577 578 579 580 581 582 583 584 585 586 587 588 589 590 591 592 593 594 595 596 597 598 599 600 601 602 603 604 605 606 607 608 609 610 611 612 613 614 615 616 617 618 619 620 621 622 623 624 625 626 627 628 629 630 631 632 633 634 635 636 637 638 639 640 641 642 643 644 645 646 647 648 649 650 651 652 653 654 655 656 657 658 659 660 661 662 663 664 665 666 667 668 669 670 671 672 673 674 675 676 677 678 679 680 681 682 683 684 685 686 687 688 689 690 691 692 693 694 695 696 697 698 699 700 701 702 703 704 705 706 707 708 709 710 711 712 713 714 715 716 717 718 719 720 721 722 723 724 725 726 727 728 729 730 731 732 733 734 735 736 737 738 739 740 741 742 743 744 745 746 747 748 749 750 751 752 753 754 755 756 757 758 759 760 761 762 763 764 765 766 767 768 769 770 771 772 773 774 775 776 777 778 779 780 781 782 783 784 785 786 787 788 789 790 791 792 793 794 795 796 797 798 799 800 801 802 803 804 805 806 807 808 809 810 811 812 813 814 815 816 817 818 819 820 821 822 823 824 825 826 827 828 829 830 831 832 833 834 835 836 837 838 839 840 841 842 843 844 845 846 847 848 849 850 851 852 853 854 855 856 857 858 859 860 861 862 863 864 865 866 867 868 869 870 871 872 873 874 875 876 877 878 879 880 881 882 883 884 885 886 887 888 889 890 891 892 893 894 895 896 897 898 899 900 901 902 903 904 905 906 907 908 909 910 911 912 913 914 915 916 917 918 919 920 921 922 923 924 925 926 927 928 929 930 931 932 933 934 935 936 937 938 939 940 941 942 943 944 945 946 947 948 949 950 951 952 953 954 955 956 957 958 959 960 961 962 963 964 965 966 967 968 969 970 971 972 973 974 975 976 977 978 979 980 981 982 983 984 985 986 987 988 989 990 991 992 993 994 995 996 997 998 999 1000 1001 1002 1003 1004 1005 1006 1007 1008 1009 1010 1011 1012 1013 1014 1015 1016 1017 1018 1019 1020 1021 1022 1023 1024 1025 1026 1027 1028 1029 1030 1031 1032 1033 1034 1035 1036 1037 1038 1039 1040 1041 1042 1043 1044 1045 1046 1047 1048 1049 1050 1051 1052 1053 1054 1055 1056 1057 1058 1059 1060 1061 1062 1063 1064 1065 1066 1067 1068 1069 1070 1071 1072 1073 1074 1075 1076 1077 1078 1079 1080 1081 1082 1083 1084 1085 1086 1087 1088 1089 1090 1091 1092 1093 1094 1095 1096 1097 1098 1099 1100 1101 1102 1103 1104 1105 1106 1107 1108 1109 1110 1111 1112 1113 1114 1115 1116 1117 1118 1119 1120 1121 1122 1123 1124 1125 1126 1127 1128 1129 1130 1131 1132 1133 1134 1135 1136 1137 1138 1139 1140 1141 1142 1143 1144 1145 1146 1147 1148 1149 1150 1151 1152 1153 1154 1155 1156 1157 1158 1159 1160 1161 1162 1163 1164 1165 1166 1167 1168 1169 1170 1171 1172 1173 1174 1175 1176 1177 1178 1179 1180 1181 1182 1183 1184 1185 1186 1187 1188 1189 1190 1191 1192 1193 1194 1195 1196 1197 1198 1199 1200 1201 1202 1203 1204 1205 1206 1207 1208 1209 1210 1211 1212 1213 1214 1215 1216 1217 1218 1219 1220 1221 1222 1223 1224 1225 1226 1227 1228 1229 1230 1231 1232 1233 1234 1235 1236 1237 1238 1239 1240 1241 1242 1243 1244 1245 1246 1247 1248 1249 1250 1251 1252 1253 1254 1255 1256 1257 1258 1259 1260 1261 1262 1263 1264 1265 1266 1267 1268 1269 1270 1271 1272 1273 1274 1275 1276 1277 1278 1279 1280 1281 1282 1283 1284 1285 1286 1287 1288 1289 1290 1291 1292 1293 1294 1295 1296 1297 1298 1299 1300 1301 1302 1303 1304 1305 1306 1307 1308 1309 1310 1311 1312 1313 1314 1315 1316 1317 1318 1319 1320 1321 1322 1323 1324 1325 1326 1327 1328 1329 1330 1331 1332 1333 1334 1335 1336 1337 1338 1339 1340 1341 1342 1343 1344 1345 1346 1347 1348 1349 1350 1351 1352 1353 1354 1355 1356 1357 1358 1359 1360 1361 1362 1363 1364 1365 1366 1367 1368 1369 1370 1371 1372 1373 1374 1375 1376 1377 1378 1379 1380 1381 1382 1383 1384 1385 1386 1387 1388 1389 1390 1391 1392 1393 1394 1395 1396 1397 1398 1399 1400 1401 1402 1403 1404 1405 1406 1407 1408 1409 1410 1411 1412 1413 1414 1415 1416 1417 1418 1419 1420 1421 1422 1423 1424 1425 1426 1427 1428 1429 1430 1431 1432 1433 1434 1435 1436 1437 1438 1439 1440 1441 1442 1443 1444 1445 1446 1447 1448 1449 1450 1451 1452 1453 1454 1455 1456 1457 1458 1459 1460 1461 1462 1463 1464 1465 1466 1467 1468 1469 1470 1471 1472 1473 1474 1475 1476 1477 1478 1479 1480 1481 1482 1483 1484 1485 1486 1487 1488 1489 1490 1491 1492 1493 1494 1495 1496 1497 1498 1499 1500 1501 1502 1503 1504 1505 1506 1507 1508 1509 1510 1511 1512 1513 1514 1515 1516 1517 1518 1519 1520 1521 1522 1523 1524 1525 1526 1527 1528 1529 1530 1531 1532 1533 1534 1535 1536 1537 1538 1539 1540 1541 1542 1543 1544 1545 1546 1547 1548 1549 1550 1551 1552 1553 1554 1555 1556 1557 1558 1559 1560 1561 1562 1563 1564 1565 1566 1567 1568 1569 1570 1571 1572 1573 1574 1575 1576 1577 1578 1579 1580 1581 1582 1583 1584 1585 1586 1587 1588 1589 1590 1591 1592 1593 1594 1595 1596 1597 1598 1599 1600 1601 1602 1603 1604 1605 1606 1607 1608 1609 1610 1611 1612 1613 1614 1615 1616 1617 1618 1619 1620 1621 1622 1623 1624 1625 1626 1627 1628 1629 1630 1631 1632 1633 1634 1635 1636 1637 1638 1639 1640 1641 1642 1643 1644 1645 1646 1647 1648 1649 1650 1651 1652 1653 1654 1655 1656 1657 1658 1659 1660 1661 1662 1663 1664 1665 1666 1667 1668 1669 1670 1671 1672 1673 1674 1675 1676 1677 1678 1679 1680 1681 1682 1683 1684 1685 1686 1687 1688 1689 1690 1691 1692 1693 1694 1695 1696 1697 1698 1699 1700 1701 1702 1703 1704 1705 1706 1707 1708 1709 1710 1711 1712 1713 1714 1715 1716 1717 1718 1719 1720 1721 1722 1723 1724 1725 1726 1727 1728 1729 1730 1731 1732 1733 1734 1735 1736 1737 1738 1739 1740 1741 1742 1743 1744 1745 1746 1747 1748 1749 1750 1751 1752 1753 1754 1755 1756 1757 1758 1759 1760 1761 1762 1763 1764 1765 1766 1767 1768 1769 1770 1771 1772 1773 1774 1775 1776 1777 1778 1779 1780 1781 1782 1783 1784 1785 1786 1787 1788 1789 1790 1791 1792 1793 1794 1795 1796 1797 1798 1799 1800 1801 1802 1803 1804 1805 1806 1807 1808 1809 1810 1811 1812 1813 1814 1815 1816 1817 1818 1819 1820 1821 1822 1823 1824 1825 1826 1827 1828 1829 1830 1831 1832 1833 1834 1835 1836 1837 1838 1839 1840 1841 1842 1843 1844 1845 1846 1847 1848 1849 1850 1851 1852 1853 1854 1855 1856 1857 1858 1859 1860 1861 1862 1863 1864 1865 1866 1867 1868 1869 1870 1871 1872 1873 1874 1875 1876 1877 1878 1879 1880 1881 1882 1883 1884 1885 1886 1887 1888 1889 1890 1891 1892 1893 1894 1895 1896 1897 1898 1899 1900 1901 1902 1903 1904 1905 1906 1907 1908 1909 1910 1911 1912 1913 1914 1915 1916 1917 1918 1919 1920 1921 1922 1923 1924 1925 1926 1927 1928 1929 1930 1931 1932 1933 1934 1935 1936 1937 1938 1939 1940 1941 1942 1943 1944 1945 1946 1947 1948 1949 1950 1951 1952 1953 1954 1955 1956 1957 1958 1959 1960 1961 1962 1963 1964 1965 1966 1967 1968 1969 1970 1971 1972 1973 1974 1975 1976 1977 1978 1979 1980 1981 1982 1983 1984 1985 1986 1987 1988 1989 1990 1991 1992 1993 1994 1995 1996 1997 1998 1999 2000 2001 2002 2003 2004 2005 2006 2007 2008 2009 2010 2011 2012 2013 2014 2015 2016 2017 2018 2019 2020 2021 2022 2023 2024 2025 2026 2027 2028 2029 2030 2031 2032 2033 2034 2035 2036 2037 2038 2039 2040 2041 2042 2043 2044 2045 2046 2047 2048 2049 2050 2051 2052 2053 2054 2055 2056 2057 2058 2059 2060 2061 2062 2063 2064 2065 2066 2067 2068 2069 2070 2071 2072 2073 2074 2075 2076 2077 2078 2079 2080 2081 2082 2083 2084 2085 2086 2087 2088 2089 2090 2091 2092 2093 2094 2095 2096 2097 2098 2099 2100 2101 2102 2103 2104 2105 2106 2107 2108 2109 2110 2111 2112 2113 2114 2115 2116 2117 2118 2119 2120 2121 2122 2123 2124 2125 2126 2127 2128 2129 2130 2131 2132 2133 2134 2135 2136 2137 2138 2139 2140 2141 2142 2143 2144 2145 2146 2147 2148 2149 2150 2151 2152 2153 2154 2155 2156 2157 2158 2159 2160 2161 2162 2163 2164 2165 2166 2167 2168 2169 2170 2171 2172 2173 2174 2175 2176 2177 2178 2179 2180 2181 2182 2183 2184 2185 2186 2187 2188 2189 2190 2191 2192 2193 2194 2195 2196 2197 2198 2199 2200 2201 2202 2203 2204 2205 2206 2207 2208 2209 2210 2211 2212 2213 2214 2215 2216 2217 2218 2219 2220 2221 2222 2223 2224 2225 2226 2227 2228 2229 2230 2231 2232 2233 2234 2235 2236 2237 2238 2239 2240 2241 2242 2243 2244 2245 2246 2247 2248 2249 2250 2251 2252 2253 2254 2255 2256 2257 2258 2259 2260 2261 2262 2263 2264 2265 2266 2267 2268 2269 2270 2271 2272 2273 2274 2275 2276 2277 2278 2279 2280 2281 2282 2283 2284 2285 2286 2287 2288 2289 2290 2291 2292 2293 2294 2295 2296 2297 2298 2299 2300 2301 2302 2303 2304 2305 2306 2307 2308 2309 2310 2311 2312 2313 2314 2315 2316 2317 2318 2319 2320 2321 2322 2323 2324 2325 2326 2327 2328 2329 2330 2331 2332 2333 2334 2335 2336 2337 2338 2339 2340 2341 2342 2343 2344 2345 2346 2347 2348 2349 2350 2351 2352 2353 2354 2355 2356 2357 2358 2359 2360 2361 2362 2363 2364 2365 2366 2367 2368 2369 2370 2371 2372 2373 2374 2375 2376 2377 2378 2379 2380 2381 2382 2383 2384 2385 2386 2387 2388 2389 2390 2391 2392 2393 2394 2395 2396 2397 2398 2399 2400 2401 2402 2403 2404 2405 2406 2407 2408 2409 2410 2411 2412 2413 2414 2415 2416 2417 2418 2419 2420 2421 2422 2423 2424 2425 2426 2427 2428 2429 2430 2431 2432 2433 2434 2435 2436 2437 2438 2439 2440 2441 2442 2443 2444 2445 2446 2447 2448 2449 2450 2451 2452 2453 2454 2455 2456 2457 2458 2459 2460 2461 2462 2463 2464 2465 2466 2467 2468 2469 2470 2471 2472 2473 2474 2475 2476 2477 2478 2479 2480 2481 2482 2483 2484 2485 2486 2487 2488 2489 2490 2491 2492 2493 2494 2495 2496 2497 2498 2499 2500 2501 2502 2503 2504 2505 2506 2507 2508 2509 2510 2511 2512 2513 2514 2515 2516 2517 2518 2519 2520 2521 2522 2523 2524 2525 2526 2527 2528 2529 2530 2531 2532 2533 2534 2535 2536 2537 2538 2539 2540 2541 2542 2543 2544 2545 2546 2547 2548 2549 2550 2551 2552 2553 2554 2555 2556 2557 2558 2559 2560 2561 2562 2563 2564 2565 2566 2567 2568 2569 2570 2571 2572 2573 2574 2575 2576 2577 2578 2579 2580 2581 2582 2583 2584 2585 2586 2587 2588 2589 2590 2591 2592 2593 2594 2595 2596 2597 2598 2599 2600 2601 2602 2603 2604 2605 2606 2607 2608 2609 2610 2611 2612 2613 2614 2615 2616 2617 2618 2619 2620 2621 2622 2623 2624 2625 2626 2627 2628 2629 2630 2631 2632 2633 2634 2635 2636 2637 2638 2639 2640 2641 2642 2643 2644 2645 2646 2647 2648 2649 2650 2651 2652 2653 2654 2655 2656 2657 2658 2659 2660 2661 2662 2663 2664 2665 2666 2667 2668 2669 2670 2671 2672 2673 2674 2675 2676 2677 2678 2679 2680 2681 2682 2683 2684 2685 2686 2687 2688 2689 2690 2691 2692 2693 2694 2695 2696 2697 2698 2699 2700 2701 2702 2703 2704 2705 2706 2707 2708 2709 2710 2711 2712 2713 2714 2715 2716 2717 2718 2719 2720 2721 2722 2723 2724 2725 2726 2727 2728 2729 2730 2731 2732 2733 2734 2735 2736 2737 2738 2739 2740 2741 2742 2743 2744 2745 2746 2747 2748 2749 2750 2751 2752 2753 2754 2755 2756 2757 2758 2759 2760 2761 2762 2763 2764 2765 2766 2767 2768 2769 2770 2771 2772 2773 2774 2775 2776 2777 2778 2779 2780 2781 2782 2783 2784 2785 2786 2787 2788 2789 2790 2791 2792 2793 2794 2795 2796 2797 2798 2799 2800 2801 2802 2803 2804 2805 2806 2807 2808 2809 2810 2811 2812 2813 2814 2815 2816 2817 2818 2819 2820 2821 2822 2823 2824 2825 2826 2827 2828 2829 2830 2831 2832 2833 2834 2835 2836 2837 2838 2839 2840 2841 2842 2843 2844 2845 2846 2847 2848 2849 2850 2851 2852 2853 2854 2855 2856 2857 2858 2859 2860 2861 2862 2863 2864 2865 2866 2867 2868 2869 2870 2871 2872 2873 2874 2875 2876 2877 2878 2879 2880 2881 2882 2883 2884 2885 2886 2887 2888 2889 2890 2891 2892 2893 2894 2895 2896 2897 2898 2899 2900 2901 2902 2903 2904 2905 2906 2907 2908 2909 2910 2911 2912 2913 2914 2915 2916 2917 2918 2919 2920 2921 2922 2923 2924 2925 2926 2927 2928 2929 2930 2931 2932 2933 2934 2935 2936 2937 2938 2939 2940 2941 2942 2943 2944 2945 2946 2947 2948 2949 2950 2951 2952 2953 2954 2955 2956 2957 2958 2959 2960 2961 2962 2963 2964 2965 2966 2967 2968 2969 2970 2971 2972 2973 2974 2975 2976 2977 2978 2979 2980 2981 2982 2983 2984 2985 2986 2987 2988 2989 2990 2991 2992 2993 2994 2995 2996 2997 2998 2999 3000 3001 3002 3003 3004 3005 3006 3007 3008 3009 3010 3011 3012 3013 3014 3015 3016 3017 3018 3019 3020 3021 3022 3023 3024 3025 3026 3027 3028 3029 3030 3031 3032 3033 3034 3035 3036 3037 3038 3039 3040 3041 3042 3043 3044 3045 3046 3047 3048 3049 3050 3051 3052 3053 3054 3055 3056 3057 3058 3059 3060 3061 3062 3063 3064 3065 3066 3067 3068 3069 3070 3071 3072 3073 3074 3075 3076 3077 3078 3079 3080 3081 3082 3083 3084 3085 3086 3087 3088 3089 3090 3091 3092 3093 3094 3095 3096 3097 3098 3099 3100 3101 3102 3103 3104 3105 3106 3107 3108 3109 3110 3111 3112 3113 3114 3115 3116 3117 3118 3119 3120 3121 3122 3123 3124 3125 3126 3127 3128 3129 3130 3131 3132 3133 3134 3135 3136 3137 3138 3139 3140 3141 3142 3143 3144 3145 3146 3147 3148 3149 3150 3151 3152 3153 3154 3155 3156 3157 3158 3159 3160 3161 
</DataArray>
<DataArray type="UInt32" Name="offsets" format="ascii">
3 6 9 12 15 18 21 24 27 30 33 36 39 42 45 48 51 54 57 60 63 66 69 72 75 78 81 84 87 90 93 96 99 102 105 108 111 114 117 120 123 126 129 132 135 138 141 144 147 150 153 156 159 162 165 168 171 174 177 180 183 186 189 192 195 198 201 204 207 210 213 216 219 222 225 228 231 234 237 240 243 246 249 252 255 258 261 264 267 270 273 276 279 282 285 288 291 294 297 300 303 306 309 312 315 318 321 324 327 330 333 336 339 342 345 348 351 354 357 360 363 366 369 372 375 378 381 384 387 390 393 396 399 402 405 408 411 414 417 420 423 426 429 432 435 438 441 444 447 450 453 456 459 462 465 468 471 474 477 480 483 486 489 492 495 498 501 504 507 510 513 516 519 522 525 528 531 534 537 540 543 546 549 552 555 558 561 564 567 570 573 576 579 582 585 588 591 594 597 600 603 606 609 612 615 618 621 624 627 630 633 636 639 642 645 648 651 654 657 660 663 666 669 672 675 678 681 684 687 690 693 696 699 702 705 708 711 714 717 720 723 726 729 732 735 738 741 744 747 750 753 756 759 762 765 768 771 774 777 780 783 786 789 792 795 798 801 804 807 810 813 816 819 822 825 828 831 834 837 840 843 846 849 852 855 858 861 864 867 870 873 876 879 882 885 888 891 894 897 900 903 906 909 912 915 918 921 924 927 930 933 936 939 942 945 948 951 954 957 960 963 966 969 972 975 978 981 984 987 990 993 996 999 1002 1005 1008 1011 1014 1017 1020 1023 1026 1029 1032 1035 1038 1041 1044 1047 1050 1053 1056 1059 1062 1065 1068 1071 1074 1077 1080 1083 1086 1089 1092 1095 1098 1101 1104 1107 1110 1113 1116 1119 1122 1125 1128 1131 1134 1137 1140 1143 1146 1149 1152 1155 1158 1161 1164 1167 1170 1173 1176 1179 1182 1185 1188 1191 1194 1197 1200 1203 1206 1209 1212 1215 1218 1221 1224 1227 1230 1233 1236 1239 1242 1245 1248 1251 1254 1257 1260 1263 1266 1269 1272 1275 1278 1281 1284 1287 1290 1293 1296 1299 1302 1305 1308 1311 1314 1317 1320 1323 1326 1329 1332 1335 1338 1341 1344 1347 1350 1353 1356 1359 1362 1365 1368 1371 1374 1377 1380 1383 1386 1389 1392 1395 1398 1401 1404 1407 1410 1413 1416 1419 1422 1425 1428 1431 1434 1437 1440 1443 1446 1449 1452 1455 1458 1461 1464 1467 1470 1473 1476 1479 1482 1485 1488 1491 1494 1497 1500 1503 1506 1509 1512 1515 1518 1521 1524 1527 1530 1533 1536 1539 1542 1545 1548 1551 1554 1557 1560 1563 1566 1569 1572 1575 1578 1581 1584 1587 1590 1593 1596 1599 1602 1605 1608 1611 1614 1617 1620 1623 1626 1629 1632 1635 1638 1641 1644 1647 1650 1653 1656 1659 1662 1665 1668 1671 1674 1677 1680 1683 1686 1689 1692 1695 1698 1701 1704 1707 1710 1713 1716 1719 1722 1725 1728 1731 1734 1737 1740 1743 1746 1749 1752 1755 1758 1761 1764 1767 1770 1773 1776 1779 1782 1785 1788 1791 1794 1797 1800 1803 1806 1809 1812 1815 1818 1821 1824 1827 1830 1833 1836 1839 1842 1845 1848 1851 1854 1857 1860 1863 1866 1869 1872 1875 1878 1881 1884 1887 1890 1893 1896 1899 1902 1905 1908 1911 1914 1917 1920 1923 1926 1929 1932 1935 1938 1941 1944 1947 1950 1953 1956 1959 1962 1965 1968 1971 1974 1977 1980 1983 1986 1989 1992 1995 1998 2001 2004 2007 2010 2013 2016 2019 2022 2025 2028 2031 2034 2037 2040 2043 2046 2049 2052 2055 2058 2061 2064 2067 2070 2073 2076 2079 2082 2085 2088 2091 2094 2097 2100 2103 2106 2109 2112 2115 2118 2121 2124 2127 2130 2133 2136 2139 2142 2145 2148 2151 2154 2157 2160 2163 2166 2169 2172 2175 2178 2181 2184 2187 2190 2193 2196 2199 2202 2205 2208 2211 2214 2217 2220 2223 2226 2229 2232 2235 2238 2241 2244 2247 2250 2253 2256 2259 2262 2265 2268 2271 2274 2277 2280 2283 2286 2289 2292 2295 2298 2301 2304 2307 2310 2313 2316 2319 2322 2325 2328 2331 2334 2337 2340 2343 2346 2349 2352 2355 2358 2361 2364 2367 2370 2373 2376 2379 2382 2385 2388 2391 2394 2397 2400 2403 2406 2409 2412 2415 2418 2421 2424 2427 2430 2433 2436 2439 2442 2445 2448 2451 2454 2457 2460 2463 2466 2469 2472 2475 2478 2481 2484 2487 2490 2493 2496 2499 2502 2505 2508 2511 2514 2517 2520 2523 2526 2529 2532 2535 2538 2541 2544 2547 2550 2553 2556 2559 2562 2565 2568 2571 2574 2577 2580 2583 2586 2589 2592 2595 2598 2601 2604 2607 2610 2613 2616 2619 2622 2625 2628 2631 2634 2637 2640 2643 2646 2649 2652 2655 2658 2661 2664 2667 2670 2673 2676 2679 2682 2685 2688 2691 2694 2697 2700 2703 2706 2709 2712 2715 2718 2721 2724 2727 2730 2733 2736 2739 2742 2745 2748 2751 2754 2757 2760 2763 2766 2769 2772 2775 2778 2781 2784 2787 2790 2793 2796 2799 2802 2805 2808 2811 2814 2817 2820 2823 2826 2829 2832 2835 2838 2841 2844 2847 2850 2853 2856 2859 2862 2865 2868 2871 2874 2877 2880 2883 2886 2889 2892 2895 2898 2901 2904 2907 2910 2913 2916 2919 2922 2925 2928 2931 2934 2937 2940 2943 2946 2949 2952 2955 2958 2961 2964 2967 2970 2973 2976 2979 2982 2985 2988 2991 2994 2997 3000 3003 3006 3009 3012 3015 3018 3021 3024 3027 3030 3033 3036 3039 3042 3045 3048 3051 3054 3057 3060 3063 3066 3069 3072 3075 3078 3081 3084 3087 3090 3093 3096 3099 3102 3105 3108 3111 3114 3117 3120 3123 3126 3129 3132 3135 3138 3141 3144 3147 3150 3153 3156 3159 3162 
</DataArray>
<DataArray type="UInt32" Name="types" format="ascii">
5 5 5 5 5 5 5 5 5 5 5 5 5 5 5 5 5 5 5 5 5 5 5 5 5 5 5 5 5 5 5 5 5 5 5 5 5 5 5 5 5 5 5 5 5 5 5 5 5 5 5 5 5 5 5 5 5 5 5 5 5 5 5 5 5 5 5 5 5 5 5 5 5 5 5 5 5 5 5 5 5 5 5 5 5 5 5 5 5 5 5 5 5 5 5 5 5 5 5 5 5 5 5 5 5 5 5 5 5 5 5 5 5 5 5 5 5 5 5 5 5 5 5 5 5 5 5 5 5 5 5 5 5 5 5 5 5 5 5 5 5 5 5 5 5 5 5 5 5 5 5 5 5 5 5 5 5 5 5 5 5 5 5 5 5 5 5 5 5 5 5 5 5 5 5 5 5 5 5 5 5 5 5 5 5 5 5 5 5 5 5 5 5 5 5 5 5 5 5 5 5 5 5 5 5 5 5 5 5 5 5 5 5 5 5 5 5 5 5 5 5 5 5 5 5 5 5 5 5 5 5 5 5 5 5 5 5 5 5 5 5 5 5 5 5 5 5 5 5 5 5 5 5 5 5 5 5 5 5 5 5 5 5 5 5 5 5 5 5 5 5 5 5 5 5 5 5 5 5 5 5 5 5 5 5 5 5 5 5 5 5 5 5 5 5 5 5 5 5 5 5 5 5 5 5 5 5 5 5 5 5 5 5 5 5 5 5 5 5 5 5 5 5 5 5 5 5 5 5 5 5 5 5 5 5 5 5 5 5 5 5 5 5 5 5 5 5 5 5 5 5 5 5 5 5 5 5 5 5 5 5 5 5 5 5 5 5 5 5 5 5 5 5 5 5 5 5 5 5 5 5 5 5 5 5 5 5 5 5 5 5 5 5 5 5 5 5 5 5 5 5 5 5 5 5 5 5 5 5 5 5 5 5 5 5 5 5 5 5 5 5 5 5 5 5 5 5 5 5 5 5 5 5 5 5 5 5 5 5 5 5 5 5 5 5 5 5 5 5 5 5 5 5 5 5 5 5 5 5 5 5 5 5 5 5 5 5 5 5 5 5 5 5 5 5 5 5 5 5 5 5 5 5 5 5 5 5 5 5 5 5 5 5 5 5 5 5 5 5 5 5 5 5 5 5 5 5 5 5 5 5 5 5 5 5 5 5 5 5 5 5 5 5 5 5 5 5 5 5 5 5 5 5 5 5 5 5 5 5 5 5 5 5 5 5 5 5 5 5 5 5 5 5 5 5 5 5 5 5 5 5 5 5 5 5 5 5 5 5 5 5 5 5 5 5 5 5 5 5 5 5 5 5 5 5 5 5 5 5 5 5 5 5 5 5 5 5 5 5 5 5 5 5 5 5 5 5 5 5 5 5 5 5 5 5 5 5 5 5 5 5 5 5 5 5 5 5 5 5 5 5 5 5 5 5 5 5 5 5 5 5 5 5 5 5 5 5 5 5 5 5 5 5 5 5 5 5 5 5 5 5 5 5 5 5 5 5 5 5 5 5 5 5 5 5 5 5 5 5 5 5 5 5 5 5 5 5 5 5 5 5 5 5 5 5 5 5 5 5 5 5 5 5 5 5 5 5 5 5 5 5 5 5 5 5 5 5 5 5 5 5 5 5 5 5 5 5 5 5 5 5 5 5 5 5 5 5 5 5 5 5 5 5 5 5 5 5 5 5 5 5 5 5 5 5 5 5 5 5 5 5 5 5 5 5 5 5 5 5 5 5 5 5 5 5 5 5 5 5 5 5 5 5 5 5 5 5 5 5 5 5 5 5 5 5 5 5 5 5 5 5 5 5 5 5 5 5 5 5 5 5 5 5 5 5 5 5 5 5 5 5 5 5 5 5 5 5 5 5 5 5 5 5 5 5 5 5 5 5 5 5 5 5 5 5 5 5 5 5 5 5 5 5 5 5 5 5 5 5 5 5 5 5 5 5 5 5 5 5 5 5 5 5 5 5 5 5 5 5 5 5 5 5 5 5 5 5 5 5 5 5 5 5 5 5 5 5 5 5 5 5 5 5 5 5 5 5 5 5 5 5 5 5 5 5 5 5 5 5 5 5 5 5 5 5 5 5 5 5 5 5 5 5 5 5 5 5 5 5 5 5 5 5 5 5 5 5 5 5 5 5 5 5 5 5 5 5 5 5 5 5 5 5 5 5 5 5 5 5 5 5 5 5 5 5 5 5 5 5 5 5 5 5 5 5 5 5 5 5 5 5 5 5 5 5 5 5 5 5 5 5 5 5 5 5 5 5 5 5 5 5 5 5 5 5 5 5 5 5 5 5 5 5 5 5 5 5 5 5 5 5 5 5 5 5 5 5 5 5 5 5 5 5 5 5 5 5 5 5 5 5 5 5 5 
</DataArray>
</Cells>
<PointData Scalars="" Vectors="displacement," Tensors="">
<DataArray type="Float64" Name="displacement" NumberOfComponents="3" format="ascii">
-0.00023176295089956988 -0.0023417599371310296 0 -0.00016109765859565392 -0.0021873847774357517 0 -0.00011599872846210797 -0.0023155416680944582 0 0.00052550247957885174 -0.0018799354708259411 0 0.00043218502923128528 -0.0017545743798013779 0 0.00050623633287657903 -0.0016978015887307244 0 -0.00047865837728136356 -0.0011626890186890346 0 -0.00041106988416796195 -0.0012667277448287577 0 -0.00048480255906441455 -0.0013393316555934279 0 0.00016120658310905415 -0.00066551467526713927 0 0.00012122811190106389 -0.00079931484985783837 0 8.0104719772698208e-05 -0.00067836323932775832 0 0.00014439610779893217 -0.0019613574627980932 0 0.00024545201382506892 -0.0018667174178116366 0 0.00023929766177947608 -0.0020678750188737535 0 0.00033237681961939439 -0.0019912525801030556 0 0.0002392976617794761 -0.0020678750188737535 0 0.00024545201382506892 -0.0018667174178116366 0 0.00028398391120773879 -0.0012604284336386565 0 0.00019733712142767779 -0.0011092707139303307 0 0.00031906598146399525 -0.0011240223338854296 0 0.00026376886139863406 -0.00097212132877826476 0 0.00031906598146399525 -0.0011240223338854296 0 0.00019733712142767779 -0.0011092707139303307 0 0.00052177265304094022 -0.0029207907886148114 0 0.00059212761159559298 -0.0030512729288318862 0 0.00047057621592604907 -0.0030657326520845923 0 -0.00085389990006651663 -0.002371956297737168 0 -0.00092382019962898706 -0.002489472531395147 0 -0.0009309086600017781 -0.0022982094804372484 0 0.00064819241944956982 -0.00079858774404918318 0 0.00069928011339109506 -0.00077127805738299129 0 0.00077242709667789237 -0.00093615332625267029 0 -0.00018049676188471863 -0.00024394549942177233 0 -0.00011055838284905519 -0.00012324557241632589 0 -8.0680675332244045e-05 -0.00010916450501055315 0 0.00082896150359351576 -0.0032245222466886435 0 0.00073464754322399145 -0.0032276941302754789 0 0.00084240524934048246 -0.0030913545199440342 0 -0.0010156844355977076 -0.0028911657868705603 0 -0.0010175290660766096 -0.0027284837903034931 0 -0.00094477723819333414 -0.0029102729243935003 0 -0.00041434751653980195 -0.00034067245432646548 0 -0.00064007249762979891 -0.00061137508668240609 0 -0.00050303353706446588 -0.00044911767985788816 0 -0.00084276919206183307 -0.0030913477236296965 0 -0.00073491324501370574 -0.0032277262869485003 0 -0.00082927854932373464 -0.0032245361144812414 0 0.00014009025599436895 -9.6656089806695532e-05 0 2.3184565070202398e-08 -1.0456283534161551e-07 0 5.6502495221708016e-08 -1.3753285868308422e-07 0 0.00094455145745203303 -0.0029102581630159438 0 0.0010173699226632268 -0.0027285839588133166 0 0.0010154388355102422 -0.0028911720269435208 0 0.00050358573887834249 -0.00044879297543861909 0 0.00064129150571718275 -0.00061056772853448329 0 0.00041495989315793114 -0.00034044678165791759 0 -5.6498650694447707e-08 -1.3883495983341562e-07 0 -2.3022911490343524e-08 -1.0328094873197842e-07 0 -0.00014027808255601354 -9.7125909386764598e-05 0 0.00073870266246388587 -0.0007561149766435436 0 0.00069928011339109506 -0.00077127805738299129 0 0.00063827238990312092 -0.00063370206046407351 0 -3.3503898391886861e-08 -1.1751688809699676e-07 0 -0.00011055838284905519 -0.00012324557241632589 0 -9.5552707856776811e-05 -8.9402282646555082e-05 0 0.00063664830939531608 -0.0032301585864941227 0 0.00059212761159559298 -0.0030512729288318862 0 0.00069140971237266588 -0.0030813066716664436 0 -0.0010176981134615742 -0.002566231972068323 0 -0.00092382019962898706 -0.002489472531395147 0 -0.00093980040796103927 -0.0026523246825577965 0 0.0010175582081828111 -0.0025664139400505465 0 0.0009478756682992375 -0.0026289907487176837 0 0.00091845262299791752 -0.0024596677351118473 0 3.2908662553362282e-08 -1.1757099333731364e-07 0 9.4829864845128315e-05 -8.915394831828366e-05 0 0.00011228221923041511 -0.00012530177784447169 0 -0.00063705521225584612 -0.003230070698528484 0 -0.00067727379961841862 -0.0030970101444567489 0 -0.00057416235622755757 -0.0030414408093768193 0 -0.00073894178170314905 -0.00075622881544853461 0 -0.00063685670102697225 -0.00063100363388671297 0 -0.0007023861020704692 -0.00077887398339041567 0 -9.7882686947478246e-08 -0.0024651035457132209 0 8.3290364599146051e-05 -0.0025383000659774334 0 -5.1777177339157073e-06 -0.0026745957545801996 0 -0.00058438115866908105 -0.0015334046565897244 0 -0.00063295955345558615 -0.0016683351402122782 0 -0.000701274337728849 -0.0015499129011738201 0 0.00058410783291458338 -0.0015334544361190906 0 0.00061534998563901762 -0.0014147663968819464 0 0.00070214570026405415 -0.0015652525802044043 0 -1.2627803716383572e-07 -0.00055052310647680115 0 -4.7005343610629609e-05 -0.00049007117805062038 0 2.980844462365701e-06 -0.00037867387776510788 0 0.00063664830939531608 -0.0032301585864941227 0 0.00053570638560482026 -0.0032319082157672356 0 0.00059212761159559298 -0.0030512729288318862 0 -0.0010176981134615742 -0.002566231972068323 0 -0.0010172835528653554 -0.0024045180638739938 0 -0.00092382019962898706 -0.002489472531395147 0 0.00073870266246388587 -0.0007561149766435436 0 0.00081402702394052593 -0.00089986445970585607 0 0.00069928011339109506 -0.00077127805738299129 0 -3.3503898391886861e-08 -1.1751688809699676e-07 0 -1.8316236608740979e-08 -1.10869164985056e-07 0 -0.00011055838284905519 -0.00012324557241632589 0 0.0010171282464527208 -0.0024045816877862262 0 0.0010175582081828111 -0.0025664139400505465 0 0.00091845262299791752 -0.0024596677351118473 0 1.9655116093699023e-08 -1.0959704770229925e-07 0 3.2908662553362282e-08 -1.1757099333731364e-07 0 0.00011228221923041511 -0.00012530177784447169 0 -0.00053591522967300412 -0.0032319008479688356 0 -0.00063705521225584612 -0.003230070698528484 0 -0.00057416235622755757 -0.0030414408093768193 0 -0.0008147078869462903 -0.0008998227701040144 0 -0.00073894178170314905 -0.00075622881544853461 0 -0.0007023861020704692 -0.00077887398339041567 0 0.0010171282464527208 -0.0024045816877862262 0 0.00091845262299791752 -0.0024596677351118473 0 0.00092147521513552175 -0.0022788216018744868 0 1.9655116093699023e-08 -1.0959704770229925e-07 0 0.00011228221923041511 -0.00012530177784447169 0 8.3879090129904219e-05 -0.00011564266160133091 0 -0.00053591522967300412 -0.0032319008479688356 0 -0.00057416235622755757 -0.0030414408093768198 0 -0.0004589988949943272 -0.0030485762099192975 0 -0.0008147078869462903 -0.0008998227701040144 0 -0.0007023861020704692 -0.00077887398339041567 0 -0.00077319395271637436 -0.0009485836703206458 0 0.00069982211652270512 -0.0026537766558982902 0 0.00079243150813593287 -0.0025945657665093062 0 0.00081642049029769328 -0.0027374466918698047 0 -0.00070009189847432122 -0.0026536990163198394 0 -0.00066204352473785816 -0.0028132479943176114 0 -0.00074564872932443181 -0.0028580681141065034 0 -0.00023176295089956988 -0.0023417599371310296 0 -0.00011599872846210797 -0.0023155416680944582 0 -0.00014815356604141273 -0.002466477693845239 0 0.00052550247957885174 -0.0018799354708259411 0 0.00050623633287657903 -0.0016978015887307244 0 0.00059564728212672133 -0.0017604725517049911 0 -0.00047865837728136356 -0.0011626890186890346 0 -0.00048480255906441455 -0.0013393316555934279 0 -0.00056486835865452302 -0.0013068591648439003 0 0.00016120658310905415 -0.00066551467526713927 0 8.0104719772698194e-05 -0.00067836323932775821 0 9.1273634497124564e-05 -0.00055053330961444343 0 0.00084240524934048246 -0.0030913545199440342 0 0.00073464754322399145 -0.0032276941302754789 0 0.00076986687244751226 -0.0030517052204796181 0 -0.00094477723819333414 -0.0029102729243935003 0 -0.0010175290660766096 -0.0027284837903034931 0 -0.00092330810018832049 -0.002783844786352976 0 -0.00050018580155924139 -0.00045197319308903249 0 -0.00064007249762979891 -0.00061137508668240609 0 -0.00041434751653980195 -0.00034067245432646548 0 -0.00076028919488963182 -0.0030298506820015478 0 -0.00073491324501370574 -0.0032277262869485003 0 -0.00084276919206183307 -0.0030913477236296965 0 0.00015839503267645402 -0.00013610257584651355 0 2.318456507020212e-08 -1.0456283534161492e-07 0 0.00014009025599436895 -9.6656089806695532e-05 0 0.00091151451323755954 -0.002766505692021021 0 0.0010173699226632268 -0.0027285839588133166 0 0.00094455145745203303 -0.0029102581630159438 0 0.00041495989315793114 -0.00034044678165791759 0 0.00064129150571718286 -0.0006105677285344834 0 0.00050496067524743939 -0.00045978079204231446 0 -0.00014027808255601354 -9.7125909386764598e-05 0 -2.3022911490338789e-08 -1.0328094873197514e-07 0 -0.00016874675831099727 -0.00014578586891925868 0 -0.00064491530412987322 -0.00081156765056956829 0 -0.00060271018926543189 -0.00068273711560423646 0 -0.00051167185282508182 -0.00065703718176843891 0 0.00018597329780949365 -0.00025822789670373663 0 0.00020341439013679485 -0.0002413400616566183 0 0.00030206294891795075 -0.00040566230069566324 0 0.00081777799985299163 -0.0023529995553504546 0 0.00084440563763785506 -0.0024919656176095621 0 0.00072228576625936198 -0.0024605108859580439 0 -0.00051221509105082422 -0.002854099217523132 0 -0.00059725344026471331 -0.0029055378063129592 0 -0.0005835951959785665 -0.0026865985516448566 0 0.00052177265304094022 -0.0029207907886148114 0 0.00047057621592604907 -0.0030657326520845923 0 0.0004442501358043879 -0.0028922820044476015 0 -0.00085389990006651663 -0.002371956297737168 0 -0.0009309086600017781 -0.0022982094804372484 0 -0.00083887933473040838 -0.0022490185755480153 0 0.00064819241944956982 -0.00079858774404918318 0 0.00077242709667789237 -0.00093615332625267029 0 0.00069680576441548219 -0.00092408951963585692 0 -0.00018049676188471863 -0.00024394549942177233 0 -8.0680675332244045e-05 -0.00010916450501055315 0 -0.00014706202813574351 -0.00023225140694079017 0 8.292832315869806e-05 -0.00015985135645983075 0 9.1721374832998446e-05 -0.000248428066378238 0 4.4908325972788819e-05 -0.0001294812529197164 0 0.00088415783390565904 -0.0021001658286942822 0 0.00081540188039617707 -0.0019749397600494377 0 0.00090283037647369301 -0.0019326733410306377 0 -0.00078849591518216015 -0.0010987927901266719 0 -0.00074810798045008681 -0.0011872416464697305 0 -0.00084429551737314054 -0.0012735515585127069 0 -0.00034413308847351822 -0.0029799635226204629 0 -0.00026678660655024853 -0.0028539590201480843 0 -0.00022971733640566021 -0.0030234746400406025 0 -5.1777177339157073e-06 -0.0026745957545801996 0 8.3290364599146051e-05 -0.0025383000659774334 0 8.9211727723093994e-05 -0.0026866496005691185 0 -0.000701274337728849 -0.0015499129011738201 0 -0.00063295955345558615 -0.0016683351402122782 0 -0.00071580878125435175 -0.0016930251742301441 0 0.00070214570026405415 -0.0015652525802044043 0 0.00061534998563901751 -0.0014147663968819462 0 0.00069607557243921245 -0.0014253171858008287 0 2.980844462365701e-06 -0.00037867387776510788 0 -4.7005343610629616e-05 -0.00049007117805062038 0 -4.0756878755360647e-05 -0.00037189850083005062 0 0.00069982211652270512 -0.0026537766558982902 0 0.00081642049029769339 -0.0027374466918698047 0 0.00074335733823778592 -0.0028158256669307377 0 -0.00070009189847432122 -0.0026536990163198394 0 -0.00074564872932443181 -0.0028580681141065034 0 -0.00079288004534449144 -0.0027322133913160115 0 0.00040115854189354787 -0.0004620418731509045 0 0.00032852029011852849 -0.00032808207864762758 0 0.00044183823481384031 -0.00043108740118546281 0 -0.00039831071701862039 -0.00045828229430286481 0 -0.00042365221767474921 -0.00042216405695529724 0 -0.000305258571627712 -0.00029619689836860312 0 -0.00051167185282508182 -0.00065703718176843891 0 -0.00060271018926543189 -0.00068273711560423646 0 -0.00050376800434534671 -0.00055391447097139738 0 0.00030206294891795075 -0.00040566230069566324 0 0.00020341439013679485 -0.0002413400616566183 0 0.00028600449501353398 -0.00032157798006586508 0 0.00040115854189354787 -0.0004620418731509045 0 0.00044183823481384031 -0.00043108740118546281 0 0.000502803909550045 -0.00055369701247446235 0 -0.00039831071701862039 -0.00045828229430286481 0 -0.000305258571627712 -0.00029619689836860312 0 -0.00028701828272606142 -0.00032361327845084999 0 -0.00039010220969078034 -0.002417314845848435 0 -0.00034552127532079009 -0.0022508504966324647 0 -0.00031153969393159377 -0.0024605033755481214 0 0.00056932204862815969 -0.0021347461257723694 0 0.00046760240068521652 -0.002051893367578867 0 0.00059556897967032575 -0.0020131491524027537 0 -0.00047366536821869887 -0.00092552909228999706 0 -0.00039773540343977787 -0.00097765943347432422 0 -0.00052263992343056821 -0.0010534498827694078 0 0.00026135430432977432 -0.00061766738879014799 0 0.00026031826157834167 -0.00076718836546145952 0 0.00019676426121242305 -0.00056865145205267783 0 -0.00051221509105082422 -0.002854099217523132 0 -0.0004589988949943272 -0.0030485762099192975 0 -0.00057416235622755757 -0.0030414408093768193 0 -0.00064491530412987322 -0.00081156765056956829 0 -0.00077319395271637436 -0.00094858367032064569 0 -0.0007023861020704692 -0.00077887398339041567 0 0.00081777799985299163 -0.0023529995553504546 0 0.00092147521513552175 -0.0022788216018744868 0 0.00091845262299791752 -0.0024596677351118473 0 0.00018597329780949365 -0.00025822789670373663 0 8.3879090129904219e-05 -0.00011564266160133091 0 0.00011228221923041511 -0.00012530177784447169 0 -0.0005835951959785665 -0.0026865985516448566 0 -0.00059725344026471331 -0.0029055378063129592 0 -0.00066204352473785816 -0.0028132479943176118 0 0.00072228576625936198 -0.0024605108859580439 0 0.00084440563763785506 -0.0024919656176095621 0 0.00079243150813593287 -0.0025945657665093062 0 -0.00031153969393159377 -0.0024605033755481214 0 -0.00034552127532079009 -0.0022508504966324647 0 -0.00023176295089956988 -0.0023417599371310296 0 0.00059556897967032575 -0.0020131491524027537 0 0.00046760240068521652 -0.002051893367578867 0 0.00052550247957885174 -0.0018799354708259411 0 -0.00052263992343056821 -0.0010534498827694078 0 -0.00039773540343977787 -0.00097765943347432422 0 -0.00047865837728136356 -0.0011626890186890346 0 0.00019676426121242305 -0.00056865145205267783 0 0.00026031826157834167 -0.00076718836546145952 0 0.00016120658310905415 -0.00066551467526713927 0 0.00016304787048035993 -0.0017780304637702528 0 7.7458522937074275e-05 -0.0018347102554347715 0 6.6672621220429591e-05 -0.001664638647084221 0 0.0010068767435294764 -0.0019291647277213169 0 0.00090283037647369301 -0.0019326733410306377 0 0.00092630007498205715 -0.0017946142856081501 0 1.0896460896891386e-08 -1.1124611790198208e-07 0 4.4908325972788819e-05 -0.0001294812529197164 0 1.9267523316080815e-05 -9.0214839133060198e-05 0 -0.00021868534409848114 -0.0032340454087066424 0 -0.00022971733640566021 -0.0030234746400406025 0 -0.00013161704330434126 -0.0030819364526530339 0 -0.00094739157547450541 -0.0013259728580033898 0 -0.00084429551737314054 -0.0012735515585127069 0 -0.00089441533469792733 -0.0014216784124064623 0 -0.00014114317408638548 -0.0028953547076853207 0 -2.9441496518708538e-05 -0.0030074401034071202 0 -0.00013161704330434126 -0.0030819364526530339 0 -0.00079954224923739427 -0.001379489836094334 0 -0.00087392278010864658 -0.001556473665434074 0 -0.00089441533469792733 -0.0014216784124064623 0 0.0008319115771668118 -0.0017915051304533754 0 0.00088043141800342906 -0.0016404428332314686 0 0.00092630007498205715 -0.0017946142856081501 0 4.3128767194692179e-05 -0.00021489405769724805 0 6.1112552063258796e-06 -0.00013743652753647775 0 1.9267523316080815e-05 -9.0214839133060198e-05 0 0.00015904844556598408 -0.0016334252801489782 0 0.00016304787048035993 -0.0017780304637702528 0 6.6672621220429591e-05 -0.001664638647084221 0 0.001014922853592518 -0.0022440267265614279 0 0.0010171282464527208 -0.0024045816877862262 0 0.00092147521513552175 -0.0022788216018744868 0 1.2077419409434659e-08 -1.1678514824587051e-07 0 1.9655116093699023e-08 -1.0959704770229925e-07 0 8.3879090129904219e-05 -0.00011564266160133091 0 -0.00043204528223567834 -0.0032328326903677744 0 -0.00053591522967300412 -0.0032319008479688356 0 -0.0004589988949943272 -0.0030485762099192975 0 -0.00087016981085887425 -0.0010421638418084145 0 -0.0008147078869462903 -0.0008998227701040144 0 -0.00077319395271637436 -0.0009485836703206458 0 0.0008319115771668118 -0.0017915051304533754 0 0.00073857439280541892 -0.0018767536013698061 0 0.00074046415273485561 -0.0017175660344346366 0 -0.00014114317408638548 -0.0028953547076853207 0 -0.00020964017791841902 -0.0027159892590584924 0 -0.00010263317818418182 -0.0027293683033297535 0 4.3128767194692179e-05 -0.00021489405769724805 0 9.2645724548363369e-05 -0.00035039943002173512 0 4.5364525192555794e-05 -0.00033710704912907213 0 -0.00079954224923739427 -0.001379489836094334 0 -0.00068979082486461684 -0.0012485574993462329 0 -0.00071804309670897397 -0.001411127218155873 0 0.0008319115771668118 -0.0017915051304533754 0 0.00081540188039617707 -0.0019749397600494377 0 0.00073857439280541892 -0.0018767536013698061 0 4.3128767194692179e-05 -0.00021489405769724805 0 9.1721374832998446e-05 -0.000248428066378238 0 9.2645724548363382e-05 -0.00035039943002173512 0 -0.00014114317408638548 -0.0028953547076853207 0 -0.00026678660655024853 -0.0028539590201480843 0 -0.00020964017791841902 -0.0027159892590584924 0 -0.00079954224923739427 -0.001379489836094334 0 -0.00074810798045008681 -0.0011872416464697305 0 -0.00068979082486461684 -0.0012485574993462329 0 0.00052550247957885174 -0.0018799354708259411 0 0.00041838755936420615 -0.0018926769391302749 0 0.00043218502923128528 -0.0017545743798013781 0 -0.00023176295089956988 -0.0023417599371310296 0 -0.00025026155040577521 -0.0021629105595153577 0 -0.00016109765859565392 -0.0021873847774357517 0 0.00016120658310905415 -0.00066551467526713927 0 0.0001928702553525318 -0.00083191555144045918 0 0.00012122811190106389 -0.00079931484985783837 0 -0.00047865837728136356 -0.0011626890186890346 0 -0.00037997988615109902 -0.0011394387377657272 0 -0.00041106988416796195 -0.0012667277448287577 0 3.2754941160046258e-05 -0.0021721033844434912 0 0.00015570475577004548 -0.0021727649237159286 0 9.8708857228894725e-05 -0.002349214783470205 0 -0.00041736898741868961 -0.0015572038261573871 0 -0.00042138079319486153 -0.0017446367060820116 0 -0.00052534663704352307 -0.0016739032456828404 0 0.00041811699148252077 -0.0014542407047443571 0 0.00039589656731161979 -0.0012669492228001777 0 0.00050651917105496 -0.001369010489113613 0 -2.7987651223659232e-05 -0.00079233387234574229 0 -0.00011895255523521906 -0.00081585281249164151 0 -6.7619938303043503e-05 -0.00065134417182847884 0 0.00056612566354337357 -0.0005754377591032767 0 0.00063827238990312092 -0.00063370206046407351 0 0.00069928011339109506 -0.00077127805738299129 0 -0.00019626050704702527 -0.00019642219107532749 0 -9.5552707856776811e-05 -8.9402282646555082e-05 0 -0.00011055838284905519 -0.00012324557241632589 0 0.0006739174295447818 -0.0029366674272616952 0 0.00069140971237266588 -0.0030813066716664436 0 0.00059212761159559298 -0.0030512729288318862 0 -0.00086164936170013786 -0.0026192414582435382 0 -0.00093980040796103927 -0.0026523246825577965 0 -0.00092382019962898706 -0.002489472531395147 0 0.00087097643887149414 -0.0026234234465059331 0 0.00091845262299791752 -0.0024596677351118473 0 0.0009478756682992375 -0.0026289907487176837 0 0.00020418155489206055 -0.00019995385207680831 0 0.00011228221923041511 -0.00012530177784447169 0 9.4829864845128315e-05 -8.915394831828366e-05 0 -0.00067633752739786035 -0.0029543053062839188 0 -0.00057416235622755757 -0.0030414408093768193 0 -0.00067727379961841862 -0.0030970101444567489 0 -0.00055775331382477446 -0.00056332579107578066 0 -0.0007023861020704692 -0.00077887398339041567 0 -0.00063685670102697225 -0.00063100363388671297 0 0.00021670452336496285 -0.0023399569087997471 0 9.8708857228894725e-05 -0.002349214783470205 0 0.00015570475577004548 -0.0021727649237159286 0 -0.00052409894353463559 -0.0018569354020366723 0 -0.00052534663704352307 -0.0016739032456828404 0 -0.00042138079319486153 -0.0017446367060820116 0 0.00048066523772347119 -0.0011854773559459545 0 0.00050651917105496 -0.001369010489113613 0 0.00039589656731161979 -0.0012669492228001777 0 -0.00015168193732751343 -0.00066760469524764865 0 -6.7619938303043503e-05 -0.00065134417182847884 0 -0.00011895255523521906 -0.00081585281249164151 0 0.00070526013604883938 -0.0023133085169114022 0 0.00060266334791258278 -0.0022596715021725284 0 0.00065953591580802441 -0.0021229396430055714 0 -0.00049360193636569991 -0.002653748012097978 0 -0.00046616741896286123 -0.0024762677234386465 0 -0.00037682361421016307 -0.0025710847473852686 0 0.00025993412695013218 -0.00042357136249113794 0 0.00030046844746436279 -0.00057607306128327541 0 0.00021325412409273548 -0.00048007182803308767 0 -0.0005517251001640925 -0.00079698428748165126 0 -0.00047339666488071017 -0.00081375644122012609 0 -0.00056110222851992722 -0.00096760091944477226 0 0.00075339313610150733 -0.0022051389954631569 0 0.00070526013604883938 -0.0023133085169114022 0 0.00065953591580802441 -0.0021229396430055714 0 0.00018959669529152037 -0.00034576899865788278 0 0.00025993412695013218 -0.00042357136249113794 0 0.00021325412409273548 -0.00048007182803308767 0 -0.00042238947443926301 -0.0027370564979705666 0 -0.00049360193636569991 -0.002653748012097978 0 -0.00037682361421016307 -0.0025710847473852686 0 -0.00063014208841381987 -0.00092660445163165106 0 -0.0005517251001640925 -0.00079698428748165126 0 -0.00056110222851992722 -0.00096760091944477226 0 0.00033237681961939439 -0.0019912525801030556 0 0.00041838755936420615 -0.0018926769391302749 0 0.00046760240068521652 -0.002051893367578867 0 -0.00030830099459580059 -0.0020216554604095805 0 -0.00025026155040577521 -0.0021629105595153577 0 -0.00034552127532079009 -0.0022508504966324647 0 0.00026376886139863406 -0.00097212132877826476 0 0.0001928702553525318 -0.00083191555144045918 0 0.00026031826157834167 -0.00076718836546145952 0 -0.00028487697894684328 -0.0010064170618893815 0 -0.00037997988615109902 -0.0011394387377657272 0 -0.00039773540343977787 -0.00097765943347432422 0 0.00037026015446239906 -0.0026046644165424308 0 0.00036934137083507697 -0.002820057187382648 0 0.00030636439515921714 -0.0026992787545611365 0 0.00043734685878264609 -0.002694260440007245 0 0.00036934137083507703 -0.002820057187382648 0 0.00037026015446239906 -0.0026046644165424308 0 -0.00067874723400262668 -0.0021153152330895199 0 -0.00079912070656335368 -0.0021285751485539592 0 -0.00073188544954162565 -0.0020230798295759259 0 -0.0007294074255783607 -0.0022261758646632572 0 -0.00079912070656335368 -0.0021285751485539592 0 -0.00067874723400262668 -0.0021153152330895199 0 0.00058124314893628665 -0.00098307335046981473 0 0.00069599674063504737 -0.001025213981505124 0 0.00065382580748447709 -0.0010988483875130216 0 0.00060054839211376801 -0.00089478860321940594 0 0.00069599674063504737 -0.0010252139815051242 0 0.00058124314893628665 -0.00098307335046981473 0 -0.00020129512926234282 -0.00045251766563225227 0 -0.00013944388454247071 -0.00027811543970182926 0 -0.00014239399299794192 -0.00036836031206518227 0 -0.00021237033766568586 -0.00038337246558241218 0 -0.00013944388454247071 -0.00027811543970182926 0 -0.00020129512926234282 -0.00045251766563225227 0 -1.785046178096939e-05 -0.0017953419927956235 0 2.5704939344175574e-05 -0.0019713181103724014 0 -9.8752740206159786e-05 -0.0019274684886481435 0 9.8686680597034714e-05 -0.0012128653011125503 0 9.6092737325070581e-06 -0.0011568112682602898 0 9.0377708136246492e-05 -0.0010601897546033011 0 -0.00014114317408638548 -0.0028953547076853207 0 -2.7507865278143891e-05 -0.0028525602117420662 0 -2.9441496518708538e-05 -0.0030074401034071202 0 -0.00079954224923739427 -0.001379489836094334 0 -0.00079425941724982439 -0.0015393759669407271 0 -0.00087392278010864658 -0.001556473665434074 0 0.0008319115771668118 -0.0017915051304533754 0 0.00080005754412540095 -0.0016201412424045861 0 0.00088043141800342906 -0.0016404428332314686 0 4.3128767194692179e-05 -0.00021489405769724805 0 9.6462362715371019e-06 -0.00024533725708049089 0 6.1112552063258796e-06 -0.00013743652753647775 0 -1.785046178096939e-05 -0.0017953419927956235 0 7.7458522937074275e-05 -0.0018347102554347715 0 2.5704939344175574e-05 -0.0019713181103724014 0 0.00014439610779893217 -0.0019613574627980932 0 2.5704939344175574e-05 -0.0019713181103724014 0 7.7458522937074275e-05 -0.0018347102554347715 0 8.292832315869806e-05 -0.00015985135645983075 0 0.00013127600312672137 -0.0002684434089585582 0 9.1721374832998446e-05 -0.000248428066378238 0 0.00088415783390565904 -0.0021001658286942822 0 0.00080520504206581364 -0.0021075415001100706 0 0.00081540188039617707 -0.0019749397600494377 0 -0.00034413308847351822 -0.0029799635226204629 0 -0.00035511779515799084 -0.0028320384895639829 0 -0.00026678660655024853 -0.0028539590201480843 0 -0.00078849591518216015 -0.0010987927901266719 0 -0.00070715901424326863 -0.0010499915151299421 0 -0.00074810798045008681 -0.0011872416464697305 0 0.00069982211652270512 -0.0026537766558982902 0 0.00063111079935749994 -0.0025407612532111351 0 0.00072228576625936198 -0.0024605108859580439 0 -0.00070009189847432122 -0.0026536990163198394 0 -0.00063576300018006572 -0.0025337533155917039 0 -0.0005835951959785665 -0.0026865985516448566 0 0.00040115854189354787 -0.0004620418731509045 0 0.00041238716576138661 -0.00056325714568756147 0 0.00030206294891795075 -0.00040566230069566324 0 -0.00039831071701862039 -0.00045828229430286481 0 -0.0003938118242633082 -0.00054063125533743703 0 -0.00051167185282508182 -0.00065703718176843891 0 0.00073164128776759794 -0.0020231028440999737 0 0.00065953591580802441 -0.0021229396430055714 0 0.00064515101391484221 -0.0019226407095263018 0 -0.00030660430592143525 -0.0026993207157013374 0 -0.00037682361421016307 -0.0025710847473852686 0 -0.00024897944339884458 -0.0025474871714341921 0 0.00014240172298840651 -0.00036920934401318297 0 0.00021325412409273548 -0.00048007182803308767 0 0.00014284322945635675 -0.00048945105314884146 0 -0.00065411539991852715 -0.0010982876390528322 0 -0.00056110222851992722 -0.00096760091944477226 0 -0.00058868784782034286 -0.0011623508313211692 0 0.00024545201382506892 -0.0018667174178116366 0 0.00025611719468432475 -0.0016799317668732647 0 0.00033670950901630662 -0.0018244237689299227 0 0.00052177265304094022 -0.0029207907886148114 0 0.00060064602939173604 -0.0028496295208765366 0 0.00059212761159559298 -0.0030512729288318862 0 -0.00085389990006651663 -0.002371956297737168 0 -0.00081408193497584645 -0.002495573458463035 0 -0.00092382019962898706 -0.002489472531395147 0 0.0006739174295447818 -0.0029366674272616952 0 0.00059212761159559298 -0.0030512729288318862 0 0.00060064602939173604 -0.0028496295208765366 0 -0.00086164936170013786 -0.0026192414582435382 0 -0.00092382019962898706 -0.002489472531395147 0 -0.00081408193497584645 -0.002495573458463035 0 0.00052008364954949022 -0.0025350185158765004 0 0.00063111079935749994 -0.0025407612532111351 0 0.00060750059771624918 -0.0026789970428287234 0 0.00069982211652270512 -0.0026537766558982902 0 0.00060750059771624918 -0.0026789970428287234 0 0.00063111079935749994 -0.0025407612532111351 0 -0.00063648198792548094 -0.0023496930497308739 0 -0.00063576300018006572 -0.0025337533155917039 0 -0.00071762959400758586 -0.0024995774335483524 0 -0.00070009189847432122 -0.0026536990163198394 0 -0.00071762959400758586 -0.0024995774335483524 0 -0.00063576300018006572 -0.0025337533155917039 0 0.00047584977422717356 -0.00073591906969989465 0 0.00041238716576138656 -0.00056325714568756147 0 0.00051572482081424541 -0.00065519371940101867 0 0.00040115854189354787 -0.0004620418731509045 0 0.00051572482081424541 -0.00065519371940101867 0 0.00041238716576138656 -0.00056325714568756147 0 -0.00031937205303335061 -0.00053057821841868589 0 -0.0003938118242633082 -0.00054063125533743703 0 -0.00029605855914202628 -0.00039199300487920981 0 -0.00039831071701862039 -0.00045828229430286481 0 -0.00029605855914202628 -0.00039199300487920981 0 -0.0003938118242633082 -0.00054063125533743703 0 0.00083557810797844619 -0.0028995794174704521 0 0.00090991525319454516 -0.0030290024058158226 0 0.00084240524934048246 -0.0030913545199440342 0 0.00032809386396203928 -0.00027348877227107717 0 0.00024413148951225294 -0.00017320468741842144 0 0.00041495989315793114 -0.00034044678165791759 0 0.00032809386396203928 -0.00027348877227107717 0 0.00014009025599436893 -9.6656089806695505e-05 0 0.00024413148951225294 -0.00017320468741842144 0 -0.00083876862632353843 -0.0028941969300157054 0 -0.00091027141931096533 -0.0030289507292094071 0 -0.00094477723819333414 -0.0029102729243935003 0 0.00083557810797844619 -0.0028995794174704521 0 0.00094455145745203303 -0.0029102581630159438 0 0.00090991525319454516 -0.0030290024058158226 0 -0.00033145480677933145 -0.00027766015433672395 0 -0.00024355345383026685 -0.00017266492128412651 0 -0.00014027808255601354 -9.7125909386764598e-05 0 -0.00033145480677933145 -0.00027766015433672395 0 -0.00041434751653980195 -0.00034067245432646548 0 -0.00024355345383026685 -0.00017266492128412649 0 -0.00083876862632353843 -0.0028941969300157054 0 -0.00084276919206183307 -0.0030913477236296965 0 -0.00091027141931096533 -0.0030289507292094071 0 0.0008319115771668118 -0.0017915051304533754 0 0.00090283037647369301 -0.0019326733410306377 0 0.00081540188039617707 -0.0019749397600494377 0 -0.00014114317408638548 -0.0028953547076853207 0 -0.00022971733640566024 -0.0030234746400406025 0 -0.00026678660655024853 -0.0028539590201480843 0 4.3128767194692179e-05 -0.00021489405769724805 0 4.4908325972788819e-05 -0.0001294812529197164 0 9.1721374832998446e-05 -0.000248428066378238 0 -0.00079954224923739427 -0.001379489836094334 0 -0.00084429551737314054 -0.0012735515585127069 0 -0.00074810798045008681 -0.0011872416464697305 0 0.00033237681961939439 -0.0019912525801030556 0 0.00031877018791548874 -0.0021772827094703887 0 0.00023929766177947608 -0.0020678750188737535 0 -0.00030830099459580059 -0.0020216554604095805 0 -0.00042636979953588125 -0.0020078775936698333 0 -0.00036492657468757542 -0.001873154267730979 0 0.00026376886139863406 -0.00097212132877826476 0 0.00036673451720665203 -0.0010093056354510016 0 0.00031906598146399525 -0.0011240223338854296 0 -0.00028487697894684328 -0.0010064170618893815 0 -0.00024906127187605327 -0.00082769033293718592 0 -0.00019643476081469268 -0.0009192557934025301 0 0.00099815383346541203 -0.0017740537126059029 0 0.0010068767435294764 -0.0019291647277213169 0 0.00092630007498205715 -0.0017946142856081501 0 -2.5362757664644545e-10 -1.1623135698059539e-07 0 1.0896460896891386e-08 -1.1124611790198208e-07 0 1.9267523316080815e-05 -9.0214839133060198e-05 0 -0.00010965030256376969 -0.0032338912502835036 0 -0.00021868534409848114 -0.0032340454087066424 0 -0.00013161704330434126 -0.0030819364526530339 0 -0.00096946304156324086 -0.0014733809796692468 0 -0.00094739157547450541 -0.0013259728580033898 0 -0.00089441533469792733 -0.0014216784124064623 0 0.00032839965693697389 -0.00026511665223990003 0 0.00041495989315793114 -0.00034044678165791759 0 0.00024413148951225294 -0.00017320468741842144 0 3.1101347569013008e-09 -9.679721295655013e-08 0 -0.00014027808255601354 -9.7125909386764598e-05 0 -0.00024355345383026685 -0.00017266492128412649 0 -3.6122942930732304e-09 -9.7214616790142983e-08 0 0.00024413148951225294 -0.00017320468741842144 0 0.00014009025599436895 -9.6656089806695532e-05 0 0.0010140413840098795 -0.0030540203403129048 0 0.00090991525319454516 -0.0030290024058158226 0 0.00094455145745203303 -0.0029102581630159438 0 0.00092162546520684226 -0.0032206664352710636 0 0.00084240524934048246 -0.0030913545199440346 0 0.00090991525319454516 -0.0030290024058158226 0 -0.0010143862081672414 -0.0030540461003783887 0 -0.00094477723819333414 -0.0029102729243935003 0 -0.00091027141931096533 -0.0030289507292094071 0 -0.00032805862101175628 -0.00026530506122212386 0 -0.00024355345383026685 -0.00017266492128412649 0 -0.00041434751653980195 -0.00034067245432646548 0 -0.0009219762565206048 -0.0032206491773804531 0 -0.00091027141931096533 -0.0030289507292094071 0 -0.00084276919206183307 -0.0030913477236296965 0 0.00010955033081123265 -0.0032340870895468761 0 0.00011629989955046422 -0.0030534516522961086 0 0.00020384151752269531 -0.0030908715744029291 0 -0.0009994713356159435 -0.0017738659753280279 0 -0.00091089068924192051 -0.0017704045745637919 0 -0.00093596243490701766 -0.0018999358805128926 0 0.00097066578882281762 -0.0014730028207799143 0 0.00088222285159248902 -0.0014394929300116275 0 0.00088330211765034171 -0.0013212948095396154 0 -3.9873719029330417e-09 -1.1154070945712655e-07 0 -1.8919590111573796e-05 -0.00011095085515413786 0 -2.8167923699614291e-05 -8.5262748710602249e-05 0 0.00040115854189354787 -0.0004620418731509045 0 0.00030206294891795075 -0.00040566230069566324 0 0.00028600449501353398 -0.00032157798006586508 0 -0.00039831071701862039 -0.00045828229430286481 0 -0.00051167185282508182 -0.00065703718176843891 0 -0.00050376800434534671 -0.00055391447097139738 0 0.00052008364954949022 -0.0025350185158765004 0 0.0005220040183675609 -0.0027627242282557839 0 0.00043734685878264609 -0.002694260440007245 0 -0.00063648198792548094 -0.0023496930497308739 0 -0.00076696521566528661 -0.002364699123067587 0 -0.0007294074255783607 -0.0022261758646632572 0 0.00047584977422717356 -0.00073591906969989465 0 0.00058080437648942598 -0.00078376906608739274 0 0.00060054839211376801 -0.00089478860321940594 0 -0.00031937205303335061 -0.00053057821841868589 0 -0.00023977451643557066 -0.00035997828652940085 0 -0.00021237033766568586 -0.00038337246558241218 0 7.5530499918234661e-05 -0.0028346277195258332 0 -2.7507865278143891e-05 -0.0028525602117420662 0 -5.1777177339157073e-06 -0.0026745957545801996 0 -0.0007951661390750627 -0.001689032184590973 0 -0.00079425941724982439 -0.0015393759669407271 0 -0.000701274337728849 -0.0015499129011738201 0 0.0007779337940626704 -0.0014662052754714154 0 0.00080005754412540095 -0.0016201412424045861 0 0.00070214570026405415 -0.0015652525802044043 0 -2.7358869092095018e-05 -0.00025883380717893961 0 9.6462362715371019e-06 -0.00024533725708049089 0 2.980844462365701e-06 -0.00037867387776510788 0 -0.00064491530412987322 -0.00081156765056956829 0 -0.00071174312248039055 -0.0009656867620353697 0 -0.00077319395271637436 -0.0009485836703206458 0 -0.00051221509105082422 -0.002854099217523132 0 -0.00041887658569390618 -0.0028901723428404209 0 -0.0004589988949943272 -0.0030485762099192975 0 0.00018597329780949365 -0.00025822789670373663 0 0.00013729622276631133 -0.00022741906715108192 0 8.3879090129904219e-05 -0.00011564266160133091 0 0.00081777799985299163 -0.0023529995553504546 0 0.00083724294462007647 -0.002209403074762078 0 0.00092147521513552175 -0.0022788216018744868 0 0.00060266334791258278 -0.0022596715021725284 0 0.00056932204862815969 -0.0021347461257723694 0 0.00065953591580802441 -0.0021229396430055714 0 -0.00046616741896286123 -0.0024762677234386465 0 -0.00039010220969078034 -0.002417314845848435 0 -0.00037682361421016307 -0.0025710847473852686 0 0.00030046844746436279 -0.00057607306128327541 0 0.00026135430432977432 -0.00061766738879014799 0 0.00021325412409273548 -0.00048007182803308767 0 -0.00047339666488071017 -0.00081375644122012609 0 -0.00047366536821869887 -0.00092552909228999706 0 -0.00056110222851992722 -0.00096760091944477226 0 0.00069982211652270512 -0.0026537766558982902 0 0.00072228576625936198 -0.0024605108859580439 0 0.00079243150813593287 -0.0025945657665093062 0 -0.00070009189847432122 -0.0026536990163198394 0 -0.0005835951959785665 -0.0026865985516448566 0 -0.00066204352473785816 -0.0028132479943176118 0 0.00035588649426203183 -0.0016929370665013292 0 0.00030581123087909976 -0.0015056800097812482 0 0.00042101819126817372 -0.0016061795318644914 0 0.00041811699148252077 -0.0014542407047443571 0 0.00042101819126817372 -0.0016061795318644914 0 0.00030581123087909976 -0.0015056800097812482 0 0.00060266334791258278 -0.0022596715021725284 0 0.00052014890676690202 -0.0022305360701071093 0 0.00056932204862815969 -0.0021347461257723694 0 -0.00046616741896286123 -0.0024762677234386465 0 -0.00045269174433298383 -0.0023377020165957921 0 -0.00039010220969078034 -0.002417314845848435 0 0.00030046844746436279 -0.00057607306128327541 0 0.00032647869872034883 -0.00070091119723185121 0 0.00026135430432977432 -0.00061766738879014799 0 -0.00047339666488071017 -0.00081375644122012609 0 -0.00040804914499005318 -0.00081794746335865566 0 -0.00047366536821869887 -0.00092552909228999706 0 0.00083557810797844619 -0.0028995794174704521 0 0.00084240524934048246 -0.0030913545199440342 0 0.00076986687244751226 -0.0030517052204796181 0 -0.00083876862632353843 -0.0028941969300157054 0 -0.00094477723819333414 -0.0029102729243935003 0 -0.00092330810018832049 -0.002783844786352976 0 0.00032809386396203928 -0.00027348877227107717 0 0.00041495989315793114 -0.00034044678165791759 0 0.00050496067524743939 -0.00045978079204231446 0 0.00083557810797844619 -0.0028995794174704521 0 0.00091151451323755954 -0.0027665056920210206 0 0.00094455145745203303 -0.0029102581630159438 0 0.00032809386396203928 -0.00027348877227107717 0 0.00015839503267645402 -0.00013610257584651355 0 0.00014009025599436895 -9.6656089806695532e-05 0 -0.00033145480677933145 -0.00027766015433672395 0 -0.00014027808255601354 -9.7125909386764598e-05 0 -0.00016874675831099727 -0.00014578586891925868 0 -0.00083876862632353843 -0.0028941969300157054 0 -0.00076028919488963182 -0.0030298506820015478 0 -0.00084276919206183307 -0.0030913477236296965 0 -0.00033145480677933145 -0.00027766015433672395 0 -0.00050018580155924139 -0.00045197319308903249 0 -0.00041434751653980195 -0.00034067245432646548 0 9.8686680597034714e-05 -0.0012128653011125503 0 9.0377708136246492e-05 -0.0010601897546033011 0 0.00019733712142767779 -0.0011092707139303307 0 -2.4974887812694256e-06 -0.0010336397927715451 0 9.0377708136246492e-05 -0.0010601897546033011 0 9.6092737325070598e-06 -0.0011568112682602898 0 0.00035588649426203183 -0.0016929370665013292 0 0.00033670950901630662 -0.0018244237689299227 0 0.00025611719468432475 -0.0016799317668732647 0 -9.7882686947478246e-08 -0.0024651035457132209 0 -5.1777177339157073e-06 -0.0026745957545801996 0 -7.5489074781741626e-05 -0.0025620430631769185 0 -0.00058438115866908105 -0.0015334046565897244 0 -0.000701274337728849 -0.0015499129011738201 0 -0.00063008439849602637 -0.001429905019713045 0 0.00058410783291458338 -0.0015334544361190906 0 0.00070214570026405415 -0.0015652525802044043 0 0.00064574217831601488 -0.0016588527133995447 0 -1.2627803716383572e-07 -0.00055052310647680115 0 2.980844462365701e-06 -0.00037867387776510788 0 4.2007738788314826e-05 -0.00046913097590260547 0 0.00043734685878264609 -0.002694260440007245 0 0.0005220040183675609 -0.0027627242282557839 0 0.0004442501358043879 -0.0028922820044476015 0 -0.0007294074255783607 -0.0022261758646632572 0 -0.00076696521566528661 -0.002364699123067587 0 -0.00083887933473040838 -0.0022490185755480153 0 0.00060054839211376801 -0.00089478860321940594 0 0.00058080437648942598 -0.00078376906608739274 0 0.00069680576441548219 -0.00092408951963585692 0 -0.00021237033766568586 -0.00038337246558241218 0 -0.00023977451643557066 -0.0003599782865294009 0 -0.00014706202813574351 -0.00023225140694079017 0 0.00052550247957885174 -0.0018799354708259411 0 0.00046760240068521652 -0.002051893367578867 0 0.00041838755936420615 -0.0018926769391302749 0 -0.00023176295089956988 -0.0023417599371310296 0 -0.00034552127532079009 -0.0022508504966324647 0 -0.00025026155040577521 -0.0021629105595153577 0 0.00016120658310905415 -0.00066551467526713927 0 0.00026031826157834161 -0.00076718836546145952 0 0.0001928702553525318 -0.00083191555144045918 0 -0.00047865837728136356 -0.0011626890186890346 0 -0.00039773540343977787 -0.00097765943347432422 0 -0.00037997988615109902 -0.0011394387377657272 0 0.00081777799985299163 -0.0023529995553504546 0 0.00072228576625936198 -0.0024605108859580439 0 0.00070526013604883938 -0.0023133085169114022 0 0.00018597329780949365 -0.00025822789670373663 0 0.00030206294891795075 -0.00040566230069566324 0 0.00025993412695013218 -0.00042357136249113794 0 -0.00051221509105082422 -0.002854099217523132 0 -0.0005835951959785665 -0.0026865985516448562 0 -0.00049360193636569991 -0.002653748012097978 0 -0.00064491530412987322 -0.00081156765056956829 0 -0.00051167185282508182 -0.00065703718176843891 0 -0.0005517251001640925 -0.00079698428748165126 0 0.00024545201382506892 -0.0018667174178116366 0 0.00016304787048035993 -0.0017780304637702528 0 0.00025611719468432475 -0.0016799317668732647 0 -0.00013929718601969724 -0.0016621191845800978 0 -0.00021519065473395759 -0.0016064477643232388 0 -0.00010066655125761988 -0.0015321280213779001 0 -0.00018973270452637533 -0.0014522166118345187 0 -0.00010066655125761988 -0.0015321280213779001 0 -0.00021519065473395759 -0.0016064477643232388 0 -0.00012491919536581795 -0.0020655358489915757 0 -0.0002077559085765703 -0.0020326314404857065 0 -9.8752740206159786e-05 -0.0019274684886481435 0 -0.00020489937390547598 -0.0018903997081686779 0 -9.8752740206159786e-05 -0.0019274684886481435 0 -0.0002077559085765703 -0.0020326314404857065 0 0.00064819241944956982 -0.00079858774404918318 0 0.00051572482081424541 -0.00065519371940101867 0 0.00058882925478204173 -0.00066708708797532236 0 -0.00018049676188471863 -0.00024394549942177233 0 -0.00029605855914202628 -0.00039199300487920981 0 -0.00021477893522371935 -0.00025368938083643084 0 -0.00018973270452637533 -0.0014522166118345187 0 -0.00030127066121423432 -0.0015313045390874722 0 -0.00025446102917702998 -0.0013441090535819345 0 0.00053570638560482026 -0.0032319082157672356 0 0.00047057621592604907 -0.0030657326520845923 0 0.00059212761159559298 -0.0030512729288318862 0 -0.0010172835528653554 -0.0024045180638739938 0 -0.0009309086600017781 -0.0022982094804372484 0 -0.00092382019962898706 -0.002489472531395147 0 0.00081402702394052593 -0.00089986445970585617 0 0.00077242709667789248 -0.00093615332625267039 0 0.00069928011339109506 -0.00077127805738299129 0 -1.8316236608748804e-08 -1.1086916498506471e-07 0 -8.0680675332244045e-05 -0.00010916450501055315 0 -0.00011055838284905519 -0.00012324557241632589 0 0.0008319115771668118 -0.0017915051304533754 0 0.00092630007498205715 -0.0017946142856081501 0 0.00090283037647369301 -0.0019326733410306377 0 4.3128767194692179e-05 -0.00021489405769724805 0 1.9267523316080818e-05 -9.0214839133060184e-05 0 4.4908325972788819e-05 -0.0001294812529197164 0 -0.00014114317408638548 -0.0028953547076853207 0 -0.00013161704330434126 -0.0030819364526530339 0 -0.00022971733640566021 -0.0030234746400406025 0 -0.00079954224923739427 -0.001379489836094334 0 -0.00089441533469792733 -0.0014216784124064623 0 -0.00084429551737314054 -0.0012735515585127069 0 -0.00020489937390547598 -0.0018903997081686779 0 -0.00020742046873095991 -0.0017521341956269053 0 -0.00010858150881554103 -0.001776409915502257 0 -0.00012551301443147246 -0.0010002641141492164 0 -0.00011895255523521907 -0.00081585281249164151 0 -5.0051419696252658e-05 -0.00093401095981444958 0 -2.7987651223659232e-05 -0.00079233387234574229 0 -5.0051419696252658e-05 -0.00093401095981444958 0 -0.00011895255523521906 -0.00081585281249164151 0 0.00032600204584999691 -0.0032334879250626382 0 0.00021842857033395278 -0.0032339846146850239 0 0.00030005604230864117 -0.0030804283613571817 0 -0.0010123703433513784 -0.0020860517238803491 0 -0.0010070676050450505 -0.0019289358186479701 0 -0.00093512391559713039 -0.0020403391275231855 0 0.00091462593926243635 -0.001181050712715922 0 0.00094670046205923319 -0.0013256234275734996 0 0.00085273150787353329 -0.0011845738496739802 0 -1.6903545623731671e-08 -1.1255065132478055e-07 0 -7.5748393058198956e-09 -1.1368985832231498e-07 0 -4.3942250690587071e-05 -9.1430917686701515e-05 0 0.00052008364954949022 -0.0025350185158765004 0 0.00053963769538381079 -0.0023514497904583735 0 0.00061621181589071401 -0.0024052172559305756 0 -0.00063648198792548094 -0.0023496930497308739 0 -0.00052553156070005906 -0.0023739097228555029 0 -0.00055508495025974021 -0.0025033367405994655 0 0.00047584977422717356 -0.00073591906969989465 0 0.0003753504323028477 -0.00068209183760251698 0 0.00035576004370416978 -0.00056281133560690162 0 -0.00031937205303335061 -0.00053057821841868589 0 -0.00039335801017367734 -0.00070784365950924473 0 -0.00044144514301909337 -0.00067217598619521588 0 0.00032839965693697389 -0.00026511665223990003 0 0.00024413148951225294 -0.00017320468741842144 0 0.00015003053581520094 -0.00010940014951181903 0 3.1101347569013008e-09 -9.679721295655013e-08 0 -0.00024355345383026685 -0.00017266492128412649 0 -0.00014965692013832119 -0.00010924836085302034 0 -3.6122942930732304e-09 -9.7214616790142983e-08 0 0.00015003053581520094 -0.00010940014951181903 0 0.00024413148951225294 -0.00017320468741842144 0 -0.00032805862101175628 -0.00026530506122212386 0 -0.00014965692013832119 -0.00010924836085302034 0 -0.00024355345383026685 -0.00017266492128412649 0 0.0010140413840098795 -0.0030540203403129048 0 0.00095561869862227265 -0.0031132342746529916 0 0.00090991525319454516 -0.0030290024058158226 0 0.00092162546520684226 -0.0032206664352710636 0 0.00090991525319454516 -0.0030290024058158226 0 0.00095561869862227265 -0.0031132342746529916 0 -0.0009219762565206048 -0.0032206491773804531 0 -0.00095930898149534927 -0.0031193940017570023 0 -0.00091027141931096533 -0.0030289507292094071 0 -0.0010143862081672414 -0.0030540461003783887 0 -0.00091027141931096533 -0.0030289507292094071 0 -0.00095930898149534927 -0.0031193940017570023 0 0.00083557810797844619 -0.0028995794174704521 0 0.00081642049029769328 -0.0027374466918698047 0 0.00091151451323755954 -0.002766505692021021 0 -0.00083876862632353843 -0.0028941969300157054 0 -0.00074564872932443181 -0.0028580681141065034 0 -0.00076028919488963182 -0.0030298506820015478 0 0.00087097643887149414 -0.0026234234465059331 0 0.00091151451323755954 -0.002766505692021021 0 0.00081642049029769328 -0.0027374466918698047 0 0.00056612566354337357 -0.0005754377591032767 0 0.00044183823481384031 -0.00043108740118546281 0 0.00050496067524743939 -0.00045978079204231446 0 -0.00067633752739786035 -0.0029543053062839188 0 -0.00076028919488963182 -0.0030298506820015478 0 -0.00074564872932443181 -0.0028580681141065034 0 -0.00019626050704702527 -0.00019642219107532749 0 -0.000305258571627712 -0.00029619689836860312 0 -0.00016874675831099727 -0.00014578586891925868 0 0.00032809386396203928 -0.00027348877227107717 0 0.00050496067524743939 -0.00045978079204231446 0 0.00044183823481384031 -0.00043108740118546281 0 -0.00033145480677933145 -0.00027766015433672395 0 -0.00016874675831099727 -0.00014578586891925868 0 -0.000305258571627712 -0.00029619689836860312 0 0.00015904844556598408 -0.0016334252801489782 0 0.00025611719468432475 -0.0016799317668732647 0 0.00016304787048035993 -0.0017780304637702528 0 0.00019733712142767779 -0.0011092707139303307 0 9.0377708136246492e-05 -0.0010601897546033011 0 0.00017648938142116993 -0.00095770855199216339 0 -0.00024897944339884458 -0.0025474871714341921 0 -0.00037682361421016307 -0.0025710847473852686 0 -0.00031153969393159377 -0.0024605033755481214 0 0.00064515101391484221 -0.0019226407095263018 0 0.00065953591580802441 -0.002122939643005571 0 0.00059556897967032575 -0.0020131491524027537 0 -0.00058868784782034286 -0.0011623508313211692 0 -0.00056110222851992722 -0.00096760091944477226 0 -0.00052263992343056821 -0.0010534498827694078 0 0.00014284322945635675 -0.00048945105314884146 0 0.00021325412409273548 -0.00048007182803308767 0 0.00019676426121242305 -0.00056865145205267783 0 -0.00021194758214239373 -0.0012067334306626865 0 -0.00025446102917702998 -0.0013441090535819345 0 -0.00028711981721966663 -0.0011595964840387446 0 -0.0003388515317879548 -0.0012952837314674981 0 -0.00028711981721966663 -0.0011595964840387446 0 -0.00025446102917702998 -0.0013441090535819345 0 -0.00020489937390547598 -0.0018903997081686779 0 -0.0002077559085765703 -0.0020326314404857061 0 -0.00030830099459580059 -0.0020216554604095805 0 7.5530499918234661e-05 -0.0028346277195258332 0 -5.1777177339157073e-06 -0.0026745957545801996 0 8.9211727723093994e-05 -0.0026866496005691185 0 -0.0007951661390750627 -0.001689032184590973 0 -0.0007012743377288489 -0.0015499129011738201 0 -0.00071580878125435175 -0.0016930251742301441 0 0.0007779337940626704 -0.0014662052754714154 0 0.00070214570026405415 -0.0015652525802044045 0 0.00069607557243921245 -0.0014253171858008287 0 -2.7358869092095018e-05 -0.00025883380717893961 0 2.9808444623657108e-06 -0.00037867387776510788 0 -4.0756878755360647e-05 -0.00037189850083005062 0 -0.0002814772483602277 -0.0018585187566015344 0 -0.00020489937390547598 -0.0018903997081686779 0 -0.00030830099459580059 -0.0020216554604095805 0 0.00033237681961939439 -0.0019912525801030556 0 0.00046760240068521652 -0.002051893367578867 0 0.00038679189188692476 -0.0021209053116913457 0 -0.00030830099459580059 -0.0020216554604095805 0 -0.00034552127532079009 -0.0022508504966324647 0 -0.00038799197671928121 -0.0021144514128216304 0 0.00026376886139863406 -0.00097212132877826476 0 0.00026031826157834167 -0.00076718836546145952 0 0.00031784575671589408 -0.0008985217489585125 0 -0.00028487697894684328 -0.0010064170618893815 0 -0.00039773540343977787 -0.00097765943347432422 0 -0.00031452640346891938 -0.00089246832592956317 0 0.00052008364954949022 -0.0025350185158765004 0 0.00043734685878264609 -0.002694260440007245 0 0.00043386178442390963 -0.0025344131213144339 0 -0.00063648198792548094 -0.0023496930497308739 0 -0.0007294074255783607 -0.0022261758646632572 0 -0.00063735297585240614 -0.0022115377203412397 0 0.00047584977422717356 -0.00073591906969989465 0 0.00060054839211376801 -0.00089478860321940594 0 0.0005182462943365987 -0.00087207645818961879 0 -0.00031937205303335061 -0.00053057821841868589 0 -0.00021237033766568586 -0.00038337246558241218 0 -0.00026147788938456554 -0.00052115416518868285 0 -0.00012551301443147246 -0.0010002641141492164 0 -0.00013980447346074979 -0.0011578984415180568 0 -0.00020772336958166878 -0.0010755870688807321 0 0.00052008364954949022 -0.0025350185158765004 0 0.00060750059771624918 -0.0026789970428287234 0 0.0005220040183675609 -0.0027627242282557839 0 -0.00063648198792548094 -0.0023496930497308739 0 -0.00071762959400758586 -0.0024995774335483524 0 -0.00076696521566528661 -0.002364699123067587 0 0.00047584977422717356 -0.00073591906969989465 0 0.00051572482081424541 -0.00065519371940101867 0 0.00058080437648942598 -0.00078376906608739274 0 -0.00031937205303335061 -0.00053057821841868589 0 -0.00029605855914202628 -0.00039199300487920981 0 -0.00023977451643557066 -0.0003599782865294009 0 0.00014439610779893217 -0.0019613574627980932 0 0.00016304787048035993 -0.0017780304637702528 0 0.00024545201382506892 -0.0018667174178116366 0 0.00073164128776759794 -0.0020231028440999737 0 0.00075339313610150733 -0.0022051389954631569 0 0.00065953591580802441 -0.0021229396430055714 0 0.00014240172298840651 -0.00036920934401318297 0 0.00018959669529152037 -0.00034576899865788278 0 0.00021325412409273548 -0.00048007182803308767 0 -0.00030660430592143525 -0.0026993207157013374 0 -0.00042238947443926301 -0.0027370564979705666 0 -0.00037682361421016307 -0.0025710847473852686 0 -0.00065411539991852715 -0.0010982876390528322 0 -0.00063014208841381987 -0.00092660445163165106 0 -0.00056110222851992722 -0.00096760091944477226 0 -0.00063648198792548094 -0.0023496930497308739 0 -0.00055508495025974021 -0.0025033367405994655 0 -0.00063576300018006572 -0.0025337533155917039 0 0.00052008364954949022 -0.0025350185158765004 0 0.00061621181589071401 -0.0024052172559305756 0 0.00063111079935749994 -0.0025407612532111351 0 -0.00031937205303335061 -0.00053057821841868589 0 -0.00044144514301909331 -0.00067217598619521588 0 -0.0003938118242633082 -0.00054063125533743703 0 0.00047584977422717356 -0.00073591906969989465 0 0.00035576004370416978 -0.00056281133560690162 0 0.00041238716576138656 -0.00056325714568756147 0 2.5704939344175574e-05 -0.0019713181103724014 0 -4.8309854461322912e-05 -0.0020577112416260363 0 -9.8752740206159786e-05 -0.0019274684886481435 0 9.8686680597034714e-05 -0.0012128653011125503 0 0.00019733712142767779 -0.0011092707139303307 0 0.00019010695896400147 -0.0012754977465814651 0 0.00028398391120773879 -0.0012604284336386565 0 0.00019010695896400147 -0.0012754977465814651 0 0.00019733712142767779 -0.0011092707139303307 0 0.00044162969081066862 -0.0022113787482080593 0 0.00046760240068521652 -0.002051893367578867 0 0.00052014890676690202 -0.0022305360701071098 0 -0.00044414508751322026 -0.0022078039384471021 0 -0.00034552127532079009 -0.0022508504966324647 0 -0.00045269174433298383 -0.0023377020165957921 0 0.00056932204862815969 -0.0021347461257723694 0 0.00052014890676690202 -0.0022305360701071098 0 0.00046760240068521652 -0.002051893367578867 0 -0.00039010220969078034 -0.002417314845848435 0 -0.00045269174433298383 -0.0023377020165957921 0 -0.00034552127532079009 -0.0022508504966324647 0 0.00034811318202790495 -0.00082107105003728393 0 0.00026031826157834167 -0.00076718836546145952 0 0.00032647869872034878 -0.00070091119723185121 0 -0.0003448733760584076 -0.00081751197690913251 0 -0.00039773540343977787 -0.00097765943347432422 0 -0.00040804914499005318 -0.00081794746335865566 0 0.00026135430432977432 -0.00061766738879014799 0 0.00032647869872034878 -0.00070091119723185121 0 0.00026031826157834167 -0.00076718836546145952 0 -0.00047366536821869887 -0.00092552909228999706 0 -0.00040804914499005318 -0.00081794746335865566 0 -0.00039773540343977787 -0.00097765943347432422 0 0.00052177265304094022 -0.0029207907886148114 0 0.0004442501358043879 -0.0028922820044476015 0 0.0005220040183675609 -0.0027627242282557839 0 -0.00085389990006651663 -0.002371956297737168 0 -0.00083887933473040838 -0.0022490185755480153 0 -0.00076696521566528661 -0.002364699123067587 0 0.00064819241944956982 -0.00079858774404918318 0 0.00069680576441548219 -0.00092408951963585692 0 0.00058080437648942598 -0.00078376906608739274 0 -0.00018049676188471863 -0.00024394549942177233 0 -0.00014706202813574351 -0.00023225140694079017 0 -0.00023977451643557066 -0.0003599782865294009 0 0.00021670452336496285 -0.0023399569087997471 0 0.00031230123445110167 -0.0023414473764995503 0 0.00026199638172969778 -0.0025211998437619692 0 0.00036863076389383057 -0.0024639263542833132 0 0.00026199638172969778 -0.0025211998437619692 0 0.00031230123445110167 -0.0023414473764995503 0 -0.00052409894353463559 -0.0018569354020366723 0 -0.00052559661058517977 -0.0020068642382714426 0 -0.0006307882689001391 -0.0019408811799912348 0 -0.0005973970258219076 -0.0021037857635544054 0 -0.0006307882689001391 -0.0019408811799912348 0 -0.00052559661058517977 -0.0020068642382714426 0 0.00048066523772347119 -0.0011854773559459545 0 0.00045795676089037933 -0.0010366646297620765 0 0.00057076892629267845 -0.0011381690074824707 0 0.00050639663038415665 -0.00096472593399007619 0 0.00057076892629267845 -0.0011381690074824707 0 0.00045795676089037933 -0.0010366646297620765 0 -0.00015168193732751343 -0.00066760469524764865 0 -0.0002192865364825691 -0.00067554428957653791 0 -0.0001553622864042125 -0.00051181051916481348 0 -0.00023609543030799103 -0.00057333811009465535 0 -0.0001553622864042125 -0.00051181051916481348 0 -0.0002192865364825691 -0.00067554428957653791 0 0.00088415783390565904 -0.0021001658286942822 0 0.00090283037647369301 -0.0019326733410306377 0 0.00095350081716247183 -0.0020379981002981796 0 8.292832315869806e-05 -0.00015985135645983075 0 4.4908325972788819e-05 -0.0001294812529197164 0 3.3020992867567011e-05 -6.8236464028547915e-05 0 -0.00034413308847351822 -0.0029799635226204629 0 -0.00022971733640566021 -0.0030234746400406025 0 -0.00029763653978501274 -0.0031178505277583497 0 -0.00078849591518216015 -0.0010987927901266719 0 -0.00084429551737314054 -0.0012735515585127069 0 -0.00087101932780387942 -0.0011960508961184704 0 0.00033237681961939439 -0.0019912525801030556 0 0.00038679189188692476 -0.0021209053116913457 0 0.00031877018791548874 -0.0021772827094703887 0 -0.00030830099459580059 -0.0020216554604095805 0 -0.00038799197671928121 -0.0021144514128216304 0 -0.00042636979953588125 -0.0020078775936698333 0 0.00026376886139863406 -0.00097212132877826476 0 0.00031784575671589408 -0.0008985217489585125 0 0.00036673451720665203 -0.0010093056354510016 0 -0.00028487697894684328 -0.0010064170618893815 0 -0.00031452640346891938 -0.00089246832592956317 0 -0.00024906127187605327 -0.00082769033293718592 0 0.00052008364954949022 -0.0025350185158765004 0 0.00046131378140864735 -0.0023741360069307448 0 0.00053963769538381079 -0.0023514497904583735 0 -0.00063648198792548094 -0.0023496930497308739 0 -0.00054252961042616571 -0.0022464852120411892 0 -0.00052553156070005906 -0.0023739097228555029 0 0.00047584977422717356 -0.00073591906969989465 0 0.00042310286846966691 -0.00080747102361566404 0 0.0003753504323028477 -0.00068209183760251709 0 -0.00031937205303335061 -0.00053057821841868589 0 -0.00032395055303294093 -0.00066750136162012244 0 -0.00039335801017367734 -0.00070784365950924473 0 -0.00013929718601969724 -0.0016621191845800978 0 -0.00010858150881554105 -0.001776409915502257 0 -0.00020742046873095991 -0.0017521341956269053 0 -7.5748393058198956e-09 -1.1368985832231498e-07 0 -3.9873719029330417e-09 -1.1154070945712655e-07 0 -2.8167923699614291e-05 -8.5262748710602249e-05 0 0.00094670046205923319 -0.0013256234275734996 0 0.00097066578882281762 -0.0014730028207799143 0 0.00088330211765034171 -0.0013212948095396154 0 -0.0010070676050450505 -0.0019289358186479701 0 -0.0009994713356159435 -0.0017738659753280279 0 -0.00093596243490701766 -0.0018999358805128926 0 0.00021842857033395278 -0.0032339846146850239 0 0.00010955033081123265 -0.0032340870895468761 0 0.00020384151752269531 -0.0030908715744029291 0 0.00032839965693697389 -0.00026511665223990003 0 0.00050358573887834249 -0.00044879297543861909 0 0.00041495989315793114 -0.00034044678165791759 0 3.1101347569013008e-09 -9.679721295655013e-08 0 -5.6498650694447707e-08 -1.3883495983341562e-07 0 -0.00014027808255601354 -9.7125909386764598e-05 0 0.00092162546520684226 -0.0032206664352710636 0 0.00082896150359351576 -0.0032245222466886435 0 0.00084240524934048246 -0.0030913545199440342 0 -0.0010143862081672414 -0.0030540461003783887 0 -0.0010156844355977076 -0.0028911657868705603 0 -0.00094477723819333414 -0.0029102729243935003 0 0.0010154388355102422 -0.0028911720269435208 0 0.0010140413840098795 -0.0030540203403129048 0 0.00094455145745203303 -0.0029102581630159438 0 5.6502495221708016e-08 -1.3753285868308422e-07 0 -3.6122942930732304e-09 -9.7214616790142983e-08 0 0.00014009025599436895 -9.6656089806695532e-05 0 -0.00082927854932373464 -0.0032245361144812414 0 -0.0009219762565206048 -0.0032206491773804531 0 -0.00084276919206183307 -0.0030913477236296965 0 -0.00050303353706446588 -0.00044911767985788816 0 -0.00032805862101175628 -0.00026530506122212386 0 -0.00041434751653980195 -0.00034067245432646548 0 0.00081777799985299163 -0.0023529995553504546 0 0.00070526013604883938 -0.0023133085169114022 0 0.00075339313610150733 -0.0022051389954631569 0 0.00018597329780949365 -0.00025822789670373663 0 0.00025993412695013218 -0.00042357136249113794 0 0.00018959669529152037 -0.00034576899865788278 0 -0.00051221509105082422 -0.002854099217523132 0 -0.00049360193636569991 -0.002653748012097978 0 -0.00042238947443926301 -0.0027370564979705666 0 -0.00064491530412987322 -0.00081156765056956829 0 -0.0005517251001640925 -0.00079698428748165126 0 -0.00063014208841381987 -0.00092660445163165106 0 3.2754941160046258e-05 -0.0021721033844434912 0 9.8708857228894725e-05 -0.002349214783470205 0 -2.0710518349611707e-05 -0.0023147954143279406 0 -0.00041736898741868961 -0.0015572038261573871 0 -0.00052534663704352307 -0.0016739032456828404 0 -0.00049602630266729118 -0.0014865650563847443 0 0.00041811699148252077 -0.0014542407047443571 0 0.00050651917105496 -0.001369010489113613 0 0.00050037487900509673 -0.0015422055732282811 0 -2.7987651223659232e-05 -0.00079233387234574229 0 -6.7619938303043503e-05 -0.00065134417182847884 0 1.1088242345626022e-05 -0.00067806393613973855 0 0.00035588649426203183 -0.0016929370665013292 0 0.00025611719468432475 -0.0016799317668732647 0 0.00030581123087909976 -0.0015056800097812482 0 0.00010584111717060474 -0.00091317948084497524 0 0.00017648938142116993 -0.00095770855199216339 0 9.0377708136246492e-05 -0.0010601897546033011 0 -0.00018973270452637533 -0.0014522166118345187 0 -0.00015739371794878083 -0.0013006024608586968 0 -8.0537162651952025e-05 -0.0013866111737877895 0 0.00030636439515921714 -0.0026992787545611365 0 0.00026199638172969784 -0.0025211998437619692 0 0.00037026015446239906 -0.0026046644165424308 0 -0.00073188544954162565 -0.0020230798295759259 0 -0.00063078826890013899 -0.0019408811799912348 0 -0.00067874723400262668 -0.0021153152330895199 0 0.00065382580748447709 -0.0010988483875130216 0 0.00057076892629267845 -0.0011381690074824707 0 0.00058124314893628665 -0.00098307335046981473 0 -0.00014239399299794192 -0.00036836031206518227 0 -0.00015536228640421247 -0.00051181051916481348 0 -0.00020129512926234282 -0.00045251766563225227 0 0.00021842857033395278 -0.0032339846146850239 0 0.00020384151752269531 -0.0030908715744029291 0 0.00030005604230864117 -0.0030804283613571817 0 -0.0010070676050450505 -0.0019289358186479701 0 -0.00093596243490701766 -0.0018999358805128926 0 -0.00093512391559713039 -0.0020403391275231855 0 0.00094670046205923319 -0.0013256234275734996 0 0.00088330211765034171 -0.0013212948095396154 0 0.00085273150787353329 -0.0011845738496739802 0 -7.5748393058198956e-09 -1.1368985832231498e-07 0 -2.8167923699614291e-05 -8.5262748710602249e-05 0 -4.3942250690587071e-05 -9.1430917686701515e-05 0 0.00033237681961939439 -0.0019912525801030556 0 0.00024545201382506892 -0.0018667174178116366 0 0.00033670950901630662 -0.0018244237689299227 0 0.00026376886139863406 -0.00097212132877826476 0 0.00019733712142767779 -0.0011092707139303307 0 0.00017648938142116993 -0.00095770855199216339 0 0.00014439610779893217 -0.0019613574627980932 0 0.00023929766177947608 -0.0020678750188737535 0 0.00015570475577004548 -0.0021727649237159286 0 -0.00030330210290034556 -0.0017257442020394886 0 -0.00036492657468757542 -0.001873154267730979 0 -0.00042138079319486153 -0.0017446367060820116 0 0.00028398391120773879 -0.0012604284336386565 0 0.00031906598146399525 -0.0011240223338854296 0 0.00039589656731161979 -0.0012669492228001777 0 -0.00012551301443147246 -0.0010002641141492164 0 -0.00019643476081469268 -0.0009192557934025301 0 -0.00011895255523521906 -0.00081585281249164151 0 1.0896460896891386e-08 -1.1124611790198208e-07 0 3.3020992867567011e-05 -6.8236464028547915e-05 0 4.4908325972788819e-05 -0.0001294812529197164 0 0.0010068767435294764 -0.0019291647277213169 0 0.00095350081716247183 -0.0020379981002981796 0 0.00090283037647369301 -0.0019326733410306377 0 -0.00094739157547450541 -0.0013259728580033898 0 -0.00087101932780387942 -0.0011960508961184704 0 -0.00084429551737314054 -0.0012735515585127069 0 -0.00021868534409848114 -0.0032340454087066424 0 -0.00029763653978501274 -0.0031178505277583497 0 -0.00022971733640566021 -0.0030234746400406025 0 -9.7882686947478246e-08 -0.0024651035457132209 0 -2.0710518349611707e-05 -0.0023147954143279406 0 9.8708857228894725e-05 -0.002349214783470205 0 -0.00058438115866908105 -0.0015334046565897244 0 -0.00049602630266729118 -0.0014865650563847443 0 -0.00052534663704352307 -0.0016739032456828404 0 0.00058410783291458338 -0.0015334544361190906 0 0.00050037487900509673 -0.0015422055732282811 0 0.00050651917105496 -0.001369010489113613 0 -1.2627803716383572e-07 -0.00055052310647680115 0 1.1088242345626022e-05 -0.00067806393613973855 0 -6.7619938303043503e-05 -0.00065134417182847884 0 -0.00023176295089956988 -0.0023417599371310296 0 -0.00014815356604141273 -0.002466477693845239 0 -0.00024897944339884458 -0.0025474871714341921 0 -0.00047865837728136356 -0.0011626890186890346 0 -0.00056486835865452313 -0.0013068591648439003 0 -0.00058868784782034286 -0.0011623508313211692 0 0.00052550247957885174 -0.0018799354708259411 0 0.00059564728212672133 -0.0017604725517049911 0 0.00064515101391484221 -0.0019226407095263018 0 0.00016120658310905415 -0.00066551467526713927 0 9.1273634497124564e-05 -0.00055053330961444354 0 0.00014284322945635675 -0.00048945105314884146 0 0.00060266334791258278 -0.0022596715021725284 0 0.00053963769538381079 -0.0023514497904583735 0 0.00052014890676690202 -0.0022305360701071098 0 -0.00046616741896286123 -0.0024762677234386465 0 -0.00052553156070005906 -0.0023739097228555029 0 -0.00045269174433298383 -0.0023377020165957921 0 0.00030046844746436279 -0.00057607306128327541 0 0.0003753504323028477 -0.00068209183760251709 0 0.00032647869872034878 -0.00070091119723185121 0 -0.00047339666488071017 -0.00081375644122012609 0 -0.00039335801017367734 -0.00070784365950924463 0 -0.00040804914499005318 -0.00081794746335865566 0 -1.785046178096939e-05 -0.0017953419927956235 0 6.6672621220429591e-05 -0.001664638647084221 0 7.7458522937074275e-05 -0.0018347102554347715 0 -0.00018973270452637533 -0.0014522166118345187 0 -8.0537162651952011e-05 -0.0013866111737877895 0 -0.00010066655125761988 -0.0015321280213779001 0 0.00036863076389383057 -0.0024639263542833132 0 0.00037026015446239906 -0.0026046644165424308 0 0.00026199638172969778 -0.0025211998437619692 0 -0.0005973970258219076 -0.0021037857635544054 0 -0.00067874723400262668 -0.0021153152330895199 0 -0.0006307882689001391 -0.0019408811799912348 0 0.00050639663038415665 -0.00096472593399007619 0 0.00058124314893628665 -0.00098307335046981473 0 0.00057076892629267845 -0.0011381690074824707 0 -0.00023609543030799103 -0.00057333811009465535 0 -0.00020129512926234282 -0.00045251766563225227 0 -0.0001553622864042125 -0.00051181051916481348 0 0.00040115854189354787 -0.0004620418731509045 0 0.000502803909550045 -0.00055369701247446235 0 0.00051572482081424541 -0.00065519371940101867 0 -0.00039831071701862039 -0.00045828229430286481 0 -0.00028701828272606142 -0.00032361327845084999 0 -0.00029605855914202628 -0.00039199300487920981 0 0.00018823732686864023 -0.0014192985983592572 0 0.00026162413928400649 -0.0013675207955700687 0 0.00030581123087909976 -0.0015056800097812482 0 0.00020516894634246702 -0.0015495442069785709 0 0.00018823732686864023 -0.0014192985983592572 0 0.00030581123087909976 -0.0015056800097812482 0 7.5530499918234661e-05 -0.0028346277195258332 0 8.9211727723093994e-05 -0.0026866496005691185 0 0.00018187034582538582 -0.0027813276164610308 0 0.00014913482567013132 -0.0025983299903404511 0 0.00018187034582538582 -0.0027813276164610308 0 8.9211727723093994e-05 -0.0026866496005691185 0 -0.0007951661390750627 -0.001689032184590973 0 -0.00071580878125435175 -0.0016930251742301441 0 -0.00077351164636918501 -0.0018417099943480626 0 -0.00067068786681993636 -0.001774524000313837 0 -0.00077351164636918501 -0.0018417099943480626 0 -0.00071580878125435175 -0.0016930251742301441 0 0.0007779337940626704 -0.0014662052754714154 0 0.00069607557243921245 -0.0014253171858008287 0 0.00073085762849894279 -0.0013007707840948235 0 0.00063775110065756213 -0.0013224383790439026 0 0.00073085762849894279 -0.0013007707840948235 0 0.00069607557243921245 -0.0014253171858008287 0 -2.7358869092095018e-05 -0.00025883380717893961 0 -4.0756878755360647e-05 -0.00037189850083005062 0 -7.2797218805651482e-05 -0.00029977145530436203 0 -7.8743018328916484e-05 -0.00044254424564487278 0 -7.2797218805651496e-05 -0.00029977145530436203 0 -4.0756878755360647e-05 -0.00037189850083005062 0 0.00043734685878264609 -0.002694260440007245 0 0.0004442501358043879 -0.0028922820044476015 0 0.00036934137083507703 -0.002820057187382648 0 -0.0007294074255783607 -0.0022261758646632572 0 -0.00083887933473040838 -0.0022490185755480153 0 -0.00079912070656335368 -0.0021285751485539592 0 0.00060054839211376801 -0.00089478860321940594 0 0.00069680576441548219 -0.00092408951963585692 0 0.00069599674063504737 -0.0010252139815051242 0 -0.00021237033766568586 -0.00038337246558241218 0 -0.00014706202813574349 -0.00023225140694079017 0 -0.00013944388454247071 -0.00027811543970182926 0 0.00072228576625936198 -0.0024605108859580439 0 0.00061621181589071401 -0.0024052172559305756 0 0.00070526013604883938 -0.0023133085169114022 0 -0.0005835951959785665 -0.0026865985516448566 0 -0.00055508495025974021 -0.0025033367405994655 0 -0.00049360193636569991 -0.002653748012097978 0 0.00030206294891795075 -0.00040566230069566324 0 0.00035576004370416978 -0.00056281133560690162 0 0.00025993412695013218 -0.00042357136249113794 0 -0.00051167185282508182 -0.00065703718176843891 0 -0.00044144514301909337 -0.00067217598619521588 0 -0.0005517251001640925 -0.00079698428748165126 0 0.00064819241944956982 -0.00079858774404918318 0 0.00058080437648942598 -0.00078376906608739274 0 0.00051572482081424541 -0.00065519371940101867 0 -0.00018049676188471863 -0.00024394549942177233 0 -0.00023977451643557066 -0.0003599782865294009 0 -0.00029605855914202628 -0.00039199300487920981 0 -5.1777177339157073e-06 -0.0026745957545801996 0 -0.00010263317818418182 -0.0027293683033297535 0 -7.5489074781741626e-05 -0.0025620430631769185 0 -0.000701274337728849 -0.0015499129011738201 0 -0.00071804309670897397 -0.001411127218155873 0 -0.00063008439849602637 -0.001429905019713045 0 0.00070214570026405415 -0.0015652525802044043 0 0.00074046415273485561 -0.0017175660344346366 0 0.00064574217831601488 -0.0016588527133995447 0 2.980844462365701e-06 -0.00037867387776510788 0 4.5364525192555794e-05 -0.00033710704912907213 0 4.2007738788314826e-05 -0.00046913097590260547 0 3.2754941160046258e-05 -0.0021721033844434912 0 -4.8309854461322912e-05 -0.0020577112416260363 0 2.5704939344175574e-05 -0.0019713181103724014 0 -0.00041736898741868961 -0.0015572038261573871 0 -0.00034577449448958218 -0.0014234923801999847 0 -0.00030127066121423432 -0.0015313045390874722 0 0.00022599456526620551 -0.002657198153613117 0 0.00030636439515921714 -0.0026992787545611365 0 0.00027365523631494221 -0.0028103586798188798 0 -0.00070667362664470607 -0.0018968963871180712 0 -0.00073188544954162565 -0.0020230798295759259 0 -0.00079211032416961298 -0.0019822074324747771 0 0.00065351958899889369 -0.0012142206488977372 0 0.00065382580748447709 -0.0010988483875130216 0 0.00072311839548195775 -0.0011685643457610545 0 -0.00011018293587020263 -0.00039798961014512839 0 -0.00014239399299794192 -0.00036836031206518227 0 -0.00010358926913830158 -0.00028118915843970189 0 0.00041811699148252077 -0.0014542407047443571 0 0.00030581123087909971 -0.0015056800097812482 0 0.00033830467544279246 -0.0013804904932713876 0 0.00015904844556598408 -0.0016334252801489782 0 6.6672621220429591e-05 -0.001664638647084221 0 0.00011519342926842127 -0.0015125822416791465 0 6.9267420170860106e-06 -0.0014822230204739148 0 1.5403739943679762e-05 -0.0013064147576995375 0 9.951259081439367e-05 -0.0013626462130777949 0 0.00018187034582538582 -0.0027813276164610308 0 0.00022599456526620548 -0.002657198153613117 0 0.00027365523631494221 -0.0028103586798188798 0 -0.00077351164636918501 -0.0018417099943480626 0 -0.00070667362664470607 -0.0018968963871180712 0 -0.00079211032416961298 -0.0019822074324747771 0 0.00073085762849894279 -0.0013007707840948235 0 0.00065351958899889369 -0.0012142206488977372 0 0.00072311839548195775 -0.0011685643457610545 0 -7.2797218805651482e-05 -0.00029977145530436203 0 -0.00011018293587020263 -0.00039798961014512839 0 -0.00010358926913830158 -0.00028118915843970189 0 -0.00030330210290034556 -0.0017257442020394886 0 -0.00030127066121423432 -0.0015313045390874722 0 -0.00021519065473395759 -0.0016064477643232388 0 -0.00015272406457102084 -0.0026110175589049217 0 -7.5489074781741626e-05 -0.0025620430631769185 0 -0.00010263317818418182 -0.0027293683033297535 0 -0.00064436647258461776 -0.0013190887429839937 0 -0.00063008439849602637 -0.001429905019713045 0 -0.00071804309670897397 -0.001411127218155873 0 0.00067789740434734478 -0.001781016368788884 0 0.00064574217831601488 -0.0016588527133995447 0 0.00074046415273485561 -0.0017175660344346366 0 7.9608348471661168e-05 -0.00043104052986570317 0 4.2007738788314826e-05 -0.00046913097590260547 0 4.5364525192555794e-05 -0.00033710704912907213 0 0.00064819241944956982 -0.00079858774404918318 0 0.00058882925478204173 -0.00066708708797532236 0 0.00069928011339109506 -0.00077127805738299129 0 0.00056612566354337357 -0.0005754377591032767 0 0.00069928011339109506 -0.00077127805738299129 0 0.00058882925478204173 -0.00066708708797532236 0 -0.00018049676188471863 -0.00024394549942177233 0 -0.00021477893522371935 -0.00025368938083643084 0 -0.00011055838284905519 -0.00012324557241632589 0 -0.00019626050704702527 -0.00019642219107532749 0 -0.00011055838284905519 -0.00012324557241632589 0 -0.00021477893522371935 -0.00025368938083643084 0 6.9267420170860106e-06 -0.0014822230204739148 0 9.951259081439367e-05 -0.0013626462130777949 0 0.00011519342926842127 -0.0015125822416791465 0 -0.00039831071701862039 -0.00045828229430286481 0 -0.00050376800434534671 -0.00055391447097139738 0 -0.00042365221767474921 -0.00042216405695529724 0 0.00040115854189354787 -0.0004620418731509045 0 0.00028600449501353398 -0.00032157798006586508 0 0.00032852029011852849 -0.00032808207864762758 0 0.00052177265304094022 -0.0029207907886148114 0 0.0005220040183675609 -0.0027627242282557839 0 0.00060064602939173604 -0.0028496295208765366 0 0.00060750059771624918 -0.0026789970428287234 0 0.00060064602939173604 -0.0028496295208765366 0 0.0005220040183675609 -0.0027627242282557839 0 -0.00085389990006651663 -0.002371956297737168 0 -0.00076696521566528661 -0.002364699123067587 0 -0.00081408193497584645 -0.002495573458463035 0 -0.00071762959400758586 -0.0024995774335483524 0 -0.00081408193497584645 -0.002495573458463035 0 -0.00076696521566528661 -0.002364699123067587 0 0.00020418155489206055 -0.00019995385207680831 0 0.00020341439013679485 -0.0002413400616566183 0 0.00011228221923041511 -0.00012530177784447169 0 -0.00055775331382477446 -0.00056332579107578066 0 -0.00060271018926543189 -0.00068273711560423646 0 -0.0007023861020704692 -0.00077887398339041567 0 0.00087097643887149414 -0.0026234234465059331 0 0.00084440563763785506 -0.0024919656176095621 0 0.00091845262299791752 -0.0024596677351118473 0 -0.00067633752739786035 -0.0029543053062839188 0 -0.00059725344026471331 -0.0029055378063129592 0 -0.00057416235622755757 -0.0030414408093768193 0 0.00018597329780949365 -0.00025822789670373663 0 0.00011228221923041511 -0.00012530177784447169 0 0.00020341439013679485 -0.0002413400616566183 0 -0.00064491530412987322 -0.00081156765056956829 0 -0.0007023861020704692 -0.00077887398339041567 0 -0.00060271018926543189 -0.00068273711560423646 0 0.00081777799985299163 -0.0023529995553504546 0 0.00091845262299791752 -0.0024596677351118473 0 0.00084440563763785506 -0.0024919656176095621 0 -0.00051221509105082422 -0.002854099217523132 0 -0.00057416235622755757 -0.0030414408093768193 0 -0.00059725344026471331 -0.0029055378063129592 0 0.00052014890676690202 -0.0022305360701071098 0 0.00046131378140864735 -0.0023741360069307444 0 0.00044162969081066862 -0.0022113787482080593 0 0.00053963769538381079 -0.0023514497904583735 0 0.00046131378140864735 -0.0023741360069307448 0 0.00052014890676690202 -0.0022305360701071098 0 -0.00045269174433298383 -0.0023377020165957921 0 -0.00054252961042616571 -0.0022464852120411892 0 -0.00044414508751322026 -0.0022078039384471021 0 -0.00052553156070005906 -0.0023739097228555029 0 -0.00054252961042616571 -0.0022464852120411892 0 -0.00045269174433298383 -0.0023377020165957921 0 0.00032647869872034878 -0.00070091119723185121 0 0.00042310286846966691 -0.00080747102361566404 0 0.00034811318202790495 -0.00082107105003728393 0 0.0003753504323028477 -0.00068209183760251709 0 0.00042310286846966691 -0.00080747102361566404 0 0.00032647869872034878 -0.00070091119723185121 0 -0.00040804914499005318 -0.00081794746335865566 0 -0.00032395055303294093 -0.00066750136162012244 0 -0.0003448733760584076 -0.00081751197690913251 0 -0.00039335801017367734 -0.00070784365950924473 0 -0.00032395055303294093 -0.00066750136162012244 0 -0.00040804914499005318 -0.00081794746335865566 0 0.00081777799985299163 -0.0023529995553504546 0 0.00075339313610150733 -0.0022051389954631569 0 0.00083724294462007647 -0.002209403074762078 0 -0.00051221509105082422 -0.002854099217523132 0 -0.00042238947443926295 -0.0027370564979705666 0 -0.00041887658569390618 -0.0028901723428404209 0 0.00018597329780949365 -0.00025822789670373663 0 0.00018959669529152037 -0.00034576899865788278 0 0.00013729622276631133 -0.00022741906715108192 0 -0.00064491530412987322 -0.00081156765056956829 0 -0.00063014208841381987 -0.00092660445163165106 0 -0.00071174312248039055 -0.0009656867620353697 0 0.00018823732686864023 -0.0014192985983592572 0 9.951259081439367e-05 -0.0013626462130777949 0 0.00019010695896400147 -0.0012754977465814651 0 0.00028398391120773879 -0.0012604284336386565 0 0.00039589656731161979 -0.0012669492228001777 0 0.00033830467544279246 -0.0013804904932713876 0 0.00041811699148252077 -0.0014542407047443571 0 0.00033830467544279246 -0.0013804904932713876 0 0.00039589656731161979 -0.0012669492228001777 0 0.00069982211652270512 -0.0026537766558982902 0 0.00066740897522104864 -0.0027832911022367172 0 0.00060750059771624918 -0.0026789970428287234 0 -0.00070009189847432122 -0.0026536990163198394 0 -0.00077573385418969458 -0.0026029188057863448 0 -0.00071762959400758586 -0.0024995774335483524 0 0.00051572482081424541 -0.00065519371940101867 0 0.000502803909550045 -0.00055369701247446235 0 0.00058882925478204173 -0.00066708708797532236 0 -0.00029605855914202628 -0.00039199300487920981 0 -0.00028701828272606142 -0.00032361327845084999 0 -0.00021477893522371935 -0.00025368938083643084 0 0.00032809386396203928 -0.00027348877227107717 0 0.00026072151870576372 -0.00023334858326213317 0 0.00015839503267645402 -0.00013610257584651355 0 -0.00033145480677933145 -0.00027766015433672395 0 -0.00045349788876057812 -0.00042280766655893574 0 -0.00050018580155924139 -0.00045197319308903249 0 0.00073164128776759794 -0.0020231028440999737 0 0.00081540188039617707 -0.0019749397600494377 0 0.00080520504206581364 -0.0021075415001100706 0 0.00014240172298840651 -0.00036920934401318297 0 9.1721374832998446e-05 -0.000248428066378238 0 0.0001312760031267214 -0.0002684434089585582 0 -0.00030660430592143525 -0.0026993207157013374 0 -0.00026678660655024853 -0.0028539590201480843 0 -0.00035511779515799084 -0.0028320384895639829 0 -0.00065411539991852715 -0.0010982876390528322 0 -0.00074810798045008681 -0.0011872416464697305 0 -0.00070715901424326863 -0.0010499915151299421 0 0.00020418155489206055 -0.00019995385207680831 0 0.00032852029011852849 -0.00032808207864762758 0 0.00028600449501353398 -0.00032157798006586508 0 -0.00055775331382477446 -0.00056332579107578066 0 -0.00042365221767474921 -0.00042216405695529724 0 -0.00050376800434534671 -0.00055391447097139738 0 0.00053570638560482026 -0.0032319082157672356 0 0.00043185011406404825 -0.0032328805346489241 0 0.00047057621592604907 -0.0030657326520845923 0 -0.0010172835528653554 -0.0024045180638739938 0 -0.0010152643808215749 -0.0022441696457491892 0 -0.0009309086600017781 -0.0022982094804372484 0 0.00081402702394052593 -0.00089986445970585617 0 0.00087071602182332375 -0.0010418076811710498 0 0.00077242709667789237 -0.00093615332625267029 0 -1.8316236608748804e-08 -1.1086916498506471e-07 0 -1.2094179947373327e-08 -1.1514359948730997e-07 0 -8.0680675332244045e-05 -0.00010916450501055315 0 0.00010955033081123265 -0.0032340870895468761 0 3.2959507545564483e-05 -0.0031037623966951272 0 0.00011629989955046422 -0.0030534516522961086 0 -0.0009994713356159435 -0.0017738659753280279 0 -0.00092895768157475812 -0.0016556639077581683 0 -0.00091089068924192051 -0.0017704045745637919 0 0.00097066578882281762 -0.0014730028207799143 0 0.00092074342867578011 -0.001563074910035192 0 0.00088222285159248902 -0.0014394929300116275 0 -3.9873719029330417e-09 -1.1154070945712655e-07 0 -3.5429898641811451e-06 -7.6198951042516147e-05 0 -1.8919590111573792e-05 -0.00011095085515413785 0 -2.4974887812694256e-06 -0.0010336397927715451 0 2.6464628457194043e-05 -0.00090693018459387092 0 9.0377708136246492e-05 -0.0010601897546033011 0 0.00087097643887149414 -0.0026234234465059331 0 0.00081642049029769328 -0.0027374466918698047 0 0.00079243150813593287 -0.0025945657665093062 0 -0.00067633752739786035 -0.0029543053062839188 0 -0.00074564872932443181 -0.0028580681141065034 0 -0.00066204352473785816 -0.0028132479943176118 0 6.9267420170860106e-06 -0.0014822230204739148 0 0.00011519342926842127 -0.0015125822416791465 0 6.6672621220429591e-05 -0.001664638647084221 0 0.00080618440383794599 -0.0012466358447918808 0 0.00088330211765034171 -0.0013212948095396154 0 0.00080911062789042339 -0.0013687415075374525 0 0.00088222285159248902 -0.0014394929300116275 0 0.00080911062789042339 -0.0013687415075374525 0 0.00088330211765034171 -0.0013212948095396154 0 0.00073464754322399145 -0.0032276941302754789 0 0.00069140971237266577 -0.0030813066716664436 0 0.00076986687244751226 -0.0030517052204796181 0 -0.0010175290660766096 -0.0027284837903034931 0 -0.00093980040796103927 -0.0026523246825577965 0 -0.00092330810018832049 -0.002783844786352976 0 -0.00067633752739786035 -0.0029543053062839188 0 -0.00067727379961841862 -0.0030970101444567489 0 -0.00076028919488963182 -0.0030298506820015478 0 0.00087097643887149414 -0.0026234234465059331 0 0.0009478756682992375 -0.0026289907487176837 0 0.00091151451323755954 -0.002766505692021021 0 -0.00055775331382477446 -0.00056332579107578066 0 -0.00063685670102697225 -0.00063100363388671297 0 -0.00050018580155924139 -0.00045197319308903249 0 0.00020418155489206055 -0.00019995385207680831 0 9.4829864845128315e-05 -8.915394831828366e-05 0 0.00015839503267645402 -0.00013610257584651355 0 -0.00073491324501370574 -0.0032277262869485003 0 -0.00076028919488963182 -0.0030298506820015478 0 -0.00067727379961841862 -0.0030970101444567489 0 0.0010173699226632268 -0.0027285839588133166 0 0.00091151451323755954 -0.002766505692021021 0 0.0009478756682992375 -0.0026289907487176837 0 -0.00064007249762979891 -0.00061137508668240609 0 -0.00050018580155924139 -0.00045197319308903255 0 -0.00063685670102697225 -0.00063100363388671297 0 2.3184565070202398e-08 -1.0456283534161551e-07 0 0.00015839503267645402 -0.00013610257584651355 0 9.4829864845128315e-05 -8.915394831828366e-05 0 0.00064129150571718275 -0.00061056772853448329 0 0.00063827238990312092 -0.00063370206046407351 0 0.00050496067524743939 -0.00045978079204231446 0 -2.3022911490338789e-08 -1.0328094873197514e-07 0 -9.5552707856776811e-05 -8.9402282646555082e-05 0 -0.00016874675831099727 -0.00014578586891925868 0 0.00056612566354337357 -0.0005754377591032767 0 0.00050496067524743939 -0.00045978079204231446 0 0.00063827238990312092 -0.00063370206046407351 0 -0.00019626050704702527 -0.00019642219107532749 0 -0.00016874675831099727 -0.00014578586891925868 0 -9.5552707856776811e-05 -8.9402282646555082e-05 0 -0.00020489937390547598 -0.0018903997081686779 0 -0.00010858150881554103 -0.001776409915502257 0 -9.8752740206159786e-05 -0.0019274684886481435 0 6.9267420170860106e-06 -0.0014822230204739148 0 6.6672621220429591e-05 -0.001664638647084221 0 -4.393219612025848e-05 -0.0016493970456933247 0 -0.0003388515317879548 -0.0012952837314674981 0 -0.00037997988615109902 -0.0011394387377657272 0 -0.00028711981721966663 -0.0011595964840387446 0 -0.00028487697894684328 -0.0010064170618893815 0 -0.00028711981721966663 -0.0011595964840387446 0 -0.00037997988615109902 -0.0011394387377657272 0 -0.00021194758214239373 -0.0012067334306626865 0 -0.00020772336958166878 -0.0010755870688807321 0 -0.00013980447346074979 -0.0011578984415180568 0 0.00010584111717060474 -0.00091317948084497524 0 9.0377708136246492e-05 -0.0010601897546033011 0 2.6464628457194043e-05 -0.00090693018459387092 0 0.00073164128776759794 -0.0020231028440999737 0 0.00080520504206581364 -0.0021075415001100706 0 0.00075339313610150733 -0.0022051389954631569 0 0.00014240172298840651 -0.00036920934401318297 0 0.0001312760031267214 -0.0002684434089585582 0 0.00018959669529152037 -0.00034576899865788278 0 -0.00030660430592143525 -0.0026993207157013374 0 -0.00035511779515799084 -0.0028320384895639829 0 -0.00042238947443926301 -0.0027370564979705666 0 -0.00065411539991852715 -0.0010982876390528322 0 -0.00070715901424326863 -0.0010499915151299421 0 -0.00063014208841381987 -0.00092660445163165106 0 -0.00018973270452637533 -0.0014522166118345187 0 -0.00021519065473395759 -0.0016064477643232388 0 -0.00030127066121423432 -0.0015313045390874722 0 -0.00015272406457102084 -0.0026110175589049217 0 -0.00024897944339884458 -0.0025474871714341921 0 -0.00014815356604141273 -0.002466477693845239 0 0.00067789740434734478 -0.001781016368788884 0 0.00064515101391484221 -0.0019226407095263018 0 0.00059564728212672133 -0.0017604725517049911 0 -0.00064436647258461776 -0.0013190887429839937 0 -0.00058868784782034286 -0.0011623508313211692 0 -0.00056486835865452302 -0.0013068591648439003 0 7.9608348471661168e-05 -0.00043104052986570317 0 0.00014284322945635675 -0.00048945105314884146 0 9.1273634497124564e-05 -0.00055053330961444343 0 0.00076986687244751226 -0.0030517052204796181 0 0.00069140971237266588 -0.0030813066716664436 0 0.00074581577637167847 -0.0029360697631076668 0 -0.00092330810018832049 -0.002783844786352976 0 -0.00093980040796103927 -0.0026523246825577965 0 -0.00086014374828283127 -0.002740305417471708 0 0.0006739174295447818 -0.0029366674272616952 0 0.00074581577637167847 -0.0029360697631076668 0 0.00069140971237266588 -0.0030813066716664436 0 -0.00086164936170013786 -0.0026192414582435382 0 -0.00086014374828283127 -0.002740305417471708 0 -0.00093980040796103927 -0.0026523246825577965 0 0.00060266334791258278 -0.0022596715021725284 0 0.00070526013604883938 -0.0023133085169114022 0 0.00061621181589071401 -0.0024052172559305756 0 -0.00046616741896286123 -0.0024762677234386465 0 -0.00049360193636569991 -0.002653748012097978 0 -0.00055508495025974021 -0.0025033367405994655 0 0.00030046844746436279 -0.00057607306128327541 0 0.00025993412695013218 -0.00042357136249113794 0 0.00035576004370416978 -0.00056281133560690162 0 -0.00047339666488071017 -0.00081375644122012609 0 -0.0005517251001640925 -0.00079698428748165126 0 -0.00044144514301909337 -0.00067217598619521588 0 9.8686680597034714e-05 -0.0012128653011125503 0 1.5403739943679762e-05 -0.0013064147576995375 0 9.6092737325070598e-06 -0.0011568112682602898 0 9.8686680597034714e-05 -0.0012128653011125503 0 0.00019010695896400147 -0.0012754977465814651 0 9.951259081439367e-05 -0.0013626462130777949 0 0.0006739174295447818 -0.0029366674272616952 0 0.00066740897522104864 -0.0027832911022367172 0 0.00074335733823778592 -0.0028158256669307377 0 -0.00086164936170013786 -0.0026192414582435382 0 -0.00077573385418969458 -0.0026029188057863448 0 -0.00079288004534449144 -0.0027322133913160115 0 0.00072228576625936198 -0.0024605108859580439 0 0.00063111079935749994 -0.0025407612532111351 0 0.00061621181589071401 -0.0024052172559305756 0 -0.0005835951959785665 -0.0026865985516448566 0 -0.00063576300018006572 -0.0025337533155917039 0 -0.00055508495025974021 -0.0025033367405994655 0 0.00030206294891795075 -0.00040566230069566324 0 0.00041238716576138656 -0.00056325714568756147 0 0.00035576004370416978 -0.00056281133560690162 0 -0.00051167185282508182 -0.00065703718176843891 0 -0.0003938118242633082 -0.00054063125533743703 0 -0.00044144514301909337 -0.00067217598619521588 0 0.00043218502923128528 -0.0017545743798013781 0 0.00033670950901630662 -0.0018244237689299227 0 0.00035588649426203183 -0.0016929370665013292 0 0.00041838755936420615 -0.0018926769391302749 0 0.00033670950901630662 -0.0018244237689299227 0 0.00043218502923128528 -0.0017545743798013781 0 0.00012122811190106389 -0.00079931484985783837 0 0.00017648938142116993 -0.00095770855199216339 0 0.00010584111717060474 -0.00091317948084497524 0 0.0001928702553525318 -0.00083191555144045918 0 0.00017648938142116993 -0.00095770855199216339 0 0.00012122811190106389 -0.00079931484985783837 0 0.00011629989955046422 -0.0030534516522961086 0 0.00015101807614422547 -0.0029266259600031624 0 0.00020384151752269531 -0.0030908715744029291 0 0.00023963864357339865 -0.0029504977943103209 0 0.00020384151752269531 -0.0030908715744029291 0 0.00015101807614422547 -0.0029266259600031624 0 -0.00091089068924192051 -0.0017704045745637919 0 -0.00084878422882174367 -0.0018093857605704577 0 -0.00093596243490701766 -0.0018999358805128926 0 -0.00086584366076216095 -0.001941999169646121 0 -0.00093596243490701766 -0.0018999358805128926 0 -0.00084878422882174367 -0.0018093857605704577 0 -1.8919590111573792e-05 -0.00011095085515413785 0 -4.1645521524412345e-05 -0.00019498214911536501 0 -2.8167923699614291e-05 -8.5262748710602249e-05 0 -6.1578700169050531e-05 -0.00017790002236381521 0 -2.8167923699614294e-05 -8.5262748710602249e-05 0 -4.1645521524412345e-05 -0.00019498214911536501 0 0.00014439610779893217 -0.0019613574627980932 0 8.9519431163515679e-05 -0.0020736615429995417 0 2.5704939344175574e-05 -0.0019713181103724014 0 -0.00030330210290034556 -0.0017257442020394886 0 -0.00036125573245948076 -0.0016394530825407552 0 -0.00030127066121423432 -0.0015313045390874722 0 3.2754941160046258e-05 -0.0021721033844434912 0 2.5704939344175574e-05 -0.0019713181103724014 0 8.9519431163515679e-05 -0.0020736615429995417 0 -0.00041736898741868961 -0.0015572038261573871 0 -0.00030127066121423432 -0.0015313045390874722 0 -0.00036125573245948076 -0.0016394530825407552 0 0.00083557810797844619 -0.0028995794174704521 0 0.00076986687244751226 -0.0030517052204796181 0 0.00074581577637167847 -0.0029360697631076668 0 -0.00083876862632353843 -0.0028941969300157054 0 -0.00092330810018832049 -0.002783844786352976 0 -0.00086014374828283127 -0.002740305417471708 0 0.00020418155489206055 -0.00019995385207680831 0 0.00015839503267645402 -0.00013610257584651355 0 0.00026072151870576372 -0.00023334858326213317 0 -0.00055775331382477446 -0.00056332579107578066 0 -0.00050018580155924139 -0.00045197319308903249 0 -0.00045349788876057812 -0.00042280766655893574 0 0.00038606956339480374 -0.0029953725726087244 0 0.0004442501358043879 -0.0028922820044476015 0 0.00047057621592604907 -0.0030657326520845923 0 -0.000893175842306818 -0.0021651228481616336 0 -0.00083887933473040838 -0.0022490185755480153 0 -0.0009309086600017781 -0.0022982094804372484 0 0.00077973634721917187 -0.0010404862175895065 0 0.00069680576441548219 -0.00092408951963585692 0 0.00077242709667789237 -0.00093615332625267029 0 -8.7474514733076783e-05 -0.00015014242780155013 0 -0.00014706202813574351 -0.00023225140694079017 0 -8.0680675332244045e-05 -0.00010916450501055315 0 0.00021670452336496285 -0.0023399569087997471 0 0.00016732768098537827 -0.0024570577727557556 0 9.8708857228894725e-05 -0.002349214783470205 0 -0.00052409894353463559 -0.0018569354020366723 0 -0.00059091042753036543 -0.0017895556069980581 0 -0.00052534663704352307 -0.0016739032456828404 0 0.00048066523772347119 -0.0011854773559459545 0 0.00055555051382078196 -0.0012756637197408767 0 0.00050651917105496 -0.001369010489113613 0 -0.00015168193732751343 -0.00066760469524764865 0 -0.00010409010997287471 -0.00056174212449433244 0 -6.7619938303043503e-05 -0.00065134417182847884 0 0.00014439610779893217 -0.0019613574627980932 0 7.7458522937074275e-05 -0.0018347102554347715 0 0.00016304787048035993 -0.0017780304637702528 0 0.00021670452336496285 -0.0023399569087997471 0 0.00015570475577004548 -0.0021727649237159282 0 0.00023874798912720628 -0.0022047256949370617 0 -0.00052409894353463559 -0.0018569354020366723 0 -0.00042138079319486153 -0.0017446367060820116 0 -0.00044385790309001599 -0.0018825644196211518 0 0.00048066523772347119 -0.0011854773559459545 0 0.00039589656731161979 -0.0012669492228001777 0 0.00040012654442434252 -0.0011368081403611964 0 -0.00015168193732751343 -0.00066760469524764865 0 -0.00011895255523521907 -0.00081585281249164151 0 -0.0001820608382759354 -0.00079222531018438591 0 -9.7882686947478246e-08 -0.0024651035457132209 0 9.8708857228894725e-05 -0.002349214783470205 0 8.3290364599146051e-05 -0.0025383000659774334 0 -0.00058438115866908105 -0.0015334046565897244 0 -0.00052534663704352307 -0.0016739032456828404 0 -0.00063295955345558615 -0.0016683351402122782 0 0.00058410783291458338 -0.0015334544361190906 0 0.00050651917105496 -0.001369010489113613 0 0.00061534998563901762 -0.0014147663968819464 0 -1.2627803716383572e-07 -0.00055052310647680115 0 -6.7619938303043503e-05 -0.00065134417182847884 0 -4.7005343610629609e-05 -0.00049007117805062038 0 3.2754941160046258e-05 -0.0021721033844434912 0 8.9519431163515679e-05 -0.0020736615429995417 0 0.00015570475577004548 -0.0021727649237159286 0 -0.00041736898741868961 -0.0015572038261573871 0 -0.00036125573245948076 -0.0016394530825407552 0 -0.00042138079319486153 -0.0017446367060820116 0 0.00014439610779893217 -0.0019613574627980932 0 0.00015570475577004548 -0.0021727649237159286 0 8.9519431163515679e-05 -0.0020736615429995417 0 -0.00030330210290034556 -0.0017257442020394886 0 -0.00042138079319486153 -0.0017446367060820116 0 -0.00036125573245948076 -0.0016394530825407552 0 0.00023963864357339865 -0.0029504977943103209 0 0.00018187034582538582 -0.0027813276164610303 0 0.00027365523631494221 -0.0028103586798188798 0 -0.00086584366076216095 -0.001941999169646121 0 -0.00077351164636918501 -0.0018417099943480626 0 -0.00079211032416961298 -0.0019822074324747771 0 0.00080618440383794599 -0.0012466358447918808 0 0.00073085762849894268 -0.0013007707840948235 0 0.00072311839548195775 -0.0011685643457610545 0 -6.1578700169050531e-05 -0.00017790002236381521 0 -7.2797218805651469e-05 -0.00029977145530436203 0 -0.00010358926913830158 -0.00028118915843970189 0 6.1112552063258796e-06 -0.00013743652753647775 0 5.9288611207700111e-06 -5.9572449294272385e-05 0 1.9267523316080815e-05 -9.0214839133060198e-05 0 -0.00087392278010864658 -0.001556473665434074 0 -0.00093062396882001206 -0.0015352448165862397 0 -0.00089441533469792733 -0.0014216784124064623 0 0.00088043141800342906 -0.0016404428332314686 0 0.00094406508371007859 -0.0016895931643636883 0 0.00092630007498205715 -0.0017946142856081501 0 -2.9441496518708538e-05 -0.0030074401034071202 0 -5.5015209172906393e-05 -0.0031311956555864426 0 -0.00013161704330434126 -0.0030819364526530339 0 0.00014913482567013132 -0.0025983299903404511 0 8.9211727723093994e-05 -0.0026866496005691185 0 8.3290364599146051e-05 -0.0025383000659774334 0 -0.00067068786681993636 -0.001774524000313837 0 -0.00071580878125435175 -0.0016930251742301441 0 -0.00063295955345558615 -0.0016683351402122782 0 0.00063775110065756213 -0.0013224383790439026 0 0.00069607557243921245 -0.0014253171858008287 0 0.00061534998563901762 -0.0014147663968819464 0 -7.8743018328916484e-05 -0.00044254424564487278 0 -4.0756878755360647e-05 -0.00037189850083005062 0 -4.7005343610629609e-05 -0.00049007117805062038 0 6.9267420170860106e-06 -0.0014822230204739148 0 -4.393219612025848e-05 -0.0016493970456933247 0 -0.00010066655125761988 -0.0015321280213779001 0 0.00052008364954949022 -0.0025350185158765004 0 0.00043386178442390963 -0.0025344131213144334 0 0.00046131378140864735 -0.0023741360069307448 0 -0.00063648198792548094 -0.0023496930497308739 0 -0.00063735297585240614 -0.0022115377203412397 0 -0.00054252961042616571 -0.0022464852120411892 0 0.00047584977422717356 -0.00073591906969989465 0 0.0005182462943365987 -0.00087207645818961879 0 0.00042310286846966691 -0.00080747102361566404 0 -0.00031937205303335061 -0.00053057821841868589 0 -0.00026147788938456554 -0.00052115416518868285 0 -0.00032395055303294093 -0.00066750136162012244 0 -0.00015272406457102084 -0.0026110175589049217 0 -0.00020964017791841902 -0.0027159892590584924 0 -0.00024897944339884458 -0.0025474871714341921 0 -0.00030660430592143525 -0.0026993207157013374 0 -0.00024897944339884458 -0.0025474871714341921 0 -0.00020964017791841902 -0.0027159892590584924 0 -0.00064436647258461776 -0.0013190887429839937 0 -0.00068979082486461684 -0.0012485574993462329 0 -0.00058868784782034286 -0.0011623508313211692 0 0.00067789740434734478 -0.001781016368788884 0 0.00073857439280541892 -0.0018767536013698061 0 0.00064515101391484221 -0.0019226407095263018 0 0.00073164128776759794 -0.0020231028440999737 0 0.00064515101391484221 -0.0019226407095263018 0 0.00073857439280541892 -0.0018767536013698061 0 -0.00065411539991852715 -0.0010982876390528322 0 -0.00058868784782034286 -0.0011623508313211692 0 -0.00068979082486461684 -0.0012485574993462329 0 7.9608348471661168e-05 -0.00043104052986570317 0 9.2645724548363369e-05 -0.00035039943002173512 0 0.00014284322945635675 -0.00048945105314884146 0 0.00014240172298840651 -0.00036920934401318297 0 0.00014284322945635675 -0.00048945105314884146 0 9.2645724548363382e-05 -0.00035039943002173512 0 0.00033237681961939439 -0.0019912525801030556 0 0.00033670950901630662 -0.0018244237689299227 0 0.00041838755936420615 -0.0018926769391302749 0 0.00026376886139863406 -0.00097212132877826476 0 0.00017648938142116993 -0.00095770855199216339 0 0.0001928702553525318 -0.00083191555144045918 0 -0.00030830099459580059 -0.0020216554604095805 0 -0.0002077559085765703 -0.0020326314404857065 0 -0.00025026155040577521 -0.0021629105595153577 0 0.00083557810797844619 -0.0028995794174704521 0 0.00074335733823778592 -0.0028158256669307373 0 0.00081642049029769328 -0.0027374466918698047 0 -0.00083876862632353843 -0.0028941969300157054 0 -0.00079288004534449144 -0.0027322133913160111 0 -0.00074564872932443181 -0.0028580681141065034 0 0.00032809386396203928 -0.00027348877227107717 0 0.00044183823481384031 -0.00043108740118546286 0 0.00032852029011852849 -0.00032808207864762758 0 -0.00033145480677933145 -0.00027766015433672395 0 -0.00030525857162771195 -0.00029619689836860312 0 -0.00042365221767474921 -0.00042216405695529724 0 -0.00030127066121423432 -0.0015313045390874722 0 -0.00034577449448958218 -0.0014234923801999847 0 -0.00025446102917702998 -0.0013441090535819345 0 0.00088415783390565904 -0.0021001658286942822 0 0.00092147521513552175 -0.0022788216018744868 0 0.00083724294462007647 -0.002209403074762078 0 8.292832315869806e-05 -0.00015985135645983075 0 8.3879090129904219e-05 -0.00011564266160133091 0 0.00013729622276631133 -0.00022741906715108192 0 -0.00034413308847351822 -0.0029799635226204629 0 -0.0004589988949943272 -0.0030485762099192975 0 -0.00041887658569390618 -0.0028901723428404209 0 -0.00078849591518216015 -0.0010987927901266719 0 -0.00077319395271637436 -0.00094858367032064569 0 -0.00071174312248039055 -0.0009656867620353697 0 -0.00013929718601969724 -0.0016621191845800978 0 -0.00010066655125761986 -0.0015321280213779001 0 -4.393219612025848e-05 -0.0016493970456933247 0 -0.0003388515317879548 -0.0012952837314674981 0 -0.00041106988416796195 -0.0012667277448287577 0 -0.00037997988615109902 -0.0011394387377657272 0 0.001014922853592518 -0.0022440267265614279 0 0.00092147521513552175 -0.0022788216018744868 0 0.00095802976797520578 -0.0021490485256676043 0 1.2077419409434659e-08 -1.1678514824587051e-07 0 8.3879090129904219e-05 -0.00011564266160133092 0 4.143101438788268e-05 -6.621301040196233e-05 0 -0.00043204528223567834 -0.0032328326903677744 0 -0.0004589988949943272 -0.0030485762099192975 0 -0.00037182872862047932 -0.0031220910044151614 0 -0.00087016981085887425 -0.0010421638418084145 0 -0.00077319395271637436 -0.0009485836703206458 0 -0.00084682434198173767 -0.0010932666409785769 0 0.00014913482567013132 -0.0025983299903404511 0 0.00016732768098537827 -0.0024570577727557556 0 0.00026199638172969778 -0.0025211998437619692 0 0.00021670452336496285 -0.0023399569087997471 0 0.00026199638172969778 -0.0025211998437619692 0 0.00016732768098537827 -0.0024570577727557556 0 -0.00052409894353463559 -0.0018569354020366723 0 -0.0006307882689001391 -0.0019408811799912348 0 -0.00059091042753036543 -0.0017895556069980581 0 -0.00067068786681993636 -0.001774524000313837 0 -0.00059091042753036543 -0.0017895556069980581 0 -0.0006307882689001391 -0.0019408811799912348 0 0.00048066523772347119 -0.0011854773559459545 0 0.00057076892629267845 -0.0011381690074824707 0 0.00055555051382078196 -0.0012756637197408767 0 0.00063775110065756213 -0.0013224383790439026 0 0.00055555051382078196 -0.0012756637197408767 0 0.00057076892629267845 -0.0011381690074824707 0 -0.00015168193732751343 -0.00066760469524764865 0 -0.0001553622864042125 -0.00051181051916481348 0 -0.00010409010997287471 -0.00056174212449433244 0 -7.8743018328916484e-05 -0.00044254424564487278 0 -0.00010409010997287471 -0.00056174212449433244 0 -0.0001553622864042125 -0.00051181051916481348 0 0.00030636439515921714 -0.0026992787545611365 0 0.00022599456526620551 -0.002657198153613117 0 0.00026199638172969778 -0.0025211998437619692 0 -0.00073188544954162565 -0.0020230798295759259 0 -0.00070667362664470607 -0.0018968963871180712 0 -0.0006307882689001391 -0.0019408811799912348 0 0.00065382580748447709 -0.0010988483875130216 0 0.00065351958899889369 -0.0012142206488977372 0 0.00057076892629267845 -0.0011381690074824707 0 -0.00014239399299794192 -0.00036836031206518227 0 -0.00011018293587020263 -0.00039798961014512839 0 -0.0001553622864042125 -0.00051181051916481348 0 7.5530499918234661e-05 -0.0028346277195258332 0 0.00018187034582538582 -0.0027813276164610308 0 0.00015101807614422547 -0.0029266259600031624 0 -0.0007951661390750627 -0.001689032184590973 0 -0.00077351164636918501 -0.0018417099943480626 0 -0.00084878422882174367 -0.0018093857605704577 0 0.00080618440383794599 -0.0012466358447918808 0 0.00080911062789042339 -0.0013687415075374525 0 0.00073085762849894279 -0.0013007707840948235 0 -2.7358869092095018e-05 -0.00025883380717893961 0 -7.2797218805651482e-05 -0.00029977145530436203 0 -4.1645521524412345e-05 -0.00019498214911536501 0 0.00023963864357339865 -0.0029504977943103209 0 0.00015101807614422547 -0.0029266259600031624 0 0.00018187034582538582 -0.0027813276164610308 0 -0.00086584366076216095 -0.001941999169646121 0 -0.00084878422882174367 -0.0018093857605704577 0 -0.00077351164636918501 -0.0018417099943480626 0 0.0007779337940626704 -0.0014662052754714154 0 0.00073085762849894279 -0.0013007707840948235 0 0.00080911062789042339 -0.0013687415075374525 0 -6.1578700169050531e-05 -0.00017790002236381521 0 -4.1645521524412345e-05 -0.00019498214911536501 0 -7.2797218805651482e-05 -0.00029977145530436203 0 0.00014913482567013132 -0.0025983299903404511 0 0.00022599456526620551 -0.002657198153613117 0 0.00018187034582538582 -0.0027813276164610308 0 -0.00067068786681993636 -0.001774524000313837 0 -0.00070667362664470607 -0.0018968963871180712 0 -0.00077351164636918501 -0.0018417099943480626 0 0.00063775110065756213 -0.0013224383790439026 0 0.00065351958899889369 -0.0012142206488977372 0 0.00073085762849894279 -0.0013007707840948235 0 -7.8743018328916484e-05 -0.00044254424564487278 0 -0.00011018293587020263 -0.00039798961014512839 0 -7.2797218805651482e-05 -0.00029977145530436203 0 0.00060266334791258278 -0.0022596715021725284 0 0.00061621181589071401 -0.0024052172559305756 0 0.00053963769538381079 -0.0023514497904583735 0 -0.00046616741896286123 -0.0024762677234386465 0 -0.00055508495025974021 -0.0025033367405994655 0 -0.00052553156070005906 -0.0023739097228555029 0 0.00030046844746436279 -0.00057607306128327541 0 0.00035576004370416978 -0.00056281133560690162 0 0.0003753504323028477 -0.00068209183760251709 0 -0.00047339666488071017 -0.00081375644122012609 0 -0.00044144514301909337 -0.00067217598619521588 0 -0.00039335801017367734 -0.00070784365950924473 0 0.00067789740434734478 -0.001781016368788884 0 0.00059564728212672133 -0.0017604725517049911 0 0.00064574217831601488 -0.0016588527133995447 0 -0.00015272406457102084 -0.0026110175589049217 0 -0.00014815356604141273 -0.002466477693845239 0 -7.5489074781741626e-05 -0.0025620430631769185 0 7.9608348471661168e-05 -0.00043104052986570317 0 9.1273634497124564e-05 -0.00055053330961444343 0 4.2007738788314826e-05 -0.00046913097590260547 0 -0.00064436647258461776 -0.0013190887429839937 0 -0.00056486835865452302 -0.0013068591648439003 0 -0.00063008439849602637 -0.001429905019713045 0 0.00088415783390565904 -0.0021001658286942822 0 0.00095802976797520578 -0.0021490485256676043 0 0.00092147521513552175 -0.0022788216018744868 0 8.292832315869806e-05 -0.00015985135645983075 0 4.143101438788268e-05 -6.621301040196233e-05 0 8.3879090129904219e-05 -0.00011564266160133091 0 -0.00034413308847351822 -0.0029799635226204629 0 -0.00037182872862047932 -0.0031220910044151614 0 -0.0004589988949943272 -0.0030485762099192975 0 -0.00078849591518216015 -0.0010987927901266719 0 -0.00084682434198173767 -0.0010932666409785769 0 -0.00077319395271637436 -0.0009485836703206458 0 3.2754941160046258e-05 -0.0021721033844434912 0 -7.2308691431179374e-05 -0.0021833901953241738 0 -4.8309854461322912e-05 -0.0020577112416260363 0 -0.00041736898741868961 -0.0015572038261573871 0 -0.00041423378241457385 -0.0013932048351823531 0 -0.00034577449448958218 -0.0014234923801999847 0 7.5530499918234661e-05 -0.0028346277195258332 0 5.3158637438235268e-05 -0.0029630432983163862 0 -2.7507865278143891e-05 -0.0028525602117420662 0 -0.0007951661390750627 -0.001689032184590973 0 -0.00086027222224904646 -0.0016705283935270563 0 -0.00079425941724982439 -0.0015393759669407271 0 0.0007779337940626704 -0.0014662052754714154 0 0.00084728457882801667 -0.0015161652626723302 0 0.00080005754412540095 -0.0016201412424045861 0 -2.7358869092095018e-05 -0.00025883380717893961 0 -1.35425310213564e-05 -0.00016801869177541349 0 9.6462362715371019e-06 -0.00024533725708049089 0 -1.785046178096939e-05 -0.0017953419927956235 0 -4.393219612025848e-05 -0.0016493970456933247 0 6.6672621220429591e-05 -0.001664638647084221 0 0.0006739174295447818 -0.0029366674272616952 0 0.00060064602939173604 -0.0028496295208765366 0 0.00066740897522104864 -0.0027832911022367172 0 -0.00086164936170013786 -0.0026192414582435382 0 -0.00081408193497584645 -0.002495573458463035 0 -0.00077573385418969458 -0.0026029188057863448 0 0.00083557810797844619 -0.0028995794174704521 0 0.00074581577637167847 -0.0029360697631076668 0 0.00074335733823778592 -0.0028158256669307377 0 -0.00083876862632353843 -0.0028941969300157054 0 -0.00086014374828283127 -0.002740305417471708 0 -0.00079288004534449144 -0.0027322133913160115 0 0.00020418155489206055 -0.00019995385207680831 0 0.00026072151870576372 -0.00023334858326213317 0 0.00032852029011852849 -0.00032808207864762758 0 -0.00055775331382477446 -0.00056332579107578066 0 -0.00045349788876057807 -0.00042280766655893568 0 -0.00042365221767474921 -0.00042216405695529724 0 0.00014913482567013132 -0.0025983299903404511 0 0.00026199638172969778 -0.0025211998437619692 0 0.00022599456526620551 -0.002657198153613117 0 -0.00067068786681993636 -0.001774524000313837 0 -0.0006307882689001391 -0.0019408811799912348 0 -0.00070667362664470607 -0.0018968963871180712 0 0.00063775110065756213 -0.0013224383790439026 0 0.00057076892629267834 -0.0011381690074824707 0 0.00065351958899889369 -0.0012142206488977372 0 -7.8743018328916484e-05 -0.00044254424564487278 0 -0.0001553622864042125 -0.00051181051916481348 0 -0.00011018293587020263 -0.00039798961014512839 0 0.00056612566354337357 -0.0005754377591032767 0 0.000502803909550045 -0.00055369701247446235 0 0.00044183823481384031 -0.00043108740118546281 0 -0.00019626050704702527 -0.00019642219107532749 0 -0.00028701828272606142 -0.00032361327845084999 0 -0.000305258571627712 -0.00029619689836860312 0 6.9267420170860106e-06 -0.0014822230204739148 0 -8.0537162651952025e-05 -0.0013866111737877895 0 1.5403739943679762e-05 -0.0013064147576995375 0 -7.9139852256393268e-05 -0.0012451201115888692 0 1.5403739943679762e-05 -0.0013064147576995375 0 -8.0537162651952025e-05 -0.0013866111737877895 0 0.00044162969081066862 -0.0022113787482080593 0 0.00038597910707991806 -0.0022893983393539059 0 0.00038679189188692476 -0.0021209053116913457 0 -0.00044414508751322026 -0.0022078039384471021 0 -0.00049199019507084141 -0.0021194012894499644 0 -0.00038799197671928121 -0.0021144514128216304 0 0.00034811318202790495 -0.00082107105003728393 0 0.00040727789322125336 -0.00091540064234979057 0 0.00031784575671589408 -0.0008985217489585125 0 -0.0003448733760584076 -0.00081751197690913251 0 -0.00028406871248855682 -0.00073400679004689872 0 -0.00031452640346891938 -0.00089246832592956317 0 -0.00012551301443147246 -0.0010002641141492164 0 -0.00020772336958166878 -0.0010755870688807321 0 -0.00019643476081469268 -0.0009192557934025301 0 -2.9441496518708538e-05 -0.0030074401034071202 0 -2.7507865278143891e-05 -0.0028525602117420662 0 5.3158637438235268e-05 -0.0029630432983163862 0 -0.00087392278010864658 -0.001556473665434074 0 -0.00079425941724982439 -0.0015393759669407271 0 -0.00086027222224904646 -0.0016705283935270563 0 0.00088043141800342906 -0.0016404428332314686 0 0.00080005754412540095 -0.0016201412424045861 0 0.00084728457882801667 -0.0015161652626723302 0 6.1112552063258796e-06 -0.00013743652753647775 0 9.6462362715371019e-06 -0.00024533725708049089 0 -1.35425310213564e-05 -0.00016801869177541349 0 -0.00012491919536581795 -0.0020655358489915757 0 -0.00016109765859565392 -0.0021873847774357517 0 -0.0002077559085765703 -0.0020326314404857065 0 -0.00025026155040577521 -0.0021629105595153577 0 -0.0002077559085765703 -0.0020326314404857065 0 -0.00016109765859565392 -0.0021873847774357517 0 0.00015904844556598408 -0.0016334252801489782 0 0.00011519342926842127 -0.0015125822416791465 0 0.00020516894634246702 -0.0015495442069785709 0 0.00073464754322399145 -0.0032276941302754789 0 0.00063664830939531608 -0.0032301585864941227 0 0.00069140971237266588 -0.0030813066716664436 0 -0.0010175290660766096 -0.0027284837903034931 0 -0.0010176981134615742 -0.002566231972068323 0 -0.00093980040796103927 -0.0026523246825577965 0 0.00064129150571718275 -0.00061056772853448329 0 0.00073870266246388587 -0.0007561149766435436 0 0.00063827238990312092 -0.00063370206046407351 0 -2.3022911490338789e-08 -1.0328094873197514e-07 0 -3.3503898391886861e-08 -1.1751688809699676e-07 0 -9.5552707856776811e-05 -8.9402282646555082e-05 0 0.0010175582081828111 -0.0025664139400505465 0 0.0010173699226632268 -0.0027285839588133166 0 0.0009478756682992375 -0.0026289907487176837 0 3.2908662553362282e-08 -1.1757099333731364e-07 0 2.3184565070202398e-08 -1.0456283534161551e-07 0 9.4829864845128315e-05 -8.915394831828366e-05 0 -0.00063705521225584612 -0.003230070698528484 0 -0.00073491324501370574 -0.0032277262869485003 0 -0.00067727379961841862 -0.0030970101444567489 0 -0.00073894178170314905 -0.00075622881544853461 0 -0.00064007249762979891 -0.00061137508668240609 0 -0.00063685670102697225 -0.00063100363388671297 0 0.00031877018791548874 -0.0021772827094703887 0 0.00038679189188692476 -0.0021209053116913457 0 0.00038597910707991806 -0.0022893983393539059 0 -0.00042636979953588125 -0.0020078775936698333 0 -0.00038799197671928121 -0.0021144514128216304 0 -0.00049199019507084141 -0.0021194012894499644 0 0.00036673451720665203 -0.0010093056354510016 0 0.00031784575671589408 -0.0008985217489585125 0 0.00040727789322125336 -0.00091540064234979057 0 -0.00024906127187605327 -0.00082769033293718592 0 -0.00031452640346891938 -0.00089246832592956317 0 -0.00028406871248855682 -0.00073400679004689872 0 -5.1777177339157073e-06 -0.0026745957545801996 0 -2.7507865278143891e-05 -0.0028525602117420662 0 -0.00010263317818418182 -0.0027293683033297535 0 -0.000701274337728849 -0.0015499129011738201 0 -0.00079425941724982439 -0.0015393759669407271 0 -0.00071804309670897397 -0.001411127218155873 0 0.00070214570026405415 -0.0015652525802044043 0 0.00080005754412540095 -0.0016201412424045861 0 0.00074046415273485561 -0.0017175660344346366 0 2.980844462365701e-06 -0.00037867387776510788 0 9.6462362715371019e-06 -0.00024533725708049089 0 4.5364525192555794e-05 -0.00033710704912907213 0 0.00044162969081066862 -0.0022113787482080593 0 0.00038679189188692482 -0.0021209053116913457 0 0.00046760240068521652 -0.002051893367578867 0 -0.00044414508751322026 -0.0022078039384471021 0 -0.00038799197671928121 -0.0021144514128216304 0 -0.00034552127532079009 -0.0022508504966324647 0 0.00034811318202790495 -0.00082107105003728393 0 0.00031784575671589408 -0.0008985217489585125 0 0.00026031826157834167 -0.00076718836546145952 0 -0.0003448733760584076 -0.00081751197690913251 0 -0.00031452640346891938 -0.00089246832592956317 0 -0.00039773540343977787 -0.00097765943347432422 0 0.00088415783390565904 -0.0021001658286942822 0 0.00095350081716247183 -0.0020379981002981796 0 0.00095802976797520578 -0.0021490485256676043 0 8.292832315869806e-05 -0.00015985135645983075 0 3.3020992867567011e-05 -6.8236464028547915e-05 0 4.143101438788268e-05 -6.621301040196233e-05 0 -0.00078849591518216015 -0.0010987927901266719 0 -0.00087101932780387942 -0.0011960508961184704 0 -0.00084682434198173767 -0.0010932666409785769 0 -0.00034413308847351822 -0.0029799635226204629 0 -0.00029763653978501274 -0.0031178505277583497 0 -0.00037182872862047932 -0.0031220910044151614 0 0.0010121304388972937 -0.0020856895801674128 0 0.001014922853592518 -0.0022440267265614279 0 0.00095802976797520578 -0.0021490485256676043 0 1.398157395870264e-08 -1.1152146938025445e-07 0 1.2077419409434659e-08 -1.1678514824587051e-07 0 4.143101438788268e-05 -6.621301040196233e-05 0 -0.00032621317422615971 -0.0032335723208594801 0 -0.00043204528223567834 -0.0032328326903677744 0 -0.00037182872862047932 -0.0031220910044151614 0 -0.00091453094670173891 -0.0011821462249636272 0 -0.00087016981085887425 -0.0010421638418084145 0 -0.00084682434198173767 -0.0010932666409785769 0 -0.00094739157547450541 -0.0013259728580033898 0 -0.00091453094670173891 -0.0011821462249636272 0 -0.00087101932780387942 -0.0011960508961184704 0 -0.00021868534409848114 -0.0032340454087066424 0 -0.00032621317422615971 -0.0032335723208594801 0 -0.00029763653978501274 -0.0031178505277583497 0 1.0896460896891386e-08 -1.1124611790198208e-07 0 1.398157395870264e-08 -1.1152146938025445e-07 0 3.3020992867567011e-05 -6.8236464028547915e-05 0 0.0010068767435294764 -0.0019291647277213169 0 0.0010121304388972937 -0.0020856895801674128 0 0.00095350081716247183 -0.0020379981002981796 0 0.0006739174295447818 -0.0029366674272616952 0 0.00074335733823778592 -0.0028158256669307377 0 0.00074581577637167847 -0.0029360697631076668 0 -0.00086164936170013786 -0.0026192414582435382 0 -0.00079288004534449144 -0.0027322133913160115 0 -0.00086014374828283127 -0.002740305417471708 0 0.00032809386396203928 -0.00027348877227107717 0 0.00032852029011852849 -0.00032808207864762752 0 0.00026072151870576372 -0.00023334858326213317 0 -0.00033145480677933145 -0.00027766015433672395 0 -0.00042365221767474921 -0.00042216405695529724 0 -0.00045349788876057812 -0.00042280766655893574 0 0.00021670452336496285 -0.0023399569087997471 0 0.00023874798912720628 -0.0022047256949370617 0 0.00031230123445110167 -0.0023414473764995503 0 0.00031877018791548874 -0.0021772827094703887 0 0.00031230123445110167 -0.0023414473764995503 0 0.00023874798912720628 -0.0022047256949370617 0 -0.00052409894353463559 -0.0018569354020366723 0 -0.00044385790309001599 -0.0018825644196211518 0 -0.00052559661058517977 -0.0020068642382714426 0 -0.00042636979953588125 -0.0020078775936698333 0 -0.00052559661058517977 -0.0020068642382714426 0 -0.00044385790309001599 -0.0018825644196211518 0 0.00048066523772347119 -0.0011854773559459545 0 0.00040012654442434252 -0.0011368081403611964 0 0.00045795676089037933 -0.0010366646297620765 0 0.00036673451720665203 -0.0010093056354510016 0 0.00045795676089037933 -0.0010366646297620765 0 0.00040012654442434252 -0.0011368081403611964 0 -0.00015168193732751343 -0.00066760469524764865 0 -0.0001820608382759354 -0.00079222531018438591 0 -0.0002192865364825691 -0.00067554428957653791 0 -0.00024906127187605327 -0.00082769033293718592 0 -0.0002192865364825691 -0.00067554428957653791 0 -0.0001820608382759354 -0.00079222531018438591 0 0.00069982211652270512 -0.0026537766558982902 0 0.00074335733823778581 -0.0028158256669307373 0 0.00066740897522104864 -0.0027832911022367172 0 -0.00070009189847432122 -0.0026536990163198394 0 -0.00079288004534449144 -0.0027322133913160115 0 -0.00077573385418969458 -0.0026029188057863448 0 0.00067789740434734478 -0.001781016368788884 0 0.00074046415273485561 -0.0017175660344346366 0 0.00073857439280541892 -0.0018767536013698061 0 -0.00015272406457102084 -0.0026110175589049217 0 -0.00010263317818418184 -0.0027293683033297535 0 -0.00020964017791841902 -0.0027159892590584924 0 7.9608348471661168e-05 -0.00043104052986570317 0 4.5364525192555801e-05 -0.00033710704912907213 0 9.2645724548363382e-05 -0.00035039943002173512 0 -0.00064436647258461776 -0.0013190887429839937 0 -0.00071804309670897397 -0.001411127218155873 0 -0.00068979082486461684 -0.0012485574993462329 0 -2.4974887812694256e-06 -0.0010336397927715451 0 -6.6817460071183591e-05 -0.0010923533604032501 0 -5.0051419696252658e-05 -0.00093401095981444958 0 -0.00012551301443147246 -0.0010002641141492164 0 -5.0051419696252658e-05 -0.00093401095981444958 0 -6.6817460071183591e-05 -0.0010923533604032501 0 -0.00030660430592143525 -0.0026993207157013374 0 -0.00020964017791841902 -0.0027159892590584924 0 -0.00026678660655024853 -0.0028539590201480843 0 0.00073164128776759794 -0.0020231028440999737 0 0.00073857439280541892 -0.0018767536013698061 0 0.00081540188039617707 -0.0019749397600494377 0 -0.00065411539991852715 -0.0010982876390528322 0 -0.00068979082486461684 -0.0012485574993462329 0 -0.00074810798045008681 -0.0011872416464697305 0 0.00014240172298840651 -0.00036920934401318297 0 9.2645724548363382e-05 -0.00035039943002173512 0 9.1721374832998446e-05 -0.000248428066378238 0 0.00030581123087909976 -0.0015056800097812482 0 0.00025611719468432475 -0.0016799317668732647 0 0.00020516894634246702 -0.0015495442069785709 0 0.00031877018791548874 -0.0021772827094703887 0 0.00023874798912720628 -0.0022047256949370617 0 0.00023929766177947608 -0.0020678750188737535 0 -0.00042636979953588125 -0.0020078775936698333 0 -0.00044385790309001599 -0.0018825644196211518 0 -0.00036492657468757542 -0.001873154267730979 0 0.00036673451720665203 -0.0010093056354510016 0 0.00040012654442434252 -0.0011368081403611964 0 0.00031906598146399525 -0.0011240223338854296 0 -0.00024906127187605327 -0.00082769033293718592 0 -0.0001820608382759354 -0.00079222531018438591 0 -0.00019643476081469268 -0.0009192557934025301 0 -0.00023176295089956988 -0.0023417599371310296 0 -0.00024897944339884458 -0.0025474871714341921 0 -0.00031153969393159377 -0.0024605033755481214 0 0.00052550247957885174 -0.0018799354708259411 0 0.00064515101391484221 -0.0019226407095263018 0 0.00059556897967032575 -0.0020131491524027537 0 -0.00047865837728136356 -0.0011626890186890346 0 -0.00058868784782034286 -0.0011623508313211692 0 -0.00052263992343056821 -0.0010534498827694078 0 0.00016120658310905415 -0.00066551467526713927 0 0.00014284322945635675 -0.00048945105314884146 0 0.00019676426121242305 -0.00056865145205267783 0 -7.9139852256393268e-05 -0.0012451201115888692 0 -8.0537162651952025e-05 -0.0013866111737877895 0 -0.00015739371794878083 -0.0013006024608586968 0 0.00010584111717060474 -0.00091317948084497524 0 4.8720451836978613e-05 -0.00079041296803709059 0 0.00012122811190106389 -0.00079931484985783837 0 0.00018823732686864023 -0.0014192985983592572 0 0.00011519342926842127 -0.0015125822416791465 0 9.951259081439367e-05 -0.0013626462130777949 0 -0.00030830099459580059 -0.0020216554604095805 0 -0.00036492657468757542 -0.001873154267730979 0 -0.0002814772483602277 -0.0018585187566015344 0 0.00018823732686864023 -0.0014192985983592572 0 0.00020516894634246702 -0.0015495442069785709 0 0.00011519342926842127 -0.0015125822416791465 0 0.00010955033081123265 -0.0032340870895468761 0 -8.4573051166149826e-08 -0.0032339703253223872 0 3.2959507545564483e-05 -0.0031037623966951272 0 -0.0009994713356159435 -0.0017738659753280279 0 -0.00098683802869063589 -0.0016217779728301806 0 -0.00092895768157475812 -0.0016556639077581683 0 0.00097066578882281762 -0.0014730028207799143 0 0.00098678533822592904 -0.0016225294210486967 0 0.00092074342867578011 -0.001563074910035192 0 -3.9873719029330417e-09 -1.1154070945712655e-07 0 3.1087847577749807e-09 -1.1338240908165018e-07 0 -3.5429898641811451e-06 -7.6198951042516147e-05 0 0.00059564728212672133 -0.0017604725517049911 0 0.00056559801056879492 -0.001641664586821076 0 0.00064574217831601488 -0.0016588527133995447 0 -0.00014815356604141273 -0.002466477693845239 0 -7.4634270336394997e-05 -0.0024210460247769284 0 -7.5489074781741626e-05 -0.0025620430631769185 0 9.1273634497124564e-05 -0.00055053330961444343 0 4.60743601097894e-05 -0.00058609419078058708 0 4.2007738788314826e-05 -0.00046913097590260547 0 -0.00056486835865452302 -0.0013068591648439003 0 -0.00055049857180230956 -0.0014144207021940863 0 -0.00063008439849602637 -0.001429905019713045 0 0.00010584111717060474 -0.00091317948084497524 0 2.6464628457194043e-05 -0.00090693018459387092 0 4.8720451836978613e-05 -0.00079041296803709059 0 -0.00013929718601969724 -0.0016621191845800978 0 -4.393219612025848e-05 -0.0016493970456933247 0 -0.00010858150881554103 -0.001776409915502257 0 6.9267420170860106e-06 -0.0014822230204739148 0 -0.00010066655125761988 -0.0015321280213779001 0 -8.0537162651952025e-05 -0.0013866111737877895 0 -1.9516448683014743e-07 -3.2840437524806164e-07 0 -0.00014965692013832119 -0.00010924836085302034 0 -0.00032805862101175628 -0.00026530506122212386 0 1.9584917154355259e-07 -3.2848180011394531e-07 0 0.00015003053581520091 -0.000109400149511819 0 -3.6122942930732304e-09 -9.7214616790142983e-08 0 1.9584917154355259e-07 -3.2848180011394531e-07 0 0.00032839965693697389 -0.00026511665223990003 0 0.00015003053581520094 -0.00010940014951181903 0 -1.9516448683014743e-07 -3.2840437524806164e-07 0 3.1101347569013008e-09 -9.679721295655013e-08 0 -0.00014965692013832119 -0.00010924836085302034 0 0.0010109217631405979 -0.00321682561140583 0 0.00092162546520684226 -0.0032206664352710636 0 0.00095561869862227265 -0.0031132342746529916 0 0.0010109217631405979 -0.00321682561140583 0 0.00095561869862227265 -0.0031132342746529916 0 0.0010140413840098795 -0.0030540203403129048 0 -0.0010112060767671969 -0.0032167486056704623 0 -0.00095930898149534927 -0.0031193940017570023 0 -0.0009219762565206048 -0.0032206491773804531 0 -0.0010112060767671969 -0.0032167486056704623 0 -0.0010143862081672414 -0.0030540461003783887 0 -0.00095930898149534927 -0.0031193940017570023 0 -0.00030330210290034556 -0.0017257442020394886 0 -0.00021519065473395759 -0.0016064477643232388 0 -0.00020742046873095991 -0.0017521341956269053 0 -0.00018973270452637533 -0.0014522166118345187 0 -0.00025446102917702998 -0.0013441090535819345 0 -0.00015739371794878083 -0.0013006024608586968 0 -0.00021194758214239373 -0.0012067334306626865 0 -0.00015739371794878083 -0.0013006024608586968 0 -0.00025446102917702998 -0.0013441090535819345 0 0.00023963864357339865 -0.0029504977943103209 0 0.00030005604230864117 -0.0030804283613571817 0 0.00020384151752269531 -0.0030908715744029291 0 -0.00086584366076216095 -0.001941999169646121 0 -0.00093512391559713039 -0.0020403391275231855 0 -0.00093596243490701766 -0.0018999358805128926 0 0.00080618440383794599 -0.0012466358447918808 0 0.00085273150787353329 -0.0011845738496739802 0 0.00088330211765034171 -0.0013212948095396154 0 -6.1578700169050531e-05 -0.00017790002236381521 0 -4.3942250690587071e-05 -9.1430917686701515e-05 0 -2.8167923699614291e-05 -8.5262748710602249e-05 0 0.00036863076389383057 -0.0024639263542833132 0 0.00038597910707991806 -0.0022893983393539059 0 0.00046131378140864735 -0.0023741360069307448 0 -0.0005973970258219076 -0.0021037857635544054 0 -0.00049199019507084141 -0.0021194012894499644 0 -0.00054252961042616571 -0.0022464852120411892 0 0.00050639663038415665 -0.00096472593399007619 0 0.00040727789322125336 -0.00091540064234979057 0 0.00042310286846966691 -0.00080747102361566404 0 -0.00023609543030799103 -0.00057333811009465535 0 -0.00028406871248855682 -0.00073400679004689872 0 -0.00032395055303294093 -0.00066750136162012244 0 9.8686680597034714e-05 -0.0012128653011125503 0 9.951259081439367e-05 -0.0013626462130777949 0 1.5403739943679762e-05 -0.0013064147576995375 0 -0.00028487697894684328 -0.0010064170618893815 0 -0.00019643476081469268 -0.0009192557934025301 0 -0.00020772336958166878 -0.0010755870688807321 0 0.00043185011406404825 -0.0032328805346489241 0 0.00038323867095847372 -0.0031215862723879642 0 0.00047057621592604907 -0.0030657326520845923 0 -0.0010152643808215749 -0.0022441696457491892 0 -0.00095822884752307829 -0.002166890100803238 0 -0.0009309086600017781 -0.0022982094804372484 0 0.00038606956339480374 -0.0029953725726087244 0 0.00047057621592604907 -0.0030657326520845923 0 0.00038323867095847372 -0.0031215862723879642 0 -0.000893175842306818 -0.0021651228481616336 0 -0.0009309086600017781 -0.0022982094804372484 0 -0.00095822884752307829 -0.002166890100803238 0 0.00087071602182332375 -0.0010418076811710498 0 0.0008417407441503183 -0.001076715200538929 0 0.00077242709667789237 -0.00093615332625267029 0 -1.2094179947373327e-08 -1.1514359948730997e-07 0 -4.2462351930182771e-05 -6.7990583482289643e-05 0 -8.0680675332244045e-05 -0.00010916450501055315 0 0.00077973634721917187 -0.0010404862175895065 0 0.00077242709667789237 -0.00093615332625267029 0 0.0008417407441503183 -0.001076715200538929 0 -8.7474514733076783e-05 -0.00015014242780155013 0 -8.0680675332244045e-05 -0.00010916450501055315 0 -4.2462351930182771e-05 -6.7990583482289643e-05 0 0.00087097643887149414 -0.0026234234465059331 0 0.00079243150813593287 -0.0025945657665093062 0 0.00084440563763785506 -0.0024919656176095621 0 -0.00067633752739786035 -0.0029543053062839188 0 -0.00066204352473785816 -0.0028132479943176118 0 -0.00059725344026471331 -0.0029055378063129592 0 0.00056932204862815969 -0.0021347461257723694 0 0.00059556897967032575 -0.0020131491524027537 0 0.00065953591580802441 -0.0021229396430055714 0 -0.00039010220969078034 -0.002417314845848435 0 -0.00031153969393159377 -0.0024605033755481214 0 -0.00037682361421016307 -0.0025710847473852686 0 0.00026135430432977432 -0.00061766738879014799 0 0.00019676426121242305 -0.00056865145205267783 0 0.00021325412409273548 -0.00048007182803308767 0 -0.00047366536821869887 -0.00092552909228999706 0 -0.00052263992343056821 -0.0010534498827694078 0 -0.00056110222851992722 -0.00096760091944477226 0 0.00020418155489206055 -0.00019995385207680831 0 0.00028600449501353398 -0.00032157798006586508 0 0.00020341439013679485 -0.0002413400616566183 0 -0.00055775331382477446 -0.00056332579107578066 0 -0.00050376800434534671 -0.00055391447097139738 0 -0.00060271018926543189 -0.00068273711560423646 0 -0.00012551301443147246 -0.0010002641141492164 0 -6.6817460071183591e-05 -0.0010923533604032501 0 -0.00013980447346074979 -0.0011578984415180568 0 -0.00014114317408638548 -0.0028953547076853207 0 -0.00010263317818418182 -0.0027293683033297535 0 -2.7507865278143891e-05 -0.0028525602117420662 0 -0.00079954224923739427 -0.001379489836094334 0 -0.00071804309670897397 -0.001411127218155873 0 -0.00079425941724982439 -0.0015393759669407271 0 0.0008319115771668118 -0.0017915051304533754 0 0.00074046415273485561 -0.0017175660344346366 0 0.00080005754412540095 -0.0016201412424045861 0 4.3128767194692179e-05 -0.00021489405769724805 0 4.5364525192555801e-05 -0.00033710704912907208 0 9.6462362715371019e-06 -0.00024533725708049089 0 3.2754941160046258e-05 -0.0021721033844434912 0 -2.0710518349611707e-05 -0.0023147954143279406 0 -7.2308691431179374e-05 -0.0021833901953241738 0 -0.00011599872846210797 -0.0023155416680944582 0 -7.2308691431179374e-05 -0.0021833901953241738 0 -2.0710518349611707e-05 -0.0023147954143279406 0 -0.00041736898741868961 -0.0015572038261573871 0 -0.00049602630266729118 -0.0014865650563847443 0 -0.00041423378241457385 -0.0013932048351823531 0 -0.00048480255906441455 -0.0013393316555934279 0 -0.00041423378241457385 -0.0013932048351823528 0 -0.00049602630266729118 -0.0014865650563847443 0 0.00041811699148252077 -0.0014542407047443571 0 0.00050037487900509673 -0.0015422055732282811 0 0.00042101819126817372 -0.0016061795318644914 0 0.00050623633287657903 -0.0016978015887307244 0 0.00042101819126817372 -0.0016061795318644914 0 0.00050037487900509673 -0.0015422055732282811 0 0.00038606956339480374 -0.0029953725726087244 0 0.00031491265878915629 -0.0029377336912053821 0 0.00036934137083507703 -0.002820057187382648 0 -0.000893175842306818 -0.0021651228481616336 0 -0.00086119170245112383 -0.0020536922063391877 0 -0.00079912070656335368 -0.0021285751485539592 0 0.00077973634721917187 -0.0010404862175895065 0 0.00077340910812776105 -0.0011329839553044967 0 0.00069599674063504737 -0.0010252139815051242 0 -8.7474514733076783e-05 -0.00015014242780155013 0 -8.5389871279861388e-05 -0.0001893670265664569 0 -0.00013944388454247071 -0.00027811543970182926 0 0.00030636439515921714 -0.0026992787545611365 0 0.00036934137083507703 -0.002820057187382648 0 0.00027365523631494221 -0.0028103586798188798 0 -0.00073188544954162565 -0.0020230798295759259 0 -0.00079912070656335368 -0.0021285751485539592 0 -0.00079211032416961298 -0.0019822074324747771 0 0.00065382580748447709 -0.0010988483875130216 0 0.00069599674063504737 -0.0010252139815051242 0 0.00072311839548195775 -0.0011685643457610545 0 -0.00014239399299794192 -0.00036836031206518227 0 -0.00013944388454247074 -0.00027811543970182926 0 -0.00010358926913830158 -0.00028118915843970189 0 -7.9139852256393268e-05 -0.0012451201115888692 0 9.6092737325070598e-06 -0.0011568112682602898 0 1.5403739943679762e-05 -0.0013064147576995375 0 0.00075339313610150733 -0.0022051389954631569 0 0.00080520504206581364 -0.0021075415001100706 0 0.00083724294462007647 -0.002209403074762078 0 -0.00042238947443926301 -0.0027370564979705666 0 -0.00035511779515799084 -0.0028320384895639829 0 -0.00041887658569390618 -0.0028901723428404209 0 0.00018959669529152037 -0.00034576899865788278 0 0.00013127600312672137 -0.00026844340895855814 0 0.00013729622276631133 -0.00022741906715108192 0 -0.00063014208841381987 -0.00092660445163165106 0 -0.00070715901424326863 -0.0010499915151299421 0 -0.00071174312248039055 -0.0009656867620353697 0 0.00060750059771624918 -0.0026789970428287234 0 0.00066740897522104864 -0.0027832911022367172 0 0.00060064602939173604 -0.0028496295208765366 0 -0.00071762959400758586 -0.0024995774335483524 0 -0.00077573385418969469 -0.0026029188057863448 0 -0.00081408193497584645 -0.002495573458463035 0 0.00036863076389383057 -0.0024639263542833132 0 0.00031230123445110167 -0.0023414473764995503 0 0.00038597910707991806 -0.0022893983393539059 0 -0.0005973970258219076 -0.0021037857635544054 0 -0.00052559661058517977 -0.0020068642382714426 0 -0.00049199019507084141 -0.0021194012894499644 0 0.00050639663038415665 -0.00096472593399007619 0 0.00045795676089037933 -0.0010366646297620765 0 0.00040727789322125336 -0.00091540064234979057 0 -0.00023609543030799103 -0.00057333811009465535 0 -0.00021928653648256913 -0.00067554428957653791 0 -0.00028406871248855682 -0.00073400679004689872 0 -0.00012491919536581795 -0.0020655358489915757 0 -9.8752740206159786e-05 -0.0019274684886481435 0 -4.8309854461322912e-05 -0.0020577112416260363 0 0.00043185011406404825 -0.0032328805346489241 0 0.00032600204584999691 -0.0032334879250626382 0 0.00038323867095847372 -0.0031215862723879642 0 -0.0010152643808215749 -0.0022441696457491892 0 -0.0010123703433513784 -0.0020860517238803491 0 -0.00095822884752307829 -0.002166890100803238 0 0.00087071602182332375 -0.0010418076811710498 0 0.00091462593926243635 -0.001181050712715922 0 0.0008417407441503183 -0.001076715200538929 0 -1.2094179947373327e-08 -1.1514359948730997e-07 0 -1.6903545623731671e-08 -1.1255065132478055e-07 0 -4.2462351930182771e-05 -6.7990583482289643e-05 0 -2.4974887812694256e-06 -0.0010336397927715451 0 -5.0051419696252658e-05 -0.00093401095981444958 0 2.6464628457194043e-05 -0.00090693018459387092 0 -8.4573051166149826e-08 -0.0032339703253223872 0 -0.00010965030256376969 -0.0032338912502835036 0 -5.5015209172906393e-05 -0.0031311956555864426 0 -0.00098683802869063589 -0.0016217779728301806 0 -0.00096946304156324086 -0.0014733809796692468 0 -0.00093062396882001206 -0.0015352448165862397 0 0.00098678533822592904 -0.0016225294210486969 0 0.00099815383346541203 -0.0017740537126059029 0 0.00094406508371007859 -0.0016895931643636883 0 3.1087847577749807e-09 -1.1338240908165018e-07 0 -2.5362757664644545e-10 -1.1623135698059539e-07 0 5.9288611207700111e-06 -5.9572449294272385e-05 0 0.00056612566354337357 -0.0005754377591032767 0 0.00058882925478204173 -0.00066708708797532236 0 0.000502803909550045 -0.00055369701247446235 0 -0.00019626050704702527 -0.00019642219107532749 0 -0.00021477893522371935 -0.00025368938083643084 0 -0.00028701828272606142 -0.00032361327845084999 0 -2.7987651223659232e-05 -0.00079233387234574229 0 2.6464628457194043e-05 -0.00090693018459387092 0 -5.0051419696252658e-05 -0.00093401095981444958 0 0.00018823732686864023 -0.0014192985983592572 0 0.00019010695896400147 -0.0012754977465814651 0 0.00026162413928400649 -0.0013675207955700687 0 0.00028398391120773879 -0.0012604284336386565 0 0.00026162413928400649 -0.0013675207955700687 0 0.00019010695896400147 -0.0012754977465814651 0 -0.00096946304156324086 -0.0014733809796692468 0 -0.00089441533469792733 -0.0014216784124064623 0 -0.00093062396882001206 -0.0015352448165862397 0 -0.00010965030256376969 -0.0032338912502835036 0 -0.00013161704330434126 -0.0030819364526530339 0 -5.5015209172906393e-05 -0.0031311956555864426 0 -2.5362757664644545e-10 -1.1623135698059539e-07 0 1.9267523316080815e-05 -9.0214839133060198e-05 0 5.9288611207700111e-06 -5.9572449294272385e-05 0 0.00099815383346541203 -0.0017740537126059029 0 0.00092630007498205715 -0.0017946142856081501 0 0.00094406508371007859 -0.0016895931643636883 0 0.00015570475577004548 -0.0021727649237159286 0 0.00023929766177947608 -0.0020678750188737535 0 0.00023874798912720628 -0.0022047256949370617 0 -0.00042138079319486153 -0.0017446367060820116 0 -0.00036492657468757548 -0.001873154267730979 0 -0.00044385790309001599 -0.0018825644196211518 0 0.00039589656731161979 -0.0012669492228001777 0 0.00031906598146399525 -0.0011240223338854296 0 0.00040012654442434252 -0.0011368081403611964 0 -0.00011895255523521906 -0.00081585281249164151 0 -0.00019643476081469268 -0.0009192557934025301 0 -0.0001820608382759354 -0.00079222531018438591 0 -0.00030330210290034556 -0.0017257442020394886 0 -0.0002814772483602277 -0.0018585187566015344 0 -0.00036492657468757542 -0.001873154267730979 0 -0.00013929718601969724 -0.0016621191845800978 0 -0.00020742046873095993 -0.0017521341956269053 0 -0.00021519065473395759 -0.0016064477643232388 0 0.00036863076389383057 -0.0024639263542833132 0 0.00046131378140864735 -0.0023741360069307448 0 0.00043386178442390963 -0.0025344131213144339 0 -0.0005973970258219076 -0.0021037857635544054 0 -0.00054252961042616571 -0.0022464852120411892 0 -0.00063735297585240614 -0.0022115377203412397 0 0.00050639663038415665 -0.00096472593399007619 0 0.00042310286846966691 -0.00080747102361566404 0 0.0005182462943365987 -0.00087207645818961879 0 -0.00023609543030799103 -0.00057333811009465535 0 -0.00032395055303294093 -0.00066750136162012244 0 -0.00026147788938456554 -0.00052115416518868285 0 -0.00028487697894684328 -0.0010064170618893815 0 -0.00020772336958166878 -0.0010755870688807321 0 -0.00028711981721966663 -0.0011595964840387446 0 0.00038606956339480374 -0.0029953725726087244 0 0.00036934137083507703 -0.002820057187382648 0 0.0004442501358043879 -0.0028922820044476015 0 -0.000893175842306818 -0.0021651228481616336 0 -0.00079912070656335368 -0.0021285751485539592 0 -0.00083887933473040838 -0.0022490185755480153 0 0.00077973634721917187 -0.0010404862175895065 0 0.00069599674063504737 -0.0010252139815051242 0 0.00069680576441548219 -0.00092408951963585692 0 -8.7474514733076783e-05 -0.00015014242780155013 0 -0.00013944388454247071 -0.00027811543970182926 0 -0.00014706202813574351 -0.00023225140694079017 0 7.5530499918234661e-05 -0.0028346277195258332 0 0.00015101807614422547 -0.0029266259600031624 0 5.3158637438235268e-05 -0.0029630432983163862 0 -0.0007951661390750627 -0.001689032184590973 0 -0.00084878422882174367 -0.0018093857605704577 0 -0.00086027222224904646 -0.0016705283935270563 0 -2.7358869092095018e-05 -0.00025883380717893961 0 -4.1645521524412345e-05 -0.00019498214911536501 0 -1.35425310213564e-05 -0.00016801869177541349 0 -0.00021194758214239373 -0.0012067334306626865 0 -0.00028711981721966663 -0.0011595964840387446 0 -0.00020772336958166878 -0.0010755870688807321 0 0.00098678533822592904 -0.0016225294210486969 0 0.00094406508371007859 -0.0016895931643636883 0 0.00092074342867578011 -0.001563074910035192 0 3.1087847577749807e-09 -1.1338240908165018e-07 0 5.9288611207700111e-06 -5.9572449294272378e-05 0 -3.5429898641811451e-06 -7.6198951042516147e-05 0 0.00088043141800342906 -0.0016404428332314686 0 0.00092074342867578011 -0.001563074910035192 0 0.00094406508371007859 -0.0016895931643636883 0 6.1112552063258796e-06 -0.00013743652753647775 0 -3.5429898641811451e-06 -7.6198951042516134e-05 0 5.9288611207700111e-06 -5.9572449294272385e-05 0 -0.00098683802869063589 -0.0016217779728301806 0 -0.00093062396882001206 -0.0015352448165862397 0 -0.00092895768157475812 -0.0016556639077581683 0 -8.4573051166149826e-08 -0.0032339703253223872 0 -5.5015209172906393e-05 -0.0031311956555864426 0 3.2959507545564483e-05 -0.0031037623966951272 0 -2.9441496518708538e-05 -0.0030074401034071202 0 3.295950754556449e-05 -0.0031037623966951272 0 -5.5015209172906393e-05 -0.0031311956555864426 0 -0.00087392278010864658 -0.001556473665434074 0 -0.00092895768157475812 -0.0016556639077581683 0 -0.00093062396882001206 -0.0015352448165862397 0 0.00011629989955046422 -0.0030534516522961086 0 5.3158637438235268e-05 -0.0029630432983163862 0 0.00015101807614422547 -0.0029266259600031624 0 -0.00091089068924192051 -0.0017704045745637919 0 -0.00086027222224904646 -0.0016705283935270563 0 -0.00084878422882174367 -0.0018093857605704577 0 -1.8919590111573792e-05 -0.00011095085515413785 0 -1.3542531021356402e-05 -0.00016801869177541349 0 -4.1645521524412345e-05 -0.00019498214911536501 0 0.00043734685878264609 -0.002694260440007245 0 0.00037026015446239906 -0.0026046644165424308 0 0.00043386178442390963 -0.0025344131213144339 0 -0.0007294074255783607 -0.0022261758646632572 0 -0.00067874723400262668 -0.0021153152330895199 0 -0.00063735297585240614 -0.0022115377203412397 0 0.00060054839211376801 -0.00089478860321940594 0 0.00058124314893628665 -0.00098307335046981473 0 0.0005182462943365987 -0.00087207645818961879 0 -0.00021237033766568586 -0.00038337246558241218 0 -0.00020129512926234282 -0.00045251766563225227 0 -0.00026147788938456554 -0.00052115416518868285 0 -0.0003388515317879548 -0.0012952837314674981 0 -0.00025446102917702998 -0.0013441090535819345 0 -0.00034577449448958218 -0.0014234923801999847 0 -0.00011599872846210797 -0.0023155416680944582 0 -7.4634270336394984e-05 -0.0024210460247769284 0 -0.00014815356604141273 -0.002466477693845239 0 0.00050623633287657903 -0.0016978015887307244 0 0.00056559801056879492 -0.001641664586821076 0 0.00059564728212672133 -0.0017604725517049911 0 -0.00048480255906441455 -0.0013393316555934279 0 -0.00055049857180230956 -0.0014144207021940863 0 -0.00056486835865452302 -0.0013068591648439003 0 8.0104719772698208e-05 -0.00067836323932775832 0 4.60743601097894e-05 -0.00058609419078058708 0 9.1273634497124564e-05 -0.00055053330961444343 0 0.00032600204584999691 -0.0032334879250626382 0 0.00030005604230864117 -0.0030804283613571817 0 0.00038323867095847372 -0.0031215862723879642 0 -0.0010123703433513784 -0.0020860517238803491 0 -0.00093512391559713039 -0.0020403391275231855 0 -0.00095822884752307829 -0.002166890100803238 0 0.00091462593926243635 -0.001181050712715922 0 0.00085273150787353329 -0.0011845738496739802 0 0.0008417407441503183 -0.001076715200538929 0 -1.6903545623731671e-08 -1.1255065132478055e-07 0 -4.3942250690587071e-05 -9.1430917686701515e-05 0 -4.2462351930182771e-05 -6.7990583482289643e-05 0 0.00038606956339480374 -0.0029953725726087244 0 0.00038323867095847372 -0.0031215862723879642 0 0.00030005604230864117 -0.0030804283613571817 0 -0.000893175842306818 -0.0021651228481616336 0 -0.00095822884752307829 -0.002166890100803238 0 -0.00093512391559713039 -0.0020403391275231855 0 0.00077973634721917187 -0.0010404862175895065 0 0.0008417407441503183 -0.001076715200538929 0 0.00085273150787353329 -0.0011845738496739802 0 -8.7474514733076783e-05 -0.00015014242780155013 0 -4.2462351930182778e-05 -6.7990583482289657e-05 0 -4.3942250690587071e-05 -9.1430917686701515e-05 0 0.00088222285159248902 -0.0014394929300116275 0 0.00084728457882801667 -0.0015161652626723302 0 0.00080911062789042339 -0.0013687415075374525 0 0.0007779337940626704 -0.0014662052754714154 0 0.00080911062789042339 -0.0013687415075374525 0 0.00084728457882801667 -0.0015161652626723302 0 -1.785046178096939e-05 -0.0017953419927956235 0 -9.8752740206159786e-05 -0.0019274684886481435 0 -0.00010858150881554103 -0.001776409915502257 0 9.8708857228894725e-05 -0.002349214783470205 0 0.00016732768098537824 -0.0024570577727557556 0 8.3290364599146051e-05 -0.0025383000659774334 0 -0.00052534663704352307 -0.0016739032456828404 0 -0.00059091042753036543 -0.0017895556069980581 0 -0.00063295955345558615 -0.0016683351402122782 0 0.00050651917105496 -0.001369010489113613 0 0.00055555051382078196 -0.0012756637197408767 0 0.00061534998563901762 -0.0014147663968819464 0 -6.7619938303043503e-05 -0.00065134417182847884 0 -0.00010409010997287471 -0.00056174212449433244 0 -4.7005343610629609e-05 -0.00049007117805062038 0 0.00015904844556598408 -0.0016334252801489782 0 0.00020516894634246699 -0.0015495442069785709 0 0.00025611719468432475 -0.0016799317668732647 0 0.00036934137083507703 -0.002820057187382648 0 0.00031491265878915635 -0.0029377336912053821 0 0.00027365523631494221 -0.0028103586798188798 0 -0.00079912070656335368 -0.0021285751485539592 0 -0.00086119170245112383 -0.0020536922063391877 0 -0.00079211032416961298 -0.0019822074324747771 0 0.00069599674063504737 -0.0010252139815051242 0 0.00077340910812776105 -0.0011329839553044967 0 0.00072311839548195775 -0.0011685643457610545 0 -0.00013944388454247071 -0.00027811543970182926 0 -8.5389871279861388e-05 -0.0001893670265664569 0 -0.00010358926913830158 -0.00028118915843970189 0 -1.785046178096939e-05 -0.0017953419927956235 0 -0.00010858150881554103 -0.001776409915502257 0 -4.393219612025848e-05 -0.0016493970456933247 0 0.00088415783390565904 -0.0021001658286942822 0 0.00083724294462007647 -0.002209403074762078 0 0.00080520504206581364 -0.0021075415001100706 0 8.292832315869806e-05 -0.00015985135645983075 0 0.00013729622276631133 -0.00022741906715108192 0 0.0001312760031267214 -0.0002684434089585582 0 -0.00034413308847351822 -0.0029799635226204629 0 -0.00041887658569390618 -0.0028901723428404209 0 -0.00035511779515799084 -0.0028320384895639829 0 -0.00078849591518216015 -0.0010987927901266719 0 -0.00071174312248039055 -0.0009656867620353697 0 -0.00070715901424326863 -0.0010499915151299421 0 0.00023963864357339865 -0.0029504977943103209 0 0.00031491265878915635 -0.0029377336912053821 0 0.00030005604230864117 -0.0030804283613571817 0 -0.00086584366076216095 -0.001941999169646121 0 -0.00086119170245112383 -0.0020536922063391877 0 -0.00093512391559713039 -0.0020403391275231855 0 0.00080618440383794599 -0.0012466358447918808 0 0.00077340910812776116 -0.0011329839553044967 0 0.00085273150787353329 -0.0011845738496739802 0 -6.1578700169050531e-05 -0.00017790002236381521 0 -8.5389871279861388e-05 -0.0001893670265664569 0 -4.3942250690587071e-05 -9.1430917686701515e-05 0 0.00038606956339480374 -0.0029953725726087244 0 0.00030005604230864117 -0.0030804283613571817 0 0.00031491265878915635 -0.0029377336912053821 0 -0.000893175842306818 -0.0021651228481616336 0 -0.00093512391559713039 -0.0020403391275231855 0 -0.00086119170245112383 -0.0020536922063391877 0 0.00077973634721917187 -0.0010404862175895065 0 0.00085273150787353329 -0.0011845738496739802 0 0.00077340910812776105 -0.0011329839553044967 0 -8.7474514733076783e-05 -0.00015014242780155013 0 -4.3942250690587071e-05 -9.1430917686701515e-05 0 -8.5389871279861388e-05 -0.0001893670265664569 0 0.00014913482567013132 -0.0025983299903404511 0 8.3290364599146051e-05 -0.0025383000659774334 0 0.00016732768098537827 -0.0024570577727557556 0 -0.00067068786681993636 -0.001774524000313837 0 -0.00063295955345558615 -0.0016683351402122782 0 -0.00059091042753036543 -0.0017895556069980581 0 0.00063775110065756213 -0.0013224383790439026 0 0.00061534998563901762 -0.0014147663968819464 0 0.00055555051382078196 -0.0012756637197408767 0 -7.8743018328916484e-05 -0.00044254424564487278 0 -4.7005343610629602e-05 -0.00049007117805062038 0 -0.00010409010997287471 -0.00056174212449433244 0 -0.00012491919536581795 -0.0020655358489915757 0 -7.2308691431179374e-05 -0.0021833901953241738 0 -0.00016109765859565392 -0.0021873847774357517 0 -0.00011599872846210797 -0.0023155416680944582 0 -0.00016109765859565392 -0.0021873847774357517 0 -7.2308691431179374e-05 -0.0021833901953241738 0 0.00035588649426203183 -0.0016929370665013292 0 0.00042101819126817372 -0.0016061795318644914 0 0.00043218502923128528 -0.0017545743798013781 0 -0.0003388515317879548 -0.0012952837314674981 0 -0.00041423378241457385 -0.0013932048351823531 0 -0.00041106988416796195 -0.0012667277448287577 0 0.00050623633287657903 -0.0016978015887307244 0 0.00043218502923128528 -0.0017545743798013781 0 0.00042101819126817372 -0.0016061795318644914 0 -0.00048480255906441455 -0.0013393316555934279 0 -0.00041106988416796195 -0.0012667277448287577 0 -0.00041423378241457385 -0.0013932048351823531 0 -7.9139852256393268e-05 -0.0012451201115888692 0 -6.6817460071183591e-05 -0.0010923533604032501 0 9.6092737325070598e-06 -0.0011568112682602898 0 -2.4974887812694256e-06 -0.0010336397927715451 0 9.6092737325070564e-06 -0.0011568112682602898 0 -6.6817460071183591e-05 -0.0010923533604032501 0 8.0104719772698208e-05 -0.00067836323932775832 0 0.00012122811190106389 -0.00079931484985783837 0 4.8720451836978613e-05 -0.00079041296803709059 0 -2.7987651223659232e-05 -0.00079233387234574229 0 4.8720451836978613e-05 -0.00079041296803709059 0 2.6464628457194043e-05 -0.00090693018459387092 0 -7.9139852256393268e-05 -0.0012451201115888692 0 -0.00015739371794878083 -0.0013006024608586968 0 -0.00013980447346074979 -0.0011578984415180568 0 -0.00021194758214239373 -0.0012067334306626865 0 -0.00013980447346074979 -0.0011578984415180568 0 -0.00015739371794878083 -0.0013006024608586968 0 0.00088222285159248902 -0.0014394929300116275 0 0.00092074342867578011 -0.001563074910035192 0 0.00084728457882801667 -0.0015161652626723302 0 -1.8919590111573792e-05 -0.00011095085515413785 0 -3.5429898641811451e-06 -7.6198951042516147e-05 0 -1.35425310213564e-05 -0.00016801869177541349 0 0.00088043141800342906 -0.0016404428332314686 0 0.00084728457882801667 -0.0015161652626723302 0 0.00092074342867578011 -0.001563074910035192 0 6.1112552063258796e-06 -0.00013743652753647775 0 -1.35425310213564e-05 -0.00016801869177541349 0 -3.5429898641811451e-06 -7.6198951042516147e-05 0 0.00011629989955046422 -0.0030534516522961086 0 3.2959507545564483e-05 -0.0031037623966951272 0 5.3158637438235268e-05 -0.0029630432983163862 0 -0.00091089068924192051 -0.0017704045745637919 0 -0.00092895768157475812 -0.0016556639077581683 0 -0.00086027222224904646 -0.0016705283935270563 0 -2.9441496518708538e-05 -0.0030074401034071202 0 5.3158637438235268e-05 -0.0029630432983163862 0 3.2959507545564483e-05 -0.0031037623966951272 0 -0.00087392278010864658 -0.001556473665434074 0 -0.00086027222224904646 -0.0016705283935270563 0 -0.00092895768157475812 -0.0016556639077581683 0 0.00044162969081066862 -0.0022113787482080593 0 0.00046131378140864735 -0.0023741360069307448 0 0.00038597910707991806 -0.0022893983393539059 0 -0.00044414508751322026 -0.0022078039384471021 0 -0.00054252961042616581 -0.0022464852120411892 0 -0.00049199019507084141 -0.0021194012894499644 0 0.00034811318202790495 -0.00082107105003728393 0 0.00042310286846966691 -0.00080747102361566404 0 0.00040727789322125336 -0.00091540064234979057 0 -0.0003448733760584076 -0.00081751197690913251 0 -0.00032395055303294093 -0.00066750136162012244 0 -0.00028406871248855682 -0.00073400679004689872 0 -2.7987651223659232e-05 -0.00079233387234574229 0 1.1088242345626029e-05 -0.00067806393613973855 0 4.8720451836978613e-05 -0.00079041296803709059 0 -9.7882686947478246e-08 -0.0024651035457132209 0 -7.4634270336394984e-05 -0.0024210460247769284 0 -2.0710518349611707e-05 -0.0023147954143279406 0 -0.00011599872846210797 -0.0023155416680944582 0 -2.0710518349611707e-05 -0.0023147954143279406 0 -7.4634270336394984e-05 -0.0024210460247769284 0 0.00050623633287657903 -0.0016978015887307244 0 0.00050037487900509673 -0.0015422055732282811 0 0.00056559801056879492 -0.001641664586821076 0 0.00058410783291458338 -0.0015334544361190906 0 0.00056559801056879492 -0.001641664586821076 0 0.00050037487900509673 -0.0015422055732282811 0 -0.00058438115866908105 -0.0015334046565897244 0 -0.00055049857180230956 -0.0014144207021940863 0 -0.00049602630266729118 -0.0014865650563847443 0 -0.00048480255906441455 -0.0013393316555934279 0 -0.00049602630266729118 -0.0014865650563847443 0 -0.00055049857180230956 -0.0014144207021940863 0 8.0104719772698208e-05 -0.00067836323932775832 0 1.1088242345626022e-05 -0.00067806393613973855 0 4.60743601097894e-05 -0.00058609419078058708 0 -1.2627803716383572e-07 -0.00055052310647680115 0 4.60743601097894e-05 -0.00058609419078058719 0 1.1088242345626022e-05 -0.00067806393613973855 0 0.00030581123087909976 -0.0015056800097812482 0 0.00026162413928400649 -0.0013675207955700687 0 0.00033830467544279246 -0.0013804904932713876 0 -9.7882686947478246e-08 -0.0024651035457132209 0 -7.5489074781741626e-05 -0.0025620430631769185 0 -7.4634270336394984e-05 -0.0024210460247769284 0 -0.00058438115866908105 -0.0015334046565897244 0 -0.00063008439849602637 -0.001429905019713045 0 -0.00055049857180230956 -0.0014144207021940863 0 0.00058410783291458338 -0.0015334544361190906 0 0.00064574217831601488 -0.0016588527133995447 0 0.00056559801056879492 -0.001641664586821076 0 -1.2627803716383572e-07 -0.00055052310647680115 0 4.2007738788314819e-05 -0.00046913097590260547 0 4.60743601097894e-05 -0.00058609419078058708 0 8.0104719772698208e-05 -0.00067836323932775832 0 4.8720451836978613e-05 -0.00079041296803709059 0 1.1088242345626022e-05 -0.00067806393613973855 0 0.00031877018791548874 -0.0021772827094703887 0 0.00038597910707991806 -0.0022893983393539059 0 0.00031230123445110167 -0.0023414473764995503 0 -0.00042636979953588125 -0.0020078775936698333 0 -0.00049199019507084141 -0.0021194012894499644 0 -0.00052559661058517977 -0.0020068642382714426 0 0.00036673451720665203 -0.0010093056354510016 0 0.00040727789322125336 -0.00091540064234979057 0 0.00045795676089037933 -0.0010366646297620765 0 -0.00024906127187605327 -0.00082769033293718592 0 -0.00028406871248855682 -0.00073400679004689872 0 -0.0002192865364825691 -0.00067554428957653791 0 0.00028398391120773879 -0.0012604284336386565 0 0.00033830467544279246 -0.0013804904932713876 0 0.00026162413928400649 -0.0013675207955700687 0 0.0010121304388972937 -0.0020856895801674128 0 0.00095802976797520578 -0.0021490485256676043 0 0.00095350081716247183 -0.0020379981002981796 0 1.398157395870264e-08 -1.1152146938025445e-07 0 4.143101438788268e-05 -6.621301040196233e-05 0 3.3020992867567011e-05 -6.8236464028547915e-05 0 -0.00032621317422615971 -0.0032335723208594801 0 -0.00037182872862047932 -0.0031220910044151614 0 -0.00029763653978501274 -0.0031178505277583497 0 -0.00091453094670173891 -0.0011821462249636272 0 -0.00084682434198173767 -0.0010932666409785769 0 -0.00087101932780387942 -0.0011960508961184704 0 0.00036863076389383057 -0.0024639263542833132 0 0.00043386178442390963 -0.0025344131213144339 0 0.00037026015446239906 -0.0026046644165424308 0 -0.0005973970258219076 -0.0021037857635544054 0 -0.00063735297585240614 -0.0022115377203412397 0 -0.00067874723400262668 -0.0021153152330895199 0 0.00050639663038415665 -0.00096472593399007619 0 0.0005182462943365987 -0.00087207645818961879 0 0.00058124314893628665 -0.00098307335046981473 0 -0.00023609543030799103 -0.00057333811009465535 0 -0.00026147788938456554 -0.00052115416518868285 0 -0.00020129512926234282 -0.00045251766563225227 0 -0.00012491919536581795 -0.0020655358489915757 0 -4.8309854461322912e-05 -0.0020577112416260363 0 -7.2308691431179374e-05 -0.0021833901953241738 0 -0.0003388515317879548 -0.0012952837314674981 0 -0.00034577449448958218 -0.0014234923801999847 0 -0.00041423378241457385 -0.0013932048351823531 0 -7.9139852256393268e-05 -0.0012451201115888692 0 -0.00013980447346074979 -0.0011578984415180568 0 -6.6817460071183591e-05 -0.0010923533604032501 0 -0.00030330210290034556 -0.0017257442020394886 0 -0.00020742046873095991 -0.0017521341956269053 0 -0.0002814772483602277 -0.0018585187566015344 0 0.00023963864357339865 -0.0029504977943103209 0 0.00027365523631494215 -0.0028103586798188798 0 0.00031491265878915635 -0.0029377336912053821 0 -0.00086584366076216095 -0.001941999169646121 0 -0.00079211032416961298 -0.0019822074324747771 0 -0.00086119170245112383 -0.0020536922063391877 0 0.00080618440383794599 -0.0012466358447918808 0 0.00072311839548195775 -0.0011685643457610545 0 0.00077340910812776105 -0.0011329839553044967 0 -6.1578700169050531e-05 -0.00017790002236381521 0 -0.00010358926913830158 -0.00028118915843970189 0 -8.5389871279861388e-05 -0.0001893670265664569 0 -0.00020489937390547598 -0.0018903997081686779 0 -0.0002814772483602277 -0.0018585187566015344 0 -0.00020742046873095991 -0.0017521341956269053 0 
</DataArray>
</PointData>
<CellData Scalars="" Vectors="" Tensors="stress,">
<DataArray type="Float64" Name="stress" NumberOfComponents="9" format="ascii">
13343425.12668097 529854.9773709774 0 529854.9773709774 -101048359.57832432 0 0 0 -30696727.058075309 9854952.37961936 -1550165.8197224736 0 -1550165.8197224736 -100289020.22824621 0 0 0 -31651923.747019291 6603547.5424095392 -151310.49404650927 0 -151310.49404650927 -101207397.28998375 0 0 0 -33111347.411651015 -6776729.0696484447 1929920.4047511816 0 1929920.4047511816 -101230600.44324028 0 0 0 -37802565.329511017 12725858.429082394 -664456.149166435 0 -664456.149166435 -101049585.7039113 0 0 0 -30913304.546190143 12203879.059425831 -1023800.6828834713 0 -1023800.6828834713 -101397573.44937873 0 0 0 -31217793.036483526 5210174.2034707665 453097.66155523062 0 453097.66155523062 -101946015.59674001 0 0 0 -33857544.487644255 5433506.4843416214 1231347.9808488786 0 1231347.9808488786 -101491711.79642868 0 0 0 -33620371.859230518 9411849.1949590445 -424425.16101849079 0 -424425.16101849079 -100091079.94945693 0 0 0 -31737730.764074206 3118408.185385108 946278.02517789602 0 946278.02517789602 -98311433.089363337 0 0 0 -33317558.716392159 1609156.640835464 2080827.6840453595 0 2080827.6840453595 -94722430.496979833 0 0 0 -32589645.849650502 -39542142.972353481 -16055016.068192404 0 -16055016.068192404 -98280233.942227498 0 0 0 -48237831.920103371 4375743.5797967911 -111961.02878779641 0 -111961.02878779641 -99661002.34569788 0 0 0 -33349840.568065166 564585.84560662578 100569.50646936893 0 100569.50646936893 -99807990.124545932 0 0 0 -34735191.497628868 3784595.5461470783 -4825758.418377474 0 -4825758.418377474 -97812852.751362443 0 0 0 -32909890.021825343 4409385.9927151203 118589.68960011005 0 118589.68960011005 -99657202.367399216 0 0 0 -33336735.731139421 -56189323.479578771 34949833.624887988 0 34949833.624887988 -104389678.38224794 0 0 0 -56202650.651639342 576612.94181537628 -120504.5153208971 0 -120504.5153208971 -99743711.880422592 0 0 0 -34708484.628512621 3864786.6029368043 4970486.3151759803 0 4970486.3151759803 -97472655.273017824 0 0 0 -32762754.034528404 -56461922.904437661 -34996201.535607137 0 -34996201.535607137 -104896114.81018901 0 0 0 -56475313.200119339 -228220.35509073734 1862614.0345330536 0 1862614.0345330536 -97488051.950126886 0 0 0 -34200695.306826174 -34807991.659278952 -21819572.384463876 0 -21819572.384463876 -88074348.343736485 0 0 0 -43008819.001055397 7542426.1023142338 -187097.14274632931 0 -187097.14274632931 -100071402.7952199 0 0 0 -32385141.842516899 788212.32904410362 279321.97266581655 0 279321.97266581655 -99906689.787470818 0 0 0 -34691467.110449076 807831.72185063362 -268211.2751173377 0 -268211.2751173377 -99919932.546283245 0 0 0 -34689235.288551331 -35489599.890795514 21656392.657698873 0 21656392.657698873 -88578376.930545196 0 0 0 -43423791.887469247 7746863.5926327705 231212.51692312956 0 231212.51692312956 -99952593.495968342 0 0 0 -32272005.466167688 -34725.857793211937 -1915526.6923724934 0 -1915526.6923724934 -97853545.031262755 0 0 0 -34260894.811169624 13925134.158722639 -112315.87307587266 0 -112315.87307587266 -100534594.15164375 0 0 0 -30313310.997522473 6895335.5845087767 1976026.677727133 0 1976026.677727133 -99584270.012201548 0 0 0 -32441127.049692512 6635043.9731472731 -1488765.3177856505 0 -1488765.3177856505 -100154592.75741851 0 0 0 -32731842.074494898 -13230595.752644062 -204384.19019148499 0 -204384.19019148499 -95753363.801743746 0 0 0 -38144385.844035745 8279632.1211886406 -53399.027911413832 0 -53399.027911413832 -99985738.964873314 0 0 0 -32097137.395289898 1222081.9055512273 297633.46130883694 0 297633.46130883694 -98858207.094211489 0 0 0 -34172643.816031188 1146150.4704127631 1350398.2121335864 0 1350398.2121335864 -87844062.400689662 0 0 0 -30344269.175596859 -51900286.36718569 -19971016.183953434 0 -19971016.183953434 -96403603.438239932 0 0 0 -51906361.431898959 1237121.9945854121 -351461.42992371321 0 -351461.42992371321 -98922935.703773692 0 0 0 -34190034.79821597 -51733033.141149737 19883974.926575068 0 19883974.926575068 -96090779.886660516 0 0 0 -51738334.559733585 8273218.7174012661 45274.919223016121 0 45274.919223016121 -100224002.47616482 0 0 0 -32182774.315567255 1256185.6021054387 -1580036.0350251794 0 -1580036.0350251794 -87689102.924947619 0 0 0 -30251521.062994719 1009444.0096516609 -336714.91428492963 0 -336714.91428492963 -99448571.452890873 0 0 0 -34453694.605133533 -32491156.493676212 18014763.911895912 0 18014763.911895912 -85155487.942808613 0 0 0 -41176325.552769691 9897784.8963682652 308140.99448537827 0 308140.99448537827 -99745624.144612789 0 0 0 -31446743.736885548 -642600.39956110716 609928.69543801993 0 609928.69543801993 -95591940.823001146 0 0 0 -33682089.427896798 6119864.5541460514 -825607.3927526772 0 -825607.3927526772 -99139285.828080654 0 0 0 -32556797.445877075 6853750.3005825281 569337.84584057331 0 569337.84584057331 -99698187.911023259 0 0 0 -32495553.163654208 13545722.928546667 537944.981095016 0 537944.981095016 -100670520.43000412 0 0 0 -30493679.125510454 9009199.7552381009 -1900223.0719693303 0 -1900223.0719693303 -100597301.55494067 0 0 0 -32055835.629895881 6948349.4284194559 340760.89308589697 0 340760.89308589697 -101218871.90209705 0 0 0 -32994682.865787163 -4873544.2866803408 2326931.2133788783 0 2326931.2133788783 -97877145.300974965 0 0 0 -35962741.355679393 4365990.8820543289 -109101.08745920658 0 -109101.08745920658 -100391715.46079063 0 0 0 -33609003.602557659 1108989.4810481071 232217.65111851692 0 232217.65111851692 -100199967.92529678 0 0 0 -34681842.455487013 -6793407.6487648487 -9254249.7781085372 0 -9254249.7781085372 -111732702.90747195 0 0 0 -41484138.694682837 4455490.4191306233 97068.604445338249 0 97068.604445338249 -100453506.8741473 0 0 0 -33599305.759256065 -34135801.66016946 27871329.385791324 0 27871329.385791324 -95193933.692830652 0 0 0 -45265407.373550043 1128203.2479689121 -247519.05713447928 0 -247519.05713447928 -100121223.74392366 0 0 0 -34647557.173583984 -6035782.1157227159 9469581.4831671119 0 9469581.4831671119 -111592930.48301843 0 0 0 -41170049.409559399 -34431755.298745386 -27933005.7861326 0 -27933005.7861326 -94762414.862506077 0 0 0 -45217959.556438029 -1877926.0787665248 -6079120.323404327 0 -6079120.323404327 -100989882.63470823 0 0 0 -36003733.049716234 -28225289.711414456 14503544.377012875 0 14503544.377012875 -101621765.04395837 0 0 0 -45446469.164380491 5667137.5182222128 -1292472.2638069391 0 -1292472.2638069391 -98319014.694959521 0 0 0 -32428157.011858106 9318763.3236782551 678474.54926082492 0 678474.54926082492 -99718258.104596138 0 0 0 -31639823.173321128 10302110.298634171 -543816.99841463566 0 -543816.99841463566 -100110679.92930055 0 0 0 -31432999.37073338 2548156.4380788803 1078447.4002112746 0 1078447.4002112746 -99423757.636364937 0 0 0 -33906460.419399977 1435756.0896488428 1403748.3219094425 0 1403748.3219094425 -98630338.535955071 0 0 0 -34018103.856207252 -24657465.615012191 -13871535.033873908 0 -13871535.033873908 -89395338.557023853 0 0 0 -39918481.460212626 -33932972.857218079 7915203.6781204101 0 7915203.6781204101 -93394203.381529912 0 0 0 -44564511.683561794 3612719.0772080421 -1549305.4011662006 0 -1549305.4011662006 -97312012.751179218 0 0 0 -32794752.785889864 2749716.5086802244 589105.92984333634 0 589105.92984333634 -95079994.484183669 0 0 0 -32315597.291426301 12425679.542225122 350093.58935928345 0 350093.58935928345 -100319346.99352503 0 0 0 -30762783.607954741 13823942.735626459 -121280.3115452528 0 -121280.3115452528 -100479323.54354954 0 0 0 -30329383.282773256 6918742.1096369028 1774762.710236907 0 1774762.710236907 -98369413.516437769 0 0 0 -32007734.992380261 6365728.9828480482 -1735982.3636286855 0 -1735982.3636286855 -98417358.962830544 0 0 0 -32218070.492993951 -20310318.789629161 -1552674.4224100411 0 -1552674.4224100411 -97132096.900777578 0 0 0 -41104845.491642326 5286344.549826622 -530461.88591057062 0 -530461.88591057062 -100194338.16768885 0 0 0 -33217797.766251802 5862153.713470459 667328.93476581573 0 667328.93476581573 -99978989.608380795 0 0 0 -32940892.563218355 -6582511.9535294771 16313052.750590488 0 16313052.750590488 -101101248.5837872 0 0 0 -37689316.18806085 -7401343.1970711946 -16730136.759278793 0 -16730136.759278793 -99604190.186460733 0 0 0 -37451936.684236169 -3279568.2727904916 -8470604.8027019091 0 -8470604.8027019091 -105323367.35841632 0 0 0 -38011027.47092241 -16804576.634687241 15769036.582722306 0 15769036.582722306 -95119606.30630818 0 0 0 -39173464.029348403 -11730081.898642421 13744778.871208705 0 13744778.871208705 -105723660.04169357 0 0 0 -41108809.67911762 -19953695.805895016 -17116235.585485741 0 -17116235.585485741 -104588049.63546753 0 0 0 -43589610.904476836 12023254.096730232 947233.11508095264 0 947233.11508095264 -100733886.87282741 0 0 0 -31048721.47163403 10054814.356437206 -1718657.6134006083 0 -1718657.6134006083 -99574800.464304447 0 0 0 -31331995.137753487 2079139.7892538309 -2440849.0139105767 0 -2440849.0139105767 -102111803.58474422 0 0 0 -35011432.328421593 -7001594.3208524287 4569951.9819554389 0 4569951.9819554389 -100678244.67660701 0 0 0 -37687943.649110824 9734994.2219190598 365142.23015999794 0 365142.23015999794 -100035923.03280604 0 0 0 -31605325.083810568 1777176.3176232576 -1942975.5018126145 0 -1942975.5018126145 -94692246.319125175 0 0 0 -32520274.500525713 3438058.7307727337 -1005645.84914276 0 -1005645.84914276 -98223047.080427647 0 0 0 -33174745.922379255 -38663536.20179078 15469960.997586016 0 15469960.997586016 -97398392.630167693 0 0 0 -47621675.091185451 8077082.6758353114 723294.45189237595 0 723294.45189237595 -100357826.37313908 0 0 0 -32298260.294056356 4921770.9254422188 -847218.99250239134 0 -847218.99250239134 -99419443.764536381 0 0 0 -33074185.493682861 12844933.542307198 892131.10516709089 0 892131.10516709089 -100286448.57189298 0 0 0 -30604530.260355055 9548813.8484323025 -1746321.1869095862 0 -1746321.1869095862 -100554203.87488985 0 0 0 -31851886.509260058 3676533.4000495672 -888852.88045599312 0 -888852.88045599312 -101264498.09728003 0 0 0 -34155787.644030571 -6242940.3240522295 4429339.0076150894 0 4429339.0076150894 -100193769.54945317 0 0 0 -37252848.455726877 12243376.636660099 -473263.45892420411 0 -473263.45892420411 -101771613.31223035 0 0 0 -31334882.836449504 1503255.8581531048 -655843.16727347672 0 -655843.16727347672 -96021707.188527822 0 0 0 -33081457.965631008 -36711301.223259397 6462613.1862116829 0 6462613.1862116829 -85353667.048387691 0 0 0 -42722738.895076469 13338564.210655391 163085.18771886826 0 163085.18771886826 -99878413.454091728 0 0 0 -30288947.23520261 605774.07772827148 1311903.2746780403 0 1311903.2746780403 -93959949.260172129 0 0 0 -32673961.31385529 13686745.365945578 131275.82151651382 0 131275.82151651382 -99974972.932425976 0 0 0 -30200879.648267984 2415659.6319645047 1876578.4100975394 0 1876578.4100975394 -95283527.943042755 0 0 0 -32503753.908877373 3150776.0856339931 -1319021.9965603352 0 -1319021.9965603352 -95750619.105063796 0 0 0 -32409945.056800365 -33974881.241035916 3603348.4744291604 0 3603348.4744291604 -89898344.368692487 0 0 0 -43355628.963404931 11665950.923584338 -281318.78506428003 0 -281318.78506428003 -101688473.45186706 0 0 0 -31507882.884898905 996698.81636529148 -311203.51956421137 0 -311203.51956421137 -98266369.083111405 0 0 0 -34044384.593361087 -50163441.642857552 15610029.484700995 0 15610029.484700995 -93169337.561517462 0 0 0 -50166472.72153125 9968018.6103076935 155296.73311208587 0 155296.73311208587 -100196476.79444981 0 0 0 -31579960.364449739 1274248.5627011454 99132.981510221958 0 99132.981510221958 -86908371.822427437 0 0 0 -29971943.140904147 4722705.9603173733 -2099927.4440871477 0 -2099927.4440871477 -98873296.489501238 0 0 0 -32952706.68521452 13650751.63712132 316461.51063716412 0 316461.51063716412 -100122443.72126794 0 0 0 -30265092.22945106 -20033012.120366201 3472119.4709303081 0 3472119.4709303081 -90700994.124999732 0 0 0 -38756902.185878068 4537890.0880242586 1382464.6526682973 0 1382464.6526682973 -98740017.168841839 0 0 0 -32970744.478286147 5381408.3368216157 -1966276.3806138635 0 -1966276.3806138635 -97264240.600151241 0 0 0 -32158991.292165339 -29062005.088123828 4899130.7861324679 0 4899130.7861324679 -95957775.864205271 0 0 0 -43756923.333315194 13092735.216015577 366840.12418696284 0 366840.12418696284 -100360166.6895051 0 0 0 -30543601.015721321 3952683.854369998 943688.44178897142 0 943688.44178897142 -96784492.683581859 0 0 0 -32491133.090224266 10082288.406489968 -1595809.6077633649 0 -1595809.6077633649 -101203303.39969921 0 0 0 -31892355.247623324 13293997.031425208 699764.60113763809 0 699764.60113763809 -100500342.33442003 0 0 0 -30522220.856048256 -1393003.55580277 2411401.6296729743 0 2411401.6296729743 -99983873.421183854 0 0 0 -35481906.941945262 5320355.7208076715 196896.92193001509 0 196896.92193001509 -101942179.64724231 0 0 0 -33817638.3742522 13734766.112622976 -340187.71583518712 0 -340187.71583518712 -100698910.37931776 0 0 0 -30437450.493343115 9510252.2347836606 1498029.5867323279 0 1498029.5867323279 -101310626.42305632 0 0 0 -32130130.965895522 7933477.2847466543 -833327.92749834061 0 -833327.92749834061 -101429369.08769457 0 0 0 -32723562.131031863 -977315.79582351446 -1330817.8719121013 0 -1330817.8719121013 -98227467.53741467 0 0 0 -34721674.166633308 2760438.775437355 2663997.9864664944 0 2663997.9864664944 -95281024.219249606 0 0 0 -32382204.905334234 -39055964.118338086 -22528719.842232741 0 -22528719.842232741 -98789288.804222569 0 0 0 -48245838.522896223 7926841.9108692408 -328587.44451451302 0 -328587.44451451302 -99480729.899411678 0 0 0 -32043860.795989871 2958320.4712910652 474134.89564524591 0 474134.89564524591 -98679090.285269737 0 0 0 -33502269.434892416 2681530.5913900137 -450090.81681156158 0 -450090.81681156158 -98865325.666983843 0 0 0 -33664328.276457787 -38076079.362350091 23283645.362545364 0 23283645.362545364 -97853145.742837697 0 0 0 -47575228.786815733 8159600.3144652843 363165.92063850164 0 363165.92063850164 -99355762.756522179 0 0 0 -31918656.854719639 2907202.1742936075 -2677294.1538033485 0 -2677294.1538033485 -95702219.645022511 0 0 0 -32478256.114755124 13380433.00244391 -488459.32593194395 0 -488459.32593194395 -101084915.65284467 0 0 0 -30696568.927640319 9737721.3797601536 1575018.3003320694 0 1575018.3003320694 -100303565.33481918 0 0 0 -31698045.384270541 6626765.7041792497 6708.5183292925358 0 6708.5183292925358 -101109454.9347768 0 0 0 -33068941.230709113 -6363108.6326434612 -1609832.2602548655 0 -1609832.2602548655 -100587326.20121968 0 0 0 -37432652.191852093 8062518.1811826229 -1556505.9899537712 0 -1556505.9899537712 -99431307.974977255 0 0 0 -31979076.427828193 11410986.212679744 1010448.593853116 0 1010448.593853116 -99836035.52737546 0 0 0 -30948767.260143518 -13844453.548228294 9016818.2677344978 0 9016818.2677344978 -100526644.5088392 0 0 0 -40029884.319973618 -657084.39013975859 -3445889.2342488468 0 -3445889.2342488468 -101803024.54842651 0 0 0 -35861038.128498137 6682482.3452330828 -1738036.8522543311 0 -1738036.8522543311 -99740802.698768258 0 0 0 -32570412.123737335 -11987803.425407588 8996468.355269365 0 8996468.355269365 -95869604.326294988 0 0 0 -37750092.713095903 10956103.145888567 826217.03623956442 0 826217.03623956442 -100325143.8944509 0 0 0 -31279164.261996746 3557010.7409020662 -2826321.293674767 0 -2826321.293674767 -100965187.31033224 0 0 0 -34092861.799300581 11292149.329880595 -1359317.9813878536 0 -1359317.9813878536 -100727579.94755888 0 0 0 -31302400.716187477 12550378.374983311 907028.74207282066 0 907028.74207282066 -100787756.13600266 0 0 0 -30883082.216356754 -1681353.9593278468 2553204.5851876736 0 2553204.5851876736 -101942244.15084755 0 0 0 -36268259.338561326 3013011.8661577702 -1580026.5601120889 0 -1580026.5601120889 -101863594.12002861 0 0 0 -34597703.788854837 12386274.988968845 -693061.44008517265 0 -693061.44008517265 -99882471.543665871 0 0 0 -30623668.7941438 11575974.477769017 -791783.11407893896 0 -791783.11407893896 -100318617.71014857 0 0 0 -31059925.131332874 6280246.4838688374 1904159.1334650666 0 1904159.1334650666 -98924611.220038414 0 0 0 -32425527.657659531 6094810.8233398199 1573870.837769568 0 1573870.837769568 -99267939.861629963 0 0 0 -32610595.163401723 3332015.1818569899 434095.1498851871 0 434095.1498851871 -99260531.035716295 0 0 0 -33574980.548850775 2235383.2560760379 1853032.633870244 0 1853032.633870244 -101301653.52158856 0 0 0 -34673194.592929423 -19513341.643871788 -7824840.7055585086 0 -7824840.7055585086 -96786083.881232947 0 0 0 -40704798.933786638 -15815792.51664111 -9387894.6987900734 0 -9387894.6987900734 -94792415.95752877 0 0 0 -38712872.96595946 12943557.748430312 176936.95266783237 0 176936.95266783237 -101751080.93501425 0 0 0 -31082633.115304291 6141971.431256175 586148.07654446363 0 586148.07654446363 -101553412.56875563 0 0 0 -33394004.398124814 13733843.798016071 99531.75497469306 0 99531.75497469306 -100158588.94624615 0 0 0 -30248660.801880598 3538188.5597851872 1294303.224367857 0 1294303.224367857 -96538240.007643938 0 0 0 -32550018.006750524 3206446.8864046931 -2018165.543890357 0 -2018165.543890357 -97482044.588397443 0 0 0 -32996459.195697367 -27793069.260473564 1121778.7502599237 0 1121778.7502599237 -89887841.942100018 0 0 0 -41188318.920900762 12752854.770313621 -160462.25143434107 0 -160462.25143434107 -101379556.74108648 0 0 0 -31019345.689770341 12975139.387710094 -308854.35616817325 0 -308854.35616817325 -101679670.17830086 0 0 0 -31046585.776706696 -24567054.473647237 9663261.576881662 0 9663261.576881662 -91149783.931246057 0 0 0 -40500893.441712648 3945171.1884016991 -1407529.447455354 0 -1407529.447455354 -98579892.062613726 0 0 0 -33122152.305974007 12610728.043211728 453609.23654997349 0 453609.23654997349 -99812331.911021292 0 0 0 -30520561.35373351 3750950.1550723314 772854.74502458423 0 772854.74502458423 -97286685.476550579 0 0 0 -32737507.362517357 7856802.2097581625 -1185164.0573407412 0 -1185164.0573407412 -99053005.92022419 0 0 0 -31918671.29866302 7939894.1810871363 995372.83678764105 0 995372.83678764105 -99874960.500783682 0 0 0 -32177273.211893916 -11558763.074308455 10857829.208085164 0 10857829.208085164 -101671737.47706231 0 0 0 -39630675.192979753 -9144917.72359097 -10938889.491565019 0 -10938889.491565019 -104325374.15851176 0 0 0 -39714602.158735901 6848602.0137293339 -1890162.6489252746 0 -1890162.6489252746 -99856152.683524609 0 0 0 -32552642.734428406 12610345.5306288 711941.34367376566 0 711941.34367376566 -100190424.25153923 0 0 0 -30653027.552318692 -11757560.708257318 6805474.9178418815 0 6805474.9178418815 -94241317.90841803 0 0 0 -37099607.515836388 4948563.0705901384 -594150.41669198871 0 -594150.41669198871 -100444758.29530692 0 0 0 -33423668.328650892 11619700.833663419 -984021.71432340145 0 -984021.71432340145 -101641649.33817196 0 0 0 -31507681.976578042 9460383.636633873 -556521.77395564318 0 -556521.77395564318 -99439911.366770744 0 0 0 -31492834.705548048 3530647.1241885424 953393.74065262079 0 953393.74065262079 -99000913.829844236 0 0 0 -33414593.346979499 7754295.4006752968 -426011.93407613039 0 -426011.93407613039 -100332339.99346018 0 0 0 -32402315.607474804 3203896.4868674278 699219.56553560495 0 699219.56553560495 -99691790.603183746 0 0 0 -33770762.940710545 9242170.3176681995 -1080423.4233384191 0 -1080423.4233384191 -99468993.448620796 0 0 0 -31579388.095833302 7486951.3725745678 -979505.92524448037 0 -979505.92524448037 -100224538.7332778 0 0 0 -32458155.576246262 7256943.1667708959 1224212.0523204803 0 1224212.0523204803 -100198185.71695277 0 0 0 -32529434.8925635 7865824.7163116336 1125269.1735568047 0 1125269.1735568047 -99116593.968834758 0 0 0 -31937769.238383114 -1262054.9706027992 7102007.2549066544 0 7102007.2549066544 -100014414.65986566 0 0 0 -35446764.370663956 -8175810.7167072445 10571105.113528416 0 10571105.113528416 -104040362.98494229 0 0 0 -39275660.795577332 -8325624.0950201154 -10871150.04977373 0 -10871150.04977373 -100232331.33902663 0 0 0 -37995284.401916385 -10393601.265981674 -10899425.727718554 0 -10899425.727718554 -101055473.31566584 0 0 0 -39007176.10357666 2891920.9201467037 -43416.595898270607 0 -43416.595898270607 -100408360.01308918 0 0 0 -34130753.682529926 -18023608.233603984 24975906.924605131 0 24975906.924605131 -130986044.9997915 0 0 0 -52153378.631688416 -20758861.611200381 27892166.777103879 0 27892166.777103879 -106327667.36209217 0 0 0 -44480285.140652373 2651787.5113210678 118973.09925806522 0 118973.09925806522 -99756606.198117256 0 0 0 -33986686.540378571 2719855.4582583904 -105586.37814799696 0 -105586.37814799696 -99710077.253129005 0 0 0 -33946577.628204823 -20857699.757254325 -27835036.287102982 0 -27835036.287102982 -106185211.84053268 0 0 0 -44465019.059225447 -16599786.873198509 -24458906.169750128 0 -24458906.169750128 -130359347.99308771 0 0 0 -51435697.203200191 2871430.377573505 22485.578838586807 0 22485.578838586807 -100495591.33478534 0 0 0 -34168456.335024104 3468556.6978970766 -1449379.3298042417 0 -1449379.3298042417 -97883760.054584265 0 0 0 -33045321.174840569 13380934.795724154 318327.15857493877 0 318327.15857493877 -99854451.53429842 0 0 0 -30265730.858500957 -26344443.264489248 6525593.6379384398 0 6525593.6379384398 -88418950.509959981 0 0 0 -40167187.82105723 3094045.3334784508 1577014.2034426033 0 1577014.2034426033 -96792952.736555815 0 0 0 -32794617.591077268 12452881.54441303 -997623.34976387024 0 -997623.34976387024 -100717826.76601881 0 0 0 -30892730.827561915 11475351.924520016 1267496.9664097652 0 1267496.9664097652 -101067878.18608928 0 0 0 -31357384.191549063 2889630.229460597 965990.00779051334 0 965990.00779051334 -101931129.46700406 0 0 0 -34664524.73314023 1167732.2658571601 -2182331.5564403236 0 -2182331.5564403236 -101265993.28224997 0 0 0 -35034391.355737507 730989.67653915309 -610700.56665378809 0 -610700.56665378809 -95059322.552636191 0 0 0 -33014916.506634027 -48194620.513515927 4418406.3718485059 0 4418406.3718485059 -89517038.197642162 0 0 0 -48199080.548905328 13183140.613198042 98013.571600849536 0 98013.571600849536 -100128500.61464167 0 0 0 -30430876.000505209 1417142.4816234701 722067.81400454044 0 722067.81400454044 -89949613.534660473 0 0 0 -30986364.868562877 2370908.8929081112 16425544.698672451 0 16425544.698672451 -108780181.60756972 0 0 0 -37243245.45013155 -40861579.611832678 -37176528.507316492 0 -37176528.507316492 -115313836.60420352 0 0 0 -54661395.675612688 -40495842.30712647 37080144.557347119 0 37080144.557347119 -115497351.81527153 0 0 0 -54597617.94283931 1139938.1650321484 -46074.012018933892 0 -46074.012018933892 -100112757.65698004 0 0 0 -34640486.822181702 3049253.4010810852 -114514.63689357042 0 -114514.63689357042 -99521228.715263844 0 0 0 -33765191.359963894 1136410.987210989 28106.906792163849 0 28106.906792163849 -100081174.17261314 0 0 0 -34630667.114890814 2205416.9518525898 -16252761.515239531 0 -16252761.515239531 -109296073.96992213 0 0 0 -37481729.956324309 3021937.4579098225 106275.55746304989 0 106275.55746304989 -99557971.523283362 0 0 0 -33787611.92288065 13301888.834597901 -66512.165220618248 0 -66512.165220618248 -100141918.57006061 0 0 0 -30394010.407411978 687457.92918729782 864643.21626372635 0 864643.21626372635 -97006396.970702648 0 0 0 -33711628.664530516 1359543.3702715635 -523970.42331969738 0 -523970.42331969738 -93552659.632018089 0 0 0 -32267590.69161129 -36033195.229380272 -4166341.3887634836 0 -4166341.3887634836 -85367598.800827518 0 0 0 -42490277.910572723 -14029571.234328508 15972707.459887054 0 15972707.459887054 -101277951.07668489 0 0 0 -40357632.808854699 -3064505.0126688257 -9610995.1895159185 0 -9610995.1895159185 -100479704.42036921 0 0 0 -36240473.3015633 10759081.289801233 -879230.61769628525 0 -879230.61769628525 -99591007.892437309 0 0 0 -31091174.310922511 7196861.6707851887 1452156.8278351128 0 1452156.8278351128 -98846716.648796558 0 0 0 -32077449.242304087 53921.640038609505 4009276.6419898923 0 4009276.6419898923 -100844818.79047894 0 0 0 -35276814.002654076 -19268236.789127953 -11193921.788823426 0 -11193921.788823426 -101177783.94999151 0 0 0 -42156107.258691825 13791171.240483522 -34065.921820946038 0 -34065.921820946038 -100359321.0807333 0 0 0 -30298852.444087505 5408858.4304174632 2143224.5348069072 0 2143224.5348069072 -97106446.354789853 0 0 0 -32094155.773530319 5406599.0312244147 -1663636.0804910064 0 -1663636.0804910064 -97040821.120116323 0 0 0 -32071977.731112078 -26795338.229696691 259109.97131717205 0 259109.97131717205 -95176269.115437746 0 0 0 -42690062.570797056 2132931.3802633733 -805402.02606660128 0 -805402.02606660128 -98291564.4169949 0 0 0 -33655521.562856093 10840469.037829399 589461.84752333164 0 589461.84752333164 -99943996.819223881 0 0 0 -31186234.723488331 -26054403.131332576 13935364.732458472 0 13935364.732458472 -90234251.020868927 0 0 0 -40701028.953270525 3011789.5711834431 -1086515.7006300092 0 -1086515.7006300092 -99010702.180873334 0 0 0 -33599619.413391709 8730305.4380387068 -1696096.4672207236 0 -1696096.4672207236 -99752929.146492481 0 0 0 -31857918.297958732 11178441.203282833 1064492.0661729276 0 1064492.0661729276 -100647226.98162794 0 0 0 -31314075.022420883 -7195915.1777997017 6719112.3121065125 0 6719112.3121065125 -98105344.931285322 0 0 0 -36855441.038179815 2406383.3934696913 -3388092.3348657787 0 -3388092.3348657787 -101332571.41368341 0 0 0 -34624165.807074666 5756517.6998898983 -848758.14188230038 0 -848758.14188230038 -99930707.442769468 0 0 0 -32960966.410007715 8223301.7803328037 850602.26470720768 0 850602.26470720768 -99489300.614415169 0 0 0 -31943099.59192872 9995997.9486678839 -1212572.8585309982 0 -1212572.8585309982 -101506931.28330374 0 0 0 -32028826.667122722 9420202.1211368404 -794137.02254265547 0 -794137.02254265547 -101180301.96474409 0 0 0 -32116034.945262615 9548572.9247999191 -1569573.4330784976 0 -1569573.4330784976 -99636854.635909557 0 0 0 -31530898.598888636 11593650.165594876 1128702.576326251 0 1128702.576326251 -99814334.27443707 0 0 0 -30877239.438094556 -9049017.1929473877 6433676.976320684 0 6433676.976320684 -101827213.28375453 0 0 0 -38806680.666845679 -1033590.4829477072 -3530296.58333648 0 -3530296.58333648 -102420368.1463747 0 0 0 -36208885.520262957 4840762.536182791 -105506.36423122883 0 -105506.36423122883 -99352856.661052585 0 0 0 -33079232.943704695 2870604.4441158772 222436.26515299827 0 222436.26515299827 -99398751.156370163 0 0 0 -33784851.349289179 -5868377.4085369408 14225076.232455414 0 14225076.232455414 -104512349.43282801 0 0 0 -38633254.394477725 2900448.1080389023 -251414.86905366182 0 -251414.86905366182 -99422935.97574091 0 0 0 -33782870.753695607 -37922788.838507116 31547846.07162929 0 31547846.07162929 -114571728.80279943 0 0 0 -53373081.174457312 -38336091.257590674 -30663119.7374692 0 -30663119.7374692 -115016238.44332053 0 0 0 -53673315.395318918 4917166.7211432457 125655.56881386042 0 125655.56881386042 -99380285.482781172 0 0 0 -33062091.566573143 -5603817.0069583058 -14279495.780243695 0 -14279495.780243695 -104972833.17369759 0 0 0 -38701827.563229531 5204969.9760964885 -42258.925600647926 0 -42258.925600647926 -101976425.6131247 0 0 0 -33870009.472959779 3977803.1246151924 -179891.25374331325 0 -179891.25374331325 -101738792.45465302 0 0 0 -34216346.265513301 11095256.600182891 -1042636.1625838876 0 -1042636.1625838876 -101047250.93012226 0 0 0 -31483198.01547873 13991468.672696128 109940.23157000542 0 109940.23157000542 -100472763.48384136 0 0 0 -30268453.183900937 6756386.8608599901 1577117.5550726708 0 1577117.5550726708 -99930253.37874794 0 0 0 -32610853.281260848 7073169.2341310978 -1854652.9269833416 0 -1854652.9269833416 -99419643.743315697 0 0 0 -32321266.078214645 -13688855.448598843 587616.90299725533 0 587616.90299725533 -95906347.269214109 0 0 0 -38358320.951234534 10303191.780953646 -766503.67562630773 0 -766503.67562630773 -100343719.49657202 0 0 0 -31514184.700466394 4926540.9905083179 1490218.8537774682 0 1490218.8537774682 -99596227.453068972 0 0 0 -33134390.261896372 1513006.3665277064 3014475.935175091 0 3014475.935175091 -101076490.22769678 0 0 0 -34847219.351409227 -15090488.813338801 -11212422.507869463 0 -11212422.507869463 -92442968.453478128 0 0 0 -37636710.043385923 10486430.560779154 -1749710.2725127339 0 -1749710.2725127339 -100306193.88260734 0 0 0 -31436917.162639856 12539820.074517608 934245.13706201315 0 934245.13706201315 -101014566.41318655 0 0 0 -30966161.218533993 -1630280.819332242 2219548.3805907816 0 2219548.3805907816 -100025465.4119575 0 0 0 -35579511.180951416 5449933.2687509656 -1204506.8753298521 0 -1204506.8753298521 -101443383.88115847 0 0 0 -33597707.714342654 5484536.9236724377 -1302867.7175476551 0 -1302867.7175476551 -100072292.86940193 0 0 0 -33105714.581005335 -12511068.957592025 12586769.20352523 0 12586769.20352523 -95412754.198455572 0 0 0 -37773338.104616657 9633056.9538140297 866970.35178935528 0 866970.35178935528 -100226411.72885776 0 0 0 -31707674.171265364 1120686.079785347 -5119065.0178606808 0 -5119065.0178606808 -101311404.51309645 0 0 0 -35066751.451658905 11956901.237440109 -583650.82535591722 0 -583650.82535591722 -101316607.39766383 0 0 0 -31275897.156078339 11085392.702275753 579480.52740088105 0 579480.52740088105 -101683350.94384909 0 0 0 -31709285.384550571 10492880.037857294 202860.78545701504 0 202860.78545701504 -101980751.83679199 0 0 0 -32020755.129627109 12958898.176225781 627418.11131595075 0 627418.11131595075 -101301722.69203711 0 0 0 -30919988.580533862 12812469.438476324 551224.2530785799 0 551224.2530785799 -101217637.49292469 0 0 0 -30941808.819056749 -2083487.7629964352 6438627.9821552932 0 6438627.9821552932 -102236698.82023573 0 0 0 -36512065.30413121 -28578072.583893314 -15478757.647600874 0 -15478757.647600874 -101362880.47747657 0 0 0 -45479333.571479425 9574721.1329061985 257521.69209292531 0 257521.69209292531 -101846971.78422737 0 0 0 -32295287.727962375 9548577.149400115 -240841.73432302475 0 -240841.73432302475 -99912669.421156645 0 0 0 -31627432.295114875 987162.09258508682 344993.05176818371 0 344993.05176818371 -99315555.684943199 0 0 0 -34414937.757325411 -452225.12973731756 -264576.6527210921 0 -264576.6527210921 -95188366.447312474 0 0 0 -33474207.051967442 -33198418.983653057 -17778307.495905302 0 -17778307.495905302 -85506514.998222083 0 0 0 -41546726.893656291 2551847.9006608725 -1593864.0402702391 0 -1593864.0402702391 -96748499.559119701 0 0 0 -32968828.080460668 -36413506.142785527 4177299.1647808515 0 4177299.1647808515 -91338580.98295486 0 0 0 -44713230.49400913 13087688.824847549 213709.65160953999 0 213709.65160953999 -100314731.82891005 0 0 0 -30529465.05142203 3178512.2826122046 873609.88116401061 0 873609.88116401061 -93405220.280419111 0 0 0 -31579347.799232483 12252050.511036083 494974.29996967316 0 494974.29996967316 -101434985.55688901 0 0 0 -31214027.266048506 1573159.0948955938 -1099942.8087263107 0 -1099942.8087263107 -100803603.56365392 0 0 0 -34730655.564065404 -2218495.8633767962 -232025.82691454887 0 -232025.82691454887 -101369454.64281753 0 0 0 -36255782.677168071 12397905.39944768 -96629.639062469127 0 -96629.639062469127 -99916433.420214653 0 0 0 -30631484.807268381 1084333.783946668 421115.87043738365 0 421115.87043738365 -96102838.87539427 0 0 0 -33256476.782006588 1086211.5587952838 -958527.41582462192 0 -958527.41582462192 -88382941.380955905 0 0 0 -30553855.437756229 -48179024.586481184 -9934487.2187443171 0 -9934487.2187443171 -89485992.753542706 0 0 0 -48182756.069008358 9155335.1452642679 -1323565.9941487312 0 -1323565.9941487312 -100345675.48048925 0 0 0 -31916619.117328644 9440780.1267766953 1402696.3029541224 0 1402696.3029541224 -99904229.588014603 0 0 0 -31662207.311433315 -3197193.0254116654 7328114.4595188685 0 7328114.4595188685 -100689346.44906354 0 0 0 -36360288.816066325 -2875313.397973977 -6843395.7554612756 0 -6843395.7554612756 -100442448.03357154 0 0 0 -36161216.501040868 -10226202.388584912 36536130.359942421 0 36536130.359942421 -150096420.01403895 0 0 0 -56112917.840918347 -42316879.023444228 -36556585.387707651 0 -36556585.387707651 -116354119.15172012 0 0 0 -55534849.361307524 -42405783.985203326 36725159.682124227 0 36725159.682124227 -116656642.93722478 0 0 0 -55671849.422849864 -10012023.885406047 -36371343.153795712 0 -36371343.153795712 -149893922.51719093 0 0 0 -55967081.240908951 973870.71161746979 115232.87123149633 0 115232.87123149633 -100291593.87416363 0 0 0 -34761203.106891155 1930038.0803083181 -51623.243369579315 0 -51623.243369579315 -100135387.14550972 0 0 0 -34371872.172820449 1869680.4899736643 50233.366029381752 0 50233.366029381752 -100186351.24342918 0 0 0 -34410834.763709426 993265.5120267868 -91124.458005517721 0 -91124.458005517721 -100252321.75904655 0 0 0 -34740669.68645668 3108650.5835250616 -343439.82912099361 0 -343439.82912099361 -100257747.23209465 0 0 0 -34002183.826999545 4760270.0644140244 305018.42220631242 0 305018.42220631242 -100408181.93054342 0 0 0 -33476769.153145313 3771050.2501016855 -513979.1984808445 0 -513979.1984808445 -99151101.403818846 0 0 0 -33383017.903801084 -6411702.2115897834 10908735.716703355 0 10908735.716703355 -104141738.13390326 0 0 0 -38693704.120922476 6690673.6911487579 405038.61347740889 0 405038.61347740889 -99355256.305696964 0 0 0 -32432603.915091991 -33625815.131385311 -23733870.4368641 0 -23733870.4368641 -107046116.05265144 0 0 0 -49235175.914412871 -6559311.0220907629 15043890.657145716 0 15043890.657145716 -109245289.14120567 0 0 0 -40531610.057153791 -13682271.5326837 -24188295.262352251 0 -24188295.262352251 -96558158.17300263 0 0 0 -38584150.39699024 11524553.260829568 -724430.03024597466 0 -724430.03024597466 -101732512.28092456 0 0 0 -31572785.657033324 4826308.375928998 1205056.3118226975 0 1205056.3118226975 -100873406.09553289 0 0 0 -33616484.201861382 12552615.19940424 871564.01570722461 0 871564.01570722461 -100387603.80958366 0 0 0 -30742246.013562679 8163293.8247903585 -1810657.7688724995 0 -1810657.7688724995 -99180294.68081069 0 0 0 -31855950.299607038 2741316.8985126764 -1320615.1175308228 0 -1320615.1175308228 -101404270.86520949 0 0 0 -34532033.888343915 -14621725.577069223 5756521.9043131694 0 5756521.9043131694 -99043038.773900032 0 0 0 -39782667.522839189 6397847.7659269571 -154691.68638277054 0 -154691.68638277054 -102089201.39209813 0 0 0 -33491973.769159913 8377944.5249072313 -175156.12602493167 0 -175156.12602493167 -101245849.58445179 0 0 0 -32503766.770840585 12439360.514679074 906620.03575474024 0 906620.03575474024 -101394409.61589688 0 0 0 -31134267.185426354 13996060.009953976 -99009.393590927124 0 -99009.393590927124 -100146984.00389814 0 0 0 -30152823.397880316 5126917.9546791315 1976461.3193749785 0 1976461.3193749785 -99277661.929135561 0 0 0 -32952760.391059875 4797998.0061430931 -1920017.0530019403 0 -1920017.0530019403 -99299152.153778076 0 0 0 -33075403.951672196 -17317679.389656782 -1156586.4116086364 0 -1156586.4116086364 -91349629.841879189 0 0 0 -38033558.231037587 12285395.28528893 866665.54649072886 0 866665.54649072886 -101093144.2091589 0 0 0 -31082712.123354554 11354713.425764561 -1389922.3643632531 0 -1389922.3643632531 -100646416.28886032 0 0 0 -31252096.002083302 11880032.26812607 1312984.2254389524 0 1312984.2254389524 -100782700.5618912 0 0 0 -31115933.902817845 1963714.5072100759 2288444.8331606984 0 2288444.8331606984 -100304871.28728205 0 0 0 -34419404.873025119 3602415.5735015869 -1998410.4543789849 0 -1998410.4543789849 -101270699.79967046 0 0 0 -34183899.479158998 10861154.550035238 -1038699.3582330942 0 -1038699.3582330942 -100253920.41973543 0 0 0 -31287468.054395199 7215282.907916069 1520876.8710734248 0 1520876.8710734248 -100148763.07830095 0 0 0 -32526718.059634924 1489369.9796621799 3670551.674036622 0 3670551.674036622 -101182766.8451519 0 0 0 -34892688.902921438 -9334956.1969916821 -9542286.3129475117 0 -9542286.3129475117 -96794851.030079126 0 0 0 -37145432.529474795 4925994.346954979 -362533.60329574347 0 -362533.60329574347 -101539045.48122856 0 0 0 -33814567.896995746 9144224.0119307041 -937219.10263520479 0 -937219.10263520479 -100455164.28811002 0 0 0 -31958829.09666276 6894303.5770184994 1317058.2261695266 0 1317058.2261695266 -99389120.020737648 0 0 0 -32373185.755301714 -1821955.0689098239 7003924.5894953907 0 7003924.5894953907 -103440230.35830939 0 0 0 -36841764.899526775 -16067923.408387333 -11351659.19038938 0 -11351659.19038938 -99486246.438229889 0 0 0 -40443959.446316034 12356309.402771235 -764452.47028046846 0 -764452.47028046846 -101690850.61566371 0 0 0 -31267089.424512386 7125746.8698901236 -1719677.7386596203 0 -1719677.7386596203 -98470703.946375132 0 0 0 -31970734.976769775 -21213706.391700834 8765141.0877491906 0 8765141.0877491906 -99667203.564745784 0 0 0 -42308318.484756291 12076005.004831314 725901.51716130972 0 725901.51716130972 -100067366.68948412 0 0 0 -30796976.589628696 1446595.5805563331 -1389754.8565351963 0 -1389754.8565351963 -100532353.34661645 0 0 0 -34680015.218121052 9111695.8457844257 1260806.9467537403 0 1260806.9467537403 -99199244.18668294 0 0 0 -31530641.919314623 9364410.7920832634 -1197441.8603346348 0 -1197441.8603346348 -99243365.232692242 0 0 0 -31457634.054213047 -10610177.789007425 -9098512.7504655719 0 -9098512.7504655719 -103754493.45934832 0 0 0 -40027634.936924458 -9289502.5694790781 8437573.863473177 0 8437573.863473177 -104003568.37135112 0 0 0 -39652574.829290599 13307084.598187923 102760.95656120777 0 102760.95656120777 -101131482.62644315 0 0 0 -30738539.309889197 6813283.8569717407 618441.41520425677 0 618441.41520425677 -101778915.26035261 0 0 0 -33237970.991183281 7514817.7661169171 141242.05677901581 0 141242.05677901581 -101662176.82061791 0 0 0 -32951575.669075251 10550307.167632043 -1462047.8265116215 0 -1462047.8265116215 -100521257.46291506 0 0 0 -31489832.60334903 11831774.945871592 1216255.9529800117 0 1216255.9529800117 -99915488.350925446 0 0 0 -30829299.691768885 9780887.2255409956 -1730204.4231067896 0 -1730204.4231067896 -100325913.37381649 0 0 0 -31690759.151896238 11537367.000005484 1181467.214456439 0 1181467.214456439 -100566882.24799991 0 0 0 -31160330.336797953 -3264597.7769536972 4781885.741801776 0 4781885.741801776 -101659718.90635014 0 0 0 -36723510.83915627 -906107.72916987538 -2994824.3550986946 0 -2994824.3550986946 -102121713.64846784 0 0 0 -36059737.482173115 -2544774.294195652 4636543.7731851041 0 4636543.7731851041 -98850659.59545362 0 0 0 -35488401.861377239 3264546.2183080912 -2896576.5553848743 0 -2896576.5553848743 -100832473.72829413 0 0 0 -34148774.628495127 10597997.648877144 -602538.8235989362 0 -602538.8235989362 -99603350.988161087 0 0 0 -31151873.668749332 5157703.946228683 1241563.2416350245 0 1241563.2416350245 -97995328.002794921 0 0 0 -32493168.419798434 1002229.5208532214 3214492.8781595528 0 3214492.8781595528 -99304430.586894423 0 0 0 -34405770.373114526 -31830724.62859714 -14338169.480583008 0 -14338169.480583008 -102614919.422672 0 0 0 -47055975.417944193 13026733.372801065 -853083.71194898989 0 -853083.71194898989 -100407261.20452499 0 0 0 -30583184.741103172 12346269.357856035 -854366.84528368711 0 -854366.84528368711 -100669466.13968801 0 0 0 -30913118.873641253 8915661.0677829608 1849157.4831263423 0 1849157.4831263423 -100541619.88888572 0 0 0 -32069085.587386049 9326653.59171772 1875585.2182927132 0 1875585.2182927132 -99361933.835277677 0 0 0 -31512348.085246086 5473159.1661254978 407734.20910200477 0 407734.20910200477 -101290416.42454752 0 0 0 -33536040.040447749 3326167.2447469831 1751828.8244562447 0 1751828.8244562447 -101544087.39761263 0 0 0 -34376272.053502977 -5523129.2858333588 -4124771.6149562541 0 -4124771.6149562541 -97911577.326508045 0 0 0 -36202147.314319462 -9920226.270095408 -4403315.8292296007 0 -4403315.8292296007 -100018103.47414148 0 0 0 -38478415.410482883 2403300.8275365233 -821339.78319144249 0 -821339.78319144249 -97353245.842775464 0 0 0 -33232480.755333483 -32643572.810889609 9738981.6981247924 0 9738981.6981247924 -87971610.394377977 0 0 0 -42215314.121843643 12751692.192508936 220157.27733558416 0 220157.27733558416 -99862731.584335327 0 0 0 -30488863.787139654 2134064.4677500725 1292806.2701314688 0 1292806.2701314688 -94845489.821025908 0 0 0 -32448998.873646498 11880295.031170249 -1214432.0240058303 0 -1214432.0240058303 -101104669.20784521 0 0 0 -31228530.961836338 11815827.179975986 1276610.8978231549 0 1276610.8978231549 -100417430.74645066 0 0 0 -31010561.248265982 2466229.3586821556 2501441.8491142392 0 2501441.8491142392 -101591166.67994845 0 0 0 -34693728.062443137 1740204.6799364686 -2161378.3001272976 0 -2161378.3001272976 -100956071.46937358 0 0 0 -34725553.376303017 10435921.272270679 -1344687.3580057621 0 -1344687.3580057621 -99695283.620901823 0 0 0 -31240776.822021008 9125034.5957558155 1543684.755617559 0 1543684.755617559 -100367427.03692436 0 0 0 -31934837.354408979 -1785330.7978929281 4682710.2337546051 0 4682710.2337546051 -100729659.65479386 0 0 0 -35880246.658440292 -5210432.3615258038 -7101465.6876728833 0 -7101465.6876728833 -101789046.39918756 0 0 0 -37449817.566249639 12005491.110175014 555328.96608555317 0 555328.96608555317 -101848230.82145739 0 0 0 -31444958.898948789 -48291109.973499671 -6844714.7356521934 0 -6844714.7356521934 -89687589.913531274 0 0 0 -48292544.960460827 1462745.9086924517 -1171158.747651875 0 -1171158.747651875 -89907378.791839167 0 0 0 -30955621.509101298 1433253.2292397821 361482.11280292273 0 361482.11280292273 -94655844.151035383 0 0 0 -32627906.82262842 13183647.266280413 -62620.411991412708 0 -62620.411991412708 -99948357.38945055 0 0 0 -30367648.543109655 -10850006.79719503 13072571.979506597 0 13072571.979506597 -118873894.85943182 0 0 0 -45403365.579819396 -56547605.792917661 -35014295.562346973 0 -35014295.562346973 -104948857.86061688 0 0 0 -56523762.278737083 2989901.7695157528 -20831.39526747719 0 -20831.39526747719 -100348995.69997454 0 0 0 -34075682.875660419 537554.15737366676 -3223.617360830307 0 -3223.617360830307 -99944586.842737198 0 0 0 -34792461.439877272 519150.51158589055 -20978.444226264954 0 -20978.444226264954 -99934804.105425954 0 0 0 -34795478.757844269 -56275030.286389552 34967076.587733708 0 34967076.587733708 -104442067.9152782 0 0 0 -56250984.370583706 3009121.068778038 25379.647023265286 0 25379.647023265286 -100351869.09682226 0 0 0 -34069961.809815645 -10823197.344929276 -13009388.327762768 0 -13009388.327762768 -118943333.11496165 0 0 0 -45418285.660961837 6234542.0141713619 -1434385.2811441272 0 -1434385.2811441272 -98756931.344283104 0 0 0 -32382836.265539169 -22492056.923125945 12336168.29357703 0 12336168.29357703 -100730415.60996017 0 0 0 -43127865.386580147 11007699.012423575 807434.0190500021 0 807434.0190500021 -99542776.335968554 0 0 0 -30987277.063240588 392524.80885624886 -2605424.3821275383 0 -2605424.3821275383 -100321332.76581252 0 0 0 -34975082.784934759 13653126.289633393 -123521.54858833551 0 -123521.54858833551 -101207561.71273685 0 0 0 -30644052.39808619 8885919.7165184021 1150805.1218218207 0 1150805.1218218207 -100614451.35909319 0 0 0 -32104986.074901104 8047268.424092412 -838942.52494812012 0 -838942.52494812012 -100753167.14100909 0 0 0 -32447064.550920844 -7313661.6585063338 -698609.95820954442 0 -698609.95820954442 -100905105.30736434 0 0 0 -37876568.43805474 10680676.500440598 -797177.2853415329 0 -797177.2853415329 -101780586.80393982 0 0 0 -31884968.606224775 2517920.618835032 348916.013752684 0 348916.013752684 -101160704.2997421 0 0 0 -34524974.288317502 9313973.2669829428 -61387.229370355606 0 -61387.229370355606 -101985429.91791725 0 0 0 -32435009.827826828 12352021.54765594 -762562.73331308365 0 -762562.73331308365 -100409885.14680815 0 0 0 -30820252.259703279 6968290.2643675804 1944665.4998292923 0 1944665.4998292923 -99606689.440106869 0 0 0 -32423439.711508751 4220882.7048105001 667833.92783595622 0 667833.92783595622 -101146775.16833591 0 0 0 -33924062.362233877 -12291170.98133494 -6343225.5535821319 0 -6343225.5535821319 -95302844.877021462 0 0 0 -37657905.55042471 12750935.308064789 -124496.70576226711 0 -124496.70576226711 -100140484.66568911 0 0 0 -30586342.275168568 94521.205512046814 760111.87274540961 0 760111.87274540961 -97638304.205614328 0 0 0 -34140324.050035834 22316.544520020485 -351642.27178903669 0 -351642.27178903669 -93508589.130234718 0 0 0 -32720195.405000091 -35088094.954161026 -7397528.1082580015 0 -7397528.1082580015 -82554815.141868725 0 0 0 -41175018.533610411 11952966.478764892 -1007120.5527341366 0 -1007120.5527341366 -100860419.01875782 0 0 0 -31117608.388997555 2493647.8574028611 770278.33211117983 0 770278.33211117983 -101948507.12449229 0 0 0 -34809200.743481338 12949298.40775466 -753106.62202745676 0 -753106.62202745676 -101258706.67318749 0 0 0 -30908292.89290154 10930213.749667645 1273363.2759896517 0 1273363.2759896517 -101001659.20831597 0 0 0 -31525005.910526872 7306509.2261530161 294490.65254372358 0 294490.65254372358 -101714103.59045601 0 0 0 -33042658.027506053 1653066.0885933638 -972110.46956267953 0 -972110.46956267953 -100777726.72327471 0 0 0 -34693631.222138464 -39512176.892530739 8226907.6024866495 0 8226907.6024866495 -87285811.907898247 0 0 0 -44379296.08015015 853613.6690005064 -739053.57036399841 0 -739053.57036399841 -97199950.312826633 0 0 0 -33721217.82533896 1846148.5366799831 497991.90638139844 0 497991.90638139844 -91259180.078365207 0 0 0 -31294561.039589763 12557342.742237091 143515.47622036934 0 143515.47622036934 -100290646.85905409 0 0 0 -30706656.440886021 13925674.674662381 -110448.03669464588 0 -110448.03669464588 -100664858.71395642 0 0 0 -30358714.413753003 8170325.209580183 1694221.267407611 0 1694221.267407611 -100682075.07552886 0 0 0 -32379112.453082085 7948477.3406289816 -1178224.151403822 0 -1178224.151403822 -100992516.27526736 0 0 0 -32565413.627123594 -5927500.5300961956 43728.715049296618 0 43728.715049296618 -97476732.159726709 0 0 0 -36191481.441437982 13377111.88632977 547951.32768779993 0 547951.32768779993 -100514563.58705044 0 0 0 -30498108.095252156 5395393.6707384586 266400.28738608956 0 266400.28738608956 -100533279.74960589 0 0 0 -33298260.12760365 8698736.0872322321 -1791361.6780174971 0 -1791361.6780174971 -99753876.619277239 0 0 0 -31869299.186215639 -11577630.710301042 3650679.3373317271 0 3650679.3373317271 -99158700.177570522 0 0 0 -38757715.810755014 9206001.5123093128 -1569521.0873420835 0 -1569521.0873420835 -100296643.84746981 0 0 0 -31881724.81730628 10291687.597898006 1345018.1608362198 0 1345018.1608362198 -100380317.09629345 0 0 0 -31531020.324438572 -2423384.2421994209 6117228.8808228672 0 6117228.8808228672 -98549014.369644165 0 0 0 -35340339.514145315 679507.82954871655 -4617940.5818231106 0 -4617940.5818231106 -100195254.18035769 0 0 0 -34830511.222783148 12398325.220281363 5972.1721946001053 0 5972.1721946001053 -101829041.67623901 0 0 0 -31300750.759585142 9943534.6986122131 475185.78143504262 0 475185.78143504262 -101909125.52834368 0 0 0 -32187956.790405989 12628907.038259622 -850598.08337205648 0 -850598.08337205648 -100040037.79515487 0 0 0 -30593895.764913205 8106811.6925878525 1655878.939066045 0 1655878.939066045 -99642997.186973572 0 0 0 -32037664.923035026 2992894.1556552052 1096525.8502538018 0 1096525.8502538018 -100921541.95691884 0 0 0 -34275026.730442226 -12389518.371048756 -7046525.2192241102 0 -7046525.2192241102 -98579282.674122959 0 0 0 -38839080.365810104 -3280448.3348528743 9768266.8672859818 0 9768266.8672859818 -101005827.85059482 0 0 0 -36500196.66490674 -13670168.521027893 -15865672.994284727 0 -15865672.994284727 -100269431.36547112 0 0 0 -39878859.960274637 9239218.4721673727 -106705.89716389775 0 -106705.89716389775 -102053781.43093228 0 0 0 -32485097.035567641 10123988.120551437 -671155.32142436504 0 -671155.32142436504 -101788654.62077829 0 0 0 -32082633.275079399 13558217.579772562 -234221.82896566391 0 -234221.82896566391 -100437354.21604812 0 0 0 -30407697.822696596 13735831.959359229 -296440.35753977299 0 -296440.35753977299 -100308227.28385901 0 0 0 -30300338.363574922 5770497.0427589417 2221877.0306742191 0 2221877.0306742191 -97835100.512218475 0 0 0 -32222611.214311004 6249488.6040928364 1872478.5097046494 0 1872478.5097046494 -98624786.825850725 0 0 0 -32331354.377615213 5258860.5015370846 -1168722.1958244964 0 -1168722.1958244964 -97763315.711673498 0 0 0 -32376559.32354784 5114647.3280916214 -1517144.977593258 0 -1517144.977593258 -98660638.224125624 0 0 0 -32741096.813611984 -24307122.161915489 -1994296.3243965283 0 -1994296.3243965283 -95386381.918782234 0 0 0 -41892726.428244211 -19919162.428315222 -3739274.8019975871 0 -3739274.8019975871 -95204512.22633341 0 0 0 -40293286.129127026 11651555.331767619 -632870.56349861622 0 -632870.56349861622 -99650056.212698102 0 0 0 -30799475.308325708 5725676.6192362309 1574418.9555512294 0 1574418.9555512294 -98135955.064265728 0 0 0 -32343597.455760479 2915999.6128759384 1435383.4339981601 0 1435383.4339981601 -97780379.544452429 0 0 0 -33202532.976051807 -26841125.969801195 -11113760.346313849 0 -11113760.346313849 -98747230.35185875 0 0 0 -43955924.712580986 8011335.0625326633 -1376738.019064635 0 -1376738.019064635 -98738419.15255022 0 0 0 -31754479.431506157 10005708.820463657 965718.09652078152 0 965718.09652078152 -99616721.939326406 0 0 0 -31363854.591602087 -17759536.435194999 10957757.819063723 0 10957757.819063723 -103623536.62034127 0 0 0 -42484075.569437683 -3958737.8928880692 -6811475.3976267651 0 -6811475.3976267651 -102731272.53341794 0 0 0 -37341503.649207115 1212138.2090499997 5183403.1460738964 0 5183403.1460738964 -100588776.59474754 0 0 0 -34781823.434994102 -15067944.048909433 -13606172.151996553 0 -13606172.151996553 -94166511.533314049 0 0 0 -38232059.453778215 13853360.638309002 122137.49876096845 0 122137.49876096845 -100423565.21044493 0 0 0 -30299571.600247622 6123589.9205075502 1698793.1927978396 0 1698793.1927978396 -98398511.149086058 0 0 0 -32296222.430002451 6530178.4468590021 -1819602.8503587246 0 -1819602.8503587246 -98587007.001585364 0 0 0 -32219889.994154215 -20263028.916094452 1615290.6583143845 0 1615290.6583143845 -96418512.961286068 0 0 0 -40838539.657083184 13394500.908991814 131670.43992197514 0 131670.43992197514 -101353682.22540879 0 0 0 -30785713.460745931 9541209.9144562483 746379.13366186619 0 746379.13366186619 -101784783.43433893 0 0 0 -32285250.731959105 13108510.074627399 -552509.16131046414 0 -552509.16131046414 -100049015.20988703 0 0 0 -30429176.79734087 5260975.8655979037 1866189.2249493599 0 1866189.2249493599 -99572152.678896308 0 0 0 -33008911.884654343 4209877.4115605056 -442185.28786569834 0 -442185.28786569834 -99797872.841475189 0 0 0 -33455798.400470167 -15548655.866678745 -6576664.2857612483 0 -6576664.2857612483 -91285200.201016724 0 0 0 -37391849.623693436 9079853.8142989874 -801283.5076289475 0 -801283.5076289475 -101916939.5979948 0 0 0 -32492980.024293423 11474622.785601974 -361050.08076323569 0 -361050.08076323569 -101955749.61534524 0 0 0 -31668394.390410185 9110798.2242957801 -296735.17854702473 0 -296735.17854702473 -102215787.11044335 0 0 0 -32586746.110151604 13056802.616779208 -438368.47065258026 0 -438368.47065258026 -100272127.7480588 0 0 0 -30525363.795947909 6457965.0914541483 2125049.3261306286 0 2125049.3261306286 -97344948.43244791 0 0 0 -31810444.169348121 4870409.4444380999 -546704.10024416447 0 -546704.10024416447 -97226997.916948318 0 0 0 -32324805.965378404 -26811951.549215779 -5057233.6982012838 0 -5057233.6982012838 -97718492.892024726 0 0 0 -43585655.554434165 10621447.626023952 617611.31917828321 0 617611.31917828321 -101550234.63397162 0 0 0 -31825075.452781733 13810246.48603487 302345.37463614345 0 302345.37463614345 -100295042.25566721 0 0 0 -30269678.51937151 5770548.6381170154 1262495.5224946737 0 1262495.5224946737 -99862127.678603053 0 0 0 -32932052.664170206 6324213.0299296379 -2065405.3144583702 0 -2065405.3144583702 -99426081.398196459 0 0 0 -32585653.928893089 -14216487.214877009 2373437.9402017854 0 2373437.9402017854 -92834378.537310541 0 0 0 -37467803.01326561 2058654.9912952301 3182222.195348382 0 3182222.195348382 -99931351.131311521 0 0 0 -34255443.649005696 -2367253.9982303977 6105890.0045066774 0 6105890.0045066774 -103403014.11873275 0 0 0 -37019593.840937138 -23865154.325019889 -16494558.383848032 0 -16494558.383848032 -92566142.737567589 0 0 0 -40750953.971905611 -30705279.324335217 -18335887.193357866 0 -18335887.193357866 -97558349.951955229 0 0 0 -44892270.246701658 10397182.011478066 70573.412039190531 0 70573.412039190531 -101929797.78811264 0 0 0 -32036415.521822214 -14228839.684156299 -14485553.281979725 0 -14485553.281979725 -108600921.85977054 0 0 0 -42990416.540374339 -19904940.232639879 17083825.587243602 0 17083825.587243602 -105216305.43309158 0 0 0 -43792435.983005971 8982328.4342586715 -651087.94472444057 0 -651087.94472444057 -100471792.63552278 0 0 0 -32021312.470442325 9599725.0366909802 -830324.10087740421 0 -830324.10087740421 -99464084.468431115 0 0 0 -31452525.801109046 4471568.6849594116 1209779.1686787121 0 1209779.1686787121 -99267995.254011154 0 0 0 -33178749.29916811 5622828.8138310909 1146672.3569439314 0 1146672.3569439314 -99247770.187493324 0 0 0 -32768729.480781794 -28844617.542677812 17834347.279806502 0 17834347.279806502 -97319190.851283073 0 0 0 -44157332.937886305 -1992766.2889003754 -6068570.2259545922 0 -6068570.2259545922 -103077882.87531638 0 0 0 -36774727.207475841 3426025.86121279 -841315.66281294823 0 -841315.66281294823 -99341534.064738154 0 0 0 -33570427.871233881 7808056.6293404102 395892.4447312057 0 395892.4447312057 -100260175.64165354 0 0 0 -32358241.654309511 -22670230.225404523 15643393.891132973 0 15643393.891132973 -92187896.025595784 0 0 0 -40200344.187850095 1805072.0082948208 -3063059.3488168865 0 -3063059.3488168865 -101628783.41112816 0 0 0 -34938298.990991712 3048820.7545924187 -1020344.9047589898 0 -1020344.9047589898 -99798302.668552399 0 0 0 -33862318.669885874 9181967.3195877075 572422.23409020901 0 572422.23409020901 -99749954.569205284 0 0 0 -31698795.537366152 10675625.784597635 -1478787.404127717 0 -1478787.404127717 -100295225.30215716 0 0 0 -31366859.831145763 10308294.779915571 -1333478.7352683991 0 -1333478.7352683991 -99963241.104297638 0 0 0 -31379231.213533878 10459332.954137325 1453333.294075489 0 1453333.294075489 -100568489.47836542 0 0 0 -31538204.783479929 10794521.289471209 1384815.7405227423 0 1384815.7405227423 -99416890.097007632 0 0 0 -31017829.082637489 -114597.42571884394 4180099.6337501705 0 4180099.6337501705 -100177502.7152046 0 0 0 -35102235.049323142 -4861031.9477496594 5829342.6871424615 0 5829342.6871424615 -103060970.50294361 0 0 0 -37772700.857742593 457926.52395761013 -4472180.6367847919 0 -4472180.6367847919 -100426504.36299372 0 0 0 -34989002.243662596 -3918034.5629200339 -4907345.8884776384 0 -4907345.8884776384 -102181722.49593639 0 0 0 -37134914.970599771 5136920.3206146955 -1531486.046639204 0 -1531486.046639204 -98315394.172028065 0 0 0 -32612465.847994447 10583242.200728178 666240.27028846741 0 666240.27028846741 -100342429.81946802 0 0 0 -31415715.666558743 -26953855.85600169 11189417.280583411 0 11189417.280583411 -96444139.238659561 0 0 0 -43189298.283131436 1735485.0631858706 -2730841.0815666914 0 -2730841.0815666914 -100005402.51196265 0 0 0 -34394471.107071757 8947401.4241610765 86497.262735337019 0 86497.262735337019 -101718903.37445474 0 0 0 -32470025.682602763 7257642.3462612629 -273692.78824200295 0 -273692.78824200295 -101670581.74281168 0 0 0 -33044528.78879261 8056881.9602967501 -159173.10104249418 0 -159173.10104249418 -101524724.39786923 0 0 0 -32713744.853150249 7923227.5645796061 -886240.40404355526 0 -886240.40404355526 -99480325.321652889 0 0 0 -32044984.214975715 5920231.9358155727 903198.85149174929 0 903198.85149174929 -99988696.184627533 0 0 0 -32923962.48708415 -2706584.2606036067 8423680.1038050354 0 8423680.1038050354 -105624132.04653627 0 0 0 -37915750.707499027 -15815559.348145843 -15332474.598192476 0 -15332474.598192476 -94873438.488117307 0 0 0 -38741149.242692113 -20571919.471084982 26591295.778625503 0 26591295.778625503 -98628670.419727296 0 0 0 -41720206.461784273 -6618377.966546379 -14718919.758900866 0 -14718919.758900866 -108751516.80279227 0 0 0 -40379463.169268571 5759171.5369093418 -1895091.3768740296 0 -1895091.3768740296 -97886544.279029369 0 0 0 -32244580.459742069 -26355257.117756814 7449057.9235406369 0 7449057.9235406369 -96767464.883874491 0 0 0 -43092952.700570941 12338193.226835251 502688.99240028858 0 502688.99240028858 -100289008.01117539 0 0 0 -30782785.174519062 3151391.8386808634 -256856.71597968042 0 -256856.71597968042 -98122942.448934078 0 0 0 -33240042.713588595 -15971802.360579133 18170551.328334928 0 18170551.328334928 -98312443.332428396 0 0 0 -39999485.992552638 -1362297.5443940759 -10938271.996015608 0 -10938271.996015608 -102507095.88814211 0 0 0 -36354287.701387644 9980690.9942076206 -126859.17228114605 0 -126859.17228114605 -100157312.77246332 0 0 0 -31561817.622389317 977916.0613838674 282624.57208323479 0 282624.57208323479 -98149379.429049909 0 0 0 -34010012.17868302 1304379.616024497 -66700.205621689558 0 -66700.205621689558 -86647316.493283734 0 0 0 -29870027.907040652 -50040860.236453794 -15866549.980625616 0 -15866549.980625616 -92940137.075312957 0 0 0 -50043349.059118353 13671426.920399666 -51616.820144891739 0 -51616.820144891739 -99941137.939407349 0 0 0 -30194398.856652737 1864025.2353959084 713295.13267463446 0 713295.13267463446 -94862768.978916168 0 0 0 -32549560.310232162 1060825.9184616804 -1024028.0394023657 0 -1024028.0394023657 -94271013.825803757 0 0 0 -32623565.767569542 -38013229.977119952 -2475722.5311042629 0 -2475722.5311042629 -86119739.190704286 0 0 0 -43446539.208738483 4486484.5931788385 281963.00393015146 0 281963.00393015146 -100334879.0449971 0 0 0 -33546938.058136433 3946095.1958265305 -769118.94977223873 0 -769118.94977223873 -100214530.67725873 0 0 0 -33693952.418501139 6530596.2162597179 494145.40167427063 0 494145.40167427063 -100228911.39103842 0 0 0 -32794410.311172485 10520638.54173255 -217113.21457237005 0 -217113.21457237005 -101964805.78485322 0 0 0 -32005458.535092115 1846071.3636038303 -1471843.4059456885 0 -1471843.4059456885 -96349765.52275753 0 0 0 -33076292.955703974 2987080.5720057487 -1368971.5586827695 0 -1368971.5586827695 -93482980.952445984 0 0 0 -31673565.133154273 6064463.5537111759 -212745.83617854118 0 -212745.83617854118 -99719999.509168386 0 0 0 -32779437.584410191 1066584.2490429878 317213.5214163065 0 317213.5214163065 -100097330.48624277 0 0 0 -34660761.183020115 5998412.9255709872 232152.51049387455 0 232152.51049387455 -100530169.44517292 0 0 0 -33086114.781860568 2191222.3956058025 -444715.16574082151 0 -444715.16574082151 -99776053.827986717 0 0 0 -34154691.001333237 -3553892.2983544469 -9053465.9369749874 0 -9053465.9369749874 -107142585.23335803 0 0 0 -38743767.136099339 -35859222.372294933 23287989.094971813 0 23287989.094971813 -96660034.81883435 0 0 0 -46381740.016895235 6423259.7965083718 197381.83092522621 0 197381.83092522621 -99511756.955962062 0 0 0 -32580974.005808532 1261838.814709425 -272163.5362740159 0 -272163.5362740159 -99829338.596944809 0 0 0 -34498624.923782349 5113612.3563280702 -3875869.4544457421 0 -3875869.4544457421 -97266334.345152378 0 0 0 -32253452.696088493 -38244363.372101985 25862457.971130893 0 25862457.971130893 -95274945.201712132 0 0 0 -46731758.000834942 4939472.2063785195 3816175.6543505341 0 3816175.6543505341 -96954248.40675056 0 0 0 -32205171.670130193 -37882432.383842111 -25778547.318832777 0 -25778547.318832777 -95186763.025173604 0 0 0 -46574218.3931555 -3317489.45017609 8517874.2719333172 0 8517874.2719333172 -107670060.51953495 0 0 0 -38845642.489398867 -32373995.105395608 -22433154.348855257 0 -22433154.348855257 -95205819.417574555 0 0 0 -44652935.083039545 12581788.555466771 604957.75943493843 0 604957.75943493843 -101600049.82817888 0 0 0 -31156391.445449352 11613667.190167904 -8472.3035741448402 0 -8472.3035741448402 -102037413.58810019 0 0 0 -31648311.23927629 5207962.857436657 -174338.36641672254 0 -174338.36641672254 -102138354.44173026 0 0 0 -33925637.054502726 6091176.5357769281 -821536.08233392239 0 -821536.08233392239 -101195794.43391684 0 0 0 -33286616.264348909 5918946.320690535 -723846.68723607063 0 -723846.68723607063 -101997520.63076004 0 0 0 -33627501.008524276 938554.45287838578 666973.75303772092 0 666973.75303772092 -101669101.91398266 0 0 0 -35255691.611386448 5227048.4157625437 -1807765.0618037581 0 -1807765.0618037581 -99393808.862173796 0 0 0 -32958366.15624392 -17642335.987322912 8508786.758437708 0 8508786.758437708 -92417198.783906728 0 0 0 -38520837.169930354 11987822.176780581 613661.50165784359 0 613661.50165784359 -100111314.71749043 0 0 0 -30843222.389248729 4003700.2675182223 -768124.9298273474 0 -768124.9298273474 -99583423.839667559 0 0 0 -33452903.250252426 10303214.357960165 755118.68739002943 0 755118.68739002943 -101664625.09074599 0 0 0 -31976493.756474912 13288268.018805265 520687.64558672905 0 520687.64558672905 -100636102.73384762 0 0 0 -30571742.15026474 7657508.3474866748 -2167352.7849414349 0 -2167352.7849414349 -99461928.479922056 0 0 0 -32131547.046352208 5885329.2810365558 391347.25702339411 0 391347.25702339411 -100580867.66953766 0 0 0 -33143438.435975373 -12226959.345837712 2707112.9570343345 0 2707112.9570343345 -96425689.850559175 0 0 0 -38028427.218738943 5942646.261510849 -215295.11886745691 0 -215295.11886745691 -99957676.137588024 0 0 0 -32905260.456626892 3074959.997307837 340002.15242254734 0 340002.15242254734 -99097809.173065066 0 0 0 -33607997.21151489 6208659.975840807 -377980.53182960209 0 -377980.53182960209 -100307158.55190945 0 0 0 -32934474.501624107 2278678.4458923396 583167.59392845631 0 583167.59392845631 -100189252.38393374 0 0 0 -34268700.878314488 7636855.1271085739 -1443940.5094524026 0 -1443940.5094524026 -100110422.5648551 0 0 0 -32365748.603210926 10202354.710387647 1219188.1684998274 0 1219188.1684998274 -100249567.83799231 0 0 0 -31516524.594661772 -6994832.0964498371 8989672.053585723 0 8989672.053585723 -97219751.262792081 0 0 0 -36475104.175734684 1168707.5567333102 -5131420.8199045807 0 -5131420.8199045807 -100999599.58448243 0 0 0 -34940812.209712207 6899981.4022982121 -272899.3194616735 0 -272899.3194616735 -102145502.08702445 0 0 0 -33335932.239654183 7855704.0168608427 -352561.37642157078 0 -352561.37642157078 -102207552.51511812 0 0 0 -33023146.974389911 6715309.1380245388 -609073.22617721558 0 -609073.22617721558 -100142350.02328819 0 0 0 -32699464.309842378 4342967.4951174259 759401.99528550357 0 759401.99528550357 -100018738.55576849 0 0 0 -33486519.87122798 7234455.8740541935 -1327163.3150057793 0 -1327163.3150057793 -100253181.18618631 0 0 0 -32556553.859246254 8613085.3253879547 1193561.6686882973 0 1193561.6686882973 -100094493.83353662 0 0 0 -32018492.977852345 -5749666.2500074208 10054500.384002 0 10054500.384002 -98541464.925208539 0 0 0 -36501895.911325544 -1298985.7026198506 -7990397.1754721701 0 -7990397.1754721701 -99316567.94632113 0 0 0 -35215443.777129292 10575746.373689413 -1364276.1700725555 0 -1364276.1700725555 -101579745.6916523 0 0 0 -31851399.761286974 11180985.858315587 -1241215.8540831506 0 -1241215.8540831506 -100422413.53069544 0 0 0 -31234499.685332894 1967206.0736473203 1311039.4458243847 0 1311039.4458243847 -100100405.31694853 0 0 0 -34346619.735155523 -1860981.5155611336 1628289.9393357635 0 1628289.9393357635 -101921878.25284159 0 0 0 -36324000.918940932 13375545.55828011 -158240.64950370789 0 -158240.64950370789 -100150999.97622585 0 0 0 -30371409.04628098 13353973.59497273 -256966.92890238762 0 -256966.92890238762 -99973815.946815252 0 0 0 -30316944.823144794 3240135.448064208 1365210.4504181147 0 1365210.4504181147 -95339236.427773237 0 0 0 -32234685.34289825 2235367.1890404224 1274623.4621379972 0 1274623.4621379972 -97987779.598691463 0 0 0 -33513344.343377829 -38709375.595171779 -4947227.3277445696 0 -4947227.3277445696 -92238837.017899752 0 0 0 -45831874.41457504 -28454086.062532663 -6331371.2738655433 0 -6331371.2738655433 -86422438.785109147 0 0 0 -40206783.696674637 13232348.068625927 -307354.32763981819 0 -307354.32763981819 -101199948.67246366 0 0 0 -30788660.211342931 10661374.619853258 1095606.4380839467 0 1095606.4380839467 -101573199.11055183 0 0 0 -31819138.571744442 13413884.245836079 -325198.27977442741 0 -325198.27977442741 -101266141.27898803 0 0 0 -30748289.961603343 9899191.1141877174 1079620.0081295073 0 1079620.0081295073 -101244924.67089415 0 0 0 -31971006.744847298 5074618.4103958607 -355193.99824035168 0 -355193.99824035168 -100151253.82493067 0 0 0 -33276822.395087242 2569598.0574290752 317632.67956417799 0 317632.67956417799 -100214102.14015579 0 0 0 -34175576.428954601 -27768768.028547257 27023946.659679882 0 27023946.659679882 -102251346.60974258 0 0 0 -45507040.123401448 -5628227.8755309582 -10583317.823617637 0 -10583317.823617637 -103789686.29023385 0 0 0 -38296269.958017826 11181466.116490126 -406959.72667324543 0 -406959.72667324543 -99795177.766167641 0 0 0 -31014799.077386975 3486159.7379325628 1148229.1112276316 0 1148229.1112276316 -97622048.324351072 0 0 0 -32947561.005246758 2696730.9920021296 147429.74518296123 0 147429.74518296123 -94210289.769236088 0 0 0 -32029745.572031856 -36439310.849072598 -13405256.258653708 0 -13405256.258653708 -95608861.321428135 0 0 0 -46216860.259675257 13699585.569159865 -470780.72080790997 0 -470780.72080790997 -100495489.92085838 0 0 0 -30378566.523094535 8821258.2983316183 1798159.0411753356 0 1798159.0411753356 -100837138.75359988 0 0 0 -32205558.159344077 6790381.4063178301 -625687.64738744497 0 -625687.64738744497 -100894737.07786775 0 0 0 -32936524.485042572 -4832784.0057475865 -2890265.8305861056 0 -2890265.8305861056 -97228695.407575488 0 0 0 -35721517.794663072 12578759.800246716 -356709.78592330217 0 -356709.78592330217 -101352248.44034004 0 0 0 -31070721.024032712 13255778.384637952 -716077.28680109978 0 -716077.28680109978 -100609159.53721714 0 0 0 -30573683.403402686 9762574.2098920345 1660827.0990262032 0 1660827.0990262032 -101106883.38563156 0 0 0 -31970508.211508989 6271719.0882757902 -100490.86784040928 0 -100490.86784040928 -101605165.02174211 0 0 0 -33366706.076713204 -600313.19065588713 -2163436.3979340792 0 -2163436.3979340792 -98055779.602980793 0 0 0 -34529632.477772832 13918662.061684608 -112029.7222302556 0 -112029.7222302556 -100555492.41734505 0 0 0 -30322890.624481201 8211079.9526658058 1523831.4195507169 0 1523831.4195507169 -100126830.84727025 0 0 0 -32170512.813111424 7405138.3878014684 -1497259.960387826 0 -1497259.960387826 -99955232.33685565 0 0 0 -32392532.882168829 -11137608.013387471 -1586522.2674864084 0 -1586522.2674864084 -98276618.258499205 0 0 0 -38294979.195160359 13416422.701613307 -329715.37513065338 0 -329715.37513065338 -101290571.80126238 0 0 0 -30755952.184876919 9966811.0656791925 1044367.6742043495 0 1044367.6742043495 -101029766.89300871 0 0 0 -31872034.539565325 13253840.380637318 -308723.94857001305 0 -308723.94857001305 -101207012.60270789 0 0 0 -30783610.277724832 10696797.598179102 1068360.6211540215 0 1068360.6211540215 -101390474.64875412 0 0 0 -31742786.967701197 13155465.185875416 -408440.60892724991 0 -408440.60892724991 -100045188.23604488 0 0 0 -30411403.067559242 4001171.2564613819 1701488.3839042783 0 1701488.3839042783 -98855107.285308838 0 0 0 -33198877.610096693 3423673.8783836365 -1276632.0241373777 0 -1276632.0241373777 -98403682.612051964 0 0 0 -33243003.056783915 -21882016.808700159 -6709082.8734156191 0 -6709082.8734156191 -90008643.465115145 0 0 0 -39161731.095835358 -36648610.885526776 1277191.1138424501 0 1277191.1138424501 -87197355.20316869 0 0 0 -43346088.131043404 2313554.3004831076 758825.29585054517 0 758825.29585054517 -93553999.878234148 0 0 0 -31934155.95221293 1590340.4997742176 -1544807.3276406825 0 -1544807.3276406825 -95973986.045339108 0 0 0 -33034275.940947771 13553723.428471565 69419.471160531044 0 69419.471160531044 -100069632.03528404 0 0 0 -30280568.012383938 13767779.527649879 -309746.39711409807 0 -309746.39711409807 -100471242.14971066 0 0 0 -30346211.91772151 6344807.0997031927 2028479.0898792148 0 2028479.0898792148 -99537806.81999898 0 0 0 -32617549.902103543 5502222.4560873508 -1279620.3553865552 0 -1279620.3553865552 -100202499.39923501 0 0 0 -33145096.930101633 -13710868.10598436 -2393641.4831055105 0 -2393641.4831055105 -93428521.538401186 0 0 0 -37498786.375534922 10698449.858574092 232011.83402556181 0 232011.83402556181 -101922158.5961622 0 0 0 -31928298.058155835 10850058.48298955 -1067351.9955776948 0 -1067351.9955776948 -100270920.3672657 0 0 0 -31297301.659496784 9169369.2864451595 1454379.9863767624 0 1454379.9863767624 -99092718.817734912 0 0 0 -31473172.33595131 -1041933.2018567733 5157881.8873437941 0 5157881.8873437941 -102646024.96029495 0 0 0 -36290785.356753036 -11514335.254333615 -7947962.8614651579 0 -7947962.8614651579 -101046321.80530941 0 0 0 -39396229.970875025 13547187.544070244 481093.95630711317 0 481093.95630711317 -100126624.70960855 0 0 0 -30302803.007938147 12863853.384953499 556000.91021728516 0 556000.91021728516 -100515327.21781206 0 0 0 -30678015.841500401 5313650.2855991721 1030818.3081801534 0 1030818.3081801534 -99875594.515027761 0 0 0 -33096680.480300009 6749818.3665152788 -1931443.2163281441 0 -1931443.2163281441 -99477009.197664022 0 0 0 -32454516.790902019 7273273.0944052935 -1937089.4080085456 0 -1937089.4080085456 -98259028.005718231 0 0 0 -31845014.218959451 3991598.4338589907 -131893.90631121397 0 -131893.90631121397 -99661799.165015817 0 0 0 -33484570.255904913 -14439707.661664605 4723547.3797635138 0 4723547.3797635138 -94594725.568977624 0 0 0 -38162051.630724788 -21163084.572602794 5706187.78160806 0 5706187.78160806 -98718150.478524119 0 0 0 -41958432.267894402 11111469.65132685 -1419080.6524149179 0 -1419080.6524149179 -101392228.99135536 0 0 0 -31598265.769009992 3689970.6352646947 1763695.0125343986 0 1763695.0125343986 -99482508.464278936 0 0 0 -33527388.240155041 12701687.508727789 949024.76492118835 0 949024.76492118835 -100876024.26471949 0 0 0 -30861017.864597082 5486360.7515752316 -540544.07097679377 0 -540544.07097679377 -98924537.827051163 0 0 0 -32703361.976416588 5323325.0075318813 407484.07141053677 0 407484.07141053677 -99430766.514346361 0 0 0 -32937604.527384996 -19637656.742949016 20515199.316290855 0 20515199.316290855 -111119912.87214804 0 0 0 -45765149.365284003 -23886258.368155152 -20113394.326122597 0 -20113394.326122597 -110535873.70822716 0 0 0 -47047746.226733834 9019188.4030265212 683158.51273834705 0 683158.51273834705 -101591313.51222622 0 0 0 -32400243.788219988 3640942.6505929232 -1136250.8676683903 0 -1136250.8676683903 -97605634.602847457 0 0 0 -32887642.183288932 -35252250.833440959 13071077.479329929 0 13071077.479329929 -95148570.476424605 0 0 0 -45640287.45845294 11496129.678391933 414213.75286114216 0 414213.75286114216 -99937737.328332901 0 0 0 -30954562.677479506 1909946.2434026897 283764.52328467369 0 283764.52328467369 -94963941.013010621 0 0 0 -32568898.169362873 11507965.860510886 245143.39385199547 0 245143.39385199547 -102082835.7452482 0 0 0 -31701204.459658086 7701200.4083311558 -315549.2351718992 0 -315549.2351718992 -101220527.09839821 0 0 0 -32731764.341523528 1033164.6906960011 -509044.52415907383 0 -509044.52415907383 -97912214.406985283 0 0 0 -33907667.400701523 -39054756.187825747 14188277.510918308 0 14188277.510918308 -86592993.786806405 0 0 0 -43976712.491121247 11269022.202334166 302077.1489559412 0 302077.1489559412 -99648884.025451422 0 0 0 -30932951.638090849 -314060.41158342361 1261929.464349851 0 1261929.464349851 -91656783.868434429 0 0 0 -32189795.498006344 13321593.812662542 -545413.89506781101 0 -545413.89506781101 -100656437.11629122 0 0 0 -30567195.156270325 13282067.180724382 -538723.74420034885 0 -538723.74420034885 -100730703.84226704 0 0 0 -30607022.831540108 9149000.7466564178 1734448.9455249906 0 1734448.9455249906 -99594327.277473927 0 0 0 -31655864.28578639 7659464.4668790102 2057479.7651980668 0 2057479.7651980668 -99753092.843850136 0 0 0 -32232769.93193996 5147622.4172310829 -5327.0875452756882 0 -5327.0875452756882 -100713140.5610795 0 0 0 -33447931.350347042 5427612.6855722666 -294691.67447828501 0 -294691.67447828501 -100999964.69981241 0 0 0 -33450323.204984069 -11544931.53544271 -3876538.3705931902 0 -3876538.3705931902 -100727128.51115614 0 0 0 -39295221.016309619 -10820763.020835571 -3094674.7326874882 0 -3094674.7326874882 -96294333.281732872 0 0 0 -37490283.705898963 12922313.309478998 -557211.0979321301 0 -557211.0979321301 -100460340.70832205 0 0 0 -30638309.589595079 7446137.8729168177 1953874.2787632942 0 1953874.2787632942 -98467888.080983043 0 0 0 -31857612.572823286 4168007.6883060932 78578.10078600049 0 78578.10078600049 -99285308.699686408 0 0 0 -33291055.353983164 -19588108.913790435 -6011532.7719226032 0 -6011532.7719226032 -98740995.296095192 0 0 0 -41415186.473459989 13749873.170615196 -242208.73427021503 0 -242208.73427021503 -100003737.30526209 0 0 0 -30188852.447126389 4352820.7760826945 1640196.7610540986 0 1640196.7610540986 -97881634.704771161 0 0 0 -32735084.875041068 4266056.490177393 -1342222.423017025 0 -1342222.423017025 -95043056.140440285 0 0 0 -31771949.877591968 -24317241.477151856 -4399723.3936905041 0 -4399723.3936905041 -89963016.523717254 0 0 0 -39998090.300304189 13198802.723708153 -279679.95717342198 0 -279679.95717342198 -100295093.80181694 0 0 0 -30483701.877337933 4884412.5931475461 1791815.7053338885 0 1791815.7053338885 -96348096.855233788 0 0 0 -32012289.491730303 3804480.6053178906 -1945652.832442522 0 -1945652.832442522 -97622579.58676517 0 0 0 -32836334.643506587 -33517941.876535863 -5618305.0952618532 0 -5618305.0952618532 -95474493.537862778 0 0 0 -45147352.395039529 13432741.728964329 -488290.08216571808 0 -488290.08216571808 -100274040.55358887 0 0 0 -30394454.588618755 6104969.1953965425 2044963.6699821949 0 2044963.6699821949 -99265159.248957276 0 0 0 -32606066.518746257 5036766.6995992661 -965952.03656148911 0 -965952.03656148911 -99890227.191527247 0 0 0 -33198711.172174931 -16389868.769311786 -4190437.6222642921 0 -4190437.6222642921 -93103203.988125622 0 0 0 -38322575.46510309 9714344.046482563 -1339248.8082612753 0 -1339248.8082612753 -99076639.740640223 0 0 0 -31276803.492955208 10465310.981711388 1200691.9955758303 0 1200691.9955758303 -99728563.942794323 0 0 0 -31242138.53637886 -10628536.440422297 7864384.8664894179 0 7864384.8664894179 -102998647.99838436 0 0 0 -39769514.553582311 -5182323.7708278149 -6122253.4675052464 0 -6122253.4675052464 -103657328.2290684 0 0 0 -38093878.199963674 7752887.5706250668 -1801705.8389604315 0 -1801705.8389604315 -99172219.64266777 0 0 0 -31996766.225214958 13785648.048647687 318006.90759384632 0 318006.90759384632 -100402563.47942129 0 0 0 -30315920.400770381 -15678830.463759732 2989321.1442099512 0 2989321.1442099512 -98227977.502060503 0 0 0 -39867382.788037077 6299737.5985201597 1201840.0891086869 0 1201840.0891086869 -99560297.758731604 0 0 0 -32641196.056074023 1820014.0202190876 -991913.38585957885 0 -991913.38585957885 -98577033.739569664 0 0 0 -33864956.901772738 -34434646.61725913 11420970.499002777 0 11420970.499002777 -88767086.341814339 0 0 0 -43120606.535675704 11157699.940405786 256873.29653465748 0 256873.29653465748 -100280016.2904923 0 0 0 -31192810.722530425 1981118.435916841 -394860.18707010895 0 -394860.18707010895 -94118916.60759449 0 0 0 -32248229.360087276 13608067.162668943 71061.239340253174 0 71061.239340253174 -101183084.64845657 0 0 0 -30651256.120025635 8476784.2882347554 737328.40471118689 0 737328.40471118689 -101451545.98074612 0 0 0 -32541166.592378929 13931125.149935544 -79102.575037837029 0 -79102.575037837029 -100065997.44855928 0 0 0 -30147205.304518163 3720434.9013758898 1633556.9105397314 0 1633556.9105397314 -97826270.784032345 0 0 0 -32937042.558929682 3573909.874638319 -2044899.4038677961 0 -2044899.4038677961 -97880299.688519001 0 0 0 -33007236.434858203 -24051254.679212362 -1481682.6173623353 0 -1481682.6173623353 -88870436.770991728 0 0 0 -39522592.007571429 11772488.61143142 -96240.920900285244 0 -96240.920900285244 -101782107.5470469 0 0 0 -31503366.627465308 8438053.1218163967 -633016.87396293879 0 -633016.87396293879 -99217834.294398308 0 0 0 -31772923.410403728 4827332.3352193832 841485.20528173447 0 841485.20528173447 -99151979.040639639 0 0 0 -33013626.346897244 4862750.9761850834 -462054.83241418004 0 -462054.83241418004 -100416832.62206316 0 0 0 -33443928.576057196 4019768.6824258566 520190.98067390919 0 520190.98067390919 -99642623.654833078 0 0 0 -33467999.240342498 -25032628.038255066 20031901.68400076 0 20031901.68400076 -104101803.3125661 0 0 0 -45197050.97278735 -9115267.0379055664 -13290144.050065026 0 -13290144.050065026 -107025641.84866764 0 0 0 -40649318.110300533 13534065.269543171 -527750.12832170725 0 -527750.12832170725 -100172012.04635954 0 0 0 -30323281.371885777 7438239.9941432476 1715916.522800684 0 1715916.522800684 -99318140.708948851 0 0 0 -32157965.250181913 5520253.8022835255 -1038353.1730902195 0 -1038353.1730902195 -99832946.857403994 0 0 0 -33009442.569292188 -15044642.389677465 -5793544.1410843506 0 -5793544.1410843506 -96600736.638656735 0 0 0 -39075882.659916937 -2250186.1049030423 10633460.498287026 0 10633460.498287026 -105072728.27731377 0 0 0 -37563020.033775896 -14396622.464200724 -18923498.942953274 0 -18923498.942953274 -96783593.689507008 0 0 0 -38913075.653797701 9355757.0277738571 267702.67903757095 0 267702.67903757095 -101940310.88610697 0 0 0 -32404593.85041666 8357410.1845384836 -298815.42118275166 0 -298815.42118275166 -101951148.76731968 0 0 0 -32757808.503973484 11199807.374238968 -1335012.1553621292 0 -1335012.1553621292 -100863981.89033079 0 0 0 -31382461.080632091 11292544.219553471 1367040.1313826442 0 1367040.1313826442 -100083910.93239117 0 0 0 -31076978.349493265 2075828.2971924543 3026429.0260069668 0 3026429.0260069668 -101007456.40253448 0 0 0 -34626069.836869836 789764.66674590111 -3478936.8950926363 0 -3478936.8950926363 -99898381.436189055 0 0 0 -34688015.869305134 2728651.2061254978 -1511769.5402073711 0 -1511769.5402073711 -101836856.83408213 0 0 0 -34687871.969784856 13742920.122196272 -29094.360765218735 0 -29094.360765218735 -100161592.87816361 0 0 0 -30246535.464588568 3710475.8182647228 2016250.0811494179 0 2016250.0811494179 -96135838.635036945 0 0 0 -32348876.985870123 4288688.1630071402 -1419194.4386157515 0 -1419194.4386157515 -95403351.449504137 0 0 0 -31890132.150273919 -32818399.920023184 793430.35995236784 0 793430.35995236784 -92612509.435578361 0 0 0 -43900818.274460532 13132369.238609612 607388.17609602213 0 607388.17609602213 -100979684.47482693 0 0 0 -30746560.332676113 12898143.432227731 719244.03196072578 0 719244.03196072578 -101251604.70915198 0 0 0 -30923711.446923614 10638280.244160533 -522262.90646636486 0 -522262.90646636486 -101810277.44971931 0 0 0 -31910199.021945357 6498441.6207675934 -34274.696579456329 0 -34274.696579456329 -99930589.937838078 0 0 0 -32701251.910974503 1103813.1081428528 202869.60576331615 0 202869.60576331615 -99252911.856413364 0 0 0 -34352184.561894417 798991.93516931997 2841017.6315219998 0 2841017.6315219998 -89137310.871514589 0 0 0 -30918411.627720911 -53171212.71586889 -24377050.396711014 0 -24377050.396711014 -98734559.630154684 0 0 0 -53167020.321108259 1094909.0417019231 -241153.8169465065 0 -241153.8169465065 -99207368.21590969 0 0 0 -34339360.710972898 -53500702.204490818 24410671.75903026 0 24410671.75903026 -99347333.696930811 0 0 0 -53496812.565497562 6331241.2049152851 33928.468312437712 0 33928.468312437712 -100079732.34224653 0 0 0 -32811971.898065567 1066890.4162991308 -2824806.2649272382 0 -2824806.2649272382 -88566276.708470061 0 0 0 -30624785.202259813 12174978.156621218 -1176653.3927572072 0 -1176653.3927572072 -100332692.6976397 0 0 0 -30855200.089356422 10759259.20147562 1454833.5895978212 0 1454833.5895978212 -101065690.08300734 0 0 0 -31607250.808536053 1935637.9457821846 2293516.8395715654 0 2293516.8395715654 -101322145.03280354 0 0 0 -34785277.480457425 -1025935.9924806952 -3541736.9922765642 0 -3541736.9922765642 -100878369.0087384 0 0 0 -35666506.75042671 13925313.787485421 100894.05493092537 0 100894.05493092537 -100206311.75345957 0 0 0 -30198349.288090885 4747441.0850114822 1674205.3144428879 0 1674205.3144428879 -98981699.67153573 0 0 0 -32981990.505283356 4743435.5207872391 -2173912.1535002887 0 -2173912.1535002887 -98970621.48432827 0 0 0 -32979515.087239385 -18575039.060772851 847099.78779578209 0 847099.78779578209 -90618504.161137149 0 0 0 -38217740.127668485 11342225.828681827 -1458284.6808083653 0 -1458284.6808083653 -100134484.9688201 0 0 0 -31077290.699048638 11339351.694339395 1261956.771538794 0 1261956.771538794 -100870470.90099359 0 0 0 -31335891.722329021 -1220176.7440840602 2485945.5620971322 0 2485945.5620971322 -101549746.95291507 0 0 0 -35969473.293949723 811772.37996673584 -3259296.4864755273 0 -3259296.4864755273 -101518360.72615588 0 0 0 -35247305.921166182 2403492.158438921 -870704.82216411829 0 -870704.82216411829 -97027760.545811653 0 0 0 -33118493.935580492 -41139991.031523563 10780614.958632268 0 10780614.958632268 -92526003.276923329 0 0 0 -46783098.007956393 2192142.8769640923 746802.00000229478 0 746802.00000229478 -91050467.433575153 0 0 0 -31100413.594813704 11981428.249878168 170045.56737661362 0 170045.56737661362 -99993457.086516857 0 0 0 -30804210.092823267 491091.53666770458 -470270.94578623772 0 -470270.94578623772 -97173810.030162573 0 0 0 -33838951.472723007 -47868577.810448356 12853275.979741402 0 12853275.979741402 -88896611.18563354 0 0 0 -47867816.148628652 11170737.815546513 178839.37079613988 0 178839.37079613988 -100205324.63864613 0 0 0 -31162105.388084888 692637.51733912469 478428.91510593891 0 478428.91510593891 -85770046.355051368 0 0 0 -29777093.093199238 853403.85163519764 1006250.8700389266 0 1006250.8700389266 -88049172.103990138 0 0 0 -30518518.88832416 12390322.568370342 130753.71759343147 0 130753.71759343147 -99878349.661291122 0 0 0 -30620809.482522011 -47507654.51396504 9865508.5117407944 0 9865508.5117407944 -88232027.083719984 0 0 0 -47508888.559189767 1040000.7503879915 -442556.37334382534 0 -442556.37334382534 -95762985.716365889 0 0 0 -33153044.738092337 6673008.8549010754 -494487.9388641119 0 -494487.9388641119 -99440607.48509407 0 0 0 -32468659.520567417 4343060.5585093498 637952.35689854622 0 637952.35689854622 -99078768.223529339 0 0 0 -33157497.682757139 -16997422.305306315 20019701.96002122 0 20019701.96002122 -100299460.5622974 0 0 0 -41053909.003661275 -7289211.6296063364 -17048349.078673929 0 -17048349.078673929 -110656901.29042667 0 0 0 -41281139.522011489 12740664.48454684 -813481.86403572559 0 -813481.86403572559 -100942013.67324877 0 0 0 -30870472.216045797 12895477.624640092 -943502.6849039793 0 -943502.6849039793 -100399641.7311753 0 0 0 -30626457.437287346 10369741.377589941 1724308.2769470662 0 1724308.2769470662 -99753144.293800116 0 0 0 -31284191.020673394 10186309.672758341 1579064.6308542192 0 1579064.6308542192 -100958754.17519188 0 0 0 -31770355.57585144 5206074.6454536915 1249142.4886856303 0 1249142.4886856303 -101472276.58690071 0 0 0 -33693170.679506421 3736905.1720964909 894190.13511083648 0 894190.13511083648 -101923024.8222003 0 0 0 -34365141.877536416 -7452506.6445028186 -2448179.1717553735 0 -2448179.1717553735 -101636710.45348838 0 0 0 -38181225.984296978 -1590011.4534024745 -3362857.5482927561 0 -3362857.5482927561 -99771604.566934362 0 0 0 -35476565.607117847 7060357.1265351772 -603919.12842488289 0 -603919.12842488289 -99438720.121186733 0 0 0 -32332427.04812789 6482118.347710371 812472.96100318432 0 812472.96100318432 -98917176.779265881 0 0 0 -32352270.451044321 6597673.1607460976 -2035462.1874276996 0 -2035462.1874276996 -97856470.83052063 0 0 0 -31940579.184421062 13407837.220790505 377549.18497061729 0 377549.18497061729 -100547483.37753558 0 0 0 -30498876.154860616 -23339174.61340405 3466503.900840953 0 3466503.900840953 -96905150.376992643 0 0 0 -42085513.74663879 5117609.7278702259 960793.03673556447 0 960793.03673556447 -98543532.949048042 0 0 0 -32699073.127412319 4270116.0669272542 -324468.98784677684 0 -324468.98784677684 -101046516.07918251 0 0 0 -33871740.004289389 2931429.7700643539 -122196.25545689464 0 -122196.25545689464 -101650399.53589463 0 0 0 -34551639.418040633 13175582.414171696 511181.15746150911 0 511181.15746150911 -99956642.966687679 0 0 0 -30373371.193380833 5063013.0416492224 -1941153.6698926687 0 -1941153.6698926687 -99428086.267389864 0 0 0 -33027775.629009366 4104433.2648534328 783247.17592567205 0 783247.17592567205 -99263076.45040369 0 0 0 -33305525.114942595 -17382788.936256021 6122823.9919971526 0 6122823.9919971526 -91269505.875925303 0 0 0 -38028303.184263438 10284379.936166763 -610596.78338354826 0 -610596.78338354826 -101574457.44397295 0 0 0 -31951527.127732217 12484299.47317481 -979393.48401936889 0 -979393.48401936889 -101174097.24378014 0 0 0 -31041429.219711781 11043567.846949816 1452352.5291849375 0 1452352.5291849375 -100435695.27796733 0 0 0 -31287244.600855827 5490497.2982232571 1317916.5896438956 0 1317916.5896438956 -101382133.8354615 0 0 0 -33562072.788033366 -687402.03839957714 -1768921.4193806201 0 -1768921.4193806201 -100435672.3681848 0 0 0 -35393076.042304575 12810184.795722872 845439.66834008694 0 845439.66834008694 -100685271.86290663 0 0 0 -30756280.473514169 8778099.9465100765 -1852014.742825523 0 -1852014.742825523 -99651980.323083878 0 0 0 -31805858.13180089 5523255.26529634 -1052876.7130327746 0 -1052876.7130327746 -101361756.04409695 0 0 0 -33543475.272580147 -8405068.6205981895 4287986.3068726957 0 4287986.3068726957 -97221396.13610968 0 0 0 -36969262.664847754 8361494.8366765231 283290.21887290478 0 283290.21887290478 -101970973.12559316 0 0 0 -32763317.401120856 -2826869.1024204493 1442379.0623422861 0 1442379.0623422861 -101997197.66579366 0 0 0 -36688423.368875027 9382435.3607795238 -466163.80436339974 0 -466163.80436339974 -102213179.01164198 0 0 0 -32490760.277801871 11837627.169640779 1266298.4363083839 0 1266298.4363083839 -100993975.75343728 0 0 0 -31204722.004328728 10343265.294573694 -189094.52243870497 0 -189094.52243870497 -101935715.40530926 0 0 0 -32057357.538757533 13588925.918347359 -20054.269696171581 0 -20054.269696171581 -100060456.28091145 0 0 0 -30265035.626897335 652332.63299243746 680783.82849085331 0 680783.82849085331 -93241360.889211074 0 0 0 -32406159.889676638 1245823.5386005095 -646843.77771997452 0 -646843.77771997452 -91345541.337175727 0 0 0 -31534901.229501303 -47562884.752644636 -949946.65863255097 0 -949946.65863255097 -88339181.576809466 0 0 0 -47565723.215308927 7940329.2794662714 -1985496.1798623204 0 -1985496.1798623204 -99980600.811752677 0 0 0 -32214095.036300302 13804053.35869956 327871.83314239979 0 327871.83314239979 -100630401.97202253 0 0 0 -30389222.014662981 -10007905.810649216 1539500.827275835 0 1539500.827275835 -97191522.582559824 0 0 0 -37519799.937623143 6909393.9942780137 978322.57079470158 0 978322.57079470158 -100642544.168998 0 0 0 -32806602.561151803 2309597.1949529648 480790.74185000453 0 480790.74185000453 -99148593.597284913 0 0 0 -33893648.740816116 11801202.191455364 319209.91203343123 0 319209.91203343123 -101562927.28159571 0 0 0 -31416603.781548977 10324889.009013414 -101499.15738233924 0 -101499.15738233924 -102091592.43165112 0 0 0 -32118346.197923183 -39590999.363431498 -46225935.001288861 0 -46225935.001288861 -184380788.48540062 0 0 0 -78390125.747091204 -78557758.704354703 46281976.311280794 0 46281976.311280794 -146120936.41189998 0 0 0 -78637543.290689141 -39707308.445788018 46378570.589143664 0 46378570.589143664 -184327424.81869668 0 0 0 -78412156.642569661 -78449587.157217652 -46166461.604806677 0 -46166461.604806677 -145918690.0023613 0 0 0 -78528897.005852625 925455.40687990189 -6353.1556913213617 0 -6353.1556913213617 -100334209.0253768 0 0 0 -34793063.76647377 761758.76128721237 -65277.811762809753 0 -65277.811762809753 -99777681.339304924 0 0 0 -34655572.90230608 916918.00761318207 23817.25870013237 0 23817.25870013237 -100274089.69582748 0 0 0 -34775010.090875149 677085.35442243994 64950.682208418846 0 64950.682208418846 -99760034.21924758 0 0 0 -34679032.102688916 11429725.386765242 819218.56893903017 0 819218.56893903017 -101732486.84079814 0 0 0 -31605966.508911371 8801331.7492190599 370892.19282749295 0 370892.19282749295 -101793512.14968646 0 0 0 -32547263.14016366 8363571.5332010984 -350740.43984150887 0 -350740.43984150887 -101627709.82029605 0 0 0 -32642448.400483131 12711509.04718709 -212666.82354104519 0 -212666.82354104519 -100178920.14748311 0 0 0 -30613593.885103941 2877342.386958003 1324014.3361578584 0 1324014.3361578584 -96270021.741003275 0 0 0 -32687437.773915768 2917489.3671228886 -875598.5016130507 0 -875598.5016130507 -91848361.373433113 0 0 0 -31125805.202208638 -40435186.948754415 -7247521.8407054655 0 -7247521.8407054655 -92608644.695655614 0 0 0 -46565341.075543523 11503600.24809894 -1174849.1627298594 0 -1174849.1627298594 -100578556.60739821 0 0 0 -31176234.725754529 9730644.28428936 1685735.499185577 0 1685735.499185577 -99876123.079645157 0 0 0 -31550917.578374386 1621692.6375716329 3200101.1304107271 0 3200101.1304107271 -102067401.70554543 0 0 0 -35155998.173790932 -4684775.543753624 -5065971.4146013558 0 -5065971.4146013558 -99367994.739907965 0 0 0 -36418469.59928149 8494085.9875266626 304611.45624256134 0 304611.45624256134 -101809202.63425571 0 0 0 -32660290.826355092 3756827.3889558911 -868982.63183580339 0 -868982.63183580339 -101326515.51022243 0 0 0 -34149390.842443287 11079128.610440254 -235600.52177989483 0 -235600.52177989483 -99812477.4565835 0 0 0 -31056672.09615016 733921.30497872829 430541.50129407644 0 430541.50129407644 -98295177.768990993 0 0 0 -34146439.762404323 10778791.156504154 -287572.87661457062 0 -287572.87661457062 -100366325.89456987 0 0 0 -31355637.158323288 1666572.0834739208 945290.14208805561 0 945290.14208805561 -98586520.432602406 0 0 0 -33921981.922195077 -315719.47940009832 -912169.07669225335 0 -912169.07669225335 -92199729.052680016 0 0 0 -32380406.986228049 -37429517.683667533 -14228586.98122355 0 -14228586.98122355 -85418748.82929942 0 0 0 -42996893.27953843 1188527.6070724726 626397.45398378372 0 626397.45398378372 -93996966.094621897 0 0 0 -32482953.470642447 -35905356.00840839 -12285950.971816642 0 -12285950.971816642 -89276781.55440098 0 0 0 -43813748.146983288 4606255.0089232922 -761128.56954942644 0 -761128.56954942644 -98918074.221960068 0 0 0 -33009136.724562883 8449709.5601512194 548149.7791069746 0 548149.7791069746 -99212843.043799162 0 0 0 -31767096.719277024 8458936.1698189378 -1709200.7998245358 0 -1709200.7998245358 -100258949.78406155 0 0 0 -32130004.764984906 12397724.57597661 921432.51329424977 0 921432.51329424977 -99946658.127645969 0 0 0 -30642126.743084192 -8679058.976829201 6611746.1108515188 0 6611746.1108515188 -98839675.195489347 0 0 0 -37631556.960311502 3636481.9428142309 -1602276.0235980153 0 -1602276.0235980153 -100414883.68221074 0 0 0 -33872440.608788848 -29475615.102822319 19436422.022535957 0 19436422.022535957 -104085184.69540159 0 0 0 -46746279.929378375 -3468172.4866639376 -7565511.2035361901 0 -7565511.2035361901 -101664318.17700386 0 0 0 -36796371.732283711 5122823.4921107292 -625801.66609117389 0 -625801.66609117389 -101498838.38554597 0 0 0 -33731605.212702274 13694680.013501406 148920.97385346889 0 148920.97385346889 -100310740.43571961 0 0 0 -30315621.147776246 4748746.4694210291 2007130.2330364734 0 2007130.2330364734 -96464085.055238247 0 0 0 -32100368.505035996 5288809.8178093433 -1772591.75024046 0 -1772591.75024046 -96626702.054334402 0 0 0 -31968262.282783747 -29039504.244899139 2996819.1757157221 0 2996819.1757157221 -95181818.559495658 0 0 0 -43477462.981538177 13849346.119749427 67323.362005710602 0 67323.362005710602 -100731085.42562056 0 0 0 -30408608.757054806 13608221.28350091 207221.67800545692 0 207221.67800545692 -101116470.84517503 0 0 0 -30627887.346585751 8755096.1284054518 1131785.8630766571 0 1131785.8630766571 -101379815.19525719 0 0 0 -32418651.673398137 7769219.1811808348 706869.19091954827 0 706869.19091954827 -100987242.42624116 0 0 0 -32626308.135770917 8943487.9479026794 -1331842.7557156682 0 -1331842.7557156682 -101517489.90270734 0 0 0 -32400900.68418169 9257384.3613330126 -1300234.5395981371 0 -1300234.5395981371 -100637010.7315886 0 0 0 -31982869.229589462 12128942.912785769 -418870.04234164953 0 -418870.04234164953 -99862998.412042618 0 0 0 -30706919.424740076 4440993.1799086332 1423234.2764612436 0 1423234.2764612436 -97431608.208141446 0 0 0 -32546715.259881616 3241358.3812016845 -552960.20783093572 0 -552960.20783093572 -95666491.725111485 0 0 0 -32348796.670368254 -32426267.843263432 -10492485.824623469 0 -10492485.824623469 -95593974.058460087 0 0 0 -44807084.665603235 12302640.309071064 -573501.32293891907 0 -573501.32293891907 -100378199.32944441 0 0 0 -30826445.65713048 5848333.2258300781 1882386.4786131382 0 1882386.4786131382 -97898648.651741743 0 0 0 -32217610.399068832 3222498.0932784081 467745.68732178211 0 467745.68732178211 -98478001.97630477 0 0 0 -33339426.359059215 -25752150.386389136 -7441336.1503659636 0 -7441336.1503659636 -96417130.854259014 0 0 0 -42759248.434226841 7638900.8946938515 281868.78781801462 0 281868.78781801462 -101858089.72883558 0 0 0 -32976716.091949701 5175924.0530019999 -1571255.0246075988 0 -1571255.0246075988 -98236817.941215754 0 0 0 -32571312.860874414 11912259.658204079 583578.40735983849 0 583578.40735983849 -99620687.159418583 0 0 0 -30697949.6254251 -25854500.213142917 10536916.949791349 0 10536916.949791349 -95795699.991938263 0 0 0 -42577570.071778402 2886606.5209927559 -587020.53076803684 0 -587020.53076803684 -98214164.093526602 0 0 0 -33364645.15038681 7916876.0919668674 -753253.96512687206 0 -753253.96512687206 -100354407.25851917 0 0 0 -32353135.908293247 5638426.6178581715 967226.97055596113 0 967226.97055596113 -99272978.31809783 0 0 0 -32772093.095083952 12356795.816993833 -1033768.084112525 0 -1033768.084112525 -100064594.16436076 0 0 0 -30697729.421578526 9266894.8992930651 1838644.7813097239 0 1838644.7813097239 -100628046.93180847 0 0 0 -31976403.211380482 2928860.9766309857 1641741.1406788826 0 1641741.1406788826 -101044219.33725464 0 0 0 -34340375.426218152 -5431880.4545227289 -4615786.8034279346 0 -4615786.8034279346 -99532745.364947975 0 0 0 -36737619.03681469 13182000.757994115 265810.95450413227 0 265810.95450413227 -101548072.20453811 0 0 0 -30928125.006290257 11275405.946163654 -164264.64045381546 0 -164264.64045381546 -100029181.20259285 0 0 0 -31063821.339750767 779328.34400001133 435360.44056415558 0 435360.44056415558 -96883698.196268246 0 0 0 -33636529.448293895 722376.49430601287 -635401.54444366693 0 -635401.54444366693 -85299047.454006463 0 0 0 -29601834.835895196 -48290519.630285263 -12940968.987419769 0 -12940968.987419769 -89676897.18118535 0 0 0 -48288595.884014718 740307.63423478603 167204.78754603863 0 167204.78754603863 -101974760.40920043 0 0 0 -35432058.471238017 13545498.67454195 34370.705024003983 0 34370.705024003983 -100062050.47550297 0 0 0 -30280793.130336285 691728.65426719189 714066.44037860632 0 714066.44037860632 -90948757.284859657 0 0 0 -31589960.020707369 524358.93349497463 -680428.94953298569 0 -680428.94953298569 -92963370.763096467 0 0 0 -32353654.140360307 -47119550.656952173 2012489.2121249314 0 2012489.2121249314 -87503894.177386165 0 0 0 -47118205.692018412 -1915968.732522577 7080434.9691842794 0 7080434.9691842794 -100848089.60468596 0 0 0 -35967420.41802305 -29222647.598568559 -19338862.3143095 0 -19338862.3143095 -104251238.0319542 0 0 0 -46715859.970682979 1720211.015632689 -304311.96084368229 0 -304311.96084368229 -99504056.595482111 0 0 0 -34224345.952947319 8919490.4105707556 -358802.28572529554 0 -358802.28572529554 -101843531.71032274 0 0 0 -32523414.454913244 7339544.365824163 110942.98966825008 0 110942.98966825008 -101971030.53797662 0 0 0 -33121020.160253346 -323700.32049393654 1170051.037470907 0 1170051.037470907 -94073294.298344374 0 0 0 -33038948.116593599 13613041.615127027 77401.071867227554 0 77401.071867227554 -99898455.255014539 0 0 0 -30199894.773960888 -38299159.879832827 3476073.5462939888 0 3476073.5462939888 -83884343.861067519 0 0 0 -42764226.309315115 767140.60032963753 -594335.81017832458 0 -594335.81017832458 -95010681.853313923 0 0 0 -32985239.438544512 13130594.824271917 -686090.02444428205 0 -686090.02444428205 -100816615.6126771 0 0 0 -30690107.275941849 10775851.993269563 1244380.3651055098 0 1244380.3651055098 -100914327.96663952 0 0 0 -31548466.590679526 5320910.5539991856 409151.25070929527 0 409151.25070929527 -101708368.40232539 0 0 0 -33735610.246914148 -2249424.0875169635 -2118638.6930611134 0 -2118638.6930611134 -101287997.67055058 0 0 0 -36238097.615323663 11537541.700475514 1072586.2854527831 0 1072586.2854527831 -101486632.85040939 0 0 0 -31482181.902476966 11404183.271099329 405745.25820499659 0 405745.25820499659 -101596998.74489594 0 0 0 -31567485.415828824 11743456.802649975 -1127979.8665544391 0 -1127979.8665544391 -99890896.42998457 0 0 0 -30851603.869566917 8649437.6327254772 1610499.0309308767 0 1610499.0309308767 -99886722.980986595 0 0 0 -31933049.87189126 1519771.5394390821 2912637.8704482317 0 2912637.8704482317 -101378385.49620628 0 0 0 -34950514.884868503 -9523281.4703053832 -7037546.8403984755 0 -7037546.8403984755 -99292337.909841776 0 0 0 -38085466.783051431 4220122.4354375601 -1221409.5998843014 0 -1221409.5998843014 -101989069.50077605 0 0 0 -34219131.472868443 11212590.423050523 -504459.56144750118 0 -504459.56144750118 -100294520.38752937 0 0 0 -31178675.487567544 3442276.5260703564 1320371.2782747149 0 1320371.2782747149 -99254276.230923176 0 0 0 -33534199.896698236 1914172.4685746431 699505.16400045156 0 699505.16400045156 -99464812.673856497 0 0 0 -34142724.071848631 -23815821.876296438 -11365634.437648639 0 -11365634.437648639 -90676886.059573859 0 0 0 -40072447.777554579 13557247.865312338 -179893.60484790802 0 -179893.60484790802 -100335104.94932985 0 0 0 -30372249.979405642 3989527.6909267902 2023244.4923635125 0 2023244.4923635125 -96559942.963697195 0 0 0 -32399645.345469594 -32413797.017448336 -1958815.5051157586 0 -1958815.5051157586 -93327927.696568519 0 0 0 -44009603.64990592 6619921.2400283813 -201539.77503694594 0 -201539.77503694594 -101704209.62479329 0 0 0 -33279500.934667706 98879.065168857574 -925717.57218104601 0 -925717.57218104601 -95049175.602185965 0 0 0 -33232603.787955761 -37177300.852629811 159188.19322747737 0 159188.19322747737 -82554789.725614339 0 0 0 -41906231.702385448 2267948.4628944397 -1233002.4762714505 0 -1233002.4762714505 -93752038.960118532 0 0 0 -32019431.674028516 -40392343.006009005 709055.01079597324 0 709055.01079597324 -89518503.130509377 0 0 0 -45468796.147781439 573752.4173732996 462555.88024675846 0 462555.88024675846 -94155077.543323517 0 0 0 -32753463.794082522 13720598.160615206 2034.1137803792953 0 2034.1137803792953 -99976182.774851322 0 0 0 -30189454.614982843 13679753.039045095 14533.163545131683 0 14533.163545131683 -100071322.93240166 0 0 0 -30237049.462674856 1447249.743303895 1282180.941280067 0 1282180.941280067 -94215388.881794691 0 0 0 -32468848.698471785 13741171.111222029 -154941.75703710318 0 -154941.75703710318 -100003015.66065979 0 0 0 -30191645.592303038 2571486.5297359228 1426465.729221642 0 1426465.729221642 -96816471.779855013 0 0 0 -32985744.83754158 -29925721.420780785 -3276038.5732219592 0 -3276038.5732219592 -86333730.900168255 0 0 0 -40690808.312332161 11827302.387160301 -881775.22095829248 0 -881775.22095829248 -99755105.770684719 0 0 0 -30774731.184233189 7692003.4245922565 1633333.4519690275 0 1633333.4519690275 -99288344.417834997 0 0 0 -32058719.34763515 1763427.9800412655 2102174.8743998408 0 2102174.8743998408 -100296499.41152751 0 0 0 -34486575.001020193 -15953825.43555975 -9122967.4605706632 0 -9122967.4605706632 -100404648.31166011 0 0 0 -40725465.811526954 7806976.1837091446 33487.310644596815 0 33487.310644596815 -101953692.42779255 0 0 0 -32951350.685429096 13685196.596912622 311753.76050984859 0 311753.76050984859 -100860688.99526906 0 0 0 -30511422.339424849 8927104.3784943819 -1595394.6731795967 0 -1595394.6731795967 -100022683.73463607 0 0 0 -31883452.77464962 6908616.6930357218 733289.37747108936 0 733289.37747108936 -100332470.30676532 0 0 0 -32698348.764805198 -11052415.500814497 2069333.5122937858 0 2069333.5122937858 -100893111.91658342 0 0 0 -39180934.596089303 11721088.616843462 -175389.39098513126 0 -175389.39098513126 -100169641.79845095 0 0 0 -30956993.613562346 227615.86435365677 652437.51592895389 0 652437.51592895389 -98326394.28431797 0 0 0 -34334572.446987629 -57611.091358542442 -120741.78041099012 0 -120741.78041099012 -92358190.570144415 0 0 0 -32345530.581526041 -36216184.31944029 -10674531.792305328 0 -10674531.792305328 -83078901.883039609 0 0 0 -41753280.170867957 12036200.85677471 -265922.80080938339 0 -265922.80080938339 -99688118.847550839 0 0 0 -30678171.296771623 2473878.9674146175 822378.56582493149 0 822378.56582493149 -97104530.416833878 0 0 0 -33120728.007296801 2292419.2785966396 -1234718.4782090746 0 -1234718.4782090746 -92296851.896919012 0 0 0 -31501551.41641283 -38914773.790319048 -11706672.515906788 0 -11706672.515906788 -90836071.716317192 0 0 0 -45412795.927322663 2288035.0586540699 -1628642.0325206518 0 -1628642.0325206518 -96112022.782212973 0 0 0 -32838395.70324564 3981486.3560647964 -1269080.4174562097 0 -1269080.4174562097 -95606799.517006278 0 0 0 -32068859.60632956 12582434.920760632 172485.58228862286 0 172485.58228862286 -101447870.91821909 0 0 0 -31102902.599110365 13575007.790606976 -401513.96604812145 0 -401513.96604812145 -100852413.87688565 0 0 0 -30547092.130197525 8257504.5815944672 1897134.6915676594 0 1897134.6915676594 -99757437.613142252 0 0 0 -32024976.561041594 6532206.6964331269 -676264.55167400837 0 -676264.55167400837 -100990266.62536335 0 0 0 -33060320.975125611 -10612003.371251613 -1812416.9689958394 0 -1812416.9689958394 -98090944.228359222 0 0 0 -38046031.6598638 11278627.335744143 -448366.61576992273 0 -448366.61576992273 -101762787.02287722 0 0 0 -31669455.890496612 12450374.939751983 -486270.65044534206 0 -486270.65044534206 -100076588.32713795 0 0 0 -30669174.685584903 3965356.4806673527 1572434.1759701967 0 1572434.1759701967 -98958922.890652657 0 0 0 -33247748.243494749 3219148.3811496496 -444787.46255612373 0 -444787.46255612373 -98622436.507532239 0 0 0 -33391150.844234109 -22334706.616112277 -8886492.3030424714 0 -8886492.3030424714 -90482221.25693956 0 0 0 -39485924.755568124 12318138.727582693 271390.44508065283 0 271390.44508065283 -101869885.80187345 0 0 0 -31343111.47600174 3807310.7258079052 -1490520.3794388771 0 -1490520.3794388771 -98785846.792113781 0 0 0 -33242487.623206973 -25576187.7539123 10127218.893104427 0 10127218.893104427 -91845138.232944161 0 0 0 -41097464.095399752 11403753.25081563 447581.88191843033 0 447581.88191843033 -100449313.19416571 0 0 0 -31165945.980172634 2823135.6615374088 -648560.46295672655 0 -648560.46295672655 -98107230.969667077 0 0 0 -33349433.357845366 12797297.848311186 -332660.98912924528 0 -332660.98912924528 -99780896.450967789 0 0 0 -30444259.510929823 2819560.2004533857 1284521.2237776518 0 1284521.2237776518 -97933279.115508705 0 0 0 -33289801.620269433 2443296.8177634329 -1104609.8061484098 0 -1104609.8061484098 -95788891.300793946 0 0 0 -32670958.069060698 -29989550.880818039 -8474330.7824939694 0 -8474330.7824939694 -88967774.369703665 0 0 0 -41635063.83768259 11801568.22083354 -314327.83961308002 0 -314327.83961308002 -100289214.9565506 0 0 0 -30970676.35750103 2648649.8398064375 1310535.2824018002 0 1310535.2824018002 -98236935.147134304 0 0 0 -33455899.857564569 2400140.4510917664 -90391.197840094566 0 -90391.197840094566 -95013926.890478492 0 0 0 -32414825.253785491 -33035576.556692466 -9239123.4294355512 0 -9239123.4294355512 -90935591.948985025 0 0 0 -43389908.976987138 13869361.092698574 -328985.04842871428 0 -328985.04842871428 -100239876.49474955 0 0 0 -30229680.390717983 7898673.0789042115 1802528.0212185979 0 1802528.0212185979 -99602012.300283909 0 0 0 -32096168.727483094 6651932.8620955348 -1196012.0922740698 0 -1196012.0922740698 -99722078.80054903 0 0 0 -32574551.078458607 -13464954.434102058 -3041941.3655969799 0 -3041941.3655969799 -97605649.560450196 0 0 0 -38874711.398093283 13426848.886210918 394966.92449772358 0 394966.92449772358 -101227592.47273135 0 0 0 -30730260.255282402 13712105.53687644 409188.52297532558 0 409188.52297532558 -100698920.77384257 0 0 0 -30445385.332938194 10406618.868966818 -1074595.7784266472 0 -1074595.7784266472 -100892068.61806369 0 0 0 -31669907.412183881 7064919.825309515 85685.702307760715 0 85685.702307760715 -101730393.62805676 0 0 0 -33132915.830961585 9621438.1814818382 -1523086.5726611018 0 -1523086.5726611018 -101218586.12956691 0 0 0 -32059001.781829715 7896318.5408018827 563177.69190698862 0 563177.69190698862 -101430510.68517733 0 0 0 -32736967.250531197 6136910.3658857271 -411695.78023469448 0 -411695.78023469448 -101832945.53420153 0 0 0 -33493612.308910556 5206112.1249871701 225641.48971885443 0 225641.48971885443 -101320545.84315577 0 0 0 -33640051.801359013 -759892.7618137598 1290462.959348917 0 1290462.959348917 -98188522.581968427 0 0 0 -34631945.370323777 -2613248.1611135006 449860.49076906499 0 449860.49076906499 -101229495.0958252 0 0 0 -36344960.139928579 7578321.2879110575 -389197.94338105619 0 -389197.94338105619 -101669332.0521419 0 0 0 -32931853.76748085 6763458.5840073824 -47445.211894288659 0 -47445.211894288659 -101944365.09112978 0 0 0 -33313317.277492762 2842226.7722920179 -1049485.2880396247 0 -1049485.2880396247 -93481732.191254258 0 0 0 -31723826.896636844 -38169223.725967437 -1199288.5660959855 0 -1199288.5660959855 -90291839.426739812 0 0 0 -44961372.103447542 1943789.8363965154 -1672346.1251326203 0 -1672346.1251326203 -96159294.034211516 0 0 0 -32975426.46923548 -32289713.067581512 -942998.76356287673 0 -942998.76356287673 -87163904.701368049 0 0 0 -41808766.219132356 13513743.755824327 -89407.613015890121 0 -89407.613015890121 -100198084.31372643 0 0 0 -30339519.195266008 2158938.192918241 1586335.2448450327 0 1586335.2448450327 -95847562.889701128 0 0 0 -32791018.64387399 13829058.464253187 -20934.308282315731 0 -20934.308282315731 -99990889.340351105 0 0 0 -30156640.806634188 2507888.6873883605 1174815.7815642357 0 1174815.7815642357 -95742990.32711792 0 0 0 -32632285.573905289 11581309.53773427 -1175062.3348984718 0 -1175062.3348984718 -100017227.14875507 0 0 0 -30952571.163857222 10592932.367110729 1476930.0088727027 0 1476930.0088727027 -100335260.27595663 0 0 0 -31409814.76809597 -1308364.6830408573 3493671.0677230433 0 3493671.0677230433 -101694874.66230059 0 0 0 -36051133.770869493 -5286153.5523103178 -5028413.3188622892 0 -5028413.3188622892 -103024108.48548505 0 0 0 -37908591.713228375 -859616.20490223169 76296.827850520611 0 76296.827850520611 -97936901.505343139 0 0 0 -34578781.198585808 13783053.152625322 152104.87859883904 0 152104.87859883904 -100916585.90211678 0 0 0 -30496736.462322235 13870294.73394084 230629.79955128185 0 230629.79955128185 -100629556.91910505 0 0 0 -30365741.764807463 8681544.2801360786 -1626629.8566832542 0 -1626629.8566832542 -100960883.71783638 0 0 0 -32297768.803195149 8225541.6137686372 -1608154.649361372 0 -1608154.649361372 -100030547.1826216 0 0 0 -32131751.949098527 7876662.0796903372 1066727.4035670757 0 1066727.4035670757 -100411103.74760103 0 0 0 -32387054.583768725 7735779.0671803784 1131229.7274810672 0 1131229.7274810672 -101003509.76352359 0 0 0 -32643705.74372007 -4779308.8443521857 1208114.6306492579 0 1208114.6306492579 -97694150.415229917 0 0 0 -35865710.740853667 -10542059.388299704 275730.69349055737 0 275730.69349055737 -99986020.768833041 0 0 0 -38684828.054996431 8703842.5155461431 -526388.99760508537 0 -526388.99760508537 -101552183.43916047 0 0 0 -32496919.323265016 14001682.304634571 109953.27453511953 0 109953.27453511953 -100530811.71758699 0 0 0 -30285195.294533491 7211027.5091925859 1586829.0200534463 0 1586829.0200534463 -100047042.9629519 0 0 0 -32492605.408815503 7747185.3322944641 -1656351.2347583175 0 -1656351.2347583175 -100296919.41086125 0 0 0 -32392406.927498341 -10682151.369852722 1292903.9994319975 0 1292903.9994319975 -97581018.99008286 0 0 0 -37892109.625977457 -6338646.9986698627 730765.58651950955 0 730765.58651950955 -100573829.17255574 0 0 0 -37419366.659928888 12002472.629580736 -1064993.9540598392 0 -1064993.9540598392 -100902679.20564055 0 0 0 -31115072.30162096 10801480.427720547 1652696.0656744838 0 1652696.0656744838 -99781850.985674143 0 0 0 -31143129.695283651 3327431.9200684428 2385024.4817664325 0 2385024.4817664325 -102114347.39842522 0 0 0 -34575420.417424858 -3539060.0324795842 -3181683.5682216883 0 -3181683.5682216883 -100777590.36921084 0 0 0 -36510827.640591621 8452343.3116981983 -151570.73506772518 0 -151570.73506772518 -101937348.95292222 0 0 0 -32719751.974428296 147526.37561964989 -540858.29837310314 0 -540858.29837310314 -98277078.760698795 0 0 0 -34345343.334777832 -35421008.239014357 10871407.470728016 0 10871407.470728016 -81905704.131656229 0 0 0 -41064349.329734698 11963869.394192934 152659.85225272179 0 152659.85225272179 -100022528.25939417 0 0 0 -30820530.602820635 -200440.27780282497 507550.38030177355 0 507550.38030177355 -92310308.213854551 0 0 0 -32378761.972080112 11346627.195331573 -1026160.1183603406 0 -1026160.1183603406 -100716672.26012897 0 0 0 -31279515.772678852 8125685.2646142244 1753068.3394016027 0 1753068.3394016027 -99621576.458320141 0 0 0 -32023561.917797327 2603585.1918694973 2643484.9267451167 0 2643484.9267451167 -101862515.86513138 0 0 0 -34740625.735641658 -9320363.2906890512 -6955492.9533216208 0 -6955492.9533216208 -96934859.209055245 0 0 0 -37189327.874910414 13486608.611936569 318658.60244227201 0 318658.60244227201 -100996557.77232027 0 0 0 -30628482.206134319 8639741.4925823305 555758.98939692974 0 555758.98939692974 -101528633.76835442 0 0 0 -32511112.296520226 6136421.2874270678 -29843.665273338556 0 -29843.665273338556 -101716624.852 0 0 0 -33453071.247600496 11683094.961115599 842755.86477464437 0 842755.86477464437 -101201619.68360901 0 0 0 -31331483.652872801 12524046.152191639 -373978.41203844547 0 -373978.41203844547 -100269893.47167397 0 0 0 -30711046.561818957 4784414.4717242718 1694760.0745181441 0 1694760.0745181441 -97035087.485735416 0 0 0 -32287735.554903746 3855933.3191440105 -602997.04001745582 0 -602997.04001745582 -95333157.521369934 0 0 0 -32017028.470779181 -33548122.124985285 -7676635.1820670515 0 -7676635.1820670515 -96210533.883269846 0 0 0 -45415529.602889262 12018755.478438258 885628.21789801121 0 885628.21789801121 -101616803.21021032 0 0 0 -31359316.706120133 
</DataArray>
</CellData>
</Piece>
</UnstructuredGrid>
</VTKFile>
