<?xml version="1.0"?>
<VTKFile type="UnstructuredGrid" version="0.1" byte_order="LittleEndian">
<UnstructuredGrid>
<Piece NumberOfPoints="84" NumberOfCells="28">
<Points>
<DataArray type="Float64" NumberOfComponents="3" format="ascii">
0 0 0 0.29166666666652658 0.2916666666668038 0 0 0.33333333333472032 0 0 0 0 0.33333333333250248 0 0 0.29166666666652658 0.2916666666668038 0 0.33333333333250248 0 0 0.66666666666578889 0 0 0.49999999999981742 0.1726190476194705 0 0.33333333333250248 0 0 0.49999999999981742 0.1726190476194705 0 0.29166666666652658 0.2916666666668038 0 0.50000000000004996 0.49999999999997519 0 0.17261904761971569 0.50000000000021494 0 0.29166666666652658 0.2916666666668038 0 0.50000000000004996 0.49999999999997519 0 0.29166666666652658 0.2916666666668038 0 0.49999999999981742 0.1726190476194705 0 0 0.33333333333472032 0 0.29166666666652658 0.2916666666668038 0 0.17261904761971569 0.50000000000021494 0 0 0.66666666666759111 0 0 0.33333333333472032 0 0.17261904761971569 0.50000000000021494 0 0 0.66666666666759111 0 0.17261904761971569 0.50000000000021494 0 0.29166666666684449 0.7083333333334445 0 0 1 0 0.29166666666684449 0.7083333333334445 0 0.33333333333472032 1 0 0 1 0 0 0.66666666666759111 0 0.29166666666684449 0.7083333333334445 0 0.33333333333472032 1 0 0.29166666666684449 0.7083333333334445 0 0.50000000000021227 0.82738095238030207 0 0.50000000000004996 0.49999999999997519 0 0.29166666666684449 0.7083333333334445 0 0.17261904761971569 0.50000000000021494 0 0.50000000000004996 0.49999999999997519 0 0.50000000000021227 0.82738095238030207 0 0.29166666666684449 0.7083333333334445 0 0.50000000000004996 0.49999999999997519 0 0.82738095238054699 0.49999999999982031 0 0.70833333333346027 0.70833333333323512 0 0.50000000000004996 0.49999999999997519 0 0.70833333333346027 0.70833333333323512 0 0.50000000000021227 0.82738095238030207 0 0.66666666666759111 1 0 0.50000000000021227 0.82738095238030207 0 0.70833333333346027 0.70833333333323512 0 0.66666666666759111 1 0 0.33333333333472032 1 0 0.50000000000021227 0.82738095238030207 0 1 1 0 0.70833333333346027 0.70833333333323512 0 1 0.66666666666578889 0 1 1 0 0.66666666666759111 1 0 0.70833333333346027 0.70833333333323512 0 1 0.66666666666578889 0 0.70833333333346027 0.70833333333323512 0 0.82738095238054699 0.49999999999982031 0 1 0.33333333333250248 0 1 0.66666666666578889 0 0.82738095238054699 0.49999999999982031 0 1 0.33333333333250248 0 0.82738095238054699 0.49999999999982031 0 0.70833333333327586 0.2916666666665107 0 1 0 0 0.70833333333327586 0.2916666666665107 0 0.66666666666578889 0 0 1 0 0 1 0.33333333333250248 0 0.70833333333327586 0.2916666666665107 0 0.66666666666578889 0 0 0.70833333333327586 0.2916666666665107 0 0.49999999999981742 0.1726190476194705 0 0.50000000000004996 0.49999999999997519 0 0.70833333333327586 0.2916666666665107 0 0.82738095238054699 0.49999999999982031 0 0.50000000000004996 0.49999999999997519 0 0.49999999999981742 0.1726190476194705 0 0.70833333333327586 0.2916666666665107 0 
</DataArray>
</Points>
<Cells>
<DataArray type="UInt32" Name="connectivity" format="ascii">
0 1 2 3 4 5 6 7 8 9 10 11 12 13 14 15 16 17 18 19 20 21 22 23 24 25 26 27 28 29 30 31 32 33 34 35 36 37 38 39 40 41 42 43 44 45 46 47 48 49 50 51 52 53 54 55 56 57 58 59 60 61 62 63 64 65 66 67 68 69 70 71 72 73 74 75 76 77 78 79 80 81 82 83 
</DataArray>
<DataArray type="UInt32" Name="offsets" format="ascii">
3 6 9 12 15 18 21 24 27 30 33 36 39 42 45 48 51 54 57 60 63 66 69 72 75 78 81 84 
</DataArray>
<DataArray type="UInt32" Name="types" format="ascii">
5 5 5 5 5 5 5 5 5 5 5 5 5 5 5 5 5 5 5 5 5 5 5 5 5 5 5 5 
</DataArray>
</Cells>
<PointData Scalars="" Vectors="displacement," Tensors="">
<DataArray type="Float64" Name="displacement" NumberOfComponents="3" format="ascii">
-5.3190425667019939e-07 -0.00030057637260538219 0 0.073007774796887789 -0.277662125364181 0 -2.5525180116120803e-07 -0.31706337384906758 0 -5.3190425667019939e-07 -0.00030057637260538219 0 0.083361124151566823 -0.00030055491982346899 0 0.073007774796887803 -0.277662125364181 0 0.083361124151566823 -0.00030055491982342372 0 0.1657734604908728 -0.00029968405194947124 0 0.12473565775161595 -0.16467910581375203 0 0.083361124151566823 -0.00030055491982342372 0 0.12473565775161595 -0.16467910581375203 0 0.073007774796887803 -0.277662125364181 0 0.12504319954418799 -0.47638465818959624 0 0.043351849213034907 -0.47549620590636554 0 0.073007774796887803 -0.277662125364181 0 0.12504319954418799 -0.47638465818959624 0 0.073007774796887803 -0.27766212536418095 0 0.12473565775161595 -0.16467910581375203 0 -2.5525180116120803e-07 -0.31706337384906758 0 0.073007774796887803 -0.277662125364181 0 0.043351849213034907 -0.47549620590636554 0 -5.110416177061189e-07 -0.6336290816368253 0 -2.5525180116120803e-07 -0.31706337384906758 0 0.043351849213034907 -0.47549620590636554 0 -5.110416177061189e-07 -0.6336290816368253 0 0.043351849213034907 -0.47549620590636554 0 0.073484144688717085 -0.67373549798239307 0 2.0644910941808555e-06 -0.9499763245131152 0 0.073484144688717085 -0.67373549798239307 0 0.084894835262131194 -0.95116556584361744 0 2.0644910941808555e-06 -0.9499763245131152 0 -5.110416177061189e-07 -0.6336290816368253 0 0.073484144688717085 -0.67373549798239307 0 0.084894835262131194 -0.95116556584361744 0 0.073484144688717085 -0.67373549798239307 0 0.12591725192962955 -0.78812138533141007 0 0.12504319954418799 -0.47638465818959624 0 0.073484144688717085 -0.67373549798239307 0 0.043351849213034907 -0.47549620590636554 0 0.12504319954418799 -0.47638465818959624 0 0.12591725192962955 -0.78812138533141007 0 0.073484144688717085 -0.67373549798239307 0 0.12504319954418799 -0.47638465818959624 0 0.20536075399964207 -0.4776592287069884 0 0.17694826503716107 -0.67594256188310431 0 0.12504319954418799 -0.47638465818959624 0 0.17694826503716107 -0.67594256188310431 0 0.12591725192962955 -0.78812138533141007 0 0.16847211482269442 -0.95415274377686743 0 0.12591725192962955 -0.78812138533141007 0 0.17694826503716107 -0.67594256188310431 0 0.16847211482269442 -0.95415274377686743 0 0.084894835262131194 -0.95116556584361744 0 0.12591725192962955 -0.78812138533141007 0 0.24957234824592145 -0.95697839858867428 0 0.17694826503716107 -0.67594256188310431 0 0.24741800072988832 -0.63779960602972341 0 0.24957234824592145 -0.95697839858867428 0 0.16847211482269442 -0.95415274377686743 0 0.17694826503716107 -0.67594256188310431 0 0.24741800072988832 -0.63779960602972341 0 0.17694826503716107 -0.67594256188310431 0 0.20536075399964207 -0.4776592287069884 0 0.24660392112558849 -0.31881401679472793 0 0.24741800072988832 -0.63779960602972341 0 0.20536075399964207 -0.4776592287069884 0 0.24660392112558849 -0.31881401679472793 0 0.20536075399964207 -0.4776592287069884 0 0.17609535570070994 -0.27852106995674347 0 0.24659246570039339 -0.00029894568384894525 0 0.17609535570070994 -0.27852106995674347 0 0.1657734604908728 -0.00029968405194947124 0 0.24659246570039339 -0.00029894568384894525 0 0.24660392112558849 -0.31881401679472793 0 0.17609535570070994 -0.27852106995674347 0 0.1657734604908728 -0.00029968405194947124 0 0.17609535570070994 -0.27852106995674347 0 0.12473565775161595 -0.16467910581375203 0 0.12504319954418799 -0.47638465818959624 0 0.17609535570070994 -0.27852106995674347 0 0.20536075399964207 -0.4776592287069884 0 0.12504319954418799 -0.47638465818959624 0 0.12473565775161595 -0.16467910581375203 0 0.17609535570070994 -0.27852106995674347 0 
</DataArray>
</PointData>
<CellData Scalars="displacement_divergence," Vectors="" Tensors="stress,">
<DataArray type="Float64" Name="stress" NumberOfComponents="9" format="ascii">
0.014156962600354928 -0.0002769416139939973 0 -0.0002769416139939973 -0.98634450145973696 0 0 0 -0.19443750777187641 0.013718312793790599 9.5537747623219887e-05 0 9.5537747623219887e-05 -0.98714744952522882 0 0 0 -0.19468582734628764 0.010189878765026306 0.00040748789918982394 0 0.00040748789918982394 -0.98939468918136408 0 0 0 -0.19584096208326757 0.011662912060673436 -0.00050379989496845967 0 -0.00050379989496845967 -0.98783691961738929 0 0 0 -0.19523480151134318 0.013045953233887631 -0.0010307174697443285 0 -0.0010307174697443285 -0.98752428219017974 0 0 0 -0.19489566579125844 0.01200104873391955 -0.00033749125450321937 0 -0.00033749125450321937 -0.9887901317410156 0 0 0 -0.19535781660141921 0.014367801883808373 5.4461355132900957e-05 0 5.4461355132900957e-05 -0.98594638029453852 0 0 0 -0.19431571568214601 0.015244095479524045 -0.00036233599595458799 0 -0.00036233599595458799 -0.9854568129682344 0 0 0 -0.19404254349774208 0.015779275381176627 -0.0004115628391271331 0 -0.0004115628391271331 -0.98623262391064115 0 0 0 -0.19409066970589278 0.018898366668932964 -0.00034498848202013654 0 -0.00034498848202013654 -0.9855661679578156 0 0 0 -0.19333356025777659 0.016317616797411921 -0.0008010819936719038 0 -0.0008010819936719038 -0.98450572979179507 0 0 0 -0.19363762259887654 0.013472077323571641 -0.0010650979350326217 0 -0.0010650979350326217 -0.98655988774667602 0 0 0 -0.19461756208462083 0.013367200675522162 -0.00027805765010902039 0 -0.00027805765010902039 -0.98623929242364716 0 0 0 -0.19457441834962502 0.013444217022612965 -0.00094172465085606838 0 -0.00094172465085606838 -0.98852853210655589 0 0 0 -0.19501686301678858 0.0075971609393085116 -3.439170713777017e-05 0 -3.439170713777017e-05 -0.99183477658633823 0 0 0 -0.19684752312940601 0.009356645442647249 -0.0012475425335765067 0 -0.0012475425335765067 -0.98955042500154744 0 0 0 -0.19603875591178005 0.011018724437629412 -0.00030619798404163401 0 -0.00030619798404163401 -0.99192360801685941 0 0 0 -0.196180976715846 0.013817509720096766 -0.0018844683518067402 0 -0.0018844683518067402 -0.98944595562810278 0 0 0 -0.19512568918160111 0.0034996886102091063 0.00018665837056275336 0 0.00018665837056275336 -0.99655880459154256 0 0 0 -0.19861182319626669 0.0050356459399452103 -0.0011586699958107268 0 -0.0011586699958107268 -0.99361033403336885 0 0 0 -0.19771493761868475 0.0034722695543769611 -0.0015909832312308581 0 -0.0015909832312308581 -0.9939124002306281 0 0 0 -0.19808802613525023 0.0022719616108006248 -0.00054553116399391754 0 -0.00054553116399391754 -0.99626197595680099 0 0 0 -0.19879800286920007 0.0029587308183192385 0.00033543022463711214 0 0.00033543022463711214 -0.99391707751659431 0 0 0 -0.19819166933965501 0.0044238476491636949 0.00031452232937540279 0 0.00031452232937540279 -0.9925421745196924 0 0 0 -0.19762366537410575 0.0031693778706166418 -0.00066934207517754807 0 -0.00066934207517754807 -0.99456725275632374 0 0 0 -0.19827957497714144 0.0088857606985910595 -0.00053689236626697223 0 -0.00053689236626697223 -0.99120686623292398 0 0 0 -0.19646422110686657 0.007693340675521354 -0.0015041509374293938 0 -0.0015041509374293938 -0.99145005764147975 0 0 0 -0.19675134339319167 0.0088445059932935055 -0.00059756427750523589 0 -0.00059756427750523589 -0.98957926742617164 0 0 0 -0.19614695228657564 
</DataArray>
<DataArray type="Float64" Name="displacement_divergence" format="ascii">
-0.6999750279787551 -0.70086897844663554 -0.70502746349976309 -0.70284528544083535 -0.70162439684853029 -0.70328813976510929 -0.69953657645572553 -0.69855315659187156 -0.69872641094121368 -0.6960008169279952 -0.69709544135595525 -0.70062322350463457 -0.70046790605864984 -0.70206070686043909 -0.70865108326586146 -0.70573952128240802 -0.70625151617704507 -0.70245248105376401 -0.71500256350656066 -0.71177377542726505 -0.71311689408690082 -0.71567281032912033 -0.71349000962275788 -0.71144519534678086 -0.71380646991770913 -0.70727119598471977 -0.70830483621548979 -0.70612902823167223 
</DataArray>
</CellData>
</Piece>
</UnstructuredGrid>
</VTKFile>
