<?xml version="1.0"?>
<VTKFile type="UnstructuredGrid" version="0.1" byte_order="LittleEndian">
<UnstructuredGrid>
<Piece NumberOfPoints="84" NumberOfCells="28">
<Points>
<DataArray type="Float64" NumberOfComponents="3" format="ascii">
0 0 0 0.29166666666652658 0.2916666666668038 0 0 0.33333333333472032 0 0 0 0 0.33333333333250248 0 0 0.29166666666652658 0.2916666666668038 0 0.33333333333250248 0 0 0.66666666666578889 0 0 0.49999999999981742 0.1726190476194705 0 0.33333333333250248 0 0 0.49999999999981742 0.1726190476194705 0 0.29166666666652658 0.2916666666668038 0 0.50000000000004996 0.49999999999997519 0 0.17261904761971569 0.50000000000021494 0 0.29166666666652658 0.2916666666668038 0 0.50000000000004996 0.49999999999997519 0 0.29166666666652658 0.2916666666668038 0 0.49999999999981742 0.1726190476194705 0 0 0.33333333333472032 0 0.29166666666652658 0.2916666666668038 0 0.17261904761971569 0.50000000000021494 0 0 0.66666666666759111 0 0 0.33333333333472032 0 0.17261904761971569 0.50000000000021494 0 0 0.66666666666759111 0 0.17261904761971569 0.50000000000021494 0 0.29166666666684449 0.7083333333334445 0 0 1 0 0.29166666666684449 0.7083333333334445 0 0.33333333333472032 1 0 0 1 0 0 0.66666666666759111 0 0.29166666666684449 0.7083333333334445 0 0.33333333333472032 1 0 0.29166666666684449 0.7083333333334445 0 0.50000000000021227 0.82738095238030207 0 0.50000000000004996 0.49999999999997519 0 0.29166666666684449 0.7083333333334445 0 0.17261904761971569 0.50000000000021494 0 0.50000000000004996 0.49999999999997519 0 0.50000000000021227 0.82738095238030207 0 0.29166666666684449 0.7083333333334445 0 0.50000000000004996 0.49999999999997519 0 0.82738095238054699 0.49999999999982031 0 0.70833333333346027 0.70833333333323512 0 0.50000000000004996 0.49999999999997519 0 0.70833333333346027 0.70833333333323512 0 0.50000000000021227 0.82738095238030207 0 0.66666666666759111 1 0 0.50000000000021227 0.82738095238030207 0 0.70833333333346027 0.70833333333323512 0 0.66666666666759111 1 0 0.33333333333472032 1 0 0.50000000000021227 0.82738095238030207 0 1 1 0 0.70833333333346027 0.70833333333323512 0 1 0.66666666666578889 0 1 1 0 0.66666666666759111 1 0 0.70833333333346027 0.70833333333323512 0 1 0.66666666666578889 0 0.70833333333346027 0.70833333333323512 0 0.82738095238054699 0.49999999999982031 0 1 0.33333333333250248 0 1 0.66666666666578889 0 0.82738095238054699 0.49999999999982031 0 1 0.33333333333250248 0 0.82738095238054699 0.49999999999982031 0 0.70833333333327586 0.2916666666665107 0 1 0 0 0.70833333333327586 0.2916666666665107 0 0.66666666666578889 0 0 1 0 0 1 0.33333333333250248 0 0.70833333333327586 0.2916666666665107 0 0.66666666666578889 0 0 0.70833333333327586 0.2916666666665107 0 0.49999999999981742 0.1726190476194705 0 0.50000000000004996 0.49999999999997519 0 0.70833333333327586 0.2916666666665107 0 0.82738095238054699 0.49999999999982031 0 0.50000000000004996 0.49999999999997519 0 0.49999999999981742 0.1726190476194705 0 0.70833333333327586 0.2916666666665107 0 
</DataArray>
</Points>
<Cells>
<DataArray type="UInt32" Name="connectivity" format="ascii">
0 1 2 3 4 5 6 7 8 9 10 11 12 13 14 15 16 17 18 19 20 21 22 23 24 25 26 27 28 29 30 31 32 33 34 35 36 37 38 39 40 41 42 43 44 45 46 47 48 49 50 51 52 53 54 55 56 57 58 59 60 61 62 63 64 65 66 67 68 69 70 71 72 73 74 75 76 77 78 79 80 81 82 83 
</DataArray>
<DataArray type="UInt32" Name="offsets" format="ascii">
3 6 9 12 15 18 21 24 27 30 33 36 39 42 45 48 51 54 57 60 63 66 69 72 75 78 81 84 
</DataArray>
<DataArray type="UInt32" Name="types" format="ascii">
5 5 5 5 5 5 5 5 5 5 5 5 5 5 5 5 5 5 5 5 5 5 5 5 5 5 5 5 
</DataArray>
</Cells>
<PointData Scalars="" Vectors="displacement," Tensors="">
<DataArray type="Float64" Name="displacement" NumberOfComponents="3" format="ascii">
-6.3912410514835653e-08 -0.0003000694736141198 0 0.070362237284571735 -0.27998250355330051 0 -3.0667429822488196e-08 -0.31991039524708204 0 -6.3912410514835653e-08 -0.0003000694736141198 0 0.080404726644385943 -0.00030006677254808267 0 0.070362237284571749 -0.27998250355330051 0 0.080404726644385943 -0.00030006677254803703 0 0.16069497712542302 -0.00029996177384288117 0 0.12057016613191876 -0.16585362104069137 0 0.080404726644385943 -0.00030006677254803703 0 0.12057016613191876 -0.16585362104069137 0 0.070362237284571749 -0.27998250355330051 0 0.12060737195011395 -0.47982874654073276 0 0.041660262134261439 -0.47972166416915019 0 0.070362237284571749 -0.27998250355330051 0 0.12060737195011395 -0.47982874654073276 0 0.070362237284571749 -0.27998250355330045 0 0.12057016613191876 -0.16585362104069137 0 -3.0667429822488196e-08 -0.31991039524708204 0 0.070362237284571749 -0.27998250355330051 0 0.041660262134261439 -0.47972166416915019 0 -6.1768747058788743e-08 -0.63949669905874773 0 -3.0667429822488196e-08 -0.31991039524708204 0 0.041660262134261439 -0.47972166416915019 0 -6.1768747058788743e-08 -0.63949669905874773 0 0.041660262134261439 -0.47972166416915019 0 0.070419779820694084 -0.67950956596027945 0 2.4878476404976192e-07 -0.95905639750735816 0 0.070419779820694084 -0.67950956596027945 0 0.080589879099560904 -0.95919987208437218 0 2.4878476404976192e-07 -0.95905639750735816 0 -6.1768747058788743e-08 -0.63949669905874773 0 0.070419779820694084 -0.67950956596027945 0 0.080589879099560904 -0.95919987208437218 0 0.070419779820694084 -0.67950956596027945 0 0.120712884477193 -0.79380744205680465 0 0.12060737195011395 -0.47982874654073276 0 0.070419779820694084 -0.67950956596027945 0 0.041660262134261439 -0.47972166416915019 0 0.12060737195011395 -0.47982874654073276 0 0.12071288447719299 -0.79380744205680465 0 0.070419779820694084 -0.67950956596027945 0 0.12060737195011395 -0.47982874654073276 0 0.19938887436730324 -0.47998236991514276 0 0.17083685285570194 -0.67977563564017884 0 0.12060737195011395 -0.47982874654073276 0 0.17083685285570194 -0.67977563564017884 0 0.120712884477193 -0.79380744205680465 0 0.16102071786773164 -0.95956008976009299 0 0.120712884477193 -0.79380744205680465 0 0.17083685285570194 -0.67977563564017884 0 0.16102071786773164 -0.95956008976009299 0 0.080589879099560904 -0.95919987208437218 0 0.120712884477193 -0.79380744205680465 0 0.2411530855140466 -0.9599006953131467 0 0.17083685285570194 -0.67977563564017884 0 0.24089329700325671 -0.63999949427104708 0 0.2411530855140466 -0.9599006953131467 0 0.16102071786773164 -0.95956008976009299 0 0.17083685285570194 -0.67977563564017884 0 0.24089329700325671 -0.63999949427104708 0 0.17083685285570194 -0.67977563564017884 0 0.19938887436730324 -0.47998236991514276 0 0.24079495391396263 -0.32012139278350227 0 0.24089329700325671 -0.63999949427104708 0 0.19938887436730324 -0.47998236991514276 0 0.24079495391396263 -0.32012139278350227 0 0.19938887436730324 -0.47998236991514276 0 0.17073377549189128 -0.28008599572851806 0 0.24079339614208278 -0.00029987343360415809 0 0.17073377549189128 -0.28008599572851806 0 0.16069497712542302 -0.00029996177384288117 0 0.24079339614208278 -0.00029987343360415809 0 0.24079495391396263 -0.32012139278350227 0 0.17073377549189128 -0.28008599572851806 0 0.16069497712542302 -0.00029996177384288117 0 0.17073377549189128 -0.28008599572851806 0 0.12057016613191876 -0.16585362104069137 0 0.12060737195011395 -0.47982874654073276 0 0.17073377549189128 -0.28008599572851806 0 0.19938887436730324 -0.47998236991514276 0 0.12060737195011395 -0.47982874654073276 0 0.12057016613191876 -0.16585362104069137 0 0.17073377549189128 -0.28008599572851806 0 
</DataArray>
</PointData>
<CellData Scalars="displacement_divergence," Vectors="" Tensors="stress,">
<DataArray type="Float64" Name="stress" NumberOfComponents="9" format="ascii">
0.0017048127428676008 -3.338562796589839e-05 0 -3.338562796589839e-05 -0.99835606485221473 0 0 0 -0.19933025042186941 0.0016517433395251691 1.1588318680787869e-05 0 1.1588318680787869e-05 -0.99845290860436064 0 0 0 -0.1993602330529671 0.0012260654265676685 4.9165637335539373e-05 0 4.9165637335539373e-05 -0.9987238693068341 0 0 0 -0.1994995607760533 0.0014036087570968581 -6.0671917731791591e-05 0 -6.0671917731791591e-05 -0.99853611000312026 0 0 0 -0.19942650024920469 0.0015709064954267382 -0.00012415708986180171 0 -0.00012415708986180171 -0.99849777167649489 0 0 0 -0.19938537303621362 0.0014446404691697001 -4.0427933307912722e-05 0 -4.0427933307912722e-05 -0.99865060283875062 0 0 0 -0.19944119247391623 0.0017304051185039748 6.6960709305952104e-06 0 6.6960709305952104e-06 -0.99830751386718664 0 0 0 -0.19931542174973654 0.0018363867913532839 -4.3769607667387689e-05 0 -4.3769607667387689e-05 -0.99824810271500275 0 0 0 -0.19928234318472987 0.0019010808168398174 -4.9577519522836511e-05 0 -4.9577519522836511e-05 -0.99834137976512238 0 0 0 -0.19928805978965641 0.0022774612367078007 -4.1635379457005683e-05 0 -4.1635379457005683e-05 -0.9982605339839381 0 0 0 -0.19919661454944604 0.0019661666071692789 -9.6618374002765961e-05 0 -9.6618374002765961e-05 -0.99813251600288455 0 0 0 -0.19923326987914305 0.0016226663324455937 -0.0001283584056377407 0 -0.0001283584056377407 -0.99838050915757282 0 0 0 -0.19935156856502553 0.0016097557129428619 -3.3331148115434139e-05 0 -3.3331148115434139e-05 -0.99834237480643084 0 0 0 -0.19934652381869766 0.0016190952528793185 -0.00011332132978969511 0 -0.00011332132978969511 -0.99861834828528095 0 0 0 -0.19939985060648033 0.0009141395408001074 -3.9255603162818729e-06 0 -3.9255603162818729e-06 -0.99901710896605866 0 0 0 -0.19962059388505171 0.0011262958146945889 -0.00015024068885427511 0 -0.00015024068885427511 -0.99874154814482785 0 0 0 -0.19952305046602664 0.0013266297441512087 -3.677839518911874e-05 0 -3.677839518911874e-05 -0.99902759248324946 0 0 0 -0.19954019254781963 0.0016642276060858663 -0.00022720380376302769 0 -0.00022720380376302769 -0.99872857417918581 0 0 0 -0.19941286931461999 0.00042106660441731947 2.2580264524285631e-05 0 2.2580264524285631e-05 -0.99958598660282494 0 0 0 -0.19983298399968152 0.0006059589989801939 -0.00013945555895368645 0 -0.00013945555895368645 -0.9992307595857941 0 0 0 -0.19972496011736274 0.00041772993120869906 -0.00019147036907973813 0 -0.00019147036907973813 -0.99926747786778058 0 0 0 -0.19976994958731431 0.00027331325548191434 -6.5524686470030957e-05 0 -6.5524686470030957e-05 -0.99955073883484769 0 0 0 -0.19985548511587314 0.00035578715677370143 4.0533280780019609e-05 0 4.0533280780019609e-05 -0.9992682081033728 0 0 0 -0.19978248418931982 0.0005318300573488447 3.7961838462669288e-05 0 3.7961838462669288e-05 -0.99910291747621505 0 0 0 -0.19971421748377324 0.00038105273374487004 -8.0491551999795075e-05 0 -8.0491551999795075e-05 -0.99934698478748651 0 0 0 -0.19979318641074834 0.0010690073969441757 -6.4577925970643602e-05 0 -6.4577925970643602e-05 -0.99894214432856221 0 0 0 -0.19957462738632359 0.00092562971266402227 -0.00018096102920983625 0 -0.00018096102920983625 -0.99897114827860201 0 0 0 -0.1996091037131876 0.0010639563932055673 -7.1850698789566181e-05 0 -7.1850698789566181e-05 -0.99874577385774144 0 0 0 -0.19953636349290721 
</DataArray>
<DataArray type="Float64" Name="displacement_divergence" format="ascii">
-0.71758890151873 -0.71769683899068148 -0.71819841879379176 -0.71793540089713692 -0.71778734293036917 -0.71798829290609822 -0.71753551829905149 -0.71741643546502765 -0.71743701524276315 -0.71710781237800614 -0.71723977156491536 -0.71766564683409151 -0.71764748574731163 -0.71783946218332917 -0.71863413798618669 -0.71828298167769544 -0.71834469317215088 -0.71788632953263321 -0.71939874239885349 -0.71900985642250603 -0.71917181851433165 -0.71947974641714363 -0.71921694308155137 -0.71897118294158358 -0.71925547107869414 -0.71846865859076503 -0.71859277336747485 -0.71833090857446558 
</DataArray>
</CellData>
</Piece>
</UnstructuredGrid>
</VTKFile>
