<?xml version="1.0"?>
<VTKFile type="UnstructuredGrid" version="0.1" byte_order="LittleEndian">
<UnstructuredGrid>
<Piece NumberOfPoints="84" NumberOfCells="28">
<Points>
<DataArray type="Float64" NumberOfComponents="3" format="ascii">
0 1 0 0.29166666666684449 0.7083333333334445 0 0.33333333333472032 1 0 0 0 0 0.29166666666652658 0.2916666666668038 0 0 0.33333333333472032 0 0 1 0 0 0.66666666666759111 0 0.29166666666684449 0.7083333333334445 0 0 0 0 0.33333333333250248 0 0 0.29166666666652658 0.2916666666668038 0 1 1 0 0.66666666666759111 1 0 0.70833333333346027 0.70833333333323512 0 1 1 0 0.70833333333346027 0.70833333333323512 0 1 0.66666666666578889 0 1 0 0 1 0.33333333333250248 0 0.70833333333327586 0.2916666666665107 0 1 0 0 0.70833333333327586 0.2916666666665107 0 0.66666666666578889 0 0 0.50000000000004996 0.49999999999997519 0 0.29166666666652658 0.2916666666668038 0 0.49999999999981742 0.1726190476194705 0 0.50000000000004996 0.49999999999997519 0 0.29166666666684449 0.7083333333334445 0 0.17261904761971569 0.50000000000021494 0 0.50000000000004996 0.49999999999997519 0 0.17261904761971569 0.50000000000021494 0 0.29166666666652658 0.2916666666668038 0 0.50000000000004996 0.49999999999997519 0 0.50000000000021227 0.82738095238030207 0 0.29166666666684449 0.7083333333334445 0 0.50000000000004996 0.49999999999997519 0 0.49999999999981742 0.1726190476194705 0 0.70833333333327586 0.2916666666665107 0 0.50000000000004996 0.49999999999997519 0 0.82738095238054699 0.49999999999982031 0 0.70833333333346027 0.70833333333323512 0 0.50000000000004996 0.49999999999997519 0 0.70833333333327586 0.2916666666665107 0 0.82738095238054699 0.49999999999982031 0 0.50000000000004996 0.49999999999997519 0 0.70833333333346027 0.70833333333323512 0 0.50000000000021227 0.82738095238030207 0 0.33333333333250248 0 0 0.66666666666578889 0 0 0.49999999999981742 0.1726190476194705 0 1 0.33333333333250248 0 1 0.66666666666578889 0 0.82738095238054699 0.49999999999982031 0 0 0.66666666666759111 0 0 0.33333333333472032 0 0.17261904761971569 0.50000000000021494 0 0.66666666666759111 1 0 0.33333333333472032 1 0 0.50000000000021227 0.82738095238030207 0 0 0.66666666666759111 0 0.17261904761971569 0.50000000000021494 0 0.29166666666684449 0.7083333333334445 0 0.66666666666759111 1 0 0.50000000000021227 0.82738095238030207 0 0.70833333333346027 0.70833333333323512 0 0.33333333333250248 0 0 0.49999999999981742 0.1726190476194705 0 0.29166666666652658 0.2916666666668038 0 1 0.33333333333250248 0 0.82738095238054699 0.49999999999982031 0 0.70833333333327586 0.2916666666665107 0 0 0.33333333333472032 0 0.29166666666652658 0.2916666666668038 0 0.17261904761971569 0.50000000000021494 0 0.33333333333472032 1 0 0.29166666666684449 0.7083333333334445 0 0.50000000000021227 0.82738095238030207 0 0.66666666666578889 0 0 0.70833333333327586 0.2916666666665107 0 0.49999999999981742 0.1726190476194705 0 1 0.66666666666578889 0 0.70833333333346027 0.70833333333323512 0 0.82738095238054699 0.49999999999982031 0 
</DataArray>
</Points>
<Cells>
<DataArray type="UInt32" Name="connectivity" format="ascii">
0 1 2 3 4 5 6 7 8 9 10 11 12 13 14 15 16 17 18 19 20 21 22 23 24 25 26 27 28 29 30 31 32 33 34 35 36 37 38 39 40 41 42 43 44 45 46 47 48 49 50 51 52 53 54 55 56 57 58 59 60 61 62 63 64 65 66 67 68 69 70 71 72 73 74 75 76 77 78 79 80 81 82 83 
</DataArray>
<DataArray type="UInt32" Name="offsets" format="ascii">
3 6 9 12 15 18 21 24 27 30 33 36 39 42 45 48 51 54 57 60 63 66 69 72 75 78 81 84 
</DataArray>
<DataArray type="UInt32" Name="types" format="ascii">
5 5 5 5 5 5 5 5 5 5 5 5 5 5 5 5 5 5 5 5 5 5 5 5 5 5 5 5 
</DataArray>
</Cells>
<PointData Scalars="" Vectors="displacement," Tensors="">
<DataArray type="Float64" Name="displacement" NumberOfComponents="3" format="ascii">
5.0378916181777517e-07 -0.95778172333477163 0 0.070850043313172129 -0.67869934633203399 0 0.081194475552700471 -0.95807224244257128 0 -1.2944430883278576e-07 -0.0003001406883257709 0 0.070733540286416569 -0.27965704253680568 0 -6.2113835968773651e-08 -0.31951102102202639 0 5.0378916181777517e-07 -0.95778172333477163 0 -1.2505859063703485e-07 -0.63867329220615598 0 0.070850043313172129 -0.67869934633203399 0 -1.2944430883278576e-07 -0.0003001406883257709 0 0.080819589636986683 -0.00030013522447909464 0 0.070733540286416582 -0.27965704253680568 0 0.24233496407234967 -0.95949133602385939 0 0.16206691447309896 -0.95880164519949151 0 0.17169462289331025 -0.679238117805125 0 0.24233496407234967 -0.95949133602385939 0 0.17169462289331025 -0.679238117805125 0 0.24180893127434014 -0.63969140823883075 0 0.24160669084703507 -0.00029974365281432511 0 0.24160982394459016 -0.31993827923866291 0 0.17148593509037402 -0.27986661268479884 0 0.24160669084703507 -0.00029974365281432511 0 0.17148593509037402 -0.27986661268479884 0 0.16140737504121738 -0.00029992260495095938 0 0.12122993655067379 -0.47934567540819245 0 0.070733540286416582 -0.27965704253680562 0 0.12115461537263962 -0.16568892202629007 0 0.12122993655067379 -0.47934567540819245 0 0.070850043313172129 -0.67869934633203399 0 0.041897744278371521 -0.47912883817056334 0 0.12122993655067379 -0.47934567540819245 0 0.041897744278371521 -0.47912883817056334 0 0.070733540286416582 -0.27965704253680568 0 0.12122993655067379 -0.47934567540819245 0 0.12144357069935267 -0.79300968534092675 0 0.070850043313172129 -0.67869934633203399 0 0.12122993655067379 -0.47934567540819245 0 0.12115461537263962 -0.16568892202629007 0 0.17148593509037402 -0.27986661268479884 0 0.12122993655067379 -0.47934567540819245 0 0.20022678028656987 -0.47965675339332559 0 0.17169462289331025 -0.679238117805125 0 0.12122993655067379 -0.47934567540819245 0 0.17148593509037402 -0.27986661268479884 0 0.20022678028656987 -0.47965675339332559 0 0.12122993655067379 -0.47934567540819245 0 0.17169462289331025 -0.679238117805125 0 0.12144357069935269 -0.79300968534092675 0 0.080819589636986683 -0.00030013522447904905 0 0.16140737504121738 -0.00029992260495095938 0 0.12115461537263962 -0.16568892202629007 0 0.24160982394459016 -0.31993827923866291 0 0.24180893127434014 -0.63969140823883075 0 0.20022678028656987 -0.47965675339332559 0 -1.2505859063703485e-07 -0.63867329220615598 0 -6.2113835968773651e-08 -0.31951102102202639 0 0.041897744278371521 -0.47912883817056334 0 0.16206691447309896 -0.95880164519949151 0 0.081194475552700471 -0.95807224244257128 0 0.12144357069935269 -0.79300968534092675 0 -1.2505859063703485e-07 -0.63867329220615598 0 0.041897744278371521 -0.47912883817056334 0 0.070850043313172129 -0.67869934633203399 0 0.16206691447309896 -0.95880164519949151 0 0.12144357069935269 -0.79300968534092675 0 0.17169462289331025 -0.679238117805125 0 0.080819589636986683 -0.00030013522447904905 0 0.12115461537263962 -0.16568892202629007 0 0.070733540286416582 -0.27965704253680568 0 0.24160982394459016 -0.31993827923866291 0 0.20022678028656987 -0.47965675339332559 0 0.17148593509037402 -0.27986661268479884 0 -6.2113835968773651e-08 -0.31951102102202639 0 0.070733540286416582 -0.27965704253680568 0 0.041897744278371521 -0.47912883817056334 0 0.081194475552700471 -0.95807224244257128 0 0.070850043313172129 -0.67869934633203399 0 0.12144357069935269 -0.79300968534092675 0 0.16140737504121738 -0.00029992260495095938 0 0.17148593509037402 -0.27986661268479884 0 0.12115461537263962 -0.16568892202629007 0 0.24180893127434014 -0.63969140823883075 0 0.17169462289331025 -0.679238117805125 0 0.20022678028656987 -0.47965675339332559 0 
</DataArray>
</PointData>
<CellData Scalars="displacement_divergence," Vectors="" Tensors="stress,">
<DataArray type="Float64" Name="stress" NumberOfComponents="9" format="ascii">
0.0046117332847951387 -8.4312072128556181e-05 0 -8.4312072128556181e-05 -0.99647771390082962 0 0 0 -0.19837319612320692 0.0034523075957681448 -6.7603776227276313e-05 0 -6.7603776227276313e-05 -0.99667092413972203 0 0 0 -0.19864372330879077 0.0039814112616086425 -0.00019564284812190191 0 -0.00019564284812190191 -0.99621849446428723 0 0 0 -0.1984474166405357 0.0033448668152619154 2.3457593307650377e-05 0 2.3457593307650377e-05 -0.9968670212576648 0 0 0 -0.19870443088848058 0.001227080810323522 -0.00028240241684697541 0 -0.00028240241684697541 -0.9984422967521227 0 0 0 -0.19944304318835981 0.00085267915436926245 4.5710415400024296e-05 0 4.5710415400024296e-05 -0.99916160453699066 0 0 0 -0.19966178507652421 0.00077168593306407136 -0.00016301163688536846 0 -0.00016301163688536846 -0.99867750222500062 0 0 0 -0.19958116325838735 0.0010770408291506588 7.6860223397115035e-05 0 7.6860223397115035e-05 -0.99818328425347835 0 0 0 -0.19942124868486555 0.0029254750261324403 -8.1898120872059277e-05 0 -8.1898120872059277e-05 -0.99726739200542958 0 0 0 -0.19886838339585947 0.0032597748851908581 -6.7516431037750735e-05 0 -6.7516431037750735e-05 -0.99664334756317374 0 0 0 -0.1986767145355966 0.0031811251765711535 -0.0002514268483373798 0 -0.0002514268483373798 -0.99695794639765078 0 0 0 -0.19875536424421592 0.0032786653430334598 -0.00022950006036936976 0 -0.00022950006036936976 -0.99720218345212075 0 0 0 -0.19878470362181744 0.0021546248551540504 -0.00014551554082276041 0 -0.00014551554082276041 -0.99746010454817424 0 0 0 -0.19906109593860405 0.0018511883803774554 -7.9822327671757775e-06 0 -7.9822327671757775e-06 -0.99800962130038551 0 0 0 -0.1992316865840017 0.0018744713642721567 -0.00036647703307646218 0 -0.00036647703307646218 -0.99791648936480493 0 0 0 -0.19920840360010655 0.0022807725309007543 -0.0003042468714939961 0 -0.0003042468714939961 -0.9974516566551539 0 0 0 -0.19903417682485064 0.0024829049616828525 9.9552406694757391e-05 0 9.9552406694757391e-05 -0.99741569770629401 0 0 0 -0.19898655854892225 0.00055347871553551955 -0.00013271322487318216 0 -0.00013271322487318216 -0.99909015844678151 0 0 0 -0.19970733594624918 0.0037186729102895999 -8.8620371153425026e-05 0 -8.8620371153425026e-05 -0.99645242922421651 0 0 0 -0.19854675126278543 0.0033700126416207343 -0.00046007406917854661 0 -0.00046007406917854661 -0.99742543593990085 0 0 0 -0.19881108465965602 0.0038496409386430397 -0.00010040231223662488 0 -0.00010040231223662488 -0.99664134725242914 0 0 0 -0.19855834126275712 0.0026864317138378668 -7.4496353845265872e-05 0 -7.4496353845265872e-05 -0.99803089052100313 0 0 0 -0.19906889176143305 0.0028424253775243269 -0.00012286412832879234 0 -0.00012286412832879234 -0.99703549502798616 0 0 0 -0.19883861393009236 0.00072050993966948917 8.2057470471075256e-05 0 8.2057470471075256e-05 -0.99851804625160612 0 0 0 -0.1995595072623873 0.00350410759820452 1.3543160310103275e-05 0 1.3543160310103275e-05 -0.99657268603044802 0 0 0 -0.1986137156864487 0.0032858606739533391 -0.00025992233727123448 0 -0.00025992233727123448 -0.99672064492096957 0 0 0 -0.19868695684940327 0.0021648457056856682 -0.00013078564464674702 0 -0.00013078564464674702 -0.99785771281651725 0 0 0 -0.19913857342216632 0.00084592893245238887 -0.00038774492189755372 0 -0.00038774492189755372 -0.99851659164059514 0 0 0 -0.19953413254162855 
</DataArray>
<DataArray type="Float64" Name="displacement_divergence" format="ascii">
-0.71414350604354482 -0.71511740391164669 -0.71441069990592887 -0.71533595119853 -0.71799495547809533 -0.71878242627548738 -0.7184921877301943 -0.71791649526551593 -0.71592618022509391 -0.71523617232814751 -0.71551931127917712 -0.7156249330385428 -0.71661994537897422 -0.71723407170240616 -0.71715025296038326 -0.71652303656946237 -0.71635161077611986 -0.71894640940649701 -0.71476830454602747 -0.71571990477476177 -0.71481002854592557 -0.71664801034115921 -0.7158190101483326 -0.71841422614459427 -0.71500937647121487 -0.71527304465785113 -0.71689886431979888 -0.71832287714986265 
</DataArray>
</CellData>
</Piece>
</UnstructuredGrid>
</VTKFile>
