<?xml version="1.0"?>
<VTKFile type="UnstructuredGrid" version="0.1" byte_order="LittleEndian">
<UnstructuredGrid>
<Piece NumberOfPoints="84" NumberOfCells="28">
<Points>
<DataArray type="Float64" NumberOfComponents="3" format="ascii">
0 0 0 0.29166666666652658 0.2916666666668038 0 0 0.33333333333472032 0 0 0 0 0.33333333333250248 0 0 0.29166666666652658 0.2916666666668038 0 0.33333333333250248 0 0 0.66666666666578889 0 0 0.49999999999981742 0.1726190476194705 0 0.33333333333250248 0 0 0.49999999999981742 0.1726190476194705 0 0.29166666666652658 0.2916666666668038 0 0.50000000000004996 0.49999999999997519 0 0.17261904761971569 0.50000000000021494 0 0.29166666666652658 0.2916666666668038 0 0.50000000000004996 0.49999999999997519 0 0.29166666666652658 0.2916666666668038 0 0.49999999999981742 0.1726190476194705 0 0 0.33333333333472032 0 0.29166666666652658 0.2916666666668038 0 0.17261904761971569 0.50000000000021494 0 0 0.66666666666759111 0 0 0.33333333333472032 0 0.17261904761971569 0.50000000000021494 0 0 0.66666666666759111 0 0.17261904761971569 0.50000000000021494 0 0.29166666666684449 0.7083333333334445 0 0 1 0 0.29166666666684449 0.7083333333334445 0 0.33333333333472032 1 0 0 1 0 0 0.66666666666759111 0 0.29166666666684449 0.7083333333334445 0 0.33333333333472032 1 0 0.29166666666684449 0.7083333333334445 0 0.50000000000021227 0.82738095238030207 0 0.50000000000004996 0.49999999999997519 0 0.29166666666684449 0.7083333333334445 0 0.17261904761971569 0.50000000000021494 0 0.50000000000004996 0.49999999999997519 0 0.50000000000021227 0.82738095238030207 0 0.29166666666684449 0.7083333333334445 0 0.50000000000004996 0.49999999999997519 0 0.82738095238054699 0.49999999999982031 0 0.70833333333346027 0.70833333333323512 0 0.50000000000004996 0.49999999999997519 0 0.70833333333346027 0.70833333333323512 0 0.50000000000021227 0.82738095238030207 0 0.66666666666759111 1 0 0.50000000000021227 0.82738095238030207 0 0.70833333333346027 0.70833333333323512 0 0.66666666666759111 1 0 0.33333333333472032 1 0 0.50000000000021227 0.82738095238030207 0 1 1 0 0.70833333333346027 0.70833333333323512 0 1 0.66666666666578889 0 1 1 0 0.66666666666759111 1 0 0.70833333333346027 0.70833333333323512 0 1 0.66666666666578889 0 0.70833333333346027 0.70833333333323512 0 0.82738095238054699 0.49999999999982031 0 1 0.33333333333250248 0 1 0.66666666666578889 0 0.82738095238054699 0.49999999999982031 0 1 0.33333333333250248 0 0.82738095238054699 0.49999999999982031 0 0.70833333333327586 0.2916666666665107 0 1 0 0 0.70833333333327586 0.2916666666665107 0 0.66666666666578889 0 0 1 0 0 1 0.33333333333250248 0 0.70833333333327586 0.2916666666665107 0 0.66666666666578889 0 0 0.70833333333327586 0.2916666666665107 0 0.49999999999981742 0.1726190476194705 0 0.50000000000004996 0.49999999999997519 0 0.70833333333327586 0.2916666666665107 0 0.82738095238054699 0.49999999999982031 0 0.50000000000004996 0.49999999999997519 0 0.49999999999981742 0.1726190476194705 0 0.70833333333327586 0.2916666666665107 0 
</DataArray>
</Points>
<Cells>
<DataArray type="UInt32" Name="connectivity" format="ascii">
0 1 2 3 4 5 6 7 8 9 10 11 12 13 14 15 16 17 18 19 20 21 22 23 24 25 26 27 28 29 30 31 32 33 34 35 36 37 38 39 40 41 42 43 44 45 46 47 48 49 50 51 52 53 54 55 56 57 58 59 60 61 62 63 64 65 66 67 68 69 70 71 72 73 74 75 76 77 78 79 80 81 82 83 
</DataArray>
<DataArray type="UInt32" Name="offsets" format="ascii">
3 6 9 12 15 18 21 24 27 30 33 36 39 42 45 48 51 54 57 60 63 66 69 72 75 78 81 84 
</DataArray>
<DataArray type="UInt32" Name="types" format="ascii">
5 5 5 5 5 5 5 5 5 5 5 5 5 5 5 5 5 5 5 5 5 5 5 5 5 5 5 5 
</DataArray>
</Cells>
<PointData Scalars="" Vectors="displacement," Tensors="">
<DataArray type="Float64" Name="displacement" NumberOfComponents="3" format="ascii">
-3.1559931391601636e-08 -0.00030003430725449829 0 0.070178880961774118 -0.28014321428730315 0 -1.5143397691096692e-08 -0.32010760559330115 0 -3.1559931391601636e-08 -0.00030003430725449829 0 0.080199862671000308 -0.00030003297318489442 0 0.070178880961774132 -0.28014321428730315 0 0.080199862671000308 -0.00030003297318484878 0 0.16034319377208872 -0.00029998112222744811 0 0.12028156011660653 -0.16593494674742301 0 0.080199862671000308 -0.00030003297318484878 0 0.12028156011660653 -0.16593494674742301 0 0.070178880961774132 -0.28014321428730315 0 0.12029993475681577 -0.48006728581741465 0 0.041542986026859206 -0.48001440564541936 0 0.070178880961774132 -0.28014321428730315 0 0.12029993475681577 -0.48006728581741465 0 0.070178880961774132 -0.2801432142873031 0 0.12028156011660653 -0.16593494674742301 0 -1.5143397691096692e-08 -0.32010760559330115 0 0.070178880961774132 -0.28014321428730315 0 0.041542986026859206 -0.48001440564541936 0 -3.0504513109666349e-08 -0.63990331170938719 0 -1.5143397691096692e-08 -0.32010760559330115 0 0.041542986026859206 -0.48001440564541936 0 -3.0504513109666349e-08 -0.63990331170938719 0 0.041542986026859206 -0.48001440564541936 0 0.070207298372030991 -0.67990966569587852 0 1.2285575276521412e-07 -0.95968587688072249 0 0.070207298372030991 -0.67990966569587852 0 0.080291298873607322 -0.95975672912700194 0 1.2285575276521412e-07 -0.95968587688072249 0 -3.0504513109666349e-08 -0.63990331170938719 0 0.070207298372030991 -0.67990966569587852 0 0.080291298873607322 -0.95975672912700194 0 0.070207298372030991 -0.67990966569587852 0 0.12035204151063593 -0.79420138579790234 0 0.12029993475681577 -0.48006728581741465 0 0.070207298372030991 -0.67990966569587852 0 0.041542986026859206 -0.48001440564541936 0 0.12029993475681577 -0.48006728581741465 0 0.12035204151063592 -0.79420138579790234 0 0.070207298372030991 -0.67990966569587852 0 0.12029993475681577 -0.48006728581741465 0 0.19897510220759129 -0.48014314944790509 0 0.17041325924361264 -0.68004105871174203 0 0.12029993475681577 -0.48006728581741465 0 0.17041325924361264 -0.68004105871174203 0 0.12035204151063593 -0.79420138579790234 0 0.16050405876459009 -0.95993461597633056 0 0.12035204151063593 -0.79420138579790234 0 0.17041325924361264 -0.68004105871174203 0 0.16050405876459009 -0.95993461597633056 0 0.080291298873607322 -0.95975672912700194 0 0.12035204151063593 -0.79420138579790234 0 0.24056942513435275 -0.96010281806765829 0 0.17041325924361264 -0.68004105871174203 0 0.24044113228802619 -0.64015160735136023 0 0.24056942513435275 -0.96010281806765829 0 0.16050405876459009 -0.95993461597633056 0 0.17041325924361264 -0.68004105871174203 0 0.24044113228802619 -0.64015160735136023 0 0.17041325924361264 -0.68004105871174203 0 0.19897510220759129 -0.48014314944790509 0 0.24039256530693687 -0.32021180215388095 0 0.24044113228802619 -0.64015160735136023 0 0.19897510220759129 -0.48014314944790509 0 0.24039256530693687 -0.32021180215388095 0 0.19897510220759129 -0.48014314944790509 0 0.17036235391641297 -0.28019432134433592 0 0.24039179452068196 -0.00029993750192102423 0 0.17036235391641297 -0.28019432134433592 0 0.16034319377208872 -0.00029998112222744811 0 0.24039179452068196 -0.00029993750192102423 0 0.24039256530693687 -0.32021180215388095 0 0.17036235391641297 -0.28019432134433592 0 0.16034319377208872 -0.00029998112222744811 0 0.17036235391641297 -0.28019432134433592 0 0.12028156011660653 -0.16593494674742301 0 0.12029993475681577 -0.48006728581741465 0 0.17036235391641297 -0.28019432134433592 0 0.19897510220759129 -0.48014314944790509 0 0.12029993475681577 -0.48006728581741465 0 0.12028156011660653 -0.16593494674742301 0 0.17036235391641297 -0.28019432134433592 0 
</DataArray>
</PointData>
<CellData Scalars="displacement_divergence," Vectors="" Tensors="stress,">
<DataArray type="Float64" Name="stress" NumberOfComponents="9" format="ascii">
0.00084187405234514845 -1.6486773319612791e-05 0 -1.6486773319612791e-05 -0.99918819175165119 0 0 0 -0.1996692635398612 0.00081566539212629685 5.723195442797201e-06 0 5.723195442797201e-06 -0.99923601632064007 0 0 0 -0.19968407018570275 0.00060545357948682543 2.427973242203577e-05 0 2.427973242203577e-05 -0.99936982444579836 0 0 0 -0.19975287417326229 0.00069312901894272305 -2.9961002533551717e-05 0 -2.9961002533551717e-05 -0.99927710365731492 0 0 0 -0.19971679492767444 0.00077575015946546033 -6.1311012974564317e-05 0 -6.1311012974564317e-05 -0.999258165018023 0 0 0 -0.19969648297171155 0.00071339437122189264 -1.9961974348003952e-05 0 -1.9961974348003952e-05 -0.9993336393585347 0 0 0 -0.1997240489974626 0.00085451395844915456 3.3078420187959701e-06 0 3.3078420187959701e-06 -0.99916421044906123 0 0 0 -0.19966193929812237 0.00090685359675557464 -2.1615396167851131e-05 0 -2.1615396167851131e-05 -0.99913486821496678 0 0 0 -0.19964560292364225 0.00093880397955914408 -2.4481858285296809e-05 0 -2.4481858285296809e-05 -0.99918092819754922 0 0 0 -0.19964842484359802 0.001124675391311114 -2.0560309141881561e-05 0 -2.0560309141881561e-05 -0.99914099865376116 0 0 0 -0.19960326465249001 0.00097094695255026185 -4.7713072158561687e-05 0 -4.7713072158561687e-05 -0.99907777942505682 0 0 0 -0.19962136649450138 0.00080131661298882273 -6.338670380268141e-05 0 -6.338670380268141e-05 -0.99920024633272642 0 0 0 -0.19967978594394759 0.00079493631220639571 -1.6458241420158615e-05 0 -1.6458241420158615e-05 -0.99918142040705993 0 0 0 -0.19967729681897073 0.0007995503236539629 -5.5958896269192593e-05 0 -5.5958896269192593e-05 -0.99931770326800229 0 0 0 -0.1997036305888697 0.00045142208495485558 -1.9360392922736526e-06 0 -1.9360392922736526e-06 -0.99951462467144392 0 0 0 -0.19981264051729786 0.00055619253875849317 -7.4191762598818656e-05 0 -7.4191762598818656e-05 -0.99937854271422655 0 0 0 -0.19976447003509357 0.00065512363495723314 -1.816047482605665e-05 0 -1.816047482605665e-05 -0.99951979849686712 0 0 0 -0.19977293497238202 0.00082184164342269383 -0.00011219954178195011 0 -0.00011219954178195011 -0.99937213206498487 0 0 0 -0.1997100580843123 0.00020793259515894391 1.115180105293323e-05 0 1.115180105293323e-05 -0.99979555033700906 0 0 0 -0.19991752354837 0.00029923787527297296 -6.886644696869986e-05 0 -6.886644696869986e-05 -0.99962012812371714 0 0 0 -0.19986417804968881 0.00020628434061309431 -9.4551627176420183e-05 0 -9.4551627176420183e-05 -0.99963826521834598 0 0 0 -0.1998863961755466 0.00013496797084561568 -3.2355803824657414e-05 0 -3.2355803824657414e-05 -0.99977814924955211 0 0 0 -0.19992863625574131 0.00017569427093169776 2.0018081334616245e-05 0 2.0018081334616245e-05 -0.99963862764028411 0 0 0 -0.19989258667387047 0.00026262566146866456 1.874745478213719e-05 0 1.874745478213719e-05 -0.9995570067089059 0 0 0 -0.19985887620948745 0.00018817009309555336 -3.9747558035652109e-05 0 -3.9747558035652109e-05 -0.9996775345165928 0 0 0 -0.19989787288469943 0.00052789592975568261 -3.1888994878936927e-05 0 -3.1888994878936927e-05 -0.99947761330608864 0 0 0 -0.1997899434752666 0.00045709503125107576 -8.9360729842336006e-05 0 -8.9360729842336006e-05 -0.99949193288625826 0 0 0 -0.19980696757100144 0.0005254011460313373 -3.5480328980708187e-05 0 -3.5480328980708187e-05 -0.99938063766483209 0 0 0 -0.19977104730376016 
</DataArray>
<DataArray type="Float64" Name="displacement_divergence" format="ascii">
-0.71880934874350033 -0.71886265266852978 -0.71911034702374432 -0.71898046173962815 -0.71890733869816148 -0.71900657639086529 -0.71878298147324049 -0.71872417052511206 -0.71873432943695259 -0.7185717527489639 -0.7186369193802048 -0.71884722939821033 -0.71883826854829391 -0.71893307011993068 -0.71932550586227206 -0.71915209212633679 -0.71918256590057483 -0.71895620910352509 -0.7197030847741317 -0.71951104097887963 -0.71959102623196802 -0.71974309052066876 -0.71961331202593359 -0.71949195435415492 -0.71963234238491791 -0.71924379651095971 -0.71930508325560494 -0.71917577029353641 
</DataArray>
</CellData>
</Piece>
</UnstructuredGrid>
</VTKFile>
