<?xml version="1.0"?>
<VTKFile type="UnstructuredGrid" version="0.1" byte_order="LittleEndian">
<UnstructuredGrid>
<Piece NumberOfPoints="84" NumberOfCells="28">
<Points>
<DataArray type="Float64" NumberOfComponents="3" format="ascii">
0 1 0 0.29166666666684449 0.7083333333334445 0 0.33333333333472032 1 0 0 0 0 0.29166666666652658 0.2916666666668038 0 0 0.33333333333472032 0 0 1 0 0 0.66666666666759111 0 0.29166666666684449 0.7083333333334445 0 0 0 0 0.33333333333250248 0 0 0.29166666666652658 0.2916666666668038 0 1 1 0 0.66666666666759111 1 0 0.70833333333346027 0.70833333333323512 0 1 1 0 0.70833333333346027 0.70833333333323512 0 1 0.66666666666578889 0 1 0 0 1 0.33333333333250248 0 0.70833333333327586 0.2916666666665107 0 1 0 0 0.70833333333327586 0.2916666666665107 0 0.66666666666578889 0 0 0.50000000000004996 0.49999999999997519 0 0.29166666666652658 0.2916666666668038 0 0.49999999999981742 0.1726190476194705 0 0.50000000000004996 0.49999999999997519 0 0.29166666666684449 0.7083333333334445 0 0.17261904761971569 0.50000000000021494 0 0.50000000000004996 0.49999999999997519 0 0.17261904761971569 0.50000000000021494 0 0.29166666666652658 0.2916666666668038 0 0.50000000000004996 0.49999999999997519 0 0.50000000000021227 0.82738095238030207 0 0.29166666666684449 0.7083333333334445 0 0.50000000000004996 0.49999999999997519 0 0.49999999999981742 0.1726190476194705 0 0.70833333333327586 0.2916666666665107 0 0.50000000000004996 0.49999999999997519 0 0.82738095238054699 0.49999999999982031 0 0.70833333333346027 0.70833333333323512 0 0.50000000000004996 0.49999999999997519 0 0.70833333333327586 0.2916666666665107 0 0.82738095238054699 0.49999999999982031 0 0.50000000000004996 0.49999999999997519 0 0.70833333333346027 0.70833333333323512 0 0.50000000000021227 0.82738095238030207 0 0.33333333333250248 0 0 0.66666666666578889 0 0 0.49999999999981742 0.1726190476194705 0 1 0.33333333333250248 0 1 0.66666666666578889 0 0.82738095238054699 0.49999999999982031 0 0 0.66666666666759111 0 0 0.33333333333472032 0 0.17261904761971569 0.50000000000021494 0 0.66666666666759111 1 0 0.33333333333472032 1 0 0.50000000000021227 0.82738095238030207 0 0 0.66666666666759111 0 0.17261904761971569 0.50000000000021494 0 0.29166666666684449 0.7083333333334445 0 0.66666666666759111 1 0 0.50000000000021227 0.82738095238030207 0 0.70833333333346027 0.70833333333323512 0 0.33333333333250248 0 0 0.49999999999981742 0.1726190476194705 0 0.29166666666652658 0.2916666666668038 0 1 0.33333333333250248 0 0.82738095238054699 0.49999999999982031 0 0.70833333333327586 0.2916666666665107 0 0 0.33333333333472032 0 0.29166666666652658 0.2916666666668038 0 0.17261904761971569 0.50000000000021494 0 0.33333333333472032 1 0 0.29166666666684449 0.7083333333334445 0 0.50000000000021227 0.82738095238030207 0 0.66666666666578889 0 0 0.70833333333327586 0.2916666666665107 0 0.49999999999981742 0.1726190476194705 0 1 0.66666666666578889 0 0.70833333333346027 0.70833333333323512 0 0.82738095238054699 0.49999999999982031 0 
</DataArray>
</Points>
<Cells>
<DataArray type="UInt32" Name="connectivity" format="ascii">
0 1 2 3 4 5 6 7 8 9 10 11 12 13 14 15 16 17 18 19 20 21 22 23 24 25 26 27 28 29 30 31 32 33 34 35 36 37 38 39 40 41 42 43 44 45 46 47 48 49 50 51 52 53 54 55 56 57 58 59 60 61 62 63 64 65 66 67 68 69 70 71 72 73 74 75 76 77 78 79 80 81 82 83 
</DataArray>
<DataArray type="UInt32" Name="offsets" format="ascii">
3 6 9 12 15 18 21 24 27 30 33 36 39 42 45 48 51 54 57 60 63 66 69 72 75 78 81 84 
</DataArray>
<DataArray type="UInt32" Name="types" format="ascii">
5 5 5 5 5 5 5 5 5 5 5 5 5 5 5 5 5 5 5 5 5 5 5 5 5 5 5 5 
</DataArray>
</Cells>
<PointData Scalars="" Vectors="displacement," Tensors="">
<DataArray type="Float64" Name="displacement" NumberOfComponents="3" format="ascii">
-0.00092211230143966988 -0.0031058683142638826 0 -0.00038130614973051015 -0.0020911234040841475 0 -0.00031707300544210571 -0.0030451950476402625 0 -9.1983357859498253e-07 -1.0018302433491624e-06 0 -0.00025886898412207657 -0.0007032151042553655 0 -0.00075829085749511821 -0.0010628329810542009 0 -0.00092211230143966988 -0.0031058683142638826 0 -0.00088886150221487549 -0.0020351446389489411 0 -0.00038130614973051015 -0.0020911234040841475 0 -9.1983357859498253e-07 -1.0018302433491624e-06 0 3.3988725525961666e-07 -6.5298417938948791e-07 0 -0.00025886898412207646 -0.00070321510425536539 0 0.0009221123016710203 -0.0031058683178431107 0 0.00031707300485258423 -0.003045195049921714 0 0.00038130614724113734 -0.0020911234034930041 0 0.0009221123016710203 -0.0031058683178431107 0 0.00038130614724113734 -0.0020911234034930041 0 0.00088886150612795423 -0.0020351446381825251 0 9.1983355826471435e-07 -1.0018300864042634e-06 0 0.00075829085637246741 -0.0010628329795575938 0 0.00025886898137506421 -0.00070321509943329578 0 9.1983355826471435e-07 -1.0018300864042634e-06 0 0.00025886898137506421 -0.00070321509943329578 0 -3.3988722817477107e-07 -6.5298448921480384e-07 0 -3.656747843843151e-13 -0.0013516269595538687 0 -0.00025886898412207641 -0.00070321510425536517 0 -3.0204082577241813e-13 -0.00037293443438526295 0 -3.656747843843151e-13 -0.0013516269595538687 0 -0.00038130614973051015 -0.0020911234040841475 0 -0.00056295819223064309 -0.0014483794437097099 0 -3.656747843843151e-13 -0.0013516269595538687 0 -0.00056295819223064309 -0.0014483794437097099 0 -0.00025886898412207646 -0.00070321510425536539 0 -3.656747843843151e-13 -0.0013516269595538687 0 -2.0849532452897676e-12 -0.002460778157207996 0 -0.00038130614973051015 -0.0020911234040841475 0 -3.656747843843151e-13 -0.0013516269595538687 0 -3.0204082577241813e-13 -0.00037293443438526295 0 0.00025886898137506421 -0.00070321509943329578 0 -3.656747843843151e-13 -0.0013516269595538687 0 0.00056295819619703975 -0.0014483794393649989 0 0.00038130614724113734 -0.0020911234034930041 0 -3.656747843843151e-13 -0.0013516269595538687 0 0.00025886898137506421 -0.00070321509943329578 0 0.00056295819619703975 -0.0014483794393649989 0 -3.656747843843151e-13 -0.0013516269595538687 0 0.00038130614724113734 -0.0020911234034930041 0 -2.0849531233693262e-12 -0.0024607781572079956 0 3.3988725525965891e-07 -6.5298417938937335e-07 0 -3.3988722817477107e-07 -6.5298448921480384e-07 0 -3.0204082577241813e-13 -0.00037293443438526295 0 0.00075829085637246741 -0.0010628329795575938 0 0.00088886150612795434 -0.0020351446381825251 0 0.00056295819619703975 -0.0014483794393649989 0 -0.00088886150221487549 -0.0020351446389489411 0 -0.00075829085749511821 -0.0010628329810542009 0 -0.00056295819223064309 -0.0014483794437097099 0 0.00031707300485258423 -0.003045195049921714 0 -0.00031707300544210571 -0.0030451950476402625 0 -2.0849531233693262e-12 -0.0024607781572079956 0 -0.00088886150221487549 -0.0020351446389489411 0 -0.00056295819223064309 -0.0014483794437097099 0 -0.00038130614973051015 -0.0020911234040841475 0 0.00031707300485258423 -0.003045195049921714 0 -2.0849531233693262e-12 -0.0024607781572079956 0 0.00038130614724113734 -0.0020911234034930041 0 3.3988725525965891e-07 -6.5298417938937335e-07 0 -3.0204082577241813e-13 -0.00037293443438526295 0 -0.00025886898412207646 -0.00070321510425536539 0 0.00075829085637246741 -0.0010628329795575938 0 0.00056295819619703975 -0.0014483794393649989 0 0.00025886898137506421 -0.00070321509943329578 0 -0.00075829085749511821 -0.0010628329810542009 0 -0.00025886898412207646 -0.00070321510425536539 0 -0.00056295819223064309 -0.0014483794437097099 0 -0.00031707300544210571 -0.0030451950476402625 0 -0.00038130614973051015 -0.0020911234040841475 0 -2.0849531233693262e-12 -0.0024607781572079956 0 -3.3988722817477107e-07 -6.5298448921480384e-07 0 0.00025886898137506421 -0.00070321509943329578 0 -3.0204082577241813e-13 -0.00037293443438526295 0 0.00088886150612795423 -0.0020351446381825251 0 0.00038130614724113734 -0.0020911234034930041 0 0.00056295819619703975 -0.0014483794393649989 0 
</DataArray>
</PointData>
<CellData Scalars="" Vectors="" Tensors="stress,">
<DataArray type="Float64" Name="stress" NumberOfComponents="9" format="ascii">
1722644.3285862505 1429451.6771064401 0 1429451.6771064401 -100521825.5603478 0 0 0 -34579713.431116521 -14193821.242668398 -14942079.873601433 0 -14942079.873601433 -105658009.97433841 0 0 0 -41948140.925952375 1075081.368112854 1672019.8270318806 0 1672019.8270318806 -98257141.60036175 0 0 0 -34013721.081287123 -56037717.437010586 -8871297.118869232 0 -8871297.118869232 -104285998.811681 0 0 0 -56113300.68704205 1722644.1931398809 -1429451.6475037429 0 -1429451.6475037429 -100521825.95333111 0 0 0 -34579713.616066933 1075081.9472691417 -1672019.9502573684 0 -1672019.9502573684 -98257141.689110428 0 0 0 -34013720.909644425 -14193820.887065768 14942079.720751051 0 14942079.720751051 -105658009.65985106 0 0 0 -41948140.691420883 -56037717.037347861 8871297.0379724484 0 8871297.0379724484 -104285998.0613208 0 0 0 -56113300.284534037 -15909336.800548654 -1229161.014749052 0 -1229161.014749052 -100549975.32815319 0 0 0 -40760759.245045647 -1412594.9751082659 1848467.2980362177 0 1848467.2980362177 -100885184.15739712 0 0 0 -35804222.69637692 -5002747.8135829121 -1814754.0334210831 0 -1814754.0334210831 -107552610.85740623 0 0 0 -39394375.534846216 259448.02555084205 1616301.7928608954 0 1616301.7928608954 -104104997.19253762 0 0 0 -36345942.20844537 -15909337.236655822 1229161.2422612309 0 1229161.2422612309 -100549975.56298552 0 0 0 -40760759.479874462 -1412594.5967615247 -1848467.3932512794 0 -1848467.3932512794 -100885184.27468234 0 0 0 -35804222.605005354 -5002747.4221674055 1814754.406305179 0 1814754.406305179 -107552610.95044599 0 0 0 -39394375.430414677 259448.11502626538 -1616301.8695705086 0 -1616301.8695705086 -104104997.14435369 0 0 0 -36345942.160264581 -50410552.896508239 -0.027576748820138164 0 -0.027576748820138164 -93503065.467783689 0 0 0 -50369766.427502163 -2637715.028425321 -1911285.3615214378 0 -1911285.3615214378 -91172153.503773749 0 0 0 -32833453.986269698 -2637714.3321997076 1911285.3261626214 0 1911285.3261626214 -91172153.061592758 0 0 0 -32833453.587827355 3441939.4433377981 0.035160163541368847 0 0.035160163541368847 -102318571.37018454 0 0 0 -34606821.174396396 634026.03498950601 1375780.2407099456 0 1375780.2407099456 -99350511.127742827 0 0 0 -34550769.78246367 3753574.9890074134 -583858.06379819661 0 -583858.06379819661 -99082185.68972826 0 0 0 -33365013.745252252 -20778215.274525225 -5469565.001949586 0 -5469565.001949586 -84304854.833344042 0 0 0 -36779074.537754245 -2019566.5080600157 -2622444.1584493853 0 -2622444.1584493853 -97319483.682040825 0 0 0 -34768667.566535287 -2019566.661377877 2622444.3538270406 0 2622444.3538270406 -97319483.906506389 0 0 0 -34768667.698759496 3753574.6729173288 583858.11673386395 0 583858.11673386395 -99082185.543618351 0 0 0 -33365013.804745324 -20778215.140298817 5469565.0568726752 0 5469565.0568726752 -84304854.282367602 0 0 0 -36779074.297933251 634026.4127715826 -1375780.4632093757 0 -1375780.4632093757 -99350511.516713083 0 0 0 -34550769.786379516 
</DataArray>
</CellData>
</Piece>
</UnstructuredGrid>
</VTKFile>
