<?xml version="1.0"?>
<VTKFile type="UnstructuredGrid" version="0.1" byte_order="LittleEndian">
<UnstructuredGrid>
<Piece NumberOfPoints="84" NumberOfCells="28">
<Points>
<DataArray type="Float64" NumberOfComponents="3" format="ascii">
0 1 0 0.29166666666684449 0.7083333333334445 0 0.33333333333472032 1 0 0 0 0 0.29166666666652658 0.2916666666668038 0 0 0.33333333333472032 0 0 1 0 0 0.66666666666759111 0 0.29166666666684449 0.7083333333334445 0 0 0 0 0.33333333333250248 0 0 0.29166666666652658 0.2916666666668038 0 1 1 0 0.66666666666759111 1 0 0.70833333333346027 0.70833333333323512 0 1 1 0 0.70833333333346027 0.70833333333323512 0 1 0.66666666666578889 0 1 0 0 1 0.33333333333250248 0 0.70833333333327586 0.2916666666665107 0 1 0 0 0.70833333333327586 0.2916666666665107 0 0.66666666666578889 0 0 0.50000000000004996 0.49999999999997519 0 0.29166666666652658 0.2916666666668038 0 0.49999999999981742 0.1726190476194705 0 0.50000000000004996 0.49999999999997519 0 0.29166666666684449 0.7083333333334445 0 0.17261904761971569 0.50000000000021494 0 0.50000000000004996 0.49999999999997519 0 0.17261904761971569 0.50000000000021494 0 0.29166666666652658 0.2916666666668038 0 0.50000000000004996 0.49999999999997519 0 0.50000000000021227 0.82738095238030207 0 0.29166666666684449 0.7083333333334445 0 0.50000000000004996 0.49999999999997519 0 0.49999999999981742 0.1726190476194705 0 0.70833333333327586 0.2916666666665107 0 0.50000000000004996 0.49999999999997519 0 0.82738095238054699 0.49999999999982031 0 0.70833333333346027 0.70833333333323512 0 0.50000000000004996 0.49999999999997519 0 0.70833333333327586 0.2916666666665107 0 0.82738095238054699 0.49999999999982031 0 0.50000000000004996 0.49999999999997519 0 0.70833333333346027 0.70833333333323512 0 0.50000000000021227 0.82738095238030207 0 0.33333333333250248 0 0 0.66666666666578889 0 0 0.49999999999981742 0.1726190476194705 0 1 0.33333333333250248 0 1 0.66666666666578889 0 0.82738095238054699 0.49999999999982031 0 0 0.66666666666759111 0 0 0.33333333333472032 0 0.17261904761971569 0.50000000000021494 0 0.66666666666759111 1 0 0.33333333333472032 1 0 0.50000000000021227 0.82738095238030207 0 0 0.66666666666759111 0 0.17261904761971569 0.50000000000021494 0 0.29166666666684449 0.7083333333334445 0 0.66666666666759111 1 0 0.50000000000021227 0.82738095238030207 0 0.70833333333346027 0.70833333333323512 0 0.33333333333250248 0 0 0.49999999999981742 0.1726190476194705 0 0.29166666666652658 0.2916666666668038 0 1 0.33333333333250248 0 0.82738095238054699 0.49999999999982031 0 0.70833333333327586 0.2916666666665107 0 0 0.33333333333472032 0 0.29166666666652658 0.2916666666668038 0 0.17261904761971569 0.50000000000021494 0 0.33333333333472032 1 0 0.29166666666684449 0.7083333333334445 0 0.50000000000021227 0.82738095238030207 0 0.66666666666578889 0 0 0.70833333333327586 0.2916666666665107 0 0.49999999999981742 0.1726190476194705 0 1 0.66666666666578889 0 0.70833333333346027 0.70833333333323512 0 0.82738095238054699 0.49999999999982031 0 
</DataArray>
</Points>
<Cells>
<DataArray type="UInt32" Name="connectivity" format="ascii">
0 1 2 3 4 5 6 7 8 9 10 11 12 13 14 15 16 17 18 19 20 21 22 23 24 25 26 27 28 29 30 31 32 33 34 35 36 37 38 39 40 41 42 43 44 45 46 47 48 49 50 51 52 53 54 55 56 57 58 59 60 61 62 63 64 65 66 67 68 69 70 71 72 73 74 75 76 77 78 79 80 81 82 83 
</DataArray>
<DataArray type="UInt32" Name="offsets" format="ascii">
3 6 9 12 15 18 21 24 27 30 33 36 39 42 45 48 51 54 57 60 63 66 69 72 75 78 81 84 
</DataArray>
<DataArray type="UInt32" Name="types" format="ascii">
5 5 5 5 5 5 5 5 5 5 5 5 5 5 5 5 5 5 5 5 5 5 5 5 5 5 5 5 
</DataArray>
</Cells>
<PointData Scalars="" Vectors="displacement," Tensors="">
<DataArray type="Float64" Name="displacement" NumberOfComponents="3" format="ascii">
-0.0010655170908682211 -0.0032073199330138798 0 -0.00046388667972234714 -0.0021590270242557419 0 -0.00037469798227851591 -0.003165959187855501 0 -1.0445633629464947e-06 -1.0778286612323629e-06 0 -0.00032226453467982359 -0.00070334197387007141 0 -0.00087691285546553205 -0.0011066081840452576 0 -0.0010655170908682211 -0.0032073199330138798 0 -0.0010248638662648803 -0.0020963631939022844 0 -0.00046388667972234714 -0.0021590270242557419 0 -1.0445633629464947e-06 -1.0778286612323629e-06 0 3.5967637036510245e-07 -7.1246843051192469e-07 0 -0.00032226453467982342 -0.00070334197387007119 0 0.0010655170921488085 -0.0032073199337077129 0 0.000374697983403548 -0.0031659591880023024 0 0.00046388668039339603 -0.0021590270243908314 0 0.0010655170921488085 -0.0032073199337077129 0 0.00046388668039339603 -0.0021590270243908314 0 0.0010248638671438378 -0.0020963631943951649 0 1.0445633635686023e-06 -1.0778286616538874e-06 0 0.00087691285571708029 -0.001106608184389603 0 0.00032226453462142585 -0.00070334197397283415 0 1.0445633635686023e-06 -1.0778286616538874e-06 0 0.00032226453462142585 -0.00070334197397283415 0 -3.5967637067807493e-07 -7.1246843068642544e-07 0 3.9907838819700894e-14 -0.0013763588363112063 0 -0.00032226453467982337 -0.00070334197387007097 0 -8.18506307178312e-14 -0.00035873256966468983 0 3.9907838819700894e-14 -0.0013763588363112063 0 -0.00046388667972234714 -0.0021590270242557419 0 -0.00067416835319082679 -0.0014883718872488703 0 3.9907838819700894e-14 -0.0013763588363112063 0 -0.00067416835319082679 -0.0014883718872488703 0 -0.00032226453467982342 -0.00070334197387007119 0 3.9907838819700894e-14 -0.0013763588363112063 0 4.003693189415745e-13 -0.0025509419730537974 0 -0.00046388667972234714 -0.0021590270242557419 0 3.9907838819700894e-14 -0.0013763588363112063 0 -8.18506307178312e-14 -0.00035873256966468983 0 0.00032226453462142585 -0.00070334197397283415 0 3.9907838819700894e-14 -0.0013763588363112063 0 0.00067416835363205761 -0.0014883718874441902 0 0.00046388668039339603 -0.0021590270243908314 0 3.9907838819700894e-14 -0.0013763588363112063 0 0.00032226453462142585 -0.00070334197397283415 0 0.00067416835363205761 -0.0014883718874441902 0 3.9907838819700894e-14 -0.0013763588363112063 0 0.00046388668039339603 -0.0021590270243908314 0 4.0036946726666431e-13 -0.002550941973053797 0 3.5967637036515502e-07 -7.1246843051181013e-07 0 -3.5967637067807493e-07 -7.1246843068642544e-07 0 -8.18506307178312e-14 -0.00035873256966468983 0 0.00087691285571708029 -0.001106608184389603 0 0.0010248638671438378 -0.0020963631943951649 0 0.00067416835363205761 -0.0014883718874441902 0 -0.0010248638662648803 -0.0020963631939022844 0 -0.00087691285546553205 -0.0011066081840452576 0 -0.00067416835319082679 -0.0014883718872488703 0 0.000374697983403548 -0.0031659591880023024 0 -0.00037469798227851591 -0.003165959187855501 0 4.0036946726666431e-13 -0.002550941973053797 0 -0.0010248638662648803 -0.0020963631939022844 0 -0.00067416835319082679 -0.0014883718872488703 0 -0.00046388667972234714 -0.0021590270242557419 0 0.000374697983403548 -0.0031659591880023024 0 4.0036946726666431e-13 -0.002550941973053797 0 0.00046388668039339603 -0.0021590270243908314 0 3.5967637036515502e-07 -7.1246843051181013e-07 0 -8.18506307178312e-14 -0.00035873256966468983 0 -0.00032226453467982342 -0.00070334197387007119 0 0.00087691285571708029 -0.001106608184389603 0 0.00067416835363205761 -0.0014883718874441902 0 0.00032226453462142585 -0.00070334197397283415 0 -0.00087691285546553205 -0.0011066081840452576 0 -0.00032226453467982342 -0.00070334197387007119 0 -0.00067416835319082679 -0.0014883718872488703 0 -0.00037469798227851591 -0.003165959187855501 0 -0.00046388667972234714 -0.0021590270242557419 0 4.0036946726666431e-13 -0.002550941973053797 0 -3.5967637067807493e-07 -7.1246843068642544e-07 0 0.00032226453462142585 -0.00070334197397283415 0 -8.18506307178312e-14 -0.00035873256966468983 0 0.0010248638671438378 -0.0020963631943951649 0 0.00046388668039339603 -0.0021590270243908314 0 0.00067416835363205761 -0.0014883718874441902 0 
</DataArray>
</PointData>
<CellData Scalars="" Vectors="" Tensors="stress,">
<DataArray type="Float64" Name="stress" NumberOfComponents="9" format="ascii">
8838303.5766823292 1338067.2302195281 0 1338067.2302195281 -102012140.54390383 0 0 0 -32610842.938527495 -11248356.92783387 -17187765.937297154 0 -17187765.937297154 -108105763.45770365 0 0 0 -41773942.134938128 6333198.719432883 1393172.2458890826 0 1393172.2458890826 -99139668.915506318 0 0 0 -32482264.568625696 -56024155.667500198 -11044422.544508377 0 -11044422.544508377 -104285587.33678296 0 0 0 -56108410.051499106 8838303.5911951661 -1338067.2305292732 0 -1338067.2305292732 -102012140.54443926 0 0 0 -32610842.933635443 6333198.7442474365 -1393172.2471341267 0 -1393172.2471341267 -99139668.92013967 0 0 0 -32482264.56156224 -11248356.910435989 17187765.938009702 0 17187765.938009702 -108105763.48076133 0 0 0 -41773942.136919059 -56024155.675640531 11044422.542516461 0 11044422.542516461 -104285587.3520598 0 0 0 -56108410.059695117 -5497976.162783768 -1220952.5213359464 0 -1220952.5213359464 -98603085.232740238 0 0 0 -36435371.488433391 9560013.335749805 1747707.7169267833 0 1747707.7169267833 -99918711.174356133 0 0 0 -31625544.243512213 5874010.5311572552 -1702591.5672097448 0 -1702591.5672097448 -106764144.95429921 0 0 0 -35311547.048099697 12772685.873911336 1689897.2190171331 0 1689897.2190171331 -103516787.0318865 0 0 0 -31760435.405291304 -5497976.1593029089 1220952.5237759501 0 1220952.5237759501 -98603085.230871215 0 0 0 -36435371.486560948 9560013.3823631704 -1747707.7056031092 0 -1747707.7056031092 -99918711.150824785 0 0 0 -31625544.218961567 5874010.5765984952 1702591.578835398 0 1702591.578835398 -106764144.93296854 0 0 0 -35311547.02472952 12772685.901468545 -1689897.2035386711 0 -1689897.2035386711 -103516787.01704291 0 0 0 -31760435.390451014 -48487957.126480348 -0.0047377822884300258 0 -0.0047377822884300258 -89925745.622141808 0 0 0 -48444795.962017745 183413.32614614122 -2114269.2184340656 0 -2114269.2184340656 -91263239.901832163 0 0 0 -31877939.301490128 183413.30503770709 2114269.2240273654 0 2114269.2240273654 -91263239.899601281 0 0 0 -31877939.308097243 14288114.080137014 0.0048664006572965478 0 0.0048664006572965478 -101932810.8254205 0 0 0 -30675643.860849202 5279008.6568480134 1691317.5101230666 0 1691317.5101230666 -100899241.84109411 0 0 0 -33467081.614486128 15933228.920078874 -863155.65055677295 0 -863155.65055677295 -98084679.27313149 0 0 0 -28753007.623568416 -12038454.883786239 -6616239.9437647536 0 -6616239.9437647536 -79277377.198963612 0 0 0 -31960541.228962444 2678665.8511950597 -2633373.0781085007 0 -2633373.0781085007 -98335747.070444658 0 0 0 -33479978.426737376 2678665.8159965575 2633373.0889959875 0 2633373.0889959875 -98335747.090783238 0 0 0 -33479978.446175367 15933228.911143422 863155.65904229879 0 863155.65904229879 -98084679.273583353 0 0 0 -28753007.626853943 -12038454.861582929 6616239.9375524111 0 6616239.9375524111 -79277377.19644396 0 0 0 -31960541.220309399 5279008.6873779297 -1691317.506771734 0 -1691317.506771734 -100899241.83871007 0 0 0 -33467081.602966219 
</DataArray>
</CellData>
</Piece>
</UnstructuredGrid>
</VTKFile>
