<?xml version="1.0"?>
<VTKFile type="UnstructuredGrid" version="0.1" byte_order="LittleEndian">
<UnstructuredGrid>
<Piece NumberOfPoints="84" NumberOfCells="28">
<Points>
<DataArray type="Float64" NumberOfComponents="3" format="ascii">
0 1 0 0.29166666666684449 0.7083333333334445 0 0.33333333333472032 1 0 0 0 0 0.29166666666652658 0.2916666666668038 0 0 0.33333333333472032 0 0 1 0 0 0.66666666666759111 0 0.29166666666684449 0.7083333333334445 0 0 0 0 0.33333333333250248 0 0 0.29166666666652658 0.2916666666668038 0 1 1 0 0.66666666666759111 1 0 0.70833333333346027 0.70833333333323512 0 1 1 0 0.70833333333346027 0.70833333333323512 0 1 0.66666666666578889 0 1 0 0 1 0.33333333333250248 0 0.70833333333327586 0.2916666666665107 0 1 0 0 0.70833333333327586 0.2916666666665107 0 0.66666666666578889 0 0 0.50000000000004996 0.49999999999997519 0 0.29166666666652658 0.2916666666668038 0 0.49999999999981742 0.1726190476194705 0 0.50000000000004996 0.49999999999997519 0 0.29166666666684449 0.7083333333334445 0 0.17261904761971569 0.50000000000021494 0 0.50000000000004996 0.49999999999997519 0 0.17261904761971569 0.50000000000021494 0 0.29166666666652658 0.2916666666668038 0 0.50000000000004996 0.49999999999997519 0 0.50000000000021227 0.82738095238030207 0 0.29166666666684449 0.7083333333334445 0 0.50000000000004996 0.49999999999997519 0 0.49999999999981742 0.1726190476194705 0 0.70833333333327586 0.2916666666665107 0 0.50000000000004996 0.49999999999997519 0 0.82738095238054699 0.49999999999982031 0 0.70833333333346027 0.70833333333323512 0 0.50000000000004996 0.49999999999997519 0 0.70833333333327586 0.2916666666665107 0 0.82738095238054699 0.49999999999982031 0 0.50000000000004996 0.49999999999997519 0 0.70833333333346027 0.70833333333323512 0 0.50000000000021227 0.82738095238030207 0 0.33333333333250248 0 0 0.66666666666578889 0 0 0.49999999999981742 0.1726190476194705 0 1 0.33333333333250248 0 1 0.66666666666578889 0 0.82738095238054699 0.49999999999982031 0 0 0.66666666666759111 0 0 0.33333333333472032 0 0.17261904761971569 0.50000000000021494 0 0.66666666666759111 1 0 0.33333333333472032 1 0 0.50000000000021227 0.82738095238030207 0 0 0.66666666666759111 0 0.17261904761971569 0.50000000000021494 0 0.29166666666684449 0.7083333333334445 0 0.66666666666759111 1 0 0.50000000000021227 0.82738095238030207 0 0.70833333333346027 0.70833333333323512 0 0.33333333333250248 0 0 0.49999999999981742 0.1726190476194705 0 0.29166666666652658 0.2916666666668038 0 1 0.33333333333250248 0 0.82738095238054699 0.49999999999982031 0 0.70833333333327586 0.2916666666665107 0 0 0.33333333333472032 0 0.29166666666652658 0.2916666666668038 0 0.17261904761971569 0.50000000000021494 0 0.33333333333472032 1 0 0.29166666666684449 0.7083333333334445 0 0.50000000000021227 0.82738095238030207 0 0.66666666666578889 0 0 0.70833333333327586 0.2916666666665107 0 0.49999999999981742 0.1726190476194705 0 1 0.66666666666578889 0 0.70833333333346027 0.70833333333323512 0 0.82738095238054699 0.49999999999982031 0 
</DataArray>
</Points>
<Cells>
<DataArray type="UInt32" Name="connectivity" format="ascii">
0 1 2 3 4 5 6 7 8 9 10 11 12 13 14 15 16 17 18 19 20 21 22 23 24 25 26 27 28 29 30 31 32 33 34 35 36 37 38 39 40 41 42 43 44 45 46 47 48 49 50 51 52 53 54 55 56 57 58 59 60 61 62 63 64 65 66 67 68 69 70 71 72 73 74 75 76 77 78 79 80 81 82 83 
</DataArray>
<DataArray type="UInt32" Name="offsets" format="ascii">
3 6 9 12 15 18 21 24 27 30 33 36 39 42 45 48 51 54 57 60 63 66 69 72 75 78 81 84 
</DataArray>
<DataArray type="UInt32" Name="types" format="ascii">
5 5 5 5 5 5 5 5 5 5 5 5 5 5 5 5 5 5 5 5 5 5 5 5 5 5 5 5 
</DataArray>
</Cells>
<PointData Scalars="" Vectors="displacement," Tensors="">
<DataArray type="Float64" Name="displacement" NumberOfComponents="3" format="ascii">
-0.0011298922967471726 -0.0032540486536456175 0 -0.00049630057600721532 -0.0021820213689970431 0 -0.00039904966751943801 -0.0032115024268582421 0 -1.109688284459152e-06 -1.1108354881667922e-06 0 -0.00034820637837242903 -0.00069764413334657009 0 -0.00092949029938026422 -0.0011217125369295435 0 -0.0011298922967471726 -0.0032540486536456175 0 -0.0010841755643949279 -0.0021205024118629377 0 -0.00049630057600721532 -0.0021820213689970431 0 -1.109688284459152e-06 -1.1108354881667922e-06 0 3.7671841132461813e-07 -7.3855313584042074e-07 0 -0.00034820637837242887 -0.00069764413334656987 0 0.0011298922981902717 -0.0032540486543418475 0 0.00039904966875115169 -0.0032115024269837459 0 0.0004963005767861338 -0.0021820213690983518 0 0.0011298922981902717 -0.0032540486543418475 0 0.0004963005767861338 -0.0021820213690983518 0 0.0010841755654153458 -0.0021205024123627965 0 1.1096882851908546e-06 -1.1108354886107298e-06 0 0.00092949029968301586 -0.0011217125373233377 0 0.00034820637829093644 -0.00069764413344040757 0 1.1096882851908546e-06 -1.1108354886107298e-06 0 0.00034820637829093644 -0.00069764413344040757 0 -3.7671841168876485e-07 -7.3855313609098283e-07 0 3.2139119163258661e-14 -0.0013800543707950402 0 -0.00034820637837242881 -0.00069764413334656966 0 -1.0264950422607163e-13 -0.00034895228550126486 0 3.2139119163258661e-14 -0.0013800543707950402 0 -0.00049630057600721532 -0.0021820213689970431 0 -0.00072104406880235629 -0.0014998431233402829 0 3.2139119163258661e-14 -0.0013800543707950402 0 -0.00072104406880235629 -0.0014998431233402829 0 -0.00034820637837242887 -0.00069764413334656987 0 3.2139119163258661e-14 -0.0013800543707950402 0 4.2916916359197837e-13 -0.002582237690260209 0 -0.00049630057600721532 -0.0021820213689970431 0 3.2139119163258661e-14 -0.0013800543707950402 0 -1.0264950422607163e-13 -0.00034895228550126486 0 0.00034820637829093644 -0.00069764413344040757 0 3.2139119163258661e-14 -0.0013800543707950402 0 0.00072104406932917543 -0.0014998431235426378 0 0.0004963005767861338 -0.0021820213690983518 0 3.2139119163258661e-14 -0.0013800543707950402 0 0.00034820637829093644 -0.00069764413344040757 0 0.00072104406932917543 -0.0014998431235426378 0 3.2139119163258661e-14 -0.0013800543707950402 0 0.0004963005767861338 -0.0021820213690983518 0 4.2916932228122453e-13 -0.0025822376902602086 0 3.7671841132467494e-07 -7.3855313584030713e-07 0 -3.7671841168876485e-07 -7.3855313609098283e-07 0 -1.0264950422607163e-13 -0.00034895228550126486 0 0.00092949029968301586 -0.0011217125373233377 0 0.0010841755654153458 -0.0021205024123627965 0 0.00072104406932917543 -0.0014998431235426378 0 -0.0010841755643949279 -0.0021205024118629377 0 -0.00092949029938026422 -0.0011217125369295435 0 -0.00072104406880235629 -0.0014998431233402829 0 0.00039904966875115169 -0.0032115024269837459 0 -0.00039904966751943801 -0.0032115024268582421 0 4.2916932228122453e-13 -0.0025822376902602086 0 -0.0010841755643949279 -0.0021205024118629377 0 -0.00072104406880235629 -0.0014998431233402829 0 -0.00049630057600721532 -0.0021820213689970431 0 0.00039904966875115169 -0.0032115024269837459 0 4.2916932228122453e-13 -0.0025822376902602086 0 0.0004963005767861338 -0.0021820213690983518 0 3.7671841132467494e-07 -7.3855313584030713e-07 0 -1.0264950422607163e-13 -0.00034895228550126486 0 -0.00034820637837242887 -0.00069764413334656987 0 0.00092949029968301586 -0.0011217125373233377 0 0.00072104406932917543 -0.0014998431235426378 0 0.00034820637829093644 -0.00069764413344040757 0 -0.00092949029938026422 -0.0011217125369295435 0 -0.00034820637837242887 -0.00069764413334656987 0 -0.00072104406880235629 -0.0014998431233402829 0 -0.00039904966751943801 -0.0032115024268582421 0 -0.00049630057600721532 -0.0021820213689970431 0 4.2916932228122453e-13 -0.0025822376902602086 0 -3.7671841168876485e-07 -7.3855313609098283e-07 0 0.00034820637829093644 -0.00069764413344040757 0 -1.0264950422607163e-13 -0.00034895228550126486 0 0.0010841755654153458 -0.0021205024123627965 0 0.0004963005767861338 -0.0021820213690983518 0 0.00072104406932917543 -0.0014998431235426378 0 
</DataArray>
</PointData>
<CellData Scalars="" Vectors="" Tensors="stress,">
<DataArray type="Float64" Name="stress" NumberOfComponents="9" format="ascii">
12225594.902398348 1478520.9692859352 0 1478520.9692859352 -102582631.61977905 0 0 0 -31624962.851083249 -9321290.757311672 -18114508.93049591 0 -18114508.93049591 -108459313.61732605 0 0 0 -41223211.531123199 8842214.9504976198 1377331.9638165534 0 1377331.9638165534 -99873845.037654236 0 0 0 -31861070.53050483 -55555490.722856559 -11933881.676171418 0 -11933881.676171418 -103429295.34744003 0 0 0 -55644675.124603808 12225594.922971398 -1478520.9701152244 0 -1478520.9701152244 -102582631.61867827 0 0 0 -31624962.843497425 8842214.9810304344 -1377331.96581202 0 -1377331.96581202 -99873845.038774312 0 0 0 -31861070.520210356 -9321290.7332543954 18114508.930960074 0 18114508.930960074 -108459313.64136961 0 0 0 -41223211.531118393 -55555490.730256021 11933881.673391234 0 11933881.673391234 -103429295.36136845 0 0 0 -55644675.132068567 -1062531.0252875909 -1260209.5153380185 0 -1260209.5153380185 -97481307.100098193 0 0 0 -34490343.343885019 14157382.221417814 1861193.0759014115 0 1861193.0759014115 -99562683.473903686 0 0 0 -29891855.438370049 10472397.244775593 -1651710.7705886746 0 -1651710.7705886746 -106406227.00193888 0 0 0 -33576840.415007159 17547636.008521605 1773179.9856908917 0 1773179.9856908917 -103539691.19571295 0 0 0 -30097219.31551699 -1062531.0199293555 1260209.519000113 0 1260209.519000113 -97481307.097218499 0 0 0 -34490343.341001734 14157382.285699606 -1861193.0619594548 0 -1861193.0619594548 -99562683.435207605 0 0 0 -29891855.402327776 10472397.30210042 1651710.7854476124 0 1651710.7854476124 -106406226.97618687 0 0 0 -33576840.38593024 17547636.052067012 -1773179.9663593471 0 -1773179.9663593471 -103539691.17226008 0 0 0 -30097219.292067587 -47166837.506599627 -0.005943478212429909 0 -0.005943478212429909 -87466394.771168441 0 0 0 -47121631.297218814 1827568.2037464238 -2384411.3448445946 0 -2384411.3448445946 -91211913.278561085 0 0 0 -31284520.776185155 1827568.1769555956 2384411.3519151956 0 2384411.3519151956 -91211913.283311307 0 0 0 -31284520.787224516 18693680.346321106 0.0069190057399362232 0 0.0069190057399362232 -102100194.1462661 0 0 0 -29192279.829980731 7700258.7059900761 2002149.9723414853 0 2002149.9723414853 -101523794.70933837 0 0 0 -32838237.601171881 20709678.792936414 -969279.11196124554 0 -969279.11196124554 -97912257.972056389 0 0 0 -27020902.712691963 -7992927.5779617578 -7056186.4526089877 0 -7056186.4526089877 -76347707.251560539 0 0 0 -29519222.190332804 5252009.7023028806 -2755874.9570153467 0 -2755874.9570153467 -98345762.775118634 0 0 0 -32582813.57548552 5252009.6576202214 2755874.9699316733 0 2755874.9699316733 -98345762.801838011 0 0 0 -32582813.600476235 20709678.773246452 969279.12226554751 0 969279.12226554751 -97912257.977643877 0 0 0 -27020902.721539065 -7992927.5487928605 7056186.4456683323 0 7056186.4456683323 -76347707.244454876 0 0 0 -29519222.177636709 7700258.7456199825 -2002149.9683297276 0 -2002149.9683297276 -101523794.6981706 0 0 0 -32838237.583392709 
</DataArray>
</CellData>
</Piece>
</UnstructuredGrid>
</VTKFile>
