<?xml version="1.0"?>
<VTKFile type="UnstructuredGrid" version="0.1" byte_order="LittleEndian">
<UnstructuredGrid>
<Piece NumberOfPoints="84" NumberOfCells="28">
<Points>
<DataArray type="Float64" NumberOfComponents="3" format="ascii">
0 1 0 0.29166666666684449 0.7083333333334445 0 0.33333333333472032 1 0 0 0 0 0.29166666666652658 0.2916666666668038 0 0 0.33333333333472032 0 0 1 0 0 0.66666666666759111 0 0.29166666666684449 0.7083333333334445 0 0 0 0 0.33333333333250248 0 0 0.29166666666652658 0.2916666666668038 0 1 1 0 0.66666666666759111 1 0 0.70833333333346027 0.70833333333323512 0 1 1 0 0.70833333333346027 0.70833333333323512 0 1 0.66666666666578889 0 1 0 0 1 0.33333333333250248 0 0.70833333333327586 0.2916666666665107 0 1 0 0 0.70833333333327586 0.2916666666665107 0 0.66666666666578889 0 0 0.50000000000004996 0.49999999999997519 0 0.29166666666652658 0.2916666666668038 0 0.49999999999981742 0.1726190476194705 0 0.50000000000004996 0.49999999999997519 0 0.29166666666684449 0.7083333333334445 0 0.17261904761971569 0.50000000000021494 0 0.50000000000004996 0.49999999999997519 0 0.17261904761971569 0.50000000000021494 0 0.29166666666652658 0.2916666666668038 0 0.50000000000004996 0.49999999999997519 0 0.50000000000021227 0.82738095238030207 0 0.29166666666684449 0.7083333333334445 0 0.50000000000004996 0.49999999999997519 0 0.49999999999981742 0.1726190476194705 0 0.70833333333327586 0.2916666666665107 0 0.50000000000004996 0.49999999999997519 0 0.82738095238054699 0.49999999999982031 0 0.70833333333346027 0.70833333333323512 0 0.50000000000004996 0.49999999999997519 0 0.70833333333327586 0.2916666666665107 0 0.82738095238054699 0.49999999999982031 0 0.50000000000004996 0.49999999999997519 0 0.70833333333346027 0.70833333333323512 0 0.50000000000021227 0.82738095238030207 0 0.33333333333250248 0 0 0.66666666666578889 0 0 0.49999999999981742 0.1726190476194705 0 1 0.33333333333250248 0 1 0.66666666666578889 0 0.82738095238054699 0.49999999999982031 0 0 0.66666666666759111 0 0 0.33333333333472032 0 0.17261904761971569 0.50000000000021494 0 0.66666666666759111 1 0 0.33333333333472032 1 0 0.50000000000021227 0.82738095238030207 0 0 0.66666666666759111 0 0.17261904761971569 0.50000000000021494 0 0.29166666666684449 0.7083333333334445 0 0.66666666666759111 1 0 0.50000000000021227 0.82738095238030207 0 0.70833333333346027 0.70833333333323512 0 0.33333333333250248 0 0 0.49999999999981742 0.1726190476194705 0 0.29166666666652658 0.2916666666668038 0 1 0.33333333333250248 0 0.82738095238054699 0.49999999999982031 0 0.70833333333327586 0.2916666666665107 0 0 0.33333333333472032 0 0.29166666666652658 0.2916666666668038 0 0.17261904761971569 0.50000000000021494 0 0.33333333333472032 1 0 0.29166666666684449 0.7083333333334445 0 0.50000000000021227 0.82738095238030207 0 0.66666666666578889 0 0 0.70833333333327586 0.2916666666665107 0 0.49999999999981742 0.1726190476194705 0 1 0.66666666666578889 0 0.70833333333346027 0.70833333333323512 0 0.82738095238054699 0.49999999999982031 0 
</DataArray>
</Points>
<Cells>
<DataArray type="UInt32" Name="connectivity" format="ascii">
0 1 2 3 4 5 6 7 8 9 10 11 12 13 14 15 16 17 18 19 20 21 22 23 24 25 26 27 28 29 30 31 32 33 34 35 36 37 38 39 40 41 42 43 44 45 46 47 48 49 50 51 52 53 54 55 56 57 58 59 60 61 62 63 64 65 66 67 68 69 70 71 72 73 74 75 76 77 78 79 80 81 82 83 
</DataArray>
<DataArray type="UInt32" Name="offsets" format="ascii">
3 6 9 12 15 18 21 24 27 30 33 36 39 42 45 48 51 54 57 60 63 66 69 72 75 78 81 84 
</DataArray>
<DataArray type="UInt32" Name="types" format="ascii">
5 5 5 5 5 5 5 5 5 5 5 5 5 5 5 5 5 5 5 5 5 5 5 5 5 5 5 5 
</DataArray>
</Cells>
<PointData Scalars="" Vectors="displacement," Tensors="">
<DataArray type="Float64" Name="displacement" NumberOfComponents="3" format="ascii">
8.2500608237722856e-06 -0.91821769178588108 0 0.084134452917214553 -0.6533692439091362 0 0.099779495775641575 -0.92288489635236126 0 -2.2023744115204241e-06 -0.00030225035493123479 0 0.082254859569075703 -0.26943599216293435 0 -1.048732229748833e-06 -0.3069985095692348 0 8.2500608237722856e-06 -0.91821769178588108 0 -1.975110976484992e-06 -0.61299490376861088 0 0.084134452917214553 -0.6533692439091362 0 -2.2023744115204241e-06 -0.00030225035493123479 0 0.093725621142461329 -0.00030226338603600849 0 0.082254859569075717 -0.26943599216293435 0 0.27916580658095208 -0.94620517665376691 0 0.19448763829430771 -0.93477642032523378 0 0.19845048946684674 -0.66219152561741301 0 0.27916580658095208 -0.94620517665376691 0 0.19845048946684674 -0.66219152561741301 0 0.27049833492216718 -0.6296918191219848 0 0.26731945117063921 -0.00029551385189874877 0 0.26728628530466647 -0.31403145590272208 0 0.19510709940891979 -0.27289768245336787 0 0.26731945117063921 -0.00029551385189874877 0 0.19510709940891979 -0.27289768245336787 0 0.18377385301338817 -0.00029885451054910737 0 0.14060570270699901 -0.46413548805814941 0 0.082254859569075731 -0.26943599216293429 0 0.13941312387805943 -0.16049160493997003 0 0.14060570270699901 -0.46413548805814941 0 0.084134452917214553 -0.6533692439091362 0 0.049235178192558786 -0.46057886273360688 0 0.14060570270699901 -0.46413548805814941 0 0.049235178192558786 -0.46057886273360688 0 0.082254859569075717 -0.26943599216293435 0 0.14060570270699901 -0.46413548805814941 0 0.14407178427794931 -0.76794627696149187 0 0.084134452917214553 -0.6533692439091362 0 0.14060570270699901 -0.46413548805814941 0 0.13941312387805943 -0.16049160493997003 0 0.19510709940891979 -0.27289768245336787 0 0.14060570270699901 -0.46413548805814941 0 0.22652694785783736 -0.46925648987500918 0 0.19845048946684674 -0.66219152561741301 0 0.14060570270699901 -0.46413548805814941 0 0.19510709940891979 -0.27289768245336787 0 0.22652694785783736 -0.46925648987500918 0 0.14060570270699901 -0.46413548805814941 0 0.19845048946684674 -0.66219152561741301 0 0.14407178427794931 -0.76794627696149187 0 0.093725621142461329 -0.00030226338603596458 0 0.18377385301338817 -0.00029885451054910737 0 0.13941312387805943 -0.16049160493997003 0 0.26728628530466647 -0.31403145590272208 0 0.27049833492216718 -0.6296918191219848 0 0.22652694785783736 -0.46925648987500918 0 -1.975110976484992e-06 -0.61299490376861088 0 -1.048732229748833e-06 -0.3069985095692348 0 0.049235178192558786 -0.46057886273360688 0 0.19448763829430771 -0.93477642032523378 0 0.099779495775641575 -0.92288489635236126 0 0.14407178427794931 -0.76794627696149187 0 -1.975110976484992e-06 -0.61299490376861088 0 0.049235178192558786 -0.46057886273360688 0 0.084134452917214553 -0.6533692439091362 0 0.19448763829430771 -0.93477642032523378 0 0.14407178427794931 -0.76794627696149187 0 0.19845048946684674 -0.66219152561741301 0 0.093725621142461329 -0.00030226338603596458 0 0.13941312387805943 -0.16049160493997003 0 0.082254859569075717 -0.26943599216293435 0 0.26728628530466647 -0.31403145590272208 0 0.22652694785783736 -0.46925648987500918 0 0.19510709940891979 -0.27289768245336787 0 -1.048732229748833e-06 -0.3069985095692348 0 0.082254859569075717 -0.26943599216293435 0 0.049235178192558786 -0.46057886273360688 0 0.099779495775641575 -0.92288489635236126 0 0.084134452917214553 -0.6533692439091362 0 0.14407178427794931 -0.76794627696149187 0 0.18377385301338817 -0.00029885451054910737 0 0.19510709940891979 -0.27289768245336787 0 0.13941312387805943 -0.16049160493997003 0 0.27049833492216718 -0.6296918191219848 0 0.19845048946684674 -0.66219152561741301 0 0.22652694785783736 -0.46925648987500918 0 
</DataArray>
</PointData>
<CellData Scalars="displacement_divergence," Vectors="" Tensors="stress,">
<DataArray type="Float64" Name="stress" NumberOfComponents="9" format="ascii">
0.076444864883720265 -0.0013002383598388345 0 -0.0013002383598388345 -0.94136111189515237 0 0 0 -0.17298324940228638 0.057776174490544396 -0.0011050079422418868 0 -0.0011050079422418868 -0.94398176641807485 0 0 0 -0.1772411183855061 0.066162533343625457 -0.0031607780195410662 0 -0.0031607780195410662 -0.93728057922070873 0 0 0 -0.1742236091754166 0.056108239908774116 0.0003502928054880713 0 0.0003502928054880713 -0.94716483432873499 0 0 0 -0.17821131888399216 0.02129533310029097 -0.0048260598919688371 0 -0.0048260598919688371 -0.97329577118482602 0 0 0 -0.19040008761690708 0.014834218867896376 0.00074224929247590499 0 0.00074224929247590499 -0.9853956875672405 0 0 0 -0.19411229373986882 0.013537502115010902 -0.0027797154660921808 0 -0.0027797154660921808 -0.97704044338251406 0 0 0 -0.19270058825350064 0.018866998118393152 0.0012756710028808749 0 0.0012756710028808749 -0.96885198448931542 0 0 0 -0.18999699727418445 0.049519722306379993 -0.0014253129484935179 0 -0.0014253129484935179 -0.95375969752801915 0 0 0 -0.18084799504432783 0.054776605427437397 -0.0011793551562032656 0 -0.0011793551562032656 -0.94379116302170973 0 0 0 -0.17780291151885436 0.053524437434372074 -0.0041146862471111035 0 -0.0041146862471111035 -0.94879983499394926 0 0 0 -0.17905507951191552 0.055164818473968473 -0.003789388540294647 0 -0.003789388540294647 -0.95287948734852512 0 0 0 -0.17954293377491132 0.037084421850214377 -0.0024624124321350749 0 -0.0024624124321350749 -0.95686852264205846 0 0 0 -0.18395682015836884 0.031881874399191101 -0.00018237716685247913 0 -0.00018237716685247913 -0.96601562250636563 0 0 0 -0.18682674962143486 0.032282665437152802 -0.0061661200697843421 0 -0.0061661200697843421 -0.9644124583544903 0 0 0 -0.1864259585834675 0.038963007408413852 -0.0050324217870546528 0 -0.0050324217870546528 -0.9569299401149125 0 0 0 -0.18359338654129975 0.042382078204512008 0.001605539577000316 0 0.001605539577000316 -0.95607458556869551 0 0 0 -0.18273850147283671 0.009646281950260573 -0.0022732253801369673 0 -0.0022732253801369673 -0.98402706457276978 0 0 0 -0.19487615652450185 0.06192882625676327 -0.0014063622695774658 0 -0.0014063622695774658 -0.94075652531018639 0 0 0 -0.1757655398106846 0.056799401582966258 -0.0074738948636215597 0 -0.0074738948636215597 -0.95665417515310303 0 0 0 -0.17997095471402735 0.064079358721933932 -0.001610370478353329 0 -0.001610370478353329 -0.94389592418399593 0 0 0 -0.17596331309241242 0.045659557565844611 -0.0012339525774789362 0 -0.0012339525774789362 -0.96638378342604225 0 0 0 -0.18414484517203966 0.04824560243119394 -0.0020341514004159067 0 -0.0020341514004159067 -0.94983524346156845 0 0 0 -0.1803179282060749 0.012634790345763869 0.0013697083239327945 0 0.0013697083239327945 -0.97449753515376902 0 0 0 -0.19237254896160105 0.058563726630625701 0.00017074638900280159 0 0.00017074638900280159 -0.94255354721526796 0 0 0 -0.17679796411692839 0.055262367819641139 -0.0042642840100339807 0 -0.0042642840100339807 -0.94518536406109654 0 0 0 -0.1779845992482911 0.037192386874403863 -0.0021829086312709634 0 -0.0021829086312709634 -0.96338150721540061 0 0 0 -0.18523782406819933 0.014718071327970206 -0.00657089221954818 0 -0.00657089221954818 -0.97452299566573863 0 0 0 -0.19196098486755364 
</DataArray>
<DataArray type="Float64" Name="displacement_divergence" format="ascii">
-0.62273969784823091 -0.63806802618782177 -0.62720499303149946 -0.64156074798237184 -0.6854403154208657 -0.69880425746352737 -0.69372211771260239 -0.68398919018706406 -0.65105278215957985 -0.64009048146787584 -0.64459828624289583 -0.64635456158968063 -0.66224455257012771 -0.6725762986371655 -0.67113345090048271 -0.66093619154867889 -0.65785860530221196 -0.70155416348820676 -0.63275594331846441 -0.64789543697049901 -0.63346792713268441 -0.66292144261934283 -0.64914454154186974 -0.69254117626176348 -0.63647267082094228 -0.64074455729384749 -0.66685616664551772 -0.69105954552319337 
</DataArray>
</CellData>
</Piece>
</UnstructuredGrid>
</VTKFile>
