<?xml version="1.0"?>
<VTKFile type="UnstructuredGrid" version="0.1" byte_order="LittleEndian">
<UnstructuredGrid>
<Piece NumberOfPoints="84" NumberOfCells="28">
<Points>
<DataArray type="Float64" NumberOfComponents="3" format="ascii">
0 0 0 0.29166666666652658 0.2916666666668038 0 0 0.33333333333472032 0 0 0 0 0.33333333333250248 0 0 0.29166666666652658 0.2916666666668038 0 0.33333333333250248 0 0 0.66666666666578889 0 0 0.49999999999981742 0.1726190476194705 0 0.33333333333250248 0 0 0.49999999999981742 0.1726190476194705 0 0.29166666666652658 0.2916666666668038 0 0.50000000000004996 0.49999999999997519 0 0.17261904761971569 0.50000000000021494 0 0.29166666666652658 0.2916666666668038 0 0.50000000000004996 0.49999999999997519 0 0.29166666666652658 0.2916666666668038 0 0.49999999999981742 0.1726190476194705 0 0 0.33333333333472032 0 0.29166666666652658 0.2916666666668038 0 0.17261904761971569 0.50000000000021494 0 0 0.66666666666759111 0 0 0.33333333333472032 0 0.17261904761971569 0.50000000000021494 0 0 0.66666666666759111 0 0.17261904761971569 0.50000000000021494 0 0.29166666666684449 0.7083333333334445 0 0 1 0 0.29166666666684449 0.7083333333334445 0 0.33333333333472032 1 0 0 1 0 0 0.66666666666759111 0 0.29166666666684449 0.7083333333334445 0 0.33333333333472032 1 0 0.29166666666684449 0.7083333333334445 0 0.50000000000021227 0.82738095238030207 0 0.50000000000004996 0.49999999999997519 0 0.29166666666684449 0.7083333333334445 0 0.17261904761971569 0.50000000000021494 0 0.50000000000004996 0.49999999999997519 0 0.50000000000021227 0.82738095238030207 0 0.29166666666684449 0.7083333333334445 0 0.50000000000004996 0.49999999999997519 0 0.82738095238054699 0.49999999999982031 0 0.70833333333346027 0.70833333333323512 0 0.50000000000004996 0.49999999999997519 0 0.70833333333346027 0.70833333333323512 0 0.50000000000021227 0.82738095238030207 0 0.66666666666759111 1 0 0.50000000000021227 0.82738095238030207 0 0.70833333333346027 0.70833333333323512 0 0.66666666666759111 1 0 0.33333333333472032 1 0 0.50000000000021227 0.82738095238030207 0 1 1 0 0.70833333333346027 0.70833333333323512 0 1 0.66666666666578889 0 1 1 0 0.66666666666759111 1 0 0.70833333333346027 0.70833333333323512 0 1 0.66666666666578889 0 0.70833333333346027 0.70833333333323512 0 0.82738095238054699 0.49999999999982031 0 1 0.33333333333250248 0 1 0.66666666666578889 0 0.82738095238054699 0.49999999999982031 0 1 0.33333333333250248 0 0.82738095238054699 0.49999999999982031 0 0.70833333333327586 0.2916666666665107 0 1 0 0 0.70833333333327586 0.2916666666665107 0 0.66666666666578889 0 0 1 0 0 1 0.33333333333250248 0 0.70833333333327586 0.2916666666665107 0 0.66666666666578889 0 0 0.70833333333327586 0.2916666666665107 0 0.49999999999981742 0.1726190476194705 0 0.50000000000004996 0.49999999999997519 0 0.70833333333327586 0.2916666666665107 0 0.82738095238054699 0.49999999999982031 0 0.50000000000004996 0.49999999999997519 0 0.49999999999981742 0.1726190476194705 0 0.70833333333327586 0.2916666666665107 0 
</DataArray>
</Points>
<Cells>
<DataArray type="UInt32" Name="connectivity" format="ascii">
0 1 2 3 4 5 6 7 8 9 10 11 12 13 14 15 16 17 18 19 20 21 22 23 24 25 26 27 28 29 30 31 32 33 34 35 36 37 38 39 40 41 42 43 44 45 46 47 48 49 50 51 52 53 54 55 56 57 58 59 60 61 62 63 64 65 66 67 68 69 70 71 72 73 74 75 76 77 78 79 80 81 82 83 
</DataArray>
<DataArray type="UInt32" Name="offsets" format="ascii">
3 6 9 12 15 18 21 24 27 30 33 36 39 42 45 48 51 54 57 60 63 66 69 72 75 78 81 84 
</DataArray>
<DataArray type="UInt32" Name="types" format="ascii">
5 5 5 5 5 5 5 5 5 5 5 5 5 5 5 5 5 5 5 5 5 5 5 5 5 5 5 5 
</DataArray>
</Cells>
<PointData Scalars="" Vectors="displacement," Tensors="">
<DataArray type="Float64" Name="displacement" NumberOfComponents="3" format="ascii">
-2.2023744115201378e-06 -0.0003022503549312355 0 0.082254859569075967 -0.26943599216293468 0 -1.0487322297497848e-06 -0.3069985095692353 0 -2.2023744115201378e-06 -0.0003022503549312355 0 0.093725621142461718 -0.00030226338603600963 0 0.08225485956907598 -0.26943599216293468 0 0.093725621142461718 -0.00030226338603596572 0 0.18377385301338864 -0.00029885451054910829 0 0.13941312387805996 -0.16049160493997011 0 0.093725621142461718 -0.00030226338603596572 0 0.13941312387805996 -0.16049160493997011 0 0.08225485956907598 -0.26943599216293468 0 0.14060570270699937 -0.4641354880581498 0 0.04923517819255889 -0.46057886273360743 0 0.08225485956907598 -0.26943599216293468 0 0.14060570270699937 -0.4641354880581498 0 0.082254859569075994 -0.26943599216293462 0 0.13941312387805996 -0.16049160493997011 0 -1.0487322297497848e-06 -0.3069985095692353 0 0.08225485956907598 -0.26943599216293468 0 0.04923517819255889 -0.46057886273360743 0 -1.9751109764860376e-06 -0.61299490376861165 0 -1.0487322297497848e-06 -0.3069985095692353 0 0.04923517819255889 -0.46057886273360743 0 -1.9751109764860376e-06 -0.61299490376861165 0 0.04923517819255889 -0.46057886273360743 0 0.084134452917214553 -0.65336924390913698 0 8.250060823772084e-06 -0.91821769178588153 0 0.084134452917214553 -0.65336924390913698 0 0.099779495775641477 -0.92288489635236182 0 8.250060823772084e-06 -0.91821769178588153 0 -1.9751109764860376e-06 -0.61299490376861165 0 0.084134452917214553 -0.65336924390913698 0 0.099779495775641477 -0.92288489635236182 0 0.084134452917214553 -0.65336924390913698 0 0.14407178427794914 -0.76794627696149276 0 0.14060570270699937 -0.4641354880581498 0 0.084134452917214553 -0.65336924390913698 0 0.04923517819255889 -0.46057886273360743 0 0.14060570270699937 -0.4641354880581498 0 0.14407178427794914 -0.76794627696149276 0 0.084134452917214553 -0.65336924390913698 0 0.14060570270699937 -0.4641354880581498 0 0.22652694785783775 -0.46925648987500895 0 0.19845048946684679 -0.66219152561741312 0 0.14060570270699937 -0.4641354880581498 0 0.19845048946684679 -0.66219152561741312 0 0.14407178427794914 -0.76794627696149276 0 0.19448763829430682 -0.934776420325234 0 0.14407178427794914 -0.76794627696149276 0 0.19845048946684679 -0.66219152561741312 0 0.19448763829430682 -0.934776420325234 0 0.099779495775641477 -0.92288489635236182 0 0.14407178427794914 -0.76794627696149276 0 0.27916580658095141 -0.94620517665376613 0 0.19845048946684679 -0.66219152561741312 0 0.27049833492216735 -0.62969181912198402 0 0.27916580658095141 -0.94620517665376613 0 0.19448763829430682 -0.934776420325234 0 0.19845048946684679 -0.66219152561741312 0 0.27049833492216735 -0.62969181912198402 0 0.19845048946684679 -0.66219152561741312 0 0.22652694785783775 -0.46925648987500895 0 0.26728628530466697 -0.31403145590272169 0 0.27049833492216735 -0.62969181912198402 0 0.22652694785783775 -0.46925648987500895 0 0.26728628530466697 -0.31403145590272169 0 0.22652694785783775 -0.46925648987500895 0 0.1951070994089204 -0.27289768245336782 0 0.26731945117063993 -0.00029551385189874866 0 0.1951070994089204 -0.27289768245336782 0 0.18377385301338864 -0.00029885451054910829 0 0.26731945117063993 -0.00029551385189874866 0 0.26728628530466697 -0.31403145590272169 0 0.1951070994089204 -0.27289768245336782 0 0.18377385301338864 -0.00029885451054910829 0 0.1951070994089204 -0.27289768245336782 0 0.13941312387805996 -0.16049160493997011 0 0.14060570270699937 -0.4641354880581498 0 0.1951070994089204 -0.27289768245336782 0 0.22652694785783775 -0.46925648987500895 0 0.14060570270699937 -0.4641354880581498 0 0.13941312387805996 -0.16049160493997011 0 0.1951070994089204 -0.27289768245336782 0 
</DataArray>
</PointData>
<CellData Scalars="displacement_divergence," Vectors="" Tensors="stress,">
<DataArray type="Float64" Name="stress" NumberOfComponents="9" format="ascii">
0.057776174490545062 -0.0011050079422417758 0 -0.0011050079422417758 -0.94398176641807618 0 0 0 -0.17724111838550621 0.056108239908775115 0.00035029280548797372 0 0.00035029280548797372 -0.94716483432873577 0 0 0 -0.17821131888399214 0.04238207820451223 0.0016055395770005381 0 0.0016055395770005381 -0.95607458556869584 0 0 0 -0.18273850147283671 0.048245602431194939 -0.0020341514004157957 0 -0.0020341514004157957 -0.94983524346156933 0 0 0 -0.18031792820607487 0.053524437434372685 -0.0041146862471109925 0 -0.0041146862471109925 -0.94879983499394971 0 0 0 -0.17905507951191552 0.049519722306380853 -0.0014253129484934624 0 -0.0014253129484934624 -0.95375969752801981 0 0 0 -0.1808479950443278 0.058563726630626367 0.00017074638900291261 0 0.00017074638900291261 -0.94255354721526885 0 0 0 -0.17679796411692844 0.061928826256763714 -0.0014063622695774658 0 -0.0014063622695774658 -0.94075652531018705 0 0 0 -0.17576553981068466 0.064079358721933599 -0.0016103704783535511 0 -0.0016103704783535511 -0.94389592418399726 0 0 0 -0.1759633130924127 0.076444864883720154 -0.0013002383598392786 0 -0.0013002383598392786 -0.94136111189515148 0 0 0 -0.17298324940228627 0.06616253334362579 -0.0031607780195410662 0 -0.0031607780195410662 -0.9372805792207074 0 0 0 -0.17422360917541627 0.055262367819640668 -0.0042642840100344248 0 -0.0042642840100344248 -0.94518536406109532 0 0 0 -0.17798459924829102 0.054776605427437952 -0.0011793551562033766 0 -0.0011793551562033766 -0.94379116302171062 0 0 0 -0.17780291151885458 0.05516481847396814 -0.0037893885402953131 0 -0.0037893885402953131 -0.9528794873485269 0 0 0 -0.17954293377491171 0.03188187439919099 -0.00018237716685236811 0 -0.00018237716685236811 -0.96601562250636608 0 0 0 -0.18682674962143497 0.038963007408413519 -0.0050324217870539867 0 -0.0050324217870539867 -0.9569299401149145 0 0 0 -0.1835933865413002 0.045659557565843834 -0.0012339525774787141 0 -0.0012339525774787141 -0.9663837834260427 0 0 0 -0.18414484517203977 0.056799401582964482 -0.0074738948636220038 0 -0.0074738948636220038 -0.95665417515310125 0 0 0 -0.17997095471402735 0.014834218867896376 0.00074224929247623805 0 0.00074224929247623805 -0.9853956875672405 0 0 0 -0.19411229373986882 0.021295333100291747 -0.0048260598919688371 0 -0.0048260598919688371 -0.97329577118482602 0 0 0 -0.19040008761690685 0.014718071327970317 -0.0065708922195475694 0 -0.0065708922195475694 -0.97452299566573819 0 0 0 -0.19196098486755364 0.0096462819502603509 -0.0022732253801365232 0 -0.0022732253801365232 -0.98402706457276845 0 0 0 -0.19487615652450163 0.012634790345763591 0.0013697083239329055 0 0.0013697083239329055 -0.97449753515376902 0 0 0 -0.19237254896160105 0.018866998118394096 0.001275671002881015 0 0.001275671002881015 -0.96885198448931498 0 0 0 -0.18999699727418418 0.013537502115010902 -0.0027797154660920698 0 -0.0027797154660920698 -0.97704044338251272 0 0 0 -0.19270058825350037 0.037192386874403877 -0.0021829086312704638 0 -0.0021829086312704638 -0.96338150721540061 0 0 0 -0.18523782406819933 0.032282665437152802 -0.0061661200697841201 0 -0.0061661200697841201 -0.96441245835449063 0 0 0 -0.18642595858346755 0.037084421850214905 -0.0024624124321347418 0 -0.0024624124321347418 -0.95686852264205924 0 0 0 -0.18395682015836887 
</DataArray>
<DataArray type="Float64" Name="displacement_divergence" format="ascii">
-0.63806802618782243 -0.64156074798237173 -0.65785860530221218 -0.64914454154186974 -0.64459828624289561 -0.65105278215957996 -0.6364726708209425 -0.63275594331846485 -0.63346792713268574 -0.62273969784823047 -0.62720499303149857 -0.64074455729384749 -0.64009048146787628 -0.64635456158968174 -0.67257629863716595 -0.66093619154868022 -0.66292144261934327 -0.64789543697049901 -0.69880425746352759 -0.68544031542086481 -0.69105954552319249 -0.7015541634882061 -0.69254117626176359 -0.68398919018706295 -0.69372211771260139 -0.66685616664551761 -0.67113345090048293 -0.6622445525701276 
</DataArray>
</CellData>
</Piece>
</UnstructuredGrid>
</VTKFile>
