<?xml version="1.0"?>
<VTKFile type="UnstructuredGrid" version="0.1" byte_order="LittleEndian">
<UnstructuredGrid>
<Piece NumberOfPoints="84" NumberOfCells="28">
<Points>
<DataArray type="Float64" NumberOfComponents="3" format="ascii">
0 1 0 0.29166666666684449 0.7083333333334445 0 0.33333333333472032 1 0 0 0 0 0.29166666666652658 0.2916666666668038 0 0 0.33333333333472032 0 0 1 0 0 0.66666666666759111 0 0.29166666666684449 0.7083333333334445 0 0 0 0 0.33333333333250248 0 0 0.29166666666652658 0.2916666666668038 0 1 1 0 0.66666666666759111 1 0 0.70833333333346027 0.70833333333323512 0 1 1 0 0.70833333333346027 0.70833333333323512 0 1 0.66666666666578889 0 1 0 0 1 0.33333333333250248 0 0.70833333333327586 0.2916666666665107 0 1 0 0 0.70833333333327586 0.2916666666665107 0 0.66666666666578889 0 0 0.50000000000004996 0.49999999999997519 0 0.29166666666652658 0.2916666666668038 0 0.49999999999981742 0.1726190476194705 0 0.50000000000004996 0.49999999999997519 0 0.29166666666684449 0.7083333333334445 0 0.17261904761971569 0.50000000000021494 0 0.50000000000004996 0.49999999999997519 0 0.17261904761971569 0.50000000000021494 0 0.29166666666652658 0.2916666666668038 0 0.50000000000004996 0.49999999999997519 0 0.50000000000021227 0.82738095238030207 0 0.29166666666684449 0.7083333333334445 0 0.50000000000004996 0.49999999999997519 0 0.49999999999981742 0.1726190476194705 0 0.70833333333327586 0.2916666666665107 0 0.50000000000004996 0.49999999999997519 0 0.82738095238054699 0.49999999999982031 0 0.70833333333346027 0.70833333333323512 0 0.50000000000004996 0.49999999999997519 0 0.70833333333327586 0.2916666666665107 0 0.82738095238054699 0.49999999999982031 0 0.50000000000004996 0.49999999999997519 0 0.70833333333346027 0.70833333333323512 0 0.50000000000021227 0.82738095238030207 0 0.33333333333250248 0 0 0.66666666666578889 0 0 0.49999999999981742 0.1726190476194705 0 1 0.33333333333250248 0 1 0.66666666666578889 0 0.82738095238054699 0.49999999999982031 0 0 0.66666666666759111 0 0 0.33333333333472032 0 0.17261904761971569 0.50000000000021494 0 0.66666666666759111 1 0 0.33333333333472032 1 0 0.50000000000021227 0.82738095238030207 0 0 0.66666666666759111 0 0.17261904761971569 0.50000000000021494 0 0.29166666666684449 0.7083333333334445 0 0.66666666666759111 1 0 0.50000000000021227 0.82738095238030207 0 0.70833333333346027 0.70833333333323512 0 0.33333333333250248 0 0 0.49999999999981742 0.1726190476194705 0 0.29166666666652658 0.2916666666668038 0 1 0.33333333333250248 0 0.82738095238054699 0.49999999999982031 0 0.70833333333327586 0.2916666666665107 0 0 0.33333333333472032 0 0.29166666666652658 0.2916666666668038 0 0.17261904761971569 0.50000000000021494 0 0.33333333333472032 1 0 0.29166666666684449 0.7083333333334445 0 0.50000000000021227 0.82738095238030207 0 0.66666666666578889 0 0 0.70833333333327586 0.2916666666665107 0 0.49999999999981742 0.1726190476194705 0 1 0.66666666666578889 0 0.70833333333346027 0.70833333333323512 0 0.82738095238054699 0.49999999999982031 0 
</DataArray>
</Points>
<Cells>
<DataArray type="UInt32" Name="connectivity" format="ascii">
0 1 2 3 4 5 6 7 8 9 10 11 12 13 14 15 16 17 18 19 20 21 22 23 24 25 26 27 28 29 30 31 32 33 34 35 36 37 38 39 40 41 42 43 44 45 46 47 48 49 50 51 52 53 54 55 56 57 58 59 60 61 62 63 64 65 66 67 68 69 70 71 72 73 74 75 76 77 78 79 80 81 82 83 
</DataArray>
<DataArray type="UInt32" Name="offsets" format="ascii">
3 6 9 12 15 18 21 24 27 30 33 36 39 42 45 48 51 54 57 60 63 66 69 72 75 78 81 84 
</DataArray>
<DataArray type="UInt32" Name="types" format="ascii">
5 5 5 5 5 5 5 5 5 5 5 5 5 5 5 5 5 5 5 5 5 5 5 5 5 5 5 5 
</DataArray>
</Cells>
<PointData Scalars="" Vectors="displacement," Tensors="">
<DataArray type="Float64" Name="displacement" NumberOfComponents="3" format="ascii">
-0.00099325299651054663 -0.003159515114414182 0 -0.00042256607112503016 -0.002129136735033843 0 -0.00034583063547773639 -0.0031096578600727631 0 -9.7992885736574829e-07 -1.0405594459052787e-06 0 -0.00028966825981266875 -0.00070620194460672286 0 -0.00081636643073025247 -0.0010870204939323511 0 -0.00099325299651054663 -0.003159515114414182 0 -0.00095617710405251043 -0.0020691690235275797 0 -0.00042256607112503016 -0.002129136735033843 0 -9.7992885736574829e-07 -1.0405594459052787e-06 0 3.4945214924490535e-07 -6.8246192398761773e-07 0 -0.00028966825981266859 -0.00070620194460672265 0 0.00099325299502081165 -0.0031595151138114159 0 0.00034583063394848235 -0.0031096578598459796 0 0.00042256607002518219 -0.0021291367347513858 0 0.00099325299502081165 -0.0031595151138114159 0 0.00042256607002518219 -0.0021291367347513858 0 0.00095617710304409919 -0.0020691690229329746 0 9.7992885724191525e-07 -1.0405594453710231e-06 0 0.00081636643013878701 -0.0010870204935766808 0 0.00028966825940168826 -0.00070620194450780069 0 9.7992885724191525e-07 -1.0405594453710231e-06 0 0.00028966825940168826 -0.00070620194450780069 0 -3.4945214929907437e-07 -6.8246192406827189e-07 0 -3.8263684348208948e-13 -0.0013680942194860665 0 -0.00028966825981266854 -0.00070620194460672243 0 -1.1142171730513874e-13 -0.0003680984586983082 0 -3.8263684348208948e-13 -0.0013680942194860665 0 -0.00042256607112503016 -0.002129136735033843 0 -0.00061768436614371969 -0.0014719580410584897 0 -3.8263684348208948e-13 -0.0013680942194860665 0 -0.00061768436614371969 -0.0014719580410584897 0 -0.00028966825981266859 -0.00070620194460672265 0 -3.8263684348208948e-13 -0.0013680942194860665 0 -6.4637865985511943e-13 -0.002510200060225596 0 -0.00042256607112503016 -0.002129136735033843 0 -3.8263684348208948e-13 -0.0013680942194860665 0 -1.1142171730513874e-13 -0.0003680984586983082 0 0.00028966825940168826 -0.00070620194450780069 0 -3.8263684348208948e-13 -0.0013680942194860665 0 0.00061768436539184728 -0.0014719580407157086 0 0.00042256607002518219 -0.0021291367347513858 0 -3.8263684348208948e-13 -0.0013680942194860665 0 0.00028966825940168826 -0.00070620194450780069 0 0.00061768436539184728 -0.0014719580407157086 0 -3.8263684348208948e-13 -0.0013680942194860665 0 0.00042256607002518219 -0.0021291367347513858 0 -6.4637852474205604e-13 -0.0025102000602255955 0 3.4945214924495262e-07 -6.8246192398750275e-07 0 -3.4945214929907437e-07 -6.8246192406827189e-07 0 -1.1142171730513874e-13 -0.0003680984586983082 0 0.00081636643013878701 -0.0010870204935766808 0 0.0009561771030440993 -0.0020691690229329746 0 0.00061768436539184728 -0.0014719580407157086 0 -0.00095617710405251043 -0.0020691690235275797 0 -0.00081636643073025247 -0.0010870204939323511 0 -0.00061768436614371969 -0.0014719580410584897 0 0.00034583063394848235 -0.0031096578598459796 0 -0.00034583063547773639 -0.0031096578600727631 0 -6.4637852474205604e-13 -0.0025102000602255955 0 -0.00095617710405251043 -0.0020691690235275797 0 -0.00061768436614371969 -0.0014719580410584897 0 -0.00042256607112503016 -0.002129136735033843 0 0.00034583063394848235 -0.0031096578598459796 0 -6.4637852474205604e-13 -0.0025102000602255955 0 0.00042256607002518219 -0.0021291367347513858 0 3.4945214924495262e-07 -6.8246192398750275e-07 0 -1.1142171730513874e-13 -0.0003680984586983082 0 -0.00028966825981266859 -0.00070620194460672265 0 0.00081636643013878701 -0.0010870204935766808 0 0.00061768436539184728 -0.0014719580407157086 0 0.00028966825940168826 -0.00070620194450780069 0 -0.00081636643073025247 -0.0010870204939323511 0 -0.00028966825981266859 -0.00070620194460672265 0 -0.00061768436614371969 -0.0014719580410584897 0 -0.00034583063547773639 -0.0031096578600727631 0 -0.00042256607112503016 -0.002129136735033843 0 -6.4637852474205604e-13 -0.0025102000602255955 0 -3.4945214929907437e-07 -6.8246192406827189e-07 0 0.00028966825940168826 -0.00070620194450780069 0 -1.1142171730513874e-13 -0.0003680984586983082 0 0.00095617710304409919 -0.0020691690229329746 0 0.00042256607002518219 -0.0021291367347513858 0 0.00061768436539184728 -0.0014719580407157086 0 
</DataArray>
</PointData>
<CellData Scalars="" Vectors="" Tensors="stress,">
<DataArray type="Float64" Name="stress" NumberOfComponents="9" format="ascii">
5224644.3873448372 1351979.5907910466 0 1351979.5907910466 -101283779.45723659 0 0 0 -33620697.274462134 -12909187.912551269 -16059158.798549969 0 -16059158.798549969 -107195402.82816708 0 0 0 -42036606.759251416 3643679.3896835963 1504599.2211895287 0 1504599.2211895287 -98685350.256905094 0 0 0 -33264584.803527512 -56265158.108513325 -9927024.1372894142 0 -9927024.1372894142 -104720330.37408714 0 0 0 -56344920.968910165 5224644.3924490809 -1351979.594189564 0 -1351979.594189564 -101283779.45530164 0 0 0 -33620697.271998405 3643679.3954197466 -1504599.2250541821 0 -1504599.2250541821 -98685350.252518952 0 0 0 -33264584.799984694 -12909187.903474361 16059158.788074926 0 16059158.788074926 -107195402.79116465 0 0 0 -42036606.743123651 -56265158.1006658 9927024.1232291181 0 9927024.1232291181 -104720330.35950005 0 0 0 -56344920.96105805 -11021427.135271277 -1225504.1456947941 0 -1225504.1456947941 -99920230.170778692 0 0 0 -38829580.057117492 3924844.8643400222 1756845.9629213586 0 1756845.9629213586 -100525000.78238371 0 0 0 -33810054.571315303 224356.16229654849 -1790805.6244665517 0 -1790805.6244665517 -107397336.9433068 0 0 0 -37510543.273353592 6492744.5757435905 1643898.6937304288 0 1643898.6937304288 -103845882.28836846 0 0 0 -34073598.199418716 -11021427.133379925 1225504.1338115335 0 1225504.1338115335 -99920230.169765636 0 0 0 -38829580.056100942 3924844.8733040392 -1756845.9689679376 0 -1756845.9689679376 -100525000.76803166 0 0 0 -33810054.563154608 224356.1774379462 1790805.618262358 0 1790805.618262358 -107397336.91750668 0 0 0 -37510543.259024069 6492744.5759762824 -1643898.6963399053 0 -1643898.6963399053 -103845882.2882382 0 0 0 -34073598.199291706 -49755364.708867624 -0.0064555491553619504 0 -0.0064555491553619504 -92283008.008146614 0 0 0 -49713430.450954974 -1325697.7194149042 -1954289.6565862894 0 -1954289.6565862894 -91373701.481817037 0 0 0 -32444789.720431194 -1325697.7244325131 1954289.6514551342 0 1954289.6514551342 -91373701.506687492 0 0 0 -32444789.730892003 8885807.2687211037 -0.00016017815543647502 0 -0.00016017815543647502 -102068289.83131981 0 0 0 -32613868.896909535 2851712.9645046294 1482620.5359278917 0 1482620.5359278917 -100215934.74095151 0 0 0 -34077477.621756405 9837440.3334296644 -710503.8097025007 0 -710503.8097025007 -98582452.661368132 0 0 0 -31060754.314778477 -16771955.956636265 -6044011.674537953 0 -6044011.674537953 -82307631.644430891 0 0 0 -34677855.660373494 163007.25719256699 -2591499.4829084128 0 -2591499.4829084128 -98064194.805014476 0 0 0 -34265415.64173767 163007.25794360042 2591499.4764272012 0 2591499.4764272012 -98064194.82737726 0 0 0 -34265415.649301767 9837440.3296193257 710503.80851736665 0 710503.80851736665 -98582452.663601607 0 0 0 -31060754.316893779 -16771955.954248294 6044011.6635901742 0 6044011.6635901742 -82307631.634064719 0 0 0 -34677855.655909546 2851712.9761475027 -1482620.5411458537 0 -1482620.5411458537 -100215934.72414476 0 0 0 -34077477.611799031 
</DataArray>
</CellData>
</Piece>
</UnstructuredGrid>
</VTKFile>
