<?xml version="1.0"?>
<VTKFile type="UnstructuredGrid" version="0.1" byte_order="LittleEndian">
<UnstructuredGrid>
<Piece NumberOfPoints="3162" NumberOfCells="1054">
<Points>
<DataArray type="Float64" NumberOfComponents="3" format="ascii">
0.39507969989512881 0.74417394063201048 0 0.42715538333808079 0.70077759375307946 0 0.44764943295894188 0.73752415265401661 0 0.74417394063200648 0.6049203001048884 0 0.70087539567735502 0.57165914616526226 0 0.73752415265401194 0.55235056704108476 0 0.25582605936799319 0.39507969989513358 0 0.2963043386970643 0.4298320229681446 0 0.26247584734598628 0.44764943295894732 0 0.60492030010488373 0.25582605936799729 0 0.57188338999077359 0.29874123486230147 0 0.55175647814720108 0.26104505532086641 0 0.56566515596461675 0.63670464971409091 0 0.61233489393901674 0.60846740003560018 0 0.60879112811253555 0.66592422311595834 0 0.6519524273377173 0.64249931920594539 0 0.60879112811253555 0.66592422311595834 0 0.61233489393901674 0.60846740003560018 0 0.640156794425081 0.43301393728221721 0 0.60122390529523662 0.39097801071820221 0 0.66346942254826746 0.391530810754116 0 0.6424993192059415 0.3480475726622802 0 0.66346942254826746 0.391530810754116 0 0.60122390529523662 0.39097801071820221 0 0.74198804864688339 0.90892718720327403 0 0.77688977118331393 0.94706199857866258 0 0.71789175274016548 0.95136708251202151 0 0.091072812796719582 0.74198804864687795 0 0.052938001421335763 0.77688977118331159 0 0.04863291748797445 0.71789175274016204 0 0.89586000931544074 0.25714619498770419 0 0.94465622530468663 0.23167460333446291 0 0.94915666091748963 0.28320804985299752 0 0.25714619498771307 0.1041399906845497 0 0.23167460333446299 0.05534377469531044 0 0.28320804985300141 0.050843339082505573 0 0.89999999999958358 1 0 0.84999999999965292 1 0 0.90554214442080472 0.95994154153067524 0 0 0.89999999999958358 0 0 0.84999999999965292 0 0.040058458469322648 0.90554214442079806 0 0.040058458469319477 0.094457855579157729 0 0 0.15000000000062411 0 0 0.10000000000041601 0 0.094457855579188163 0.95994154153068711 0 0.15000000000062411 1 0 0.10000000000041601 1 0 0.90554214442081604 0.040058458469347469 0 0.84999999999960507 0 0 0.89999999999973679 0 0 0.95994154153065969 0.90554214442078618 0 1 0.84999999999960507 0 1 0.89999999999973679 0 1 0.099999999999814668 0 1 0.14999999999970359 0 0.95994154153057998 0.094457855579277675 0 0.099999999999814668 0 0 0.14999999999970359 0 0 0.094457855579284614 0.040058458469418363 0 1 0.19999999999955789 0 0.94465622530468663 0.23167460333446291 0 0.96080966346491015 0.18035159017841959 0 0.19999999999955789 0 0 0.23167460333446299 0.05534377469531044 0 0.18035159017842109 0.039190336535090492 0 0.79999999999999982 1 0 0.77688977118331393 0.94706199857866258 0 0.82675923981951416 0.95611053755456221 0 0 0.79999999999999982 0 0.052938001421335763 0.77688977118331159 0 0.043889462445437968 0.82675923981951283 0 1 0.79999999999947335 0 0.96071093996985157 0.81954008780615684 0 0.9442075111696665 0.76777356182390766 0 0.79999999999947335 0 0 0.82050174006822896 0.038839999600956771 0 0.76543419162344684 0.056452228708420968 0 0.20000000000083221 1 0 0.18045991219397989 0.960710939969875 0 0.23222643817617661 0.94420751116970569 0 0 0.20000000000083221 0 0.038839999600931263 0.17949825993190149 0 0.056452228708379938 0.23456580837661581 0 0.50000000000002642 0.7803135888501761 0 0.53770425635794761 0.80104587463999666 0 0.49771727055908782 0.83998685797641781 0 0.2196864111498267 0.50000000000003153 0 0.1989632851005598 0.53769147668950479 0 0.16001314202358469 0.49771727055909287 0 0.78031358885017377 0.49999999999997569 0 0.80106707846564795 0.46230714888029367 0 0.83998574657308889 0.50228528270184081 0 0.49999999999997108 0.21968641114982909 0 0.46229330881044273 0.19890916456654811 0 0.50228272944093777 0.16001314202359701 0 0.79999999999999982 1 0 0.75000000000034661 1 0 0.77688977118331393 0.94706199857866258 0 0 0.79999999999999982 0 0 0.75000000000034661 0 0.052938001421335763 0.77688977118331159 0 1 0.19999999999955789 0 1 0.24999999999941211 0 0.94465622530468663 0.23167460333446291 0 0.19999999999955789 0 0 0.24999999999941211 0 0 0.23167460333446299 0.05534377469531044 0 1 0.74999999999934175 0 1 0.79999999999947335 0 0.9442075111696665 0.76777356182390766 0 0.74999999999934175 0 0 0.79999999999947335 0 0 0.76543419162344684 0.056452228708420968 0 0.25000000000104028 1 0 0.20000000000083221 1 0 0.23222643817617661 0.94420751116970569 0 0 0.25000000000104028 0 0 0.20000000000083221 0 0.056452228708379938 0.23456580837661581 0 1 0.74999999999934175 0 0.9442075111696665 0.76777356182390766 0 0.94635952848698612 0.71209247961721311 0 0.74999999999934175 0 0 0.76543419162344684 0.056452228708420968 0 0.71174922810186925 0.053730171687687178 0 0.25000000000104028 1 0 0.23222643817617661 0.94420751116970569 0 0.28790752038294382 0.94635952848702642 0 0 0.25000000000104028 0 0.056452228708379938 0.23456580837661581 0 0.053730171687646627 0.28825077189828552 0 0.8289812646369813 0.82898126463698818 0 0.87660297360393757 0.8104127896505644 0 0.88962265630811221 0.85311725681459705 0 0.17101873536300011 0.82898126463696109 0 0.18958721034944021 0.87660297360394568 0 0.14688274318541941 0.88962265630811932 0 0.39507969989512881 0.74417394063201048 0 0.44764943295894188 0.73752415265401661 0 0.43306783640023289 0.78031198216144404 0 0.74417394063200648 0.6049203001048884 0 0.73752415265401194 0.55235056704108476 0 0.78031198216143516 0.56693216359979737 0 0.25582605936799319 0.39507969989513358 0 0.26247584734598628 0.44764943295894732 0 0.21968801783855879 0.43306783640023788 0 0.60492030010488373 0.25582605936799729 0 0.55175647814720108 0.26104505532086641 0 0.56683314878414581 0.21944955250104689 0 0.90554214442080472 0.95994154153067524 0 0.84999999999965292 1 0 0.86696410734367158 0.94753096683315619 0 0.040058458469322648 0.90554214442079806 0 0 0.84999999999965292 0 0.052469033166843738 0.86696410734366991 0 0.054872692726595548 0.13410685639845171 0 0 0.15000000000062411 0 0.040058458469319477 0.094457855579157729 0 0.13834721989462789 0.94095916274077984 0 0.15000000000062411 1 0 0.094457855579188163 0.95994154153068711 0 0.86589314360155567 0.054872692726639853 0 0.84999999999960507 0 0 0.90554214442081604 0.040058458469347469 0 0.94095916274074942 0.86165278010542579 0 1 0.84999999999960507 0 0.95994154153065969 0.90554214442078618 0 0.95994154153057998 0.094457855579277675 0 1 0.14999999999970359 0 0.94100406608115506 0.1383574446607955 0 0.094457855579284614 0.040058458469418363 0 0.14999999999970359 0 0 0.1383574446607988 0.058995933918849157 0 0.1104775404132264 0.2631175359816938 0 0.099694771212264055 0.22074048840547039 0 0.15899695163321451 0.22783674912227669 0 0.73688246401832591 0.11047754041323141 0 0.77925951159456153 0.09969477121230251 0 0.77216325087772952 0.15899695163319821 0 0.88949062093135778 0.73694585442531257 0 0.9041449437197947 0.7786886066890556 0 0.839908789927305 0.77106070975262608 0 0.26305414557470391 0.88949062093136155 0 0.22131139331094829 0.9041449437198319 0 0.22893929024737289 0.83990878992727813 0 0.74198804864688339 0.90892718720327403 0 0.71789175274016548 0.95136708251202151 0 0.70475631558365914 0.90098127745102974 0 0.091072812796719582 0.74198804864687795 0 0.04863291748797445 0.71789175274016204 0 0.099018722548963364 0.70475631558365193 0 0.89586000931544074 0.25714619498770419 0 0.94915666091748963 0.28320804985299752 0 0.89886191075654698 0.29506339503703172 0 0.25714619498771307 0.1041399906845497 0 0.28320804985300141 0.050843339082505573 0 0.29506339503703888 0.1011380892434444 0 0.65773042910151891 0.073296788161472337 0 0.62160809078275991 0.1093532031139005 0 0.6048537357103756 0.060530514380187868 0 0.92670321183853355 0.65773042910151081 0 0.89064679688610338 0.6216080907827598 0 0.93946948561981514 0.60485373571037115 0 0.073296788161418117 0.34226957089850552 0 0.10935320311385981 0.37839190921727089 0 0.06053051438015096 0.39514626428972788 0 0.3422695708985129 0.92670321183858773 0 0.37839190921727062 0.89064679688614412 0 0.39514626428973221 0.93946948561985189 0 0.49771727055908782 0.83998685797641781 0 0.53770425635794761 0.80104587463999666 0 0.54047998161173716 0.84333512669480526 0 0.16001314202358469 0.49771727055909287 0 0.1989632851005598 0.53769147668950479 0 0.1566648733051971 0.54047998161174216 0 0.83998574657308889 0.50228528270184081 0 0.80106707846564795 0.46230714888029367 0 0.84333218736938698 0.4595365182652234 0 0.50228272944093777 0.16001314202359701 0 0.46229330881044273 0.19890916456654811 0 0.45952001838826873 0.15666487330524251 0 0.8289812646369813 0.82898126463698818 0 0.88962265630811221 0.85311725681459705 0 0.85174853583809862 0.87705234031428159 0 0.17101873536300011 0.82898126463696109 0 0.14688274318541941 0.88962265630811932 0 0.1229476596857173 0.85174853583809695 0 0.83199780613337848 0.1690131600686714 0 0.8517485358380722 0.12294765968568611 0 0.88777909259956078 0.1484760565886154 0 0.16901316006868169 0.16800219386663079 0 0.12294765968567151 0.14825146416195439 0 0.1484760565886207 0.1122209074004519 0 0.15899695163321451 0.22783674912227669 0 0.099694771212264055 0.22074048840547039 0 0.12587517708284679 0.1889683322666954 0 0.77216325087772952 0.15899695163319821 0 0.77925951159456153 0.09969477121230251 0 0.8110316677333288 0.125875177082863 0 0.83199780613337848 0.1690131600686714 0 0.88777909259956078 0.1484760565886154 0 0.87355793346388477 0.18922011052113649 0 0.16901316006868169 0.16800219386663079 0 0.1484760565886207 0.1122209074004519 0 0.18922011052115781 0.12644206653611201 0 0.32191828326940508 0.76395804595204586 0 0.34270280102445921 0.71672416762035873 0 0.35837423432538362 0.77730446904312345 0 0.76395804595204597 0.67808171673060369 0 0.71518943060973483 0.65679402931717101 0 0.77730446904309636 0.64162576567462737 0 0.2360419540479583 0.32191828326940741 0 0.28473805236128291 0.34355768118673757 0 0.22269553095687891 0.35837423432538801 0 0.67808171673060202 0.23604195404795861 0 0.65679402931716913 0.28481056939027388 0 0.64162576567462404 0.22269553095690481 0 0.26305414557470391 0.88949062093136155 0 0.28790752038294382 0.94635952848702642 0 0.23222643817617661 0.94420751116970569 0 0.1104775404132264 0.2631175359816938 0 0.053730171687646627 0.28825077189828552 0 0.056452228708379938 0.23456580837661581 0 0.88949062093135778 0.73694585442531257 0 0.94635952848698612 0.71209247961721311 0 0.9442075111696665 0.76777356182390766 0 0.73688246401832591 0.11047754041323141 0 0.71174922810186925 0.053730171687687178 0 0.76543419162344684 0.056452228708420968 0 0.22893929024737289 0.83990878992727813 0 0.22131139331094829 0.9041449437198319 0 0.18958721034944021 0.87660297360394568 0 0.839908789927305 0.77106070975262608 0 0.9041449437197947 0.7786886066890556 0 0.87660297360393757 0.8104127896505644 0 0.35837423432538362 0.77730446904312345 0 0.34270280102445921 0.71672416762035873 0 0.39507969989512881 0.74417394063201048 0 0.77730446904309636 0.64162576567462737 0 0.71518943060973483 0.65679402931717101 0 0.74417394063200648 0.6049203001048884 0 0.22269553095687891 0.35837423432538801 0 0.28473805236128291 0.34355768118673757 0 0.25582605936799319 0.39507969989513358 0 0.64162576567462404 0.22269553095690481 0 0.65679402931716913 0.28481056939027388 0 0.60492030010488373 0.25582605936799729 0 0.57484409313590223 0.58437321637184114 0 0.53542397956703913 0.60119875982347493 0 0.53087311892591971 0.55299263141448529 0 1 0.59999999999894682 0 0.93946948561981514 0.60485373571037115 0 0.95638719633882641 0.5599388881718611 0 0.59999999999894682 0 0 0.6048537357103756 0.060530514380187868 0 0.55993888817186677 0.043612803661174412 0 0.40000000000166441 1 0 0.39514626428973221 0.93946948561985189 0 0.44006111182840962 0.9563871963389079 0 0 0.40000000000166441 0 0.06053051438015096 0.39514626428972788 0 0.043612803661092707 0.44006111182840391 0 0.43590673999053309 0.90289902042279657 0 0.48669777060454272 0.93510666819646593 0 0.44006111182840962 0.9563871963389079 0 0.097100979577207341 0.43590673999053198 0 0.064893331803534807 0.48669777060454478 0 0.043612803661092707 0.44006111182840391 0 0.90289902042272274 0.56409326000946114 0 0.93510666819640953 0.51330222939551939 0 0.95638719633882641 0.5599388881718611 0 0.56409326000946236 0.097100979577281268 0 0.5133022293955174 0.064893331803591428 0 0.55993888817186677 0.043612803661174412 0 0.57387636360620708 0.54318431390135336 0 0.57484409313590223 0.58437321637184114 0 0.53087311892591971 0.55299263141448529 0 1 0.69999999999921003 0 1 0.74999999999934175 0 0.94635952848698612 0.71209247961721311 0 0.69999999999921003 0 0 0.74999999999934175 0 0 0.71174922810186925 0.053730171687687178 0 0.30000000000124832 1 0 0.25000000000104028 1 0 0.28790752038294382 0.94635952848702642 0 0 0.30000000000124832 0 0 0.25000000000104028 0 0.053730171687646627 0.28825077189828552 0 0.90289902042272274 0.56409326000946114 0 0.85130417396420255 0.59518556406638579 0 0.85551478316835361 0.54646211938695222 0 0.43590673999053309 0.90289902042279657 0 0.40481452396081791 0.85130421228141606 0 0.45353891581270822 0.85551523377818905 0 0.56409326000946236 0.097100979577281268 0 0.59518547603920147 0.14869578771864489 0 0.54646108418729233 0.1444847662218687 0 0.097100979577207341 0.43590673999053198 0 0.14869578771858949 0.40481452396082068 0 0.1444847662218138 0.45353891581271188 0 0.90289902042272274 0.56409326000946114 0 0.89064679688610338 0.6216080907827598 0 0.85130417396420255 0.59518556406638579 0 0.56409326000946236 0.097100979577281268 0 0.62160809078275991 0.1093532031139005 0 0.59518547603920147 0.14869578771864489 0 0.43590673999053309 0.90289902042279657 0 0.37839190921727062 0.89064679688614412 0 0.40481452396081791 0.85130421228141606 0 0.097100979577207341 0.43590673999053198 0 0.10935320311385981 0.37839190921727089 0 0.14869578771858949 0.40481452396082068 0 0.74417394063200648 0.6049203001048884 0 0.69288637798153729 0.61204665218001397 0 0.70087539567735502 0.57165914616526226 0 0.39507969989512881 0.74417394063201048 0 0.38642358467307758 0.69286258923597266 0 0.42715538333808079 0.70077759375307946 0 0.60492030010488373 0.25582605936799729 0 0.61204665218000809 0.30711362201846659 0 0.57188338999077359 0.29874123486230147 0 0.25582605936799319 0.39507969989513358 0 0.30597655500381687 0.3934681685211931 0 0.2963043386970643 0.4298320229681446 0 0.51484304721220842 0.69707233951836334 0 0.57051182622447827 0.69668652018496713 0 0.54465502325161819 0.74717983044080061 0 0.30292766048163949 0.51484304721221474 0 0.30429740679959738 0.56913905146460098 0 0.25287139441262568 0.54458355434492378 0 0.70015119067225129 0.48481914991727459 0 0.69595787604187809 0.43071000156707989 0 0.74730218607442667 0.45539100053644521 0 0.48378871228000903 0.29745177826977359 0 0.43059486795334201 0.30395973419063538 0 0.45533136021725079 0.2525687312087147 0 0.91838802593870927 0.18172590289757809 0 0.96080966346491015 0.18035159017841959 0 0.94465622530468663 0.23167460333446291 0 0.18172590289758209 0.08161197406129285 0 0.18035159017842109 0.039190336535090492 0 0.23167460333446299 0.05534377469531044 0 0.81709574086843206 0.91318696080656769 0 0.82675923981951416 0.95611053755456221 0 0.77688977118331393 0.94706199857866258 0 0.086813039193431391 0.81709574086842884 0 0.043889462445437968 0.82675923981951283 0 0.052938001421335763 0.77688977118331159 0 0.91838802593884228 0.81827409710237209 0 0.9442075111696665 0.76777356182390766 0 0.96071093996985157 0.81954008780615684 0 0.82118136511706341 0.082875076569723011 0 0.76543419162344684 0.056452228708420968 0 0.82050174006822896 0.038839999600956771 0 0.1817259028976386 0.91838802593888857 0 0.23222643817617661 0.94420751116970569 0 0.18045991219397989 0.960710939969875 0 0.08287507656968085 0.1788186348829835 0 0.056452228708379938 0.23456580837661581 0 0.038839999600931263 0.17949825993190149 0 0.59819537371016407 0.74380966024143391 0 0.54465502325161819 0.74717983044080061 0 0.57051182622447827 0.69668652018496713 0 0.25619033975856881 0.59819537371016862 0 0.25287139441262568 0.54458355434492378 0 0.30429740679959738 0.56913905146460098 0 0.74380966024142703 0.40180462628984132 0 0.74730218607442667 0.45539100053644521 0 0.69595787604187809 0.43071000156707989 0 0.40180462628983732 0.2561903397585753 0 0.45533136021725079 0.2525687312087147 0 0.43059486795334201 0.30395973419063538 0 0.8312019486901514 0.72745002167959472 0 0.77998481823117694 0.71397317153691997 0 0.80847852346122429 0.67208120229789559 0 0.27254997832041528 0.8312019486901443 0 0.28602682846308641 0.77998481823117594 0 0.32791879770213411 0.80847852346120164 0 0.72767516840721058 0.16853767177393791 0 0.71397317153692708 0.22001518176882201 0 0.67208120229787616 0.1915214765387884 0 0.1685376717739448 0.27232483159280108 0 0.22001518176882229 0.28602682846307981 0 0.19152147653881049 0.32791879770215432 0 0.85607519768343354 0.69380468830529196 0 0.8312019486901514 0.72745002167959472 0 0.80847852346122429 0.67208120229789559 0 0.69379929796456197 0.14392209494791061 0 0.72767516840721058 0.16853767177393791 0 0.67208120229787616 0.1915214765387884 0 0.30619531169472608 0.85607519768342955 0 0.27254997832041528 0.8312019486901443 0 0.32791879770213411 0.80847852346120164 0 0.14392209494791439 0.30620070203545702 0 0.1685376717739448 0.27232483159280108 0 0.19152147653881049 0.32791879770215432 0 0.6519524273377173 0.64249931920594539 0 0.69288637798153729 0.61204665218001397 0 0.71518943060973483 0.65679402931717101 0 0.35944937237716967 0.65164789808436319 0 0.38642358467307758 0.69286258923597266 0 0.34270280102445921 0.71672416762035873 0 0.6424993192059415 0.3480475726622802 0 0.61204665218000809 0.30711362201846659 0 0.65679402931716913 0.28481056939027388 0 0.34804757266227387 0.35750068079406011 0 0.30597655500381687 0.3934681685211931 0 0.28473805236128291 0.34355768118673757 0 0.66919832404887702 0.81820888699730587 0 0.66923299355723143 0.8804077449518628 0 0.63969251517836323 0.84598529912890386 0 0.70085728320704077 0.84350379029875056 0 0.66923299355723143 0.8804077449518628 0 0.66919832404887702 0.81820888699730587 0 0.1817911130026923 0.66919832404888702 0 0.1195922550481313 0.66923299355722787 0 0.1540147008710982 0.63969251517836956 0 0.1564962097012354 0.70085728320703999 0 0.1195922550481313 0.66923299355722787 0 0.1817911130026923 0.66919832404888702 0 0.8182088869973061 0.33080167595111531 0 0.88040774495187946 0.33076700644278889 0 0.84598529912889664 0.36030748482164038 0 0.84350379029877964 0.29914271679296989 0 0.88040774495187946 0.33076700644278889 0 0.8182088869973061 0.33080167595111531 0 0.33080167595110582 0.18179111300269291 0 0.33076700644279272 0.1195922550481146 0 0.3603074848216346 0.15401470087110539 0 0.29914271679297122 0.15649620970120659 0 0.33076700644279272 0.1195922550481146 0 0.33080167595110582 0.18179111300269291 0 0.49189101320880302 0.59024331187324797 0 0.51172471858873747 0.64015771271794875 0 0.45517457031814612 0.62743100079604397 0 0.54901591374940373 0.42306523525165751 0 0.5047849391802508 0.40719950955717021 0 0.54715635490880632 0.37829016026862072 0 0.43590673999053309 0.90289902042279657 0 0.48758069708049379 0.89080072540186539 0 0.48669777060454272 0.93510666819646593 0 0.097100979577207341 0.43590673999053198 0 0.1091992745981364 0.48758069708049778 0 0.064893331803534807 0.48669777060454478 0 0.90289902042272274 0.56409326000946114 0 0.89079805168298443 0.51242544533572376 0 0.93510666819640953 0.51330222939551939 0 0.56409326000946236 0.097100979577281268 0 0.51241930291950477 0.1091992745981813 0 0.5133022293955174 0.064893331803591428 0 0.49189101320880302 0.59024331187324797 0 0.53542397956703913 0.60119875982347493 0 0.51172471858873747 0.64015771271794875 0 0.56566515596461675 0.63670464971409091 0 0.51172471858873747 0.64015771271794875 0 0.53542397956703913 0.60119875982347493 0 0.65773042910151891 0.073296788161472337 0 0.66251865414987876 0.1160340021949529 0 0.62160809078275991 0.1093532031139005 0 0.92670321183853355 0.65773042910151081 0 0.88396545633132484 0.6625197322180193 0 0.89064679688610338 0.6216080907827598 0 0.3422695708985129 0.92670321183858773 0 0.33748026778199908 0.88396545633134682 0 0.37839190921727062 0.89064679688614412 0 0.073296788161418117 0.34226957089850552 0 0.11603400219493119 0.33748134585014028 0 0.10935320311385981 0.37839190921727089 0 0.8289812646369813 0.82898126463698818 0 0.79422489417873421 0.79640925234634441 0 0.839908789927305 0.77106070975262608 0 0.17101873536300011 0.82898126463696109 0 0.20359074765364421 0.79422489417871855 0 0.22893929024737289 0.83990878992727813 0 0.83199780613337848 0.1690131600686714 0 0.80027482104603809 0.20596721135052129 0 0.77216325087772952 0.15899695163319821 0 0.16901316006868169 0.16800219386663079 0 0.20596721135052939 0.19972517895396219 0 0.15899695163321451 0.22783674912227669 0 0.84598529912884157 0.63969251517827153 0 0.80847852346122429 0.67208120229789559 0 0.8028306815476034 0.61296984760642026 0 0.36030748482174152 0.84598529912882459 0 0.32791879770213411 0.80847852346120164 0 0.38703015239361932 0.80283068154761972 0 0.63969251517826664 0.15401470087115929 0 0.67208120229787616 0.1915214765387884 0 0.61296984760641449 0.19716931845240021 0 0.15401470087117619 0.36030748482174652 0 0.19152147653881049 0.32791879770215432 0 0.197169318452384 0.38703015239362498 0 0.61233489393901674 0.60846740003560018 0 0.61866949026800744 0.55492322767366287 0 0.65501639383771026 0.594528181397324 0 0.74198804864688339 0.90892718720327403 0 0.78020430794084783 0.88768307197553598 0 0.77688977118331393 0.94706199857866258 0 0.091072812796719582 0.74198804864687795 0 0.11231692802445629 0.78020430794084028 0 0.052938001421335763 0.77688977118331159 0 0.81709574086843206 0.91318696080656769 0 0.77688977118331393 0.94706199857866258 0 0.78020430794084783 0.88768307197553598 0 0.086813039193431391 0.81709574086842884 0 0.052938001421335763 0.77688977118331159 0 0.11231692802445629 0.78020430794084028 0 0.73982803480991577 0.79629608696991705 0 0.79422489417873421 0.79640925234634441 0 0.78284912262770068 0.83746308049763585 0 0.8289812646369813 0.82898126463698818 0 0.78284912262770068 0.83746308049763585 0 0.79422489417873421 0.79640925234634441 0 0.20370391303007401 0.73982803480989479 0 0.20359074765364421 0.79422489417871855 0 0.16253691950235041 0.78284912262768558 0 0.17101873536300011 0.82898126463696109 0 0.16253691950235041 0.78284912262768558 0 0.20359074765364421 0.79422489417871855 0 0.79629608696994103 0.26017196519011448 0 0.80027482104603809 0.20596721135052129 0 0.84534053180161173 0.2262639405833009 0 0.83199780613337848 0.1690131600686714 0 0.84534053180161173 0.2262639405833009 0 0.80027482104603809 0.20596721135052129 0 0.26017196519013502 0.20370391303005 0 0.20596721135052939 0.19972517895396219 0 0.22626394058331961 0.15465946819838111 0 0.16901316006868169 0.16800219386663079 0 0.22626394058331961 0.15465946819838111 0 0.20596721135052939 0.19972517895396219 0 0.90045039720880915 0.9020090423547924 0 0.94156647488775558 0.94156647488774259 0 0.90554214442080472 0.95994154153067524 0 0.90082758526900886 0.098076845682916511 0 0.94156647488778256 0.058433525112256718 0 0.95994154153057998 0.094457855579277675 0 0.90082758526900886 0.098076845682916511 0 0.90554214442081604 0.040058458469347469 0 0.94156647488778256 0.058433525112256718 0 0.097990957645208238 0.90045039720880915 0 0.058433525112254137 0.94156647488774581 0 0.040058458469322648 0.90554214442079806 0 0.90045039720880915 0.9020090423547924 0 0.95994154153065969 0.90554214442078618 0 0.94156647488775558 0.94156647488774259 0 0.098076845682915317 0.099172414730993488 0 0.058433525112266523 0.058433525112214509 0 0.094457855579284614 0.040058458469418363 0 0.098076845682915317 0.099172414730993488 0 0.040058458469319477 0.094457855579157729 0 0.058433525112266523 0.058433525112214509 0 0.097990957645208238 0.90045039720880915 0 0.094457855579188163 0.95994154153068711 0 0.058433525112254137 0.94156647488774581 0 0.90289902042272274 0.56409326000946114 0 0.93946948561981514 0.60485373571037115 0 0.89064679688610338 0.6216080907827598 0 0.43590673999053309 0.90289902042279657 0 0.39514626428973221 0.93946948561985189 0 0.37839190921727062 0.89064679688614412 0 0.56409326000946236 0.097100979577281268 0 0.6048537357103756 0.060530514380187868 0 0.62160809078275991 0.1093532031139005 0 0.097100979577207341 0.43590673999053198 0 0.06053051438015096 0.39514626428972788 0 0.10935320311385981 0.37839190921727089 0 0.6519524273377173 0.64249931920594539 0 0.64518564541690571 0.69601563325001548 0 0.60879112811253555 0.66592422311595834 0 0.35944937237716967 0.65164789808436319 0 0.30421635384321521 0.64514939193436716 0 0.33231497408081678 0.60779218732873663 0 0.6424993192059415 0.3480475726622802 0 0.69601563325001248 0.35481435458309712 0 0.66346942254826746 0.391530810754116 0 0.34804757266227387 0.35750068079406011 0 0.35481435458309307 0.30398436674998969 0 0.39120887188745579 0.33407577688404289 0 1 0.5499999999988151 0 1 0.59999999999894682 0 0.95638719633882641 0.5599388881718611 0 0.5499999999988151 0 0 0.59999999999894682 0 0 0.55993888817186677 0.043612803661174412 0 0.45000000000187229 1 0 0.40000000000166441 1 0 0.44006111182840962 0.9563871963389079 0 0 0.45000000000187229 0 0 0.40000000000166441 0 0.043612803661092707 0.44006111182840391 0 1 0.049999999999899652 0 0.95994154153057998 0.094457855579277675 0 0.94156647488778256 0.058433525112256718 0 0.049999999999899652 0 0 0.094457855579284614 0.040058458469418363 0 0.058433525112266523 0.058433525112214509 0 0.94999999999986839 0 0 0.94156647488778256 0.058433525112256718 0 0.90554214442081604 0.040058458469347469 0 1 0.94999999999986839 0 0.94156647488775558 0.94156647488774259 0 0.95994154153065969 0.90554214442078618 0 0.94999999999979179 1 0 0.90554214442080472 0.95994154153067524 0 0.94156647488775558 0.94156647488774259 0 0 0.94999999999979179 0 0.040058458469322648 0.90554214442079806 0 0.058433525112254137 0.94156647488774581 0 0 0.050000000000207989 0 0.058433525112266523 0.058433525112214509 0 0.040058458469319477 0.094457855579157729 0 0.050000000000207989 1 0 0.058433525112254137 0.94156647488774581 0 0.094457855579188163 0.95994154153068711 0 0.55000000000173355 1 0 0.55307204985744796 0.94819812235491685 0 0.5931441817276254 0.95886012268751675 0 0 0.55000000000173355 0 0.051801877645083663 0.55307204985745195 0 0.041139877312483641 0.59314418172763017 0 1 0.44999999999882923 0 0.94812782820415209 0.44708943904932719 0 0.95886012268748921 0.4068558182724159 0 0.44999999999882923 0 0 0.44692795014265252 0.051801877645060238 0 0.40685581827241191 0.041139877312511682 0 0.83199780613337848 0.1690131600686714 0 0.77216325087772952 0.15899695163319821 0 0.8110316677333288 0.125875177082863 0 0.16901316006868169 0.16800219386663079 0 0.15899695163321451 0.22783674912227669 0 0.12587517708284679 0.1889683322666954 0 0.73982803480991577 0.79629608696991705 0 0.74154628962857594 0.86274820500026039 0 0.70085728320704077 0.84350379029875056 0 0.20370391303007401 0.73982803480989479 0 0.13725179499972981 0.74154628962856628 0 0.1564962097012354 0.70085728320703999 0 0.79629608696994103 0.26017196519011448 0 0.85389826602741015 0.26318949769600392 0 0.84350379029877964 0.29914271679296989 0 0.26017196519013502 0.20370391303005 0 0.26318949769601319 0.14610173397257309 0 0.29914271679297122 0.15649620970120659 0 0.53432142347292233 0.88563193847251998 0 0.48758069708049379 0.89080072540186539 0 0.49771727055908782 0.83998685797641781 0 0.1143680615274819 0.53432142347292733 0 0.1091992745981364 0.48758069708049778 0 0.16001314202358469 0.49771727055909287 0 0.88561059063756964 0.46572761956237563 0 0.89079805168298443 0.51242544533572376 0 0.83998574657308889 0.50228528270184081 0 0.46567857652706018 0.1143680615275231 0 0.51241930291950477 0.1091992745981813 0 0.50228272944093777 0.16001314202359701 0 0.1104775404132264 0.2631175359816938 0 0.099492119481027347 0.30746398533281638 0 0.053730171687646627 0.28825077189828552 0 0.26305414557470391 0.88949062093136155 0 0.30738136326657722 0.90051880305435028 0 0.28790752038294382 0.94635952848702642 0 0.73688246401832591 0.11047754041323141 0 0.69253601466723103 0.09949211948105087 0 0.71174922810186925 0.053730171687687178 0 0.88949062093135778 0.73694585442531257 0 0.90051880305432697 0.69261863673346957 0 0.94635952848698612 0.71209247961721311 0 0.77998481823117694 0.71397317153691997 0 0.76395804595204597 0.67808171673060369 0 0.80847852346122429 0.67208120229789559 0 0.28602682846308641 0.77998481823117594 0 0.32191828326940508 0.76395804595204586 0 0.32791879770213411 0.80847852346120164 0 0.71397317153692708 0.22001518176882201 0 0.67808171673060202 0.23604195404795861 0 0.67208120229787616 0.1915214765387884 0 0.22001518176882229 0.28602682846307981 0 0.2360419540479583 0.32191828326940741 0 0.19152147653881049 0.32791879770215432 0 0.8289812646369813 0.82898126463698818 0 0.839908789927305 0.77106070975262608 0 0.87660297360393757 0.8104127896505644 0 0.17101873536300011 0.82898126463696109 0 0.22893929024737289 0.83990878992727813 0 0.18958721034944021 0.87660297360394568 0 0.66548584431530877 0.55616712808283064 0 0.64455163611866495 0.50369301794551069 0 0.69798396601998558 0.5289734597937793 0 0.70015119067225129 0.48481914991727459 0 0.69798396601998558 0.5289734597937793 0 0.64455163611866495 0.50369301794551069 0 0.77998481823117694 0.71397317153691997 0 0.73984939806388494 0.70740600291923139 0 0.76395804595204597 0.67808171673060369 0 0.28602682846308641 0.77998481823117594 0 0.2925512105451914 0.73997990291173188 0 0.32191828326940508 0.76395804595204586 0 0.71397317153692708 0.22001518176882201 0 0.70740600291923772 0.26015060193611528 0 0.67808171673060202 0.23604195404795861 0 0.22001518176882229 0.28602682846307981 0 0.26014443552207939 0.29262390443653519 0 0.2360419540479583 0.32191828326940741 0 0.90045039720880915 0.9020090423547924 0 0.90554214442080472 0.95994154153067524 0 0.86696410734367158 0.94753096683315619 0 0.097990957645208238 0.90045039720880915 0 0.040058458469322648 0.90554214442079806 0 0.052469033166843738 0.86696410734366991 0 0.90082758526900886 0.098076845682916511 0 0.95994154153057998 0.094457855579277675 0 0.94100406608115506 0.1383574446607955 0 0.90045039720880915 0.9020090423547924 0 0.94095916274074942 0.86165278010542579 0 0.95994154153065969 0.90554214442078618 0 0.90082758526900886 0.098076845682916511 0 0.86589314360155567 0.054872692726639853 0 0.90554214442081604 0.040058458469347469 0 0.098076845682915317 0.099172414730993488 0 0.094457855579284614 0.040058458469418363 0 0.1383574446607988 0.058995933918849157 0 0.097990957645208238 0.90045039720880915 0 0.13834721989462789 0.94095916274077984 0 0.094457855579188163 0.95994154153068711 0 0.098076845682915317 0.099172414730993488 0 0.054872692726595548 0.13410685639845171 0 0.040058458469319477 0.094457855579157729 0 0.54901591374940373 0.42306523525165751 0 0.54715635490880632 0.37829016026862072 0 0.60122390529523662 0.39097801071820221 0 0.49854341599767982 0.37075914768127122 0 0.54715635490880632 0.37829016026862072 0 0.5047849391802508 0.40719950955717021 0 0.66548584431530877 0.55616712808283064 0 0.65501639383771026 0.594528181397324 0 0.61866949026800744 0.55492322767366287 0 0.50000000000002642 0.7803135888501761 0 0.49771727055908782 0.83998685797641781 0 0.46593838964869061 0.80781872835503554 0 0.2196864111498267 0.50000000000003153 0 0.16001314202358469 0.49771727055909287 0 0.19218127164496679 0.46593838964869538 0 0.78031358885017377 0.49999999999997569 0 0.83998574657308889 0.50228528270184081 0 0.80781854240107975 0.53406203754901738 0 0.49999999999997108 0.21968641114982909 0 0.50228272944093777 0.16001314202359701 0 0.53404982287327418 0.19215288291432539 0 0.70085728320704077 0.84350379029875056 0 0.74154628962857594 0.86274820500026039 0 0.70475631558365914 0.90098127745102974 0 0.1564962097012354 0.70085728320703999 0 0.13725179499972981 0.74154628962856628 0 0.099018722548963364 0.70475631558365193 0 0.84350379029877964 0.29914271679296989 0 0.85389826602741015 0.26318949769600392 0 0.89886191075654698 0.29506339503703172 0 0.29914271679297122 0.15649620970120659 0 0.26318949769601319 0.14610173397257309 0 0.29506339503703888 0.1011380892434444 0 0.74417394063200648 0.6049203001048884 0 0.71518943060973483 0.65679402931717101 0 0.69288637798153729 0.61204665218001397 0 0.39507969989512881 0.74417394063201048 0 0.34270280102445921 0.71672416762035873 0 0.38642358467307758 0.69286258923597266 0 0.60492030010488373 0.25582605936799729 0 0.65679402931716913 0.28481056939027388 0 0.61204665218000809 0.30711362201846659 0 0.25582605936799319 0.39507969989513358 0 0.28473805236128291 0.34355768118673757 0 0.30597655500381687 0.3934681685211931 0 0.88949062093135778 0.73694585442531257 0 0.839908789927305 0.77106070975262608 0 0.8312019486901514 0.72745002167959472 0 0.73688246401832591 0.11047754041323141 0 0.77216325087772952 0.15899695163319821 0 0.72767516840721058 0.16853767177393791 0 0.26305414557470391 0.88949062093136155 0 0.22893929024737289 0.83990878992727813 0 0.27254997832041528 0.8312019486901443 0 0.1104775404132264 0.2631175359816938 0 0.15899695163321451 0.22783674912227669 0 0.1685376717739448 0.27232483159280108 0 0.61233489393901674 0.60846740003560018 0 0.57484409313590223 0.58437321637184114 0 0.61866949026800744 0.55492322767366287 0 0.43565339604028508 0.55159384357101338 0 0.39982789553993509 0.53462762214740622 0 0.45293656999117771 0.51494832297079129 0 0.41009598069569558 0.49083935749285379 0 0.45293656999117771 0.51494832297079129 0 0.39982789553993509 0.53462762214740622 0 0.4434591735942961 0.66641640622551224 0 0.40564717507982689 0.65626423320524974 0 0.45517457031814612 0.62743100079604397 0 0.40653508887824003 0.61580573377480397 0 0.45517457031814612 0.62743100079604397 0 0.40564717507982689 0.65626423320524974 0 0.89586000931544074 0.25714619498770419 0 0.84534053180161173 0.2262639405833009 0 0.89556054516486661 0.21720615046483649 0 0.25714619498771307 0.1041399906845497 0 0.22626394058331961 0.15465946819838111 0 0.21720615046484709 0.1044394548351292 0 0.41009598069569558 0.49083935749285379 0 0.35815651743779398 0.51113440447909086 0 0.37702386074717259 0.45819417564476811 0 0.75000000000034661 1 0 0.71789175274016548 0.95136708251202151 0 0.77688977118331393 0.94706199857866258 0 0 0.75000000000034661 0 0.04863291748797445 0.71789175274016204 0 0.052938001421335763 0.77688977118331159 0 1 0.24999999999941211 0 0.94915666091748963 0.28320804985299752 0 0.94465622530468663 0.23167460333446291 0 0.24999999999941211 0 0 0.28320804985300141 0.050843339082505573 0 0.23167460333446299 0.05534377469531044 0 0.90289902042272274 0.56409326000946114 0 0.95638719633882641 0.5599388881718611 0 0.93946948561981514 0.60485373571037115 0 0.56409326000946236 0.097100979577281268 0 0.55993888817186677 0.043612803661174412 0 0.6048537357103756 0.060530514380187868 0 0.43590673999053309 0.90289902042279657 0 0.44006111182840962 0.9563871963389079 0 0.39514626428973221 0.93946948561985189 0 0.097100979577207341 0.43590673999053198 0 0.043612803661092707 0.44006111182840391 0 0.06053051438015096 0.39514626428972788 0 0.40653508887824003 0.61580573377480397 0 0.40468198875170619 0.57637931869191572 0 0.45030222762303879 0.58443295115431027 0 0.43301393728221038 0.35984320557492139 0 0.43059486795334201 0.30395973419063538 0 0.47253211736503098 0.34081710830804929 0 0.48378871228000903 0.29745177826977359 0 0.47253211736503098 0.34081710830804929 0 0.43059486795334201 0.30395973419063538 0 0.65000000000104008 1 0 0.60000000000138687 1 0 0.63753756910470316 0.95578163339252209 0 0 0.65000000000104008 0 0 0.60000000000138687 0 0.04421836660747535 0.63753756910470205 0 1 0.34999999999912063 0 1 0.3999999999989749 0 0.95581270756939096 0.36248656652865863 0 0.34999999999912063 0 0 0.3999999999989749 0 0 0.36246243089534252 0.044218366607477223 0 0.73982803480991577 0.79629608696991705 0 0.74917861927654894 0.74229989257760443 0 0.78651189793386345 0.75664155808652755 0 0.20370391303007401 0.73982803480989479 0 0.25770010742238642 0.74917861927655205 0 0.24335844191347281 0.78651189793387466 0 0.79629608696994103 0.26017196519011448 0 0.74229989257762263 0.250821380723454 0 0.7582555232258138 0.2115548431873896 0 0.26017196519013502 0.20370391303005 0 0.25082138072344978 0.25770010742236849 0 0.2115548431873881 0.2417444767741872 0 1 0.049999999999899652 0 0.94156647488778256 0.058433525112256718 0 0.96763014295114425 0.032369857048773903 0 0.049999999999899652 0 0 0.058433525112266523 0.058433525112214509 0 0.032369857048753323 0.032369857048862027 0 0.94999999999986839 0 0 0.96763014295114425 0.032369857048773903 0 0.94156647488778256 0.058433525112256718 0 0 0.050000000000207989 0 0.032369857048753323 0.032369857048862027 0 0.058433525112266523 0.058433525112214509 0 1 0.94999999999986839 0 0.96763014295120153 0.96763014295122851 0 0.94156647488775558 0.94156647488774259 0 0.94999999999979179 1 0 0.94156647488775558 0.94156647488774259 0 0.96763014295120153 0.96763014295122851 0 0.050000000000207989 1 0 0.030452409610489669 0.96954759038951022 0 0.058433525112254137 0.94156647488774581 0 0 0.94999999999979179 0 0.058433525112254137 0.94156647488774581 0 0.030452409610489669 0.96954759038951022 0 0.90045039720880915 0.9020090423547924 0 0.88962265630811221 0.85311725681459705 0 0.94095916274074942 0.86165278010542579 0 0.097990957645208238 0.90045039720880915 0 0.14688274318541941 0.88962265630811932 0 0.13834721989462789 0.94095916274077984 0 0.91838802593884228 0.81827409710237209 0 0.94095916274074942 0.86165278010542579 0 0.88962265630811221 0.85311725681459705 0 0.91838802593870927 0.18172590289757809 0 0.88777909259956078 0.1484760565886154 0 0.94100406608115506 0.1383574446607955 0 0.1817259028976386 0.91838802593888857 0 0.13834721989462789 0.94095916274077984 0 0.14688274318541941 0.88962265630811932 0 0.18172590289758209 0.08161197406129285 0 0.1484760565886207 0.1122209074004519 0 0.1383574446607988 0.058995933918849157 0 0.90082758526900886 0.098076845682916511 0 0.94100406608115506 0.1383574446607955 0 0.88777909259956078 0.1484760565886154 0 0.098076845682915317 0.099172414730993488 0 0.1383574446607988 0.058995933918849157 0 0.1484760565886207 0.1122209074004519 0 0.57387636360620708 0.54318431390135336 0 0.61866949026800744 0.55492322767366287 0 0.57484409313590223 0.58437321637184114 0 0.60122390529523662 0.39097801071820221 0 0.54715635490880632 0.37829016026862072 0 0.59596170682035776 0.34609402305862419 0 0.38703015239361932 0.80283068154761972 0 0.32791879770213411 0.80847852346120164 0 0.35837423432538362 0.77730446904312345 0 0.8028306815476034 0.61296984760642026 0 0.80847852346122429 0.67208120229789559 0 0.77730446904309636 0.64162576567462737 0 0.197169318452384 0.38703015239362498 0 0.19152147653881049 0.32791879770215432 0 0.22269553095687891 0.35837423432538801 0 0.61296984760641449 0.19716931845240021 0 0.67208120229787616 0.1915214765387884 0 0.64162576567462404 0.22269553095690481 0 0.39419886675318527 0.41912225240070788 0 0.37702386074717259 0.45819417564476811 0 0.35481422397128459 0.40312981465069342 0 0.33382663527330159 0.44130125047503482 0 0.35481422397128459 0.40312981465069342 0 0.37702386074717259 0.45819417564476811 0 0.40653508887824003 0.61580573377480397 0 0.40564717507982689 0.65626423320524974 0 0.35944937237716967 0.65164789808436319 0 0.53432142347292233 0.88563193847251998 0 0.49771727055908782 0.83998685797641781 0 0.54047998161173716 0.84333512669480526 0 0.1143680615274819 0.53432142347292733 0 0.16001314202358469 0.49771727055909287 0 0.1566648733051971 0.54047998161174216 0 0.88561059063756964 0.46572761956237563 0 0.83998574657308889 0.50228528270184081 0 0.84333218736938698 0.4595365182652234 0 0.46567857652706018 0.1143680615275231 0 0.50228272944093777 0.16001314202359701 0 0.45952001838826873 0.15666487330524251 0 0.37104651296145419 0.60545170748311072 0 0.40653508887824003 0.61580573377480397 0 0.35944937237716967 0.65164789808436319 0 0.6519524273377173 0.64249931920594539 0 0.71518943060973483 0.65679402931717101 0 0.6768914574865772 0.67861120078714243 0 0.35944937237716967 0.65164789808436319 0 0.34270280102445921 0.71672416762035873 0 0.32259853082073792 0.67670072609835186 0 0.6424993192059415 0.3480475726622802 0 0.65679402931716913 0.28481056939027388 0 0.6786112007871401 0.32310854251343019 0 0.34804757266227387 0.35750068079406011 0 0.28473805236128291 0.34355768118673757 0 0.3231032570156932 0.32141443408924047 0 0.73982803480991577 0.79629608696991705 0 0.70085728320704077 0.84350379029875056 0 0.69892030930712212 0.7971997999085858 0 0.20370391303007401 0.73982803480989479 0 0.1564962097012354 0.70085728320703999 0 0.2028002000914135 0.69892030930711557 0 0.79629608696994103 0.26017196519011448 0 0.84350379029877964 0.29914271679296989 0 0.7971997999085878 0.3010796906928917 0 0.26017196519013502 0.20370391303005 0 0.29914271679297122 0.15649620970120659 0 0.30107969069289831 0.20280020009141189 0 0.43301393728221038 0.35984320557492139 0 0.42930823106401639 0.40626685012722968 0 0.39222057657781068 0.38067796690227418 0 0.73982803480991577 0.79629608696991705 0 0.78284912262770068 0.83746308049763585 0 0.74154628962857594 0.86274820500026039 0 0.20370391303007401 0.73982803480989479 0 0.16253691950235041 0.78284912262768558 0 0.13725179499972981 0.74154628962856628 0 0.79629608696994103 0.26017196519011448 0 0.84534053180161173 0.2262639405833009 0 0.85389826602741015 0.26318949769600392 0 0.26017196519013502 0.20370391303005 0 0.22626394058331961 0.15465946819838111 0 0.26318949769601319 0.14610173397257309 0 0.56566515596461675 0.63670464971409091 0 0.57484409313590223 0.58437321637184114 0 0.61233489393901674 0.60846740003560018 0 0.84598529912884157 0.63969251517827153 0 0.85607519768343354 0.69380468830529196 0 0.80847852346122429 0.67208120229789559 0 0.63969251517826664 0.15401470087115929 0 0.69379929796456197 0.14392209494791061 0 0.67208120229787616 0.1915214765387884 0 0.36030748482174152 0.84598529912882459 0 0.30619531169472608 0.85607519768342955 0 0.32791879770213411 0.80847852346120164 0 0.15401470087117619 0.36030748482174652 0 0.14392209494791439 0.30620070203545702 0 0.19152147653881049 0.32791879770215432 0 0.20370391303007401 0.73982803480989479 0 0.24335844191347281 0.78651189793387466 0 0.20359074765364421 0.79422489417871855 0 0.73982803480991577 0.79629608696991705 0 0.78651189793386345 0.75664155808652755 0 0.79422489417873421 0.79640925234634441 0 0.26017196519013502 0.20370391303005 0 0.2115548431873881 0.2417444767741872 0 0.20596721135052939 0.19972517895396219 0 0.79629608696994103 0.26017196519011448 0 0.7582555232258138 0.2115548431873896 0 0.80027482104603809 0.20596721135052129 0 0.51172471858873747 0.64015771271794875 0 0.47818752133962877 0.66454462905280853 0 0.45517457031814612 0.62743100079604397 0 0.54901591374940373 0.42306523525165751 0 0.60122390529523662 0.39097801071820221 0 0.59313386551587477 0.43977047843653239 0 0.640156794425081 0.43301393728221721 0 0.59313386551587477 0.43977047843653239 0 0.60122390529523662 0.39097801071820221 0 0.70252050881959183 0.70358884261915833 0 0.71518943060973483 0.65679402931717101 0 0.73984939806388494 0.70740600291923139 0 0.29641115738084339 0.70252050881958938 0 0.34270280102445921 0.71672416762035873 0 0.2925512105451914 0.73997990291173188 0 0.76395804595204597 0.67808171673060369 0 0.73984939806388494 0.70740600291923139 0 0.71518943060973483 0.65679402931717101 0 0.32191828326940508 0.76395804595204586 0 0.2925512105451914 0.73997990291173188 0 0.34270280102445921 0.71672416762035873 0 0.70358884261915744 0.29747949118041561 0 0.65679402931716913 0.28481056939027388 0 0.70740600291923772 0.26015060193611528 0 0.29747949118041711 0.2964111573808435 0 0.28473805236128291 0.34355768118673757 0 0.26014443552207939 0.29262390443653519 0 0.67808171673060202 0.23604195404795861 0 0.70740600291923772 0.26015060193611528 0 0.65679402931716913 0.28481056939027388 0 0.2360419540479583 0.32191828326940741 0 0.26014443552207939 0.29262390443653519 0 0.28473805236128291 0.34355768118673757 0 0.74198804864688339 0.90892718720327403 0 0.70475631558365914 0.90098127745102974 0 0.74154628962857594 0.86274820500026039 0 0.091072812796719582 0.74198804864687795 0 0.099018722548963364 0.70475631558365193 0 0.13725179499972981 0.74154628962856628 0 0.89586000931544074 0.25714619498770419 0 0.89886191075654698 0.29506339503703172 0 0.85389826602741015 0.26318949769600392 0 0.25714619498771307 0.1041399906845497 0 0.29506339503703888 0.1011380892434444 0 0.26318949769601319 0.14610173397257309 0 0.59819537371016407 0.74380966024143391 0 0.64203711532612107 0.74316477213290444 0 0.61896574319320252 0.795216048370321 0 0.66820316019503978 0.77769800602796979 0 0.61896574319320252 0.795216048370321 0 0.64203711532612107 0.74316477213290444 0 0.25619033975856881 0.59819537371016862 0 0.25684529255773247 0.64203554247963057 0 0.2047839516296828 0.61896574319320252 0 0.22230199397202771 0.66820316019503168 0 0.2047839516296828 0.61896574319320252 0 0.25684529255773247 0.64203554247963057 0 0.74380966024142703 0.40180462628984132 0 0.74316477213289889 0.35796288467388632 0 0.79521604837030013 0.38103425680679831 0 0.77769800602796679 0.33179683980497482 0 0.79521604837030013 0.38103425680679831 0 0.74316477213289889 0.35796288467388632 0 0.40180462628983732 0.2561903397585753 0 0.3579628846738841 0.25683522786710378 0 0.38103425680679859 0.2047839516297037 0 0.33179683980498331 0.2223019939720311 0 0.38103425680679859 0.2047839516297037 0 0.3579628846738841 0.25683522786710378 0 0.92670321183853355 0.65773042910151081 0 0.93946948561981514 0.60485373571037115 0 0.96654491682122368 0.6363613838740827 0 0.65773042910151891 0.073296788161472337 0 0.6048537357103756 0.060530514380187868 0 0.63635157668793507 0.033457646040912177 0 0.3422695708985129 0.92670321183858773 0 0.39514626428973221 0.93946948561985189 0 0.36363861612613613 0.96654491682121313 0 0.073296788161418117 0.34226957089850552 0 0.06053051438015096 0.39514626428972788 0 0.033457646040922301 0.36364842331228431 0 0.6519524273377173 0.64249931920594539 0 0.6768914574865772 0.67861120078714243 0 0.64518564541690571 0.69601563325001548 0 0.35944937237716967 0.65164789808436319 0 0.32259853082073792 0.67670072609835186 0 0.30421635384321521 0.64514939193436716 0 0.6424993192059415 0.3480475726622802 0 0.6786112007871401 0.32310854251343019 0 0.69601563325001248 0.35481435458309712 0 0.34804757266227387 0.35750068079406011 0 0.3231032570156932 0.32141443408924047 0 0.35481435458309307 0.30398436674998969 0 0.73982803480991577 0.79629608696991705 0 0.71159714897733284 0.75039044679290845 0 0.74917861927654894 0.74229989257760443 0 0.20370391303007401 0.73982803480989479 0 0.249609553207091 0.71159714897732929 0 0.25770010742238642 0.74917861927655205 0 0.79629608696994103 0.26017196519011448 0 0.75039044679291111 0.28840285102267788 0 0.74229989257762263 0.250821380723454 0 0.26017196519013502 0.20370391303005 0 0.28840285102268098 0.24960955320708811 0 0.25082138072344978 0.25770010742236849 0 0.43565339604028508 0.55159384357101338 0 0.45030222762303879 0.58443295115431027 0 0.40468198875170619 0.57637931869191572 0 0.3999999999989749 0 0 0.44999999999882923 0 0 0.40685581827241191 0.041139877312511682 0 1 0.3999999999989749 0 1 0.44999999999882923 0 0.95886012268748921 0.4068558182724159 0 0 0.60000000000138687 0 0 0.55000000000173355 0 0.041139877312483641 0.59314418172763017 0 0.60000000000138687 1 0 0.55000000000173355 1 0 0.5931441817276254 0.95886012268751675 0 1 0.049999999999899652 0 1 0.099999999999814668 0 0.95994154153057998 0.094457855579277675 0 0.049999999999899652 0 0 0.099999999999814668 0 0 0.094457855579284614 0.040058458469418363 0 0.94999999999979179 1 0 0.89999999999958358 1 0 0.90554214442080472 0.95994154153067524 0 0 0.94999999999979179 0 0 0.89999999999958358 0 0.040058458469322648 0.90554214442079806 0 1 0.89999999999973679 0 1 0.94999999999986839 0 0.95994154153065969 0.90554214442078618 0 0.89999999999973679 0 0 0.94999999999986839 0 0 0.90554214442081604 0.040058458469347469 0 0.10000000000041601 1 0 0.050000000000207989 1 0 0.094457855579188163 0.95994154153068711 0 0 0.10000000000041601 0 0 0.050000000000207989 0 0.040058458469319477 0.094457855579157729 0 0.88949062093135778 0.73694585442531257 0 0.8312019486901514 0.72745002167959472 0 0.85607519768343354 0.69380468830529196 0 0.73688246401832591 0.11047754041323141 0 0.72767516840721058 0.16853767177393791 0 0.69379929796456197 0.14392209494791061 0 0.26305414557470391 0.88949062093136155 0 0.27254997832041528 0.8312019486901443 0 0.30619531169472608 0.85607519768342955 0 0.1104775404132264 0.2631175359816938 0 0.1685376717739448 0.27232483159280108 0 0.14392209494791439 0.30620070203545702 0 0.51484304721220842 0.69707233951836334 0 0.54465502325161819 0.74717983044080061 0 0.49073113440598592 0.73759004618730417 0 0.30292766048163949 0.51484304721221474 0 0.25287139441262568 0.54458355434492378 0 0.262418491288269 0.49071922292154141 0 0.70015119067225129 0.48481914991727459 0 0.74730218607442667 0.45539100053644521 0 0.73815142352639962 0.50697050072007344 0 0.48378871228000903 0.29745177826977359 0 0.45533136021725079 0.2525687312087147 0 0.50732841191799194 0.2613117081243182 0 0.66548584431530877 0.55616712808283064 0 0.61866949026800744 0.55492322767366287 0 0.64455163611866495 0.50369301794551069 0 0.5586987495249669 0.33382663527330653 0 0.59596170682035776 0.34609402305862419 0 0.54715635490880632 0.37829016026862072 0 0.41009598069569558 0.49083935749285379 0 0.42340342337193693 0.44762131874855388 0 0.46152714345798918 0.47344359412352599 0 0.63969251517836323 0.84598529912890386 0 0.61896574319320252 0.795216048370321 0 0.66919832404887702 0.81820888699730587 0 0.1540147008710982 0.63969251517836956 0 0.2047839516296828 0.61896574319320252 0 0.1817911130026923 0.66919832404888702 0 0.84598529912889664 0.36030748482164038 0 0.79521604837030013 0.38103425680679831 0 0.8182088869973061 0.33080167595111531 0 0.3603074848216346 0.15401470087110539 0 0.38103425680679859 0.2047839516297037 0 0.33080167595110582 0.18179111300269291 0 0.60000000000138687 1 0 0.5931441817276254 0.95886012268751675 0 0.63753756910470316 0.95578163339252209 0 0 0.60000000000138687 0 0.041139877312483641 0.59314418172763017 0 0.04421836660747535 0.63753756910470205 0 1 0.3999999999989749 0 0.95886012268748921 0.4068558182724159 0 0.95581270756939096 0.36248656652865863 0 0.3999999999989749 0 0 0.40685581827241191 0.041139877312511682 0 0.36246243089534252 0.044218366607477223 0 0.6519524273377173 0.64249931920594539 0 0.61233489393901674 0.60846740003560018 0 0.65501639383771026 0.594528181397324 0 0.6424993192059415 0.3480475726622802 0 0.60122390529523662 0.39097801071820221 0 0.59596170682035776 0.34609402305862419 0 0.56566515596461675 0.63670464971409091 0 0.60879112811253555 0.66592422311595834 0 0.57051182622447827 0.69668652018496713 0 0.35984320557492089 0.56698606271778873 0 0.33231497408081678 0.60779218732873663 0 0.30429740679959738 0.56913905146460098 0 0.640156794425081 0.43301393728221721 0 0.66346942254826746 0.391530810754116 0 0.69595787604187809 0.43071000156707989 0 0.43301393728221038 0.35984320557492139 0 0.39120887188745579 0.33407577688404289 0 0.43059486795334201 0.30395973419063538 0 0.59999999999894682 0 0 0.63635157668793507 0.033457646040912177 0 0.6048537357103756 0.060530514380187868 0 1 0.59999999999894682 0 0.96654491682122368 0.6363613838740827 0 0.93946948561981514 0.60485373571037115 0 0 0.40000000000166441 0 0.033457646040922301 0.36364842331228431 0 0.06053051438015096 0.39514626428972788 0 0.40000000000166441 1 0 0.36363861612613613 0.96654491682121313 0 0.39514626428973221 0.93946948561985189 0 0.50000000000002642 0.7803135888501761 0 0.49073113440598592 0.73759004618730417 0 0.54465502325161819 0.74717983044080061 0 0.2196864111498267 0.50000000000003153 0 0.262418491288269 0.49071922292154141 0 0.25287139441262568 0.54458355434492378 0 0.78031358885017377 0.49999999999997569 0 0.73815142352639962 0.50697050072007344 0 0.74730218607442667 0.45539100053644521 0 0.49999999999997108 0.21968641114982909 0 0.50732841191799194 0.2613117081243182 0 0.45533136021725079 0.2525687312087147 0 0.39507969989512881 0.74417394063201048 0 0.43306783640023289 0.78031198216144404 0 0.38703015239361932 0.80283068154761972 0 0.25582605936799319 0.39507969989513358 0 0.21968801783855879 0.43306783640023788 0 0.197169318452384 0.38703015239362498 0 0.74417394063200648 0.6049203001048884 0 0.78031198216143516 0.56693216359979737 0 0.8028306815476034 0.61296984760642026 0 0.60492030010488373 0.25582605936799729 0 0.56683314878414581 0.21944955250104689 0 0.61296984760641449 0.19716931845240021 0 0.77998481823117694 0.71397317153691997 0 0.74917861927654894 0.74229989257760443 0 0.73984939806388494 0.70740600291923139 0 0.28602682846308641 0.77998481823117594 0 0.25770010742238642 0.74917861927655205 0 0.2925512105451914 0.73997990291173188 0 0.71397317153692708 0.22001518176882201 0 0.74229989257762263 0.250821380723454 0 0.70740600291923772 0.26015060193611528 0 0.22001518176882229 0.28602682846307981 0 0.25082138072344978 0.25770010742236849 0 0.26014443552207939 0.29262390443653519 0 0.49189101320880302 0.59024331187324797 0 0.53087311892591971 0.55299263141448529 0 0.53542397956703913 0.60119875982347493 0 0.41009598069569558 0.49083935749285379 0 0.46152714345798918 0.47344359412352599 0 0.45293656999117771 0.51494832297079129 0 0.66820316019503978 0.77769800602796979 0 0.66919832404887702 0.81820888699730587 0 0.61896574319320252 0.795216048370321 0 0.22230199397202771 0.66820316019503168 0 0.1817911130026923 0.66919832404888702 0 0.2047839516296828 0.61896574319320252 0 0.77769800602796679 0.33179683980497482 0 0.8182088869973061 0.33080167595111531 0 0.79521604837030013 0.38103425680679831 0 0.33179683980498331 0.2223019939720311 0 0.33080167595110582 0.18179111300269291 0 0.38103425680679859 0.2047839516297037 0 0.83199780613337848 0.1690131600686714 0 0.87355793346388477 0.18922011052113649 0 0.84534053180161173 0.2262639405833009 0 0.16901316006868169 0.16800219386663079 0 0.18922011052115781 0.12644206653611201 0 0.22626394058331961 0.15465946819838111 0 0.58981073711177334 0.48140931020849848 0 0.62619054498681193 0.46482944251856079 0 0.64455163611866495 0.50369301794551069 0 0.59621567360238914 0.5184866806641607 0 0.58981073711177334 0.48140931020849848 0 0.64455163611866495 0.50369301794551069 0 0.53432142347292233 0.88563193847251998 0 0.54047998161173716 0.84333512669480526 0 0.58267137064684116 0.87013301365640838 0 0.56759263990989184 0.81794319034601648 0 0.58267137064684116 0.87013301365640838 0 0.54047998161173716 0.84333512669480526 0 0.1143680615274819 0.53432142347292733 0 0.1566648733051971 0.54047998161174216 0 0.12986698634359389 0.58267137064684615 0 0.18205680965398621 0.56759263990989739 0 0.12986698634359389 0.58267137064684615 0 0.1566648733051971 0.54047998161174216 0 0.88561059063756964 0.46572761956237563 0 0.84333218736938698 0.4595365182652234 0 0.87012666750595846 0.41743873185103042 0 0.81794319034597418 0.43240736009009317 0 0.87012666750595846 0.41743873185103042 0 0.84333218736938698 0.4595365182652234 0 0.46567857652706018 0.1143680615275231 0 0.45952001838826873 0.15666487330524251 0 0.41732862935313042 0.12986698634362279 0 0.43240736009008851 0.18205680965402779 0 0.41732862935313042 0.12986698634362279 0 0.45952001838826873 0.15666487330524251 0 0.70085728320704077 0.84350379029875056 0 0.70475631558365914 0.90098127745102974 0 0.66923299355723143 0.8804077449518628 0 0.1564962097012354 0.70085728320703999 0 0.099018722548963364 0.70475631558365193 0 0.1195922550481313 0.66923299355722787 0 0.84350379029877964 0.29914271679296989 0 0.89886191075654698 0.29506339503703172 0 0.88040774495187946 0.33076700644278889 0 0.29914271679297122 0.15649620970120659 0 0.29506339503703888 0.1011380892434444 0 0.33076700644279272 0.1195922550481146 0 0.839908789927305 0.77106070975262608 0 0.78651189793386345 0.75664155808652755 0 0.8312019486901514 0.72745002167959472 0 0.22893929024737289 0.83990878992727813 0 0.24335844191347281 0.78651189793387466 0 0.27254997832041528 0.8312019486901443 0 0.77216325087772952 0.15899695163319821 0 0.7582555232258138 0.2115548431873896 0 0.72767516840721058 0.16853767177393791 0 0.15899695163321451 0.22783674912227669 0 0.2115548431873881 0.2417444767741872 0 0.1685376717739448 0.27232483159280108 0 0.89586000931544074 0.25714619498770419 0 0.85389826602741015 0.26318949769600392 0 0.84534053180161173 0.2262639405833009 0 0.25714619498771307 0.1041399906845497 0 0.26318949769601319 0.14610173397257309 0 0.22626394058331961 0.15465946819838111 0 0.49771727055908782 0.83998685797641781 0 0.45353891581270822 0.85551523377818905 0 0.46593838964869061 0.80781872835503554 0 0.16001314202358469 0.49771727055909287 0 0.1444847662218138 0.45353891581271188 0 0.19218127164496679 0.46593838964869538 0 0.83998574657308889 0.50228528270184081 0 0.85551478316835361 0.54646211938695222 0 0.80781854240107975 0.53406203754901738 0 0.50228272944093777 0.16001314202359701 0 0.54646108418729233 0.1444847662218687 0 0.53404982287327418 0.19215288291432539 0 0.51484304721220842 0.69707233951836334 0 0.47818752133962877 0.66454462905280853 0 0.51172471858873747 0.64015771271794875 0 0.30292766048163949 0.51484304721221474 0 0.33436424489304489 0.47849603121740791 0 0.35815651743779398 0.51113440447909086 0 0.6027107599280892 0.83436006790502326 0 0.63969251517836323 0.84598529912890386 0 0.62483828039315681 0.8780818733396436 0 0.1656399320949789 0.60271075992809464 0 0.1540147008710982 0.63969251517836956 0 0.1219181266603569 0.62483828039315903 0 0.83436006790498052 0.39728924007189959 0 0.84598529912889664 0.36030748482164038 0 0.87815187193233801 0.37523526017134418 0 0.3972892400718947 0.16563993209502181 0 0.3603074848216346 0.15401470087110539 0 0.37516171960683908 0.121918126660369 0 0.70015119067225129 0.48481914991727459 0 0.64455163611866495 0.50369301794551069 0 0.66329969176266512 0.46626046872004567 0 0.57387636360620708 0.54318431390135336 0 0.53087311892591971 0.55299263141448529 0 0.554170140907293 0.50922353359177785 0 0.50333998054938722 0.50119715791968966 0 0.50753758205811061 0.4506562873613274 0 0.54783891860069212 0.46640164214823893 0 0.58267137064684116 0.87013301365640838 0 0.6027107599280892 0.83436006790502326 0 0.62483828039315681 0.8780818733396436 0 0.12986698634359389 0.58267137064684615 0 0.1656399320949789 0.60271075992809464 0 0.1219181266603569 0.62483828039315903 0 0.87012666750595846 0.41743873185103042 0 0.83436006790498052 0.39728924007189959 0 0.87815187193233801 0.37523526017134418 0 0.41732862935313042 0.12986698634362279 0 0.3972892400718947 0.16563993209502181 0 0.37516171960683908 0.121918126660369 0 0.35984320557492089 0.56698606271778873 0 0.35815651743779398 0.51113440447909086 0 0.39982789553993509 0.53462762214740622 0 0.43087117257049001 0.8215422551712771 0 0.46593838964869061 0.80781872835503554 0 0.45353891581270822 0.85551523377818905 0 0.17845774482872559 0.43087117257049429 0 0.19218127164496679 0.46593838964869538 0 0.1444847662218138 0.45353891581271188 0 0.8215422551712277 0.56912882742954496 0 0.80781854240107975 0.53406203754901738 0 0.85551478316835361 0.54646211938695222 0 0.56912882742954041 0.17845774482877461 0 0.53404982287327418 0.19215288291432539 0 0.54646108418729233 0.1444847662218687 0 0.89586000931544074 0.25714619498770419 0 0.89556054516486661 0.21720615046483649 0 0.94465622530468663 0.23167460333446291 0 0.91838802593870927 0.18172590289757809 0 0.94465622530468663 0.23167460333446291 0 0.89556054516486661 0.21720615046483649 0 0.25714619498771307 0.1041399906845497 0 0.21720615046484709 0.1044394548351292 0 0.23167460333446299 0.05534377469531044 0 0.18172590289758209 0.08161197406129285 0 0.23167460333446299 0.05534377469531044 0 0.21720615046484709 0.1044394548351292 0 0.50333998054938722 0.50119715791968966 0 0.54783891860069212 0.46640164214823893 0 0.554170140907293 0.50922353359177785 0 0.16901316006868169 0.16800219386663079 0 0.12587517708284679 0.1889683322666954 0 0.12294765968567151 0.14825146416195439 0 0.83199780613337848 0.1690131600686714 0 0.8110316677333288 0.125875177082863 0 0.8517485358380722 0.12294765968568611 0 0.74198804864688339 0.90892718720327403 0 0.74154628962857594 0.86274820500026039 0 0.78020430794084783 0.88768307197553598 0 0.78284912262770068 0.83746308049763585 0 0.78020430794084783 0.88768307197553598 0 0.74154628962857594 0.86274820500026039 0 0.091072812796719582 0.74198804864687795 0 0.13725179499972981 0.74154628962856628 0 0.11231692802445629 0.78020430794084028 0 0.16253691950235041 0.78284912262768558 0 0.11231692802445629 0.78020430794084028 0 0.13725179499972981 0.74154628962856628 0 0.82118136511706341 0.082875076569723011 0 0.77925951159456153 0.09969477121230251 0 0.76543419162344684 0.056452228708420968 0 0.08287507656968085 0.1788186348829835 0 0.099694771212264055 0.22074048840547039 0 0.056452228708379938 0.23456580837661581 0 0.91838802593884228 0.81827409710237209 0 0.9041449437197947 0.7786886066890556 0 0.9442075111696665 0.76777356182390766 0 0.1817259028976386 0.91838802593888857 0 0.22131139331094829 0.9041449437198319 0 0.23222643817617661 0.94420751116970569 0 0.73688246401832591 0.11047754041323141 0 0.76543419162344684 0.056452228708420968 0 0.77925951159456153 0.09969477121230251 0 0.1104775404132264 0.2631175359816938 0 0.056452228708379938 0.23456580837661581 0 0.099694771212264055 0.22074048840547039 0 0.88949062093135778 0.73694585442531257 0 0.9442075111696665 0.76777356182390766 0 0.9041449437197947 0.7786886066890556 0 0.26305414557470391 0.88949062093136155 0 0.23222643817617661 0.94420751116970569 0 0.22131139331094829 0.9041449437198319 0 0.73984939806388494 0.70740600291923139 0 0.71159714897733284 0.75039044679290845 0 0.70252050881959183 0.70358884261915833 0 0.74917861927654894 0.74229989257760443 0 0.71159714897733284 0.75039044679290845 0 0.73984939806388494 0.70740600291923139 0 0.2925512105451914 0.73997990291173188 0 0.249609553207091 0.71159714897732929 0 0.29641115738084339 0.70252050881958938 0 0.25770010742238642 0.74917861927655205 0 0.249609553207091 0.71159714897732929 0 0.2925512105451914 0.73997990291173188 0 0.70740600291923772 0.26015060193611528 0 0.75039044679291111 0.28840285102267788 0 0.70358884261915744 0.29747949118041561 0 0.74229989257762263 0.250821380723454 0 0.75039044679291111 0.28840285102267788 0 0.70740600291923772 0.26015060193611528 0 0.26014443552207939 0.29262390443653519 0 0.28840285102268098 0.24960955320708811 0 0.29747949118041711 0.2964111573808435 0 0.25082138072344978 0.25770010742236849 0 0.28840285102268098 0.24960955320708811 0 0.26014443552207939 0.29262390443653519 0 0.88949062093135778 0.73694585442531257 0 0.85607519768343354 0.69380468830529196 0 0.90051880305432697 0.69261863673346957 0 0.26305414557470391 0.88949062093136155 0 0.30619531169472608 0.85607519768342955 0 0.30738136326657722 0.90051880305435028 0 0.73688246401832591 0.11047754041323141 0 0.69379929796456197 0.14392209494791061 0 0.69253601466723103 0.09949211948105087 0 0.1104775404132264 0.2631175359816938 0 0.14392209494791439 0.30620070203545702 0 0.099492119481027347 0.30746398533281638 0 0.58981073711177334 0.48140931020849848 0 0.54783891860069212 0.46640164214823893 0 0.59313386551587477 0.43977047843653239 0 0.640156794425081 0.43301393728221721 0 0.69595787604187809 0.43071000156707989 0 0.66329969176266512 0.46626046872004567 0 0.70015119067225129 0.48481914991727459 0 0.66329969176266512 0.46626046872004567 0 0.69595787604187809 0.43071000156707989 0 0.8289812646369813 0.82898126463698818 0 0.81306033001437827 0.8677384967307622 0 0.78284912262770068 0.83746308049763585 0 0.17101873536300011 0.82898126463696109 0 0.1322615032692282 0.8130603300143705 0 0.16253691950235041 0.78284912262768558 0 0.84534053180161173 0.2262639405833009 0 0.87355793346388477 0.18922011052113649 0 0.89556054516486661 0.21720615046483649 0 0.22626394058331961 0.15465946819838111 0 0.18922011052115781 0.12644206653611201 0 0.21720615046484709 0.1044394548351292 0 0.90082758526900886 0.098076845682916511 0 0.86148619541339633 0.089689702191568438 0 0.86589314360155567 0.054872692726639853 0 0.098076845682915317 0.099172414730993488 0 0.089689702191541126 0.13851380458662241 0 0.054872692726595548 0.13410685639845171 0 0.84598529912884157 0.63969251517827153 0 0.89064679688610338 0.6216080907827598 0 0.88396545633132484 0.6625197322180193 0 0.63969251517826664 0.15401470087115929 0 0.62160809078275991 0.1093532031139005 0 0.66251865414987876 0.1160340021949529 0 0.36030748482174152 0.84598529912882459 0 0.37839190921727062 0.89064679688614412 0 0.33748026778199908 0.88396545633134682 0 0.15401470087117619 0.36030748482174652 0 0.10935320311385981 0.37839190921727089 0 0.11603400219493119 0.33748134585014028 0 0.82118136511706341 0.082875076569723011 0 0.8517485358380722 0.12294765968568611 0 0.8110316677333288 0.125875177082863 0 0.08287507656968085 0.1788186348829835 0 0.12294765968567151 0.14825146416195439 0 0.12587517708284679 0.1889683322666954 0 0.75000000000034661 1 0 0.7000000000006934 1 0 0.71789175274016548 0.95136708251202151 0 0 0.75000000000034661 0 0 0.7000000000006934 0 0.04863291748797445 0.71789175274016204 0 1 0.24999999999941211 0 1 0.29999999999926641 0 0.94915666091748963 0.28320804985299752 0 0.24999999999941211 0 0 0.29999999999926641 0 0 0.28320804985300141 0.050843339082505573 0 0.55000000000173355 1 0 0.51507566941747085 0.9626786017237855 0 0.55307204985744796 0.94819812235491685 0 0 0.55000000000173355 0 0.037321398276215258 0.51507566941747263 0 0.051801877645083663 0.55307204985745195 0 1 0.44999999999882923 0 0.96266688603193029 0.48495124540067203 0 0.94812782820415209 0.44708943904932719 0 0.44999999999882923 0 0 0.48492433058289169 0.037321398276272413 0 0.44692795014265252 0.051801877645060238 0 0.49854341599767982 0.37075914768127122 0 0.51491507395299929 0.3326740076510219 0 0.54715635490880632 0.37829016026862072 0 0.91838802593884228 0.81827409710237209 0 0.88962265630811221 0.85311725681459705 0 0.87660297360393757 0.8104127896505644 0 0.1817259028976386 0.91838802593888857 0 0.14688274318541941 0.88962265630811932 0 0.18958721034944021 0.87660297360394568 0 0.50333998054938722 0.50119715791968966 0 0.554170140907293 0.50922353359177785 0 0.53087311892591971 0.55299263141448529 0 0.91890123454466932 0.39094742729597309 0 0.95886012268748921 0.4068558182724159 0 0.90991454156957952 0.4312731559748802 0 0.94812782820415209 0.44708943904932719 0 0.90991454156957952 0.4312731559748802 0 0.95886012268748921 0.4068558182724159 0 0.84999999999965292 1 0 0.82675923981951416 0.95611053755456221 0 0.86696410734367158 0.94753096683315619 0 0 0.84999999999965292 0 0.043889462445437968 0.82675923981951283 0 0.052469033166843738 0.86696410734366991 0 0.1817259028976386 0.91838802593888857 0 0.18045991219397989 0.960710939969875 0 0.13834721989462789 0.94095916274077984 0 0.91838802593884228 0.81827409710237209 0 0.96071093996985157 0.81954008780615684 0 0.94095916274074942 0.86165278010542579 0 0.08287507656968085 0.1788186348829835 0 0.038839999600931263 0.17949825993190149 0 0.054872692726595548 0.13410685639845171 0 0.82118136511706341 0.082875076569723011 0 0.82050174006822896 0.038839999600956771 0 0.86589314360155567 0.054872692726639853 0 0.15000000000062411 1 0 0.13834721989462789 0.94095916274077984 0 0.18045991219397989 0.960710939969875 0 1 0.84999999999960507 0 0.94095916274074942 0.86165278010542579 0 0.96071093996985157 0.81954008780615684 0 0 0.15000000000062411 0 0.054872692726595548 0.13410685639845171 0 0.038839999600931263 0.17949825993190149 0 0.84999999999960507 0 0 0.86589314360155567 0.054872692726639853 0 0.82050174006822896 0.038839999600956771 0 1 0.14999999999970359 0 0.96080966346491015 0.18035159017841959 0 0.94100406608115506 0.1383574446607955 0 0.14999999999970359 0 0 0.18035159017842109 0.039190336535090492 0 0.1383574446607988 0.058995933918849157 0 0.91838802593870927 0.18172590289757809 0 0.94100406608115506 0.1383574446607955 0 0.96080966346491015 0.18035159017841959 0 0.18172590289758209 0.08161197406129285 0 0.1383574446607988 0.058995933918849157 0 0.18035159017842109 0.039190336535090492 0 0.40653508887824003 0.61580573377480397 0 0.45030222762303879 0.58443295115431027 0 0.45517457031814612 0.62743100079604397 0 0.50333998054938722 0.50119715791968966 0 0.53087311892591971 0.55299263141448529 0 0.47974773860103892 0.54872726831320284 0 0.33382663527330159 0.44130125047503482 0 0.30597655500381687 0.3934681685211931 0 0.35481422397128459 0.40312981465069342 0 0.34804757266227387 0.35750068079406011 0 0.35481422397128459 0.40312981465069342 0 0.30597655500381687 0.3934681685211931 0 0.39419886675318527 0.41912225240070788 0 0.39222057657781068 0.38067796690227418 0 0.42930823106401639 0.40626685012722968 0 0.5586987495249669 0.33382663527330653 0 0.54715635490880632 0.37829016026862072 0 0.51491507395299929 0.3326740076510219 0 0.84598529912884157 0.63969251517827153 0 0.88396545633132484 0.6625197322180193 0 0.85607519768343354 0.69380468830529196 0 0.63969251517826664 0.15401470087115929 0 0.66251865414987876 0.1160340021949529 0 0.69379929796456197 0.14392209494791061 0 0.36030748482174152 0.84598529912882459 0 0.33748026778199908 0.88396545633134682 0 0.30619531169472608 0.85607519768342955 0 0.15401470087117619 0.36030748482174652 0 0.11603400219493119 0.33748134585014028 0 0.14392209494791439 0.30620070203545702 0 0.41009598069569558 0.49083935749285379 0 0.39982789553993509 0.53462762214740622 0 0.35815651743779398 0.51113440447909086 0 0.43087117257049001 0.8215422551712771 0 0.38703015239361932 0.80283068154761972 0 0.43306783640023289 0.78031198216144404 0 0.8215422551712277 0.56912882742954496 0 0.8028306815476034 0.61296984760642026 0 0.78031198216143516 0.56693216359979737 0 0.17845774482872559 0.43087117257049429 0 0.197169318452384 0.38703015239362498 0 0.21968801783855879 0.43306783640023788 0 0.56912882742954041 0.17845774482877461 0 0.61296984760641449 0.19716931845240021 0 0.56683314878414581 0.21944955250104689 0 0.86696410734367158 0.94753096683315619 0 0.82675923981951416 0.95611053755456221 0 0.85382799508926477 0.91295829388058414 0 0.052469033166843738 0.86696410734366991 0 0.043889462445437968 0.82675923981951283 0 0.087041706119416085 0.85382799508926188 0 0.81709574086843206 0.91318696080656769 0 0.85382799508926477 0.91295829388058414 0 0.82675923981951416 0.95611053755456221 0 0.086813039193431391 0.81709574086842884 0 0.087041706119416085 0.85382799508926188 0 0.043889462445437968 0.82675923981951283 0 0.77998481823117694 0.71397317153691997 0 0.8312019486901514 0.72745002167959472 0 0.78651189793386345 0.75664155808652755 0 0.28602682846308641 0.77998481823117594 0 0.27254997832041528 0.8312019486901443 0 0.24335844191347281 0.78651189793387466 0 0.71397317153692708 0.22001518176882201 0 0.72767516840721058 0.16853767177393791 0 0.7582555232258138 0.2115548431873896 0 0.22001518176882229 0.28602682846307981 0 0.1685376717739448 0.27232483159280108 0 0.2115548431873881 0.2417444767741872 0 0.54901591374940373 0.42306523525165751 0 0.50753758205811061 0.4506562873613274 0 0.5047849391802508 0.40719950955717021 0 0.54901591374940373 0.42306523525165751 0 0.59313386551587477 0.43977047843653239 0 0.54783891860069212 0.46640164214823893 0 0.81709574086843206 0.91318696080656769 0 0.81306033001437827 0.8677384967307622 0 0.85174853583809862 0.87705234031428159 0 0.086813039193431391 0.81709574086842884 0 0.1322615032692282 0.8130603300143705 0 0.1229476596857173 0.85174853583809695 0 0.839908789927305 0.77106070975262608 0 0.79422489417873421 0.79640925234634441 0 0.78651189793386345 0.75664155808652755 0 0.22893929024737289 0.83990878992727813 0 0.20359074765364421 0.79422489417871855 0 0.24335844191347281 0.78651189793387466 0 0.77216325087772952 0.15899695163319821 0 0.80027482104603809 0.20596721135052129 0 0.7582555232258138 0.2115548431873896 0 0.15899695163321451 0.22783674912227669 0 0.20596721135052939 0.19972517895396219 0 0.2115548431873881 0.2417444767741872 0 0.70087539567735502 0.57165914616526226 0 0.65501639383771026 0.594528181397324 0 0.66548584431530877 0.55616712808283064 0 0.69288637798153729 0.61204665218001397 0 0.65501639383771026 0.594528181397324 0 0.70087539567735502 0.57165914616526226 0 0.57188338999077359 0.29874123486230147 0 0.59596170682035776 0.34609402305862419 0 0.5586987495249669 0.33382663527330653 0 0.61204665218000809 0.30711362201846659 0 0.59596170682035776 0.34609402305862419 0 0.57188338999077359 0.29874123486230147 0 0.55307204985744796 0.94819812235491685 0 0.56877264426066887 0.91182300080710277 0 0.5931441817276254 0.95886012268751675 0 0.60938371359314658 0.91847489683800321 0 0.5931441817276254 0.95886012268751675 0 0.56877264426066887 0.91182300080710277 0 0.051801877645083663 0.55307204985745195 0 0.088176999192898689 0.56877264426067353 0 0.041139877312483641 0.59314418172763017 0 0.081525103161997597 0.6093837135931508 0 0.041139877312483641 0.59314418172763017 0 0.088176999192898689 0.56877264426067353 0 0.44692795014265252 0.051801877645060238 0 0.43122735573933979 0.088176999192917438 0 0.40685581827241191 0.041139877312511682 0 0.39061628640684498 0.081525103161991672 0 0.40685581827241191 0.041139877312511682 0 0.43122735573933979 0.088176999192917438 0 0.56566515596461675 0.63670464971409091 0 0.54058719659441246 0.66889411379075558 0 0.51172471858873747 0.64015771271794875 0 0.35984320557492089 0.56698606271778873 0 0.331306197573488 0.54052564146842386 0 0.35815651743779398 0.51113440447909086 0 0.51484304721220842 0.69707233951836334 0 0.51172471858873747 0.64015771271794875 0 0.54058719659441246 0.66889411379075558 0 0.30292766048163949 0.51484304721221474 0 0.35815651743779398 0.51113440447909086 0 0.331306197573488 0.54052564146842386 0 0.90045039720880915 0.9020090423547924 0 0.86696410734367158 0.94753096683315619 0 0.85382799508926477 0.91295829388058414 0 0.097990957645208238 0.90045039720880915 0 0.052469033166843738 0.86696410734366991 0 0.087041706119416085 0.85382799508926188 0 0.82118136511706341 0.082875076569723011 0 0.86589314360155567 0.054872692726639853 0 0.86148619541339633 0.089689702191568438 0 0.08287507656968085 0.1788186348829835 0 0.054872692726595548 0.13410685639845171 0 0.089689702191541126 0.13851380458662241 0 0.67757268808231397 0.93106206656183088 0 0.70475631558365914 0.90098127745102974 0 0.71789175274016548 0.95136708251202151 0 0.068937933438162791 0.67757268808231053 0 0.099018722548963364 0.70475631558365193 0 0.04863291748797445 0.71789175274016204 0 0.93106206656185309 0.32242731191769503 0 0.89886191075654698 0.29506339503703172 0 0.94915666091748963 0.28320804985299752 0 0.32242731191769902 0.068937933438140794 0 0.29506339503703888 0.1011380892434444 0 0.28320804985300141 0.050843339082505573 0 0.59819537371016407 0.74380966024143391 0 0.57578062281532438 0.77751665353176347 0 0.54465502325161819 0.74717983044080061 0 0.25619033975856881 0.59819537371016862 0 0.2224870800581388 0.57577541371134155 0 0.25287139441262568 0.54458355434492378 0 0.74380966024142703 0.40180462628984132 0 0.77752557158083724 0.42422273168818408 0 0.74730218607442667 0.45539100053644521 0 0.40180462628983732 0.2561903397585753 0 0.42421838472613971 0.22246502005787769 0 0.45533136021725079 0.2525687312087147 0 0.56566515596461675 0.63670464971409091 0 0.53542397956703913 0.60119875982347493 0 0.57484409313590223 0.58437321637184114 0 0.59819537371016407 0.74380966024143391 0 0.57051182622447827 0.69668652018496713 0 0.6083790122881827 0.70496300707145865 0 0.25619033975856881 0.59819537371016862 0 0.30429740679959738 0.56913905146460098 0 0.29503699292854352 0.60837901228818936 0 0.74380966024142703 0.40180462628984132 0 0.69595787604187809 0.43071000156707989 0 0.70496300707145554 0.39162098771181952 0 0.40180462628983732 0.2561903397585753 0 0.43059486795334201 0.30395973419063538 0 0.39162098771181342 0.29503699292854563 0 0.50000000000002642 0.7803135888501761 0 0.54465502325161819 0.74717983044080061 0 0.53770425635794761 0.80104587463999666 0 0.2196864111498267 0.50000000000003153 0 0.25287139441262568 0.54458355434492378 0 0.1989632851005598 0.53769147668950479 0 0.78031358885017377 0.49999999999997569 0 0.74730218607442667 0.45539100053644521 0 0.80106707846564795 0.46230714888029367 0 0.49999999999997108 0.21968641114982909 0 0.45533136021725079 0.2525687312087147 0 0.46229330881044273 0.19890916456654811 0 0.51484304721220842 0.69707233951836334 0 0.54058719659441246 0.66889411379075558 0 0.57051182622447827 0.69668652018496713 0 0.30292766048163949 0.51484304721221474 0 0.331306197573488 0.54052564146842386 0 0.30429740679959738 0.56913905146460098 0 0.56566515596461675 0.63670464971409091 0 0.57051182622447827 0.69668652018496713 0 0.54058719659441246 0.66889411379075558 0 0.35984320557492089 0.56698606271778873 0 0.30429740679959738 0.56913905146460098 0 0.331306197573488 0.54052564146842386 0 0.60938371359314658 0.91847489683800321 0 0.58267137064684116 0.87013301365640838 0 0.62483828039315681 0.8780818733396436 0 0.081525103161997597 0.6093837135931508 0 0.12986698634359389 0.58267137064684615 0 0.1219181266603569 0.62483828039315903 0 0.91890123454466932 0.39094742729597309 0 0.87012666750595846 0.41743873185103042 0 0.87815187193233801 0.37523526017134418 0 0.39061628640684498 0.081525103161991672 0 0.41732862935313042 0.12986698634362279 0 0.37516171960683908 0.121918126660369 0 0.5133022293955174 0.064893331803591428 0 0.52499999999875446 0.029444907164469181 0 0.55993888817186677 0.043612803661174412 0 0.064893331803534807 0.48669777060454478 0 0.029444907164209121 0.47500000000196552 0 0.043612803661092707 0.44006111182840391 0 0.93510666819640953 0.51330222939551939 0 0.97055509283553232 0.52499999999875435 0 0.95638719633882641 0.5599388881718611 0 0.48669777060454272 0.93510666819646593 0 0.47500000000196563 0.970555092835793 0 0.44006111182840962 0.9563871963389079 0 0.56759263990989184 0.81794319034601648 0 0.54047998161173716 0.84333512669480526 0 0.53770425635794761 0.80104587463999666 0 0.18205680965398621 0.56759263990989739 0 0.1566648733051971 0.54047998161174216 0 0.1989632851005598 0.53769147668950479 0 0.81794319034597418 0.43240736009009317 0 0.84333218736938698 0.4595365182652234 0 0.80106707846564795 0.46230714888029367 0 0.43240736009008851 0.18205680965402779 0 0.45952001838826873 0.15666487330524251 0 0.46229330881044273 0.19890916456654811 0 0.50333998054938722 0.50119715791968966 0 0.47974773860103892 0.54872726831320284 0 0.45293656999117771 0.51494832297079129 0 0.73982803480991577 0.79629608696991705 0 0.69892030930712212 0.7971997999085858 0 0.71159714897733284 0.75039044679290845 0 0.20370391303007401 0.73982803480989479 0 0.2028002000914135 0.69892030930711557 0 0.249609553207091 0.71159714897732929 0 0.79629608696994103 0.26017196519011448 0 0.7971997999085878 0.3010796906928917 0 0.75039044679291111 0.28840285102267788 0 0.26017196519013502 0.20370391303005 0 0.30107969069289831 0.20280020009141189 0 0.28840285102268098 0.24960955320708811 0 0.43087117257049001 0.8215422551712771 0 0.40481452396081791 0.85130421228141606 0 0.38703015239361932 0.80283068154761972 0 0.36030748482174152 0.84598529912882459 0 0.38703015239361932 0.80283068154761972 0 0.40481452396081791 0.85130421228141606 0 0.17845774482872559 0.43087117257049429 0 0.14869578771858949 0.40481452396082068 0 0.197169318452384 0.38703015239362498 0 0.8215422551712277 0.56912882742954496 0 0.85130417396420255 0.59518556406638579 0 0.8028306815476034 0.61296984760642026 0 0.84598529912884157 0.63969251517827153 0 0.8028306815476034 0.61296984760642026 0 0.85130417396420255 0.59518556406638579 0 0.15401470087117619 0.36030748482174652 0 0.197169318452384 0.38703015239362498 0 0.14869578771858949 0.40481452396082068 0 0.56912882742954041 0.17845774482877461 0 0.59518547603920147 0.14869578771864489 0 0.61296984760641449 0.19716931845240021 0 0.63969251517826664 0.15401470087115929 0 0.61296984760641449 0.19716931845240021 0 0.59518547603920147 0.14869578771864489 0 0.6519524273377173 0.64249931920594539 0 0.65501639383771026 0.594528181397324 0 0.69288637798153729 0.61204665218001397 0 0.6424993192059415 0.3480475726622802 0 0.59596170682035776 0.34609402305862419 0 0.61204665218000809 0.30711362201846659 0 0.35944937237716967 0.65164789808436319 0 0.40564717507982689 0.65626423320524974 0 0.38642358467307758 0.69286258923597266 0 0.90045039720880915 0.9020090423547924 0 0.85174853583809862 0.87705234031428159 0 0.88962265630811221 0.85311725681459705 0 0.097990957645208238 0.90045039720880915 0 0.1229476596857173 0.85174853583809695 0 0.14688274318541941 0.88962265630811932 0 0.90082758526900886 0.098076845682916511 0 0.88777909259956078 0.1484760565886154 0 0.8517485358380722 0.12294765968568611 0 0.098076845682915317 0.099172414730993488 0 0.1484760565886207 0.1122209074004519 0 0.12294765968567151 0.14825146416195439 0 0.35815651743779398 0.51113440447909086 0 0.33436424489304489 0.47849603121740791 0 0.37702386074717259 0.45819417564476811 0 0.92670321183853355 0.65773042910151081 0 0.94635952848698612 0.71209247961721311 0 0.90051880305432697 0.69261863673346957 0 0.65773042910151891 0.073296788161472337 0 0.71174922810186925 0.053730171687687178 0 0.69253601466723103 0.09949211948105087 0 0.3422695708985129 0.92670321183858773 0 0.28790752038294382 0.94635952848702642 0 0.30738136326657722 0.90051880305435028 0 0.073296788161418117 0.34226957089850552 0 0.053730171687646627 0.28825077189828552 0 0.099492119481027347 0.30746398533281638 0 0.43565339604028508 0.55159384357101338 0 0.45293656999117771 0.51494832297079129 0 0.47974773860103892 0.54872726831320284 0 0.33382663527330159 0.44130125047503482 0 0.2963043386970643 0.4298320229681446 0 0.30597655500381687 0.3934681685211931 0 1 0.69999999999921003 0 0.94635952848698612 0.71209247961721311 0 0.96779701826738695 0.67105375815842694 0 0.69999999999921003 0 0 0.71174922810186925 0.053730171687687178 0 0.67098510785536181 0.032220921767549461 0 0.30000000000124832 1 0 0.28790752038294382 0.94635952848702642 0 0.32894624184180998 0.96779701826738929 0 0 0.30000000000124832 0 0.053730171687646627 0.28825077189828552 0 0.032220921767546963 0.32901489214487523 0 0.56759263990989184 0.81794319034601648 0 0.57578062281532438 0.77751665353176347 0 0.61896574319320252 0.795216048370321 0 0.59819537371016407 0.74380966024143391 0 0.61896574319320252 0.795216048370321 0 0.57578062281532438 0.77751665353176347 0 0.25619033975856881 0.59819537371016862 0 0.2047839516296828 0.61896574319320252 0 0.2224870800581388 0.57577541371134155 0 0.18205680965398621 0.56759263990989739 0 0.2224870800581388 0.57577541371134155 0 0.2047839516296828 0.61896574319320252 0 0.74380966024142703 0.40180462628984132 0 0.79521604837030013 0.38103425680679831 0 0.77752557158083724 0.42422273168818408 0 0.81794319034597418 0.43240736009009317 0 0.77752557158083724 0.42422273168818408 0 0.79521604837030013 0.38103425680679831 0 0.40180462628983732 0.2561903397585753 0 0.38103425680679859 0.2047839516297037 0 0.42421838472613971 0.22246502005787769 0 0.43240736009008851 0.18205680965402779 0 0.42421838472613971 0.22246502005787769 0 0.38103425680679859 0.2047839516297037 0 0.63969251517836323 0.84598529912890386 0 0.6027107599280892 0.83436006790502326 0 0.61896574319320252 0.795216048370321 0 0.1540147008710982 0.63969251517836956 0 0.1656399320949789 0.60271075992809464 0 0.2047839516296828 0.61896574319320252 0 0.84598529912889664 0.36030748482164038 0 0.83436006790498052 0.39728924007189959 0 0.79521604837030013 0.38103425680679831 0 0.3603074848216346 0.15401470087110539 0 0.3972892400718947 0.16563993209502181 0 0.38103425680679859 0.2047839516297037 0 0.53432142347292233 0.88563193847251998 0 0.58267137064684116 0.87013301365640838 0 0.56877264426066887 0.91182300080710277 0 0.1143680615274819 0.53432142347292733 0 0.12986698634359389 0.58267137064684615 0 0.088176999192898689 0.56877264426067353 0 0.91890123454466932 0.39094742729597309 0 0.90991454156957952 0.4312731559748802 0 0.87012666750595846 0.41743873185103042 0 0.46567857652706018 0.1143680615275231 0 0.41732862935313042 0.12986698634362279 0 0.43122735573933979 0.088176999192917438 0 0.60938371359314658 0.91847489683800321 0 0.56877264426066887 0.91182300080710277 0 0.58267137064684116 0.87013301365640838 0 0.081525103161997597 0.6093837135931508 0 0.088176999192898689 0.56877264426067353 0 0.12986698634359389 0.58267137064684615 0 0.88561059063756964 0.46572761956237563 0 0.87012666750595846 0.41743873185103042 0 0.90991454156957952 0.4312731559748802 0 0.39061628640684498 0.081525103161991672 0 0.43122735573933979 0.088176999192917438 0 0.41732862935313042 0.12986698634362279 0 0.56759263990989184 0.81794319034601648 0 0.6027107599280892 0.83436006790502326 0 0.58267137064684116 0.87013301365640838 0 0.18205680965398621 0.56759263990989739 0 0.1656399320949789 0.60271075992809464 0 0.12986698634359389 0.58267137064684615 0 0.81794319034597418 0.43240736009009317 0 0.83436006790498052 0.39728924007189959 0 0.87012666750595846 0.41743873185103042 0 0.43240736009008851 0.18205680965402779 0 0.3972892400718947 0.16563993209502181 0 0.41732862935313042 0.12986698634362279 0 0.77998481823117694 0.71397317153691997 0 0.78651189793386345 0.75664155808652755 0 0.74917861927654894 0.74229989257760443 0 0.28602682846308641 0.77998481823117594 0 0.24335844191347281 0.78651189793387466 0 0.25770010742238642 0.74917861927655205 0 0.71397317153692708 0.22001518176882201 0 0.7582555232258138 0.2115548431873896 0 0.74229989257762263 0.250821380723454 0 0.22001518176882229 0.28602682846307981 0 0.2115548431873881 0.2417444767741872 0 0.25082138072344978 0.25770010742236849 0 0.8215422551712277 0.56912882742954496 0 0.78031198216143516 0.56693216359979737 0 0.80781854240107975 0.53406203754901738 0 0.43087117257049001 0.8215422551712771 0 0.43306783640023289 0.78031198216144404 0 0.46593838964869061 0.80781872835503554 0 0.56912882742954041 0.17845774482877461 0 0.56683314878414581 0.21944955250104689 0 0.53404982287327418 0.19215288291432539 0 0.17845774482872559 0.43087117257049429 0 0.21968801783855879 0.43306783640023788 0 0.19218127164496679 0.46593838964869538 0 0.92670321183853355 0.65773042910151081 0 0.96779701826738695 0.67105375815842694 0 0.94635952848698612 0.71209247961721311 0 0.65773042910151891 0.073296788161472337 0 0.67098510785536181 0.032220921767549461 0 0.71174922810186925 0.053730171687687178 0 0.3422695708985129 0.92670321183858773 0 0.32894624184180998 0.96779701826738929 0 0.28790752038294382 0.94635952848702642 0 0.073296788161418117 0.34226957089850552 0 0.032220921767546963 0.32901489214487523 0 0.053730171687646627 0.28825077189828552 0 0.51484304721220842 0.69707233951836334 0 0.46736891737654429 0.70015537930374983 0 0.47818752133962877 0.66454462905280853 0 0.30292766048163949 0.51484304721221474 0 0.29988655052531688 0.46700727827593119 0 0.33436424489304489 0.47849603121740791 0 0.53432142347292233 0.88563193847251998 0 0.52425337578225772 0.9223731761594427 0 0.48758069708049379 0.89080072540186539 0 0.1143680615274819 0.53432142347292733 0 0.07762682384055844 0.52425337578226128 0 0.1091992745981364 0.48758069708049778 0 0.88561059063756964 0.46572761956237563 0 0.92203742772043751 0.47579485578641628 0 0.89079805168298443 0.51242544533572376 0 0.46567857652706018 0.1143680615275231 0 0.47574662421782782 0.077626823840590969 0 0.51241930291950477 0.1091992745981813 0 0.49189101320880302 0.59024331187324797 0 0.47974773860103892 0.54872726831320284 0 0.53087311892591971 0.55299263141448529 0 0.81709574086843206 0.91318696080656769 0 0.78020430794084783 0.88768307197553598 0 0.81306033001437827 0.8677384967307622 0 0.086813039193431391 0.81709574086842884 0 0.11231692802445629 0.78020430794084028 0 0.1322615032692282 0.8130603300143705 0 0.90045039720880915 0.9020090423547924 0 0.85382799508926477 0.91295829388058414 0 0.85174853583809862 0.87705234031428159 0 0.097990957645208238 0.90045039720880915 0 0.087041706119416085 0.85382799508926188 0 0.1229476596857173 0.85174853583809695 0 0.82118136511706341 0.082875076569723011 0 0.86148619541339633 0.089689702191568438 0 0.8517485358380722 0.12294765968568611 0 0.08287507656968085 0.1788186348829835 0 0.089689702191541126 0.13851380458662241 0 0.12294765968567151 0.14825146416195439 0 0.56759263990989184 0.81794319034601648 0 0.61896574319320252 0.795216048370321 0 0.6027107599280892 0.83436006790502326 0 0.18205680965398621 0.56759263990989739 0 0.2047839516296828 0.61896574319320252 0 0.1656399320949789 0.60271075992809464 0 0.81794319034597418 0.43240736009009317 0 0.79521604837030013 0.38103425680679831 0 0.83436006790498052 0.39728924007189959 0 0.43240736009008851 0.18205680965402779 0 0.38103425680679859 0.2047839516297037 0 0.3972892400718947 0.16563993209502181 0 0.91838802593870927 0.18172590289757809 0 0.87355793346388477 0.18922011052113649 0 0.88777909259956078 0.1484760565886154 0 0.18172590289758209 0.08161197406129285 0 0.18922011052115781 0.12644206653611201 0 0.1484760565886207 0.1122209074004519 0 0.50333998054938722 0.50119715791968966 0 0.46152714345798918 0.47344359412352599 0 0.50753758205811061 0.4506562873613274 0 0.46102425708533701 0.43254199134332588 0 0.50753758205811061 0.4506562873613274 0 0.46152714345798918 0.47344359412352599 0 0.70252050881959183 0.70358884261915833 0 0.67626275269587088 0.72713741921009012 0 0.6768914574865772 0.67861120078714243 0 0.29641115738084339 0.70252050881958938 0 0.27349656744860212 0.67581741996408695 0 0.32259853082073792 0.67670072609835186 0 0.70358884261915744 0.29747949118041561 0 0.72713741921008324 0.32373724730413678 0 0.6786112007871401 0.32310854251343019 0 0.29747949118041711 0.2964111573808435 0 0.32373692627050221 0.27286413781593999 0 0.3231032570156932 0.32141443408924047 0 0.43301393728221038 0.35984320557492139 0 0.39222057657781068 0.38067796690227418 0 0.39120887188745579 0.33407577688404289 0 0.48669777060454272 0.93510666819646593 0 0.48758069708049379 0.89080072540186539 0 0.52425337578225772 0.9223731761594427 0 0.064893331803534807 0.48669777060454478 0 0.1091992745981364 0.48758069708049778 0 0.07762682384055844 0.52425337578226128 0 0.93510666819640953 0.51330222939551939 0 0.89079805168298443 0.51242544533572376 0 0.92203742772043751 0.47579485578641628 0 0.5133022293955174 0.064893331803591428 0 0.51241930291950477 0.1091992745981813 0 0.47574662421782782 0.077626823840590969 0 0.4434591735942961 0.66641640622551224 0 0.42715538333808079 0.70077759375307946 0 0.40564717507982689 0.65626423320524974 0 0.38642358467307758 0.69286258923597266 0 0.40564717507982689 0.65626423320524974 0 0.42715538333808079 0.70077759375307946 0 0.57387636360620708 0.54318431390135336 0 0.554170140907293 0.50922353359177785 0 0.59621567360238914 0.5184866806641607 0 0.84999999999965292 1 0 0.79999999999999982 1 0 0.82675923981951416 0.95611053755456221 0 0 0.84999999999965292 0 0 0.79999999999999982 0 0.043889462445437968 0.82675923981951283 0 1 0.14999999999970359 0 1 0.19999999999955789 0 0.96080966346491015 0.18035159017841959 0 0.14999999999970359 0 0 0.19999999999955789 0 0 0.18035159017842109 0.039190336535090492 0 1 0.79999999999947335 0 1 0.84999999999960507 0 0.96071093996985157 0.81954008780615684 0 0.79999999999947335 0 0 0.84999999999960507 0 0 0.82050174006822896 0.038839999600956771 0 0.20000000000083221 1 0 0.15000000000062411 1 0 0.18045991219397989 0.960710939969875 0 0 0.20000000000083221 0 0 0.15000000000062411 0 0.038839999600931263 0.17949825993190149 0 0.64518564541690571 0.69601563325001548 0 0.6768914574865772 0.67861120078714243 0 0.67626275269587088 0.72713741921009012 0 0.30421635384321521 0.64514939193436716 0 0.32259853082073792 0.67670072609835186 0 0.27349656744860212 0.67581741996408695 0 0.69601563325001248 0.35481435458309712 0 0.6786112007871401 0.32310854251343019 0 0.72713741921008324 0.32373724730413678 0 0.35481435458309307 0.30398436674998969 0 0.3231032570156932 0.32141443408924047 0 0.32373692627050221 0.27286413781593999 0 0.49771727055908782 0.83998685797641781 0 0.48758069708049379 0.89080072540186539 0 0.45353891581270822 0.85551523377818905 0 0.16001314202358469 0.49771727055909287 0 0.1091992745981364 0.48758069708049778 0 0.1444847662218138 0.45353891581271188 0 0.83998574657308889 0.50228528270184081 0 0.89079805168298443 0.51242544533572376 0 0.85551478316835361 0.54646211938695222 0 0.50228272944093777 0.16001314202359701 0 0.51241930291950477 0.1091992745981813 0 0.54646108418729233 0.1444847662218687 0 0.70252050881959183 0.70358884261915833 0 0.6768914574865772 0.67861120078714243 0 0.71518943060973483 0.65679402931717101 0 0.29641115738084339 0.70252050881958938 0 0.32259853082073792 0.67670072609835186 0 0.34270280102445921 0.71672416762035873 0 0.70358884261915744 0.29747949118041561 0 0.6786112007871401 0.32310854251343019 0 0.65679402931716913 0.28481056939027388 0 0.29747949118041711 0.2964111573808435 0 0.3231032570156932 0.32141443408924047 0 0.28473805236128291 0.34355768118673757 0 0.92670321183853355 0.65773042910151081 0 0.96654491682122368 0.6363613838740827 0 0.96779701826738695 0.67105375815842694 0 0.65773042910151891 0.073296788161472337 0 0.63635157668793507 0.033457646040912177 0 0.67098510785536181 0.032220921767549461 0 0.073296788161418117 0.34226957089850552 0 0.033457646040922301 0.36364842331228431 0 0.032220921767546963 0.32901489214487523 0 0.3422695708985129 0.92670321183858773 0 0.36363861612613613 0.96654491682121313 0 0.32894624184180998 0.96779701826738929 0 1 0.64999999999907843 0 1 0.69999999999921003 0 0.96779701826738695 0.67105375815842694 0 0.64999999999907843 0 0 0.69999999999921003 0 0 0.67098510785536181 0.032220921767549461 0 0.35000000000145642 1 0 0.30000000000124832 1 0 0.32894624184180998 0.96779701826738929 0 0 0.35000000000145642 0 0 0.30000000000124832 0 0.032220921767546963 0.32901489214487523 0 0 0.40000000000166441 0 0 0.35000000000145642 0 0.033457646040922301 0.36364842331228431 0 0.40000000000166441 1 0 0.35000000000145642 1 0 0.36363861612613613 0.96654491682121313 0 0.59999999999894682 0 0 0.64999999999907843 0 0 0.63635157668793507 0.033457646040912177 0 1 0.59999999999894682 0 1 0.64999999999907843 0 0.96654491682122368 0.6363613838740827 0 0.81709574086843206 0.91318696080656769 0 0.85174853583809862 0.87705234031428159 0 0.85382799508926477 0.91295829388058414 0 0.086813039193431391 0.81709574086842884 0 0.1229476596857173 0.85174853583809695 0 0.087041706119416085 0.85382799508926188 0 0.90082758526900886 0.098076845682916511 0 0.8517485358380722 0.12294765968568611 0 0.86148619541339633 0.089689702191568438 0 0.098076845682915317 0.099172414730993488 0 0.12294765968567151 0.14825146416195439 0 0.089689702191541126 0.13851380458662241 0 0.59819537371016407 0.74380966024143391 0 0.6083790122881827 0.70496300707145865 0 0.64203711532612107 0.74316477213290444 0 0.64518564541690571 0.69601563325001548 0 0.64203711532612107 0.74316477213290444 0 0.6083790122881827 0.70496300707145865 0 0.25619033975856881 0.59819537371016862 0 0.29503699292854352 0.60837901228818936 0 0.25684529255773247 0.64203554247963057 0 0.30421635384321521 0.64514939193436716 0 0.25684529255773247 0.64203554247963057 0 0.29503699292854352 0.60837901228818936 0 0.74380966024142703 0.40180462628984132 0 0.70496300707145554 0.39162098771181952 0 0.74316477213289889 0.35796288467388632 0 0.69601563325001248 0.35481435458309712 0 0.74316477213289889 0.35796288467388632 0 0.70496300707145554 0.39162098771181952 0 0.40180462628983732 0.2561903397585753 0 0.39162098771181342 0.29503699292854563 0 0.3579628846738841 0.25683522786710378 0 0.35481435458309307 0.30398436674998969 0 0.3579628846738841 0.25683522786710378 0 0.39162098771181342 0.29503699292854563 0 0.8289812646369813 0.82898126463698818 0 0.85174853583809862 0.87705234031428159 0 0.81306033001437827 0.8677384967307622 0 0.17101873536300011 0.82898126463696109 0 0.1229476596857173 0.85174853583809695 0 0.1322615032692282 0.8130603300143705 0 0.8215422551712277 0.56912882742954496 0 0.85551478316835361 0.54646211938695222 0 0.85130417396420255 0.59518556406638579 0 0.43087117257049001 0.8215422551712771 0 0.45353891581270822 0.85551523377818905 0 0.40481452396081791 0.85130421228141606 0 0.56912882742954041 0.17845774482877461 0 0.54646108418729233 0.1444847662218687 0 0.59518547603920147 0.14869578771864489 0 0.17845774482872559 0.43087117257049429 0 0.1444847662218138 0.45353891581271188 0 0.14869578771858949 0.40481452396082068 0 0.49854341599767982 0.37075914768127122 0 0.46543211128216788 0.38788423543681888 0 0.47253211736503098 0.34081710830804929 0 0.43301393728221038 0.35984320557492139 0 0.47253211736503098 0.34081710830804929 0 0.46543211128216788 0.38788423543681888 0 0.36030748482174152 0.84598529912882459 0 0.40481452396081791 0.85130421228141606 0 0.37839190921727062 0.89064679688614412 0 0.84598529912884157 0.63969251517827153 0 0.85130417396420255 0.59518556406638579 0 0.89064679688610338 0.6216080907827598 0 0.15401470087117619 0.36030748482174652 0 0.14869578771858949 0.40481452396082068 0 0.10935320311385981 0.37839190921727089 0 0.63969251517826664 0.15401470087115929 0 0.59518547603920147 0.14869578771864489 0 0.62160809078275991 0.1093532031139005 0 0.64455163611866495 0.50369301794551069 0 0.61866949026800744 0.55492322767366287 0 0.59621567360238914 0.5184866806641607 0 0.64518564541690571 0.69601563325001548 0 0.6083790122881827 0.70496300707145865 0 0.60879112811253555 0.66592422311595834 0 0.30421635384321521 0.64514939193436716 0 0.29503699292854352 0.60837901228818936 0 0.33231497408081678 0.60779218732873663 0 0.69601563325001248 0.35481435458309712 0 0.70496300707145554 0.39162098771181952 0 0.66346942254826746 0.391530810754116 0 0.35481435458309307 0.30398436674998969 0 0.39162098771181342 0.29503699292854563 0 0.39120887188745579 0.33407577688404289 0 0.39507969989512881 0.74417394063201048 0 0.38703015239361932 0.80283068154761972 0 0.35837423432538362 0.77730446904312345 0 0.74417394063200648 0.6049203001048884 0 0.8028306815476034 0.61296984760642026 0 0.77730446904309636 0.64162576567462737 0 0.25582605936799319 0.39507969989513358 0 0.197169318452384 0.38703015239362498 0 0.22269553095687891 0.35837423432538801 0 0.60492030010488373 0.25582605936799729 0 0.61296984760641449 0.19716931845240021 0 0.64162576567462404 0.22269553095690481 0 0.46102425708533701 0.43254199134332588 0 0.46152714345798918 0.47344359412352599 0 0.42340342337193693 0.44762131874855388 0 0.5586987495249669 0.33382663527330653 0 0.52929435216580312 0.29671213472503383 0 0.57188338999077359 0.29874123486230147 0 0.58981073711177334 0.48140931020849848 0 0.554170140907293 0.50922353359177785 0 0.54783891860069212 0.46640164214823893 0 0.35944937237716967 0.65164789808436319 0 0.33231497408081678 0.60779218732873663 0 0.37104651296145419 0.60545170748311072 0 0.58981073711177334 0.48140931020849848 0 0.59621567360238914 0.5184866806641607 0 0.554170140907293 0.50922353359177785 0 0.55000000000173355 1 0 0.50000000000205869 1 0 0.51507566941747085 0.9626786017237855 0 0 0.55000000000173355 0 0 0.50000000000205869 0 0.037321398276215258 0.51507566941747263 0 1 0.44999999999882923 0 1 0.49999999999869432 0 0.96266688603193029 0.48495124540067203 0 0.44999999999882923 0 0 0.49999999999869432 0 0 0.48492433058289169 0.037321398276272413 0 0.78031198216143516 0.56693216359979737 0 0.76797069865873757 0.53315993670164308 0 0.80781854240107975 0.53406203754901738 0 0.43306783640023289 0.78031198216144404 0 0.46634612187967051 0.76767585524061377 0 0.46593838964869061 0.80781872835503554 0 0.56683314878414581 0.21944955250104689 0 0.53265327255359129 0.23135454206919101 0 0.53404982287327418 0.19215288291432539 0 0.21968801783855879 0.43306783640023788 0 0.23232476702437141 0.46634525369567709 0 0.19218127164496679 0.46593838964869538 0 0.5586987495249669 0.33382663527330653 0 0.51491507395299929 0.3326740076510219 0 0.52929435216580312 0.29671213472503383 0 0.43565339604028508 0.55159384357101338 0 0.47974773860103892 0.54872726831320284 0 0.45030222762303879 0.58443295115431027 0 0.50333998054938722 0.50119715791968966 0 0.45293656999117771 0.51494832297079129 0 0.46152714345798918 0.47344359412352599 0 0 0 0 0.032369857048753323 0.032369857048862027 0 0 0.050000000000207989 0 1 0 0 0.96763014295114425 0.032369857048773903 0 0.94999999999986839 0 0 1 0 0 1 0.049999999999899652 0 0.96763014295114425 0.032369857048773903 0 0 0 0 0.049999999999899652 0 0 0.032369857048753323 0.032369857048862027 0 1 1 0 0.94999999999979179 1 0 0.96763014295120153 0.96763014295122851 0 1 1 0 0.96763014295120153 0.96763014295122851 0 1 0.94999999999986839 0 0 1 0 0.030452409610489669 0.96954759038951022 0 0.050000000000207989 1 0 0 1 0 0 0.94999999999979179 0 0.030452409610489669 0.96954759038951022 0 0.35984320557492089 0.56698606271778873 0 0.39982789553993509 0.53462762214740622 0 0.40468198875170619 0.57637931869191572 0 0.41009598069569558 0.49083935749285379 0 0.37702386074717259 0.45819417564476811 0 0.42340342337193693 0.44762131874855388 0 0.39419886675318527 0.41912225240070788 0 0.42340342337193693 0.44762131874855388 0 0.37702386074717259 0.45819417564476811 0 0.60938371359314658 0.91847489683800321 0 0.63753756910470316 0.95578163339252209 0 0.5931441817276254 0.95886012268751675 0 0.081525103161997597 0.6093837135931508 0 0.04421836660747535 0.63753756910470205 0 0.041139877312483641 0.59314418172763017 0 0.91890123454466932 0.39094742729597309 0 0.95581270756939096 0.36248656652865863 0 0.95886012268748921 0.4068558182724159 0 0.39061628640684498 0.081525103161991672 0 0.36246243089534252 0.044218366607477223 0 0.40685581827241191 0.041139877312511682 0 0.66820316019503978 0.77769800602796979 0 0.67626275269587088 0.72713741921009012 0 0.71159714897733284 0.75039044679290845 0 0.22230199397202771 0.66820316019503168 0 0.27349656744860212 0.67581741996408695 0 0.249609553207091 0.71159714897732929 0 0.77769800602796679 0.33179683980497482 0 0.72713741921008324 0.32373724730413678 0 0.75039044679291111 0.28840285102267788 0 0.33179683980498331 0.2223019939720311 0 0.32373692627050221 0.27286413781593999 0 0.28840285102268098 0.24960955320708811 0 0.54901591374940373 0.42306523525165751 0 0.54783891860069212 0.46640164214823893 0 0.50753758205811061 0.4506562873613274 0 0.34804757266227387 0.35750068079406011 0 0.39120887188745579 0.33407577688404289 0 0.39222057657781068 0.38067796690227418 0 0.7000000000006934 1 0 0.6766004019857832 0.9676421564932749 0 0.71789175274016548 0.95136708251202151 0 0 0.7000000000006934 0 0.032357843506722522 0.67660040198578164 0 0.04863291748797445 0.71789175274016204 0 0.67757268808231397 0.93106206656183088 0 0.71789175274016548 0.95136708251202151 0 0.6766004019857832 0.9676421564932749 0 0.068937933438162791 0.67757268808231053 0 0.04863291748797445 0.71789175274016204 0 0.032357843506722522 0.67660040198578164 0 1 0.29999999999926641 0 0.96720628700974665 0.32362438565954771 0 0.94915666091748963 0.28320804985299752 0 0.29999999999926641 0 0 0.32361955853288599 0.032799927825624707 0 0.28320804985300141 0.050843339082505573 0 0.93106206656185309 0.32242731191769503 0 0.94915666091748963 0.28320804985299752 0 0.96720628700974665 0.32362438565954771 0 0.32242731191769902 0.068937933438140794 0 0.28320804985300141 0.050843339082505573 0 0.32361955853288599 0.032799927825624707 0 0.91838802593884228 0.81827409710237209 0 0.87660297360393757 0.8104127896505644 0 0.9041449437197947 0.7786886066890556 0 0.1817259028976386 0.91838802593888857 0 0.18958721034944021 0.87660297360394568 0 0.22131139331094829 0.9041449437198319 0 0.76395804595204597 0.67808171673060369 0 0.77730446904309636 0.64162576567462737 0 0.80847852346122429 0.67208120229789559 0 0.32191828326940508 0.76395804595204586 0 0.35837423432538362 0.77730446904312345 0 0.32791879770213411 0.80847852346120164 0 0.67808171673060202 0.23604195404795861 0 0.64162576567462404 0.22269553095690481 0 0.67208120229787616 0.1915214765387884 0 0.2360419540479583 0.32191828326940741 0 0.22269553095687891 0.35837423432538801 0 0.19152147653881049 0.32791879770215432 0 0.82118136511706341 0.082875076569723011 0 0.8110316677333288 0.125875177082863 0 0.77925951159456153 0.09969477121230251 0 0.08287507656968085 0.1788186348829835 0 0.12587517708284679 0.1889683322666954 0 0.099694771212264055 0.22074048840547039 0 0.43301393728221038 0.35984320557492139 0 0.46543211128216788 0.38788423543681888 0 0.42930823106401639 0.40626685012722968 0 0.43590673999053309 0.90289902042279657 0 0.45353891581270822 0.85551523377818905 0 0.48758069708049379 0.89080072540186539 0 0.097100979577207341 0.43590673999053198 0 0.1444847662218138 0.45353891581271188 0 0.1091992745981364 0.48758069708049778 0 0.90289902042272274 0.56409326000946114 0 0.85551478316835361 0.54646211938695222 0 0.89079805168298443 0.51242544533572376 0 0.56409326000946236 0.097100979577281268 0 0.54646108418729233 0.1444847662218687 0 0.51241930291950477 0.1091992745981813 0 0.51484304721220842 0.69707233951836334 0 0.49073113440598592 0.73759004618730417 0 0.46736891737654429 0.70015537930374983 0 0.44764943295894188 0.73752415265401661 0 0.46736891737654429 0.70015537930374983 0 0.49073113440598592 0.73759004618730417 0 0.30292766048163949 0.51484304721221474 0 0.262418491288269 0.49071922292154141 0 0.29988655052531688 0.46700727827593119 0 0.26247584734598628 0.44764943295894732 0 0.29988655052531688 0.46700727827593119 0 0.262418491288269 0.49071922292154141 0 0.70015119067225129 0.48481914991727459 0 0.73815142352639962 0.50697050072007344 0 0.69798396601998558 0.5289734597937793 0 0.73752415265401194 0.55235056704108476 0 0.69798396601998558 0.5289734597937793 0 0.73815142352639962 0.50697050072007344 0 0.67757268808231397 0.93106206656183088 0 0.6441774148058701 0.91458123574274031 0 0.66923299355723143 0.8804077449518628 0 0.068937933438162791 0.67757268808231053 0 0.085418764257258195 0.64417741480586865 0 0.1195922550481313 0.66923299355722787 0 0.93106206656185309 0.32242731191769503 0 0.91286712511202617 0.35637271447129198 0 0.88040774495187946 0.33076700644278889 0 0.32242731191769902 0.068937933438140794 0 0.35582258519414178 0.085418764257258431 0 0.33076700644279272 0.1195922550481146 0 0.63969251517836323 0.84598529912890386 0 0.66923299355723143 0.8804077449518628 0 0.62483828039315681 0.8780818733396436 0 0.1540147008710982 0.63969251517836956 0 0.1195922550481313 0.66923299355722787 0 0.1219181266603569 0.62483828039315903 0 0.84598529912889664 0.36030748482164038 0 0.88040774495187946 0.33076700644278889 0 0.87815187193233801 0.37523526017134418 0 0.3603074848216346 0.15401470087110539 0 0.33076700644279272 0.1195922550481146 0 0.37516171960683908 0.121918126660369 0 0.46102425708533701 0.43254199134332588 0 0.5047849391802508 0.40719950955717021 0 0.50753758205811061 0.4506562873613274 0 0.85607519768343354 0.69380468830529196 0 0.88396545633132484 0.6625197322180193 0 0.90051880305432697 0.69261863673346957 0 0.30619531169472608 0.85607519768342955 0 0.33748026778199908 0.88396545633134682 0 0.30738136326657722 0.90051880305435028 0 0.69379929796456197 0.14392209494791061 0 0.66251865414987876 0.1160340021949529 0 0.69253601466723103 0.09949211948105087 0 0.14392209494791439 0.30620070203545702 0 0.11603400219493119 0.33748134585014028 0 0.099492119481027347 0.30746398533281638 0 0.78284912262770068 0.83746308049763585 0 0.81306033001437827 0.8677384967307622 0 0.78020430794084783 0.88768307197553598 0 0.16253691950235041 0.78284912262768558 0 0.1322615032692282 0.8130603300143705 0 0.11231692802445629 0.78020430794084028 0 0.66820316019503978 0.77769800602796979 0 0.64203711532612107 0.74316477213290444 0 0.67626275269587088 0.72713741921009012 0 0.22230199397202771 0.66820316019503168 0 0.25684529255773247 0.64203554247963057 0 0.27349656744860212 0.67581741996408695 0 0.77769800602796679 0.33179683980497482 0 0.74316477213289889 0.35796288467388632 0 0.72713741921008324 0.32373724730413678 0 0.33179683980498331 0.2223019939720311 0 0.3579628846738841 0.25683522786710378 0 0.32373692627050221 0.27286413781593999 0 0.4434591735942961 0.66641640622551224 0 0.45517457031814612 0.62743100079604397 0 0.47818752133962877 0.66454462905280853 0 0.7000000000006934 1 0 0.65000000000104008 1 0 0.6766004019857832 0.9676421564932749 0 0 0.7000000000006934 0 0 0.65000000000104008 0 0.032357843506722522 0.67660040198578164 0 1 0.29999999999926641 0 1 0.34999999999912063 0 0.96720628700974665 0.32362438565954771 0 0.29999999999926641 0 0 0.34999999999912063 0 0 0.32361955853288599 0.032799927825624707 0 0.49854341599767982 0.37075914768127122 0 0.47253211736503098 0.34081710830804929 0 0.51491507395299929 0.3326740076510219 0 0.50000000000205869 1 0 0.45000000000187229 1 0 0.47500000000196563 0.970555092835793 0 0 0.50000000000205869 0 0 0.45000000000187229 0 0.029444907164209121 0.47500000000196552 0 1 0.49999999999869432 0 1 0.5499999999988151 0 0.97055509283553232 0.52499999999875435 0 0.49999999999869432 0 0 0.5499999999988151 0 0 0.52499999999875446 0.029444907164469181 0 0.91838802593870927 0.18172590289757809 0 0.89556054516486661 0.21720615046483649 0 0.87355793346388477 0.18922011052113649 0 0.18172590289758209 0.08161197406129285 0 0.21720615046484709 0.1044394548351292 0 0.18922011052115781 0.12644206653611201 0 0.48378871228000903 0.29745177826977359 0 0.51491507395299929 0.3326740076510219 0 0.47253211736503098 0.34081710830804929 0 0.58981073711177334 0.48140931020849848 0 0.59313386551587477 0.43977047843653239 0 0.62619054498681193 0.46482944251856079 0 0.640156794425081 0.43301393728221721 0 0.62619054498681193 0.46482944251856079 0 0.59313386551587477 0.43977047843653239 0 0 0.45000000000187229 0 0.043612803661092707 0.44006111182840391 0 0.029444907164209121 0.47500000000196552 0 0.45000000000187229 1 0 0.44006111182840962 0.9563871963389079 0 0.47500000000196563 0.970555092835793 0 0.5499999999988151 0 0 0.55993888817186677 0.043612803661174412 0 0.52499999999875446 0.029444907164469181 0 1 0.5499999999988151 0 0.95638719633882641 0.5599388881718611 0 0.97055509283553232 0.52499999999875435 0 0.57051182622447827 0.69668652018496713 0 0.60879112811253555 0.66592422311595834 0 0.6083790122881827 0.70496300707145865 0 0.30429740679959738 0.56913905146460098 0 0.33231497408081678 0.60779218732873663 0 0.29503699292854352 0.60837901228818936 0 0.69595787604187809 0.43071000156707989 0 0.66346942254826746 0.391530810754116 0 0.70496300707145554 0.39162098771181952 0 0.43059486795334201 0.30395973419063538 0 0.39120887188745579 0.33407577688404289 0 0.39162098771181342 0.29503699292854563 0 0.35984320557492089 0.56698606271778873 0 0.37104651296145419 0.60545170748311072 0 0.33231497408081678 0.60779218732873663 0 0.43565339604028508 0.55159384357101338 0 0.40468198875170619 0.57637931869191572 0 0.39982789553993509 0.53462762214740622 0 0.66820316019503978 0.77769800602796979 0 0.71159714897733284 0.75039044679290845 0 0.69892030930712212 0.7971997999085858 0 0.22230199397202771 0.66820316019503168 0 0.249609553207091 0.71159714897732929 0 0.2028002000914135 0.69892030930711557 0 0.77769800602796679 0.33179683980497482 0 0.75039044679291111 0.28840285102267788 0 0.7971997999085878 0.3010796906928917 0 0.33179683980498331 0.2223019939720311 0 0.28840285102268098 0.24960955320708811 0 0.30107969069289831 0.20280020009141189 0 0.34804757266227387 0.35750068079406011 0 0.39222057657781068 0.38067796690227418 0 0.35481422397128459 0.40312981465069342 0 0.67757268808231397 0.93106206656183088 0 0.66923299355723143 0.8804077449518628 0 0.70475631558365914 0.90098127745102974 0 0.068937933438162791 0.67757268808231053 0 0.1195922550481313 0.66923299355722787 0 0.099018722548963364 0.70475631558365193 0 0.93106206656185309 0.32242731191769503 0 0.88040774495187946 0.33076700644278889 0 0.89886191075654698 0.29506339503703172 0 0.32242731191769902 0.068937933438140794 0 0.33076700644279272 0.1195922550481146 0 0.29506339503703888 0.1011380892434444 0 0.53432142347292233 0.88563193847251998 0 0.56877264426066887 0.91182300080710277 0 0.52425337578225772 0.9223731761594427 0 0.1143680615274819 0.53432142347292733 0 0.088176999192898689 0.56877264426067353 0 0.07762682384055844 0.52425337578226128 0 0.46567857652706018 0.1143680615275231 0 0.43122735573933979 0.088176999192917438 0 0.47574662421782782 0.077626823840590969 0 0.39419886675318527 0.41912225240070788 0 0.35481422397128459 0.40312981465069342 0 0.39222057657781068 0.38067796690227418 0 1 0.49999999999869432 0 0.97055509283553232 0.52499999999875435 0 0.96266688603193029 0.48495124540067203 0 0.49999999999869432 0 0 0.52499999999875446 0.029444907164469181 0 0.48492433058289169 0.037321398276272413 0 0.93510666819640953 0.51330222939551939 0 0.96266688603193029 0.48495124540067203 0 0.97055509283553232 0.52499999999875435 0 0.5133022293955174 0.064893331803591428 0 0.48492433058289169 0.037321398276272413 0 0.52499999999875446 0.029444907164469181 0 0 0.50000000000205869 0 0.029444907164209121 0.47500000000196552 0 0.037321398276215258 0.51507566941747263 0 0.50000000000205869 1 0 0.47500000000196563 0.970555092835793 0 0.51507566941747085 0.9626786017237855 0 0.48669777060454272 0.93510666819646593 0 0.51507566941747085 0.9626786017237855 0 0.47500000000196563 0.970555092835793 0 0.064893331803534807 0.48669777060454478 0 0.037321398276215258 0.51507566941747263 0 0.029444907164209121 0.47500000000196552 0 0.55307204985744796 0.94819812235491685 0 0.52425337578225772 0.9223731761594427 0 0.56877264426066887 0.91182300080710277 0 0.051801877645083663 0.55307204985745195 0 0.07762682384055844 0.52425337578226128 0 0.088176999192898689 0.56877264426067353 0 0.44692795014265252 0.051801877645060238 0 0.47574662421782782 0.077626823840590969 0 0.43122735573933979 0.088176999192917438 0 0.70085728320704077 0.84350379029875056 0 0.66919832404887702 0.81820888699730587 0 0.69892030930712212 0.7971997999085858 0 0.1564962097012354 0.70085728320703999 0 0.1817911130026923 0.66919832404888702 0 0.2028002000914135 0.69892030930711557 0 0.84350379029877964 0.29914271679296989 0 0.8182088869973061 0.33080167595111531 0 0.7971997999085878 0.3010796906928917 0 0.29914271679297122 0.15649620970120659 0 0.33080167595110582 0.18179111300269291 0 0.30107969069289831 0.20280020009141189 0 0.33382663527330159 0.44130125047503482 0 0.37702386074717259 0.45819417564476811 0 0.33436424489304489 0.47849603121740791 0 0.44764943295894188 0.73752415265401661 0 0.46634612187967051 0.76767585524061377 0 0.43306783640023289 0.78031198216144404 0 0.73752415265401194 0.55235056704108476 0 0.76797069865873757 0.53315993670164308 0 0.78031198216143516 0.56693216359979737 0 0.26247584734598628 0.44764943295894732 0 0.23232476702437141 0.46634525369567709 0 0.21968801783855879 0.43306783640023788 0 0.55175647814720108 0.26104505532086641 0 0.53265327255359129 0.23135454206919101 0 0.56683314878414581 0.21944955250104689 0 0.65000000000104008 1 0 0.63753756910470316 0.95578163339252209 0 0.6766004019857832 0.9676421564932749 0 0 0.65000000000104008 0 0.04421836660747535 0.63753756910470205 0 0.032357843506722522 0.67660040198578164 0 1 0.34999999999912063 0 0.95581270756939096 0.36248656652865863 0 0.96720628700974665 0.32362438565954771 0 0.34999999999912063 0 0 0.36246243089534252 0.044218366607477223 0 0.32361955853288599 0.032799927825624707 0 0.67757268808231397 0.93106206656183088 0 0.6766004019857832 0.9676421564932749 0 0.63753756910470316 0.95578163339252209 0 0.068937933438162791 0.67757268808231053 0 0.032357843506722522 0.67660040198578164 0 0.04421836660747535 0.63753756910470205 0 0.93106206656185309 0.32242731191769503 0 0.96720628700974665 0.32362438565954771 0 0.95581270756939096 0.36248656652865863 0 0.32242731191769902 0.068937933438140794 0 0.32361955853288599 0.032799927825624707 0 0.36246243089534252 0.044218366607477223 0 0.94812782820415209 0.44708943904932719 0 0.92203742772043751 0.47579485578641628 0 0.90991454156957952 0.4312731559748802 0 0.88561059063756964 0.46572761956237563 0 0.90991454156957952 0.4312731559748802 0 0.92203742772043751 0.47579485578641628 0 0.49189101320880302 0.59024331187324797 0 0.45517457031814612 0.62743100079604397 0 0.45030222762303879 0.58443295115431027 0 0.54465502325161819 0.74717983044080061 0 0.57578062281532438 0.77751665353176347 0 0.53770425635794761 0.80104587463999666 0 0.25287139441262568 0.54458355434492378 0 0.2224870800581388 0.57577541371134155 0 0.1989632851005598 0.53769147668950479 0 0.74730218607442667 0.45539100053644521 0 0.77752557158083724 0.42422273168818408 0 0.80106707846564795 0.46230714888029367 0 0.45533136021725079 0.2525687312087147 0 0.42421838472613971 0.22246502005787769 0 0.46229330881044273 0.19890916456654811 0 0.57387636360620708 0.54318431390135336 0 0.59621567360238914 0.5184866806641607 0 0.61866949026800744 0.55492322767366287 0 0.66923299355723143 0.8804077449518628 0 0.6441774148058701 0.91458123574274031 0 0.62483828039315681 0.8780818733396436 0 0.1195922550481313 0.66923299355722787 0 0.085418764257258195 0.64417741480586865 0 0.1219181266603569 0.62483828039315903 0 0.88040774495187946 0.33076700644278889 0 0.91286712511202617 0.35637271447129198 0 0.87815187193233801 0.37523526017134418 0 0.33076700644279272 0.1195922550481146 0 0.35582258519414178 0.085418764257258431 0 0.37516171960683908 0.121918126660369 0 0.49189101320880302 0.59024331187324797 0 0.45030222762303879 0.58443295115431027 0 0.47974773860103892 0.54872726831320284 0 0.92670321183853355 0.65773042910151081 0 0.90051880305432697 0.69261863673346957 0 0.88396545633132484 0.6625197322180193 0 0.65773042910151891 0.073296788161472337 0 0.69253601466723103 0.09949211948105087 0 0.66251865414987876 0.1160340021949529 0 0.3422695708985129 0.92670321183858773 0 0.30738136326657722 0.90051880305435028 0 0.33748026778199908 0.88396545633134682 0 0.073296788161418117 0.34226957089850552 0 0.099492119481027347 0.30746398533281638 0 0.11603400219493119 0.33748134585014028 0 0.60938371359314658 0.91847489683800321 0 0.6441774148058701 0.91458123574274031 0 0.63753756910470316 0.95578163339252209 0 0.081525103161997597 0.6093837135931508 0 0.085418764257258195 0.64417741480586865 0 0.04421836660747535 0.63753756910470205 0 0.91890123454466932 0.39094742729597309 0 0.91286712511202617 0.35637271447129198 0 0.95581270756939096 0.36248656652865863 0 0.39061628640684498 0.081525103161991672 0 0.35582258519414178 0.085418764257258431 0 0.36246243089534252 0.044218366607477223 0 0.67757268808231397 0.93106206656183088 0 0.63753756910470316 0.95578163339252209 0 0.6441774148058701 0.91458123574274031 0 0.068937933438162791 0.67757268808231053 0 0.04421836660747535 0.63753756910470205 0 0.085418764257258195 0.64417741480586865 0 0.93106206656185309 0.32242731191769503 0 0.95581270756939096 0.36248656652865863 0 0.91286712511202617 0.35637271447129198 0 0.32242731191769902 0.068937933438140794 0 0.36246243089534252 0.044218366607477223 0 0.35582258519414178 0.085418764257258431 0 0.56759263990989184 0.81794319034601648 0 0.53770425635794761 0.80104587463999666 0 0.57578062281532438 0.77751665353176347 0 0.18205680965398621 0.56759263990989739 0 0.1989632851005598 0.53769147668950479 0 0.2224870800581388 0.57577541371134155 0 0.81794319034597418 0.43240736009009317 0 0.80106707846564795 0.46230714888029367 0 0.77752557158083724 0.42422273168818408 0 0.43240736009008851 0.18205680965402779 0 0.46229330881044273 0.19890916456654811 0 0.42421838472613971 0.22246502005787769 0 0.4434591735942961 0.66641640622551224 0 0.46736891737654429 0.70015537930374983 0 0.42715538333808079 0.70077759375307946 0 0.44764943295894188 0.73752415265401661 0 0.42715538333808079 0.70077759375307946 0 0.46736891737654429 0.70015537930374983 0 0.66548584431530877 0.55616712808283064 0 0.69798396601998558 0.5289734597937793 0 0.70087539567735502 0.57165914616526226 0 0.33382663527330159 0.44130125047503482 0 0.29988655052531688 0.46700727827593119 0 0.2963043386970643 0.4298320229681446 0 0.73752415265401194 0.55235056704108476 0 0.70087539567735502 0.57165914616526226 0 0.69798396601998558 0.5289734597937793 0 0.26247584734598628 0.44764943295894732 0 0.2963043386970643 0.4298320229681446 0 0.29988655052531688 0.46700727827593119 0 0.46102425708533701 0.43254199134332588 0 0.46543211128216788 0.38788423543681888 0 0.5047849391802508 0.40719950955717021 0 0.49854341599767982 0.37075914768127122 0 0.5047849391802508 0.40719950955717021 0 0.46543211128216788 0.38788423543681888 0 0.55175647814720108 0.26104505532086641 0 0.57188338999077359 0.29874123486230147 0 0.52929435216580312 0.29671213472503383 0 0.48378871228000903 0.29745177826977359 0 0.52929435216580312 0.29671213472503383 0 0.51491507395299929 0.3326740076510219 0 0.46102425708533701 0.43254199134332588 0 0.42340342337193693 0.44762131874855388 0 0.42930823106401639 0.40626685012722968 0 0.39419886675318527 0.41912225240070788 0 0.42930823106401639 0.40626685012722968 0 0.42340342337193693 0.44762131874855388 0 0.94812782820415209 0.44708943904932719 0 0.96266688603193029 0.48495124540067203 0 0.92203742772043751 0.47579485578641628 0 0.44692795014265252 0.051801877645060238 0 0.48492433058289169 0.037321398276272413 0 0.47574662421782782 0.077626823840590969 0 0.93510666819640953 0.51330222939551939 0 0.92203742772043751 0.47579485578641628 0 0.96266688603193029 0.48495124540067203 0 0.5133022293955174 0.064893331803591428 0 0.47574662421782782 0.077626823840590969 0 0.48492433058289169 0.037321398276272413 0 0.55307204985744796 0.94819812235491685 0 0.51507566941747085 0.9626786017237855 0 0.52425337578225772 0.9223731761594427 0 0.051801877645083663 0.55307204985745195 0 0.037321398276215258 0.51507566941747263 0 0.07762682384055844 0.52425337578226128 0 0.48669777060454272 0.93510666819646593 0 0.52425337578225772 0.9223731761594427 0 0.51507566941747085 0.9626786017237855 0 0.064893331803534807 0.48669777060454478 0 0.07762682384055844 0.52425337578226128 0 0.037321398276215258 0.51507566941747263 0 0.70252050881959183 0.70358884261915833 0 0.71159714897733284 0.75039044679290845 0 0.67626275269587088 0.72713741921009012 0 0.29641115738084339 0.70252050881958938 0 0.249609553207091 0.71159714897732929 0 0.27349656744860212 0.67581741996408695 0 0.70358884261915744 0.29747949118041561 0 0.75039044679291111 0.28840285102267788 0 0.72713741921008324 0.32373724730413678 0 0.29747949118041711 0.2964111573808435 0 0.28840285102268098 0.24960955320708811 0 0.32373692627050221 0.27286413781593999 0 0.48378871228000903 0.29745177826977359 0 0.50732841191799194 0.2613117081243182 0 0.52929435216580312 0.29671213472503383 0 0.50000000000002642 0.7803135888501761 0 0.46634612187967051 0.76767585524061377 0 0.49073113440598592 0.73759004618730417 0 0.44764943295894188 0.73752415265401661 0 0.49073113440598592 0.73759004618730417 0 0.46634612187967051 0.76767585524061377 0 0.73752415265401194 0.55235056704108476 0 0.73815142352639962 0.50697050072007344 0 0.76797069865873757 0.53315993670164308 0 0.78031358885017377 0.49999999999997569 0 0.76797069865873757 0.53315993670164308 0 0.73815142352639962 0.50697050072007344 0 0.2196864111498267 0.50000000000003153 0 0.23232476702437141 0.46634525369567709 0 0.262418491288269 0.49071922292154141 0 0.26247584734598628 0.44764943295894732 0 0.262418491288269 0.49071922292154141 0 0.23232476702437141 0.46634525369567709 0 0.55175647814720108 0.26104505532086641 0 0.50732841191799194 0.2613117081243182 0 0.53265327255359129 0.23135454206919101 0 0.49999999999997108 0.21968641114982909 0 0.53265327255359129 0.23135454206919101 0 0.50732841191799194 0.2613117081243182 0 0.64455163611866495 0.50369301794551069 0 0.62619054498681193 0.46482944251856079 0 0.66329969176266512 0.46626046872004567 0 0.50000000000002642 0.7803135888501761 0 0.46593838964869061 0.80781872835503554 0 0.46634612187967051 0.76767585524061377 0 0.2196864111498267 0.50000000000003153 0 0.19218127164496679 0.46593838964869538 0 0.23232476702437141 0.46634525369567709 0 0.78031358885017377 0.49999999999997569 0 0.80781854240107975 0.53406203754901738 0 0.76797069865873757 0.53315993670164308 0 0.49999999999997108 0.21968641114982909 0 0.53404982287327418 0.19215288291432539 0 0.53265327255359129 0.23135454206919101 0 0.55175647814720108 0.26104505532086641 0 0.52929435216580312 0.29671213472503383 0 0.50732841191799194 0.2613117081243182 0 0.64518564541690571 0.69601563325001548 0 0.67626275269587088 0.72713741921009012 0 0.64203711532612107 0.74316477213290444 0 0.30421635384321521 0.64514939193436716 0 0.27349656744860212 0.67581741996408695 0 0.25684529255773247 0.64203554247963057 0 0.69601563325001248 0.35481435458309712 0 0.72713741921008324 0.32373724730413678 0 0.74316477213289889 0.35796288467388632 0 0.35481435458309307 0.30398436674998969 0 0.32373692627050221 0.27286413781593999 0 0.3579628846738841 0.25683522786710378 0 0.640156794425081 0.43301393728221721 0 0.66329969176266512 0.46626046872004567 0 0.62619054498681193 0.46482944251856079 0 1 0.64999999999907843 0 0.96779701826738695 0.67105375815842694 0 0.96654491682122368 0.6363613838740827 0 0.64999999999907843 0 0 0.67098510785536181 0.032220921767549461 0 0.63635157668793507 0.033457646040912177 0 0.35000000000145642 1 0 0.32894624184180998 0.96779701826738929 0 0.36363861612613613 0.96654491682121313 0 0 0.35000000000145642 0 0.032220921767546963 0.32901489214487523 0 0.033457646040922301 0.36364842331228431 0 0.66820316019503978 0.77769800602796979 0 0.69892030930712212 0.7971997999085858 0 0.66919832404887702 0.81820888699730587 0 0.22230199397202771 0.66820316019503168 0 0.2028002000914135 0.69892030930711557 0 0.1817911130026923 0.66919832404888702 0 0.77769800602796679 0.33179683980497482 0 0.7971997999085878 0.3010796906928917 0 0.8182088869973061 0.33080167595111531 0 0.33179683980498331 0.2223019939720311 0 0.30107969069289831 0.20280020009141189 0 0.33080167595110582 0.18179111300269291 0 0.4434591735942961 0.66641640622551224 0 0.47818752133962877 0.66454462905280853 0 0.46736891737654429 0.70015537930374983 0 0.33382663527330159 0.44130125047503482 0 0.33436424489304489 0.47849603121740791 0 0.29988655052531688 0.46700727827593119 0 0.46102425708533701 0.43254199134332588 0 0.42930823106401639 0.40626685012722968 0 0.46543211128216788 0.38788423543681888 0 0.35984320557492089 0.56698606271778873 0 0.40468198875170619 0.57637931869191572 0 0.37104651296145419 0.60545170748311072 0 0.60938371359314658 0.91847489683800321 0 0.62483828039315681 0.8780818733396436 0 0.6441774148058701 0.91458123574274031 0 0.081525103161997597 0.6093837135931508 0 0.1219181266603569 0.62483828039315903 0 0.085418764257258195 0.64417741480586865 0 0.91890123454466932 0.39094742729597309 0 0.87815187193233801 0.37523526017134418 0 0.91286712511202617 0.35637271447129198 0 0.39061628640684498 0.081525103161991672 0 0.37516171960683908 0.121918126660369 0 0.35582258519414178 0.085418764257258431 0 0.40653508887824003 0.61580573377480397 0 0.37104651296145419 0.60545170748311072 0 0.40468198875170619 0.57637931869191572 0 
</DataArray>
</Points>
<Cells>
<DataArray type="UInt32" Name="connectivity" format="ascii">
0 1 2 3 4 5 6 7 8 9 10 11 12 13 14 15 16 17 18 19 20 21 22 23 24 25 26 27 28 29 30 31 32 33 34 35 36 37 38 39 40 41 42 43 44 45 46 47 48 49 50 51 52 53 54 55 56 57 58 59 60 61 62 63 64 65 66 67 68 69 70 71 72 73 74 75 76 77 78 79 80 81 82 83 84 85 86 87 88 89 90 91 92 93 94 95 96 97 98 99 100 101 102 103 104 105 106 107 108 109 110 111 112 113 114 115 116 117 118 119 120 121 122 123 124 125 126 127 128 129 130 131 132 133 134 135 136 137 138 139 140 141 142 143 144 145 146 147 148 149 150 151 152 153 154 155 156 157 158 159 160 161 162 163 164 165 166 167 168 169 170 171 172 173 174 175 176 177 178 179 180 181 182 183 184 185 186 187 188 189 190 191 192 193 194 195 196 197 198 199 200 201 202 203 204 205 206 207 208 209 210 211 212 213 214 215 216 217 218 219 220 221 222 223 224 225 226 227 228 229 230 231 232 233 234 235 236 237 238 239 240 241 242 243 244 245 246 247 248 249 250 251 252 253 254 255 256 257 258 259 260 261 262 263 264 265 266 267 268 269 270 271 272 273 274 275 276 277 278 279 280 281 282 283 284 285 286 287 288 289 290 291 292 293 294 295 296 297 298 299 300 301 302 303 304 305 306 307 308 309 310 311 312 313 314 315 316 317 318 319 320 321 322 323 324 325 326 327 328 329 330 331 332 333 334 335 336 337 338 339 340 341 342 343 344 345 346 347 348 349 350 351 352 353 354 355 356 357 358 359 360 361 362 363 364 365 366 367 368 369 370 371 372 373 374 375 376 377 378 379 380 381 382 383 384 385 386 387 388 389 390 391 392 393 394 395 396 397 398 399 400 401 402 403 404 405 406 407 408 409 410 411 412 413 414 415 416 417 418 419 420 421 422 423 424 425 426 427 428 429 430 431 432 433 434 435 436 437 438 439 440 441 442 443 444 445 446 447 448 449 450 451 452 453 454 455 456 457 458 459 460 461 462 463 464 465 466 467 468 469 470 471 472 473 474 475 476 477 478 479 480 481 482 483 484 485 486 487 488 489 490 491 492 493 494 495 496 497 498 499 500 501 502 503 504 505 506 507 508 509 510 511 512 513 514 515 516 517 518 519 520 521 522 523 524 525 526 527 528 529 530 531 532 533 534 535 536 537 538 539 540 541 542 543 544 545 546 547 548 549 550 551 552 553 554 555 556 557 558 559 560 561 562 563 564 565 566 567 568 569 570 571 572 573 574 575 576 577 578 579 580 581 582 583 584 585 586 587 588 589 590 591 592 593 594 595 596 597 598 599 600 601 602 603 604 605 606 607 608 609 610 611 612 613 614 615 616 617 618 619 620 621 622 623 624 625 626 627 628 629 630 631 632 633 634 635 636 637 638 639 640 641 642 643 644 645 646 647 648 649 650 651 652 653 654 655 656 657 658 659 660 661 662 663 664 665 666 667 668 669 670 671 672 673 674 675 676 677 678 679 680 681 682 683 684 685 686 687 688 689 690 691 692 693 694 695 696 697 698 699 700 701 702 703 704 705 706 707 708 709 710 711 712 713 714 715 716 717 718 719 720 721 722 723 724 725 726 727 728 729 730 731 732 733 734 735 736 737 738 739 740 741 742 743 744 745 746 747 748 749 750 751 752 753 754 755 756 757 758 759 760 761 762 763 764 765 766 767 768 769 770 771 772 773 774 775 776 777 778 779 780 781 782 783 784 785 786 787 788 789 790 791 792 793 794 795 796 797 798 799 800 801 802 803 804 805 806 807 808 809 810 811 812 813 814 815 816 817 818 819 820 821 822 823 824 825 826 827 828 829 830 831 832 833 834 835 836 837 838 839 840 841 842 843 844 845 846 847 848 849 850 851 852 853 854 855 856 857 858 859 860 861 862 863 864 865 866 867 868 869 870 871 872 873 874 875 876 877 878 879 880 881 882 883 884 885 886 887 888 889 890 891 892 893 894 895 896 897 898 899 900 901 902 903 904 905 906 907 908 909 910 911 912 913 914 915 916 917 918 919 920 921 922 923 924 925 926 927 928 929 930 931 932 933 934 935 936 937 938 939 940 941 942 943 944 945 946 947 948 949 950 951 952 953 954 955 956 957 958 959 960 961 962 963 964 965 966 967 968 969 970 971 972 973 974 975 976 977 978 979 980 981 982 983 984 985 986 987 988 989 990 991 992 993 994 995 996 997 998 999 1000 1001 1002 1003 1004 1005 1006 1007 1008 1009 1010 1011 1012 1013 1014 1015 1016 1017 1018 1019 1020 1021 1022 1023 1024 1025 1026 1027 1028 1029 1030 1031 1032 1033 1034 1035 1036 1037 1038 1039 1040 1041 1042 1043 1044 1045 1046 1047 1048 1049 1050 1051 1052 1053 1054 1055 1056 1057 1058 1059 1060 1061 1062 1063 1064 1065 1066 1067 1068 1069 1070 1071 1072 1073 1074 1075 1076 1077 1078 1079 1080 1081 1082 1083 1084 1085 1086 1087 1088 1089 1090 1091 1092 1093 1094 1095 1096 1097 1098 1099 1100 1101 1102 1103 1104 1105 1106 1107 1108 1109 1110 1111 1112 1113 1114 1115 1116 1117 1118 1119 1120 1121 1122 1123 1124 1125 1126 1127 1128 1129 1130 1131 1132 1133 1134 1135 1136 1137 1138 1139 1140 1141 1142 1143 1144 1145 1146 1147 1148 1149 1150 1151 1152 1153 1154 1155 1156 1157 1158 1159 1160 1161 1162 1163 1164 1165 1166 1167 1168 1169 1170 1171 1172 1173 1174 1175 1176 1177 1178 1179 1180 1181 1182 1183 1184 1185 1186 1187 1188 1189 1190 1191 1192 1193 1194 1195 1196 1197 1198 1199 1200 1201 1202 1203 1204 1205 1206 1207 1208 1209 1210 1211 1212 1213 1214 1215 1216 1217 1218 1219 1220 1221 1222 1223 1224 1225 1226 1227 1228 1229 1230 1231 1232 1233 1234 1235 1236 1237 1238 1239 1240 1241 1242 1243 1244 1245 1246 1247 1248 1249 1250 1251 1252 1253 1254 1255 1256 1257 1258 1259 1260 1261 1262 1263 1264 1265 1266 1267 1268 1269 1270 1271 1272 1273 1274 1275 1276 1277 1278 1279 1280 1281 1282 1283 1284 1285 1286 1287 1288 1289 1290 1291 1292 1293 1294 1295 1296 1297 1298 1299 1300 1301 1302 1303 1304 1305 1306 1307 1308 1309 1310 1311 1312 1313 1314 1315 1316 1317 1318 1319 1320 1321 1322 1323 1324 1325 1326 1327 1328 1329 1330 1331 1332 1333 1334 1335 1336 1337 1338 1339 1340 1341 1342 1343 1344 1345 1346 1347 1348 1349 1350 1351 1352 1353 1354 1355 1356 1357 1358 1359 1360 1361 1362 1363 1364 1365 1366 1367 1368 1369 1370 1371 1372 1373 1374 1375 1376 1377 1378 1379 1380 1381 1382 1383 1384 1385 1386 1387 1388 1389 1390 1391 1392 1393 1394 1395 1396 1397 1398 1399 1400 1401 1402 1403 1404 1405 1406 1407 1408 1409 1410 1411 1412 1413 1414 1415 1416 1417 1418 1419 1420 1421 1422 1423 1424 1425 1426 1427 1428 1429 1430 1431 1432 1433 1434 1435 1436 1437 1438 1439 1440 1441 1442 1443 1444 1445 1446 1447 1448 1449 1450 1451 1452 1453 1454 1455 1456 1457 1458 1459 1460 1461 1462 1463 1464 1465 1466 1467 1468 1469 1470 1471 1472 1473 1474 1475 1476 1477 1478 1479 1480 1481 1482 1483 1484 1485 1486 1487 1488 1489 1490 1491 1492 1493 1494 1495 1496 1497 1498 1499 1500 1501 1502 1503 1504 1505 1506 1507 1508 1509 1510 1511 1512 1513 1514 1515 1516 1517 1518 1519 1520 1521 1522 1523 1524 1525 1526 1527 1528 1529 1530 1531 1532 1533 1534 1535 1536 1537 1538 1539 1540 1541 1542 1543 1544 1545 1546 1547 1548 1549 1550 1551 1552 1553 1554 1555 1556 1557 1558 1559 1560 1561 1562 1563 1564 1565 1566 1567 1568 1569 1570 1571 1572 1573 1574 1575 1576 1577 1578 1579 1580 1581 1582 1583 1584 1585 1586 1587 1588 1589 1590 1591 1592 1593 1594 1595 1596 1597 1598 1599 1600 1601 1602 1603 1604 1605 1606 1607 1608 1609 1610 1611 1612 1613 1614 1615 1616 1617 1618 1619 1620 1621 1622 1623 1624 1625 1626 1627 1628 1629 1630 1631 1632 1633 1634 1635 1636 1637 1638 1639 1640 1641 1642 1643 1644 1645 1646 1647 1648 1649 1650 1651 1652 1653 1654 1655 1656 1657 1658 1659 1660 1661 1662 1663 1664 1665 1666 1667 1668 1669 1670 1671 1672 1673 1674 1675 1676 1677 1678 1679 1680 1681 1682 1683 1684 1685 1686 1687 1688 1689 1690 1691 1692 1693 1694 1695 1696 1697 1698 1699 1700 1701 1702 1703 1704 1705 1706 1707 1708 1709 1710 1711 1712 1713 1714 1715 1716 1717 1718 1719 1720 1721 1722 1723 1724 1725 1726 1727 1728 1729 1730 1731 1732 1733 1734 1735 1736 1737 1738 1739 1740 1741 1742 1743 1744 1745 1746 1747 1748 1749 1750 1751 1752 1753 1754 1755 1756 1757 1758 1759 1760 1761 1762 1763 1764 1765 1766 1767 1768 1769 1770 1771 1772 1773 1774 1775 1776 1777 1778 1779 1780 1781 1782 1783 1784 1785 1786 1787 1788 1789 1790 1791 1792 1793 1794 1795 1796 1797 1798 1799 1800 1801 1802 1803 1804 1805 1806 1807 1808 1809 1810 1811 1812 1813 1814 1815 1816 1817 1818 1819 1820 1821 1822 1823 1824 1825 1826 1827 1828 1829 1830 1831 1832 1833 1834 1835 1836 1837 1838 1839 1840 1841 1842 1843 1844 1845 1846 1847 1848 1849 1850 1851 1852 1853 1854 1855 1856 1857 1858 1859 1860 1861 1862 1863 1864 1865 1866 1867 1868 1869 1870 1871 1872 1873 1874 1875 1876 1877 1878 1879 1880 1881 1882 1883 1884 1885 1886 1887 1888 1889 1890 1891 1892 1893 1894 1895 1896 1897 1898 1899 1900 1901 1902 1903 1904 1905 1906 1907 1908 1909 1910 1911 1912 1913 1914 1915 1916 1917 1918 1919 1920 1921 1922 1923 1924 1925 1926 1927 1928 1929 1930 1931 1932 1933 1934 1935 1936 1937 1938 1939 1940 1941 1942 1943 1944 1945 1946 1947 1948 1949 1950 1951 1952 1953 1954 1955 1956 1957 1958 1959 1960 1961 1962 1963 1964 1965 1966 1967 1968 1969 1970 1971 1972 1973 1974 1975 1976 1977 1978 1979 1980 1981 1982 1983 1984 1985 1986 1987 1988 1989 1990 1991 1992 1993 1994 1995 1996 1997 1998 1999 2000 2001 2002 2003 2004 2005 2006 2007 2008 2009 2010 2011 2012 2013 2014 2015 2016 2017 2018 2019 2020 2021 2022 2023 2024 2025 2026 2027 2028 2029 2030 2031 2032 2033 2034 2035 2036 2037 2038 2039 2040 2041 2042 2043 2044 2045 2046 2047 2048 2049 2050 2051 2052 2053 2054 2055 2056 2057 2058 2059 2060 2061 2062 2063 2064 2065 2066 2067 2068 2069 2070 2071 2072 2073 2074 2075 2076 2077 2078 2079 2080 2081 2082 2083 2084 2085 2086 2087 2088 2089 2090 2091 2092 2093 2094 2095 2096 2097 2098 2099 2100 2101 2102 2103 2104 2105 2106 2107 2108 2109 2110 2111 2112 2113 2114 2115 2116 2117 2118 2119 2120 2121 2122 2123 2124 2125 2126 2127 2128 2129 2130 2131 2132 2133 2134 2135 2136 2137 2138 2139 2140 2141 2142 2143 2144 2145 2146 2147 2148 2149 2150 2151 2152 2153 2154 2155 2156 2157 2158 2159 2160 2161 2162 2163 2164 2165 2166 2167 2168 2169 2170 2171 2172 2173 2174 2175 2176 2177 2178 2179 2180 2181 2182 2183 2184 2185 2186 2187 2188 2189 2190 2191 2192 2193 2194 2195 2196 2197 2198 2199 2200 2201 2202 2203 2204 2205 2206 2207 2208 2209 2210 2211 2212 2213 2214 2215 2216 2217 2218 2219 2220 2221 2222 2223 2224 2225 2226 2227 2228 2229 2230 2231 2232 2233 2234 2235 2236 2237 2238 2239 2240 2241 2242 2243 2244 2245 2246 2247 2248 2249 2250 2251 2252 2253 2254 2255 2256 2257 2258 2259 2260 2261 2262 2263 2264 2265 2266 2267 2268 2269 2270 2271 2272 2273 2274 2275 2276 2277 2278 2279 2280 2281 2282 2283 2284 2285 2286 2287 2288 2289 2290 2291 2292 2293 2294 2295 2296 2297 2298 2299 2300 2301 2302 2303 2304 2305 2306 2307 2308 2309 2310 2311 2312 2313 2314 2315 2316 2317 2318 2319 2320 2321 2322 2323 2324 2325 2326 2327 2328 2329 2330 2331 2332 2333 2334 2335 2336 2337 2338 2339 2340 2341 2342 2343 2344 2345 2346 2347 2348 2349 2350 2351 2352 2353 2354 2355 2356 2357 2358 2359 2360 2361 2362 2363 2364 2365 2366 2367 2368 2369 2370 2371 2372 2373 2374 2375 2376 2377 2378 2379 2380 2381 2382 2383 2384 2385 2386 2387 2388 2389 2390 2391 2392 2393 2394 2395 2396 2397 2398 2399 2400 2401 2402 2403 2404 2405 2406 2407 2408 2409 2410 2411 2412 2413 2414 2415 2416 2417 2418 2419 2420 2421 2422 2423 2424 2425 2426 2427 2428 2429 2430 2431 2432 2433 2434 2435 2436 2437 2438 2439 2440 2441 2442 2443 2444 2445 2446 2447 2448 2449 2450 2451 2452 2453 2454 2455 2456 2457 2458 2459 2460 2461 2462 2463 2464 2465 2466 2467 2468 2469 2470 2471 2472 2473 2474 2475 2476 2477 2478 2479 2480 2481 2482 2483 2484 2485 2486 2487 2488 2489 2490 2491 2492 2493 2494 2495 2496 2497 2498 2499 2500 2501 2502 2503 2504 2505 2506 2507 2508 2509 2510 2511 2512 2513 2514 2515 2516 2517 2518 2519 2520 2521 2522 2523 2524 2525 2526 2527 2528 2529 2530 2531 2532 2533 2534 2535 2536 2537 2538 2539 2540 2541 2542 2543 2544 2545 2546 2547 2548 2549 2550 2551 2552 2553 2554 2555 2556 2557 2558 2559 2560 2561 2562 2563 2564 2565 2566 2567 2568 2569 2570 2571 2572 2573 2574 2575 2576 2577 2578 2579 2580 2581 2582 2583 2584 2585 2586 2587 2588 2589 2590 2591 2592 2593 2594 2595 2596 2597 2598 2599 2600 2601 2602 2603 2604 2605 2606 2607 2608 2609 2610 2611 2612 2613 2614 2615 2616 2617 2618 2619 2620 2621 2622 2623 2624 2625 2626 2627 2628 2629 2630 2631 2632 2633 2634 2635 2636 2637 2638 2639 2640 2641 2642 2643 2644 2645 2646 2647 2648 2649 2650 2651 2652 2653 2654 2655 2656 2657 2658 2659 2660 2661 2662 2663 2664 2665 2666 2667 2668 2669 2670 2671 2672 2673 2674 2675 2676 2677 2678 2679 2680 2681 2682 2683 2684 2685 2686 2687 2688 2689 2690 2691 2692 2693 2694 2695 2696 2697 2698 2699 2700 2701 2702 2703 2704 2705 2706 2707 2708 2709 2710 2711 2712 2713 2714 2715 2716 2717 2718 2719 2720 2721 2722 2723 2724 2725 2726 2727 2728 2729 2730 2731 2732 2733 2734 2735 2736 2737 2738 2739 2740 2741 2742 2743 2744 2745 2746 2747 2748 2749 2750 2751 2752 2753 2754 2755 2756 2757 2758 2759 2760 2761 2762 2763 2764 2765 2766 2767 2768 2769 2770 2771 2772 2773 2774 2775 2776 2777 2778 2779 2780 2781 2782 2783 2784 2785 2786 2787 2788 2789 2790 2791 2792 2793 2794 2795 2796 2797 2798 2799 2800 2801 2802 2803 2804 2805 2806 2807 2808 2809 2810 2811 2812 2813 2814 2815 2816 2817 2818 2819 2820 2821 2822 2823 2824 2825 2826 2827 2828 2829 2830 2831 2832 2833 2834 2835 2836 2837 2838 2839 2840 2841 2842 2843 2844 2845 2846 2847 2848 2849 2850 2851 2852 2853 2854 2855 2856 2857 2858 2859 2860 2861 2862 2863 2864 2865 2866 2867 2868 2869 2870 2871 2872 2873 2874 2875 2876 2877 2878 2879 2880 2881 2882 2883 2884 2885 2886 2887 2888 2889 2890 2891 2892 2893 2894 2895 2896 2897 2898 2899 2900 2901 2902 2903 2904 2905 2906 2907 2908 2909 2910 2911 2912 2913 2914 2915 2916 2917 2918 2919 2920 2921 2922 2923 2924 2925 2926 2927 2928 2929 2930 2931 2932 2933 2934 2935 2936 2937 2938 2939 2940 2941 2942 2943 2944 2945 2946 2947 2948 2949 2950 2951 2952 2953 2954 2955 2956 2957 2958 2959 2960 2961 2962 2963 2964 2965 2966 2967 2968 2969 2970 2971 2972 2973 2974 2975 2976 2977 2978 2979 2980 2981 2982 2983 2984 2985 2986 2987 2988 2989 2990 2991 2992 2993 2994 2995 2996 2997 2998 2999 3000 3001 3002 3003 3004 3005 3006 3007 3008 3009 3010 3011 3012 3013 3014 3015 3016 3017 3018 3019 3020 3021 3022 3023 3024 3025 3026 3027 3028 3029 3030 3031 3032 3033 3034 3035 3036 3037 3038 3039 3040 3041 3042 3043 3044 3045 3046 3047 3048 3049 3050 3051 3052 3053 3054 3055 3056 3057 3058 3059 3060 3061 3062 3063 3064 3065 3066 3067 3068 3069 3070 3071 3072 3073 3074 3075 3076 3077 3078 3079 3080 3081 3082 3083 3084 3085 3086 3087 3088 3089 3090 3091 3092 3093 3094 3095 3096 3097 3098 3099 3100 3101 3102 3103 3104 3105 3106 3107 3108 3109 3110 3111 3112 3113 3114 3115 3116 3117 3118 3119 3120 3121 3122 3123 3124 3125 3126 3127 3128 3129 3130 3131 3132 3133 3134 3135 3136 3137 3138 3139 3140 3141 3142 3143 3144 3145 3146 3147 3148 3149 3150 3151 3152 3153 3154 3155 3156 3157 3158 3159 3160 3161 
</DataArray>
<DataArray type="UInt32" Name="offsets" format="ascii">
3 6 9 12 15 18 21 24 27 30 33 36 39 42 45 48 51 54 57 60 63 66 69 72 75 78 81 84 87 90 93 96 99 102 105 108 111 114 117 120 123 126 129 132 135 138 141 144 147 150 153 156 159 162 165 168 171 174 177 180 183 186 189 192 195 198 201 204 207 210 213 216 219 222 225 228 231 234 237 240 243 246 249 252 255 258 261 264 267 270 273 276 279 282 285 288 291 294 297 300 303 306 309 312 315 318 321 324 327 330 333 336 339 342 345 348 351 354 357 360 363 366 369 372 375 378 381 384 387 390 393 396 399 402 405 408 411 414 417 420 423 426 429 432 435 438 441 444 447 450 453 456 459 462 465 468 471 474 477 480 483 486 489 492 495 498 501 504 507 510 513 516 519 522 525 528 531 534 537 540 543 546 549 552 555 558 561 564 567 570 573 576 579 582 585 588 591 594 597 600 603 606 609 612 615 618 621 624 627 630 633 636 639 642 645 648 651 654 657 660 663 666 669 672 675 678 681 684 687 690 693 696 699 702 705 708 711 714 717 720 723 726 729 732 735 738 741 744 747 750 753 756 759 762 765 768 771 774 777 780 783 786 789 792 795 798 801 804 807 810 813 816 819 822 825 828 831 834 837 840 843 846 849 852 855 858 861 864 867 870 873 876 879 882 885 888 891 894 897 900 903 906 909 912 915 918 921 924 927 930 933 936 939 942 945 948 951 954 957 960 963 966 969 972 975 978 981 984 987 990 993 996 999 1002 1005 1008 1011 1014 1017 1020 1023 1026 1029 1032 1035 1038 1041 1044 1047 1050 1053 1056 1059 1062 1065 1068 1071 1074 1077 1080 1083 1086 1089 1092 1095 1098 1101 1104 1107 1110 1113 1116 1119 1122 1125 1128 1131 1134 1137 1140 1143 1146 1149 1152 1155 1158 1161 1164 1167 1170 1173 1176 1179 1182 1185 1188 1191 1194 1197 1200 1203 1206 1209 1212 1215 1218 1221 1224 1227 1230 1233 1236 1239 1242 1245 1248 1251 1254 1257 1260 1263 1266 1269 1272 1275 1278 1281 1284 1287 1290 1293 1296 1299 1302 1305 1308 1311 1314 1317 1320 1323 1326 1329 1332 1335 1338 1341 1344 1347 1350 1353 1356 1359 1362 1365 1368 1371 1374 1377 1380 1383 1386 1389 1392 1395 1398 1401 1404 1407 1410 1413 1416 1419 1422 1425 1428 1431 1434 1437 1440 1443 1446 1449 1452 1455 1458 1461 1464 1467 1470 1473 1476 1479 1482 1485 1488 1491 1494 1497 1500 1503 1506 1509 1512 1515 1518 1521 1524 1527 1530 1533 1536 1539 1542 1545 1548 1551 1554 1557 1560 1563 1566 1569 1572 1575 1578 1581 1584 1587 1590 1593 1596 1599 1602 1605 1608 1611 1614 1617 1620 1623 1626 1629 1632 1635 1638 1641 1644 1647 1650 1653 1656 1659 1662 1665 1668 1671 1674 1677 1680 1683 1686 1689 1692 1695 1698 1701 1704 1707 1710 1713 1716 1719 1722 1725 1728 1731 1734 1737 1740 1743 1746 1749 1752 1755 1758 1761 1764 1767 1770 1773 1776 1779 1782 1785 1788 1791 1794 1797 1800 1803 1806 1809 1812 1815 1818 1821 1824 1827 1830 1833 1836 1839 1842 1845 1848 1851 1854 1857 1860 1863 1866 1869 1872 1875 1878 1881 1884 1887 1890 1893 1896 1899 1902 1905 1908 1911 1914 1917 1920 1923 1926 1929 1932 1935 1938 1941 1944 1947 1950 1953 1956 1959 1962 1965 1968 1971 1974 1977 1980 1983 1986 1989 1992 1995 1998 2001 2004 2007 2010 2013 2016 2019 2022 2025 2028 2031 2034 2037 2040 2043 2046 2049 2052 2055 2058 2061 2064 2067 2070 2073 2076 2079 2082 2085 2088 2091 2094 2097 2100 2103 2106 2109 2112 2115 2118 2121 2124 2127 2130 2133 2136 2139 2142 2145 2148 2151 2154 2157 2160 2163 2166 2169 2172 2175 2178 2181 2184 2187 2190 2193 2196 2199 2202 2205 2208 2211 2214 2217 2220 2223 2226 2229 2232 2235 2238 2241 2244 2247 2250 2253 2256 2259 2262 2265 2268 2271 2274 2277 2280 2283 2286 2289 2292 2295 2298 2301 2304 2307 2310 2313 2316 2319 2322 2325 2328 2331 2334 2337 2340 2343 2346 2349 2352 2355 2358 2361 2364 2367 2370 2373 2376 2379 2382 2385 2388 2391 2394 2397 2400 2403 2406 2409 2412 2415 2418 2421 2424 2427 2430 2433 2436 2439 2442 2445 2448 2451 2454 2457 2460 2463 2466 2469 2472 2475 2478 2481 2484 2487 2490 2493 2496 2499 2502 2505 2508 2511 2514 2517 2520 2523 2526 2529 2532 2535 2538 2541 2544 2547 2550 2553 2556 2559 2562 2565 2568 2571 2574 2577 2580 2583 2586 2589 2592 2595 2598 2601 2604 2607 2610 2613 2616 2619 2622 2625 2628 2631 2634 2637 2640 2643 2646 2649 2652 2655 2658 2661 2664 2667 2670 2673 2676 2679 2682 2685 2688 2691 2694 2697 2700 2703 2706 2709 2712 2715 2718 2721 2724 2727 2730 2733 2736 2739 2742 2745 2748 2751 2754 2757 2760 2763 2766 2769 2772 2775 2778 2781 2784 2787 2790 2793 2796 2799 2802 2805 2808 2811 2814 2817 2820 2823 2826 2829 2832 2835 2838 2841 2844 2847 2850 2853 2856 2859 2862 2865 2868 2871 2874 2877 2880 2883 2886 2889 2892 2895 2898 2901 2904 2907 2910 2913 2916 2919 2922 2925 2928 2931 2934 2937 2940 2943 2946 2949 2952 2955 2958 2961 2964 2967 2970 2973 2976 2979 2982 2985 2988 2991 2994 2997 3000 3003 3006 3009 3012 3015 3018 3021 3024 3027 3030 3033 3036 3039 3042 3045 3048 3051 3054 3057 3060 3063 3066 3069 3072 3075 3078 3081 3084 3087 3090 3093 3096 3099 3102 3105 3108 3111 3114 3117 3120 3123 3126 3129 3132 3135 3138 3141 3144 3147 3150 3153 3156 3159 3162 
</DataArray>
<DataArray type="UInt32" Name="types" format="ascii">
5 5 5 5 5 5 5 5 5 5 5 5 5 5 5 5 5 5 5 5 5 5 5 5 5 5 5 5 5 5 5 5 5 5 5 5 5 5 5 5 5 5 5 5 5 5 5 5 5 5 5 5 5 5 5 5 5 5 5 5 5 5 5 5 5 5 5 5 5 5 5 5 5 5 5 5 5 5 5 5 5 5 5 5 5 5 5 5 5 5 5 5 5 5 5 5 5 5 5 5 5 5 5 5 5 5 5 5 5 5 5 5 5 5 5 5 5 5 5 5 5 5 5 5 5 5 5 5 5 5 5 5 5 5 5 5 5 5 5 5 5 5 5 5 5 5 5 5 5 5 5 5 5 5 5 5 5 5 5 5 5 5 5 5 5 5 5 5 5 5 5 5 5 5 5 5 5 5 5 5 5 5 5 5 5 5 5 5 5 5 5 5 5 5 5 5 5 5 5 5 5 5 5 5 5 5 5 5 5 5 5 5 5 5 5 5 5 5 5 5 5 5 5 5 5 5 5 5 5 5 5 5 5 5 5 5 5 5 5 5 5 5 5 5 5 5 5 5 5 5 5 5 5 5 5 5 5 5 5 5 5 5 5 5 5 5 5 5 5 5 5 5 5 5 5 5 5 5 5 5 5 5 5 5 5 5 5 5 5 5 5 5 5 5 5 5 5 5 5 5 5 5 5 5 5 5 5 5 5 5 5 5 5 5 5 5 5 5 5 5 5 5 5 5 5 5 5 5 5 5 5 5 5 5 5 5 5 5 5 5 5 5 5 5 5 5 5 5 5 5 5 5 5 5 5 5 5 5 5 5 5 5 5 5 5 5 5 5 5 5 5 5 5 5 5 5 5 5 5 5 5 5 5 5 5 5 5 5 5 5 5 5 5 5 5 5 5 5 5 5 5 5 5 5 5 5 5 5 5 5 5 5 5 5 5 5 5 5 5 5 5 5 5 5 5 5 5 5 5 5 5 5 5 5 5 5 5 5 5 5 5 5 5 5 5 5 5 5 5 5 5 5 5 5 5 5 5 5 5 5 5 5 5 5 5 5 5 5 5 5 5 5 5 5 5 5 5 5 5 5 5 5 5 5 5 5 5 5 5 5 5 5 5 5 5 5 5 5 5 5 5 5 5 5 5 5 5 5 5 5 5 5 5 5 5 5 5 5 5 5 5 5 5 5 5 5 5 5 5 5 5 5 5 5 5 5 5 5 5 5 5 5 5 5 5 5 5 5 5 5 5 5 5 5 5 5 5 5 5 5 5 5 5 5 5 5 5 5 5 5 5 5 5 5 5 5 5 5 5 5 5 5 5 5 5 5 5 5 5 5 5 5 5 5 5 5 5 5 5 5 5 5 5 5 5 5 5 5 5 5 5 5 5 5 5 5 5 5 5 5 5 5 5 5 5 5 5 5 5 5 5 5 5 5 5 5 5 5 5 5 5 5 5 5 5 5 5 5 5 5 5 5 5 5 5 5 5 5 5 5 5 5 5 5 5 5 5 5 5 5 5 5 5 5 5 5 5 5 5 5 5 5 5 5 5 5 5 5 5 5 5 5 5 5 5 5 5 5 5 5 5 5 5 5 5 5 5 5 5 5 5 5 5 5 5 5 5 5 5 5 5 5 5 5 5 5 5 5 5 5 5 5 5 5 5 5 5 5 5 5 5 5 5 5 5 5 5 5 5 5 5 5 5 5 5 5 5 5 5 5 5 5 5 5 5 5 5 5 5 5 5 5 5 5 5 5 5 5 5 5 5 5 5 5 5 5 5 5 5 5 5 5 5 5 5 5 5 5 5 5 5 5 5 5 5 5 5 5 5 5 5 5 5 5 5 5 5 5 5 5 5 5 5 5 5 5 5 5 5 5 5 5 5 5 5 5 5 5 5 5 5 5 5 5 5 5 5 5 5 5 5 5 5 5 5 5 5 5 5 5 5 5 5 5 5 5 5 5 5 5 5 5 5 5 5 5 5 5 5 5 5 5 5 5 5 5 5 5 5 5 5 5 5 5 5 5 5 5 5 5 5 5 5 5 5 5 5 5 5 5 5 5 5 5 5 5 5 5 5 5 5 5 5 5 5 5 5 5 5 5 5 5 5 5 5 5 5 5 5 5 5 5 5 5 5 5 5 5 5 5 5 5 5 5 5 5 5 5 5 5 5 5 5 5 5 5 5 5 5 5 5 5 5 5 5 5 5 5 5 5 5 5 5 5 5 5 5 5 5 5 5 5 5 5 5 5 5 5 5 5 5 5 5 5 5 5 5 5 5 5 5 5 5 5 5 5 5 5 5 5 5 5 5 5 5 5 5 5 5 5 5 5 5 5 5 5 5 5 5 5 5 5 5 5 5 5 5 5 5 5 5 5 5 5 
</DataArray>
</Cells>
<PointData Scalars="" Vectors="displacement," Tensors="">
<DataArray type="Float64" Name="displacement" NumberOfComponents="3" format="ascii">
-0.00021975399072753779 -0.002320502545585038 0 -0.00015261864276568473 -0.0021683669620257608 0 -0.00010992837917676343 -0.002294345010137771 0 0.0004992325981879336 -0.0018663379120672687 0 0.00041003342540521775 -0.0017424996781832457 0 0.00048075852843551889 -0.0016864502075195219 0 -0.00045422996757775913 -0.0011575126216622957 0 -0.00038972217866326789 -0.0012607325970144976 0 -0.00046016794646049753 -0.001332242275494786 0 0.00015201520031001735 -0.00066661535983870946 0 0.00011438318653277064 -0.00079937429220698619 0 7.5491513512680579e-05 -0.00067956381215376806 0 0.00013672387154749075 -0.0019458813552580211 0 0.00023250393574021083 -0.0018528211655699798 0 0.0002267325302210081 -0.0020509094563163871 0 0.0003150979205263404 -0.0019756885327398555 0 0.00022673253022100813 -0.0020509094563163871 0 0.00023250393574021083 -0.0018528211655699798 0 0.00026882922791751044 -0.0012549120864378907 0 0.00018658557432029143 -0.0011058051769199488 0 0.00030206442845814939 -0.0011200196182081959 0 0.00024945581712825903 -0.00096999676182509887 0 0.00030206442845814939 -0.0011200196182081959 0 0.00018658557432029143 -0.0011058051769199488 0 0.0004983821674289339 -0.0028940311668654473 0 0.00056720521893275375 -0.0030243280015550007 0 0.00045020464434185906 -0.0030363163087800873 0 -0.0008176265487437166 -0.0023552290123317874 0 -0.0008867797785566551 -0.0024727458993074099 0 -0.00089315354811626748 -0.0022825527283940692 0 0.00061917109684080042 -0.00079333658929002602 0 0.0006701745245146194 -0.00076420187530201842 0 0.0007402454099081035 -0.00092798398293127431 0 -0.00017006009717777579 -0.00024543500799335512 0 -0.00010403567293370246 -0.00012420288778848621 0 -7.5605969695993714e-05 -0.00011044712567928327 0 0.00080022027251317027 -0.0032022179422013393 0 0.0007077536877423715 -0.0032026472238032722 0 0.00081136472180334503 -0.0030700886509895447 0 -0.00098084739010663577 -0.0028744598895811629 0 -0.00098107093474564212 -0.0027120198720697922 0 -0.00091034900019366699 -0.0028921142873562758 0 -0.00039851489549663766 -0.00033616961295670995 0 -0.00061676869399147373 -0.00060175146734245855 0 -0.00048561282130933116 -0.00044087893412556332 0 -0.00081168315373579536 -0.0030700811712782061 0 -0.00070797890978912929 -0.0032026558965446111 0 -0.00080049449812411889 -0.0032022266108702323 0 0.00013379821403639619 -9.6300662327447752e-05 0 2.1650488006352809e-08 -1.0283006018200055e-07 0 5.399156327127107e-08 -1.3519434540720367e-07 0 0.00091012177306740453 -0.0028921112963631364 0 0.00098090402989314601 -0.0027121239754026982 0 0.00098060455418571245 -0.0028744836676456113 0 0.00048614535680249158 -0.00044056865329521384 0 0.0006179266878400438 -0.00060098475001806636 0 0.00039910531780030308 -0.00033595276882333284 0 -5.3992876321101422e-08 -1.3644299361023017e-07 0 -2.148286466384004e-08 -1.0160882475902849e-07 0 -0.00013398442754066934 -9.6752513780270062e-05 0 0.00071104786587202558 -0.0007459807582478015 0 0.0006701745245146194 -0.00076420187530201842 0 0.00061278005671002822 -0.00062654826064798854 0 -3.1620573175519483e-08 -1.1531060229473193e-07 0 -0.00010403567293370246 -0.00012420288778848621 0 -9.0298005738776162e-05 -8.9769769370815294e-05 0 0.00061242195874310057 -0.003202468416897768 0 0.00056720521893275375 -0.0030243280015550007 0 0.00066374274525080154 -0.0030562919197512865 0 -0.00098027787061656245 -0.0025501640873960081 0 -0.0008867797785566551 -0.0024727458993074099 0 -0.00090338422496442894 -0.0026350504502296373 0 0.00098015790580693071 -0.0025502987326652625 0 0.00091125948758041754 -0.0026118926548963058 0 0.00088139117068850058 -0.0024430155461390404 0 3.1036414250306687e-08 -1.1536833215206164e-07 0 8.9603385145484681e-05 -8.9492756475142662e-05 0 0.00010565074513270374 -0.00012630332549189209 0 -0.00061276942596129606 -0.0032023683577854368 0 -0.00065018383742579053 -0.0030714904607610765 0 -0.00054972781138595199 -0.0030142295109766327 0 -0.00071126274703869311 -0.0007460884145450747 0 -0.00061143765541075198 -0.00062386287105834848 0 -0.00067307719402192711 -0.00077180736915740799 0 -8.3614578666341526e-08 -0.00244132921544047 0 7.9014424578027249e-05 -0.0025133863768217282 0 -4.9142311674728083e-06 -0.0026473307002162715 0 -0.00055561764007709539 -0.0015238271990810448 0 -0.00060237790866807088 -0.0016572269845105921 0 -0.00066833903097496988 -0.0015397556783318567 0 0.00055536303053990146 -0.0015238895230080725 0 0.00058544782323532172 -0.00140627023944087 0 0.00066918174343757076 -0.001554927983216111 0 -1.2123213950864038e-07 -0.00055271595876262903 0 -4.4185008674261719e-05 -0.00049254137646965286 0 2.8031729525386463e-06 -0.00038159485583182139 0 0.00061242195874310057 -0.003202468416897768 0 0.00051470768688611091 -0.0032018202461708998 0 0.00056720521893275375 -0.0030243280015550007 0 -0.00098027787061656245 -0.0025501640873960081 0 -0.00097910184504474318 -0.0023890313609185409 0 -0.0008867797785566551 -0.0024727458993074099 0 0.00071104786587202558 -0.0007459807582478015 0 0.00078297644696394405 -0.00088930836718297576 0 0.0006701745245146194 -0.00076420187530201842 0 -3.1620573175519483e-08 -1.1531060229473193e-07 0 -1.6947527050307502e-08 -1.0866591445977479e-07 0 -0.00010403567293370246 -0.00012420288778848621 0 0.00097896230968814871 -0.0023890886395525144 0 0.00098015790580693071 -0.0025502987326652625 0 0.00088139117068850058 -0.0024430155461390404 0 1.8232566652082626e-08 -1.0745252175508658e-07 0 3.1036414250306687e-08 -1.1536833215206164e-07 0 0.00010565074513270374 -0.00012630332549189209 0 -0.00051490209154985474 -0.0032017953581055295 0 -0.00061276942596129606 -0.0032023683577854368 0 -0.00054972781138595199 -0.0030142295109766327 0 -0.00078362226576877915 -0.00088926977290809705 0 -0.00071126274703869311 -0.0007460884145450747 0 -0.00067307719402192711 -0.00077180736915740799 0 0.00097896230968814871 -0.0023890886395525144 0 0.00088139117068850058 -0.0024430155461390404 0 0.00088381591778111492 -0.0022632200389619936 0 1.8232566652082626e-08 -1.0745252175508658e-07 0 0.00010565074513270374 -0.00012630332549189209 0 7.8606927337998342e-05 -0.0001170003593428492 0 -0.00051490209154985474 -0.0032017953581055295 0 -0.00054972781138595199 -0.0030142295109766332 0 -0.00043890825439034034 -0.0030191598977367365 0 -0.00078362226576877915 -0.00088926977290809705 0 -0.00067307719402192711 -0.00077180736915740799 0 -0.00074083653546931486 -0.00094047235632364391 0 0.0006686204391390336 -0.0026328169064380046 0 0.00075838795261913908 -0.0025755627966338405 0 0.00078258388971738538 -0.0027177056846302357 0 -0.00066885782188414844 -0.0026327462313753065 0 -0.00063295707361537244 -0.0027900957401846044 0 -0.00071435493749572769 -0.0028360833062355574 0 -0.00021975399072753779 -0.002320502545585038 0 -0.00010992837917676343 -0.002294345010137771 0 -0.00014050162801052861 -0.0024429070389881285 0 0.0004992325981879336 -0.0018663379120672687 0 0.00048075852843551889 -0.0016864502075195219 0 0.00056646384496784885 -0.0017483757254467738 0 -0.00045422996757775913 -0.0011575126216622957 0 -0.00046016794646049753 -0.001332242275494786 0 -0.0005368830285583222 -0.0012997201668062399 0 0.00015201520031001735 -0.00066661535983870946 0 7.5491513512680565e-05 -0.00067956381215376796 0 8.5903603779881148e-05 -0.00055265200547641527 0 0.00081136472180334503 -0.0030700886509895447 0 0.0007077536877423715 -0.0032026472238032722 0 0.00073984898881756167 -0.0030287933381813537 0 -0.00091034900019366699 -0.0028921142873562758 0 -0.00098107093474564212 -0.0027120198720697922 0 -0.0008880281164066801 -0.0027657553985357629 0 -0.00047995651780557204 -0.00044721429937444296 0 -0.00061676869399147373 -0.00060175146734245855 0 -0.00039851489549663766 -0.00033616961295670995 0 -0.00073020381020604257 -0.0030068465288829757 0 -0.00070797890978912918 -0.0032026558965446111 0 -0.00081168315373579536 -0.0030700811712782061 0 0.00015046143167249867 -0.00013594530387941477 0 2.1650488006352554e-08 -1.0283006018199995e-07 0 0.00013379821403639619 -9.6300662327447752e-05 0 0.00087619014085265441 -0.0027482801814742394 0 0.00098090402989314601 -0.0027121239754026982 0 0.00091012177306740453 -0.0028921112963631364 0 0.00039910531780030308 -0.00033595276882333284 0 0.00061792668784004391 -0.00060098475001806647 0 0.00048431069186367318 -0.00045517829272782379 0 -0.00013398442754066934 -9.6752513780270062e-05 0 -2.1482864663835517e-08 -1.0160882475902522e-07 0 -0.00016026644756175095 -0.00014568073667396949 0 -0.00061576508698344399 -0.00080645451189434957 0 -0.00057594224452277526 -0.00067818616610258015 0 -0.00048704656229431223 -0.00065456480514523342 0 0.000175194682370642 -0.00025986273445245851 0 0.00019211603586337779 -0.00024220139946463449 0 0.00028587708604423085 -0.00040632177912978317 0 0.00078217609925570098 -0.0023361165636757025 0 0.00080879624495612784 -0.0024743854709340664 0 0.00068962130856027462 -0.0024416900733294682 0 -0.00048874523184649844 -0.0028279768285344583 0 -0.00057098854065848763 -0.0028802628381126359 0 -0.00055651557070342641 -0.0026635738937354583 0 0.0004983821674289339 -0.0028940311668654473 0 0.00045020464434185906 -0.0030363163087800873 0 0.00042377359909454791 -0.0028646945169980981 0 -0.0008176265487437166 -0.0023552290123317874 0 -0.00089315354811626748 -0.0022825527283940692 0 -0.00080260007985556269 -0.0022330279257490341 0 0.00061917109684080042 -0.00079333658929002602 0 0.0007402454099081035 -0.00092798398293127431 0 0.00066572964139081242 -0.00091785291266325458 0 -0.00017006009717777579 -0.00024543500799335512 0 -7.5605969695993714e-05 -0.00011044712567928327 0 -0.00013822885077857607 -0.00023412396586842775 0 7.7616925347679229e-05 -0.00016180797307401847 0 8.5944712057961438e-05 -0.0002509067258772644 0 4.1900226492205418e-05 -0.00013137150566602338 0 0.00084674865719281366 -0.0020854665278851833 0 0.00077930770286822545 -0.0019609636686203974 0 0.00086496783120715108 -0.0019191182647038639 0 -0.00075452544351969095 -0.0010905127363918569 0 -0.00071447721139443802 -0.0011793089506304832 0 -0.00080849507103002757 -0.0012638829504481722 0 -0.00032836996517238707 -0.0029498172739079792 0 -0.00025398746429374256 -0.0028248929005623416 0 -0.00021921435483350662 -0.0029915388322146732 0 -4.9142311674728083e-06 -0.0026473307002162715 0 7.9014424578027249e-05 -0.0025133863768217282 0 8.4729468075842566e-05 -0.0026593117951426103 0 -0.00066833903097496988 -0.0015397556783318567 0 -0.00060237790866807088 -0.0016572269845105921 0 -0.0006824443636504273 -0.0016815247865110412 0 0.00066918174343757076 -0.001554927983216111 0 0.00058544782323532161 -0.0014062702394408697 0 0.00066345606056682617 -0.0014162297008690338 0 2.8031729525386463e-06 -0.00038159485583182139 0 -4.4185008674261719e-05 -0.00049254137646965286 0 -3.8231854528637853e-05 -0.00037468405540641878 0 0.0006686204391390336 -0.0026328169064380046 0 0.00078258388971738548 -0.0027177056846302357 0 0.00071181475002181208 -0.0027941860022086206 0 -0.00066885782188414844 -0.0026327462313753065 0 -0.00071435493749572769 -0.0028360833062355574 0 -0.00075952746860859861 -0.0027121075526461281 0 0.00038135581407475585 -0.00046113728956586231 0 0.00031247905711369648 -0.0003274767505748701 0 0.00042178001101661206 -0.00042888787153065719 0 -0.00037862492075291417 -0.00045742478290031896 0 -0.00040405442885975537 -0.0004203454459120276 0 -0.00029031103848070638 -0.00029573266382387309 0 -0.00048704656229431223 -0.00065456480514523342 0 -0.00057594224452277526 -0.00067818616610258015 0 -0.00048048738509331123 -0.00055122106879201154 0 0.00028587708604423085 -0.00040632177912978317 0 0.00019211603586337779 -0.00024220139946463449 0 0.00027112680873653668 -0.00032181872099430492 0 0.00038135581407475585 -0.00046113728956586231 0 0.00042178001101661206 -0.00042888787153065719 0 0.0004795440084683058 -0.00055103484595678482 0 -0.00037862492075291417 -0.00045742478290031896 0 -0.00029031103848070638 -0.00029573266382387309 0 -0.00027209422766968585 -0.0003238384521544048 0 -0.000370483072770226 -0.0023958123361877515 0 -0.00032779827680349562 -0.0022315112381043429 0 -0.00029571383067616855 -0.0024378186854715029 0 0.00054148181170017584 -0.0021181597604479413 0 0.00044398814393414317 -0.0020359092103194201 0 0.00056652922196130954 -0.0019981685252985167 0 -0.00044955437150233189 -0.00092245568740529943 0 -0.0003768749079160071 -0.00097477314268675332 0 -0.00049643845667358836 -0.0010489167153876638 0 0.00024683017272177831 -0.00061842133060783253 0 0.00024598629452865972 -0.00076698531270353329 0 0.00018551435608204009 -0.00057015659608368951 0 -0.00048874523184649844 -0.0028279768285344583 0 -0.00043890825439034034 -0.0030191598977367365 0 -0.00054972781138595199 -0.0030142295109766327 0 -0.00061576508698344399 -0.00080645451189434957 0 -0.00074083653546931486 -0.0009404723563236438 0 -0.00067307719402192711 -0.00077180736915740799 0 0.00078217609925570098 -0.0023361165636757025 0 0.00088381591778111492 -0.0022632200389619936 0 0.00088139117068850058 -0.0024430155461390404 0 0.000175194682370642 -0.00025986273445245851 0 7.8606927337998328e-05 -0.0001170003593428492 0 0.00010565074513270374 -0.00012630332549189209 0 -0.00055651557070342641 -0.0026635738937354583 0 -0.00057098854065848763 -0.0028802628381126359 0 -0.00063295707361537255 -0.0027900957401846048 0 0.00068962130856027462 -0.0024416900733294682 0 0.00080879624495612784 -0.0024743854709340664 0 0.00075838795261913908 -0.0025755627966338405 0 -0.00029571383067616855 -0.0024378186854715029 0 -0.00032779827680349562 -0.0022315112381043429 0 -0.00021975399072753779 -0.002320502545585038 0 0.00056652922196130954 -0.0019981685252985167 0 0.00044398814393414317 -0.0020359092103194201 0 0.0004992325981879336 -0.0018663379120672687 0 -0.00049643845667358836 -0.0010489167153876638 0 -0.0003768749079160071 -0.00097477314268675332 0 -0.00045422996757775913 -0.0011575126216622957 0 0.00018551435608204009 -0.00057015659608368951 0 0.00024598629452865972 -0.00076698531270353329 0 0.00015201520031001735 -0.00066661535983870946 0 0.00015434943707634316 -0.0017653830124274266 0 7.3310460400503421e-05 -0.0018211576293642555 0 6.3089453964376986e-05 -0.0016536784072592797 0 0.00096791419543283675 -0.001915619285691447 0 0.00086496783120715108 -0.0019191182647038639 0 0.00088814686481931884 -0.001781830821550778 0 1.0089349454186705e-08 -1.0871128370122943e-07 0 4.1900226492205418e-05 -0.00013137150566602338 0 1.7944404533389889e-05 -9.1837012813797924e-05 0 -0.00020962765939150458 -0.0031989601737721133 0 -0.00021921435483350662 -0.0029915388322146732 0 -0.00012568384066278209 -0.0030484696627361518 0 -0.00091046270125596076 -0.0013146876275413626 0 -0.00080849507103002757 -0.0012638829504481722 0 -0.00085736074400643843 -0.0014108978346253787 0 -0.00013436202610820329 -0.0028647949586635721 0 -2.8064895223567641e-05 -0.0029747957199809266 0 -0.00012568384066278209 -0.0030484696627361518 0 -0.00076415915385567499 -0.0013699146477287019 0 -0.00083676971417356481 -0.0015452662109335154 0 -0.00085736074400643843 -0.0014108978346253787 0 0.00079536745102835784 -0.0017789363092382267 0 0.00084305483897069054 -0.0016286958677765517 0 0.00088814686481931884 -0.001781830821550778 0 4.0316450799663988e-05 -0.00021755905833247861 0 5.7037558053513671e-06 -0.00013965325739429557 0 1.7944404533389889e-05 -9.1837012813797924e-05 0 0.00015054878973499471 -0.0016229247572396967 0 0.00015434943707634316 -0.0017653830124274266 0 6.3089453964376986e-05 -0.0016536784072592797 0 0.00097639932818192172 -0.0022292126416362055 0 0.00097896230968814871 -0.0023890886395525144 0 0.00088381591778111492 -0.0022632200389619936 0 1.1153944171885357e-08 -1.1417180079796444e-07 0 1.8232566652082626e-08 -1.0745252175508658e-07 0 7.8606927337998342e-05 -0.0001170003593428492 0 -0.00041477777587524422 -0.0032007312707146881 0 -0.00051490209154985474 -0.0032017953581055295 0 -0.00043890825439034034 -0.0030191598977367365 0 -0.00083666013107601032 -0.0010313097551901491 0 -0.00078362226576877915 -0.00088926977290809705 0 -0.00074083653546931486 -0.00094047235632364391 0 0.00079536745102835784 -0.0017789363092382267 0 0.00070449043408775738 -0.0018635675623233201 0 0.00070631139665934854 -0.0017057564739224353 0 -0.00013436202610820329 -0.0028647949586635721 0 -0.00019921942005978632 -0.0026886650596892811 0 -9.750447057360407e-05 -0.0027013521816177826 0 4.0316450799663988e-05 -0.00021755905833247861 0 8.6931986235351319e-05 -0.00035311420624853319 0 4.2541252324550595e-05 -0.00034001640043700756 0 -0.00076415915385567499 -0.0013699146477287019 0 -0.00065753331749549265 -0.0012409116635744724 0 -0.00068472018501669401 -0.001402046426194763 0 0.00079536745102835784 -0.0017789363092382267 0 0.00077930770286822545 -0.0019609636686203974 0 0.00070449043408775738 -0.0018635675623233201 0 4.0316450799663988e-05 -0.00021755905833247861 0 8.5944712057961438e-05 -0.0002509067258772644 0 8.6931986235351332e-05 -0.00035311420624853319 0 -0.00013436202610820329 -0.0028647949586635721 0 -0.00025398746429374256 -0.0028248929005623416 0 -0.00019921942005978632 -0.0026886650596892811 0 -0.00076415915385567499 -0.0013699146477287019 0 -0.00071447721139443802 -0.0011793089506304832 0 -0.00065753331749549265 -0.0012409116635744724 0 0.0004992325981879336 -0.0018663379120672687 0 0.0003969467287865828 -0.0018787350599531246 0 0.00041003342540521775 -0.0017424996781832459 0 -0.00021975399072753779 -0.002320502545585038 0 -0.00023719863448203954 -0.002144503967802032 0 -0.00015261864276568473 -0.0021683669620257608 0 0.00015201520031001735 -0.00066661535983870946 0 0.00018214724924491403 -0.00083144170191001387 0 0.00011438318653277064 -0.00079937429220698619 0 -0.00045422996757775913 -0.0011575126216622957 0 -0.00036002555752684992 -0.0011349910388320161 0 -0.00038972217866326789 -0.0012607325970144976 0 3.1017617922598524e-05 -0.0021531558940347463 0 0.00014750293812067106 -0.0021539723961533394 0 9.3553044423546469e-05 -0.0023274431682868235 0 -0.00039583048250590915 -0.0015476596713441138 0 -0.00039972202149106021 -0.0017326737229764006 0 -0.00049901737411535006 -0.0016628420910984854 0 0.0003965171809013174 -0.0014460357655704374 0 0.00037524438837467948 -0.0012610288128962566 0 0.00048093113088248083 -0.0013615125204954413 0 -2.6400759947699985e-05 -0.00079258777093219632 0 -0.00011224907397298007 -0.00081576978653417388 0 -6.3706525715935157e-05 -0.00065279234296553859 0 0.00054174648243812944 -0.0005709401788700578 0 0.00061278005671002822 -0.00062654826064798854 0 0.0006701745245146194 -0.00076420187530201842 0 -0.00018578728084203203 -0.00019691685063981124 0 -9.0298005738776162e-05 -8.9769769370815294e-05 0 -0.00010403567293370246 -0.00012420288778848621 0 0.00064535589251261993 -0.0029125678693731893 0 0.00066374274525080154 -0.0030562919197512865 0 0.00056720521893275375 -0.0030243280015550007 0 -0.00082619264399321618 -0.0026009703195826266 0 -0.00090338422496442894 -0.0026350504502296373 0 -0.0008867797785566551 -0.0024727458993074099 0 0.00083537988191394348 -0.0026052960439040367 0 0.00088139117068850058 -0.0024430155461390404 0 0.00091125948758041754 -0.0026118926548963058 0 0.00019339119551545182 -0.00020041220395326052 0 0.00010565074513270374 -0.00012630332549189209 0 8.9603385145484681e-05 -8.9492756475142662e-05 0 -0.00064782290965496544 -0.0029300644664502625 0 -0.00054972781138595199 -0.0030142295109766327 0 -0.00065018383742579053 -0.0030714904607610765 0 -0.00053367613339249309 -0.00055900085099577952 0 -0.00067307719402192711 -0.00077180736915740799 0 -0.00061143765541075198 -0.00062386287105834848 0 0.00020547279047195124 -0.0023186708224137834 0 9.3553044423546469e-05 -0.0023274431682868235 0 0.00014750293812067106 -0.0021539723961533394 0 -0.0004979264810899515 -0.0018436074736634426 0 -0.00049901737411535006 -0.0016628420910984854 0 -0.00039972202149106021 -0.0017326737229764006 0 0.00045620236209862637 -0.0011800618595843877 0 0.00048093113088248083 -0.0013615125204954413 0 0.00037524438837467948 -0.0012610288128962566 0 -0.00014303660822645467 -0.00066866177727378827 0 -6.3706525715935157e-05 -0.00065279234296553859 0 -0.00011224907397298007 -0.00081576978653417388 0 0.00067275913224996335 -0.0022957508958223443 0 0.0005736909815166637 -0.0022418304789153486 0 0.00062824042152708967 -0.0021070474706227594 0 -0.00046997435053435757 -0.0026299406132444061 0 -0.00044321770588049314 -0.0024545777178450229 0 -0.00035810538619093833 -0.0025472215868526426 0 0.00024544402492421898 -0.00042482041861875719 0 0.00028403278278430193 -0.00057666855622500314 0 0.00020102130108246691 -0.00048176799717951553 0 -0.0005250828733962986 -0.00079365608409059181 0 -0.00044943639863833089 -0.00081140789966242691 0 -0.00053359598287683254 -0.00096330758680583987 0 0.00071921284244049681 -0.0021889791239670998 0 0.00067275913224996335 -0.0022957508958223443 0 0.00062824042152708967 -0.0021070474706227594 0 0.0001785070538310577 -0.0003477242730242144 0 0.00024544402492421898 -0.00042482041861875719 0 0.00020102130108246691 -0.00048176799717951553 0 -0.00040212489397269146 -0.002711293261063162 0 -0.00046997435053435757 -0.0026299406132444061 0 -0.00035810538619093833 -0.0025472215868526426 0 -0.00060061415957215895 -0.0009215657529794847 0 -0.0005250828733962986 -0.00079365608409059181 0 -0.00053359598287683254 -0.00096330758680583987 0 0.0003150979205263404 -0.0019756885327398555 0 0.00039694672878658286 -0.0018787350599531246 0 0.00044398814393414317 -0.0020359092103194201 0 -0.00029224131186069324 -0.0020055750711302999 0 -0.00023719863448203954 -0.002144503967802032 0 -0.00032779827680349562 -0.0022315112381043429 0 0.00024945581712825903 -0.00096999676182509887 0 0.00018214724924491403 -0.00083144170191001387 0 0.00024598629452865972 -0.00076698531270353329 0 -0.0002694938750285649 -0.0010038283080346 0 -0.00036002555752684992 -0.0011349910388320161 0 -0.0003768749079160071 -0.00097477314268675332 0 0.000351939149240073 -0.0025802514926813315 0 0.00035174990886235543 -0.0027925093903155671 0 0.00029128049271265024 -0.0026729174927623838 0 0.00041628449518165301 -0.0026692493254962479 0 0.00035174990886235549 -0.0027925093903155671 0 0.000351939149240073 -0.0025802514926813315 0 -0.00064679828866268151 -0.0020996005221670267 0 -0.00076358456106900082 -0.0021133212618898332 0 -0.00069811573888745786 -0.0020084915683672112 0 -0.00069596042116908466 -0.0022096616551330875 0 -0.00076358456106900082 -0.0021133212618898332 0 -0.00064679828866268151 -0.0020996005221670267 0 0.00055303963938871273 -0.0009784435700401137 0 0.00066429574850479284 -0.0010187597435576796 0 0.00062301306609011521 -0.0010925956898384377 0 0.00057201225640114077 -0.00089033123055034396 0 0.00066429574850479295 -0.0010187597435576798 0 0.00055303963938871273 -0.0009784435700401137 0 -0.00018967242936272855 -0.00045431511765373273 0 -0.00013096935851767086 -0.00028031451273229714 0 -0.0001338557119693615 -0.00037074697485344805 0 -0.00020016657568889783 -0.00038512651785639607 0 -0.00013096935851767086 -0.00028031451273229714 0 -0.00018967242936272855 -0.00045431511765373273 0 -1.6894122044485281e-05 -0.0017823876845195032 0 2.4325246612586694e-05 -0.0019556009654245147 0 -9.3494665459737143e-05 -0.0019124782580631269 0 9.3298499252843928e-05 -0.0012082542278980563 0 9.0816411626354319e-06 -0.0011529569523194695 0 8.5390018060293679e-05 -0.0010574886289843944 0 -0.00013436202610820329 -0.0028647949586635721 0 -2.6151930633654457e-05 -0.0028223915064441384 0 -2.8064895223567641e-05 -0.0029747957199809266 0 -0.00076415915385567499 -0.0013699146477287019 0 -0.00075876074645736351 -0.0015288006245394016 0 -0.00083676971417356481 -0.0015452662109335154 0 0.00079536745102835784 -0.0017789363092382267 0 0.00076435147355225679 -0.0016089281825950727 0 0.00084305483897069054 -0.0016286958677765517 0 4.0316450799663988e-05 -0.00021755905833247861 0 9.0272714147297449e-06 -0.00024814323504682395 0 5.7037558053513671e-06 -0.00013965325739429557 0 -1.6894122044485281e-05 -0.0017823876845195032 0 7.3310460400503421e-05 -0.0018211576293642555 0 2.4325246612586694e-05 -0.0019556009654245147 0 0.00013672387154749075 -0.0019458813552580211 0 2.4325246612586694e-05 -0.0019556009654245147 0 7.3310460400503421e-05 -0.0018211576293642555 0 7.7616925347679229e-05 -0.00016180797307401847 0 0.00012326607479934884 -0.0002706695115182206 0 8.5944712057961438e-05 -0.0002509067258772644 0 0.00084674865719281366 -0.0020854665278851833 0 0.00076952468310701383 -0.0020924502766242669 0 0.00077930770286822545 -0.0019609636686203974 0 -0.00032836996517238707 -0.0029498172739079792 0 -0.00033821455227937218 -0.0028041850282667425 0 -0.00025398746429374256 -0.0028248929005623416 0 -0.00075452544351969095 -0.0010905127363918569 0 -0.00067510291135278568 -0.0010432652171267537 0 -0.00071447721139443802 -0.0011793089506304832 0 0.0006686204391390336 -0.0026328169064380046 0 0.00060176395009577598 -0.002520058495355363 0 0.00068962130856027462 -0.0024416900733294682 0 -0.00066885782188414844 -0.0026327462313753065 0 -0.00060621626077528724 -0.0025131484549396304 0 -0.00055651557070342641 -0.0026635738937354583 0 0.00038135581407475585 -0.00046113728956586231 0 0.00039145151628473617 -0.0005624273898604485 0 0.00028587708604423085 -0.00040632177912978317 0 -0.00037862492075291417 -0.00045742478290031896 0 -0.00037363430000020374 -0.00054007804881348346 0 -0.00048704656229431223 -0.00065456480514523342 0 0.00069788492474282763 -0.0020085249743721557 0 0.00062824042152708967 -0.0021070474706227594 0 0.0006141958839537496 -0.0019088113907659223 0 -0.00029149040214050193 -0.0026729464613364628 0 -0.00035810538619093833 -0.0025472215868526426 0 -0.0002363454413541751 -0.0025230488473115802 0 0.00013384018966841951 -0.00037155704751096143 0 0.00020102130108246691 -0.00048176799717951553 0 0.00013444499514357047 -0.00049160364928449137 0 -0.00062328225127964158 -0.0010920552939642594 0 -0.00053359598287683254 -0.00096330758680583987 0 -0.00055990344148178434 -0.0011563578884154491 0 0.00023250393574021083 -0.0018528211655699798 0 0.0002425586299294871 -0.0016687777951627548 0 0.0003191563620771433 -0.0018112834026124483 0 0.0004983821674289339 -0.0028940311668654473 0 0.00057386701349968438 -0.0028250314003351999 0 0.00056720521893275375 -0.0030243280015550007 0 -0.0008176265487437166 -0.0023552290123317874 0 -0.00077909015618656875 -0.0024775672954947623 0 -0.0008867797785566551 -0.0024727458993074099 0 0.00064535589251261993 -0.0029125678693731893 0 0.00056720521893275375 -0.0030243280015550007 0 0.00057386701349968438 -0.0028250314003351999 0 -0.00082619264399321618 -0.0026009703195826266 0 -0.0008867797785566551 -0.0024727458993074099 0 -0.00077909015618656875 -0.0024775672954947623 0 0.00049494842114997952 -0.0025130680729735858 0 0.00060176395009577598 -0.002520058495355363 0 0.00057952719676177737 -0.0026564330608308049 0 0.0006686204391390336 -0.0026328169064380046 0 0.00057952719676177737 -0.0026564330608308049 0 0.00060176395009577598 -0.002520058495355363 0 -0.00060633647577671508 -0.0023311123637283493 0 -0.00060621626077528724 -0.0025131484549396304 0 -0.000685235211607157 -0.0024803260492390622 0 -0.00066885782188414844 -0.0026327462313753065 0 -0.000685235211607157 -0.0024803260492390622 0 -0.00060621626077528724 -0.0025131484549396304 0 0.00045193216217731536 -0.00073392038121957196 0 0.00039145151628473612 -0.0005624273898604485 0 0.00049100855847831668 -0.00065260253266319877 0 0.00038135581407475585 -0.00046113728956586231 0 0.00049100855847831668 -0.00065260253266319877 0 0.00039145151628473612 -0.0005624273898604485 0 -0.00030208321037935486 -0.00053116047093674428 0 -0.00037363430000020374 -0.00054007804881348346 0 -0.00028017831395107918 -0.00039271636878113333 0 -0.00037862492075291417 -0.00045742478290031896 0 -0.00028017831395107918 -0.00039271636878113333 0 -0.00037363430000020374 -0.00054007804881348346 0 0.00080252637332727038 -0.0028791825819187182 0 0.00087712811669136417 -0.0030097063194006383 0 0.00081136472180334503 -0.0030700886509895447 0 0.00031347614903362976 -0.00027208902716075221 0 0.00023442260684412345 -0.00017156281845265094 0 0.00039910531780030308 -0.00033595276882333284 0 0.00031347614903362976 -0.00027208902716075221 0 0.00013379821403639616 -9.6300662327447725e-05 0 0.00023442260684412345 -0.00017156281845265094 0 -0.00080559412769124741 -0.0028739243667434498 0 -0.00087744415759759297 -0.0030096631767416115 0 -0.00091034900019366699 -0.0028921142873562758 0 0.00080252637332727038 -0.0028791825819187182 0 0.00091012177306740453 -0.0028921112963631364 0 0.00087712811669136417 -0.0030097063194006383 0 -0.00031671557994545095 -0.00027620516918576285 0 -0.00023387092326429399 -0.00017104135010222814 0 -0.00013398442754066934 -9.6752513780270062e-05 0 -0.00031671557994545095 -0.00027620516918576285 0 -0.00039851489549663766 -0.00033616961295670995 0 -0.00023387092326429399 -0.00017104135010222811 0 -0.00080559412769124741 -0.0028739243667434498 0 -0.00081168315373579536 -0.0030700811712782061 0 -0.00087744415759759297 -0.0030096631767416115 0 0.00079536745102835784 -0.0017789363092382267 0 0.00086496783120715108 -0.0019191182647038639 0 0.00077930770286822545 -0.0019609636686203974 0 -0.00013436202610820329 -0.0028647949586635721 0 -0.00021921435483350664 -0.0029915388322146732 0 -0.00025398746429374256 -0.0028248929005623416 0 4.0316450799663988e-05 -0.00021755905833247861 0 4.1900226492205418e-05 -0.00013137150566602338 0 8.5944712057961438e-05 -0.0002509067258772644 0 -0.00076415915385567499 -0.0013699146477287019 0 -0.00080849507103002757 -0.0012638829504481722 0 -0.00071447721139443802 -0.0011793089506304832 0 0.0003150979205263404 -0.0019756885327398555 0 0.00030230301127732209 -0.002158919213028443 0 0.0002267325302210081 -0.0020509094563163871 0 -0.00029224131186069324 -0.0020055750711302999 0 -0.00040462299942444749 -0.0019923825980616445 0 -0.00034601002367047688 -0.0018593659783264088 0 0.00024945581712825903 -0.00096999676182509887 0 0.00034734875601729888 -0.0010062721217054711 0 0.00030206442845814939 -0.0011200196182081959 0 -0.0002694938750285649 -0.0010038283080346 0 -0.00023537131232068592 -0.0008270067048491436 0 -0.00018558430960200848 -0.00091792858929225533 0 0.00095946915498920356 -0.0017612127895402778 0 0.00096791419543283675 -0.001915619285691447 0 0.00088814686481931884 -0.001781830821550778 0 -2.5565587573456968e-10 -1.133296102822723e-07 0 1.0089349454186705e-08 -1.0871128370122943e-07 0 1.7944404533389889e-05 -9.1837012813797924e-05 0 -0.00010512706118886659 -0.0031981388870389797 0 -0.00020962765939150458 -0.0031989601737721133 0 -0.00012568384066278209 -0.0030484696627361518 0 -0.00093174458630746794 -0.0014616179750545466 0 -0.00091046270125596076 -0.0013146876275413626 0 -0.00085736074400643843 -0.0014108978346253787 0 0.0003179674521215738 -0.00025932469501987787 0 0.00039910531780030308 -0.00033595276882333278 0 0.00023442260684412345 -0.00017156281845265094 0 3.6663994875905111e-09 -9.5581228637395741e-08 0 -0.00013398442754066934 -9.6752513780270062e-05 0 -0.00023387092326429399 -0.00017104135010222811 0 -4.1503891611209221e-09 -9.5982538605641857e-08 0 0.00023442260684412345 -0.00017156281845265094 0 0.00013379821403639619 -9.6300662327447752e-05 0 0.00098090497394554303 -0.0030371847558271904 0 0.00087712811669136417 -0.0030097063194006383 0 0.00091012177306740453 -0.0028921112963631364 0 0.00089138472203759036 -0.0032011235697482323 0 0.00081136472180334503 -0.0030700886509895452 0 0.00087712811669136417 -0.0030097063194006383 0 -0.00098120905190997245 -0.003037185404731575 0 -0.00091034900019366699 -0.0028921142873562758 0 -0.00087744415759759297 -0.0030096631767416115 0 -0.00031764230913247795 -0.00025950529209515258 0 -0.00023387092326429399 -0.00017104135010222811 0 -0.00039851489549663766 -0.00033616961295670995 0 -0.00089168459772011625 -0.0032011018639027037 0 -0.00087744415759759297 -0.0030096631767416115 0 -0.00081168315373579536 -0.0030700811712782061 0 0.00010500817986655231 -0.0031982483339349182 0 0.00011101614864093265 -0.0030203661499051517 0 0.00019474980573300601 -0.0030577173722525692 0 -0.00096062760266980342 -0.0017610205860555633 0 -0.00087296687273260513 -0.0017578108763013284 0 -0.00089762186286727636 -0.0018865248254859837 0 0.00093280567658219433 -0.0014612564573584874 0 0.00084530341702301166 -0.0014287340314567271 0 0.00084679647163801686 -0.0013109884428916163 0 -3.6815259021387939e-09 -1.0894483708128508e-07 0 -1.7610303826308475e-05 -0.00011261435757281769 0 -2.6237934070051842e-05 -8.6745955264761509e-05 0 0.00038135581407475585 -0.00046113728956586231 0 0.00028587708604423085 -0.00040632177912978317 0 0.00027112680873653668 -0.00032181872099430492 0 -0.00037862492075291417 -0.00045742478290031896 0 -0.00048704656229431223 -0.00065456480514523342 0 -0.00048048738509331123 -0.00055122106879201154 0 0.00049494842114997952 -0.0025130680729735858 0 0.00049770551713302724 -0.0027379181333404396 0 0.00041628449518165301 -0.0026692493254962479 0 -0.00060633647577671508 -0.0023311123637283493 0 -0.00073271564817021389 -0.0023472248083052476 0 -0.00069596042116908466 -0.0022096616551330875 0 0.00045193216217731536 -0.00073392038121957196 0 0.00055343934162787125 -0.00077991679011083545 0 0.00057201225640114077 -0.00089033123055034396 0 -0.00030208321037935486 -0.00053116047093674428 0 -0.00022635144417307561 -0.00036133169174569707 0 -0.00020016657568889783 -0.00038512651785639607 0 7.1838997351605504e-05 -0.0028048301091580458 0 -2.6151930633654457e-05 -0.0028223915064441384 0 -4.9142311674728083e-06 -0.0026473307002162715 0 -0.00075953977015479654 -0.001677307791809915 0 -0.00075876074645736351 -0.0015288006245394016 0 -0.00066833903097496988 -0.0015397556783318567 0 0.00074293682957960274 -0.0014562663573228637 0 0.00076435147355225679 -0.0016089281825950727 0 0.00066918174343757076 -0.001554927983216111 0 -2.5603057083467062e-05 -0.00026164209133018693 0 9.0272714147297449e-06 -0.00024814323504682395 0 2.8031729525386463e-06 -0.00038159485583182139 0 -0.00061576508698344399 -0.00080645451189434957 0 -0.00068008953747653532 -0.00095912185793802494 0 -0.00074083653546931486 -0.00094047235632364391 0 -0.00048874523184649844 -0.0028279768285344583 0 -0.00039945539778888831 -0.0028622858897849731 0 -0.00043890825439034034 -0.0030191598977367365 0 0.000175194682370642 -0.00025986273445245851 0 0.00012898428254407067 -0.00022937479391792399 0 7.8606927337998342e-05 -0.0001170003593428492 0 0.00078217609925570098 -0.0023361165636757025 0 0.0008009917325361521 -0.0021936738297884759 0 0.00088381591778111492 -0.0022632200389619936 0 0.0005736909815166637 -0.0022418304789153486 0 0.00054148181170017584 -0.0021181597604479413 0 0.00062824042152708967 -0.0021070474706227594 0 -0.00044321770588049314 -0.0024545777178450229 0 -0.000370483072770226 -0.0023958123361877515 0 -0.00035810538619093833 -0.0025472215868526426 0 0.00028403278278430193 -0.00057666855622500314 0 0.00024683017272177831 -0.00061842133060783253 0 0.00020102130108246691 -0.00048176799717951553 0 -0.00044943639863833089 -0.00081140789966242691 0 -0.00044955437150233189 -0.00092245568740529943 0 -0.00053359598287683254 -0.00096330758680583987 0 0.0006686204391390336 -0.0026328169064380046 0 0.00068962130856027462 -0.0024416900733294682 0 0.00075838795261913908 -0.0025755627966338405 0 -0.00066885782188414844 -0.0026327462313753065 0 -0.00055651557070342641 -0.0026635738937354583 0 -0.00063295707361537255 -0.0027900957401846048 0 0.0003373527411915391 -0.0016816474160428472 0 0.00028965762673271886 -0.0014969469357019051 0 0.00039933359357075351 -0.0015960302106650453 0 0.0003965171809013174 -0.0014460357655704374 0 0.00039933359357075351 -0.0015960302106650453 0 0.00028965762673271886 -0.0014969469357019051 0 0.0005736909815166637 -0.0022418304789153486 0 0.00049445368136953735 -0.002212482738376887 0 0.00054148181170017584 -0.0021181597604479413 0 -0.00044321770588049314 -0.0024545777178450229 0 -0.00043007338980179566 -0.00231778226959551 0 -0.000370483072770226 -0.0023958123361877515 0 0.00028403278278430193 -0.00057666855622500314 0 0.00030884098871643143 -0.0007006827187151088 0 0.00024683017272177831 -0.00061842133060783253 0 -0.00044943639863833089 -0.00081140789966242691 0 -0.00038674735041749624 -0.00081624861237099245 0 -0.00044955437150233189 -0.00092245568740529943 0 0.00080252637332727038 -0.0028791825819187182 0 0.00081136472180334503 -0.0030700886509895447 0 0.00073984898881756167 -0.0030287933381813537 0 -0.00080559412769124741 -0.0028739243667434498 0 -0.00091034900019366699 -0.0028921142873562758 0 -0.0008880281164066801 -0.0027657553985357629 0 0.00031347614903362976 -0.00027208902716075221 0 0.00039910531780030308 -0.00033595276882333284 0 0.00048431069186367318 -0.00045517829272782379 0 0.00080252637332727038 -0.0028791825819187182 0 0.00087619014085265441 -0.0027482801814742389 0 0.00091012177306740453 -0.0028921112963631364 0 0.00031347614903362976 -0.00027208902716075221 0 0.00015046143167249867 -0.00013594530387941477 0 0.00013379821403639619 -9.6300662327447752e-05 0 -0.00031671557994545095 -0.00027620516918576285 0 -0.00013398442754066934 -9.6752513780270062e-05 0 -0.00016026644756175095 -0.00014568073667396949 0 -0.00080559412769124741 -0.0028739243667434498 0 -0.00073020381020604257 -0.0030068465288829757 0 -0.00081168315373579536 -0.0030700811712782061 0 -0.00031671557994545095 -0.00027620516918576285 0 -0.00047995651780557204 -0.00044721429937444296 0 -0.00039851489549663766 -0.00033616961295670995 0 9.3298499252843928e-05 -0.0012082542278980563 0 8.5390018060293679e-05 -0.0010574886289843944 0 0.00018658557432029143 -0.0011058051769199488 0 -2.3508709863086904e-06 -0.001031286666901828 0 8.5390018060293679e-05 -0.0010574886289843944 0 9.0816411626354319e-06 -0.0011529569523194695 0 0.0003373527411915391 -0.0016816474160428472 0 0.0003191563620771433 -0.0018112834026124483 0 0.0002425586299294871 -0.0016687777951627548 0 -8.3614578666341526e-08 -0.00244132921544047 0 -4.9142311674728083e-06 -0.0026473307002162715 0 -7.1611952213185027e-05 -0.0025367195684812011 0 -0.00055561764007709539 -0.0015238271990810448 0 -0.00066833903097496988 -0.0015397556783318567 0 -0.00059961191852970662 -0.0014212028615869904 0 0.00055536303053990146 -0.0015238895230080725 0 0.00066918174343757076 -0.001554927983216111 0 0.00061467372755000726 -0.0016477946354336514 0 -1.2123213950864038e-07 -0.00055271595876262903 0 2.8031729525386463e-06 -0.00038159485583182139 0 3.9479178577629381e-05 -0.00047176172041670682 0 0.00041628449518165301 -0.0026692493254962479 0 0.00049770551713302724 -0.0027379181333404396 0 0.00042377359909454791 -0.0028646945169980981 0 -0.00069596042116908466 -0.0022096616551330875 0 -0.00073271564817021389 -0.0023472248083052476 0 -0.00080260007985556269 -0.0022330279257490341 0 0.00057201225640114077 -0.00089033123055034396 0 0.00055343934162787125 -0.00077991679011083545 0 0.00066572964139081242 -0.00091785291266325458 0 -0.00020016657568889783 -0.00038512651785639607 0 -0.00022635144417307561 -0.00036133169174569713 0 -0.00013822885077857607 -0.00023412396586842775 0 0.0004992325981879336 -0.0018663379120672687 0 0.00044398814393414317 -0.0020359092103194201 0 0.0003969467287865828 -0.0018787350599531246 0 -0.00021975399072753779 -0.002320502545585038 0 -0.00032779827680349562 -0.0022315112381043429 0 -0.00023719863448203954 -0.002144503967802032 0 0.00015201520031001735 -0.00066661535983870946 0 0.00024598629452865967 -0.00076698531270353329 0 0.00018214724924491403 -0.00083144170191001387 0 -0.00045422996757775913 -0.0011575126216622957 0 -0.0003768749079160071 -0.00097477314268675332 0 -0.00036002555752684992 -0.0011349910388320161 0 0.00078217609925570098 -0.0023361165636757025 0 0.00068962130856027462 -0.0024416900733294682 0 0.00067275913224996335 -0.0022957508958223443 0 0.000175194682370642 -0.00025986273445245851 0 0.00028587708604423085 -0.00040632177912978317 0 0.00024544402492421898 -0.00042482041861875719 0 -0.00048874523184649844 -0.0028279768285344583 0 -0.00055651557070342641 -0.0026635738937354578 0 -0.00046997435053435757 -0.0026299406132444061 0 -0.00061576508698344399 -0.00080645451189434957 0 -0.00048704656229431223 -0.00065456480514523342 0 -0.0005250828733962986 -0.00079365608409059181 0 0.00023250393574021083 -0.0018528211655699798 0 0.00015434943707634316 -0.0017653830124274266 0 0.0002425586299294871 -0.0016687777951627548 0 -0.00013184139887735226 -0.0016511994447982149 0 -0.00020371783693135564 -0.0015963472804916934 0 -9.5231715578735328e-05 -0.0015231094938402273 0 -0.00017954308947755728 -0.0014442957967821532 0 -9.5231715578735328e-05 -0.0015231094938402273 0 -0.00020371783693135564 -0.0015963472804916934 0 -0.00011832046877085195 -0.002048408552478136 0 -0.0001968220438627001 -0.0020161407594459259 0 -9.3494665459737143e-05 -0.0019124782580631269 0 -0.00019405385386214076 -0.0018760902254069567 0 -9.3494665459737143e-05 -0.0019124782580631269 0 -0.0001968220438627001 -0.0020161407594459259 0 0.00061917109684080042 -0.00079333658929002602 0 0.00049100855847831668 -0.00065260253266319877 0 0.00056250116116356847 -0.00066281331231858283 0 -0.00017006009717777579 -0.00024543500799335512 0 -0.00028017831395107918 -0.00039271636878113333 0 -0.00020294951476175957 -0.00025453773265241795 0 -0.00017954308947755728 -0.0014442957967821532 0 -0.00028536235936228217 -0.0015222326166706376 0 -0.00024085654645173384 -0.0013375824618127817 0 0.00051470768688611091 -0.0032018202461708998 0 0.00045020464434185906 -0.0030363163087800873 0 0.00056720521893275375 -0.0030243280015550007 0 -0.00097910184504474318 -0.0023890313609185409 0 -0.00089315354811626748 -0.0022825527283940692 0 -0.0008867797785566551 -0.0024727458993074099 0 0.00078297644696394405 -0.00088930836718297576 0 0.00074024540990810361 -0.00092798398293127441 0 0.0006701745245146194 -0.00076420187530201842 0 -1.6947527050314864e-08 -1.0866591445978356e-07 0 -7.5605969695993714e-05 -0.00011044712567928327 0 -0.00010403567293370246 -0.00012420288778848621 0 0.00079536745102835784 -0.0017789363092382267 0 0.00088814686481931884 -0.001781830821550778 0 0.00086496783120715108 -0.0019191182647038639 0 4.0316450799663988e-05 -0.00021755905833247861 0 1.7944404533389889e-05 -9.183701281379791e-05 0 4.1900226492205418e-05 -0.00013137150566602338 0 -0.00013436202610820329 -0.0028647949586635721 0 -0.00012568384066278209 -0.0030484696627361518 0 -0.00021921435483350662 -0.0029915388322146732 0 -0.00076415915385567499 -0.0013699146477287019 0 -0.00085736074400643843 -0.0014108978346253787 0 -0.00080849507103002757 -0.0012638829504481722 0 -0.00019405385386214076 -0.0018760902254069567 0 -0.00019641331473280424 -0.0017399084560113384 0 -0.00010277835579728146 -0.0017637608898143262 0 -0.00011856500928994724 -0.00099820491030365682 0 -0.00011224907397298009 -0.00081576978653417388 0 -4.7242697210325558e-05 -0.00093279486314410841 0 -2.6400759947699985e-05 -0.00079258777093219632 0 -4.7242697210325558e-05 -0.00093279486314410841 0 -0.00011224907397298007 -0.00081576978653417388 0 0.00031268595087491027 -0.003199672215293727 0 0.00020940113627511715 -0.003198925790302998 0 0.00028675348243874569 -0.0030483437021830016 0 -0.00097352654527263992 -0.0020717843509378618 0 -0.00096813187463848783 -0.001915376488825606 0 -0.000896845473793954 -0.0020261382337842357 0 0.00087914686919200963 -0.0011701422755129177 0 0.00090983771487227675 -0.0013143574595932915 0 0.00081735345759464582 -0.0011749676243168819 0 -1.5740087588072293e-08 -1.10017879593134e-07 0 -7.0027424949163032e-09 -1.1098395126321093e-07 0 -4.1002029803359492e-05 -9.2960806935041604e-05 0 0.00049494842114997952 -0.0025130680729735858 0 0.00051332409022019287 -0.0023320064438649268 0 0.00058698667152214416 -0.002385848642408091 0 -0.00060633647577671508 -0.0023311123637283493 0 -0.00049984213694064992 -0.0023540787036614237 0 -0.00052846240756856272 -0.0024821513998146746 0 0.00045193216217731536 -0.00073392038121957196 0 0.00035553756755070832 -0.00068150916572455112 0 0.00033691753172997022 -0.00056283673973109261 0 -0.00030208321037935486 -0.00053116047093674428 0 -0.00037275840918135937 -0.00070692050681686407 0 -0.00041900251034322013 -0.00067082821612926362 0 0.0003179674521215738 -0.00025932469501987787 0 0.00023442260684412345 -0.00017156281845265094 0 0.00014460301417379843 -0.0001076353810896223 0 3.6663994875905111e-09 -9.5581228637395741e-08 0 -0.00023387092326429399 -0.00017104135010222811 0 -0.00014424560770450747 -0.00010748857497276031 0 -4.1503891611209221e-09 -9.5982538605641857e-08 0 0.00014460301417379843 -0.0001076353810896223 0 0.00023442260684412345 -0.00017156281845265094 0 -0.00031764230913247795 -0.00025950529209515258 0 -0.00014424560770450747 -0.00010748857497276031 0 -0.00023387092326429399 -0.00017104135010222811 0 0.00098090497394554303 -0.0030371847558271904 0 0.00092353816691420794 -0.0030948535964035622 0 0.00087712811669136417 -0.0030097063194006383 0 0.00089138472203759036 -0.0032011235697482323 0 0.00087712811669136417 -0.0030097063194006383 0 0.00092353816691420794 -0.0030948535964035622 0 -0.00089168459772011625 -0.0032011018639027037 0 -0.00092724261803797041 -0.0031010785652011699 0 -0.00087744415759759297 -0.0030096631767416115 0 -0.00098120905190997245 -0.003037185404731575 0 -0.00087744415759759297 -0.0030096631767416115 0 -0.00092724261803797041 -0.0031010785652011699 0 0.00080252637332727038 -0.0028791825819187182 0 0.00078258388971738538 -0.0027177056846302357 0 0.00087619014085265441 -0.0027482801814742394 0 -0.00080559412769124741 -0.0028739243667434498 0 -0.00071435493749572769 -0.0028360833062355574 0 -0.00073020381020604257 -0.0030068465288829757 0 0.00083537988191394348 -0.0026052960439040367 0 0.00087619014085265441 -0.0027482801814742394 0 0.00078258388971738538 -0.0027177056846302357 0 0.00054174648243812944 -0.0005709401788700578 0 0.00042178001101661206 -0.00042888787153065719 0 0.00048431069186367318 -0.00045517829272782379 0 -0.00064782290965496544 -0.0029300644664502625 0 -0.00073020381020604257 -0.0030068465288829757 0 -0.00071435493749572769 -0.0028360833062355574 0 -0.00018578728084203203 -0.00019691685063981124 0 -0.00029031103848070638 -0.00029573266382387309 0 -0.00016026644756175095 -0.00014568073667396949 0 0.00031347614903362976 -0.00027208902716075221 0 0.00048431069186367318 -0.00045517829272782379 0 0.00042178001101661206 -0.00042888787153065719 0 -0.00031671557994545095 -0.00027620516918576285 0 -0.00016026644756175095 -0.00014568073667396949 0 -0.00029031103848070638 -0.00029573266382387309 0 0.00015054878973499471 -0.0016229247572396967 0 0.0002425586299294871 -0.0016687777951627548 0 0.00015434943707634316 -0.0017653830124274266 0 0.00018658557432029143 -0.0011058051769199488 0 8.5390018060293679e-05 -0.0010574886289843944 0 0.00016677100414120641 -0.00095601954330187951 0 -0.0002363454413541751 -0.0025230488473115802 0 -0.00035810538619093833 -0.0025472215868526426 0 -0.00029571383067616855 -0.0024378186854715029 0 0.0006141958839537496 -0.0019088113907659223 0 0.00062824042152708956 -0.002107047470622759 0 0.00056652922196130954 -0.0019981685252985167 0 -0.00055990344148178434 -0.0011563578884154491 0 -0.00053359598287683254 -0.00096330758680583987 0 -0.00049643845667358836 -0.0010489167153876638 0 0.00013444499514357047 -0.00049160364928449137 0 0.00020102130108246691 -0.00048176799717951553 0 0.00018551435608204009 -0.00057015659608368951 0 -0.00020049881007488187 -0.0012020381450423912 0 -0.00024085654645173384 -0.0013375824618127817 0 -0.00027175674191689289 -0.001155280522929586 0 -0.00032096786783206144 -0.0012891862040584671 0 -0.00027175674191689289 -0.001155280522929586 0 -0.00024085654645173384 -0.0013375824618127817 0 -0.00019405385386214076 -0.0018760902254069567 0 -0.0001968220438627001 -0.0020161407594459255 0 -0.00029224131186069324 -0.0020055750711302999 0 7.1838997351605504e-05 -0.0028048301091580458 0 -4.9142311674728083e-06 -0.0026473307002162715 0 8.4729468075842566e-05 -0.0026593117951426103 0 -0.00075953977015479654 -0.001677307791809915 0 -0.00066833903097496977 -0.0015397556783318567 0 -0.0006824443636504273 -0.0016815247865110412 0 0.00074293682957960274 -0.0014562663573228637 0 0.00066918174343757076 -0.0015549279832161112 0 0.00066345606056682617 -0.0014162297008690338 0 -2.5603057083467062e-05 -0.00026164209133018693 0 2.8031729525386552e-06 -0.00038159485583182139 0 -3.8231854528637853e-05 -0.00037468405540641878 0 -0.00026670733341092916 -0.0018448011720807022 0 -0.00019405385386214076 -0.0018760902254069567 0 -0.00029224131186069324 -0.0020055750711302999 0 0.0003150979205263404 -0.0019756885327398555 0 0.00044398814393414317 -0.0020359092103194201 0 0.00036699033437288998 -0.0021036778860953963 0 -0.00029224131186069324 -0.0020055750711302999 0 -0.00032779827680349562 -0.0022315112381043429 0 -0.00036812494020933893 -0.0020972957284238754 0 0.00024945581712825903 -0.00096999676182509887 0 0.00024598629452865972 -0.00076698531270353329 0 0.00030075391441426231 -0.00089682856599820546 0 -0.0002694938750285649 -0.0010038283080346 0 -0.0003768749079160071 -0.00097477314268675332 0 -0.00029758761345512674 -0.00089083824856745657 0 0.00049494842114997952 -0.0025130680729735858 0 0.00041628449518165301 -0.0026692493254962479 0 0.00041248305627557318 -0.0025115869328128705 0 -0.00060633647577671508 -0.0023311123637283493 0 -0.00069596042116908466 -0.0022096616551330875 0 -0.00060702830165792641 -0.0021945050713243134 0 0.00045193216217731536 -0.00073392038121957196 0 0.00057201225640114077 -0.00089033123055034396 0 0.00049252001806497712 -0.00086888405151426822 0 -0.00030208321037935486 -0.00053116047093674428 0 -0.00020016657568889783 -0.00038512651785639607 0 -0.00024688584374591029 -0.00052225117356435738 0 -0.00011856500928994724 -0.00099820491030365682 0 -0.00013216938318301975 -0.0011539285456052286 0 -0.00019640385473034626 -0.0010724945244824035 0 0.00049494842114997952 -0.0025130680729735858 0 0.00057952719676177737 -0.0026564330608308049 0 0.00049770551713302724 -0.0027379181333404396 0 -0.00060633647577671508 -0.0023311123637283493 0 -0.000685235211607157 -0.0024803260492390622 0 -0.00073271564817021389 -0.0023472248083052476 0 0.00045193216217731536 -0.00073392038121957196 0 0.00049100855847831668 -0.00065260253266319877 0 0.00055343934162787125 -0.00077991679011083545 0 -0.00030208321037935486 -0.00053116047093674428 0 -0.00028017831395107918 -0.00039271636878113333 0 -0.00022635144417307561 -0.00036133169174569713 0 0.00013672387154749075 -0.0019458813552580211 0 0.00015434943707634316 -0.0017653830124274266 0 0.00023250393574021083 -0.0018528211655699798 0 0.00069788492474282763 -0.0020085249743721557 0 0.00071921284244049681 -0.0021889791239670998 0 0.00062824042152708967 -0.0021070474706227594 0 0.00013384018966841951 -0.00037155704751096143 0 0.0001785070538310577 -0.0003477242730242144 0 0.00020102130108246691 -0.00048176799717951553 0 -0.00029149040214050193 -0.0026729464613364628 0 -0.00040212489397269146 -0.002711293261063162 0 -0.00035810538619093833 -0.0025472215868526426 0 -0.00062328225127964158 -0.0010920552939642594 0 -0.00060061415957215895 -0.0009215657529794847 0 -0.00053359598287683254 -0.00096330758680583987 0 -0.00060633647577671508 -0.0023311123637283493 0 -0.00052846240756856272 -0.0024821513998146746 0 -0.00060621626077528724 -0.0025131484549396304 0 0.00049494842114997952 -0.0025130680729735858 0 0.00058698667152214416 -0.002385848642408091 0 0.00060176395009577598 -0.002520058495355363 0 -0.00030208321037935486 -0.00053116047093674428 0 -0.00041900251034322007 -0.00067082821612926362 0 -0.00037363430000020374 -0.00054007804881348346 0 0.00045193216217731536 -0.00073392038121957196 0 0.00033691753172997022 -0.00056283673973109261 0 0.00039145151628473612 -0.0005624273898604485 0 2.4325246612586694e-05 -0.0019556009654245147 0 -4.5752533975217651e-05 -0.0020406283827187639 0 -9.3494665459737143e-05 -0.0019124782580631269 0 9.3298499252843928e-05 -0.0012082542278980563 0 0.00018658557432029143 -0.0011058051769199488 0 0.00017984475965932041 -0.001269953421249641 0 0.00026882922791751044 -0.0012549120864378907 0 0.00017984475965932041 -0.001269953421249641 0 0.00018658557432029143 -0.0011058051769199488 0 0.00041936953776886487 -0.0021931192985658408 0 0.00044398814393414317 -0.0020359092103194201 0 0.00049445368136953735 -0.0022124827383768874 0 -0.00042176791976934595 -0.0021896302558998331 0 -0.00032779827680349562 -0.0022315112381043429 0 -0.00043007338980179566 -0.00231778226959551 0 0.00054148181170017584 -0.0021181597604479413 0 0.00049445368136953735 -0.0022124827383768874 0 0.00044398814393414317 -0.0020359092103194201 0 -0.000370483072770226 -0.0023958123361877515 0 -0.00043007338980179566 -0.00231778226959551 0 -0.00032779827680349562 -0.0022315112381043429 0 0.00032952919148822508 -0.00081983513428390592 0 0.00024598629452865972 -0.00076698531270353329 0 0.00030884098871643138 -0.0007006827187151088 0 -0.00032643453291960098 -0.00081632503588471991 0 -0.0003768749079160071 -0.00097477314268675332 0 -0.00038674735041749624 -0.00081624861237099245 0 0.00024683017272177831 -0.00061842133060783253 0 0.00030884098871643138 -0.0007006827187151088 0 0.00024598629452865972 -0.00076698531270353329 0 -0.00044955437150233189 -0.00092245568740529943 0 -0.00038674735041749624 -0.00081624861237099245 0 -0.0003768749079160071 -0.00097477314268675332 0 0.0004983821674289339 -0.0028940311668654473 0 0.00042377359909454791 -0.0028646945169980981 0 0.00049770551713302724 -0.0027379181333404396 0 -0.0008176265487437166 -0.0023552290123317874 0 -0.00080260007985556269 -0.0022330279257490341 0 -0.00073271564817021389 -0.0023472248083052476 0 0.00061917109684080042 -0.00079333658929002602 0 0.00066572964139081242 -0.00091785291266325458 0 0.00055343934162787125 -0.00077991679011083545 0 -0.00017006009717777579 -0.00024543500799335512 0 -0.00013822885077857607 -0.00023412396586842775 0 -0.00022635144417307561 -0.00036133169174569713 0 0.00020547279047195124 -0.0023186708224137834 0 0.00029629231534567544 -0.0023205703181055494 0 0.00024867593217855197 -0.0024972516924850851 0 0.00035009867384861392 -0.0024415895917968529 0 0.00024867593217855197 -0.0024972516924850851 0 0.00029629231534567544 -0.0023205703181055494 0 -0.0004979264810899515 -0.0018436074736634426 0 -0.00049943286427617988 -0.0019916977099962729 0 -0.00060035564996962555 -0.001926809530937035 0 -0.00056841396314952111 -0.0020877138179329177 0 -0.00060035564996962555 -0.001926809530937035 0 -0.00049943286427617988 -0.0019916977099962729 0 0.00045620236209862637 -0.0011800618595843877 0 0.00043445022949010922 -0.0010328155830047778 0 0.00054266187229856395 -0.0011325506840549053 0 0.00048095452530054852 -0.0009610663855969952 0 0.00054266187229856395 -0.0011325506840549053 0 0.00043445022949010922 -0.0010328155830047778 0 -0.00014303660822645467 -0.00066866177727378827 0 -0.00020697797278352112 -0.00067624141304491821 0 -0.00014629097620177326 -0.00051384199383329356 0 -0.00022280141188771557 -0.00057449757610435691 0 -0.00014629097620177326 -0.00051384199383329356 0 -0.00020697797278352112 -0.00067624141304491821 0 0.00084674865719281366 -0.0020854665278851833 0 0.00086496783120715108 -0.0019191182647038639 0 0.00091501836086814708 -0.0020238734989823912 0 7.7616925347679229e-05 -0.00016180797307401847 0 4.1900226492205418e-05 -0.00013137150566602338 0 3.081171360569215e-05 -6.9443954185586073e-05 0 -0.00032836996517238707 -0.0029498172739079792 0 -0.00021921435483350662 -0.0029915388322146732 0 -0.00028466438220165537 -0.0030852166825543511 0 -0.00075452544351969095 -0.0010905127363918569 0 -0.00080849507103002757 -0.0012638829504481722 0 -0.00083541823495649435 -0.0011860784931185938 0 0.0003150979205263404 -0.0019756885327398555 0 0.00036699033437288998 -0.0021036778860953963 0 0.00030230301127732209 -0.002158919213028443 0 -0.00029224131186069324 -0.0020055750711302999 0 -0.00036812494020933893 -0.0020972957284238754 0 -0.00040462299942444749 -0.0019923825980616445 0 0.00024945581712825903 -0.00096999676182509887 0 0.00030075391441426231 -0.00089682856599820546 0 0.00034734875601729888 -0.0010062721217054711 0 -0.0002694938750285649 -0.0010038283080346 0 -0.00029758761345512674 -0.00089083824856745657 0 -0.00023537131232068592 -0.0008270067048491436 0 0.00049494842114997952 -0.0025130680729735858 0 0.00043836220200006183 -0.0023537762278223657 0 0.00051332409022019287 -0.0023320064438649268 0 -0.00060633647577671508 -0.0023311123637283493 0 -0.00051588425696291859 -0.0022283882159640361 0 -0.00049984213694064992 -0.0023540787036614237 0 0.00045193216217731536 -0.00073392038121957196 0 0.00040114376636528104 -0.00080571790609392663 0 0.00035553756755070832 -0.00068150916572455123 0 -0.00030208321037935486 -0.00053116047093674428 0 -0.00030641010203462106 -0.00066751609623951218 0 -0.00037275840918135937 -0.00070692050681686407 0 -0.00013184139887735226 -0.0016511994447982149 0 -0.00010277835579728147 -0.0017637608898143262 0 -0.00019641331473280424 -0.0017399084560113384 0 -7.0027424949163032e-09 -1.1098395126321093e-07 0 -3.6815259021387939e-09 -1.0894483708128508e-07 0 -2.6237934070051842e-05 -8.6745955264761509e-05 0 0.00090983771487227675 -0.0013143574595932915 0 0.00093280567658219433 -0.0014612564573584874 0 0.00084679647163801686 -0.0013109884428916163 0 -0.00096813187463848783 -0.001915376488825606 0 -0.00096062760266980342 -0.0017610205860555633 0 -0.00089762186286727636 -0.0018865248254859837 0 0.00020940113627511715 -0.003198925790302998 0 0.00010500817986655231 -0.0031982483339349182 0 0.00019474980573300601 -0.0030577173722525692 0 0.0003179674521215738 -0.00025932469501987787 0 0.00048614535680249158 -0.00044056865329521384 0 0.00039910531780030308 -0.00033595276882333284 0 3.6663994875905111e-09 -9.5581228637395741e-08 0 -5.3992876321101422e-08 -1.3644299361023017e-07 0 -0.00013398442754066934 -9.6752513780270062e-05 0 0.00089138472203759036 -0.0032011235697482323 0 0.00080022027251317027 -0.0032022179422013393 0 0.00081136472180334503 -0.0030700886509895447 0 -0.00098120905190997245 -0.003037185404731575 0 -0.00098084739010663577 -0.0028744598895811629 0 -0.00091034900019366699 -0.0028921142873562758 0 0.00098060455418571245 -0.0028744836676456113 0 0.00098090497394554303 -0.0030371847558271904 0 0.00091012177306740453 -0.0028921112963631364 0 5.399156327127107e-08 -1.3519434540720367e-07 0 -4.1503891611209221e-09 -9.5982538605641857e-08 0 0.00013379821403639619 -9.6300662327447752e-05 0 -0.00080049449812411889 -0.0032022266108702323 0 -0.00089168459772011625 -0.0032011018639027037 0 -0.00081168315373579536 -0.0030700811712782061 0 -0.00048561282130933116 -0.00044087893412556332 0 -0.00031764230913247795 -0.00025950529209515258 0 -0.00039851489549663766 -0.00033616961295670995 0 0.00078217609925570098 -0.0023361165636757025 0 0.00067275913224996335 -0.0022957508958223443 0 0.00071921284244049681 -0.0021889791239670998 0 0.000175194682370642 -0.00025986273445245851 0 0.00024544402492421898 -0.00042482041861875719 0 0.0001785070538310577 -0.0003477242730242144 0 -0.00048874523184649844 -0.0028279768285344583 0 -0.00046997435053435757 -0.0026299406132444061 0 -0.00040212489397269146 -0.002711293261063162 0 -0.00061576508698344399 -0.00080645451189434957 0 -0.0005250828733962986 -0.00079365608409059181 0 -0.00060061415957215895 -0.0009215657529794847 0 3.1017617922598524e-05 -0.0021531558940347463 0 9.3553044423546469e-05 -0.0023274431682868235 0 -1.9626814419371875e-05 -0.0022935037431743147 0 -0.00039583048250590915 -0.0015476596713441138 0 -0.00049901737411535006 -0.0016628420910984854 0 -0.00047092613839156946 -0.0014777652985236468 0 0.0003965171809013174 -0.0014460357655704374 0 0.00048093113088248083 -0.0013615125204954413 0 0.00047510267411905212 -0.0015327456721490038 0 -2.6400759947699985e-05 -0.00079258777093219632 0 -6.3706525715935157e-05 -0.00065279234296553859 0 1.0444148462022898e-05 -0.00067932844265673124 0 0.0003373527411915391 -0.0016816474160428472 0 0.0002425586299294871 -0.0016687777951627548 0 0.00028965762673271886 -0.0014969469357019051 0 9.9948680366806092e-05 -0.00091209594318507781 0 0.00016677100414120641 -0.00095601954330187951 0 8.5390018060293679e-05 -0.0010574886289843944 0 -0.00017954308947755728 -0.0014442957967821532 0 -0.00014887926288805205 -0.0012947752398552431 0 -7.6170005345095607e-05 -0.0013796671583703724 0 0.00029128049271265024 -0.0026729174927623838 0 0.00024867593217855197 -0.0024972516924850851 0 0.000351939149240073 -0.0025802514926813315 0 -0.00069811573888745786 -0.0020084915683672112 0 -0.00060035564996962555 -0.001926809530937035 0 -0.00064679828866268151 -0.0020996005221670267 0 0.00062301306609011521 -0.0010925956898384377 0 0.00054266187229856395 -0.0011325506840549053 0 0.00055303963938871273 -0.0009784435700401137 0 -0.0001338557119693615 -0.00037074697485344805 0 -0.00014629097620177324 -0.00051384199383329356 0 -0.00018967242936272855 -0.00045431511765373273 0 0.00020940113627511715 -0.003198925790302998 0 0.00019474980573300601 -0.0030577173722525692 0 0.00028675348243874569 -0.0030483437021830016 0 -0.00096813187463848783 -0.001915376488825606 0 -0.00089762186286727636 -0.0018865248254859837 0 -0.000896845473793954 -0.0020261382337842357 0 0.00090983771487227675 -0.0013143574595932915 0 0.00084679647163801686 -0.0013109884428916163 0 0.00081735345759464582 -0.0011749676243168819 0 -7.0027424949163032e-09 -1.1098395126321093e-07 0 -2.6237934070051842e-05 -8.6745955264761509e-05 0 -4.1002029803359492e-05 -9.2960806935041604e-05 0 0.0003150979205263404 -0.0019756885327398555 0 0.00023250393574021085 -0.0018528211655699798 0 0.0003191563620771433 -0.0018112834026124483 0 0.00024945581712825903 -0.00096999676182509887 0 0.00018658557432029143 -0.0011058051769199488 0 0.00016677100414120641 -0.00095601954330187951 0 0.00013672387154749075 -0.0019458813552580211 0 0.0002267325302210081 -0.0020509094563163871 0 0.00014750293812067106 -0.0021539723961533394 0 -0.000287370297586323 -0.0017139668729640773 0 -0.00034601002367047688 -0.0018593659783264088 0 -0.00039972202149106021 -0.0017326737229764006 0 0.00026882922791751044 -0.0012549120864378907 0 0.00030206442845814939 -0.0011200196182081959 0 0.00037524438837467948 -0.0012610288128962566 0 -0.00011856500928994724 -0.00099820491030365682 0 -0.00018558430960200848 -0.00091792858929225533 0 -0.00011224907397298007 -0.00081576978653417388 0 1.0089349454186705e-08 -1.0871128370122943e-07 0 3.081171360569215e-05 -6.9443954185586073e-05 0 4.1900226492205418e-05 -0.00013137150566602338 0 0.00096791419543283675 -0.001915619285691447 0 0.00091501836086814708 -0.0020238734989823912 0 0.00086496783120715108 -0.0019191182647038639 0 -0.00091046270125596076 -0.0013146876275413626 0 -0.00083541823495649435 -0.0011860784931185938 0 -0.00080849507103002757 -0.0012638829504481722 0 -0.00020962765939150458 -0.0031989601737721133 0 -0.00028466438220165537 -0.0030852166825543511 0 -0.00021921435483350662 -0.0029915388322146732 0 -8.3614578666341526e-08 -0.00244132921544047 0 -1.9626814419371875e-05 -0.0022935037431743147 0 9.3553044423546469e-05 -0.0023274431682868235 0 -0.00055561764007709539 -0.0015238271990810448 0 -0.00047092613839156946 -0.0014777652985236468 0 -0.00049901737411535006 -0.0016628420910984854 0 0.00055536303053990146 -0.0015238895230080725 0 0.00047510267411905212 -0.0015327456721490038 0 0.00048093113088248083 -0.0013615125204954413 0 -1.2123213950864038e-07 -0.00055271595876262903 0 1.0444148462022898e-05 -0.00067932844265673124 0 -6.3706525715935157e-05 -0.00065279234296553859 0 -0.00021975399072753779 -0.002320502545585038 0 -0.00014050162801052861 -0.0024429070389881285 0 -0.0002363454413541751 -0.0025230488473115802 0 -0.00045422996757775913 -0.0011575126216622957 0 -0.0005368830285583222 -0.0012997201668062399 0 -0.00055990344148178434 -0.0011563578884154491 0 0.0004992325981879336 -0.0018663379120672687 0 0.00056646384496784885 -0.0017483757254467738 0 0.0006141958839537496 -0.0019088113907659223 0 0.00015201520031001735 -0.00066661535983870946 0 8.5903603779881148e-05 -0.00055265200547641538 0 0.00013444499514357047 -0.00049160364928449137 0 0.0005736909815166637 -0.0022418304789153486 0 0.00051332409022019287 -0.0023320064438649268 0 0.00049445368136953735 -0.0022124827383768874 0 -0.00044321770588049314 -0.0024545777178450229 0 -0.00049984213694064992 -0.0023540787036614237 0 -0.00043007338980179566 -0.00231778226959551 0 0.00028403278278430193 -0.00057666855622500314 0 0.00035553756755070832 -0.00068150916572455123 0 0.00030884098871643138 -0.0007006827187151088 0 -0.00044943639863833089 -0.00081140789966242691 0 -0.00037275840918135937 -0.00070692050681686396 0 -0.00038674735041749624 -0.00081624861237099245 0 -1.6894122044485281e-05 -0.0017823876845195032 0 6.3089453964376986e-05 -0.0016536784072592797 0 7.3310460400503421e-05 -0.0018211576293642555 0 -0.00017954308947755728 -0.0014442957967821532 0 -7.6170005345095593e-05 -0.0013796671583703724 0 -9.5231715578735328e-05 -0.0015231094938402273 0 0.00035009867384861392 -0.0024415895917968529 0 0.000351939149240073 -0.0025802514926813315 0 0.00024867593217855197 -0.0024972516924850851 0 -0.00056841396314952111 -0.0020877138179329177 0 -0.00064679828866268151 -0.0020996005221670267 0 -0.00060035564996962555 -0.001926809530937035 0 0.00048095452530054852 -0.0009610663855969952 0 0.00055303963938871273 -0.0009784435700401137 0 0.00054266187229856395 -0.0011325506840549053 0 -0.00022280141188771557 -0.00057449757610435691 0 -0.00018967242936272855 -0.00045431511765373273 0 -0.00014629097620177326 -0.00051384199383329356 0 0.00038135581407475585 -0.00046113728956586231 0 0.0004795440084683058 -0.00055103484595678482 0 0.00049100855847831668 -0.00065260253266319877 0 -0.00037862492075291417 -0.00045742478290031896 0 -0.00027209422766968585 -0.0003238384521544048 0 -0.00028017831395107918 -0.00039271636878113333 0 0.00017811822969326365 -0.0014118273193639427 0 0.00024766790602121538 -0.0013606789961131789 0 0.00028965762673271886 -0.0014969469357019051 0 0.00019421846498593541 -0.0015402559359203754 0 0.00017811822969326365 -0.0014118273193639427 0 0.00028965762673271886 -0.0014969469357019051 0 7.1838997351605504e-05 -0.0028048301091580458 0 8.4729468075842566e-05 -0.0026593117951426103 0 0.00017292209806517945 -0.0027527953615493722 0 0.0001415590902968622 -0.0025726252649882499 0 0.00017292209806517945 -0.0027527953615493722 0 8.4729468075842566e-05 -0.0026593117951426103 0 -0.00075953977015479654 -0.001677307791809915 0 -0.0006824443636504273 -0.0016815247865110412 0 -0.00073842441850079901 -0.0018287829874619993 0 -0.00063878260864286968 -0.0017622852533103468 0 -0.00073842441850079901 -0.0018287829874619993 0 -0.0006824443636504273 -0.0016815247865110412 0 0.00074293682957960274 -0.0014562663573228637 0 0.00066345606056682617 -0.0014162297008690338 0 0.00069734596898251883 -0.0012923934923207141 0 0.00060710347329972244 -0.0013146535184971339 0 0.00069734596898251883 -0.0012923934923207141 0 0.00066345606056682617 -0.0014162297008690338 0 -2.5603057083467062e-05 -0.00026164209133018693 0 -3.8231854528637853e-05 -0.00037468405540641878 0 -6.8231870061631673e-05 -0.00030254228673897733 0 -7.3991949901298573e-05 -0.00044512795843318543 0 -6.8231870061631687e-05 -0.00030254228673897733 0 -3.8231854528637853e-05 -0.00037468405540641878 0 0.00041628449518165301 -0.0026692493254962479 0 0.00042377359909454791 -0.0028646945169980981 0 0.00035174990886235549 -0.0027925093903155671 0 -0.00069596042116908466 -0.0022096616551330875 0 -0.00080260007985556269 -0.0022330279257490341 0 -0.00076358456106900082 -0.0021133212618898332 0 0.00057201225640114077 -0.00089033123055034396 0 0.00066572964139081242 -0.00091785291266325458 0 0.00066429574850479295 -0.0010187597435576798 0 -0.00020016657568889783 -0.00038512651785639607 0 -0.00013822885077857604 -0.00023412396586842775 0 -0.00013096935851767086 -0.00028031451273229714 0 0.00068962130856027462 -0.0024416900733294682 0 0.00058698667152214416 -0.002385848642408091 0 0.00067275913224996335 -0.0022957508958223443 0 -0.00055651557070342641 -0.0026635738937354583 0 -0.00052846240756856272 -0.0024821513998146746 0 -0.00046997435053435757 -0.0026299406132444061 0 0.00028587708604423085 -0.00040632177912978317 0 0.00033691753172997022 -0.00056283673973109261 0 0.00024544402492421898 -0.00042482041861875719 0 -0.00048704656229431223 -0.00065456480514523342 0 -0.00041900251034322013 -0.00067082821612926362 0 -0.0005250828733962986 -0.00079365608409059181 0 0.00061917109684080042 -0.00079333658929002602 0 0.00055343934162787125 -0.00077991679011083545 0 0.00049100855847831668 -0.00065260253266319877 0 -0.00017006009717777579 -0.00024543500799335512 0 -0.00022635144417307561 -0.00036133169174569713 0 -0.00028017831395107918 -0.00039271636878113333 0 -4.9142311674728083e-06 -0.0026473307002162715 0 -9.750447057360407e-05 -0.0027013521816177826 0 -7.1611952213185027e-05 -0.0025367195684812011 0 -0.00066833903097496988 -0.0015397556783318567 0 -0.00068472018501669401 -0.001402046426194763 0 -0.00059961191852970662 -0.0014212028615869904 0 0.00066918174343757076 -0.001554927983216111 0 0.00070631139665934854 -0.0017057564739224353 0 0.00061467372755000726 -0.0016477946354336514 0 2.8031729525386463e-06 -0.00038159485583182139 0 4.2541252324550595e-05 -0.00034001640043700756 0 3.9479178577629381e-05 -0.00047176172041670682 0 3.1017617922598524e-05 -0.0021531558940347463 0 -4.5752533975217651e-05 -0.0020406283827187639 0 2.4325246612586694e-05 -0.0019556009654245147 0 -0.00039583048250590915 -0.0015476596713441138 0 -0.00032761218235108472 -0.0014157727073535425 0 -0.00028536235936228217 -0.0015222326166706376 0 0.00021467890844737434 -0.00263089915759956 0 0.00029128049271265024 -0.0026729174927623838 0 0.00026041859769967897 -0.0027820209420919397 0 -0.00067360180642855579 -0.0018834723126948997 0 -0.00069811573888745786 -0.0020084915683672112 0 -0.00075661685530337955 -0.0019681339470148146 0 0.00062246390834072021 -0.0012071762217127698 0 0.00062301306609011521 -0.0010925956898384377 0 0.00069018310074800589 -0.0011610520124744014 0 -0.00010351782523238016 -0.00040056354953623926 0 -0.0001338557119693615 -0.00037074697485344805 0 -9.7152500019585952e-05 -0.00028370341434671065 0 0.0003965171809013174 -0.0014460357655704374 0 0.00028965762673271886 -0.0014969469357019051 0 0.00032048417274583533 -0.0013733332205579686 0 0.00015054878973499471 -0.0016229247572396967 0 6.3089453964376986e-05 -0.0016536784072592797 0 0.00010898843140574322 -0.001503839910151209 0 6.5567541359467607e-06 -0.0014739479769365774 0 1.4563589336149442e-05 -0.0013005921284090962 0 9.4121537967836459e-05 -0.001356032939123091 0 0.00017292209806517945 -0.0027527953615493722 0 0.00021467890844737431 -0.00263089915759956 0 0.00026041859769967897 -0.0027820209420919397 0 -0.00073842441850079901 -0.0018287829874619993 0 -0.00067360180642855579 -0.0018834723126948997 0 -0.00075661685530337955 -0.0019681339470148146 0 0.00069734596898251883 -0.0012923934923207141 0 0.00062246390834072021 -0.0012071762217127698 0 0.00069018310074800589 -0.0011610520124744014 0 -6.8231870061631673e-05 -0.00030254228673897733 0 -0.00010351782523238016 -0.00040056354953623926 0 -9.7152500019585952e-05 -0.00028370341434671065 0 -0.000287370297586323 -0.0017139668729640773 0 -0.00028536235936228217 -0.0015222326166706376 0 -0.00020371783693135564 -0.0015963472804916934 0 -0.00014497373877169593 -0.0025851201515703272 0 -7.1611952213185027e-05 -0.0025367195684812011 0 -9.750447057360407e-05 -0.0027013521816177826 0 -0.00061347074701130651 -0.0013112892264279029 0 -0.00059961191852970662 -0.0014212028615869904 0 -0.00068472018501669401 -0.001402046426194763 0 0.00064572289262043606 -0.0017686989816664393 0 0.00061467372755000726 -0.0016477946354336514 0 0.00070631139665934854 -0.0017057564739224353 0 7.4797659445727471e-05 -0.00043371883540393465 0 3.9479178577629381e-05 -0.00047176172041670682 0 4.2541252324550595e-05 -0.00034001640043700756 0 0.00061917109684080042 -0.00079333658929002602 0 0.00056250116116356847 -0.00066281331231858283 0 0.0006701745245146194 -0.00076420187530201842 0 0.00054174648243812944 -0.0005709401788700578 0 0.0006701745245146194 -0.00076420187530201842 0 0.00056250116116356847 -0.00066281331231858283 0 -0.00017006009717777579 -0.00024543500799335512 0 -0.00020294951476175957 -0.00025453773265241795 0 -0.00010403567293370246 -0.00012420288778848621 0 -0.00018578728084203203 -0.00019691685063981124 0 -0.00010403567293370246 -0.00012420288778848621 0 -0.00020294951476175957 -0.00025453773265241795 0 6.5567541359467607e-06 -0.0014739479769365774 0 9.4121537967836459e-05 -0.001356032939123091 0 0.00010898843140574322 -0.001503839910151209 0 -0.00037862492075291417 -0.00045742478290031896 0 -0.00048048738509331117 -0.00055122106879201154 0 -0.00040405442885975537 -0.0004203454459120276 0 0.00038135581407475585 -0.00046113728956586231 0 0.00027112680873653668 -0.00032181872099430492 0 0.00031247905711369648 -0.0003274767505748701 0 0.0004983821674289339 -0.0028940311668654473 0 0.00049770551713302724 -0.0027379181333404396 0 0.00057386701349968438 -0.0028250314003351999 0 0.00057952719676177737 -0.0026564330608308049 0 0.00057386701349968438 -0.0028250314003351999 0 0.00049770551713302724 -0.0027379181333404396 0 -0.0008176265487437166 -0.0023552290123317874 0 -0.00073271564817021389 -0.0023472248083052476 0 -0.00077909015618656875 -0.0024775672954947623 0 -0.000685235211607157 -0.0024803260492390622 0 -0.00077909015618656875 -0.0024775672954947623 0 -0.00073271564817021389 -0.0023472248083052476 0 0.00019339119551545182 -0.00020041220395326052 0 0.00019211603586337779 -0.00024220139946463449 0 0.00010565074513270374 -0.00012630332549189209 0 -0.00053367613339249309 -0.00055900085099577952 0 -0.00057594224452277526 -0.00067818616610258015 0 -0.00067307719402192711 -0.00077180736915740799 0 0.00083537988191394348 -0.0026052960439040367 0 0.00080879624495612784 -0.0024743854709340664 0 0.00088139117068850058 -0.0024430155461390404 0 -0.00064782290965496544 -0.0029300644664502625 0 -0.00057098854065848763 -0.0028802628381126359 0 -0.00054972781138595199 -0.0030142295109766327 0 0.000175194682370642 -0.00025986273445245851 0 0.00010565074513270374 -0.00012630332549189209 0 0.00019211603586337779 -0.00024220139946463449 0 -0.00061576508698344399 -0.00080645451189434957 0 -0.00067307719402192711 -0.00077180736915740799 0 -0.00057594224452277526 -0.00067818616610258015 0 0.00078217609925570098 -0.0023361165636757025 0 0.00088139117068850058 -0.0024430155461390404 0 0.00080879624495612784 -0.0024743854709340664 0 -0.00048874523184649844 -0.0028279768285344583 0 -0.00054972781138595199 -0.0030142295109766327 0 -0.00057098854065848763 -0.0028802628381126359 0 0.00049445368136953735 -0.0022124827383768874 0 0.00043836220200006183 -0.0023537762278223657 0 0.00041936953776886487 -0.0021931192985658408 0 0.00051332409022019287 -0.0023320064438649268 0 0.00043836220200006183 -0.0023537762278223657 0 0.00049445368136953735 -0.0022124827383768874 0 -0.00043007338980179566 -0.00231778226959551 0 -0.00051588425696291859 -0.0022283882159640361 0 -0.00042176791976934595 -0.0021896302558998331 0 -0.00049984213694064992 -0.0023540787036614237 0 -0.00051588425696291859 -0.0022283882159640361 0 -0.00043007338980179566 -0.00231778226959551 0 0.00030884098871643138 -0.0007006827187151088 0 0.00040114376636528104 -0.00080571790609392663 0 0.00032952919148822508 -0.00081983513428390592 0 0.00035553756755070832 -0.00068150916572455123 0 0.00040114376636528104 -0.00080571790609392663 0 0.00030884098871643138 -0.0007006827187151088 0 -0.00038674735041749624 -0.00081624861237099245 0 -0.00030641010203462106 -0.00066751609623951218 0 -0.00032643453291960098 -0.00081632503588471991 0 -0.00037275840918135937 -0.00070692050681686407 0 -0.00030641010203462106 -0.00066751609623951218 0 -0.00038674735041749624 -0.00081624861237099245 0 0.00078217609925570098 -0.0023361165636757025 0 0.00071921284244049681 -0.0021889791239670998 0 0.0008009917325361521 -0.0021936738297884759 0 -0.00048874523184649844 -0.0028279768285344583 0 -0.00040212489397269141 -0.002711293261063162 0 -0.00039945539778888831 -0.0028622858897849731 0 0.000175194682370642 -0.00025986273445245851 0 0.0001785070538310577 -0.0003477242730242144 0 0.00012898428254407067 -0.00022937479391792399 0 -0.00061576508698344399 -0.00080645451189434957 0 -0.00060061415957215895 -0.00092156575297948481 0 -0.00068008953747653532 -0.00095912185793802494 0 0.00017811822969326365 -0.0014118273193639427 0 9.4121537967836459e-05 -0.001356032939123091 0 0.00017984475965932041 -0.001269953421249641 0 0.00026882922791751044 -0.0012549120864378907 0 0.00037524438837467948 -0.0012610288128962566 0 0.00032048417274583533 -0.0013733332205579686 0 0.0003965171809013174 -0.0014460357655704374 0 0.00032048417274583533 -0.0013733332205579686 0 0.00037524438837467948 -0.0012610288128962566 0 0.0006686204391390336 -0.0026328169064380046 0 0.00063794594994878977 -0.0027605536536312596 0 0.00057952719676177737 -0.0026564330608308049 0 -0.00066885782188414844 -0.0026327462313753065 0 -0.0007421443001302912 -0.0025835630324119456 0 -0.000685235211607157 -0.0024803260492390622 0 0.00049100855847831668 -0.00065260253266319877 0 0.0004795440084683058 -0.00055103484595678482 0 0.00056250116116356847 -0.00066281331231858283 0 -0.00028017831395107918 -0.00039271636878113333 0 -0.00027209422766968585 -0.0003238384521544048 0 -0.00020294951476175957 -0.00025453773265241795 0 0.00031347614903362976 -0.00027208902716075221 0 0.00024810869044697209 -0.00023295621970443543 0 0.00015046143167249867 -0.00013594530387941477 0 -0.00031671557994545095 -0.00027620516918576285 0 -0.00043380448925328143 -0.00041980283559260682 0 -0.00047995651780557204 -0.00044721429937444296 0 0.00069788492474282763 -0.0020085249743721557 0 0.00077930770286822545 -0.0019609636686203974 0 0.00076952468310701383 -0.0020924502766242669 0 0.00013384018966841951 -0.00037155704751096143 0 8.5944712057961438e-05 -0.0002509067258772644 0 0.00012326607479934887 -0.0002706695115182206 0 -0.00029149040214050193 -0.0026729464613364628 0 -0.00025398746429374256 -0.0028248929005623416 0 -0.00033821455227937218 -0.0028041850282667425 0 -0.00062328225127964158 -0.0010920552939642594 0 -0.00071447721139443802 -0.0011793089506304832 0 -0.00067510291135278568 -0.0010432652171267537 0 0.00019339119551545182 -0.00020041220395326052 0 0.00031247905711369648 -0.0003274767505748701 0 0.00027112680873653668 -0.00032181872099430492 0 -0.00053367613339249309 -0.00055900085099577952 0 -0.00040405442885975537 -0.0004203454459120276 0 -0.00048048738509331123 -0.00055122106879201154 0 0.00051470768688611091 -0.0032018202461708998 0 0.00041457707571516706 -0.0032007575120273739 0 0.00045020464434185906 -0.0030363163087800873 0 -0.00097910184504474318 -0.0023890313609185409 0 -0.00097669365945973101 -0.0022293295163988429 0 -0.00089315354811626748 -0.0022825527283940692 0 0.00078297644696394405 -0.00088930836718297576 0 0.00083716958454426056 -0.0010309767852407312 0 0.0007402454099081035 -0.00092798398293127431 0 -1.6947527050314864e-08 -1.0866591445978356e-07 0 -1.1189750854297386e-08 -1.1260342427467008e-07 0 -7.5605969695993714e-05 -0.00011044712567928327 0 0.00010500817986655231 -0.0031982483339349182 0 3.1503742900652765e-05 -0.0030696369592401016 0 0.00011101614864093265 -0.0030203661499051517 0 -0.00096062760266980342 -0.0017610205860555633 0 -0.00089087731130321139 -0.0016436325810410208 0 -0.00087296687273260513 -0.0017578108763013284 0 0.00093280567658219433 -0.0014612564573584874 0 0.00088295063580857785 -0.0015514470740344429 0 0.00084530341702301166 -0.0014287340314567271 0 -3.6815259021387939e-09 -1.0894483708128508e-07 0 -3.2889691309046788e-06 -7.7669443617714128e-05 0 -1.7610303826308471e-05 -0.00011261435757281767 0 -2.3508709863086904e-06 -0.001031286666901828 0 2.4986684574971235e-05 -0.00090601495820637234 0 8.5390018060293679e-05 -0.0010574886289843944 0 0.00083537988191394348 -0.0026052960439040367 0 0.00078258388971738538 -0.0027177056846302357 0 0.00075838795261913908 -0.0025755627966338405 0 -0.00064782290965496544 -0.0029300644664502625 0 -0.00071435493749572769 -0.0028360833062355574 0 -0.00063295707361537255 -0.0027900957401846048 0 6.5567541359467607e-06 -0.0014739479769365774 0 0.00010898843140574322 -0.001503839910151209 0 6.3089453964376986e-05 -0.0016536784072592797 0 0.00077111619611959482 -0.0012376147805801309 0 0.00084679647163801686 -0.0013109884428916163 0 0.00077361130499487354 -0.0013591062341736994 0 0.00084530341702301166 -0.0014287340314567271 0 0.00077361130499487354 -0.0013591062341736994 0 0.00084679647163801686 -0.0013109884428916163 0 0.0007077536877423715 -0.0032026472238032722 0 0.00066374274525080143 -0.0030562919197512865 0 0.00073984898881756167 -0.0030287933381813537 0 -0.00098107093474564212 -0.0027120198720697922 0 -0.00090338422496442894 -0.0026350504502296373 0 -0.0008880281164066801 -0.0027657553985357629 0 -0.00064782290965496544 -0.0029300644664502625 0 -0.00065018383742579053 -0.0030714904607610765 0 -0.00073020381020604257 -0.0030068465288829757 0 0.00083537988191394348 -0.0026052960439040367 0 0.00091125948758041754 -0.0026118926548963058 0 0.00087619014085265441 -0.0027482801814742394 0 -0.00053367613339249309 -0.00055900085099577952 0 -0.00061143765541075198 -0.00062386287105834848 0 -0.00047995651780557204 -0.00044721429937444296 0 0.00019339119551545182 -0.00020041220395326052 0 8.9603385145484681e-05 -8.9492756475142662e-05 0 0.00015046143167249867 -0.00013594530387941477 0 -0.00070797890978912918 -0.0032026558965446111 0 -0.00073020381020604257 -0.0030068465288829757 0 -0.00065018383742579053 -0.0030714904607610765 0 0.00098090402989314601 -0.0027121239754026982 0 0.00087619014085265441 -0.0027482801814742394 0 0.00091125948758041754 -0.0026118926548963058 0 -0.00061676869399147373 -0.00060175146734245855 0 -0.0004799565178055721 -0.00044721429937444302 0 -0.00061143765541075198 -0.00062386287105834848 0 2.1650488006352809e-08 -1.0283006018200055e-07 0 0.00015046143167249867 -0.00013594530387941477 0 8.9603385145484681e-05 -8.9492756475142662e-05 0 0.0006179266878400438 -0.00060098475001806636 0 0.00061278005671002822 -0.00062654826064798854 0 0.00048431069186367318 -0.00045517829272782379 0 -2.1482864663835517e-08 -1.0160882475902522e-07 0 -9.0298005738776162e-05 -8.9769769370815294e-05 0 -0.00016026644756175095 -0.00014568073667396949 0 0.00054174648243812944 -0.0005709401788700578 0 0.00048431069186367318 -0.00045517829272782379 0 0.00061278005671002822 -0.00062654826064798854 0 -0.00018578728084203203 -0.00019691685063981124 0 -0.00016026644756175095 -0.00014568073667396949 0 -9.0298005738776162e-05 -8.9769769370815294e-05 0 -0.00019405385386214076 -0.0018760902254069567 0 -0.00010277835579728146 -0.0017637608898143262 0 -9.3494665459737143e-05 -0.0019124782580631269 0 6.5567541359467607e-06 -0.0014739479769365774 0 6.3089453964376986e-05 -0.0016536784072592797 0 -4.1568900591404985e-05 -0.0016386559250529688 0 -0.00032096786783206144 -0.0012891862040584671 0 -0.00036002555752684992 -0.0011349910388320161 0 -0.00027175674191689289 -0.001155280522929586 0 -0.0002694938750285649 -0.0010038283080346 0 -0.00027175674191689289 -0.001155280522929586 0 -0.00036002555752684992 -0.0011349910388320161 0 -0.00020049881007488187 -0.0012020381450423912 0 -0.00019640385473034626 -0.0010724945244824035 0 -0.00013216938318301975 -0.0011539285456052286 0 9.9948680366806092e-05 -0.00091209594318507781 0 8.5390018060293679e-05 -0.0010574886289843944 0 2.4986684574971235e-05 -0.00090601495820637234 0 0.00069788492474282763 -0.0020085249743721557 0 0.00076952468310701383 -0.0020924502766242669 0 0.00071921284244049681 -0.0021889791239670998 0 0.00013384018966841951 -0.00037155704751096143 0 0.00012326607479934887 -0.0002706695115182206 0 0.0001785070538310577 -0.0003477242730242144 0 -0.00029149040214050193 -0.0026729464613364628 0 -0.00033821455227937218 -0.0028041850282667425 0 -0.00040212489397269146 -0.002711293261063162 0 -0.00062328225127964158 -0.0010920552939642594 0 -0.00067510291135278568 -0.0010432652171267537 0 -0.00060061415957215895 -0.0009215657529794847 0 -0.00017954308947755728 -0.0014442957967821532 0 -0.00020371783693135564 -0.0015963472804916934 0 -0.00028536235936228217 -0.0015222326166706376 0 -0.00014497373877169593 -0.0025851201515703272 0 -0.0002363454413541751 -0.0025230488473115802 0 -0.00014050162801052861 -0.0024429070389881285 0 0.00064572289262043606 -0.0017686989816664393 0 0.0006141958839537496 -0.0019088113907659223 0 0.00056646384496784885 -0.0017483757254467738 0 -0.00061347074701130651 -0.0013112892264279029 0 -0.00055990344148178434 -0.0011563578884154491 0 -0.0005368830285583222 -0.0012997201668062399 0 7.4797659445727471e-05 -0.00043371883540393465 0 0.00013444499514357047 -0.00049160364928449137 0 8.5903603779881148e-05 -0.00055265200547641527 0 0.00073984898881756167 -0.0030287933381813537 0 0.00066374274525080154 -0.0030562919197512865 0 0.00071523558992800797 -0.0029135121329635686 0 -0.0008880281164066801 -0.0027657553985357629 0 -0.00090338422496442894 -0.0026350504502296373 0 -0.00082549935128973801 -0.0027213056445715444 0 0.00064535589251261993 -0.0029125678693731893 0 0.00071523558992800797 -0.0029135121329635686 0 0.00066374274525080154 -0.0030562919197512865 0 -0.00082619264399321618 -0.0026009703195826266 0 -0.00082549935128973801 -0.0027213056445715444 0 -0.00090338422496442894 -0.0026350504502296373 0 0.0005736909815166637 -0.0022418304789153486 0 0.00067275913224996335 -0.0022957508958223443 0 0.00058698667152214416 -0.002385848642408091 0 -0.00044321770588049314 -0.0024545777178450229 0 -0.00046997435053435757 -0.0026299406132444061 0 -0.00052846240756856272 -0.0024821513998146746 0 0.00028403278278430193 -0.00057666855622500314 0 0.00024544402492421898 -0.00042482041861875719 0 0.00033691753172997022 -0.00056283673973109261 0 -0.00044943639863833089 -0.00081140789966242691 0 -0.0005250828733962986 -0.00079365608409059181 0 -0.00041900251034322013 -0.00067082821612926362 0 9.3298499252843928e-05 -0.0012082542278980563 0 1.4563589336149442e-05 -0.0013005921284090962 0 9.0816411626354319e-06 -0.0011529569523194695 0 9.3298499252843928e-05 -0.0012082542278980563 0 0.00017984475965932041 -0.001269953421249641 0 9.4121537967836459e-05 -0.001356032939123091 0 0.00064535589251261993 -0.0029125678693731893 0 0.00063794594994878977 -0.0027605536536312596 0 0.00071181475002181208 -0.0027941860022086206 0 -0.00082619264399321618 -0.0026009703195826266 0 -0.0007421443001302912 -0.0025835630324119456 0 -0.00075952746860859861 -0.0027121075526461281 0 0.00068962130856027462 -0.0024416900733294682 0 0.00060176395009577598 -0.002520058495355363 0 0.00058698667152214416 -0.002385848642408091 0 -0.00055651557070342641 -0.0026635738937354583 0 -0.00060621626077528724 -0.0025131484549396304 0 -0.00052846240756856272 -0.0024821513998146746 0 0.00028587708604423085 -0.00040632177912978317 0 0.00039145151628473612 -0.0005624273898604485 0 0.00033691753172997022 -0.00056283673973109261 0 -0.00048704656229431223 -0.00065456480514523342 0 -0.00037363430000020374 -0.00054007804881348346 0 -0.00041900251034322013 -0.00067082821612926362 0 0.00041003342540521775 -0.0017424996781832459 0 0.0003191563620771433 -0.0018112834026124483 0 0.0003373527411915391 -0.0016816474160428472 0 0.0003969467287865828 -0.0018787350599531246 0 0.0003191563620771433 -0.0018112834026124483 0 0.00041003342540521775 -0.0017424996781832459 0 0.00011438318653277064 -0.00079937429220698619 0 0.00016677100414120641 -0.00095601954330187951 0 9.9948680366806092e-05 -0.00091209594318507781 0 0.00018214724924491403 -0.00083144170191001387 0 0.00016677100414120641 -0.00095601954330187951 0 0.00011438318653277064 -0.00079937429220698619 0 0.00011101614864093265 -0.0030203661499051517 0 0.00014384628109605639 -0.0028956484534300633 0 0.00019474980573300601 -0.0030577173722525692 0 0.00022842668401438536 -0.0029197329029871425 0 0.00019474980573300601 -0.0030577173722525692 0 0.00014384628109605639 -0.0028956484534300633 0 -0.00087296687273260513 -0.0017578108763013284 0 -0.00081191409016725577 -0.0017966648876468732 0 -0.00089762186286727636 -0.0018865248254859837 0 -0.00082862064127496885 -0.0019283468839380738 0 -0.00089762186286727636 -0.0018865248254859837 0 -0.00081191409016725577 -0.0017966648876468732 0 -1.7610303826308471e-05 -0.00011261435757281767 0 -3.8904758999890802e-05 -0.00019740879555149883 0 -2.6237934070051842e-05 -8.6745955264761509e-05 0 -5.7560585058172778e-05 -0.00018021642096530916 0 -2.6237934070051845e-05 -8.6745955264761509e-05 0 -3.8904758999890802e-05 -0.00019740879555149883 0 0.00013672387154749075 -0.0019458813552580211 0 8.4759072038618797e-05 -0.0020563613073386108 0 2.4325246612586694e-05 -0.0019556009654245147 0 -0.000287370297586323 -0.0017139668729640773 0 -0.00034241153943478947 -0.0016288882810678331 0 -0.00028536235936228217 -0.0015222326166706376 0 3.1017617922598524e-05 -0.0021531558940347463 0 2.4325246612586694e-05 -0.0019556009654245147 0 8.4759072038618797e-05 -0.0020563613073386108 0 -0.00039583048250590915 -0.0015476596713441138 0 -0.00028536235936228217 -0.0015222326166706376 0 -0.00034241153943478947 -0.0016288882810678331 0 0.00080252637332727038 -0.0028791825819187182 0 0.00073984898881756167 -0.0030287933381813537 0 0.00071523558992800797 -0.0029135121329635686 0 -0.00080559412769124741 -0.0028739243667434498 0 -0.0008880281164066801 -0.0027657553985357629 0 -0.00082549935128973801 -0.0027213056445715444 0 0.00019339119551545182 -0.00020041220395326052 0 0.00015046143167249867 -0.00013594530387941477 0 0.00024810869044697209 -0.00023295621970443543 0 -0.00053367613339249309 -0.00055900085099577952 0 -0.00047995651780557204 -0.00044721429937444296 0 -0.00043380448925328137 -0.00041980283559260682 0 0.00036862540536049254 -0.0029655666706185635 0 0.00042377359909454791 -0.0028646945169980981 0 0.00045020464434185906 -0.0030363163087800873 0 -0.00085569339976767668 -0.0021500242864045454 0 -0.00080260007985556269 -0.0022330279257490341 0 -0.00089315354811626748 -0.0022825527283940692 0 0.00074634861122720316 -0.0010324078563483784 0 0.00066572964139081242 -0.00091785291266325458 0 0.0007402454099081035 -0.00092798398293127431 0 -8.1913012347700526e-05 -0.00015193431966762481 0 -0.00013822885077857607 -0.00023412396586842775 0 -7.5605969695993714e-05 -0.00011044712567928327 0 0.00020547279047195124 -0.0023186708224137834 0 0.00015869302357139582 -0.0024337134488705493 0 9.3553044423546469e-05 -0.0023274431682868235 0 -0.0004979264810899515 -0.0018436074736634426 0 -0.00056195563297496785 -0.0017771516317928423 0 -0.00049901737411535006 -0.0016628420910984854 0 0.00045620236209862637 -0.0011800618595843877 0 0.00052797296467029713 -0.0012688657144285767 0 0.00048093113088248083 -0.0013615125204954413 0 -0.00014303660822645467 -0.00066866177727378827 0 -9.7992333566638564e-05 -0.0005636871808734783 0 -6.3706525715935157e-05 -0.00065279234296553859 0 0.00013672387154749075 -0.0019458813552580211 0 7.3310460400503421e-05 -0.0018211576293642555 0 0.00015434943707634316 -0.0017653830124274266 0 0.00020547279047195124 -0.0023186708224137834 0 0.00014750293812067106 -0.002153972396153339 0 0.00022630129001705962 -0.002185645552455344 0 -0.0004979264810899515 -0.0018436074736634426 0 -0.00039972202149106021 -0.0017326737229764006 0 -0.00042124346450705328 -0.001868807582904707 0 0.00045620236209862637 -0.0011800618595843877 0 0.00037524438837467948 -0.0012610288128962566 0 0.00037925034606531863 -0.001132289898592145 0 -0.00014303660822645467 -0.00066866177727378827 0 -0.00011224907397298007 -0.00081576978653417388 0 -0.00017188105991492524 -0.00079214581621662246 0 -8.3614578666341526e-08 -0.00244132921544047 0 9.3553044423546469e-05 -0.0023274431682868235 0 7.9014424578027249e-05 -0.0025133863768217282 0 -0.00055561764007709539 -0.0015238271990810448 0 -0.00049901737411535006 -0.0016628420910984854 0 -0.00060237790866807088 -0.0016572269845105921 0 0.00055536303053990146 -0.0015238895230080725 0 0.00048093113088248083 -0.0013615125204954413 0 0.00058544782323532172 -0.00140627023944087 0 -1.2123213950864038e-07 -0.00055271595876262903 0 -6.3706525715935157e-05 -0.00065279234296553859 0 -4.4185008674261719e-05 -0.00049254137646965286 0 3.1017617922598524e-05 -0.0021531558940347463 0 8.4759072038618797e-05 -0.0020563613073386108 0 0.00014750293812067106 -0.0021539723961533394 0 -0.00039583048250590915 -0.0015476596713441138 0 -0.00034241153943478947 -0.0016288882810678331 0 -0.00039972202149106021 -0.0017326737229764006 0 0.00013672387154749075 -0.0019458813552580211 0 0.00014750293812067106 -0.0021539723961533394 0 8.4759072038618797e-05 -0.0020563613073386108 0 -0.000287370297586323 -0.0017139668729640773 0 -0.00039972202149106021 -0.0017326737229764006 0 -0.00034241153943478947 -0.0016288882810678331 0 0.00022842668401438536 -0.0029197329029871425 0 0.00017292209806517945 -0.0027527953615493718 0 0.00026041859769967897 -0.0027820209420919397 0 -0.00082862064127496885 -0.0019283468839380738 0 -0.00073842441850079901 -0.0018287829874619993 0 -0.00075661685530337955 -0.0019681339470148146 0 0.00077111619611959482 -0.0012376147805801309 0 0.00069734596898251872 -0.0012923934923207141 0 0.00069018310074800589 -0.0011610520124744014 0 -5.7560585058172778e-05 -0.00018021642096530916 0 -6.8231870061631673e-05 -0.00030254228673897733 0 -9.7152500019585952e-05 -0.00028370341434671065 0 5.7037558053513671e-06 -0.00013965325739429557 0 5.519910123036651e-06 -6.077367428285871e-05 0 1.7944404533389889e-05 -9.1837012813797924e-05 0 -0.00083676971417356481 -0.0015452662109335154 0 -0.0008928380797435211 -0.0015237181802882599 0 -0.00085736074400643843 -0.0014108978346253787 0 0.00084305483897069054 -0.0016286958677765517 0 0.00090582835395407375 -0.0016772636041692047 0 0.00088814686481931884 -0.001781830821550778 0 -2.8064895223567641e-05 -0.0029747957199809266 0 -5.2583503372297676e-05 -0.0030967313991028763 0 -0.00012568384066278209 -0.0030484696627361518 0 0.0001415590902968622 -0.0025726252649882499 0 8.4729468075842566e-05 -0.0026593117951426103 0 7.9014424578027249e-05 -0.0025133863768217282 0 -0.00063878260864286968 -0.0017622852533103468 0 -0.0006824443636504273 -0.0016815247865110412 0 -0.00060237790866807088 -0.0016572269845105921 0 0.00060710347329972244 -0.0013146535184971339 0 0.00066345606056682617 -0.0014162297008690338 0 0.00058544782323532172 -0.00140627023944087 0 -7.3991949901298573e-05 -0.00044512795843318543 0 -3.8231854528637853e-05 -0.00037468405540641878 0 -4.4185008674261719e-05 -0.00049254137646965286 0 6.5567541359467607e-06 -0.0014739479769365774 0 -4.1568900591404985e-05 -0.0016386559250529688 0 -9.5231715578735328e-05 -0.0015231094938402273 0 0.00049494842114997952 -0.0025130680729735858 0 0.00041248305627557318 -0.00251158693281287 0 0.00043836220200006183 -0.0023537762278223657 0 -0.00060633647577671508 -0.0023311123637283493 0 -0.00060702830165792641 -0.0021945050713243134 0 -0.00051588425696291859 -0.0022283882159640361 0 0.00045193216217731536 -0.00073392038121957196 0 0.00049252001806497712 -0.00086888405151426822 0 0.00040114376636528104 -0.00080571790609392663 0 -0.00030208321037935486 -0.00053116047093674428 0 -0.00024688584374591029 -0.00052225117356435738 0 -0.00030641010203462106 -0.00066751609623951218 0 -0.00014497373877169593 -0.0025851201515703272 0 -0.00019921942005978632 -0.0026886650596892811 0 -0.0002363454413541751 -0.0025230488473115802 0 -0.00029149040214050193 -0.0026729464613364628 0 -0.0002363454413541751 -0.0025230488473115802 0 -0.00019921942005978632 -0.0026886650596892811 0 -0.00061347074701130651 -0.0013112892264279029 0 -0.00065753331749549265 -0.0012409116635744724 0 -0.00055990344148178434 -0.0011563578884154491 0 0.00064572289262043606 -0.0017686989816664393 0 0.00070449043408775738 -0.0018635675623233201 0 0.0006141958839537496 -0.0019088113907659223 0 0.00069788492474282763 -0.0020085249743721557 0 0.0006141958839537496 -0.0019088113907659223 0 0.00070449043408775738 -0.0018635675623233201 0 -0.00062328225127964158 -0.0010920552939642594 0 -0.00055990344148178434 -0.0011563578884154491 0 -0.00065753331749549265 -0.0012409116635744724 0 7.4797659445727471e-05 -0.00043371883540393465 0 8.6931986235351319e-05 -0.00035311420624853319 0 0.00013444499514357047 -0.00049160364928449137 0 0.00013384018966841951 -0.00037155704751096143 0 0.00013444499514357047 -0.00049160364928449137 0 8.6931986235351332e-05 -0.00035311420624853319 0 0.0003150979205263404 -0.0019756885327398555 0 0.0003191563620771433 -0.0018112834026124483 0 0.0003969467287865828 -0.0018787350599531246 0 0.00024945581712825903 -0.00096999676182509887 0 0.00016677100414120641 -0.00095601954330187951 0 0.00018214724924491403 -0.00083144170191001387 0 -0.00029224131186069324 -0.0020055750711302999 0 -0.0001968220438627001 -0.0020161407594459259 0 -0.00023719863448203954 -0.002144503967802032 0 0.00080252637332727038 -0.0028791825819187182 0 0.00071181475002181198 -0.0027941860022086202 0 0.00078258388971738538 -0.0027177056846302357 0 -0.00080559412769124741 -0.0028739243667434498 0 -0.00075952746860859861 -0.0027121075526461277 0 -0.00071435493749572769 -0.0028360833062355574 0 0.00031347614903362976 -0.00027208902716075221 0 0.00042178001101661206 -0.00042888787153065724 0 0.00031247905711369648 -0.0003274767505748701 0 -0.00031671557994545095 -0.00027620516918576285 0 -0.00029031103848070633 -0.00029573266382387309 0 -0.00040405442885975537 -0.0004203454459120276 0 -0.00028536235936228217 -0.0015222326166706376 0 -0.00032761218235108472 -0.0014157727073535425 0 -0.00024085654645173384 -0.0013375824618127817 0 0.00084674865719281366 -0.0020854665278851833 0 0.00088381591778111492 -0.0022632200389619936 0 0.0008009917325361521 -0.0021936738297884759 0 7.7616925347679229e-05 -0.00016180797307401847 0 7.8606927337998342e-05 -0.0001170003593428492 0 0.00012898428254407067 -0.00022937479391792399 0 -0.00032836996517238707 -0.0029498172739079792 0 -0.00043890825439034034 -0.0030191598977367365 0 -0.00039945539778888831 -0.0028622858897849731 0 -0.00075452544351969095 -0.0010905127363918569 0 -0.00074083653546931486 -0.0009404723563236438 0 -0.00068008953747653532 -0.00095912185793802494 0 -0.00013184139887735226 -0.0016511994447982149 0 -9.5231715578735315e-05 -0.0015231094938402273 0 -4.1568900591404985e-05 -0.0016386559250529688 0 -0.00032096786783206144 -0.0012891862040584671 0 -0.00038972217866326789 -0.0012607325970144976 0 -0.00036002555752684992 -0.0011349910388320161 0 0.00097639932818192172 -0.0022292126416362055 0 0.00088381591778111492 -0.0022632200389619936 0 0.0009196804660283912 -0.0021343256183277699 0 1.1153944171885357e-08 -1.1417180079796444e-07 0 7.8606927337998355e-05 -0.00011700035934284922 0 3.8723757621669538e-05 -6.7298720012931484e-05 0 -0.00041477777587524422 -0.0032007312707146881 0 -0.00043890825439034034 -0.0030191598977367365 0 -0.00035582902657758665 -0.0030903870588581718 0 -0.00083666013107601032 -0.0010313097551901491 0 -0.00074083653546931486 -0.00094047235632364391 0 -0.00081236528100180874 -0.0010836845824608425 0 0.0001415590902968622 -0.0025726252649882499 0 0.00015869302357139582 -0.0024337134488705493 0 0.00024867593217855197 -0.0024972516924850851 0 0.00020547279047195124 -0.0023186708224137834 0 0.00024867593217855197 -0.0024972516924850851 0 0.00015869302357139582 -0.0024337134488705493 0 -0.0004979264810899515 -0.0018436074736634426 0 -0.00060035564996962555 -0.001926809530937035 0 -0.00056195563297496785 -0.0017771516317928423 0 -0.00063878260864286968 -0.0017622852533103468 0 -0.00056195563297496785 -0.0017771516317928423 0 -0.00060035564996962555 -0.001926809530937035 0 0.00045620236209862637 -0.0011800618595843877 0 0.00054266187229856395 -0.0011325506840549053 0 0.00052797296467029713 -0.0012688657144285767 0 0.00060710347329972244 -0.0013146535184971339 0 0.00052797296467029713 -0.0012688657144285767 0 0.00054266187229856395 -0.0011325506840549053 0 -0.00014303660822645467 -0.00066866177727378827 0 -0.00014629097620177326 -0.00051384199383329356 0 -9.7992333566638564e-05 -0.0005636871808734783 0 -7.3991949901298573e-05 -0.00044512795843318543 0 -9.7992333566638564e-05 -0.0005636871808734783 0 -0.00014629097620177326 -0.00051384199383329356 0 0.00029128049271265024 -0.0026729174927623838 0 0.00021467890844737434 -0.00263089915759956 0 0.00024867593217855197 -0.0024972516924850851 0 -0.00069811573888745786 -0.0020084915683672112 0 -0.00067360180642855579 -0.0018834723126948997 0 -0.00060035564996962555 -0.001926809530937035 0 0.00062301306609011521 -0.0010925956898384377 0 0.00062246390834072021 -0.0012071762217127698 0 0.00054266187229856395 -0.0011325506840549053 0 -0.0001338557119693615 -0.00037074697485344805 0 -0.00010351782523238016 -0.00040056354953623926 0 -0.00014629097620177326 -0.00051384199383329356 0 7.1838997351605504e-05 -0.0028048301091580458 0 0.00017292209806517945 -0.0027527953615493722 0 0.00014384628109605639 -0.0028956484534300633 0 -0.00075953977015479654 -0.001677307791809915 0 -0.00073842441850079901 -0.0018287829874619993 0 -0.00081191409016725577 -0.0017966648876468732 0 0.00077111619611959482 -0.0012376147805801309 0 0.00077361130499487354 -0.0013591062341736994 0 0.00069734596898251883 -0.0012923934923207141 0 -2.5603057083467062e-05 -0.00026164209133018693 0 -6.823187006163166e-05 -0.00030254228673897733 0 -3.8904758999890802e-05 -0.00019740879555149883 0 0.00022842668401438536 -0.0029197329029871425 0 0.00014384628109605639 -0.0028956484534300633 0 0.00017292209806517945 -0.0027527953615493722 0 -0.00082862064127496885 -0.0019283468839380738 0 -0.00081191409016725577 -0.0017966648876468732 0 -0.00073842441850079901 -0.0018287829874619993 0 0.00074293682957960274 -0.0014562663573228637 0 0.00069734596898251883 -0.0012923934923207141 0 0.00077361130499487354 -0.0013591062341736994 0 -5.7560585058172778e-05 -0.00018021642096530916 0 -3.8904758999890802e-05 -0.00019740879555149883 0 -6.8231870061631673e-05 -0.00030254228673897733 0 0.0001415590902968622 -0.0025726252649882499 0 0.00021467890844737434 -0.00263089915759956 0 0.00017292209806517945 -0.0027527953615493722 0 -0.00063878260864286968 -0.0017622852533103468 0 -0.00067360180642855579 -0.0018834723126948997 0 -0.00073842441850079901 -0.0018287829874619993 0 0.00060710347329972244 -0.0013146535184971339 0 0.00062246390834072021 -0.0012071762217127698 0 0.00069734596898251883 -0.0012923934923207141 0 -7.3991949901298573e-05 -0.00044512795843318543 0 -0.00010351782523238016 -0.00040056354953623926 0 -6.8231870061631673e-05 -0.00030254228673897733 0 0.0005736909815166637 -0.0022418304789153486 0 0.00058698667152214416 -0.002385848642408091 0 0.00051332409022019287 -0.0023320064438649268 0 -0.00044321770588049314 -0.0024545777178450229 0 -0.00052846240756856272 -0.0024821513998146746 0 -0.00049984213694064992 -0.0023540787036614237 0 0.00028403278278430193 -0.00057666855622500314 0 0.00033691753172997022 -0.00056283673973109261 0 0.00035553756755070832 -0.00068150916572455123 0 -0.00044943639863833089 -0.00081140789966242691 0 -0.00041900251034322013 -0.00067082821612926362 0 -0.00037275840918135937 -0.00070692050681686407 0 0.00064572289262043606 -0.0017686989816664393 0 0.00056646384496784885 -0.0017483757254467738 0 0.00061467372755000726 -0.0016477946354336514 0 -0.00014497373877169593 -0.0025851201515703272 0 -0.00014050162801052861 -0.0024429070389881285 0 -7.1611952213185027e-05 -0.0025367195684812011 0 7.4797659445727471e-05 -0.00043371883540393465 0 8.5903603779881148e-05 -0.00055265200547641527 0 3.9479178577629381e-05 -0.00047176172041670682 0 -0.00061347074701130651 -0.0013112892264279029 0 -0.0005368830285583222 -0.0012997201668062399 0 -0.00059961191852970662 -0.0014212028615869904 0 0.00084674865719281366 -0.0020854665278851833 0 0.0009196804660283912 -0.0021343256183277699 0 0.00088381591778111492 -0.0022632200389619936 0 7.7616925347679229e-05 -0.00016180797307401847 0 3.8723757621669538e-05 -6.7298720012931484e-05 0 7.8606927337998342e-05 -0.0001170003593428492 0 -0.00032836996517238707 -0.0029498172739079792 0 -0.00035582902657758665 -0.0030903870588581718 0 -0.00043890825439034034 -0.0030191598977367365 0 -0.00075452544351969095 -0.0010905127363918569 0 -0.00081236528100180874 -0.0010836845824608425 0 -0.00074083653546931486 -0.00094047235632364391 0 3.1017617922598524e-05 -0.0021531558940347463 0 -6.8489007879121849e-05 -0.0021642911029683756 0 -4.5752533975217651e-05 -0.0020406283827187639 0 -0.00039583048250590915 -0.0015476596713441138 0 -0.00039278882824672487 -0.0013857077532186408 0 -0.00032761218235108472 -0.0014157727073535425 0 7.1838997351605504e-05 -0.0028048301091580458 0 5.0648766001205615e-05 -0.0029311364016467271 0 -2.6151930633654457e-05 -0.0028223915064441384 0 -0.00075953977015479654 -0.001677307791809915 0 -0.00082322071627256486 -0.0016586982703727512 0 -0.00075876074645736351 -0.0015288006245394016 0 0.00074293682957960274 -0.0014562663573228637 0 0.00081068755558590881 -0.0015053707685948651 0 0.00076435147355225679 -0.0016089281825950727 0 -2.5603057083467062e-05 -0.00026164209133018693 0 -1.2627954431240244e-05 -0.0001704178571904015 0 9.0272714147297449e-06 -0.00024814323504682395 0 -1.6894122044485281e-05 -0.0017823876845195032 0 -4.1568900591404985e-05 -0.0016386559250529688 0 6.3089453964376986e-05 -0.0016536784072592797 0 0.00064535589251261993 -0.0029125678693731893 0 0.00057386701349968438 -0.0028250314003351999 0 0.00063794594994878977 -0.0027605536536312596 0 -0.00082619264399321618 -0.0026009703195826266 0 -0.00077909015618656875 -0.0024775672954947623 0 -0.0007421443001302912 -0.0025835630324119456 0 0.00080252637332727038 -0.0028791825819187182 0 0.00071523558992800797 -0.0029135121329635686 0 0.00071181475002181208 -0.0027941860022086206 0 -0.00080559412769124741 -0.0028739243667434498 0 -0.00082549935128973801 -0.0027213056445715444 0 -0.00075952746860859861 -0.0027121075526461281 0 0.00019339119551545182 -0.00020041220395326052 0 0.00024810869044697209 -0.00023295621970443543 0 0.00031247905711369648 -0.0003274767505748701 0 -0.00053367613339249309 -0.00055900085099577952 0 -0.00043380448925328132 -0.00041980283559260676 0 -0.00040405442885975537 -0.0004203454459120276 0 0.0001415590902968622 -0.0025726252649882499 0 0.00024867593217855197 -0.0024972516924850851 0 0.00021467890844737434 -0.00263089915759956 0 -0.00063878260864286968 -0.0017622852533103468 0 -0.00060035564996962555 -0.001926809530937035 0 -0.00067360180642855579 -0.0018834723126948997 0 0.00060710347329972244 -0.0013146535184971339 0 0.00054266187229856395 -0.0011325506840549053 0 0.00062246390834072021 -0.0012071762217127698 0 -7.3991949901298573e-05 -0.00044512795843318543 0 -0.00014629097620177326 -0.00051384199383329356 0 -0.00010351782523238016 -0.00040056354953623926 0 0.00054174648243812944 -0.0005709401788700578 0 0.0004795440084683058 -0.00055103484595678482 0 0.00042178001101661206 -0.00042888787153065719 0 -0.00018578728084203203 -0.00019691685063981124 0 -0.00027209422766968585 -0.0003238384521544048 0 -0.00029031103848070638 -0.00029573266382387309 0 6.5567541359467607e-06 -0.0014739479769365774 0 -7.6170005345095607e-05 -0.0013796671583703724 0 1.4563589336149442e-05 -0.0013005921284090962 0 -7.482616184504605e-05 -0.0012400900480631133 0 1.4563589336149442e-05 -0.0013005921284090962 0 -7.6170005345095607e-05 -0.0013796671583703724 0 0.00041936953776886487 -0.0021931192985658408 0 0.00036637067256126843 -0.0022697177726349366 0 0.00036699033437288998 -0.0021036778860953963 0 -0.00042176791976934595 -0.0021896302558998331 0 -0.00046737968136274132 -0.0021026749882337233 0 -0.00036812494020933893 -0.0020972957284238754 0 0.00032952919148822508 -0.00081983513428390592 0 0.00038599789064045062 -0.00091297063389084708 0 0.00030075391441426231 -0.00089682856599820546 0 -0.00032643453291960098 -0.00081632503588471991 0 -0.00026850380076970631 -0.00073386595807311075 0 -0.00029758761345512674 -0.00089083824856745657 0 -0.00011856500928994724 -0.00099820491030365682 0 -0.00019640385473034626 -0.0010724945244824035 0 -0.00018558430960200848 -0.00091792858929225533 0 -2.8064895223567641e-05 -0.0029747957199809266 0 -2.6151930633654457e-05 -0.0028223915064441384 0 5.0648766001205615e-05 -0.0029311364016467271 0 -0.00083676971417356481 -0.0015452662109335154 0 -0.00075876074645736351 -0.0015288006245394016 0 -0.00082322071627256486 -0.0016586982703727512 0 0.00084305483897069054 -0.0016286958677765517 0 0.00076435147355225679 -0.0016089281825950727 0 0.00081068755558590881 -0.0015053707685948651 0 5.7037558053513671e-06 -0.00013965325739429557 0 9.0272714147297449e-06 -0.00024814323504682395 0 -1.2627954431240244e-05 -0.0001704178571904015 0 -0.00011832046877085195 -0.002048408552478136 0 -0.00015261864276568473 -0.0021683669620257608 0 -0.0001968220438627001 -0.0020161407594459259 0 -0.00023719863448203954 -0.002144503967802032 0 -0.0001968220438627001 -0.0020161407594459259 0 -0.00015261864276568473 -0.0021683669620257608 0 0.00015054878973499471 -0.0016229247572396967 0 0.00010898843140574322 -0.001503839910151209 0 0.00019421846498593541 -0.0015402559359203754 0 0.0007077536877423715 -0.0032026472238032722 0 0.00061242195874310057 -0.003202468416897768 0 0.00066374274525080154 -0.0030562919197512865 0 -0.00098107093474564212 -0.0027120198720697922 0 -0.00098027787061656245 -0.0025501640873960081 0 -0.00090338422496442894 -0.0026350504502296373 0 0.0006179266878400438 -0.00060098475001806636 0 0.00071104786587202558 -0.0007459807582478015 0 0.00061278005671002822 -0.00062654826064798854 0 -2.1482864663835517e-08 -1.0160882475902522e-07 0 -3.1620573175519483e-08 -1.1531060229473193e-07 0 -9.0298005738776162e-05 -8.9769769370815294e-05 0 0.00098015790580693071 -0.0025502987326652625 0 0.00098090402989314601 -0.0027121239754026982 0 0.00091125948758041754 -0.0026118926548963058 0 3.1036414250306687e-08 -1.1536833215206164e-07 0 2.1650488006352809e-08 -1.0283006018200055e-07 0 8.9603385145484681e-05 -8.9492756475142662e-05 0 -0.00061276942596129606 -0.0032023683577854368 0 -0.00070797890978912918 -0.0032026558965446111 0 -0.00065018383742579053 -0.0030714904607610765 0 -0.00071126274703869311 -0.0007460884145450747 0 -0.00061676869399147373 -0.00060175146734245855 0 -0.00061143765541075198 -0.00062386287105834848 0 0.00030230301127732209 -0.002158919213028443 0 0.00036699033437288998 -0.0021036778860953963 0 0.00036637067256126843 -0.0022697177726349366 0 -0.00040462299942444749 -0.0019923825980616445 0 -0.00036812494020933893 -0.0020972957284238754 0 -0.00046737968136274132 -0.0021026749882337233 0 0.00034734875601729888 -0.0010062721217054711 0 0.00030075391441426231 -0.00089682856599820546 0 0.00038599789064045062 -0.00091297063389084708 0 -0.00023537131232068592 -0.0008270067048491436 0 -0.00029758761345512674 -0.00089083824856745657 0 -0.00026850380076970631 -0.00073386595807311075 0 -4.9142311674728083e-06 -0.0026473307002162715 0 -2.6151930633654457e-05 -0.0028223915064441384 0 -9.750447057360407e-05 -0.0027013521816177826 0 -0.00066833903097496988 -0.0015397556783318567 0 -0.00075876074645736351 -0.0015288006245394016 0 -0.00068472018501669401 -0.001402046426194763 0 0.00066918174343757076 -0.001554927983216111 0 0.00076435147355225679 -0.0016089281825950727 0 0.00070631139665934854 -0.0017057564739224353 0 2.8031729525386463e-06 -0.00038159485583182139 0 9.0272714147297449e-06 -0.00024814323504682395 0 4.2541252324550595e-05 -0.00034001640043700756 0 0.00041936953776886487 -0.0021931192985658408 0 0.00036699033437288998 -0.0021036778860953963 0 0.00044398814393414317 -0.0020359092103194201 0 -0.00042176791976934595 -0.0021896302558998331 0 -0.00036812494020933893 -0.0020972957284238754 0 -0.00032779827680349562 -0.0022315112381043429 0 0.00032952919148822508 -0.00081983513428390592 0 0.00030075391441426231 -0.00089682856599820546 0 0.00024598629452865972 -0.00076698531270353329 0 -0.00032643453291960098 -0.00081632503588471991 0 -0.00029758761345512674 -0.00089083824856745657 0 -0.0003768749079160071 -0.00097477314268675332 0 0.00084674865719281366 -0.0020854665278851833 0 0.00091501836086814708 -0.0020238734989823912 0 0.0009196804660283912 -0.0021343256183277699 0 7.7616925347679229e-05 -0.00016180797307401847 0 3.081171360569215e-05 -6.9443954185586073e-05 0 3.8723757621669538e-05 -6.7298720012931484e-05 0 -0.00075452544351969095 -0.0010905127363918569 0 -0.00083541823495649435 -0.0011860784931185938 0 -0.00081236528100180874 -0.0010836845824608425 0 -0.00032836996517238707 -0.0029498172739079792 0 -0.00028466438220165537 -0.0030852166825543511 0 -0.00035582902657758665 -0.0030903870588581718 0 0.00097328624538947737 -0.0020714838976170985 0 0.00097639932818192172 -0.0022292126416362055 0 0.0009196804660283912 -0.0021343256183277699 0 1.3022088863603538e-08 -1.090251208758294e-07 0 1.1153944171885357e-08 -1.1417180079796444e-07 0 3.8723757621669538e-05 -6.7298720012931484e-05 0 -0.00031292119345812405 -0.0031997574581995774 0 -0.00041477777587524422 -0.0032007312707146881 0 -0.00035582902657758665 -0.0030903870588581718 0 -0.00087904469429735848 -0.0011711623924390855 0 -0.00083666013107601032 -0.0010313097551901491 0 -0.00081236528100180874 -0.0010836845824608425 0 -0.00091046270125596076 -0.0013146876275413626 0 -0.00087904469429735837 -0.0011711623924390855 0 -0.00083541823495649435 -0.0011860784931185938 0 -0.00020962765939150458 -0.0031989601737721133 0 -0.00031292119345812405 -0.0031997574581995774 0 -0.00028466438220165537 -0.0030852166825543511 0 1.0089349454186705e-08 -1.0871128370122943e-07 0 1.3022088863603538e-08 -1.090251208758294e-07 0 3.081171360569215e-05 -6.9443954185586073e-05 0 0.00096791419543283675 -0.001915619285691447 0 0.00097328624538947737 -0.0020714838976170985 0 0.00091501836086814708 -0.0020238734989823912 0 0.00064535589251261993 -0.0029125678693731893 0 0.00071181475002181208 -0.0027941860022086206 0 0.00071523558992800797 -0.0029135121329635686 0 -0.00082619264399321618 -0.0026009703195826266 0 -0.00075952746860859861 -0.0027121075526461281 0 -0.00082549935128973801 -0.0027213056445715444 0 0.00031347614903362976 -0.00027208902716075221 0 0.00031247905711369648 -0.00032747675057487004 0 0.00024810869044697209 -0.00023295621970443543 0 -0.00031671557994545095 -0.00027620516918576285 0 -0.00040405442885975537 -0.0004203454459120276 0 -0.00043380448925328137 -0.00041980283559260682 0 0.00020547279047195124 -0.0023186708224137834 0 0.00022630129001705962 -0.002185645552455344 0 0.00029629231534567544 -0.0023205703181055494 0 0.00030230301127732209 -0.002158919213028443 0 0.00029629231534567544 -0.0023205703181055494 0 0.00022630129001705962 -0.002185645552455344 0 -0.0004979264810899515 -0.0018436074736634426 0 -0.00042124346450705328 -0.001868807582904707 0 -0.00049943286427617988 -0.0019916977099962729 0 -0.00040462299942444749 -0.0019923825980616445 0 -0.00049943286427617988 -0.0019916977099962729 0 -0.00042124346450705328 -0.001868807582904707 0 0.00045620236209862637 -0.0011800618595843877 0 0.00037925034606531863 -0.001132289898592145 0 0.00043445022949010922 -0.0010328155830047778 0 0.00034734875601729888 -0.0010062721217054711 0 0.00043445022949010922 -0.0010328155830047778 0 0.00037925034606531863 -0.001132289898592145 0 -0.00014303660822645467 -0.00066866177727378827 0 -0.00017188105991492524 -0.00079214581621662246 0 -0.00020697797278352112 -0.00067624141304491821 0 -0.00023537131232068592 -0.0008270067048491436 0 -0.00020697797278352112 -0.00067624141304491821 0 -0.00017188105991492524 -0.00079214581621662246 0 0.0006686204391390336 -0.0026328169064380046 0 0.00071181475002181198 -0.0027941860022086202 0 0.00063794594994878977 -0.0027605536536312596 0 -0.00066885782188414844 -0.0026327462313753065 0 -0.00075952746860859861 -0.0027121075526461281 0 -0.0007421443001302912 -0.0025835630324119456 0 0.00064572289262043606 -0.0017686989816664393 0 0.00070631139665934854 -0.0017057564739224353 0 0.00070449043408775738 -0.0018635675623233201 0 -0.00014497373877169593 -0.0025851201515703272 0 -9.7504470573604084e-05 -0.0027013521816177826 0 -0.00019921942005978632 -0.0026886650596892811 0 7.4797659445727471e-05 -0.00043371883540393465 0 4.2541252324550595e-05 -0.00034001640043700756 0 8.6931986235351332e-05 -0.00035311420624853319 0 -0.00061347074701130651 -0.0013112892264279029 0 -0.00068472018501669401 -0.001402046426194763 0 -0.00065753331749549265 -0.0012409116635744724 0 -2.3508709863086904e-06 -0.001031286666901828 0 -6.3130976701790382e-05 -0.0010892719025058335 0 -4.7242697210325558e-05 -0.00093279486314410841 0 -0.00011856500928994724 -0.00099820491030365682 0 -4.7242697210325558e-05 -0.00093279486314410841 0 -6.3130976701790382e-05 -0.0010892719025058335 0 -0.00029149040214050193 -0.0026729464613364628 0 -0.00019921942005978632 -0.0026886650596892811 0 -0.00025398746429374256 -0.0028248929005623416 0 0.00069788492474282763 -0.0020085249743721557 0 0.00070449043408775738 -0.0018635675623233201 0 0.00077930770286822545 -0.0019609636686203974 0 -0.00062328225127964158 -0.0010920552939642594 0 -0.00065753331749549265 -0.0012409116635744724 0 -0.00071447721139443802 -0.0011793089506304832 0 0.00013384018966841951 -0.00037155704751096143 0 8.6931986235351332e-05 -0.00035311420624853319 0 8.5944712057961438e-05 -0.0002509067258772644 0 0.00028965762673271886 -0.0014969469357019051 0 0.0002425586299294871 -0.0016687777951627548 0 0.00019421846498593541 -0.0015402559359203754 0 0.00030230301127732209 -0.002158919213028443 0 0.00022630129001705962 -0.002185645552455344 0 0.0002267325302210081 -0.0020509094563163871 0 -0.00040462299942444749 -0.0019923825980616445 0 -0.00042124346450705328 -0.001868807582904707 0 -0.00034601002367047688 -0.0018593659783264088 0 0.00034734875601729888 -0.0010062721217054711 0 0.00037925034606531863 -0.001132289898592145 0 0.00030206442845814939 -0.0011200196182081959 0 -0.00023537131232068592 -0.0008270067048491436 0 -0.00017188105991492524 -0.00079214581621662246 0 -0.00018558430960200848 -0.00091792858929225533 0 -0.00021975399072753779 -0.002320502545585038 0 -0.0002363454413541751 -0.0025230488473115802 0 -0.00029571383067616855 -0.0024378186854715029 0 0.0004992325981879336 -0.0018663379120672687 0 0.0006141958839537496 -0.0019088113907659223 0 0.00056652922196130954 -0.0019981685252985167 0 -0.00045422996757775913 -0.0011575126216622957 0 -0.00055990344148178434 -0.0011563578884154491 0 -0.00049643845667358836 -0.0010489167153876638 0 0.00015201520031001735 -0.00066661535983870946 0 0.00013444499514357047 -0.00049160364928449137 0 0.00018551435608204009 -0.00057015659608368951 0 -7.482616184504605e-05 -0.0012400900480631133 0 -7.6170005345095607e-05 -0.0013796671583703724 0 -0.00014887926288805205 -0.0012947752398552431 0 9.9948680366806092e-05 -0.00091209594318507781 0 4.5949316443457128e-05 -0.00079066316988918631 0 0.00011438318653277064 -0.00079937429220698619 0 0.00017811822969326365 -0.0014118273193639427 0 0.00010898843140574322 -0.001503839910151209 0 9.4121537967836459e-05 -0.001356032939123091 0 -0.00029224131186069324 -0.0020055750711302999 0 -0.00034601002367047688 -0.0018593659783264088 0 -0.00026670733341092916 -0.0018448011720807022 0 0.00017811822969326365 -0.0014118273193639427 0 0.00019421846498593541 -0.0015402559359203754 0 0.00010898843140574322 -0.001503839910151209 0 0.00010500817986655231 -0.0031982483339349182 0 -6.1423100191280857e-08 -0.0031979409064457464 0 3.1503742900652765e-05 -0.0030696369592401016 0 -0.00096062760266980342 -0.0017610205860555633 0 -0.00094844647016394622 -0.0016095569163009896 0 -0.00089087731130321139 -0.0016436325810410208 0 0.00093280567658219433 -0.0014612564573584874 0 0.00094840599913686757 -0.00161024170336323 0 0.00088295063580857785 -0.0015514470740344429 0 -3.6815259021387939e-09 -1.0894483708128508e-07 0 2.8916493439158002e-09 -1.1063893326296867e-07 0 -3.2889691309046788e-06 -7.7669443617714128e-05 0 0.00056646384496784885 -0.0017483757254467738 0 0.0005376115757063164 -0.0016309447147787781 0 0.00061467372755000726 -0.0016477946354336514 0 -0.00014050162801052861 -0.0024429070389881285 0 -7.0748884956801572e-05 -0.0023980544661427097 0 -7.1611952213185027e-05 -0.0025367195684812011 0 8.5903603779881148e-05 -0.00055265200547641527 0 4.3366614758709722e-05 -0.00058803037769900621 0 3.9479178577629381e-05 -0.00047176172041670682 0 -0.0005368830285583222 -0.0012997201668062399 0 -0.00052310092868218441 -0.0014062383968149765 0 -0.00059961191852970662 -0.0014212028615869904 0 9.9948680366806092e-05 -0.00091209594318507781 0 2.4986684574971235e-05 -0.00090601495820637234 0 4.5949316443457128e-05 -0.00079066316988918631 0 -0.00013184139887735226 -0.0016511994447982149 0 -4.1568900591404985e-05 -0.0016386559250529688 0 -0.00010277835579728146 -0.0017637608898143262 0 6.5567541359467607e-06 -0.0014739479769365774 0 -9.5231715578735328e-05 -0.0015231094938402273 0 -7.6170005345095607e-05 -0.0013796671583703724 0 -1.902811426992965e-07 -3.1986084821025556e-07 0 -0.00014424560770450747 -0.00010748857497276031 0 -0.00031764230913247795 -0.00025950529209515258 0 1.909402008502428e-07 -3.1993573913756217e-07 0 0.0001446030141737984 -0.00010763538108962227 0 -4.1503891611209221e-09 -9.5982538605641857e-08 0 1.909402008502428e-07 -3.1993573913756217e-07 0 0.0003179674521215738 -0.00025932469501987787 0 0.00014460301417379843 -0.0001076353810896223 0 -1.902811426992965e-07 -3.1986084821025556e-07 0 3.6663994875905111e-09 -9.5581228637395741e-08 0 -0.00014424560770450747 -0.00010748857497276031 0 0.00098016965863608244 -0.0031998719277019005 0 0.00089138472203759036 -0.0032011235697482323 0 0.00092353816691420794 -0.0030948535964035622 0 0.00098016965863608244 -0.0031998719277019005 0 0.00092353816691420794 -0.0030948535964035622 0 0.00098090497394554303 -0.0030371847558271904 0 -0.0009804235537226617 -0.0031998000570018013 0 -0.00092724261803797041 -0.0031010785652011699 0 -0.00089168459772011625 -0.0032011018639027037 0 -0.0009804235537226617 -0.0031998000570018013 0 -0.00098120905190997245 -0.003037185404731575 0 -0.00092724261803797041 -0.0031010785652011699 0 -0.000287370297586323 -0.0017139668729640773 0 -0.00020371783693135564 -0.0015963472804916934 0 -0.00019641331473280424 -0.0017399084560113384 0 -0.00017954308947755728 -0.0014442957967821532 0 -0.00024085654645173384 -0.0013375824618127817 0 -0.00014887926288805205 -0.0012947752398552431 0 -0.00020049881007488187 -0.0012020381450423912 0 -0.00014887926288805205 -0.0012947752398552431 0 -0.00024085654645173384 -0.0013375824618127817 0 0.00022842668401438536 -0.0029197329029871425 0 0.00028675348243874569 -0.0030483437021830016 0 0.00019474980573300601 -0.0030577173722525692 0 -0.00082862064127496885 -0.0019283468839380738 0 -0.000896845473793954 -0.0020261382337842357 0 -0.00089762186286727636 -0.0018865248254859837 0 0.00077111619611959482 -0.0012376147805801309 0 0.00081735345759464582 -0.0011749676243168819 0 0.00084679647163801686 -0.0013109884428916163 0 -5.7560585058172778e-05 -0.00018021642096530916 0 -4.1002029803359492e-05 -9.2960806935041604e-05 0 -2.6237934070051842e-05 -8.6745955264761509e-05 0 0.00035009867384861392 -0.0024415895917968529 0 0.00036637067256126843 -0.0022697177726349366 0 0.00043836220200006183 -0.0023537762278223657 0 -0.00056841396314952111 -0.0020877138179329177 0 -0.00046737968136274132 -0.0021026749882337233 0 -0.00051588425696291859 -0.0022283882159640361 0 0.00048095452530054852 -0.0009610663855969952 0 0.00038599789064045062 -0.00091297063389084708 0 0.00040114376636528104 -0.00080571790609392663 0 -0.00022280141188771557 -0.00057449757610435691 0 -0.00026850380076970631 -0.00073386595807311075 0 -0.00030641010203462106 -0.00066751609623951218 0 9.3298499252843928e-05 -0.0012082542278980563 0 9.4121537967836459e-05 -0.001356032939123091 0 1.4563589336149442e-05 -0.0013005921284090962 0 -0.0002694938750285649 -0.0010038283080346 0 -0.00018558430960200848 -0.00091792858929225533 0 -0.00019640385473034626 -0.0010724945244824035 0 0.00041457707571516706 -0.0032007575120273739 0 0.00036679043664351191 -0.0030900505932248737 0 0.00045020464434185906 -0.0030363163087800873 0 -0.00097669365945973101 -0.0022293295163988429 0 -0.00091988686668944999 -0.0021520800431567206 0 -0.00089315354811626748 -0.0022825527283940692 0 0.00036862540536049254 -0.0029655666706185635 0 0.00045020464434185906 -0.0030363163087800873 0 0.00036679043664351191 -0.0030900505932248737 0 -0.00085569339976767668 -0.0021500242864045454 0 -0.00089315354811626748 -0.0022825527283940692 0 -0.00091988686668944999 -0.0021520800431567206 0 0.00083716958454426056 -0.0010309767852407312 0 0.00080747521342678871 -0.0010672070552740429 0 0.0007402454099081035 -0.00092798398293127431 0 -1.1189750854297386e-08 -1.1260342427467008e-07 0 -3.9681014521719698e-05 -6.904769442199425e-05 0 -7.5605969695993714e-05 -0.00011044712567928327 0 0.00074634861122720316 -0.0010324078563483784 0 0.0007402454099081035 -0.00092798398293127431 0 0.00080747521342678871 -0.0010672070552740429 0 -8.1913012347700526e-05 -0.00015193431966762481 0 -7.5605969695993714e-05 -0.00011044712567928327 0 -3.9681014521719698e-05 -6.904769442199425e-05 0 0.00083537988191394348 -0.0026052960439040367 0 0.00075838795261913908 -0.0025755627966338405 0 0.00080879624495612784 -0.0024743854709340664 0 -0.00064782290965496544 -0.0029300644664502625 0 -0.00063295707361537255 -0.0027900957401846048 0 -0.00057098854065848763 -0.0028802628381126359 0 0.00054148181170017584 -0.0021181597604479413 0 0.00056652922196130954 -0.0019981685252985167 0 0.00062824042152708967 -0.0021070474706227594 0 -0.000370483072770226 -0.0023958123361877515 0 -0.00029571383067616855 -0.0024378186854715029 0 -0.00035810538619093833 -0.0025472215868526426 0 0.00024683017272177831 -0.00061842133060783253 0 0.00018551435608204009 -0.00057015659608368951 0 0.00020102130108246691 -0.00048176799717951553 0 -0.00044955437150233189 -0.00092245568740529943 0 -0.00049643845667358836 -0.0010489167153876638 0 -0.00053359598287683254 -0.00096330758680583987 0 0.00019339119551545182 -0.00020041220395326052 0 0.00027112680873653668 -0.00032181872099430492 0 0.00019211603586337779 -0.00024220139946463449 0 -0.00053367613339249309 -0.00055900085099577952 0 -0.00048048738509331123 -0.00055122106879201154 0 -0.00057594224452277526 -0.00067818616610258015 0 -0.00011856500928994724 -0.00099820491030365682 0 -6.3130976701790382e-05 -0.0010892719025058335 0 -0.00013216938318301975 -0.0011539285456052286 0 -0.00013436202610820329 -0.0028647949586635721 0 -9.750447057360407e-05 -0.0027013521816177826 0 -2.6151930633654457e-05 -0.0028223915064441384 0 -0.00076415915385567499 -0.0013699146477287019 0 -0.00068472018501669401 -0.001402046426194763 0 -0.00075876074645736351 -0.0015288006245394016 0 0.00079536745102835784 -0.0017789363092382267 0 0.00070631139665934854 -0.0017057564739224353 0 0.00076435147355225679 -0.0016089281825950727 0 4.0316450799663988e-05 -0.00021755905833247861 0 4.2541252324550602e-05 -0.00034001640043700751 0 9.0272714147297449e-06 -0.00024814323504682395 0 3.1017617922598524e-05 -0.0021531558940347463 0 -1.9626814419371875e-05 -0.0022935037431743147 0 -6.8489007879121849e-05 -0.0021642911029683756 0 -0.00010992837917676343 -0.002294345010137771 0 -6.8489007879121849e-05 -0.0021642911029683756 0 -1.9626814419371875e-05 -0.0022935037431743147 0 -0.00039583048250590915 -0.0015476596713441138 0 -0.00047092613839156946 -0.0014777652985236468 0 -0.00039278882824672487 -0.0013857077532186408 0 -0.00046016794646049753 -0.001332242275494786 0 -0.00039278882824672487 -0.0013857077532186406 0 -0.00047092613839156946 -0.0014777652985236468 0 0.0003965171809013174 -0.0014460357655704374 0 0.00047510267411905212 -0.0015327456721490038 0 0.00039933359357075351 -0.0015960302106650453 0 0.00048075852843551889 -0.0016864502075195219 0 0.00039933359357075351 -0.0015960302106650453 0 0.00047510267411905212 -0.0015327456721490038 0 0.00036862540536049254 -0.0029655666706185635 0 0.00030026459644190027 -0.00290788817908802 0 0.00035174990886235549 -0.0027925093903155671 0 -0.00085569339976767668 -0.0021500242864045454 0 -0.00082417138775634933 -0.002039249182253088 0 -0.00076358456106900082 -0.0021133212618898332 0 0.00074634861122720316 -0.0010324078563483784 0 0.00073952263811185854 -0.0011248524650017632 0 0.00066429574850479295 -0.0010187597435576798 0 -8.1913012347700526e-05 -0.00015193431966762481 0 -7.993533644539307e-05 -0.0001915184909457019 0 -0.00013096935851767086 -0.00028031451273229714 0 0.00029128049271265024 -0.0026729174927623838 0 0.00035174990886235549 -0.0027925093903155671 0 0.00026041859769967897 -0.0027820209420919397 0 -0.00069811573888745786 -0.0020084915683672112 0 -0.00076358456106900082 -0.0021133212618898332 0 -0.00075661685530337955 -0.0019681339470148146 0 0.00062301306609011521 -0.0010925956898384377 0 0.00066429574850479295 -0.0010187597435576798 0 0.00069018310074800589 -0.0011610520124744014 0 -0.0001338557119693615 -0.00037074697485344805 0 -0.00013096935851767089 -0.00028031451273229714 0 -9.7152500019585952e-05 -0.00028370341434671065 0 -7.482616184504605e-05 -0.0012400900480631133 0 9.0816411626354319e-06 -0.0011529569523194695 0 1.4563589336149442e-05 -0.0013005921284090962 0 0.00071921284244049681 -0.0021889791239670998 0 0.00076952468310701383 -0.0020924502766242669 0 0.0008009917325361521 -0.0021936738297884759 0 -0.00040212489397269146 -0.002711293261063162 0 -0.00033821455227937218 -0.0028041850282667425 0 -0.00039945539778888831 -0.0028622858897849731 0 0.0001785070538310577 -0.0003477242730242144 0 0.00012326607479934884 -0.00027066951151822054 0 0.00012898428254407067 -0.00022937479391792399 0 -0.00060061415957215895 -0.0009215657529794847 0 -0.00067510291135278568 -0.0010432652171267537 0 -0.00068008953747653532 -0.00095912185793802494 0 0.00057952719676177737 -0.0026564330608308049 0 0.00063794594994878977 -0.0027605536536312596 0 0.00057386701349968438 -0.0028250314003351999 0 -0.000685235211607157 -0.0024803260492390622 0 -0.00074214430013029131 -0.0025835630324119456 0 -0.00077909015618656875 -0.0024775672954947623 0 0.00035009867384861392 -0.0024415895917968529 0 0.00029629231534567544 -0.0023205703181055494 0 0.00036637067256126843 -0.0022697177726349366 0 -0.00056841396314952111 -0.0020877138179329177 0 -0.00049943286427617988 -0.0019916977099962729 0 -0.00046737968136274132 -0.0021026749882337233 0 0.00048095452530054852 -0.0009610663855969952 0 0.00043445022949010922 -0.0010328155830047778 0 0.00038599789064045062 -0.00091297063389084708 0 -0.00022280141188771557 -0.00057449757610435691 0 -0.00020697797278352114 -0.00067624141304491821 0 -0.00026850380076970631 -0.00073386595807311075 0 -0.00011832046877085195 -0.002048408552478136 0 -9.3494665459737143e-05 -0.0019124782580631269 0 -4.5752533975217651e-05 -0.0020406283827187639 0 0.00041457707571516706 -0.0032007575120273739 0 0.00031268595087491027 -0.003199672215293727 0 0.00036679043664351191 -0.0030900505932248737 0 -0.00097669365945973101 -0.0022293295163988429 0 -0.00097352654527263992 -0.0020717843509378618 0 -0.00091988686668944999 -0.0021520800431567206 0 0.00083716958454426056 -0.0010309767852407312 0 0.00087914686919200963 -0.0011701422755129177 0 0.00080747521342678871 -0.0010672070552740429 0 -1.1189750854297386e-08 -1.1260342427467008e-07 0 -1.5740087588072293e-08 -1.10017879593134e-07 0 -3.9681014521719698e-05 -6.904769442199425e-05 0 -2.3508709863086904e-06 -0.001031286666901828 0 -4.7242697210325558e-05 -0.00093279486314410841 0 2.4986684574971235e-05 -0.00090601495820637234 0 -6.1423100191280857e-08 -0.0031979409064457464 0 -0.00010512706118886659 -0.0031981388870389797 0 -5.2583503372297676e-05 -0.0030967313991028763 0 -0.00094844647016394622 -0.0016095569163009896 0 -0.00093174458630746794 -0.0014616179750545466 0 -0.0008928380797435211 -0.0015237181802882599 0 0.00094840599913686757 -0.0016102417033632302 0 0.00095946915498920356 -0.0017612127895402778 0 0.00090582835395407375 -0.0016772636041692047 0 2.8916493439158002e-09 -1.1063893326296867e-07 0 -2.5565587573456968e-10 -1.133296102822723e-07 0 5.519910123036651e-06 -6.077367428285871e-05 0 0.00054174648243812944 -0.0005709401788700578 0 0.00056250116116356847 -0.00066281331231858283 0 0.0004795440084683058 -0.00055103484595678482 0 -0.00018578728084203203 -0.00019691685063981124 0 -0.00020294951476175957 -0.00025453773265241795 0 -0.00027209422766968585 -0.0003238384521544048 0 -2.6400759947699985e-05 -0.00079258777093219632 0 2.4986684574971235e-05 -0.00090601495820637234 0 -4.7242697210325558e-05 -0.00093279486314410841 0 0.00017811822969326365 -0.0014118273193639427 0 0.00017984475965932041 -0.001269953421249641 0 0.00024766790602121538 -0.0013606789961131789 0 0.00026882922791751044 -0.0012549120864378907 0 0.00024766790602121538 -0.0013606789961131789 0 0.00017984475965932041 -0.001269953421249641 0 -0.00093174458630746794 -0.0014616179750545466 0 -0.00085736074400643843 -0.0014108978346253787 0 -0.0008928380797435211 -0.0015237181802882599 0 -0.00010512706118886659 -0.0031981388870389797 0 -0.00012568384066278209 -0.0030484696627361518 0 -5.2583503372297676e-05 -0.0030967313991028763 0 -2.5565587573456968e-10 -1.133296102822723e-07 0 1.7944404533389889e-05 -9.1837012813797924e-05 0 5.519910123036651e-06 -6.077367428285871e-05 0 0.00095946915498920356 -0.0017612127895402778 0 0.00088814686481931884 -0.001781830821550778 0 0.00090582835395407375 -0.0016772636041692047 0 0.00014750293812067106 -0.0021539723961533394 0 0.0002267325302210081 -0.0020509094563163871 0 0.00022630129001705962 -0.002185645552455344 0 -0.00039972202149106021 -0.0017326737229764006 0 -0.00034601002367047693 -0.0018593659783264088 0 -0.00042124346450705328 -0.001868807582904707 0 0.00037524438837467948 -0.0012610288128962566 0 0.00030206442845814939 -0.0011200196182081959 0 0.00037925034606531863 -0.001132289898592145 0 -0.00011224907397298007 -0.00081576978653417388 0 -0.00018558430960200848 -0.00091792858929225533 0 -0.00017188105991492524 -0.00079214581621662246 0 -0.000287370297586323 -0.0017139668729640773 0 -0.00026670733341092916 -0.0018448011720807022 0 -0.00034601002367047688 -0.0018593659783264088 0 -0.00013184139887735226 -0.0016511994447982149 0 -0.00019641331473280426 -0.0017399084560113384 0 -0.00020371783693135564 -0.0015963472804916934 0 0.00035009867384861392 -0.0024415895917968529 0 0.00043836220200006183 -0.0023537762278223657 0 0.00041248305627557318 -0.0025115869328128705 0 -0.00056841396314952111 -0.0020877138179329177 0 -0.00051588425696291859 -0.0022283882159640361 0 -0.00060702830165792641 -0.0021945050713243134 0 0.00048095452530054852 -0.0009610663855969952 0 0.00040114376636528104 -0.00080571790609392663 0 0.00049252001806497712 -0.00086888405151426822 0 -0.00022280141188771557 -0.00057449757610435691 0 -0.00030641010203462106 -0.00066751609623951218 0 -0.00024688584374591029 -0.00052225117356435738 0 -0.0002694938750285649 -0.0010038283080346 0 -0.00019640385473034626 -0.0010724945244824035 0 -0.00027175674191689289 -0.001155280522929586 0 0.00036862540536049254 -0.0029655666706185635 0 0.00035174990886235549 -0.0027925093903155671 0 0.00042377359909454791 -0.0028646945169980981 0 -0.00085569339976767668 -0.0021500242864045454 0 -0.00076358456106900082 -0.0021133212618898332 0 -0.00080260007985556269 -0.0022330279257490341 0 0.00074634861122720316 -0.0010324078563483784 0 0.00066429574850479295 -0.0010187597435576798 0 0.00066572964139081242 -0.00091785291266325458 0 -8.1913012347700526e-05 -0.00015193431966762481 0 -0.00013096935851767086 -0.00028031451273229714 0 -0.00013822885077857607 -0.00023412396586842775 0 7.1838997351605504e-05 -0.0028048301091580458 0 0.00014384628109605639 -0.0028956484534300633 0 5.0648766001205615e-05 -0.0029311364016467271 0 -0.00075953977015479654 -0.001677307791809915 0 -0.00081191409016725577 -0.0017966648876468732 0 -0.00082322071627256486 -0.0016586982703727512 0 -2.5603057083467062e-05 -0.00026164209133018693 0 -3.8904758999890802e-05 -0.00019740879555149883 0 -1.2627954431240244e-05 -0.0001704178571904015 0 -0.00020049881007488187 -0.0012020381450423912 0 -0.00027175674191689289 -0.001155280522929586 0 -0.00019640385473034626 -0.0010724945244824035 0 0.00094840599913686757 -0.0016102417033632302 0 0.00090582835395407375 -0.0016772636041692047 0 0.00088295063580857785 -0.0015514470740344429 0 2.8916493439158002e-09 -1.1063893326296867e-07 0 5.519910123036651e-06 -6.0773674282858704e-05 0 -3.2889691309046788e-06 -7.7669443617714128e-05 0 0.00084305483897069054 -0.0016286958677765517 0 0.00088295063580857785 -0.0015514470740344429 0 0.00090582835395407375 -0.0016772636041692047 0 5.7037558053513671e-06 -0.00013965325739429557 0 -3.2889691309046788e-06 -7.7669443617714115e-05 0 5.519910123036651e-06 -6.077367428285871e-05 0 -0.00094844647016394622 -0.0016095569163009896 0 -0.0008928380797435211 -0.0015237181802882599 0 -0.00089087731130321139 -0.0016436325810410208 0 -6.1423100191280857e-08 -0.0031979409064457464 0 -5.2583503372297676e-05 -0.0030967313991028763 0 3.1503742900652765e-05 -0.0030696369592401016 0 -2.8064895223567641e-05 -0.0029747957199809266 0 3.1503742900652772e-05 -0.0030696369592401016 0 -5.2583503372297676e-05 -0.0030967313991028763 0 -0.00083676971417356481 -0.0015452662109335154 0 -0.00089087731130321139 -0.0016436325810410208 0 -0.0008928380797435211 -0.0015237181802882599 0 0.00011101614864093265 -0.0030203661499051517 0 5.0648766001205615e-05 -0.0029311364016467271 0 0.00014384628109605639 -0.0028956484534300633 0 -0.00087296687273260513 -0.0017578108763013284 0 -0.00082322071627256486 -0.0016586982703727512 0 -0.00081191409016725577 -0.0017966648876468732 0 -1.7610303826308471e-05 -0.00011261435757281767 0 -1.2627954431240246e-05 -0.0001704178571904015 0 -3.8904758999890802e-05 -0.00019740879555149883 0 0.00041628449518165301 -0.0026692493254962479 0 0.000351939149240073 -0.0025802514926813315 0 0.00041248305627557318 -0.0025115869328128705 0 -0.00069596042116908466 -0.0022096616551330875 0 -0.00064679828866268151 -0.0020996005221670267 0 -0.00060702830165792641 -0.0021945050713243134 0 0.00057201225640114077 -0.00089033123055034396 0 0.00055303963938871273 -0.0009784435700401137 0 0.00049252001806497712 -0.00086888405151426822 0 -0.00020016657568889783 -0.00038512651785639607 0 -0.00018967242936272855 -0.00045431511765373273 0 -0.00024688584374591029 -0.00052225117356435738 0 -0.00032096786783206144 -0.0012891862040584671 0 -0.00024085654645173384 -0.0013375824618127817 0 -0.00032761218235108472 -0.0014157727073535425 0 -0.00010992837917676343 -0.002294345010137771 0 -7.0748884956801559e-05 -0.0023980544661427097 0 -0.00014050162801052861 -0.0024429070389881285 0 0.00048075852843551889 -0.0016864502075195219 0 0.0005376115757063164 -0.0016309447147787781 0 0.00056646384496784885 -0.0017483757254467738 0 -0.00046016794646049753 -0.001332242275494786 0 -0.00052310092868218441 -0.0014062383968149765 0 -0.0005368830285583222 -0.0012997201668062399 0 7.5491513512680579e-05 -0.00067956381215376806 0 4.3366614758709716e-05 -0.00058803037769900621 0 8.5903603779881148e-05 -0.00055265200547641527 0 0.00031268595087491027 -0.003199672215293727 0 0.00028675348243874569 -0.0030483437021830016 0 0.00036679043664351191 -0.0030900505932248737 0 -0.00097352654527263992 -0.0020717843509378618 0 -0.000896845473793954 -0.0020261382337842357 0 -0.00091988686668944999 -0.0021520800431567206 0 0.00087914686919200963 -0.0011701422755129177 0 0.00081735345759464582 -0.0011749676243168819 0 0.00080747521342678871 -0.0010672070552740429 0 -1.5740087588072293e-08 -1.10017879593134e-07 0 -4.1002029803359492e-05 -9.2960806935041604e-05 0 -3.9681014521719698e-05 -6.904769442199425e-05 0 0.00036862540536049254 -0.0029655666706185635 0 0.00036679043664351191 -0.0030900505932248737 0 0.00028675348243874569 -0.0030483437021830016 0 -0.00085569339976767668 -0.0021500242864045454 0 -0.00091988686668944999 -0.0021520800431567206 0 -0.000896845473793954 -0.0020261382337842357 0 0.00074634861122720316 -0.0010324078563483784 0 0.00080747521342678882 -0.0010672070552740429 0 0.00081735345759464582 -0.0011749676243168819 0 -8.1913012347700526e-05 -0.00015193431966762481 0 -3.9681014521719705e-05 -6.9047694421994264e-05 0 -4.1002029803359492e-05 -9.2960806935041604e-05 0 0.00084530341702301166 -0.0014287340314567271 0 0.00081068755558590881 -0.0015053707685948651 0 0.00077361130499487354 -0.0013591062341736994 0 0.00074293682957960274 -0.0014562663573228637 0 0.00077361130499487354 -0.0013591062341736994 0 0.00081068755558590881 -0.0015053707685948651 0 -1.6894122044485281e-05 -0.0017823876845195032 0 -9.3494665459737143e-05 -0.0019124782580631269 0 -0.00010277835579728146 -0.0017637608898143262 0 9.3553044423546469e-05 -0.0023274431682868235 0 0.00015869302357139579 -0.0024337134488705493 0 7.9014424578027249e-05 -0.0025133863768217282 0 -0.00049901737411535006 -0.0016628420910984854 0 -0.00056195563297496785 -0.0017771516317928423 0 -0.00060237790866807088 -0.0016572269845105921 0 0.00048093113088248083 -0.0013615125204954413 0 0.00052797296467029713 -0.0012688657144285767 0 0.00058544782323532172 -0.00140627023944087 0 -6.3706525715935157e-05 -0.00065279234296553859 0 -9.7992333566638564e-05 -0.0005636871808734783 0 -4.4185008674261719e-05 -0.00049254137646965286 0 0.00015054878973499471 -0.0016229247572396967 0 0.00019421846498593538 -0.0015402559359203754 0 0.0002425586299294871 -0.0016687777951627548 0 0.00035174990886235549 -0.0027925093903155671 0 0.00030026459644190033 -0.0029078881790880204 0 0.00026041859769967897 -0.0027820209420919397 0 -0.00076358456106900082 -0.0021133212618898332 0 -0.00082417138775634933 -0.002039249182253088 0 -0.00075661685530337955 -0.0019681339470148146 0 0.00066429574850479295 -0.0010187597435576798 0 0.00073952263811185854 -0.0011248524650017632 0 0.00069018310074800589 -0.0011610520124744014 0 -0.00013096935851767086 -0.00028031451273229714 0 -7.993533644539307e-05 -0.0001915184909457019 0 -9.7152500019585952e-05 -0.00028370341434671065 0 -1.6894122044485281e-05 -0.0017823876845195032 0 -0.00010277835579728146 -0.0017637608898143262 0 -4.1568900591404985e-05 -0.0016386559250529688 0 0.00084674865719281366 -0.0020854665278851833 0 0.0008009917325361521 -0.0021936738297884759 0 0.00076952468310701383 -0.0020924502766242669 0 7.7616925347679229e-05 -0.00016180797307401847 0 0.00012898428254407067 -0.00022937479391792399 0 0.00012326607479934887 -0.0002706695115182206 0 -0.00032836996517238707 -0.0029498172739079792 0 -0.00039945539778888831 -0.0028622858897849731 0 -0.00033821455227937218 -0.0028041850282667425 0 -0.00075452544351969095 -0.0010905127363918569 0 -0.00068008953747653532 -0.00095912185793802494 0 -0.00067510291135278568 -0.0010432652171267537 0 0.00022842668401438536 -0.0029197329029871425 0 0.00030026459644190033 -0.0029078881790880204 0 0.00028675348243874569 -0.0030483437021830016 0 -0.00082862064127496885 -0.0019283468839380738 0 -0.00082417138775634933 -0.002039249182253088 0 -0.000896845473793954 -0.0020261382337842357 0 0.00077111619611959482 -0.0012376147805801309 0 0.00073952263811185854 -0.0011248524650017632 0 0.00081735345759464582 -0.0011749676243168819 0 -5.7560585058172778e-05 -0.00018021642096530916 0 -7.993533644539307e-05 -0.0001915184909457019 0 -4.1002029803359492e-05 -9.2960806935041604e-05 0 0.00036862540536049254 -0.0029655666706185635 0 0.00028675348243874569 -0.0030483437021830016 0 0.00030026459644190033 -0.0029078881790880204 0 -0.00085569339976767668 -0.0021500242864045454 0 -0.000896845473793954 -0.0020261382337842357 0 -0.00082417138775634933 -0.002039249182253088 0 0.00074634861122720316 -0.0010324078563483784 0 0.00081735345759464582 -0.0011749676243168819 0 0.00073952263811185854 -0.0011248524650017632 0 -8.1913012347700526e-05 -0.00015193431966762481 0 -4.1002029803359492e-05 -9.2960806935041604e-05 0 -7.993533644539307e-05 -0.0001915184909457019 0 0.0001415590902968622 -0.0025726252649882499 0 7.9014424578027249e-05 -0.0025133863768217282 0 0.00015869302357139582 -0.0024337134488705493 0 -0.00063878260864286968 -0.0017622852533103468 0 -0.00060237790866807088 -0.0016572269845105921 0 -0.00056195563297496785 -0.0017771516317928423 0 0.00060710347329972244 -0.0013146535184971339 0 0.00058544782323532172 -0.00140627023944087 0 0.00052797296467029713 -0.0012688657144285767 0 -7.3991949901298573e-05 -0.00044512795843318543 0 -4.4185008674261712e-05 -0.00049254137646965286 0 -9.7992333566638564e-05 -0.0005636871808734783 0 -0.00011832046877085195 -0.002048408552478136 0 -6.8489007879121849e-05 -0.0021642911029683756 0 -0.00015261864276568473 -0.0021683669620257608 0 -0.00010992837917676343 -0.002294345010137771 0 -0.00015261864276568473 -0.0021683669620257608 0 -6.8489007879121849e-05 -0.0021642911029683756 0 0.0003373527411915391 -0.0016816474160428472 0 0.00039933359357075351 -0.0015960302106650453 0 0.00041003342540521775 -0.0017424996781832459 0 -0.00032096786783206144 -0.0012891862040584671 0 -0.00039278882824672487 -0.0013857077532186408 0 -0.00038972217866326789 -0.0012607325970144976 0 0.00048075852843551889 -0.0016864502075195219 0 0.00041003342540521775 -0.0017424996781832459 0 0.00039933359357075351 -0.0015960302106650453 0 -0.00046016794646049753 -0.001332242275494786 0 -0.00038972217866326789 -0.0012607325970144976 0 -0.00039278882824672487 -0.0013857077532186408 0 -7.482616184504605e-05 -0.0012400900480631133 0 -6.3130976701790382e-05 -0.0010892719025058335 0 9.0816411626354319e-06 -0.0011529569523194695 0 -2.3508709863086904e-06 -0.001031286666901828 0 9.0816411626354285e-06 -0.0011529569523194695 0 -6.3130976701790382e-05 -0.0010892719025058335 0 7.5491513512680579e-05 -0.00067956381215376806 0 0.00011438318653277064 -0.00079937429220698619 0 4.5949316443457128e-05 -0.00079066316988918631 0 -2.6400759947699985e-05 -0.00079258777093219632 0 4.5949316443457128e-05 -0.00079066316988918631 0 2.4986684574971235e-05 -0.00090601495820637234 0 -7.482616184504605e-05 -0.0012400900480631133 0 -0.00014887926288805205 -0.0012947752398552431 0 -0.00013216938318301975 -0.0011539285456052286 0 -0.00020049881007488187 -0.0012020381450423912 0 -0.00013216938318301975 -0.0011539285456052286 0 -0.00014887926288805205 -0.0012947752398552431 0 0.00084530341702301166 -0.0014287340314567271 0 0.00088295063580857785 -0.0015514470740344429 0 0.00081068755558590881 -0.0015053707685948651 0 -1.7610303826308471e-05 -0.00011261435757281767 0 -3.2889691309046788e-06 -7.7669443617714128e-05 0 -1.2627954431240244e-05 -0.0001704178571904015 0 0.00084305483897069054 -0.0016286958677765517 0 0.00081068755558590881 -0.0015053707685948651 0 0.00088295063580857785 -0.0015514470740344429 0 5.7037558053513671e-06 -0.00013965325739429557 0 -1.2627954431240244e-05 -0.0001704178571904015 0 -3.2889691309046788e-06 -7.7669443617714128e-05 0 0.00011101614864093265 -0.0030203661499051517 0 3.1503742900652765e-05 -0.0030696369592401016 0 5.0648766001205615e-05 -0.0029311364016467271 0 -0.00087296687273260513 -0.0017578108763013284 0 -0.00089087731130321139 -0.0016436325810410208 0 -0.00082322071627256486 -0.0016586982703727512 0 -2.8064895223567641e-05 -0.0029747957199809266 0 5.0648766001205615e-05 -0.0029311364016467271 0 3.1503742900652765e-05 -0.0030696369592401016 0 -0.00083676971417356481 -0.0015452662109335154 0 -0.00082322071627256486 -0.0016586982703727512 0 -0.00089087731130321139 -0.0016436325810410208 0 0.00041936953776886487 -0.0021931192985658408 0 0.00043836220200006183 -0.0023537762278223657 0 0.00036637067256126843 -0.0022697177726349366 0 -0.00042176791976934595 -0.0021896302558998331 0 -0.00051588425696291859 -0.0022283882159640361 0 -0.00046737968136274132 -0.0021026749882337233 0 0.00032952919148822508 -0.00081983513428390592 0 0.00040114376636528104 -0.00080571790609392663 0 0.00038599789064045062 -0.00091297063389084708 0 -0.00032643453291960098 -0.00081632503588471991 0 -0.00030641010203462106 -0.00066751609623951218 0 -0.00026850380076970631 -0.00073386595807311075 0 -2.6400759947699985e-05 -0.00079258777093219632 0 1.0444148462022905e-05 -0.00067932844265673124 0 4.5949316443457128e-05 -0.00079066316988918631 0 -8.3614578666341526e-08 -0.00244132921544047 0 -7.0748884956801559e-05 -0.0023980544661427097 0 -1.9626814419371875e-05 -0.0022935037431743147 0 -0.00010992837917676343 -0.002294345010137771 0 -1.9626814419371875e-05 -0.0022935037431743147 0 -7.0748884956801559e-05 -0.0023980544661427097 0 0.00048075852843551889 -0.0016864502075195219 0 0.00047510267411905212 -0.0015327456721490038 0 0.0005376115757063164 -0.0016309447147787781 0 0.00055536303053990146 -0.0015238895230080725 0 0.0005376115757063164 -0.0016309447147787781 0 0.00047510267411905212 -0.0015327456721490038 0 -0.00055561764007709539 -0.0015238271990810448 0 -0.00052310092868218441 -0.0014062383968149765 0 -0.00047092613839156946 -0.0014777652985236468 0 -0.00046016794646049753 -0.001332242275494786 0 -0.00047092613839156946 -0.0014777652985236468 0 -0.00052310092868218441 -0.0014062383968149765 0 7.5491513512680579e-05 -0.00067956381215376806 0 1.0444148462022898e-05 -0.00067932844265673124 0 4.3366614758709716e-05 -0.00058803037769900621 0 -1.2123213950864038e-07 -0.00055271595876262903 0 4.3366614758709716e-05 -0.00058803037769900631 0 1.0444148462022898e-05 -0.00067932844265673124 0 0.00028965762673271886 -0.0014969469357019051 0 0.00024766790602121538 -0.0013606789961131789 0 0.00032048417274583533 -0.0013733332205579686 0 -8.3614578666341526e-08 -0.00244132921544047 0 -7.1611952213185027e-05 -0.0025367195684812011 0 -7.0748884956801559e-05 -0.0023980544661427097 0 -0.00055561764007709539 -0.0015238271990810448 0 -0.00059961191852970662 -0.0014212028615869904 0 -0.00052310092868218441 -0.0014062383968149765 0 0.00055536303053990146 -0.0015238895230080725 0 0.00061467372755000726 -0.0016477946354336514 0 0.0005376115757063164 -0.0016309447147787781 0 -1.2123213950864038e-07 -0.00055271595876262903 0 3.9479178577629375e-05 -0.00047176172041670682 0 4.3366614758709716e-05 -0.00058803037769900621 0 7.5491513512680579e-05 -0.00067956381215376806 0 4.5949316443457128e-05 -0.00079066316988918631 0 1.0444148462022898e-05 -0.00067932844265673124 0 0.00030230301127732209 -0.002158919213028443 0 0.00036637067256126843 -0.0022697177726349366 0 0.00029629231534567544 -0.0023205703181055494 0 -0.00040462299942444749 -0.0019923825980616445 0 -0.00046737968136274132 -0.0021026749882337233 0 -0.00049943286427617988 -0.0019916977099962729 0 0.00034734875601729888 -0.0010062721217054711 0 0.00038599789064045062 -0.00091297063389084708 0 0.00043445022949010922 -0.0010328155830047778 0 -0.00023537131232068592 -0.0008270067048491436 0 -0.00026850380076970631 -0.00073386595807311075 0 -0.00020697797278352112 -0.00067624141304491821 0 0.00026882922791751044 -0.0012549120864378907 0 0.00032048417274583533 -0.0013733332205579686 0 0.00024766790602121538 -0.0013606789961131789 0 0.00097328624538947737 -0.0020714838976170985 0 0.0009196804660283912 -0.0021343256183277699 0 0.00091501836086814708 -0.0020238734989823912 0 1.3022088863603538e-08 -1.090251208758294e-07 0 3.8723757621669538e-05 -6.7298720012931484e-05 0 3.081171360569215e-05 -6.9443954185586073e-05 0 -0.00031292119345812405 -0.0031997574581995774 0 -0.00035582902657758665 -0.0030903870588581718 0 -0.00028466438220165537 -0.0030852166825543511 0 -0.00087904469429735848 -0.0011711623924390855 0 -0.00081236528100180874 -0.0010836845824608425 0 -0.00083541823495649435 -0.0011860784931185938 0 0.00035009867384861392 -0.0024415895917968529 0 0.00041248305627557318 -0.0025115869328128705 0 0.000351939149240073 -0.0025802514926813315 0 -0.00056841396314952111 -0.0020877138179329177 0 -0.00060702830165792641 -0.0021945050713243134 0 -0.00064679828866268151 -0.0020996005221670267 0 0.00048095452530054852 -0.0009610663855969952 0 0.00049252001806497712 -0.00086888405151426822 0 0.00055303963938871273 -0.0009784435700401137 0 -0.00022280141188771557 -0.00057449757610435691 0 -0.00024688584374591029 -0.00052225117356435738 0 -0.00018967242936272855 -0.00045431511765373273 0 -0.00011832046877085195 -0.002048408552478136 0 -4.5752533975217651e-05 -0.0020406283827187639 0 -6.8489007879121849e-05 -0.0021642911029683756 0 -0.00032096786783206144 -0.0012891862040584671 0 -0.00032761218235108472 -0.0014157727073535425 0 -0.00039278882824672487 -0.0013857077532186408 0 -7.482616184504605e-05 -0.0012400900480631133 0 -0.00013216938318301975 -0.0011539285456052286 0 -6.3130976701790382e-05 -0.0010892719025058335 0 -0.000287370297586323 -0.0017139668729640773 0 -0.00019641331473280424 -0.0017399084560113384 0 -0.00026670733341092916 -0.0018448011720807022 0 0.00022842668401438536 -0.0029197329029871425 0 0.00026041859769967892 -0.0027820209420919397 0 0.00030026459644190033 -0.0029078881790880204 0 -0.00082862064127496885 -0.0019283468839380738 0 -0.00075661685530337955 -0.0019681339470148146 0 -0.00082417138775634933 -0.002039249182253088 0 0.00077111619611959482 -0.0012376147805801309 0 0.00069018310074800589 -0.0011610520124744014 0 0.00073952263811185854 -0.0011248524650017632 0 -5.7560585058172778e-05 -0.00018021642096530916 0 -9.7152500019585952e-05 -0.00028370341434671065 0 -7.993533644539307e-05 -0.0001915184909457019 0 -0.00019405385386214076 -0.0018760902254069567 0 -0.00026670733341092916 -0.0018448011720807022 0 -0.00019641331473280424 -0.0017399084560113384 0 
</DataArray>
</PointData>
<CellData Scalars="" Vectors="" Tensors="stress,">
<DataArray type="Float64" Name="stress" NumberOfComponents="9" format="ascii">
9741577.2717983723 565349.10219943523 0 565349.10219943523 -101265100.33546567 0 0 0 -32033233.072283745 6834597.4864020348 -1557778.2793009281 0 -1557778.2793009281 -100610795.0447216 0 0 0 -32821669.145411849 3625600.9909125566 -122875.40117359161 0 -122875.40117359161 -101643136.98008633 0 0 0 -34306137.596210957 -9912889.8589396775 1850355.2846364081 0 1850355.2846364081 -102063582.08385122 0 0 0 -39191765.179976821 9062977.312548399 -683549.91162964702 0 -683549.91162964702 -101381249.27521205 0 0 0 -32311395.186932206 8710868.7450006008 -1060532.8560525775 0 -1060532.8560525775 -101641582.11577654 0 0 0 -32525749.679771543 1823437.5470781922 417269.16549557447 0 417269.16549557447 -102504028.57680321 0 0 0 -35238206.860403717 2002265.2648637891 1179533.1749355793 0 1179533.1749355793 -102133196.10316885 0 0 0 -35045825.793406785 7104351.3148806095 -528574.44138050079 0 -528574.44138050079 -100087630.81151509 0 0 0 -32544147.82382226 2247601.0299650431 1002220.343262136 0 1002220.343262136 -98257321.585108757 0 0 0 -33603402.194300056 646732.08793741465 1974987.6867404133 0 1974987.6867404133 -94712537.00702548 0 0 0 -32923031.72168082 -40586199.519880205 -15217088.629802339 0 -15217088.629802339 -99066402.055458695 0 0 0 -48878410.551368624 3202481.4564387798 -137613.57476884633 0 -137613.57476884633 -99728631.319101334 0 0 0 -33784152.451931953 429656.50672060286 132311.64018070698 0 132311.64018070698 -99731734.195824519 0 0 0 -34755727.191186607 3418353.7037181854 -4543434.1093050092 0 -4543434.1093050092 -97157829.984905958 0 0 0 -32808816.698415697 3235545.3327844143 147292.27028381824 0 147292.27028381824 -99723231.050091267 0 0 0 -33770690.001057386 -55984541.20842921 33379893.669581439 0 33379893.669581439 -104008252.04452837 0 0 0 -55997477.638535142 441152.29994726181 -151957.72898137569 0 -151957.72898137569 -99676113.218480587 0 0 0 -34732236.321486712 3493742.8975753784 4679221.1386000365 0 4679221.1386000365 -96836351.807895601 0 0 0 -32669913.118612081 -56246703.380256586 -33425880.129873388 0 -33425880.129873388 -104495317.71951349 0 0 0 -56259707.384919524 -520432.68341821432 1767942.0190626234 0 1767942.0190626234 -97049474.378444672 0 0 0 -34149467.471652031 -35768429.221581936 -20628545.45530393 0 -20628545.45530393 -88995327.259985 0 0 0 -43667314.768548429 5625045.5547242165 -231459.71154618263 0 -231459.71154618263 -100068800.06218243 0 0 0 -33055314.077610254 528862.24466848373 316443.57594719529 0 316443.57594719529 -99603959.755663872 0 0 0 -34676284.128848553 555467.30207228661 -318002.96520403028 0 -318002.96520403028 -99615239.141793013 0 0 0 -34670920.143902183 -36440799.564003304 20469242.247891411 0 20469242.247891411 -89488926.585010916 0 0 0 -44075404.152154967 5768713.9942165613 270289.78876501322 0 270289.78876501322 -99973962.875521898 0 0 0 -32971837.108456969 -343387.90769964457 -1818791.7727989852 0 -1818791.7727989852 -97404950.359888792 0 0 0 -34211918.393655926 10361766.884485364 -133115.44700351357 0 -133115.44700351357 -100655658.87924981 0 0 0 -31602862.198167682 4655973.427421689 1961633.6018678248 0 1961633.6018678248 -99727219.619917989 0 0 0 -33274936.167373657 4392621.8903628588 -1455271.9099522531 0 -1455271.9099522531 -100296400.35772371 0 0 0 -33566322.463576317 -16185536.366486907 -196180.40895983577 0 -196180.40895983577 -96968315.004308522 0 0 0 -39603847.979778409 6299302.9893107414 -119668.49060868041 0 -119668.49060868041 -99974748.000042439 0 0 0 -32786405.753756046 894293.24325898651 320521.28898799419 0 320521.28898799419 -98677058.394297987 0 0 0 -34223967.80286333 794616.53283086605 1272084.821788311 0 1272084.821788311 -87773735.058071077 0 0 0 -30442691.483833995 -52305272.786704808 -18792717.581933446 0 -18792717.581933446 -97155132.942309231 0 0 0 -52311142.005154908 881007.64102877979 -366454.14603364468 0 -366454.14603364468 -98731822.416260913 0 0 0 -34247785.171331272 -52148285.203710876 18709557.680717476 0 18709557.680717476 -96861448.347003847 0 0 0 -52153406.742750153 6290060.4296526909 121177.42716020953 0 121177.42716020953 -100166841.38611269 0 0 0 -32856873.334760904 892093.85980063677 -1493738.846757561 0 -1493738.846757561 -87631246.913908243 0 0 0 -30358703.568937659 717763.93972718716 -385244.29526408017 0 -385244.29526408017 -99042833.992496967 0 0 0 -34413774.518469214 -33805713.394997463 16970414.654296264 0 16970414.654296264 -86474671.002305448 0 0 0 -42098134.539056018 7506478.1651710272 319527.87371897697 0 319527.87371897697 -99810230.455592752 0 0 0 -32306313.301647544 -957027.33462816477 597269.28112536669 0 597269.28112536669 -95251771.991091013 0 0 0 -33673079.764001667 4503497.4640352726 -926701.47109314799 0 -926701.47109314799 -99189861.398049831 0 0 0 -33140227.376905203 5060264.7597236633 716589.75904679298 0 716589.75904679298 -99686919.862394691 0 0 0 -33119329.285934687 9985050.9867260456 583184.14217820764 0 583184.14217820764 -100816388.40359688 0 0 0 -31790968.095904827 6307937.8715466708 -1913299.7077103853 0 -1913299.7077103853 -100748768.7478199 0 0 0 -33054290.806695655 4232420.098320812 343556.8035799861 0 343556.8035799861 -101506462.33679917 0 0 0 -34045914.783467442 -8112087.7918879986 2233896.647345107 0 2233896.647345107 -98895033.090649247 0 0 0 -37452492.308888018 3142146.9212958813 -152467.22603368759 0 -152467.22603368759 -100301102.04209566 0 0 0 -34005634.292279959 756405.35521697998 242155.99675011635 0 242155.99675011635 -100062031.69290257 0 0 0 -34756969.218189716 -6895022.4252141416 -8847830.8677450195 0 -8847830.8677450195 -110688427.72792304 0 0 0 -41154207.553598017 3208002.0142059922 151022.54400730133 0 151022.54400730133 -100354617.73315465 0 0 0 -34001315.501632154 -34599596.873863459 26513394.826672222 0 26513394.826672222 -95405159.617591396 0 0 0 -45501664.772009194 756429.26302361488 -261429.93771155179 0 -261429.93771155179 -100005555.07053328 0 0 0 -34737194.032628298 -6176350.820808351 9053467.4879369587 0 9053467.4879369587 -110565917.55167741 0 0 0 -40859793.930370063 -34906644.21879597 -26581276.204911537 0 -26581276.204911537 -95002592.991080552 0 0 0 -45468233.02345679 -3259529.2258673012 -5782368.9887532592 0 -5782368.9887532592 -101029773.3136923 0 0 0 -36501255.88884595 -29576239.709790856 13835548.149401877 0 13835548.149401877 -102171858.69724134 0 0 0 -46111834.442461267 4166784.8821496367 -1348635.8862098455 0 -1348635.8862098455 -98372952.821748137 0 0 0 -32972158.778859437 7001322.326879859 803328.61754235625 0 803328.61754235625 -99763915.969415903 0 0 0 -32466907.774887562 7730460.7589228153 -623184.53605055809 0 -623184.53605055809 -100123914.59436655 0 0 0 -32337708.842405319 1725993.5199420452 1135363.5612243414 0 1135363.5612243414 -99175740.548465252 0 0 0 -34107411.45998311 482895.88234937191 1326224.066386804 0 1326224.066386804 -98450283.674093008 0 0 0 -34288585.727110267 -26418881.396252796 -13148367.748635091 0 -13148367.748635091 -90626164.753111899 0 0 0 -40965766.152277648 -35639873.864727058 7477940.2584175803 0 7477940.2584175803 -94703182.128950283 0 0 0 -45620069.59778706 2537974.9929589033 -1564222.6228452921 0 -1564222.6228452921 -97234589.388613224 0 0 0 -33143815.038478971 1660855.2431945801 560050.72650817037 0 560050.72650817037 -95073298.059695959 0 0 0 -32694354.985775471 9461873.0285135508 423805.71963381767 0 423805.71963381767 -100332958.86106968 0 0 0 -31804880.041394472 10348475.993862867 -125115.00708758831 0 -125115.00708758831 -100581308.65043688 0 0 0 -31581491.429800987 4801572.8366345167 1751454.3248360753 0 1751454.3248360753 -98560416.51464057 0 0 0 -32815595.287302136 4246739.6780441999 -1707862.0798934102 0 -1707862.0798934102 -98629452.235359907 0 0 0 -33033949.39506042 -22907110.003006697 -1478409.3456964344 0 -1478409.3456964344 -98293058.168149352 0 0 0 -42420058.859904617 3797198.9172267914 -681291.20054745674 0 -681291.20054745674 -100098981.74563694 0 0 0 -33705623.989943266 4224710.7223263979 779752.73431241512 0 779752.73431241512 -99949517.389516115 0 0 0 -33503682.333516359 -7909353.9927054793 15624184.303960398 0 15624184.303960398 -101214684.33795768 0 0 0 -38193413.415732101 -8768878.9216438234 -16013471.752834875 0 -16013471.752834875 -99802304.173470438 0 0 0 -37999914.083289981 -4594480.4270470738 -8125242.00155247 0 -8125242.00155247 -105202852.79086637 0 0 0 -38429066.626269758 -18447531.676831283 15048394.965724051 0 15048394.965724051 -95843475.706556857 0 0 0 -40001852.584185906 -12875413.868291497 13139109.680089273 0 13139109.680089273 -105653405.82555377 0 0 0 -41485086.892845809 -21100998.903021678 -16361503.842215523 0 -16361503.842215523 -104736961.68751621 0 0 0 -44043286.20668824 8798599.0116202831 1033518.2755435705 0 1033518.2755435705 -100878427.31043553 0 0 0 -32227939.904585361 7257664.5419456959 -1767789.6964390278 0 -1767789.6964390278 -99792498.982312441 0 0 0 -32387192.054128408 -583016.6678725481 -2343927.1288902014 0 -2343927.1288902014 -102522835.50015354 0 0 0 -36087048.25880897 -9835413.3447190821 4381629.2843908966 0 4381629.2843908966 -101444929.23734972 0 0 0 -38948119.903724164 7361490.0953044891 487563.74804103374 0 487563.74804103374 -100042811.69294989 0 0 0 -32438462.559175968 787256.07015269995 -1843701.5311018974 0 -1843701.5311018974 -94697082.539833546 0 0 0 -32868439.264388323 2477407.6315140724 -1055977.7074368 0 -1055977.7074368 -98177029.199690104 0 0 0 -33494867.548861623 -39754553.08728873 14662440.880829852 0 14662440.880829852 -98232067.991455123 0 0 0 -48295317.377560355 5924853.0859957933 843440.70438194275 0 843440.70438194275 -100317924.38587797 0 0 0 -33037574.954958677 3484562.2493927479 -983959.28445492685 0 -983959.28445492685 -99410021.655002117 0 0 0 -33573910.791963339 9433707.5255522132 945181.57976466417 0 945181.57976466417 -100494811.09660923 0 0 0 -31871386.249870002 6792319.1381450891 -1775638.6143652052 0 -1775638.6143652052 -100720816.40480709 0 0 0 -32874974.043331742 992714.27522993088 -830961.61668656766 0 -830961.61668656766 -101659572.08502996 0 0 0 -35233400.233429909 -9247242.9395677149 4248084.8487442732 0 4248084.8487442732 -101050282.15733072 0 0 0 -38604133.783914477 8481513.1334273815 -481239.70793914795 0 -481239.70793914795 -102142527.34735823 0 0 0 -32781354.974875927 1126329.4899104834 -647131.03444752097 0 -647131.03444752097 -95681508.648884296 0 0 0 -33094312.705640793 -38292252.094816938 6041241.8783119619 0 6041241.8783119619 -87181881.639863729 0 0 0 -43915946.807138234 10380335.396774098 150399.35581290722 0 150399.35581290722 -99907230.764988303 0 0 0 -31334413.378874972 226452.13532662392 1272498.2204201072 0 1272498.2204201072 -93697882.459510088 0 0 0 -32715000.613464236 10550680.705957651 120663.09781867266 0 120663.09781867266 -100007877.32736254 0 0 0 -31310018.817491531 1552706.5897763371 1823907.8600193858 0 1823907.8600193858 -95170622.81915462 0 0 0 -32766270.680282414 2297239.3451731205 -1291851.9370592833 0 -1291851.9370592833 -95604190.133583307 0 0 0 -32657432.775943518 -35789860.424078248 3386393.9237676915 0 3386393.9237676915 -91484421.503578559 0 0 0 -44545998.674679883 7906259.1696757302 -290684.11159408092 0 -290684.11159408092 -102109970.57427269 0 0 0 -32971298.991608836 685248.51149182627 -355879.95687323809 0 -355879.95687323809 -98016249.518973693 0 0 0 -34065850.352618881 -50754566.899044283 14628899.949182022 0 14628899.949182022 -94266571.238202438 0 0 0 -50757398.348036356 7679834.0663731098 197055.79407762285 0 197055.79407762285 -100165240.36152887 0 0 0 -32369892.203304529 944853.35440562095 86641.014299869537 0 86641.014299869537 -86900452.674680755 0 0 0 -30084459.762096308 3251802.7132147551 -2075102.4657405019 0 -2075102.4657405019 -98781865.395709276 0 0 0 -33435521.938873053 10297341.679461837 355397.47300839424 0 355397.47300839424 -100170328.29615402 0 0 0 -31455545.315842271 -22605713.926858947 3299016.4600662142 0 3299016.4600662142 -92195724.986650407 0 0 0 -40180503.61972826 3016298.9682404995 1350642.7288344502 0 1350642.7288344502 -98708283.279174089 0 0 0 -33492194.508826733 3832014.3953412771 -1961139.737290144 0 -1961139.737290144 -97324747.172922552 0 0 0 -32722456.472153425 -31106896.323791027 4649828.0603190083 0 4649828.0603190083 -97161850.029434502 0 0 0 -44894061.223628938 9897721.0077109337 425614.42658026516 0 425614.42658026516 -100419259.88656902 0 0 0 -31682538.607600212 2404972.6017387211 913601.20378351212 0 913601.20378351212 -96890967.546359241 0 0 0 -33070098.230617195 7073187.3406428099 -1609340.0058854297 0 -1609340.0058854297 -101402892.00973749 0 0 0 -33015396.634183168 9710105.2483334839 727209.07531118393 0 727209.07531118393 -100743219.79663819 0 0 0 -31861590.091906637 -4730810.2553813085 2312863.0966645479 0 2312863.0966645479 -100866819.75357184 0 0 0 -36959170.503133558 2385487.7193715572 211275.46017817035 0 211275.46017817035 -102321775.87157249 0 0 0 -34977700.853270292 10051157.378088951 -355393.35487931781 0 -355393.35487931781 -100904569.06037354 0 0 0 -31798694.088799596 6522060.1902072839 1505832.0582730174 0 1505832.0582730174 -101545982.13578624 0 0 0 -33258372.680952508 4951024.9113891646 -829521.82030844688 0 -829521.82030844688 -101762037.13546358 0 0 0 -33883854.278425999 -4437293.0773716569 -1274464.4011989664 0 -1274464.4011989664 -99216073.490390182 0 0 0 -36278678.298716664 1940722.7805048823 2501386.2420827411 0 2501386.2420827411 -95156794.335117102 0 0 0 -32625625.044114292 -39731281.215488926 -21400553.706444606 0 -21400553.706444606 -99234538.326660693 0 0 0 -48638036.839752376 6000240.4165956974 -425986.18614733219 0 -425986.18614733219 -99554613.945977211 0 0 0 -32744030.735283613 2190769.2505333424 569260.7858081609 0 569260.7858081609 -98604944.906962872 0 0 0 -33744961.479750395 2001834.9339183569 -533849.47575545311 0 -533849.47575545311 -98722859.980395794 0 0 0 -33852358.76626718 -38785781.77641692 22133541.608231798 0 22133541.608231798 -98324100.48412028 0 0 0 -47988458.791188024 6180726.4315149784 435000.24174952507 0 435000.24174952507 -99452259.033146381 0 0 0 -32645036.410571098 2083810.9253603816 -2513917.677005738 0 -2513917.677005738 -95560625.58032459 0 0 0 -32716885.129237473 9779617.6009870768 -520931.38786521554 0 -520931.38786521554 -101295622.72545362 0 0 0 -32030601.793563366 6735196.8430423141 1575483.2228110433 0 1575483.2228110433 -100614141.8322771 0 0 0 -32857630.746232092 3665679.509947598 -21034.763442784548 0 -21034.763442784548 -101533067.82573466 0 0 0 -34253585.910525382 -9524523.5752046704 -1543173.8435210846 0 -1543173.8435210846 -101453848.29359341 0 0 0 -38842430.154079378 5840137.7789081335 -1634370.9473555982 0 -1634370.9473555982 -99512082.903281212 0 0 0 -32785180.793530583 8455843.1027271152 1098766.0625093579 0 1098766.0625093579 -99992081.338716745 0 0 0 -32037683.382596433 -16193281.070057385 8620051.2392114997 0 8620051.2392114997 -101278434.50978951 0 0 0 -41115100.452946387 -2733875.7019965053 -3294994.0774558783 0 -3294994.0774558783 -102049064.38129175 0 0 0 -36674029.029150963 4777934.9260798693 -1799589.0983972549 0 -1799589.0983972549 -99714892.832132936 0 0 0 -33227935.267118573 -14424531.803506166 8598995.9184012339 0 8598995.9184012339 -96836100.364140719 0 0 0 -38941221.25867641 8098636.9755781889 942018.49485933781 0 942018.49485933781 -100334952.98254514 0 0 0 -32282710.602438331 1595332.1415219009 -2708979.6714865565 0 -2708979.6714865565 -101117620.95720917 0 0 0 -34832801.085490584 8048865.9207795858 -1385357.1176378429 0 -1385357.1176378429 -101006159.43099022 0 0 0 -32535052.728573799 9090540.1607809067 955067.74533838034 0 955067.74533838034 -101054635.14288914 0 0 0 -32187433.243737817 -4849691.9582950473 2453593.6676987708 0 2453593.6676987708 -102642042.8808524 0 0 0 -37622107.193701565 -75648.625210285187 -1502009.2069878876 0 -1502009.2069878876 -102396691.38126826 0 0 0 -35865319.00226754 9289123.0351562444 -760978.52871024609 0 -760978.52871024609 -99999055.816293612 0 0 0 -31748476.473397858 8592078.5891497135 -887795.74490559101 0 -887795.74490559101 -100374169.78682089 0 0 0 -32123731.919185042 4508578.7717850208 1904301.1268252241 0 1904301.1268252241 -98919010.193620205 0 0 0 -33043650.997642279 4323368.4197564125 1660528.5673421025 0 1660528.5673421025 -99262195.969032526 0 0 0 -33228589.642246723 1533259.1733752489 372797.794598095 0 372797.794598095 -99386767.558746815 0 0 0 -34248727.934879899 472103.5667142868 1802160.0821744204 0 1802160.0821744204 -101362038.62935317 0 0 0 -35311477.271923542 -21826348.731825694 -7457211.6290229857 0 -7457211.6290229857 -97832632.726673037 0 0 0 -41880643.510474548 -18213915.628612906 -8946748.4575134367 0 -8946748.4575134367 -95884922.576554179 0 0 0 -39934593.371808454 9146360.8779349327 179544.52339977026 0 179544.52339977026 -102097938.1121068 0 0 0 -32533052.03196013 2442725.3632000685 560035.1334065944 0 560035.1334065944 -102235152.55768037 0 0 0 -34927349.518068075 10474105.578161001 138604.33264330029 0 138604.33264330029 -100191146.44850254 0 0 0 -31400964.304619551 2442626.846216321 1257394.2096874714 0 1257394.2096874714 -96426564.998852909 0 0 0 -32894378.353422761 2128034.9097883999 -1976568.8658108115 0 -1976568.8658108115 -97338824.262507677 0 0 0 -33323776.273451656 -30000169.274698913 1061454.4539861809 0 1061454.4539861809 -91485734.17620495 0 0 0 -42520066.207816347 8967846.1695078611 -164852.90324673057 0 -164852.90324673057 -101711993.16389751 0 0 0 -32460451.448036432 9203171.7224419117 -317360.36829416454 0 -317360.36829416454 -102018983.3953588 0 0 0 -32485534.085520983 -26687825.525633447 9155743.8842856959 0 9155743.8842856959 -92511052.045842007 0 0 0 -41719607.150016405 2821876.1589176655 -1434087.6196555272 0 -1434087.6196555272 -98377368.888447523 0 0 0 -33444422.455335379 9571131.4613224566 509066.09353840351 0 509066.09353840351 -99871672.287621796 0 0 0 -31605189.289204687 2523837.0278183222 753738.22918233275 0 753738.22918233275 -97209267.413759708 0 0 0 -33139900.635079503 5780054.8705252409 -1287366.3403527737 0 -1287366.3403527737 -99169226.125689745 0 0 0 -32686209.939307809 5824610.1092271805 1124629.8471662402 0 1124629.8471662402 -99875724.473143578 0 0 0 -32917890.027370691 -13238110.475318775 10367580.447836034 0 10367580.447836034 -102026782.33811545 0 0 0 -40342712.484701946 -10803306.467464209 -10472186.457268879 0 -10472186.457268879 -104529352.26586449 0 0 0 -40366430.556665003 4847489.6985419989 -1930764.524951905 0 -1930764.524951905 -99846573.761073112 0 0 0 -33249679.421885848 9384522.4707707167 794267.90659123659 0 794267.90659123659 -100263236.29443908 0 0 0 -31807549.838284135 -14498034.145228684 6505397.1235181689 0 6505397.1235181689 -95412726.907471359 0 0 0 -38468766.368445009 2871495.2484437823 -564317.10970580578 0 -564317.10970580578 -100605512.00936699 0 0 0 -34206905.866323173 8116438.6695358306 -1008430.867300272 0 -1008430.867300272 -101955890.74244797 0 0 0 -32843808.225519225 7148101.2125375271 -641885.51732110977 0 -641885.51732110977 -99530219.279070854 0 0 0 -32333741.323286533 2588817.2770869732 1008346.6483868361 0 1008346.6483868361 -98825788.557859302 0 0 0 -33682939.948270321 5707407.2309279442 -544123.08505767584 0 -544123.08505767584 -100285965.42276049 0 0 0 -33102495.367141485 2231091.9718722105 794532.36745011806 0 794532.36745011806 -99561478.84780097 0 0 0 -34065635.406575322 6795072.778783083 -1190659.1944999145 0 -1190659.1944999145 -99587950.404518604 0 0 0 -32477507.16900754 5450323.5656735897 -1109900.7674031854 0 -1109900.7674031854 -100163745.8965416 0 0 0 -33149697.815803766 5254373.8264662623 1339201.0850151777 0 1339201.0850151777 -100130081.53178287 0 0 0 -33206497.69686085 5774659.1769638658 1234327.0085517168 0 1234327.0085517168 -99243408.656904757 0 0 0 -32714062.317979276 -3189818.0706571005 6794208.7962126732 0 6794208.7962126732 -100324681.12722036 0 0 0 -36230074.719257116 -9835447.8789783567 10119104.562097713 0 10119104.562097713 -104234405.23657265 0 0 0 -39924448.590442851 -10427924.761624485 -10403342.201792348 0 -10403342.201792348 -100801634.80487901 0 0 0 -38930345.848276228 -12121628.450331688 -10403278.392605651 0 -10403278.392605651 -101439673.56772715 0 0 0 -39746455.706320584 2057831.490729332 -120462.6133326292 0 -120462.6133326292 -100274200.24188805 0 0 0 -34375729.06290555 -18154402.127919167 23979668.128839895 0 23979668.128839895 -129490799.18718737 0 0 0 -51675820.460287303 -21191490.286368303 26694999.634939462 0 26694999.634939462 -105943091.27252965 0 0 0 -44497103.545614265 1876417.0620820522 174876.28130269051 0 174876.28130269051 -99799367.115938663 0 0 0 -34273032.51884985 1917362.0457849503 -163179.2819397822 0 -163179.2819397822 -99765594.011814117 0 0 0 -34246881.188110113 -21286394.557741582 -26639785.529906444 0 -26639785.529906444 -105806728.14577451 0 0 0 -44482592.94623062 -16770789.331680641 -23478728.430848006 0 -23478728.430848006 -128881712.6944485 0 0 0 -50978375.709145188 2043921.0919797421 104372.54232776165 0 104372.54232776165 -100344756.90235335 0 0 0 -34405292.53363061 2470438.7357997894 -1450668.1332259774 0 -1450668.1332259774 -97669951.539212704 0 0 0 -33319829.481194496 10212892.994101167 343405.48559850454 0 343405.48559850454 -99904972.766200304 0 0 0 -31392227.920234561 -28520642.235117927 6167277.4318804666 0 6167277.4318804666 -90027733.113160849 0 0 0 -41491931.371897563 2033463.4893339872 1525715.0764603615 0 1525715.0764603615 -96667469.018653631 0 0 0 -33121901.935262084 8962272.7743326128 -1026857.195355773 0 -1026857.195355773 -101004889.19216096 0 0 0 -32214915.74623993 8171618.0567145348 1300002.93900159 0 1300002.93900159 -101330026.5037055 0 0 0 -32605442.956446767 -254082.02420437336 917074.86861544847 0 917074.86861544847 -102476989.22383881 0 0 0 -35955874.936815143 -2120138.5729183257 -2091593.2572432458 0 -2091593.2572432458 -101982420.72077115 0 0 0 -36435895.752791435 476822.16142210492 -620989.23143494129 0 -620989.23143494129 -94762631.852011234 0 0 0 -33000033.391706258 -49064712.596624874 4114991.6283938177 0 4114991.6283938177 -91132003.399823233 0 0 0 -49068850.598756827 10405148.821410894 114818.71855860403 0 114818.71855860403 -100105407.27704048 0 0 0 -31395090.45947051 1136438.6363630879 676498.83324623108 0 676498.83324623108 -89806746.895849124 0 0 0 -31034607.890820086 1810859.1189513654 15663305.834693559 0 15663305.834693559 -107850938.6479511 0 0 0 -37114027.835149929 -40535041.680436186 -35698093.831352487 0 -35698093.831352487 -114198760.11080226 0 0 0 -54156830.626933463 -40181388.574945025 35604353.256405145 0 35604353.256405145 -114375651.67202057 0 0 0 -54094964.086437948 859605.60779237747 -84870.423675686121 0 -84870.423675686121 -99964984.085449696 0 0 0 -34686882.467179775 2252793.0191464424 -132676.48689091206 0 -132676.48689091206 -99602885.507102966 0 0 0 -34072532.37078476 856505.21827101707 71581.672841668129 0 71581.672841668129 -99940906.990465164 0 0 0 -34679540.620267868 1648843.4109221399 -15495410.114093151 0 -15495410.114093151 -108349910.56786215 0 0 0 -37345373.504928976 2233340.3679793179 127686.0679448843 0 127686.0679448843 -99627968.772574484 0 0 0 -34088119.941608161 10308723.960284099 -103395.83306658268 0 -103395.83306658268 -100140571.93700922 0 0 0 -31441146.7918538 342415.53193950653 860772.40318628773 0 860772.40318628773 -96613493.324530125 0 0 0 -33694877.22740674 985252.50959777832 -491620.84549195692 0 -491620.84549195692 -93259282.880740404 0 0 0 -32295910.629899859 -37725744.124877676 -3886667.501156427 0 -3886667.501156427 -87261308.495268732 0 0 0 -43745468.417051233 -15627759.335747957 15285876.435102021 0 15285876.435102021 -101674762.5487932 0 0 0 -41055882.65958941 -4598238.1032600477 -9184697.8468187451 0 -9184697.8468187451 -100640209.25754558 0 0 0 -36833456.576281972 8026900.8802392483 -987711.93458116055 0 -987711.93458116055 -99719504.443634495 0 0 0 -32092411.247188091 5253258.8209364414 1530854.953899825 0 1530854.953899825 -98912956.47389698 0 0 0 -32780894.178536415 -1827312.9760972261 3826264.3670715839 0 3826264.3670715839 -101065681.74476397 0 0 0 -36012548.152301371 -21249850.633043453 -10698220.606754631 0 -10698220.606754631 -101856721.46246138 0 0 0 -43087300.233426735 10437103.101885319 -51073.479703627527 0 -51073.479703627527 -100417285.104743 0 0 0 -31493063.701000214 3757663.456652686 2093918.0825503469 0 2093918.0825503469 -97193443.710099041 0 0 0 -32702523.088706329 3754097.4002642035 -1634489.8598614931 0 -1634489.8598614931 -97133183.50052157 0 0 0 -32682680.135090053 -29057866.632851988 242220.22372679971 0 242220.22372679971 -96465450.572845101 0 0 0 -43933161.021993965 1113938.8229024857 -759178.0486651063 0 -759178.0486651063 -98161161.708935261 0 0 0 -33966528.010111526 8179552.1095864773 655451.29476839304 0 655451.29476839304 -99977616.544065952 0 0 0 -32129322.552067995 -27803776.095537692 13217016.474188151 0 13217016.474188151 -91455769.299350321 0 0 0 -41740840.888210803 2098722.5326790214 -1148344.4122967124 0 -1148344.4122967124 -98797329.575458527 0 0 0 -33844512.464972913 6306929.9047617316 -1769371.4620112181 0 -1769371.4620112181 -99841208.771555543 0 0 0 -32736997.60337764 8198716.8897845745 1165647.3220868409 0 1165647.3220868409 -100692370.75187969 0 0 0 -32372778.851733208 -9859416.9007872641 6432151.7915036157 0 6432151.7915036157 -98942576.597713292 0 0 0 -38080697.724475175 26187.37793675065 -3260057.4888703525 0 -3260057.4888703525 -101672965.49461687 0 0 0 -35576372.340838045 4160660.633949101 -985785.59349548817 0 -985785.59349548817 -99820989.424242675 0 0 0 -33481115.076602638 6078276.0604698658 957755.2822252512 0 957755.2822252512 -99573591.750695705 0 0 0 -32723360.491579056 6710237.9888142943 -1220068.7442421913 0 -1220068.7442421913 -101829353.8920902 0 0 0 -33291690.566146672 6108730.5349316224 -807138.79715573788 0 -807138.79715573788 -101600076.52409819 0 0 0 -33421971.096208252 6912118.0043678284 -1635298.881889537 0 -1635298.881889537 -99817693.10903883 0 0 0 -32516951.286634684 8521702.1907739639 1211584.0573015213 0 1211584.0573015213 -100028218.96272433 0 0 0 -32027280.870182514 -11629041.107297212 6163083.0153701901 0 6163083.0153701901 -102511000.13697532 0 0 0 -39949014.435495406 -3473421.3816629648 -3376275.8695243895 0 -3376275.8695243895 -102823412.33876395 0 0 0 -37203891.802149534 3610848.7971470058 -213012.34977185726 0 -213012.34977185726 -99421381.040109277 0 0 0 -33533686.285036832 2143964.1676435471 300716.39978901297 0 300716.39978901297 -99361479.940876961 0 0 0 -34026130.52063179 -6496909.0092017353 13549572.971158672 0 13549572.971158672 -104059064.2050885 0 0 0 -38694590.62500155 2165268.4729366302 -326451.65172201395 0 -326451.65172201395 -99358815.027454138 0 0 0 -34017741.294080973 -38025738.479368821 30223505.413588069 0 30223505.413588069 -114043095.14031661 0 0 0 -53224091.766889915 -38414751.987654552 -29370828.83760564 0 -29370828.83760564 -114468524.79653771 0 0 0 -53509146.874467298 3684301.0174489021 231960.34220683575 0 231960.34220683575 -99442232.322027206 0 0 0 -33515275.956602573 -6220998.5190978348 -13610446.046074919 0 -13610446.046074919 -104477384.07384199 0 0 0 -38744433.907528907 1623095.7545489408 -46187.964849740267 0 -46187.964849740267 -102597946.73305634 0 0 0 -35341197.842477649 362000.76066946983 -176154.65067408979 0 -176154.65067408979 -102422404.16687202 0 0 0 -35721141.192171097 7630069.8726281822 -1060748.4085028172 0 -1060748.4085028172 -101415194.92618608 0 0 0 -32824793.768745214 10437836.085165903 126389.15775704384 0 126389.15775704384 -100584208.82494293 0 0 0 -31551230.458922103 4523806.9786769152 1531531.2189637721 0 1531531.2189637721 -100067420.1754508 0 0 0 -33440264.618870854 4836279.9583497047 -1855391.0558195859 0 -1855391.0558195859 -99558667.952722549 0 0 0 -33152835.798030376 -16623489.389881117 558949.58621788025 0 558949.58621788025 -97114728.524600163 0 0 0 -39808376.270068452 7615487.5939157009 -876547.59179279208 0 -876547.59179279208 -100355161.18733859 0 0 0 -32458885.757698059 3453063.4776558876 1563864.4552689195 0 1563864.4552689195 -99502581.751773238 0 0 0 -33617331.395941019 -2019.3241410255432 2887189.160844326 0 2887189.160844326 -101071014.61990222 0 0 0 -35375561.880415082 -17300867.201627195 -10684949.681076955 0 -10684949.681076955 -93540053.169187069 0 0 0 -38794322.129784986 7466059.8588975668 -1768539.7100498676 0 -1768539.7100498676 -100522900.60965109 0 0 0 -32569894.262763679 9129578.142568469 993131.23621365428 0 993131.23621365428 -101184078.15939736 0 0 0 -32219075.005890131 -4813765.8800849319 2131570.9409712702 0 2131570.9409712702 -100832015.9657228 0 0 0 -36976023.646032691 2473683.8406888247 -1142532.0229963064 0 -1142532.0229963064 -101908692.71027666 0 0 0 -34802253.104355782 3883402.0265049934 -1400230.0047931671 0 -1400230.0047931671 -99939754.557211637 0 0 0 -33619723.385747194 -14624677.918083102 12014381.60924767 0 12014381.60924767 -96272265.408384323 0 0 0 -38813930.164263606 7091840.0049721003 973188.80070662498 0 973188.80070662498 -100238654.23183274 0 0 0 -32601384.979401231 -515652.32313024998 -4903672.5914817303 0 -4903672.5914817303 -101369753.55535138 0 0 0 -35659892.057468534 8293018.4712266922 -598646.60515108705 0 -598646.60515108705 -101712275.75383949 0 0 0 -32696740.048914552 7383769.3612850904 584089.47299605608 0 584089.47299605608 -102100377.58082962 0 0 0 -33150812.876840949 6762700.4494059086 210716.08717364073 0 210716.08717364073 -102472927.05689788 0 0 0 -33498579.31262207 9284245.2883467674 646423.83429834247 0 646423.83429834247 -101575577.07926011 0 0 0 -32301966.126819611 9096555.4550001621 558912.50577096641 0 558912.50577096641 -101558937.8754642 0 0 0 -32361833.847162485 -3434355.6775339842 6146292.0146839172 0 6146292.0146839172 -102219866.53815281 0 0 0 -36978977.775490403 -29935482.801529646 -14770548.573619805 0 -14770548.573619805 -101928351.03144738 0 0 0 -46152341.841541946 5976983.8462320566 268001.86495909095 0 268001.86495909095 -102347858.0379715 0 0 0 -33729805.967108727 7243861.7279382944 -268044.40590840578 0 -268044.40590840578 -99936421.180116415 0 0 0 -32442395.808262229 691886.64748167992 383109.96456837654 0 383109.96456837654 -98949710.992399216 0 0 0 -34390238.520721197 -760726.47851628065 -272485.45917826891 0 -272485.45917826891 -94856339.769096732 0 0 0 -33465973.186664522 -34459883.717009306 -16741292.026789557 0 -16741292.026789557 -86801338.569629163 0 0 0 -42441427.800323457 1680668.5672203302 -1588841.4580570459 0 -1588841.4580570459 -96625158.073946953 0 0 0 -33230571.327354312 -38077504.400832877 3934671.8529007435 0 3934671.8529007435 -92837854.209450066 0 0 0 -45820375.513599023 10055230.585881904 272060.52901470661 0 272060.52901470661 -100308828.11738947 0 0 0 -31588759.136027619 2271404.1315889359 827659.08497091755 0 827659.08497091755 -93377993.383314848 0 0 0 -31887306.238104105 8532445.1523058116 507177.49486166239 0 507177.49486166239 -101811576.12341352 0 0 0 -32647695.83988753 -1954260.9680914395 -1054878.1628148258 0 -1054878.1628148258 -101609284.86605093 0 0 0 -36247241.041949943 -5591791.9023395479 -221484.85154983401 0 -221484.85154983401 -102160869.14402699 0 0 0 -37713431.366228372 9758014.0829160213 -106571.71887869189 0 -106571.71887869189 -99917761.960881233 0 0 0 -31555911.757287741 838257.89061073016 427605.84740668535 0 427605.84740668535 -95799622.436342388 0 0 0 -33236477.591006007 815122.25022907159 -920353.64101520181 0 -920353.64101520181 -88308893.607288688 0 0 0 -30622819.974970866 -48988194.756206341 -9269750.3309076484 0 -9269750.3309076484 -90988061.513061136 0 0 0 -48991689.69424361 6654263.4124226868 -1431582.820789814 0 -1431582.820789814 -100362873.02905411 0 0 0 -32798013.365820855 6900122.2621231079 1498012.033772096 0 1498012.033772096 -99969065.335686207 0 0 0 -32574130.075747013 -5531670.2327473164 7028599.8484629355 0 7028599.8484629355 -101194885.65403867 0 0 0 -37354294.560375094 -5217234.8957425281 -6553362.8069560826 0 -6553362.8069560826 -100955867.86864978 0 0 0 -37160585.967537306 -10245582.120636716 35293807.921027504 0 35293807.921027504 -147722514.68854648 0 0 0 -55288833.883214116 -41631167.249861337 -35282149.98393587 0 -35282149.98393587 -114959393.90055829 0 0 0 -54806696.402646884 -41716697.700221606 35443792.52736368 0 35443792.52736368 -115251501.73437738 0 0 0 -54938869.802109666 -10039370.328860983 -35135837.10570851 0 -35135837.10570851 -147526610.01105949 0 0 0 -55148093.118972152 663506.37387490273 69062.634642362595 0 69062.634642362595 -100207513.3640027 0 0 0 -34840402.446544647 1349506.7587880492 -47888.645913124084 0 -47888.645913124084 -100113838.54521036 0 0 0 -34567516.125247777 1307243.9408590794 46949.858291745186 0 46949.858291745186 -100149043.33421516 0 0 0 -34594629.787674427 676424.64289617538 -52131.087189108133 0 -52131.087189108133 -100178763.67278957 0 0 0 -34825818.660462856 2168060.7965994477 -439785.5133535862 0 -439785.5133535862 -100126852.39991117 0 0 0 -34285577.061159313 3417203.2136721611 403482.67905655503 0 403482.67905655503 -100311043.51871824 0 0 0 -33912844.106766224 2796917.9503433704 -607497.2707285881 0 -607497.2707285881 -99082061.673627615 0 0 0 -33699800.303149462 -7185699.3473648727 10385911.569697946 0 10385911.569697946 -103836990.65735382 0 0 0 -38857941.501651496 5020198.2796278 506641.12997710705 0 506641.12997710705 -99426261.181641579 0 0 0 -33042122.01570487 -34220480.629141375 -22674631.756767362 0 -22674631.756767362 -107046075.28249571 0 0 0 -49443294.569072992 -7325059.8880865574 14384826.170119666 0 14384826.170119666 -108765788.08084032 0 0 0 -40631796.789124459 -14670380.383642599 -23143713.910822265 0 -23143713.910822265 -96750930.188966483 0 0 0 -38997458.700413182 7871050.6634068489 -736951.61447189748 0 -736951.61447189748 -102096644.02095723 0 0 0 -32978957.675142646 1226677.5032325387 1146747.4611513764 0 1146747.4611513764 -101611799.24859953 0 0 0 -35134792.610878527 9274409.6725525856 932973.20662675798 0 932973.20662675798 -100547271.53264618 0 0 0 -31945501.651032925 5799973.2392501235 -1851435.8187493086 0 -1851435.8187493086 -99363339.452539027 0 0 0 -32747178.174651206 452301.56059099734 -1262980.4195511937 0 -1262980.4195511937 -101685983.13145715 0 0 0 -35431788.549803182 -17226372.606315196 5496905.8934644274 0 5496905.8934644274 -99981581.877623081 0 0 0 -41022784.069378376 2931435.256031096 -137004.37330842018 0 -137004.37330842018 -102621463.54952174 0 0 0 -34891509.902721584 4925140.4999127984 -148427.7378385365 0 -148427.7378385365 -101784804.62955296 0 0 0 -33900882.445374131 8892184.1483588256 938974.91259241104 0 938974.91259241104 -101643242.90742576 0 0 0 -32462870.565673586 10525865.106099129 -102130.65709471703 0 -102130.65709471703 -100238775.61077738 0 0 0 -31399518.67663765 3488122.7899096012 1936695.0896347761 0 1936695.0896347761 -99217146.35147953 0 0 0 -33505158.246549487 3143351.1293276548 -1885991.80859828 0 -1885991.80859828 -99261815.030263186 0 0 0 -33641462.365327358 -20084817.279830664 -1099490.599512428 0 -1099490.599512428 -92837306.628250897 0 0 0 -39522743.367828548 8694660.280293107 884506.63047213852 0 884506.63047213852 -101440219.10093856 0 0 0 -32460945.587226033 8167898.5985972881 -1442510.0677949786 0 -1442510.0677949786 -100850206.87982225 0 0 0 -32438807.898428679 8570098.5210828185 1359493.4600446224 0 1359493.4600446224 -100977427.30133593 0 0 0 -32342565.073088586 -1211507.2299289107 2192978.0646002293 0 2192978.0646002293 -101005155.85234028 0 0 0 -35775832.078794211 485989.96426427364 -1925939.3898347914 0 -1925939.3898347914 -101866656.3302629 0 0 0 -35483233.228099465 8013002.0204122066 -1135527.1025179625 0 -1135527.1025179625 -100309458.16676092 0 0 0 -32303759.651221991 5164436.1332139969 1619679.8195841908 0 1619679.8195841908 -100097369.46607304 0 0 0 -33226526.666500568 -551678.6472851038 3527351.1414352953 0 3527351.1414352953 -101403305.15379977 0 0 0 -35684244.330379784 -11796630.635974854 -9122012.7390337735 0 -9122012.7390337735 -97667980.795944691 0 0 0 -38312614.001171827 1378390.7327848375 -342350.72114509344 0 -342350.72114509344 -102193938.09776296 0 0 0 -35285441.577742308 6696885.7753101587 -1066030.582177937 0 -1066030.582177937 -100428801.50562143 0 0 0 -32806170.505608916 4964378.6062217951 1421933.3123321533 0 1421933.3123321533 -99433808.21894908 0 0 0 -33064300.364454508 -3651912.9568766952 6725824.3544726819 0 6725824.3544726819 -103594128.83732724 0 0 0 -37536114.627971411 -18009561.517101139 -10848897.738213405 0 -10848897.738213405 -100142596.85942549 0 0 0 -41353255.431784362 8707195.3889498711 -779737.52247405052 0 -779737.52247405052 -101999526.06128657 0 0 0 -32652315.735317826 5143268.3350478709 -1766152.4428762197 0 -1766152.4428762197 -98590229.55574733 0 0 0 -32706436.427244753 -23415740.601872921 8359985.2388562933 0 8359985.2388562933 -100558547.01540595 0 0 0 -43391000.666047603 9004123.7873601913 810946.73784224689 0 810946.73784224689 -100205557.68310213 0 0 0 -31920501.863510132 -449293.90151110291 -1320668.0760023892 0 -1320668.0760023892 -100713038.07017219 0 0 0 -35406816.190089196 6700795.7067883015 1367384.7919117212 0 1367384.7919117212 -99351063.017939091 0 0 0 -32427593.55890286 6895249.5123107433 -1307990.6640625596 0 -1307990.6640625596 -99403301.662536621 0 0 0 -32377818.252578974 -12604207.480835319 -8708127.7266165018 0 -8708127.7266165018 -104154081.63693082 0 0 0 -40865401.191218197 -11246157.648502588 8079578.7848577499 0 8079578.7848577499 -104340651.20401955 0 0 0 -40455383.098382711 9533404.5383416414 104824.83170381188 0 104824.83170381188 -101432217.71505904 0 0 0 -32164584.611850858 3166301.3008310795 587699.83009639382 0 587699.83009639382 -102407657.39048743 0 0 0 -34734474.631379724 3976165.2888503075 123875.80551519245 0 123875.80551519245 -102227807.58092034 0 0 0 -34388074.802224398 7615372.2973591089 -1525005.4181489944 0 -1525005.4181489944 -100690582.9944135 0 0 0 -32576323.743969083 8638543.7145285606 1283679.9158263505 0 1283679.9158263505 -100167270.04975224 0 0 0 -32035054.217328072 7032675.8726760149 -1785997.6750542521 0 -1785997.6750542521 -100443099.048002 0 0 0 -32693648.111364126 8429924.5214341879 1267577.3212464452 0 1267577.3212464452 -100666564.0313921 0 0 0 -32282823.828485131 -6142629.7615631819 4588481.0548417121 0 4588481.0548417121 -102333817.49907458 0 0 0 -37966756.541223168 -3625685.6625350267 -2865633.8084648252 0 -2865633.8084648252 -102617620.55364338 0 0 0 -37185157.175662413 -5445947.1404182911 4452290.4306065142 0 4452290.4306065142 -99637367.065935493 0 0 0 -36779159.972223818 541936.51792728901 -2777351.124463737 0 -2777351.124463737 -101312508.40341163 0 0 0 -35269700.159919441 8011422.0074634552 -711281.91474732757 0 -711281.91474732757 -99685258.974045277 0 0 0 -32085842.938303471 3797998.443423897 1310248.9717928171 0 1310248.9717928171 -98011012.061128259 0 0 0 -32974554.766196579 -484605.76374316961 3076201.431635797 0 3076201.431635797 -99394663.228953093 0 0 0 -34957744.14744366 -33292793.30958578 -13671622.130678967 0 -13671622.130678967 -103259249.71781254 0 0 0 -47793215.059589416 9595704.730458498 -904509.60651314352 0 -904509.60651314352 -100555474.70408607 0 0 0 -31835919.490769625 9078823.7195146084 -937480.13599687815 0 -937480.13599687815 -100803444.93320513 0 0 0 -32103617.424791813 6320333.7473016549 1884114.5075533986 0 1884114.5075533986 -100649814.1828513 0 0 0 -33015318.152442262 6697614.0879135728 1908370.2344028354 0 1908370.2344028354 -99566910.272910714 0 0 0 -32504253.664749086 2867178.9217106067 383985.84833109379 0 383985.84833109379 -101602533.4956727 0 0 0 -34557374.100886703 780347.33776864409 1676789.1319307685 0 1676789.1319307685 -101903445.65234643 0 0 0 -35393084.410102159 -8611131.3033017516 -3950388.0964953238 0 -3950388.0964953238 -98893102.491236687 0 0 0 -37626481.828088462 -12701307.232930839 -4218221.6052420586 0 -4218221.6052420586 -100865909.00823677 0 0 0 -39748525.684408665 1777916.0708035231 -829933.67434132099 0 -829933.67434132099 -97048211.715536594 0 0 0 -33344603.475656509 -34362225.628645301 9150705.9951798208 0 9150705.9951798208 -89537927.581846386 0 0 0 -43365053.623672098 9828599.3091564178 243980.437705338 0 243980.437705338 -99871398.534861565 0 0 0 -31514979.728996992 1450010.154614836 1250745.1446570158 0 1250745.1446570158 -94648093.146815419 0 0 0 -32619329.047270149 8568904.5398313999 -1270810.5891114473 0 -1270810.5891114473 -101307934.23806477 0 0 0 -32458660.394381762 8515557.2405575514 1328326.2649905086 0 1328326.2649905086 -100659769.86239505 0 0 0 -32250474.41764307 -695440.8695730567 2408186.0117250979 0 2408186.0117250979 -102204119.60703266 0 0 0 -36014846.166812003 -1423032.2951891422 -2071053.4829903245 0 -2071053.4829903245 -101606977.80676115 0 0 0 -36060503.535682619 7643683.1539242268 -1428388.2306983471 0 -1428388.2306983471 -99849792.356287479 0 0 0 -32272138.220827103 6606171.9859399796 1621545.3719630241 0 1621545.3719630241 -100408382.21766281 0 0 0 -32830773.581103086 -4143906.3710371256 4475875.5132178962 0 4475875.5132178962 -101184706.9330169 0 0 0 -36865014.65641886 -7709260.3270827532 -6807877.4565252066 0 -6807877.4565252066 -102381632.95045185 0 0 0 -38531812.647137165 8286631.614612639 561214.36408627033 0 561214.36408627033 -102230140.58653116 0 0 0 -32880228.140171468 -49134098.189310879 -6375738.2510673031 0 -6375738.2510673031 -91252835.170540527 0 0 0 -49135426.675947987 1166743.2544420685 -1121367.1819975972 0 -1121367.1819975972 -89771136.872607753 0 0 0 -31011537.766357925 1152821.9607570972 367635.12643933296 0 367635.12643933296 -94367497.572584704 0 0 0 -32625136.464139737 10437301.83282733 -53491.083024913743 0 -53491.083024913743 -99922675.349651337 0 0 0 -31319880.730888128 -10590040.969728183 12534848.691604063 0 12534848.691604063 -117237073.30717291 0 0 0 -44739489.996915415 -56329737.327860139 -33443514.326344185 0 -33443514.326344185 -104546473.00795881 0 0 0 -56306673.617536627 2116905.164044857 -40625.855381001827 0 -40625.855381001827 -100256547.00853443 0 0 0 -34348874.645571232 366593.19648933411 23170.152168512344 0 23170.152168512344 -99941382.217111588 0 0 0 -34851176.157217979 353764.39720267022 -41425.157782435417 0 -41425.157782435417 -99933258.051445112 0 0 0 -34852822.778984845 -56067581.070793241 33396712.578973956 0 33396712.578973956 -104059059.75726491 0 0 0 -56044324.289820343 2131690.1842639446 44876.660237019365 0 44876.660237019365 -100258403.481359 0 0 0 -34344349.653983355 -10563073.554512693 -12473633.491850808 0 -12473633.491850808 -117302357.77837221 0 0 0 -44752900.966509715 4549543.587085247 -1503636.1531126201 0 -1503636.1531126201 -98758346.821557522 0 0 0 -32973081.132065296 -24379351.537389502 11763872.325207278 0 11763872.325207278 -101472116.64311615 0 0 0 -44048013.863176972 8243593.7073611617 894724.2335755825 0 894724.2335755825 -99680400.033630908 0 0 0 -32002882.214194357 -1221755.6033588648 -2470509.3860665634 0 -2470509.3860665634 -100413792.07026517 0 0 0 -35572441.685768366 9966230.0568344593 -129149.97473651171 0 -129149.97473651171 -101435630.90753531 0 0 0 -32014290.297745466 5861902.7340239286 1156315.0448308885 0 1156315.0448308885 -100983661.51095247 0 0 0 -33292615.571924925 5040042.6975445747 -840480.11620783806 0 -840480.11620783806 -101148383.35264897 0 0 0 -33637919.229286551 -10505817.695789129 -667318.36434742808 0 -667318.36434742808 -101784667.27994734 0 0 0 -39301669.741507798 7200806.9042104483 -810913.65776429139 0 -810913.65776429139 -102175159.15331888 0 0 0 -33241023.287187934 -975713.87975871563 330182.09269496799 0 330182.09269496799 -101891069.23186707 0 0 0 -36003374.089069009 5581517.6599636674 -46935.553960859776 0 -46935.553960859776 -102532247.77290112 0 0 0 -33932755.539528072 9149738.9663895369 -843700.27577924728 0 -843700.27577924728 -100478534.95317793 0 0 0 -31965078.595376134 4927082.2897017002 1984970.9361419678 0 1984970.9361419678 -99644324.085908413 0 0 0 -33151034.628672361 2151360.7514046431 643920.68562635779 0 643920.68562635779 -101300033.46616995 0 0 0 -34702035.450167894 -14998720.349271938 -6055770.8837896138 0 -6055770.8837896138 -96424048.142485678 0 0 0 -38997968.972115174 9852750.935965538 -159221.39561903477 0 -159221.39561903477 -100170694.58881342 0 0 0 -31611280.278496981 -119033.89865708351 749874.64048789442 0 749874.64048789442 -97204506.781135082 0 0 0 -34063239.237927318 -203941.34587967396 -340398.21866289526 0 -340398.21866289526 -93199116.264995813 0 0 0 -32691070.163806319 -36760797.701440215 -6910771.8493599966 0 -6910771.8493599966 -84559475.291615933 0 0 0 -42462095.547569655 8437641.355741024 -1031467.2515141368 0 -1031467.2515141368 -101201137.62033129 0 0 0 -32467223.692606807 -861359.23831999302 732635.31826397777 0 732635.31826397777 -102565095.64181173 0 0 0 -36199259.208046079 9318304.9422497749 -780460.84828180075 0 -780460.84828180075 -101504923.62620282 0 0 0 -32265316.539383411 7595323.7400253415 1295519.2616865039 0 1295519.2616865039 -101311562.33046639 0 0 0 -32800683.506654322 3986281.2261341214 273020.27993825078 0 273020.27993825078 -102224360.09620845 0 0 0 -34383327.604525983 -1793429.8358898163 -929679.50512453914 0 -929679.50512453914 -101539590.12785828 0 0 0 -36166556.98731184 -40935720.381932929 7694441.9864067677 0 7694441.9864067677 -89002484.530299857 0 0 0 -45478371.71928148 450501.00579178333 -764952.40115982294 0 -764952.40115982294 -96892750.070334196 0 0 0 -33754787.172589779 1401532.2059621215 450013.60293856263 0 450013.60293856263 -91115439.062718391 0 0 0 -31399867.399864674 9723083.0988984108 189951.26190412045 0 189951.26190412045 -100267917.13628387 0 0 0 -31690691.913085222 10274459.692033261 -124616.19568067789 0 -124616.19568067789 -100832946.45810825 0 0 0 -31695470.368126184 5470594.3959152699 1679060.8003663421 0 1679060.8003663421 -100895494.67652917 0 0 0 -33398715.098214746 5241738.3377982378 -1175232.5417979434 0 -1175232.5417979434 -101230248.22483468 0 0 0 -33595978.460462689 -9203097.291915901 39798.451687902212 0 39798.451687902212 -98553070.188918009 0 0 0 -37714658.618291862 9884107.9925724268 585296.91315072775 0 585296.91315072775 -100692051.72327399 0 0 0 -31782780.305745482 2849405.9188539386 283878.6242416203 0 283878.6242416203 -100858529.30550361 0 0 0 -34303193.18532753 6126640.0926514864 -1798078.6463641524 0 -1798078.6463641524 -99961369.573678732 0 0 0 -32842155.318359494 -14481125.626049101 3494278.8561924696 0 3494278.8561924696 -100134484.37147814 0 0 0 -40115463.4991346 6643805.319614172 -1650034.6273069382 0 -1650034.6273069382 -100348999.92391109 0 0 0 -32796818.111504316 7489491.0220952034 1430050.7002134919 0 1430050.7002134919 -100453024.54411864 0 0 0 -32537236.732708216 -5069587.084626615 5860915.059553653 0 5860915.059553653 -99259864.853136778 0 0 0 -36515308.178217113 -1825280.173956871 -4430199.4533161819 0 -4430199.4533161819 -100690108.42146027 0 0 0 -35880386.008396029 8578905.5060076714 1479.9946033358574 0 1479.9946033358574 -102231598.45011067 0 0 0 -32778442.530436158 6229376.2464629412 477400.20715801418 0 477400.20715801418 -102385421.23784852 0 0 0 -33654615.746984839 9365631.7044072859 -916841.76836431026 0 -916841.76836431026 -100209419.40854475 0 0 0 -31795325.696448017 5797855.845684886 1719562.1196009964 0 1719562.1196009964 -99742794.567258835 0 0 0 -32880728.552550793 730682.40069139004 1047502.0320308218 0 1047502.0320308218 -101186107.74719155 0 0 0 -35159398.871275067 -15068783.290567623 -6736676.7923995107 0 -6736676.7923995107 -99528322.253076047 0 0 0 -40108986.940275297 -4790570.3309245706 9334386.9547400549 0 9334386.9547400549 -101138687.89100361 0 0 0 -37075240.377674878 -15281493.758475259 -15180944.89618817 0 -15180944.89618817 -100698953.74960911 0 0 0 -40593156.627829477 5650917.1252677441 -121794.68918561935 0 -121794.68918561935 -102546894.17434239 0 0 0 -33913591.967176199 6541169.2681238204 -674151.52189171314 0 -674151.52189171314 -102227737.21887955 0 0 0 -33490298.782764599 10218777.849714339 -283140.01394701004 0 -283140.01394701004 -100481484.66085035 0 0 0 -31591947.383897722 10319078.767932594 -318691.4258055687 0 -318691.4258055687 -100414583.59884512 0 0 0 -31533426.690819323 4063796.8432126045 2191187.948761858 0 2191187.948761858 -97896502.457514763 0 0 0 -32841446.965005755 4366749.4306917191 1856437.7831599414 0 1856437.7831599414 -98679987.50859189 0 0 0 -33009633.327265024 3540488.3657213449 -1140647.4348368943 0 -1140647.4348368943 -97852996.595790625 0 0 0 -33009377.880524278 3215222.018065691 -1487152.9004900306 0 -1487152.9004900306 -98776396.491109371 0 0 0 -33446411.065565348 -26673053.249555402 -1898600.5336994156 0 -1898600.5336994156 -96646640.697874874 0 0 0 -43161892.881600581 -22500302.391838223 -3556735.1560765058 0 -3556735.1560765058 -96455444.697016209 0 0 0 -41634511.481099069 8808828.8338060677 -728020.00909972191 0 -728020.00909972191 -99747580.244888574 0 0 0 -31828562.993878812 4198935.9615192413 1604567.7333400473 0 1604567.7333400473 -98124825.903315067 0 0 0 -32874061.479628801 1341749.3651930094 1345692.6579747647 0 1345692.6579747647 -97901680.35695529 0 0 0 -33795975.847116828 -28643108.640943296 -10579662.317000046 0 -10579662.317000046 -99627495.553741008 0 0 0 -44894711.468139507 5872407.5322966576 -1471541.7756574154 0 -1471541.7756574154 -98881512.771751881 0 0 0 -32553186.833809376 7427517.425034821 1092668.309833169 0 1092668.309833169 -99727071.80507195 0 0 0 -32304844.033013165 -19623468.720005296 10482870.311613113 0 10482870.311613113 -104119255.7366551 0 0 0 -43309953.559831105 -5828331.6553459764 -6517231.2244025245 0 -6517231.2244025245 -102960762.52730131 0 0 0 -38076182.963926554 -279561.64695012569 4947966.9456809834 0 4947966.9456809834 -100605150.50694203 0 0 0 -35309649.253862143 -17037998.826557696 -12982560.510725111 0 -12982560.510725111 -95057565.539909899 0 0 0 -39233447.528263628 10377376.664729118 127128.71670010686 0 127128.71670010686 -100533202.57911348 0 0 0 -31554539.070034504 4079612.0400092602 1676337.3209642768 0 1676337.3209642768 -98579520.613134861 0 0 0 -33074968.000593901 4500804.3188223839 -1788370.3446366191 0 -1788370.3446366191 -98728992.320161462 0 0 0 -32979865.800468802 -22863907.623148739 1537227.6775337309 0 1537227.6775337309 -97618711.529702187 0 0 0 -42168916.703497827 9635659.4009143114 138381.63512521982 0 138381.63512521982 -101632172.92060995 0 0 0 -32198779.731893539 6198512.0296764374 741466.05839461088 0 741466.05839461088 -102186544.62230647 0 0 0 -33595811.407420635 9839668.7947268486 -616037.86843290925 0 -616037.86843290925 -100134130.21844769 0 0 0 -31603061.498302221 3642865.8273511529 1896380.4229663014 0 1896380.4229663014 -99462418.576779723 0 0 0 -33536843.462300003 2516393.1844879091 -425494.99764341116 0 -425494.99764341116 -99804339.145444691 0 0 0 -34050781.086334974 -18210157.721241564 -6264832.7339040823 0 -6264832.7339040823 -92674487.745003939 0 0 0 -38809625.913185954 5804627.2446964979 -798128.06244897842 0 -798128.06244897842 -102296263.31989169 0 0 0 -33772072.626318336 7704312.7791110277 -362016.18308269978 0 -362016.18308269978 -102410581.49337411 0 0 0 -33147194.049992085 5352215.0598822311 -291071.49074596167 0 -291071.49074596167 -102744976.9475581 0 0 0 -34087466.660686664 9844753.7337208986 -503251.61862289906 0 -503251.61862289906 -100336196.98983026 0 0 0 -31672005.139638186 4667365.7978345156 2104046.5576856732 0 2104046.5576856732 -97479538.72094202 0 0 0 -32484260.523087859 3065188.4096177816 -555687.59199601412 0 -555687.59199601412 -97432503.369980574 0 0 0 -33028560.2361269 -28940910.095851347 -4815618.1897069141 0 -4815618.1897069141 -98806540.602591157 0 0 0 -44711607.744454876 7050847.3371239789 627878.22851699591 0 627878.22851699591 -101979947.88062119 0 0 0 -33225185.190223943 10333275.861921787 338571.17644894123 0 338571.17644894123 -100379233.82425833 0 0 0 -31516085.286817789 3788257.6128219366 1225626.4809840918 0 1225626.4809840918 -99941384.90878737 0 0 0 -33653594.553587794 4372906.6777387261 -2063343.8223801255 0 -2063343.8223801255 -99457863.684890389 0 0 0 -33279734.952502906 -17095536.575184971 2264013.646534387 0 2264013.646534387 -94196540.424793124 0 0 0 -38952226.949992299 1027005.4228481404 3010455.2585859299 0 3010455.2585859299 -99745426.436322898 0 0 0 -34551447.354716085 -3241752.0557849705 5833628.2378371954 0 5833628.2378371954 -103087161.81456149 0 0 0 -37215119.854621321 -25403116.449147783 -15674984.301550448 0 -15674984.301550448 -93471720.746359229 0 0 0 -41606193.018427439 -31860218.790956914 -17428383.872221123 0 -17428383.872221123 -98198820.7993007 0 0 0 -45520663.856590152 6592391.2041623592 63476.546890109777 0 63476.546890109777 -102454970.87077403 0 0 0 -33551902.883314013 -15323993.152274877 -13864023.591884896 0 -13864023.591884896 -108460899.28040576 0 0 0 -43324712.351438254 -21074249.718264028 16334101.493554041 0 16334101.493554041 -105356840.75084597 0 0 0 -44250881.664188489 6625969.8872192204 -775749.43853807449 0 -775749.43853807449 -100429283.95629103 0 0 0 -32831159.924174994 7175318.3012550324 -937696.25914943218 0 -937696.25914943218 -99572616.351902276 0 0 0 -32339054.317726806 3136697.32335639 1282632.3054994484 0 1282632.3054994484 -99237781.044481277 0 0 0 -33635379.302393675 4084252.6964113712 1242516.269557666 0 1242516.269557666 -99190891.860631466 0 0 0 -33287323.707476854 -30038752.540221147 16940204.634404872 0 16940204.634404872 -97957576.573178247 0 0 0 -44798715.189689793 -2867230.3172492981 -5791076.5229503214 0 -5791076.5229503214 -102765191.31743628 0 0 0 -36971347.572139978 2470001.4369586706 -896239.97249186039 0 -896239.97249186039 -99235379.141639471 0 0 0 -33867882.196638227 5792293.8640267849 517116.24637767673 0 517116.24637767673 -100190644.4549818 0 0 0 -33039422.706834555 -24318123.099509604 14858040.021149531 0 14858040.021149531 -93149013.918425858 0 0 0 -41113497.956277423 776251.75264376402 -2903689.7919092029 0 -2903689.7919092029 -101384074.21317744 0 0 0 -35212737.861186743 2142237.5467352867 -1075725.4303241968 0 -1075725.4303241968 -99589079.732433796 0 0 0 -34106394.764994383 6810885.9113500118 662088.96735572815 0 662088.96735572815 -99824685.409938335 0 0 0 -32554829.824506044 7767936.969674468 -1550588.2130708694 0 -1550588.2130708694 -100418509.16225386 0 0 0 -32427700.267402887 7509118.8008840084 -1424379.0758938342 0 -1424379.0758938342 -100121805.36282492 0 0 0 -32414440.296679258 7595888.8438754082 1532105.1579465866 0 1532105.1579465866 -100641575.56538582 0 0 0 -32565990.352528572 7912646.2285810113 1462961.415664196 0 1462961.415664196 -99641255.357728958 0 0 0 -32105013.195201576 -2850806.4564430714 4012381.8469032645 0 4012381.8469032645 -100768166.21922362 0 0 0 -36266640.436483264 -7401952.0694369525 5590945.6497614086 0 5590945.6497614086 -103586607.09295952 0 0 0 -38845995.706838772 -2343324.9851951599 -4291101.3732258976 0 -4291101.3732258976 -101045525.51144612 0 0 0 -36186097.67382443 -6439216.760735333 -4702496.8438692465 0 -4702496.8438692465 -102699154.85109448 0 0 0 -38198430.064140379 3676048.4641621113 -1591276.0615345836 0 -1591276.0615345836 -98370472.679694653 0 0 0 -33143048.475436449 7902061.7536447048 780716.78194797039 0 780716.78194797039 -100339267.33729744 0 0 0 -32353021.954278469 -28710007.657793045 10648571.238474596 0 10648571.238474596 -97395819.30928573 0 0 0 -44137039.438477576 286955.58676749468 -2618261.0313314199 0 -2618261.0313314199 -100034627.92432606 0 0 0 -34911685.318145454 5236514.1277395487 70372.940064042807 0 70372.940064042807 -102283841.52891254 0 0 0 -33966564.59041059 3973427.2406936884 -296293.42319223098 0 -296293.42319223098 -102113538.81928372 0 0 0 -34349039.052506447 4801722.1389838457 -184135.93261066079 0 -184135.93261066079 -101996185.87779868 0 0 0 -34018062.308585167 5826810.1102018356 -996874.76890349388 0 -996874.76890349388 -99558003.164138556 0 0 0 -32805917.568877935 4295428.8925011158 1033841.6958060861 0 1033841.6958060861 -99888231.696328163 0 0 0 -33457480.981339455 -4036594.4154713452 8068899.6059212089 0 8068899.6059212089 -105498299.42551351 0 0 0 -38337212.844344735 -17472495.283137769 -14629244.589725569 0 -14629244.589725569 -95590337.701153576 0 0 0 -39571991.54450196 -21286224.658810198 25455167.314393237 0 25455167.314393237 -98713889.631636858 0 0 0 -42000040.001656473 -7289332.6021790057 -14063791.834189668 0 -14063791.834189668 -108254290.92072204 0 0 0 -40440268.233015314 4146364.3960769176 -1904416.5280769765 0 -1904416.5280769765 -97929413.518391609 0 0 0 -32824067.192810059 -28404973.749159746 7079027.4415343702 0 7079027.4415343702 -97856910.20869185 0 0 0 -44191659.385248028 9282160.5627932549 594660.15200138092 0 594660.15200138092 -100344150.81351304 0 0 0 -31871696.587751865 1549415.0949282646 -234051.2706129849 0 -234051.2706129849 -98218800.938119411 0 0 0 -33834285.045116901 -17296222.180472478 17350068.07729134 0 17350068.07729134 -98713669.97761783 0 0 0 -40603462.255331621 -2545295.3668079972 -10442175.006636292 0 -10442175.006636292 -102386223.97741878 0 0 0 -36726031.770479351 7701023.2063169479 -170872.56393289566 0 -170872.56393289566 -100133083.95585489 0 0 0 -32351221.262338638 676952.43119349552 325163.39826464653 0 325163.39826464653 -97913545.319083869 0 0 0 -34032807.510761596 983852.9778811374 -60542.963809370995 0 -60542.963809370995 -86650797.970783085 0 0 0 -29983430.747515675 -50631004.488113359 -14868584.862135379 0 -14868584.862135379 -94035588.650720298 0 0 0 -50633307.598591775 10676790.729161978 -39057.362828373909 0 -39057.362828373909 -99931540.703223228 0 0 0 -31239162.490921497 1485074.2965710163 681691.37187534571 0 681691.37187534571 -94542592.21210289 0 0 0 -32570131.270436287 687985.82588326931 -1007210.8704891503 0 -1007210.8704891503 -93979940.986325741 0 0 0 -32652184.306154728 -39578224.174275793 -2307476.9964938797 0 -2307476.9964938797 -87965456.005417749 0 0 0 -44640288.062892735 820328.91374063492 268504.75711250305 0 268504.75711250305 -101131033.3430059 0 0 0 -35108746.550242722 2781565.0777466297 -854284.71111547947 0 -854284.71111547947 -100068931.64726543 0 0 0 -34050578.299331546 4734837.6805515289 620077.06778156757 0 620077.06778156757 -100177597.04895639 0 0 0 -33404965.778941393 6749817.0475817919 -217193.14331449568 0 -217193.14331449568 -102418079.06265783 0 0 0 -33483891.705276608 1063742.6092379093 -1403926.0612221211 0 -1403926.0612221211 -96137972.564924717 0 0 0 -33275980.484490514 2104099.4669436216 -1327987.2350760102 0 -1327987.2350760102 -93429419.610022545 0 0 0 -31963862.050077796 4530217.4675806761 -244813.64019215107 0 -244813.64019215107 -99760201.694063187 0 0 0 -33330494.479269147 789199.12748885155 327479.12791764736 0 327479.12791764736 -99795100.109983921 0 0 0 -34652065.343873262 4369902.2074155584 328520.16836500168 0 328520.16836500168 -100435972.22853185 0 0 0 -33623124.507390521 1476036.6954572201 -501376.14809155837 0 -501376.14809155837 -99694936.617645264 0 0 0 -34376614.972765923 -4103517.1575142741 -8646897.3931019958 0 -8646897.3931019958 -106513865.35572487 0 0 0 -38716083.879633725 -36580915.542071693 22146337.492807887 0 22146337.492807887 -97137845.522966966 0 0 0 -46801566.372763522 4818705.4644265771 241318.41473245621 0 241318.41473245621 -99588832.381303549 0 0 0 -33169544.420906961 955406.77358531952 -305366.06411990523 0 -305366.06411990523 -99562146.762743473 0 0 0 -34512358.99620533 4557481.3888473511 -3640970.1728932559 0 -3640970.1728932559 -96840505.799617529 0 0 0 -32299058.543769598 -38667212.245364152 24555197.399568383 0 24555197.399568383 -95513974.091859639 0 0 0 -46963415.218028322 4366737.1425894201 3582685.9080370069 0 3582685.9080370069 -96552262.649786592 0 0 0 -32264933.927518964 -38325893.311069526 -24475990.874111064 0 -24475990.874111064 -95441404.344961107 0 0 0 -46818554.179610714 -3879324.2971656322 8140130.1235319078 0 8140130.1235319078 -107026340.67377901 0 0 0 -38816982.739830613 -33236635.297640003 -21321777.514203675 0 -21321777.514203675 -95750121.014234036 0 0 0 -45145364.70915591 8868073.4189343452 618548.1566259861 0 618548.1566259861 -101927904.8958652 0 0 0 -32570941.016925812 7784457.2002218962 -11057.397282838821 0 -11057.397282838821 -102503476.41804254 0 0 0 -33151656.726237297 1974253.8916866183 -152573.00871288776 0 -152573.00871288776 -102625538.09004581 0 0 0 -35227949.469425619 2817688.9783234447 -787368.89550438523 0 -787368.89550438523 -101745845.34277233 0 0 0 -34624854.727557197 2330486.0818251595 -688945.94250828028 0 -688945.94250828028 -102638614.41898909 0 0 0 -35107844.918007471 -2557698.2234450132 637783.90178981423 0 637783.90178981423 -102409412.72756863 0 0 0 -36738488.832854703 3686636.6196379662 -1835285.1248170137 0 -1835285.1248170137 -99297502.645978689 0 0 0 -33463803.109219313 -20024500.21280852 8103911.6576550007 0 8103911.6576550007 -93659798.438706905 0 0 0 -39789504.528030396 8973052.5122523308 708906.92426347733 0 708906.92426347733 -100149861.38723755 0 0 0 -31911883.106244802 2368167.5308381319 -724590.75027050078 0 -724590.75027050078 -99615525.855307341 0 0 0 -34036575.413564205 6742209.166877389 763639.64647352695 0 763639.64647352695 -102072018.30753368 0 0 0 -33365433.199229717 9853266.9482884407 575899.05364856124 0 575899.05364856124 -100734576.46814775 0 0 0 -31808458.331950903 5359862.8743903041 -2163803.55643332 0 -2163803.55643332 -99592896.125176072 0 0 0 -32981561.637775004 3569911.6551240087 389540.28435659409 0 389540.28435659409 -100793609.6436851 0 0 0 -34028294.295996249 -15117297.03466934 2589295.3678832576 0 2589295.3678832576 -97551597.07022208 0 0 0 -39434112.936711967 4388041.4974560738 -322923.82439365983 0 -322923.82439365983 -99937515.776068211 0 0 0 -33442315.997514248 2223984.3734402657 429717.83691525459 0 429717.83691525459 -99138900.716683149 0 0 0 -33920220.720134974 4553198.2277362347 -464173.9850086784 0 -464173.9850086784 -100253056.01498795 0 0 0 -33494950.225538015 1554798.3701380063 640242.27067148685 0 640242.27067148685 -99973981.067994177 0 0 0 -34446713.944249555 5487530.9350008965 -1551666.3324313462 0 -1551666.3324313462 -100092830.48734045 0 0 0 -33111854.843318939 7488017.9063310623 1310222.5482932329 0 1310222.5482932329 -100285961.11832798 0 0 0 -32479280.124198914 -9409600.9350362122 8600248.614578709 0 8600248.614578709 -97997346.321385235 0 0 0 -37592431.539747506 -981417.60561054945 -4929352.2506390586 0 -4929352.2506390586 -101306855.19415843 0 0 0 -35800895.479919136 3197291.640242219 -266437.17128199339 0 -266437.17128199339 -102747329.02156568 0 0 0 -34842513.083463192 4198503.0570842028 -346694.8548860997 0 -346694.8548860997 -102752207.41696548 0 0 0 -34493796.525958419 4898396.1106261015 -721293.98104727268 0 -721293.98104727268 -100099163.77654487 0 0 0 -33320268.683071494 3098972.2091724873 857201.32828747481 0 857201.32828747481 -99898375.115805149 0 0 0 -33879791.017321587 5201924.3033220768 -1431490.2787608504 0 -1431490.2787608504 -100193702.75789022 0 0 0 -33247122.459098816 6271733.6234768629 1298892.0104353428 0 1298892.0104353428 -100108776.57446384 0 0 0 -32842965.032845378 -7866873.1570417583 9621537.2857955545 0 9621537.2857955545 -99125003.842945039 0 0 0 -37447156.949995309 -3278741.4039487243 -7648076.4320135564 0 -7648076.4320135564 -99688795.930283308 0 0 0 -36038638.066981196 7317180.8820717335 -1375657.0275932848 0 -1375657.0275932848 -101841927.71692896 0 0 0 -33083661.392199755 7859974.0848106146 -1268056.1104595363 0 -1268056.1104595363 -100789376.88147759 0 0 0 -32525290.978833318 -1533588.6197596788 1258427.9626657367 0 1258427.9626657367 -100926237.94074798 0 0 0 -35860939.296177626 -5140626.9383819699 1561150.3949535787 0 1561150.3949535787 -102649392.16639858 0 0 0 -37726506.686673224 10373472.550559044 -183506.58066654205 0 -183506.58066654205 -100147637.76794291 0 0 0 -31420957.826084256 10208848.463335514 -279761.89736807346 0 -279761.89736807346 -100020209.50611067 0 0 0 -31433976.36497128 2386095.3190954924 1341754.8124119937 0 1341754.8124119937 -95210477.549314737 0 0 0 -32488533.780576587 1491777.0420233011 1283136.9784992337 0 1283136.9784992337 -97697847.426381111 0 0 0 -33672124.634524941 -40198186.891395956 -4644492.6146328263 0 -4644492.6146328263 -93673138.50050725 0 0 0 -46854963.887166128 -30552695.336669043 -5958698.5537633523 0 -5958698.5537633523 -88179548.291361764 0 0 0 -41556285.269810781 9482138.6072303057 -320667.27318805456 0 -320667.27318805456 -101496861.85909915 0 0 0 -32205153.138153911 7226129.9039415121 1106699.1053674519 0 1106699.1053674519 -101930193.05168128 0 0 0 -33146422.101708889 9658727.2866285145 -341343.92046976089 0 -341343.92046976089 -101538796.33270139 0 0 0 -32158024.166125506 6571071.2532777786 1096882.4594045952 0 1096882.4594045952 -101628031.02534294 0 0 0 -33269935.920222759 3714314.3618719578 -424358.79819393158 0 -424358.79819393158 -100096824.72173166 0 0 0 -33733878.625950813 1813984.7101762295 404804.82547646761 0 404804.82547646761 -100024480.45883417 0 0 0 -34373673.512030125 -28507804.345260024 25847593.509668455 0 25847593.509668455 -102365401.03280815 0 0 0 -45805621.882323861 -6311647.6150909662 -10077756.144447699 0 -10077756.144447699 -103427610.12682933 0 0 0 -38408740.209672034 8549949.5413606167 -486732.37273126841 0 -486732.37273126841 -99837312.436355591 0 0 0 -31950577.013248205 2574488.4659478664 1174101.1671497822 0 1174101.1671497822 -97504384.196425438 0 0 0 -33225463.505666971 1678958.7648103237 113636.88727203012 0 113636.88727203012 -94226316.642567039 0 0 0 -32391575.257214785 -37739110.866140135 -12684585.121061888 0 -12684585.121061888 -96608032.636252493 0 0 0 -47021500.225837417 10126679.97561717 -508782.2640581727 0 -508782.2640581727 -100652088.00159883 0 0 0 -31683892.809093595 6165843.7536205053 1813533.2429015338 0 1813533.2429015338 -100964602.24529123 0 0 0 -33179565.47208488 4120980.1917409897 -623716.54324650764 0 -623716.54324650764 -101168143.22933912 0 0 0 -33966507.063159227 -8087396.0330113173 -2772353.7059700638 0 -2772353.7059700638 -98289337.604472041 0 0 0 -37231856.773119152 8825645.1349804401 -362422.07334458828 0 -362422.07334458828 -101709360.68548059 0 0 0 -32509300.442674994 9678365.4041665792 -743760.56707680225 0 -743760.56707680225 -100824941.34798622 0 0 0 -31901301.580336928 6826095.0761191845 1677742.9427070022 0 1677742.9427070022 -101287899.24150515 0 0 0 -33061631.457885027 3343671.6752171516 -117895.54399514198 0 -117895.54399514198 -101986538.85077333 0 0 0 -34525003.511444688 -3971743.0945450664 -2073722.5026760101 0 -2073722.5026760101 -99021199.64048022 0 0 0 -36047529.95725888 10307039.449816465 -113937.26764822006 0 -113937.26764822006 -100712285.49756932 0 0 0 -31641836.116713524 5642576.5098392963 1512647.6696683764 0 1512647.6696683764 -100356142.10422444 0 0 0 -33149747.958034754 4838778.8755403161 -1483780.5129087567 0 -1483780.5129087567 -100228655.61059463 0 0 0 -33386456.857268989 -14175529.783765256 -1516116.4486336857 0 -1516116.4486336857 -99338073.630787969 0 0 0 -39729761.195093662 9697734.4362151623 -341681.82563024759 0 -341681.82563024759 -101561510.60422444 0 0 0 -32152321.658803225 6709739.3397881985 1047016.1371538043 0 1047016.1371538043 -101409382.21976995 0 0 0 -33144875.00799346 9543284.206918627 -319738.93385529518 0 -319738.93385529518 -101499777.49343023 0 0 0 -32184772.650279135 7337861.7944111824 1064165.6141658425 0 1064165.6141658425 -101739270.17554998 0 0 0 -33040492.933398724 9932342.180564642 -452529.24495840073 0 -452529.24495840073 -100106873.03639865 0 0 0 -31561085.79954195 2756072.7063164711 1716294.3439137936 0 1716294.3439137936 -98688823.995604515 0 0 0 -33576462.951250792 2121651.6031297445 -1225275.1445343792 0 -1225275.1445343792 -98315405.315316439 0 0 0 -33667813.799265265 -24289321.720674366 -6357107.4991648793 0 -6357107.4991648793 -91512276.15266341 0 0 0 -40530559.255668223 -38320607.977617517 1197594.762382362 0 1197594.762382362 -88982983.542187601 0 0 0 -44556257.031931803 1731588.0359145403 738020.93776080012 0 738020.93776080012 -93386972.200097322 0 0 0 -32079384.45746398 1037319.2568273544 -1503364.4666574895 0 -1503364.4666574895 -95738350.363144398 0 0 0 -33145360.887210846 10512604.513012767 108438.68102097511 0 108438.68102097511 -100058275.92512965 0 0 0 -31340984.994240642 10270335.352737665 -346852.06095993519 0 -346852.06095993519 -100578258.87885904 0 0 0 -31607773.234142303 4304261.8755252361 2031471.216986835 0 2031471.216986835 -99595674.171288729 0 0 0 -33351994.303517103 3450445.0597817898 -1236067.8122155666 0 -1236067.8122155666 -100294884.839221 0 0 0 -33895553.922803402 -16620507.976305246 -2281277.1552815288 0 -2281277.1552815288 -94764693.988431334 0 0 0 -38984820.687657833 6915199.4751982093 229074.29993778467 0 229074.29993778467 -102373364.65543485 0 0 0 -33410357.813082755 7979980.7172765732 -1183159.7642041072 0 -1183159.7642041072 -100364804.48099232 0 0 0 -32334688.317300558 6670984.8731664643 1553435.9509931803 0 1553435.9509931803 -99282169.086465806 0 0 0 -32413914.474654771 -3359326.8417677265 4960801.2412512898 0 4960801.2412512898 -103011605.24094974 0 0 0 -37229826.228951097 -13864830.488164067 -7615357.4942343794 0 -7615357.4942343794 -101701765.88147509 0 0 0 -40448308.729373693 10134343.53527391 517637.36447006464 0 517637.36447006464 -100237817.98673844 0 0 0 -31536216.058012486 9593986.6095323563 631902.71139764786 0 631902.71139764786 -100612169.50664139 0 0 0 -31856364.013988137 3277584.5761405826 1014193.1447312832 0 1014193.1447312832 -99999555.31978488 0 0 0 -33852689.760275543 4755152.6839421988 -1935633.4278128743 0 -1935633.4278128743 -99499554.375003338 0 0 0 -33160540.591871381 5194796.3771630526 -1959582.2081412673 0 -1959582.2081412673 -98422898.269935608 0 0 0 -32629835.662470341 1952120.7127506733 -121504.00231835246 0 -121504.00231835246 -99869110.946017027 0 0 0 -34270946.581643343 -17230500.78166151 4506374.5643028617 0 4506374.5643028617 -95834855.524565041 0 0 0 -39572874.707179293 -23553798.026129022 5444266.697647959 0 5444266.697647959 -99729617.028292924 0 0 0 -43149195.269047678 7854972.6999257207 -1448677.7629355788 0 -1448677.7629355788 -101595364.08933826 0 0 0 -32809136.986294448 242004.07457345724 1695704.0550619997 0 1695704.0550619997 -100279442.0359515 0 0 0 -35013103.286482215 9158125.6767287254 982699.16238084435 0 982699.16238084435 -101117287.10717678 0 0 0 -32185706.500656843 4071380.0595355034 -647448.28616213799 0 -647448.28616213799 -99024725.144067287 0 0 0 -33233670.779586315 3965918.5236086845 547481.2597489357 0 547481.2597489357 -99419981.200009584 0 0 0 -33408921.936740279 -20380668.388307601 19638003.824734479 0 19638003.824734479 -110809566.49000195 0 0 0 -45916582.207408369 -24491936.391215652 -19246407.584113169 0 -19246407.584113169 -110246811.58462423 0 0 0 -47158561.791543961 5595394.8947412968 687418.24580609798 0 687418.24580609798 -102022698.87167943 0 0 0 -33749556.391928434 2653698.7562530041 -1175599.7408826351 0 -1175599.7408826351 -97497249.31117332 0 0 0 -33195242.694222212 -36676279.972881168 12366210.013260055 0 12366210.013260055 -96220654.57634908 0 0 0 -46513927.092230588 8768157.0611174107 488419.88435390592 0 488419.88435390592 -99986050.12746048 0 0 0 -31926262.573219776 906005.11415466666 287633.14499661326 0 287633.14499661326 -94946999.176684082 0 0 0 -32914347.921885461 7708201.6053883433 245159.2544875741 0 245159.2544875741 -102542669.97809947 0 0 0 -33192063.93044883 4466050.3337727785 -283336.59531249106 0 -283336.59531249106 -101730957.87271738 0 0 0 -34042717.638630509 791418.81181240082 -525555.86276257038 0 -525555.86276257038 -97563127.899301052 0 0 0 -33870098.180620909 -40230496.51471547 13310381.157776089 0 13310381.157776089 -88055940.668448463 0 0 0 -44900253.014107376 8714687.6411516666 295689.95330309868 0 295689.95330309868 -99716748.404769897 0 0 0 -31850721.267266512 -571119.21393537521 1228953.6070874259 0 1228953.6070874259 -91477139.246091366 0 0 0 -32216890.461009502 9869526.9805089533 -598327.0363650322 0 -598327.0363650322 -100775948.67824394 0 0 0 -31817247.594207376 9802019.0230519772 -587052.14442825317 0 -587052.14442825317 -100903304.57633948 0 0 0 -31885449.943650723 6477031.7750403881 1751010.7819308341 0 1751010.7819308341 -99827878.978551149 0 0 0 -32672796.52122879 5330313.134324193 2062802.0006404072 0 2062802.0006404072 -99862599.6560359 0 0 0 -33086300.282599092 2532679.9473301172 -26836.482870429754 0 -26836.482870429754 -101054462.27996039 0 0 0 -34482623.816420555 3092843.0569951534 -294397.06326361001 0 -294397.06326361001 -101196907.64350629 0 0 0 -34336422.60527885 -14436688.237447441 -3711482.1819551885 0 -3711482.1819551885 -101615210.39373279 0 0 0 -40618164.520913064 -13772690.612545736 -2957060.5560867786 0 -2957060.5560867786 -97423258.995930657 0 0 0 -38918582.362966724 9653545.3597738743 -630557.81933498383 0 -630557.81933498383 -100566897.70611238 0 0 0 -31819673.321218252 5318512.5001447201 1964026.6637037992 0 1964026.6637037992 -98615220.378603458 0 0 0 -32653847.757460713 2063497.0493285656 54639.09434056282 0 54639.09434056282 -99524142.804443121 0 0 0 -34111226.014290094 -22027600.459911108 -5737180.0063311532 0 -5737180.0063311532 -99734630.43062979 0 0 0 -42616780.811689317 10441930.428220749 -253454.39809951186 0 -253454.39809951186 -100064859.29882669 0 0 0 -31368025.104711771 3066662.4178652763 1631354.7493627667 0 1631354.7493627667 -97771883.008856416 0 0 0 -33146827.206846952 2888869.6710175574 -1300481.8261820674 0 -1300481.8261820674 -95148460.592557371 0 0 0 -32290856.822538823 -26678317.109467313 -4164907.4176204242 0 -4164907.4176204242 -91527682.462433249 0 0 0 -41372099.850165203 10083344.939718485 -330863.60988891125 0 -330863.60988891125 -100312303.74638844 0 0 0 -31580135.58233428 3533506.3378644288 1782169.982863903 0 1782169.982863903 -96382728.184317887 0 0 0 -32497227.646258801 2472688.3623877168 -1882258.6337044835 0 -1882258.6337044835 -97570868.257971525 0 0 0 -33284362.963454306 -35307584.831864208 -5315660.2743549924 0 -5315660.2743549924 -96705425.0101372 0 0 0 -46204553.444700494 10042897.044631004 -533778.51488500834 0 -533778.51488500834 -100345947.71541548 0 0 0 -31606067.73477459 4275476.3434913754 2059771.9384561777 0 2059771.9384561777 -99268866.889872789 0 0 0 -33247686.691233456 3168116.7408806682 -927110.76436418295 0 -927110.76436418295 -99958632.48456192 0 0 0 -33876680.510288417 -19104921.495998532 -3989830.6477185823 0 -3989830.6477185823 -94434749.987773061 0 0 0 -39738885.019320041 7123770.6669813097 -1442828.3429207802 0 -1442828.3429207802 -99291194.628878772 0 0 0 -32258598.386664301 7690324.3880810738 1299540.335040465 0 1299540.335040465 -99888366.85290432 0 0 0 -32269314.862688065 -12879764.735487521 7528673.2898686454 0 7528673.2898686454 -103519746.10749936 0 0 0 -40739828.795045435 -7417702.988164112 -5870268.9822233617 0 -5870268.9822233617 -104038167.77778015 0 0 0 -39009554.768080577 5422566.8803255558 -1798784.7036376745 0 -1798784.7036376745 -99364290.413831711 0 0 0 -32879603.236727238 10262889.928598523 340686.6359205246 0 340686.6359205246 -100553455.01240942 0 0 0 -31601697.779333711 -18473131.330451373 2853198.1509718299 0 2853198.1509718299 -99305546.510587335 0 0 0 -41222537.244363576 3967012.7887482643 1183086.0019665956 0 1183086.0019665956 -99810489.40741992 0 0 0 -33545216.816535234 1203436.7401108742 -1004777.348215878 0 -1004777.348215878 -98337772.621938229 0 0 0 -33997017.558639407 -35991494.285439208 10744314.315833438 0 10744314.315833438 -90219462.04903543 0 0 0 -44173834.717066094 8469207.7724947929 337086.13694107533 0 337086.13694107533 -100254704.48949468 0 0 0 -32124923.850950003 1310533.8436276913 -378283.05509802699 0 -378283.05509802699 -93971132.462500811 0 0 0 -32431209.516605675 9860031.8680546284 74850.69109325856 0 74850.69109325856 -101454533.47652769 0 0 0 -32058075.562965631 5243195.4848844185 739420.79898041487 0 739420.79898041487 -101860382.30863278 0 0 0 -33816015.388311826 10593401.688971937 -69011.59498667717 0 -69011.59498667717 -100110627.9671464 0 0 0 -31331029.197360814 2552816.7390631437 1606818.9965030998 0 1606818.9965030998 -97664837.515165567 0 0 0 -33289207.271635771 2391811.4326124191 -1986699.3650767654 0 -1986699.3650767654 -97733514.445648193 0 0 0 -33369596.05456233 -26476179.037619613 -1401331.3718799502 0 -1401331.3718799502 -90529062.70337224 0 0 0 -40951834.609347142 7976855.8584577441 -96553.40379345417 0 -96553.40379345417 -102184135.16327178 0 0 0 -32972547.75668484 6349141.1733064651 -740706.767318964 0 -740706.767318964 -99320822.989620209 0 0 0 -32540088.635710001 3570997.1144106388 934218.6773982048 0 934218.6773982048 -99052165.922340155 0 0 0 -33418409.082775474 3515821.5478944778 -565340.36804741621 0 -565340.36804741621 -100284536.81705523 0 0 0 -33869050.344206095 2865500.1071116924 612014.47338974476 0 612014.47338974476 -99655036.158423901 0 0 0 -33876337.617959261 -25900203.808475792 19114324.862142526 0 19114324.862142526 -104200041.53682351 0 0 0 -45535085.870854765 -9954737.8320738524 -12689646.525355592 0 -12689646.525355592 -106694214.73989956 0 0 0 -40827133.400190696 10111457.512804747 -562590.9770270586 0 -562590.9770270586 -100286405.11878729 0 0 0 -31561231.662094355 5301615.9638934135 1751314.2489954233 0 1751314.2489954233 -99399647.272535443 0 0 0 -32934310.95802474 3356384.6046010256 -1004165.6339225769 0 -1004165.6339225769 -100015983.78715074 0 0 0 -33830859.713892341 -17796750.129039884 -5524888.7361070216 0 -5524888.7361070216 -97728532.424388885 0 0 0 -40433848.893700123 -3368185.6098110974 10161364.915303715 0 10161364.915303715 -104836763.49684376 0 0 0 -37871732.187329262 -15798776.530207328 -18070106.260347292 0 -18070106.260347292 -97249750.51281704 0 0 0 -39566984.465058498 5580785.6351795197 263138.38667362928 0 263138.38667362928 -102480868.08645391 0 0 0 -33915028.857946157 4602858.5596692562 -283889.37282115221 0 -283889.37282115221 -102532563.19949865 0 0 0 -34275396.623940468 8105577.1514360905 -1396864.8114352822 0 -1396864.8114352822 -100978175.15168715 0 0 0 -32505409.300087929 8213648.0272153616 1438465.4960998297 0 1438465.4960998297 -100282366.0874474 0 0 0 -32224051.321081281 -897692.37689048052 2918396.8598206639 0 2918396.8598206639 -101616801.45628345 0 0 0 -35880072.841610968 -2184705.0453721285 -3331845.8452687562 0 -3331845.8452687562 -100561206.30561984 0 0 0 -35961068.972847223 -756912.74118262529 -1448392.8928439915 0 -1448392.8928439915 -102544174.72145414 0 0 0 -36155380.61192286 10538398.765195556 -52125.484337925911 0 -52125.484337925911 -100168242.60911536 0 0 0 -31370445.345371775 2586877.0166658163 1969522.698209513 0 1969522.698209513 -96077378.673392296 0 0 0 -32721675.57985425 3159549.8183890581 -1379922.9635497145 0 -1379922.9635497145 -95354649.028409243 0 0 0 -32268284.723507047 -34735008.609655902 741822.39711166918 0 741822.39711166918 -94053530.62301819 0 0 0 -45075988.73143594 9464936.9914169312 628553.75221455097 0 628553.75221455097 -101234831.4130528 0 0 0 -32119463.047572494 9303884.7453434467 754587.07354038954 0 754587.07354038954 -101505333.95972037 0 0 0 -32270507.225032091 6953663.2572051287 -527967.41306096315 0 -527967.41306096315 -102233658.01318014 0 0 0 -33347998.164591193 4856885.274851799 -104273.16424548626 0 -104273.16424548626 -99930617.632340908 0 0 0 -33275806.325121164 805674.49035477638 237015.69990372658 0 237015.69990372658 -99169735.074367523 0 0 0 -34427421.204404354 529211.32137505373 2688246.4624971747 0 2688246.4624971747 -88943352.814741284 0 0 0 -30944949.522678215 -53390899.855408825 -23036573.933793344 0 -23036573.933793344 -99142942.35031727 0 0 0 -53386844.772004135 793726.3026594033 -270145.56628727913 0 -270145.56628727913 -99157373.675189212 0 0 0 -34427276.58038532 -53705157.41175279 23065380.5194676 0 23065380.5194676 -99727422.706119269 0 0 0 -53701403.041255221 4721231.0382921696 110035.8560121605 0 110035.8560121605 -100042838.16024303 0 0 0 -33362562.492682695 788153.25036570034 -2667509.7193310261 0 -2667509.7193310261 -88398346.527966335 0 0 0 -30663567.647160266 8857584.375877142 -1231686.1092350781 0 -1231686.1092350781 -100566752.45229197 0 0 0 -32098208.826745272 7696663.3364778757 1500339.7251437306 0 1500339.7251437306 -101236526.25929284 0 0 0 -32738952.022985339 -992637.93333271146 2189409.3496593237 0 2189409.3496593237 -101847154.78295082 0 0 0 -35993927.450699121 -4106924.096889019 -3400976.635521993 0 -3400976.635521993 -101598791.31033981 0 0 0 -36997000.392530084 10494234.715370476 129015.3620095253 0 129015.3620095253 -100275212.97269404 0 0 0 -31423342.390063345 3162142.10651052 1629778.3896234035 0 1629778.3896234035 -98933378.306068897 0 0 0 -33519932.669845462 3168035.7089420557 -2143401.0526325256 0 -2143401.0526325256 -98909993.722293377 0 0 0 -33509685.304672956 -21278931.78589642 806300.69276550412 0 806300.69276550412 -92147595.870320588 0 0 0 -39699284.679675937 8185109.550539732 -1491149.1916794181 0 -1491149.1916794181 -100385309.74340248 0 0 0 -32270070.067502022 8186891.3179442883 1325466.6883183122 0 1325466.6883183122 -101043460.1346674 0 0 0 -32499799.085853219 -4149550.9561209679 2382349.7054700106 0 2382349.7054700106 -102169032.27578712 0 0 0 -37211504.131167889 -2162498.3414934278 -3119499.8391441405 0 -3119499.8391441405 -102128480.34829819 0 0 0 -36501842.541426957 1752514.7193090916 -874278.45411932468 0 -874278.45411932468 -96842002.115773678 0 0 0 -33281320.588762522 -42343272.652504146 10120215.958322808 0 10120215.958322808 -93798591.20688355 0 0 0 -47649652.35078571 1496994.8976546526 727226.57788184285 0 727226.57788184285 -91038711.030652523 0 0 0 -31339600.646549106 9264256.702039957 227066.4927188158 0 227066.4927188158 -100005843.16607213 0 0 0 -31759555.262411237 290765.51280140877 -487198.6586098671 0 -487198.6586098671 -96907276.427686453 0 0 0 -33815778.820209861 -48656625.178534597 12013375.427615561 0 12013375.427615561 -90360168.880488023 0 0 0 -48655877.920657918 8732021.5481348038 200524.71977275138 0 200524.71977275138 -100190911.31540346 0 0 0 -32010611.418543816 487410.54854865349 455592.96569240093 0 455592.96569240093 -85800709.549768776 0 0 0 -29859654.650427029 632768.83364901843 967883.83828663826 0 967883.83828663826 -87982499.921376884 0 0 0 -30572405.880704783 9785985.8921151161 135187.30880963802 0 135187.30880963802 -99875779.418860912 0 0 0 -31531427.734360695 -48351637.437198691 9205453.969918685 0 9205453.969918685 -89799249.799836904 0 0 0 -48352810.532962456 837749.70238241006 -448481.58753752708 0 -448481.58753752708 -95465588.268096298 0 0 0 -33119743.49799994 4952704.079505682 -612767.48572790623 0 -612767.48572790623 -99505792.394133091 0 0 0 -33093580.910119534 3187310.3499157429 738542.63171207905 0 738542.63171207905 -99096864.01954937 0 0 0 -33568343.784372091 -17874336.904724687 19137138.766981121 0 19137138.766981121 -100369061.1517117 0 0 0 -41385189.319752783 -8212117.9635895193 -16313111.151892006 0 -16313111.151892006 -110233139.10019705 0 0 0 -41455839.972325295 9293457.0816343427 -871539.42937093973 0 -871539.42937093973 -101119724.37599826 0 0 0 -32139193.553027451 9421646.7271681726 -985038.64032769203 0 -985038.64032769203 -100643430.67909122 0 0 0 -31927624.383173138 7365991.2841712236 1736519.7480923235 0 1736519.7480923235 -100080148.11803913 0 0 0 -32449954.89185369 7227091.0800442696 1614723.3181686699 0 1614723.3181686699 -101127582.72771597 0 0 0 -32865172.076684952 2267376.4566328526 1181636.0606618077 0 1181636.0606618077 -101961517.63668096 0 0 0 -34892949.413016915 863284.32311964035 846976.55417995527 0 846976.55417995527 -102340201.46129441 0 0 0 -35516920.99836123 -10427087.780439243 -2349639.3594481051 0 -2349639.3594481051 -102401159.18296802 0 0 0 -39489886.437192544 -4808514.0744347796 -3224256.9120571911 0 -3224256.9120571911 -100622988.06249841 0 0 0 -36901025.747926675 5241284.8116930723 -755324.32253944874 0 -755324.32253944874 -99460293.758793354 0 0 0 -32976653.131485343 4807052.2043583393 926087.48146241903 0 926087.48146241903 -98998525.033131599 0 0 0 -32967015.490070343 4630803.1670709848 -2032482.4703450203 0 -2032482.4703450203 -98035290.281672955 0 0 0 -32691570.490110755 10029603.181883693 421186.4512295723 0 421186.4512295723 -100639575.85233283 0 0 0 -31713490.434657216 -25732220.477625892 3301886.6557405144 0 3301886.6557405144 -98058652.22634536 0 0 0 -43326805.446389899 3151646.3596204519 935610.48704743385 0 935610.48704743385 -98746937.403160572 0 0 0 -33458351.865239024 617766.65378499031 -313370.38990087807 0 -313370.38990087807 -101801267.69801676 0 0 0 -35414225.365481138 -627189.1851568222 -115781.51726794243 0 -115781.51726794243 -102358415.1314404 0 0 0 -36044961.510809064 9921855.0966145992 563824.59493079782 0 563824.59493079782 -100039247.95576954 0 0 0 -31541087.500704527 3542402.9496341944 -1938068.8536628485 0 -1938068.8536628485 -99287789.846010804 0 0 0 -33510885.413732052 2509236.1327568144 775942.5348790884 0 775942.5348790884 -99242257.577616751 0 0 0 -33856557.50570108 -19967134.876749009 5822817.1817519376 0 5822817.1817519376 -92674250.012335271 0 0 0 -39424484.711179495 6705392.7746704817 -619497.12596893311 0 -619497.12596893311 -101992859.52006137 0 0 0 -33350613.360886693 9033075.5522413254 -1023733.846279338 0 -1023733.846279338 -101367851.04540062 0 0 0 -32317171.422605753 7839565.3163911104 1479799.1015761495 0 1479799.1015761495 -100718595.57877302 0 0 0 -32507660.591833711 2316956.3283777237 1263313.5206103921 0 1263313.5206103921 -101942098.945328 0 0 0 -34868799.915932655 -3905602.8975909948 -1693442.1787293181 0 -1693442.1787293181 -101187956.07305419 0 0 0 -36782745.639725864 9444846.0295237601 919039.48431873322 0 919039.48431873322 -100780276.69295597 0 0 0 -31967400.732201189 6248191.6151950359 -1904356.2444372922 0 -1904356.2444372922 -99816183.02357769 0 0 0 -32748796.992933989 2979455.8610935211 -1025493.9217916802 0 -1025493.9217916802 -101674788.58258796 0 0 0 -34543366.452522993 -11345195.087067306 4104790.2955495417 0 4104790.2955495417 -98227840.486100391 0 0 0 -38350562.450608701 4661747.0645906702 285748.06302946806 0 285748.06302946806 -102522411.95265821 0 0 0 -34251232.710823677 -6168664.4023977518 1384705.1959214509 0 1384705.1959214509 -102761005.63705087 0 0 0 -38125384.513807118 5689908.9803928137 -462869.68472680449 0 -462869.68472680449 -102684448.70915222 0 0 0 -33948088.905065894 8402050.3436287642 1289732.7175226808 0 1289732.7175226808 -101260218.8731904 0 0 0 -32500358.985346437 6615764.8410628438 -196766.74699759483 0 -196766.74699759483 -102447061.78265482 0 0 0 -33540953.929557264 10786759.550797701 -30745.492538745093 0 -30745.492538745093 -100046992.79700661 0 0 0 -31241081.63617301 424073.25755100593 669943.16795969009 0 669943.16795969009 -92980065.018585801 0 0 0 -32394597.116362043 999029.88373500574 -617577.41830331087 0 -617577.41830331087 -91145289.142692924 0 0 0 -31551190.740635213 -48484377.165945627 -881838.18202943425 0 -881838.18202943425 -90049926.937037408 0 0 0 -48487006.43604406 5482136.3323172331 -1981615.7628349662 0 -1981615.7628349662 -100135489.5758872 0 0 0 -33128673.635249257 10233608.606234312 361006.45879662037 0 361006.45879662037 -100764075.72173262 0 0 0 -31685663.490424395 -13081311.166253448 1473539.8737038001 0 1473539.8737038001 -98300354.759415746 0 0 0 -38983583.073984206 4434745.5104285479 959838.67338269949 0 959838.67338269949 -100854754.34982181 0 0 0 -33747003.09378767 -1270788.1808728576 467296.69591056462 0 467296.69591056462 -100042929.64250183 0 0 0 -35459801.238181055 8034930.6302928925 324704.31351032108 0 324704.31351032108 -101962262.70222187 0 0 0 -32874566.225175142 6518508.3579140902 -93308.437625899911 0 -93308.437625899911 -102610778.80151296 0 0 0 -33632294.655259609 -38674111.309953347 -44760884.192742892 0 -44760884.192742892 -180323248.39512202 0 0 0 -76649075.896776363 -77292186.656034365 44607360.540347457 0 44607360.540347457 -143765593.03550479 0 0 0 -77370222.892038703 -38786153.936905302 44907244.959694043 0 44907244.959694043 -180272396.29295522 0 0 0 -76670492.580451161 -77187560.589241236 -44496856.888866536 0 -44496856.888866536 -143569981.14251918 0 0 0 -77265139.606116146 661932.49115991592 -11527.054663951536 0 -11527.054663951536 -100239195.77141476 0 0 0 -34852042.148088932 528831.10154604912 -52877.089432477951 0 -52877.089432477951 -99830427.483340263 0 0 0 -34755558.733628035 656918.451597929 23808.266192436218 0 23808.266192436218 -100195958.30666113 0 0 0 -34838663.949272394 469620.77081810497 52454.982067108154 0 52454.982067108154 -99817682.520051718 0 0 0 -34771821.612231858 7844946.6039595604 828984.5028693676 0 828984.5028693676 -102094098.02736306 0 0 0 -32987202.998191237 5197539.5328240991 380913.85678192973 0 380913.85678192973 -102284600.43658447 0 0 0 -33980471.316316009 4727492.1604504585 -322553.39135622978 0 -322553.39135622978 -102209498.83752251 0 0 0 -34118702.336975217 9833128.0270752907 -270592.19902420044 0 -270592.19902420044 -100162840.72632742 0 0 0 -31615399.44473815 2086006.6069772243 1317207.449862659 0 1317207.449862659 -96146092.843887806 0 0 0 -32921030.182918668 2091151.4061816931 -845370.10701447725 0 -845370.10701447725 -91864015.620372772 0 0 0 -31420502.474966884 -41774803.456975058 -6813669.9878719542 0 -6813669.9878719542 -93969605.247556508 0 0 0 -47510543.046586052 8417602.0086962581 -1257605.6726126671 0 -1257605.6726126671 -100691929.33256263 0 0 0 -32296014.56335324 7024671.2578103542 1748813.5219728798 0 1748813.5219728798 -100022065.42662144 0 0 0 -32549087.959083796 -984435.961389184 3076205.4914584681 0 3076205.4914584681 -102491565.09328413 0 0 0 -36216600.369135678 -7478869.6048750132 -4853483.0483487546 0 -4853483.0483487546 -100136808.02718611 0 0 0 -37665487.171221361 4732307.0732566752 289123.04791420698 0 289123.04791420698 -102411899.2374447 0 0 0 -34187857.257465899 381294.84983861446 -832655.12514574826 0 -832655.12514574826 -101972815.25778866 0 0 0 -35557032.142782509 8539785.8589059114 -243002.32648026943 0 -243002.32648026943 -99856454.818174839 0 0 0 -31960834.135744214 527931.12628388405 449782.6126024127 0 449782.6126024127 -97906337.069183588 0 0 0 -34082442.080014825 8170664.8041980267 -368294.64755690098 0 -368294.64755690098 -100342721.25244713 0 0 0 -32260219.756887436 1064334.3386207819 969449.00654268265 0 969449.00654268265 -98369851.233354092 0 0 0 -34056930.913156748 -547782.71667915583 -890632.75923629105 0 -890632.75923629105 -91972890.091676116 0 0 0 -32382235.482924283 -38690673.517344341 -13344820.952848304 0 -13344820.952848304 -86943592.432769701 0 0 0 -43971993.082539916 561574.22515934706 603530.31526225805 0 603530.31526225805 -93851751.288180768 0 0 0 -32651561.972057581 -37367736.00546138 -11559636.191671696 0 -11559636.191671696 -90693440.528718367 0 0 0 -44821411.786962911 3410625.1914317608 -866866.88609515131 0 -866866.88609515131 -98856790.28145647 0 0 0 -33406157.781508684 6354341.994102478 667427.01965236664 0 667427.01965236664 -99319107.275677204 0 0 0 -32537667.848551273 6064373.7849810123 -1763540.1625480652 0 -1763540.1625480652 -100307485.66141987 0 0 0 -32985089.15675354 9186680.1872427464 993003.77038660645 0 993003.77038660645 -100100955.62051916 0 0 0 -31819996.401646614 -11462829.103524059 6332953.8761380687 0 6332953.8761380687 -99743521.058403313 0 0 0 -38922222.55667457 1249114.6859000325 -1524243.7619488239 0 -1524243.7619488239 -100729070.51732087 0 0 0 -34817984.540997267 -30532154.028618187 18546654.571939915 0 18546654.571939915 -104404968.59765358 0 0 0 -47227992.919195101 -4548746.7151048779 -7207591.0503991172 0 -7207591.0503991172 -101545524.59628975 0 0 0 -37132994.95898813 1479065.2528041601 -600524.5456186235 0 -600524.5456186235 -102203814.52240717 0 0 0 -35253662.244361103 10398656.180584311 157753.51089394093 0 157753.51089394093 -100371066.00021958 0 0 0 -31490343.436872363 3202513.1290906668 1949948.4796229899 0 1949948.4796229899 -96561956.174283028 0 0 0 -32675805.065817237 3754391.0506720543 -1752219.3835304528 0 -1752219.3835304528 -96694961.814636469 0 0 0 -32529199.767387629 -31162800.088790193 2837924.6970725432 0 2837924.6970725432 -96464728.662513793 0 0 0 -44669635.062956378 10135046.81618309 72841.334334135056 0 72841.334334135056 -100940177.01986456 0 0 0 -31781795.571288586 9928318.646199584 219887.59222966433 0 219887.59222966433 -101336446.11786008 0 0 0 -31992844.615080953 5752239.004752636 1136326.8663430214 0 1136326.8663430214 -101665555.01089358 0 0 0 -33569660.602149367 4761243.5229996443 717313.83319273591 0 717313.83319273591 -101385416.05166507 0 0 0 -33818460.385032773 5955036.9431256056 -1325118.9151163399 0 -1325118.9151163399 -101760900.66827989 0 0 0 -33532052.30380404 6223514.9433475733 -1301210.6795560122 0 -1301210.6795560122 -100985715.57269168 0 0 0 -33166770.220270514 9249326.859041214 -489544.62391871214 0 -489544.62391871214 -99914063.991498947 0 0 0 -31732657.996360302 3273165.801045239 1436014.6158693433 0 1436014.6158693433 -97352354.154524446 0 0 0 -32927715.923717678 2023640.2125177383 -555375.40450909734 0 -555375.40450909734 -95689388.446138203 0 0 0 -32783011.881767035 -34075059.888229966 -9934824.2464659885 0 -9934824.2464659885 -96691626.624874681 0 0 0 -45768340.279586613 9240220.3277714252 -660041.38711166382 0 -660041.38711166382 -100424689.66028976 0 0 0 -31914564.266381741 4182230.1068222523 1900748.6470994353 0 1900748.6470994353 -97971789.44426465 0 0 0 -32826345.768104792 1561933.9828386307 438561.84264796972 0 438561.84264796972 -98597137.083927631 0 0 0 -33962321.08538115 -27823519.463290766 -7080837.1862377673 0 -7080837.1862377673 -97511766.507650077 0 0 0 -43867350.089829281 3898165.733397603 273946.59839484096 0 273946.59839484096 -102477484.4660275 0 0 0 -34502761.556420445 3774324.9340673685 -1595529.0304341316 0 -1595529.0304341316 -98187138.187283754 0 0 0 -33044484.638625622 8993164.9236702919 666691.74779343605 0 666691.74779343605 -99742935.707630157 0 0 0 -31762419.774386168 -27759324.762876347 10012930.878217973 0 10012930.878217973 -96828824.900665998 0 0 0 -43605852.382239833 1420072.3355331421 -532114.14224585891 0 -532114.14224585891 -98267477.903026342 0 0 0 -33896591.948622584 5810764.652794838 -883030.03574252129 0 -883030.03574252129 -100295813.02105665 0 0 0 -33069766.928891659 4051112.4973027706 1084475.1093136668 0 1084475.1093136668 -99300471.438843966 0 0 0 -33337275.62953949 9082804.3024278879 -1096814.4930868149 0 -1096814.4930868149 -100265953.68501329 0 0 0 -31914102.28390491 6596694.8821898699 1860609.9814254642 0 1860609.9814254642 -100741971.28009892 0 0 0 -32950846.739268184 317877.22912722826 1546679.2913249433 0 1546679.2913249433 -101450151.50612736 0 0 0 -35396295.99695003 -8352284.1937388778 -4428749.4737738669 0 -4428749.4737738669 -100379917.36085236 0 0 0 -38056270.54410696 9428836.5620061755 276919.61856269836 0 276919.61856269836 -101866585.45940733 0 0 0 -32353212.114090264 8840821.7718195915 -185409.579859972 0 -185409.579859972 -100028330.81343603 0 0 0 -31915628.164565563 569141.86466732644 454289.45752239227 0 454289.45752239227 -96644410.049532101 0 0 0 -33626343.864702791 502144.01930169715 -607401.09735924006 0 -607401.09735924006 -85369916.465048343 0 0 0 -29703720.356011525 -49044111.159358948 -12093312.927170871 0 -12093312.927170871 -91076720.339685172 0 0 0 -49042291.024665438 -2767294.6404439807 159939.77800524235 0 159939.77800524235 -102699545.62321579 0 0 0 -36913394.092280924 10775942.282508373 35949.045768618584 0 35949.045768618584 -100062550.71909523 0 0 0 -31250312.952805042 509432.25817024708 690631.14574480057 0 690631.14574480057 -90765038.781533957 0 0 0 -31589462.283177257 347966.68691044056 -661768.20708549023 0 -661768.20708549023 -92717917.123468772 0 0 0 -32329482.652795266 -48073500.164699949 1873671.2467068029 0 1873671.2467068029 -89275760.52847749 0 0 0 -48072241.242612094 -3050350.9490628839 6731887.8315659314 0 6731887.8315659314 -100768212.73700261 0 0 0 -36336497.290122926 -30267499.969052017 -18453026.595904365 0 -18453026.595904365 -104549142.43551049 0 0 0 -47185824.841596872 -1858524.0658928752 -290256.24106511474 0 -290256.24106511474 -100392980.26359522 0 0 0 -35788026.515320837 5333989.1654802114 -371184.31194549799 0 -371184.31194549799 -102340601.18880326 0 0 0 -33952314.208162948 3808766.3189683557 83050.418433189392 0 83050.418433189392 -102512635.97385621 0 0 0 -34546354.37921077 -508596.35633850098 1138079.9786644578 0 1138079.9786644578 -93758610.653601885 0 0 0 -32993522.45347929 10634068.147416592 53243.303129434586 0 53243.303129434586 -99946408.807570338 0 0 0 -31259319.231053829 -39848408.711736478 3241236.3809383884 0 3241236.3809383884 -85888713.684514105 0 0 0 -44007992.838687696 559052.15202474594 -575307.27249066532 0 -575307.27249066532 -94664182.409396172 0 0 0 -32936795.590079784 9518311.6559913158 -709966.89659416676 0 -709966.89659416676 -101096416.14883423 0 0 0 -32052336.572494745 7553257.8826620579 1269550.9637202621 0 1269550.9637202621 -101231561.9493444 0 0 0 -32787406.423338652 2179282.8790051341 374818.55253124237 0 374818.55253124237 -102208813.8613534 0 0 0 -35010335.843821943 -5531295.2922694683 -2028740.6795393229 0 -2028740.6795393229 -102074091.99378669 0 0 0 -37661885.550119698 8069542.6992893219 1094192.7381010652 0 1094192.7381010652 -101812745.03385687 0 0 0 -32810120.817098737 7695699.041695714 412566.78436416388 0 412566.78436416388 -102022963.56323266 0 0 0 -33014542.582537889 8662998.7797789574 -1204905.7683947682 0 -1204905.7683947682 -100052923.71166801 0 0 0 -31986473.726161003 6215816.6866656542 1679111.1988720894 0 1679111.1988720894 -99996973.340519905 0 0 0 -32823404.82884872 -857186.48789137602 2782816.5998353958 0 2782816.5998353958 -101746471.89893568 0 0 0 -35911280.435389459 -12115059.337035656 -6740337.7426124215 0 -6740337.7426124215 -100095329.33952332 0 0 0 -39273636.036795616 823219.40123665333 -1169935.4902667701 0 -1169935.4902667701 -102611616.34423256 0 0 0 -35625938.930048585 8386652.8188428879 -597548.59599173069 0 -597548.59599173069 -100306207.67881477 0 0 0 -32171844.2009902 2347507.0950820446 1377266.1400050819 0 1377266.1400050819 -99077939.070212841 0 0 0 -33855651.191295862 778633.86985838413 681508.93198751658 0 681508.93198751658 -99313910.140344381 0 0 0 -34487346.694670081 -25866064.828117698 -10773533.808709249 0 -10773533.808709249 -92000567.982871652 0 0 0 -41253321.483846247 10347401.415769339 -220592.04401528835 0 -220592.04401528835 -100362611.98482943 0 0 0 -31505323.699170828 2759994.414411068 1988570.0467399359 0 1988570.0467399359 -96541167.246021509 0 0 0 -32823410.491063714 -34336972.853725642 -1855783.4998261072 0 -1855783.4998261072 -94724331.837123305 0 0 0 -45171456.641797125 3142552.2073732615 -189495.75830194354 0 -189495.75830194354 -102282070.07634354 0 0 0 -34698831.254139662 -74469.139618635178 -897233.77079743147 0 -897233.77079743147 -94673250.376401424 0 0 0 -33161701.830606937 -38824671.757000908 149307.72635693476 0 149307.72635693476 -84670461.074786752 0 0 0 -43223296.491125681 1669386.022390008 -1186506.987293303 0 -1186506.987293303 -93604260.808218241 0 0 0 -32177206.175039887 -41818027.295573846 662756.89746509679 0 662756.89746509679 -91155817.497529268 0 0 0 -46540845.677586108 386073.91293525696 449697.09215694666 0 449697.09215694666 -93801834.484163761 0 0 0 -32695516.199929953 10727685.262269258 23921.583994746208 0 23921.583994746208 -99996808.132264137 0 0 0 -31244193.004498243 10667191.902194738 8006.1274260282516 0 8006.1274260282516 -100096062.00690699 0 0 0 -31300104.536648989 866032.44696080685 1257552.4047822356 0 1257552.4047822356 -94055759.124031782 0 0 0 -32616404.336974859 10552213.896918774 -159809.03246641159 0 -159809.03246641159 -100042692.31040478 0 0 0 -31321667.444719791 1756623.2581245899 1400296.5062465668 0 1400296.5062465668 -96597858.591701746 0 0 0 -33194432.366752148 -31994010.289599255 -3083402.9968716428 0 -3083402.9968716428 -88157379.800942466 0 0 0 -42052986.531689599 8820588.3597414494 -968180.86382055283 0 -968180.86382055283 -99897168.307076931 0 0 0 -31876802.981567144 5583264.4652788639 1692255.7139422297 0 1692255.7139422297 -99335149.676706553 0 0 0 -32813159.823999763 -279013.97804254293 1994253.9895935953 0 1994253.9895935953 -100528092.00445962 0 0 0 -35282487.093875706 -18280250.764634758 -8712882.2761578709 0 -8712882.2761578709 -101203807.22895974 0 0 0 -41819420.297758102 4382267.9867607355 51598.71019116044 0 51598.71019116044 -102452667.22960496 0 0 0 -34324639.734995365 10078271.568489909 335389.98558068275 0 335389.98558068275 -101051557.29835081 0 0 0 -31840650.005451322 6155241.1525477171 -1598459.4312033057 0 -1598459.4312033057 -100306011.58047175 0 0 0 -32952769.649773479 4162406.1548000574 735968.31910273433 0 735968.31910273433 -100687568.54387999 0 0 0 -33783806.836177945 -14063291.366420656 1981335.0098705888 0 1981335.0098705888 -101805220.15306473 0 0 0 -40553979.03181991 9009360.4955406189 -214213.05251288414 0 -214213.05251288414 -100179253.8313539 0 0 0 -31909462.66753459 29726.125220298767 659395.28352028131 0 659395.28352028131 -97923577.332681179 0 0 0 -34262847.922611475 -263820.98689115047 -111082.5912360847 0 -111082.5912360847 -92094694.165469885 0 0 0 -32325480.303326368 -37740502.493798912 -9984021.8665684275 0 -9984021.8665684275 -84947261.147787571 0 0 0 -42940717.274555266 9305111.5073011518 -298917.22338604927 0 -298917.22338604927 -99726758.545985922 0 0 0 -31647576.463539541 1878336.1580536366 841866.84086934105 0 841866.84086934105 -96876126.486003399 0 0 0 -33249226.614782572 1617169.2141840458 -1197809.4610083029 0 -1197809.4610083029 -92230124.99111104 0 0 0 -31714534.521924376 -40188957.891513363 -11004756.360402968 0 -11004756.360402968 -92154018.184874088 0 0 0 -46320041.626735598 1445631.9714279175 -1582534.8513294756 0 -1582534.8513294756 -95940366.005551457 0 0 0 -33073156.911943316 2738067.0265635252 -1230186.1992102265 0 -1230186.1992102265 -95622790.416103482 0 0 0 -32509653.186339021 8800249.8582092524 175153.32324004173 0 175153.32324004173 -101808130.95217872 0 0 0 -32552758.38288939 10004137.855291009 -440714.52508014441 0 -440714.52508014441 -101002690.16347575 0 0 0 -31849493.307864547 5678792.4399316311 1905653.6936801672 0 1905653.6936801672 -99991284.589443207 0 0 0 -33009372.25232923 3963765.2614939809 -661148.13393822312 0 -661148.13393822312 -101266401.93563068 0 0 0 -34055922.835947752 -13636033.962830126 -1734201.9398287237 0 -1734201.9398287237 -99141941.266870797 0 0 0 -39472291.330395281 7586123.6441317797 -458043.30506008863 0 -458043.30506008863 -102201985.07134199 0 0 0 -33115551.49952352 9386274.9458938837 -554700.69129061699 0 -554700.69129061699 -100120760.55404973 0 0 0 -31757069.962854385 2748964.7842143774 1600546.4213473201 0 1600546.4213473201 -98789215.085961103 0 0 0 -33614087.605611324 1918771.6106660366 -428158.19122263789 0 -428158.19122263789 -98541122.697003722 0 0 0 -33817822.880218267 -24591643.798774347 -8427216.1137398109 0 -8427216.1137398109 -91893014.154385448 0 0 0 -40769630.283605911 8511406.3094460964 272340.35042673349 0 272340.35042673349 -102278374.31220531 0 0 0 -32818438.800965786 2646152.0199611187 -1523618.6417099833 0 -1523618.6417099833 -98650546.151458979 0 0 0 -33601537.946024299 -27567733.327043235 9595237.0894626826 0 9595237.0894626826 -93129492.02203846 0 0 0 -42244028.872178584 8572075.1311397552 552193.47413051128 0 552193.47413051128 -100415628.42598486 0 0 0 -32145243.653196335 1614716.804191947 -626513.77647325397 0 -626513.77647325397 -98021489.165963888 0 0 0 -33742370.326620162 9790744.0465171337 -369321.02429641783 0 -369321.02429641783 -99830295.856807232 0 0 0 -31513843.133601427 2037826.3565102965 1282542.2860794663 0 1282542.2860794663 -97662700.913161993 0 0 0 -33468706.094827995 1588367.0802717656 -1078367.2577524781 0 -1078367.2577524781 -95626505.808054835 0 0 0 -32913348.554723933 -31886644.847182393 -7986080.2474492546 0 -7986080.2474492546 -90485954.09583956 0 0 0 -42830409.630057678 8964304.3934109211 -396243.56450074911 0 -396243.56450074911 -100273384.0601759 0 0 0 -31958177.883367538 1820328.195640564 1324257.5718755722 0 1324257.5718755722 -98040798.33223772 0 0 0 -33677164.547808886 1518968.7531701326 -82883.368514835835 0 -82883.368514835835 -94917466.703058362 0 0 0 -32689474.282460928 -34736664.414194822 -8709372.0233353823 0 -8709372.0233353823 -92331024.756911606 0 0 0 -44473691.209887266 10335574.841374397 -353303.33455520868 0 -353303.33455520868 -100382733.88505793 0 0 0 -31516505.665289402 5552751.0585306287 1797489.9883570671 0 1797489.9883570671 -99757454.06667161 0 0 0 -32971646.052849233 4288390.0647912025 -1181130.2201078534 0 -1181130.2201078534 -99957314.250484228 0 0 0 -33484123.464992523 -16361095.356690764 -2906236.8083616942 0 -2906236.8083616942 -98707417.615257442 0 0 0 -40273979.540181935 9721683.6189105511 421339.57796609402 0 421339.57796609402 -101487542.40089726 0 0 0 -32118050.573695421 10036289.259842277 429114.90032833815 0 429114.90032833815 -100903778.01328921 0 0 0 -31803621.063706279 7103688.5715134144 -1090859.2732442617 0 -1090859.2732442617 -101287928.68542337 0 0 0 -32964484.039868355 3872286.870628953 105170.53175216913 0 105170.53175216913 -102176991.62386966 0 0 0 -34406646.6636343 6629228.7929444313 -1530473.2033663988 0 -1530473.2033663988 -101450004.51498151 0 0 0 -33187271.502712965 4912457.0429028273 571853.16960725188 0 571853.16960725188 -101762855.64950275 0 0 0 -33897639.51230979 2440270.5599128455 -395503.98328179121 0 -395503.98328179121 -102486001.77582297 0 0 0 -35016005.925568476 1533254.0591009706 217542.15363651514 0 217542.15363651514 -102027334.39389122 0 0 0 -35172928.117176548 -4220131.2986936271 1238190.8268234134 0 1238190.8268234134 -99171480.930809796 0 0 0 -36187064.280326158 -6003008.8105149269 432498.13788496284 0 432498.13788496284 -102050073.3126266 0 0 0 -37818578.743099451 3874409.6156075001 -366570.22746692598 0 -366570.22746692598 -102296681.77508116 0 0 0 -34447795.255815744 3185936.5203876495 -31214.08468914032 0 -31214.08468914032 -102508350.31455255 0 0 0 -34762844.827957749 2077711.5829513669 -1010367.2232533097 0 -1010367.2232533097 -93385636.411525607 0 0 0 -31957773.690000951 -39749857.510544166 -1129606.0965389609 0 -1129606.0965389609 -91880296.345143467 0 0 0 -46070553.849490672 1242083.4913685918 -1626127.871892333 0 -1626127.871892333 -95927831.667022943 0 0 0 -33140011.861479104 -34236504.412821636 -884281.22498911154 0 -884281.22498911154 -88943558.759418651 0 0 0 -43113022.11028409 10453329.742221832 -124224.66102439165 0 -124224.66102439165 -100201403.41879988 0 0 0 -31411825.78680253 1418961.7091320753 1556177.0985187292 0 1556177.0985187292 -95683232.925115824 0 0 0 -32992494.925594449 10664623.306680679 -3439.2220733761787 0 -3439.2220733761787 -100008576.22875404 0 0 0 -31270383.522725821 1800130.8567250967 1144294.0111174583 0 1144294.0111174583 -95514822.323156595 0 0 0 -32800142.013251185 8465079.8433179855 -1252263.4741551876 0 -1252263.4741551876 -100243828.46753514 0 0 0 -32122562.018475771 7658453.7356760502 1534997.3361769617 0 1534997.3361769617 -100522633.76804686 0 0 0 -32502463.011329889 -3998498.3163882494 3339234.7675643191 0 3339234.7675643191 -102211230.93780923 0 0 0 -37173405.238969088 -8027039.4776535034 -4827310.7767812312 0 -4827310.7767812312 -103624466.1627441 0 0 0 -39078026.974139154 -4349349.5384890735 75171.302380144596 0 75171.302380144596 -98944716.798231781 0 0 0 -36152923.217852235 10147858.055275917 166929.07927492261 0 166929.07927492261 -101096453.61674356 0 0 0 -31832008.446513891 10212957.976114035 244872.33452598215 0 244872.33452598215 -100807610.22088623 0 0 0 -31708128.285670042 5929251.0160888024 -1628036.2165595293 0 -1628036.2165595293 -101158027.13405584 0 0 0 -33330071.641288321 5486076.0782857537 -1603235.9564929008 0 -1603235.9564929008 -100333282.65158498 0 0 0 -33196522.300654829 5127295.3063966036 1057965.8522555232 0 1057965.8522555232 -100731692.61233091 0 0 0 -33461539.05707705 4978379.6596580306 1121852.3840369582 0 1121852.3840369582 -101266839.25250393 0 0 0 -33700960.857496068 -8097991.7099576592 1157224.529213717 0 1157224.529213717 -98750105.055837035 0 0 0 -37396833.868028045 -13605267.701211095 264233.62182450294 0 264233.62182450294 -100948580.96590531 0 0 0 -40093847.033490777 5265051.6268612742 -533708.62744897604 0 -533708.62744897604 -102004560.5955615 0 0 0 -33858828.139045179 10395234.813133478 110660.15281379223 0 110660.15281379223 -100684882.4209733 0 0 0 -31601376.662744045 4737260.3594735861 1571395.6327061653 0 1571395.6327061653 -100257439.45259023 0 0 0 -33432062.682590842 5280350.9485810995 -1638705.0985004902 0 -1638705.0985004902 -100466084.93350244 0 0 0 -33315006.894722581 -13752422.883627951 1233645.5705694407 0 1233645.5705694407 -98687431.342034101 0 0 0 -39353948.978981674 -9565847.1354466677 700477.87289789319 0 700477.87289789319 -101460585.88422203 0 0 0 -38859251.556883991 8729424.204403162 -1140329.6890469193 0 -1140329.6890469193 -101045953.39145088 0 0 0 -32310785.215466738 7792074.5890760422 1692793.7021620274 0 1692793.7021620274 -100042738.94709754 0 0 0 -32287732.525307417 415789.10014408827 2285938.2310479879 0 2285938.2310479879 -102622514.30975735 0 0 0 -35772353.823364735 -6515235.3539206982 -3055984.7693572938 0 -3055984.7693572938 -101501916.41609848 0 0 0 -37806003.119506717 4994675.2572427988 -162862.35765278339 0 -162862.35765278339 -102425730.32428515 0 0 0 -34100869.273464799 9511.8530435562134 -544701.94843953848 0 -544701.94843953848 -97815554.30679369 0 0 0 -34232114.858812571 -36979281.733005837 10164672.485496894 0 10164672.485496894 -83829196.532882959 0 0 0 -42282967.393061072 9235726.4487140179 173581.65814995766 0 173581.65814995766 -100047861.83294916 0 0 0 -31784247.384482622 -348584.61424124241 487501.89444428682 0 487501.89444428682 -92004454.979529381 0 0 0 -32323563.857819915 8327058.0488419533 -1118774.5078380108 0 -1118774.5078380108 -100752938.0288496 0 0 0 -32349057.993002653 5824165.2841188908 1821960.7378925085 0 1821960.7378925085 -99708285.427097321 0 0 0 -32859442.050042629 333881.19344985485 2544930.2022486627 0 2544930.2022486627 -102134046.2835474 0 0 0 -35630057.781534135 -11959059.937526554 -6648075.0997008979 0 -6648075.0997008979 -97861887.945970774 0 0 0 -38437331.759223968 9777921.7835497856 337639.1597106047 0 337639.1597106047 -101234589.6541543 0 0 0 -32009833.75471139 5405636.2365931049 563709.99029743671 0 563709.99029743671 -101924552.57527585 0 0 0 -33781620.718539141 2487695.6743165255 -20725.391217708588 0 -20725.391217708588 -102346373.91095996 0 0 0 -34950537.382825315 8087615.2822723389 855708.59447595477 0 855708.59447595477 -101580202.7315805 0 0 0 -32722405.607257843 9525446.9661544561 -450866.79762816429 0 -450866.79762816429 -100277932.93241572 0 0 0 -31763370.088191748 3472439.0982568264 1702052.4384227693 0 1702052.4384227693 -97048490.980409622 0 0 0 -32751618.158753395 2518419.5684556961 -580913.46968564391 0 -580913.46968564391 -95417743.310693026 0 0 0 -32514763.309782863 -35277377.422590755 -7271341.1297569871 0 -7271341.1297569871 -97357431.975287125 0 0 0 -46422183.289257251 8444599.7404702902 909522.64956025779 0 909522.64956025779 -101916995.97690177 0 0 0 -32715338.682750821 
</DataArray>
</CellData>
</Piece>
</UnstructuredGrid>
</VTKFile>
