<?xml version="1.0"?>
<VTKFile type="UnstructuredGrid" version="0.1" byte_order="LittleEndian">
<UnstructuredGrid>
<Piece NumberOfPoints="84" NumberOfCells="28">
<Points>
<DataArray type="Float64" NumberOfComponents="3" format="ascii">
0 0 0 0.29166666666652658 0.2916666666668038 0 0 0.33333333333472032 0 0 0 0 0.33333333333250248 0 0 0.29166666666652658 0.2916666666668038 0 0.33333333333250248 0 0 0.66666666666578889 0 0 0.49999999999981742 0.1726190476194705 0 0.33333333333250248 0 0 0.49999999999981742 0.1726190476194705 0 0.29166666666652658 0.2916666666668038 0 0.50000000000004996 0.49999999999997519 0 0.17261904761971569 0.50000000000021494 0 0.29166666666652658 0.2916666666668038 0 0.50000000000004996 0.49999999999997519 0 0.29166666666652658 0.2916666666668038 0 0.49999999999981742 0.1726190476194705 0 0 0.33333333333472032 0 0.29166666666652658 0.2916666666668038 0 0.17261904761971569 0.50000000000021494 0 0 0.66666666666759111 0 0 0.33333333333472032 0 0.17261904761971569 0.50000000000021494 0 0 0.66666666666759111 0 0.17261904761971569 0.50000000000021494 0 0.29166666666684449 0.7083333333334445 0 0 1 0 0.29166666666684449 0.7083333333334445 0 0.33333333333472032 1 0 0 1 0 0 0.66666666666759111 0 0.29166666666684449 0.7083333333334445 0 0.33333333333472032 1 0 0.29166666666684449 0.7083333333334445 0 0.50000000000021227 0.82738095238030207 0 0.50000000000004996 0.49999999999997519 0 0.29166666666684449 0.7083333333334445 0 0.17261904761971569 0.50000000000021494 0 0.50000000000004996 0.49999999999997519 0 0.50000000000021227 0.82738095238030207 0 0.29166666666684449 0.7083333333334445 0 0.50000000000004996 0.49999999999997519 0 0.82738095238054699 0.49999999999982031 0 0.70833333333346027 0.70833333333323512 0 0.50000000000004996 0.49999999999997519 0 0.70833333333346027 0.70833333333323512 0 0.50000000000021227 0.82738095238030207 0 0.66666666666759111 1 0 0.50000000000021227 0.82738095238030207 0 0.70833333333346027 0.70833333333323512 0 0.66666666666759111 1 0 0.33333333333472032 1 0 0.50000000000021227 0.82738095238030207 0 1 1 0 0.70833333333346027 0.70833333333323512 0 1 0.66666666666578889 0 1 1 0 0.66666666666759111 1 0 0.70833333333346027 0.70833333333323512 0 1 0.66666666666578889 0 0.70833333333346027 0.70833333333323512 0 0.82738095238054699 0.49999999999982031 0 1 0.33333333333250248 0 1 0.66666666666578889 0 0.82738095238054699 0.49999999999982031 0 1 0.33333333333250248 0 0.82738095238054699 0.49999999999982031 0 0.70833333333327586 0.2916666666665107 0 1 0 0 0.70833333333327586 0.2916666666665107 0 0.66666666666578889 0 0 1 0 0 1 0.33333333333250248 0 0.70833333333327586 0.2916666666665107 0 0.66666666666578889 0 0 0.70833333333327586 0.2916666666665107 0 0.49999999999981742 0.1726190476194705 0 0.50000000000004996 0.49999999999997519 0 0.70833333333327586 0.2916666666665107 0 0.82738095238054699 0.49999999999982031 0 0.50000000000004996 0.49999999999997519 0 0.49999999999981742 0.1726190476194705 0 0.70833333333327586 0.2916666666665107 0 
</DataArray>
</Points>
<Cells>
<DataArray type="UInt32" Name="connectivity" format="ascii">
0 1 2 3 4 5 6 7 8 9 10 11 12 13 14 15 16 17 18 19 20 21 22 23 24 25 26 27 28 29 30 31 32 33 34 35 36 37 38 39 40 41 42 43 44 45 46 47 48 49 50 51 52 53 54 55 56 57 58 59 60 61 62 63 64 65 66 67 68 69 70 71 72 73 74 75 76 77 78 79 80 81 82 83 
</DataArray>
<DataArray type="UInt32" Name="offsets" format="ascii">
3 6 9 12 15 18 21 24 27 30 33 36 39 42 45 48 51 54 57 60 63 66 69 72 75 78 81 84 
</DataArray>
<DataArray type="UInt32" Name="types" format="ascii">
5 5 5 5 5 5 5 5 5 5 5 5 5 5 5 5 5 5 5 5 5 5 5 5 5 5 5 5 
</DataArray>
</Cells>
<PointData Scalars="" Vectors="displacement," Tensors="">
<DataArray type="Float64" Name="displacement" NumberOfComponents="3" format="ascii">
-1.2944430883248607e-07 -0.00030014068832577199 0 0.07073354028641704 -0.27965704253680618 0 -6.2113835969256195e-08 -0.31951102102202705 0 -1.2944430883248607e-07 -0.00030014068832577199 0 0.080819589636987293 -0.00030013522447909556 0 0.070733540286417054 -0.27965704253680618 0 0.080819589636987293 -0.00030013522447904997 0 0.16140737504121833 -0.00029992260495095987 0 0.12115461537264045 -0.16568892202629026 0 0.080819589636987293 -0.00030013522447904997 0 0.12115461537264045 -0.16568892202629026 0 0.070733540286417054 -0.27965704253680618 0 0.1212299365506745 -0.47934567540819306 0 0.041897744278371736 -0.47912883817056434 0 0.070733540286417054 -0.27965704253680618 0 0.1212299365506745 -0.47934567540819306 0 0.070733540286417054 -0.27965704253680612 0 0.12115461537264045 -0.16568892202629026 0 -6.2113835969256195e-08 -0.31951102102202705 0 0.070733540286417054 -0.27965704253680618 0 0.041897744278371736 -0.47912883817056434 0 -1.2505859063725174e-07 -0.63867329220615709 0 -6.2113835969256195e-08 -0.31951102102202705 0 0.041897744278371736 -0.47912883817056434 0 -1.2505859063725174e-07 -0.63867329220615709 0 0.041897744278371736 -0.47912883817056434 0 0.070850043313172267 -0.67869934633203521 0 5.0378916181749555e-07 -0.95778172333477241 0 0.070850043313172267 -0.67869934633203521 0 0.081194475552700554 -0.95807224244257239 0 5.0378916181749555e-07 -0.95778172333477241 0 -1.2505859063725174e-07 -0.63867329220615709 0 0.070850043313172267 -0.67869934633203521 0 0.081194475552700554 -0.95807224244257239 0 0.070850043313172267 -0.67869934633203521 0 0.12144357069935291 -0.79300968534092808 0 0.1212299365506745 -0.47934567540819306 0 0.070850043313172267 -0.67869934633203521 0 0.041897744278371736 -0.47912883817056434 0 0.1212299365506745 -0.47934567540819306 0 0.1214435706993529 -0.79300968534092808 0 0.070850043313172267 -0.67869934633203521 0 0.1212299365506745 -0.47934567540819306 0 0.20022678028657084 -0.47965675339332592 0 0.17169462289331086 -0.67923811780512577 0 0.1212299365506745 -0.47934567540819306 0 0.17169462289331086 -0.67923811780512577 0 0.12144357069935291 -0.79300968534092808 0 0.16206691447309865 -0.9588016451994924 0 0.12144357069935291 -0.79300968534092808 0 0.17169462289331086 -0.67923811780512577 0 0.16206691447309865 -0.9588016451994924 0 0.081194475552700554 -0.95807224244257239 0 0.12144357069935291 -0.79300968534092808 0 0.24233496407234942 -0.95949133602385916 0 0.17169462289331086 -0.67923811780512577 0 0.24180893127434086 -0.63969140823883064 0 0.24233496407234942 -0.95949133602385916 0 0.16206691447309865 -0.9588016451994924 0 0.17169462289331086 -0.67923811780512577 0 0.24180893127434086 -0.63969140823883064 0 0.17169462289331086 -0.67923811780512577 0 0.20022678028657084 -0.47965675339332592 0 0.24160982394459132 -0.31993827923866303 0 0.24180893127434086 -0.63969140823883064 0 0.20022678028657084 -0.47965675339332592 0 0.24160982394459132 -0.31993827923866303 0 0.20022678028657084 -0.47965675339332592 0 0.17148593509037505 -0.27986661268479907 0 0.24160669084703632 -0.00029974365281432548 0 0.17148593509037505 -0.27986661268479907 0 0.16140737504121833 -0.00029992260495095987 0 0.24160669084703632 -0.00029974365281432548 0 0.24160982394459132 -0.31993827923866303 0 0.17148593509037505 -0.27986661268479907 0 0.16140737504121833 -0.00029992260495095987 0 0.17148593509037505 -0.27986661268479907 0 0.12115461537264045 -0.16568892202629026 0 0.1212299365506745 -0.47934567540819306 0 0.17148593509037505 -0.27986661268479907 0 0.20022678028657084 -0.47965675339332592 0 0.1212299365506745 -0.47934567540819306 0 0.12115461537264045 -0.16568892202629026 0 0.17148593509037505 -0.27986661268479907 0 
</DataArray>
</PointData>
<CellData Scalars="displacement_divergence," Vectors="" Tensors="stress,">
<DataArray type="Float64" Name="stress" NumberOfComponents="9" format="ascii">
0.0034523075957693661 -6.7603776227165291e-05 0 -6.7603776227165291e-05 -0.9966709241397238 0 0 0 -0.19864372330879088 0.0033448668152635253 2.345759330755345e-05 0 2.345759330755345e-05 -0.99686702125766602 0 0 0 -0.1987044308884805 0.0024829049616836296 9.9552406694924521e-05 0 9.9552406694924521e-05 -0.9974156977062949 0 0 0 -0.19898655854892228 0.0028424253775257702 -0.00012286412832868132 0 -0.00012286412832868132 -0.9970354950279875 0 0 0 -0.19883861393009236 0.0031811251765723192 -0.00025142684833704673 0 -0.00025142684833704673 -0.99695794639765212 0 0 0 -0.19875536424421592 0.0029254750261338835 -8.1898120871864988e-05 0 -8.1898120871864988e-05 -0.99726739200543069 0 0 0 -0.19886838339585935 0.0035041075982056302 1.3543160310075519e-05 0 1.3543160310075519e-05 -0.99657268603045024 0 0 0 -0.19861371568644881 0.0037186729102905436 -8.8620371153647071e-05 0 -8.8620371153647071e-05 -0.99645242922421828 0 0 0 -0.19854675126278548 0.0038496409386434838 -0.00010040231223706897 0 -0.00010040231223706897 -0.99664134725242959 0 0 0 -0.19855834126275723 0.0046117332847954717 -8.4312072128778226e-05 0 -8.4312072128778226e-05 -0.99647771390082918 0 0 0 -0.1983731961232067 0.0039814112616093087 -0.00019564284812223498 0 -0.00019564284812223498 -0.99621849446428634 0 0 0 -0.19844741664053536 0.0032858606739542828 -0.00025992233727212266 0 -0.00025992233727212266 -0.99672064492096801 0 0 0 -0.19868695684940277 0.0032597748851920794 -6.7516431037750735e-05 0 -6.7516431037750735e-05 -0.99664334756317463 0 0 0 -0.1986767145355966 0.0032786653430342369 -0.00022950006036981385 0 -0.00022950006036981385 -0.99720218345212275 0 0 0 -0.19878470362181772 0.0018511883803778995 -7.9822327672867998e-06 0 -7.9822327672867998e-06 -0.99800962130038773 0 0 0 -0.19923168658400192 0.0022807725309011984 -0.0003042468714939961 0 -0.0003042468714939961 -0.99745165665515612 0 0 0 -0.19903417682485097 0.0026864317138380889 -7.4496353845376895e-05 0 -7.4496353845376895e-05 -0.99803089052100313 0 0 0 -0.19906889176143305 0.0033700126416200682 -0.00046007406917921275 0 -0.00046007406917921275 -0.99742543593989819 0 0 0 -0.19881108465965558 0.00085267915436915143 4.5710415400024296e-05 0 4.5710415400024296e-05 -0.99916160453699066 0 0 0 -0.19966178507652432 0.0012270808103239661 -0.00028240241684675336 0 -0.00028240241684675336 -0.99844229675212182 0 0 0 -0.19944304318835959 0.00084592893245261092 -0.00038774492189688758 0 -0.00038774492189688758 -0.99851659164059559 0 0 0 -0.19953413254162855 0.00055347871553551955 -0.00013271322487318216 0 -0.00013271322487318216 -0.99909015844678062 0 0 0 -0.19970733594624901 0.00072050993967001653 8.2057470471019744e-05 0 8.2057470471019744e-05 -0.99851804625160667 0 0 0 -0.19955950726238733 0.0010770408291514919 7.6860223397170709e-05 0 7.6860223397170709e-05 -0.9981832842534788 0 0 0 -0.19942124868486544 0.00077168593306451544 -0.00016301163688536846 0 -0.00016301163688536846 -0.99867750222500085 0 0 0 -0.19958116325838729 0.0021648457056863205 -0.000130785644646636 0 -0.000130785644646636 -0.99785771281651803 0 0 0 -0.19913857342216634 0.0018744713642727673 -0.00036647703307635116 0 -0.00036647703307635116 -0.99791648936480593 0 0 0 -0.19920840360010661 0.0021546248551549386 -0.00014551554082264939 0 -0.00014551554082264939 -0.99746010454817513 0 0 0 -0.19906109593860405 
</DataArray>
<DataArray type="Float64" Name="displacement_divergence" format="ascii">
-0.71511740391164713 -0.71533595119853 -0.71635161077611997 -0.71581901014833249 -0.71551931127917734 -0.7159261802250938 -0.71500937647121576 -0.71476830454602747 -0.71481002854592623 -0.71414350604354393 -0.71441069990592732 -0.71527304465785013 -0.71523617232814796 -0.71562493303854346 -0.71723407170240705 -0.71652303656946326 -0.71664801034115921 -0.71571990477476088 -0.71878242627548716 -0.71799495547809533 -0.71832287714986265 -0.71894640940649612 -0.71841422614459449 -0.71791649526551582 -0.71849218773019419 -0.71689886431979866 -0.71715025296038359 -0.71661994537897433 
</DataArray>
</CellData>
</Piece>
</UnstructuredGrid>
</VTKFile>
