<?xml version="1.0"?>
<VTKFile type="UnstructuredGrid" version="0.1" byte_order="LittleEndian">
<UnstructuredGrid>
<Piece NumberOfPoints="84" NumberOfCells="28">
<Points>
<DataArray type="Float64" NumberOfComponents="3" format="ascii">
0 1 0 0.29166666666684449 0.7083333333334445 0 0.33333333333472032 1 0 0 0 0 0.29166666666652658 0.2916666666668038 0 0 0.33333333333472032 0 0 1 0 0 0.66666666666759111 0 0.29166666666684449 0.7083333333334445 0 0 0 0 0.33333333333250248 0 0 0.29166666666652658 0.2916666666668038 0 1 1 0 0.66666666666759111 1 0 0.70833333333346027 0.70833333333323512 0 1 1 0 0.70833333333346027 0.70833333333323512 0 1 0.66666666666578889 0 1 0 0 1 0.33333333333250248 0 0.70833333333327586 0.2916666666665107 0 1 0 0 0.70833333333327586 0.2916666666665107 0 0.66666666666578889 0 0 0.50000000000004996 0.49999999999997519 0 0.29166666666652658 0.2916666666668038 0 0.49999999999981742 0.1726190476194705 0 0.50000000000004996 0.49999999999997519 0 0.29166666666684449 0.7083333333334445 0 0.17261904761971569 0.50000000000021494 0 0.50000000000004996 0.49999999999997519 0 0.17261904761971569 0.50000000000021494 0 0.29166666666652658 0.2916666666668038 0 0.50000000000004996 0.49999999999997519 0 0.50000000000021227 0.82738095238030207 0 0.29166666666684449 0.7083333333334445 0 0.50000000000004996 0.49999999999997519 0 0.49999999999981742 0.1726190476194705 0 0.70833333333327586 0.2916666666665107 0 0.50000000000004996 0.49999999999997519 0 0.82738095238054699 0.49999999999982031 0 0.70833333333346027 0.70833333333323512 0 0.50000000000004996 0.49999999999997519 0 0.70833333333327586 0.2916666666665107 0 0.82738095238054699 0.49999999999982031 0 0.50000000000004996 0.49999999999997519 0 0.70833333333346027 0.70833333333323512 0 0.50000000000021227 0.82738095238030207 0 0.33333333333250248 0 0 0.66666666666578889 0 0 0.49999999999981742 0.1726190476194705 0 1 0.33333333333250248 0 1 0.66666666666578889 0 0.82738095238054699 0.49999999999982031 0 0 0.66666666666759111 0 0 0.33333333333472032 0 0.17261904761971569 0.50000000000021494 0 0.66666666666759111 1 0 0.33333333333472032 1 0 0.50000000000021227 0.82738095238030207 0 0 0.66666666666759111 0 0.17261904761971569 0.50000000000021494 0 0.29166666666684449 0.7083333333334445 0 0.66666666666759111 1 0 0.50000000000021227 0.82738095238030207 0 0.70833333333346027 0.70833333333323512 0 0.33333333333250248 0 0 0.49999999999981742 0.1726190476194705 0 0.29166666666652658 0.2916666666668038 0 1 0.33333333333250248 0 0.82738095238054699 0.49999999999982031 0 0.70833333333327586 0.2916666666665107 0 0 0.33333333333472032 0 0.29166666666652658 0.2916666666668038 0 0.17261904761971569 0.50000000000021494 0 0.33333333333472032 1 0 0.29166666666684449 0.7083333333334445 0 0.50000000000021227 0.82738095238030207 0 0.66666666666578889 0 0 0.70833333333327586 0.2916666666665107 0 0.49999999999981742 0.1726190476194705 0 1 0.66666666666578889 0 0.70833333333346027 0.70833333333323512 0 0.82738095238054699 0.49999999999982031 0 
</DataArray>
</Points>
<Cells>
<DataArray type="UInt32" Name="connectivity" format="ascii">
0 1 2 3 4 5 6 7 8 9 10 11 12 13 14 15 16 17 18 19 20 21 22 23 24 25 26 27 28 29 30 31 32 33 34 35 36 37 38 39 40 41 42 43 44 45 46 47 48 49 50 51 52 53 54 55 56 57 58 59 60 61 62 63 64 65 66 67 68 69 70 71 72 73 74 75 76 77 78 79 80 81 82 83 
</DataArray>
<DataArray type="UInt32" Name="offsets" format="ascii">
3 6 9 12 15 18 21 24 27 30 33 36 39 42 45 48 51 54 57 60 63 66 69 72 75 78 81 84 
</DataArray>
<DataArray type="UInt32" Name="types" format="ascii">
5 5 5 5 5 5 5 5 5 5 5 5 5 5 5 5 5 5 5 5 5 5 5 5 5 5 5 5 
</DataArray>
</Cells>
<PointData Scalars="" Vectors="displacement," Tensors="">
<DataArray type="Float64" Name="displacement" NumberOfComponents="3" format="ascii">
1.2285575276520745e-07 -0.95968587688072204 0 0.070207298372030713 -0.67990966569587785 0 0.080291298873607087 -0.95975672912700127 0 -3.1559931391788685e-08 -0.00030003430725449769 0 0.070178880961773715 -0.28014321428730288 0 -1.5143397691050896e-08 -0.32010760559330087 0 1.2285575276520745e-07 -0.95968587688072204 0 -3.0504513109594087e-08 -0.63990331170938652 0 0.070207298372030713 -0.67990966569587785 0 -3.1559931391788685e-08 -0.00030003430725449769 0 0.080199862670999808 -0.00030003297318489399 0 0.070178880961773729 -0.28014321428730288 0 0.24056942513435289 -0.96010281806765918 0 0.16050405876459023 -0.95993461597633034 0 0.17041325924361211 -0.68004105871174192 0 0.24056942513435289 -0.96010281806765918 0 0.17041325924361211 -0.68004105871174192 0 0.24044113228802555 -0.64015160735136112 0 0.24039179452068085 -0.00029993750192102456 0 0.24039256530693592 -0.32021180215388123 0 0.17036235391641197 -0.28019432134433597 0 0.24039179452068085 -0.00029993750192102456 0 0.17036235391641197 -0.28019432134433597 0 0.16034319377208783 -0.00029998112222744778 0 0.12029993475681512 -0.48006728581741409 0 0.070178880961773729 -0.28014321428730282 0 0.12028156011660576 -0.1659349467474229 0 0.12029993475681512 -0.48006728581741409 0 0.070207298372030713 -0.67990966569587785 0 0.041542986026858977 -0.48001440564541897 0 0.12029993475681512 -0.48006728581741409 0 0.041542986026858977 -0.48001440564541897 0 0.070178880961773729 -0.28014321428730288 0 0.12029993475681512 -0.48006728581741409 0 0.12035204151063561 -0.79420138579790167 0 0.070207298372030713 -0.67990966569587785 0 0.12029993475681512 -0.48006728581741409 0 0.12028156011660576 -0.1659349467474229 0 0.17036235391641197 -0.28019432134433597 0 0.12029993475681512 -0.48006728581741409 0 0.19897510220759038 -0.48014314944790532 0 0.17041325924361211 -0.68004105871174192 0 0.12029993475681512 -0.48006728581741409 0 0.17036235391641197 -0.28019432134433597 0 0.19897510220759038 -0.48014314944790532 0 0.12029993475681512 -0.48006728581741409 0 0.17041325924361211 -0.68004105871174192 0 0.12035204151063562 -0.79420138579790167 0 0.080199862670999808 -0.00030003297318484834 0 0.16034319377208783 -0.00029998112222744778 0 0.12028156011660576 -0.1659349467474229 0 0.24039256530693592 -0.32021180215388123 0 0.24044113228802555 -0.64015160735136112 0 0.19897510220759038 -0.48014314944790532 0 -3.0504513109594087e-08 -0.63990331170938652 0 -1.5143397691050896e-08 -0.32010760559330087 0 0.041542986026858977 -0.48001440564541897 0 0.16050405876459023 -0.95993461597633034 0 0.080291298873607087 -0.95975672912700127 0 0.12035204151063562 -0.79420138579790167 0 -3.0504513109594087e-08 -0.63990331170938652 0 0.041542986026858977 -0.48001440564541897 0 0.070207298372030713 -0.67990966569587785 0 0.16050405876459023 -0.95993461597633034 0 0.12035204151063562 -0.79420138579790167 0 0.17041325924361211 -0.68004105871174192 0 0.080199862670999808 -0.00030003297318484834 0 0.12028156011660576 -0.1659349467474229 0 0.070178880961773729 -0.28014321428730288 0 0.24039256530693592 -0.32021180215388123 0 0.19897510220759038 -0.48014314944790532 0 0.17036235391641197 -0.28019432134433597 0 -1.5143397691050896e-08 -0.32010760559330087 0 0.070178880961773729 -0.28014321428730288 0 0.041542986026858977 -0.48001440564541897 0 0.080291298873607087 -0.95975672912700127 0 0.070207298372030713 -0.67990966569587785 0 0.12035204151063562 -0.79420138579790167 0 0.16034319377208783 -0.00029998112222744778 0 0.17036235391641197 -0.28019432134433597 0 0.12028156011660576 -0.1659349467474229 0 0.24044113228802555 -0.64015160735136112 0 0.17041325924361211 -0.68004105871174192 0 0.19897510220759038 -0.48014314944790532 0 
</DataArray>
</PointData>
<CellData Scalars="displacement_divergence," Vectors="" Tensors="stress,">
<DataArray type="Float64" Name="stress" NumberOfComponents="9" format="ascii">
0.0011246753913103369 -2.0560309141437472e-05 0 -2.0560309141437472e-05 -0.9991409986537616 0 0 0 -0.19960326465249023 0.00084187405234387169 -1.648677331955728e-05 0 -1.648677331955728e-05 -0.99918819175165074 0 0 0 -0.19966926353986136 0.00097094695254915163 -4.7713072158561687e-05 0 -4.7713072158561687e-05 -0.99907777942505771 0 0 0 -0.19962136649450171 0.00081566539212490907 5.7231954428386176e-06 0 5.7231954428386176e-06 -0.99923601632063941 0 0 0 -0.19968407018570289 0.00029923787527308399 -6.8866446969143949e-05 0 -6.8866446969143949e-05 -0.9996201281237167 0 0 0 -0.1998641780496887 0.00020793259515894391 1.1151801052489141e-05 0 1.1151801052489141e-05 -0.99979555033700906 0 0 0 -0.19991752354837 0.00018817009309560887 -3.9747558035763131e-05 0 -3.9747558035763131e-05 -0.9996775345165938 0 0 0 -0.19989787288469965 0.00026262566146794265 1.8747454782025354e-05 0 1.8747454782025354e-05 -0.99955700670890635 0 0 0 -0.19985887620948767 0.00071339437122047711 -1.996197434789293e-05 0 -1.996197434789293e-05 -0.99933363935853381 0 0 0 -0.19972404899746268 0.00079493631220528549 -1.6458241419825548e-05 0 -1.6458241419825548e-05 -0.99918142040705904 0 0 0 -0.19967729681897084 0.00077575015946423909 -6.1311012974120228e-05 0 -6.1311012974120228e-05 -0.99925816501802278 0 0 0 -0.19969648297171172 0.00079955032365318574 -5.5958896268748504e-05 0 -5.5958896268748504e-05 -0.99931770326800207 0 0 0 -0.19970363058886981 0.00052540114603031034 -3.5480328981152276e-05 0 -3.5480328981152276e-05 -0.99938063766483076 0 0 0 -0.19977104730376014 0.00045142208495407843 -1.9360392924956972e-06 0 -1.9360392924956972e-06 -0.99951462467144347 0 0 0 -0.19981264051729786 0.00045709503125040962 -8.936072984300214e-05 0 -8.936072984300214e-05 -0.99949193288625771 0 0 0 -0.19980696757100147 0.00055619253875827113 -7.419176259948479e-05 0 -7.419176259948479e-05 -0.9993785427142261 0 0 0 -0.19976447003509357 0.00060545357948577072 2.4279732421758106e-05 0 2.4279732421758106e-05 -0.99936982444579803 0 0 0 -0.19975287417326243 0.00013496797084594874 -3.2355803825323548e-05 0 -3.2355803825323548e-05 -0.99977814924955388 0 0 0 -0.19992863625574159 0.00090685359675440891 -2.161539616829522e-05 0 -2.161539616829522e-05 -0.99913486821496589 0 0 0 -0.19964560292364231 0.00082184164342358201 -0.00011219954178217216 0 -0.00011219954178217216 -0.99937213206498576 0 0 0 -0.19971005808431253 0.00093880397955847794 -2.4481858285185787e-05 0 -2.4481858285185787e-05 -0.99918092819754789 0 0 0 -0.1996484248435979 0.00065512363495734416 -1.8160474826167672e-05 0 -1.8160474826167672e-05 -0.99951979849686712 0 0 0 -0.19977293497238191 0.00069312901894102996 -2.9961002533662739e-05 0 -2.9961002533662739e-05 -0.99927710365731448 0 0 0 -0.19971679492767469 0.00017569427093172552 2.0018081334338689e-05 0 2.0018081334338689e-05 -0.99963862764028444 0 0 0 -0.19989258667387061 0.0008545139584478223 3.3078420188514812e-06 0 3.3078420188514812e-06 -0.99916421044906079 0 0 0 -0.19966193929812254 0.00080131661298868395 -6.3386703802459365e-05 0 -6.3386703802459365e-05 -0.99920024633272608 0 0 0 -0.1996797859439475 0.0005278959297545377 -3.1888994879381016e-05 0 -3.1888994879381016e-05 -0.9994776133060892 0 0 0 -0.19978994347526691 0.00020628434061276124 -9.4551627177141828e-05 0 -9.4551627177141828e-05 -0.99963826521834687 0 0 0 -0.19988639617554682 
</DataArray>
<DataArray type="Float64" Name="displacement_divergence" format="ascii">
-0.71857175274896479 -0.718809348743501 -0.71863691938020635 -0.71886265266853044 -0.71951104097888008 -0.7197030847741317 -0.7196323423849188 -0.7194919543541558 -0.71900657639086563 -0.71883826854829458 -0.71890733869816237 -0.71893307011993113 -0.7191757702935363 -0.71932550586227251 -0.71930508325560516 -0.71915209212633679 -0.71911034702374477 -0.71974309052066965 -0.71872417052511217 -0.7189562091035242 -0.71873432943695192 -0.71918256590057439 -0.71898046173962882 -0.71961331202593404 -0.71878298147324093 -0.71884722939821089 -0.71924379651096104 -0.71959102623196802 
</DataArray>
</CellData>
</Piece>
</UnstructuredGrid>
</VTKFile>
