<?xml version="1.0"?>
<VTKFile type="UnstructuredGrid" version="0.1" byte_order="LittleEndian">
<UnstructuredGrid>
<Piece NumberOfPoints="84" NumberOfCells="28">
<Points>
<DataArray type="Float64" NumberOfComponents="3" format="ascii">
0 1 0 0.29166666666684449 0.7083333333334445 0 0.33333333333472032 1 0 0 0 0 0.29166666666652658 0.2916666666668038 0 0 0.33333333333472032 0 0 1 0 0 0.66666666666759111 0 0.29166666666684449 0.7083333333334445 0 0 0 0 0.33333333333250248 0 0 0.29166666666652658 0.2916666666668038 0 1 1 0 0.66666666666759111 1 0 0.70833333333346027 0.70833333333323512 0 1 1 0 0.70833333333346027 0.70833333333323512 0 1 0.66666666666578889 0 1 0 0 1 0.33333333333250248 0 0.70833333333327586 0.2916666666665107 0 1 0 0 0.70833333333327586 0.2916666666665107 0 0.66666666666578889 0 0 0.50000000000004996 0.49999999999997519 0 0.29166666666652658 0.2916666666668038 0 0.49999999999981742 0.1726190476194705 0 0.50000000000004996 0.49999999999997519 0 0.29166666666684449 0.7083333333334445 0 0.17261904761971569 0.50000000000021494 0 0.50000000000004996 0.49999999999997519 0 0.17261904761971569 0.50000000000021494 0 0.29166666666652658 0.2916666666668038 0 0.50000000000004996 0.49999999999997519 0 0.50000000000021227 0.82738095238030207 0 0.29166666666684449 0.7083333333334445 0 0.50000000000004996 0.49999999999997519 0 0.49999999999981742 0.1726190476194705 0 0.70833333333327586 0.2916666666665107 0 0.50000000000004996 0.49999999999997519 0 0.82738095238054699 0.49999999999982031 0 0.70833333333346027 0.70833333333323512 0 0.50000000000004996 0.49999999999997519 0 0.70833333333327586 0.2916666666665107 0 0.82738095238054699 0.49999999999982031 0 0.50000000000004996 0.49999999999997519 0 0.70833333333346027 0.70833333333323512 0 0.50000000000021227 0.82738095238030207 0 0.33333333333250248 0 0 0.66666666666578889 0 0 0.49999999999981742 0.1726190476194705 0 1 0.33333333333250248 0 1 0.66666666666578889 0 0.82738095238054699 0.49999999999982031 0 0 0.66666666666759111 0 0 0.33333333333472032 0 0.17261904761971569 0.50000000000021494 0 0.66666666666759111 1 0 0.33333333333472032 1 0 0.50000000000021227 0.82738095238030207 0 0 0.66666666666759111 0 0.17261904761971569 0.50000000000021494 0 0.29166666666684449 0.7083333333334445 0 0.66666666666759111 1 0 0.50000000000021227 0.82738095238030207 0 0.70833333333346027 0.70833333333323512 0 0.33333333333250248 0 0 0.49999999999981742 0.1726190476194705 0 0.29166666666652658 0.2916666666668038 0 1 0.33333333333250248 0 0.82738095238054699 0.49999999999982031 0 0.70833333333327586 0.2916666666665107 0 0 0.33333333333472032 0 0.29166666666652658 0.2916666666668038 0 0.17261904761971569 0.50000000000021494 0 0.33333333333472032 1 0 0.29166666666684449 0.7083333333334445 0 0.50000000000021227 0.82738095238030207 0 0.66666666666578889 0 0 0.70833333333327586 0.2916666666665107 0 0.49999999999981742 0.1726190476194705 0 1 0.66666666666578889 0 0.70833333333346027 0.70833333333323512 0 0.82738095238054699 0.49999999999982031 0 
</DataArray>
</Points>
<Cells>
<DataArray type="UInt32" Name="connectivity" format="ascii">
0 1 2 3 4 5 6 7 8 9 10 11 12 13 14 15 16 17 18 19 20 21 22 23 24 25 26 27 28 29 30 31 32 33 34 35 36 37 38 39 40 41 42 43 44 45 46 47 48 49 50 51 52 53 54 55 56 57 58 59 60 61 62 63 64 65 66 67 68 69 70 71 72 73 74 75 76 77 78 79 80 81 82 83 
</DataArray>
<DataArray type="UInt32" Name="offsets" format="ascii">
3 6 9 12 15 18 21 24 27 30 33 36 39 42 45 48 51 54 57 60 63 66 69 72 75 78 81 84 
</DataArray>
<DataArray type="UInt32" Name="types" format="ascii">
5 5 5 5 5 5 5 5 5 5 5 5 5 5 5 5 5 5 5 5 5 5 5 5 5 5 5 5 
</DataArray>
</Cells>
<PointData Scalars="" Vectors="displacement," Tensors="">
<DataArray type="Float64" Name="displacement" NumberOfComponents="3" format="ascii">
-1.148818075108704e-16 -0.74789999999999957 0 0.13195000000008059 -0.52985000000008287 0 0.15080000000062788 -0.7478999999999999 0 -9.704579341188279e-18 -0.00029999999999913055 0 0.13194999999993662 -0.21835000000010207 0 2.0682933150528266e-18 -0.24950000000103623 0 -1.148818075108704e-16 -0.74789999999999957 0 -2.6938385358243574e-17 -0.49870000000069065 0 0.13195000000008059 -0.52985000000008287 0 -9.704579341188279e-18 -0.00029999999999913055 0 0.15079999999962379 -0.00029999999999955144 0 0.13194999999993665 -0.21835000000010205 0 0.45240000000000086 -0.74790000000000079 0 0.30160000000041887 -0.74790000000000012 0 0.32045000000005774 -0.52984999999992666 0 0.45240000000000086 -0.74790000000000079 0 0.32045000000005774 -0.52984999999992666 0 0.45240000000000008 -0.4986999999993445 0 0.45239999999999964 -0.00030000000000110423 0 0.45240000000000019 -0.24949999999937975 0 0.32044999999997403 -0.21834999999988389 0 0.45239999999999964 -0.00030000000000110423 0 0.32044999999997403 -0.21834999999988389 0 0.30159999999960235 -0.00030000000000047328 0 0.2262000000000228 -0.37409999999998145 0 0.13194999999993665 -0.21835000000010199 0 0.22619999999991727 -0.12935000000031616 0 0.2262000000000228 -0.37409999999998145 0 0.13195000000008059 -0.52985000000008287 0 0.078092857143159444 -0.37410000000016003 0 0.2262000000000228 -0.37409999999998145 0 0.078092857143159444 -0.37410000000016003 0 0.13194999999993665 -0.21835000000010205 0 0.2262000000000228 -0.37409999999998145 0 0.22620000000009644 -0.61884999999951407 0 0.13195000000008059 -0.52985000000008287 0 0.2262000000000228 -0.37409999999998145 0 0.22619999999991727 -0.12935000000031616 0 0.32044999999997403 -0.21834999999988389 0 0.2262000000000228 -0.37409999999998145 0 0.3743071428569596 -0.37409999999986637 0 0.32045000000005774 -0.52984999999992666 0 0.2262000000000228 -0.37409999999998145 0 0.32044999999997403 -0.21834999999988389 0 0.3743071428569596 -0.37409999999986637 0 0.2262000000000228 -0.37409999999998145 0 0.32045000000005774 -0.52984999999992666 0 0.22620000000009646 -0.61884999999951396 0 0.15079999999962379 -0.00029999999999951588 0 0.30159999999960235 -0.00030000000000047328 0 0.22619999999991727 -0.12935000000031616 0 0.45240000000000019 -0.24949999999937975 0 0.45240000000000008 -0.4986999999993445 0 0.3743071428569596 -0.37409999999986637 0 -2.6938385358243574e-17 -0.49870000000069065 0 2.0682933150528266e-18 -0.24950000000103623 0 0.078092857143159444 -0.37410000000016003 0 0.30160000000041887 -0.74790000000000012 0 0.15080000000062788 -0.7478999999999999 0 0.22620000000009646 -0.61884999999951396 0 -2.6938385358243574e-17 -0.49870000000069065 0 0.078092857143159444 -0.37410000000016003 0 0.13195000000008059 -0.52985000000008287 0 0.30160000000041887 -0.74790000000000012 0 0.22620000000009646 -0.61884999999951396 0 0.32045000000005774 -0.52984999999992666 0 0.15079999999962379 -0.00029999999999951588 0 0.22619999999991727 -0.12935000000031616 0 0.13194999999993665 -0.21835000000010205 0 0.45240000000000019 -0.24949999999937975 0 0.3743071428569596 -0.37409999999986637 0 0.32044999999997403 -0.21834999999988389 0 2.0682933150528266e-18 -0.24950000000103623 0 0.13194999999993665 -0.21835000000010205 0 0.078092857143159444 -0.37410000000016003 0 0.15080000000062788 -0.7478999999999999 0 0.13195000000008059 -0.52985000000008287 0 0.22620000000009646 -0.61884999999951396 0 0.30159999999960235 -0.00030000000000047328 0 0.32044999999997403 -0.21834999999988389 0 0.22619999999991727 -0.12935000000031616 0 0.45240000000000008 -0.4986999999993445 0 0.32045000000005774 -0.52984999999992666 0 0.3743071428569596 -0.37409999999986637 0 
</DataArray>
</PointData>
<CellData Scalars="displacement_divergence," Vectors="" Tensors="stress,">
<DataArray type="Float64" Name="stress" NumberOfComponents="9" format="ascii">
0.29500000000000171 -2.2204460492503131e-16 0 -2.2204460492503131e-16 -0.70499999999999985 0 0 0 -0.081999999999999629 0.29499999999999982 -3.8857805861880479e-16 0 -3.8857805861880479e-16 -0.70500000000000074 0 0 0 -0.082000000000000212 0.2950000000000006 -3.3306690738754696e-16 0 -3.3306690738754696e-16 -0.70499999999999963 0 0 0 -0.081999999999999837 0.29499999999999899 -1.3342741263709232e-16 0 -1.3342741263709232e-16 -0.70500000000000052 0 0 0 -0.082000000000000323 0.29500000000000037 -3.2008654985795758e-16 0 -3.2008654985795758e-16 -0.70500000000000052 0 0 0 -0.081999999999999962 0.2949999999999996 1.1102230246251565e-16 0 1.1102230246251565e-16 -0.70500000000000052 0 0 0 -0.082000000000000184 0.29500000000000071 1.6653345369377348e-16 0 1.6653345369377348e-16 -0.70499999999999907 0 0 0 -0.081999999999999656 0.29500000000000043 -9.2265604878516427e-17 0 -9.2265604878516427e-17 -0.70499999999999974 0 0 0 -0.081999999999999851 0.29499999999999993 -6.106226635438361e-16 0 -6.106226635438361e-16 -0.70499999999999985 0 0 0 -0.082000000000000017 0.29500000000000043 -6.106226635438361e-16 0 -6.106226635438361e-16 -0.70500000000000074 0 0 0 -0.082000000000000017 0.29500000000000032 -6.6208150058580301e-16 0 -6.6208150058580301e-16 -0.70500000000000007 0 0 0 -0.081999999999999962 0.29500000000000098 -4.4408920985006262e-16 0 -4.4408920985006262e-16 -0.70499999999999996 0 0 0 -0.081999999999999809 0.29500000000000021 -6.106226635438361e-16 0 -6.106226635438361e-16 -0.70499999999999985 0 0 0 -0.08199999999999992 0.29500000000000026 -5.84370514871405e-16 0 -5.84370514871405e-16 -0.70499999999999785 0 0 0 -0.081999999999999518 0.29499999999999965 -7.2164496600635175e-16 0 -7.2164496600635175e-16 -0.70500000000000029 0 0 0 -0.082000000000000128 0.29500000000000004 2.2204460492503131e-16 0 2.2204460492503131e-16 -0.70500000000000052 0 0 0 -0.082000000000000128 0.29499999999999915 -5.3060854321440587e-16 0 -5.3060854321440587e-16 -0.70500000000000007 0 0 0 -0.082000000000000184 0.29500000000000026 -3.3306690738754696e-16 0 -3.3306690738754696e-16 -0.7049999999999994 0 0 0 -0.081999999999999865 0.29500000000000037 2.2204460492503131e-16 0 2.2204460492503131e-16 -0.70500000000000074 0 0 0 -0.082000000000000073 0.29500000000000115 -5.7255126565728211e-17 0 -5.7255126565728211e-17 -0.70499999999999785 0 0 0 -0.081999999999999296 0.29500000000000015 -1.1102230246251565e-16 0 -1.1102230246251565e-16 -0.70500000000000207 0 0 0 -0.082000000000000295 0.29499999999999982 6.6613381477509392e-16 0 6.6613381477509392e-16 -0.70500000000000029 0 0 0 -0.082000000000000017 0.29499999999999998 -5.5511151231257827e-16 0 -5.5511151231257827e-16 -0.70500000000000063 0 0 0 -0.082000000000000128 0.29500000000000026 -3.3306690738754696e-16 0 -3.3306690738754696e-16 -0.70500000000000029 0 0 0 -0.082000000000000073 0.29500000000000015 1.3877787807814457e-17 0 1.3877787807814457e-17 -0.7049999999999994 0 0 0 -0.081999999999999851 0.29500000000000065 -4.4408920985006262e-16 0 -4.4408920985006262e-16 -0.70500000000000018 0 0 0 -0.081999999999999906 0.29499999999999943 -1.6653345369377348e-16 0 -1.6653345369377348e-16 -0.7049999999999994 0 0 0 -0.08199999999999999 0.29499999999999943 -5.9674487573602164e-16 0 -5.9674487573602164e-16 -0.70499999999999785 0 0 0 -0.081999999999999629 
</DataArray>
<DataArray type="Float64" Name="displacement_divergence" format="ascii">
-0.29519999999999902 -0.29520000000000068 -0.29519999999999946 -0.29520000000000096 -0.29519999999999991 -0.29520000000000057 -0.29519999999999902 -0.2951999999999993 -0.29520000000000007 -0.29520000000000013 -0.29519999999999991 -0.29519999999999935 -0.29519999999999952 -0.29519999999999857 -0.29520000000000013 -0.29520000000000035 -0.29520000000000063 -0.29519999999999907 -0.29520000000000013 -0.29519999999999813 -0.29520000000000124 -0.29520000000000013 -0.29520000000000057 -0.29520000000000002 -0.29519999999999924 -0.29519999999999968 -0.2951999999999998 -0.2951999999999988 
</DataArray>
</CellData>
</Piece>
</UnstructuredGrid>
</VTKFile>
