<?xml version="1.0"?>
<VTKFile type="UnstructuredGrid" version="0.1" byte_order="LittleEndian">
<UnstructuredGrid>
<Piece NumberOfPoints="84" NumberOfCells="28">
<Points>
<DataArray type="Float64" NumberOfComponents="3" format="ascii">
0 1 0 0.29166666666684449 0.7083333333334445 0 0.33333333333472032 1 0 0 0 0 0.29166666666652658 0.2916666666668038 0 0 0.33333333333472032 0 0 1 0 0 0.66666666666759111 0 0.29166666666684449 0.7083333333334445 0 0 0 0 0.33333333333250248 0 0 0.29166666666652658 0.2916666666668038 0 1 1 0 0.66666666666759111 1 0 0.70833333333346027 0.70833333333323512 0 1 1 0 0.70833333333346027 0.70833333333323512 0 1 0.66666666666578889 0 1 0 0 1 0.33333333333250248 0 0.70833333333327586 0.2916666666665107 0 1 0 0 0.70833333333327586 0.2916666666665107 0 0.66666666666578889 0 0 0.50000000000004996 0.49999999999997519 0 0.29166666666652658 0.2916666666668038 0 0.49999999999981742 0.1726190476194705 0 0.50000000000004996 0.49999999999997519 0 0.29166666666684449 0.7083333333334445 0 0.17261904761971569 0.50000000000021494 0 0.50000000000004996 0.49999999999997519 0 0.17261904761971569 0.50000000000021494 0 0.29166666666652658 0.2916666666668038 0 0.50000000000004996 0.49999999999997519 0 0.50000000000021227 0.82738095238030207 0 0.29166666666684449 0.7083333333334445 0 0.50000000000004996 0.49999999999997519 0 0.49999999999981742 0.1726190476194705 0 0.70833333333327586 0.2916666666665107 0 0.50000000000004996 0.49999999999997519 0 0.82738095238054699 0.49999999999982031 0 0.70833333333346027 0.70833333333323512 0 0.50000000000004996 0.49999999999997519 0 0.70833333333327586 0.2916666666665107 0 0.82738095238054699 0.49999999999982031 0 0.50000000000004996 0.49999999999997519 0 0.70833333333346027 0.70833333333323512 0 0.50000000000021227 0.82738095238030207 0 0.33333333333250248 0 0 0.66666666666578889 0 0 0.49999999999981742 0.1726190476194705 0 1 0.33333333333250248 0 1 0.66666666666578889 0 0.82738095238054699 0.49999999999982031 0 0 0.66666666666759111 0 0 0.33333333333472032 0 0.17261904761971569 0.50000000000021494 0 0.66666666666759111 1 0 0.33333333333472032 1 0 0.50000000000021227 0.82738095238030207 0 0 0.66666666666759111 0 0.17261904761971569 0.50000000000021494 0 0.29166666666684449 0.7083333333334445 0 0.66666666666759111 1 0 0.50000000000021227 0.82738095238030207 0 0.70833333333346027 0.70833333333323512 0 0.33333333333250248 0 0 0.49999999999981742 0.1726190476194705 0 0.29166666666652658 0.2916666666668038 0 1 0.33333333333250248 0 0.82738095238054699 0.49999999999982031 0 0.70833333333327586 0.2916666666665107 0 0 0.33333333333472032 0 0.29166666666652658 0.2916666666668038 0 0.17261904761971569 0.50000000000021494 0 0.33333333333472032 1 0 0.29166666666684449 0.7083333333334445 0 0.50000000000021227 0.82738095238030207 0 0.66666666666578889 0 0 0.70833333333327586 0.2916666666665107 0 0.49999999999981742 0.1726190476194705 0 1 0.66666666666578889 0 0.70833333333346027 0.70833333333323512 0 0.82738095238054699 0.49999999999982031 0 
</DataArray>
</Points>
<Cells>
<DataArray type="UInt32" Name="connectivity" format="ascii">
0 1 2 3 4 5 6 7 8 9 10 11 12 13 14 15 16 17 18 19 20 21 22 23 24 25 26 27 28 29 30 31 32 33 34 35 36 37 38 39 40 41 42 43 44 45 46 47 48 49 50 51 52 53 54 55 56 57 58 59 60 61 62 63 64 65 66 67 68 69 70 71 72 73 74 75 76 77 78 79 80 81 82 83 
</DataArray>
<DataArray type="UInt32" Name="offsets" format="ascii">
3 6 9 12 15 18 21 24 27 30 33 36 39 42 45 48 51 54 57 60 63 66 69 72 75 78 81 84 
</DataArray>
<DataArray type="UInt32" Name="types" format="ascii">
5 5 5 5 5 5 5 5 5 5 5 5 5 5 5 5 5 5 5 5 5 5 5 5 5 5 5 5 
</DataArray>
</Cells>
<PointData Scalars="" Vectors="displacement," Tensors="">
<DataArray type="Float64" Name="displacement" NumberOfComponents="3" format="ascii">
-0.0010230913101106395 -0.0031794863224336627 0 -0.00043988095577872035 -0.002142255253155906 0 -0.00035784389091401698 -0.003133751369727909 0 -1.006008215312156e-06 -1.0561073158709558e-06 0 -0.00030317183683270949 -0.00070560489840671586 0 -0.00084131509998701056 -0.0010955784418761221 0 -0.0010230913101106395 -0.0031794863224336627 0 -0.00098459628534654058 -0.002080909418384388 0 -0.00043988095577872035 -0.002142255253155906 0 -1.006008215312156e-06 -1.0561073158709558e-06 0 3.5329122135076899e-07 -6.9486666578710367e-07 0 -0.00030317183683270933 -0.00070560489840671564 0 0.0010230913111332729 -0.0031794863229740165 0 0.00035784389184492343 -0.0031337513698447067 0 0.00043988095634599775 -0.0021422552532718241 0 0.0010230913111332729 -0.0031794863229740165 0 0.00043988095634599775 -0.0021422552532718241 0 0.00098459628605092418 -0.0020809094187775861 0 1.0060082157582895e-06 -1.0561073162154115e-06 0 0.00084131510020327637 -0.0010955784421400995 0 0.00030317183682671082 -0.00070560489848934865 0 1.0060082157582895e-06 -1.0561073162154115e-06 0 0.00030317183682671082 -0.00070560489848934865 0 -3.5329122156450542e-07 -6.9486666589992867e-07 0 6.4998878899171643e-14 -0.0013722957481061215 0 -0.00030317183683270928 -0.00070560489840671542 0 -4.6013269949392619e-14 -0.00036464057953399415 0 6.4998878899171643e-14 -0.0013722957481061215 0 -0.00043988095577872035 -0.002142255253155906 0 -0.00064110296866356489 -0.001479427946574478 0 6.4998878899171643e-14 -0.0013722957481061215 0 -0.00064110296866356489 -0.001479427946574478 0 -0.00030317183683270933 -0.00070560489840671564 0 6.4998878899171643e-14 -0.0013722957481061215 0 3.4477342294207653e-13 -0.0025279104863828953 0 -0.00043988095577872035 -0.002142255253155906 0 6.4998878899171643e-14 -0.0013722957481061215 0 -4.6013269949392619e-14 -0.00036464057953399415 0 0.00030317183682671082 -0.00070560489848934865 0 6.4998878899171643e-14 -0.0013722957481061215 0 0.00064110296903471234 -0.0014794279467322264 0 0.00043988095634599775 -0.0021422552532718241 0 6.4998878899171643e-14 -0.0013722957481061215 0 0.00030317183682671082 -0.00070560489848934865 0 0.00064110296903471234 -0.0014794279467322264 0 6.4998878899171643e-14 -0.0013722957481061215 0 0.00043988095634599775 -0.0021422552532718241 0 3.447735635914746e-13 -0.0025279104863828949 0 3.5329122135081843e-07 -6.9486666578698879e-07 0 -3.5329122156450542e-07 -6.9486666589992867e-07 0 -4.6013269949392619e-14 -0.00036464057953399415 0 0.00084131510020327637 -0.0010955784421400995 0 0.00098459628605092418 -0.0020809094187775861 0 0.00064110296903471234 -0.0014794279467322264 0 -0.00098459628534654058 -0.002080909418384388 0 -0.00084131509998701056 -0.0010955784418761221 0 -0.00064110296866356489 -0.001479427946574478 0 0.00035784389184492343 -0.0031337513698447067 0 -0.00035784389091401698 -0.003133751369727909 0 3.447735635914746e-13 -0.0025279104863828949 0 -0.00098459628534654058 -0.002080909418384388 0 -0.00064110296866356489 -0.001479427946574478 0 -0.00043988095577872035 -0.002142255253155906 0 0.00035784389184492343 -0.0031337513698447067 0 3.447735635914746e-13 -0.0025279104863828949 0 0.00043988095634599775 -0.0021422552532718241 0 3.5329122135081843e-07 -6.9486666578698879e-07 0 -4.6013269949392619e-14 -0.00036464057953399415 0 -0.00030317183683270933 -0.00070560489840671564 0 0.00084131510020327637 -0.0010955784421400995 0 0.00064110296903471234 -0.0014794279467322264 0 0.00030317183682671082 -0.00070560489848934865 0 -0.00084131509998701056 -0.0010955784418761221 0 -0.00030317183683270933 -0.00070560489840671564 0 -0.00064110296866356489 -0.001479427946574478 0 -0.00035784389091401698 -0.003133751369727909 0 -0.00043988095577872035 -0.002142255253155906 0 3.447735635914746e-13 -0.0025279104863828949 0 -3.5329122156450542e-07 -6.9486666589992867e-07 0 0.00030317183682671082 -0.00070560489848934865 0 -4.6013269949392619e-14 -0.00036464057953399415 0 0.00098459628605092418 -0.0020809094187775861 0 0.00043988095634599775 -0.0021422552532718241 0 0.00064110296903471234 -0.0014794279467322264 0 
</DataArray>
</PointData>
<CellData Scalars="" Vectors="" Tensors="stress,">
<DataArray type="Float64" Name="stress" NumberOfComponents="9" format="ascii">
6705125.6423415244 1333687.5799003094 0 1333687.5799003094 -101590038.52602649 0 0 0 -33209719.509289742 -12269590.312106453 -16529561.268041659 0 -16529561.268041659 -107639533.35781398 0 0 0 -41968193.28447216 4743658.9976851568 1450050.2250382453 0 1450050.2250382453 -98852820.913768426 0 0 0 -32938206.670629181 -56212481.205980361 -10389913.03047473 0 -10389913.03047473 -104627630.71453491 0 0 0 -56294039.17218034 6705125.6506359279 -1333687.5798736906 0 -1333687.5798736906 -101590038.52713805 0 0 0 -33209719.506775737 4743659.0141892135 -1450050.2257916629 0 -1450050.2257916629 -98852820.917916954 0 0 0 -32938206.666304708 -12269590.301482975 16529561.269416708 0 16529561.269416708 -107639533.37710121 0 0 0 -41968193.287504457 -56212481.212551318 10389913.030276934 0 10389913.030276934 -104627630.72685003 0 0 0 -56294039.17879048 -8758589.9546748251 -1221875.6330602393 0 -1221875.6330602393 -99421656.588374048 0 0 0 -37863086.290067099 6258859.6225812137 1740897.4084319398 0 1740897.4084319398 -100278012.64543581 0 0 0 -32906703.557999104 2553741.0946582258 -1758131.7205692276 0 -1758131.7205692276 -107158947.05442104 0 0 0 -36611822.085916996 9131424.7788325176 1659278.7907442153 0 1659278.7907442153 -103694701.91957875 0 0 0 -33097146.999261178 -8758589.9535776991 1221875.6358117089 0 1221875.6358117089 -99421656.587788627 0 0 0 -37863086.289478205 6258859.6527462304 -1740897.3996758391 0 -1740897.3996758391 -100278012.63146162 0 0 0 -32906703.542550355 2553741.1246047467 1758131.7295649797 0 1758131.7295649797 -107158947.04087666 0 0 0 -36611822.070695162 9131424.7957273126 -1659278.7792730182 0 -1659278.7792730182 -103694701.91047657 0 0 0 -33097146.990162253 -49287276.215498134 -0.0026627124680089764 0 -0.0026627124680089764 -91412384.552853912 0 0 0 -49244881.268923208 -728760.38566659344 -2005386.9302126169 0 -2005386.9302126169 -91346038.051139742 0 0 0 -32226179.452882245 -728760.39937186241 2005386.9346676469 0 2005386.9346676469 -91346038.046704859 0 0 0 -32226179.456126854 11146437.17491436 0.003369817485093826 0 0.003369817485093826 -101988808.00543344 0 0 0 -31794829.790681601 3830372.4414066374 1555476.233627744 0 1555476.233627744 -100506915.60483027 0 0 0 -33836790.107198253 12392920.911803335 -773276.23946897686 0 -773276.23946897686 -98361645.493014991 0 0 0 -30089053.603424072 -14859299.346692756 -6284934.0100481398 0 -6284934.0100481398 -81142005.09663415 0 0 0 -33600456.555164412 1165668.3980301395 -2598989.3114266433 0 -2598989.3114266433 -98220688.473634616 0 0 0 -33969257.026461534 1165668.3739401698 2598989.3199059386 0 2598989.3199059386 -98220688.486836642 0 0 0 -33969257.039513767 12392920.908245489 773276.24587826431 0 773276.24587826431 -98361645.492254958 0 0 0 -30089053.604403302 -14859299.33230409 6284934.0065594632 0 6284934.0065594632 -81142005.096483931 0 0 0 -33600456.550075807 3830372.4611587226 -1555476.2306769714 0 -1555476.2306769714 -100506915.60592109 0 0 0 -33836790.100666851 
</DataArray>
</CellData>
</Piece>
</UnstructuredGrid>
</VTKFile>
