<?xml version="1.0"?>
<VTKFile type="UnstructuredGrid" version="0.1" byte_order="LittleEndian">
<UnstructuredGrid>
<Piece NumberOfPoints="84" NumberOfCells="28">
<Points>
<DataArray type="Float64" NumberOfComponents="3" format="ascii">
0 1 0 0.29166666666684449 0.7083333333334445 0 0.33333333333472032 1 0 0 0 0 0.29166666666652658 0.2916666666668038 0 0 0.33333333333472032 0 0 1 0 0 0.66666666666759111 0 0.29166666666684449 0.7083333333334445 0 0 0 0 0.33333333333250248 0 0 0.29166666666652658 0.2916666666668038 0 1 1 0 0.66666666666759111 1 0 0.70833333333346027 0.70833333333323512 0 1 1 0 0.70833333333346027 0.70833333333323512 0 1 0.66666666666578889 0 1 0 0 1 0.33333333333250248 0 0.70833333333327586 0.2916666666665107 0 1 0 0 0.70833333333327586 0.2916666666665107 0 0.66666666666578889 0 0 0.50000000000004996 0.49999999999997519 0 0.29166666666652658 0.2916666666668038 0 0.49999999999981742 0.1726190476194705 0 0.50000000000004996 0.49999999999997519 0 0.29166666666684449 0.7083333333334445 0 0.17261904761971569 0.50000000000021494 0 0.50000000000004996 0.49999999999997519 0 0.17261904761971569 0.50000000000021494 0 0.29166666666652658 0.2916666666668038 0 0.50000000000004996 0.49999999999997519 0 0.50000000000021227 0.82738095238030207 0 0.29166666666684449 0.7083333333334445 0 0.50000000000004996 0.49999999999997519 0 0.49999999999981742 0.1726190476194705 0 0.70833333333327586 0.2916666666665107 0 0.50000000000004996 0.49999999999997519 0 0.82738095238054699 0.49999999999982031 0 0.70833333333346027 0.70833333333323512 0 0.50000000000004996 0.49999999999997519 0 0.70833333333327586 0.2916666666665107 0 0.82738095238054699 0.49999999999982031 0 0.50000000000004996 0.49999999999997519 0 0.70833333333346027 0.70833333333323512 0 0.50000000000021227 0.82738095238030207 0 0.33333333333250248 0 0 0.66666666666578889 0 0 0.49999999999981742 0.1726190476194705 0 1 0.33333333333250248 0 1 0.66666666666578889 0 0.82738095238054699 0.49999999999982031 0 0 0.66666666666759111 0 0 0.33333333333472032 0 0.17261904761971569 0.50000000000021494 0 0.66666666666759111 1 0 0.33333333333472032 1 0 0.50000000000021227 0.82738095238030207 0 0 0.66666666666759111 0 0.17261904761971569 0.50000000000021494 0 0.29166666666684449 0.7083333333334445 0 0.66666666666759111 1 0 0.50000000000021227 0.82738095238030207 0 0.70833333333346027 0.70833333333323512 0 0.33333333333250248 0 0 0.49999999999981742 0.1726190476194705 0 0.29166666666652658 0.2916666666668038 0 1 0.33333333333250248 0 0.82738095238054699 0.49999999999982031 0 0.70833333333327586 0.2916666666665107 0 0 0.33333333333472032 0 0.29166666666652658 0.2916666666668038 0 0.17261904761971569 0.50000000000021494 0 0.33333333333472032 1 0 0.29166666666684449 0.7083333333334445 0 0.50000000000021227 0.82738095238030207 0 0.66666666666578889 0 0 0.70833333333327586 0.2916666666665107 0 0.49999999999981742 0.1726190476194705 0 1 0.66666666666578889 0 0.70833333333346027 0.70833333333323512 0 0.82738095238054699 0.49999999999982031 0 
</DataArray>
</Points>
<Cells>
<DataArray type="UInt32" Name="connectivity" format="ascii">
0 1 2 3 4 5 6 7 8 9 10 11 12 13 14 15 16 17 18 19 20 21 22 23 24 25 26 27 28 29 30 31 32 33 34 35 36 37 38 39 40 41 42 43 44 45 46 47 48 49 50 51 52 53 54 55 56 57 58 59 60 61 62 63 64 65 66 67 68 69 70 71 72 73 74 75 76 77 78 79 80 81 82 83 
</DataArray>
<DataArray type="UInt32" Name="offsets" format="ascii">
3 6 9 12 15 18 21 24 27 30 33 36 39 42 45 48 51 54 57 60 63 66 69 72 75 78 81 84 
</DataArray>
<DataArray type="UInt32" Name="types" format="ascii">
5 5 5 5 5 5 5 5 5 5 5 5 5 5 5 5 5 5 5 5 5 5 5 5 5 5 5 5 
</DataArray>
</Cells>
<PointData Scalars="" Vectors="displacement," Tensors="">
<DataArray type="Float64" Name="displacement" NumberOfComponents="3" format="ascii">
-0.0010938875723400417 -0.0032268379498792657 0 -0.00047898252112784669 -0.0021694140796201808 0 -0.00038566655244969228 -0.0031864643375947811 0 -1.071983877708342e-06 -1.0922977937984868e-06 0 -0.00033437906337550552 -0.00070110121378074721 0 -0.00090043121207368688 -0.0011134421134642966 0 -0.0010938875723400417 -0.0032268379498792657 0 -0.0010513953654315668 -0.0021066502301385127 0 -0.00047898252112784669 -0.0021694140796201808 0 -1.071983877708342e-06 -1.0922977937984868e-06 0 3.6562201647522209e-07 -7.2411224173617838e-07 0 -0.00033437906337550536 -0.00070110121378074699 0 0.0010938875737182721 -0.0032268379506078782 0 0.00038566655363864589 -0.0031864643377422014 0 0.00047898252184414144 -0.0021694140797490391 0 0.0010938875737182721 -0.0032268379506078782 0 0.00047898252184414144 -0.0021694140797490391 0 0.0010513953663837802 -0.0021066502306545556 0 1.0719838784041601e-06 -1.0922977942409573e-06 0 0.00090043121234397599 -0.0011134421138406191 0 0.00033437906329359502 -0.00070110121388560159 0 1.0719838784041601e-06 -1.0922977942409573e-06 0 0.00033437906329359502 -0.00070110121388560159 0 -3.6562201682832196e-07 -7.2411224194798161e-07 0 2.7023773600844258e-14 -0.0013782164453969555 0 -0.0003343790633755053 -0.00070110121378074678 0 -9.7804769389505755e-14 -0.00035442148983690167 0 2.7023773600844258e-14 -0.0013782164453969555 0 -0.00047898252112784669 -0.0021694140796201808 0 -0.00069554418375738559 -0.001493615939252096 0 2.7023773600844258e-14 -0.0013782164453969555 0 -0.00069554418375738559 -0.001493615939252096 0 -0.00033437906337550536 -0.00070110121378074699 0 2.7023773600844258e-14 -0.0013782164453969555 0 4.1535306271476004e-13 -0.0025652202659763508 0 -0.00047898252112784669 -0.0021694140796201808 0 2.7023773600844258e-14 -0.0013782164453969555 0 -9.7804769389505755e-14 -0.00035442148983690167 0 0.00033437906329359502 -0.00070110121388560159 0 2.7023773600844258e-14 -0.0013782164453969555 0 0.00069554418423327293 -0.0014936159394578427 0 0.00047898252184414144 -0.0021694140797490391 0 2.7023773600844258e-14 -0.0013782164453969555 0 0.00033437906329359502 -0.00070110121388560159 0 0.00069554418423327293 -0.0014936159394578427 0 2.7023773600844258e-14 -0.0013782164453969555 0 0.00047898252184414144 -0.0021694140797490391 0 4.1535321586665809e-13 -0.0025652202659763503 0 3.6562201647527661e-07 -7.2411224173606424e-07 0 -3.6562201682832196e-07 -7.2411224194798161e-07 0 -9.7804769389505755e-14 -0.00035442148983690167 0 0.00090043121234397599 -0.0011134421138406191 0 0.0010513953663837802 -0.0021066502306545556 0 0.00069554418423327293 -0.0014936159394578427 0 -0.0010513953654315668 -0.0021066502301385127 0 -0.00090043121207368688 -0.0011134421134642966 0 -0.00069554418375738559 -0.001493615939252096 0 0.00038566655363864589 -0.0031864643377422014 0 -0.00038566655244969228 -0.0031864643375947811 0 4.1535321586665809e-13 -0.0025652202659763503 0 -0.0010513953654315668 -0.0021066502301385127 0 -0.00069554418375738559 -0.001493615939252096 0 -0.00047898252112784669 -0.0021694140796201808 0 0.00038566655363864589 -0.0031864643377422014 0 4.1535321586665809e-13 -0.0025652202659763503 0 0.00047898252184414144 -0.0021694140797490391 0 3.6562201647527661e-07 -7.2411224173606424e-07 0 -9.7804769389505755e-14 -0.00035442148983690167 0 -0.00033437906337550536 -0.00070110121378074699 0 0.00090043121234397599 -0.0011134421138406191 0 0.00069554418423327293 -0.0014936159394578427 0 0.00033437906329359502 -0.00070110121388560159 0 -0.00090043121207368688 -0.0011134421134642966 0 -0.00033437906337550536 -0.00070110121378074699 0 -0.00069554418375738559 -0.001493615939252096 0 -0.00038566655244969228 -0.0031864643375947811 0 -0.00047898252112784669 -0.0021694140796201808 0 4.1535321586665809e-13 -0.0025652202659763503 0 -3.6562201682832196e-07 -7.2411224194798161e-07 0 0.00033437906329359502 -0.00070110121388560159 0 -9.7804769389505755e-14 -0.00035442148983690167 0 0.0010513953663837802 -0.0021066502306545556 0 0.00047898252184414144 -0.0021694140797490391 0 0.00069554418423327293 -0.0014936159394578427 0 
</DataArray>
</PointData>
<CellData Scalars="" Vectors="" Tensors="stress,">
<DataArray type="Float64" Name="stress" NumberOfComponents="9" format="ascii">
10300975.82450828 1375380.0664607435 0 1375380.0664607435 -102278934.02089655 0 0 0 -32192285.36873585 -10467696.385491267 -17610588.066751909 0 -17610588.066751909 -108314896.42288329 0 0 0 -41573907.482931092 7420194.6141457781 1374134.8950348347 0 1374134.8950348347 -99406453.953354672 0 0 0 -32195190.768723138 -55839597.501329616 -11459753.907325633 0 -11459753.907325633 -103948556.37004425 0 0 0 -55925853.854980849 10300975.842531115 -1375380.0670132881 0 -1375380.0670132881 -102278934.02071482 0 0 0 -32192285.362364322 7420194.6427680254 -1374134.8966074511 0 -1374134.8966074511 -99406453.957005501 0 0 0 -32195190.759983093 -10467696.364386089 17610588.067140516 0 17610588.067140516 -108314896.44689873 0 0 0 -41573907.483949669 -55839597.509619512 11459753.904529354 0 11459753.904529354 -103948556.3856183 0 0 0 -55925853.86333324 -3417813.4797341377 -1229248.8348324858 0 -1229248.8348324858 -98062768.116678894 0 0 0 -35518203.558744557 11675459.037401184 1779482.2288371995 0 1779482.2288371995 -99721080.360145181 0 0 0 -30815967.462960407 8003014.8234487921 -1670588.2127793566 0 -1670588.2127793566 -106541333.90032801 0 0 0 -34488411.676907733 15027364.875621382 1719915.207683593 0 1719915.207683593 -103470099.67269282 0 0 0 -30954957.178974982 -3417813.4749714313 1229248.8373585492 0 1229248.8373585492 -98062768.114119738 0 0 0 -35518203.5561819 11675459.093452811 -1779482.2162696931 0 -1779482.2162696931 -99721080.32963115 0 0 0 -30815967.432662398 8003014.8763787597 1670588.2258223817 0 1670588.2258223817 -106541333.87563521 0 0 0 -34488411.649739757 15027364.910572201 -1719915.1902046502 0 -1719915.1902046502 -103470099.65386793 0 0 0 -30954957.160153508 -47905190.006027289 -0.0056619774659338873 0 -0.0056619774659338873 -88841425.319770068 0 0 0 -47861315.364029065 857745.11088486074 -2215999.2094841748 0 -2215999.2094841748 -91218886.492361307 0 0 0 -31626399.483516768 857745.08630685508 2215999.2157184333 0 2215999.2157184333 -91218886.492812663 0 0 0 -31626399.492277041 16298243.066656888 0.0058277341388522563 0 0.0058277341388522563 -101960366.77724993 0 0 0 -29981743.298707545 6303612.316488266 1810257.9556798264 0 1810257.9556798264 -101168067.2580381 0 0 0 -33202559.229542449 18157121.540752023 -916995.49000111967 0 -916995.49000111967 -97960083.604878962 0 0 0 -27931036.722444415 -10182840.2836302 -6822022.5101753399 0 -6822022.5101753399 -77971898.158877939 0 0 0 -30854158.454877846 3762800.688034907 -2675499.1727258451 0 -2675499.1727258451 -98360021.550066009 0 0 0 -33109027.301710889 3762800.6474019289 2675499.184695892 0 2675499.184695892 -98360021.573955953 0 0 0 -33109027.324293911 18157121.527128369 916995.49947214127 0 916995.49947214127 -97960083.607212394 0 0 0 -27931036.7280294 -10182840.257490553 6822022.5029564667 0 6822022.5029564667 -77971898.154423714 0 0 0 -30854158.444169991 6303612.3524586558 -1810257.9521520827 0 -1810257.9521520827 -101168067.25197703 0 0 0 -33202559.214831471 
</DataArray>
</CellData>
</Piece>
</UnstructuredGrid>
</VTKFile>
