<?xml version="1.0"?>
<VTKFile type="UnstructuredGrid" version="0.1" byte_order="LittleEndian">
<UnstructuredGrid>
<Piece NumberOfPoints="84" NumberOfCells="28">
<Points>
<DataArray type="Float64" NumberOfComponents="3" format="ascii">
0 1 0 0.29166666666684449 0.7083333333334445 0 0.33333333333472032 1 0 0 0 0 0.29166666666652658 0.2916666666668038 0 0 0.33333333333472032 0 0 1 0 0 0.66666666666759111 0 0.29166666666684449 0.7083333333334445 0 0 0 0 0.33333333333250248 0 0 0.29166666666652658 0.2916666666668038 0 1 1 0 0.66666666666759111 1 0 0.70833333333346027 0.70833333333323512 0 1 1 0 0.70833333333346027 0.70833333333323512 0 1 0.66666666666578889 0 1 0 0 1 0.33333333333250248 0 0.70833333333327586 0.2916666666665107 0 1 0 0 0.70833333333327586 0.2916666666665107 0 0.66666666666578889 0 0 0.50000000000004996 0.49999999999997519 0 0.29166666666652658 0.2916666666668038 0 0.49999999999981742 0.1726190476194705 0 0.50000000000004996 0.49999999999997519 0 0.29166666666684449 0.7083333333334445 0 0.17261904761971569 0.50000000000021494 0 0.50000000000004996 0.49999999999997519 0 0.17261904761971569 0.50000000000021494 0 0.29166666666652658 0.2916666666668038 0 0.50000000000004996 0.49999999999997519 0 0.50000000000021227 0.82738095238030207 0 0.29166666666684449 0.7083333333334445 0 0.50000000000004996 0.49999999999997519 0 0.49999999999981742 0.1726190476194705 0 0.70833333333327586 0.2916666666665107 0 0.50000000000004996 0.49999999999997519 0 0.82738095238054699 0.49999999999982031 0 0.70833333333346027 0.70833333333323512 0 0.50000000000004996 0.49999999999997519 0 0.70833333333327586 0.2916666666665107 0 0.82738095238054699 0.49999999999982031 0 0.50000000000004996 0.49999999999997519 0 0.70833333333346027 0.70833333333323512 0 0.50000000000021227 0.82738095238030207 0 0.33333333333250248 0 0 0.66666666666578889 0 0 0.49999999999981742 0.1726190476194705 0 1 0.33333333333250248 0 1 0.66666666666578889 0 0.82738095238054699 0.49999999999982031 0 0 0.66666666666759111 0 0 0.33333333333472032 0 0.17261904761971569 0.50000000000021494 0 0.66666666666759111 1 0 0.33333333333472032 1 0 0.50000000000021227 0.82738095238030207 0 0 0.66666666666759111 0 0.17261904761971569 0.50000000000021494 0 0.29166666666684449 0.7083333333334445 0 0.66666666666759111 1 0 0.50000000000021227 0.82738095238030207 0 0.70833333333346027 0.70833333333323512 0 0.33333333333250248 0 0 0.49999999999981742 0.1726190476194705 0 0.29166666666652658 0.2916666666668038 0 1 0.33333333333250248 0 0.82738095238054699 0.49999999999982031 0 0.70833333333327586 0.2916666666665107 0 0 0.33333333333472032 0 0.29166666666652658 0.2916666666668038 0 0.17261904761971569 0.50000000000021494 0 0.33333333333472032 1 0 0.29166666666684449 0.7083333333334445 0 0.50000000000021227 0.82738095238030207 0 0.66666666666578889 0 0 0.70833333333327586 0.2916666666665107 0 0.49999999999981742 0.1726190476194705 0 1 0.66666666666578889 0 0.70833333333346027 0.70833333333323512 0 0.82738095238054699 0.49999999999982031 0 
</DataArray>
</Points>
<Cells>
<DataArray type="UInt32" Name="connectivity" format="ascii">
0 1 2 3 4 5 6 7 8 9 10 11 12 13 14 15 16 17 18 19 20 21 22 23 24 25 26 27 28 29 30 31 32 33 34 35 36 37 38 39 40 41 42 43 44 45 46 47 48 49 50 51 52 53 54 55 56 57 58 59 60 61 62 63 64 65 66 67 68 69 70 71 72 73 74 75 76 77 78 79 80 81 82 83 
</DataArray>
<DataArray type="UInt32" Name="offsets" format="ascii">
3 6 9 12 15 18 21 24 27 30 33 36 39 42 45 48 51 54 57 60 63 66 69 72 75 78 81 84 
</DataArray>
<DataArray type="UInt32" Name="types" format="ascii">
5 5 5 5 5 5 5 5 5 5 5 5 5 5 5 5 5 5 5 5 5 5 5 5 5 5 5 5 
</DataArray>
</Cells>
<PointData Scalars="" Vectors="displacement," Tensors="">
<DataArray type="Float64" Name="displacement" NumberOfComponents="3" format="ascii">
-0.00098173775082483882 -0.0031515195073892814 0 -0.00041586286787877159 -0.0021237042113552568 0 -0.00034118060300303141 -0.0030999723454890543 0 -9.7001235065121962e-07 -1.0344684332850335e-06 0 -0.00028451816666416792 -0.00070617849881406721 0 -0.00080680841818111702 -0.0010835045355056319 0 -0.00098173775082483882 -0.0031515195073892814 0 -0.00094522599899389288 -0.0020643220346249322 0 -0.00041586286787877159 -0.0021237042113552568 0 -9.7001235065121962e-07 -1.0344684332850335e-06 0 3.4798222710096543e-07 -6.7767848649712711e-07 0 -0.00028451816666416775 -0.00070617849881406711 0 0.00098173774950218026 -0.003151519506851034 0 0.00034118060165869553 -0.0030999723452900512 0 0.00041586286691209622 -0.0021237042111117406 0 0.00098173774950218026 -0.003151519506851034 0 0.00041586286691209622 -0.0021237042111117406 0 0.00094522599809382987 -0.0020643220341024751 0 9.7001235051567698e-07 -1.0344684328119857e-06 0 0.00080680841766143528 -0.0010835045351898541 0 0.0002845181663122354 -0.00070617849872790241 0 9.7001235051567698e-07 -1.0344684328119857e-06 0 0.0002845181663122354 -0.00070617849872790241 0 -3.4798222713502367e-07 -6.7767848655938477e-07 0 -3.2853686159010909e-13 -0.0013661100274943924 0 -0.0002845181666641677 -0.00070617849881406689 0 -9.1815357061347722e-14 -0.00036923871640762303 0 -3.2853686159010909e-13 -0.0013661100274943924 0 -0.00041586286787877159 -0.0021237042113552568 0 -0.00060868945073041245 -0.0014687527428548482 0 -3.2853686159010909e-13 -0.0013661100274943924 0 -0.00060868945073041245 -0.0014687527428548482 0 -0.00028451816666416775 -0.00070617849881406711 0 -3.2853686159010909e-13 -0.0013661100274943924 0 -5.6610256903261117e-13 -0.0025029661323743247 0 -0.00041586286787877159 -0.0021237042113552568 0 -3.2853686159010909e-13 -0.0013661100274943924 0 -9.1815357061347722e-14 -0.00036923871640762303 0 0.0002845181663122354 -0.00070617849872790241 0 -3.2853686159010909e-13 -0.0013661100274943924 0 0.00060868945006680732 -0.0014687527425593461 0 0.00041586286691209622 -0.0021237042111117406 0 -3.2853686159010909e-13 -0.0013661100274943924 0 0.0002845181663122354 -0.00070617849872790241 0 0.00060868945006680732 -0.0014687527425593461 0 -3.2853686159010909e-13 -0.0013661100274943924 0 0.00041586286691209622 -0.0021237042111117406 0 -5.6610243606285838e-13 -0.0025029661323743243 0 3.4798222710101186e-07 -6.7767848649701212e-07 0 -3.4798222713502367e-07 -6.7767848655938477e-07 0 -9.1815357061347722e-14 -0.00036923871640762303 0 0.00080680841766143528 -0.0010835045351898541 0 0.00094522599809382997 -0.0020643220341024751 0 0.00060868945006680732 -0.0014687527425593461 0 -0.00094522599899389288 -0.0020643220346249322 0 -0.00080680841818111702 -0.0010835045355056319 0 -0.00060868945073041245 -0.0014687527428548482 0 0.00034118060165869553 -0.0030999723452900512 0 -0.00034118060300303141 -0.0030999723454890543 0 -5.6610243606285838e-13 -0.0025029661323743243 0 -0.00094522599899389288 -0.0020643220346249322 0 -0.00060868945073041245 -0.0014687527428548482 0 -0.00041586286787877159 -0.0021237042113552568 0 0.00034118060165869553 -0.0030999723452900512 0 -5.6610243606285838e-13 -0.0025029661323743243 0 0.00041586286691209622 -0.0021237042111117406 0 3.4798222710101186e-07 -6.7767848649701212e-07 0 -9.1815357061347722e-14 -0.00036923871640762303 0 -0.00028451816666416775 -0.00070617849881406711 0 0.00080680841766143528 -0.0010835045351898541 0 0.00060868945006680732 -0.0014687527425593461 0 0.0002845181663122354 -0.00070617849872790241 0 -0.00080680841818111702 -0.0010835045355056319 0 -0.00028451816666416775 -0.00070617849881406711 0 -0.00060868945073041245 -0.0014687527428548482 0 -0.00034118060300303141 -0.0030999723454890543 0 -0.00041586286787877159 -0.0021237042113552568 0 -5.6610243606285838e-13 -0.0025029661323743243 0 -3.4798222713502367e-07 -6.7767848655938477e-07 0 0.0002845181663122354 -0.00070617849872790241 0 -9.1815357061347722e-14 -0.00036923871640762303 0 0.00094522599809382987 -0.0020643220341024751 0 0.00041586286691209622 -0.0021237042111117406 0 0.00060868945006680732 -0.0014687527425593461 0 
</DataArray>
</PointData>
<CellData Scalars="" Vectors="" Tensors="stress,">
<DataArray type="Float64" Name="stress" NumberOfComponents="9" format="ascii">
4655506.8667396605 1361704.7334354073 0 1361704.7334354073 -101163855.44505078 0 0 0 -33777922.002408862 -13141066.292296059 -15877416.918671384 0 -15877416.918671384 -106996272.65596032 0 0 0 -42048068.631889731 3222488.9201889555 1528104.8403678983 0 1528104.8403678983 -98621503.452270344 0 0 0 -33389655.086228497 -56265158.431603022 -9750487.1439592466 0 -9750487.1439592466 -104718379.01487799 0 0 0 -56344238.106268346 4655506.8700442016 -1361704.7362375653 0 -1361704.7362375653 -101163855.44339126 0 0 0 -33777922.000671506 3222488.9238593876 -1528104.8435759991 0 -1528104.8435759991 -98621503.448293835 0 0 0 -33389655.083552033 -13141066.285453595 15877416.909589171 0 15877416.909589171 -106996272.62383567 0 0 0 -42048068.618251234 -56265158.424780883 9750487.1319203358 0 9750487.1319203358 -104718379.00218973 0 0 0 -56344238.099439718 -11869958.45205589 -1226826.0634092744 0 -1226826.0634092744 -100083477.0757512 0 0 0 -39183702.434732482 3033426.7375276089 1766546.6936069429 0 1766546.6936069429 -100610469.99934754 0 0 0 -34151965.141636968 -659608.39912651479 -1800555.5590449413 0 -1800555.5590449413 -107468963.82454744 0 0 0 -37845000.278285891 5472641.3074148679 1638734.3416337371 0 1638734.3416337371 -103901766.91569853 0 0 0 -34450193.96289926 -11869958.451256765 1226826.0530214086 0 1226826.0530214086 -100083477.07532625 0 0 0 -39183702.434304044 3033426.7428618073 -1766546.6992898697 0 -1766546.6992898697 -100610469.98825783 0 0 0 -34151965.135888577 -659608.38856408 1800555.5531477109 0 1800555.5531477109 -107468963.80377269 0 0 0 -37845000.267317861 5472641.3059123158 -1638734.3445127904 0 -1638734.3445127904 -103901766.91650262 0 0 0 -34450193.963706613 -49909760.50481455 -0.0053197633642412256 0 -0.0053197633642412256 -92570247.031072259 0 0 0 -49868002.637560382 -1548739.5149180738 -1939531.5769853592 0 -1939531.5769853592 -91370936.561518222 0 0 0 -32521886.626752734 -1548739.5181270838 1939531.5724452734 0 1939531.5724452734 -91370936.582437158 0 0 0 -32521886.63519749 8008185.7437034249 -0.00028628666655746121 0 -0.00028628666655746121 -102103861.56100917 0 0 0 -32933486.536056936 2481122.3696078062 1458692.3000825047 0 1458692.3000825047 -100095735.08301294 0 0 0 -34165114.449691787 8848141.8260550499 -687325.60338962823 0 -687325.60338962823 -98667989.264536023 0 0 0 -31436946.603468329 -17480810.043505281 -5950565.4547220394 0 -5950565.4547220394 -82713913.870350286 0 0 0 -35068153.369849443 -211499.72872752696 -2591790.6052321419 0 -2591790.6052321419 -97983397.391498178 0 0 0 -34368213.992078997 -211499.72622773051 2591790.5992524102 0 2591790.5992524102 -97983397.409147024 0 0 0 -34368213.997381181 8848141.8233637661 687325.60213701427 0 687325.60213701427 -98667989.266554147 0 0 0 -31436946.605116621 -17480810.042975314 5950565.4454365093 0 5950565.4454365093 -82713913.862160087 0 0 0 -35068153.366797388 2481122.3780521154 -1458692.304659877 0 -1458692.304659877 -100095735.06876647 0 0 0 -34165114.44175002 
</DataArray>
</CellData>
</Piece>
</UnstructuredGrid>
</VTKFile>
