<?xml version="1.0"?>
<VTKFile type="UnstructuredGrid" version="0.1" byte_order="LittleEndian">
<UnstructuredGrid>
<Piece NumberOfPoints="3162" NumberOfCells="1054">
<Points>
<DataArray type="Float64" NumberOfComponents="3" format="ascii">
0.39507969989512881 0.74417394063201048 0 0.42715538333808079 0.70077759375307946 0 0.44764943295894188 0.73752415265401661 0 0.74417394063200648 0.6049203001048884 0 0.70087539567735502 0.57165914616526226 0 0.73752415265401194 0.55235056704108476 0 0.25582605936799319 0.39507969989513358 0 0.2963043386970643 0.4298320229681446 0 0.26247584734598628 0.44764943295894732 0 0.60492030010488373 0.25582605936799729 0 0.57188338999077359 0.29874123486230147 0 0.55175647814720108 0.26104505532086641 0 0.56566515596461675 0.63670464971409091 0 0.61233489393901674 0.60846740003560018 0 0.60879112811253555 0.66592422311595834 0 0.6519524273377173 0.64249931920594539 0 0.60879112811253555 0.66592422311595834 0 0.61233489393901674 0.60846740003560018 0 0.640156794425081 0.43301393728221721 0 0.60122390529523662 0.39097801071820221 0 0.66346942254826746 0.391530810754116 0 0.6424993192059415 0.3480475726622802 0 0.66346942254826746 0.391530810754116 0 0.60122390529523662 0.39097801071820221 0 0.74198804864688339 0.90892718720327403 0 0.77688977118331393 0.94706199857866258 0 0.71789175274016548 0.95136708251202151 0 0.091072812796719582 0.74198804864687795 0 0.052938001421335763 0.77688977118331159 0 0.04863291748797445 0.71789175274016204 0 0.89586000931544074 0.25714619498770419 0 0.94465622530468663 0.23167460333446291 0 0.94915666091748963 0.28320804985299752 0 0.25714619498771307 0.1041399906845497 0 0.23167460333446299 0.05534377469531044 0 0.28320804985300141 0.050843339082505573 0 0.89999999999958358 1 0 0.84999999999965292 1 0 0.90554214442080472 0.95994154153067524 0 0 0.89999999999958358 0 0 0.84999999999965292 0 0.040058458469322648 0.90554214442079806 0 0.040058458469319477 0.094457855579157729 0 0 0.15000000000062411 0 0 0.10000000000041601 0 0.094457855579188163 0.95994154153068711 0 0.15000000000062411 1 0 0.10000000000041601 1 0 0.90554214442081604 0.040058458469347469 0 0.84999999999960507 0 0 0.89999999999973679 0 0 0.95994154153065969 0.90554214442078618 0 1 0.84999999999960507 0 1 0.89999999999973679 0 1 0.099999999999814668 0 1 0.14999999999970359 0 0.95994154153057998 0.094457855579277675 0 0.099999999999814668 0 0 0.14999999999970359 0 0 0.094457855579284614 0.040058458469418363 0 1 0.19999999999955789 0 0.94465622530468663 0.23167460333446291 0 0.96080966346491015 0.18035159017841959 0 0.19999999999955789 0 0 0.23167460333446299 0.05534377469531044 0 0.18035159017842109 0.039190336535090492 0 0.79999999999999982 1 0 0.77688977118331393 0.94706199857866258 0 0.82675923981951416 0.95611053755456221 0 0 0.79999999999999982 0 0.052938001421335763 0.77688977118331159 0 0.043889462445437968 0.82675923981951283 0 1 0.79999999999947335 0 0.96071093996985157 0.81954008780615684 0 0.9442075111696665 0.76777356182390766 0 0.79999999999947335 0 0 0.82050174006822896 0.038839999600956771 0 0.76543419162344684 0.056452228708420968 0 0.20000000000083221 1 0 0.18045991219397989 0.960710939969875 0 0.23222643817617661 0.94420751116970569 0 0 0.20000000000083221 0 0.038839999600931263 0.17949825993190149 0 0.056452228708379938 0.23456580837661581 0 0.50000000000002642 0.7803135888501761 0 0.53770425635794761 0.80104587463999666 0 0.49771727055908782 0.83998685797641781 0 0.2196864111498267 0.50000000000003153 0 0.1989632851005598 0.53769147668950479 0 0.16001314202358469 0.49771727055909287 0 0.78031358885017377 0.49999999999997569 0 0.80106707846564795 0.46230714888029367 0 0.83998574657308889 0.50228528270184081 0 0.49999999999997108 0.21968641114982909 0 0.46229330881044273 0.19890916456654811 0 0.50228272944093777 0.16001314202359701 0 0.79999999999999982 1 0 0.75000000000034661 1 0 0.77688977118331393 0.94706199857866258 0 0 0.79999999999999982 0 0 0.75000000000034661 0 0.052938001421335763 0.77688977118331159 0 1 0.19999999999955789 0 1 0.24999999999941211 0 0.94465622530468663 0.23167460333446291 0 0.19999999999955789 0 0 0.24999999999941211 0 0 0.23167460333446299 0.05534377469531044 0 1 0.74999999999934175 0 1 0.79999999999947335 0 0.9442075111696665 0.76777356182390766 0 0.74999999999934175 0 0 0.79999999999947335 0 0 0.76543419162344684 0.056452228708420968 0 0.25000000000104028 1 0 0.20000000000083221 1 0 0.23222643817617661 0.94420751116970569 0 0 0.25000000000104028 0 0 0.20000000000083221 0 0.056452228708379938 0.23456580837661581 0 1 0.74999999999934175 0 0.9442075111696665 0.76777356182390766 0 0.94635952848698612 0.71209247961721311 0 0.74999999999934175 0 0 0.76543419162344684 0.056452228708420968 0 0.71174922810186925 0.053730171687687178 0 0.25000000000104028 1 0 0.23222643817617661 0.94420751116970569 0 0.28790752038294382 0.94635952848702642 0 0 0.25000000000104028 0 0.056452228708379938 0.23456580837661581 0 0.053730171687646627 0.28825077189828552 0 0.8289812646369813 0.82898126463698818 0 0.87660297360393757 0.8104127896505644 0 0.88962265630811221 0.85311725681459705 0 0.17101873536300011 0.82898126463696109 0 0.18958721034944021 0.87660297360394568 0 0.14688274318541941 0.88962265630811932 0 0.39507969989512881 0.74417394063201048 0 0.44764943295894188 0.73752415265401661 0 0.43306783640023289 0.78031198216144404 0 0.74417394063200648 0.6049203001048884 0 0.73752415265401194 0.55235056704108476 0 0.78031198216143516 0.56693216359979737 0 0.25582605936799319 0.39507969989513358 0 0.26247584734598628 0.44764943295894732 0 0.21968801783855879 0.43306783640023788 0 0.60492030010488373 0.25582605936799729 0 0.55175647814720108 0.26104505532086641 0 0.56683314878414581 0.21944955250104689 0 0.90554214442080472 0.95994154153067524 0 0.84999999999965292 1 0 0.86696410734367158 0.94753096683315619 0 0.040058458469322648 0.90554214442079806 0 0 0.84999999999965292 0 0.052469033166843738 0.86696410734366991 0 0.054872692726595548 0.13410685639845171 0 0 0.15000000000062411 0 0.040058458469319477 0.094457855579157729 0 0.13834721989462789 0.94095916274077984 0 0.15000000000062411 1 0 0.094457855579188163 0.95994154153068711 0 0.86589314360155567 0.054872692726639853 0 0.84999999999960507 0 0 0.90554214442081604 0.040058458469347469 0 0.94095916274074942 0.86165278010542579 0 1 0.84999999999960507 0 0.95994154153065969 0.90554214442078618 0 0.95994154153057998 0.094457855579277675 0 1 0.14999999999970359 0 0.94100406608115506 0.1383574446607955 0 0.094457855579284614 0.040058458469418363 0 0.14999999999970359 0 0 0.1383574446607988 0.058995933918849157 0 0.1104775404132264 0.2631175359816938 0 0.099694771212264055 0.22074048840547039 0 0.15899695163321451 0.22783674912227669 0 0.73688246401832591 0.11047754041323141 0 0.77925951159456153 0.09969477121230251 0 0.77216325087772952 0.15899695163319821 0 0.88949062093135778 0.73694585442531257 0 0.9041449437197947 0.7786886066890556 0 0.839908789927305 0.77106070975262608 0 0.26305414557470391 0.88949062093136155 0 0.22131139331094829 0.9041449437198319 0 0.22893929024737289 0.83990878992727813 0 0.74198804864688339 0.90892718720327403 0 0.71789175274016548 0.95136708251202151 0 0.70475631558365914 0.90098127745102974 0 0.091072812796719582 0.74198804864687795 0 0.04863291748797445 0.71789175274016204 0 0.099018722548963364 0.70475631558365193 0 0.89586000931544074 0.25714619498770419 0 0.94915666091748963 0.28320804985299752 0 0.89886191075654698 0.29506339503703172 0 0.25714619498771307 0.1041399906845497 0 0.28320804985300141 0.050843339082505573 0 0.29506339503703888 0.1011380892434444 0 0.65773042910151891 0.073296788161472337 0 0.62160809078275991 0.1093532031139005 0 0.6048537357103756 0.060530514380187868 0 0.92670321183853355 0.65773042910151081 0 0.89064679688610338 0.6216080907827598 0 0.93946948561981514 0.60485373571037115 0 0.073296788161418117 0.34226957089850552 0 0.10935320311385981 0.37839190921727089 0 0.06053051438015096 0.39514626428972788 0 0.3422695708985129 0.92670321183858773 0 0.37839190921727062 0.89064679688614412 0 0.39514626428973221 0.93946948561985189 0 0.49771727055908782 0.83998685797641781 0 0.53770425635794761 0.80104587463999666 0 0.54047998161173716 0.84333512669480526 0 0.16001314202358469 0.49771727055909287 0 0.1989632851005598 0.53769147668950479 0 0.1566648733051971 0.54047998161174216 0 0.83998574657308889 0.50228528270184081 0 0.80106707846564795 0.46230714888029367 0 0.84333218736938698 0.4595365182652234 0 0.50228272944093777 0.16001314202359701 0 0.46229330881044273 0.19890916456654811 0 0.45952001838826873 0.15666487330524251 0 0.8289812646369813 0.82898126463698818 0 0.88962265630811221 0.85311725681459705 0 0.85174853583809862 0.87705234031428159 0 0.17101873536300011 0.82898126463696109 0 0.14688274318541941 0.88962265630811932 0 0.1229476596857173 0.85174853583809695 0 0.83199780613337848 0.1690131600686714 0 0.8517485358380722 0.12294765968568611 0 0.88777909259956078 0.1484760565886154 0 0.16901316006868169 0.16800219386663079 0 0.12294765968567151 0.14825146416195439 0 0.1484760565886207 0.1122209074004519 0 0.15899695163321451 0.22783674912227669 0 0.099694771212264055 0.22074048840547039 0 0.12587517708284679 0.1889683322666954 0 0.77216325087772952 0.15899695163319821 0 0.77925951159456153 0.09969477121230251 0 0.8110316677333288 0.125875177082863 0 0.83199780613337848 0.1690131600686714 0 0.88777909259956078 0.1484760565886154 0 0.87355793346388477 0.18922011052113649 0 0.16901316006868169 0.16800219386663079 0 0.1484760565886207 0.1122209074004519 0 0.18922011052115781 0.12644206653611201 0 0.32191828326940508 0.76395804595204586 0 0.34270280102445921 0.71672416762035873 0 0.35837423432538362 0.77730446904312345 0 0.76395804595204597 0.67808171673060369 0 0.71518943060973483 0.65679402931717101 0 0.77730446904309636 0.64162576567462737 0 0.2360419540479583 0.32191828326940741 0 0.28473805236128291 0.34355768118673757 0 0.22269553095687891 0.35837423432538801 0 0.67808171673060202 0.23604195404795861 0 0.65679402931716913 0.28481056939027388 0 0.64162576567462404 0.22269553095690481 0 0.26305414557470391 0.88949062093136155 0 0.28790752038294382 0.94635952848702642 0 0.23222643817617661 0.94420751116970569 0 0.1104775404132264 0.2631175359816938 0 0.053730171687646627 0.28825077189828552 0 0.056452228708379938 0.23456580837661581 0 0.88949062093135778 0.73694585442531257 0 0.94635952848698612 0.71209247961721311 0 0.9442075111696665 0.76777356182390766 0 0.73688246401832591 0.11047754041323141 0 0.71174922810186925 0.053730171687687178 0 0.76543419162344684 0.056452228708420968 0 0.22893929024737289 0.83990878992727813 0 0.22131139331094829 0.9041449437198319 0 0.18958721034944021 0.87660297360394568 0 0.839908789927305 0.77106070975262608 0 0.9041449437197947 0.7786886066890556 0 0.87660297360393757 0.8104127896505644 0 0.35837423432538362 0.77730446904312345 0 0.34270280102445921 0.71672416762035873 0 0.39507969989512881 0.74417394063201048 0 0.77730446904309636 0.64162576567462737 0 0.71518943060973483 0.65679402931717101 0 0.74417394063200648 0.6049203001048884 0 0.22269553095687891 0.35837423432538801 0 0.28473805236128291 0.34355768118673757 0 0.25582605936799319 0.39507969989513358 0 0.64162576567462404 0.22269553095690481 0 0.65679402931716913 0.28481056939027388 0 0.60492030010488373 0.25582605936799729 0 0.57484409313590223 0.58437321637184114 0 0.53542397956703913 0.60119875982347493 0 0.53087311892591971 0.55299263141448529 0 1 0.59999999999894682 0 0.93946948561981514 0.60485373571037115 0 0.95638719633882641 0.5599388881718611 0 0.59999999999894682 0 0 0.6048537357103756 0.060530514380187868 0 0.55993888817186677 0.043612803661174412 0 0.40000000000166441 1 0 0.39514626428973221 0.93946948561985189 0 0.44006111182840962 0.9563871963389079 0 0 0.40000000000166441 0 0.06053051438015096 0.39514626428972788 0 0.043612803661092707 0.44006111182840391 0 0.43590673999053309 0.90289902042279657 0 0.48669777060454272 0.93510666819646593 0 0.44006111182840962 0.9563871963389079 0 0.097100979577207341 0.43590673999053198 0 0.064893331803534807 0.48669777060454478 0 0.043612803661092707 0.44006111182840391 0 0.90289902042272274 0.56409326000946114 0 0.93510666819640953 0.51330222939551939 0 0.95638719633882641 0.5599388881718611 0 0.56409326000946236 0.097100979577281268 0 0.5133022293955174 0.064893331803591428 0 0.55993888817186677 0.043612803661174412 0 0.57387636360620708 0.54318431390135336 0 0.57484409313590223 0.58437321637184114 0 0.53087311892591971 0.55299263141448529 0 1 0.69999999999921003 0 1 0.74999999999934175 0 0.94635952848698612 0.71209247961721311 0 0.69999999999921003 0 0 0.74999999999934175 0 0 0.71174922810186925 0.053730171687687178 0 0.30000000000124832 1 0 0.25000000000104028 1 0 0.28790752038294382 0.94635952848702642 0 0 0.30000000000124832 0 0 0.25000000000104028 0 0.053730171687646627 0.28825077189828552 0 0.90289902042272274 0.56409326000946114 0 0.85130417396420255 0.59518556406638579 0 0.85551478316835361 0.54646211938695222 0 0.43590673999053309 0.90289902042279657 0 0.40481452396081791 0.85130421228141606 0 0.45353891581270822 0.85551523377818905 0 0.56409326000946236 0.097100979577281268 0 0.59518547603920147 0.14869578771864489 0 0.54646108418729233 0.1444847662218687 0 0.097100979577207341 0.43590673999053198 0 0.14869578771858949 0.40481452396082068 0 0.1444847662218138 0.45353891581271188 0 0.90289902042272274 0.56409326000946114 0 0.89064679688610338 0.6216080907827598 0 0.85130417396420255 0.59518556406638579 0 0.56409326000946236 0.097100979577281268 0 0.62160809078275991 0.1093532031139005 0 0.59518547603920147 0.14869578771864489 0 0.43590673999053309 0.90289902042279657 0 0.37839190921727062 0.89064679688614412 0 0.40481452396081791 0.85130421228141606 0 0.097100979577207341 0.43590673999053198 0 0.10935320311385981 0.37839190921727089 0 0.14869578771858949 0.40481452396082068 0 0.74417394063200648 0.6049203001048884 0 0.69288637798153729 0.61204665218001397 0 0.70087539567735502 0.57165914616526226 0 0.39507969989512881 0.74417394063201048 0 0.38642358467307758 0.69286258923597266 0 0.42715538333808079 0.70077759375307946 0 0.60492030010488373 0.25582605936799729 0 0.61204665218000809 0.30711362201846659 0 0.57188338999077359 0.29874123486230147 0 0.25582605936799319 0.39507969989513358 0 0.30597655500381687 0.3934681685211931 0 0.2963043386970643 0.4298320229681446 0 0.51484304721220842 0.69707233951836334 0 0.57051182622447827 0.69668652018496713 0 0.54465502325161819 0.74717983044080061 0 0.30292766048163949 0.51484304721221474 0 0.30429740679959738 0.56913905146460098 0 0.25287139441262568 0.54458355434492378 0 0.70015119067225129 0.48481914991727459 0 0.69595787604187809 0.43071000156707989 0 0.74730218607442667 0.45539100053644521 0 0.48378871228000903 0.29745177826977359 0 0.43059486795334201 0.30395973419063538 0 0.45533136021725079 0.2525687312087147 0 0.91838802593870927 0.18172590289757809 0 0.96080966346491015 0.18035159017841959 0 0.94465622530468663 0.23167460333446291 0 0.18172590289758209 0.08161197406129285 0 0.18035159017842109 0.039190336535090492 0 0.23167460333446299 0.05534377469531044 0 0.81709574086843206 0.91318696080656769 0 0.82675923981951416 0.95611053755456221 0 0.77688977118331393 0.94706199857866258 0 0.086813039193431391 0.81709574086842884 0 0.043889462445437968 0.82675923981951283 0 0.052938001421335763 0.77688977118331159 0 0.91838802593884228 0.81827409710237209 0 0.9442075111696665 0.76777356182390766 0 0.96071093996985157 0.81954008780615684 0 0.82118136511706341 0.082875076569723011 0 0.76543419162344684 0.056452228708420968 0 0.82050174006822896 0.038839999600956771 0 0.1817259028976386 0.91838802593888857 0 0.23222643817617661 0.94420751116970569 0 0.18045991219397989 0.960710939969875 0 0.08287507656968085 0.1788186348829835 0 0.056452228708379938 0.23456580837661581 0 0.038839999600931263 0.17949825993190149 0 0.59819537371016407 0.74380966024143391 0 0.54465502325161819 0.74717983044080061 0 0.57051182622447827 0.69668652018496713 0 0.25619033975856881 0.59819537371016862 0 0.25287139441262568 0.54458355434492378 0 0.30429740679959738 0.56913905146460098 0 0.74380966024142703 0.40180462628984132 0 0.74730218607442667 0.45539100053644521 0 0.69595787604187809 0.43071000156707989 0 0.40180462628983732 0.2561903397585753 0 0.45533136021725079 0.2525687312087147 0 0.43059486795334201 0.30395973419063538 0 0.8312019486901514 0.72745002167959472 0 0.77998481823117694 0.71397317153691997 0 0.80847852346122429 0.67208120229789559 0 0.27254997832041528 0.8312019486901443 0 0.28602682846308641 0.77998481823117594 0 0.32791879770213411 0.80847852346120164 0 0.72767516840721058 0.16853767177393791 0 0.71397317153692708 0.22001518176882201 0 0.67208120229787616 0.1915214765387884 0 0.1685376717739448 0.27232483159280108 0 0.22001518176882229 0.28602682846307981 0 0.19152147653881049 0.32791879770215432 0 0.85607519768343354 0.69380468830529196 0 0.8312019486901514 0.72745002167959472 0 0.80847852346122429 0.67208120229789559 0 0.69379929796456197 0.14392209494791061 0 0.72767516840721058 0.16853767177393791 0 0.67208120229787616 0.1915214765387884 0 0.30619531169472608 0.85607519768342955 0 0.27254997832041528 0.8312019486901443 0 0.32791879770213411 0.80847852346120164 0 0.14392209494791439 0.30620070203545702 0 0.1685376717739448 0.27232483159280108 0 0.19152147653881049 0.32791879770215432 0 0.6519524273377173 0.64249931920594539 0 0.69288637798153729 0.61204665218001397 0 0.71518943060973483 0.65679402931717101 0 0.35944937237716967 0.65164789808436319 0 0.38642358467307758 0.69286258923597266 0 0.34270280102445921 0.71672416762035873 0 0.6424993192059415 0.3480475726622802 0 0.61204665218000809 0.30711362201846659 0 0.65679402931716913 0.28481056939027388 0 0.34804757266227387 0.35750068079406011 0 0.30597655500381687 0.3934681685211931 0 0.28473805236128291 0.34355768118673757 0 0.66919832404887702 0.81820888699730587 0 0.66923299355723143 0.8804077449518628 0 0.63969251517836323 0.84598529912890386 0 0.70085728320704077 0.84350379029875056 0 0.66923299355723143 0.8804077449518628 0 0.66919832404887702 0.81820888699730587 0 0.1817911130026923 0.66919832404888702 0 0.1195922550481313 0.66923299355722787 0 0.1540147008710982 0.63969251517836956 0 0.1564962097012354 0.70085728320703999 0 0.1195922550481313 0.66923299355722787 0 0.1817911130026923 0.66919832404888702 0 0.8182088869973061 0.33080167595111531 0 0.88040774495187946 0.33076700644278889 0 0.84598529912889664 0.36030748482164038 0 0.84350379029877964 0.29914271679296989 0 0.88040774495187946 0.33076700644278889 0 0.8182088869973061 0.33080167595111531 0 0.33080167595110582 0.18179111300269291 0 0.33076700644279272 0.1195922550481146 0 0.3603074848216346 0.15401470087110539 0 0.29914271679297122 0.15649620970120659 0 0.33076700644279272 0.1195922550481146 0 0.33080167595110582 0.18179111300269291 0 0.49189101320880302 0.59024331187324797 0 0.51172471858873747 0.64015771271794875 0 0.45517457031814612 0.62743100079604397 0 0.54901591374940373 0.42306523525165751 0 0.5047849391802508 0.40719950955717021 0 0.54715635490880632 0.37829016026862072 0 0.43590673999053309 0.90289902042279657 0 0.48758069708049379 0.89080072540186539 0 0.48669777060454272 0.93510666819646593 0 0.097100979577207341 0.43590673999053198 0 0.1091992745981364 0.48758069708049778 0 0.064893331803534807 0.48669777060454478 0 0.90289902042272274 0.56409326000946114 0 0.89079805168298443 0.51242544533572376 0 0.93510666819640953 0.51330222939551939 0 0.56409326000946236 0.097100979577281268 0 0.51241930291950477 0.1091992745981813 0 0.5133022293955174 0.064893331803591428 0 0.49189101320880302 0.59024331187324797 0 0.53542397956703913 0.60119875982347493 0 0.51172471858873747 0.64015771271794875 0 0.56566515596461675 0.63670464971409091 0 0.51172471858873747 0.64015771271794875 0 0.53542397956703913 0.60119875982347493 0 0.65773042910151891 0.073296788161472337 0 0.66251865414987876 0.1160340021949529 0 0.62160809078275991 0.1093532031139005 0 0.92670321183853355 0.65773042910151081 0 0.88396545633132484 0.6625197322180193 0 0.89064679688610338 0.6216080907827598 0 0.3422695708985129 0.92670321183858773 0 0.33748026778199908 0.88396545633134682 0 0.37839190921727062 0.89064679688614412 0 0.073296788161418117 0.34226957089850552 0 0.11603400219493119 0.33748134585014028 0 0.10935320311385981 0.37839190921727089 0 0.8289812646369813 0.82898126463698818 0 0.79422489417873421 0.79640925234634441 0 0.839908789927305 0.77106070975262608 0 0.17101873536300011 0.82898126463696109 0 0.20359074765364421 0.79422489417871855 0 0.22893929024737289 0.83990878992727813 0 0.83199780613337848 0.1690131600686714 0 0.80027482104603809 0.20596721135052129 0 0.77216325087772952 0.15899695163319821 0 0.16901316006868169 0.16800219386663079 0 0.20596721135052939 0.19972517895396219 0 0.15899695163321451 0.22783674912227669 0 0.84598529912884157 0.63969251517827153 0 0.80847852346122429 0.67208120229789559 0 0.8028306815476034 0.61296984760642026 0 0.36030748482174152 0.84598529912882459 0 0.32791879770213411 0.80847852346120164 0 0.38703015239361932 0.80283068154761972 0 0.63969251517826664 0.15401470087115929 0 0.67208120229787616 0.1915214765387884 0 0.61296984760641449 0.19716931845240021 0 0.15401470087117619 0.36030748482174652 0 0.19152147653881049 0.32791879770215432 0 0.197169318452384 0.38703015239362498 0 0.61233489393901674 0.60846740003560018 0 0.61866949026800744 0.55492322767366287 0 0.65501639383771026 0.594528181397324 0 0.74198804864688339 0.90892718720327403 0 0.78020430794084783 0.88768307197553598 0 0.77688977118331393 0.94706199857866258 0 0.091072812796719582 0.74198804864687795 0 0.11231692802445629 0.78020430794084028 0 0.052938001421335763 0.77688977118331159 0 0.81709574086843206 0.91318696080656769 0 0.77688977118331393 0.94706199857866258 0 0.78020430794084783 0.88768307197553598 0 0.086813039193431391 0.81709574086842884 0 0.052938001421335763 0.77688977118331159 0 0.11231692802445629 0.78020430794084028 0 0.73982803480991577 0.79629608696991705 0 0.79422489417873421 0.79640925234634441 0 0.78284912262770068 0.83746308049763585 0 0.8289812646369813 0.82898126463698818 0 0.78284912262770068 0.83746308049763585 0 0.79422489417873421 0.79640925234634441 0 0.20370391303007401 0.73982803480989479 0 0.20359074765364421 0.79422489417871855 0 0.16253691950235041 0.78284912262768558 0 0.17101873536300011 0.82898126463696109 0 0.16253691950235041 0.78284912262768558 0 0.20359074765364421 0.79422489417871855 0 0.79629608696994103 0.26017196519011448 0 0.80027482104603809 0.20596721135052129 0 0.84534053180161173 0.2262639405833009 0 0.83199780613337848 0.1690131600686714 0 0.84534053180161173 0.2262639405833009 0 0.80027482104603809 0.20596721135052129 0 0.26017196519013502 0.20370391303005 0 0.20596721135052939 0.19972517895396219 0 0.22626394058331961 0.15465946819838111 0 0.16901316006868169 0.16800219386663079 0 0.22626394058331961 0.15465946819838111 0 0.20596721135052939 0.19972517895396219 0 0.90045039720880915 0.9020090423547924 0 0.94156647488775558 0.94156647488774259 0 0.90554214442080472 0.95994154153067524 0 0.90082758526900886 0.098076845682916511 0 0.94156647488778256 0.058433525112256718 0 0.95994154153057998 0.094457855579277675 0 0.90082758526900886 0.098076845682916511 0 0.90554214442081604 0.040058458469347469 0 0.94156647488778256 0.058433525112256718 0 0.097990957645208238 0.90045039720880915 0 0.058433525112254137 0.94156647488774581 0 0.040058458469322648 0.90554214442079806 0 0.90045039720880915 0.9020090423547924 0 0.95994154153065969 0.90554214442078618 0 0.94156647488775558 0.94156647488774259 0 0.098076845682915317 0.099172414730993488 0 0.058433525112266523 0.058433525112214509 0 0.094457855579284614 0.040058458469418363 0 0.098076845682915317 0.099172414730993488 0 0.040058458469319477 0.094457855579157729 0 0.058433525112266523 0.058433525112214509 0 0.097990957645208238 0.90045039720880915 0 0.094457855579188163 0.95994154153068711 0 0.058433525112254137 0.94156647488774581 0 0.90289902042272274 0.56409326000946114 0 0.93946948561981514 0.60485373571037115 0 0.89064679688610338 0.6216080907827598 0 0.43590673999053309 0.90289902042279657 0 0.39514626428973221 0.93946948561985189 0 0.37839190921727062 0.89064679688614412 0 0.56409326000946236 0.097100979577281268 0 0.6048537357103756 0.060530514380187868 0 0.62160809078275991 0.1093532031139005 0 0.097100979577207341 0.43590673999053198 0 0.06053051438015096 0.39514626428972788 0 0.10935320311385981 0.37839190921727089 0 0.6519524273377173 0.64249931920594539 0 0.64518564541690571 0.69601563325001548 0 0.60879112811253555 0.66592422311595834 0 0.35944937237716967 0.65164789808436319 0 0.30421635384321521 0.64514939193436716 0 0.33231497408081678 0.60779218732873663 0 0.6424993192059415 0.3480475726622802 0 0.69601563325001248 0.35481435458309712 0 0.66346942254826746 0.391530810754116 0 0.34804757266227387 0.35750068079406011 0 0.35481435458309307 0.30398436674998969 0 0.39120887188745579 0.33407577688404289 0 1 0.5499999999988151 0 1 0.59999999999894682 0 0.95638719633882641 0.5599388881718611 0 0.5499999999988151 0 0 0.59999999999894682 0 0 0.55993888817186677 0.043612803661174412 0 0.45000000000187229 1 0 0.40000000000166441 1 0 0.44006111182840962 0.9563871963389079 0 0 0.45000000000187229 0 0 0.40000000000166441 0 0.043612803661092707 0.44006111182840391 0 1 0.049999999999899652 0 0.95994154153057998 0.094457855579277675 0 0.94156647488778256 0.058433525112256718 0 0.049999999999899652 0 0 0.094457855579284614 0.040058458469418363 0 0.058433525112266523 0.058433525112214509 0 0.94999999999986839 0 0 0.94156647488778256 0.058433525112256718 0 0.90554214442081604 0.040058458469347469 0 1 0.94999999999986839 0 0.94156647488775558 0.94156647488774259 0 0.95994154153065969 0.90554214442078618 0 0.94999999999979179 1 0 0.90554214442080472 0.95994154153067524 0 0.94156647488775558 0.94156647488774259 0 0 0.94999999999979179 0 0.040058458469322648 0.90554214442079806 0 0.058433525112254137 0.94156647488774581 0 0 0.050000000000207989 0 0.058433525112266523 0.058433525112214509 0 0.040058458469319477 0.094457855579157729 0 0.050000000000207989 1 0 0.058433525112254137 0.94156647488774581 0 0.094457855579188163 0.95994154153068711 0 0.55000000000173355 1 0 0.55307204985744796 0.94819812235491685 0 0.5931441817276254 0.95886012268751675 0 0 0.55000000000173355 0 0.051801877645083663 0.55307204985745195 0 0.041139877312483641 0.59314418172763017 0 1 0.44999999999882923 0 0.94812782820415209 0.44708943904932719 0 0.95886012268748921 0.4068558182724159 0 0.44999999999882923 0 0 0.44692795014265252 0.051801877645060238 0 0.40685581827241191 0.041139877312511682 0 0.83199780613337848 0.1690131600686714 0 0.77216325087772952 0.15899695163319821 0 0.8110316677333288 0.125875177082863 0 0.16901316006868169 0.16800219386663079 0 0.15899695163321451 0.22783674912227669 0 0.12587517708284679 0.1889683322666954 0 0.73982803480991577 0.79629608696991705 0 0.74154628962857594 0.86274820500026039 0 0.70085728320704077 0.84350379029875056 0 0.20370391303007401 0.73982803480989479 0 0.13725179499972981 0.74154628962856628 0 0.1564962097012354 0.70085728320703999 0 0.79629608696994103 0.26017196519011448 0 0.85389826602741015 0.26318949769600392 0 0.84350379029877964 0.29914271679296989 0 0.26017196519013502 0.20370391303005 0 0.26318949769601319 0.14610173397257309 0 0.29914271679297122 0.15649620970120659 0 0.53432142347292233 0.88563193847251998 0 0.48758069708049379 0.89080072540186539 0 0.49771727055908782 0.83998685797641781 0 0.1143680615274819 0.53432142347292733 0 0.1091992745981364 0.48758069708049778 0 0.16001314202358469 0.49771727055909287 0 0.88561059063756964 0.46572761956237563 0 0.89079805168298443 0.51242544533572376 0 0.83998574657308889 0.50228528270184081 0 0.46567857652706018 0.1143680615275231 0 0.51241930291950477 0.1091992745981813 0 0.50228272944093777 0.16001314202359701 0 0.1104775404132264 0.2631175359816938 0 0.099492119481027347 0.30746398533281638 0 0.053730171687646627 0.28825077189828552 0 0.26305414557470391 0.88949062093136155 0 0.30738136326657722 0.90051880305435028 0 0.28790752038294382 0.94635952848702642 0 0.73688246401832591 0.11047754041323141 0 0.69253601466723103 0.09949211948105087 0 0.71174922810186925 0.053730171687687178 0 0.88949062093135778 0.73694585442531257 0 0.90051880305432697 0.69261863673346957 0 0.94635952848698612 0.71209247961721311 0 0.77998481823117694 0.71397317153691997 0 0.76395804595204597 0.67808171673060369 0 0.80847852346122429 0.67208120229789559 0 0.28602682846308641 0.77998481823117594 0 0.32191828326940508 0.76395804595204586 0 0.32791879770213411 0.80847852346120164 0 0.71397317153692708 0.22001518176882201 0 0.67808171673060202 0.23604195404795861 0 0.67208120229787616 0.1915214765387884 0 0.22001518176882229 0.28602682846307981 0 0.2360419540479583 0.32191828326940741 0 0.19152147653881049 0.32791879770215432 0 0.8289812646369813 0.82898126463698818 0 0.839908789927305 0.77106070975262608 0 0.87660297360393757 0.8104127896505644 0 0.17101873536300011 0.82898126463696109 0 0.22893929024737289 0.83990878992727813 0 0.18958721034944021 0.87660297360394568 0 0.66548584431530877 0.55616712808283064 0 0.64455163611866495 0.50369301794551069 0 0.69798396601998558 0.5289734597937793 0 0.70015119067225129 0.48481914991727459 0 0.69798396601998558 0.5289734597937793 0 0.64455163611866495 0.50369301794551069 0 0.77998481823117694 0.71397317153691997 0 0.73984939806388494 0.70740600291923139 0 0.76395804595204597 0.67808171673060369 0 0.28602682846308641 0.77998481823117594 0 0.2925512105451914 0.73997990291173188 0 0.32191828326940508 0.76395804595204586 0 0.71397317153692708 0.22001518176882201 0 0.70740600291923772 0.26015060193611528 0 0.67808171673060202 0.23604195404795861 0 0.22001518176882229 0.28602682846307981 0 0.26014443552207939 0.29262390443653519 0 0.2360419540479583 0.32191828326940741 0 0.90045039720880915 0.9020090423547924 0 0.90554214442080472 0.95994154153067524 0 0.86696410734367158 0.94753096683315619 0 0.097990957645208238 0.90045039720880915 0 0.040058458469322648 0.90554214442079806 0 0.052469033166843738 0.86696410734366991 0 0.90082758526900886 0.098076845682916511 0 0.95994154153057998 0.094457855579277675 0 0.94100406608115506 0.1383574446607955 0 0.90045039720880915 0.9020090423547924 0 0.94095916274074942 0.86165278010542579 0 0.95994154153065969 0.90554214442078618 0 0.90082758526900886 0.098076845682916511 0 0.86589314360155567 0.054872692726639853 0 0.90554214442081604 0.040058458469347469 0 0.098076845682915317 0.099172414730993488 0 0.094457855579284614 0.040058458469418363 0 0.1383574446607988 0.058995933918849157 0 0.097990957645208238 0.90045039720880915 0 0.13834721989462789 0.94095916274077984 0 0.094457855579188163 0.95994154153068711 0 0.098076845682915317 0.099172414730993488 0 0.054872692726595548 0.13410685639845171 0 0.040058458469319477 0.094457855579157729 0 0.54901591374940373 0.42306523525165751 0 0.54715635490880632 0.37829016026862072 0 0.60122390529523662 0.39097801071820221 0 0.49854341599767982 0.37075914768127122 0 0.54715635490880632 0.37829016026862072 0 0.5047849391802508 0.40719950955717021 0 0.66548584431530877 0.55616712808283064 0 0.65501639383771026 0.594528181397324 0 0.61866949026800744 0.55492322767366287 0 0.50000000000002642 0.7803135888501761 0 0.49771727055908782 0.83998685797641781 0 0.46593838964869061 0.80781872835503554 0 0.2196864111498267 0.50000000000003153 0 0.16001314202358469 0.49771727055909287 0 0.19218127164496679 0.46593838964869538 0 0.78031358885017377 0.49999999999997569 0 0.83998574657308889 0.50228528270184081 0 0.80781854240107975 0.53406203754901738 0 0.49999999999997108 0.21968641114982909 0 0.50228272944093777 0.16001314202359701 0 0.53404982287327418 0.19215288291432539 0 0.70085728320704077 0.84350379029875056 0 0.74154628962857594 0.86274820500026039 0 0.70475631558365914 0.90098127745102974 0 0.1564962097012354 0.70085728320703999 0 0.13725179499972981 0.74154628962856628 0 0.099018722548963364 0.70475631558365193 0 0.84350379029877964 0.29914271679296989 0 0.85389826602741015 0.26318949769600392 0 0.89886191075654698 0.29506339503703172 0 0.29914271679297122 0.15649620970120659 0 0.26318949769601319 0.14610173397257309 0 0.29506339503703888 0.1011380892434444 0 0.74417394063200648 0.6049203001048884 0 0.71518943060973483 0.65679402931717101 0 0.69288637798153729 0.61204665218001397 0 0.39507969989512881 0.74417394063201048 0 0.34270280102445921 0.71672416762035873 0 0.38642358467307758 0.69286258923597266 0 0.60492030010488373 0.25582605936799729 0 0.65679402931716913 0.28481056939027388 0 0.61204665218000809 0.30711362201846659 0 0.25582605936799319 0.39507969989513358 0 0.28473805236128291 0.34355768118673757 0 0.30597655500381687 0.3934681685211931 0 0.88949062093135778 0.73694585442531257 0 0.839908789927305 0.77106070975262608 0 0.8312019486901514 0.72745002167959472 0 0.73688246401832591 0.11047754041323141 0 0.77216325087772952 0.15899695163319821 0 0.72767516840721058 0.16853767177393791 0 0.26305414557470391 0.88949062093136155 0 0.22893929024737289 0.83990878992727813 0 0.27254997832041528 0.8312019486901443 0 0.1104775404132264 0.2631175359816938 0 0.15899695163321451 0.22783674912227669 0 0.1685376717739448 0.27232483159280108 0 0.61233489393901674 0.60846740003560018 0 0.57484409313590223 0.58437321637184114 0 0.61866949026800744 0.55492322767366287 0 0.43565339604028508 0.55159384357101338 0 0.39982789553993509 0.53462762214740622 0 0.45293656999117771 0.51494832297079129 0 0.41009598069569558 0.49083935749285379 0 0.45293656999117771 0.51494832297079129 0 0.39982789553993509 0.53462762214740622 0 0.4434591735942961 0.66641640622551224 0 0.40564717507982689 0.65626423320524974 0 0.45517457031814612 0.62743100079604397 0 0.40653508887824003 0.61580573377480397 0 0.45517457031814612 0.62743100079604397 0 0.40564717507982689 0.65626423320524974 0 0.89586000931544074 0.25714619498770419 0 0.84534053180161173 0.2262639405833009 0 0.89556054516486661 0.21720615046483649 0 0.25714619498771307 0.1041399906845497 0 0.22626394058331961 0.15465946819838111 0 0.21720615046484709 0.1044394548351292 0 0.41009598069569558 0.49083935749285379 0 0.35815651743779398 0.51113440447909086 0 0.37702386074717259 0.45819417564476811 0 0.75000000000034661 1 0 0.71789175274016548 0.95136708251202151 0 0.77688977118331393 0.94706199857866258 0 0 0.75000000000034661 0 0.04863291748797445 0.71789175274016204 0 0.052938001421335763 0.77688977118331159 0 1 0.24999999999941211 0 0.94915666091748963 0.28320804985299752 0 0.94465622530468663 0.23167460333446291 0 0.24999999999941211 0 0 0.28320804985300141 0.050843339082505573 0 0.23167460333446299 0.05534377469531044 0 0.90289902042272274 0.56409326000946114 0 0.95638719633882641 0.5599388881718611 0 0.93946948561981514 0.60485373571037115 0 0.56409326000946236 0.097100979577281268 0 0.55993888817186677 0.043612803661174412 0 0.6048537357103756 0.060530514380187868 0 0.43590673999053309 0.90289902042279657 0 0.44006111182840962 0.9563871963389079 0 0.39514626428973221 0.93946948561985189 0 0.097100979577207341 0.43590673999053198 0 0.043612803661092707 0.44006111182840391 0 0.06053051438015096 0.39514626428972788 0 0.40653508887824003 0.61580573377480397 0 0.40468198875170619 0.57637931869191572 0 0.45030222762303879 0.58443295115431027 0 0.43301393728221038 0.35984320557492139 0 0.43059486795334201 0.30395973419063538 0 0.47253211736503098 0.34081710830804929 0 0.48378871228000903 0.29745177826977359 0 0.47253211736503098 0.34081710830804929 0 0.43059486795334201 0.30395973419063538 0 0.65000000000104008 1 0 0.60000000000138687 1 0 0.63753756910470316 0.95578163339252209 0 0 0.65000000000104008 0 0 0.60000000000138687 0 0.04421836660747535 0.63753756910470205 0 1 0.34999999999912063 0 1 0.3999999999989749 0 0.95581270756939096 0.36248656652865863 0 0.34999999999912063 0 0 0.3999999999989749 0 0 0.36246243089534252 0.044218366607477223 0 0.73982803480991577 0.79629608696991705 0 0.74917861927654894 0.74229989257760443 0 0.78651189793386345 0.75664155808652755 0 0.20370391303007401 0.73982803480989479 0 0.25770010742238642 0.74917861927655205 0 0.24335844191347281 0.78651189793387466 0 0.79629608696994103 0.26017196519011448 0 0.74229989257762263 0.250821380723454 0 0.7582555232258138 0.2115548431873896 0 0.26017196519013502 0.20370391303005 0 0.25082138072344978 0.25770010742236849 0 0.2115548431873881 0.2417444767741872 0 1 0.049999999999899652 0 0.94156647488778256 0.058433525112256718 0 0.96763014295114425 0.032369857048773903 0 0.049999999999899652 0 0 0.058433525112266523 0.058433525112214509 0 0.032369857048753323 0.032369857048862027 0 0.94999999999986839 0 0 0.96763014295114425 0.032369857048773903 0 0.94156647488778256 0.058433525112256718 0 0 0.050000000000207989 0 0.032369857048753323 0.032369857048862027 0 0.058433525112266523 0.058433525112214509 0 1 0.94999999999986839 0 0.96763014295120153 0.96763014295122851 0 0.94156647488775558 0.94156647488774259 0 0.94999999999979179 1 0 0.94156647488775558 0.94156647488774259 0 0.96763014295120153 0.96763014295122851 0 0.050000000000207989 1 0 0.030452409610489669 0.96954759038951022 0 0.058433525112254137 0.94156647488774581 0 0 0.94999999999979179 0 0.058433525112254137 0.94156647488774581 0 0.030452409610489669 0.96954759038951022 0 0.90045039720880915 0.9020090423547924 0 0.88962265630811221 0.85311725681459705 0 0.94095916274074942 0.86165278010542579 0 0.097990957645208238 0.90045039720880915 0 0.14688274318541941 0.88962265630811932 0 0.13834721989462789 0.94095916274077984 0 0.91838802593884228 0.81827409710237209 0 0.94095916274074942 0.86165278010542579 0 0.88962265630811221 0.85311725681459705 0 0.91838802593870927 0.18172590289757809 0 0.88777909259956078 0.1484760565886154 0 0.94100406608115506 0.1383574446607955 0 0.1817259028976386 0.91838802593888857 0 0.13834721989462789 0.94095916274077984 0 0.14688274318541941 0.88962265630811932 0 0.18172590289758209 0.08161197406129285 0 0.1484760565886207 0.1122209074004519 0 0.1383574446607988 0.058995933918849157 0 0.90082758526900886 0.098076845682916511 0 0.94100406608115506 0.1383574446607955 0 0.88777909259956078 0.1484760565886154 0 0.098076845682915317 0.099172414730993488 0 0.1383574446607988 0.058995933918849157 0 0.1484760565886207 0.1122209074004519 0 0.57387636360620708 0.54318431390135336 0 0.61866949026800744 0.55492322767366287 0 0.57484409313590223 0.58437321637184114 0 0.60122390529523662 0.39097801071820221 0 0.54715635490880632 0.37829016026862072 0 0.59596170682035776 0.34609402305862419 0 0.38703015239361932 0.80283068154761972 0 0.32791879770213411 0.80847852346120164 0 0.35837423432538362 0.77730446904312345 0 0.8028306815476034 0.61296984760642026 0 0.80847852346122429 0.67208120229789559 0 0.77730446904309636 0.64162576567462737 0 0.197169318452384 0.38703015239362498 0 0.19152147653881049 0.32791879770215432 0 0.22269553095687891 0.35837423432538801 0 0.61296984760641449 0.19716931845240021 0 0.67208120229787616 0.1915214765387884 0 0.64162576567462404 0.22269553095690481 0 0.39419886675318527 0.41912225240070788 0 0.37702386074717259 0.45819417564476811 0 0.35481422397128459 0.40312981465069342 0 0.33382663527330159 0.44130125047503482 0 0.35481422397128459 0.40312981465069342 0 0.37702386074717259 0.45819417564476811 0 0.40653508887824003 0.61580573377480397 0 0.40564717507982689 0.65626423320524974 0 0.35944937237716967 0.65164789808436319 0 0.53432142347292233 0.88563193847251998 0 0.49771727055908782 0.83998685797641781 0 0.54047998161173716 0.84333512669480526 0 0.1143680615274819 0.53432142347292733 0 0.16001314202358469 0.49771727055909287 0 0.1566648733051971 0.54047998161174216 0 0.88561059063756964 0.46572761956237563 0 0.83998574657308889 0.50228528270184081 0 0.84333218736938698 0.4595365182652234 0 0.46567857652706018 0.1143680615275231 0 0.50228272944093777 0.16001314202359701 0 0.45952001838826873 0.15666487330524251 0 0.37104651296145419 0.60545170748311072 0 0.40653508887824003 0.61580573377480397 0 0.35944937237716967 0.65164789808436319 0 0.6519524273377173 0.64249931920594539 0 0.71518943060973483 0.65679402931717101 0 0.6768914574865772 0.67861120078714243 0 0.35944937237716967 0.65164789808436319 0 0.34270280102445921 0.71672416762035873 0 0.32259853082073792 0.67670072609835186 0 0.6424993192059415 0.3480475726622802 0 0.65679402931716913 0.28481056939027388 0 0.6786112007871401 0.32310854251343019 0 0.34804757266227387 0.35750068079406011 0 0.28473805236128291 0.34355768118673757 0 0.3231032570156932 0.32141443408924047 0 0.73982803480991577 0.79629608696991705 0 0.70085728320704077 0.84350379029875056 0 0.69892030930712212 0.7971997999085858 0 0.20370391303007401 0.73982803480989479 0 0.1564962097012354 0.70085728320703999 0 0.2028002000914135 0.69892030930711557 0 0.79629608696994103 0.26017196519011448 0 0.84350379029877964 0.29914271679296989 0 0.7971997999085878 0.3010796906928917 0 0.26017196519013502 0.20370391303005 0 0.29914271679297122 0.15649620970120659 0 0.30107969069289831 0.20280020009141189 0 0.43301393728221038 0.35984320557492139 0 0.42930823106401639 0.40626685012722968 0 0.39222057657781068 0.38067796690227418 0 0.73982803480991577 0.79629608696991705 0 0.78284912262770068 0.83746308049763585 0 0.74154628962857594 0.86274820500026039 0 0.20370391303007401 0.73982803480989479 0 0.16253691950235041 0.78284912262768558 0 0.13725179499972981 0.74154628962856628 0 0.79629608696994103 0.26017196519011448 0 0.84534053180161173 0.2262639405833009 0 0.85389826602741015 0.26318949769600392 0 0.26017196519013502 0.20370391303005 0 0.22626394058331961 0.15465946819838111 0 0.26318949769601319 0.14610173397257309 0 0.56566515596461675 0.63670464971409091 0 0.57484409313590223 0.58437321637184114 0 0.61233489393901674 0.60846740003560018 0 0.84598529912884157 0.63969251517827153 0 0.85607519768343354 0.69380468830529196 0 0.80847852346122429 0.67208120229789559 0 0.63969251517826664 0.15401470087115929 0 0.69379929796456197 0.14392209494791061 0 0.67208120229787616 0.1915214765387884 0 0.36030748482174152 0.84598529912882459 0 0.30619531169472608 0.85607519768342955 0 0.32791879770213411 0.80847852346120164 0 0.15401470087117619 0.36030748482174652 0 0.14392209494791439 0.30620070203545702 0 0.19152147653881049 0.32791879770215432 0 0.20370391303007401 0.73982803480989479 0 0.24335844191347281 0.78651189793387466 0 0.20359074765364421 0.79422489417871855 0 0.73982803480991577 0.79629608696991705 0 0.78651189793386345 0.75664155808652755 0 0.79422489417873421 0.79640925234634441 0 0.26017196519013502 0.20370391303005 0 0.2115548431873881 0.2417444767741872 0 0.20596721135052939 0.19972517895396219 0 0.79629608696994103 0.26017196519011448 0 0.7582555232258138 0.2115548431873896 0 0.80027482104603809 0.20596721135052129 0 0.51172471858873747 0.64015771271794875 0 0.47818752133962877 0.66454462905280853 0 0.45517457031814612 0.62743100079604397 0 0.54901591374940373 0.42306523525165751 0 0.60122390529523662 0.39097801071820221 0 0.59313386551587477 0.43977047843653239 0 0.640156794425081 0.43301393728221721 0 0.59313386551587477 0.43977047843653239 0 0.60122390529523662 0.39097801071820221 0 0.70252050881959183 0.70358884261915833 0 0.71518943060973483 0.65679402931717101 0 0.73984939806388494 0.70740600291923139 0 0.29641115738084339 0.70252050881958938 0 0.34270280102445921 0.71672416762035873 0 0.2925512105451914 0.73997990291173188 0 0.76395804595204597 0.67808171673060369 0 0.73984939806388494 0.70740600291923139 0 0.71518943060973483 0.65679402931717101 0 0.32191828326940508 0.76395804595204586 0 0.2925512105451914 0.73997990291173188 0 0.34270280102445921 0.71672416762035873 0 0.70358884261915744 0.29747949118041561 0 0.65679402931716913 0.28481056939027388 0 0.70740600291923772 0.26015060193611528 0 0.29747949118041711 0.2964111573808435 0 0.28473805236128291 0.34355768118673757 0 0.26014443552207939 0.29262390443653519 0 0.67808171673060202 0.23604195404795861 0 0.70740600291923772 0.26015060193611528 0 0.65679402931716913 0.28481056939027388 0 0.2360419540479583 0.32191828326940741 0 0.26014443552207939 0.29262390443653519 0 0.28473805236128291 0.34355768118673757 0 0.74198804864688339 0.90892718720327403 0 0.70475631558365914 0.90098127745102974 0 0.74154628962857594 0.86274820500026039 0 0.091072812796719582 0.74198804864687795 0 0.099018722548963364 0.70475631558365193 0 0.13725179499972981 0.74154628962856628 0 0.89586000931544074 0.25714619498770419 0 0.89886191075654698 0.29506339503703172 0 0.85389826602741015 0.26318949769600392 0 0.25714619498771307 0.1041399906845497 0 0.29506339503703888 0.1011380892434444 0 0.26318949769601319 0.14610173397257309 0 0.59819537371016407 0.74380966024143391 0 0.64203711532612107 0.74316477213290444 0 0.61896574319320252 0.795216048370321 0 0.66820316019503978 0.77769800602796979 0 0.61896574319320252 0.795216048370321 0 0.64203711532612107 0.74316477213290444 0 0.25619033975856881 0.59819537371016862 0 0.25684529255773247 0.64203554247963057 0 0.2047839516296828 0.61896574319320252 0 0.22230199397202771 0.66820316019503168 0 0.2047839516296828 0.61896574319320252 0 0.25684529255773247 0.64203554247963057 0 0.74380966024142703 0.40180462628984132 0 0.74316477213289889 0.35796288467388632 0 0.79521604837030013 0.38103425680679831 0 0.77769800602796679 0.33179683980497482 0 0.79521604837030013 0.38103425680679831 0 0.74316477213289889 0.35796288467388632 0 0.40180462628983732 0.2561903397585753 0 0.3579628846738841 0.25683522786710378 0 0.38103425680679859 0.2047839516297037 0 0.33179683980498331 0.2223019939720311 0 0.38103425680679859 0.2047839516297037 0 0.3579628846738841 0.25683522786710378 0 0.92670321183853355 0.65773042910151081 0 0.93946948561981514 0.60485373571037115 0 0.96654491682122368 0.6363613838740827 0 0.65773042910151891 0.073296788161472337 0 0.6048537357103756 0.060530514380187868 0 0.63635157668793507 0.033457646040912177 0 0.3422695708985129 0.92670321183858773 0 0.39514626428973221 0.93946948561985189 0 0.36363861612613613 0.96654491682121313 0 0.073296788161418117 0.34226957089850552 0 0.06053051438015096 0.39514626428972788 0 0.033457646040922301 0.36364842331228431 0 0.6519524273377173 0.64249931920594539 0 0.6768914574865772 0.67861120078714243 0 0.64518564541690571 0.69601563325001548 0 0.35944937237716967 0.65164789808436319 0 0.32259853082073792 0.67670072609835186 0 0.30421635384321521 0.64514939193436716 0 0.6424993192059415 0.3480475726622802 0 0.6786112007871401 0.32310854251343019 0 0.69601563325001248 0.35481435458309712 0 0.34804757266227387 0.35750068079406011 0 0.3231032570156932 0.32141443408924047 0 0.35481435458309307 0.30398436674998969 0 0.73982803480991577 0.79629608696991705 0 0.71159714897733284 0.75039044679290845 0 0.74917861927654894 0.74229989257760443 0 0.20370391303007401 0.73982803480989479 0 0.249609553207091 0.71159714897732929 0 0.25770010742238642 0.74917861927655205 0 0.79629608696994103 0.26017196519011448 0 0.75039044679291111 0.28840285102267788 0 0.74229989257762263 0.250821380723454 0 0.26017196519013502 0.20370391303005 0 0.28840285102268098 0.24960955320708811 0 0.25082138072344978 0.25770010742236849 0 0.43565339604028508 0.55159384357101338 0 0.45030222762303879 0.58443295115431027 0 0.40468198875170619 0.57637931869191572 0 0.3999999999989749 0 0 0.44999999999882923 0 0 0.40685581827241191 0.041139877312511682 0 1 0.3999999999989749 0 1 0.44999999999882923 0 0.95886012268748921 0.4068558182724159 0 0 0.60000000000138687 0 0 0.55000000000173355 0 0.041139877312483641 0.59314418172763017 0 0.60000000000138687 1 0 0.55000000000173355 1 0 0.5931441817276254 0.95886012268751675 0 1 0.049999999999899652 0 1 0.099999999999814668 0 0.95994154153057998 0.094457855579277675 0 0.049999999999899652 0 0 0.099999999999814668 0 0 0.094457855579284614 0.040058458469418363 0 0.94999999999979179 1 0 0.89999999999958358 1 0 0.90554214442080472 0.95994154153067524 0 0 0.94999999999979179 0 0 0.89999999999958358 0 0.040058458469322648 0.90554214442079806 0 1 0.89999999999973679 0 1 0.94999999999986839 0 0.95994154153065969 0.90554214442078618 0 0.89999999999973679 0 0 0.94999999999986839 0 0 0.90554214442081604 0.040058458469347469 0 0.10000000000041601 1 0 0.050000000000207989 1 0 0.094457855579188163 0.95994154153068711 0 0 0.10000000000041601 0 0 0.050000000000207989 0 0.040058458469319477 0.094457855579157729 0 0.88949062093135778 0.73694585442531257 0 0.8312019486901514 0.72745002167959472 0 0.85607519768343354 0.69380468830529196 0 0.73688246401832591 0.11047754041323141 0 0.72767516840721058 0.16853767177393791 0 0.69379929796456197 0.14392209494791061 0 0.26305414557470391 0.88949062093136155 0 0.27254997832041528 0.8312019486901443 0 0.30619531169472608 0.85607519768342955 0 0.1104775404132264 0.2631175359816938 0 0.1685376717739448 0.27232483159280108 0 0.14392209494791439 0.30620070203545702 0 0.51484304721220842 0.69707233951836334 0 0.54465502325161819 0.74717983044080061 0 0.49073113440598592 0.73759004618730417 0 0.30292766048163949 0.51484304721221474 0 0.25287139441262568 0.54458355434492378 0 0.262418491288269 0.49071922292154141 0 0.70015119067225129 0.48481914991727459 0 0.74730218607442667 0.45539100053644521 0 0.73815142352639962 0.50697050072007344 0 0.48378871228000903 0.29745177826977359 0 0.45533136021725079 0.2525687312087147 0 0.50732841191799194 0.2613117081243182 0 0.66548584431530877 0.55616712808283064 0 0.61866949026800744 0.55492322767366287 0 0.64455163611866495 0.50369301794551069 0 0.5586987495249669 0.33382663527330653 0 0.59596170682035776 0.34609402305862419 0 0.54715635490880632 0.37829016026862072 0 0.41009598069569558 0.49083935749285379 0 0.42340342337193693 0.44762131874855388 0 0.46152714345798918 0.47344359412352599 0 0.63969251517836323 0.84598529912890386 0 0.61896574319320252 0.795216048370321 0 0.66919832404887702 0.81820888699730587 0 0.1540147008710982 0.63969251517836956 0 0.2047839516296828 0.61896574319320252 0 0.1817911130026923 0.66919832404888702 0 0.84598529912889664 0.36030748482164038 0 0.79521604837030013 0.38103425680679831 0 0.8182088869973061 0.33080167595111531 0 0.3603074848216346 0.15401470087110539 0 0.38103425680679859 0.2047839516297037 0 0.33080167595110582 0.18179111300269291 0 0.60000000000138687 1 0 0.5931441817276254 0.95886012268751675 0 0.63753756910470316 0.95578163339252209 0 0 0.60000000000138687 0 0.041139877312483641 0.59314418172763017 0 0.04421836660747535 0.63753756910470205 0 1 0.3999999999989749 0 0.95886012268748921 0.4068558182724159 0 0.95581270756939096 0.36248656652865863 0 0.3999999999989749 0 0 0.40685581827241191 0.041139877312511682 0 0.36246243089534252 0.044218366607477223 0 0.6519524273377173 0.64249931920594539 0 0.61233489393901674 0.60846740003560018 0 0.65501639383771026 0.594528181397324 0 0.6424993192059415 0.3480475726622802 0 0.60122390529523662 0.39097801071820221 0 0.59596170682035776 0.34609402305862419 0 0.56566515596461675 0.63670464971409091 0 0.60879112811253555 0.66592422311595834 0 0.57051182622447827 0.69668652018496713 0 0.35984320557492089 0.56698606271778873 0 0.33231497408081678 0.60779218732873663 0 0.30429740679959738 0.56913905146460098 0 0.640156794425081 0.43301393728221721 0 0.66346942254826746 0.391530810754116 0 0.69595787604187809 0.43071000156707989 0 0.43301393728221038 0.35984320557492139 0 0.39120887188745579 0.33407577688404289 0 0.43059486795334201 0.30395973419063538 0 0.59999999999894682 0 0 0.63635157668793507 0.033457646040912177 0 0.6048537357103756 0.060530514380187868 0 1 0.59999999999894682 0 0.96654491682122368 0.6363613838740827 0 0.93946948561981514 0.60485373571037115 0 0 0.40000000000166441 0 0.033457646040922301 0.36364842331228431 0 0.06053051438015096 0.39514626428972788 0 0.40000000000166441 1 0 0.36363861612613613 0.96654491682121313 0 0.39514626428973221 0.93946948561985189 0 0.50000000000002642 0.7803135888501761 0 0.49073113440598592 0.73759004618730417 0 0.54465502325161819 0.74717983044080061 0 0.2196864111498267 0.50000000000003153 0 0.262418491288269 0.49071922292154141 0 0.25287139441262568 0.54458355434492378 0 0.78031358885017377 0.49999999999997569 0 0.73815142352639962 0.50697050072007344 0 0.74730218607442667 0.45539100053644521 0 0.49999999999997108 0.21968641114982909 0 0.50732841191799194 0.2613117081243182 0 0.45533136021725079 0.2525687312087147 0 0.39507969989512881 0.74417394063201048 0 0.43306783640023289 0.78031198216144404 0 0.38703015239361932 0.80283068154761972 0 0.25582605936799319 0.39507969989513358 0 0.21968801783855879 0.43306783640023788 0 0.197169318452384 0.38703015239362498 0 0.74417394063200648 0.6049203001048884 0 0.78031198216143516 0.56693216359979737 0 0.8028306815476034 0.61296984760642026 0 0.60492030010488373 0.25582605936799729 0 0.56683314878414581 0.21944955250104689 0 0.61296984760641449 0.19716931845240021 0 0.77998481823117694 0.71397317153691997 0 0.74917861927654894 0.74229989257760443 0 0.73984939806388494 0.70740600291923139 0 0.28602682846308641 0.77998481823117594 0 0.25770010742238642 0.74917861927655205 0 0.2925512105451914 0.73997990291173188 0 0.71397317153692708 0.22001518176882201 0 0.74229989257762263 0.250821380723454 0 0.70740600291923772 0.26015060193611528 0 0.22001518176882229 0.28602682846307981 0 0.25082138072344978 0.25770010742236849 0 0.26014443552207939 0.29262390443653519 0 0.49189101320880302 0.59024331187324797 0 0.53087311892591971 0.55299263141448529 0 0.53542397956703913 0.60119875982347493 0 0.41009598069569558 0.49083935749285379 0 0.46152714345798918 0.47344359412352599 0 0.45293656999117771 0.51494832297079129 0 0.66820316019503978 0.77769800602796979 0 0.66919832404887702 0.81820888699730587 0 0.61896574319320252 0.795216048370321 0 0.22230199397202771 0.66820316019503168 0 0.1817911130026923 0.66919832404888702 0 0.2047839516296828 0.61896574319320252 0 0.77769800602796679 0.33179683980497482 0 0.8182088869973061 0.33080167595111531 0 0.79521604837030013 0.38103425680679831 0 0.33179683980498331 0.2223019939720311 0 0.33080167595110582 0.18179111300269291 0 0.38103425680679859 0.2047839516297037 0 0.83199780613337848 0.1690131600686714 0 0.87355793346388477 0.18922011052113649 0 0.84534053180161173 0.2262639405833009 0 0.16901316006868169 0.16800219386663079 0 0.18922011052115781 0.12644206653611201 0 0.22626394058331961 0.15465946819838111 0 0.58981073711177334 0.48140931020849848 0 0.62619054498681193 0.46482944251856079 0 0.64455163611866495 0.50369301794551069 0 0.59621567360238914 0.5184866806641607 0 0.58981073711177334 0.48140931020849848 0 0.64455163611866495 0.50369301794551069 0 0.53432142347292233 0.88563193847251998 0 0.54047998161173716 0.84333512669480526 0 0.58267137064684116 0.87013301365640838 0 0.56759263990989184 0.81794319034601648 0 0.58267137064684116 0.87013301365640838 0 0.54047998161173716 0.84333512669480526 0 0.1143680615274819 0.53432142347292733 0 0.1566648733051971 0.54047998161174216 0 0.12986698634359389 0.58267137064684615 0 0.18205680965398621 0.56759263990989739 0 0.12986698634359389 0.58267137064684615 0 0.1566648733051971 0.54047998161174216 0 0.88561059063756964 0.46572761956237563 0 0.84333218736938698 0.4595365182652234 0 0.87012666750595846 0.41743873185103042 0 0.81794319034597418 0.43240736009009317 0 0.87012666750595846 0.41743873185103042 0 0.84333218736938698 0.4595365182652234 0 0.46567857652706018 0.1143680615275231 0 0.45952001838826873 0.15666487330524251 0 0.41732862935313042 0.12986698634362279 0 0.43240736009008851 0.18205680965402779 0 0.41732862935313042 0.12986698634362279 0 0.45952001838826873 0.15666487330524251 0 0.70085728320704077 0.84350379029875056 0 0.70475631558365914 0.90098127745102974 0 0.66923299355723143 0.8804077449518628 0 0.1564962097012354 0.70085728320703999 0 0.099018722548963364 0.70475631558365193 0 0.1195922550481313 0.66923299355722787 0 0.84350379029877964 0.29914271679296989 0 0.89886191075654698 0.29506339503703172 0 0.88040774495187946 0.33076700644278889 0 0.29914271679297122 0.15649620970120659 0 0.29506339503703888 0.1011380892434444 0 0.33076700644279272 0.1195922550481146 0 0.839908789927305 0.77106070975262608 0 0.78651189793386345 0.75664155808652755 0 0.8312019486901514 0.72745002167959472 0 0.22893929024737289 0.83990878992727813 0 0.24335844191347281 0.78651189793387466 0 0.27254997832041528 0.8312019486901443 0 0.77216325087772952 0.15899695163319821 0 0.7582555232258138 0.2115548431873896 0 0.72767516840721058 0.16853767177393791 0 0.15899695163321451 0.22783674912227669 0 0.2115548431873881 0.2417444767741872 0 0.1685376717739448 0.27232483159280108 0 0.89586000931544074 0.25714619498770419 0 0.85389826602741015 0.26318949769600392 0 0.84534053180161173 0.2262639405833009 0 0.25714619498771307 0.1041399906845497 0 0.26318949769601319 0.14610173397257309 0 0.22626394058331961 0.15465946819838111 0 0.49771727055908782 0.83998685797641781 0 0.45353891581270822 0.85551523377818905 0 0.46593838964869061 0.80781872835503554 0 0.16001314202358469 0.49771727055909287 0 0.1444847662218138 0.45353891581271188 0 0.19218127164496679 0.46593838964869538 0 0.83998574657308889 0.50228528270184081 0 0.85551478316835361 0.54646211938695222 0 0.80781854240107975 0.53406203754901738 0 0.50228272944093777 0.16001314202359701 0 0.54646108418729233 0.1444847662218687 0 0.53404982287327418 0.19215288291432539 0 0.51484304721220842 0.69707233951836334 0 0.47818752133962877 0.66454462905280853 0 0.51172471858873747 0.64015771271794875 0 0.30292766048163949 0.51484304721221474 0 0.33436424489304489 0.47849603121740791 0 0.35815651743779398 0.51113440447909086 0 0.6027107599280892 0.83436006790502326 0 0.63969251517836323 0.84598529912890386 0 0.62483828039315681 0.8780818733396436 0 0.1656399320949789 0.60271075992809464 0 0.1540147008710982 0.63969251517836956 0 0.1219181266603569 0.62483828039315903 0 0.83436006790498052 0.39728924007189959 0 0.84598529912889664 0.36030748482164038 0 0.87815187193233801 0.37523526017134418 0 0.3972892400718947 0.16563993209502181 0 0.3603074848216346 0.15401470087110539 0 0.37516171960683908 0.121918126660369 0 0.70015119067225129 0.48481914991727459 0 0.64455163611866495 0.50369301794551069 0 0.66329969176266512 0.46626046872004567 0 0.57387636360620708 0.54318431390135336 0 0.53087311892591971 0.55299263141448529 0 0.554170140907293 0.50922353359177785 0 0.50333998054938722 0.50119715791968966 0 0.50753758205811061 0.4506562873613274 0 0.54783891860069212 0.46640164214823893 0 0.58267137064684116 0.87013301365640838 0 0.6027107599280892 0.83436006790502326 0 0.62483828039315681 0.8780818733396436 0 0.12986698634359389 0.58267137064684615 0 0.1656399320949789 0.60271075992809464 0 0.1219181266603569 0.62483828039315903 0 0.87012666750595846 0.41743873185103042 0 0.83436006790498052 0.39728924007189959 0 0.87815187193233801 0.37523526017134418 0 0.41732862935313042 0.12986698634362279 0 0.3972892400718947 0.16563993209502181 0 0.37516171960683908 0.121918126660369 0 0.35984320557492089 0.56698606271778873 0 0.35815651743779398 0.51113440447909086 0 0.39982789553993509 0.53462762214740622 0 0.43087117257049001 0.8215422551712771 0 0.46593838964869061 0.80781872835503554 0 0.45353891581270822 0.85551523377818905 0 0.17845774482872559 0.43087117257049429 0 0.19218127164496679 0.46593838964869538 0 0.1444847662218138 0.45353891581271188 0 0.8215422551712277 0.56912882742954496 0 0.80781854240107975 0.53406203754901738 0 0.85551478316835361 0.54646211938695222 0 0.56912882742954041 0.17845774482877461 0 0.53404982287327418 0.19215288291432539 0 0.54646108418729233 0.1444847662218687 0 0.89586000931544074 0.25714619498770419 0 0.89556054516486661 0.21720615046483649 0 0.94465622530468663 0.23167460333446291 0 0.91838802593870927 0.18172590289757809 0 0.94465622530468663 0.23167460333446291 0 0.89556054516486661 0.21720615046483649 0 0.25714619498771307 0.1041399906845497 0 0.21720615046484709 0.1044394548351292 0 0.23167460333446299 0.05534377469531044 0 0.18172590289758209 0.08161197406129285 0 0.23167460333446299 0.05534377469531044 0 0.21720615046484709 0.1044394548351292 0 0.50333998054938722 0.50119715791968966 0 0.54783891860069212 0.46640164214823893 0 0.554170140907293 0.50922353359177785 0 0.16901316006868169 0.16800219386663079 0 0.12587517708284679 0.1889683322666954 0 0.12294765968567151 0.14825146416195439 0 0.83199780613337848 0.1690131600686714 0 0.8110316677333288 0.125875177082863 0 0.8517485358380722 0.12294765968568611 0 0.74198804864688339 0.90892718720327403 0 0.74154628962857594 0.86274820500026039 0 0.78020430794084783 0.88768307197553598 0 0.78284912262770068 0.83746308049763585 0 0.78020430794084783 0.88768307197553598 0 0.74154628962857594 0.86274820500026039 0 0.091072812796719582 0.74198804864687795 0 0.13725179499972981 0.74154628962856628 0 0.11231692802445629 0.78020430794084028 0 0.16253691950235041 0.78284912262768558 0 0.11231692802445629 0.78020430794084028 0 0.13725179499972981 0.74154628962856628 0 0.82118136511706341 0.082875076569723011 0 0.77925951159456153 0.09969477121230251 0 0.76543419162344684 0.056452228708420968 0 0.08287507656968085 0.1788186348829835 0 0.099694771212264055 0.22074048840547039 0 0.056452228708379938 0.23456580837661581 0 0.91838802593884228 0.81827409710237209 0 0.9041449437197947 0.7786886066890556 0 0.9442075111696665 0.76777356182390766 0 0.1817259028976386 0.91838802593888857 0 0.22131139331094829 0.9041449437198319 0 0.23222643817617661 0.94420751116970569 0 0.73688246401832591 0.11047754041323141 0 0.76543419162344684 0.056452228708420968 0 0.77925951159456153 0.09969477121230251 0 0.1104775404132264 0.2631175359816938 0 0.056452228708379938 0.23456580837661581 0 0.099694771212264055 0.22074048840547039 0 0.88949062093135778 0.73694585442531257 0 0.9442075111696665 0.76777356182390766 0 0.9041449437197947 0.7786886066890556 0 0.26305414557470391 0.88949062093136155 0 0.23222643817617661 0.94420751116970569 0 0.22131139331094829 0.9041449437198319 0 0.73984939806388494 0.70740600291923139 0 0.71159714897733284 0.75039044679290845 0 0.70252050881959183 0.70358884261915833 0 0.74917861927654894 0.74229989257760443 0 0.71159714897733284 0.75039044679290845 0 0.73984939806388494 0.70740600291923139 0 0.2925512105451914 0.73997990291173188 0 0.249609553207091 0.71159714897732929 0 0.29641115738084339 0.70252050881958938 0 0.25770010742238642 0.74917861927655205 0 0.249609553207091 0.71159714897732929 0 0.2925512105451914 0.73997990291173188 0 0.70740600291923772 0.26015060193611528 0 0.75039044679291111 0.28840285102267788 0 0.70358884261915744 0.29747949118041561 0 0.74229989257762263 0.250821380723454 0 0.75039044679291111 0.28840285102267788 0 0.70740600291923772 0.26015060193611528 0 0.26014443552207939 0.29262390443653519 0 0.28840285102268098 0.24960955320708811 0 0.29747949118041711 0.2964111573808435 0 0.25082138072344978 0.25770010742236849 0 0.28840285102268098 0.24960955320708811 0 0.26014443552207939 0.29262390443653519 0 0.88949062093135778 0.73694585442531257 0 0.85607519768343354 0.69380468830529196 0 0.90051880305432697 0.69261863673346957 0 0.26305414557470391 0.88949062093136155 0 0.30619531169472608 0.85607519768342955 0 0.30738136326657722 0.90051880305435028 0 0.73688246401832591 0.11047754041323141 0 0.69379929796456197 0.14392209494791061 0 0.69253601466723103 0.09949211948105087 0 0.1104775404132264 0.2631175359816938 0 0.14392209494791439 0.30620070203545702 0 0.099492119481027347 0.30746398533281638 0 0.58981073711177334 0.48140931020849848 0 0.54783891860069212 0.46640164214823893 0 0.59313386551587477 0.43977047843653239 0 0.640156794425081 0.43301393728221721 0 0.69595787604187809 0.43071000156707989 0 0.66329969176266512 0.46626046872004567 0 0.70015119067225129 0.48481914991727459 0 0.66329969176266512 0.46626046872004567 0 0.69595787604187809 0.43071000156707989 0 0.8289812646369813 0.82898126463698818 0 0.81306033001437827 0.8677384967307622 0 0.78284912262770068 0.83746308049763585 0 0.17101873536300011 0.82898126463696109 0 0.1322615032692282 0.8130603300143705 0 0.16253691950235041 0.78284912262768558 0 0.84534053180161173 0.2262639405833009 0 0.87355793346388477 0.18922011052113649 0 0.89556054516486661 0.21720615046483649 0 0.22626394058331961 0.15465946819838111 0 0.18922011052115781 0.12644206653611201 0 0.21720615046484709 0.1044394548351292 0 0.90082758526900886 0.098076845682916511 0 0.86148619541339633 0.089689702191568438 0 0.86589314360155567 0.054872692726639853 0 0.098076845682915317 0.099172414730993488 0 0.089689702191541126 0.13851380458662241 0 0.054872692726595548 0.13410685639845171 0 0.84598529912884157 0.63969251517827153 0 0.89064679688610338 0.6216080907827598 0 0.88396545633132484 0.6625197322180193 0 0.63969251517826664 0.15401470087115929 0 0.62160809078275991 0.1093532031139005 0 0.66251865414987876 0.1160340021949529 0 0.36030748482174152 0.84598529912882459 0 0.37839190921727062 0.89064679688614412 0 0.33748026778199908 0.88396545633134682 0 0.15401470087117619 0.36030748482174652 0 0.10935320311385981 0.37839190921727089 0 0.11603400219493119 0.33748134585014028 0 0.82118136511706341 0.082875076569723011 0 0.8517485358380722 0.12294765968568611 0 0.8110316677333288 0.125875177082863 0 0.08287507656968085 0.1788186348829835 0 0.12294765968567151 0.14825146416195439 0 0.12587517708284679 0.1889683322666954 0 0.75000000000034661 1 0 0.7000000000006934 1 0 0.71789175274016548 0.95136708251202151 0 0 0.75000000000034661 0 0 0.7000000000006934 0 0.04863291748797445 0.71789175274016204 0 1 0.24999999999941211 0 1 0.29999999999926641 0 0.94915666091748963 0.28320804985299752 0 0.24999999999941211 0 0 0.29999999999926641 0 0 0.28320804985300141 0.050843339082505573 0 0.55000000000173355 1 0 0.51507566941747085 0.9626786017237855 0 0.55307204985744796 0.94819812235491685 0 0 0.55000000000173355 0 0.037321398276215258 0.51507566941747263 0 0.051801877645083663 0.55307204985745195 0 1 0.44999999999882923 0 0.96266688603193029 0.48495124540067203 0 0.94812782820415209 0.44708943904932719 0 0.44999999999882923 0 0 0.48492433058289169 0.037321398276272413 0 0.44692795014265252 0.051801877645060238 0 0.49854341599767982 0.37075914768127122 0 0.51491507395299929 0.3326740076510219 0 0.54715635490880632 0.37829016026862072 0 0.91838802593884228 0.81827409710237209 0 0.88962265630811221 0.85311725681459705 0 0.87660297360393757 0.8104127896505644 0 0.1817259028976386 0.91838802593888857 0 0.14688274318541941 0.88962265630811932 0 0.18958721034944021 0.87660297360394568 0 0.50333998054938722 0.50119715791968966 0 0.554170140907293 0.50922353359177785 0 0.53087311892591971 0.55299263141448529 0 0.91890123454466932 0.39094742729597309 0 0.95886012268748921 0.4068558182724159 0 0.90991454156957952 0.4312731559748802 0 0.94812782820415209 0.44708943904932719 0 0.90991454156957952 0.4312731559748802 0 0.95886012268748921 0.4068558182724159 0 0.84999999999965292 1 0 0.82675923981951416 0.95611053755456221 0 0.86696410734367158 0.94753096683315619 0 0 0.84999999999965292 0 0.043889462445437968 0.82675923981951283 0 0.052469033166843738 0.86696410734366991 0 0.1817259028976386 0.91838802593888857 0 0.18045991219397989 0.960710939969875 0 0.13834721989462789 0.94095916274077984 0 0.91838802593884228 0.81827409710237209 0 0.96071093996985157 0.81954008780615684 0 0.94095916274074942 0.86165278010542579 0 0.08287507656968085 0.1788186348829835 0 0.038839999600931263 0.17949825993190149 0 0.054872692726595548 0.13410685639845171 0 0.82118136511706341 0.082875076569723011 0 0.82050174006822896 0.038839999600956771 0 0.86589314360155567 0.054872692726639853 0 0.15000000000062411 1 0 0.13834721989462789 0.94095916274077984 0 0.18045991219397989 0.960710939969875 0 1 0.84999999999960507 0 0.94095916274074942 0.86165278010542579 0 0.96071093996985157 0.81954008780615684 0 0 0.15000000000062411 0 0.054872692726595548 0.13410685639845171 0 0.038839999600931263 0.17949825993190149 0 0.84999999999960507 0 0 0.86589314360155567 0.054872692726639853 0 0.82050174006822896 0.038839999600956771 0 1 0.14999999999970359 0 0.96080966346491015 0.18035159017841959 0 0.94100406608115506 0.1383574446607955 0 0.14999999999970359 0 0 0.18035159017842109 0.039190336535090492 0 0.1383574446607988 0.058995933918849157 0 0.91838802593870927 0.18172590289757809 0 0.94100406608115506 0.1383574446607955 0 0.96080966346491015 0.18035159017841959 0 0.18172590289758209 0.08161197406129285 0 0.1383574446607988 0.058995933918849157 0 0.18035159017842109 0.039190336535090492 0 0.40653508887824003 0.61580573377480397 0 0.45030222762303879 0.58443295115431027 0 0.45517457031814612 0.62743100079604397 0 0.50333998054938722 0.50119715791968966 0 0.53087311892591971 0.55299263141448529 0 0.47974773860103892 0.54872726831320284 0 0.33382663527330159 0.44130125047503482 0 0.30597655500381687 0.3934681685211931 0 0.35481422397128459 0.40312981465069342 0 0.34804757266227387 0.35750068079406011 0 0.35481422397128459 0.40312981465069342 0 0.30597655500381687 0.3934681685211931 0 0.39419886675318527 0.41912225240070788 0 0.39222057657781068 0.38067796690227418 0 0.42930823106401639 0.40626685012722968 0 0.5586987495249669 0.33382663527330653 0 0.54715635490880632 0.37829016026862072 0 0.51491507395299929 0.3326740076510219 0 0.84598529912884157 0.63969251517827153 0 0.88396545633132484 0.6625197322180193 0 0.85607519768343354 0.69380468830529196 0 0.63969251517826664 0.15401470087115929 0 0.66251865414987876 0.1160340021949529 0 0.69379929796456197 0.14392209494791061 0 0.36030748482174152 0.84598529912882459 0 0.33748026778199908 0.88396545633134682 0 0.30619531169472608 0.85607519768342955 0 0.15401470087117619 0.36030748482174652 0 0.11603400219493119 0.33748134585014028 0 0.14392209494791439 0.30620070203545702 0 0.41009598069569558 0.49083935749285379 0 0.39982789553993509 0.53462762214740622 0 0.35815651743779398 0.51113440447909086 0 0.43087117257049001 0.8215422551712771 0 0.38703015239361932 0.80283068154761972 0 0.43306783640023289 0.78031198216144404 0 0.8215422551712277 0.56912882742954496 0 0.8028306815476034 0.61296984760642026 0 0.78031198216143516 0.56693216359979737 0 0.17845774482872559 0.43087117257049429 0 0.197169318452384 0.38703015239362498 0 0.21968801783855879 0.43306783640023788 0 0.56912882742954041 0.17845774482877461 0 0.61296984760641449 0.19716931845240021 0 0.56683314878414581 0.21944955250104689 0 0.86696410734367158 0.94753096683315619 0 0.82675923981951416 0.95611053755456221 0 0.85382799508926477 0.91295829388058414 0 0.052469033166843738 0.86696410734366991 0 0.043889462445437968 0.82675923981951283 0 0.087041706119416085 0.85382799508926188 0 0.81709574086843206 0.91318696080656769 0 0.85382799508926477 0.91295829388058414 0 0.82675923981951416 0.95611053755456221 0 0.086813039193431391 0.81709574086842884 0 0.087041706119416085 0.85382799508926188 0 0.043889462445437968 0.82675923981951283 0 0.77998481823117694 0.71397317153691997 0 0.8312019486901514 0.72745002167959472 0 0.78651189793386345 0.75664155808652755 0 0.28602682846308641 0.77998481823117594 0 0.27254997832041528 0.8312019486901443 0 0.24335844191347281 0.78651189793387466 0 0.71397317153692708 0.22001518176882201 0 0.72767516840721058 0.16853767177393791 0 0.7582555232258138 0.2115548431873896 0 0.22001518176882229 0.28602682846307981 0 0.1685376717739448 0.27232483159280108 0 0.2115548431873881 0.2417444767741872 0 0.54901591374940373 0.42306523525165751 0 0.50753758205811061 0.4506562873613274 0 0.5047849391802508 0.40719950955717021 0 0.54901591374940373 0.42306523525165751 0 0.59313386551587477 0.43977047843653239 0 0.54783891860069212 0.46640164214823893 0 0.81709574086843206 0.91318696080656769 0 0.81306033001437827 0.8677384967307622 0 0.85174853583809862 0.87705234031428159 0 0.086813039193431391 0.81709574086842884 0 0.1322615032692282 0.8130603300143705 0 0.1229476596857173 0.85174853583809695 0 0.839908789927305 0.77106070975262608 0 0.79422489417873421 0.79640925234634441 0 0.78651189793386345 0.75664155808652755 0 0.22893929024737289 0.83990878992727813 0 0.20359074765364421 0.79422489417871855 0 0.24335844191347281 0.78651189793387466 0 0.77216325087772952 0.15899695163319821 0 0.80027482104603809 0.20596721135052129 0 0.7582555232258138 0.2115548431873896 0 0.15899695163321451 0.22783674912227669 0 0.20596721135052939 0.19972517895396219 0 0.2115548431873881 0.2417444767741872 0 0.70087539567735502 0.57165914616526226 0 0.65501639383771026 0.594528181397324 0 0.66548584431530877 0.55616712808283064 0 0.69288637798153729 0.61204665218001397 0 0.65501639383771026 0.594528181397324 0 0.70087539567735502 0.57165914616526226 0 0.57188338999077359 0.29874123486230147 0 0.59596170682035776 0.34609402305862419 0 0.5586987495249669 0.33382663527330653 0 0.61204665218000809 0.30711362201846659 0 0.59596170682035776 0.34609402305862419 0 0.57188338999077359 0.29874123486230147 0 0.55307204985744796 0.94819812235491685 0 0.56877264426066887 0.91182300080710277 0 0.5931441817276254 0.95886012268751675 0 0.60938371359314658 0.91847489683800321 0 0.5931441817276254 0.95886012268751675 0 0.56877264426066887 0.91182300080710277 0 0.051801877645083663 0.55307204985745195 0 0.088176999192898689 0.56877264426067353 0 0.041139877312483641 0.59314418172763017 0 0.081525103161997597 0.6093837135931508 0 0.041139877312483641 0.59314418172763017 0 0.088176999192898689 0.56877264426067353 0 0.44692795014265252 0.051801877645060238 0 0.43122735573933979 0.088176999192917438 0 0.40685581827241191 0.041139877312511682 0 0.39061628640684498 0.081525103161991672 0 0.40685581827241191 0.041139877312511682 0 0.43122735573933979 0.088176999192917438 0 0.56566515596461675 0.63670464971409091 0 0.54058719659441246 0.66889411379075558 0 0.51172471858873747 0.64015771271794875 0 0.35984320557492089 0.56698606271778873 0 0.331306197573488 0.54052564146842386 0 0.35815651743779398 0.51113440447909086 0 0.51484304721220842 0.69707233951836334 0 0.51172471858873747 0.64015771271794875 0 0.54058719659441246 0.66889411379075558 0 0.30292766048163949 0.51484304721221474 0 0.35815651743779398 0.51113440447909086 0 0.331306197573488 0.54052564146842386 0 0.90045039720880915 0.9020090423547924 0 0.86696410734367158 0.94753096683315619 0 0.85382799508926477 0.91295829388058414 0 0.097990957645208238 0.90045039720880915 0 0.052469033166843738 0.86696410734366991 0 0.087041706119416085 0.85382799508926188 0 0.82118136511706341 0.082875076569723011 0 0.86589314360155567 0.054872692726639853 0 0.86148619541339633 0.089689702191568438 0 0.08287507656968085 0.1788186348829835 0 0.054872692726595548 0.13410685639845171 0 0.089689702191541126 0.13851380458662241 0 0.67757268808231397 0.93106206656183088 0 0.70475631558365914 0.90098127745102974 0 0.71789175274016548 0.95136708251202151 0 0.068937933438162791 0.67757268808231053 0 0.099018722548963364 0.70475631558365193 0 0.04863291748797445 0.71789175274016204 0 0.93106206656185309 0.32242731191769503 0 0.89886191075654698 0.29506339503703172 0 0.94915666091748963 0.28320804985299752 0 0.32242731191769902 0.068937933438140794 0 0.29506339503703888 0.1011380892434444 0 0.28320804985300141 0.050843339082505573 0 0.59819537371016407 0.74380966024143391 0 0.57578062281532438 0.77751665353176347 0 0.54465502325161819 0.74717983044080061 0 0.25619033975856881 0.59819537371016862 0 0.2224870800581388 0.57577541371134155 0 0.25287139441262568 0.54458355434492378 0 0.74380966024142703 0.40180462628984132 0 0.77752557158083724 0.42422273168818408 0 0.74730218607442667 0.45539100053644521 0 0.40180462628983732 0.2561903397585753 0 0.42421838472613971 0.22246502005787769 0 0.45533136021725079 0.2525687312087147 0 0.56566515596461675 0.63670464971409091 0 0.53542397956703913 0.60119875982347493 0 0.57484409313590223 0.58437321637184114 0 0.59819537371016407 0.74380966024143391 0 0.57051182622447827 0.69668652018496713 0 0.6083790122881827 0.70496300707145865 0 0.25619033975856881 0.59819537371016862 0 0.30429740679959738 0.56913905146460098 0 0.29503699292854352 0.60837901228818936 0 0.74380966024142703 0.40180462628984132 0 0.69595787604187809 0.43071000156707989 0 0.70496300707145554 0.39162098771181952 0 0.40180462628983732 0.2561903397585753 0 0.43059486795334201 0.30395973419063538 0 0.39162098771181342 0.29503699292854563 0 0.50000000000002642 0.7803135888501761 0 0.54465502325161819 0.74717983044080061 0 0.53770425635794761 0.80104587463999666 0 0.2196864111498267 0.50000000000003153 0 0.25287139441262568 0.54458355434492378 0 0.1989632851005598 0.53769147668950479 0 0.78031358885017377 0.49999999999997569 0 0.74730218607442667 0.45539100053644521 0 0.80106707846564795 0.46230714888029367 0 0.49999999999997108 0.21968641114982909 0 0.45533136021725079 0.2525687312087147 0 0.46229330881044273 0.19890916456654811 0 0.51484304721220842 0.69707233951836334 0 0.54058719659441246 0.66889411379075558 0 0.57051182622447827 0.69668652018496713 0 0.30292766048163949 0.51484304721221474 0 0.331306197573488 0.54052564146842386 0 0.30429740679959738 0.56913905146460098 0 0.56566515596461675 0.63670464971409091 0 0.57051182622447827 0.69668652018496713 0 0.54058719659441246 0.66889411379075558 0 0.35984320557492089 0.56698606271778873 0 0.30429740679959738 0.56913905146460098 0 0.331306197573488 0.54052564146842386 0 0.60938371359314658 0.91847489683800321 0 0.58267137064684116 0.87013301365640838 0 0.62483828039315681 0.8780818733396436 0 0.081525103161997597 0.6093837135931508 0 0.12986698634359389 0.58267137064684615 0 0.1219181266603569 0.62483828039315903 0 0.91890123454466932 0.39094742729597309 0 0.87012666750595846 0.41743873185103042 0 0.87815187193233801 0.37523526017134418 0 0.39061628640684498 0.081525103161991672 0 0.41732862935313042 0.12986698634362279 0 0.37516171960683908 0.121918126660369 0 0.5133022293955174 0.064893331803591428 0 0.52499999999875446 0.029444907164469181 0 0.55993888817186677 0.043612803661174412 0 0.064893331803534807 0.48669777060454478 0 0.029444907164209121 0.47500000000196552 0 0.043612803661092707 0.44006111182840391 0 0.93510666819640953 0.51330222939551939 0 0.97055509283553232 0.52499999999875435 0 0.95638719633882641 0.5599388881718611 0 0.48669777060454272 0.93510666819646593 0 0.47500000000196563 0.970555092835793 0 0.44006111182840962 0.9563871963389079 0 0.56759263990989184 0.81794319034601648 0 0.54047998161173716 0.84333512669480526 0 0.53770425635794761 0.80104587463999666 0 0.18205680965398621 0.56759263990989739 0 0.1566648733051971 0.54047998161174216 0 0.1989632851005598 0.53769147668950479 0 0.81794319034597418 0.43240736009009317 0 0.84333218736938698 0.4595365182652234 0 0.80106707846564795 0.46230714888029367 0 0.43240736009008851 0.18205680965402779 0 0.45952001838826873 0.15666487330524251 0 0.46229330881044273 0.19890916456654811 0 0.50333998054938722 0.50119715791968966 0 0.47974773860103892 0.54872726831320284 0 0.45293656999117771 0.51494832297079129 0 0.73982803480991577 0.79629608696991705 0 0.69892030930712212 0.7971997999085858 0 0.71159714897733284 0.75039044679290845 0 0.20370391303007401 0.73982803480989479 0 0.2028002000914135 0.69892030930711557 0 0.249609553207091 0.71159714897732929 0 0.79629608696994103 0.26017196519011448 0 0.7971997999085878 0.3010796906928917 0 0.75039044679291111 0.28840285102267788 0 0.26017196519013502 0.20370391303005 0 0.30107969069289831 0.20280020009141189 0 0.28840285102268098 0.24960955320708811 0 0.43087117257049001 0.8215422551712771 0 0.40481452396081791 0.85130421228141606 0 0.38703015239361932 0.80283068154761972 0 0.36030748482174152 0.84598529912882459 0 0.38703015239361932 0.80283068154761972 0 0.40481452396081791 0.85130421228141606 0 0.17845774482872559 0.43087117257049429 0 0.14869578771858949 0.40481452396082068 0 0.197169318452384 0.38703015239362498 0 0.8215422551712277 0.56912882742954496 0 0.85130417396420255 0.59518556406638579 0 0.8028306815476034 0.61296984760642026 0 0.84598529912884157 0.63969251517827153 0 0.8028306815476034 0.61296984760642026 0 0.85130417396420255 0.59518556406638579 0 0.15401470087117619 0.36030748482174652 0 0.197169318452384 0.38703015239362498 0 0.14869578771858949 0.40481452396082068 0 0.56912882742954041 0.17845774482877461 0 0.59518547603920147 0.14869578771864489 0 0.61296984760641449 0.19716931845240021 0 0.63969251517826664 0.15401470087115929 0 0.61296984760641449 0.19716931845240021 0 0.59518547603920147 0.14869578771864489 0 0.6519524273377173 0.64249931920594539 0 0.65501639383771026 0.594528181397324 0 0.69288637798153729 0.61204665218001397 0 0.6424993192059415 0.3480475726622802 0 0.59596170682035776 0.34609402305862419 0 0.61204665218000809 0.30711362201846659 0 0.35944937237716967 0.65164789808436319 0 0.40564717507982689 0.65626423320524974 0 0.38642358467307758 0.69286258923597266 0 0.90045039720880915 0.9020090423547924 0 0.85174853583809862 0.87705234031428159 0 0.88962265630811221 0.85311725681459705 0 0.097990957645208238 0.90045039720880915 0 0.1229476596857173 0.85174853583809695 0 0.14688274318541941 0.88962265630811932 0 0.90082758526900886 0.098076845682916511 0 0.88777909259956078 0.1484760565886154 0 0.8517485358380722 0.12294765968568611 0 0.098076845682915317 0.099172414730993488 0 0.1484760565886207 0.1122209074004519 0 0.12294765968567151 0.14825146416195439 0 0.35815651743779398 0.51113440447909086 0 0.33436424489304489 0.47849603121740791 0 0.37702386074717259 0.45819417564476811 0 0.92670321183853355 0.65773042910151081 0 0.94635952848698612 0.71209247961721311 0 0.90051880305432697 0.69261863673346957 0 0.65773042910151891 0.073296788161472337 0 0.71174922810186925 0.053730171687687178 0 0.69253601466723103 0.09949211948105087 0 0.3422695708985129 0.92670321183858773 0 0.28790752038294382 0.94635952848702642 0 0.30738136326657722 0.90051880305435028 0 0.073296788161418117 0.34226957089850552 0 0.053730171687646627 0.28825077189828552 0 0.099492119481027347 0.30746398533281638 0 0.43565339604028508 0.55159384357101338 0 0.45293656999117771 0.51494832297079129 0 0.47974773860103892 0.54872726831320284 0 0.33382663527330159 0.44130125047503482 0 0.2963043386970643 0.4298320229681446 0 0.30597655500381687 0.3934681685211931 0 1 0.69999999999921003 0 0.94635952848698612 0.71209247961721311 0 0.96779701826738695 0.67105375815842694 0 0.69999999999921003 0 0 0.71174922810186925 0.053730171687687178 0 0.67098510785536181 0.032220921767549461 0 0.30000000000124832 1 0 0.28790752038294382 0.94635952848702642 0 0.32894624184180998 0.96779701826738929 0 0 0.30000000000124832 0 0.053730171687646627 0.28825077189828552 0 0.032220921767546963 0.32901489214487523 0 0.56759263990989184 0.81794319034601648 0 0.57578062281532438 0.77751665353176347 0 0.61896574319320252 0.795216048370321 0 0.59819537371016407 0.74380966024143391 0 0.61896574319320252 0.795216048370321 0 0.57578062281532438 0.77751665353176347 0 0.25619033975856881 0.59819537371016862 0 0.2047839516296828 0.61896574319320252 0 0.2224870800581388 0.57577541371134155 0 0.18205680965398621 0.56759263990989739 0 0.2224870800581388 0.57577541371134155 0 0.2047839516296828 0.61896574319320252 0 0.74380966024142703 0.40180462628984132 0 0.79521604837030013 0.38103425680679831 0 0.77752557158083724 0.42422273168818408 0 0.81794319034597418 0.43240736009009317 0 0.77752557158083724 0.42422273168818408 0 0.79521604837030013 0.38103425680679831 0 0.40180462628983732 0.2561903397585753 0 0.38103425680679859 0.2047839516297037 0 0.42421838472613971 0.22246502005787769 0 0.43240736009008851 0.18205680965402779 0 0.42421838472613971 0.22246502005787769 0 0.38103425680679859 0.2047839516297037 0 0.63969251517836323 0.84598529912890386 0 0.6027107599280892 0.83436006790502326 0 0.61896574319320252 0.795216048370321 0 0.1540147008710982 0.63969251517836956 0 0.1656399320949789 0.60271075992809464 0 0.2047839516296828 0.61896574319320252 0 0.84598529912889664 0.36030748482164038 0 0.83436006790498052 0.39728924007189959 0 0.79521604837030013 0.38103425680679831 0 0.3603074848216346 0.15401470087110539 0 0.3972892400718947 0.16563993209502181 0 0.38103425680679859 0.2047839516297037 0 0.53432142347292233 0.88563193847251998 0 0.58267137064684116 0.87013301365640838 0 0.56877264426066887 0.91182300080710277 0 0.1143680615274819 0.53432142347292733 0 0.12986698634359389 0.58267137064684615 0 0.088176999192898689 0.56877264426067353 0 0.91890123454466932 0.39094742729597309 0 0.90991454156957952 0.4312731559748802 0 0.87012666750595846 0.41743873185103042 0 0.46567857652706018 0.1143680615275231 0 0.41732862935313042 0.12986698634362279 0 0.43122735573933979 0.088176999192917438 0 0.60938371359314658 0.91847489683800321 0 0.56877264426066887 0.91182300080710277 0 0.58267137064684116 0.87013301365640838 0 0.081525103161997597 0.6093837135931508 0 0.088176999192898689 0.56877264426067353 0 0.12986698634359389 0.58267137064684615 0 0.88561059063756964 0.46572761956237563 0 0.87012666750595846 0.41743873185103042 0 0.90991454156957952 0.4312731559748802 0 0.39061628640684498 0.081525103161991672 0 0.43122735573933979 0.088176999192917438 0 0.41732862935313042 0.12986698634362279 0 0.56759263990989184 0.81794319034601648 0 0.6027107599280892 0.83436006790502326 0 0.58267137064684116 0.87013301365640838 0 0.18205680965398621 0.56759263990989739 0 0.1656399320949789 0.60271075992809464 0 0.12986698634359389 0.58267137064684615 0 0.81794319034597418 0.43240736009009317 0 0.83436006790498052 0.39728924007189959 0 0.87012666750595846 0.41743873185103042 0 0.43240736009008851 0.18205680965402779 0 0.3972892400718947 0.16563993209502181 0 0.41732862935313042 0.12986698634362279 0 0.77998481823117694 0.71397317153691997 0 0.78651189793386345 0.75664155808652755 0 0.74917861927654894 0.74229989257760443 0 0.28602682846308641 0.77998481823117594 0 0.24335844191347281 0.78651189793387466 0 0.25770010742238642 0.74917861927655205 0 0.71397317153692708 0.22001518176882201 0 0.7582555232258138 0.2115548431873896 0 0.74229989257762263 0.250821380723454 0 0.22001518176882229 0.28602682846307981 0 0.2115548431873881 0.2417444767741872 0 0.25082138072344978 0.25770010742236849 0 0.8215422551712277 0.56912882742954496 0 0.78031198216143516 0.56693216359979737 0 0.80781854240107975 0.53406203754901738 0 0.43087117257049001 0.8215422551712771 0 0.43306783640023289 0.78031198216144404 0 0.46593838964869061 0.80781872835503554 0 0.56912882742954041 0.17845774482877461 0 0.56683314878414581 0.21944955250104689 0 0.53404982287327418 0.19215288291432539 0 0.17845774482872559 0.43087117257049429 0 0.21968801783855879 0.43306783640023788 0 0.19218127164496679 0.46593838964869538 0 0.92670321183853355 0.65773042910151081 0 0.96779701826738695 0.67105375815842694 0 0.94635952848698612 0.71209247961721311 0 0.65773042910151891 0.073296788161472337 0 0.67098510785536181 0.032220921767549461 0 0.71174922810186925 0.053730171687687178 0 0.3422695708985129 0.92670321183858773 0 0.32894624184180998 0.96779701826738929 0 0.28790752038294382 0.94635952848702642 0 0.073296788161418117 0.34226957089850552 0 0.032220921767546963 0.32901489214487523 0 0.053730171687646627 0.28825077189828552 0 0.51484304721220842 0.69707233951836334 0 0.46736891737654429 0.70015537930374983 0 0.47818752133962877 0.66454462905280853 0 0.30292766048163949 0.51484304721221474 0 0.29988655052531688 0.46700727827593119 0 0.33436424489304489 0.47849603121740791 0 0.53432142347292233 0.88563193847251998 0 0.52425337578225772 0.9223731761594427 0 0.48758069708049379 0.89080072540186539 0 0.1143680615274819 0.53432142347292733 0 0.07762682384055844 0.52425337578226128 0 0.1091992745981364 0.48758069708049778 0 0.88561059063756964 0.46572761956237563 0 0.92203742772043751 0.47579485578641628 0 0.89079805168298443 0.51242544533572376 0 0.46567857652706018 0.1143680615275231 0 0.47574662421782782 0.077626823840590969 0 0.51241930291950477 0.1091992745981813 0 0.49189101320880302 0.59024331187324797 0 0.47974773860103892 0.54872726831320284 0 0.53087311892591971 0.55299263141448529 0 0.81709574086843206 0.91318696080656769 0 0.78020430794084783 0.88768307197553598 0 0.81306033001437827 0.8677384967307622 0 0.086813039193431391 0.81709574086842884 0 0.11231692802445629 0.78020430794084028 0 0.1322615032692282 0.8130603300143705 0 0.90045039720880915 0.9020090423547924 0 0.85382799508926477 0.91295829388058414 0 0.85174853583809862 0.87705234031428159 0 0.097990957645208238 0.90045039720880915 0 0.087041706119416085 0.85382799508926188 0 0.1229476596857173 0.85174853583809695 0 0.82118136511706341 0.082875076569723011 0 0.86148619541339633 0.089689702191568438 0 0.8517485358380722 0.12294765968568611 0 0.08287507656968085 0.1788186348829835 0 0.089689702191541126 0.13851380458662241 0 0.12294765968567151 0.14825146416195439 0 0.56759263990989184 0.81794319034601648 0 0.61896574319320252 0.795216048370321 0 0.6027107599280892 0.83436006790502326 0 0.18205680965398621 0.56759263990989739 0 0.2047839516296828 0.61896574319320252 0 0.1656399320949789 0.60271075992809464 0 0.81794319034597418 0.43240736009009317 0 0.79521604837030013 0.38103425680679831 0 0.83436006790498052 0.39728924007189959 0 0.43240736009008851 0.18205680965402779 0 0.38103425680679859 0.2047839516297037 0 0.3972892400718947 0.16563993209502181 0 0.91838802593870927 0.18172590289757809 0 0.87355793346388477 0.18922011052113649 0 0.88777909259956078 0.1484760565886154 0 0.18172590289758209 0.08161197406129285 0 0.18922011052115781 0.12644206653611201 0 0.1484760565886207 0.1122209074004519 0 0.50333998054938722 0.50119715791968966 0 0.46152714345798918 0.47344359412352599 0 0.50753758205811061 0.4506562873613274 0 0.46102425708533701 0.43254199134332588 0 0.50753758205811061 0.4506562873613274 0 0.46152714345798918 0.47344359412352599 0 0.70252050881959183 0.70358884261915833 0 0.67626275269587088 0.72713741921009012 0 0.6768914574865772 0.67861120078714243 0 0.29641115738084339 0.70252050881958938 0 0.27349656744860212 0.67581741996408695 0 0.32259853082073792 0.67670072609835186 0 0.70358884261915744 0.29747949118041561 0 0.72713741921008324 0.32373724730413678 0 0.6786112007871401 0.32310854251343019 0 0.29747949118041711 0.2964111573808435 0 0.32373692627050221 0.27286413781593999 0 0.3231032570156932 0.32141443408924047 0 0.43301393728221038 0.35984320557492139 0 0.39222057657781068 0.38067796690227418 0 0.39120887188745579 0.33407577688404289 0 0.48669777060454272 0.93510666819646593 0 0.48758069708049379 0.89080072540186539 0 0.52425337578225772 0.9223731761594427 0 0.064893331803534807 0.48669777060454478 0 0.1091992745981364 0.48758069708049778 0 0.07762682384055844 0.52425337578226128 0 0.93510666819640953 0.51330222939551939 0 0.89079805168298443 0.51242544533572376 0 0.92203742772043751 0.47579485578641628 0 0.5133022293955174 0.064893331803591428 0 0.51241930291950477 0.1091992745981813 0 0.47574662421782782 0.077626823840590969 0 0.4434591735942961 0.66641640622551224 0 0.42715538333808079 0.70077759375307946 0 0.40564717507982689 0.65626423320524974 0 0.38642358467307758 0.69286258923597266 0 0.40564717507982689 0.65626423320524974 0 0.42715538333808079 0.70077759375307946 0 0.57387636360620708 0.54318431390135336 0 0.554170140907293 0.50922353359177785 0 0.59621567360238914 0.5184866806641607 0 0.84999999999965292 1 0 0.79999999999999982 1 0 0.82675923981951416 0.95611053755456221 0 0 0.84999999999965292 0 0 0.79999999999999982 0 0.043889462445437968 0.82675923981951283 0 1 0.14999999999970359 0 1 0.19999999999955789 0 0.96080966346491015 0.18035159017841959 0 0.14999999999970359 0 0 0.19999999999955789 0 0 0.18035159017842109 0.039190336535090492 0 1 0.79999999999947335 0 1 0.84999999999960507 0 0.96071093996985157 0.81954008780615684 0 0.79999999999947335 0 0 0.84999999999960507 0 0 0.82050174006822896 0.038839999600956771 0 0.20000000000083221 1 0 0.15000000000062411 1 0 0.18045991219397989 0.960710939969875 0 0 0.20000000000083221 0 0 0.15000000000062411 0 0.038839999600931263 0.17949825993190149 0 0.64518564541690571 0.69601563325001548 0 0.6768914574865772 0.67861120078714243 0 0.67626275269587088 0.72713741921009012 0 0.30421635384321521 0.64514939193436716 0 0.32259853082073792 0.67670072609835186 0 0.27349656744860212 0.67581741996408695 0 0.69601563325001248 0.35481435458309712 0 0.6786112007871401 0.32310854251343019 0 0.72713741921008324 0.32373724730413678 0 0.35481435458309307 0.30398436674998969 0 0.3231032570156932 0.32141443408924047 0 0.32373692627050221 0.27286413781593999 0 0.49771727055908782 0.83998685797641781 0 0.48758069708049379 0.89080072540186539 0 0.45353891581270822 0.85551523377818905 0 0.16001314202358469 0.49771727055909287 0 0.1091992745981364 0.48758069708049778 0 0.1444847662218138 0.45353891581271188 0 0.83998574657308889 0.50228528270184081 0 0.89079805168298443 0.51242544533572376 0 0.85551478316835361 0.54646211938695222 0 0.50228272944093777 0.16001314202359701 0 0.51241930291950477 0.1091992745981813 0 0.54646108418729233 0.1444847662218687 0 0.70252050881959183 0.70358884261915833 0 0.6768914574865772 0.67861120078714243 0 0.71518943060973483 0.65679402931717101 0 0.29641115738084339 0.70252050881958938 0 0.32259853082073792 0.67670072609835186 0 0.34270280102445921 0.71672416762035873 0 0.70358884261915744 0.29747949118041561 0 0.6786112007871401 0.32310854251343019 0 0.65679402931716913 0.28481056939027388 0 0.29747949118041711 0.2964111573808435 0 0.3231032570156932 0.32141443408924047 0 0.28473805236128291 0.34355768118673757 0 0.92670321183853355 0.65773042910151081 0 0.96654491682122368 0.6363613838740827 0 0.96779701826738695 0.67105375815842694 0 0.65773042910151891 0.073296788161472337 0 0.63635157668793507 0.033457646040912177 0 0.67098510785536181 0.032220921767549461 0 0.073296788161418117 0.34226957089850552 0 0.033457646040922301 0.36364842331228431 0 0.032220921767546963 0.32901489214487523 0 0.3422695708985129 0.92670321183858773 0 0.36363861612613613 0.96654491682121313 0 0.32894624184180998 0.96779701826738929 0 1 0.64999999999907843 0 1 0.69999999999921003 0 0.96779701826738695 0.67105375815842694 0 0.64999999999907843 0 0 0.69999999999921003 0 0 0.67098510785536181 0.032220921767549461 0 0.35000000000145642 1 0 0.30000000000124832 1 0 0.32894624184180998 0.96779701826738929 0 0 0.35000000000145642 0 0 0.30000000000124832 0 0.032220921767546963 0.32901489214487523 0 0 0.40000000000166441 0 0 0.35000000000145642 0 0.033457646040922301 0.36364842331228431 0 0.40000000000166441 1 0 0.35000000000145642 1 0 0.36363861612613613 0.96654491682121313 0 0.59999999999894682 0 0 0.64999999999907843 0 0 0.63635157668793507 0.033457646040912177 0 1 0.59999999999894682 0 1 0.64999999999907843 0 0.96654491682122368 0.6363613838740827 0 0.81709574086843206 0.91318696080656769 0 0.85174853583809862 0.87705234031428159 0 0.85382799508926477 0.91295829388058414 0 0.086813039193431391 0.81709574086842884 0 0.1229476596857173 0.85174853583809695 0 0.087041706119416085 0.85382799508926188 0 0.90082758526900886 0.098076845682916511 0 0.8517485358380722 0.12294765968568611 0 0.86148619541339633 0.089689702191568438 0 0.098076845682915317 0.099172414730993488 0 0.12294765968567151 0.14825146416195439 0 0.089689702191541126 0.13851380458662241 0 0.59819537371016407 0.74380966024143391 0 0.6083790122881827 0.70496300707145865 0 0.64203711532612107 0.74316477213290444 0 0.64518564541690571 0.69601563325001548 0 0.64203711532612107 0.74316477213290444 0 0.6083790122881827 0.70496300707145865 0 0.25619033975856881 0.59819537371016862 0 0.29503699292854352 0.60837901228818936 0 0.25684529255773247 0.64203554247963057 0 0.30421635384321521 0.64514939193436716 0 0.25684529255773247 0.64203554247963057 0 0.29503699292854352 0.60837901228818936 0 0.74380966024142703 0.40180462628984132 0 0.70496300707145554 0.39162098771181952 0 0.74316477213289889 0.35796288467388632 0 0.69601563325001248 0.35481435458309712 0 0.74316477213289889 0.35796288467388632 0 0.70496300707145554 0.39162098771181952 0 0.40180462628983732 0.2561903397585753 0 0.39162098771181342 0.29503699292854563 0 0.3579628846738841 0.25683522786710378 0 0.35481435458309307 0.30398436674998969 0 0.3579628846738841 0.25683522786710378 0 0.39162098771181342 0.29503699292854563 0 0.8289812646369813 0.82898126463698818 0 0.85174853583809862 0.87705234031428159 0 0.81306033001437827 0.8677384967307622 0 0.17101873536300011 0.82898126463696109 0 0.1229476596857173 0.85174853583809695 0 0.1322615032692282 0.8130603300143705 0 0.8215422551712277 0.56912882742954496 0 0.85551478316835361 0.54646211938695222 0 0.85130417396420255 0.59518556406638579 0 0.43087117257049001 0.8215422551712771 0 0.45353891581270822 0.85551523377818905 0 0.40481452396081791 0.85130421228141606 0 0.56912882742954041 0.17845774482877461 0 0.54646108418729233 0.1444847662218687 0 0.59518547603920147 0.14869578771864489 0 0.17845774482872559 0.43087117257049429 0 0.1444847662218138 0.45353891581271188 0 0.14869578771858949 0.40481452396082068 0 0.49854341599767982 0.37075914768127122 0 0.46543211128216788 0.38788423543681888 0 0.47253211736503098 0.34081710830804929 0 0.43301393728221038 0.35984320557492139 0 0.47253211736503098 0.34081710830804929 0 0.46543211128216788 0.38788423543681888 0 0.36030748482174152 0.84598529912882459 0 0.40481452396081791 0.85130421228141606 0 0.37839190921727062 0.89064679688614412 0 0.84598529912884157 0.63969251517827153 0 0.85130417396420255 0.59518556406638579 0 0.89064679688610338 0.6216080907827598 0 0.15401470087117619 0.36030748482174652 0 0.14869578771858949 0.40481452396082068 0 0.10935320311385981 0.37839190921727089 0 0.63969251517826664 0.15401470087115929 0 0.59518547603920147 0.14869578771864489 0 0.62160809078275991 0.1093532031139005 0 0.64455163611866495 0.50369301794551069 0 0.61866949026800744 0.55492322767366287 0 0.59621567360238914 0.5184866806641607 0 0.64518564541690571 0.69601563325001548 0 0.6083790122881827 0.70496300707145865 0 0.60879112811253555 0.66592422311595834 0 0.30421635384321521 0.64514939193436716 0 0.29503699292854352 0.60837901228818936 0 0.33231497408081678 0.60779218732873663 0 0.69601563325001248 0.35481435458309712 0 0.70496300707145554 0.39162098771181952 0 0.66346942254826746 0.391530810754116 0 0.35481435458309307 0.30398436674998969 0 0.39162098771181342 0.29503699292854563 0 0.39120887188745579 0.33407577688404289 0 0.39507969989512881 0.74417394063201048 0 0.38703015239361932 0.80283068154761972 0 0.35837423432538362 0.77730446904312345 0 0.74417394063200648 0.6049203001048884 0 0.8028306815476034 0.61296984760642026 0 0.77730446904309636 0.64162576567462737 0 0.25582605936799319 0.39507969989513358 0 0.197169318452384 0.38703015239362498 0 0.22269553095687891 0.35837423432538801 0 0.60492030010488373 0.25582605936799729 0 0.61296984760641449 0.19716931845240021 0 0.64162576567462404 0.22269553095690481 0 0.46102425708533701 0.43254199134332588 0 0.46152714345798918 0.47344359412352599 0 0.42340342337193693 0.44762131874855388 0 0.5586987495249669 0.33382663527330653 0 0.52929435216580312 0.29671213472503383 0 0.57188338999077359 0.29874123486230147 0 0.58981073711177334 0.48140931020849848 0 0.554170140907293 0.50922353359177785 0 0.54783891860069212 0.46640164214823893 0 0.35944937237716967 0.65164789808436319 0 0.33231497408081678 0.60779218732873663 0 0.37104651296145419 0.60545170748311072 0 0.58981073711177334 0.48140931020849848 0 0.59621567360238914 0.5184866806641607 0 0.554170140907293 0.50922353359177785 0 0.55000000000173355 1 0 0.50000000000205869 1 0 0.51507566941747085 0.9626786017237855 0 0 0.55000000000173355 0 0 0.50000000000205869 0 0.037321398276215258 0.51507566941747263 0 1 0.44999999999882923 0 1 0.49999999999869432 0 0.96266688603193029 0.48495124540067203 0 0.44999999999882923 0 0 0.49999999999869432 0 0 0.48492433058289169 0.037321398276272413 0 0.78031198216143516 0.56693216359979737 0 0.76797069865873757 0.53315993670164308 0 0.80781854240107975 0.53406203754901738 0 0.43306783640023289 0.78031198216144404 0 0.46634612187967051 0.76767585524061377 0 0.46593838964869061 0.80781872835503554 0 0.56683314878414581 0.21944955250104689 0 0.53265327255359129 0.23135454206919101 0 0.53404982287327418 0.19215288291432539 0 0.21968801783855879 0.43306783640023788 0 0.23232476702437141 0.46634525369567709 0 0.19218127164496679 0.46593838964869538 0 0.5586987495249669 0.33382663527330653 0 0.51491507395299929 0.3326740076510219 0 0.52929435216580312 0.29671213472503383 0 0.43565339604028508 0.55159384357101338 0 0.47974773860103892 0.54872726831320284 0 0.45030222762303879 0.58443295115431027 0 0.50333998054938722 0.50119715791968966 0 0.45293656999117771 0.51494832297079129 0 0.46152714345798918 0.47344359412352599 0 0 0 0 0.032369857048753323 0.032369857048862027 0 0 0.050000000000207989 0 1 0 0 0.96763014295114425 0.032369857048773903 0 0.94999999999986839 0 0 1 0 0 1 0.049999999999899652 0 0.96763014295114425 0.032369857048773903 0 0 0 0 0.049999999999899652 0 0 0.032369857048753323 0.032369857048862027 0 1 1 0 0.94999999999979179 1 0 0.96763014295120153 0.96763014295122851 0 1 1 0 0.96763014295120153 0.96763014295122851 0 1 0.94999999999986839 0 0 1 0 0.030452409610489669 0.96954759038951022 0 0.050000000000207989 1 0 0 1 0 0 0.94999999999979179 0 0.030452409610489669 0.96954759038951022 0 0.35984320557492089 0.56698606271778873 0 0.39982789553993509 0.53462762214740622 0 0.40468198875170619 0.57637931869191572 0 0.41009598069569558 0.49083935749285379 0 0.37702386074717259 0.45819417564476811 0 0.42340342337193693 0.44762131874855388 0 0.39419886675318527 0.41912225240070788 0 0.42340342337193693 0.44762131874855388 0 0.37702386074717259 0.45819417564476811 0 0.60938371359314658 0.91847489683800321 0 0.63753756910470316 0.95578163339252209 0 0.5931441817276254 0.95886012268751675 0 0.081525103161997597 0.6093837135931508 0 0.04421836660747535 0.63753756910470205 0 0.041139877312483641 0.59314418172763017 0 0.91890123454466932 0.39094742729597309 0 0.95581270756939096 0.36248656652865863 0 0.95886012268748921 0.4068558182724159 0 0.39061628640684498 0.081525103161991672 0 0.36246243089534252 0.044218366607477223 0 0.40685581827241191 0.041139877312511682 0 0.66820316019503978 0.77769800602796979 0 0.67626275269587088 0.72713741921009012 0 0.71159714897733284 0.75039044679290845 0 0.22230199397202771 0.66820316019503168 0 0.27349656744860212 0.67581741996408695 0 0.249609553207091 0.71159714897732929 0 0.77769800602796679 0.33179683980497482 0 0.72713741921008324 0.32373724730413678 0 0.75039044679291111 0.28840285102267788 0 0.33179683980498331 0.2223019939720311 0 0.32373692627050221 0.27286413781593999 0 0.28840285102268098 0.24960955320708811 0 0.54901591374940373 0.42306523525165751 0 0.54783891860069212 0.46640164214823893 0 0.50753758205811061 0.4506562873613274 0 0.34804757266227387 0.35750068079406011 0 0.39120887188745579 0.33407577688404289 0 0.39222057657781068 0.38067796690227418 0 0.7000000000006934 1 0 0.6766004019857832 0.9676421564932749 0 0.71789175274016548 0.95136708251202151 0 0 0.7000000000006934 0 0.032357843506722522 0.67660040198578164 0 0.04863291748797445 0.71789175274016204 0 0.67757268808231397 0.93106206656183088 0 0.71789175274016548 0.95136708251202151 0 0.6766004019857832 0.9676421564932749 0 0.068937933438162791 0.67757268808231053 0 0.04863291748797445 0.71789175274016204 0 0.032357843506722522 0.67660040198578164 0 1 0.29999999999926641 0 0.96720628700974665 0.32362438565954771 0 0.94915666091748963 0.28320804985299752 0 0.29999999999926641 0 0 0.32361955853288599 0.032799927825624707 0 0.28320804985300141 0.050843339082505573 0 0.93106206656185309 0.32242731191769503 0 0.94915666091748963 0.28320804985299752 0 0.96720628700974665 0.32362438565954771 0 0.32242731191769902 0.068937933438140794 0 0.28320804985300141 0.050843339082505573 0 0.32361955853288599 0.032799927825624707 0 0.91838802593884228 0.81827409710237209 0 0.87660297360393757 0.8104127896505644 0 0.9041449437197947 0.7786886066890556 0 0.1817259028976386 0.91838802593888857 0 0.18958721034944021 0.87660297360394568 0 0.22131139331094829 0.9041449437198319 0 0.76395804595204597 0.67808171673060369 0 0.77730446904309636 0.64162576567462737 0 0.80847852346122429 0.67208120229789559 0 0.32191828326940508 0.76395804595204586 0 0.35837423432538362 0.77730446904312345 0 0.32791879770213411 0.80847852346120164 0 0.67808171673060202 0.23604195404795861 0 0.64162576567462404 0.22269553095690481 0 0.67208120229787616 0.1915214765387884 0 0.2360419540479583 0.32191828326940741 0 0.22269553095687891 0.35837423432538801 0 0.19152147653881049 0.32791879770215432 0 0.82118136511706341 0.082875076569723011 0 0.8110316677333288 0.125875177082863 0 0.77925951159456153 0.09969477121230251 0 0.08287507656968085 0.1788186348829835 0 0.12587517708284679 0.1889683322666954 0 0.099694771212264055 0.22074048840547039 0 0.43301393728221038 0.35984320557492139 0 0.46543211128216788 0.38788423543681888 0 0.42930823106401639 0.40626685012722968 0 0.43590673999053309 0.90289902042279657 0 0.45353891581270822 0.85551523377818905 0 0.48758069708049379 0.89080072540186539 0 0.097100979577207341 0.43590673999053198 0 0.1444847662218138 0.45353891581271188 0 0.1091992745981364 0.48758069708049778 0 0.90289902042272274 0.56409326000946114 0 0.85551478316835361 0.54646211938695222 0 0.89079805168298443 0.51242544533572376 0 0.56409326000946236 0.097100979577281268 0 0.54646108418729233 0.1444847662218687 0 0.51241930291950477 0.1091992745981813 0 0.51484304721220842 0.69707233951836334 0 0.49073113440598592 0.73759004618730417 0 0.46736891737654429 0.70015537930374983 0 0.44764943295894188 0.73752415265401661 0 0.46736891737654429 0.70015537930374983 0 0.49073113440598592 0.73759004618730417 0 0.30292766048163949 0.51484304721221474 0 0.262418491288269 0.49071922292154141 0 0.29988655052531688 0.46700727827593119 0 0.26247584734598628 0.44764943295894732 0 0.29988655052531688 0.46700727827593119 0 0.262418491288269 0.49071922292154141 0 0.70015119067225129 0.48481914991727459 0 0.73815142352639962 0.50697050072007344 0 0.69798396601998558 0.5289734597937793 0 0.73752415265401194 0.55235056704108476 0 0.69798396601998558 0.5289734597937793 0 0.73815142352639962 0.50697050072007344 0 0.67757268808231397 0.93106206656183088 0 0.6441774148058701 0.91458123574274031 0 0.66923299355723143 0.8804077449518628 0 0.068937933438162791 0.67757268808231053 0 0.085418764257258195 0.64417741480586865 0 0.1195922550481313 0.66923299355722787 0 0.93106206656185309 0.32242731191769503 0 0.91286712511202617 0.35637271447129198 0 0.88040774495187946 0.33076700644278889 0 0.32242731191769902 0.068937933438140794 0 0.35582258519414178 0.085418764257258431 0 0.33076700644279272 0.1195922550481146 0 0.63969251517836323 0.84598529912890386 0 0.66923299355723143 0.8804077449518628 0 0.62483828039315681 0.8780818733396436 0 0.1540147008710982 0.63969251517836956 0 0.1195922550481313 0.66923299355722787 0 0.1219181266603569 0.62483828039315903 0 0.84598529912889664 0.36030748482164038 0 0.88040774495187946 0.33076700644278889 0 0.87815187193233801 0.37523526017134418 0 0.3603074848216346 0.15401470087110539 0 0.33076700644279272 0.1195922550481146 0 0.37516171960683908 0.121918126660369 0 0.46102425708533701 0.43254199134332588 0 0.5047849391802508 0.40719950955717021 0 0.50753758205811061 0.4506562873613274 0 0.85607519768343354 0.69380468830529196 0 0.88396545633132484 0.6625197322180193 0 0.90051880305432697 0.69261863673346957 0 0.30619531169472608 0.85607519768342955 0 0.33748026778199908 0.88396545633134682 0 0.30738136326657722 0.90051880305435028 0 0.69379929796456197 0.14392209494791061 0 0.66251865414987876 0.1160340021949529 0 0.69253601466723103 0.09949211948105087 0 0.14392209494791439 0.30620070203545702 0 0.11603400219493119 0.33748134585014028 0 0.099492119481027347 0.30746398533281638 0 0.78284912262770068 0.83746308049763585 0 0.81306033001437827 0.8677384967307622 0 0.78020430794084783 0.88768307197553598 0 0.16253691950235041 0.78284912262768558 0 0.1322615032692282 0.8130603300143705 0 0.11231692802445629 0.78020430794084028 0 0.66820316019503978 0.77769800602796979 0 0.64203711532612107 0.74316477213290444 0 0.67626275269587088 0.72713741921009012 0 0.22230199397202771 0.66820316019503168 0 0.25684529255773247 0.64203554247963057 0 0.27349656744860212 0.67581741996408695 0 0.77769800602796679 0.33179683980497482 0 0.74316477213289889 0.35796288467388632 0 0.72713741921008324 0.32373724730413678 0 0.33179683980498331 0.2223019939720311 0 0.3579628846738841 0.25683522786710378 0 0.32373692627050221 0.27286413781593999 0 0.4434591735942961 0.66641640622551224 0 0.45517457031814612 0.62743100079604397 0 0.47818752133962877 0.66454462905280853 0 0.7000000000006934 1 0 0.65000000000104008 1 0 0.6766004019857832 0.9676421564932749 0 0 0.7000000000006934 0 0 0.65000000000104008 0 0.032357843506722522 0.67660040198578164 0 1 0.29999999999926641 0 1 0.34999999999912063 0 0.96720628700974665 0.32362438565954771 0 0.29999999999926641 0 0 0.34999999999912063 0 0 0.32361955853288599 0.032799927825624707 0 0.49854341599767982 0.37075914768127122 0 0.47253211736503098 0.34081710830804929 0 0.51491507395299929 0.3326740076510219 0 0.50000000000205869 1 0 0.45000000000187229 1 0 0.47500000000196563 0.970555092835793 0 0 0.50000000000205869 0 0 0.45000000000187229 0 0.029444907164209121 0.47500000000196552 0 1 0.49999999999869432 0 1 0.5499999999988151 0 0.97055509283553232 0.52499999999875435 0 0.49999999999869432 0 0 0.5499999999988151 0 0 0.52499999999875446 0.029444907164469181 0 0.91838802593870927 0.18172590289757809 0 0.89556054516486661 0.21720615046483649 0 0.87355793346388477 0.18922011052113649 0 0.18172590289758209 0.08161197406129285 0 0.21720615046484709 0.1044394548351292 0 0.18922011052115781 0.12644206653611201 0 0.48378871228000903 0.29745177826977359 0 0.51491507395299929 0.3326740076510219 0 0.47253211736503098 0.34081710830804929 0 0.58981073711177334 0.48140931020849848 0 0.59313386551587477 0.43977047843653239 0 0.62619054498681193 0.46482944251856079 0 0.640156794425081 0.43301393728221721 0 0.62619054498681193 0.46482944251856079 0 0.59313386551587477 0.43977047843653239 0 0 0.45000000000187229 0 0.043612803661092707 0.44006111182840391 0 0.029444907164209121 0.47500000000196552 0 0.45000000000187229 1 0 0.44006111182840962 0.9563871963389079 0 0.47500000000196563 0.970555092835793 0 0.5499999999988151 0 0 0.55993888817186677 0.043612803661174412 0 0.52499999999875446 0.029444907164469181 0 1 0.5499999999988151 0 0.95638719633882641 0.5599388881718611 0 0.97055509283553232 0.52499999999875435 0 0.57051182622447827 0.69668652018496713 0 0.60879112811253555 0.66592422311595834 0 0.6083790122881827 0.70496300707145865 0 0.30429740679959738 0.56913905146460098 0 0.33231497408081678 0.60779218732873663 0 0.29503699292854352 0.60837901228818936 0 0.69595787604187809 0.43071000156707989 0 0.66346942254826746 0.391530810754116 0 0.70496300707145554 0.39162098771181952 0 0.43059486795334201 0.30395973419063538 0 0.39120887188745579 0.33407577688404289 0 0.39162098771181342 0.29503699292854563 0 0.35984320557492089 0.56698606271778873 0 0.37104651296145419 0.60545170748311072 0 0.33231497408081678 0.60779218732873663 0 0.43565339604028508 0.55159384357101338 0 0.40468198875170619 0.57637931869191572 0 0.39982789553993509 0.53462762214740622 0 0.66820316019503978 0.77769800602796979 0 0.71159714897733284 0.75039044679290845 0 0.69892030930712212 0.7971997999085858 0 0.22230199397202771 0.66820316019503168 0 0.249609553207091 0.71159714897732929 0 0.2028002000914135 0.69892030930711557 0 0.77769800602796679 0.33179683980497482 0 0.75039044679291111 0.28840285102267788 0 0.7971997999085878 0.3010796906928917 0 0.33179683980498331 0.2223019939720311 0 0.28840285102268098 0.24960955320708811 0 0.30107969069289831 0.20280020009141189 0 0.34804757266227387 0.35750068079406011 0 0.39222057657781068 0.38067796690227418 0 0.35481422397128459 0.40312981465069342 0 0.67757268808231397 0.93106206656183088 0 0.66923299355723143 0.8804077449518628 0 0.70475631558365914 0.90098127745102974 0 0.068937933438162791 0.67757268808231053 0 0.1195922550481313 0.66923299355722787 0 0.099018722548963364 0.70475631558365193 0 0.93106206656185309 0.32242731191769503 0 0.88040774495187946 0.33076700644278889 0 0.89886191075654698 0.29506339503703172 0 0.32242731191769902 0.068937933438140794 0 0.33076700644279272 0.1195922550481146 0 0.29506339503703888 0.1011380892434444 0 0.53432142347292233 0.88563193847251998 0 0.56877264426066887 0.91182300080710277 0 0.52425337578225772 0.9223731761594427 0 0.1143680615274819 0.53432142347292733 0 0.088176999192898689 0.56877264426067353 0 0.07762682384055844 0.52425337578226128 0 0.46567857652706018 0.1143680615275231 0 0.43122735573933979 0.088176999192917438 0 0.47574662421782782 0.077626823840590969 0 0.39419886675318527 0.41912225240070788 0 0.35481422397128459 0.40312981465069342 0 0.39222057657781068 0.38067796690227418 0 1 0.49999999999869432 0 0.97055509283553232 0.52499999999875435 0 0.96266688603193029 0.48495124540067203 0 0.49999999999869432 0 0 0.52499999999875446 0.029444907164469181 0 0.48492433058289169 0.037321398276272413 0 0.93510666819640953 0.51330222939551939 0 0.96266688603193029 0.48495124540067203 0 0.97055509283553232 0.52499999999875435 0 0.5133022293955174 0.064893331803591428 0 0.48492433058289169 0.037321398276272413 0 0.52499999999875446 0.029444907164469181 0 0 0.50000000000205869 0 0.029444907164209121 0.47500000000196552 0 0.037321398276215258 0.51507566941747263 0 0.50000000000205869 1 0 0.47500000000196563 0.970555092835793 0 0.51507566941747085 0.9626786017237855 0 0.48669777060454272 0.93510666819646593 0 0.51507566941747085 0.9626786017237855 0 0.47500000000196563 0.970555092835793 0 0.064893331803534807 0.48669777060454478 0 0.037321398276215258 0.51507566941747263 0 0.029444907164209121 0.47500000000196552 0 0.55307204985744796 0.94819812235491685 0 0.52425337578225772 0.9223731761594427 0 0.56877264426066887 0.91182300080710277 0 0.051801877645083663 0.55307204985745195 0 0.07762682384055844 0.52425337578226128 0 0.088176999192898689 0.56877264426067353 0 0.44692795014265252 0.051801877645060238 0 0.47574662421782782 0.077626823840590969 0 0.43122735573933979 0.088176999192917438 0 0.70085728320704077 0.84350379029875056 0 0.66919832404887702 0.81820888699730587 0 0.69892030930712212 0.7971997999085858 0 0.1564962097012354 0.70085728320703999 0 0.1817911130026923 0.66919832404888702 0 0.2028002000914135 0.69892030930711557 0 0.84350379029877964 0.29914271679296989 0 0.8182088869973061 0.33080167595111531 0 0.7971997999085878 0.3010796906928917 0 0.29914271679297122 0.15649620970120659 0 0.33080167595110582 0.18179111300269291 0 0.30107969069289831 0.20280020009141189 0 0.33382663527330159 0.44130125047503482 0 0.37702386074717259 0.45819417564476811 0 0.33436424489304489 0.47849603121740791 0 0.44764943295894188 0.73752415265401661 0 0.46634612187967051 0.76767585524061377 0 0.43306783640023289 0.78031198216144404 0 0.73752415265401194 0.55235056704108476 0 0.76797069865873757 0.53315993670164308 0 0.78031198216143516 0.56693216359979737 0 0.26247584734598628 0.44764943295894732 0 0.23232476702437141 0.46634525369567709 0 0.21968801783855879 0.43306783640023788 0 0.55175647814720108 0.26104505532086641 0 0.53265327255359129 0.23135454206919101 0 0.56683314878414581 0.21944955250104689 0 0.65000000000104008 1 0 0.63753756910470316 0.95578163339252209 0 0.6766004019857832 0.9676421564932749 0 0 0.65000000000104008 0 0.04421836660747535 0.63753756910470205 0 0.032357843506722522 0.67660040198578164 0 1 0.34999999999912063 0 0.95581270756939096 0.36248656652865863 0 0.96720628700974665 0.32362438565954771 0 0.34999999999912063 0 0 0.36246243089534252 0.044218366607477223 0 0.32361955853288599 0.032799927825624707 0 0.67757268808231397 0.93106206656183088 0 0.6766004019857832 0.9676421564932749 0 0.63753756910470316 0.95578163339252209 0 0.068937933438162791 0.67757268808231053 0 0.032357843506722522 0.67660040198578164 0 0.04421836660747535 0.63753756910470205 0 0.93106206656185309 0.32242731191769503 0 0.96720628700974665 0.32362438565954771 0 0.95581270756939096 0.36248656652865863 0 0.32242731191769902 0.068937933438140794 0 0.32361955853288599 0.032799927825624707 0 0.36246243089534252 0.044218366607477223 0 0.94812782820415209 0.44708943904932719 0 0.92203742772043751 0.47579485578641628 0 0.90991454156957952 0.4312731559748802 0 0.88561059063756964 0.46572761956237563 0 0.90991454156957952 0.4312731559748802 0 0.92203742772043751 0.47579485578641628 0 0.49189101320880302 0.59024331187324797 0 0.45517457031814612 0.62743100079604397 0 0.45030222762303879 0.58443295115431027 0 0.54465502325161819 0.74717983044080061 0 0.57578062281532438 0.77751665353176347 0 0.53770425635794761 0.80104587463999666 0 0.25287139441262568 0.54458355434492378 0 0.2224870800581388 0.57577541371134155 0 0.1989632851005598 0.53769147668950479 0 0.74730218607442667 0.45539100053644521 0 0.77752557158083724 0.42422273168818408 0 0.80106707846564795 0.46230714888029367 0 0.45533136021725079 0.2525687312087147 0 0.42421838472613971 0.22246502005787769 0 0.46229330881044273 0.19890916456654811 0 0.57387636360620708 0.54318431390135336 0 0.59621567360238914 0.5184866806641607 0 0.61866949026800744 0.55492322767366287 0 0.66923299355723143 0.8804077449518628 0 0.6441774148058701 0.91458123574274031 0 0.62483828039315681 0.8780818733396436 0 0.1195922550481313 0.66923299355722787 0 0.085418764257258195 0.64417741480586865 0 0.1219181266603569 0.62483828039315903 0 0.88040774495187946 0.33076700644278889 0 0.91286712511202617 0.35637271447129198 0 0.87815187193233801 0.37523526017134418 0 0.33076700644279272 0.1195922550481146 0 0.35582258519414178 0.085418764257258431 0 0.37516171960683908 0.121918126660369 0 0.49189101320880302 0.59024331187324797 0 0.45030222762303879 0.58443295115431027 0 0.47974773860103892 0.54872726831320284 0 0.92670321183853355 0.65773042910151081 0 0.90051880305432697 0.69261863673346957 0 0.88396545633132484 0.6625197322180193 0 0.65773042910151891 0.073296788161472337 0 0.69253601466723103 0.09949211948105087 0 0.66251865414987876 0.1160340021949529 0 0.3422695708985129 0.92670321183858773 0 0.30738136326657722 0.90051880305435028 0 0.33748026778199908 0.88396545633134682 0 0.073296788161418117 0.34226957089850552 0 0.099492119481027347 0.30746398533281638 0 0.11603400219493119 0.33748134585014028 0 0.60938371359314658 0.91847489683800321 0 0.6441774148058701 0.91458123574274031 0 0.63753756910470316 0.95578163339252209 0 0.081525103161997597 0.6093837135931508 0 0.085418764257258195 0.64417741480586865 0 0.04421836660747535 0.63753756910470205 0 0.91890123454466932 0.39094742729597309 0 0.91286712511202617 0.35637271447129198 0 0.95581270756939096 0.36248656652865863 0 0.39061628640684498 0.081525103161991672 0 0.35582258519414178 0.085418764257258431 0 0.36246243089534252 0.044218366607477223 0 0.67757268808231397 0.93106206656183088 0 0.63753756910470316 0.95578163339252209 0 0.6441774148058701 0.91458123574274031 0 0.068937933438162791 0.67757268808231053 0 0.04421836660747535 0.63753756910470205 0 0.085418764257258195 0.64417741480586865 0 0.93106206656185309 0.32242731191769503 0 0.95581270756939096 0.36248656652865863 0 0.91286712511202617 0.35637271447129198 0 0.32242731191769902 0.068937933438140794 0 0.36246243089534252 0.044218366607477223 0 0.35582258519414178 0.085418764257258431 0 0.56759263990989184 0.81794319034601648 0 0.53770425635794761 0.80104587463999666 0 0.57578062281532438 0.77751665353176347 0 0.18205680965398621 0.56759263990989739 0 0.1989632851005598 0.53769147668950479 0 0.2224870800581388 0.57577541371134155 0 0.81794319034597418 0.43240736009009317 0 0.80106707846564795 0.46230714888029367 0 0.77752557158083724 0.42422273168818408 0 0.43240736009008851 0.18205680965402779 0 0.46229330881044273 0.19890916456654811 0 0.42421838472613971 0.22246502005787769 0 0.4434591735942961 0.66641640622551224 0 0.46736891737654429 0.70015537930374983 0 0.42715538333808079 0.70077759375307946 0 0.44764943295894188 0.73752415265401661 0 0.42715538333808079 0.70077759375307946 0 0.46736891737654429 0.70015537930374983 0 0.66548584431530877 0.55616712808283064 0 0.69798396601998558 0.5289734597937793 0 0.70087539567735502 0.57165914616526226 0 0.33382663527330159 0.44130125047503482 0 0.29988655052531688 0.46700727827593119 0 0.2963043386970643 0.4298320229681446 0 0.73752415265401194 0.55235056704108476 0 0.70087539567735502 0.57165914616526226 0 0.69798396601998558 0.5289734597937793 0 0.26247584734598628 0.44764943295894732 0 0.2963043386970643 0.4298320229681446 0 0.29988655052531688 0.46700727827593119 0 0.46102425708533701 0.43254199134332588 0 0.46543211128216788 0.38788423543681888 0 0.5047849391802508 0.40719950955717021 0 0.49854341599767982 0.37075914768127122 0 0.5047849391802508 0.40719950955717021 0 0.46543211128216788 0.38788423543681888 0 0.55175647814720108 0.26104505532086641 0 0.57188338999077359 0.29874123486230147 0 0.52929435216580312 0.29671213472503383 0 0.48378871228000903 0.29745177826977359 0 0.52929435216580312 0.29671213472503383 0 0.51491507395299929 0.3326740076510219 0 0.46102425708533701 0.43254199134332588 0 0.42340342337193693 0.44762131874855388 0 0.42930823106401639 0.40626685012722968 0 0.39419886675318527 0.41912225240070788 0 0.42930823106401639 0.40626685012722968 0 0.42340342337193693 0.44762131874855388 0 0.94812782820415209 0.44708943904932719 0 0.96266688603193029 0.48495124540067203 0 0.92203742772043751 0.47579485578641628 0 0.44692795014265252 0.051801877645060238 0 0.48492433058289169 0.037321398276272413 0 0.47574662421782782 0.077626823840590969 0 0.93510666819640953 0.51330222939551939 0 0.92203742772043751 0.47579485578641628 0 0.96266688603193029 0.48495124540067203 0 0.5133022293955174 0.064893331803591428 0 0.47574662421782782 0.077626823840590969 0 0.48492433058289169 0.037321398276272413 0 0.55307204985744796 0.94819812235491685 0 0.51507566941747085 0.9626786017237855 0 0.52425337578225772 0.9223731761594427 0 0.051801877645083663 0.55307204985745195 0 0.037321398276215258 0.51507566941747263 0 0.07762682384055844 0.52425337578226128 0 0.48669777060454272 0.93510666819646593 0 0.52425337578225772 0.9223731761594427 0 0.51507566941747085 0.9626786017237855 0 0.064893331803534807 0.48669777060454478 0 0.07762682384055844 0.52425337578226128 0 0.037321398276215258 0.51507566941747263 0 0.70252050881959183 0.70358884261915833 0 0.71159714897733284 0.75039044679290845 0 0.67626275269587088 0.72713741921009012 0 0.29641115738084339 0.70252050881958938 0 0.249609553207091 0.71159714897732929 0 0.27349656744860212 0.67581741996408695 0 0.70358884261915744 0.29747949118041561 0 0.75039044679291111 0.28840285102267788 0 0.72713741921008324 0.32373724730413678 0 0.29747949118041711 0.2964111573808435 0 0.28840285102268098 0.24960955320708811 0 0.32373692627050221 0.27286413781593999 0 0.48378871228000903 0.29745177826977359 0 0.50732841191799194 0.2613117081243182 0 0.52929435216580312 0.29671213472503383 0 0.50000000000002642 0.7803135888501761 0 0.46634612187967051 0.76767585524061377 0 0.49073113440598592 0.73759004618730417 0 0.44764943295894188 0.73752415265401661 0 0.49073113440598592 0.73759004618730417 0 0.46634612187967051 0.76767585524061377 0 0.73752415265401194 0.55235056704108476 0 0.73815142352639962 0.50697050072007344 0 0.76797069865873757 0.53315993670164308 0 0.78031358885017377 0.49999999999997569 0 0.76797069865873757 0.53315993670164308 0 0.73815142352639962 0.50697050072007344 0 0.2196864111498267 0.50000000000003153 0 0.23232476702437141 0.46634525369567709 0 0.262418491288269 0.49071922292154141 0 0.26247584734598628 0.44764943295894732 0 0.262418491288269 0.49071922292154141 0 0.23232476702437141 0.46634525369567709 0 0.55175647814720108 0.26104505532086641 0 0.50732841191799194 0.2613117081243182 0 0.53265327255359129 0.23135454206919101 0 0.49999999999997108 0.21968641114982909 0 0.53265327255359129 0.23135454206919101 0 0.50732841191799194 0.2613117081243182 0 0.64455163611866495 0.50369301794551069 0 0.62619054498681193 0.46482944251856079 0 0.66329969176266512 0.46626046872004567 0 0.50000000000002642 0.7803135888501761 0 0.46593838964869061 0.80781872835503554 0 0.46634612187967051 0.76767585524061377 0 0.2196864111498267 0.50000000000003153 0 0.19218127164496679 0.46593838964869538 0 0.23232476702437141 0.46634525369567709 0 0.78031358885017377 0.49999999999997569 0 0.80781854240107975 0.53406203754901738 0 0.76797069865873757 0.53315993670164308 0 0.49999999999997108 0.21968641114982909 0 0.53404982287327418 0.19215288291432539 0 0.53265327255359129 0.23135454206919101 0 0.55175647814720108 0.26104505532086641 0 0.52929435216580312 0.29671213472503383 0 0.50732841191799194 0.2613117081243182 0 0.64518564541690571 0.69601563325001548 0 0.67626275269587088 0.72713741921009012 0 0.64203711532612107 0.74316477213290444 0 0.30421635384321521 0.64514939193436716 0 0.27349656744860212 0.67581741996408695 0 0.25684529255773247 0.64203554247963057 0 0.69601563325001248 0.35481435458309712 0 0.72713741921008324 0.32373724730413678 0 0.74316477213289889 0.35796288467388632 0 0.35481435458309307 0.30398436674998969 0 0.32373692627050221 0.27286413781593999 0 0.3579628846738841 0.25683522786710378 0 0.640156794425081 0.43301393728221721 0 0.66329969176266512 0.46626046872004567 0 0.62619054498681193 0.46482944251856079 0 1 0.64999999999907843 0 0.96779701826738695 0.67105375815842694 0 0.96654491682122368 0.6363613838740827 0 0.64999999999907843 0 0 0.67098510785536181 0.032220921767549461 0 0.63635157668793507 0.033457646040912177 0 0.35000000000145642 1 0 0.32894624184180998 0.96779701826738929 0 0.36363861612613613 0.96654491682121313 0 0 0.35000000000145642 0 0.032220921767546963 0.32901489214487523 0 0.033457646040922301 0.36364842331228431 0 0.66820316019503978 0.77769800602796979 0 0.69892030930712212 0.7971997999085858 0 0.66919832404887702 0.81820888699730587 0 0.22230199397202771 0.66820316019503168 0 0.2028002000914135 0.69892030930711557 0 0.1817911130026923 0.66919832404888702 0 0.77769800602796679 0.33179683980497482 0 0.7971997999085878 0.3010796906928917 0 0.8182088869973061 0.33080167595111531 0 0.33179683980498331 0.2223019939720311 0 0.30107969069289831 0.20280020009141189 0 0.33080167595110582 0.18179111300269291 0 0.4434591735942961 0.66641640622551224 0 0.47818752133962877 0.66454462905280853 0 0.46736891737654429 0.70015537930374983 0 0.33382663527330159 0.44130125047503482 0 0.33436424489304489 0.47849603121740791 0 0.29988655052531688 0.46700727827593119 0 0.46102425708533701 0.43254199134332588 0 0.42930823106401639 0.40626685012722968 0 0.46543211128216788 0.38788423543681888 0 0.35984320557492089 0.56698606271778873 0 0.40468198875170619 0.57637931869191572 0 0.37104651296145419 0.60545170748311072 0 0.60938371359314658 0.91847489683800321 0 0.62483828039315681 0.8780818733396436 0 0.6441774148058701 0.91458123574274031 0 0.081525103161997597 0.6093837135931508 0 0.1219181266603569 0.62483828039315903 0 0.085418764257258195 0.64417741480586865 0 0.91890123454466932 0.39094742729597309 0 0.87815187193233801 0.37523526017134418 0 0.91286712511202617 0.35637271447129198 0 0.39061628640684498 0.081525103161991672 0 0.37516171960683908 0.121918126660369 0 0.35582258519414178 0.085418764257258431 0 0.40653508887824003 0.61580573377480397 0 0.37104651296145419 0.60545170748311072 0 0.40468198875170619 0.57637931869191572 0 
</DataArray>
</Points>
<Cells>
<DataArray type="UInt32" Name="connectivity" format="ascii">
0 1 2 3 4 5 6 7 8 9 10 11 12 13 14 15 16 17 18 19 20 21 22 23 24 25 26 27 28 29 30 31 32 33 34 35 36 37 38 39 40 41 42 43 44 45 46 47 48 49 50 51 52 53 54 55 56 57 58 59 60 61 62 63 64 65 66 67 68 69 70 71 72 73 74 75 76 77 78 79 80 81 82 83 84 85 86 87 88 89 90 91 92 93 94 95 96 97 98 99 100 101 102 103 104 105 106 107 108 109 110 111 112 113 114 115 116 117 118 119 120 121 122 123 124 125 126 127 128 129 130 131 132 133 134 135 136 137 138 139 140 141 142 143 144 145 146 147 148 149 150 151 152 153 154 155 156 157 158 159 160 161 162 163 164 165 166 167 168 169 170 171 172 173 174 175 176 177 178 179 180 181 182 183 184 185 186 187 188 189 190 191 192 193 194 195 196 197 198 199 200 201 202 203 204 205 206 207 208 209 210 211 212 213 214 215 216 217 218 219 220 221 222 223 224 225 226 227 228 229 230 231 232 233 234 235 236 237 238 239 240 241 242 243 244 245 246 247 248 249 250 251 252 253 254 255 256 257 258 259 260 261 262 263 264 265 266 267 268 269 270 271 272 273 274 275 276 277 278 279 280 281 282 283 284 285 286 287 288 289 290 291 292 293 294 295 296 297 298 299 300 301 302 303 304 305 306 307 308 309 310 311 312 313 314 315 316 317 318 319 320 321 322 323 324 325 326 327 328 329 330 331 332 333 334 335 336 337 338 339 340 341 342 343 344 345 346 347 348 349 350 351 352 353 354 355 356 357 358 359 360 361 362 363 364 365 366 367 368 369 370 371 372 373 374 375 376 377 378 379 380 381 382 383 384 385 386 387 388 389 390 391 392 393 394 395 396 397 398 399 400 401 402 403 404 405 406 407 408 409 410 411 412 413 414 415 416 417 418 419 420 421 422 423 424 425 426 427 428 429 430 431 432 433 434 435 436 437 438 439 440 441 442 443 444 445 446 447 448 449 450 451 452 453 454 455 456 457 458 459 460 461 462 463 464 465 466 467 468 469 470 471 472 473 474 475 476 477 478 479 480 481 482 483 484 485 486 487 488 489 490 491 492 493 494 495 496 497 498 499 500 501 502 503 504 505 506 507 508 509 510 511 512 513 514 515 516 517 518 519 520 521 522 523 524 525 526 527 528 529 530 531 532 533 534 535 536 537 538 539 540 541 542 543 544 545 546 547 548 549 550 551 552 553 554 555 556 557 558 559 560 561 562 563 564 565 566 567 568 569 570 571 572 573 574 575 576 577 578 579 580 581 582 583 584 585 586 587 588 589 590 591 592 593 594 595 596 597 598 599 600 601 602 603 604 605 606 607 608 609 610 611 612 613 614 615 616 617 618 619 620 621 622 623 624 625 626 627 628 629 630 631 632 633 634 635 636 637 638 639 640 641 642 643 644 645 646 647 648 649 650 651 652 653 654 655 656 657 658 659 660 661 662 663 664 665 666 667 668 669 670 671 672 673 674 675 676 677 678 679 680 681 682 683 684 685 686 687 688 689 690 691 692 693 694 695 696 697 698 699 700 701 702 703 704 705 706 707 708 709 710 711 712 713 714 715 716 717 718 719 720 721 722 723 724 725 726 727 728 729 730 731 732 733 734 735 736 737 738 739 740 741 742 743 744 745 746 747 748 749 750 751 752 753 754 755 756 757 758 759 760 761 762 763 764 765 766 767 768 769 770 771 772 773 774 775 776 777 778 779 780 781 782 783 784 785 786 787 788 789 790 791 792 793 794 795 796 797 798 799 800 801 802 803 804 805 806 807 808 809 810 811 812 813 814 815 816 817 818 819 820 821 822 823 824 825 826 827 828 829 830 831 832 833 834 835 836 837 838 839 840 841 842 843 844 845 846 847 848 849 850 851 852 853 854 855 856 857 858 859 860 861 862 863 864 865 866 867 868 869 870 871 872 873 874 875 876 877 878 879 880 881 882 883 884 885 886 887 888 889 890 891 892 893 894 895 896 897 898 899 900 901 902 903 904 905 906 907 908 909 910 911 912 913 914 915 916 917 918 919 920 921 922 923 924 925 926 927 928 929 930 931 932 933 934 935 936 937 938 939 940 941 942 943 944 945 946 947 948 949 950 951 952 953 954 955 956 957 958 959 960 961 962 963 964 965 966 967 968 969 970 971 972 973 974 975 976 977 978 979 980 981 982 983 984 985 986 987 988 989 990 991 992 993 994 995 996 997 998 999 1000 1001 1002 1003 1004 1005 1006 1007 1008 1009 1010 1011 1012 1013 1014 1015 1016 1017 1018 1019 1020 1021 1022 1023 1024 1025 1026 1027 1028 1029 1030 1031 1032 1033 1034 1035 1036 1037 1038 1039 1040 1041 1042 1043 1044 1045 1046 1047 1048 1049 1050 1051 1052 1053 1054 1055 1056 1057 1058 1059 1060 1061 1062 1063 1064 1065 1066 1067 1068 1069 1070 1071 1072 1073 1074 1075 1076 1077 1078 1079 1080 1081 1082 1083 1084 1085 1086 1087 1088 1089 1090 1091 1092 1093 1094 1095 1096 1097 1098 1099 1100 1101 1102 1103 1104 1105 1106 1107 1108 1109 1110 1111 1112 1113 1114 1115 1116 1117 1118 1119 1120 1121 1122 1123 1124 1125 1126 1127 1128 1129 1130 1131 1132 1133 1134 1135 1136 1137 1138 1139 1140 1141 1142 1143 1144 1145 1146 1147 1148 1149 1150 1151 1152 1153 1154 1155 1156 1157 1158 1159 1160 1161 1162 1163 1164 1165 1166 1167 1168 1169 1170 1171 1172 1173 1174 1175 1176 1177 1178 1179 1180 1181 1182 1183 1184 1185 1186 1187 1188 1189 1190 1191 1192 1193 1194 1195 1196 1197 1198 1199 1200 1201 1202 1203 1204 1205 1206 1207 1208 1209 1210 1211 1212 1213 1214 1215 1216 1217 1218 1219 1220 1221 1222 1223 1224 1225 1226 1227 1228 1229 1230 1231 1232 1233 1234 1235 1236 1237 1238 1239 1240 1241 1242 1243 1244 1245 1246 1247 1248 1249 1250 1251 1252 1253 1254 1255 1256 1257 1258 1259 1260 1261 1262 1263 1264 1265 1266 1267 1268 1269 1270 1271 1272 1273 1274 1275 1276 1277 1278 1279 1280 1281 1282 1283 1284 1285 1286 1287 1288 1289 1290 1291 1292 1293 1294 1295 1296 1297 1298 1299 1300 1301 1302 1303 1304 1305 1306 1307 1308 1309 1310 1311 1312 1313 1314 1315 1316 1317 1318 1319 1320 1321 1322 1323 1324 1325 1326 1327 1328 1329 1330 1331 1332 1333 1334 1335 1336 1337 1338 1339 1340 1341 1342 1343 1344 1345 1346 1347 1348 1349 1350 1351 1352 1353 1354 1355 1356 1357 1358 1359 1360 1361 1362 1363 1364 1365 1366 1367 1368 1369 1370 1371 1372 1373 1374 1375 1376 1377 1378 1379 1380 1381 1382 1383 1384 1385 1386 1387 1388 1389 1390 1391 1392 1393 1394 1395 1396 1397 1398 1399 1400 1401 1402 1403 1404 1405 1406 1407 1408 1409 1410 1411 1412 1413 1414 1415 1416 1417 1418 1419 1420 1421 1422 1423 1424 1425 1426 1427 1428 1429 1430 1431 1432 1433 1434 1435 1436 1437 1438 1439 1440 1441 1442 1443 1444 1445 1446 1447 1448 1449 1450 1451 1452 1453 1454 1455 1456 1457 1458 1459 1460 1461 1462 1463 1464 1465 1466 1467 1468 1469 1470 1471 1472 1473 1474 1475 1476 1477 1478 1479 1480 1481 1482 1483 1484 1485 1486 1487 1488 1489 1490 1491 1492 1493 1494 1495 1496 1497 1498 1499 1500 1501 1502 1503 1504 1505 1506 1507 1508 1509 1510 1511 1512 1513 1514 1515 1516 1517 1518 1519 1520 1521 1522 1523 1524 1525 1526 1527 1528 1529 1530 1531 1532 1533 1534 1535 1536 1537 1538 1539 1540 1541 1542 1543 1544 1545 1546 1547 1548 1549 1550 1551 1552 1553 1554 1555 1556 1557 1558 1559 1560 1561 1562 1563 1564 1565 1566 1567 1568 1569 1570 1571 1572 1573 1574 1575 1576 1577 1578 1579 1580 1581 1582 1583 1584 1585 1586 1587 1588 1589 1590 1591 1592 1593 1594 1595 1596 1597 1598 1599 1600 1601 1602 1603 1604 1605 1606 1607 1608 1609 1610 1611 1612 1613 1614 1615 1616 1617 1618 1619 1620 1621 1622 1623 1624 1625 1626 1627 1628 1629 1630 1631 1632 1633 1634 1635 1636 1637 1638 1639 1640 1641 1642 1643 1644 1645 1646 1647 1648 1649 1650 1651 1652 1653 1654 1655 1656 1657 1658 1659 1660 1661 1662 1663 1664 1665 1666 1667 1668 1669 1670 1671 1672 1673 1674 1675 1676 1677 1678 1679 1680 1681 1682 1683 1684 1685 1686 1687 1688 1689 1690 1691 1692 1693 1694 1695 1696 1697 1698 1699 1700 1701 1702 1703 1704 1705 1706 1707 1708 1709 1710 1711 1712 1713 1714 1715 1716 1717 1718 1719 1720 1721 1722 1723 1724 1725 1726 1727 1728 1729 1730 1731 1732 1733 1734 1735 1736 1737 1738 1739 1740 1741 1742 1743 1744 1745 1746 1747 1748 1749 1750 1751 1752 1753 1754 1755 1756 1757 1758 1759 1760 1761 1762 1763 1764 1765 1766 1767 1768 1769 1770 1771 1772 1773 1774 1775 1776 1777 1778 1779 1780 1781 1782 1783 1784 1785 1786 1787 1788 1789 1790 1791 1792 1793 1794 1795 1796 1797 1798 1799 1800 1801 1802 1803 1804 1805 1806 1807 1808 1809 1810 1811 1812 1813 1814 1815 1816 1817 1818 1819 1820 1821 1822 1823 1824 1825 1826 1827 1828 1829 1830 1831 1832 1833 1834 1835 1836 1837 1838 1839 1840 1841 1842 1843 1844 1845 1846 1847 1848 1849 1850 1851 1852 1853 1854 1855 1856 1857 1858 1859 1860 1861 1862 1863 1864 1865 1866 1867 1868 1869 1870 1871 1872 1873 1874 1875 1876 1877 1878 1879 1880 1881 1882 1883 1884 1885 1886 1887 1888 1889 1890 1891 1892 1893 1894 1895 1896 1897 1898 1899 1900 1901 1902 1903 1904 1905 1906 1907 1908 1909 1910 1911 1912 1913 1914 1915 1916 1917 1918 1919 1920 1921 1922 1923 1924 1925 1926 1927 1928 1929 1930 1931 1932 1933 1934 1935 1936 1937 1938 1939 1940 1941 1942 1943 1944 1945 1946 1947 1948 1949 1950 1951 1952 1953 1954 1955 1956 1957 1958 1959 1960 1961 1962 1963 1964 1965 1966 1967 1968 1969 1970 1971 1972 1973 1974 1975 1976 1977 1978 1979 1980 1981 1982 1983 1984 1985 1986 1987 1988 1989 1990 1991 1992 1993 1994 1995 1996 1997 1998 1999 2000 2001 2002 2003 2004 2005 2006 2007 2008 2009 2010 2011 2012 2013 2014 2015 2016 2017 2018 2019 2020 2021 2022 2023 2024 2025 2026 2027 2028 2029 2030 2031 2032 2033 2034 2035 2036 2037 2038 2039 2040 2041 2042 2043 2044 2045 2046 2047 2048 2049 2050 2051 2052 2053 2054 2055 2056 2057 2058 2059 2060 2061 2062 2063 2064 2065 2066 2067 2068 2069 2070 2071 2072 2073 2074 2075 2076 2077 2078 2079 2080 2081 2082 2083 2084 2085 2086 2087 2088 2089 2090 2091 2092 2093 2094 2095 2096 2097 2098 2099 2100 2101 2102 2103 2104 2105 2106 2107 2108 2109 2110 2111 2112 2113 2114 2115 2116 2117 2118 2119 2120 2121 2122 2123 2124 2125 2126 2127 2128 2129 2130 2131 2132 2133 2134 2135 2136 2137 2138 2139 2140 2141 2142 2143 2144 2145 2146 2147 2148 2149 2150 2151 2152 2153 2154 2155 2156 2157 2158 2159 2160 2161 2162 2163 2164 2165 2166 2167 2168 2169 2170 2171 2172 2173 2174 2175 2176 2177 2178 2179 2180 2181 2182 2183 2184 2185 2186 2187 2188 2189 2190 2191 2192 2193 2194 2195 2196 2197 2198 2199 2200 2201 2202 2203 2204 2205 2206 2207 2208 2209 2210 2211 2212 2213 2214 2215 2216 2217 2218 2219 2220 2221 2222 2223 2224 2225 2226 2227 2228 2229 2230 2231 2232 2233 2234 2235 2236 2237 2238 2239 2240 2241 2242 2243 2244 2245 2246 2247 2248 2249 2250 2251 2252 2253 2254 2255 2256 2257 2258 2259 2260 2261 2262 2263 2264 2265 2266 2267 2268 2269 2270 2271 2272 2273 2274 2275 2276 2277 2278 2279 2280 2281 2282 2283 2284 2285 2286 2287 2288 2289 2290 2291 2292 2293 2294 2295 2296 2297 2298 2299 2300 2301 2302 2303 2304 2305 2306 2307 2308 2309 2310 2311 2312 2313 2314 2315 2316 2317 2318 2319 2320 2321 2322 2323 2324 2325 2326 2327 2328 2329 2330 2331 2332 2333 2334 2335 2336 2337 2338 2339 2340 2341 2342 2343 2344 2345 2346 2347 2348 2349 2350 2351 2352 2353 2354 2355 2356 2357 2358 2359 2360 2361 2362 2363 2364 2365 2366 2367 2368 2369 2370 2371 2372 2373 2374 2375 2376 2377 2378 2379 2380 2381 2382 2383 2384 2385 2386 2387 2388 2389 2390 2391 2392 2393 2394 2395 2396 2397 2398 2399 2400 2401 2402 2403 2404 2405 2406 2407 2408 2409 2410 2411 2412 2413 2414 2415 2416 2417 2418 2419 2420 2421 2422 2423 2424 2425 2426 2427 2428 2429 2430 2431 2432 2433 2434 2435 2436 2437 2438 2439 2440 2441 2442 2443 2444 2445 2446 2447 2448 2449 2450 2451 2452 2453 2454 2455 2456 2457 2458 2459 2460 2461 2462 2463 2464 2465 2466 2467 2468 2469 2470 2471 2472 2473 2474 2475 2476 2477 2478 2479 2480 2481 2482 2483 2484 2485 2486 2487 2488 2489 2490 2491 2492 2493 2494 2495 2496 2497 2498 2499 2500 2501 2502 2503 2504 2505 2506 2507 2508 2509 2510 2511 2512 2513 2514 2515 2516 2517 2518 2519 2520 2521 2522 2523 2524 2525 2526 2527 2528 2529 2530 2531 2532 2533 2534 2535 2536 2537 2538 2539 2540 2541 2542 2543 2544 2545 2546 2547 2548 2549 2550 2551 2552 2553 2554 2555 2556 2557 2558 2559 2560 2561 2562 2563 2564 2565 2566 2567 2568 2569 2570 2571 2572 2573 2574 2575 2576 2577 2578 2579 2580 2581 2582 2583 2584 2585 2586 2587 2588 2589 2590 2591 2592 2593 2594 2595 2596 2597 2598 2599 2600 2601 2602 2603 2604 2605 2606 2607 2608 2609 2610 2611 2612 2613 2614 2615 2616 2617 2618 2619 2620 2621 2622 2623 2624 2625 2626 2627 2628 2629 2630 2631 2632 2633 2634 2635 2636 2637 2638 2639 2640 2641 2642 2643 2644 2645 2646 2647 2648 2649 2650 2651 2652 2653 2654 2655 2656 2657 2658 2659 2660 2661 2662 2663 2664 2665 2666 2667 2668 2669 2670 2671 2672 2673 2674 2675 2676 2677 2678 2679 2680 2681 2682 2683 2684 2685 2686 2687 2688 2689 2690 2691 2692 2693 2694 2695 2696 2697 2698 2699 2700 2701 2702 2703 2704 2705 2706 2707 2708 2709 2710 2711 2712 2713 2714 2715 2716 2717 2718 2719 2720 2721 2722 2723 2724 2725 2726 2727 2728 2729 2730 2731 2732 2733 2734 2735 2736 2737 2738 2739 2740 2741 2742 2743 2744 2745 2746 2747 2748 2749 2750 2751 2752 2753 2754 2755 2756 2757 2758 2759 2760 2761 2762 2763 2764 2765 2766 2767 2768 2769 2770 2771 2772 2773 2774 2775 2776 2777 2778 2779 2780 2781 2782 2783 2784 2785 2786 2787 2788 2789 2790 2791 2792 2793 2794 2795 2796 2797 2798 2799 2800 2801 2802 2803 2804 2805 2806 2807 2808 2809 2810 2811 2812 2813 2814 2815 2816 2817 2818 2819 2820 2821 2822 2823 2824 2825 2826 2827 2828 2829 2830 2831 2832 2833 2834 2835 2836 2837 2838 2839 2840 2841 2842 2843 2844 2845 2846 2847 2848 2849 2850 2851 2852 2853 2854 2855 2856 2857 2858 2859 2860 2861 2862 2863 2864 2865 2866 2867 2868 2869 2870 2871 2872 2873 2874 2875 2876 2877 2878 2879 2880 2881 2882 2883 2884 2885 2886 2887 2888 2889 2890 2891 2892 2893 2894 2895 2896 2897 2898 2899 2900 2901 2902 2903 2904 2905 2906 2907 2908 2909 2910 2911 2912 2913 2914 2915 2916 2917 2918 2919 2920 2921 2922 2923 2924 2925 2926 2927 2928 2929 2930 2931 2932 2933 2934 2935 2936 2937 2938 2939 2940 2941 2942 2943 2944 2945 2946 2947 2948 2949 2950 2951 2952 2953 2954 2955 2956 2957 2958 2959 2960 2961 2962 2963 2964 2965 2966 2967 2968 2969 2970 2971 2972 2973 2974 2975 2976 2977 2978 2979 2980 2981 2982 2983 2984 2985 2986 2987 2988 2989 2990 2991 2992 2993 2994 2995 2996 2997 2998 2999 3000 3001 3002 3003 3004 3005 3006 3007 3008 3009 3010 3011 3012 3013 3014 3015 3016 3017 3018 3019 3020 3021 3022 3023 3024 3025 3026 3027 3028 3029 3030 3031 3032 3033 3034 3035 3036 3037 3038 3039 3040 3041 3042 3043 3044 3045 3046 3047 3048 3049 3050 3051 3052 3053 3054 3055 3056 3057 3058 3059 3060 3061 3062 3063 3064 3065 3066 3067 3068 3069 3070 3071 3072 3073 3074 3075 3076 3077 3078 3079 3080 3081 3082 3083 3084 3085 3086 3087 3088 3089 3090 3091 3092 3093 3094 3095 3096 3097 3098 3099 3100 3101 3102 3103 3104 3105 3106 3107 3108 3109 3110 3111 3112 3113 3114 3115 3116 3117 3118 3119 3120 3121 3122 3123 3124 3125 3126 3127 3128 3129 3130 3131 3132 3133 3134 3135 3136 3137 3138 3139 3140 3141 3142 3143 3144 3145 3146 3147 3148 3149 3150 3151 3152 3153 3154 3155 3156 3157 3158 3159 3160 3161 
</DataArray>
<DataArray type="UInt32" Name="offsets" format="ascii">
3 6 9 12 15 18 21 24 27 30 33 36 39 42 45 48 51 54 57 60 63 66 69 72 75 78 81 84 87 90 93 96 99 102 105 108 111 114 117 120 123 126 129 132 135 138 141 144 147 150 153 156 159 162 165 168 171 174 177 180 183 186 189 192 195 198 201 204 207 210 213 216 219 222 225 228 231 234 237 240 243 246 249 252 255 258 261 264 267 270 273 276 279 282 285 288 291 294 297 300 303 306 309 312 315 318 321 324 327 330 333 336 339 342 345 348 351 354 357 360 363 366 369 372 375 378 381 384 387 390 393 396 399 402 405 408 411 414 417 420 423 426 429 432 435 438 441 444 447 450 453 456 459 462 465 468 471 474 477 480 483 486 489 492 495 498 501 504 507 510 513 516 519 522 525 528 531 534 537 540 543 546 549 552 555 558 561 564 567 570 573 576 579 582 585 588 591 594 597 600 603 606 609 612 615 618 621 624 627 630 633 636 639 642 645 648 651 654 657 660 663 666 669 672 675 678 681 684 687 690 693 696 699 702 705 708 711 714 717 720 723 726 729 732 735 738 741 744 747 750 753 756 759 762 765 768 771 774 777 780 783 786 789 792 795 798 801 804 807 810 813 816 819 822 825 828 831 834 837 840 843 846 849 852 855 858 861 864 867 870 873 876 879 882 885 888 891 894 897 900 903 906 909 912 915 918 921 924 927 930 933 936 939 942 945 948 951 954 957 960 963 966 969 972 975 978 981 984 987 990 993 996 999 1002 1005 1008 1011 1014 1017 1020 1023 1026 1029 1032 1035 1038 1041 1044 1047 1050 1053 1056 1059 1062 1065 1068 1071 1074 1077 1080 1083 1086 1089 1092 1095 1098 1101 1104 1107 1110 1113 1116 1119 1122 1125 1128 1131 1134 1137 1140 1143 1146 1149 1152 1155 1158 1161 1164 1167 1170 1173 1176 1179 1182 1185 1188 1191 1194 1197 1200 1203 1206 1209 1212 1215 1218 1221 1224 1227 1230 1233 1236 1239 1242 1245 1248 1251 1254 1257 1260 1263 1266 1269 1272 1275 1278 1281 1284 1287 1290 1293 1296 1299 1302 1305 1308 1311 1314 1317 1320 1323 1326 1329 1332 1335 1338 1341 1344 1347 1350 1353 1356 1359 1362 1365 1368 1371 1374 1377 1380 1383 1386 1389 1392 1395 1398 1401 1404 1407 1410 1413 1416 1419 1422 1425 1428 1431 1434 1437 1440 1443 1446 1449 1452 1455 1458 1461 1464 1467 1470 1473 1476 1479 1482 1485 1488 1491 1494 1497 1500 1503 1506 1509 1512 1515 1518 1521 1524 1527 1530 1533 1536 1539 1542 1545 1548 1551 1554 1557 1560 1563 1566 1569 1572 1575 1578 1581 1584 1587 1590 1593 1596 1599 1602 1605 1608 1611 1614 1617 1620 1623 1626 1629 1632 1635 1638 1641 1644 1647 1650 1653 1656 1659 1662 1665 1668 1671 1674 1677 1680 1683 1686 1689 1692 1695 1698 1701 1704 1707 1710 1713 1716 1719 1722 1725 1728 1731 1734 1737 1740 1743 1746 1749 1752 1755 1758 1761 1764 1767 1770 1773 1776 1779 1782 1785 1788 1791 1794 1797 1800 1803 1806 1809 1812 1815 1818 1821 1824 1827 1830 1833 1836 1839 1842 1845 1848 1851 1854 1857 1860 1863 1866 1869 1872 1875 1878 1881 1884 1887 1890 1893 1896 1899 1902 1905 1908 1911 1914 1917 1920 1923 1926 1929 1932 1935 1938 1941 1944 1947 1950 1953 1956 1959 1962 1965 1968 1971 1974 1977 1980 1983 1986 1989 1992 1995 1998 2001 2004 2007 2010 2013 2016 2019 2022 2025 2028 2031 2034 2037 2040 2043 2046 2049 2052 2055 2058 2061 2064 2067 2070 2073 2076 2079 2082 2085 2088 2091 2094 2097 2100 2103 2106 2109 2112 2115 2118 2121 2124 2127 2130 2133 2136 2139 2142 2145 2148 2151 2154 2157 2160 2163 2166 2169 2172 2175 2178 2181 2184 2187 2190 2193 2196 2199 2202 2205 2208 2211 2214 2217 2220 2223 2226 2229 2232 2235 2238 2241 2244 2247 2250 2253 2256 2259 2262 2265 2268 2271 2274 2277 2280 2283 2286 2289 2292 2295 2298 2301 2304 2307 2310 2313 2316 2319 2322 2325 2328 2331 2334 2337 2340 2343 2346 2349 2352 2355 2358 2361 2364 2367 2370 2373 2376 2379 2382 2385 2388 2391 2394 2397 2400 2403 2406 2409 2412 2415 2418 2421 2424 2427 2430 2433 2436 2439 2442 2445 2448 2451 2454 2457 2460 2463 2466 2469 2472 2475 2478 2481 2484 2487 2490 2493 2496 2499 2502 2505 2508 2511 2514 2517 2520 2523 2526 2529 2532 2535 2538 2541 2544 2547 2550 2553 2556 2559 2562 2565 2568 2571 2574 2577 2580 2583 2586 2589 2592 2595 2598 2601 2604 2607 2610 2613 2616 2619 2622 2625 2628 2631 2634 2637 2640 2643 2646 2649 2652 2655 2658 2661 2664 2667 2670 2673 2676 2679 2682 2685 2688 2691 2694 2697 2700 2703 2706 2709 2712 2715 2718 2721 2724 2727 2730 2733 2736 2739 2742 2745 2748 2751 2754 2757 2760 2763 2766 2769 2772 2775 2778 2781 2784 2787 2790 2793 2796 2799 2802 2805 2808 2811 2814 2817 2820 2823 2826 2829 2832 2835 2838 2841 2844 2847 2850 2853 2856 2859 2862 2865 2868 2871 2874 2877 2880 2883 2886 2889 2892 2895 2898 2901 2904 2907 2910 2913 2916 2919 2922 2925 2928 2931 2934 2937 2940 2943 2946 2949 2952 2955 2958 2961 2964 2967 2970 2973 2976 2979 2982 2985 2988 2991 2994 2997 3000 3003 3006 3009 3012 3015 3018 3021 3024 3027 3030 3033 3036 3039 3042 3045 3048 3051 3054 3057 3060 3063 3066 3069 3072 3075 3078 3081 3084 3087 3090 3093 3096 3099 3102 3105 3108 3111 3114 3117 3120 3123 3126 3129 3132 3135 3138 3141 3144 3147 3150 3153 3156 3159 3162 
</DataArray>
<DataArray type="UInt32" Name="types" format="ascii">
5 5 5 5 5 5 5 5 5 5 5 5 5 5 5 5 5 5 5 5 5 5 5 5 5 5 5 5 5 5 5 5 5 5 5 5 5 5 5 5 5 5 5 5 5 5 5 5 5 5 5 5 5 5 5 5 5 5 5 5 5 5 5 5 5 5 5 5 5 5 5 5 5 5 5 5 5 5 5 5 5 5 5 5 5 5 5 5 5 5 5 5 5 5 5 5 5 5 5 5 5 5 5 5 5 5 5 5 5 5 5 5 5 5 5 5 5 5 5 5 5 5 5 5 5 5 5 5 5 5 5 5 5 5 5 5 5 5 5 5 5 5 5 5 5 5 5 5 5 5 5 5 5 5 5 5 5 5 5 5 5 5 5 5 5 5 5 5 5 5 5 5 5 5 5 5 5 5 5 5 5 5 5 5 5 5 5 5 5 5 5 5 5 5 5 5 5 5 5 5 5 5 5 5 5 5 5 5 5 5 5 5 5 5 5 5 5 5 5 5 5 5 5 5 5 5 5 5 5 5 5 5 5 5 5 5 5 5 5 5 5 5 5 5 5 5 5 5 5 5 5 5 5 5 5 5 5 5 5 5 5 5 5 5 5 5 5 5 5 5 5 5 5 5 5 5 5 5 5 5 5 5 5 5 5 5 5 5 5 5 5 5 5 5 5 5 5 5 5 5 5 5 5 5 5 5 5 5 5 5 5 5 5 5 5 5 5 5 5 5 5 5 5 5 5 5 5 5 5 5 5 5 5 5 5 5 5 5 5 5 5 5 5 5 5 5 5 5 5 5 5 5 5 5 5 5 5 5 5 5 5 5 5 5 5 5 5 5 5 5 5 5 5 5 5 5 5 5 5 5 5 5 5 5 5 5 5 5 5 5 5 5 5 5 5 5 5 5 5 5 5 5 5 5 5 5 5 5 5 5 5 5 5 5 5 5 5 5 5 5 5 5 5 5 5 5 5 5 5 5 5 5 5 5 5 5 5 5 5 5 5 5 5 5 5 5 5 5 5 5 5 5 5 5 5 5 5 5 5 5 5 5 5 5 5 5 5 5 5 5 5 5 5 5 5 5 5 5 5 5 5 5 5 5 5 5 5 5 5 5 5 5 5 5 5 5 5 5 5 5 5 5 5 5 5 5 5 5 5 5 5 5 5 5 5 5 5 5 5 5 5 5 5 5 5 5 5 5 5 5 5 5 5 5 5 5 5 5 5 5 5 5 5 5 5 5 5 5 5 5 5 5 5 5 5 5 5 5 5 5 5 5 5 5 5 5 5 5 5 5 5 5 5 5 5 5 5 5 5 5 5 5 5 5 5 5 5 5 5 5 5 5 5 5 5 5 5 5 5 5 5 5 5 5 5 5 5 5 5 5 5 5 5 5 5 5 5 5 5 5 5 5 5 5 5 5 5 5 5 5 5 5 5 5 5 5 5 5 5 5 5 5 5 5 5 5 5 5 5 5 5 5 5 5 5 5 5 5 5 5 5 5 5 5 5 5 5 5 5 5 5 5 5 5 5 5 5 5 5 5 5 5 5 5 5 5 5 5 5 5 5 5 5 5 5 5 5 5 5 5 5 5 5 5 5 5 5 5 5 5 5 5 5 5 5 5 5 5 5 5 5 5 5 5 5 5 5 5 5 5 5 5 5 5 5 5 5 5 5 5 5 5 5 5 5 5 5 5 5 5 5 5 5 5 5 5 5 5 5 5 5 5 5 5 5 5 5 5 5 5 5 5 5 5 5 5 5 5 5 5 5 5 5 5 5 5 5 5 5 5 5 5 5 5 5 5 5 5 5 5 5 5 5 5 5 5 5 5 5 5 5 5 5 5 5 5 5 5 5 5 5 5 5 5 5 5 5 5 5 5 5 5 5 5 5 5 5 5 5 5 5 5 5 5 5 5 5 5 5 5 5 5 5 5 5 5 5 5 5 5 5 5 5 5 5 5 5 5 5 5 5 5 5 5 5 5 5 5 5 5 5 5 5 5 5 5 5 5 5 5 5 5 5 5 5 5 5 5 5 5 5 5 5 5 5 5 5 5 5 5 5 5 5 5 5 5 5 5 5 5 5 5 5 5 5 5 5 5 5 5 5 5 5 5 5 5 5 5 5 5 5 5 5 5 5 5 5 5 5 5 5 5 5 5 5 5 5 5 5 5 5 5 5 5 5 5 5 5 5 5 5 5 5 5 5 5 5 5 5 5 5 5 5 5 5 5 5 5 5 5 5 5 5 5 5 5 5 5 5 5 5 5 5 5 5 5 5 5 5 5 5 5 5 5 5 5 5 5 5 5 5 5 5 5 5 5 5 5 5 5 5 5 5 5 5 5 5 5 5 5 5 5 5 5 5 5 5 5 5 5 5 5 5 5 
</DataArray>
</Cells>
<PointData Scalars="" Vectors="displacement," Tensors="">
<DataArray type="Float64" Name="displacement" NumberOfComponents="3" format="ascii">
-0.00022527536456161854 -0.0023303417886072421 0 -0.00015651754964269971 -0.002177186173955186 0 -0.00011272077659677802 -0.0023041603537699634 0 0.00051126900960089046 -0.0018726734825593324 0 0.00042018801192048012 -0.0017481459133023528 0 0.00049242739164775246 -0.0016917642626823833 0 -0.00046539384460333365 -0.0011600108444862034 0 -0.00039949113661961214 -0.0012636097137307322 0 -0.00047143615323946202 -0.0013356151766957631 0 0.00015622104292202589 -0.00066624238656922861 0 0.00011751771623678607 -0.00079948739030288906 0 7.7603889475791072e-05 -0.00067914800663490494 0 0.00014024961297405599 -0.0019530860038042502 0 0.00023844998226625922 -0.0018593036680918541 0 0.00023250580632293549 -0.002058790525870784 0 0.00032303078914037493 -0.001982927482194227 0 0.00023250580632293551 -0.002058790525870784 0 0.00023844998226625922 -0.0018593036680918541 0 0.00027577245839292548 -0.0012575762888707054 0 0.0001915119011392999 -0.0011075356416668815 0 0.00030984651307004572 -0.0011219904461454355 0 0.00025600623503562478 -0.0009711094881310492 0 0.00030984651307004572 -0.0011219904461454355 0 0.0001915119011392999 -0.0011075356416668815 0 0.00050910695477014082 -0.0029063584142510986 0 0.00057861950432445595 -0.0030367286816227156 0 0.0004595475036309304 -0.003049860841584501 0 -0.00083420828687909971 -0.0023629733750226835 0 -0.00090370432359497435 -0.002480485323656606 0 -0.00091040473768112492 -0.0022898100191072199 0 0.00063236309424614121 -0.00079583195553160815 0 0.00068339441224448522 -0.00076751915122952438 0 0.00075487721487007447 -0.0009318140296577398 0 -0.00017481324989759186 -0.00024481959290711199 0 -0.00010700212283694696 -0.00012380304285207578 0 -7.7920121303495812e-05 -0.0001098967234949147 0 0.00081334751486564758 -0.0032124813972301651 0 0.00072004595481563736 -0.0032141635238221392 0 0.0008255421877513819 -0.0030798814431957618 0 -0.0009967526523844035 -0.0028821756477566711 0 -0.00099771938257567838 -0.0027196292105771446 0 -0.00092606985279361303 -0.0029004940864162752 0 -0.00040568724189301019 -0.00033826067771379036 0 -0.00062734321168329376 -0.00060619676018163653 0 -0.00049351563984852771 -0.00044466846192942825 0 -0.00082588285046040176 -0.0030798751120665485 0 -0.00072029133172214809 -0.003214183706284757 0 -0.00081364288768778607 -0.003212493254642739 0 0.00013664366726312064 -9.6484082015275993e-05 0 2.2344156226732653e-08 -1.0362178448582862e-07 0 5.5126377019245817e-08 -1.3626107282154867e-07 0 0.00092584197898064986 -0.0029004847274048408 0 0.00099755481655644062 -0.0027197305362089475 0 0.00099650723372319379 -0.0028821903746492584 0 0.00049405690056810857 -0.00044435137841655168 0 0.00062852889646873252 -0.000605411157335774 0 0.00040628745615729664 -0.0003380396163794941 0 -5.5125376499247042e-08 -1.3753381564537482e-07 0 -2.2179116860586497e-08 -1.0237333503078534e-07 0 -0.00013683058140906746 -9.6944086246987632e-05 0 0.00072360777286950638 -0.00075068172275884074 0 0.00068339441224448522 -0.00076751915122952438 0 0.00062434746038633098 -0.00062988237071146729 0 -3.2473574245375366e-08 -1.163145329186716e-07 0 -0.00010700212283694696 -0.00012380304285207578 0 -9.2681709882773349e-05 -8.9627287635000508e-05 0 0.00062350456886511104 -0.0032151995797603254 0 0.00057861950432445595 -0.0030367286816227156 0 0.00067639823741325955 -0.0030678013313884846 0 -0.00099736896068638612 -0.002557598445299123 0 -0.00090370432359497435 -0.002480485323656606 0 -0.00092001967910131403 -0.0026430343390044801 0 0.00099723885308195068 -0.0025577537078761655 0 0.00092798514283679956 -0.0026197957350057783 0 0.00089832514720671833 -0.0024507211985381272 0 3.1884418460671591e-08 -1.1637077019265996e-07 0 9.1974242792160614e-05 -8.9362854007407925e-05 0 0.00010866707765403463 -0.00012588403310124848 0 -0.00062388072082800595 -0.0032151056686681094 0 -0.00066257820406416187 -0.0030832316434587885 0 -0.00056092277462769092 -0.0030267544883851292 0 -0.00072383365444793823 -0.00075079271594854894 0 -0.00062297158015795742 -0.00062719095911214367 0 -0.00068639024412460046 -0.00077512163969242569 0 -9.0657237080196883e-08 -0.0024523242678037138 0 8.0981712050408154e-05 -0.0025249023181649569 0 -5.0358080334911588e-06 -0.0026599250090360575 0 -0.00056877295725672955 -0.0015283302991007607 0 -0.00061636566902938106 -0.0016624255095772117 0 -0.00068338560770311656 -0.0015445185732482008 0 0.00056850933558906514 -0.0015283864198526226 0 0.00059911101151084853 -0.0014102781404986193 0 0.00068424191429713717 -0.0015597666156990822 0 -1.2352838527012425e-07 -0.00055183502285878277 0 -4.5476723570342446e-05 -0.00049152570895153683 0 2.8843684262546591e-06 -0.00038035635420629688 0 0.00062350456886511104 -0.0032151995797603254 0 0.00052432289612484645 -0.0032156595264905513 0 0.00057861950432445595 -0.0030367286816227156 0 -0.00099736896068638612 -0.002557598445299123 0 -0.00099654222354932077 -0.0023962069356757692 0 -0.00090370432359497435 -0.002480485323656606 0 0.00072360777286950638 -0.00075068172275884074 0 0.00079708967289131988 -0.00089421984421011427 0 0.00068339441224448522 -0.00076751915122952438 0 -3.2473574245375366e-08 -1.163145329186716e-07 0 -1.7572517047202661e-08 -1.096694387426224e-07 0 -0.00010700212283694696 -0.00012380304285207578 0 0.0009963946190959009 -0.0023962662213618409 0 0.00099723885308195068 -0.0025577537078761655 0 0.00089832514720671833 -0.0024507211985381272 0 1.8881758816879424e-08 -1.0842953662541174e-07 0 3.1884418460671591e-08 -1.1637077019265996e-07 0 0.00010866707765403463 -0.00012588403310124848 0 -0.0005245252243959367 -0.0032156431887150872 0 -0.00062388072082800595 -0.0032151056686681094 0 -0.00056092277462769092 -0.0030267544883851292 0 -0.00079775155934516976 -0.00089418040946315832 0 -0.00072383365444793823 -0.00075079271594854894 0 -0.00068639024412460046 -0.00077512163969242569 0 0.0009963946190959009 -0.0023962662213618409 0 0.00089832514720671833 -0.0024507211985381272 0 0.0009010231923395071 -0.0022704520521878374 0 1.8881758816879424e-08 -1.0842953662541174e-07 0 0.00010866707765403463 -0.00012588403310124848 0 8.1011607633601612e-05 -0.00011641743572160625 0 -0.0005245252243959367 -0.0032156431887150872 0 -0.00056092277462769092 -0.0030267544883851296 0 -0.00044812542095245351 -0.0030327068610938881 0 -0.00079775155934516976 -0.00089418040946315832 0 -0.00068639024412460046 -0.00077512163969242569 0 -0.00075554991335803851 -0.00094427772835349632 0 0.00068290121180371592 -0.0026424888408533697 0 0.0007739557873831114 -0.0025843401201197463 0 0.00079805108230663539 -0.0027268145761452536 0 -0.00068315430065822363 -0.0026424156796191517 0 -0.00064627393746460903 -0.0028007666805126806 0 -0.00072866808872070268 -0.0028462154550307787 0 -0.00022527536456161854 -0.0023303417886072421 0 -0.00011272077659677802 -0.0023041603537699634 0 -0.00014402207598103776 -0.0024538065935741918 0 0.00051126900960089046 -0.0018726734825593324 0 0.00049242739164775246 -0.0016917642626823833 0 0.00057982093685375233 -0.0017540254031004057 0 -0.00046539384460333365 -0.0011600108444862034 0 -0.00047143615323946202 -0.0013356151766957631 0 -0.00054967012671837585 -0.0013031109651255885 0 0.00015622104292202589 -0.00066624238656922861 0 7.7603889475791058e-05 -0.00067914800663490483 0 8.8361989986032174e-05 -0.00055180413424850687 0 0.0008255421877513819 -0.0030798814431957618 0 0.00072004595481563736 -0.0032141635238221392 0 0.00075356913009808676 -0.0030393402419845563 0 -0.00092606985279361303 -0.0029004940864162752 0 -0.00099771938257567838 -0.0027196292105771446 0 -0.000904142831152802 -0.002774107742386804 0 -0.00048912629585141768 -0.00044944055945631266 0 -0.00062734321168329376 -0.00060619676018163653 0 -0.00040568724189301019 -0.00033826067771379036 0 -0.00074395802487254529 -0.0030174373258946884 0 -0.00072029133172214798 -0.003214183706284757 0 -0.00082588285046040176 -0.0030798751120665485 0 0.000154054179186437 -0.00013604724269030474 0 2.2344156226732388e-08 -1.0362178448582803e-07 0 0.00013664366726312064 -9.6484082015275993e-05 0 0.00089232534674216657 -0.0027566944598982862 0 0.00099755481655644062 -0.0027197305362089475 0 0.00092584197898064986 -0.0029004847274048408 0 0.00040628745615729664 -0.0003380396163794941 0 0.00062852889646873263 -0.00060541115733577411 0 0.00049367167620687055 -0.00045733515069791016 0 -0.00013683058140906746 -9.6944086246987632e-05 0 -2.2179116860581878e-08 -1.0237333503078207e-07 0 -0.0001641073144139209 -0.00014576159811817489 0 -0.0006290181067589905 -0.00080888928438638285 0 -0.0005881006000051927 -0.00068035222017250605 0 -0.00049824386969229983 -0.00065579237738712251 0 0.00018010501314523253 -0.00025918466080801202 0 0.00019725321851081021 -0.00024186741365573146 0 0.00029324291518895357 -0.00040610677541377355 0 0.00079845439950295837 -0.0023439324001612882 0 0.00082507426141543235 -0.0024825150679288594 0 0.00070456929990987834 -0.0024503899463311999 0 -0.00049951010209467147 -0.00284001566824436 0 -0.00058302140267633474 -0.0028919052835306969 0 -0.00056892698682007865 -0.0026741952933657578 0 0.00050910695477014082 -0.0029063584142510986 0 0.0004595475036309304 -0.003049860841584501 0 0.00043317145462831383 -0.0028774089139049991 0 -0.00083420828687909971 -0.0023629733750226835 0 -0.00091040473768112492 -0.0022898100191072199 0 -0.0008191857205536011 -0.0022404395662102084 0 0.00063236309424614121 -0.00079583195553160815 0 0.00075487721487007447 -0.0009318140296577398 0 0.00067986643148378663 -0.00092080600707481288 0 -0.00017481324989759186 -0.00024481959290711199 0 -7.7920121303495812e-05 -0.0001098967234949147 0 -0.0001422582295212762 -0.00023333301840430402 0 8.0045418641159198e-05 -0.00016096280730489826 0 8.8588035863890199e-05 -0.00024984355840155067 0 4.3278820528460486e-05 -0.00013054770629091186 0 0.00086384262561825292 -0.0020922917719327656 0 0.00079580472255795292 -0.0019674617442589849 0 0.00088226195907688146 -0.0019254254504955149 0 -0.00076998969475070792 -0.0010944058066256986 0 -0.00072980180611124078 -0.0011830491034054878 0 -0.00082480648571768469 -0.0012684162101471289 0 -0.00033561206567833294 -0.0029637135532153179 0 -0.00025987298949063545 -0.0028383025160559497 0 -0.00022404371950123138 -0.0030062672435612631 0 -5.0358080334911588e-06 -0.0026599250090360575 0 8.0981712050408154e-05 -0.0025249023181649569 0 8.6791968239498265e-05 -0.0026719385206082275 0 -0.00068338560770311656 -0.0015445185732482008 0 -0.00061636566902938106 -0.0016624255095772117 0 -0.00069769418576957573 -0.0016868994880341161 0 0.00068424191429713717 -0.0015597666156990822 0 0.00059911101151084842 -0.0014102781404986191 0 0.00067834925208843831 -0.001420503691013879 0 2.8843684262546591e-06 -0.00038035635420629688 0 -4.5476723570342446e-05 -0.00049152570895153683 0 -3.9388692612519336e-05 -0.00037350534918705221 0 0.00068290121180371592 -0.0026424888408533697 0 0.0007980510823066355 -0.0027268145761452536 0 0.00072624188212786682 -0.0028041614698544547 0 -0.00068315430065822363 -0.0026424156796191517 0 -0.00072866808872070268 -0.0028462154550307787 0 -0.00077477764164428657 -0.002721384671316821 0 0.00039035221204698648 -0.00046163253895955235 0 0.00031975641171946449 -0.00032781587137894271 0 0.00043087797901650266 -0.00042995960170153635 0 -0.00038756824329673505 -0.00045789865916468365 0 -0.00041294520618801085 -0.00042124514417714515 0 -0.00029709041025705843 -0.00029600317221335494 0 -0.00049824386969229983 -0.00065579237738712251 0 -0.0005881006000051927 -0.00068035222017250605 0 -0.00049105854276614729 -0.00055253388813623515 0 0.00029324291518895357 -0.00040610677541377355 0 0.00019725321851081021 -0.00024186741365573146 0 0.00027788546686788958 -0.00032177742751347902 0 0.00039035221204698648 -0.00046163253895955235 0 0.00043087797901650266 -0.00042995960170153635 0 0.00049010587899984731 -0.00055233308152051507 0 -0.00038756824329673505 -0.00045789865916468365 0 -0.00029709041025705843 -0.00029600317221335494 0 -0.00027887399731798174 -0.00032380469081166359 0 -0.00037949285553230867 -0.0024057554443908417 0 -0.00033593875820996918 -0.002240470166301382 0 -0.00030298719361645154 -0.0024483060573294493 0 0.0005542389168796413 -0.0021258531755899068 0 0.00045481828885483437 -0.0020433334396010869 0 0.00057982955941963119 -0.0020051300733349548 0 -0.00046055580938164772 -0.00092398560666291955 0 -0.00038640715403472282 -0.00097622630388513143 0 -0.00050839725926909616 -0.0010511151723857006 0 0.00025346431489231428 -0.0006181965049990003 0 0.00025253886144291728 -0.0007672107711803862 0 0.00019065742464920174 -0.00056958727525719831 0 -0.00049951010209467147 -0.00284001566824436 0 -0.00044812542095245351 -0.0030327068610938881 0 -0.00056092277462769092 -0.0030267544883851292 0 -0.0006290181067589905 -0.00080888928438638285 0 -0.00075554991335803851 -0.00094427772835349621 0 -0.00068639024412460046 -0.00077512163969242569 0 0.00079845439950295837 -0.0023439324001612882 0 0.0009010231923395071 -0.0022704520521878374 0 0.00089832514720671833 -0.0024507211985381272 0 0.00018010501314523253 -0.00025918466080801202 0 8.1011607633601612e-05 -0.00011641743572160625 0 0.00010866707765403463 -0.00012588403310124848 0 -0.00056892698682007865 -0.0026741952933657578 0 -0.00058302140267633474 -0.0028919052835306969 0 -0.00064627393746460914 -0.002800766680512681 0 0.00070456929990987834 -0.0024503899463311999 0 0.00082507426141543235 -0.0024825150679288594 0 0.0007739557873831114 -0.0025843401201197463 0 -0.00030298719361645154 -0.0024483060573294493 0 -0.00033593875820996918 -0.002240470166301382 0 -0.00022527536456161854 -0.0023303417886072421 0 0.00057982955941963119 -0.0020051300733349548 0 0.00045481828885483437 -0.0020433334396010869 0 0.00051126900960089046 -0.0018726734825593324 0 -0.00050839725926909616 -0.0010511151723857006 0 -0.00038640715403472282 -0.00097622630388513143 0 -0.00046539384460333365 -0.0011600108444862034 0 0.00019065742464920174 -0.00056958727525719831 0 0.00025253886144291728 -0.0007672107711803862 0 0.00015622104292202589 -0.00066624238656922861 0 0.00015834471157439493 -0.0017712990069251601 0 7.521640071965633e-05 -0.0018274870096020716 0 6.4734989348742803e-05 -0.001658827490873653 0 0.00098570419029620979 -0.0019219262367844777 0 0.00088226195907688146 -0.0019254254504955149 0 0.00090556581555187787 -0.0017877894143606089 0 1.0460816373723808e-08 -1.0986989821558931e-07 0 4.3278820528460486e-05 -0.00013054770629091186 0 1.8551582786359535e-05 -9.1124021854544992e-05 0 -0.00021378547850492351 -0.0032151348725517363 0 -0.00022404371950123138 -0.0030062672435612631 0 -0.00012841271606026599 -0.0030639085431069303 0 -0.00092728826828242586 -0.0013199662685841789 0 -0.00082480648571768469 -0.0012684162101471289 0 -0.00087425438616566301 -0.0014159432445524482 0 -0.00013748289996179624 -0.0028788981762870891 0 -2.8698891089827271e-05 -0.0029898601873276525 0 -0.00012841271606026599 -0.0030639085431069303 0 -0.0007802955466995504 -0.0013744081159367454 0 -0.00085372122392197785 -0.0015505068625197656 0 -0.00087425438616566301 -0.0014159432445524482 0 0.00081206019765566655 -0.0017847951018153466 0 0.00086011346302372106 -0.0016341818465435232 0 0.00090556581555187787 -0.0017877894143606089 0 4.1605478837625982e-05 -0.00021640334110133936 0 5.8907052547026934e-06 -0.00013868199826066243 0 1.8551582786359535e-05 -9.1124021854544992e-05 0 0.00015445085693326676 -0.0016278634466478795 0 0.00015834471157439493 -0.0017712990069251601 0 6.4734989348742803e-05 -0.001658827490873653 0 0.00099399519427053446 -0.0022360869393780202 0 0.0009963946190959009 -0.0023962662213618409 0 0.0009010231923395071 -0.0022704520521878374 0 1.1578193742943278e-08 -1.15362021513969e-07 0 1.8881758816879424e-08 -1.0842953662541174e-07 0 8.1011607633601612e-05 -0.00011641743572160625 0 -0.00042269235675629195 -0.0032155075946289045 0 -0.0005245252243959367 -0.0032156431887150872 0 -0.00044812542095245351 -0.0030327068610938881 0 -0.00085190486766823653 -0.0010363725344059241 0 -0.00079775155934516976 -0.00089418040946315832 0 -0.00075554991335803851 -0.00094427772835349632 0 0.00081206019765566655 -0.0017847951018153466 0 0.00072007468499227158 -0.0018697080844924292 0 0.00072191891086635575 -0.0017112707601614431 0 -0.00013748289996179624 -0.0028788981762870891 0 -0.00020401349657848993 -0.0027012805416997683 0 -9.9865118909551591e-05 -0.0027142894467473994 0 4.1605478837625982e-05 -0.00021640334110133936 0 8.9547398335991906e-05 -0.0003519639030153133 0 4.38343310699294e-05 -0.00033877533501864334 0 -0.0007802955466995504 -0.0013744081159367454 0 -0.00067224662768280107 -0.0012445256307213617 0 -0.00069993060980502546 -0.0014063170114825372 0 0.00081206019765566655 -0.0017847951018153466 0 0.00079580472255795292 -0.0019674617442589849 0 0.00072007468499227158 -0.0018697080844924292 0 4.1605478837625982e-05 -0.00021640334110133936 0 8.8588035863890199e-05 -0.00024984355840155067 0 8.9547398335991919e-05 -0.0003519639030153133 0 -0.00013748289996179624 -0.0028788981762870891 0 -0.00025987298949063545 -0.0028383025160559497 0 -0.00020401349657848993 -0.0027012805416997683 0 -0.0007802955466995504 -0.0013744081159367454 0 -0.00072980180611124078 -0.0011830491034054878 0 -0.00067224662768280107 -0.0012445256307213617 0 0.00051126900960089046 -0.0018726734825593324 0 0.00040678064038178523 -0.0018852316664506627 0 0.00042018801192048012 -0.001748145913302353 0 -0.00022527536456161854 -0.0023303417886072421 0 -0.0002432018996767097 -0.0021530418972778281 0 -0.00015651754964269971 -0.002177186173955186 0 0.00015622104292202589 -0.00066624238656922861 0 0.00018705506820665725 -0.00083179745122073472 0 0.00011751771623678607 -0.00079948739030288906 0 -0.00046539384460333365 -0.0011600108444862034 0 -0.00036915425589404728 -0.0011371624592569273 0 -0.00039949113661961214 -0.0012636097137307322 0 3.1816255842667054e-05 -0.0021619450301831548 0 0.00015127367259198618 -0.0021626888302587583 0 9.5924330442006086e-05 -0.0023375213631342145 0 -0.00040569911351600658 -0.001552154983753563 0 -0.0004096521025296917 -0.0017382699940627208 0 -0.00051107369928656053 -0.0016680235185787522 0 0.0004064093250903477 -0.0014499204015421215 0 0.00038469669700576557 -0.0012638724086954131 0 0.00049263444395588197 -0.0013650705182267084 0 -2.7127741282867903e-05 -0.00079261313512566636 0 -0.00011531913518897221 -0.00081594920784423992 0 -6.5498547721276593e-05 -0.00065226159509171127 0 0.00055280884753814374 -0.00057306768223096868 0 0.00062434746038633098 -0.00062988237071146729 0 0.00068339441224448522 -0.00076751915122952438 0 -0.00019054040160673263 -0.00019673957741619369 0 -9.2681709882773349e-05 -8.9627287635000508e-05 0 -0.00010700212283694696 -0.00012380304285207578 0 0.00065842725058274146 -0.0029236658540877872 0 0.00067639823741325955 -0.0030678013313884846 0 0.00057861950432445595 -0.0030367286816227156 0 -0.0008423980289202598 -0.0026094116565378066 0 -0.00092001967910131403 -0.0026430343390044801 0 -0.00090370432359497435 -0.002480485323656606 0 0.00085164701007846191 -0.0026136707983838749 0 0.00089832514720671833 -0.0024507211985381272 0 0.00092798514283679956 -0.0026197957350057783 0 0.00019828753032550826 -0.00020025177875431497 0 0.00010866707765403463 -0.00012588403310124848 0 9.1974242792160614e-05 -8.9362854007407925e-05 0 -0.00066087309327042803 -0.0029412268325074544 0 -0.00056092277462769092 -0.0030267544883851292 0 -0.00066257820406416187 -0.0030832316434587885 0 -0.00054460067422814902 -0.00056104901289831543 0 -0.00068639024412460046 -0.00077512163969242569 0 -0.00062297158015795742 -0.00062719095911214367 0 0.00021063624936171416 -0.0023285237902945441 0 9.5924330442006086e-05 -0.0023375213631342145 0 0.00015127367259198618 -0.0021626888302587583 0 -0.00050991796399785206 -0.0018498207718923771 0 -0.00051107369928656053 -0.0016680235185787522 0 -0.0004096521025296917 -0.0017382699940627208 0 0.00046738298272760428 -0.0011826692087943329 0 0.00049263444395588197 -0.0013650705182267084 0 0.00038469669700576557 -0.0012638724086954131 0 -0.00014699295719883807 -0.00066830902351899108 0 -6.5498547721276593e-05 -0.00065226159509171127 0 -0.00011531913518897221 -0.00081594920784423992 0 0.00068763447378108772 -0.0023038784328722724 0 0.00058696443506687623 -0.0022500926326847921 0 0.00064256776366403015 -0.0021144205629148381 0 -0.00048081494199855125 -0.0026409269020489273 0 -0.0004537497406685613 -0.0024646009896060225 0 -0.00036670405778481245 -0.0025582429495004705 0 0.00025204913458752023 -0.00042434354301981177 0 0.00029153137352316383 -0.00057650871935891802 0 0.00020660859221030426 -0.00048109917864184532 0 -0.00053721016330392246 -0.00079528552243412131 0 -0.00046035840182416076 -0.00081259959874551444 0 -0.00054613537129960641 -0.00096538955363364054 0 0.00073484840183773179 -0.0021964700331025583 0 0.00068763447378108772 -0.0023038784328722724 0 0.00064256776366403015 -0.0021144205629148381 0 0.00018356813423831122 -0.00034691687372036137 0 0.00025204913458752023 -0.00042434354301981177 0 0.00020660859221030426 -0.00048109917864184532 0 -0.00041142981421942761 -0.0027231780514633259 0 -0.00048081494199855125 -0.0026409269020489273 0 -0.00036670405778481245 -0.0025582429495004705 0 -0.00061405763371476707 -0.00092397866179079024 0 -0.00053721016330392246 -0.00079528552243412131 0 -0.00054613537129960641 -0.00096538955363364054 0 0.00032303078914037493 -0.001982927482194227 0 0.00040678064038178523 -0.0018852316664506627 0 0.00045481828885483437 -0.0020433334396010869 0 -0.00029961673895900244 -0.002013050353447501 0 -0.0002432018996767097 -0.0021530418972778281 0 -0.00033593875820996918 -0.002240470166301382 0 0.00025600623503562478 -0.0009711094881310492 0 0.00018705506820665725 -0.00083179745122073472 0 0.00025253886144291728 -0.0007672107711803862 0 -0.00027653393773035146 -0.0010051529905030511 0 -0.00036915425589404728 -0.0011371624592569273 0 -0.00038640715403472282 -0.00097622630388513143 0 0.00036035500437366118 -0.0025915242398122048 0 0.00035983081030701826 -0.0028052142639456612 0 0.00029821363068669105 -0.0026850853336173358 0 0.00042595336264923911 -0.0026807893343382006 0 0.00035983081030701832 -0.0028052142639456612 0 0.00036035500437366118 -0.0025915242398122048 0 -0.00066142254291739187 -0.0021068927463450686 0 -0.00077983361561271452 -0.002120400166765124 0 -0.00071356312883289006 -0.0020152702712592867 0 -0.0007112651339247594 -0.0022173151085145629 0 -0.00077983361561271452 -0.002120400166765124 0 -0.00066142254291739187 -0.0021068927463450686 0 0.00056589482243313272 -0.0009806778038688878 0 0.0006787299530016575 -0.0010218195615653029 0 0.00063705779743803087 -0.0010955706652363887 0 0.00058500516075290663 -0.00089247900734351854 0 0.00067872995300165761 -0.0010218195615653031 0 0.00056589482243313272 -0.0009806778038688878 0 -0.00019498128795413861 -0.00045359632454113692 0 -0.00013484062618641259 -0.00027938448925944826 0 -0.00013775949912239529 -0.00036974865307850711 0 -0.00020573476268620153 -0.00038441591219009981 0 -0.00013484062618641259 -0.00027938448925944826 0 -0.00019498128795413861 -0.00045359632454113692 0 -1.7333771200030185e-05 -0.0017884448485999309 0 2.4959347141667997e-05 -0.0019629168987009104 0 -9.5911468327485608e-05 -0.0019194622865194313 0 9.5769414520169218e-05 -0.0012105104564188729 0 9.3235376782440643e-06 -0.0011548683380078681 0 8.7676123034445796e-05 -0.0010588719975807724 0 -0.00013748289996179624 -0.0028788981762870891 0 -2.6776587464181324e-05 -0.002836318441377252 0 -2.8698891089827271e-05 -0.0029898601873276525 0 -0.0007802955466995504 -0.0013744081159367454 0 -0.00077496451169662144 -0.0015337519279907876 0 -0.00085372122392197785 -0.0015505068625197656 0 0.00081206019765566655 -0.0017847951018153466 0 0.0007806546796584275 -0.0016141698474779233 0 0.00086011346302372106 -0.0016341818465435232 0 4.1605478837625982e-05 -0.00021640334110133936 0 9.3109310511962357e-06 -0.00024692990645221738 0 5.8907052547026934e-06 -0.00013868199826066243 0 -1.7333771200030185e-05 -0.0017884448485999309 0 7.521640071965633e-05 -0.0018274870096020716 0 2.4959347141667997e-05 -0.0019629168987009104 0 0.00014024961297405599 -0.0019530860038042502 0 2.4959347141667997e-05 -0.0019629168987009104 0 7.521640071965633e-05 -0.0018274870096020716 0 8.0045418641159198e-05 -0.00016096280730489826 0 0.00012692575300934654 -0.00026972527314966848 0 8.8588035863890199e-05 -0.00024984355840155067 0 0.00086384262561825292 -0.0020922917719327656 0 0.00078583753703392282 -0.0020994545776873799 0 0.00079580472255795292 -0.0019674617442589849 0 -0.00033561206567833294 -0.0029637135532153179 0 -0.00034598099732593475 -0.0028170311906721805 0 -0.00025987298949063545 -0.0028383025160559497 0 -0.00076998969475070792 -0.0010944058066256986 0 -0.00068970043802065936 -0.001046450522321332 0 -0.00072980180611124078 -0.0011830491034054878 0 0.00068290121180371592 -0.0026424888408533697 0 0.00061520644804714396 -0.0025296195407936871 0 0.00070456929990987834 -0.0024503899463311999 0 -0.00068315430065822363 -0.0026424156796191517 0 -0.00061975065344283258 -0.0025226656026628054 0 -0.00056892698682007865 -0.0026741952933657578 0 0.00039035221204698648 -0.00046163253895955235 0 0.00040097701092052176 -0.00056290430782980269 0 0.00029324291518895357 -0.00040610677541377355 0 -0.00038756824329673505 -0.00045789865916468365 0 -0.00038281571133970621 -0.00054042789726421281 0 -0.00049824386969229983 -0.00065579237738712251 0 0.00071332566915399643 -0.0020152982402203844 0 0.00064256776366403015 -0.0021144205629148381 0 0.00062836372509950317 -0.0019152472823885788 0 -0.00029843825504178938 -0.002685120673562249 0 -0.00036670405778481245 -0.0025582429495004705 0 -0.00024215513163158543 -0.0025343413388128982 0 0.00013775450597848499 -0.00037057620719311662 0 0.00020660859221030426 -0.00048109917864184532 0 0.00013828645394286046 -0.00049073097100479175 0 -0.0006373364829948266 -0.0010950212299443358 0 -0.00054613537129960641 -0.00096538955363364054 0 -0.00057304024316192509 -0.001159221581606691 0 0.00023844998226625922 -0.0018593036680918541 0 0.00024878136034355084 -0.0016740116369629761 0 0.00032721113575237976 -0.0018174185331378539 0 0.00050910695477014082 -0.0029063584142510986 0 0.00058613499765497652 -0.0028363654093936448 0 0.00057861950432445595 -0.0030367286816227156 0 -0.00083420828687909971 -0.0023629733750226835 0 -0.00079509060211241454 -0.0024858925160020045 0 -0.00090370432359497435 -0.002480485323656606 0 0.00065842725058274146 -0.0029236658540877872 0 0.00057861950432445595 -0.0030367286816227156 0 0.00058613499765497652 -0.0028363654093936448 0 -0.0008423980289202598 -0.0026094116565378066 0 -0.00090370432359497435 -0.002480485323656606 0 -0.00079509060211241454 -0.0024858925160020045 0 0.00050647645126941415 -0.0025232056470778541 0 0.00061520644804714396 -0.0025296195407936871 0 0.00059234370072900331 -0.0026668419961862247 0 0.00068290121180371592 -0.0026424888408533697 0 0.00059234370072900331 -0.0026668419961862247 0 0.00061520644804714396 -0.0025296195407936871 0 -0.00062014472057930314 -0.0023397094092469277 0 -0.00061975065344283258 -0.0025226656026628054 0 -0.00070006122222566569 -0.0024892224239330108 0 -0.00068315430065822363 -0.0026424156796191517 0 -0.00070006122222566569 -0.0024892224239330108 0 -0.00061975065344283258 -0.0025226656026628054 0 0.00046282536880870139 -0.00073494503951557666 0 0.00040097701092052171 -0.00056290430782980269 0 0.00050224576619201165 -0.00065388287167208211 0 0.00039035221204698648 -0.00046163253895955235 0 0.00050224576619201165 -0.00065388287167208211 0 0.00040097701092052171 -0.00056290430782980269 0 -0.00030996389412819516 -0.00053099993116916238 0 -0.00038281571133970621 -0.00054042789726421281 0 -0.00028740459939839035 -0.00039247086235926057 0 -0.00038756824329673505 -0.00045789865916468365 0 -0.00028740459939839035 -0.00039247086235926057 0 -0.00038281571133970621 -0.00054042789726421281 0 0.0008176281251593456 -0.0028885849897320954 0 0.00089209787093187556 -0.0030186017384645448 0 0.0008255421877513819 -0.0030798814431957618 0 0.00032009688057393649 -0.00027277498246654203 0 0.0002388155891128832 -0.00017233756925710082 0 0.00040628745615729664 -0.0003380396163794941 0 0.00032009688057393649 -0.00027277498246654203 0 0.00013664366726312061 -9.6484082015275966e-05 0 0.0002388155891128832 -0.00017233756925710082 0 -0.00082075291589595023 -0.0028832710744386282 0 -0.00089243360123766012 -0.0030185556998440677 0 -0.00092606985279361303 -0.0029004940864162752 0 0.0008176281251593456 -0.0028885849897320954 0 0.00092584197898064986 -0.0029004847274048408 0 0.00089209787093187556 -0.0030186017384645448 0 -0.00032339143429573216 -0.00027691676927617021 0 -0.00023825198151801973 -0.00017180786876872924 0 -0.00013683058140906746 -9.6944086246987632e-05 0 -0.00032339143429573216 -0.00027691676927617021 0 -0.00040568724189301019 -0.00033826067771379036 0 -0.00023825198151801973 -0.00017180786876872921 0 -0.00082075291589595023 -0.0028832710744386282 0 -0.00082588285046040176 -0.0030798751120665485 0 -0.00089243360123766012 -0.0030185556998440677 0 0.00081206019765566655 -0.0017847951018153466 0 0.00088226195907688146 -0.0019254254504955149 0 0.00079580472255795292 -0.0019674617442589849 0 -0.00013748289996179624 -0.0028788981762870891 0 -0.0002240437195012314 -0.0030062672435612631 0 -0.00025987298949063545 -0.0028383025160559497 0 4.1605478837625982e-05 -0.00021640334110133936 0 4.3278820528460486e-05 -0.00013054770629091186 0 8.8588035863890199e-05 -0.00024984355840155067 0 -0.0007802955466995504 -0.0013744081159367454 0 -0.00082480648571768469 -0.0012684162101471289 0 -0.00072980180611124078 -0.0011830491034054878 0 0.00032303078914037493 -0.001982927482194227 0 0.00030986650449427383 -0.0021674343780123408 0 0.00023250580632293549 -0.002058790525870784 0 -0.00029961673895900244 -0.002013050353447501 0 -0.00041460001281509181 -0.0019995862056917742 0 -0.00035469023678188144 -0.0018657952249118328 0 0.00025600623503562478 -0.0009711094881310492 0 0.00035621214425897419 -0.0010077952272459559 0 0.00030984651307004572 -0.0011219904461454355 0 -0.00027653393773035146 -0.0010051529905030511 0 -0.00024163326834198873 -0.00082745579402222552 0 -0.00019055245343882756 -0.00091867816145520752 0 0.00097712624580296547 -0.0017672023742791936 0 0.00098570419029620979 -0.0019219262367844777 0 0.00090556581555187787 -0.0017877894143606089 0 -2.5422711907382531e-10 -1.1465724875503722e-07 0 1.0460816373723808e-08 -1.0986989821558931e-07 0 1.8551582786359535e-05 -9.1124021854544992e-05 0 -0.00010720373996865055 -0.0032146285497364024 0 -0.00021378547850492351 -0.0032151348725517363 0 -0.00012841271606026599 -0.0030639085431069303 0 -0.00094894287289896094 -0.0014671182332804346 0 -0.00092728826828242586 -0.0013199662685841789 0 -0.00087425438616566301 -0.0014159432445524482 0 0.00032269938226934744 -0.00026197568913121852 0 0.00040628745615729664 -0.00033803961637949404 0 0.0002388155891128832 -0.00017233756925710082 0 3.423496993223594e-09 -9.6145588103108798e-08 0 -0.00013683058140906746 -9.6944086246987632e-05 0 -0.00023825198151801973 -0.00017180786876872921 0 -3.9156434126639861e-09 -9.6554151974908397e-08 0 0.0002388155891128832 -0.00017233756925710082 0 0.00013664366726312064 -9.6484082015275993e-05 0 0.00099602849213224721 -0.0030449556636582007 0 0.00089209787093187556 -0.0030186017384645448 0 0.00092584197898064986 -0.0029004847274048408 0 0.00090518893518266288 -0.0032101272943112122 0 0.0008255421877513819 -0.0030798814431957622 0 0.00089209787093187556 -0.0030186017384645448 0 -0.00099635254873401227 -0.0030449688679535757 0 -0.00092606985279361303 -0.0029004940864162752 0 -0.00089243360123766012 -0.0030185556998440677 0 -0.00032236712854476749 -0.00026215998830825439 0 -0.00023825198151801973 -0.00017180786876872921 0 -0.00040568724189301019 -0.00033826067771379036 0 -0.00090551364293212197 -0.0032101085650060568 0 -0.00089243360123766012 -0.0030185556998440677 0 -0.00082588285046040176 -0.0030798751120665485 0 0.00010709316382123758 -0.003214778312975705 0 0.00011344577154217959 -0.0030356305248470422 0 0.00019892836744257595 -0.0030730072686596362 0 -0.00097835739451929615 -0.0017670132115477073 0 -0.00089028139596871586 -0.0017636834979327016 0 -0.00091513096165927066 -0.001892768716239091 0 0.00095006749410435603 -0.0014667486907414345 0 0.00086213737829326023 -0.0014337685804049819 0 0.00086343108525365343 -0.001315815048900223 0 -3.8226158121935832e-09 -1.1013243580875946e-07 0 -1.8211426760294762e-05 -0.00011188789440237338 0 -2.7123084959898133e-05 -8.6095319561179217e-05 0 0.00039035221204698648 -0.00046163253895955235 0 0.00029324291518895357 -0.00040610677541377355 0 0.00027788546686788958 -0.00032177742751347902 0 -0.00038756824329673505 -0.00045789865916468365 0 -0.00049824386969229983 -0.00065579237738712251 0 -0.00049105854276614729 -0.00055253388813623515 0 0.00050647645126941415 -0.0025232056470778541 0 0.00050884881421717936 -0.0027493559507256373 0 0.00042595336264923911 -0.0026807893343382006 0 -0.00062014472057930314 -0.0023397094092469277 0 -0.00074838327666172113 -0.0023553120010064701 0 -0.0007112651339247594 -0.0022173151085145629 0 0.00046282536880870139 -0.00073494503951557666 0 0.00056588785439685811 -0.00078178018180624957 0 0.00058500516075290663 -0.00089247900734351854 0 -0.00030996389412819516 -0.00053099993116916238 0 -0.0002324672865830101 -0.00036079780879637785 0 -0.00020573476268620153 -0.00038441591219009981 0 7.3537518007142861e-05 -0.0028185857405101009 0 -2.6776587464181324e-05 -0.002836318441377252 0 -5.0358080334911588e-06 -0.0026599250090360575 0 -0.0007758122139585003 -0.0016827830704338445 0 -0.00077496451169662144 -0.0015337519279907876 0 -0.00068338560770311656 -0.0015445185732482008 0 0.00075890730916441267 -0.0014609267845196124 0 0.0007806546796584275 -0.0016141698474779233 0 0.00068424191429713717 -0.0015597666156990822 0 -2.6407848594469968e-05 -0.00026043075780506661 0 9.3109310511962357e-06 -0.00024692990645221738 0 2.8843684262546591e-06 -0.00038035635420629688 0 -0.0006290181067589905 -0.00080888928438638285 0 -0.00069449282652870757 -0.00096222767971319379 0 -0.00075554991335803851 -0.00094427772835349632 0 -0.00049951010209467147 -0.00284001566824436 0 -0.00040837228151470862 -0.002875139964453724 0 -0.00044812542095245351 -0.0030327068610938881 0 0.00018010501314523253 -0.00025918466080801202 0 0.00013277755436521391 -0.00022854512693550852 0 8.1011607633601612e-05 -0.00011641743572160625 0 0.00079845439950295837 -0.0023439324001612882 0 0.00081756338621589606 -0.002200966447312035 0 0.0009010231923395071 -0.0022704520521878374 0 0.00058696443506687623 -0.0022500926326847921 0 0.0005542389168796413 -0.0021258531755899068 0 0.00064256776366403015 -0.0021144205629148381 0 -0.0004537497406685613 -0.0024646009896060225 0 -0.00037949285553230867 -0.0024057554443908417 0 -0.00036670405778481245 -0.0025582429495004705 0 0.00029153137352316383 -0.00057650871935891802 0 0.00025346431489231428 -0.0006181965049990003 0 0.00020660859221030426 -0.00048109917864184532 0 -0.00046035840182416076 -0.00081259959874551444 0 -0.00046055580938164772 -0.00092398560666291955 0 -0.00054613537129960641 -0.00096538955363364054 0 0.00068290121180371592 -0.0026424888408533697 0 0.00070456929990987834 -0.0024503899463311999 0 0.0007739557873831114 -0.0025843401201197463 0 -0.00068315430065822363 -0.0026424156796191517 0 -0.00056892698682007865 -0.0026741952933657578 0 -0.00064627393746460914 -0.002800766680512681 0 0.00034585273986829207 -0.0016869394457465609 0 0.00029706461248914842 -0.0015010768979546419 0 0.00040927025795672899 -0.0016008005485431383 0 0.0004064093250903477 -0.0014499204015421215 0 0.00040927025795672899 -0.0016008005485431383 0 0.00029706461248914842 -0.0015010768979546419 0 0.00058696443506687623 -0.0022500926326847921 0 0.00050623537045489794 -0.0022208461959500529 0 0.0005542389168796413 -0.0021258531755899068 0 -0.0004537497406685613 -0.0024646009896060225 0 -0.00044045353174896766 -0.0023269998473048055 0 -0.00037949285553230867 -0.0024057554443908417 0 0.00029153137352316383 -0.00057650871935891802 0 0.0003168931357719519 -0.00070090986708951889 0 0.00025346431489231428 -0.0006181965049990003 0 -0.00046035840182416076 -0.00081259959874551444 0 -0.00039646829842123193 -0.00081714998479908449 0 -0.00046055580938164772 -0.00092398560666291955 0 0.0008176281251593456 -0.0028885849897320954 0 0.0008255421877513819 -0.0030798814431957618 0 0.00075356913009808676 -0.0030393402419845563 0 -0.00082075291589595023 -0.0028832710744386282 0 -0.00092606985279361303 -0.0029004940864162752 0 -0.000904142831152802 -0.002774107742386804 0 0.00032009688057393649 -0.00027277498246654203 0 0.00040628745615729664 -0.0003380396163794941 0 0.00049367167620687055 -0.00045733515069791016 0 0.0008176281251593456 -0.0028885849897320954 0 0.00089232534674216657 -0.0027566944598982858 0 0.00092584197898064986 -0.0029004847274048408 0 0.00032009688057393649 -0.00027277498246654203 0 0.000154054179186437 -0.00013604724269030474 0 0.00013664366726312064 -9.6484082015275993e-05 0 -0.00032339143429573216 -0.00027691676927617021 0 -0.00013683058140906746 -9.6944086246987632e-05 0 -0.0001641073144139209 -0.00014576159811817489 0 -0.00082075291589595023 -0.0028832710744386282 0 -0.00074395802487254529 -0.0030174373258946884 0 -0.00082588285046040176 -0.0030798751120665485 0 -0.00032339143429573216 -0.00027691676927617021 0 -0.00048912629585141768 -0.00044944055945631266 0 -0.00040568724189301019 -0.00033826067771379036 0 9.5769414520169218e-05 -0.0012105104564188729 0 8.7676123034445796e-05 -0.0010588719975807724 0 0.0001915119011392999 -0.0011075356416668815 0 -2.4183087129017369e-06 -0.0010325113250284439 0 8.7676123034445796e-05 -0.0010588719975807724 0 9.323537678244066e-06 -0.0011548683380078681 0 0.00034585273986829207 -0.0016869394457465609 0 0.00032721113575237976 -0.0018174185331378539 0 0.00024878136034355084 -0.0016740116369629761 0 -9.0657237080196883e-08 -0.0024523242678037138 0 -5.0358080334911588e-06 -0.0026599250090360575 0 -7.3396569792235394e-05 -0.0025484231873876065 0 -0.00056877295725672955 -0.0015283302991007607 0 -0.00068338560770311656 -0.0015445185732482008 0 -0.00061353495952329708 -0.0014253045751842169 0 0.00056850933558906514 -0.0015283864198526226 0 0.00068424191429713717 -0.0015597666156990822 0 0.00062888117152584883 -0.0016529695578097669 0 -1.2352838527012425e-07 -0.00055183502285878277 0 2.8843684262546591e-06 -0.00038035635420629688 0 4.0637106556764915e-05 -0.00047067008138757774 0 0.00042595336264923911 -0.0026807893343382006 0 0.00050884881421717936 -0.0027493559507256373 0 0.00043317145462831383 -0.0028774089139049991 0 -0.0007112651339247594 -0.0022173151085145629 0 -0.00074838327666172113 -0.0023553120010064701 0 -0.0008191857205536011 -0.0022404395662102084 0 0.00058500516075290663 -0.00089247900734351854 0 0.00056588785439685811 -0.00078178018180624957 0 0.00067986643148378663 -0.00092080600707481288 0 -0.00020573476268620153 -0.00038441591219009981 0 -0.0002324672865830101 -0.0003607978087963779 0 -0.0001422582295212762 -0.00023333301840430402 0 0.00051126900960089046 -0.0018726734825593324 0 0.00045481828885483437 -0.0020433334396010869 0 0.00040678064038178523 -0.0018852316664506627 0 -0.00022527536456161854 -0.0023303417886072421 0 -0.00033593875820996918 -0.002240470166301382 0 -0.0002432018996767097 -0.0021530418972778281 0 0.00015622104292202589 -0.00066624238656922861 0 0.00025253886144291723 -0.0007672107711803862 0 0.00018705506820665725 -0.00083179745122073472 0 -0.00046539384460333365 -0.0011600108444862034 0 -0.00038640715403472282 -0.00097622630388513143 0 -0.00036915425589404728 -0.0011371624592569273 0 0.00079845439950295837 -0.0023439324001612882 0 0.00070456929990987834 -0.0024503899463311999 0 0.00068763447378108772 -0.0023038784328722724 0 0.00018010501314523253 -0.00025918466080801202 0 0.00029324291518895357 -0.00040610677541377355 0 0.00025204913458752023 -0.00042434354301981177 0 -0.00049951010209467147 -0.00284001566824436 0 -0.00056892698682007865 -0.0026741952933657573 0 -0.00048081494199855125 -0.0026409269020489273 0 -0.0006290181067589905 -0.00080888928438638285 0 -0.00049824386969229983 -0.00065579237738712251 0 -0.00053721016330392246 -0.00079528552243412131 0 0.00023844998226625922 -0.0018593036680918541 0 0.00015834471157439493 -0.0017712990069251601 0 0.00024878136034355084 -0.0016740116369629761 0 -0.00013526521476884241 -0.0016563292757306555 0 -0.00020898370964421876 -0.0016011026403997739 0 -9.7727058653340155e-05 -0.0015273744211002659 0 -0.00018421829045128424 -0.0014480593060212934 0 -9.7727058653340155e-05 -0.0015273744211002659 0 -0.00020898370964421876 -0.0016011026403997739 0 -0.00012135410986284029 -0.0020563660876956004 0 -0.00020184658809375752 -0.0020238064493535639 0 -9.5911468327485608e-05 -0.0019194622865194313 0 -0.00019903616243241565 -0.0018827621579460177 0 -9.5911468327485608e-05 -0.0019194622865194313 0 -0.00020184658809375752 -0.0020238064493535639 0 0.00063236309424614121 -0.00079583195553160815 0 0.00050224576619201165 -0.00065388287167208211 0 0.0005744594957263992 -0.00066485217864539802 0 -0.00017481324989759186 -0.00024481959290711199 0 -0.00028740459939839035 -0.00039247086235926057 0 -0.00020832767710716305 -0.00025421217559029417 0 -0.00018421829045128424 -0.0014480593060212934 0 -0.00029265797510472498 -0.0015265171565898891 0 -0.00024709336227986403 -0.0013407088376974378 0 0.00052432289612484645 -0.0032156595264905513 0 0.0004595475036309304 -0.003049860841584501 0 0.00057861950432445595 -0.0030367286816227156 0 -0.00099654222354932077 -0.0023962069356757692 0 -0.00091040473768112492 -0.0022898100191072199 0 -0.00090370432359497435 -0.002480485323656606 0 0.00079708967289131988 -0.00089421984421011438 0 0.00075487721487007458 -0.00093181402965773991 0 0.00068339441224448522 -0.00076751915122952438 0 -1.7572517047210231e-08 -1.0966943874263115e-07 0 -7.7920121303495812e-05 -0.0001098967234949147 0 -0.00010700212283694696 -0.00012380304285207578 0 0.00081206019765566655 -0.0017847951018153466 0 0.00090556581555187787 -0.0017877894143606089 0 0.00088226195907688146 -0.0019254254504955149 0 4.1605478837625982e-05 -0.00021640334110133936 0 1.8551582786359535e-05 -9.1124021854544979e-05 0 4.3278820528460486e-05 -0.00013054770629091186 0 -0.00013748289996179624 -0.0028788981762870891 0 -0.00012841271606026599 -0.0030639085431069303 0 -0.00022404371950123138 -0.0030062672435612631 0 -0.0007802955466995504 -0.0013744081159367454 0 -0.00087425438616566301 -0.0014159432445524482 0 -0.00082480648571768469 -0.0012684162101471289 0 -0.00019903616243241565 -0.0018827621579460177 0 -0.00020146774736937425 -0.001745631525323092 0 -0.00010544447922754807 -0.0017696784891424791 0 -0.00012174880946422919 -0.00099929336319396346 0 -0.00011531913518897222 -0.00081594920784423992 0 -4.8530066360717565e-05 -0.00093349767709891018 0 -2.7127741282867903e-05 -0.00079261313512566636 0 -4.8530066360717565e-05 -0.00093349767709891018 0 -0.00011531913518897221 -0.00081594920784423992 0 0.00031879267531212082 -0.0032152498220028476 0 0.00021354360253521013 -0.0032150878070767749 0 0.00029286414454418044 -0.0030631325001032076 0 -0.00099126723044163918 -0.0020784163154925778 0 -0.00098591019905283671 -0.0019216908097615367 0 -0.00091433118176384529 -0.0020327388973082456 0 0.00089530032406257346 -0.0011752416361785745 0 0.00092663342496435467 -0.0013196271508331239 0 0.00083346233448611219 -0.0011794692922797365 0 -1.6272370397034839e-08 -1.1117432753186718e-07 0 -7.2664636806441301e-09 -1.1222107016127076e-07 0 -4.2348308075684966e-05 -9.2291915502239205e-05 0 0.00050647645126941415 -0.0025232056470778541 0 0.00052538829543806117 -0.0023410014332048874 0 0.00060037553636689545 -0.0023948044990202899 0 -0.00062014472057930314 -0.0023397094092469277 0 -0.00051162307438417363 -0.0023632513592260146 0 -0.0005406684324611434 -0.0024919385790290564 0 0.00046282536880870139 -0.00073494503951557666 0 0.00036457287168515409 -0.00068189223199698697 0 0.00034550203249330983 -0.00056293015857587574 0 -0.00030996389412819516 -0.00053099993116916238 0 -0.00038215180402425658 -0.00070745988500786291 0 -0.00042922309100151807 -0.00067155290747021373 0 0.00032269938226934744 -0.00026197568913121852 0 0.0002388155891128832 -0.00017233756925710082 0 0.00014705984500725541 -0.00010845049073782874 0 3.423496993223594e-09 -9.6145588103108798e-08 0 -0.00023825198151801973 -0.00017180786876872921 0 -0.00014669510396248935 -0.00010830147746272199 0 -3.9156434126639861e-09 -9.6554151974908397e-08 0 0.00014705984500725541 -0.00010845049073782874 0 0.0002388155891128832 -0.00017233756925710082 0 -0.00032236712854476749 -0.00026215998830825439 0 -0.00014669510396248935 -0.00010830147746272199 0 -0.00023825198151801973 -0.00017180786876872921 0 0.00099602849213224721 -0.0030449556636582007 0 0.00093818107132982124 -0.0031033291212895411 0 0.00089209787093187556 -0.0030186017384645448 0 0.00090518893518266288 -0.0032101272943112122 0 0.00089209787093187556 -0.0030186017384645448 0 0.00093818107132982124 -0.0031033291212895411 0 -0.00090551364293212197 -0.0032101085650060568 0 -0.00094188026793206149 -0.0031095252239388368 0 -0.00089243360123766012 -0.0030185556998440677 0 -0.00099635254873401227 -0.0030449688679535757 0 -0.00089243360123766012 -0.0030185556998440677 0 -0.00094188026793206149 -0.0031095252239388368 0 0.0008176281251593456 -0.0028885849897320954 0 0.00079805108230663539 -0.0027268145761452536 0 0.00089232534674216657 -0.0027566944598982862 0 -0.00082075291589595023 -0.0028832710744386282 0 -0.00072866808872070268 -0.0028462154550307787 0 -0.00074395802487254529 -0.0030174373258946884 0 0.00085164701007846191 -0.0026136707983838749 0 0.00089232534674216657 -0.0027566944598982862 0 0.00079805108230663539 -0.0027268145761452536 0 0.00055280884753814374 -0.00057306768223096868 0 0.00043087797901650266 -0.00042995960170153635 0 0.00049367167620687055 -0.00045733515069791016 0 -0.00066087309327042803 -0.0029412268325074544 0 -0.00074395802487254529 -0.0030174373258946884 0 -0.00072866808872070268 -0.0028462154550307787 0 -0.00019054040160673263 -0.00019673957741619369 0 -0.00029709041025705843 -0.00029600317221335494 0 -0.0001641073144139209 -0.00014576159811817489 0 0.00032009688057393649 -0.00027277498246654203 0 0.00049367167620687055 -0.00045733515069791016 0 0.00043087797901650266 -0.00042995960170153635 0 -0.00032339143429573216 -0.00027691676927617021 0 -0.0001641073144139209 -0.00014576159811817489 0 -0.00029709041025705843 -0.00029600317221335494 0 0.00015445085693326676 -0.0016278634466478795 0 0.00024878136034355084 -0.0016740116369629761 0 0.00015834471157439493 -0.0017712990069251601 0 0.0001915119011392999 -0.0011075356416668815 0 8.7676123034445796e-05 -0.0010588719975807724 0 0.00017122159387473259 -0.00095693615467634067 0 -0.00024215513163158543 -0.0025343413388128982 0 -0.00036670405778481245 -0.0025582429495004705 0 -0.00030298719361645154 -0.0024483060573294493 0 0.00062836372509950317 -0.0019152472823885788 0 0.00064256776366403005 -0.0021144205629148377 0 0.00057982955941963119 -0.0020051300733349548 0 -0.00057304024316192509 -0.001159221581606691 0 -0.00054613537129960641 -0.00096538955363364054 0 -0.00050839725926909616 -0.0010511151723857006 0 0.00013828645394286046 -0.00049073097100479175 0 0.00020660859221030426 -0.00048109917864184532 0 0.00019065742464920174 -0.00056958727525719831 0 -0.00020574583429734894 -0.0012043299656148518 0 -0.00024709336227986403 -0.0013407088376974378 0 -0.0002787922614194818 -0.0011573964288528141 0 -0.00032915885794608226 -0.0012921136312918119 0 -0.0002787922614194818 -0.0011573964288528141 0 -0.00024709336227986403 -0.0013407088376974378 0 -0.00019903616243241565 -0.0018827621579460177 0 -0.00020184658809375752 -0.0020238064493535634 0 -0.00029961673895900244 -0.002013050353447501 0 7.3537518007142861e-05 -0.0028185857405101009 0 -5.0358080334911588e-06 -0.0026599250090360575 0 8.6791968239498265e-05 -0.0026719385206082275 0 -0.0007758122139585003 -0.0016827830704338445 0 -0.00068338560770311646 -0.0015445185732482008 0 -0.00069769418576957573 -0.0016868994880341161 0 0.00075890730916441267 -0.0014609267845196124 0 0.00068424191429713717 -0.0015597666156990824 0 0.00067834925208843831 -0.001420503691013879 0 -2.6407848594469968e-05 -0.00026043075780506661 0 2.8843684262546688e-06 -0.00038035635420629688 0 -3.9388692612519336e-05 -0.00037350534918705221 0 -0.00027348857494233978 -0.0018512012813386779 0 -0.00019903616243241565 -0.0018827621579460177 0 -0.00029961673895900244 -0.002013050353447501 0 0.00032303078914037493 -0.001982927482194227 0 0.00045481828885483437 -0.0020433334396010869 0 0.00037607944372320122 -0.0021116718383736269 0 -0.00029961673895900244 -0.002013050353447501 0 -0.00033593875820996918 -0.002240470166301382 0 -0.00037724472341713804 -0.0021052575478566096 0 0.00025600623503562478 -0.0009711094881310492 0 0.00025253886144291728 -0.0007672107711803862 0 0.00030856812107062244 -0.00089773804618275882 0 -0.00027653393773035146 -0.0010051529905030511 0 -0.00038640715403472282 -0.00097622630388513143 0 -0.00030533205509080698 -0.00089171943626516908 0 0.00050647645126941415 -0.0025232056470778541 0 0.00042595336264923911 -0.0026807893343382006 0 0.0004222967573088362 -0.0025221307027327483 0 -0.00062014472057930314 -0.0023397094092469277 0 -0.0007112651339247594 -0.0022173151085145629 0 -0.00062091646697948373 -0.0022023983086261966 0 0.00046282536880870139 -0.00073494503951557666 0 0.00058500516075290663 -0.00089247900734351854 0 0.00050424523629155236 -0.00087046086678029444 0 -0.00030996389412819516 -0.00053099993116916238 0 -0.00020573476268620153 -0.00038441591219009981 0 -0.00025354532988853499 -0.00052185787738181577 0 -0.00012174880946422919 -0.00099929336319396346 0 -0.00013566950906161273 -0.0011558911114636886 0 -0.00020158934378823316 -0.0010740537514711374 0 0.00050647645126941415 -0.0025232056470778541 0 0.00059234370072900331 -0.0026668419961862247 0 0.00050884881421717936 -0.0027493559507256373 0 -0.00062014472057930314 -0.0023397094092469277 0 -0.00070006122222566569 -0.0024892224239330108 0 -0.00074838327666172113 -0.0023553120010064701 0 0.00046282536880870139 -0.00073494503951557666 0 0.00050224576619201165 -0.00065388287167208211 0 0.00056588785439685811 -0.00078178018180624957 0 -0.00030996389412819516 -0.00053099993116916238 0 -0.00028740459939839035 -0.00039247086235926057 0 -0.0002324672865830101 -0.0003607978087963779 0 0.00014024961297405599 -0.0019530860038042502 0 0.00015834471157439493 -0.0017712990069251601 0 0.00023844998226625922 -0.0018593036680918541 0 0.00071332566915399643 -0.0020152982402203844 0 0.00073484840183773179 -0.0021964700331025583 0 0.00064256776366403015 -0.0021144205629148381 0 0.00013775450597848499 -0.00037057620719311662 0 0.00018356813423831122 -0.00034691687372036137 0 0.00020660859221030426 -0.00048109917864184532 0 -0.00029843825504178938 -0.002685120673562249 0 -0.00041142981421942761 -0.0027231780514633259 0 -0.00036670405778481245 -0.0025582429495004705 0 -0.0006373364829948266 -0.0010950212299443358 0 -0.00061405763371476707 -0.00092397866179079024 0 -0.00054613537129960641 -0.00096538955363364054 0 -0.00062014472057930314 -0.0023397094092469277 0 -0.0005406684324611434 -0.0024919385790290564 0 -0.00061975065344283258 -0.0025226656026628054 0 0.00050647645126941415 -0.0025232056470778541 0 0.00060037553636689545 -0.0023948044990202899 0 0.00061520644804714396 -0.0025296195407936871 0 -0.00030996389412819516 -0.00053099993116916238 0 -0.00042922309100151801 -0.00067155290747021373 0 -0.00038281571133970621 -0.00054042789726421281 0 0.00046282536880870139 -0.00073494503951557666 0 0.00034550203249330983 -0.00056293015857587574 0 0.00040097701092052171 -0.00056290430782980269 0 2.4959347141667997e-05 -0.0019629168987009104 0 -4.6928542625593101e-05 -0.0020485666438537584 0 -9.5911468327485608e-05 -0.0019194622865194313 0 9.5769414520169218e-05 -0.0012105104564188729 0 0.0001915119011392999 -0.0011075356416668815 0 0.00018454978473088788 -0.0012726336715211217 0 0.00027577245839292548 -0.0012575762888707054 0 0.00018454978473088788 -0.0012726336715211217 0 0.0001915119011392999 -0.0011075356416668815 0 0.00042958369436529832 -0.00220158084822416 0 0.00045481828885483437 -0.0020433334396010869 0 0.00050623537045489794 -0.0022208461959500533 0 -0.00043203613563285776 -0.0021980527484587553 0 -0.00033593875820996918 -0.002240470166301382 0 -0.00044045353174896766 -0.0023269998473048055 0 0.0005542389168796413 -0.0021258531755899068 0 0.00050623537045489794 -0.0022208461959500533 0 0.00045481828885483437 -0.0020433334396010869 0 -0.00037949285553230867 -0.0024057554443908417 0 -0.00044045353174896766 -0.0023269998473048055 0 -0.00033593875820996918 -0.002240470166301382 0 0.00033801769821546057 -0.00082052982737500246 0 0.00025253886144291728 -0.0007672107711803862 0 0.00031689313577195184 -0.00070090986708951889 0 -0.00033485717890707908 -0.00081699759649408131 0 -0.00038640715403472282 -0.00097622630388513143 0 -0.00039646829842123193 -0.00081714998479908449 0 0.00025346431489231428 -0.0006181965049990003 0 0.00031689313577195184 -0.00070090986708951889 0 0.00025253886144291728 -0.0007672107711803862 0 -0.00046055580938164772 -0.00092398560666291955 0 -0.00039646829842123193 -0.00081714998479908449 0 -0.00038640715403472282 -0.00097622630388513143 0 0.00050910695477014082 -0.0029063584142510986 0 0.00043317145462831383 -0.0028774089139049991 0 0.00050884881421717936 -0.0027493559507256373 0 -0.00083420828687909971 -0.0023629733750226835 0 -0.0008191857205536011 -0.0022404395662102084 0 -0.00074838327666172113 -0.0023553120010064701 0 0.00063236309424614121 -0.00079583195553160815 0 0.00067986643148378663 -0.00092080600707481288 0 0.00056588785439685811 -0.00078178018180624957 0 -0.00017481324989759186 -0.00024481959290711199 0 -0.0001422582295212762 -0.00023333301840430402 0 -0.0002324672865830101 -0.0003607978087963779 0 0.00021063624936171416 -0.0023285237902945441 0 0.00030364766467461498 -0.0023302323301270648 0 0.00025479986479374773 -0.0025083190361854814 0 0.00035861050198036524 -0.0024519143039857614 0 0.00025479986479374773 -0.0025083190361854814 0 0.00030364766467461498 -0.0023302323301270648 0 -0.00050991796399785206 -0.0018498207718923771 0 -0.00051142481801929359 -0.0019987474031485796 0 -0.00061428755139525913 -0.0019333566727648679 0 -0.00058169108192663926 -0.0020951722554341467 0 -0.00061428755139525913 -0.0019333566727648679 0 -0.00051142481801929359 -0.0019987474031485796 0 0.00046738298272760428 -0.0011826692087943329 0 0.00044518688384014336 -0.0010347057168264616 0 0.00055549013882693005 -0.001135243585237109 0 0.00049256131374663932 -0.00096286309800742195 0 0.00055549013882693005 -0.001135243585237109 0 0.00044518688384014336 -0.0010347057168264616 0 -0.00014699295719883807 -0.00066830902351899108 0 -0.00021260613892452776 -0.00067605067043675275 0 -0.00015044005827750823 -0.0005130275648192029 0 -0.0002288746704529523 -0.00057408453070228007 0 -0.00015044005827750823 -0.0005130275648192029 0 -0.00021260613892452776 -0.00067605067043675275 0 0.00086384262561825292 -0.0020922917719327656 0 0.00088226195907688146 -0.0019254254504955149 0 0.0009325951666204731 -0.0020304393268715439 0 8.0045418641159198e-05 -0.00016096280730489826 0 4.3278820528460486e-05 -0.00013054770629091186 0 3.1823291160431177e-05 -6.8915161136853169e-05 0 -0.00033561206567833294 -0.0029637135532153179 0 -0.00022404371950123138 -0.0030062672435612631 0 -0.00029062270652729705 -0.0031002577359688604 0 -0.00076998969475070792 -0.0010944058066256986 0 -0.00082480648571768469 -0.0012684162101471289 0 -0.00085162882418368148 -0.0011907492597846509 0 0.00032303078914037493 -0.001982927482194227 0 0.00037607944372320122 -0.0021116718383736269 0 0.00030986650449427383 -0.0021674343780123408 0 -0.00029961673895900244 -0.002013050353447501 0 -0.00037724472341713804 -0.0021052575478566096 0 -0.00041460001281509181 -0.0019995862056917742 0 0.00025600623503562478 -0.0009711094881310492 0 0.00030856812107062244 -0.00089773804618275882 0 0.00035621214425897419 -0.0010077952272459559 0 -0.00027653393773035146 -0.0010051529905030511 0 -0.00030533205509080698 -0.00089171943626516908 0 -0.00024163326834198873 -0.00082745579402222552 0 0.00050647645126941415 -0.0025232056470778541 0 0.00044889400269043021 -0.0023631934178535131 0 0.00052538829543806117 -0.0023410014332048874 0 -0.00062014472057930314 -0.0023397094092469277 0 -0.00052810005734349073 -0.0022367706437038779 0 -0.00051162307438417363 -0.0023632513592260146 0 0.00046282536880870139 -0.00073494503951557666 0 0.00041116134319210961 -0.00080664180595979411 0 0.00036457287168515409 -0.00068189223199698707 0 -0.00030996389412819516 -0.00053099993116916238 0 -0.00031441625141208509 -0.0006676298436667017 0 -0.00038215180402425658 -0.00070745988500786291 0 -0.00013526521476884241 -0.0016563292757306555 0 -0.00010544447922754808 -0.0017696784891424791 0 -0.00020146774736937425 -0.001745631525323092 0 -7.2664636806441301e-09 -1.1222107016127076e-07 0 -3.8226158121935832e-09 -1.1013243580875946e-07 0 -2.7123084959898133e-05 -8.6095319561179217e-05 0 0.00092663342496435467 -0.0013196271508331239 0 0.00095006749410435603 -0.0014667486907414345 0 0.00086343108525365343 -0.001315815048900223 0 -0.00098591019905283671 -0.0019216908097615367 0 -0.00097835739451929615 -0.0017670132115477073 0 -0.00091513096165927066 -0.001892768716239091 0 0.00021354360253521013 -0.0032150878070767749 0 0.00010709316382123758 -0.003214778312975705 0 0.00019892836744257595 -0.0030730072686596362 0 0.00032269938226934744 -0.00026197568913121852 0 0.00049405690056810857 -0.00044435137841655168 0 0.00040628745615729664 -0.0003380396163794941 0 3.423496993223594e-09 -9.6145588103108798e-08 0 -5.5125376499247042e-08 -1.3753381564537482e-07 0 -0.00013683058140906746 -9.6944086246987632e-05 0 0.00090518893518266288 -0.0032101272943112122 0 0.00081334751486564758 -0.0032124813972301651 0 0.0008255421877513819 -0.0030798814431957618 0 -0.00099635254873401227 -0.0030449688679535757 0 -0.0009967526523844035 -0.0028821756477566711 0 -0.00092606985279361303 -0.0029004940864162752 0 0.00099650723372319379 -0.0028821903746492584 0 0.00099602849213224721 -0.0030449556636582007 0 0.00092584197898064986 -0.0029004847274048408 0 5.5126377019245817e-08 -1.3626107282154867e-07 0 -3.9156434126639861e-09 -9.6554151974908397e-08 0 0.00013664366726312064 -9.6484082015275993e-05 0 -0.00081364288768778607 -0.003212493254642739 0 -0.00090551364293212197 -0.0032101085650060568 0 -0.00082588285046040176 -0.0030798751120665485 0 -0.00049351563984852771 -0.00044466846192942825 0 -0.00032236712854476749 -0.00026215998830825439 0 -0.00040568724189301019 -0.00033826067771379036 0 0.00079845439950295837 -0.0023439324001612882 0 0.00068763447378108772 -0.0023038784328722724 0 0.00073484840183773179 -0.0021964700331025583 0 0.00018010501314523253 -0.00025918466080801202 0 0.00025204913458752023 -0.00042434354301981177 0 0.00018356813423831122 -0.00034691687372036137 0 -0.00049951010209467147 -0.00284001566824436 0 -0.00048081494199855125 -0.0026409269020489273 0 -0.00041142981421942761 -0.0027231780514633259 0 -0.0006290181067589905 -0.00080888928438638285 0 -0.00053721016330392246 -0.00079528552243412131 0 -0.00061405763371476707 -0.00092397866179079024 0 3.1816255842667054e-05 -0.0021619450301831548 0 9.5924330442006086e-05 -0.0023375213631342145 0 -2.0125698462911363e-05 -0.0023033636272885012 0 -0.00040569911351600658 -0.001552154983753563 0 -0.00051107369928656053 -0.0016680235185787522 0 -0.00048241414064660685 -0.0014819178748907004 0 0.0004064093250903477 -0.0014499204015421215 0 0.00049263444395588197 -0.0013650705182267084 0 0.00048667136277621585 -0.0015371986376884464 0 -2.7127741282867903e-05 -0.00079261313512566636 0 -6.5498547721276593e-05 -0.00065226159509171127 0 1.0739147669538371e-05 -0.0006788841112760159 0 0.00034585273986829207 -0.0016869394457465609 0 0.00024878136034355084 -0.0016740116369629761 0 0.00029706461248914842 -0.0015010768979546419 0 0.00010264784332854034 -0.00091273669007676996 0 0.00017122159387473259 -0.00095693615467634067 0 8.7676123034445796e-05 -0.0010588719975807724 0 -0.00018421829045128424 -0.0014480593060212934 0 -0.0001527841272169996 -0.0012975851757818879 0 -7.8174167583500327e-05 -0.0013829874321693474 0 0.00029821363068669105 -0.0026850853336173358 0 0.00025479986479374779 -0.0025083190361854814 0 0.00036035500437366118 -0.0025915242398122048 0 -0.00071356312883289006 -0.0020152702712592867 0 -0.00061428755139525913 -0.0019333566727648679 0 -0.00066142254291739187 -0.0021068927463450686 0 0.00063705779743803087 -0.0010955706652363887 0 0.00055549013882693005 -0.001135243585237109 0 0.00056589482243313272 -0.0009806778038688878 0 -0.00013775949912239529 -0.00036974865307850711 0 -0.0001504400582775082 -0.0005130275648192029 0 -0.00019498128795413861 -0.00045359632454113692 0 0.00021354360253521013 -0.0032150878070767749 0 0.00019892836744257595 -0.0030730072686596362 0 0.00029286414454418044 -0.0030631325001032076 0 -0.00098591019905283671 -0.0019216908097615367 0 -0.00091513096165927066 -0.001892768716239091 0 -0.00091433118176384529 -0.0020327388973082456 0 0.00092663342496435467 -0.0013196271508331239 0 0.00086343108525365343 -0.001315815048900223 0 0.00083346233448611219 -0.0011794692922797365 0 -7.2664636806441301e-09 -1.1222107016127076e-07 0 -2.7123084959898133e-05 -8.6095319561179217e-05 0 -4.2348308075684966e-05 -9.2291915502239205e-05 0 0.00032303078914037493 -0.001982927482194227 0 0.00023844998226625925 -0.0018593036680918541 0 0.00032721113575237976 -0.0018174185331378539 0 0.00025600623503562478 -0.0009711094881310492 0 0.0001915119011392999 -0.0011075356416668815 0 0.00017122159387473259 -0.00095693615467634067 0 0.00014024961297405599 -0.0019530860038042502 0 0.00023250580632293549 -0.002058790525870784 0 0.00015127367259198618 -0.0021626888302587583 0 -0.00029468124270922921 -0.0017194829598414379 0 -0.00035469023678188144 -0.0018657952249118328 0 -0.0004096521025296917 -0.0017382699940627208 0 0.00027577245839292548 -0.0012575762888707054 0 0.00030984651307004572 -0.0011219904461454355 0 0.00038469669700576557 -0.0012638724086954131 0 -0.00012174880946422919 -0.00099929336319396346 0 -0.00019055245343882756 -0.00091867816145520752 0 -0.00011531913518897221 -0.00081594920784423992 0 1.0460816373723808e-08 -1.0986989821558931e-07 0 3.1823291160431177e-05 -6.8915161136853169e-05 0 4.3278820528460486e-05 -0.00013054770629091186 0 0.00098570419029620979 -0.0019219262367844777 0 0.0009325951666204731 -0.0020304393268715439 0 0.00088226195907688146 -0.0019254254504955149 0 -0.00092728826828242586 -0.0013199662685841789 0 -0.00085162882418368148 -0.0011907492597846509 0 -0.00082480648571768469 -0.0012684162101471289 0 -0.00021378547850492351 -0.0032151348725517363 0 -0.00029062270652729705 -0.0031002577359688604 0 -0.00022404371950123138 -0.0030062672435612631 0 -9.0657237080196883e-08 -0.0024523242678037138 0 -2.0125698462911363e-05 -0.0023033636272885012 0 9.5924330442006086e-05 -0.0023375213631342145 0 -0.00056877295725672955 -0.0015283302991007607 0 -0.00048241414064660685 -0.0014819178748907004 0 -0.00051107369928656053 -0.0016680235185787522 0 0.00056850933558906514 -0.0015283864198526226 0 0.00048667136277621585 -0.0015371986376884464 0 0.00049263444395588197 -0.0013650705182267084 0 -1.2352838527012425e-07 -0.00055183502285878277 0 1.0739147669538371e-05 -0.0006788841112760159 0 -6.5498547721276593e-05 -0.00065226159509171127 0 -0.00022527536456161854 -0.0023303417886072421 0 -0.00014402207598103776 -0.0024538065935741918 0 -0.00024215513163158543 -0.0025343413388128982 0 -0.00046539384460333365 -0.0011600108444862034 0 -0.00054967012671837585 -0.0013031109651255885 0 -0.00057304024316192509 -0.001159221581606691 0 0.00051126900960089046 -0.0018726734825593324 0 0.00057982093685375233 -0.0017540254031004057 0 0.00062836372509950317 -0.0019152472823885788 0 0.00015622104292202589 -0.00066624238656922861 0 8.8361989986032174e-05 -0.00055180413424850698 0 0.00013828645394286046 -0.00049073097100479175 0 0.00058696443506687623 -0.0022500926326847921 0 0.00052538829543806117 -0.0023410014332048874 0 0.00050623537045489794 -0.0022208461959500533 0 -0.0004537497406685613 -0.0024646009896060225 0 -0.00051162307438417363 -0.0023632513592260146 0 -0.00044045353174896766 -0.0023269998473048055 0 0.00029153137352316383 -0.00057650871935891802 0 0.00036457287168515409 -0.00068189223199698707 0 0.00031689313577195184 -0.00070090986708951889 0 -0.00046035840182416076 -0.00081259959874551444 0 -0.00038215180402425658 -0.0007074598850078628 0 -0.00039646829842123193 -0.00081714998479908449 0 -1.7333771200030185e-05 -0.0017884448485999309 0 6.4734989348742803e-05 -0.001658827490873653 0 7.521640071965633e-05 -0.0018274870096020716 0 -0.00018421829045128424 -0.0014480593060212934 0 -7.8174167583500314e-05 -0.0013829874321693474 0 -9.7727058653340155e-05 -0.0015273744211002659 0 0.00035861050198036524 -0.0024519143039857614 0 0.00036035500437366118 -0.0025915242398122048 0 0.00025479986479374773 -0.0025083190361854814 0 -0.00058169108192663926 -0.0020951722554341467 0 -0.00066142254291739187 -0.0021068927463450686 0 -0.00061428755139525913 -0.0019333566727648679 0 0.00049256131374663932 -0.00096286309800742195 0 0.00056589482243313272 -0.0009806778038688878 0 0.00055549013882693005 -0.001135243585237109 0 -0.0002288746704529523 -0.00057408453070228007 0 -0.00019498128795413861 -0.00045359632454113692 0 -0.00015044005827750823 -0.0005130275648192029 0 0.00039035221204698648 -0.00046163253895955235 0 0.00049010587899984731 -0.00055233308152051507 0 0.00050224576619201165 -0.00065388287167208211 0 -0.00038756824329673505 -0.00045789865916468365 0 -0.00027887399731798174 -0.00032380469081166359 0 -0.00028740459939839035 -0.00039247086235926057 0 0.00018276021334506757 -0.001415386048314312 0 0.00025406581668403619 -0.0013639485556631572 0 0.00029706461248914842 -0.0015010768979546419 0 0.00019924337465960048 -0.0015446416146558523 0 0.00018276021334506757 -0.001415386048314312 0 0.00029706461248914842 -0.0015010768979546419 0 7.3537518007142861e-05 -0.0028185857405101009 0 8.6791968239498265e-05 -0.0026719385206082275 0 0.00017703851148949219 -0.0027659660842431874 0 0.00014504427675140515 -0.0025845014507356158 0 0.00017703851148949219 -0.0027659660842431874 0 8.6791968239498265e-05 -0.0026719385206082275 0 -0.0007758122139585003 -0.0016827830704338445 0 -0.00069769418576957573 -0.0016868994880341161 0 -0.00075446159359149703 -0.0018348056502286649 0 -0.00065337582380340796 -0.0017679972494249858 0 -0.00075446159359149703 -0.0018348056502286649 0 -0.00069769418576957573 -0.0016868994880341161 0 0.00075890730916441267 -0.0014609267845196124 0 0.00067834925208843831 -0.001420503691013879 0 0.00071263036378588652 -0.0012963402293001535 0 0.000621096735882595 -0.0013183348091865303 0 0.00071263036378588652 -0.0012963402293001535 0 0.00067834925208843831 -0.001420503691013879 0 -2.6407848594469968e-05 -0.00026043075780506661 0 -3.9388692612519336e-05 -0.00037350534918705221 0 -7.0322479239235761e-05 -0.00030135677593506123 0 -7.6167247127356669e-05 -0.00044405324446097753 0 -7.0322479239235774e-05 -0.00030135677593506123 0 -3.9388692612519336e-05 -0.00037350534918705221 0 0.00042595336264923911 -0.0026807893343382006 0 0.00043317145462831383 -0.0028774089139049991 0 0.00035983081030701832 -0.0028052142639456612 0 -0.0007112651339247594 -0.0022173151085145629 0 -0.0008191857205536011 -0.0022404395662102084 0 -0.00077983361561271452 -0.002120400166765124 0 0.00058500516075290663 -0.00089247900734351854 0 0.00067986643148378663 -0.00092080600707481288 0 0.00067872995300165761 -0.0010218195615653031 0 -0.00020573476268620153 -0.00038441591219009981 0 -0.00014225822952127618 -0.00023333301840430402 0 -0.00013484062618641259 -0.00027938448925944826 0 0.00070456929990987834 -0.0024503899463311999 0 0.00060037553636689545 -0.0023948044990202899 0 0.00068763447378108772 -0.0023038784328722724 0 -0.00056892698682007865 -0.0026741952933657578 0 -0.0005406684324611434 -0.0024919385790290564 0 -0.00048081494199855125 -0.0026409269020489273 0 0.00029324291518895357 -0.00040610677541377355 0 0.00034550203249330983 -0.00056293015857587574 0 0.00025204913458752023 -0.00042434354301981177 0 -0.00049824386969229983 -0.00065579237738712251 0 -0.00042922309100151807 -0.00067155290747021373 0 -0.00053721016330392246 -0.00079528552243412131 0 0.00063236309424614121 -0.00079583195553160815 0 0.00056588785439685811 -0.00078178018180624957 0 0.00050224576619201165 -0.00065388287167208211 0 -0.00017481324989759186 -0.00024481959290711199 0 -0.0002324672865830101 -0.0003607978087963779 0 -0.00028740459939839035 -0.00039247086235926057 0 -5.0358080334911588e-06 -0.0026599250090360575 0 -9.9865118909551591e-05 -0.0027142894467473994 0 -7.3396569792235394e-05 -0.0025484231873876065 0 -0.00068338560770311656 -0.0015445185732482008 0 -0.00069993060980502546 -0.0014063170114825372 0 -0.00061353495952329708 -0.0014253045751842169 0 0.00068424191429713717 -0.0015597666156990822 0 0.00072191891086635575 -0.0017112707601614431 0 0.00062888117152584883 -0.0016529695578097669 0 2.8843684262546591e-06 -0.00038035635420629688 0 4.38343310699294e-05 -0.00033877533501864334 0 4.0637106556764915e-05 -0.00047067008138757774 0 3.1816255842667054e-05 -0.0021619450301831548 0 -4.6928542625593101e-05 -0.0020485666438537584 0 2.4959347141667997e-05 -0.0019629168987009104 0 -0.00040569911351600658 -0.001552154983753563 0 -0.00033593491088602332 -0.0014194396410853038 0 -0.00029265797510472498 -0.0015265171565898891 0 0.00021988299307733799 -0.0026430441920590997 0 0.00029821363068669105 -0.0026850853336173358 0 0.0002665040083295104 -0.0027950961597531677 0 -0.00068872896013506639 -0.0018897225140340329 0 -0.00071356312883289006 -0.0020152702712592867 0 -0.0007728431943416522 -0.0019746772803088427 0 0.00063663120752819474 -0.0012105165754562823 0 0.00063705779743803087 -0.0010955706652363887 0 0.00070519202038385649 -0.0011646002576300722 0 -0.00010656793814516264 -0.00039948530988179708 0 -0.00013775949912239529 -0.00036974865307850711 0 -0.00010009717721033203 -0.00028263080822515414 0 0.0004064093250903477 -0.0014499204015421215 0 0.00029706461248914836 -0.0015010768979546419 0 0.00032864909331376077 -0.0013767439065762879 0 0.00015445085693326676 -0.0016278634466478795 0 6.4734989348742803e-05 -0.001658827490873653 0 0.00011183655591797877 -0.0015079789121728079 0 6.7263927019695632e-06 -0.0014778748653566035 0 1.4948980739195305e-05 -0.0013034017146133726 0 9.6594951005711711e-05 -0.0013592021965331833 0 0.00017703851148949219 -0.0027659660842431874 0 0.00021988299307733797 -0.0026430441920590997 0 0.0002665040083295104 -0.0027950961597531677 0 -0.00075446159359149703 -0.0018348056502286649 0 -0.00068872896013506639 -0.0018897225140340329 0 -0.0007728431943416522 -0.0019746772803088427 0 0.00071263036378588652 -0.0012963402293001535 0 0.00063663120752819474 -0.0012105165754562823 0 0.00070519202038385649 -0.0011646002576300722 0 -7.0322479239235761e-05 -0.00030135677593506123 0 -0.00010656793814516264 -0.00039948530988179708 0 -0.00010009717721033203 -0.00028263080822515414 0 -0.00029468124270922921 -0.0017194829598414379 0 -0.00029265797510472498 -0.0015265171565898891 0 -0.00020898370964421876 -0.0016011026403997739 0 -0.00014854002489963483 -0.0025970844052686172 0 -7.3396569792235394e-05 -0.0025484231873876065 0 -9.9865118909551591e-05 -0.0027142894467473994 0 -0.00062757601693743162 -0.0013149772587281398 0 -0.00061353495952329708 -0.0014253045751842169 0 -0.00069993060980502546 -0.0014063170114825372 0 0.00066043794485957398 -0.0017744461513061372 0 0.00062888117152584883 -0.0016529695578097669 0 0.00072191891086635575 -0.0017112707601614431 0 7.7000037389134325e-05 -0.00043259939972928243 0 4.0637106556764915e-05 -0.00047067008138757774 0 4.38343310699294e-05 -0.00033877533501864334 0 0.00063236309424614121 -0.00079583195553160815 0 0.0005744594957263992 -0.00066485217864539802 0 0.00068339441224448522 -0.00076751915122952438 0 0.00055280884753814374 -0.00057306768223096868 0 0.00068339441224448522 -0.00076751915122952438 0 0.0005744594957263992 -0.00066485217864539802 0 -0.00017481324989759186 -0.00024481959290711199 0 -0.00020832767710716305 -0.00025421217559029417 0 -0.00010700212283694696 -0.00012380304285207578 0 -0.00019054040160673263 -0.00019673957741619369 0 -0.00010700212283694696 -0.00012380304285207578 0 -0.00020832767710716305 -0.00025421217559029417 0 6.7263927019695632e-06 -0.0014778748653566035 0 9.6594951005711711e-05 -0.0013592021965331833 0 0.00011183655591797877 -0.0015079789121728079 0 -0.00038756824329673505 -0.00045789865916468365 0 -0.00049105854276614729 -0.00055253388813623515 0 -0.00041294520618801085 -0.00042124514417714515 0 0.00039035221204698648 -0.00046163253895955235 0 0.00027788546686788958 -0.00032177742751347902 0 0.00031975641171946449 -0.00032781587137894271 0 0.00050910695477014082 -0.0029063584142510986 0 0.00050884881421717936 -0.0027493559507256373 0 0.00058613499765497652 -0.0028363654093936448 0 0.00059234370072900331 -0.0026668419961862247 0 0.00058613499765497652 -0.0028363654093936448 0 0.00050884881421717936 -0.0027493559507256373 0 -0.00083420828687909971 -0.0023629733750226835 0 -0.00074838327666172113 -0.0023553120010064701 0 -0.00079509060211241454 -0.0024858925160020045 0 -0.00070006122222566569 -0.0024892224239330108 0 -0.00079509060211241454 -0.0024858925160020045 0 -0.00074838327666172113 -0.0023553120010064701 0 0.00019828753032550826 -0.00020025177875431497 0 0.00019725321851081021 -0.00024186741365573146 0 0.00010866707765403463 -0.00012588403310124848 0 -0.00054460067422814902 -0.00056104901289831543 0 -0.0005881006000051927 -0.00068035222017250605 0 -0.00068639024412460046 -0.00077512163969242569 0 0.00085164701007846191 -0.0026136707983838749 0 0.00082507426141543235 -0.0024825150679288594 0 0.00089832514720671833 -0.0024507211985381272 0 -0.00066087309327042803 -0.0029412268325074544 0 -0.00058302140267633474 -0.0028919052835306969 0 -0.00056092277462769092 -0.0030267544883851292 0 0.00018010501314523253 -0.00025918466080801202 0 0.00010866707765403463 -0.00012588403310124848 0 0.00019725321851081021 -0.00024186741365573146 0 -0.0006290181067589905 -0.00080888928438638285 0 -0.00068639024412460046 -0.00077512163969242569 0 -0.0005881006000051927 -0.00068035222017250605 0 0.00079845439950295837 -0.0023439324001612882 0 0.00089832514720671833 -0.0024507211985381272 0 0.00082507426141543235 -0.0024825150679288594 0 -0.00049951010209467147 -0.00284001566824436 0 -0.00056092277462769092 -0.0030267544883851292 0 -0.00058302140267633474 -0.0028919052835306969 0 0.00050623537045489794 -0.0022208461959500533 0 0.00044889400269043021 -0.0023631934178535126 0 0.00042958369436529832 -0.00220158084822416 0 0.00052538829543806117 -0.0023410014332048874 0 0.00044889400269043021 -0.0023631934178535131 0 0.00050623537045489794 -0.0022208461959500533 0 -0.00044045353174896766 -0.0023269998473048055 0 -0.00052810005734349073 -0.0022367706437038779 0 -0.00043203613563285776 -0.0021980527484587553 0 -0.00051162307438417363 -0.0023632513592260146 0 -0.00052810005734349073 -0.0022367706437038779 0 -0.00044045353174896766 -0.0023269998473048055 0 0.00031689313577195184 -0.00070090986708951889 0 0.00041116134319210961 -0.00080664180595979411 0 0.00033801769821546057 -0.00082052982737500246 0 0.00036457287168515409 -0.00068189223199698707 0 0.00041116134319210961 -0.00080664180595979411 0 0.00031689313577195184 -0.00070090986708951889 0 -0.00039646829842123193 -0.00081714998479908449 0 -0.00031441625141208509 -0.0006676298436667017 0 -0.00033485717890707908 -0.00081699759649408131 0 -0.00038215180402425658 -0.00070745988500786291 0 -0.00031441625141208509 -0.0006676298436667017 0 -0.00039646829842123193 -0.00081714998479908449 0 0.00079845439950295837 -0.0023439324001612882 0 0.00073484840183773179 -0.0021964700331025583 0 0.00081756338621589606 -0.002200966447312035 0 -0.00049951010209467147 -0.00284001566824436 0 -0.00041142981421942755 -0.0027231780514633259 0 -0.00040837228151470862 -0.002875139964453724 0 0.00018010501314523253 -0.00025918466080801202 0 0.00018356813423831122 -0.00034691687372036137 0 0.00013277755436521391 -0.00022854512693550852 0 -0.0006290181067589905 -0.00080888928438638285 0 -0.00061405763371476707 -0.00092397866179079035 0 -0.00069449282652870757 -0.00096222767971319379 0 0.00018276021334506757 -0.001415386048314312 0 9.6594951005711711e-05 -0.0013592021965331833 0 0.00018454978473088788 -0.0012726336715211217 0 0.00027577245839292548 -0.0012575762888707054 0 0.00038469669700576557 -0.0012638724086954131 0 0.00032864909331376077 -0.0013767439065762879 0 0.0004064093250903477 -0.0014499204015421215 0 0.00032864909331376077 -0.0013767439065762879 0 0.00038469669700576557 -0.0012638724086954131 0 0.00068290121180371592 -0.0026424888408533697 0 0.00065143391850646683 -0.0027710351151992323 0 0.00059234370072900331 -0.0026668419961862247 0 -0.00068315430065822363 -0.0026424156796191517 0 -0.00075750767888133118 -0.0025925022706295448 0 -0.00070006122222566569 -0.0024892224239330108 0 0.00050224576619201165 -0.00065388287167208211 0 0.00049010587899984731 -0.00055233308152051507 0 0.0005744594957263992 -0.00066485217864539802 0 -0.00028740459939839035 -0.00039247086235926057 0 -0.00027887399731798174 -0.00032380469081166359 0 -0.00020832767710716305 -0.00025421217559029417 0 0.00032009688057393649 -0.00027277498246654203 0 0.00025382513184292043 -0.00023318258464062407 0 0.000154054179186437 -0.00013604724269030474 0 -0.00032339143429573216 -0.00027691676927617021 0 -0.00044273349640230544 -0.00042123529737850111 0 -0.00048912629585141768 -0.00044944055945631266 0 0.00071332566915399643 -0.0020152982402203844 0 0.00079580472255795292 -0.0019674617442589849 0 0.00078583753703392282 -0.0020994545776873799 0 0.00013775450597848499 -0.00037057620719311662 0 8.8588035863890199e-05 -0.00024984355840155067 0 0.00012692575300934656 -0.00026972527314966848 0 -0.00029843825504178938 -0.002685120673562249 0 -0.00025987298949063545 -0.0028383025160559497 0 -0.00034598099732593475 -0.0028170311906721805 0 -0.0006373364829948266 -0.0010950212299443358 0 -0.00072980180611124078 -0.0011830491034054878 0 -0.00068970043802065936 -0.001046450522321332 0 0.00019828753032550826 -0.00020025177875431497 0 0.00031975641171946449 -0.00032781587137894271 0 0.00027788546686788958 -0.00032177742751347902 0 -0.00054460067422814902 -0.00056104901289831543 0 -0.00041294520618801085 -0.00042124514417714515 0 -0.00049105854276614729 -0.00055253388813623515 0 0.00052432289612484645 -0.0032156595264905513 0 0.00042249284883521122 -0.0032155433572026758 0 0.0004595475036309304 -0.003049860841584501 0 -0.00099654222354932077 -0.0023962069356757692 0 -0.00099431194633604067 -0.0022362165661192327 0 -0.00091040473768112492 -0.0022898100191072199 0 0.00079708967289131988 -0.00089421984421011438 0 0.00085243046619769551 -0.0010360285275909716 0 0.00075487721487007447 -0.0009318140296577398 0 -1.7572517047210231e-08 -1.0966943874263115e-07 0 -1.1604915368477826e-08 -1.1376071714673606e-07 0 -7.7920121303495812e-05 -0.0001098967234949147 0 0.00010709316382123758 -0.003214778312975705 0 3.2172683517044942e-05 -0.0030853822832492281 0 0.00011344577154217959 -0.0030356305248470422 0 -0.00097835739451929615 -0.0017670132115477073 0 -0.00090825507897259079 -0.0016492510698179518 0 -0.00089028139596871586 -0.0017636834979327016 0 0.00095006749410435603 -0.0014667486907414345 0 0.00090019054469084943 -0.0015568806096497823 0 0.00086213737829326023 -0.0014337685804049819 0 -3.8226158121935832e-09 -1.1013243580875946e-07 0 -3.4058266627970394e-06 -7.702137227197115e-05 0 -1.8211426760294758e-05 -0.00011188789440237337 0 -2.4183087129017369e-06 -0.0010325113250284439 0 2.566367537453279e-05 -0.00090657954147899556 0 8.7676123034445796e-05 -0.0010588719975807724 0 0.00085164701007846191 -0.0026136707983838749 0 0.00079805108230663539 -0.0027268145761452536 0 0.0007739557873831114 -0.0025843401201197463 0 -0.00066087309327042803 -0.0029412268325074544 0 -0.00072866808872070268 -0.0028462154550307787 0 -0.00064627393746460914 -0.002800766680512681 0 6.7263927019695632e-06 -0.0014778748653566035 0 0.00011183655591797877 -0.0015079789121728079 0 6.4734989348742803e-05 -0.001658827490873653 0 0.00078709468803220706 -0.0012418515628812934 0 0.00086343108525365343 -0.001315815048900223 0 0.00078979842761432305 -0.0013636262911320689 0 0.00086213737829326023 -0.0014337685804049819 0 0.00078979842761432305 -0.0013636262911320689 0 0.00086343108525365343 -0.001315815048900223 0 0.00072004595481563736 -0.0032141635238221392 0 0.00067639823741325945 -0.0030678013313884846 0 0.00075356913009808676 -0.0030393402419845563 0 -0.00099771938257567838 -0.0027196292105771446 0 -0.00092001967910131403 -0.0026430343390044801 0 -0.000904142831152802 -0.002774107742386804 0 -0.00066087309327042803 -0.0029412268325074544 0 -0.00066257820406416187 -0.0030832316434587885 0 -0.00074395802487254529 -0.0030174373258946884 0 0.00085164701007846191 -0.0026136707983838749 0 0.00092798514283679956 -0.0026197957350057783 0 0.00089232534674216657 -0.0027566944598982862 0 -0.00054460067422814902 -0.00056104901289831543 0 -0.00062297158015795742 -0.00062719095911214367 0 -0.00048912629585141768 -0.00044944055945631266 0 0.00019828753032550826 -0.00020025177875431497 0 9.1974242792160614e-05 -8.9362854007407925e-05 0 0.000154054179186437 -0.00013604724269030474 0 -0.00072029133172214798 -0.003214183706284757 0 -0.00074395802487254529 -0.0030174373258946884 0 -0.00066257820406416187 -0.0030832316434587885 0 0.00099755481655644062 -0.0027197305362089475 0 0.00089232534674216657 -0.0027566944598982862 0 0.00092798514283679956 -0.0026197957350057783 0 -0.00062734321168329376 -0.00060619676018163653 0 -0.00048912629585141768 -0.00044944055945631272 0 -0.00062297158015795742 -0.00062719095911214367 0 2.2344156226732653e-08 -1.0362178448582862e-07 0 0.000154054179186437 -0.00013604724269030474 0 9.1974242792160614e-05 -8.9362854007407925e-05 0 0.00062852889646873252 -0.000605411157335774 0 0.00062434746038633098 -0.00062988237071146729 0 0.00049367167620687055 -0.00045733515069791016 0 -2.2179116860581878e-08 -1.0237333503078207e-07 0 -9.2681709882773349e-05 -8.9627287635000508e-05 0 -0.0001641073144139209 -0.00014576159811817489 0 0.00055280884753814374 -0.00057306768223096868 0 0.00049367167620687055 -0.00045733515069791016 0 0.00062434746038633098 -0.00062988237071146729 0 -0.00019054040160673263 -0.00019673957741619369 0 -0.0001641073144139209 -0.00014576159811817489 0 -9.2681709882773349e-05 -8.9627287635000508e-05 0 -0.00019903616243241565 -0.0018827621579460177 0 -0.00010544447922754807 -0.0017696784891424791 0 -9.5911468327485608e-05 -0.0019194622865194313 0 6.7263927019695632e-06 -0.0014778748653566035 0 6.4734989348742803e-05 -0.001658827490873653 0 -4.2654476441722617e-05 -0.00164370555430689 0 -0.00032915885794608226 -0.0012921136312918119 0 -0.00036915425589404728 -0.0011371624592569273 0 -0.0002787922614194818 -0.0011573964288528141 0 -0.00027653393773035146 -0.0010051529905030511 0 -0.0002787922614194818 -0.0011573964288528141 0 -0.00036915425589404728 -0.0011371624592569273 0 -0.00020574583429734894 -0.0012043299656148518 0 -0.00020158934378823316 -0.0010740537514711374 0 -0.00013566950906161273 -0.0011558911114636886 0 0.00010264784332854034 -0.00091273669007676996 0 8.7676123034445796e-05 -0.0010588719975807724 0 2.566367537453279e-05 -0.00090657954147899556 0 0.00071332566915399643 -0.0020152982402203844 0 0.00078583753703392282 -0.0020994545776873799 0 0.00073484840183773179 -0.0021964700331025583 0 0.00013775450597848499 -0.00037057620719311662 0 0.00012692575300934656 -0.00026972527314966848 0 0.00018356813423831122 -0.00034691687372036137 0 -0.00029843825504178938 -0.002685120673562249 0 -0.00034598099732593475 -0.0028170311906721805 0 -0.00041142981421942761 -0.0027231780514633259 0 -0.0006373364829948266 -0.0010950212299443358 0 -0.00068970043802065936 -0.001046450522321332 0 -0.00061405763371476707 -0.00092397866179079024 0 -0.00018421829045128424 -0.0014480593060212934 0 -0.00020898370964421876 -0.0016011026403997739 0 -0.00029265797510472498 -0.0015265171565898891 0 -0.00014854002489963483 -0.0025970844052686172 0 -0.00024215513163158543 -0.0025343413388128982 0 -0.00014402207598103776 -0.0024538065935741918 0 0.00066043794485957398 -0.0017744461513061372 0 0.00062836372509950317 -0.0019152472823885788 0 0.00057982093685375233 -0.0017540254031004057 0 -0.00062757601693743162 -0.0013149772587281398 0 -0.00057304024316192509 -0.001159221581606691 0 -0.00054967012671837585 -0.0013031109651255885 0 7.7000037389134325e-05 -0.00043259939972928243 0 0.00013828645394286046 -0.00049073097100479175 0 8.8361989986032174e-05 -0.00055180413424850687 0 0.00075356913009808676 -0.0030393402419845563 0 0.00067639823741325955 -0.0030678013313884846 0 0.00072921935925325239 -0.0029239023807818652 0 -0.000904142831152802 -0.002774107742386804 0 -0.00092001967910131403 -0.0026430343390044801 0 -0.0008413311731758999 -0.0027300758461963155 0 0.00065842725058274146 -0.0029236658540877872 0 0.00072921935925325239 -0.0029239023807818652 0 0.00067639823741325955 -0.0030678013313884846 0 -0.0008423980289202598 -0.0026094116565378066 0 -0.0008413311731758999 -0.0027300758461963155 0 -0.00092001967910131403 -0.0026430343390044801 0 0.00058696443506687623 -0.0022500926326847921 0 0.00068763447378108772 -0.0023038784328722724 0 0.00060037553636689545 -0.0023948044990202899 0 -0.0004537497406685613 -0.0024646009896060225 0 -0.00048081494199855125 -0.0026409269020489273 0 -0.0005406684324611434 -0.0024919385790290564 0 0.00029153137352316383 -0.00057650871935891802 0 0.00025204913458752023 -0.00042434354301981177 0 0.00034550203249330983 -0.00056293015857587574 0 -0.00046035840182416076 -0.00081259959874551444 0 -0.00053721016330392246 -0.00079528552243412131 0 -0.00042922309100151807 -0.00067155290747021373 0 9.5769414520169218e-05 -0.0012105104564188729 0 1.4948980739195305e-05 -0.0013034017146133726 0 9.323537678244066e-06 -0.0011548683380078681 0 9.5769414520169218e-05 -0.0012105104564188729 0 0.00018454978473088788 -0.0012726336715211217 0 9.6594951005711711e-05 -0.0013592021965331833 0 0.00065842725058274146 -0.0029236658540877872 0 0.00065143391850646683 -0.0027710351151992323 0 0.00072624188212786682 -0.0028041614698544547 0 -0.0008423980289202598 -0.0026094116565378066 0 -0.00075750767888133118 -0.0025925022706295448 0 -0.00077477764164428657 -0.002721384671316821 0 0.00070456929990987834 -0.0024503899463311999 0 0.00061520644804714396 -0.0025296195407936871 0 0.00060037553636689545 -0.0023948044990202899 0 -0.00056892698682007865 -0.0026741952933657578 0 -0.00061975065344283258 -0.0025226656026628054 0 -0.0005406684324611434 -0.0024919385790290564 0 0.00029324291518895357 -0.00040610677541377355 0 0.00040097701092052171 -0.00056290430782980269 0 0.00034550203249330983 -0.00056293015857587574 0 -0.00049824386969229983 -0.00065579237738712251 0 -0.00038281571133970621 -0.00054042789726421281 0 -0.00042922309100151807 -0.00067155290747021373 0 0.00042018801192048012 -0.001748145913302353 0 0.00032721113575237976 -0.0018174185331378539 0 0.00034585273986829207 -0.0016869394457465609 0 0.00040678064038178523 -0.0018852316664506627 0 0.00032721113575237976 -0.0018174185331378539 0 0.00042018801192048012 -0.001748145913302353 0 0.00011751771623678607 -0.00079948739030288906 0 0.00017122159387473259 -0.00095693615467634067 0 0.00010264784332854034 -0.00091273669007676996 0 0.00018705506820665725 -0.00083179745122073472 0 0.00017122159387473259 -0.00095693615467634067 0 0.00011751771623678607 -0.00079948739030288906 0 0.00011344577154217959 -0.0030356305248470422 0 0.00014714546367123029 -0.0029099428562390276 0 0.00019892836744257595 -0.0030730072686596362 0 0.00023358179513240592 -0.0029339232382782367 0 0.00019892836744257595 -0.0030730072686596362 0 0.00014714546367123029 -0.0029099428562390276 0 -0.00089028139596871586 -0.0017636834979327016 0 -0.00082875525834623398 -0.0018025936905278002 0 -0.00091513096165927066 -0.001892768716239091 0 -0.00084562718488752917 -0.0019346986260445798 0 -0.00091513096165927066 -0.001892768716239091 0 -0.00082875525834623398 -0.0018025936905278002 0 -1.8211426760294758e-05 -0.00011188789440237337 0 -4.0161277344641397e-05 -0.00019635649821180269 0 -2.7123084959898133e-05 -8.6095319561179217e-05 0 -5.9401068882718942e-05 -0.00017921118029410945 0 -2.7123084959898137e-05 -8.6095319561179217e-05 0 -4.0161277344641397e-05 -0.00019635649821180269 0 0.00014024961297405599 -0.0019530860038042502 0 8.6947578187035853e-05 -0.0020643980881914969 0 2.4959347141667997e-05 -0.0019629168987009104 0 -0.00029468124270922921 -0.0017194829598414379 0 -0.00035105258029433139 -0.0016338501819361106 0 -0.00029265797510472498 -0.0015265171565898891 0 3.1816255842667054e-05 -0.0021619450301831548 0 2.4959347141667997e-05 -0.0019629168987009104 0 8.6947578187035853e-05 -0.0020643980881914969 0 -0.00040569911351600658 -0.001552154983753563 0 -0.00029265797510472498 -0.0015265171565898891 0 -0.00035105258029433139 -0.0016338501819361106 0 0.0008176281251593456 -0.0028885849897320954 0 0.00075356913009808676 -0.0030393402419845563 0 0.00072921935925325239 -0.0029239023807818652 0 -0.00082075291589595023 -0.0028832710744386282 0 -0.000904142831152802 -0.002774107742386804 0 -0.0008413311731758999 -0.0027300758461963155 0 0.00019828753032550826 -0.00020025177875431497 0 0.000154054179186437 -0.00013604724269030474 0 0.00025382513184292043 -0.00023318258464062407 0 -0.00054460067422814902 -0.00056104901289831543 0 -0.00048912629585141768 -0.00044944055945631266 0 -0.00044273349640230544 -0.00042123529737850111 0 0.00037663483943513098 -0.0029793015717676911 0 0.00043317145462831383 -0.0028774089139049991 0 0.0004595475036309304 -0.003049860841584501 0 -0.00087282193853052833 -0.0021570307578946302 0 -0.0008191857205536011 -0.0022404395662102084 0 -0.00091040473768112492 -0.0022898100191072199 0 0.00076154124936007449 -0.0010362049122419302 0 0.00067986643148378663 -0.00092080600707481288 0 0.00075487721487007447 -0.0009318140296577398 0 -8.4453883998980027e-05 -0.00015116206429810521 0 -0.0001422582295212762 -0.00023333301840430402 0 -7.7920121303495812e-05 -0.0001098967234949147 0 0.00021063624936171416 -0.0023285237902945441 0 0.00016266439532850425 -0.0024445088662237973 0 9.5924330442006086e-05 -0.0023375213631342145 0 -0.00050991796399785206 -0.0018498207718923771 0 -0.00057521040104195002 -0.0017829415317847481 0 -0.00051107369928656053 -0.0016680235185787522 0 0.00046738298272760428 -0.0011826692087943329 0 0.00054057272950613564 -0.0012721008465806354 0 0.00049263444395588197 -0.0013650705182267084 0 -0.00014699295719883807 -0.00066830902351899108 0 -0.00010078371892777468 -0.00056291928662814672 0 -6.5498547721276593e-05 -0.00065226159509171127 0 0.00014024961297405599 -0.0019530860038042502 0 7.521640071965633e-05 -0.0018274870096020716 0 0.00015834471157439493 -0.0017712990069251601 0 0.00021063624936171416 -0.0023285237902945441 0 0.00015127367259198618 -0.0021626888302587579 0 0.0002320214601205318 -0.0021944908495859314 0 -0.00050991796399785206 -0.0018498207718923771 0 -0.0004096521025296917 -0.0017382699940627208 0 -0.00043161343222968695 -0.0018752193111615397 0 0.00046738298272760428 -0.0011826692087943329 0 0.00038469669700576557 -0.0012638724086954131 0 0.00038879803373330688 -0.0011344918812416626 0 -0.00014699295719883807 -0.00066830902351899108 0 -0.00011531913518897221 -0.00081594920784423992 0 -0.0001765401700702275 -0.00079231994078069043 0 -9.0657237080196883e-08 -0.0024523242678037138 0 9.5924330442006086e-05 -0.0023375213631342145 0 8.0981712050408154e-05 -0.0025249023181649569 0 -0.00056877295725672955 -0.0015283302991007607 0 -0.00051107369928656053 -0.0016680235185787522 0 -0.00061636566902938106 -0.0016624255095772117 0 0.00056850933558906514 -0.0015283864198526226 0 0.00049263444395588197 -0.0013650705182267084 0 0.00059911101151084853 -0.0014102781404986193 0 -1.2352838527012425e-07 -0.00055183502285878277 0 -6.5498547721276593e-05 -0.00065226159509171127 0 -4.5476723570342446e-05 -0.00049152570895153683 0 3.1816255842667054e-05 -0.0021619450301831548 0 8.6947578187035853e-05 -0.0020643980881914969 0 0.00015127367259198618 -0.0021626888302587583 0 -0.00040569911351600658 -0.001552154983753563 0 -0.00035105258029433139 -0.0016338501819361106 0 -0.0004096521025296917 -0.0017382699940627208 0 0.00014024961297405599 -0.0019530860038042502 0 0.00015127367259198618 -0.0021626888302587583 0 8.6947578187035853e-05 -0.0020643980881914969 0 -0.00029468124270922921 -0.0017194829598414379 0 -0.0004096521025296917 -0.0017382699940627208 0 -0.00035105258029433139 -0.0016338501819361106 0 0.00023358179513240592 -0.0029339232382782367 0 0.00017703851148949219 -0.002765966084243187 0 0.0002665040083295104 -0.0027950961597531677 0 -0.00084562718488752917 -0.0019346986260445798 0 -0.00075446159359149703 -0.0018348056502286649 0 -0.0007728431943416522 -0.0019746772803088427 0 0.00078709468803220706 -0.0012418515628812934 0 0.00071263036378588641 -0.0012963402293001535 0 0.00070519202038385649 -0.0011646002576300722 0 -5.9401068882718942e-05 -0.00017921118029410945 0 -7.0322479239235761e-05 -0.00030135677593506123 0 -0.00010009717721033203 -0.00028263080822515414 0 5.8907052547026934e-06 -0.00013868199826066243 0 5.7075933927441828e-06 -6.0243581050156936e-05 0 1.8551582786359535e-05 -9.1124021854544992e-05 0 -0.00085372122392197785 -0.0015505068625197656 0 -0.00091007294188759184 -0.0015291071476638812 0 -0.00087425438616566301 -0.0014159432445524482 0 0.00086011346302372106 -0.0016341818465435232 0 0.00092327816904976662 -0.0016830176072469107 0 0.00090556581555187787 -0.0017877894143606089 0 -2.8698891089827271e-05 -0.0029898601873276525 0 -5.3701842601071638e-05 -0.0031126316768955993 0 -0.00012841271606026599 -0.0030639085431069303 0 0.00014504427675140515 -0.0025845014507356158 0 8.6791968239498265e-05 -0.0026719385206082275 0 8.0981712050408154e-05 -0.0025249023181649569 0 -0.00065337582380340796 -0.0017679972494249858 0 -0.00069769418576957573 -0.0016868994880341161 0 -0.00061636566902938106 -0.0016624255095772117 0 0.000621096735882595 -0.0013183348091865303 0 0.00067834925208843831 -0.001420503691013879 0 0.00059911101151084853 -0.0014102781404986193 0 -7.6167247127356669e-05 -0.00044405324446097753 0 -3.9388692612519336e-05 -0.00037350534918705221 0 -4.5476723570342446e-05 -0.00049152570895153683 0 6.7263927019695632e-06 -0.0014778748653566035 0 -4.2654476441722617e-05 -0.00164370555430689 0 -9.7727058653340155e-05 -0.0015273744211002659 0 0.00050647645126941415 -0.0025232056470778541 0 0.0004222967573088362 -0.0025221307027327479 0 0.00044889400269043021 -0.0023631934178535131 0 -0.00062014472057930314 -0.0023397094092469277 0 -0.00062091646697948373 -0.0022023983086261966 0 -0.00052810005734349073 -0.0022367706437038779 0 0.00046282536880870139 -0.00073494503951557666 0 0.00050424523629155236 -0.00087046086678029444 0 0.00041116134319210961 -0.00080664180595979411 0 -0.00030996389412819516 -0.00053099993116916238 0 -0.00025354532988853499 -0.00052185787738181577 0 -0.00031441625141208509 -0.0006676298436667017 0 -0.00014854002489963483 -0.0025970844052686172 0 -0.00020401349657848993 -0.0027012805416997683 0 -0.00024215513163158543 -0.0025343413388128982 0 -0.00029843825504178938 -0.002685120673562249 0 -0.00024215513163158543 -0.0025343413388128982 0 -0.00020401349657848993 -0.0027012805416997683 0 -0.00062757601693743162 -0.0013149772587281398 0 -0.00067224662768280107 -0.0012445256307213617 0 -0.00057304024316192509 -0.001159221581606691 0 0.00066043794485957398 -0.0017744461513061372 0 0.00072007468499227158 -0.0018697080844924292 0 0.00062836372509950317 -0.0019152472823885788 0 0.00071332566915399643 -0.0020152982402203844 0 0.00062836372509950317 -0.0019152472823885788 0 0.00072007468499227158 -0.0018697080844924292 0 -0.0006373364829948266 -0.0010950212299443358 0 -0.00057304024316192509 -0.001159221581606691 0 -0.00067224662768280107 -0.0012445256307213617 0 7.7000037389134325e-05 -0.00043259939972928243 0 8.9547398335991906e-05 -0.0003519639030153133 0 0.00013828645394286046 -0.00049073097100479175 0 0.00013775450597848499 -0.00037057620719311662 0 0.00013828645394286046 -0.00049073097100479175 0 8.9547398335991919e-05 -0.0003519639030153133 0 0.00032303078914037493 -0.001982927482194227 0 0.00032721113575237976 -0.0018174185331378539 0 0.00040678064038178523 -0.0018852316664506627 0 0.00025600623503562478 -0.0009711094881310492 0 0.00017122159387473259 -0.00095693615467634067 0 0.00018705506820665725 -0.00083179745122073472 0 -0.00029961673895900244 -0.002013050353447501 0 -0.00020184658809375752 -0.0020238064493535639 0 -0.0002432018996767097 -0.0021530418972778281 0 0.0008176281251593456 -0.0028885849897320954 0 0.00072624188212786671 -0.0028041614698544543 0 0.00079805108230663539 -0.0027268145761452536 0 -0.00082075291589595023 -0.0028832710744386282 0 -0.00077477764164428657 -0.0027213846713168206 0 -0.00072866808872070268 -0.0028462154550307787 0 0.00032009688057393649 -0.00027277498246654203 0 0.00043087797901650266 -0.00042995960170153641 0 0.00031975641171946449 -0.00032781587137894271 0 -0.00032339143429573216 -0.00027691676927617021 0 -0.00029709041025705838 -0.00029600317221335494 0 -0.00041294520618801085 -0.00042124514417714515 0 -0.00029265797510472498 -0.0015265171565898891 0 -0.00033593491088602332 -0.0014194396410853038 0 -0.00024709336227986403 -0.0013407088376974378 0 0.00086384262561825292 -0.0020922917719327656 0 0.0009010231923395071 -0.0022704520521878374 0 0.00081756338621589606 -0.002200966447312035 0 8.0045418641159198e-05 -0.00016096280730489826 0 8.1011607633601612e-05 -0.00011641743572160625 0 0.00013277755436521391 -0.00022854512693550852 0 -0.00033561206567833294 -0.0029637135532153179 0 -0.00044812542095245351 -0.0030327068610938881 0 -0.00040837228151470862 -0.002875139964453724 0 -0.00076998969475070792 -0.0010944058066256986 0 -0.00075554991335803851 -0.00094427772835349621 0 -0.00069449282652870757 -0.00096222767971319379 0 -0.00013526521476884241 -0.0016563292757306555 0 -9.7727058653340141e-05 -0.0015273744211002659 0 -4.2654476441722617e-05 -0.00164370555430689 0 -0.00032915885794608226 -0.0012921136312918119 0 -0.00039949113661961214 -0.0012636097137307322 0 -0.00036915425589404728 -0.0011371624592569273 0 0.00099399519427053446 -0.0022360869393780202 0 0.0009010231923395071 -0.0022704520521878374 0 0.00093719853242976053 -0.0021411609853960946 0 1.1578193742943278e-08 -1.15362021513969e-07 0 8.1011607633601612e-05 -0.00011641743572160626 0 3.9961020690528757e-05 -6.6825517198469624e-05 0 -0.00042269235675629195 -0.0032155075946289045 0 -0.00044812542095245351 -0.0030327068610938881 0 -0.00036317291558048159 -0.0031049917682210632 0 -0.00085190486766823653 -0.0010363725344059241 0 -0.00075554991335803851 -0.00094427772835349632 0 -0.00082804690551078976 -0.001088171394037164 0 0.00014504427675140515 -0.0025845014507356158 0 0.00016266439532850425 -0.0024445088662237973 0 0.00025479986479374773 -0.0025083190361854814 0 0.00021063624936171416 -0.0023285237902945441 0 0.00025479986479374773 -0.0025083190361854814 0 0.00016266439532850425 -0.0024445088662237973 0 -0.00050991796399785206 -0.0018498207718923771 0 -0.00061428755139525913 -0.0019333566727648679 0 -0.00057521040104195002 -0.0017829415317847481 0 -0.00065337582380340796 -0.0017679972494249858 0 -0.00057521040104195002 -0.0017829415317847481 0 -0.00061428755139525913 -0.0019333566727648679 0 0.00046738298272760428 -0.0011826692087943329 0 0.00055549013882693005 -0.001135243585237109 0 0.00054057272950613564 -0.0012721008465806354 0 0.000621096735882595 -0.0013183348091865303 0 0.00054057272950613564 -0.0012721008465806354 0 0.00055549013882693005 -0.001135243585237109 0 -0.00014699295719883807 -0.00066830902351899108 0 -0.00015044005827750823 -0.0005130275648192029 0 -0.00010078371892777468 -0.00056291928662814672 0 -7.6167247127356669e-05 -0.00044405324446097753 0 -0.00010078371892777468 -0.00056291928662814672 0 -0.00015044005827750823 -0.0005130275648192029 0 0.00029821363068669105 -0.0026850853336173358 0 0.00021988299307733799 -0.0026430441920590997 0 0.00025479986479374773 -0.0025083190361854814 0 -0.00071356312883289006 -0.0020152702712592867 0 -0.00068872896013506639 -0.0018897225140340329 0 -0.00061428755139525913 -0.0019333566727648679 0 0.00063705779743803087 -0.0010955706652363887 0 0.00063663120752819474 -0.0012105165754562823 0 0.00055549013882693005 -0.001135243585237109 0 -0.00013775949912239529 -0.00036974865307850711 0 -0.00010656793814516264 -0.00039948530988179708 0 -0.00015044005827750823 -0.0005130275648192029 0 7.3537518007142861e-05 -0.0028185857405101009 0 0.00017703851148949219 -0.0027659660842431874 0 0.00014714546367123029 -0.0029099428562390276 0 -0.0007758122139585003 -0.0016827830704338445 0 -0.00075446159359149703 -0.0018348056502286649 0 -0.00082875525834623398 -0.0018025936905278002 0 0.00078709468803220706 -0.0012418515628812934 0 0.00078979842761432305 -0.0013636262911320689 0 0.00071263036378588652 -0.0012963402293001535 0 -2.6407848594469968e-05 -0.00026043075780506661 0 -7.0322479239235761e-05 -0.00030135677593506123 0 -4.0161277344641397e-05 -0.00019635649821180269 0 0.00023358179513240592 -0.0029339232382782367 0 0.00014714546367123029 -0.0029099428562390276 0 0.00017703851148949219 -0.0027659660842431874 0 -0.00084562718488752917 -0.0019346986260445798 0 -0.00082875525834623398 -0.0018025936905278002 0 -0.00075446159359149703 -0.0018348056502286649 0 0.00075890730916441267 -0.0014609267845196124 0 0.00071263036378588652 -0.0012963402293001535 0 0.00078979842761432305 -0.0013636262911320689 0 -5.9401068882718942e-05 -0.00017921118029410945 0 -4.0161277344641397e-05 -0.00019635649821180269 0 -7.0322479239235761e-05 -0.00030135677593506123 0 0.00014504427675140515 -0.0025845014507356158 0 0.00021988299307733799 -0.0026430441920590997 0 0.00017703851148949219 -0.0027659660842431874 0 -0.00065337582380340796 -0.0017679972494249858 0 -0.00068872896013506639 -0.0018897225140340329 0 -0.00075446159359149703 -0.0018348056502286649 0 0.000621096735882595 -0.0013183348091865303 0 0.00063663120752819474 -0.0012105165754562823 0 0.00071263036378588652 -0.0012963402293001535 0 -7.6167247127356669e-05 -0.00044405324446097753 0 -0.00010656793814516264 -0.00039948530988179708 0 -7.0322479239235761e-05 -0.00030135677593506123 0 0.00058696443506687623 -0.0022500926326847921 0 0.00060037553636689545 -0.0023948044990202899 0 0.00052538829543806117 -0.0023410014332048874 0 -0.0004537497406685613 -0.0024646009896060225 0 -0.0005406684324611434 -0.0024919385790290564 0 -0.00051162307438417363 -0.0023632513592260146 0 0.00029153137352316383 -0.00057650871935891802 0 0.00034550203249330983 -0.00056293015857587574 0 0.00036457287168515409 -0.00068189223199698707 0 -0.00046035840182416076 -0.00081259959874551444 0 -0.00042922309100151807 -0.00067155290747021373 0 -0.00038215180402425658 -0.00070745988500786291 0 0.00066043794485957398 -0.0017744461513061372 0 0.00057982093685375233 -0.0017540254031004057 0 0.00062888117152584883 -0.0016529695578097669 0 -0.00014854002489963483 -0.0025970844052686172 0 -0.00014402207598103776 -0.0024538065935741918 0 -7.3396569792235394e-05 -0.0025484231873876065 0 7.7000037389134325e-05 -0.00043259939972928243 0 8.8361989986032174e-05 -0.00055180413424850687 0 4.0637106556764915e-05 -0.00047067008138757774 0 -0.00062757601693743162 -0.0013149772587281398 0 -0.00054967012671837585 -0.0013031109651255885 0 -0.00061353495952329708 -0.0014253045751842169 0 0.00086384262561825292 -0.0020922917719327656 0 0.00093719853242976053 -0.0021411609853960946 0 0.0009010231923395071 -0.0022704520521878374 0 8.0045418641159198e-05 -0.00016096280730489826 0 3.9961020690528757e-05 -6.6825517198469624e-05 0 8.1011607633601612e-05 -0.00011641743572160625 0 -0.00033561206567833294 -0.0029637135532153179 0 -0.00036317291558048159 -0.0031049917682210632 0 -0.00044812542095245351 -0.0030327068610938881 0 -0.00076998969475070792 -0.0010944058066256986 0 -0.00082804690551078976 -0.001088171394037164 0 -0.00075554991335803851 -0.00094427772835349632 0 3.1816255842667054e-05 -0.0021619450301831548 0 -7.0246057475704986e-05 -0.0021731491387593513 0 -4.6928542625593101e-05 -0.0020485666438537584 0 -0.00040569911351600658 -0.001552154983753563 0 -0.0004026080591358949 -0.0013892703083642408 0 -0.00033593491088602332 -0.0014194396410853038 0 7.3537518007142861e-05 -0.0028185857405101009 0 5.1803243641694709e-05 -0.0029458615011519946 0 -2.6776587464181324e-05 -0.002836318441377252 0 -0.0007758122139585003 -0.0016827830704338445 0 -0.00084013543298962505 -0.0016642222238485356 0 -0.00077496451169662144 -0.0015337519279907876 0 0.00075890730916441267 -0.0014609267845196124 0 0.00082738412261774421 -0.0015104214880007447 0 0.0007806546796584275 -0.0016141698474779233 0 -2.6407848594469968e-05 -0.00026043075780506661 0 -1.3047620848825708e-05 -0.00016937140629126984 0 9.3109310511962357e-06 -0.00024692990645221738 0 -1.7333771200030185e-05 -0.0017884448485999309 0 -4.2654476441722617e-05 -0.00164370555430689 0 6.4734989348742803e-05 -0.001658827490873653 0 0.00065842725058274146 -0.0029236658540877872 0 0.00058613499765497652 -0.0028363654093936448 0 0.00065143391850646683 -0.0027710351151992323 0 -0.0008423980289202598 -0.0026094116565378066 0 -0.00079509060211241454 -0.0024858925160020045 0 -0.00075750767888133118 -0.0025925022706295448 0 0.0008176281251593456 -0.0028885849897320954 0 0.00072921935925325239 -0.0029239023807818652 0 0.00072624188212786682 -0.0028041614698544547 0 -0.00082075291589595023 -0.0028832710744386282 0 -0.0008413311731758999 -0.0027300758461963155 0 -0.00077477764164428657 -0.002721384671316821 0 0.00019828753032550826 -0.00020025177875431497 0 0.00025382513184292043 -0.00023318258464062407 0 0.00031975641171946449 -0.00032781587137894271 0 -0.00054460067422814902 -0.00056104901289831543 0 -0.00044273349640230539 -0.00042123529737850106 0 -0.00041294520618801085 -0.00042124514417714515 0 0.00014504427675140515 -0.0025845014507356158 0 0.00025479986479374773 -0.0025083190361854814 0 0.00021988299307733799 -0.0026430441920590997 0 -0.00065337582380340796 -0.0017679972494249858 0 -0.00061428755139525913 -0.0019333566727648679 0 -0.00068872896013506639 -0.0018897225140340329 0 0.000621096735882595 -0.0013183348091865303 0 0.00055549013882693005 -0.001135243585237109 0 0.00063663120752819474 -0.0012105165754562823 0 -7.6167247127356669e-05 -0.00044405324446097753 0 -0.00015044005827750823 -0.0005130275648192029 0 -0.00010656793814516264 -0.00039948530988179708 0 0.00055280884753814374 -0.00057306768223096868 0 0.00049010587899984731 -0.00055233308152051507 0 0.00043087797901650266 -0.00042995960170153635 0 -0.00019054040160673263 -0.00019673957741619369 0 -0.00027887399731798174 -0.00032380469081166359 0 -0.00029709041025705843 -0.00029600317221335494 0 6.7263927019695632e-06 -0.0014778748653566035 0 -7.8174167583500327e-05 -0.0013829874321693474 0 1.4948980739195305e-05 -0.0013034017146133726 0 -7.6804703262573344e-05 -0.0012425377601197256 0 1.4948980739195305e-05 -0.0013034017146133726 0 -7.8174167583500327e-05 -0.0013829874321693474 0 0.00042958369436529832 -0.00220158084822416 0 0.00037537373480665966 -0.002278830001363137 0 0.00037607944372320122 -0.0021116718383736269 0 -0.00043203613563285776 -0.0021980527484587553 0 -0.00047866600611225381 -0.0021104359177816262 0 -0.00037724472341713804 -0.0021052575478566096 0 0.00033801769821546057 -0.00082052982737500246 0 0.0003957162099639405 -0.00091421170051782306 0 0.00030856812107062244 -0.00089773804618275882 0 -0.00033485717890707908 -0.00081699759649408131 0 -0.0002756163390441008 -0.00073405891338533199 0 -0.00030533205509080698 -0.00089171943626516908 0 -0.00012174880946422919 -0.00099929336319396346 0 -0.00020158934378823316 -0.0010740537514711374 0 -0.00019055245343882756 -0.00091867816145520752 0 -2.8698891089827271e-05 -0.0029898601873276525 0 -2.6776587464181324e-05 -0.002836318441377252 0 5.1803243641694709e-05 -0.0029458615011519946 0 -0.00085372122392197785 -0.0015505068625197656 0 -0.00077496451169662144 -0.0015337519279907876 0 -0.00084013543298962505 -0.0016642222238485356 0 0.00086011346302372106 -0.0016341818465435232 0 0.0007806546796584275 -0.0016141698474779233 0 0.00082738412261774421 -0.0015104214880007447 0 5.8907052547026934e-06 -0.00013868199826066243 0 9.3109310511962357e-06 -0.00024692990645221738 0 -1.3047620848825708e-05 -0.00016937140629126984 0 -0.00012135410986284029 -0.0020563660876956004 0 -0.00015651754964269971 -0.002177186173955186 0 -0.00020184658809375752 -0.0020238064493535639 0 -0.0002432018996767097 -0.0021530418972778281 0 -0.00020184658809375752 -0.0020238064493535639 0 -0.00015651754964269971 -0.002177186173955186 0 0.00015445085693326676 -0.0016278634466478795 0 0.00011183655591797877 -0.0015079789121728079 0 0.00019924337465960048 -0.0015446416146558523 0 0.00072004595481563736 -0.0032141635238221392 0 0.00062350456886511104 -0.0032151995797603254 0 0.00067639823741325955 -0.0030678013313884846 0 -0.00099771938257567838 -0.0027196292105771446 0 -0.00099736896068638612 -0.002557598445299123 0 -0.00092001967910131403 -0.0026430343390044801 0 0.00062852889646873252 -0.000605411157335774 0 0.00072360777286950638 -0.00075068172275884074 0 0.00062434746038633098 -0.00062988237071146729 0 -2.2179116860581878e-08 -1.0237333503078207e-07 0 -3.2473574245375366e-08 -1.163145329186716e-07 0 -9.2681709882773349e-05 -8.9627287635000508e-05 0 0.00099723885308195068 -0.0025577537078761655 0 0.00099755481655644062 -0.0027197305362089475 0 0.00092798514283679956 -0.0026197957350057783 0 3.1884418460671591e-08 -1.1637077019265996e-07 0 2.2344156226732653e-08 -1.0362178448582862e-07 0 9.1974242792160614e-05 -8.9362854007407925e-05 0 -0.00062388072082800595 -0.0032151056686681094 0 -0.00072029133172214798 -0.003214183706284757 0 -0.00066257820406416187 -0.0030832316434587885 0 -0.00072383365444793823 -0.00075079271594854894 0 -0.00062734321168329376 -0.00060619676018163653 0 -0.00062297158015795742 -0.00062719095911214367 0 0.00030986650449427383 -0.0021674343780123408 0 0.00037607944372320122 -0.0021116718383736269 0 0.00037537373480665966 -0.002278830001363137 0 -0.00041460001281509181 -0.0019995862056917742 0 -0.00037724472341713804 -0.0021052575478566096 0 -0.00047866600611225381 -0.0021104359177816262 0 0.00035621214425897419 -0.0010077952272459559 0 0.00030856812107062244 -0.00089773804618275882 0 0.0003957162099639405 -0.00091421170051782306 0 -0.00024163326834198873 -0.00082745579402222552 0 -0.00030533205509080698 -0.00089171943626516908 0 -0.0002756163390441008 -0.00073405891338533199 0 -5.0358080334911588e-06 -0.0026599250090360575 0 -2.6776587464181324e-05 -0.002836318441377252 0 -9.9865118909551591e-05 -0.0027142894467473994 0 -0.00068338560770311656 -0.0015445185732482008 0 -0.00077496451169662144 -0.0015337519279907876 0 -0.00069993060980502546 -0.0014063170114825372 0 0.00068424191429713717 -0.0015597666156990822 0 0.0007806546796584275 -0.0016141698474779233 0 0.00072191891086635575 -0.0017112707601614431 0 2.8843684262546591e-06 -0.00038035635420629688 0 9.3109310511962357e-06 -0.00024692990645221738 0 4.38343310699294e-05 -0.00033877533501864334 0 0.00042958369436529832 -0.00220158084822416 0 0.00037607944372320128 -0.0021116718383736269 0 0.00045481828885483437 -0.0020433334396010869 0 -0.00043203613563285776 -0.0021980527484587553 0 -0.00037724472341713804 -0.0021052575478566096 0 -0.00033593875820996918 -0.002240470166301382 0 0.00033801769821546057 -0.00082052982737500246 0 0.00030856812107062244 -0.00089773804618275882 0 0.00025253886144291728 -0.0007672107711803862 0 -0.00033485717890707908 -0.00081699759649408131 0 -0.00030533205509080698 -0.00089171943626516908 0 -0.00038640715403472282 -0.00097622630388513143 0 0.00086384262561825292 -0.0020922917719327656 0 0.0009325951666204731 -0.0020304393268715439 0 0.00093719853242976053 -0.0021411609853960946 0 8.0045418641159198e-05 -0.00016096280730489826 0 3.1823291160431177e-05 -6.8915161136853169e-05 0 3.9961020690528757e-05 -6.6825517198469624e-05 0 -0.00076998969475070792 -0.0010944058066256986 0 -0.00085162882418368148 -0.0011907492597846509 0 -0.00082804690551078976 -0.001088171394037164 0 -0.00033561206567833294 -0.0029637135532153179 0 -0.00029062270652729705 -0.0031002577359688604 0 -0.00036317291558048159 -0.0031049917682210632 0 0.00099102634681492345 -0.0020780868122451277 0 0.00099399519427053446 -0.0022360869393780202 0 0.00093719853242976053 -0.0021411609853960946 0 1.3461027980527625e-08 -1.1016532883739225e-07 0 1.1578193742943278e-08 -1.15362021513969e-07 0 3.9961020690528757e-05 -6.6825517198469624e-05 0 -0.00031901792688705365 -0.0032153349452920779 0 -0.00042269235675629195 -0.0032155075946289045 0 -0.00036317291558048159 -0.0031049917682210632 0 -0.00089520142397116686 -0.0011762963512414405 0 -0.00085190486766823653 -0.0010363725344059241 0 -0.00082804690551078976 -0.001088171394037164 0 -0.00092728826828242586 -0.0013199662685841789 0 -0.00089520142397116686 -0.0011762963512414405 0 -0.00085162882418368148 -0.0011907492597846509 0 -0.00021378547850492351 -0.0032151348725517363 0 -0.00031901792688705365 -0.0032153349452920779 0 -0.00029062270652729705 -0.0031002577359688604 0 1.0460816373723808e-08 -1.0986989821558931e-07 0 1.3461027980527625e-08 -1.1016532883739225e-07 0 3.1823291160431177e-05 -6.8915161136853169e-05 0 0.00098570419029620979 -0.0019219262367844777 0 0.00099102634681492345 -0.0020780868122451277 0 0.0009325951666204731 -0.0020304393268715439 0 0.00065842725058274146 -0.0029236658540877872 0 0.00072624188212786682 -0.0028041614698544547 0 0.00072921935925325239 -0.0029239023807818652 0 -0.0008423980289202598 -0.0026094116565378066 0 -0.00077477764164428657 -0.002721384671316821 0 -0.0008413311731758999 -0.0027300758461963155 0 0.00032009688057393649 -0.00027277498246654203 0 0.00031975641171946449 -0.00032781587137894265 0 0.00025382513184292043 -0.00023318258464062407 0 -0.00032339143429573216 -0.00027691676927617021 0 -0.00041294520618801085 -0.00042124514417714515 0 -0.00044273349640230544 -0.00042123529737850111 0 0.00021063624936171416 -0.0023285237902945441 0 0.0002320214601205318 -0.0021944908495859314 0 0.00030364766467461498 -0.0023302323301270648 0 0.00030986650449427383 -0.0021674343780123408 0 0.00030364766467461498 -0.0023302323301270648 0 0.0002320214601205318 -0.0021944908495859314 0 -0.00050991796399785206 -0.0018498207718923771 0 -0.00043161343222968695 -0.0018752193111615397 0 -0.00051142481801929359 -0.0019987474031485796 0 -0.00041460001281509181 -0.0019995862056917742 0 -0.00051142481801929359 -0.0019987474031485796 0 -0.00043161343222968695 -0.0018752193111615397 0 0.00046738298272760428 -0.0011826692087943329 0 0.00038879803373330688 -0.0011344918812416626 0 0.00044518688384014336 -0.0010347057168264616 0 0.00035621214425897419 -0.0010077952272459559 0 0.00044518688384014336 -0.0010347057168264616 0 0.00038879803373330688 -0.0011344918812416626 0 -0.00014699295719883807 -0.00066830902351899108 0 -0.0001765401700702275 -0.00079231994078069043 0 -0.00021260613892452776 -0.00067605067043675275 0 -0.00024163326834198873 -0.00082745579402222552 0 -0.00021260613892452776 -0.00067605067043675275 0 -0.0001765401700702275 -0.00079231994078069043 0 0.00068290121180371592 -0.0026424888408533697 0 0.00072624188212786671 -0.0028041614698544543 0 0.00065143391850646683 -0.0027710351151992323 0 -0.00068315430065822363 -0.0026424156796191517 0 -0.00077477764164428657 -0.002721384671316821 0 -0.00075750767888133118 -0.0025925022706295448 0 0.00066043794485957398 -0.0017744461513061372 0 0.00072191891086635575 -0.0017112707601614431 0 0.00072007468499227158 -0.0018697080844924292 0 -0.00014854002489963483 -0.0025970844052686172 0 -9.9865118909551605e-05 -0.0027142894467473994 0 -0.00020401349657848993 -0.0027012805416997683 0 7.7000037389134325e-05 -0.00043259939972928243 0 4.38343310699294e-05 -0.00033877533501864334 0 8.9547398335991919e-05 -0.0003519639030153133 0 -0.00062757601693743162 -0.0013149772587281398 0 -0.00069993060980502546 -0.0014063170114825372 0 -0.00067224662768280107 -0.0012445256307213617 0 -2.4183087129017369e-06 -0.0010325113250284439 0 -6.4821157235881387e-05 -0.0010908295727915097 0 -4.8530066360717565e-05 -0.00093349767709891018 0 -0.00012174880946422919 -0.00099929336319396346 0 -4.8530066360717565e-05 -0.00093349767709891018 0 -6.4821157235881387e-05 -0.0010908295727915097 0 -0.00029843825504178938 -0.002685120673562249 0 -0.00020401349657848993 -0.0027012805416997683 0 -0.00025987298949063545 -0.0028383025160559497 0 0.00071332566915399643 -0.0020152982402203844 0 0.00072007468499227158 -0.0018697080844924292 0 0.00079580472255795292 -0.0019674617442589849 0 -0.0006373364829948266 -0.0010950212299443358 0 -0.00067224662768280107 -0.0012445256307213617 0 -0.00072980180611124078 -0.0011830491034054878 0 0.00013775450597848499 -0.00037057620719311662 0 8.9547398335991919e-05 -0.0003519639030153133 0 8.8588035863890199e-05 -0.00024984355840155067 0 0.00029706461248914842 -0.0015010768979546419 0 0.00024878136034355084 -0.0016740116369629761 0 0.00019924337465960048 -0.0015446416146558523 0 0.00030986650449427383 -0.0021674343780123408 0 0.0002320214601205318 -0.0021944908495859314 0 0.00023250580632293549 -0.002058790525870784 0 -0.00041460001281509181 -0.0019995862056917742 0 -0.00043161343222968695 -0.0018752193111615397 0 -0.00035469023678188144 -0.0018657952249118328 0 0.00035621214425897419 -0.0010077952272459559 0 0.00038879803373330688 -0.0011344918812416626 0 0.00030984651307004572 -0.0011219904461454355 0 -0.00024163326834198873 -0.00082745579402222552 0 -0.0001765401700702275 -0.00079231994078069043 0 -0.00019055245343882756 -0.00091867816145520752 0 -0.00022527536456161854 -0.0023303417886072421 0 -0.00024215513163158543 -0.0025343413388128982 0 -0.00030298719361645154 -0.0024483060573294493 0 0.00051126900960089046 -0.0018726734825593324 0 0.00062836372509950317 -0.0019152472823885788 0 0.00057982955941963119 -0.0020051300733349548 0 -0.00046539384460333365 -0.0011600108444862034 0 -0.00057304024316192509 -0.001159221581606691 0 -0.00050839725926909616 -0.0010511151723857006 0 0.00015622104292202589 -0.00066624238656922861 0 0.00013828645394286046 -0.00049073097100479175 0 0.00019065742464920174 -0.00056958727525719831 0 -7.6804703262573344e-05 -0.0012425377601197256 0 -7.8174167583500327e-05 -0.0013829874321693474 0 -0.0001527841272169996 -0.0012975851757818879 0 0.00010264784332854034 -0.00091273669007676996 0 4.7218693640155019e-05 -0.00079068983134166989 0 0.00011751771623678607 -0.00079948739030288906 0 0.00018276021334506757 -0.001415386048314312 0 0.00011183655591797877 -0.0015079789121728079 0 9.6594951005711711e-05 -0.0013592021965331833 0 -0.00029961673895900244 -0.002013050353447501 0 -0.00035469023678188144 -0.0018657952249118328 0 -0.00027348857494233978 -0.0018512012813386779 0 0.00018276021334506757 -0.001415386048314312 0 0.00019924337465960048 -0.0015446416146558523 0 0.00011183655591797877 -0.0015079789121728079 0 0.00010709316382123758 -0.003214778312975705 0 -7.2569097043810239e-08 -0.0032145611883324437 0 3.2172683517044942e-05 -0.0030853822832492281 0 -0.00097835739451929615 -0.0017670132115477073 0 -0.00096596193286506481 -0.0016152668112495239 0 -0.00090825507897259079 -0.0016492510698179518 0 0.00095006749410435603 -0.0014667486907414345 0 0.00096591507847277138 -0.0016159811456648247 0 0.00090019054469084943 -0.0015568806096497823 0 -3.8226158121935832e-09 -1.1013243580875946e-07 0 2.991276825364724e-09 -1.118946974677739e-07 0 -3.4058266627970394e-06 -7.702137227197115e-05 0 0.00057982093685375233 -0.0017540254031004057 0 0.0005504191039459866 -0.0016359686364014754 0 0.00062888117152584883 -0.0016529695578097669 0 -0.00014402207598103776 -0.0024538065935741918 0 -7.2536904161293699e-05 -0.0024086909256484336 0 -7.3396569792235394e-05 -0.0025484231873876065 0 8.8361989986032174e-05 -0.00055180413424850687 0 4.460659910776716e-05 -0.00058727024994773783 0 4.0637106556764915e-05 -0.00047067008138757774 0 -0.00054967012671837585 -0.0013031109651255885 0 -0.00053562875668447388 -0.0014101066963608732 0 -0.00061353495952329708 -0.0014253045751842169 0 0.00010264784332854034 -0.00091273669007676996 0 2.566367537453279e-05 -0.00090657954147899556 0 4.7218693640155019e-05 -0.00079068983134166989 0 -0.00013526521476884241 -0.0016563292757306555 0 -4.2654476441722617e-05 -0.00164370555430689 0 -0.00010544447922754807 -0.0017696784891424791 0 6.7263927019695632e-06 -0.0014778748653566035 0 -9.7727058653340155e-05 -0.0015273744211002659 0 -7.8174167583500327e-05 -0.0013829874321693474 0 -1.925067033689865e-07 -3.2375318375207338e-07 0 -0.00014669510396248935 -0.00010830147746272199 0 -0.00032236712854476749 -0.00026215998830825439 0 1.9317729814186511e-07 -3.2382908870875745e-07 0 0.00014705984500725539 -0.00010845049073782872 0 -3.9156434126639861e-09 -9.6554151974908397e-08 0 1.9317729814186511e-07 -3.2382908870875745e-07 0 0.00032269938226934744 -0.00026197568913121852 0 0.00014705984500725541 -0.00010845049073782874 0 -1.925067033689865e-07 -3.2375318375207338e-07 0 3.423496993223594e-09 -9.6145588103108798e-08 0 -0.00014669510396248935 -0.00010830147746272199 0 0.00099420411739142237 -0.0032076953878765863 0 0.00090518893518266288 -0.0032101272943112122 0 0.00093818107132982124 -0.0031033291212895411 0 0.00099420411739142237 -0.0032076953878765863 0 0.00093818107132982124 -0.0031033291212895411 0 0.00099602849213224721 -0.0030449556636582007 0 -0.00099447365926140854 -0.0032076224769664406 0 -0.00094188026793206149 -0.0031095252239388368 0 -0.00090551364293212197 -0.0032101085650060568 0 -0.00099447365926140854 -0.0032076224769664406 0 -0.00099635254873401227 -0.0030449688679535757 0 -0.00094188026793206149 -0.0031095252239388368 0 -0.00029468124270922921 -0.0017194829598414379 0 -0.00020898370964421876 -0.0016011026403997739 0 -0.00020146774736937425 -0.001745631525323092 0 -0.00018421829045128424 -0.0014480593060212934 0 -0.00024709336227986403 -0.0013407088376974378 0 -0.0001527841272169996 -0.0012975851757818879 0 -0.00020574583429734894 -0.0012043299656148518 0 -0.0001527841272169996 -0.0012975851757818879 0 -0.00024709336227986403 -0.0013407088376974378 0 0.00023358179513240592 -0.0029339232382782367 0 0.00029286414454418044 -0.0030631325001032076 0 0.00019892836744257595 -0.0030730072686596362 0 -0.00084562718488752917 -0.0019346986260445798 0 -0.00091433118176384529 -0.0020327388973082456 0 -0.00091513096165927066 -0.001892768716239091 0 0.00078709468803220706 -0.0012418515628812934 0 0.00083346233448611219 -0.0011794692922797365 0 0.00086343108525365343 -0.001315815048900223 0 -5.9401068882718942e-05 -0.00017921118029410945 0 -4.2348308075684966e-05 -9.2291915502239205e-05 0 -2.7123084959898133e-05 -8.6095319561179217e-05 0 0.00035861050198036524 -0.0024519143039857614 0 0.00037537373480665966 -0.002278830001363137 0 0.00044889400269043021 -0.0023631934178535131 0 -0.00058169108192663926 -0.0020951722554341467 0 -0.00047866600611225381 -0.0021104359177816262 0 -0.00052810005734349073 -0.0022367706437038779 0 0.00049256131374663932 -0.00096286309800742195 0 0.0003957162099639405 -0.00091421170051782306 0 0.00041116134319210961 -0.00080664180595979411 0 -0.0002288746704529523 -0.00057408453070228007 0 -0.0002756163390441008 -0.00073405891338533199 0 -0.00031441625141208509 -0.0006676298436667017 0 9.5769414520169218e-05 -0.0012105104564188729 0 9.6594951005711711e-05 -0.0013592021965331833 0 1.4948980739195305e-05 -0.0013034017146133726 0 -0.00027653393773035146 -0.0010051529905030511 0 -0.00019055245343882756 -0.00091867816145520752 0 -0.00020158934378823316 -0.0010740537514711374 0 0.00042249284883521122 -0.0032155433572026758 0 0.00037433817636077813 -0.0031045763739966175 0 0.0004595475036309304 -0.003049860841584501 0 -0.00099431194633604067 -0.0022362165661192327 0 -0.00093740279969923288 -0.0021589553614354789 0 -0.00091040473768112492 -0.0022898100191072199 0 0.00037663483943513098 -0.0029793015717676911 0 0.0004595475036309304 -0.003049860841584501 0 0.00037433817636077813 -0.0031045763739966175 0 -0.00087282193853052833 -0.0021570307578946302 0 -0.00091040473768112492 -0.0022898100191072199 0 -0.00093740279969923288 -0.0021589553614354789 0 0.00085243046619769551 -0.0010360285275909716 0 0.00082306680575700746 -0.0010716581433582674 0 0.00075487721487007447 -0.0009318140296577398 0 -1.1604915368477826e-08 -1.1376071714673606e-07 0 -4.0952029501389609e-05 -6.8587915931256092e-05 0 -7.7920121303495812e-05 -0.0001098967234949147 0 0.00076154124936007449 -0.0010362049122419302 0 0.00075487721487007447 -0.0009318140296577398 0 0.00082306680575700746 -0.0010716581433582674 0 -8.4453883998980027e-05 -0.00015116206429810521 0 -7.7920121303495812e-05 -0.0001098967234949147 0 -4.0952029501389609e-05 -6.8587915931256092e-05 0 0.00085164701007846191 -0.0026136707983838749 0 0.0007739557873831114 -0.0025843401201197463 0 0.00082507426141543235 -0.0024825150679288594 0 -0.00066087309327042803 -0.0029412268325074544 0 -0.00064627393746460914 -0.002800766680512681 0 -0.00058302140267633474 -0.0028919052835306969 0 0.0005542389168796413 -0.0021258531755899068 0 0.00057982955941963119 -0.0020051300733349548 0 0.00064256776366403015 -0.0021144205629148381 0 -0.00037949285553230867 -0.0024057554443908417 0 -0.00030298719361645154 -0.0024483060573294493 0 -0.00036670405778481245 -0.0025582429495004705 0 0.00025346431489231428 -0.0006181965049990003 0 0.00019065742464920174 -0.00056958727525719831 0 0.00020660859221030426 -0.00048109917864184532 0 -0.00046055580938164772 -0.00092398560666291955 0 -0.00050839725926909616 -0.0010511151723857006 0 -0.00054613537129960641 -0.00096538955363364054 0 0.00019828753032550826 -0.00020025177875431497 0 0.00027788546686788958 -0.00032177742751347902 0 0.00019725321851081021 -0.00024186741365573146 0 -0.00054460067422814902 -0.00056104901289831543 0 -0.00049105854276614729 -0.00055253388813623515 0 -0.0005881006000051927 -0.00068035222017250605 0 -0.00012174880946422919 -0.00099929336319396346 0 -6.4821157235881387e-05 -0.0010908295727915097 0 -0.00013566950906161273 -0.0011558911114636886 0 -0.00013748289996179624 -0.0028788981762870891 0 -9.9865118909551591e-05 -0.0027142894467473994 0 -2.6776587464181324e-05 -0.002836318441377252 0 -0.0007802955466995504 -0.0013744081159367454 0 -0.00069993060980502546 -0.0014063170114825372 0 -0.00077496451169662144 -0.0015337519279907876 0 0.00081206019765566655 -0.0017847951018153466 0 0.00072191891086635575 -0.0017112707601614431 0 0.0007806546796584275 -0.0016141698474779233 0 4.1605478837625982e-05 -0.00021640334110133936 0 4.3834331069929407e-05 -0.00033877533501864329 0 9.3109310511962357e-06 -0.00024692990645221738 0 3.1816255842667054e-05 -0.0021619450301831548 0 -2.0125698462911363e-05 -0.0023033636272885012 0 -7.0246057475704986e-05 -0.0021731491387593513 0 -0.00011272077659677802 -0.0023041603537699634 0 -7.0246057475704986e-05 -0.0021731491387593513 0 -2.0125698462911363e-05 -0.0023033636272885012 0 -0.00040569911351600658 -0.001552154983753563 0 -0.00048241414064660685 -0.0014819178748907004 0 -0.0004026080591358949 -0.0013892703083642408 0 -0.00047143615323946202 -0.0013356151766957631 0 -0.0004026080591358949 -0.0013892703083642406 0 -0.00048241414064660685 -0.0014819178748907004 0 0.0004064093250903477 -0.0014499204015421215 0 0.00048667136277621585 -0.0015371986376884464 0 0.00040927025795672899 -0.0016008005485431383 0 0.00049242739164775246 -0.0016917642626823833 0 0.00040927025795672899 -0.0016008005485431383 0 0.00048667136277621585 -0.0015371986376884464 0 0.00037663483943513098 -0.0029793015717676911 0 0.00030699562718314251 -0.0029216499041987702 0 0.00035983081030701832 -0.0028052142639456612 0 -0.00087282193853052833 -0.0021570307578946302 0 -0.00084108956408118589 -0.0020459593579225462 0 -0.00077983361561271452 -0.002120400166765124 0 0.00076154124936007449 -0.0010362049122419302 0 0.00075495396466049227 -0.0011286793500116653 0 0.00067872995300165761 -0.0010218195615653031 0 -8.4453883998980027e-05 -0.00015116206429810521 0 -8.243046647035687e-05 -0.00019059124351600783 0 -0.00013484062618641259 -0.00027938448925944826 0 0.00029821363068669105 -0.0026850853336173358 0 0.00035983081030701832 -0.0028052142639456612 0 0.0002665040083295104 -0.0027950961597531677 0 -0.00071356312883289006 -0.0020152702712592867 0 -0.00077983361561271452 -0.002120400166765124 0 -0.0007728431943416522 -0.0019746772803088427 0 0.00063705779743803087 -0.0010955706652363887 0 0.00067872995300165761 -0.0010218195615653031 0 0.00070519202038385649 -0.0011646002576300722 0 -0.00013775949912239529 -0.00036974865307850711 0 -0.00013484062618641262 -0.00027938448925944826 0 -0.00010009717721033203 -0.00028263080822515414 0 -7.6804703262573344e-05 -0.0012425377601197256 0 9.323537678244066e-06 -0.0011548683380078681 0 1.4948980739195305e-05 -0.0013034017146133726 0 0.00073484840183773179 -0.0021964700331025583 0 0.00078583753703392282 -0.0020994545776873799 0 0.00081756338621589606 -0.002200966447312035 0 -0.00041142981421942761 -0.0027231780514633259 0 -0.00034598099732593475 -0.0028170311906721805 0 -0.00040837228151470862 -0.002875139964453724 0 0.00018356813423831122 -0.00034691687372036137 0 0.00012692575300934654 -0.00026972527314966842 0 0.00013277755436521391 -0.00022854512693550852 0 -0.00061405763371476707 -0.00092397866179079024 0 -0.00068970043802065936 -0.001046450522321332 0 -0.00069449282652870757 -0.00096222767971319379 0 0.00059234370072900331 -0.0026668419961862247 0 0.00065143391850646683 -0.0027710351151992323 0 0.00058613499765497652 -0.0028363654093936448 0 -0.00070006122222566569 -0.0024892224239330108 0 -0.00075750767888133129 -0.0025925022706295448 0 -0.00079509060211241454 -0.0024858925160020045 0 0.00035861050198036524 -0.0024519143039857614 0 0.00030364766467461498 -0.0023302323301270648 0 0.00037537373480665966 -0.002278830001363137 0 -0.00058169108192663926 -0.0020951722554341467 0 -0.00051142481801929359 -0.0019987474031485796 0 -0.00047866600611225381 -0.0021104359177816262 0 0.00049256131374663932 -0.00096286309800742195 0 0.00044518688384014336 -0.0010347057168264616 0 0.0003957162099639405 -0.00091421170051782306 0 -0.0002288746704529523 -0.00057408453070228007 0 -0.00021260613892452778 -0.00067605067043675275 0 -0.0002756163390441008 -0.00073405891338533199 0 -0.00012135410986284029 -0.0020563660876956004 0 -9.5911468327485608e-05 -0.0019194622865194313 0 -4.6928542625593101e-05 -0.0020485666438537584 0 0.00042249284883521122 -0.0032155433572026758 0 0.00031879267531212082 -0.0032152498220028476 0 0.00037433817636077813 -0.0031045763739966175 0 -0.00099431194633604067 -0.0022362165661192327 0 -0.00099126723044163918 -0.0020784163154925778 0 -0.00093740279969923288 -0.0021589553614354789 0 0.00085243046619769551 -0.0010360285275909716 0 0.00089530032406257346 -0.0011752416361785745 0 0.00082306680575700746 -0.0010716581433582674 0 -1.1604915368477826e-08 -1.1376071714673606e-07 0 -1.6272370397034839e-08 -1.1117432753186718e-07 0 -4.0952029501389609e-05 -6.8587915931256092e-05 0 -2.4183087129017369e-06 -0.0010325113250284439 0 -4.8530066360717565e-05 -0.00093349767709891018 0 2.566367537453279e-05 -0.00090657954147899556 0 -7.2569097043810239e-08 -0.0032145611883324437 0 -0.00010720373996865055 -0.0032146285497364024 0 -5.3701842601071638e-05 -0.0031126316768955993 0 -0.00096596193286506481 -0.0016152668112495239 0 -0.00094894287289896094 -0.0014671182332804346 0 -0.00091007294188759184 -0.0015291071476638812 0 0.00096591507847277138 -0.0016159811456648249 0 0.00097712624580296547 -0.0017672023742791936 0 0.00092327816904976662 -0.0016830176072469107 0 2.991276825364724e-09 -1.118946974677739e-07 0 -2.5422711907382531e-10 -1.1465724875503722e-07 0 5.7075933927441828e-06 -6.0243581050156936e-05 0 0.00055280884753814374 -0.00057306768223096868 0 0.0005744594957263992 -0.00066485217864539802 0 0.00049010587899984731 -0.00055233308152051507 0 -0.00019054040160673263 -0.00019673957741619369 0 -0.00020832767710716305 -0.00025421217559029417 0 -0.00027887399731798174 -0.00032380469081166359 0 -2.7127741282867903e-05 -0.00079261313512566636 0 2.566367537453279e-05 -0.00090657954147899556 0 -4.8530066360717565e-05 -0.00093349767709891018 0 0.00018276021334506757 -0.001415386048314312 0 0.00018454978473088788 -0.0012726336715211217 0 0.00025406581668403619 -0.0013639485556631572 0 0.00027577245839292548 -0.0012575762888707054 0 0.00025406581668403619 -0.0013639485556631572 0 0.00018454978473088788 -0.0012726336715211217 0 -0.00094894287289896094 -0.0014671182332804346 0 -0.00087425438616566301 -0.0014159432445524482 0 -0.00091007294188759184 -0.0015291071476638812 0 -0.00010720373996865055 -0.0032146285497364024 0 -0.00012841271606026599 -0.0030639085431069303 0 -5.3701842601071638e-05 -0.0031126316768955993 0 -2.5422711907382531e-10 -1.1465724875503722e-07 0 1.8551582786359535e-05 -9.1124021854544992e-05 0 5.7075933927441828e-06 -6.0243581050156936e-05 0 0.00097712624580296547 -0.0017672023742791936 0 0.00090556581555187787 -0.0017877894143606089 0 0.00092327816904976662 -0.0016830176072469107 0 0.00015127367259198618 -0.0021626888302587583 0 0.00023250580632293549 -0.002058790525870784 0 0.0002320214601205318 -0.0021944908495859314 0 -0.0004096521025296917 -0.0017382699940627208 0 -0.00035469023678188149 -0.0018657952249118328 0 -0.00043161343222968695 -0.0018752193111615397 0 0.00038469669700576557 -0.0012638724086954131 0 0.00030984651307004572 -0.0011219904461454355 0 0.00038879803373330688 -0.0011344918812416626 0 -0.00011531913518897221 -0.00081594920784423992 0 -0.00019055245343882756 -0.00091867816145520752 0 -0.0001765401700702275 -0.00079231994078069043 0 -0.00029468124270922921 -0.0017194829598414379 0 -0.00027348857494233978 -0.0018512012813386779 0 -0.00035469023678188144 -0.0018657952249118328 0 -0.00013526521476884241 -0.0016563292757306555 0 -0.00020146774736937427 -0.001745631525323092 0 -0.00020898370964421876 -0.0016011026403997739 0 0.00035861050198036524 -0.0024519143039857614 0 0.00044889400269043021 -0.0023631934178535131 0 0.0004222967573088362 -0.0025221307027327483 0 -0.00058169108192663926 -0.0020951722554341467 0 -0.00052810005734349073 -0.0022367706437038779 0 -0.00062091646697948373 -0.0022023983086261966 0 0.00049256131374663932 -0.00096286309800742195 0 0.00041116134319210961 -0.00080664180595979411 0 0.00050424523629155236 -0.00087046086678029444 0 -0.0002288746704529523 -0.00057408453070228007 0 -0.00031441625141208509 -0.0006676298436667017 0 -0.00025354532988853499 -0.00052185787738181577 0 -0.00027653393773035146 -0.0010051529905030511 0 -0.00020158934378823316 -0.0010740537514711374 0 -0.0002787922614194818 -0.0011573964288528141 0 0.00037663483943513098 -0.0029793015717676911 0 0.00035983081030701832 -0.0028052142639456612 0 0.00043317145462831383 -0.0028774089139049991 0 -0.00087282193853052833 -0.0021570307578946302 0 -0.00077983361561271452 -0.002120400166765124 0 -0.0008191857205536011 -0.0022404395662102084 0 0.00076154124936007449 -0.0010362049122419302 0 0.00067872995300165761 -0.0010218195615653031 0 0.00067986643148378663 -0.00092080600707481288 0 -8.4453883998980027e-05 -0.00015116206429810521 0 -0.00013484062618641259 -0.00027938448925944826 0 -0.0001422582295212762 -0.00023333301840430402 0 7.3537518007142861e-05 -0.0028185857405101009 0 0.00014714546367123029 -0.0029099428562390276 0 5.1803243641694709e-05 -0.0029458615011519946 0 -0.0007758122139585003 -0.0016827830704338445 0 -0.00082875525834623398 -0.0018025936905278002 0 -0.00084013543298962505 -0.0016642222238485356 0 -2.6407848594469968e-05 -0.00026043075780506661 0 -4.0161277344641397e-05 -0.00019635649821180269 0 -1.3047620848825708e-05 -0.00016937140629126984 0 -0.00020574583429734894 -0.0012043299656148518 0 -0.0002787922614194818 -0.0011573964288528141 0 -0.00020158934378823316 -0.0010740537514711374 0 0.00096591507847277138 -0.0016159811456648249 0 0.00092327816904976662 -0.0016830176072469107 0 0.00090019054469084943 -0.0015568806096497823 0 2.991276825364724e-09 -1.118946974677739e-07 0 5.7075933927441828e-06 -6.0243581050156929e-05 0 -3.4058266627970394e-06 -7.702137227197115e-05 0 0.00086011346302372106 -0.0016341818465435232 0 0.00090019054469084943 -0.0015568806096497823 0 0.00092327816904976662 -0.0016830176072469107 0 5.8907052547026934e-06 -0.00013868199826066243 0 -3.4058266627970394e-06 -7.7021372271971137e-05 0 5.7075933927441828e-06 -6.0243581050156936e-05 0 -0.00096596193286506481 -0.0016152668112495239 0 -0.00091007294188759184 -0.0015291071476638812 0 -0.00090825507897259079 -0.0016492510698179518 0 -7.2569097043810239e-08 -0.0032145611883324437 0 -5.3701842601071638e-05 -0.0031126316768955993 0 3.2172683517044942e-05 -0.0030853822832492281 0 -2.8698891089827271e-05 -0.0029898601873276525 0 3.2172683517044948e-05 -0.0030853822832492281 0 -5.3701842601071638e-05 -0.0031126316768955993 0 -0.00085372122392197785 -0.0015505068625197656 0 -0.00090825507897259079 -0.0016492510698179518 0 -0.00091007294188759184 -0.0015291071476638812 0 0.00011344577154217959 -0.0030356305248470422 0 5.1803243641694709e-05 -0.0029458615011519946 0 0.00014714546367123029 -0.0029099428562390276 0 -0.00089028139596871586 -0.0017636834979327016 0 -0.00084013543298962505 -0.0016642222238485356 0 -0.00082875525834623398 -0.0018025936905278002 0 -1.8211426760294758e-05 -0.00011188789440237337 0 -1.3047620848825709e-05 -0.00016937140629126984 0 -4.0161277344641397e-05 -0.00019635649821180269 0 0.00042595336264923911 -0.0026807893343382006 0 0.00036035500437366118 -0.0025915242398122048 0 0.0004222967573088362 -0.0025221307027327483 0 -0.0007112651339247594 -0.0022173151085145629 0 -0.00066142254291739187 -0.0021068927463450686 0 -0.00062091646697948373 -0.0022023983086261966 0 0.00058500516075290663 -0.00089247900734351854 0 0.00056589482243313272 -0.0009806778038688878 0 0.00050424523629155236 -0.00087046086678029444 0 -0.00020573476268620153 -0.00038441591219009981 0 -0.00019498128795413861 -0.00045359632454113692 0 -0.00025354532988853499 -0.00052185787738181577 0 -0.00032915885794608226 -0.0012921136312918119 0 -0.00024709336227986403 -0.0013407088376974378 0 -0.00033593491088602332 -0.0014194396410853038 0 -0.00011272077659677802 -0.0023041603537699634 0 -7.2536904161293685e-05 -0.0024086909256484336 0 -0.00014402207598103776 -0.0024538065935741918 0 0.00049242739164775246 -0.0016917642626823833 0 0.0005504191039459866 -0.0016359686364014754 0 0.00057982093685375233 -0.0017540254031004057 0 -0.00047143615323946202 -0.0013356151766957631 0 -0.00053562875668447388 -0.0014101066963608732 0 -0.00054967012671837585 -0.0013031109651255885 0 7.7603889475791072e-05 -0.00067914800663490494 0 4.4606599107767153e-05 -0.00058727024994773783 0 8.8361989986032174e-05 -0.00055180413424850687 0 0.00031879267531212082 -0.0032152498220028476 0 0.00029286414454418044 -0.0030631325001032076 0 0.00037433817636077813 -0.0031045763739966175 0 -0.00099126723044163918 -0.0020784163154925778 0 -0.00091433118176384529 -0.0020327388973082456 0 -0.00093740279969923288 -0.0021589553614354789 0 0.00089530032406257346 -0.0011752416361785745 0 0.00083346233448611219 -0.0011794692922797365 0 0.00082306680575700746 -0.0010716581433582674 0 -1.6272370397034839e-08 -1.1117432753186718e-07 0 -4.2348308075684966e-05 -9.2291915502239205e-05 0 -4.0952029501389609e-05 -6.8587915931256092e-05 0 0.00037663483943513098 -0.0029793015717676911 0 0.00037433817636077813 -0.0031045763739966175 0 0.00029286414454418044 -0.0030631325001032076 0 -0.00087282193853052833 -0.0021570307578946302 0 -0.00093740279969923288 -0.0021589553614354789 0 -0.00091433118176384529 -0.0020327388973082456 0 0.00076154124936007449 -0.0010362049122419302 0 0.00082306680575700757 -0.0010716581433582674 0 0.00083346233448611219 -0.0011794692922797365 0 -8.4453883998980027e-05 -0.00015116206429810521 0 -4.0952029501389616e-05 -6.8587915931256105e-05 0 -4.2348308075684966e-05 -9.2291915502239205e-05 0 0.00086213737829326023 -0.0014337685804049819 0 0.00082738412261774421 -0.0015104214880007447 0 0.00078979842761432305 -0.0013636262911320689 0 0.00075890730916441267 -0.0014609267845196124 0 0.00078979842761432305 -0.0013636262911320689 0 0.00082738412261774421 -0.0015104214880007447 0 -1.7333771200030185e-05 -0.0017884448485999309 0 -9.5911468327485608e-05 -0.0019194622865194313 0 -0.00010544447922754807 -0.0017696784891424791 0 9.5924330442006086e-05 -0.0023375213631342145 0 0.00016266439532850423 -0.0024445088662237973 0 8.0981712050408154e-05 -0.0025249023181649569 0 -0.00051107369928656053 -0.0016680235185787522 0 -0.00057521040104195002 -0.0017829415317847481 0 -0.00061636566902938106 -0.0016624255095772117 0 0.00049263444395588197 -0.0013650705182267084 0 0.00054057272950613564 -0.0012721008465806354 0 0.00059911101151084853 -0.0014102781404986193 0 -6.5498547721276593e-05 -0.00065226159509171127 0 -0.00010078371892777468 -0.00056291928662814672 0 -4.5476723570342446e-05 -0.00049152570895153683 0 0.00015445085693326676 -0.0016278634466478795 0 0.00019924337465960045 -0.0015446416146558523 0 0.00024878136034355084 -0.0016740116369629761 0 0.00035983081030701832 -0.0028052142639456612 0 0.00030699562718314256 -0.0029216499041987707 0 0.0002665040083295104 -0.0027950961597531677 0 -0.00077983361561271452 -0.002120400166765124 0 -0.00084108956408118589 -0.0020459593579225462 0 -0.0007728431943416522 -0.0019746772803088427 0 0.00067872995300165761 -0.0010218195615653031 0 0.00075495396466049227 -0.0011286793500116653 0 0.00070519202038385649 -0.0011646002576300722 0 -0.00013484062618641259 -0.00027938448925944826 0 -8.243046647035687e-05 -0.00019059124351600783 0 -0.00010009717721033203 -0.00028263080822515414 0 -1.7333771200030185e-05 -0.0017884448485999309 0 -0.00010544447922754807 -0.0017696784891424791 0 -4.2654476441722617e-05 -0.00164370555430689 0 0.00086384262561825292 -0.0020922917719327656 0 0.00081756338621589606 -0.002200966447312035 0 0.00078583753703392282 -0.0020994545776873799 0 8.0045418641159198e-05 -0.00016096280730489826 0 0.00013277755436521391 -0.00022854512693550852 0 0.00012692575300934656 -0.00026972527314966848 0 -0.00033561206567833294 -0.0029637135532153179 0 -0.00040837228151470862 -0.002875139964453724 0 -0.00034598099732593475 -0.0028170311906721805 0 -0.00076998969475070792 -0.0010944058066256986 0 -0.00069449282652870757 -0.00096222767971319379 0 -0.00068970043802065936 -0.001046450522321332 0 0.00023358179513240592 -0.0029339232382782367 0 0.00030699562718314256 -0.0029216499041987707 0 0.00029286414454418044 -0.0030631325001032076 0 -0.00084562718488752917 -0.0019346986260445798 0 -0.00084108956408118589 -0.0020459593579225462 0 -0.00091433118176384529 -0.0020327388973082456 0 0.00078709468803220706 -0.0012418515628812934 0 0.00075495396466049227 -0.0011286793500116653 0 0.00083346233448611219 -0.0011794692922797365 0 -5.9401068882718942e-05 -0.00017921118029410945 0 -8.243046647035687e-05 -0.00019059124351600783 0 -4.2348308075684966e-05 -9.2291915502239205e-05 0 0.00037663483943513098 -0.0029793015717676911 0 0.00029286414454418044 -0.0030631325001032076 0 0.00030699562718314256 -0.0029216499041987707 0 -0.00087282193853052833 -0.0021570307578946302 0 -0.00091433118176384529 -0.0020327388973082456 0 -0.00084108956408118589 -0.0020459593579225462 0 0.00076154124936007449 -0.0010362049122419302 0 0.00083346233448611219 -0.0011794692922797365 0 0.00075495396466049227 -0.0011286793500116653 0 -8.4453883998980027e-05 -0.00015116206429810521 0 -4.2348308075684966e-05 -9.2291915502239205e-05 0 -8.243046647035687e-05 -0.00019059124351600783 0 0.00014504427675140515 -0.0025845014507356158 0 8.0981712050408154e-05 -0.0025249023181649569 0 0.00016266439532850425 -0.0024445088662237973 0 -0.00065337582380340796 -0.0017679972494249858 0 -0.00061636566902938106 -0.0016624255095772117 0 -0.00057521040104195002 -0.0017829415317847481 0 0.000621096735882595 -0.0013183348091865303 0 0.00059911101151084853 -0.0014102781404986193 0 0.00054057272950613564 -0.0012721008465806354 0 -7.6167247127356669e-05 -0.00044405324446097753 0 -4.5476723570342439e-05 -0.00049152570895153683 0 -0.00010078371892777468 -0.00056291928662814672 0 -0.00012135410986284029 -0.0020563660876956004 0 -7.0246057475704986e-05 -0.0021731491387593513 0 -0.00015651754964269971 -0.002177186173955186 0 -0.00011272077659677802 -0.0023041603537699634 0 -0.00015651754964269971 -0.002177186173955186 0 -7.0246057475704986e-05 -0.0021731491387593513 0 0.00034585273986829207 -0.0016869394457465609 0 0.00040927025795672899 -0.0016008005485431383 0 0.00042018801192048012 -0.001748145913302353 0 -0.00032915885794608226 -0.0012921136312918119 0 -0.0004026080591358949 -0.0013892703083642408 0 -0.00039949113661961214 -0.0012636097137307322 0 0.00049242739164775246 -0.0016917642626823833 0 0.00042018801192048012 -0.001748145913302353 0 0.00040927025795672899 -0.0016008005485431383 0 -0.00047143615323946202 -0.0013356151766957631 0 -0.00039949113661961214 -0.0012636097137307322 0 -0.0004026080591358949 -0.0013892703083642408 0 -7.6804703262573344e-05 -0.0012425377601197256 0 -6.4821157235881387e-05 -0.0010908295727915097 0 9.323537678244066e-06 -0.0011548683380078681 0 -2.4183087129017369e-06 -0.0010325113250284439 0 9.3235376782440627e-06 -0.0011548683380078681 0 -6.4821157235881387e-05 -0.0010908295727915097 0 7.7603889475791072e-05 -0.00067914800663490494 0 0.00011751771623678607 -0.00079948739030288906 0 4.7218693640155019e-05 -0.00079068983134166989 0 -2.7127741282867903e-05 -0.00079261313512566636 0 4.7218693640155019e-05 -0.00079068983134166989 0 2.566367537453279e-05 -0.00090657954147899556 0 -7.6804703262573344e-05 -0.0012425377601197256 0 -0.0001527841272169996 -0.0012975851757818879 0 -0.00013566950906161273 -0.0011558911114636886 0 -0.00020574583429734894 -0.0012043299656148518 0 -0.00013566950906161273 -0.0011558911114636886 0 -0.0001527841272169996 -0.0012975851757818879 0 0.00086213737829326023 -0.0014337685804049819 0 0.00090019054469084943 -0.0015568806096497823 0 0.00082738412261774421 -0.0015104214880007447 0 -1.8211426760294758e-05 -0.00011188789440237337 0 -3.4058266627970394e-06 -7.702137227197115e-05 0 -1.3047620848825708e-05 -0.00016937140629126984 0 0.00086011346302372106 -0.0016341818465435232 0 0.00082738412261774421 -0.0015104214880007447 0 0.00090019054469084943 -0.0015568806096497823 0 5.8907052547026934e-06 -0.00013868199826066243 0 -1.3047620848825708e-05 -0.00016937140629126984 0 -3.4058266627970394e-06 -7.702137227197115e-05 0 0.00011344577154217959 -0.0030356305248470422 0 3.2172683517044942e-05 -0.0030853822832492281 0 5.1803243641694709e-05 -0.0029458615011519946 0 -0.00089028139596871586 -0.0017636834979327016 0 -0.00090825507897259079 -0.0016492510698179518 0 -0.00084013543298962505 -0.0016642222238485356 0 -2.8698891089827271e-05 -0.0029898601873276525 0 5.1803243641694709e-05 -0.0029458615011519946 0 3.2172683517044942e-05 -0.0030853822832492281 0 -0.00085372122392197785 -0.0015505068625197656 0 -0.00084013543298962505 -0.0016642222238485356 0 -0.00090825507897259079 -0.0016492510698179518 0 0.00042958369436529832 -0.00220158084822416 0 0.00044889400269043021 -0.0023631934178535131 0 0.00037537373480665966 -0.002278830001363137 0 -0.00043203613563285776 -0.0021980527484587553 0 -0.00052810005734349084 -0.0022367706437038779 0 -0.00047866600611225381 -0.0021104359177816262 0 0.00033801769821546057 -0.00082052982737500246 0 0.00041116134319210961 -0.00080664180595979411 0 0.0003957162099639405 -0.00091421170051782306 0 -0.00033485717890707908 -0.00081699759649408131 0 -0.00031441625141208509 -0.0006676298436667017 0 -0.0002756163390441008 -0.00073405891338533199 0 -2.7127741282867903e-05 -0.00079261313512566636 0 1.0739147669538378e-05 -0.0006788841112760159 0 4.7218693640155019e-05 -0.00079068983134166989 0 -9.0657237080196883e-08 -0.0024523242678037138 0 -7.2536904161293685e-05 -0.0024086909256484336 0 -2.0125698462911363e-05 -0.0023033636272885012 0 -0.00011272077659677802 -0.0023041603537699634 0 -2.0125698462911363e-05 -0.0023033636272885012 0 -7.2536904161293685e-05 -0.0024086909256484336 0 0.00049242739164775246 -0.0016917642626823833 0 0.00048667136277621585 -0.0015371986376884464 0 0.0005504191039459866 -0.0016359686364014754 0 0.00056850933558906514 -0.0015283864198526226 0 0.0005504191039459866 -0.0016359686364014754 0 0.00048667136277621585 -0.0015371986376884464 0 -0.00056877295725672955 -0.0015283302991007607 0 -0.00053562875668447388 -0.0014101066963608732 0 -0.00048241414064660685 -0.0014819178748907004 0 -0.00047143615323946202 -0.0013356151766957631 0 -0.00048241414064660685 -0.0014819178748907004 0 -0.00053562875668447388 -0.0014101066963608732 0 7.7603889475791072e-05 -0.00067914800663490494 0 1.0739147669538371e-05 -0.0006788841112760159 0 4.4606599107767153e-05 -0.00058727024994773783 0 -1.2352838527012425e-07 -0.00055183502285878277 0 4.4606599107767153e-05 -0.00058727024994773794 0 1.0739147669538371e-05 -0.0006788841112760159 0 0.00029706461248914842 -0.0015010768979546419 0 0.00025406581668403619 -0.0013639485556631572 0 0.00032864909331376077 -0.0013767439065762879 0 -9.0657237080196883e-08 -0.0024523242678037138 0 -7.3396569792235394e-05 -0.0025484231873876065 0 -7.2536904161293685e-05 -0.0024086909256484336 0 -0.00056877295725672955 -0.0015283302991007607 0 -0.00061353495952329708 -0.0014253045751842169 0 -0.00053562875668447388 -0.0014101066963608732 0 0.00056850933558906514 -0.0015283864198526226 0 0.00062888117152584883 -0.0016529695578097669 0 0.0005504191039459866 -0.0016359686364014754 0 -1.2352838527012425e-07 -0.00055183502285878277 0 4.0637106556764908e-05 -0.00047067008138757774 0 4.4606599107767153e-05 -0.00058727024994773783 0 7.7603889475791072e-05 -0.00067914800663490494 0 4.7218693640155019e-05 -0.00079068983134166989 0 1.0739147669538371e-05 -0.0006788841112760159 0 0.00030986650449427383 -0.0021674343780123408 0 0.00037537373480665966 -0.002278830001363137 0 0.00030364766467461498 -0.0023302323301270648 0 -0.00041460001281509181 -0.0019995862056917742 0 -0.00047866600611225381 -0.0021104359177816262 0 -0.00051142481801929359 -0.0019987474031485796 0 0.00035621214425897419 -0.0010077952272459559 0 0.0003957162099639405 -0.00091421170051782306 0 0.00044518688384014336 -0.0010347057168264616 0 -0.00024163326834198873 -0.00082745579402222552 0 -0.0002756163390441008 -0.00073405891338533199 0 -0.00021260613892452776 -0.00067605067043675275 0 0.00027577245839292548 -0.0012575762888707054 0 0.00032864909331376077 -0.0013767439065762879 0 0.00025406581668403619 -0.0013639485556631572 0 0.00099102634681492345 -0.0020780868122451277 0 0.00093719853242976053 -0.0021411609853960946 0 0.0009325951666204731 -0.0020304393268715439 0 1.3461027980527625e-08 -1.1016532883739225e-07 0 3.9961020690528757e-05 -6.6825517198469624e-05 0 3.1823291160431177e-05 -6.8915161136853169e-05 0 -0.00031901792688705365 -0.0032153349452920779 0 -0.00036317291558048159 -0.0031049917682210632 0 -0.00029062270652729705 -0.0031002577359688604 0 -0.00089520142397116686 -0.0011762963512414405 0 -0.00082804690551078976 -0.001088171394037164 0 -0.00085162882418368148 -0.0011907492597846509 0 0.00035861050198036524 -0.0024519143039857614 0 0.0004222967573088362 -0.0025221307027327483 0 0.00036035500437366118 -0.0025915242398122048 0 -0.00058169108192663926 -0.0020951722554341467 0 -0.00062091646697948373 -0.0022023983086261966 0 -0.00066142254291739187 -0.0021068927463450686 0 0.00049256131374663932 -0.00096286309800742195 0 0.00050424523629155236 -0.00087046086678029444 0 0.00056589482243313272 -0.0009806778038688878 0 -0.0002288746704529523 -0.00057408453070228007 0 -0.00025354532988853499 -0.00052185787738181577 0 -0.00019498128795413861 -0.00045359632454113692 0 -0.00012135410986284029 -0.0020563660876956004 0 -4.6928542625593101e-05 -0.0020485666438537584 0 -7.0246057475704986e-05 -0.0021731491387593513 0 -0.00032915885794608226 -0.0012921136312918119 0 -0.00033593491088602332 -0.0014194396410853038 0 -0.0004026080591358949 -0.0013892703083642408 0 -7.6804703262573344e-05 -0.0012425377601197256 0 -0.00013566950906161273 -0.0011558911114636886 0 -6.4821157235881387e-05 -0.0010908295727915097 0 -0.00029468124270922921 -0.0017194829598414379 0 -0.00020146774736937425 -0.001745631525323092 0 -0.00027348857494233978 -0.0018512012813386779 0 0.00023358179513240592 -0.0029339232382782367 0 0.00026650400832951035 -0.0027950961597531677 0 0.00030699562718314256 -0.0029216499041987707 0 -0.00084562718488752917 -0.0019346986260445798 0 -0.0007728431943416522 -0.0019746772803088427 0 -0.00084108956408118589 -0.0020459593579225462 0 0.00078709468803220706 -0.0012418515628812934 0 0.00070519202038385649 -0.0011646002576300722 0 0.00075495396466049227 -0.0011286793500116653 0 -5.9401068882718942e-05 -0.00017921118029410945 0 -0.00010009717721033203 -0.00028263080822515414 0 -8.243046647035687e-05 -0.00019059124351600783 0 -0.00019903616243241565 -0.0018827621579460177 0 -0.00027348857494233978 -0.0018512012813386779 0 -0.00020146774736937425 -0.001745631525323092 0 
</DataArray>
</PointData>
<CellData Scalars="" Vectors="" Tensors="stress,">
<DataArray type="Float64" Name="stress" NumberOfComponents="9" format="ascii">
11400650.502630353 548402.04540556669 0 548402.04540556669 -101158171.97186899 0 0 0 -31415132.514233589 8212694.0875576735 -1552234.9197360873 0 -1552234.9197360873 -100462356.14769912 0 0 0 -32287381.721049428 4979134.3271101713 -138797.96370702982 0 -138797.96370702982 -101447764.83522892 0 0 0 -33764020.677841663 -8483445.5375818312 1887487.5505029857 0 1887487.5505029857 -101691517.32150286 0 0 0 -38561237.000679612 10748628.842671633 -673809.66984149814 0 -673809.66984149814 -101221079.52620459 0 0 0 -31665357.739236474 10315513.626325011 -1042472.114903301 0 -1042472.114903301 -101523229.8074019 0 0 0 -31922700.663377047 3370939.8772050142 435660.46802246571 0 435660.46802246571 -102248940.57608259 0 0 0 -34607300.244607091 3569153.1651961803 1204774.9999589622 0 1204774.9999589622 -101841754.8805986 0 0 0 -34395410.600390911 8153903.6198363304 -479880.66742300987 0 -479880.66742300987 -100089825.19204473 0 0 0 -32177572.550272942 2640046.330999136 976647.04600685835 0 976647.04600685835 -98281438.172837496 0 0 0 -33474487.144643307 1073919.7486354709 2025776.5752933472 0 2025776.5752933472 -94732038.935656428 0 0 0 -32780341.71545732 -40129580.208045997 -15598841.851431251 0 -15598841.851431251 -98735403.959399939 0 0 0 -48602744.458606072 3732862.7249789238 -126113.31790572894 0 -126113.31790572894 -99697894.996627331 0 0 0 -33587761.295076847 490368.26875740342 118125.45537781715 0 118125.45537781715 -99764532.273593321 0 0 0 -34745957.401692569 3582171.0985415876 -4671923.0363565683 0 -4671923.0363565683 -97473168.332499802 0 0 0 -32861849.031885356 3766135.5172762871 134370.85528278351 0 134370.85528278351 -99693240.8567729 0 0 0 -33574486.868823767 -56090358.454687759 34089868.366509572 0 34089868.366509572 -104205273.95389721 0 0 0 -56103471.343004733 502107.23196434975 -137912.46068489552 0 -137912.46068489552 -99704919.76117754 0 0 0 -34720984.385224581 3659770.9331704378 4811814.2993048728 0 4811814.2993048728 -97143064.217265189 0 0 0 -32719152.649433196 -56357256.371105768 -34136020.182936326 0 -34136020.182936326 -104701128.98592643 0 0 0 -56370434.874961264 -391369.67417877913 1812222.7272261828 0 1812222.7272261828 -97262991.25720048 0 0 0 -34179026.32598269 -35352701.698165067 -21169507.19559532 0 -21169507.19559532 -88607359.986504465 0 0 0 -43386021.589634329 6493946.8466889858 -211107.73327326775 0 -211107.73327326775 -100070256.55594301 0 0 0 -32751708.398238897 645296.32765722275 299773.67467060685 0 299773.67467060685 -99740013.503233433 0 0 0 -34683151.011451721 668802.71711194515 -295549.48383265734 0 -295549.48383265734 -99752068.616482735 0 0 0 -34679143.064779639 -36029166.465014473 21008501.167108458 0 21008501.167108458 -89105528.957807958 0 0 0 -43797143.39798785 6665764.6088217497 252251.7567179203 0 252251.7567179203 -99964299.860892057 0 0 0 -32654487.338224769 -207028.76163876057 -1863980.7950928882 0 -1863980.7950928882 -97623248.222836196 0 0 0 -34240596.94456619 12004368.346672654 -123270.9992133677 0 -123270.9992133677 -100594740.99266267 0 0 0 -31006630.426096559 5669986.9951733947 1965542.7364712656 0 1965542.7364712656 -99665090.524346471 0 0 0 -32898286.235210598 5407527.4161159396 -1467845.2275814712 0 -1467845.2275814712 -100235861.731197 0 0 0 -33189917.010278463 -14841632.422327667 -199729.67380923033 0 -199729.67380923033 -96429358.29095453 0 0 0 -38944846.74964872 7199633.6620090008 -88818.100957859162 0 -88818.100957859162 -99979734.90307188 0 0 0 -32473035.434371948 1042007.9195061058 310157.36027812958 0 310157.36027812958 -98756770.88917318 0 0 0 -34200167.039383382 950091.43044111331 1308635.2859402299 0 1308635.2859402299 -87819563.969265401 0 0 0 -30404315.388588455 -52136074.52119036 -19328593.732763249 0 -19328593.732763249 -96841168.176151514 0 0 0 -52142034.944069646 1041598.7499109682 -359751.11883842945 0 -359751.11883842945 -98816053.912448123 0 0 0 -34221059.306887969 -51974400.196887583 19243742.658742908 0 19243742.658742908 -96538746.262384087 0 0 0 -51979601.260745086 7191656.1467862129 85986.025737827891 0 85986.025737827891 -100193205.93500376 0 0 0 -32550542.425875902 1053103.2741792798 -1533916.8445054889 0 -1533916.8445054889 -87671525.014834285 0 0 0 -30316447.609229207 848724.57671582699 -363050.74343006313 0 -363050.74343006313 -99225915.287270069 0 0 0 -34432016.748693943 -33228215.407344356 17445801.287796743 0 17445801.287796743 -85905421.668621093 0 0 0 -41696772.976587906 8595093.5825440884 313649.73637628555 0 313649.73637628555 -99780541.438295126 0 0 0 -31914906.749512911 -817561.39700144529 601590.1130598262 0 601590.1130598262 -95417365.921743989 0 0 0 -33682224.561560869 5233279.5005338192 -880568.01306211948 0 -880568.01306211948 -99167923.015216827 0 0 0 -32877125.230138779 5870730.469415307 649072.91426789761 0 649072.91426789761 -99693560.632061839 0 0 0 -32837990.556926131 11624314.340815783 561497.63976018131 0 561497.63976018131 -100743519.13713598 0 0 0 -31191721.67871213 7537177.8373750895 -1905160.0369021297 0 -1905160.0369021297 -100679796.78279996 0 0 0 -32599916.630898789 5463591.813995406 339518.0404573679 0 339518.0404573679 -101380240.45644584 0 0 0 -33570827.024857715 -6637836.893032968 2276709.7075529881 0 2276709.7075529881 -98441924.148287773 0 0 0 -36777916.364462256 3694167.0246231556 -133351.38613343239 0 -133351.38613343239 -100342638.94927692 0 0 0 -33826965.173628569 914792.08709430695 238090.84391582012 0 238090.84391582012 -100123546.27739716 0 0 0 -34723063.96660614 -6854486.0226714611 -9032729.821794726 0 -9032729.821794726 -111180785.57282913 0 0 0 -41312345.058425188 3770781.2848103046 127038.12630486488 0 127038.12630486488 -100399914.82396448 0 0 0 -33820196.738703966 -34406476.303311989 27128587.850271393 0 27128587.850271393 -95335824.201597929 0 0 0 -45409805.176718466 923375.20378446579 -255608.33879253268 0 -255608.33879253268 -100057018.08088732 0 0 0 -34696775.006986141 -6118451.5354516506 9242878.0484336019 0 9242878.0484336019 -111050520.16221583 0 0 0 -41009140.094183668 -34708666.50878948 -27193701.248231001 0 -27193701.248231001 -94920374.649217933 0 0 0 -45370164.405302599 -2646579.1614372581 -5920276.9938122183 0 -5920276.9938122183 -101028753.35608289 0 0 0 -36286366.381132111 -28981265.639286458 14140756.876030844 0 14140756.876030844 -101945996.14893711 0 0 0 -45824541.62587823 4844178.2992888689 -1322603.2568072677 0 -1322603.2568072677 -98349610.243028045 0 0 0 -32726901.1803087 8053964.1451411247 745142.48811215162 0 745142.48811215162 -99743673.397687912 0 0 0 -32091398.238391399 8902471.2738250494 -585785.1613843441 0 -585785.1613843441 -100117964.031703 0 0 0 -31925422.465257168 2096405.1456341743 1109216.6121998429 0 1109216.6121998429 -99288759.287261486 0 0 0 -34017323.949569464 906539.01146805286 1364080.1926259995 0 1364080.1926259995 -98545106.32251358 0 0 0 -34173498.558865905 -25637174.733378507 -13478162.541529298 0 -13478162.541529298 -90093742.290281877 0 0 0 -40505820.958281122 -34876032.38455902 7677593.2378460988 0 7677593.2378460988 -94132051.591881037 0 0 0 -45152829.391754016 3022752.9493757486 -1556545.6479039192 0 -1556545.6479039192 -97270579.811223984 0 0 0 -32986739.401646852 2147833.1237779856 570390.44364824891 0 570390.44364824891 -95085682.926038265 0 0 0 -32528247.43079114 10821181.662620902 388461.71255999804 0 388461.71255999804 -100326062.34589744 0 0 0 -31326708.239146709 11950571.261891842 -123128.00672566891 0 -123128.00672566891 -100529473.34114552 0 0 0 -31002615.727738857 5759660.6789855957 1759548.5495889187 0 1759548.5495889187 -98476936.347533941 0 0 0 -32451046.483991981 5204144.0058115721 -1717686.0178037882 0 -1717686.0178037882 -98537677.616631031 0 0 0 -32666736.763786912 -21727856.851618409 -1512513.6796386838 0 -1512513.6796386838 -97780279.950536549 0 0 0 -41827847.880754232 4469223.9825081825 -612572.29593712091 0 -612572.29593712091 -100143274.50323486 0 0 0 -33485917.682254314 4964367.3391572237 728564.80715107918 0 728564.80715107918 -99963716.505698204 0 0 0 -33249772.208289146 -7325373.6387386918 15939041.835409835 0 15939041.835409835 -101185961.33648863 0 0 0 -37978967.241329551 -8167025.8460228145 -16340808.926586986 0 -16340808.926586986 -99735781.605154157 0 0 0 -37765982.607911885 -4012871.7760193944 -8285107.8758681938 0 -8285107.8758681938 -105276592.09195054 0 0 0 -38251312.353789449 -17722018.716547523 15377259.505883619 0 15377259.505883619 -95539882.965213537 0 0 0 -39641665.588616371 -12372553.013995409 13416602.681778774 0 13416602.681778774 -105706266.05124307 0 0 0 -41327586.672833443 -20599444.020941406 -16706308.543709084 0 -16706308.543709084 -104692686.3000938 0 0 0 -43852245.612362295 10276939.918408751 992640.29308867455 0 992640.29308867455 -100808654.54025126 0 0 0 -31686100.117644906 8532432.7850880623 -1743582.0229776204 0 -1743582.0229776204 -99692288.68027401 0 0 0 -31905949.563315153 619935.07030797005 -2391146.5734643936 0 -2391146.5734643936 -102345122.7770083 0 0 0 -35603815.697345138 -8553112.8877505064 4468809.4570685625 0 4468809.4570685625 -101108840.15691373 0 0 0 -38381683.565632522 8441741.344381094 430221.60979938507 0 430221.60979938507 -100040084.32508063 0 0 0 -32059420.0432446 1226795.7243288755 -1891558.4999190569 0 -1891558.4999190569 -94709798.56927824 0 0 0 -32719050.995732307 2910412.7060805559 -1032870.4142448008 0 -1032870.4142448008 -98197683.052678823 0 0 0 -33350544.6213094 -39276498.301603392 15030459.244355343 0 15030459.244355343 -97879385.988393337 0 0 0 -48004559.501498878 6900678.2842313945 787920.28155839443 0 787920.28155839443 -100337288.15253192 0 0 0 -32702813.453905135 4133513.4634921551 -921481.70515558124 0 -921481.70515558124 -99415113.858079433 0 0 0 -33348560.138105631 11000723.685793638 919651.39131706953 0 919651.39131706953 -100394334.16243494 0 0 0 -31287763.66682446 8048331.7257913351 -1760695.2975644618 0 -1760695.2975644618 -100643980.65876245 0 0 0 -32408477.126539826 2206466.5081285238 -860435.78011400998 0 -860435.78011400998 -101487198.81135511 0 0 0 -34748256.306129336 -7882980.8810053021 4332127.7271074355 0 4332127.7271074355 -100671209.98534185 0 0 0 -37993966.803221479 10213958.243022799 -477063.80963253975 0 -477063.80963253975 -101963138.27030373 0 0 0 -32112213.009548306 1295715.6920921803 -650347.65043354779 0 -650347.65043354779 -95836497.767060995 0 0 0 -33089273.726238966 -37584881.625067607 6234328.4547051582 0 6234328.4547051582 -86374858.734574899 0 0 0 -43385909.125874862 11738895.02083753 155822.85866701603 0 155822.85866701603 -99893537.372406572 0 0 0 -30854124.823049322 396795.26169466972 1289370.676542677 0 1289370.676542677 -93820777.572626352 0 0 0 -32698393.80882597 11993736.162914038 125237.96688210964 0 125237.96688210964 -99991422.223696709 0 0 0 -30799190.121273756 1940712.5318592787 1846052.256950438 0 1846052.256950438 -95226021.796038508 0 0 0 -32649858.242462695 2681368.86354357 -1302686.7951169014 0 -1302686.7951169014 -95673192.67223537 0 0 0 -32547138.333042085 -34973112.475594528 3485741.1503429003 0 3485741.1503429003 -90785890.124946937 0 0 0 -44015650.910189517 9636882.4641610533 -285603.70979523659 0 -285603.70979523659 -101907796.57304959 0 0 0 -32294819.938111052 825683.4144478346 -335577.89701962471 0 -335577.89701962471 -98127267.074312076 0 0 0 -34055554.280952401 -50500731.330330871 15076401.273708815 0 15076401.273708815 -93795419.402127534 0 0 0 -50503652.756360441 8723494.0927026272 177159.75562583253 0 177159.75562583253 -100179645.41551924 0 0 0 -32009652.962985754 1091000.7510905061 90921.126150339842 0 90921.126150339842 -86915384.175366327 0 0 0 -30038534.19849648 3916037.0969965458 -2084658.2490139008 0 -2084658.2490139008 -98826083.311917067 0 0 0 -33218516.175222158 11840489.46533072 336629.73384904861 0 336629.73384904861 -100146196.54241729 0 0 0 -30906997.476980329 -21441592.660358742 3378130.844223097 0 3378130.844223097 -91535858.942068219 0 0 0 -39542108.060849428 3700662.1223642826 1362315.181681633 0 1362315.181681633 -98729392.929644585 0 0 0 -33260055.78254807 4531768.4779308438 -1961874.7692984343 0 -1961874.7692984343 -97299267.973340511 0 0 0 -32468624.823393285 -30185363.245828569 4763764.8136985973 0 4763764.8136985973 -96635112.478717834 0 0 0 -44387166.503591239 11366654.716729641 397455.45553149283 0 397455.45553149283 -100389654.61909437 0 0 0 -31158049.965827703 3099937.2795685828 924092.01361429691 0 924092.01361429691 -96850930.311992109 0 0 0 -32812847.561348289 8447260.8635585308 -1601432.2575614825 0 -1601432.2575614825 -101309521.01117039 0 0 0 -32501791.051664233 11359272.352589637 713751.94312918186 0 713751.94312918186 -100624936.25770473 0 0 0 -31242982.366790384 -3209061.8992036507 2358921.9057281613 0 2358921.9057281613 -100471043.71007138 0 0 0 -36288036.963246338 3718516.3879864216 201994.3111219462 0 201994.3111219462 -102152471.81214404 0 0 0 -34451884.398455143 11748703.513077497 -347935.45591845503 0 -347935.45591845503 -100802629.97896576 0 0 0 -31168874.263061047 7885163.2874886617 1500168.6347774267 0 1500168.6347774267 -101437179.55763003 0 0 0 -32743205.694549479 6308292.9533637911 -828840.94180601835 0 -828840.94180601835 -101611633.61966273 0 0 0 -33356169.233204588 -2857261.2351318002 -1300619.1756818295 0 -1300619.1756818295 -98771514.429508448 0 0 0 -35570071.482623994 2304291.2338674664 2577282.2243735632 0 2577282.2243735632 -95229121.077305675 0 0 0 -32523690.445203364 -39443246.668127671 -21913076.360565502 0 -21913076.360565502 -99058998.007677495 0 0 0 -48475785.636531815 6873063.6263952851 -380953.45630335808 0 -380953.45630335808 -99521193.98041749 0 0 0 -32426845.623907983 2536102.3856265545 526035.35691139102 0 526035.35691139102 -98638286.042343616 0 0 0 -33635764.27985096 2307548.989812851 -495679.94543504715 0 -495679.94543504715 -98787097.37678957 0 0 0 -33767841.935441852 -38482295.729928307 22655951.924336568 0 22655951.924336568 -98136978.773429453 0 0 0 -47816746.076175205 7077680.9219298363 401557.48482632637 0 401557.48482632637 -99408211.016223431 0 0 0 -32315685.533002853 2449017.3328977227 -2590182.3881905079 0 -2590182.3881905079 -95640924.76200676 0 0 0 -32617167.600188136 11438338.396354675 -505440.76419435441 0 -505440.76419435441 -101191434.09921002 0 0 0 -31413583.495999455 8104859.2336904556 1573148.257025063 0 1573148.257025063 -100471054.32374674 0 0 0 -32328168.281519696 5011674.8911641389 -5439.6649606227875 0 -5439.6649606227875 -101343011.51654395 0 0 0 -33715967.818882868 -8083437.594576776 -1574347.920076834 0 -1574347.920076834 -101066483.28298795 0 0 0 -38202472.307147682 6848370.6391717196 -1597654.8167340606 0 -1597654.8167340606 -99476408.435491562 0 0 0 -32419813.228711963 9806542.5335180759 1057060.4089272022 0 1057060.4089272022 -99919114.042066097 0 0 0 -31539400.027991891 -15138008.857010536 8802431.8977809399 0 8802431.8977809399 -100954916.62140933 0 0 0 -40632523.917446963 -1803337.5274139047 -3367158.5399036855 0 -3367158.5399036855 -101950978.00127661 0 0 0 -36314010.435041666 5640577.6394737959 -1770539.9926107526 0 -1770539.9926107526 -99727817.298271537 0 0 0 -32930533.880579233 -13331674.051581591 8780814.2627652064 0 8780814.2627652064 -96417786.191048861 0 0 0 -38412311.084920675 9403793.6301871538 887430.7514770031 0 887430.7514770031 -100329939.81432533 0 0 0 -31824151.16444838 2473624.364908576 -2765654.6169401705 0 -2765654.6169401705 -101062384.58011371 0 0 0 -34506066.075321794 9533828.0230650902 -1372015.0856682658 0 -1372015.0856682658 -100874769.06296611 0 0 0 -31969329.363965511 10679846.289163113 931912.40921401978 0 931912.40921401978 -100926267.53285944 0 0 0 -31586247.435293674 -3407153.3536000848 2500849.9292721748 0 2500849.9292721748 -102329002.77140355 0 0 0 -37007654.643751204 1328678.2685992122 -1540263.1430943608 0 -1540263.1430943608 -102158421.67265582 0 0 0 -35290410.19141978 10708626.98564784 -728520.09600758553 0 -728520.09600758553 -99943316.443105057 0 0 0 -31232141.310109932 9957062.3394844532 -842302.07387799025 0 -842302.07387799025 -100347809.78881168 0 0 0 -31636761.607264638 5310053.7521967888 1902966.9262309356 0 1902966.9262309356 -98923385.943167686 0 0 0 -32764666.266839981 5125016.7223114967 1619931.7520227432 0 1619931.7520227432 -99266124.77784586 0 0 0 -32949387.819437027 2339674.1974762678 404078.78018142248 0 404078.78018142248 -99340328.749751568 0 0 0 -33950229.093296409 1261265.3276444674 1828756.7517323196 0 1828756.7517323196 -101347626.68777883 0 0 0 -35030226.476047039 -20785571.025980271 -7625749.9820386022 0 -7625749.9820386022 -97376815.36593321 0 0 0 -41356835.23716975 -17137500.223478854 -9148292.1393932551 0 -9148292.1393932551 -95409859.086823523 0 0 0 -39391575.758605838 10896954.598257899 178233.94004923105 0 178233.94004923105 -101928665.12170696 0 0 0 -31861098.683207154 4140327.5427875519 572529.30475185812 0 572529.30475185812 -101919841.85780036 0 0 0 -34222830.010254502 11974789.637735605 120039.84629324079 0 120039.84629324079 -100174671.55985641 0 0 0 -30869958.672742128 2934967.6688013971 1271983.4400359392 0 1271983.4400359392 -96482621.152905643 0 0 0 -32741678.719436556 2614048.801771462 -1993961.8105837703 0 -1993961.8105837703 -97406427.370034695 0 0 0 -33177332.498892009 -29003314.230019361 1088930.3943923349 0 1088930.3943923349 -90780754.444571972 0 0 0 -41924424.036106959 10712047.73033917 -162681.47366905212 0 -162681.47366905212 -101550031.6614995 0 0 0 -31793294.37590611 10941746.266724825 -313126.5958718434 0 -313126.5958718434 -101853384.68232107 0 0 0 -31819073.445458651 -25736036.762419041 9387374.1574488133 0 9387374.1574488133 -91915684.000638321 0 0 0 -41178102.267070085 3328535.8641996384 -1420984.5277066007 0 -1420984.5277066007 -98470931.327440023 0 0 0 -33299838.412134171 10964753.685287565 482144.42464339733 0 482144.42464339733 -99843016.979613006 0 0 0 -31107392.153014094 3073062.0205051899 759656.85399479792 0 759656.85399479792 -97253850.425412655 0 0 0 -32963275.941717625 6720996.4645148516 -1240050.0656136274 0 -1240050.0656136274 -99117109.300585508 0 0 0 -32338639.49262464 6783079.1059131622 1064849.1982194781 0 1064849.1982194781 -99876918.17650342 0 0 0 -32582843.674706578 -12494176.938057572 10592797.084731378 0 10592797.084731378 -101886999.89988172 0 0 0 -40033411.893278718 -10067702.631811917 -10687096.332565323 0 -10687096.332565323 -104457024.23454612 0 0 0 -40083654.403225303 5754399.8305282593 -1910781.6195978224 0 -1910781.6195978224 -99852328.048689365 0 0 0 -32934274.876356483 10864417.350951433 754977.96749192476 0 754977.96749192476 -100227458.67632866 0 0 0 -31277064.463882208 -13260269.965586126 6642639.5615128577 0 6642639.5615128577 -94898049.635892153 0 0 0 -37855411.860517398 3805309.8732693791 -581105.07954731584 0 -581105.07954731584 -100542592.82125044 0 0 0 -33858049.031793296 9724708.6230497509 -995945.72662216425 0 -995945.72662216425 -101805464.86299822 0 0 0 -32228264.683982 8198905.0917015076 -601833.44891750813 0 -601833.44891750813 -99488766.240880489 0 0 0 -31951451.40221262 3012882.5203710794 982983.91514122486 0 982983.91514122486 -98905945.914083838 0 0 0 -33562572.187799573 6635141.6186807156 -489673.90407598019 0 -489673.90407598019 -100308030.90927744 0 0 0 -32785511.251708984 2669420.5894459486 751339.13227105141 0 751339.13227105141 -99620758.138914347 0 0 0 -33932968.142313838 7907518.1962003708 -1139233.0538106302 0 -1139233.0538106302 -99533745.043043613 0 0 0 -32069179.396395206 6372645.649289608 -1049570.7174934745 0 -1049570.7174934745 -100193183.41378832 0 0 0 -32837188.217574358 6161327.9612435922 1285889.5751342773 0 1285889.5751342773 -100162838.96828863 0 0 0 -32900528.852465667 6722298.6336375475 1183925.4951688051 0 1183925.4951688051 -99186311.091213346 0 0 0 -32362404.360151649 -2331059.1526501589 6936927.3168232739 0 6936927.3168232739 -100202222.33851825 0 0 0 -35886648.521908954 -9099157.5810941011 10327325.328658521 0 10327325.328658521 -104166532.39093259 0 0 0 -39642991.490209296 -9490376.2379872203 -10618147.704337828 0 -10618147.704337828 -100563970.61479676 0 0 0 -38519021.398474455 -11355974.158853173 -10631087.372027669 0 -10631087.372027669 -101287003.68479687 0 0 0 -39425042.245277524 2433079.1008470058 -86146.272472858429 0 -86146.272472858429 -100335064.28001547 0 0 0 -34265694.812709093 -18106763.591242224 24432061.975187421 0 24432061.975187421 -130191234.26478803 0 0 0 -51904299.249610573 -21009036.578876179 27238132.024006374 0 27238132.024006374 -106140161.15035877 0 0 0 -44502219.205232218 2225081.7133948803 150118.57235598564 0 150118.57235598564 -99780056.718662739 0 0 0 -34144241.251843691 2278280.2304944992 -137675.58700653911 0 -137675.58700653911 -99740510.348933697 0 0 0 -34111780.541453838 -21105733.148889944 -27182058.911885697 0 -27182058.911885697 -106001083.97659105 0 0 0 -44487385.993918329 -16704803.605174348 -23923823.513646629 0 -23923823.513646629 -129574174.26671985 0 0 0 -51197642.255162954 2416198.349641487 67835.560719609261 0 67835.560719609261 -100413191.21800974 0 0 0 -34298947.503928736 2920286.6496706009 -1448829.1014820933 0 -1448829.1014820933 -97769053.316901922 0 0 0 -33197068.333530903 11668891.025257111 330801.91349470615 0 330801.91349470615 -99880282.54224515 0 0 0 -30873987.030945659 -27540468.013401419 6330946.7727244049 0 6330946.7727244049 -89318862.503341436 0 0 0 -40900765.680859998 2509360.3558782339 1546657.028865099 0 1546657.028865099 -96731133.581994772 0 0 0 -32977620.629140735 10565635.081177324 -1012264.1047692895 0 -1012264.1047692895 -100867219.61031437 0 0 0 -31605554.585197955 9685706.8992501497 1283786.9720390216 0 1283786.9720390216 -101205275.99706125 0 0 0 -32031849.184233904 1176652.246784687 941663.44652702659 0 941663.44652702659 -102232050.15696859 0 0 0 -35369389.268564343 -621515.64259748161 -2134807.5012751818 0 -2134807.5012751818 -101660325.14877149 0 0 0 -35798644.276979193 591581.02636382065 -615979.4500310421 0 -615979.4500310421 -94896140.988805085 0 0 0 -33006595.986854464 -48682241.505491495 4254228.4235667465 0 4254228.4235667465 -90422122.845618814 0 0 0 -48686527.522888608 11680119.465598822 106514.50732033927 0 106514.50732033927 -100116050.74769306 0 0 0 -30952575.948733091 1262095.954432427 696146.46408516169 0 696146.46408516169 -89875465.068009511 0 0 0 -31014679.189751923 2060366.8006938696 16008864.190115374 0 16008864.190115374 -108291053.05774519 0 0 0 -37180740.18996793 -40693737.299061619 -36367294.024821356 0 -36367294.024821356 -114725898.22981983 0 0 0 -54396872.43510852 -40334629.191116981 36272358.859735444 0 36272358.859735444 -114905767.79135385 0 0 0 -54334138.943864785 985588.37007117271 -67676.363055735826 0 -67676.363055735826 -100031097.55018759 0 0 0 -34665928.21304059 2611412.318015337 -124813.92827296257 0 -124813.92827296257 -99565939.054896832 0 0 0 -33934084.357908487 982266.06671500206 52249.134361743927 0 52249.134361743927 -100003635.41481876 0 0 0 -34657479.271836042 1896773.9840823412 -15838761.492781077 0 -15838761.492781077 -108797792.73841745 0 0 0 -37415356.564017296 2588387.829113394 118340.65997636318 0 118340.65997636318 -99596290.249706388 0 0 0 -33952765.847207397 11684050.703071639 -85686.064251661301 0 -85686.064251661301 -100141220.34807917 0 0 0 -30960009.375752643 498017.47344970703 862183.70716966689 0 862183.70716966689 -96791686.038256884 0 0 0 -33702783.997682571 1152612.5160149336 -505200.95538158715 0 -505200.95538158715 -93397199.083018064 0 0 0 -32285605.298450947 -36966442.426054358 -4014907.6650050469 0 -4014907.6650050469 -86423559.037990123 0 0 0 -43186500.512415566 -14921281.700276494 15599829.426438453 0 15599829.426438453 -101517710.91578072 0 0 0 -40753647.415619969 -3919105.9994364604 -9380940.6518284976 0 -9380940.6518284976 -100587386.03950728 0 0 0 -36577272.213630341 9272979.836375013 -936695.79977345467 0 -936695.79977345467 -99660065.466464549 0 0 0 -31635479.97053121 6133124.5119466782 1494070.3440780193 0 1494070.3440780193 -98884277.280276299 0 0 0 -32462903.468915462 -987163.56323552132 3912965.9812200591 0 3912965.9812200591 -100980639.3287611 0 0 0 -35688731.012198746 -20364567.52149583 -10925294.366964906 0 -10925294.366964906 -101568678.44145137 0 0 0 -42676636.087031528 11982701.668019056 -43103.07173101604 0 -43103.07173101604 -100387182.01684284 0 0 0 -30941568.122088194 4502489.6714700758 2113923.3081124425 0 2113923.3081124425 -97157995.703900456 0 0 0 -32429427.111350507 4499209.3799884319 -1645128.8720774055 0 -1645128.8720774055 -97095904.110844791 0 0 0 -32408843.155799747 -28033501.489805698 249975.62559048645 0 249975.62559048645 -95898014.616783082 0 0 0 -43376030.637306094 1567578.6245735884 -782907.81138750911 0 -782907.81138750911 -98233090.46754843 0 0 0 -33832929.145041168 9393441.5979249477 624059.49050334096 0 624059.49050334096 -99962027.071084976 0 0 0 -31699004.915606022 -27026481.034360051 13544601.419391748 0 13544601.419391748 -90926951.059381723 0 0 0 -41283701.232809618 2510175.0445050001 -1119691.0058102012 0 -1119691.0058102012 -98895095.547099471 0 0 0 -33734722.175908089 7408326.3432784677 -1734506.5382832289 0 -1734506.5382832289 -99801285.719953775 0 0 0 -32337535.781836212 9561141.4453346729 1117887.0832268596 0 1117887.0832268596 -100670399.36713982 0 0 0 -31888240.272631884 -8659933.628046006 6564240.3120594919 0 6564240.3120594919 -98579053.382430375 0 0 0 -37533645.453666776 1096698.4987699687 -3321451.2697370648 0 -3321451.2697370648 -101530724.53242886 0 0 0 -35151909.111780673 4881297.9503017366 -922949.35642588139 0 -922949.35642588139 -99872635.76347512 0 0 0 -33246968.234610468 7050780.2964529991 908241.4002442807 0 908241.4002442807 -99535558.125546932 0 0 0 -32369672.240182877 8213274.6393258572 -1214705.815199554 0 -1214705.815199554 -101678623.72383666 0 0 0 -32712872.1795789 7622681.4786338285 -798950.12448453903 0 -798950.12448453903 -101405760.87414595 0 0 0 -32824077.788429193 8112395.0428557396 -1603944.6333334297 0 -1603944.6333334297 -99734806.453115463 0 0 0 -32067843.993590832 9927027.4937081337 1172331.0084936619 0 1172331.0084936619 -99927779.022606134 0 0 0 -31500263.035114288 -10465345.542497501 6288409.5035227239 0 6288409.5035227239 -102214291.2499885 0 0 0 -39437872.877370045 -2375355.619232893 -3449596.8737892136 0 -3449596.8737892136 -102652346.2012732 0 0 0 -36759695.637177229 4165311.9458507597 -164448.55704152584 0 -164448.55704152584 -99390600.610985219 0 0 0 -33328851.032797188 2470617.8727903366 265498.99497358501 0 265498.99497358501 -99378139.797856808 0 0 0 -33917632.673773289 -6222193.7140416503 13857028.046290681 0 13857028.046290681 -104284626.83466071 0 0 0 -38677387.192045808 2495738.2295150757 -292692.24057751894 0 -292692.24057751894 -99387723.014941216 0 0 0 -33912194.67489934 -37993968.201168038 30824218.565128062 0 30824218.565128062 -114306144.94238588 0 0 0 -53305039.600243889 -38393910.499802366 -29957123.209510639 0 -29957123.209510639 -114740202.27752322 0 0 0 -53596939.472063944 4239990.5977547169 183895.20424568653 0 183895.20424568653 -99414476.966604948 0 0 0 -33311070.229097605 -5951443.8525384665 -13914908.106708393 0 -13914908.106708393 -104722343.79855454 0 0 0 -38735825.677882552 3264523.6451049745 -43618.174318611622 0 -43618.174318611622 -102311545.46852717 0 0 0 -34666457.63819769 2020277.8290930986 -177684.15272144228 0 -177684.15272144228 -102107469.98577237 0 0 0 -35030517.254837871 9219019.9068905413 -1050717.6028548479 0 -1050717.6028548479 -101241347.53192437 0 0 0 -32207814.6687617 12075943.970389038 118526.42082309723 0 118526.42082309723 -100527791.73407191 0 0 0 -30958146.71728906 5534045.8870711327 1549596.7879725136 0 1549596.7879725136 -100009211.79335833 0 0 0 -33066308.067200661 5849173.2954359055 -1852401.1210794821 0 -1852401.1210794821 -99498458.303753614 0 0 0 -32777249.752911091 -15288973.395761881 571818.46314200759 0 571818.46314200759 -96578883.093867302 0 0 0 -39153749.771370202 8840967.7104792595 -824870.1026712358 0 -824870.1026712358 -100350223.59382343 0 0 0 -32028239.559170485 4118759.2069245577 1529676.2717225552 0 1529676.2717225552 -99546252.29037416 0 0 0 -33399622.579207301 673435.27255322039 2948345.9293369651 0 2948345.9293369651 -101088213.59196293 0 0 0 -35145172.411793396 -16313832.651417345 -10925932.376692044 0 -10925932.376692044 -93065588.347747594 0 0 0 -38282797.349707752 8845283.9549749494 -1758077.761018455 0 -1758077.761018455 -100421815.11472499 0 0 0 -32051785.905912578 10696073.777981997 965045.82631620765 0 965045.82631620765 -101100902.16709304 0 0 0 -31641689.936188936 -3366574.7428303361 2172811.4665777236 0 2172811.4665777236 -100473271.6504339 0 0 0 -36343946.237642467 3824508.8963490129 -1173402.5332410038 0 -1173402.5332410038 -101702321.22250849 0 0 0 -34257234.314155817 4607042.3695766926 -1355308.8131054044 0 -1355308.8131054044 -100001439.80233002 0 0 0 -33388039.101463795 -13683053.729098409 12276001.198835075 0 12276001.198835075 -95905349.975847036 0 0 0 -38355941.296730906 8248382.0704669952 923521.79936873913 0 923521.79936873913 -100233547.30481553 0 0 0 -32194807.83202219 212781.6685525775 -5004698.2313452512 0 -5004698.2313452512 -101359997.19223964 0 0 0 -35401525.433290422 9977759.8819384575 -590607.35771518946 0 -590607.35771518946 -101523069.37278795 0 0 0 -32040858.321797371 9085894.6738957167 581132.24166473746 0 581132.24166473746 -101901463.71293807 0 0 0 -32485449.163664699 8477700.5539921522 206169.32533630729 0 206169.32533630729 -102239774.11255741 0 0 0 -32816725.745497823 10976623.041314721 637044.58126178384 0 637044.58126178384 -101441311.30019116 0 0 0 -31662640.890606642 10807615.312996864 554612.59016728401 0 554612.59016728401 -101393730.4393189 0 0 0 -31705140.29421258 -2835565.636916995 6282254.6216833889 0 6282254.6216833889 -102245167.24765515 0 0 0 -36778256.509600163 -29337872.937310815 -15093887.169847988 0 -15093887.169847988 -101695761.89857611 0 0 0 -45861772.19256039 7627350.0151048899 261770.8323405087 0 261770.8323405087 -102113435.73132277 0 0 0 -33070130.000676274 8292404.2005867958 -255016.10296541452 0 -255016.10296541452 -99925484.259361506 0 0 0 -32071578.020571232 824640.81003308296 365718.81629261374 0 365718.81629261374 -99114518.971312284 0 0 0 -34401457.356447697 -623896.52401030064 -267566.05711014569 0 -267566.05711014569 -95018232.924030662 0 0 0 -33474745.306814373 -33906607.004376583 -17213381.675939228 0 -17213381.675939228 -86243274.290755764 0 0 0 -42052458.453296319 2073651.4694262743 -1590220.1687707752 0 -1590220.1687707752 -96681830.741341114 0 0 0 -33112862.745170116 -37330813.55137293 4045546.6636824757 0 4045546.6636824757 -92179508.679555565 0 0 0 -45328612.780824974 11448917.917024627 244081.82929646969 0 244081.82929646969 -100310938.64532027 0 0 0 -31101707.254903302 2677775.8310818672 846231.60715825856 0 846231.60715825856 -93397406.885763884 0 0 0 -31751870.869138718 10244361.106324792 500655.81231111288 0 500655.81231111288 -101630266.13903536 0 0 0 -31985066.761448741 -340254.2265310064 -1076288.529673636 0 -1076288.529673636 -101243227.88449039 0 0 0 -35554218.738857485 -4049549.2001852244 -226688.12349873781 0 -226688.12349873781 -101802980.94358534 0 0 0 -37048385.550319657 10967264.961438656 -101300.86257440371 0 -101300.86257440371 -99916876.817489147 0 0 0 -31132364.149617672 949091.774932181 424307.6063374877 0 424307.6063374877 -95935415.64865391 0 0 0 -33245213.355802502 936642.66469974397 -936792.5749193728 0 -936792.5749193728 -88348278.352835506 0 0 0 -30594072.490847517 -48634377.713816889 -9574122.5576880537 0 -9574122.5576880537 -90331279.647621542 0 0 0 -48637980.076503456 7791924.8127941787 -1381029.4861462116 0 -1381029.4861462116 -100355529.04242331 0 0 0 -32397261.480370194 8056006.8820362091 1453260.4814792126 0 1453260.4814792126 -99939695.708149433 0 0 0 -32159291.0891397 -4485218.0114061236 7167404.9051589966 0 7167404.9051589966 -100982252.06574166 0 0 0 -36913614.527001679 -4168280.7904178202 -6687715.0912365615 0 -6687715.0912365615 -100740174.78532685 0 0 0 -36717959.451510578 -10242225.787842736 35857112.84734685 0 35857112.84734685 -148819637.07321674 0 0 0 -55671652.001370817 -41951985.422865026 -35859323.475084156 0 -35859323.475084156 -115612734.70506307 0 0 0 -55147652.044774823 -42039020.55878859 36024112.015958399 0 36024112.015958399 -115909514.51252937 0 0 0 -55281987.274961285 -10032395.215227172 -35696049.883565009 0 -35696049.883565009 -148620815.52416286 0 0 0 -55528623.7587865 802967.42702507973 89482.320026516914 0 89482.320026516914 -100245113.17809677 0 0 0 -34804751.01287508 1610617.5308766961 -49907.121987342834 0 -49907.121987342834 -100123500.33518732 0 0 0 -34479508.981508911 1560223.5281271935 48766.273832917213 0 48766.273832917213 -100165784.65782952 0 0 0 -34511946.395395756 818786.36021089554 -69324.080600947142 0 -69324.080600947142 -100211616.51947117 0 0 0 -34787490.555740833 2591375.0834000111 -396465.52855598927 0 -396465.52855598927 -100186420.99598128 0 0 0 -34158266.069403648 4022694.5014462471 359046.24571117759 0 359046.24571117759 -100355743.96607304 0 0 0 -33716567.312619448 3235073.2882204056 -565130.32872378826 0 -565130.32872378826 -99113963.675165653 0 0 0 -33557611.635431051 -6847088.2453064024 10625115.353994086 0 10625115.353994086 -103994677.29151607 0 0 0 -38794617.937887818 5774674.6725783348 460239.02695888281 0 460239.02695888281 -99394728.334142685 0 0 0 -32767018.781547785 -33969006.297419883 -23156392.757443339 0 -23156392.757443339 -107071014.65897374 0 0 0 -49364007.334737785 -6991341.3171756268 14685515.455754474 0 14685515.455754474 -109004625.3176077 0 0 0 -40598588.322174132 -14240805.645770907 -23618526.236957788 0 -23618526.236957788 -96688775.961915657 0 0 0 -38825353.562690318 9550701.0524750948 -730163.0246976316 0 -730163.0246976316 -101922020.50859952 0 0 0 -32329961.809643626 2874759.750539422 1174609.9800332189 0 1174609.9800332189 -101274260.13194811 0 0 0 -34439825.133493066 10779153.340316534 903828.95025737584 0 903828.95025737584 -100470415.87907887 0 0 0 -31391941.888566971 6872966.2829034925 -1831158.1954631805 0 -1831158.1954631805 -99280833.440588295 0 0 0 -32342753.505189717 1483179.201304242 -1292793.2270424366 0 -1292793.2270424366 -101567583.47604582 0 0 0 -35029541.496159509 -16048697.010998547 5616580.3435514644 0 5616580.3435514644 -99570107.123181105 0 0 0 -40466581.446962833 4517662.3207644522 -146885.36324894428 0 -146885.36324894428 -102376277.1665687 0 0 0 -34250515.196031421 6503842.7598465085 -162328.3421176672 0 -162328.3421176672 -101537249.92493474 0 0 0 -33261692.50778091 10523012.759176292 923066.76943522692 0 923066.76943522692 -101521993.53898335 0 0 0 -31849643.272932492 12124711.783322573 -100519.29328560829 0 -100519.29328560829 -100193192.73816252 0 0 0 -30823968.334194422 4227873.3308112621 1952526.8397042155 0 1952526.8397042155 -99248408.524465561 0 0 0 -33257187.317778945 3889291.3607231379 -1898897.502050519 0 -1898897.502050519 -99283727.264352322 0 0 0 -33388052.566270232 -18829582.027742535 -1125683.3590170592 0 -1125683.3590170592 -92178684.287578553 0 0 0 -38852893.210362375 10345054.699895144 875133.86606901884 0 875133.86606901884 -101273925.26690578 0 0 0 -31825104.698453903 9626748.5596125126 -1416752.9553934336 0 -1416752.9553934336 -100753202.62278843 0 0 0 -31894258.92211175 10087800.134372592 1336808.2683831453 0 1336808.2683831453 -100883738.45150697 0 0 0 -31778578.410997093 231570.16735330224 2238190.6433157921 0 2238190.6433157921 -100693307.40188175 0 0 0 -35161608.032084942 1901526.6346701384 -1960800.7050993517 0 -1960800.7050993517 -101601412.85891223 0 0 0 -34894960.178484678 9313072.8843519688 -1089836.0768960714 0 -1089836.0768960714 -100283583.31765509 0 0 0 -31839678.651655912 6094011.2026793957 1573519.1826649904 0 1573519.1826649904 -100122201.22345209 0 0 0 -32909866.507270575 362113.71455353498 3595673.8306849301 0 3595673.8306849301 -101317817.15430284 0 0 0 -35334496.203912258 -10692056.151535392 -9314619.9562794566 0 -9314619.9562794566 -97291185.698971748 0 0 0 -37794134.647677481 3002262.2958515808 -352497.33982872963 0 -352497.33982872963 -101893975.28340521 0 0 0 -34612099.545643754 7809564.5529580116 -1006029.2385339141 0 -1006029.2385339141 -100441845.16280127 0 0 0 -32421298.213445187 5838340.6417825222 1373383.5100191236 0 1373383.5100191236 -99414362.114089727 0 0 0 -32751607.515307426 -2836132.3101679683 6855526.4035506845 0 6855526.4035506845 -103541569.32209837 0 0 0 -37232195.571293235 -17145310.037281245 -11079249.508464336 0 -11079249.508464336 -99866366.674626708 0 0 0 -40954086.849167794 10386160.729888648 -771924.19054877758 0 -771924.19054877758 -101849687.57097405 0 0 0 -32012234.394379884 6040804.6044507623 -1743714.7499986291 0 -1743714.7499986291 -98537441.946021676 0 0 0 -32373823.069549978 -22425760.236178964 8545545.5210518353 0 8545545.5210518353 -100172584.4678936 0 0 0 -42909420.646425396 10411300.249243736 770629.05523209274 0 770629.05523209274 -100140035.35763741 0 0 0 -31405057.287938118 400521.16522784531 -1355805.8385739326 0 -1355805.8385739326 -100642810.89011821 0 0 0 -35084801.403711662 7796016.4008641243 1317694.6723524332 0 1317694.6723524332 -99282423.550813437 0 0 0 -32020242.502482295 8017620.6809418201 -1256441.1227638721 0 -1256441.1227638721 -99330661.190914631 0 0 0 -31959564.178490639 -11714374.979329884 -8888397.7320531905 0 -8888397.7320531905 -103991036.91519016 0 0 0 -40496894.163082004 -10373233.760976493 8245252.2054958493 0 8245252.2054958493 -104205419.97507632 0 0 0 -40102528.807618439 11272956.315122724 103622.43434104323 0 103622.43434104323 -101284809.42596531 0 0 0 -31504148.588794589 4838715.4381670952 602946.06649169326 0 602946.06649169326 -102116829.57771587 0 0 0 -34047339.948842049 5596226.3683863878 133103.19908976555 0 133103.19908976555 -101967249.33227885 0 0 0 -33729858.037362337 8955631.9555841684 -1494843.1348009109 0 -1494843.1348009109 -100611304.61171603 0 0 0 -32079485.429646015 10100684.569592714 1251426.612711221 0 1251426.612711221 -100048647.60949183 0 0 0 -31481787.063964367 8285439.2977663279 -1758947.6844636202 0 -1758947.6844636202 -100388673.56308866 0 0 0 -32236131.992862821 9852283.0835309029 1226646.9983574152 0 1226646.9983574152 -100618421.8609798 0 0 0 -31768148.572106838 -4839292.2543966174 4678815.4159825444 0 4678815.4159825444 -102037723.95004654 0 0 0 -37406955.671555102 -2396716.5308788419 -2927236.7869787514 0 -2927236.7869787514 -102402115.60674304 0 0 0 -36679591.248167634 -4134120.9772702754 4537749.773244217 0 4537749.773244217 -99292406.248137057 0 0 0 -36199284.528892547 1771213.9684422016 -2834298.0147013962 0 -2834298.0147013962 -101104806.51412648 0 0 0 -34766757.390989482 9190301.3585398197 -660125.56850191951 0 -660125.56850191951 -99647387.734087944 0 0 0 -31659980.231441975 4411586.627650708 1278383.6798305511 0 1278383.6798305511 -98005001.387006998 0 0 0 -32757695.165774614 177285.36271277815 3142596.5205130875 0 3142596.5205130875 -99369238.048998356 0 0 0 -34717183.440199934 -32645321.22467646 -13975636.970120531 0 -13975636.970120531 -102990004.99347895 0 0 0 -47472364.176354408 11172447.969332218 -879739.7170043448 0 -879739.7170043448 -100482856.76945138 0 0 0 -31258643.080041647 10578091.901036501 -898120.86523151398 0 -898120.86523151398 -100738206.54626799 0 0 0 -31556040.125830889 7501281.4310133737 1866332.9407454133 0 1866332.9407454133 -100600388.40419504 0 0 0 -32584687.440613478 7893848.7523863912 1891622.8440884948 0 1891622.8440884948 -99473401.724274993 0 0 0 -32052843.540161073 4045228.6548343338 397714.94897037745 0 397714.94897037745 -101467836.02832137 0 0 0 -34097912.580720484 1929745.140514493 1714259.0747713447 0 1714259.0747713447 -101748989.32050663 0 0 0 -34936735.462997198 -7209037.2681729496 -4030858.7563343877 0 -4030858.7563343877 -98458500.936353564 0 0 0 -36983638.371584237 -11442759.944663703 -4303764.1950886175 0 -4303764.1950886175 -100493943.41003883 0 0 0 -39177846.174145877 2059643.104703784 -825375.07879662514 0 -825375.07879662514 -97187252.297176838 0 0 0 -33294663.217365503 -33594165.606609978 9419508.2790280916 0 9419508.2790280916 -88851305.8169505 0 0 0 -42855914.998246171 11168825.615926981 231901.87331360579 0 231901.87331360579 -99867001.209610939 0 0 0 -31044361.457789421 1756411.4673679471 1268268.7609618902 0 1268268.7609618902 -94744485.630651772 0 0 0 -32545825.957149327 10087285.659638882 -1243617.9118221402 0 -1243617.9118221402 -101210106.1243701 0 0 0 -31892987.162656069 10027934.964368701 1302945.4351804256 0 1302945.4351804256 -100544581.00546479 0 0 0 -31680826.11438334 742550.97443687916 2452728.3151581287 0 2452728.3151581287 -101930550.92395353 0 0 0 -35415799.982330799 14853.840515613556 -2113990.7435916364 0 -2113990.7435916364 -101316782.4707185 0 0 0 -35455675.020570993 8917112.5930583477 -1388811.5701928139 0 -1388811.5701928139 -99778225.661149025 0 0 0 -31801389.573831677 7751938.5185260773 1584873.2894845009 0 1584873.2894845009 -100390123.66741514 0 0 0 -32423364.802111387 -3085678.7116774917 4572889.3175583631 0 4572889.3175583631 -100993082.3590076 0 0 0 -36427566.374739707 -6585855.773447156 -6943824.2541253567 0 -6943824.2541253567 -102128326.04478663 0 0 0 -38049963.636381805 9998137.1585636735 557855.14425963163 0 557855.14425963163 -102046239.82550442 0 0 0 -32216835.93342942 -48764272.589866757 -6590824.7550009014 0 -6590824.7550009014 -90566156.350173637 0 0 0 -48765650.129014142 1299894.415274116 -1143264.9991947412 0 -1143264.9991947412 -89836389.104845807 0 0 0 -30987773.141350176 1279267.9400460329 364326.41397219896 0 364326.41397219896 -94497377.702991799 0 0 0 -32626338.417030971 11697196.20690155 -57246.926703865276 0 -57246.926703865276 -99934279.861137867 0 0 0 -30882979.278983116 -10710396.232390715 12778736.052074865 0 12778736.052074865 -117998329.83937521 0 0 0 -45048054.125118092 -56441494.443469182 -34153861.620798513 0 -34153861.620798513 -104753005.25387986 0 0 0 -56418074.89407216 2510793.7646641731 -32120.532225599036 0 -32120.532225599036 -100298720.51320505 0 0 0 -34225774.36198926 443143.96706318855 11628.703117489815 0 11628.703117489815 -99941827.215413094 0 0 0 -34824539.136922359 427770.29205959983 -32596.11591553688 0 -32596.11591553688 -99932916.924899206 0 0 0 -34826801.321493924 -56174610.423947856 34106878.411091134 0 34106878.411091134 -104256799.90683831 0 0 0 -56150993.615775153 2527597.6697182655 36497.431443994174 0 36497.431443994174 -100301038.89218473 0 0 0 -34220704.427863121 -10683528.227809234 -12716638.320946023 0 -12716638.320946023 -118065575.88907547 0 0 0 -45062186.440909639 5311070.3050968647 -1471248.5735693723 0 -1471248.5735693723 -98759354.198853016 0 0 0 -32706899.362814665 -23537373.577445164 12025514.9666989 0 12025514.9666989 -101157041.68527837 0 0 0 -43643045.341953263 9505056.1731823087 853483.52283585072 0 853483.52283585072 -99616518.356884301 0 0 0 -31539011.764295518 -501980.06171929836 -2535302.7627439275 0 -2535302.7627439275 -100386233.43508363 0 0 0 -35310874.723881006 11666689.43528688 -126415.60211843252 0 -126415.60211843252 -101322344.41132712 0 0 0 -31379479.241614223 7240281.5760422945 1151326.3890723288 0 1151326.3890723288 -100814798.8638587 0 0 0 -32751081.050735831 6409418.9049991369 -837074.74257445335 0 -837074.74257445335 -100968862.45487428 0 0 0 -33095805.242456198 -9048597.7175026834 -681844.53324866295 0 -681844.53324866295 -101390450.57543045 0 0 0 -38653666.902526528 8796423.5584149361 -803136.95805260818 0 -803136.95805260818 -101989262.03680921 0 0 0 -32617493.467438102 622428.67723435163 339456.91001465917 0 339456.91001465917 -101558449.33478546 0 0 0 -35327607.230142891 7296442.1786401868 -54503.541692197323 0 -54503.541692197323 -102275510.05867356 0 0 0 -33242673.758011639 10618332.556559443 -805026.98105931282 0 -805026.98105931282 -100444830.64890647 0 0 0 -31439274.332321763 5852279.633660078 1965121.9356893599 0 1965121.9356893599 -99628414.900747538 0 0 0 -32821647.343480587 3081619.8623878956 658037.64546374977 0 658037.64546374977 -101240874.53015625 0 0 0 -34355739.133718967 -13776694.398153141 -6187306.781428054 0 -6187306.781428054 -95932509.022003144 0 0 0 -38398221.197054699 11182183.290214688 -142540.03226590157 0 -142540.03226590157 -100156886.05216199 0 0 0 -31141145.96668157 -23049.466119170189 754281.55311787128 0 754281.55311787128 -97400889.598546028 0 0 0 -34098378.672632933 -103460.29125487804 -344456.52440240234 0 -344456.52440240234 -93345296.053244591 0 0 0 -32707064.720574737 -36012639.893832147 -7133722.0319800861 0 -7133722.0319800861 -83672559.373695105 0 0 0 -41889819.743634537 10051501.562576175 -1018820.2447216511 0 -1018820.2447216511 -101038885.64382386 0 0 0 -31845584.428436756 670586.65386909246 751290.17880898714 0 751290.17880898714 -102285603.22927833 0 0 0 -35565255.801393211 10989708.035358906 -767074.25137272477 0 -767074.25137272477 -101384107.52090168 0 0 0 -31638039.81994009 9122757.3921849132 1283509.6975436211 0 1283509.6975436211 -101165370.96724427 0 0 0 -32214914.751270831 5501566.9701551795 284717.94301092625 0 284717.94301092625 -101991860.58196604 0 0 0 -33771602.764133811 -218847.97301822901 -949846.54420368373 0 -949846.54420368373 -101194875.1880796 0 0 0 -35494803.106384218 -40300825.982614681 7938160.8023878001 0 7938160.8023878001 -88246690.946987063 0 0 0 -44991630.925360613 632503.73983216286 -752998.85472512245 0 -752998.85472512245 -97031142.53150177 0 0 0 -33739523.577084184 1599726.8304264545 470243.04439121485 0 470243.04439121485 -91187722.887664914 0 0 0 -31355798.620033443 11023228.458887339 167605.82256358862 0 167605.82256358862 -100278534.77680397 0 0 0 -31239357.211271048 11957684.294985682 -117944.25470435619 0 -117944.25470435619 -100748834.44613057 0 0 0 -31076902.552900642 6697539.6576303244 1683419.2469248921 0 1683419.2469248921 -100799551.7955544 0 0 0 -32935704.248273373 6471369.1498486996 -1174019.7633396685 0 -1174019.7633396685 -101124015.38520741 0 0 0 -33128426.182375669 -7709555.08688353 41626.967800408602 0 41626.967800408602 -98072158.947714552 0 0 0 -37023599.912109241 11491845.603871226 567342.78516685963 0 567342.78516685963 -100604889.05952644 0 0 0 -31189565.209479332 4000775.706525147 272577.76662585139 0 272577.76662585139 -100716721.09522915 0 0 0 -33850580.88604635 7296073.7836083174 -1793041.2510249615 0 -1793041.2510249615 -99867356.512210846 0 0 0 -32399948.95501101 -13161712.312733233 3566566.0731728673 0 3566566.0731728673 -99702331.447518826 0 0 0 -39502415.3160882 7809993.0076682568 -1611921.5177328587 0 -1611921.5177328587 -100325123.94619083 0 0 0 -32380295.828483105 8767991.5083520412 1389856.0687344074 0 1389856.0687344074 -100418924.20120859 0 0 0 -32077826.442500114 -3878798.8289577961 5979672.673209399 0 5979672.673209399 -98952445.731306314 0 0 0 -35990935.596092463 -699006.41721761227 -4518370.3361600041 0 -4518370.3361600041 -100479377.57754219 0 0 0 -35412434.398165941 10339120.415107727 3773.8387430906296 0 3773.8387430906296 -102036883.65830684 0 0 0 -32094217.135119796 7936465.8580057621 475622.80985169113 0 475622.80985169113 -102160232.5251019 0 0 0 -32978318.333483577 10862890.874123123 -885157.55830788612 0 -885157.55830788612 -100128326.6721506 0 0 0 -31242902.529309724 6846046.6433935165 1688926.4393472355 0 1688926.4393472355 -99698406.022609472 0 0 0 -32498325.782725692 1748526.8591282964 1073243.717670504 0 1073243.717670504 -101076020.15395331 0 0 0 -34764622.653188765 -13857609.603037877 -6879054.7557006627 0 -6879054.7557006627 -99112472.669664323 0 0 0 -39539528.795445785 -4122114.9070238471 9534096.2575468123 0 9534096.2575468123 -101098359.01593459 0 0 0 -36827165.873035431 -14569364.771202609 -15493992.15169695 0 -15493992.15169695 -100527354.59584618 0 0 0 -40283851.778467074 7296677.0437713861 -113402.45309153199 0 -113402.45309153199 -102316306.61349177 0 0 0 -33256870.349401951 8185032.8198465705 -671503.13397806883 0 -671503.13397806883 -102021084.06299624 0 0 0 -32842617.935102284 11756359.79436025 -259877.33040606976 0 -259877.33040606976 -100458145.5671584 0 0 0 -31045625.020479113 11892601.623981893 -307780.40904092789 0 -307780.40904092789 -100361664.0755384 0 0 0 -30964171.858044684 4834814.352042079 2203167.7258442268 0 2203167.7258442268 -97871343.785401583 0 0 0 -32562785.301675916 5218144.6121935844 1861667.7506509125 0 1861667.7506509125 -98657813.850312471 0 0 0 -32703884.233341455 4314366.2554907799 -1150495.5571638867 0 -1150495.5571638867 -97818831.978263378 0 0 0 -32726563.002970457 4071226.5587215424 -1497691.0141970962 0 -1497691.0141970962 -98729952.895075083 0 0 0 -33130554.217723727 -25602480.364542421 -1942281.9569303319 0 -1942281.9569303319 -96092565.60311234 0 0 0 -42593266.088679165 -21330348.546646759 -3640384.6385022253 0 -3640384.6385022253 -95903716.58003208 0 0 0 -41031922.794337586 10108387.419881612 -682893.77734410763 0 -682893.77734410763 -99701626.083995998 0 0 0 -31357633.532439917 4888480.1332895756 1589884.3303238079 0 1589884.3303238079 -98131561.273671627 0 0 0 -32635078.399133921 2045368.1664526463 1389799.7124008313 0 1389799.7124008313 -97858943.526501656 0 0 0 -33534751.376017213 -27838528.788671121 -10823741.133744851 0 -10823741.133744851 -99249865.943415493 0 0 0 -44480938.156230286 6841911.5755007267 -1427420.7835892141 0 -1427420.7835892141 -98817418.790165901 0 0 0 -32191427.525133133 8601088.3346478343 1033413.2199320793 0 1033413.2199320793 -99676731.642477036 0 0 0 -31876475.157740414 -18793165.823899768 10700916.17768462 0 10700916.17768462 -103914404.41969632 0 0 0 -42947649.585258625 -4994672.9610109329 -6654321.2581259683 0 -6654321.2581259683 -102873468.35891759 0 0 0 -37753849.461975038 383818.425968647 5057925.7059278488 0 5057925.7059278488 -100614169.30113041 0 0 0 -35080622.806306541 -16161818.557322107 -13267511.813605741 0 -13267511.813605741 -94677119.816999555 0 0 0 -38793628.431012563 11979666.771854162 124603.461828053 0 124603.461828053 -100477954.30177116 0 0 0 -30974400.635470867 5002743.777267158 1683591.3034284115 0 1683591.3034284115 -98501956.835448444 0 0 0 -32724724.570363462 5418591.8260564804 -1800119.484302938 0 -1800119.484302938 -98668027.915974617 0 0 0 -32637302.631471276 -21683117.208998233 1573147.7237224355 0 1573147.7237224355 -97088558.963710189 0 0 0 -41570086.660447955 11368847.271476269 135188.82687580585 0 135188.82687580585 -101494931.12041855 0 0 0 -31544129.347129703 7727614.4059829712 741979.99226284027 0 741979.99226284027 -101999853.08317339 0 0 0 -32995283.537016749 11340781.772914171 -585517.43035024405 0 -585517.43035024405 -100092882.64271307 0 0 0 -31063235.304429531 4374497.8799582124 1881105.2810838223 0 1881105.2810838223 -99514256.380211234 0 0 0 -33298915.475088537 3276511.62833336 -429858.06910842657 0 -429858.06910842657 -99810774.756216347 0 0 0 -33786992.094759196 -17008327.553450733 -6407221.7484188639 0 -6407221.7484188639 -92062652.121065497 0 0 0 -38174842.886080652 7301348.7546920776 -797788.16106447577 0 -797788.16106447577 -102120761.09506607 0 0 0 -33186794.319130898 9439556.4291191101 -361068.00897678733 0 -361068.00897678733 -102193213.61087203 0 0 0 -32463780.013613582 7080397.6154762283 -293526.22903972864 0 -293526.22903972864 -102495341.3964099 0 0 0 -33395230.323326848 11321255.878317237 -472291.37911736965 0 -472291.37911736965 -100303803.75038075 0 0 0 -31143891.755222321 5477018.9704965353 2111877.5951531827 0 2111877.5951531827 -97420586.235891342 0 0 0 -32180248.542888284 3876785.0395630598 -548173.96776247025 0 -548173.96776247025 -97347503.890599251 0 0 0 -32714751.59786272 -27980503.685314745 -4926264.0760389715 0 -4926264.0760389715 -98331109.166306406 0 0 0 -44209064.498067379 8689601.4904514216 621647.69008028507 0 621647.69008028507 -101777084.21251364 0 0 0 -32580618.952721868 11934610.63477397 321221.4826708138 0 321221.4826708138 -100336758.20146179 0 0 0 -30940751.64834094 4682747.9615424871 1239441.0534495711 0 1239441.0534495711 -99911288.353809357 0 0 0 -33329989.137293458 5255869.9669177532 -2062063.4805234671 0 -2062063.4805234671 -99446029.457184315 0 0 0 -32966555.821593285 -15788784.487957716 2313945.1131185256 0 2313945.1131185256 -93593205.072001755 0 0 0 -38283696.3459858 1484919.2501987605 3090876.5640580058 0 3090876.5640580058 -99845296.552338824 0 0 0 -34426132.055748962 -2856426.9279433191 5959800.9776591957 0 5959800.9776591957 -103248385.85493565 0 0 0 -37136684.474007636 -24724870.484400861 -16048460.150955077 0 -16048460.150955077 -93087219.407055438 0 0 0 -41234231.462009706 -31356195.333145261 -17841642.354493424 0 -17841642.354493424 -97934704.008461595 0 0 0 -45251814.769562408 8342812.8916389942 67187.965345621109 0 67187.965345621109 -102206455.09664631 0 0 0 -32852274.771752477 -14844115.325754136 -14148738.733780973 0 -14148738.733780973 -108545724.52702725 0 0 0 -43186443.948473483 -20562737.751596168 16676586.302918792 0 16676586.302918792 -105316189.64826459 0 0 0 -44057624.589951292 7696581.236743018 -717716.84994482994 0 -717716.84994482994 -100449906.24467933 0 0 0 -32463663.752777532 8277364.4312432557 -887631.61832273006 0 -887631.61832273006 -99523160.197041124 0 0 0 -31936028.518029138 3739224.5836324692 1249184.3349118046 0 1249184.3349118046 -99252228.03501606 0 0 0 -33429551.207984447 4778853.3571062088 1198279.6648042761 0 1198279.6648042761 -99218406.082299709 0 0 0 -33053843.453817368 -29517069.500676408 17347469.551447921 0 17347469.551447921 -97694371.738742068 0 0 0 -44524004.43379645 -2481535.8746567965 -5919511.7024331093 0 -5919511.7024331093 -102924731.62575483 0 0 0 -36892193.625144064 2900699.3997191787 -871391.33099281788 0 -871391.33099281788 -99283704.059339046 0 0 0 -33734051.630867064 6705588.4592921734 461190.63118213415 0 461190.63118213415 -100223577.38085318 0 0 0 -32731296.122546434 -23590058.814090639 15216039.575448245 0 15216039.575448245 -92739245.340736985 0 0 0 -40715256.454189658 1232747.3132719994 -2978600.0565633774 0 -2978600.0565633774 -101510950.29535592 0 0 0 -35097371.043729305 2550548.9126348495 -1050358.6815673113 0 -1050358.6815673113 -99684635.611691475 0 0 0 -33996930.344669819 7888641.8934643269 620187.66886413097 0 620187.66886413097 -99790337.518968344 0 0 0 -32165593.46892643 9095531.0681817532 -1516320.1946237087 0 -1516320.1946237087 -100360636.68537259 0 0 0 -31942786.96601665 8785725.4097032547 -1381519.0234119445 0 -1381519.0234119445 -100048363.17581415 0 0 0 -31941923.218138695 8902839.5057697296 1494632.5903426409 0 1494632.5903426409 -100607004.62865686 0 0 0 -32096457.793010473 9227832.403052628 1425863.0136344433 0 1425863.0136344433 -99537199.206567407 0 0 0 -31608278.381230056 -1616262.2780706882 4090980.4820061624 0 4090980.4820061624 -100512314.98290348 0 0 0 -35745002.041340947 -6257414.3412282467 5702103.5643062294 0 5702103.5643062294 -103361029.73569313 0 0 0 -38366455.426922441 -1078775.3051308393 -4375802.5644011497 0 -4375802.5644011497 -100776678.14451766 0 0 0 -35649408.707376897 -5304748.4635042548 -4798377.1666569039 0 -4798377.1666569039 -102477857.55855739 0 0 0 -37723912.107721627 4335969.9341208935 -1563402.0874561667 0 -1563402.0874561667 -98346361.693335056 0 0 0 -32903637.11572504 9125174.4885780811 726890.1821745038 0 726890.1821745038 -100341006.42524672 0 0 0 -31925541.177833796 -27928699.281183451 10895556.21168128 0 10895556.21168128 -96987633.44894132 0 0 0 -43720716.455543667 932734.49693119526 -2672860.1686715484 0 -2672860.1686715484 -100036088.13676453 0 0 0 -34686173.773941636 6940700.5068625212 78869.333037629724 0 78869.333037629724 -102019502.83663821 0 0 0 -33277580.815421581 5472861.526768446 -283612.16784085333 0 -283612.16784085333 -101910776.91398191 0 0 0 -33753270.38552475 6287682.3110648394 -170352.72489991784 0 -170352.72489991784 -101780171.61816955 0 0 0 -33422371.257486582 6776778.376947403 -945833.86705005169 0 -945833.86705005169 -99523242.625540257 0 0 0 -32461262.487007618 5029202.5990102291 973922.3681756556 0 973922.3681756556 -99935579.77873373 0 0 0 -33217232.012903214 -3448216.9558526278 8232956.5821327567 0 8232956.5821327567 -105574637.63478535 0 0 0 -38157999.106723338 -16740826.993241251 -14950318.343572155 0 -14950318.343572155 -95289994.336908251 0 0 0 -39210787.46555236 -20979824.469469056 25971095.841227226 0 25971095.841227226 -98700277.8997491 0 0 0 -41888035.829226375 -6997542.267616272 -14362522.180553302 0 -14362522.180553302 -108500526.24893647 0 0 0 -40424323.980793476 4875199.1284284592 -1898931.689250499 0 -1898931.689250499 -97911495.971809387 0 0 0 -32562703.895183325 -27484492.29291711 7248136.9078490138 0 7248136.9078490138 -97383217.214003339 0 0 0 -43703698.327422149 10683441.524631262 550915.87469494343 0 550915.87469494343 -100317262.94188595 0 0 0 -31371837.496039152 2267219.9906671047 -247796.5092792511 0 -247796.5092792511 -98185873.26877594 0 0 0 -33571528.647338152 -16715503.091370404 17724162.399949789 0 17724162.399949789 -98556719.474352866 0 0 0 -40345277.898003161 -2023631.3887457252 -10669685.290990785 0 -10669685.290990785 -102461393.4901185 0 0 0 -36569758.707602441 8740814.9287340641 -149957.54108047485 0 -149957.54108047485 -100144254.8927412 0 0 0 -31991203.987402439 812677.16747453262 305844.68123316765 0 305844.68123316765 -98018016.6376037 0 0 0 -34021868.814545132 1126055.8558957013 -62033.045509845018 0 -62033.045509845018 -86660544.312222689 0 0 0 -29937070.959714469 -50377721.320688643 -15323673.449811088 0 -15323673.449811088 -93565445.426054627 0 0 0 -50380108.36136014 12053464.830663443 -44768.032304763794 0 -44768.032304763794 -99935748.69831419 0 0 0 -30758799.353677511 1655364.9073803425 695223.51750177145 0 695223.51750177145 -94689244.120836258 0 0 0 -32561857.72470963 856136.42335379124 -1014135.7625323534 0 -1014135.7625323534 -94114236.403764009 0 0 0 -32640334.993143439 -38876774.49460724 -2384780.0741305426 0 -2384780.0741305426 -87149400.596184164 0 0 0 -44109161.281776987 2500446.1444820166 274931.26562601328 0 274931.26562601328 -100766823.76319963 0 0 0 -34393232.166551113 3306383.5986968279 -815712.07252860069 0 -815712.07252860069 -100135651.33425522 0 0 0 -33890243.707445502 5546888.0067853928 562462.59498816729 0 562462.59498816729 -100201709.89557076 0 0 0 -33129187.661074638 8485112.7561026812 -216794.18046808243 0 -216794.18046808243 -102201756.89949799 0 0 0 -32800825.45018816 1414256.325976491 -1432686.8800478131 0 -1432686.8800478131 -96240730.422964334 0 0 0 -33189265.933945656 2500571.0479092598 -1344688.2236536443 0 -1344688.2236536443 -93458668.529626131 0 0 0 -31835334.118601084 5223394.4954873323 -230362.36665451527 0 -230362.36665451527 -99741750.503105164 0 0 0 -33081424.602666497 913806.78822422028 323006.4006575942 0 323006.4006575942 -99931012.302850723 0 0 0 -34656021.930119514 5105728.6725051329 284725.11642277241 0 284725.11642277241 -100479536.30951372 0 0 0 -33380832.672953136 1797895.2664408684 -476046.9701477997 0 -476046.9701477997 -99731354.35495472 0 0 0 -34276710.680979967 -3864215.1081194282 -8832953.8965733722 0 -8832953.8965733722 -106818373.27681118 0 0 0 -38738905.934725702 -36272541.235696584 22665000.888524152 0 22665000.888524152 -96947914.541259348 0 0 0 -46627159.521934554 5544300.1323122978 221194.78808283806 0 221194.78808283806 -99553454.403914332 0 0 0 -32903203.995060444 1093135.8144292831 -290379.42585837841 0 -290379.42585837841 -99682016.916181564 0 0 0 -34506108.385613203 4805370.6877189279 -3748271.1256336868 0 -3748271.1256336868 -97049449.94512558 0 0 0 -32285427.740092337 -38493370.977559201 25147917.596922819 0 25147917.596922819 -95432842.091801286 0 0 0 -46874174.574276164 4622114.8948684037 3689433.2476657853 0 3689433.2476657853 -96750302.399421215 0 0 0 -32244865.6265935 -38142701.025579214 -25066626.174983509 0 -25066626.174983509 -95353215.287784249 0 0 0 -46723570.709677204 -3634525.275673151 8313234.3160302639 0 8313234.3160302639 -107337575.69308257 0 0 0 -38840235.339064479 -32865063.324157298 -21826790.004192367 0 -21826790.004192367 -95530410.342232853 0 0 0 -44938415.783236533 10578223.462060928 611691.3671990037 0 611691.3671990037 -101768436.03493261 0 0 0 -31916574.400505066 9548057.7544605136 -9786.7891302704811 0 -9786.7891302704811 -102280293.03068316 0 0 0 -32456282.346677959 3449112.2917765975 -164861.54510834813 0 -164861.54510834813 -102404017.13926935 0 0 0 -34634216.696622312 4309319.412919566 -804771.8396025002 0 -804771.8396025002 -101497677.62643796 0 0 0 -34015925.374731377 3974306.6934435889 -706224.733109653 0 -706224.733109653 -102343548.75742136 0 0 0 -34429234.722392268 -956913.17896361649 651686.2658881247 0 651686.2658881247 -102071665.74983686 0 0 0 -36060002.625080064 4382953.0748251677 -1821697.3284020424 0 -1821697.3284020424 -99342827.432832956 0 0 0 -33235956.025302529 -18954382.666198924 8288802.2480304688 0 8288802.2480304688 -93116946.395048797 0 0 0 -39224965.171436697 10353315.586348653 663628.45331764221 0 663628.45331764221 -100131120.25988746 0 0 0 -31422231.63573873 3100467.5479391813 -747540.08765152097 0 -747540.08765152097 -99612746.298244834 0 0 0 -33779297.56260699 8376101.3460437357 758377.37520045042 0 758377.37520045042 -101879807.43739867 0 0 0 -32726297.13197419 11433724.826447248 549629.88276049495 0 549629.88276049495 -100685016.09617805 0 0 0 -31237951.944405794 6402102.4327340722 -2163334.8172180057 0 -2163334.8172180057 -99534675.615462184 0 0 0 -32596400.613954842 4615601.8467364311 387250.51427775621 0 387250.51427775621 -100703665.09065437 0 0 0 -33630822.135371268 -13805982.564773262 2643384.5449923351 0 2643384.5449923351 -97054059.955791533 0 0 0 -38801014.882197618 5090123.1797306538 -274025.2689319551 0 -274025.2689319551 -99947328.434342384 0 0 0 -33200021.839113951 2607096.9138237834 389365.38565897942 0 389365.38565897942 -99120035.788814902 0 0 0 -33779528.606247246 5301049.2020418644 -424958.18187214527 0 -424958.18187214527 -100278162.42034435 0 0 0 -33241989.626405954 1880375.8954344336 614624.47345006466 0 614624.47345006466 -100071723.64399642 0 0 0 -34366971.711996742 6462510.1583557129 -1501374.2879453301 0 -1501374.2879453301 -100101958.40602303 0 0 0 -32773806.886683702 8725261.2906591892 1267392.2557030916 0 1267392.2557030916 -100269237.46927333 0 0 0 -32040391.662514925 -8327460.1924686581 8779232.5428593755 0 8779232.5428593755 -97663658.299023837 0 0 0 -37096891.47202237 -19168.460093736649 -5024200.4245164767 0 -5024200.4245164767 -101183270.58180785 0 0 0 -35420853.664665639 4897631.8013679981 -269226.30914971232 0 -269226.30914971232 -102466962.31904483 0 0 0 -34149265.681186795 5876986.2463207245 -348680.15946164727 0 -348680.15946164727 -102498018.55896068 0 0 0 -33817361.309423804 5719887.8971735537 -669972.7315261364 0 -669972.7315261364 -100119845.60718119 0 0 0 -33039985.19850263 3659718.0002510548 812807.18183322996 0 812807.18183322996 -99953948.305260181 0 0 0 -33702980.606753588 6122874.8091292381 -1383064.5826599598 0 -1383064.5826599598 -100222125.54937077 0 0 0 -32934737.759084463 7335256.7062598467 1249856.6080309153 0 1249856.6080309153 -100102923.63426042 0 0 0 -32468683.424800038 -6922900.141441077 9820602.7082467228 0 9820602.7082467228 -98880878.183116168 0 0 0 -37031322.413595051 -2396660.4705458879 -7806379.7007969916 0 -7806379.7007969916 -99538901.229145169 0 0 0 -35677446.594891906 8808592.0256028175 -1368814.2131322324 0 -1368814.2131322324 -101718016.00630808 0 0 0 -32518298.393246651 9380463.6706687212 -1253873.4018427134 0 -1253873.4018427134 -100617420.557477 0 0 0 -31932934.910382867 66413.171045005322 1283360.7072869539 0 1283360.7072869539 -100552668.69786286 0 0 0 -35170189.434386194 -3644047.381945461 1592890.1852154732 0 1592890.1852154732 -102321825.87181991 0 0 0 -37088055.638817877 11753287.443764329 -171028.24037313461 0 -171028.24037313461 -100148213.02613354 0 0 0 -30938223.953829169 11654358.532836437 -268334.41051924229 0 -268334.41051924229 -99998091.334012508 0 0 0 -30920306.48041153 2770858.086545229 1351274.9274167717 0 1351274.9274167717 -95270350.233886003 0 0 0 -32374822.251569271 1826707.3826770782 1278289.4416594505 0 1278289.4416594505 -97830768.814763308 0 0 0 -33601421.50123024 -39531770.336825982 -4783071.6951509379 0 -4783071.6951509379 -93044530.163759083 0 0 0 -46401705.175204784 -29608144.180265777 -6129009.0728736073 0 -6129009.0728736073 -87404017.167771384 0 0 0 -40954256.471813008 11210419.977146387 -314034.69897967577 0 -314034.69897967577 -101351367.36499357 0 0 0 -31549331.585746527 8800155.5408233404 1099948.1259377599 0 1099948.1259377599 -101762092.87895155 0 0 0 -32536678.068344712 11390150.356043234 -333555.64715051651 0 -333555.64715051651 -101404355.26671901 0 0 0 -31504971.718736514 8093699.7648863792 1086793.4126261026 0 1086793.4126261026 -101449331.57068396 0 0 0 -32674471.132029057 4327531.5506460667 -393259.4465842247 0 -393259.4465842247 -100122047.30761242 0 0 0 -33528080.514938354 2153641.1566989422 365598.20679533482 0 365598.20679533482 -100110711.05753613 0 0 0 -34284974.465293169 -28191471.249189407 26381947.624612629 0 26381947.624612629 -102339316.31373599 0 0 0 -45685775.647023916 -6013301.8204630613 -10308900.367078811 0 -10308900.367078811 -103611022.95098412 0 0 0 -38368513.670006573 9751478.587266922 -448681.09044575691 0 -448681.09044575691 -99817488.676902771 0 0 0 -31523103.531372547 2985300.4141768217 1161727.2721871138 0 1161727.2721871138 -97558159.677644968 0 0 0 -33100500.742213845 2132800.8451887369 131621.77319636941 0 131621.77319636941 -94230628.116569996 0 0 0 -32234239.544983506 -37164856.476288944 -13013233.82341323 0 -13013233.82341323 -96179735.130872145 0 0 0 -46670607.062506378 11771815.29675746 -490411.28046292067 0 -490411.28046292067 -100574306.07197237 0 0 0 -31080871.771325111 7374027.434964776 1804459.3982906342 0 1804459.3982906342 -100906738.17687058 0 0 0 -32736448.759667158 5330682.4351341724 -621762.26222813129 0 -621762.26222813129 -101048321.69189966 0 0 0 -33501173.739867926 -6605530.3486818075 -2826567.0923447609 0 -2826567.0923447609 -97816793.744794786 0 0 0 -36547813.432716787 10554182.975119948 -359175.57941156626 0 -359175.57941156626 -101536436.67474222 0 0 0 -31843788.794867754 11324538.399590135 -730224.01628887653 0 -730224.01628887653 -100719393.98449397 0 0 0 -31288199.454716325 8166298.9395844936 1668140.538647294 0 1668140.538647294 -101203351.9505353 0 0 0 -32562968.553833246 4673519.521781683 -107411.04066291451 0 -107411.04066291451 -101816509.28770304 0 0 0 -34000046.418072462 -2435008.2988695502 -2115542.6424709558 0 -2115542.6424709558 -98588456.804039121 0 0 0 -35358212.786017954 11972291.276907444 -112833.0062032938 0 -112833.0062032938 -100633683.87809658 0 0 0 -31031487.410416365 6809056.3088228703 1515348.2404507399 0 1515348.2404507399 -100253446.31501245 0 0 0 -32705536.502166271 6002220.3793450594 -1486969.7551638484 0 -1486969.7551638484 -100107347.73340118 0 0 0 -32936794.573919654 -12791686.099682599 -1548600.2405143827 0 -1548600.2405143827 -98865747.539944708 0 0 0 -39080101.773869574 11412140.108698964 -335906.73659169674 0 -335906.73659169674 -101428192.31855369 0 0 0 -31505618.273449183 8199177.2327729464 1043803.1797593832 0 1043803.1797593832 -101232800.60006809 0 0 0 -32561768.178553343 11253142.753024697 -314245.29797542095 0 -314245.29797542095 -101356464.22387591 0 0 0 -31536162.514797926 8876249.4791777134 1064606.3079762049 0 1064606.3079762049 -101575460.50579071 0 0 0 -32444723.859314203 11413199.454670191 -431041.89877033234 0 -431041.89877033234 -100076911.08454084 0 0 0 -31032299.070454597 3317943.2013475895 1708237.600795567 0 1708237.600795567 -98766313.949567318 0 0 0 -33406929.761876822 2705545.3702759743 -1245813.2071813047 0 -1245813.2071813047 -98363791.450784922 0 0 0 -33480386.12817812 -23203800.566116422 -6517756.7825891227 0 -6517756.7825891227 -90850500.512566522 0 0 0 -39919005.377539001 -37569740.575480439 1234016.4774647541 0 1234016.4774647541 -88194053.300242633 0 0 0 -44017327.856503077 1992814.7352622747 745994.10813045502 0 745994.10813045502 -93467117.545018196 0 0 0 -32016005.98341465 1286623.860424757 -1521330.9692491293 0 -1521330.9692491293 -95846223.556572914 0 0 0 -33095859.893651724 11911187.938954711 89945.885595321655 0 89945.885595321655 -100063315.91604424 0 0 0 -30853244.791981101 11881241.470126867 -329044.43233269453 0 -329044.43233269453 -100524908.82836723 0 0 0 -31025283.57538414 5228055.3070595264 2027884.7694682479 0 2027884.7694682479 -99571815.550690174 0 0 0 -33020316.085270643 4376651.0691766739 -1252944.9301050901 0 -1252944.9301050901 -100258717.60487938 0 0 0 -33558723.287495852 -15299458.931596041 -2332504.9343147427 0 -2332504.9343147427 -94172532.146025658 0 0 0 -38315196.877167583 8656453.9594026208 230203.2411814332 0 230203.2411814332 -102157955.99850559 0 0 0 -32725525.713686109 9290286.6972584724 -1128772.5274189357 0 -1128772.5274189357 -100321008.0959053 0 0 0 -31860752.48952651 7806972.8206865117 1506888.3136265278 0 1506888.3136265278 -99195900.682869822 0 0 0 -31986124.751764365 -2318706.7110336795 5053755.7148184776 0 5053755.7148184776 -102859544.08455764 0 0 0 -36812387.778457023 -12809242.351663172 -7768614.4375905748 0 -7768614.4375905748 -101420976.00363851 0 0 0 -39980576.424355626 11704465.778545856 499898.4676027298 0 499898.4676027298 -100182979.69704342 0 0 0 -30967479.871474028 11096374.430228233 595764.64933371544 0 595764.64933371544 -100564430.01469445 0 0 0 -31313819.454563141 4194737.2895000577 1018580.1223528683 0 1018580.1223528683 -99950667.46350956 0 0 0 -33514575.56090337 5658508.969519496 -1931845.7089624405 0 -1931845.7089624405 -99491366.791433811 0 0 0 -32841500.237670064 6136294.8034092188 -1947605.6316572428 0 -1947605.6316572428 -98350001.084314346 0 0 0 -32274797.198316813 2869676.3242782354 -129720.44220221043 0 -129720.44220221043 -99784067.665321946 0 0 0 -33920036.969365239 -15965574.052303106 4605878.8928862512 0 4605878.8928862512 -95287350.205898643 0 0 0 -38938523.490370601 -22473822.013731852 5564149.7357675433 0 5564149.7357675433 -99287444.767514855 0 0 0 -42616443.373436332 9346523.4304801822 -1433538.9173302054 0 -1433538.9173302054 -101498125.19866319 0 0 0 -32253060.618864 1815038.6334478259 1727935.8103865664 0 1727935.8103865664 -99920196.771126986 0 0 0 -34336805.348187745 10786937.292706728 966040.58972416818 0 966040.58972416818 -101000270.43347931 0 0 0 -31574666.599270344 4709099.9095156193 -598933.99040728807 0 -598933.99040728807 -98980149.48366642 0 0 0 -32994867.350952864 4577390.4853863716 483841.6670948267 0 483841.6670948267 -99426047.282969475 0 0 0 -33197029.879153967 -20060344.021082699 20037896.799668461 0 20037896.799668461 -110972967.39968765 0 0 0 -45861658.99726963 -24233649.302713066 -19641718.464649044 0 -19641718.464649044 -110400537.4581356 0 0 0 -47121965.366297066 7162509.0700646043 683643.04334023595 0 683643.04334023595 -101822154.38024282 0 0 0 -33130875.858562529 3098806.5268957019 -1157033.5494030714 0 -1157033.5494030714 -97546970.933460712 0 0 0 -33056857.5422979 -36044818.438381165 12687667.844564918 0 12687667.844564918 -95758939.862929702 0 0 0 -46131315.405458808 10015040.630544662 452888.1248497963 0 452888.1248497963 -99963371.538338661 0 0 0 -31481915.817727804 1353505.899655968 283077.056301862 0 283077.056301862 -94965880.123663485 0 0 0 -32764330.978402704 9457655.8726546764 244722.12523782253 0 244722.12523782253 -102322608.99093342 0 0 0 -32502733.591397524 5940586.2700200081 -300262.69606374204 0 -300262.69606374204 -101499352.26194358 0 0 0 -33445568.097173095 899898.01644277573 -517610.06519313157 0 -517610.06519313157 -97720307.186078072 0 0 0 -33887143.20937252 -39712994.065746509 13711004.392583892 0 13711004.392583892 -87419628.470683843 0 0 0 -44496417.887750626 9881200.7555060983 297854.05025827885 0 297854.05025827885 -99685292.321251392 0 0 0 -31431432.048011005 -456336.55643069744 1242660.5277644321 0 1242660.5277644321 -91567277.629045963 0 0 0 -32208264.964916825 11457677.725691497 -573125.00649285316 0 -573125.00649285316 -100716562.93986082 0 0 0 -31240609.824959338 11403496.606667161 -563926.85474777222 0 -563926.85474777222 -100818269.98611426 0 0 0 -31295170.682806611 7692540.289914608 1741473.2699799538 0 1741473.2699799538 -99721755.20419693 0 0 0 -32210225.219999075 6387167.9935851097 2058305.365737468 0 2058305.365737468 -99814105.884502649 0 0 0 -32699428.26182127 3715907.9483214617 -13645.118553191423 0 -13645.118553191423 -100905395.31599045 0 0 0 -34016320.578684211 4147371.3010033369 -291301.37868744135 0 -291301.37868744135 -101114272.88662767 0 0 0 -33938415.554968596 -13122871.198836535 -3787620.4738338292 0 -3787620.4738338292 -101222828.68077129 0 0 0 -40020994.957862765 -12433203.984932967 -3020256.0076910555 0 -3020256.0076910555 -96923932.308737248 0 0 0 -38274997.702784576 11155257.565690517 -595583.65561783314 0 -595583.65561783314 -100514561.35095215 0 0 0 -31275756.324841499 6282565.6836587787 1957727.8914678097 0 1957727.8914678097 -98549962.574712753 0 0 0 -32293588.911869109 3010699.6945196986 69057.242735356092 0 69057.242735356092 -99424518.612363935 0 0 0 -33744836.621245325 -20925107.226992726 -5862869.8602309003 0 -5862869.8602309003 -99299981.67085284 0 0 0 -42078781.114245951 11964574.168360949 -247557.78987559676 0 -247557.78987559676 -100034595.75272751 0 0 0 -30824507.554528236 3646716.3416983485 1633671.83342278 0 1633671.83342278 -97824712.588039994 0 0 0 -32962298.686219513 3507327.8716538846 -1316603.3727203608 0 -1316603.3727203608 -95107744.143920779 0 0 0 -32060145.695293337 -25611055.661440179 -4272199.9612225145 0 -4272199.9612225145 -90836786.830420017 0 0 0 -40756744.872151092 11515628.994321346 -306111.25928272307 0 -306111.25928272307 -100302537.04378653 0 0 0 -31075417.817312717 4143124.5942121148 1785083.0988997221 0 1785083.0988997221 -96369081.637815297 0 0 0 -32279084.965261161 3071498.7112734914 -1908568.7588628531 0 -1908568.7588628531 -97600246.956680238 0 0 0 -33085061.885892451 -34502842.096113622 -5453889.8435322028 0 -5453889.8435322028 -96167604.23778373 0 0 0 -45734656.216864064 11602357.01492548 -511890.72766041756 0 -511890.72766041756 -100309945.21240091 0 0 0 -31047655.869116545 5103170.7346728444 2051153.3807819486 0 2051153.3807819486 -99269384.725005388 0 0 0 -32958174.896616161 4009487.4364010096 -941673.02511465549 0 -941673.02511465549 -99935060.885198593 0 0 0 -33573950.707079053 -17875380.739984542 -4081489.0271636546 0 -4081489.0271636546 -93847179.799441516 0 0 0 -39102896.188799113 8302468.7639257908 -1394266.3095297813 0 -1394266.3095297813 -99193231.22714591 0 0 0 -31811766.862127066 8955603.3882553577 1253152.3520952463 0 1253152.3520952463 -99814646.255035877 0 0 0 -31800665.003373146 -11870031.452578068 7683889.9058493972 0 7683889.9058493972 -103299637.8276515 0 0 0 -40309384.248080373 -6415226.956348896 -5988007.5497853756 0 -5988007.5497853756 -103880259.93048674 0 0 0 -38603420.410392463 6479227.2421965599 -1797860.239637956 0 -1797860.239637956 -99279048.155492544 0 0 0 -32479937.319653511 11886227.790838346 329673.7835059166 0 329673.7835059166 -100478387.14748499 0 0 0 -31007255.774826184 -17203032.832104042 2915754.0166027248 0 2915754.0166027248 -98828649.23687765 0 0 0 -40611088.724143639 5021317.7852095366 1188421.01896194 0 1188421.01896194 -99702152.094868183 0 0 0 -33138292.008380532 1481439.1236639023 -998747.15620616078 0 -998747.15620616078 -98445782.939335346 0 0 0 -33937520.335484743 -35299807.685477115 11053264.635561548 0 11053264.635561548 -89586087.173120737 0 0 0 -43710063.200509228 9697956.1844701171 299060.72615611553 0 299060.72615611553 -100266569.49518764 0 0 0 -31699014.65875107 1609066.5941120386 -387777.35534708202 0 -387777.35534708202 -94049371.797105432 0 0 0 -32354106.821047783 11588615.286536694 72934.390261396766 0 72934.390261396766 -101320638.38531971 0 0 0 -31406208.084573984 6719779.0754190758 736131.2413469553 0 736131.2413469553 -101672207.88981272 0 0 0 -33233350.08503782 12130595.885910988 -73552.429586648941 0 -73552.429586648941 -100088300.83805954 0 0 0 -30785196.73325181 3078719.2352020741 1617071.9587830305 0 1617071.9587830305 -97742017.655894041 0 0 0 -33132154.447242141 2923917.2425339222 -2011084.622246176 0 -2011084.622246176 -97804321.883298397 0 0 0 -33208141.624267459 -25379075.125324287 -1438063.521770671 0 -1438063.521770671 -89795546.033339605 0 0 0 -40311117.405532368 9725141.7359684706 -96422.220286667347 0 -96422.220286667347 -101990208.11496562 0 0 0 -32292773.232648969 7295732.6236755848 -690893.08421218395 0 -690893.08421218395 -99274433.126964092 0 0 0 -32192545.176150799 4137027.1623110771 891793.63718402386 0 891793.63718402386 -99098835.874936342 0 0 0 -33236633.049418688 4122840.2497253418 -518591.11528426409 0 -518591.11528426409 -100345602.52690649 0 0 0 -33677966.797013283 3385460.0479899049 570552.57577085495 0 570552.57577085495 -99649778.004198909 0 0 0 -33692511.284672916 -25525558.098161966 19532310.217245311 0 19532310.217245311 -104180084.54521912 0 0 0 -45396974.925183386 -9588140.5389854759 -12964298.385427937 0 -12964298.385427937 -106865271.97700199 0 0 0 -40758694.38059561 11686210.501223803 -545498.12182098627 0 -545498.12182098627 -100229783.93976736 0 0 0 -30990250.703490257 6270042.9655225277 1733296.4086641073 0 1733296.4086641073 -99364459.04760778 0 0 0 -32583045.62872982 4331636.9290587306 -1016502.6684533358 0 -1016502.6684533358 -99940239.766718626 0 0 0 -33463010.993180931 -16549008.795075834 -5647827.6800301448 0 -5647827.6800301448 -97231403.588800669 0 0 0 -39823144.334356785 -2875764.7206770182 10377990.777931742 0 10377990.777931742 -104964236.66765261 0 0 0 -37744000.485915363 -15183359.033675928 -18459002.831566736 0 -18459002.831566736 -97063767.117838949 0 0 0 -39286494.153030172 7316776.685567975 265173.58100295067 0 265173.58100295067 -102225914.6712302 0 0 0 -33218198.294981837 6328466.7481328249 -291156.29532085359 0 -291156.29532085359 -102259996.19406533 0 0 0 -33576035.306076407 9521574.7514624596 -1367142.4117808342 0 -1367142.4117808342 -100923126.28513575 0 0 0 -31990543.036785722 9621511.6965774298 1404116.0615772605 0 1404116.0615772605 -100188819.27999282 0 0 0 -31698557.654195428 449483.1907055974 2969817.2431497872 0 2969817.2431497872 -101348400.31310821 0 0 0 -35314620.992840946 -837821.36707562208 -3400763.4615607262 0 -3400763.4615607262 -100269878.82003593 0 0 0 -35387695.065489054 837280.27859735489 -1478678.0199265182 0 -1478678.0199265182 -102222102.00926459 0 0 0 -35484687.605733514 12014023.130446017 -41357.550451874733 0 -41357.550451874733 -100163455.38051739 0 0 0 -30852301.287524879 3093099.1943249702 1989039.5035810564 0 1989039.5035810564 -96107080.121064663 0 0 0 -32554893.32435894 3667621.4455077648 -1395751.6836729785 0 -1395751.6836729785 -95381089.599775791 0 0 0 -32099713.853993654 -33870604.392699704 765532.50244171172 0 765532.50244171172 -93420064.16945456 0 0 0 -44551733.996753991 11153796.358768761 618051.0319775939 0 618051.0319775939 -101109807.01063704 0 0 0 -31484603.728153884 10958240.472511292 737528.90535485744 0 737528.90535485744 -101381198.55226994 0 0 0 -31648035.32791543 8647358.8805932999 -524372.80904960632 0 -524372.80904960632 -102032300.38020635 0 0 0 -32684729.524864435 5601383.2331893444 -72169.441856622696 0 -72169.441856622696 -99930443.654015541 0 0 0 -33015171.147289276 939985.72109985352 221673.22138535976 0 221673.22138535976 -99205094.014266491 0 0 0 -34392787.902608395 647869.24433414254 2758543.1172398627 0 2758543.1172398627 -89048418.359813958 0 0 0 -30940192.190417904 -53305662.526439324 -23644657.612125374 0 -23644657.612125374 -98984465.312090352 0 0 0 -53301544.743485391 929438.94727100001 -257202.30428719521 0 -257202.30428719521 -99177581.079072684 0 0 0 -34386849.746130817 -53626701.266583048 23675637.118945841 0 23675637.118945841 -99581542.052529767 0 0 0 -53622885.161689475 5451334.9382560253 75233.787703807291 0 75233.787703807291 -100059647.56465626 0 0 0 -33112909.419240236 910941.55024179432 -2739802.3802418411 0 -2739802.3802418411 -88491619.636830047 0 0 0 -30653237.330305848 10378587.667909622 -1205105.6699737012 0 -1205105.6699737012 -100455299.84008813 0 0 0 -31526849.26026237 9097064.9834322929 1478143.4691228867 0 1478143.4691228867 -101155593.36679649 0 0 0 -32220484.934177637 334507.76864638925 2239457.0164049864 0 2239457.0164049864 -101616061.85770833 0 0 0 -35448543.931171626 -2707684.4905380011 -3467159.9240047783 0 -3467159.9240047783 -101279168.68557668 0 0 0 -36395398.611640155 12074701.597048104 115624.42826545238 0 115624.42826545238 -100240740.10648501 0 0 0 -30858113.478302896 3876581.462112546 1647361.4443538338 0 1647361.4443538338 -98960542.092699528 0 0 0 -33279386.22070539 3879034.914506197 -2155114.1131170094 0 -2155114.1131170094 -98940981.967963457 0 0 0 -33271681.468710184 -20053138.285756111 824796.69721792638 0 824796.69721792638 -91470777.782890096 0 0 0 -39033370.62402615 9629620.2777951956 -1474691.1363223791 0 -1474691.1363223791 -100267429.89856744 0 0 0 -31723233.36727035 9630301.9960467815 1295154.818960011 0 1295154.818960011 -100960730.52083659 0 0 0 -31965649.983676434 -2822004.0644530058 2431807.503235653 0 2431807.503235653 -101896150.57673085 0 0 0 -36651354.124414444 -813746.96483838558 -3185718.745867908 0 -3185718.745867908 -101858938.94829834 0 0 0 -35935440.06959784 2045866.8632881641 -872183.78542846441 0 -872183.78542846441 -96925655.616116524 0 0 0 -33207926.063489914 -41810673.680120975 10421909.867578067 0 10421909.867578067 -93246050.567026794 0 0 0 -47269853.486501724 1807481.348490119 734374.23056790233 0 734374.23056790233 -91052928.173038721 0 0 0 -31235906.388592005 10508210.249038696 199464.45978820324 0 199464.45978820324 -99999701.632972479 0 0 0 -31322021.98437655 381171.84251320362 -479347.33812105656 0 -479347.33812105656 -97025601.089401484 0 0 0 -33825550.236411095 -48313119.070571505 12397224.801869348 0 12397224.801869348 -89722212.177647009 0 0 0 -48312365.936876476 9847077.0369534492 189876.10879092963 0 189876.10879092963 -100197633.92429495 0 0 0 -31622694.910569191 578379.39763529564 464769.56390827894 0 464769.56390827894 -85795529.145848125 0 0 0 -29826002.411874458 731954.29140899517 984361.79295712709 0 984361.79295712709 -88018127.592097223 0 0 0 -30550160.655240797 10978624.270376682 132460.58544671535 0 132460.58544671535 -99876781.648378372 0 0 0 -31114355.082300186 -47982000.46363344 9507677.6675949786 0 9507677.6675949786 -89112858.245727018 0 0 0 -47983200.548276156 928773.24246605707 -445414.74727106094 0 -445414.74727106094 -95598706.998819441 0 0 0 -33134476.814723764 5729891.9494652748 -558696.0751080513 0 -558696.0751080513 -99476941.701999664 0 0 0 -32811467.413386822 3707758.7218489647 692885.4028339386 0 692885.4028339386 -99089297.647395134 0 0 0 -33383538.623940945 -17494497.005656481 19539091.241094109 0 19539091.241094109 -100361781.77113038 0 0 0 -41249697.571875364 -7808699.8891800642 -16648597.426271349 0 -16648597.426271349 -110447675.46414596 0 0 0 -41389731.373664081 10878288.384385943 -843939.73494070768 0 -843939.73494070768 -101032319.41598356 0 0 0 -31553910.861059189 11017660.563781261 -964848.85994935036 0 -964848.85994935036 -100526079.99680495 0 0 0 -31327946.801558375 8736898.7697477341 1729080.5361946523 0 1729080.5361946523 -99928941.873587132 0 0 0 -31917215.086343765 8578444.4735429287 1596775.745237276 0 1596775.745237276 -101048252.18824625 0 0 0 -32364432.70014596 3600881.8419716358 1215383.8020855561 0 1215383.8020855561 -101744043.31220865 0 0 0 -34350106.514582992 2166079.5685880184 871177.78252510354 0 871177.78252510354 -102156395.61932778 0 0 0 -34996610.617758989 -9074841.3357676119 -2395799.7216857374 0 -2395799.7216857374 -102062043.22651425 0 0 0 -38897909.596798703 -3344277.8774311244 -3288932.0459048152 0 -3288932.0459048152 -100243390.34602447 0 0 0 -36255683.878209442 6063306.8746461868 -685950.66151714325 0 -685950.66151714325 -99452077.032192707 0 0 0 -32686069.555141211 5563422.2893993855 874218.2515206337 0 874218.2515206337 -98962787.271444798 0 0 0 -32689777.743716002 5520597.3703920841 -2031715.2662059665 0 -2031715.2662059665 -97956497.848898411 0 0 0 -32352565.167477131 11585113.697425485 400345.35391068459 0 400345.35391068459 -100593293.77042556 0 0 0 -31152863.025549769 -24648476.600861579 3377274.6614112556 0 3377274.6614112556 -97551415.635475427 0 0 0 -42769962.282717913 4037528.0818543434 943725.68401530385 0 943725.68401530385 -98661559.939620495 0 0 0 -33118411.150218129 2291893.0316017866 -318810.63869912922 0 -318810.63869912922 -101455319.42011106 0 0 0 -34707199.235978305 1002706.764490962 -119070.73242223263 0 -119070.73242223263 -102034548.92989266 0 0 0 -35361144.757890582 11416207.095094681 538419.59419022501 0 538419.59419022501 -99999191.558846474 0 0 0 -31004044.562313318 4229391.4319158196 -1937994.560167551 0 -1937994.560167551 -99353746.041134 0 0 0 -33293524.113226473 3225232.1838321239 776261.5587310195 0 776261.5587310195 -99260523.563043356 0 0 0 -33612351.982723996 -18800439.696442664 5959992.7423280282 0 5959992.7423280282 -92055781.323073119 0 0 0 -38799677.356830537 8347915.2392503619 -613854.99757176638 0 -613854.99757176638 -101795407.82269764 0 0 0 -32706622.404206514 10618898.094619036 -1002343.495509848 0 -1002343.495509848 -101272957.02204037 0 0 0 -31728920.624597311 9305564.1928167343 1465474.8812846541 0 1465474.8812846541 -100585662.00663936 0 0 0 -31948034.23483777 3761083.7639479041 1290499.2524293065 0 1290499.2524293065 -101690622.0220713 0 0 0 -34275338.390343249 -2440263.8309617043 -1729225.0153500587 0 -1729225.0153500587 -100851212.45995045 0 0 0 -36152016.70181936 10990885.442709863 883998.90672659874 0 883998.90672659874 -100732791.31872153 0 0 0 -31409667.056603968 7398631.670017004 -1878491.8794789314 0 -1878491.8794789314 -99741427.605884552 0 0 0 -32319978.577553749 4128769.0238718987 -1040912.9775411263 0 -1040912.9775411263 -101540244.55551243 0 0 0 -34094016.436074138 -10012313.481752396 4188978.5249702334 0 4188978.5249702334 -97783540.661154345 0 0 0 -37728548.950017333 6360780.8996225912 283971.56942254305 0 283971.56942254305 -102264359.08632497 0 0 0 -33566252.365345806 -4641347.8093621731 1411578.8669651151 0 1411578.8669651151 -102416257.58276296 0 0 0 -37470161.887243867 7386541.1912709475 -463613.87639927864 0 -463613.87639927864 -102462000.5490315 0 0 0 -33276410.775216222 9978218.7752791643 1277466.3299230933 0 1277466.3299230933 -101132768.30551195 0 0 0 -31904092.335581422 8329065.2009738386 -192284.29910802841 0 -192284.29910802841 -102205505.65161556 0 0 0 -32856754.15772453 12073404.598002911 -25566.372455055684 0 -25566.372455055684 -100053086.22539854 0 0 0 -30792888.569588423 527040.98967068514 674410.2957687974 0 674410.2957687974 -93098608.881974354 0 0 0 -32400048.76230628 1109717.0932063509 -630135.14113986492 0 -630135.14113986492 -91237816.90291512 0 0 0 -31544834.933398183 -48078222.16938933 -913170.19687261246 0 -913170.19687261246 -89295914.191880286 0 0 0 -48080947.726444364 6597742.5811262131 -1980963.6458674669 0 -1980963.6458674669 -100066685.18551028 0 0 0 -32714129.911534309 11878810.454666376 345197.12231898308 0 345197.12231898308 -100696854.55685711 0 0 0 -31086315.435766697 -11682858.934171975 1503762.3645180985 0 1503762.3645180985 -97807963.873050153 0 0 0 -38321787.982527733 5555382.265717566 965390.1255312562 0 965390.1255312562 -100762752.09312415 0 0 0 -33322579.439592063 366885.47487562895 473717.08794502448 0 473717.08794502448 -99637739.529670954 0 0 0 -34744798.919178307 9768862.4277558327 321570.24593603611 0 321570.24593603611 -101770181.28908968 0 0 0 -32200461.601466894 8269987.3043780327 -97479.698102891445 0 -97479.698102891445 -102364630.84184241 0 0 0 -32933125.238112569 -39094385.040993944 -45425169.196250036 0 -45425169.196250036 -182180813.55955869 0 0 0 -77446319.510193408 -77876754.715026125 45365392.794432551 0 45365392.794432551 -144853507.83253884 0 0 0 -77955591.891647726 -39208350.216382585 45574371.96891021 0 45574371.96891021 -182128717.83530441 0 0 0 -77467973.818090439 -77770558.361286432 -45252621.654418856 0 -45252621.654418856 -144654957.18566063 0 0 0 -77848930.441431463 780719.85464286804 -9490.0421180084268 0 -9490.0421180084268 -100281728.50810766 0 0 0 -34825353.028712749 633635.62842273712 -58736.557346701622 0 -58736.557346701622 -99806334.180361271 0 0 0 -34710444.493178606 774145.57412791252 24102.647204399109 0 24102.647204399109 -100230891.16680908 0 0 0 -34809860.957438707 562979.71674548613 58353.588846206665 0 58353.588846206665 -99791385.698483706 0 0 0 -34729942.093608268 9491537.1903702021 823375.23856937885 0 823375.23856937885 -101921510.71128774 0 0 0 -32350490.732321143 6850461.5405714512 375002.9040556252 0 375002.9040556252 -102055195.64719605 0 0 0 -33321656.937318563 6394691.7441089153 -336748.21601110697 0 -336748.21601110697 -101939623.70298457 0 0 0 -33440726.18560642 11153875.066962481 -242614.60090267658 0 -242614.60090267658 -100169781.85862994 0 0 0 -31155567.37708354 2442816.5848395824 1319522.4523667693 0 1319522.4523667693 -96202476.538055658 0 0 0 -32815880.983625412 2461153.7046278715 -856923.91413596272 0 -856923.91413596272 -91864385.597262859 0 0 0 -31291131.16242218 -41178111.365169339 -7012010.1222896874 0 -7012010.1222896874 -93375622.521719679 0 0 0 -47093806.86041116 9829693.268541187 -1218402.6276379824 0 -1218402.6276379824 -100637700.84242737 0 0 0 -31782802.650860101 8257440.0787892342 1718416.2837266177 0 1718416.2837266177 -99954868.016064167 0 0 0 -32094099.778046608 191084.80111312866 3135502.2764616981 0 3135502.2764616981 -102309960.11946511 0 0 0 -35741606.361423254 -6217121.9351208284 -4951923.8736303151 0 -4951923.8736303151 -99801118.665200904 0 0 0 -37106384.210112579 6460848.1459019929 296756.61600679159 0 296756.61600679159 -102129978.21721584 0 0 0 -33484195.524959847 1921502.1961288452 -850549.7777069211 0 -850549.7777069211 -101680621.55375385 0 0 0 -34915691.775168777 9699012.5546550751 -238866.91604959965 0 -238866.91604959965 -99836182.301977158 0 0 0 -31548009.411562681 620384.39076268673 440738.06908559799 0 440738.06908559799 -98081477.287261009 0 0 0 -34111382.513774395 9361722.8644206524 -330131.69649755955 0 -330131.69649755955 -100354030.64706278 0 0 0 -31847307.723924637 1335832.4349900484 958311.45465266705 0 958311.45465266705 -98467366.438526154 0 0 0 -33996036.901237726 -444394.81711280346 -899216.83459629118 0 -899216.83459629118 -92084513.038856864 0 0 0 -32385117.749589324 -38134769.819610566 -13748097.820639659 0 -13748097.820639659 -86279463.552615464 0 0 0 -43544981.680279106 839933.28859186172 616034.67191839218 0 616034.67191839218 -93929383.997031033 0 0 0 -32581307.747953832 -36719468.399212517 -11891213.441394432 0 -11891213.441394432 -90076651.797815844 0 0 0 -44378642.068959899 3949135.1695857048 -818568.92901752889 0 -818568.92901752889 -98885621.649541855 0 0 0 -33227770.267984629 7304125.1215360165 612272.72729325294 0 612272.72729325294 -99271133.358986259 0 0 0 -32188452.883107901 7152434.1920392513 -1737238.7343878746 0 -1737238.7343878746 -100286117.8482269 0 0 0 -32596789.279665709 10658646.152565002 958835.46854171157 0 958835.46854171157 -100027119.72217703 0 0 0 -31278965.749364138 -10204380.274384916 6461314.1953978017 0 6461314.1953978017 -99347453.863380671 0 0 0 -38343141.948217928 2323734.4698771536 -1563015.8748983145 0 -1563015.8748983145 -100597041.01064181 0 0 0 -34395657.289267689 -30071996.583640009 18952068.200798444 0 18952068.200798444 -104284569.03069136 0 0 0 -47024797.965015993 -4072169.8318171501 -7372882.8991737738 0 -7372882.8991737738 -101617683.98708379 0 0 0 -36991448.836615384 3149356.4988501072 -612902.957216084 0 -612902.957216084 -101879617.27778184 0 0 0 -34555591.272626042 11916929.695615947 153175.73501455784 0 153175.73501455784 -100340129.36547017 0 0 0 -30948119.884449065 3898560.8034602404 1973189.830669567 0 1973189.830669567 -96522916.412554979 0 0 0 -32418524.463183165 4446645.8910399675 -1759349.5347544551 0 -1759349.5347544551 -96667410.274103403 0 0 0 -32277267.53407228 -30202859.504316129 2910575.7130738124 0 2910575.7130738124 -95901109.943116173 0 0 0 -44136389.306601278 11847409.858402848 70214.720700979233 0 70214.720700979233 -100836308.66245675 0 0 0 -31146114.581418991 11625214.839400053 213811.49114745855 0 213811.49114745855 -101227111.97021127 0 0 0 -31360663.995783925 7120529.6251871586 1131932.9428587854 0 1131932.9428587854 -101535164.23457694 0 0 0 -33045122.113286495 6130544.3953919411 709777.6506537497 0 709777.6506537497 -101204927.29295421 0 0 0 -33276034.014146805 7317251.7947708368 -1325985.0226736963 0 -1325985.0226736963 -101649398.43647504 0 0 0 -33016251.324596286 7606840.2348501682 -1298428.2777521312 0 -1298428.2777521312 -100825764.57014704 0 0 0 -32626623.517354012 10567921.845484495 -455531.00993448496 0 -455531.00993448496 -99889487.820467472 0 0 0 -31262548.091243982 3799908.6743140221 1429251.6142961979 0 1429251.6142961979 -97389496.681812763 0 0 0 -32756355.802624464 2568143.7916553617 -551448.39864397049 0 -551448.39864397049 -95689118.832690299 0 0 0 -32592341.264362156 -33339420.815901458 -10189362.335236609 0 -10189362.335236609 -96216794.576454639 0 0 0 -45344675.387324631 10644364.480244398 -618902.44804048538 0 -618902.44804048538 -100401894.4889636 0 0 0 -31415135.503051519 4935427.7593266964 1891080.6390950084 0 1891080.6390950084 -97940171.471136332 0 0 0 -32551660.299133301 2306038.1768587828 455367.96741017699 0 455367.96741017699 -98553831.693909168 0 0 0 -33686727.730967641 -26893121.118046194 -7245735.9104989991 0 -7245735.9104989991 -97035657.531700611 0 0 0 -43375072.527411312 5616369.4643429518 277556.8575810194 0 277556.8575810194 -102188799.85485697 0 0 0 -33800350.636680007 4406929.3847759962 -1583498.8344373703 0 -1583498.8344373703 -98211387.214781046 0 0 0 -32831560.240501761 10328873.149124622 627068.17130231857 0 627068.17130231857 -99685270.112223148 0 0 0 -31274738.937084198 -26907560.361209437 10252333.812473349 0 10252333.812473349 -96382078.027672321 0 0 0 -43151373.436108634 2075631.5834344625 -560227.24477317929 0 -560227.24477317929 -98255065.028331995 0 0 0 -33662801.705714107 6765060.3460125923 -823120.79889917374 0 -823120.79889917374 -100324025.72804022 0 0 0 -32745637.883709431 4768204.2303864956 1030808.8781933784 0 1030808.8781933784 -99288915.415702343 0 0 0 -33082248.914860725 10584091.894309521 -1066641.6548223495 0 -1066641.6548223495 -100169818.58805084 0 0 0 -31355004.342809677 7813040.1157597303 1849203.3704177141 0 1849203.3704177141 -100689371.14053273 0 0 0 -32506715.858670592 1496434.6523658633 1593106.366337359 0 1593106.366337359 -101275012.09773767 0 0 0 -34922502.105880082 -7029251.4641541243 -4515672.4292824566 0 -4515672.4292824566 -100006621.78937668 0 0 0 -37462555.638735771 11159056.244663656 271441.63415026665 0 271441.63415026665 -101710702.13186574 0 0 0 -31693076.06052047 9953934.7467694283 -174961.70204210281 0 -174961.70204210281 -100028605.2117815 0 0 0 -31526134.662754536 663884.25819078076 445501.64411854744 0 445501.64411854744 -96750370.401127025 0 0 0 -33630270.150027722 600194.13716654456 -618908.64969921112 0 -618908.64969921112 -85346423.826454312 0 0 0 -29661180.391250744 -48716310.75221312 -12480674.735400125 0 -12480674.735400125 -90467814.305506006 0 0 0 -48714443.770201698 -1160615.8557405472 163304.25085455179 0 163304.25085455179 -102368676.79763007 0 0 0 -36235252.428679824 12047264.338513851 35101.850845813751 0 35101.850845813751 -100062132.93842697 0 0 0 -30805204.009968758 591164.53509902954 700590.35172027349 0 700590.35172027349 -90850036.307892561 0 0 0 -31590605.120477557 427363.64415316761 -669697.17012226582 0 -669697.17012226582 -92829098.723304167 0 0 0 -32340607.27770276 -47652494.392812811 1937380.1977718237 0 1937380.1977718237 -88493780.43928732 0 0 0 -47651196.191235036 -2549135.6738795042 6892739.6699775606 0 6892739.6699775606 -100822523.96344948 0 0 0 -36180080.873065144 -29812572.054915905 -18856674.78639967 0 -18856674.78639967 -104438639.60407928 0 0 0 -46987924.080648303 -220783.86421734095 -296904.6926330924 0 -296904.6926330924 -99989608.991514802 0 0 0 -35073637.499506295 6977958.4855806679 -364214.7906947732 0 -364214.7906947732 -102108790.0251784 0 0 0 -33295791.038859263 5426180.6365745664 97584.610515713692 0 97584.610515713692 -102261663.2420218 0 0 0 -33892418.91190654 -425420.62239170074 1151904.7596658766 0 1151904.7596658766 -93903810.856670141 0 0 0 -33015231.017671585 12003355.634241939 64412.209069728851 0 64412.209069728851 -99923891.684113145 0 0 0 -30772187.617455125 -39154284.037757233 3348983.2085039765 0 3348983.2085039765 -85000126.856939405 0 0 0 -43454043.81314382 652194.56882786751 -583176.97040461004 0 -583176.97040461004 -94822316.851137638 0 0 0 -32959542.798808336 11181043.504719734 -698208.91648685932 0 -698208.91648685932 -100960428.40344143 0 0 0 -31422784.714552402 9027838.9410127401 1256402.3952345848 0 1256402.3952345848 -101082790.63136673 0 0 0 -32219233.091623664 3609740.4957567453 393084.50800931454 0 393084.50800931454 -101982834.67570269 0 0 0 -34430582.962981105 -4033564.431950748 -2071106.9572144449 0 -2071106.9572144449 -101720123.06356466 0 0 0 -37013790.623430431 9660826.8881738782 1082934.7173794508 0 1082934.7173794508 -101657436.81887448 0 0 0 -32198813.47574538 9401313.7019443512 408442.05434036255 0 408442.05434036255 -101819699.64617753 0 0 0 -32346435.080481529 10072626.436666012 -1168337.3512781858 0 -1168337.3512781858 -99976490.233937263 0 0 0 -31466352.329044819 7322128.078466177 1646452.4837069511 0 1646452.4837069511 -99947106.587044001 0 0 0 -32418742.478002071 211479.9175003767 2845071.2488300204 0 2845071.2488300204 -101591493.47185874 0 0 0 -35483004.74402535 -10946225.027883112 -6877551.1556266695 0 -6877551.1556266695 -99745782.279860854 0 0 0 -38742202.55771035 2374768.2748246193 -1195287.1208872497 0 -1195287.1208872497 -102328461.2946496 0 0 0 -34983792.556938767 9678273.4569067955 -553396.90980243683 0 -553396.90980243683 -100300841.13424528 0 0 0 -31717898.687068462 2841506.1067636013 1350829.5566422492 0 1350829.5566422492 -99158690.503956795 0 0 0 -33711014.539017439 1284667.9695627689 692686.5152207315 0 692686.5152207315 -99394955.809393406 0 0 0 -34338600.743940711 -24950264.614114072 -11043593.8543614 0 -11043593.8543614 -91424265.38046822 0 0 0 -40731085.498103768 11825046.361955166 -201181.0148729682 0 -201181.0148729682 -100347994.84787035 0 0 0 -30983031.970070124 3314372.6362996101 2002752.6041986942 0 2002752.6041986942 -96552228.446079731 0 0 0 -32633249.533423066 -33469874.738336593 -1902827.71367421 0 -1902827.71367421 -94110945.191322833 0 0 0 -44653286.975380808 4732470.9525015354 -196299.63444146514 0 -196299.63444146514 -102017587.90992022 0 0 0 -34049790.935096502 3552.4338393211365 -909696.12967300415 0 -909696.12967300415 -94844744.139275551 0 0 0 -33194417.096902609 -38085140.92174387 153776.56711382419 0 153776.56711382419 -83730500.639285624 0 0 0 -42635474.546360314 1938148.3211241961 -1206322.0725878477 0 -1206322.0725878477 -93673863.283447742 0 0 0 -32107500.236813307 -41179790.507995084 684027.3491970133 0 684027.3491970133 -90434625.482298508 0 0 0 -46065045.596602753 470178.20547187328 454819.80110287666 0 454819.80110287666 -93964054.329218388 0 0 0 -32722856.643311262 12103717.331451893 13616.155137777328 0 13616.155137777328 -99987223.500799656 0 0 0 -30759227.159271717 12052873.565612078 11065.402107834816 0 11065.402107834816 -100083743.03420734 0 0 0 -30810804.314008474 1127541.726637125 1267572.4495667815 0 1267572.4495667815 -94130447.003816128 0 0 0 -32551016.847012639 12019630.237300396 -157097.07812952995 0 -157097.07812952995 -100023395.21169138 0 0 0 -30801317.741036892 2123505.6905462742 1410866.3192304969 0 1410866.3192304969 -96699452.783106089 0 0 0 -33101581.482396007 -31061393.473882206 -3171545.4621411115 0 -3171545.4621411115 -87350120.841560841 0 0 0 -41444030.010405071 10196143.175569534 -927161.84382742643 0 -927161.84382742643 -99830140.217859745 0 0 0 -31371898.964801073 6539144.0701900721 1664255.1437080503 0 1664255.1437080503 -99315372.16257 0 0 0 -32471679.832333088 636454.0374353528 2046799.8712796271 0 2046799.8712796271 -100435701.31705832 0 0 0 -34929736.547867954 -17234503.838184953 -8900937.3279161453 0 -8900937.3279161453 -100859201.82060724 0 0 0 -41332796.98057723 5949116.8455548286 41278.791468828917 0 41278.791468828917 -102222150.75009084 0 0 0 -33695561.866587639 11740950.44546473 324018.58467185497 0 324018.58467185497 -100956601.69686627 0 0 0 -31225477.937990785 7416272.2518358231 -1594747.9800450504 0 -1594747.9800450504 -100177465.25838423 0 0 0 -32466417.552291989 5408322.1268154383 731596.42462053895 0 731596.42462053895 -100529444.89709067 0 0 0 -33292392.969596267 -12691645.191732496 2021978.0922692716 0 2021978.0922692716 -101399664.08225733 0 0 0 -39931958.245896429 10250395.733894229 -195709.68572843075 0 -195709.68572843075 -100175114.74409008 0 0 0 -31473651.653568149 118721.74347090721 656150.56564602256 0 656150.56564602256 -98105011.75526619 0 0 0 -34295201.504128456 -172440.94135344028 -114218.5935625881 0 -114218.5935625881 -92222195.686237335 0 0 0 -32338122.81965673 -37062434.148149692 -10299771.186046172 0 -10299771.186046172 -84124681.029131114 0 0 0 -42415490.312048279 10554969.627209514 -282508.51872038841 0 -282508.51872038841 -99708215.694264174 0 0 0 -31203636.123468786 2146516.1517901421 832376.01738279685 0 832376.01738279685 -96979559.190297127 0 0 0 -33191565.063477516 1919284.6099917889 -1212716.2680322956 0 -1212716.2680322956 -92268773.099676132 0 0 0 -31622320.971389532 -39624872.121388592 -11325261.013407933 0 -11325261.013407933 -91581368.372786194 0 0 0 -45922184.172961168 1823975.9328100681 -1601659.0685539246 0 -1601659.0685539246 -96022839.404703498 0 0 0 -32969602.215162754 3296788.3620058298 -1245382.126952529 0 -1245382.126952529 -95621456.571753502 0 0 0 -32313633.873411775 10542765.563568234 173540.29868191481 0 173540.29868191481 -101633372.6084404 0 0 0 -31881712.465705276 11649456.53546977 -422013.11732006073 0 -422013.11732006073 -100927533.99400234 0 0 0 -31247327.110486269 6850343.9913078547 1899341.8418951631 0 1899341.8418951631 -99885750.727154732 0 0 0 -32562392.357546449 5127506.7195883989 -665144.81867080927 0 -665144.81867080927 -101145136.80258107 0 0 0 -33606170.52904737 -12259912.519883871 -1770048.1193850935 0 -1770048.1193850935 -98675034.734084547 0 0 0 -38827231.538888901 9283558.6316589117 -452573.40369671583 0 -452573.40369671583 -101993167.87894487 0 0 0 -32448363.236550331 10790886.071747541 -521787.72254955769 0 -521787.72254955769 -100099570.264009 0 0 0 -31258039.467291474 3297927.0614249706 1586768.6481604576 0 1586768.6481604576 -98867834.8549757 0 0 0 -33449467.727742791 2500592.6945797205 -432816.73630142212 0 -432816.73630142212 -98588258.676206946 0 0 0 -33630683.093569636 -23577884.800409973 -8636756.0343554765 0 -8636756.0343554765 -91274962.281323552 0 0 0 -40198496.478606723 10265395.913787484 271655.48216465861 0 271655.48216465861 -102080969.34707332 0 0 0 -32135450.701650262 3170327.1902087927 -1507955.2992918491 0 -1507955.2992918491 -98712706.955019951 0 0 0 -33439832.917683721 -26677811.283071727 9837954.1401195601 0 9837954.1401195601 -92570729.651735753 0 0 0 -41736989.327182621 9866931.7815079689 502602.02287101746 0 502602.02287101746 -100431397.96089935 0 0 0 -31697563.162786961 2154081.4012444615 -639536.48299643397 0 -639536.48299643397 -98072278.602720857 0 0 0 -33571369.020516753 11169960.607540607 -351285.58411554992 0 -351285.58411554992 -99806558.601861477 0 0 0 -31022809.298012257 2389920.4580545574 1282546.5640341043 0 1282546.5640341043 -97786587.648995668 0 0 0 -33388833.516829476 1971278.3743893802 -1088135.9880794287 0 -1088135.9880794287 -95707873.353304207 0 0 0 -32807808.242620021 -31036466.326151125 -8209193.2784060929 0 -8209193.2784060929 -89820357.229013935 0 0 0 -42299888.244307764 10263197.616793394 -357173.47986805439 0 -357173.47986805439 -100280816.98000002 0 0 0 -31506166.777122259 2193890.6980707645 1317501.8109766245 0 1317501.8109766245 -98129921.361958265 0 0 0 -33577610.732360363 1912232.5331866145 -83806.262347042561 0 -83806.262347042561 -94971596.723509908 0 0 0 -32570777.466613114 -33977593.81491816 -8951302.9007208347 0 -8951302.9007208347 -91722245.631694362 0 0 0 -43994943.806314394 11963721.108419418 -341452.4265935421 0 -341452.4265935421 -100311511.7653656 0 0 0 -30921726.729931355 6616996.193279624 1797652.7087029815 0 1797652.7087029815 -99688600.729414344 0 0 0 -32575061.5876472 5356898.6921958923 -1184775.3566623926 0 -1184775.3566623926 -99855639.353676081 0 0 0 -33074559.231518149 -15044367.919318259 -2968601.656764403 0 -2968601.656764403 -98219137.526683629 0 0 0 -39642226.906100661 11429542.974402547 408616.23578178883 0 408616.23578178883 -101359432.75500441 0 0 0 -31475461.42321074 11729928.012310982 419419.07583671808 0 419419.07583671808 -100802354.19940877 0 0 0 -31175349.16548419 8614663.0690512657 -1081458.7721861005 0 -1081458.7721861005 -101103498.21338034 0 0 0 -32371092.300515056 5328221.8938258886 93737.454602450132 0 93737.454602450132 -101973471.4887991 0 0 0 -33825837.358240724 7994418.8641073704 -1525071.7392855883 0 -1525071.7392855883 -101342761.64452338 0 0 0 -32671919.973145604 6270014.6000784636 565397.12641394138 0 565397.12641394138 -101613139.19424868 0 0 0 -33370093.60795939 4137164.3540822938 -403298.82878595591 0 -403298.82878595591 -102183229.47743571 0 0 0 -34316122.793173604 3218049.044320479 221264.24572134018 0 221264.24572134018 -101701494.69692624 0 0 0 -34469205.978411898 -2640274.3711430132 1262527.0179863572 0 1262527.0179863572 -98729558.414531827 0 0 0 -35479441.474986166 -4452766.3543018103 440523.25988428295 0 440523.25988428295 -101678940.8498857 0 0 0 -37146097.52146554 5574509.6901903152 -377821.14055156708 0 -377821.14055156708 -102005122.34076285 0 0 0 -33750714.4277004 4825596.3667843342 -39732.419633969665 0 -39732.419633969665 -102247237.09418869 0 0 0 -34097574.254591703 2420727.7747982144 -1026358.6533366442 0 -1026358.6533366442 -93434025.252864361 0 0 0 -31854654.11732322 -39040412.885308817 -1161439.3845495079 0 -1161439.3845495079 -91181093.396966711 0 0 0 -45577527.198796436 1557950.9057785869 -1645810.5218359232 0 -1645810.5218359232 -96035616.685252666 0 0 0 -33067183.022816002 -33359226.992016077 -911218.65342677943 0 -911218.65342677943 -88156811.998194382 0 0 0 -42530613.646573663 11861178.235919237 -107622.67039775848 0 -107622.67039775848 -100199070.30560017 0 0 0 -30918262.224388361 1752391.4799403548 1568820.4360250831 0 1568820.4360250831 -95759161.572350144 0 0 0 -32902369.532343447 12121087.743627071 -11551.927914977074 0 -11551.927914977074 -99999719.667016506 0 0 0 -30757521.173186302 2118293.3348193765 1156729.9888475537 0 1156729.9888475537 -95621548.233373642 0 0 0 -32726139.214494169 9890938.5420014262 -1215547.5827829838 0 -1215547.5827829838 -100137213.79846489 0 0 0 -31586196.339762032 8998223.8901498318 1507189.842886731 0 1507189.842886731 -100435377.67242908 0 0 0 -32003003.823797941 -2783493.2273477316 3412517.3234561831 0 3412517.3234561831 -101987267.69944119 0 0 0 -36669766.324375987 -6787581.8853071034 -4921165.1270779073 0 -4921165.1270779073 -103362871.02448192 0 0 0 -38552658.51842615 -2755015.3586497307 75745.990711063147 0 75745.990711063147 -98490978.833687901 0 0 0 -35436097.967318147 11824290.168333769 159889.76071974635 0 159889.76071974635 -101006375.40264177 0 0 0 -31213729.832007647 11898784.583251953 237939.98526526336 0 237939.98526526336 -100718841.42299414 0 0 0 -31087019.893909693 7181390.7689122334 -1625074.4847385883 0 -1625074.4847385883 -101068689.0712119 0 0 0 -32860554.405804835 6731039.7440712452 -1602790.8837774992 0 -1602790.8837774992 -100196729.24034941 0 0 0 -32712991.323697329 6376216.9815829396 1059204.0342988372 0 1059204.0342988372 -100587909.77865267 0 0 0 -32974092.478974402 6230743.5338008711 1123433.9400423765 0 1123433.9400423765 -101149279.06218998 0 0 0 -33221487.434936255 -6584557.0120939016 1180651.665633399 0 1180651.665633399 -98277975.872582197 0 0 0 -36701886.509636581 -12208961.457237601 269489.27526463568 0 269489.27526463568 -100519739.19897771 0 0 0 -39455045.229675353 6839070.6793433428 -528423.96382403374 0 -528423.96382403374 -101794544.55974722 0 0 0 -33234415.858141303 12057911.963158131 110159.96022409201 0 110159.96022409201 -100607774.28460503 0 0 0 -30992451.812506437 5858093.0724050999 1575505.4506688714 0 1575505.4506688714 -100165156.7343905 0 0 0 -33007472.281694889 6399550.1671450138 -1644350.6722548604 0 -1644350.6722548604 -100391418.83943844 0 0 0 -32897154.035302639 -12354427.167608976 1261003.4027286023 0 1261003.4027286023 -98195600.083754182 0 0 0 -38692509.537977099 -8092726.5509800017 714628.88796684146 0 714628.88796684146 -101063011.16498303 0 0 0 -38204508.200587004 10230435.532217503 -1104475.4441456199 0 -1104475.4441456199 -100976230.02677655 0 0 0 -31761028.073095918 9166414.1076767445 1672710.3875494599 0 1672710.3875494599 -99921283.403011799 0 0 0 -31764204.253367186 1735166.6951912642 2333735.8893938959 0 2333735.8893938959 -102398650.73812282 0 0 0 -35232219.415026069 -5165644.0713974237 -3114729.1437508166 0 -3114729.1437508166 -101182465.16110778 0 0 0 -37221838.231376767 6576996.4283822775 -156045.78177547455 0 -156045.78177547455 -102199927.24578631 0 0 0 -33468025.786091447 71493.653012275696 -542778.81474888325 0 -542778.81474888325 -98023558.626105309 0 0 0 -34283222.740582466 -36285741.063031778 10487780.948188694 0 10487780.948188694 -82981640.421698451 0 0 0 -41743583.519655578 10484524.560734749 163314.14028072357 0 163314.14028072357 -100036291.45353746 0 0 0 -31343118.412480831 -282869.35226917267 495570.81305763125 0 495570.81305763125 -92150351.513747692 0 0 0 -32351627.30310595 9708399.5449085236 -1074932.1202228665 0 -1074932.1202228665 -100735132.0985446 0 0 0 -31859356.393772602 6869217.9178860188 1789137.3409471512 0 1789137.3409471512 -99669422.102333784 0 0 0 -32480071.464556932 1354029.4578585625 2593012.9214451313 0 2593012.9214451313 -102022816.39068294 0 0 0 -35234075.426488519 -10770881.070124924 -6789310.1922059655 0 -6789310.1922059655 -97458496.745285332 0 0 0 -37880282.235393524 11486982.147295952 328457.9462618418 0 328457.9462618418 -101117006.82057381 0 0 0 -31370508.635647058 6881878.110912228 557967.20463353395 0 557967.20463353395 -101743014.61386633 0 0 0 -33201397.776033975 4161309.8406456113 -25413.511719316244 0 -25413.511719316244 -102055026.41574812 0 0 0 -34262800.801285803 9739251.9053928852 848379.23220682144 0 848379.23220682144 -101399895.56889486 0 0 0 -32081225.282225847 10901190.728599548 -414014.38831436634 0 -414014.38831436634 -100273073.58802128 0 0 0 -31280159.000797749 4064699.8746671677 1697628.2624818683 0 1697628.2624818683 -97043672.110315323 0 0 0 -32542640.282476902 3117550.8410755396 -587910.44647595286 0 -587910.44647595286 -95388952.196161985 0 0 0 -32294990.474280119 -34502516.756516904 -7456355.4956875369 0 -7456355.4956875369 -96859019.075722441 0 0 0 -45976537.541283771 10087431.580692291 897446.67226079106 0 897446.67226079106 -101771972.41641521 0 0 0 -32089589.292503119 
</DataArray>
</CellData>
</Piece>
</UnstructuredGrid>
</VTKFile>
