<?xml version="1.0"?>
<VTKFile type="UnstructuredGrid" version="0.1" byte_order="LittleEndian">
<UnstructuredGrid>
<Piece NumberOfPoints="3162" NumberOfCells="1054">
<Points>
<DataArray type="Float64" NumberOfComponents="3" format="ascii">
0.39507969989512881 0.74417394063201048 0 0.42715538333808079 0.70077759375307946 0 0.44764943295894188 0.73752415265401661 0 0.74417394063200648 0.6049203001048884 0 0.70087539567735502 0.57165914616526226 0 0.73752415265401194 0.55235056704108476 0 0.25582605936799319 0.39507969989513358 0 0.2963043386970643 0.4298320229681446 0 0.26247584734598628 0.44764943295894732 0 0.60492030010488373 0.25582605936799729 0 0.57188338999077359 0.29874123486230147 0 0.55175647814720108 0.26104505532086641 0 0.56566515596461675 0.63670464971409091 0 0.61233489393901674 0.60846740003560018 0 0.60879112811253555 0.66592422311595834 0 0.6519524273377173 0.64249931920594539 0 0.60879112811253555 0.66592422311595834 0 0.61233489393901674 0.60846740003560018 0 0.640156794425081 0.43301393728221721 0 0.60122390529523662 0.39097801071820221 0 0.66346942254826746 0.391530810754116 0 0.6424993192059415 0.3480475726622802 0 0.66346942254826746 0.391530810754116 0 0.60122390529523662 0.39097801071820221 0 0.74198804864688339 0.90892718720327403 0 0.77688977118331393 0.94706199857866258 0 0.71789175274016548 0.95136708251202151 0 0.091072812796719582 0.74198804864687795 0 0.052938001421335763 0.77688977118331159 0 0.04863291748797445 0.71789175274016204 0 0.89586000931544074 0.25714619498770419 0 0.94465622530468663 0.23167460333446291 0 0.94915666091748963 0.28320804985299752 0 0.25714619498771307 0.1041399906845497 0 0.23167460333446299 0.05534377469531044 0 0.28320804985300141 0.050843339082505573 0 0.89999999999958358 1 0 0.84999999999965292 1 0 0.90554214442080472 0.95994154153067524 0 0 0.89999999999958358 0 0 0.84999999999965292 0 0.040058458469322648 0.90554214442079806 0 0.040058458469319477 0.094457855579157729 0 0 0.15000000000062411 0 0 0.10000000000041601 0 0.094457855579188163 0.95994154153068711 0 0.15000000000062411 1 0 0.10000000000041601 1 0 0.90554214442081604 0.040058458469347469 0 0.84999999999960507 0 0 0.89999999999973679 0 0 0.95994154153065969 0.90554214442078618 0 1 0.84999999999960507 0 1 0.89999999999973679 0 1 0.099999999999814668 0 1 0.14999999999970359 0 0.95994154153057998 0.094457855579277675 0 0.099999999999814668 0 0 0.14999999999970359 0 0 0.094457855579284614 0.040058458469418363 0 1 0.19999999999955789 0 0.94465622530468663 0.23167460333446291 0 0.96080966346491015 0.18035159017841959 0 0.19999999999955789 0 0 0.23167460333446299 0.05534377469531044 0 0.18035159017842109 0.039190336535090492 0 0.79999999999999982 1 0 0.77688977118331393 0.94706199857866258 0 0.82675923981951416 0.95611053755456221 0 0 0.79999999999999982 0 0.052938001421335763 0.77688977118331159 0 0.043889462445437968 0.82675923981951283 0 1 0.79999999999947335 0 0.96071093996985157 0.81954008780615684 0 0.9442075111696665 0.76777356182390766 0 0.79999999999947335 0 0 0.82050174006822896 0.038839999600956771 0 0.76543419162344684 0.056452228708420968 0 0.20000000000083221 1 0 0.18045991219397989 0.960710939969875 0 0.23222643817617661 0.94420751116970569 0 0 0.20000000000083221 0 0.038839999600931263 0.17949825993190149 0 0.056452228708379938 0.23456580837661581 0 0.50000000000002642 0.7803135888501761 0 0.53770425635794761 0.80104587463999666 0 0.49771727055908782 0.83998685797641781 0 0.2196864111498267 0.50000000000003153 0 0.1989632851005598 0.53769147668950479 0 0.16001314202358469 0.49771727055909287 0 0.78031358885017377 0.49999999999997569 0 0.80106707846564795 0.46230714888029367 0 0.83998574657308889 0.50228528270184081 0 0.49999999999997108 0.21968641114982909 0 0.46229330881044273 0.19890916456654811 0 0.50228272944093777 0.16001314202359701 0 0.79999999999999982 1 0 0.75000000000034661 1 0 0.77688977118331393 0.94706199857866258 0 0 0.79999999999999982 0 0 0.75000000000034661 0 0.052938001421335763 0.77688977118331159 0 1 0.19999999999955789 0 1 0.24999999999941211 0 0.94465622530468663 0.23167460333446291 0 0.19999999999955789 0 0 0.24999999999941211 0 0 0.23167460333446299 0.05534377469531044 0 1 0.74999999999934175 0 1 0.79999999999947335 0 0.9442075111696665 0.76777356182390766 0 0.74999999999934175 0 0 0.79999999999947335 0 0 0.76543419162344684 0.056452228708420968 0 0.25000000000104028 1 0 0.20000000000083221 1 0 0.23222643817617661 0.94420751116970569 0 0 0.25000000000104028 0 0 0.20000000000083221 0 0.056452228708379938 0.23456580837661581 0 1 0.74999999999934175 0 0.9442075111696665 0.76777356182390766 0 0.94635952848698612 0.71209247961721311 0 0.74999999999934175 0 0 0.76543419162344684 0.056452228708420968 0 0.71174922810186925 0.053730171687687178 0 0.25000000000104028 1 0 0.23222643817617661 0.94420751116970569 0 0.28790752038294382 0.94635952848702642 0 0 0.25000000000104028 0 0.056452228708379938 0.23456580837661581 0 0.053730171687646627 0.28825077189828552 0 0.8289812646369813 0.82898126463698818 0 0.87660297360393757 0.8104127896505644 0 0.88962265630811221 0.85311725681459705 0 0.17101873536300011 0.82898126463696109 0 0.18958721034944021 0.87660297360394568 0 0.14688274318541941 0.88962265630811932 0 0.39507969989512881 0.74417394063201048 0 0.44764943295894188 0.73752415265401661 0 0.43306783640023289 0.78031198216144404 0 0.74417394063200648 0.6049203001048884 0 0.73752415265401194 0.55235056704108476 0 0.78031198216143516 0.56693216359979737 0 0.25582605936799319 0.39507969989513358 0 0.26247584734598628 0.44764943295894732 0 0.21968801783855879 0.43306783640023788 0 0.60492030010488373 0.25582605936799729 0 0.55175647814720108 0.26104505532086641 0 0.56683314878414581 0.21944955250104689 0 0.90554214442080472 0.95994154153067524 0 0.84999999999965292 1 0 0.86696410734367158 0.94753096683315619 0 0.040058458469322648 0.90554214442079806 0 0 0.84999999999965292 0 0.052469033166843738 0.86696410734366991 0 0.054872692726595548 0.13410685639845171 0 0 0.15000000000062411 0 0.040058458469319477 0.094457855579157729 0 0.13834721989462789 0.94095916274077984 0 0.15000000000062411 1 0 0.094457855579188163 0.95994154153068711 0 0.86589314360155567 0.054872692726639853 0 0.84999999999960507 0 0 0.90554214442081604 0.040058458469347469 0 0.94095916274074942 0.86165278010542579 0 1 0.84999999999960507 0 0.95994154153065969 0.90554214442078618 0 0.95994154153057998 0.094457855579277675 0 1 0.14999999999970359 0 0.94100406608115506 0.1383574446607955 0 0.094457855579284614 0.040058458469418363 0 0.14999999999970359 0 0 0.1383574446607988 0.058995933918849157 0 0.1104775404132264 0.2631175359816938 0 0.099694771212264055 0.22074048840547039 0 0.15899695163321451 0.22783674912227669 0 0.73688246401832591 0.11047754041323141 0 0.77925951159456153 0.09969477121230251 0 0.77216325087772952 0.15899695163319821 0 0.88949062093135778 0.73694585442531257 0 0.9041449437197947 0.7786886066890556 0 0.839908789927305 0.77106070975262608 0 0.26305414557470391 0.88949062093136155 0 0.22131139331094829 0.9041449437198319 0 0.22893929024737289 0.83990878992727813 0 0.74198804864688339 0.90892718720327403 0 0.71789175274016548 0.95136708251202151 0 0.70475631558365914 0.90098127745102974 0 0.091072812796719582 0.74198804864687795 0 0.04863291748797445 0.71789175274016204 0 0.099018722548963364 0.70475631558365193 0 0.89586000931544074 0.25714619498770419 0 0.94915666091748963 0.28320804985299752 0 0.89886191075654698 0.29506339503703172 0 0.25714619498771307 0.1041399906845497 0 0.28320804985300141 0.050843339082505573 0 0.29506339503703888 0.1011380892434444 0 0.65773042910151891 0.073296788161472337 0 0.62160809078275991 0.1093532031139005 0 0.6048537357103756 0.060530514380187868 0 0.92670321183853355 0.65773042910151081 0 0.89064679688610338 0.6216080907827598 0 0.93946948561981514 0.60485373571037115 0 0.073296788161418117 0.34226957089850552 0 0.10935320311385981 0.37839190921727089 0 0.06053051438015096 0.39514626428972788 0 0.3422695708985129 0.92670321183858773 0 0.37839190921727062 0.89064679688614412 0 0.39514626428973221 0.93946948561985189 0 0.49771727055908782 0.83998685797641781 0 0.53770425635794761 0.80104587463999666 0 0.54047998161173716 0.84333512669480526 0 0.16001314202358469 0.49771727055909287 0 0.1989632851005598 0.53769147668950479 0 0.1566648733051971 0.54047998161174216 0 0.83998574657308889 0.50228528270184081 0 0.80106707846564795 0.46230714888029367 0 0.84333218736938698 0.4595365182652234 0 0.50228272944093777 0.16001314202359701 0 0.46229330881044273 0.19890916456654811 0 0.45952001838826873 0.15666487330524251 0 0.8289812646369813 0.82898126463698818 0 0.88962265630811221 0.85311725681459705 0 0.85174853583809862 0.87705234031428159 0 0.17101873536300011 0.82898126463696109 0 0.14688274318541941 0.88962265630811932 0 0.1229476596857173 0.85174853583809695 0 0.83199780613337848 0.1690131600686714 0 0.8517485358380722 0.12294765968568611 0 0.88777909259956078 0.1484760565886154 0 0.16901316006868169 0.16800219386663079 0 0.12294765968567151 0.14825146416195439 0 0.1484760565886207 0.1122209074004519 0 0.15899695163321451 0.22783674912227669 0 0.099694771212264055 0.22074048840547039 0 0.12587517708284679 0.1889683322666954 0 0.77216325087772952 0.15899695163319821 0 0.77925951159456153 0.09969477121230251 0 0.8110316677333288 0.125875177082863 0 0.83199780613337848 0.1690131600686714 0 0.88777909259956078 0.1484760565886154 0 0.87355793346388477 0.18922011052113649 0 0.16901316006868169 0.16800219386663079 0 0.1484760565886207 0.1122209074004519 0 0.18922011052115781 0.12644206653611201 0 0.32191828326940508 0.76395804595204586 0 0.34270280102445921 0.71672416762035873 0 0.35837423432538362 0.77730446904312345 0 0.76395804595204597 0.67808171673060369 0 0.71518943060973483 0.65679402931717101 0 0.77730446904309636 0.64162576567462737 0 0.2360419540479583 0.32191828326940741 0 0.28473805236128291 0.34355768118673757 0 0.22269553095687891 0.35837423432538801 0 0.67808171673060202 0.23604195404795861 0 0.65679402931716913 0.28481056939027388 0 0.64162576567462404 0.22269553095690481 0 0.26305414557470391 0.88949062093136155 0 0.28790752038294382 0.94635952848702642 0 0.23222643817617661 0.94420751116970569 0 0.1104775404132264 0.2631175359816938 0 0.053730171687646627 0.28825077189828552 0 0.056452228708379938 0.23456580837661581 0 0.88949062093135778 0.73694585442531257 0 0.94635952848698612 0.71209247961721311 0 0.9442075111696665 0.76777356182390766 0 0.73688246401832591 0.11047754041323141 0 0.71174922810186925 0.053730171687687178 0 0.76543419162344684 0.056452228708420968 0 0.22893929024737289 0.83990878992727813 0 0.22131139331094829 0.9041449437198319 0 0.18958721034944021 0.87660297360394568 0 0.839908789927305 0.77106070975262608 0 0.9041449437197947 0.7786886066890556 0 0.87660297360393757 0.8104127896505644 0 0.35837423432538362 0.77730446904312345 0 0.34270280102445921 0.71672416762035873 0 0.39507969989512881 0.74417394063201048 0 0.77730446904309636 0.64162576567462737 0 0.71518943060973483 0.65679402931717101 0 0.74417394063200648 0.6049203001048884 0 0.22269553095687891 0.35837423432538801 0 0.28473805236128291 0.34355768118673757 0 0.25582605936799319 0.39507969989513358 0 0.64162576567462404 0.22269553095690481 0 0.65679402931716913 0.28481056939027388 0 0.60492030010488373 0.25582605936799729 0 0.57484409313590223 0.58437321637184114 0 0.53542397956703913 0.60119875982347493 0 0.53087311892591971 0.55299263141448529 0 1 0.59999999999894682 0 0.93946948561981514 0.60485373571037115 0 0.95638719633882641 0.5599388881718611 0 0.59999999999894682 0 0 0.6048537357103756 0.060530514380187868 0 0.55993888817186677 0.043612803661174412 0 0.40000000000166441 1 0 0.39514626428973221 0.93946948561985189 0 0.44006111182840962 0.9563871963389079 0 0 0.40000000000166441 0 0.06053051438015096 0.39514626428972788 0 0.043612803661092707 0.44006111182840391 0 0.43590673999053309 0.90289902042279657 0 0.48669777060454272 0.93510666819646593 0 0.44006111182840962 0.9563871963389079 0 0.097100979577207341 0.43590673999053198 0 0.064893331803534807 0.48669777060454478 0 0.043612803661092707 0.44006111182840391 0 0.90289902042272274 0.56409326000946114 0 0.93510666819640953 0.51330222939551939 0 0.95638719633882641 0.5599388881718611 0 0.56409326000946236 0.097100979577281268 0 0.5133022293955174 0.064893331803591428 0 0.55993888817186677 0.043612803661174412 0 0.57387636360620708 0.54318431390135336 0 0.57484409313590223 0.58437321637184114 0 0.53087311892591971 0.55299263141448529 0 1 0.69999999999921003 0 1 0.74999999999934175 0 0.94635952848698612 0.71209247961721311 0 0.69999999999921003 0 0 0.74999999999934175 0 0 0.71174922810186925 0.053730171687687178 0 0.30000000000124832 1 0 0.25000000000104028 1 0 0.28790752038294382 0.94635952848702642 0 0 0.30000000000124832 0 0 0.25000000000104028 0 0.053730171687646627 0.28825077189828552 0 0.90289902042272274 0.56409326000946114 0 0.85130417396420255 0.59518556406638579 0 0.85551478316835361 0.54646211938695222 0 0.43590673999053309 0.90289902042279657 0 0.40481452396081791 0.85130421228141606 0 0.45353891581270822 0.85551523377818905 0 0.56409326000946236 0.097100979577281268 0 0.59518547603920147 0.14869578771864489 0 0.54646108418729233 0.1444847662218687 0 0.097100979577207341 0.43590673999053198 0 0.14869578771858949 0.40481452396082068 0 0.1444847662218138 0.45353891581271188 0 0.90289902042272274 0.56409326000946114 0 0.89064679688610338 0.6216080907827598 0 0.85130417396420255 0.59518556406638579 0 0.56409326000946236 0.097100979577281268 0 0.62160809078275991 0.1093532031139005 0 0.59518547603920147 0.14869578771864489 0 0.43590673999053309 0.90289902042279657 0 0.37839190921727062 0.89064679688614412 0 0.40481452396081791 0.85130421228141606 0 0.097100979577207341 0.43590673999053198 0 0.10935320311385981 0.37839190921727089 0 0.14869578771858949 0.40481452396082068 0 0.74417394063200648 0.6049203001048884 0 0.69288637798153729 0.61204665218001397 0 0.70087539567735502 0.57165914616526226 0 0.39507969989512881 0.74417394063201048 0 0.38642358467307758 0.69286258923597266 0 0.42715538333808079 0.70077759375307946 0 0.60492030010488373 0.25582605936799729 0 0.61204665218000809 0.30711362201846659 0 0.57188338999077359 0.29874123486230147 0 0.25582605936799319 0.39507969989513358 0 0.30597655500381687 0.3934681685211931 0 0.2963043386970643 0.4298320229681446 0 0.51484304721220842 0.69707233951836334 0 0.57051182622447827 0.69668652018496713 0 0.54465502325161819 0.74717983044080061 0 0.30292766048163949 0.51484304721221474 0 0.30429740679959738 0.56913905146460098 0 0.25287139441262568 0.54458355434492378 0 0.70015119067225129 0.48481914991727459 0 0.69595787604187809 0.43071000156707989 0 0.74730218607442667 0.45539100053644521 0 0.48378871228000903 0.29745177826977359 0 0.43059486795334201 0.30395973419063538 0 0.45533136021725079 0.2525687312087147 0 0.91838802593870927 0.18172590289757809 0 0.96080966346491015 0.18035159017841959 0 0.94465622530468663 0.23167460333446291 0 0.18172590289758209 0.08161197406129285 0 0.18035159017842109 0.039190336535090492 0 0.23167460333446299 0.05534377469531044 0 0.81709574086843206 0.91318696080656769 0 0.82675923981951416 0.95611053755456221 0 0.77688977118331393 0.94706199857866258 0 0.086813039193431391 0.81709574086842884 0 0.043889462445437968 0.82675923981951283 0 0.052938001421335763 0.77688977118331159 0 0.91838802593884228 0.81827409710237209 0 0.9442075111696665 0.76777356182390766 0 0.96071093996985157 0.81954008780615684 0 0.82118136511706341 0.082875076569723011 0 0.76543419162344684 0.056452228708420968 0 0.82050174006822896 0.038839999600956771 0 0.1817259028976386 0.91838802593888857 0 0.23222643817617661 0.94420751116970569 0 0.18045991219397989 0.960710939969875 0 0.08287507656968085 0.1788186348829835 0 0.056452228708379938 0.23456580837661581 0 0.038839999600931263 0.17949825993190149 0 0.59819537371016407 0.74380966024143391 0 0.54465502325161819 0.74717983044080061 0 0.57051182622447827 0.69668652018496713 0 0.25619033975856881 0.59819537371016862 0 0.25287139441262568 0.54458355434492378 0 0.30429740679959738 0.56913905146460098 0 0.74380966024142703 0.40180462628984132 0 0.74730218607442667 0.45539100053644521 0 0.69595787604187809 0.43071000156707989 0 0.40180462628983732 0.2561903397585753 0 0.45533136021725079 0.2525687312087147 0 0.43059486795334201 0.30395973419063538 0 0.8312019486901514 0.72745002167959472 0 0.77998481823117694 0.71397317153691997 0 0.80847852346122429 0.67208120229789559 0 0.27254997832041528 0.8312019486901443 0 0.28602682846308641 0.77998481823117594 0 0.32791879770213411 0.80847852346120164 0 0.72767516840721058 0.16853767177393791 0 0.71397317153692708 0.22001518176882201 0 0.67208120229787616 0.1915214765387884 0 0.1685376717739448 0.27232483159280108 0 0.22001518176882229 0.28602682846307981 0 0.19152147653881049 0.32791879770215432 0 0.85607519768343354 0.69380468830529196 0 0.8312019486901514 0.72745002167959472 0 0.80847852346122429 0.67208120229789559 0 0.69379929796456197 0.14392209494791061 0 0.72767516840721058 0.16853767177393791 0 0.67208120229787616 0.1915214765387884 0 0.30619531169472608 0.85607519768342955 0 0.27254997832041528 0.8312019486901443 0 0.32791879770213411 0.80847852346120164 0 0.14392209494791439 0.30620070203545702 0 0.1685376717739448 0.27232483159280108 0 0.19152147653881049 0.32791879770215432 0 0.6519524273377173 0.64249931920594539 0 0.69288637798153729 0.61204665218001397 0 0.71518943060973483 0.65679402931717101 0 0.35944937237716967 0.65164789808436319 0 0.38642358467307758 0.69286258923597266 0 0.34270280102445921 0.71672416762035873 0 0.6424993192059415 0.3480475726622802 0 0.61204665218000809 0.30711362201846659 0 0.65679402931716913 0.28481056939027388 0 0.34804757266227387 0.35750068079406011 0 0.30597655500381687 0.3934681685211931 0 0.28473805236128291 0.34355768118673757 0 0.66919832404887702 0.81820888699730587 0 0.66923299355723143 0.8804077449518628 0 0.63969251517836323 0.84598529912890386 0 0.70085728320704077 0.84350379029875056 0 0.66923299355723143 0.8804077449518628 0 0.66919832404887702 0.81820888699730587 0 0.1817911130026923 0.66919832404888702 0 0.1195922550481313 0.66923299355722787 0 0.1540147008710982 0.63969251517836956 0 0.1564962097012354 0.70085728320703999 0 0.1195922550481313 0.66923299355722787 0 0.1817911130026923 0.66919832404888702 0 0.8182088869973061 0.33080167595111531 0 0.88040774495187946 0.33076700644278889 0 0.84598529912889664 0.36030748482164038 0 0.84350379029877964 0.29914271679296989 0 0.88040774495187946 0.33076700644278889 0 0.8182088869973061 0.33080167595111531 0 0.33080167595110582 0.18179111300269291 0 0.33076700644279272 0.1195922550481146 0 0.3603074848216346 0.15401470087110539 0 0.29914271679297122 0.15649620970120659 0 0.33076700644279272 0.1195922550481146 0 0.33080167595110582 0.18179111300269291 0 0.49189101320880302 0.59024331187324797 0 0.51172471858873747 0.64015771271794875 0 0.45517457031814612 0.62743100079604397 0 0.54901591374940373 0.42306523525165751 0 0.5047849391802508 0.40719950955717021 0 0.54715635490880632 0.37829016026862072 0 0.43590673999053309 0.90289902042279657 0 0.48758069708049379 0.89080072540186539 0 0.48669777060454272 0.93510666819646593 0 0.097100979577207341 0.43590673999053198 0 0.1091992745981364 0.48758069708049778 0 0.064893331803534807 0.48669777060454478 0 0.90289902042272274 0.56409326000946114 0 0.89079805168298443 0.51242544533572376 0 0.93510666819640953 0.51330222939551939 0 0.56409326000946236 0.097100979577281268 0 0.51241930291950477 0.1091992745981813 0 0.5133022293955174 0.064893331803591428 0 0.49189101320880302 0.59024331187324797 0 0.53542397956703913 0.60119875982347493 0 0.51172471858873747 0.64015771271794875 0 0.56566515596461675 0.63670464971409091 0 0.51172471858873747 0.64015771271794875 0 0.53542397956703913 0.60119875982347493 0 0.65773042910151891 0.073296788161472337 0 0.66251865414987876 0.1160340021949529 0 0.62160809078275991 0.1093532031139005 0 0.92670321183853355 0.65773042910151081 0 0.88396545633132484 0.6625197322180193 0 0.89064679688610338 0.6216080907827598 0 0.3422695708985129 0.92670321183858773 0 0.33748026778199908 0.88396545633134682 0 0.37839190921727062 0.89064679688614412 0 0.073296788161418117 0.34226957089850552 0 0.11603400219493119 0.33748134585014028 0 0.10935320311385981 0.37839190921727089 0 0.8289812646369813 0.82898126463698818 0 0.79422489417873421 0.79640925234634441 0 0.839908789927305 0.77106070975262608 0 0.17101873536300011 0.82898126463696109 0 0.20359074765364421 0.79422489417871855 0 0.22893929024737289 0.83990878992727813 0 0.83199780613337848 0.1690131600686714 0 0.80027482104603809 0.20596721135052129 0 0.77216325087772952 0.15899695163319821 0 0.16901316006868169 0.16800219386663079 0 0.20596721135052939 0.19972517895396219 0 0.15899695163321451 0.22783674912227669 0 0.84598529912884157 0.63969251517827153 0 0.80847852346122429 0.67208120229789559 0 0.8028306815476034 0.61296984760642026 0 0.36030748482174152 0.84598529912882459 0 0.32791879770213411 0.80847852346120164 0 0.38703015239361932 0.80283068154761972 0 0.63969251517826664 0.15401470087115929 0 0.67208120229787616 0.1915214765387884 0 0.61296984760641449 0.19716931845240021 0 0.15401470087117619 0.36030748482174652 0 0.19152147653881049 0.32791879770215432 0 0.197169318452384 0.38703015239362498 0 0.61233489393901674 0.60846740003560018 0 0.61866949026800744 0.55492322767366287 0 0.65501639383771026 0.594528181397324 0 0.74198804864688339 0.90892718720327403 0 0.78020430794084783 0.88768307197553598 0 0.77688977118331393 0.94706199857866258 0 0.091072812796719582 0.74198804864687795 0 0.11231692802445629 0.78020430794084028 0 0.052938001421335763 0.77688977118331159 0 0.81709574086843206 0.91318696080656769 0 0.77688977118331393 0.94706199857866258 0 0.78020430794084783 0.88768307197553598 0 0.086813039193431391 0.81709574086842884 0 0.052938001421335763 0.77688977118331159 0 0.11231692802445629 0.78020430794084028 0 0.73982803480991577 0.79629608696991705 0 0.79422489417873421 0.79640925234634441 0 0.78284912262770068 0.83746308049763585 0 0.8289812646369813 0.82898126463698818 0 0.78284912262770068 0.83746308049763585 0 0.79422489417873421 0.79640925234634441 0 0.20370391303007401 0.73982803480989479 0 0.20359074765364421 0.79422489417871855 0 0.16253691950235041 0.78284912262768558 0 0.17101873536300011 0.82898126463696109 0 0.16253691950235041 0.78284912262768558 0 0.20359074765364421 0.79422489417871855 0 0.79629608696994103 0.26017196519011448 0 0.80027482104603809 0.20596721135052129 0 0.84534053180161173 0.2262639405833009 0 0.83199780613337848 0.1690131600686714 0 0.84534053180161173 0.2262639405833009 0 0.80027482104603809 0.20596721135052129 0 0.26017196519013502 0.20370391303005 0 0.20596721135052939 0.19972517895396219 0 0.22626394058331961 0.15465946819838111 0 0.16901316006868169 0.16800219386663079 0 0.22626394058331961 0.15465946819838111 0 0.20596721135052939 0.19972517895396219 0 0.90045039720880915 0.9020090423547924 0 0.94156647488775558 0.94156647488774259 0 0.90554214442080472 0.95994154153067524 0 0.90082758526900886 0.098076845682916511 0 0.94156647488778256 0.058433525112256718 0 0.95994154153057998 0.094457855579277675 0 0.90082758526900886 0.098076845682916511 0 0.90554214442081604 0.040058458469347469 0 0.94156647488778256 0.058433525112256718 0 0.097990957645208238 0.90045039720880915 0 0.058433525112254137 0.94156647488774581 0 0.040058458469322648 0.90554214442079806 0 0.90045039720880915 0.9020090423547924 0 0.95994154153065969 0.90554214442078618 0 0.94156647488775558 0.94156647488774259 0 0.098076845682915317 0.099172414730993488 0 0.058433525112266523 0.058433525112214509 0 0.094457855579284614 0.040058458469418363 0 0.098076845682915317 0.099172414730993488 0 0.040058458469319477 0.094457855579157729 0 0.058433525112266523 0.058433525112214509 0 0.097990957645208238 0.90045039720880915 0 0.094457855579188163 0.95994154153068711 0 0.058433525112254137 0.94156647488774581 0 0.90289902042272274 0.56409326000946114 0 0.93946948561981514 0.60485373571037115 0 0.89064679688610338 0.6216080907827598 0 0.43590673999053309 0.90289902042279657 0 0.39514626428973221 0.93946948561985189 0 0.37839190921727062 0.89064679688614412 0 0.56409326000946236 0.097100979577281268 0 0.6048537357103756 0.060530514380187868 0 0.62160809078275991 0.1093532031139005 0 0.097100979577207341 0.43590673999053198 0 0.06053051438015096 0.39514626428972788 0 0.10935320311385981 0.37839190921727089 0 0.6519524273377173 0.64249931920594539 0 0.64518564541690571 0.69601563325001548 0 0.60879112811253555 0.66592422311595834 0 0.35944937237716967 0.65164789808436319 0 0.30421635384321521 0.64514939193436716 0 0.33231497408081678 0.60779218732873663 0 0.6424993192059415 0.3480475726622802 0 0.69601563325001248 0.35481435458309712 0 0.66346942254826746 0.391530810754116 0 0.34804757266227387 0.35750068079406011 0 0.35481435458309307 0.30398436674998969 0 0.39120887188745579 0.33407577688404289 0 1 0.5499999999988151 0 1 0.59999999999894682 0 0.95638719633882641 0.5599388881718611 0 0.5499999999988151 0 0 0.59999999999894682 0 0 0.55993888817186677 0.043612803661174412 0 0.45000000000187229 1 0 0.40000000000166441 1 0 0.44006111182840962 0.9563871963389079 0 0 0.45000000000187229 0 0 0.40000000000166441 0 0.043612803661092707 0.44006111182840391 0 1 0.049999999999899652 0 0.95994154153057998 0.094457855579277675 0 0.94156647488778256 0.058433525112256718 0 0.049999999999899652 0 0 0.094457855579284614 0.040058458469418363 0 0.058433525112266523 0.058433525112214509 0 0.94999999999986839 0 0 0.94156647488778256 0.058433525112256718 0 0.90554214442081604 0.040058458469347469 0 1 0.94999999999986839 0 0.94156647488775558 0.94156647488774259 0 0.95994154153065969 0.90554214442078618 0 0.94999999999979179 1 0 0.90554214442080472 0.95994154153067524 0 0.94156647488775558 0.94156647488774259 0 0 0.94999999999979179 0 0.040058458469322648 0.90554214442079806 0 0.058433525112254137 0.94156647488774581 0 0 0.050000000000207989 0 0.058433525112266523 0.058433525112214509 0 0.040058458469319477 0.094457855579157729 0 0.050000000000207989 1 0 0.058433525112254137 0.94156647488774581 0 0.094457855579188163 0.95994154153068711 0 0.55000000000173355 1 0 0.55307204985744796 0.94819812235491685 0 0.5931441817276254 0.95886012268751675 0 0 0.55000000000173355 0 0.051801877645083663 0.55307204985745195 0 0.041139877312483641 0.59314418172763017 0 1 0.44999999999882923 0 0.94812782820415209 0.44708943904932719 0 0.95886012268748921 0.4068558182724159 0 0.44999999999882923 0 0 0.44692795014265252 0.051801877645060238 0 0.40685581827241191 0.041139877312511682 0 0.83199780613337848 0.1690131600686714 0 0.77216325087772952 0.15899695163319821 0 0.8110316677333288 0.125875177082863 0 0.16901316006868169 0.16800219386663079 0 0.15899695163321451 0.22783674912227669 0 0.12587517708284679 0.1889683322666954 0 0.73982803480991577 0.79629608696991705 0 0.74154628962857594 0.86274820500026039 0 0.70085728320704077 0.84350379029875056 0 0.20370391303007401 0.73982803480989479 0 0.13725179499972981 0.74154628962856628 0 0.1564962097012354 0.70085728320703999 0 0.79629608696994103 0.26017196519011448 0 0.85389826602741015 0.26318949769600392 0 0.84350379029877964 0.29914271679296989 0 0.26017196519013502 0.20370391303005 0 0.26318949769601319 0.14610173397257309 0 0.29914271679297122 0.15649620970120659 0 0.53432142347292233 0.88563193847251998 0 0.48758069708049379 0.89080072540186539 0 0.49771727055908782 0.83998685797641781 0 0.1143680615274819 0.53432142347292733 0 0.1091992745981364 0.48758069708049778 0 0.16001314202358469 0.49771727055909287 0 0.88561059063756964 0.46572761956237563 0 0.89079805168298443 0.51242544533572376 0 0.83998574657308889 0.50228528270184081 0 0.46567857652706018 0.1143680615275231 0 0.51241930291950477 0.1091992745981813 0 0.50228272944093777 0.16001314202359701 0 0.1104775404132264 0.2631175359816938 0 0.099492119481027347 0.30746398533281638 0 0.053730171687646627 0.28825077189828552 0 0.26305414557470391 0.88949062093136155 0 0.30738136326657722 0.90051880305435028 0 0.28790752038294382 0.94635952848702642 0 0.73688246401832591 0.11047754041323141 0 0.69253601466723103 0.09949211948105087 0 0.71174922810186925 0.053730171687687178 0 0.88949062093135778 0.73694585442531257 0 0.90051880305432697 0.69261863673346957 0 0.94635952848698612 0.71209247961721311 0 0.77998481823117694 0.71397317153691997 0 0.76395804595204597 0.67808171673060369 0 0.80847852346122429 0.67208120229789559 0 0.28602682846308641 0.77998481823117594 0 0.32191828326940508 0.76395804595204586 0 0.32791879770213411 0.80847852346120164 0 0.71397317153692708 0.22001518176882201 0 0.67808171673060202 0.23604195404795861 0 0.67208120229787616 0.1915214765387884 0 0.22001518176882229 0.28602682846307981 0 0.2360419540479583 0.32191828326940741 0 0.19152147653881049 0.32791879770215432 0 0.8289812646369813 0.82898126463698818 0 0.839908789927305 0.77106070975262608 0 0.87660297360393757 0.8104127896505644 0 0.17101873536300011 0.82898126463696109 0 0.22893929024737289 0.83990878992727813 0 0.18958721034944021 0.87660297360394568 0 0.66548584431530877 0.55616712808283064 0 0.64455163611866495 0.50369301794551069 0 0.69798396601998558 0.5289734597937793 0 0.70015119067225129 0.48481914991727459 0 0.69798396601998558 0.5289734597937793 0 0.64455163611866495 0.50369301794551069 0 0.77998481823117694 0.71397317153691997 0 0.73984939806388494 0.70740600291923139 0 0.76395804595204597 0.67808171673060369 0 0.28602682846308641 0.77998481823117594 0 0.2925512105451914 0.73997990291173188 0 0.32191828326940508 0.76395804595204586 0 0.71397317153692708 0.22001518176882201 0 0.70740600291923772 0.26015060193611528 0 0.67808171673060202 0.23604195404795861 0 0.22001518176882229 0.28602682846307981 0 0.26014443552207939 0.29262390443653519 0 0.2360419540479583 0.32191828326940741 0 0.90045039720880915 0.9020090423547924 0 0.90554214442080472 0.95994154153067524 0 0.86696410734367158 0.94753096683315619 0 0.097990957645208238 0.90045039720880915 0 0.040058458469322648 0.90554214442079806 0 0.052469033166843738 0.86696410734366991 0 0.90082758526900886 0.098076845682916511 0 0.95994154153057998 0.094457855579277675 0 0.94100406608115506 0.1383574446607955 0 0.90045039720880915 0.9020090423547924 0 0.94095916274074942 0.86165278010542579 0 0.95994154153065969 0.90554214442078618 0 0.90082758526900886 0.098076845682916511 0 0.86589314360155567 0.054872692726639853 0 0.90554214442081604 0.040058458469347469 0 0.098076845682915317 0.099172414730993488 0 0.094457855579284614 0.040058458469418363 0 0.1383574446607988 0.058995933918849157 0 0.097990957645208238 0.90045039720880915 0 0.13834721989462789 0.94095916274077984 0 0.094457855579188163 0.95994154153068711 0 0.098076845682915317 0.099172414730993488 0 0.054872692726595548 0.13410685639845171 0 0.040058458469319477 0.094457855579157729 0 0.54901591374940373 0.42306523525165751 0 0.54715635490880632 0.37829016026862072 0 0.60122390529523662 0.39097801071820221 0 0.49854341599767982 0.37075914768127122 0 0.54715635490880632 0.37829016026862072 0 0.5047849391802508 0.40719950955717021 0 0.66548584431530877 0.55616712808283064 0 0.65501639383771026 0.594528181397324 0 0.61866949026800744 0.55492322767366287 0 0.50000000000002642 0.7803135888501761 0 0.49771727055908782 0.83998685797641781 0 0.46593838964869061 0.80781872835503554 0 0.2196864111498267 0.50000000000003153 0 0.16001314202358469 0.49771727055909287 0 0.19218127164496679 0.46593838964869538 0 0.78031358885017377 0.49999999999997569 0 0.83998574657308889 0.50228528270184081 0 0.80781854240107975 0.53406203754901738 0 0.49999999999997108 0.21968641114982909 0 0.50228272944093777 0.16001314202359701 0 0.53404982287327418 0.19215288291432539 0 0.70085728320704077 0.84350379029875056 0 0.74154628962857594 0.86274820500026039 0 0.70475631558365914 0.90098127745102974 0 0.1564962097012354 0.70085728320703999 0 0.13725179499972981 0.74154628962856628 0 0.099018722548963364 0.70475631558365193 0 0.84350379029877964 0.29914271679296989 0 0.85389826602741015 0.26318949769600392 0 0.89886191075654698 0.29506339503703172 0 0.29914271679297122 0.15649620970120659 0 0.26318949769601319 0.14610173397257309 0 0.29506339503703888 0.1011380892434444 0 0.74417394063200648 0.6049203001048884 0 0.71518943060973483 0.65679402931717101 0 0.69288637798153729 0.61204665218001397 0 0.39507969989512881 0.74417394063201048 0 0.34270280102445921 0.71672416762035873 0 0.38642358467307758 0.69286258923597266 0 0.60492030010488373 0.25582605936799729 0 0.65679402931716913 0.28481056939027388 0 0.61204665218000809 0.30711362201846659 0 0.25582605936799319 0.39507969989513358 0 0.28473805236128291 0.34355768118673757 0 0.30597655500381687 0.3934681685211931 0 0.88949062093135778 0.73694585442531257 0 0.839908789927305 0.77106070975262608 0 0.8312019486901514 0.72745002167959472 0 0.73688246401832591 0.11047754041323141 0 0.77216325087772952 0.15899695163319821 0 0.72767516840721058 0.16853767177393791 0 0.26305414557470391 0.88949062093136155 0 0.22893929024737289 0.83990878992727813 0 0.27254997832041528 0.8312019486901443 0 0.1104775404132264 0.2631175359816938 0 0.15899695163321451 0.22783674912227669 0 0.1685376717739448 0.27232483159280108 0 0.61233489393901674 0.60846740003560018 0 0.57484409313590223 0.58437321637184114 0 0.61866949026800744 0.55492322767366287 0 0.43565339604028508 0.55159384357101338 0 0.39982789553993509 0.53462762214740622 0 0.45293656999117771 0.51494832297079129 0 0.41009598069569558 0.49083935749285379 0 0.45293656999117771 0.51494832297079129 0 0.39982789553993509 0.53462762214740622 0 0.4434591735942961 0.66641640622551224 0 0.40564717507982689 0.65626423320524974 0 0.45517457031814612 0.62743100079604397 0 0.40653508887824003 0.61580573377480397 0 0.45517457031814612 0.62743100079604397 0 0.40564717507982689 0.65626423320524974 0 0.89586000931544074 0.25714619498770419 0 0.84534053180161173 0.2262639405833009 0 0.89556054516486661 0.21720615046483649 0 0.25714619498771307 0.1041399906845497 0 0.22626394058331961 0.15465946819838111 0 0.21720615046484709 0.1044394548351292 0 0.41009598069569558 0.49083935749285379 0 0.35815651743779398 0.51113440447909086 0 0.37702386074717259 0.45819417564476811 0 0.75000000000034661 1 0 0.71789175274016548 0.95136708251202151 0 0.77688977118331393 0.94706199857866258 0 0 0.75000000000034661 0 0.04863291748797445 0.71789175274016204 0 0.052938001421335763 0.77688977118331159 0 1 0.24999999999941211 0 0.94915666091748963 0.28320804985299752 0 0.94465622530468663 0.23167460333446291 0 0.24999999999941211 0 0 0.28320804985300141 0.050843339082505573 0 0.23167460333446299 0.05534377469531044 0 0.90289902042272274 0.56409326000946114 0 0.95638719633882641 0.5599388881718611 0 0.93946948561981514 0.60485373571037115 0 0.56409326000946236 0.097100979577281268 0 0.55993888817186677 0.043612803661174412 0 0.6048537357103756 0.060530514380187868 0 0.43590673999053309 0.90289902042279657 0 0.44006111182840962 0.9563871963389079 0 0.39514626428973221 0.93946948561985189 0 0.097100979577207341 0.43590673999053198 0 0.043612803661092707 0.44006111182840391 0 0.06053051438015096 0.39514626428972788 0 0.40653508887824003 0.61580573377480397 0 0.40468198875170619 0.57637931869191572 0 0.45030222762303879 0.58443295115431027 0 0.43301393728221038 0.35984320557492139 0 0.43059486795334201 0.30395973419063538 0 0.47253211736503098 0.34081710830804929 0 0.48378871228000903 0.29745177826977359 0 0.47253211736503098 0.34081710830804929 0 0.43059486795334201 0.30395973419063538 0 0.65000000000104008 1 0 0.60000000000138687 1 0 0.63753756910470316 0.95578163339252209 0 0 0.65000000000104008 0 0 0.60000000000138687 0 0.04421836660747535 0.63753756910470205 0 1 0.34999999999912063 0 1 0.3999999999989749 0 0.95581270756939096 0.36248656652865863 0 0.34999999999912063 0 0 0.3999999999989749 0 0 0.36246243089534252 0.044218366607477223 0 0.73982803480991577 0.79629608696991705 0 0.74917861927654894 0.74229989257760443 0 0.78651189793386345 0.75664155808652755 0 0.20370391303007401 0.73982803480989479 0 0.25770010742238642 0.74917861927655205 0 0.24335844191347281 0.78651189793387466 0 0.79629608696994103 0.26017196519011448 0 0.74229989257762263 0.250821380723454 0 0.7582555232258138 0.2115548431873896 0 0.26017196519013502 0.20370391303005 0 0.25082138072344978 0.25770010742236849 0 0.2115548431873881 0.2417444767741872 0 1 0.049999999999899652 0 0.94156647488778256 0.058433525112256718 0 0.96763014295114425 0.032369857048773903 0 0.049999999999899652 0 0 0.058433525112266523 0.058433525112214509 0 0.032369857048753323 0.032369857048862027 0 0.94999999999986839 0 0 0.96763014295114425 0.032369857048773903 0 0.94156647488778256 0.058433525112256718 0 0 0.050000000000207989 0 0.032369857048753323 0.032369857048862027 0 0.058433525112266523 0.058433525112214509 0 1 0.94999999999986839 0 0.96763014295120153 0.96763014295122851 0 0.94156647488775558 0.94156647488774259 0 0.94999999999979179 1 0 0.94156647488775558 0.94156647488774259 0 0.96763014295120153 0.96763014295122851 0 0.050000000000207989 1 0 0.030452409610489669 0.96954759038951022 0 0.058433525112254137 0.94156647488774581 0 0 0.94999999999979179 0 0.058433525112254137 0.94156647488774581 0 0.030452409610489669 0.96954759038951022 0 0.90045039720880915 0.9020090423547924 0 0.88962265630811221 0.85311725681459705 0 0.94095916274074942 0.86165278010542579 0 0.097990957645208238 0.90045039720880915 0 0.14688274318541941 0.88962265630811932 0 0.13834721989462789 0.94095916274077984 0 0.91838802593884228 0.81827409710237209 0 0.94095916274074942 0.86165278010542579 0 0.88962265630811221 0.85311725681459705 0 0.91838802593870927 0.18172590289757809 0 0.88777909259956078 0.1484760565886154 0 0.94100406608115506 0.1383574446607955 0 0.1817259028976386 0.91838802593888857 0 0.13834721989462789 0.94095916274077984 0 0.14688274318541941 0.88962265630811932 0 0.18172590289758209 0.08161197406129285 0 0.1484760565886207 0.1122209074004519 0 0.1383574446607988 0.058995933918849157 0 0.90082758526900886 0.098076845682916511 0 0.94100406608115506 0.1383574446607955 0 0.88777909259956078 0.1484760565886154 0 0.098076845682915317 0.099172414730993488 0 0.1383574446607988 0.058995933918849157 0 0.1484760565886207 0.1122209074004519 0 0.57387636360620708 0.54318431390135336 0 0.61866949026800744 0.55492322767366287 0 0.57484409313590223 0.58437321637184114 0 0.60122390529523662 0.39097801071820221 0 0.54715635490880632 0.37829016026862072 0 0.59596170682035776 0.34609402305862419 0 0.38703015239361932 0.80283068154761972 0 0.32791879770213411 0.80847852346120164 0 0.35837423432538362 0.77730446904312345 0 0.8028306815476034 0.61296984760642026 0 0.80847852346122429 0.67208120229789559 0 0.77730446904309636 0.64162576567462737 0 0.197169318452384 0.38703015239362498 0 0.19152147653881049 0.32791879770215432 0 0.22269553095687891 0.35837423432538801 0 0.61296984760641449 0.19716931845240021 0 0.67208120229787616 0.1915214765387884 0 0.64162576567462404 0.22269553095690481 0 0.39419886675318527 0.41912225240070788 0 0.37702386074717259 0.45819417564476811 0 0.35481422397128459 0.40312981465069342 0 0.33382663527330159 0.44130125047503482 0 0.35481422397128459 0.40312981465069342 0 0.37702386074717259 0.45819417564476811 0 0.40653508887824003 0.61580573377480397 0 0.40564717507982689 0.65626423320524974 0 0.35944937237716967 0.65164789808436319 0 0.53432142347292233 0.88563193847251998 0 0.49771727055908782 0.83998685797641781 0 0.54047998161173716 0.84333512669480526 0 0.1143680615274819 0.53432142347292733 0 0.16001314202358469 0.49771727055909287 0 0.1566648733051971 0.54047998161174216 0 0.88561059063756964 0.46572761956237563 0 0.83998574657308889 0.50228528270184081 0 0.84333218736938698 0.4595365182652234 0 0.46567857652706018 0.1143680615275231 0 0.50228272944093777 0.16001314202359701 0 0.45952001838826873 0.15666487330524251 0 0.37104651296145419 0.60545170748311072 0 0.40653508887824003 0.61580573377480397 0 0.35944937237716967 0.65164789808436319 0 0.6519524273377173 0.64249931920594539 0 0.71518943060973483 0.65679402931717101 0 0.6768914574865772 0.67861120078714243 0 0.35944937237716967 0.65164789808436319 0 0.34270280102445921 0.71672416762035873 0 0.32259853082073792 0.67670072609835186 0 0.6424993192059415 0.3480475726622802 0 0.65679402931716913 0.28481056939027388 0 0.6786112007871401 0.32310854251343019 0 0.34804757266227387 0.35750068079406011 0 0.28473805236128291 0.34355768118673757 0 0.3231032570156932 0.32141443408924047 0 0.73982803480991577 0.79629608696991705 0 0.70085728320704077 0.84350379029875056 0 0.69892030930712212 0.7971997999085858 0 0.20370391303007401 0.73982803480989479 0 0.1564962097012354 0.70085728320703999 0 0.2028002000914135 0.69892030930711557 0 0.79629608696994103 0.26017196519011448 0 0.84350379029877964 0.29914271679296989 0 0.7971997999085878 0.3010796906928917 0 0.26017196519013502 0.20370391303005 0 0.29914271679297122 0.15649620970120659 0 0.30107969069289831 0.20280020009141189 0 0.43301393728221038 0.35984320557492139 0 0.42930823106401639 0.40626685012722968 0 0.39222057657781068 0.38067796690227418 0 0.73982803480991577 0.79629608696991705 0 0.78284912262770068 0.83746308049763585 0 0.74154628962857594 0.86274820500026039 0 0.20370391303007401 0.73982803480989479 0 0.16253691950235041 0.78284912262768558 0 0.13725179499972981 0.74154628962856628 0 0.79629608696994103 0.26017196519011448 0 0.84534053180161173 0.2262639405833009 0 0.85389826602741015 0.26318949769600392 0 0.26017196519013502 0.20370391303005 0 0.22626394058331961 0.15465946819838111 0 0.26318949769601319 0.14610173397257309 0 0.56566515596461675 0.63670464971409091 0 0.57484409313590223 0.58437321637184114 0 0.61233489393901674 0.60846740003560018 0 0.84598529912884157 0.63969251517827153 0 0.85607519768343354 0.69380468830529196 0 0.80847852346122429 0.67208120229789559 0 0.63969251517826664 0.15401470087115929 0 0.69379929796456197 0.14392209494791061 0 0.67208120229787616 0.1915214765387884 0 0.36030748482174152 0.84598529912882459 0 0.30619531169472608 0.85607519768342955 0 0.32791879770213411 0.80847852346120164 0 0.15401470087117619 0.36030748482174652 0 0.14392209494791439 0.30620070203545702 0 0.19152147653881049 0.32791879770215432 0 0.20370391303007401 0.73982803480989479 0 0.24335844191347281 0.78651189793387466 0 0.20359074765364421 0.79422489417871855 0 0.73982803480991577 0.79629608696991705 0 0.78651189793386345 0.75664155808652755 0 0.79422489417873421 0.79640925234634441 0 0.26017196519013502 0.20370391303005 0 0.2115548431873881 0.2417444767741872 0 0.20596721135052939 0.19972517895396219 0 0.79629608696994103 0.26017196519011448 0 0.7582555232258138 0.2115548431873896 0 0.80027482104603809 0.20596721135052129 0 0.51172471858873747 0.64015771271794875 0 0.47818752133962877 0.66454462905280853 0 0.45517457031814612 0.62743100079604397 0 0.54901591374940373 0.42306523525165751 0 0.60122390529523662 0.39097801071820221 0 0.59313386551587477 0.43977047843653239 0 0.640156794425081 0.43301393728221721 0 0.59313386551587477 0.43977047843653239 0 0.60122390529523662 0.39097801071820221 0 0.70252050881959183 0.70358884261915833 0 0.71518943060973483 0.65679402931717101 0 0.73984939806388494 0.70740600291923139 0 0.29641115738084339 0.70252050881958938 0 0.34270280102445921 0.71672416762035873 0 0.2925512105451914 0.73997990291173188 0 0.76395804595204597 0.67808171673060369 0 0.73984939806388494 0.70740600291923139 0 0.71518943060973483 0.65679402931717101 0 0.32191828326940508 0.76395804595204586 0 0.2925512105451914 0.73997990291173188 0 0.34270280102445921 0.71672416762035873 0 0.70358884261915744 0.29747949118041561 0 0.65679402931716913 0.28481056939027388 0 0.70740600291923772 0.26015060193611528 0 0.29747949118041711 0.2964111573808435 0 0.28473805236128291 0.34355768118673757 0 0.26014443552207939 0.29262390443653519 0 0.67808171673060202 0.23604195404795861 0 0.70740600291923772 0.26015060193611528 0 0.65679402931716913 0.28481056939027388 0 0.2360419540479583 0.32191828326940741 0 0.26014443552207939 0.29262390443653519 0 0.28473805236128291 0.34355768118673757 0 0.74198804864688339 0.90892718720327403 0 0.70475631558365914 0.90098127745102974 0 0.74154628962857594 0.86274820500026039 0 0.091072812796719582 0.74198804864687795 0 0.099018722548963364 0.70475631558365193 0 0.13725179499972981 0.74154628962856628 0 0.89586000931544074 0.25714619498770419 0 0.89886191075654698 0.29506339503703172 0 0.85389826602741015 0.26318949769600392 0 0.25714619498771307 0.1041399906845497 0 0.29506339503703888 0.1011380892434444 0 0.26318949769601319 0.14610173397257309 0 0.59819537371016407 0.74380966024143391 0 0.64203711532612107 0.74316477213290444 0 0.61896574319320252 0.795216048370321 0 0.66820316019503978 0.77769800602796979 0 0.61896574319320252 0.795216048370321 0 0.64203711532612107 0.74316477213290444 0 0.25619033975856881 0.59819537371016862 0 0.25684529255773247 0.64203554247963057 0 0.2047839516296828 0.61896574319320252 0 0.22230199397202771 0.66820316019503168 0 0.2047839516296828 0.61896574319320252 0 0.25684529255773247 0.64203554247963057 0 0.74380966024142703 0.40180462628984132 0 0.74316477213289889 0.35796288467388632 0 0.79521604837030013 0.38103425680679831 0 0.77769800602796679 0.33179683980497482 0 0.79521604837030013 0.38103425680679831 0 0.74316477213289889 0.35796288467388632 0 0.40180462628983732 0.2561903397585753 0 0.3579628846738841 0.25683522786710378 0 0.38103425680679859 0.2047839516297037 0 0.33179683980498331 0.2223019939720311 0 0.38103425680679859 0.2047839516297037 0 0.3579628846738841 0.25683522786710378 0 0.92670321183853355 0.65773042910151081 0 0.93946948561981514 0.60485373571037115 0 0.96654491682122368 0.6363613838740827 0 0.65773042910151891 0.073296788161472337 0 0.6048537357103756 0.060530514380187868 0 0.63635157668793507 0.033457646040912177 0 0.3422695708985129 0.92670321183858773 0 0.39514626428973221 0.93946948561985189 0 0.36363861612613613 0.96654491682121313 0 0.073296788161418117 0.34226957089850552 0 0.06053051438015096 0.39514626428972788 0 0.033457646040922301 0.36364842331228431 0 0.6519524273377173 0.64249931920594539 0 0.6768914574865772 0.67861120078714243 0 0.64518564541690571 0.69601563325001548 0 0.35944937237716967 0.65164789808436319 0 0.32259853082073792 0.67670072609835186 0 0.30421635384321521 0.64514939193436716 0 0.6424993192059415 0.3480475726622802 0 0.6786112007871401 0.32310854251343019 0 0.69601563325001248 0.35481435458309712 0 0.34804757266227387 0.35750068079406011 0 0.3231032570156932 0.32141443408924047 0 0.35481435458309307 0.30398436674998969 0 0.73982803480991577 0.79629608696991705 0 0.71159714897733284 0.75039044679290845 0 0.74917861927654894 0.74229989257760443 0 0.20370391303007401 0.73982803480989479 0 0.249609553207091 0.71159714897732929 0 0.25770010742238642 0.74917861927655205 0 0.79629608696994103 0.26017196519011448 0 0.75039044679291111 0.28840285102267788 0 0.74229989257762263 0.250821380723454 0 0.26017196519013502 0.20370391303005 0 0.28840285102268098 0.24960955320708811 0 0.25082138072344978 0.25770010742236849 0 0.43565339604028508 0.55159384357101338 0 0.45030222762303879 0.58443295115431027 0 0.40468198875170619 0.57637931869191572 0 0.3999999999989749 0 0 0.44999999999882923 0 0 0.40685581827241191 0.041139877312511682 0 1 0.3999999999989749 0 1 0.44999999999882923 0 0.95886012268748921 0.4068558182724159 0 0 0.60000000000138687 0 0 0.55000000000173355 0 0.041139877312483641 0.59314418172763017 0 0.60000000000138687 1 0 0.55000000000173355 1 0 0.5931441817276254 0.95886012268751675 0 1 0.049999999999899652 0 1 0.099999999999814668 0 0.95994154153057998 0.094457855579277675 0 0.049999999999899652 0 0 0.099999999999814668 0 0 0.094457855579284614 0.040058458469418363 0 0.94999999999979179 1 0 0.89999999999958358 1 0 0.90554214442080472 0.95994154153067524 0 0 0.94999999999979179 0 0 0.89999999999958358 0 0.040058458469322648 0.90554214442079806 0 1 0.89999999999973679 0 1 0.94999999999986839 0 0.95994154153065969 0.90554214442078618 0 0.89999999999973679 0 0 0.94999999999986839 0 0 0.90554214442081604 0.040058458469347469 0 0.10000000000041601 1 0 0.050000000000207989 1 0 0.094457855579188163 0.95994154153068711 0 0 0.10000000000041601 0 0 0.050000000000207989 0 0.040058458469319477 0.094457855579157729 0 0.88949062093135778 0.73694585442531257 0 0.8312019486901514 0.72745002167959472 0 0.85607519768343354 0.69380468830529196 0 0.73688246401832591 0.11047754041323141 0 0.72767516840721058 0.16853767177393791 0 0.69379929796456197 0.14392209494791061 0 0.26305414557470391 0.88949062093136155 0 0.27254997832041528 0.8312019486901443 0 0.30619531169472608 0.85607519768342955 0 0.1104775404132264 0.2631175359816938 0 0.1685376717739448 0.27232483159280108 0 0.14392209494791439 0.30620070203545702 0 0.51484304721220842 0.69707233951836334 0 0.54465502325161819 0.74717983044080061 0 0.49073113440598592 0.73759004618730417 0 0.30292766048163949 0.51484304721221474 0 0.25287139441262568 0.54458355434492378 0 0.262418491288269 0.49071922292154141 0 0.70015119067225129 0.48481914991727459 0 0.74730218607442667 0.45539100053644521 0 0.73815142352639962 0.50697050072007344 0 0.48378871228000903 0.29745177826977359 0 0.45533136021725079 0.2525687312087147 0 0.50732841191799194 0.2613117081243182 0 0.66548584431530877 0.55616712808283064 0 0.61866949026800744 0.55492322767366287 0 0.64455163611866495 0.50369301794551069 0 0.5586987495249669 0.33382663527330653 0 0.59596170682035776 0.34609402305862419 0 0.54715635490880632 0.37829016026862072 0 0.41009598069569558 0.49083935749285379 0 0.42340342337193693 0.44762131874855388 0 0.46152714345798918 0.47344359412352599 0 0.63969251517836323 0.84598529912890386 0 0.61896574319320252 0.795216048370321 0 0.66919832404887702 0.81820888699730587 0 0.1540147008710982 0.63969251517836956 0 0.2047839516296828 0.61896574319320252 0 0.1817911130026923 0.66919832404888702 0 0.84598529912889664 0.36030748482164038 0 0.79521604837030013 0.38103425680679831 0 0.8182088869973061 0.33080167595111531 0 0.3603074848216346 0.15401470087110539 0 0.38103425680679859 0.2047839516297037 0 0.33080167595110582 0.18179111300269291 0 0.60000000000138687 1 0 0.5931441817276254 0.95886012268751675 0 0.63753756910470316 0.95578163339252209 0 0 0.60000000000138687 0 0.041139877312483641 0.59314418172763017 0 0.04421836660747535 0.63753756910470205 0 1 0.3999999999989749 0 0.95886012268748921 0.4068558182724159 0 0.95581270756939096 0.36248656652865863 0 0.3999999999989749 0 0 0.40685581827241191 0.041139877312511682 0 0.36246243089534252 0.044218366607477223 0 0.6519524273377173 0.64249931920594539 0 0.61233489393901674 0.60846740003560018 0 0.65501639383771026 0.594528181397324 0 0.6424993192059415 0.3480475726622802 0 0.60122390529523662 0.39097801071820221 0 0.59596170682035776 0.34609402305862419 0 0.56566515596461675 0.63670464971409091 0 0.60879112811253555 0.66592422311595834 0 0.57051182622447827 0.69668652018496713 0 0.35984320557492089 0.56698606271778873 0 0.33231497408081678 0.60779218732873663 0 0.30429740679959738 0.56913905146460098 0 0.640156794425081 0.43301393728221721 0 0.66346942254826746 0.391530810754116 0 0.69595787604187809 0.43071000156707989 0 0.43301393728221038 0.35984320557492139 0 0.39120887188745579 0.33407577688404289 0 0.43059486795334201 0.30395973419063538 0 0.59999999999894682 0 0 0.63635157668793507 0.033457646040912177 0 0.6048537357103756 0.060530514380187868 0 1 0.59999999999894682 0 0.96654491682122368 0.6363613838740827 0 0.93946948561981514 0.60485373571037115 0 0 0.40000000000166441 0 0.033457646040922301 0.36364842331228431 0 0.06053051438015096 0.39514626428972788 0 0.40000000000166441 1 0 0.36363861612613613 0.96654491682121313 0 0.39514626428973221 0.93946948561985189 0 0.50000000000002642 0.7803135888501761 0 0.49073113440598592 0.73759004618730417 0 0.54465502325161819 0.74717983044080061 0 0.2196864111498267 0.50000000000003153 0 0.262418491288269 0.49071922292154141 0 0.25287139441262568 0.54458355434492378 0 0.78031358885017377 0.49999999999997569 0 0.73815142352639962 0.50697050072007344 0 0.74730218607442667 0.45539100053644521 0 0.49999999999997108 0.21968641114982909 0 0.50732841191799194 0.2613117081243182 0 0.45533136021725079 0.2525687312087147 0 0.39507969989512881 0.74417394063201048 0 0.43306783640023289 0.78031198216144404 0 0.38703015239361932 0.80283068154761972 0 0.25582605936799319 0.39507969989513358 0 0.21968801783855879 0.43306783640023788 0 0.197169318452384 0.38703015239362498 0 0.74417394063200648 0.6049203001048884 0 0.78031198216143516 0.56693216359979737 0 0.8028306815476034 0.61296984760642026 0 0.60492030010488373 0.25582605936799729 0 0.56683314878414581 0.21944955250104689 0 0.61296984760641449 0.19716931845240021 0 0.77998481823117694 0.71397317153691997 0 0.74917861927654894 0.74229989257760443 0 0.73984939806388494 0.70740600291923139 0 0.28602682846308641 0.77998481823117594 0 0.25770010742238642 0.74917861927655205 0 0.2925512105451914 0.73997990291173188 0 0.71397317153692708 0.22001518176882201 0 0.74229989257762263 0.250821380723454 0 0.70740600291923772 0.26015060193611528 0 0.22001518176882229 0.28602682846307981 0 0.25082138072344978 0.25770010742236849 0 0.26014443552207939 0.29262390443653519 0 0.49189101320880302 0.59024331187324797 0 0.53087311892591971 0.55299263141448529 0 0.53542397956703913 0.60119875982347493 0 0.41009598069569558 0.49083935749285379 0 0.46152714345798918 0.47344359412352599 0 0.45293656999117771 0.51494832297079129 0 0.66820316019503978 0.77769800602796979 0 0.66919832404887702 0.81820888699730587 0 0.61896574319320252 0.795216048370321 0 0.22230199397202771 0.66820316019503168 0 0.1817911130026923 0.66919832404888702 0 0.2047839516296828 0.61896574319320252 0 0.77769800602796679 0.33179683980497482 0 0.8182088869973061 0.33080167595111531 0 0.79521604837030013 0.38103425680679831 0 0.33179683980498331 0.2223019939720311 0 0.33080167595110582 0.18179111300269291 0 0.38103425680679859 0.2047839516297037 0 0.83199780613337848 0.1690131600686714 0 0.87355793346388477 0.18922011052113649 0 0.84534053180161173 0.2262639405833009 0 0.16901316006868169 0.16800219386663079 0 0.18922011052115781 0.12644206653611201 0 0.22626394058331961 0.15465946819838111 0 0.58981073711177334 0.48140931020849848 0 0.62619054498681193 0.46482944251856079 0 0.64455163611866495 0.50369301794551069 0 0.59621567360238914 0.5184866806641607 0 0.58981073711177334 0.48140931020849848 0 0.64455163611866495 0.50369301794551069 0 0.53432142347292233 0.88563193847251998 0 0.54047998161173716 0.84333512669480526 0 0.58267137064684116 0.87013301365640838 0 0.56759263990989184 0.81794319034601648 0 0.58267137064684116 0.87013301365640838 0 0.54047998161173716 0.84333512669480526 0 0.1143680615274819 0.53432142347292733 0 0.1566648733051971 0.54047998161174216 0 0.12986698634359389 0.58267137064684615 0 0.18205680965398621 0.56759263990989739 0 0.12986698634359389 0.58267137064684615 0 0.1566648733051971 0.54047998161174216 0 0.88561059063756964 0.46572761956237563 0 0.84333218736938698 0.4595365182652234 0 0.87012666750595846 0.41743873185103042 0 0.81794319034597418 0.43240736009009317 0 0.87012666750595846 0.41743873185103042 0 0.84333218736938698 0.4595365182652234 0 0.46567857652706018 0.1143680615275231 0 0.45952001838826873 0.15666487330524251 0 0.41732862935313042 0.12986698634362279 0 0.43240736009008851 0.18205680965402779 0 0.41732862935313042 0.12986698634362279 0 0.45952001838826873 0.15666487330524251 0 0.70085728320704077 0.84350379029875056 0 0.70475631558365914 0.90098127745102974 0 0.66923299355723143 0.8804077449518628 0 0.1564962097012354 0.70085728320703999 0 0.099018722548963364 0.70475631558365193 0 0.1195922550481313 0.66923299355722787 0 0.84350379029877964 0.29914271679296989 0 0.89886191075654698 0.29506339503703172 0 0.88040774495187946 0.33076700644278889 0 0.29914271679297122 0.15649620970120659 0 0.29506339503703888 0.1011380892434444 0 0.33076700644279272 0.1195922550481146 0 0.839908789927305 0.77106070975262608 0 0.78651189793386345 0.75664155808652755 0 0.8312019486901514 0.72745002167959472 0 0.22893929024737289 0.83990878992727813 0 0.24335844191347281 0.78651189793387466 0 0.27254997832041528 0.8312019486901443 0 0.77216325087772952 0.15899695163319821 0 0.7582555232258138 0.2115548431873896 0 0.72767516840721058 0.16853767177393791 0 0.15899695163321451 0.22783674912227669 0 0.2115548431873881 0.2417444767741872 0 0.1685376717739448 0.27232483159280108 0 0.89586000931544074 0.25714619498770419 0 0.85389826602741015 0.26318949769600392 0 0.84534053180161173 0.2262639405833009 0 0.25714619498771307 0.1041399906845497 0 0.26318949769601319 0.14610173397257309 0 0.22626394058331961 0.15465946819838111 0 0.49771727055908782 0.83998685797641781 0 0.45353891581270822 0.85551523377818905 0 0.46593838964869061 0.80781872835503554 0 0.16001314202358469 0.49771727055909287 0 0.1444847662218138 0.45353891581271188 0 0.19218127164496679 0.46593838964869538 0 0.83998574657308889 0.50228528270184081 0 0.85551478316835361 0.54646211938695222 0 0.80781854240107975 0.53406203754901738 0 0.50228272944093777 0.16001314202359701 0 0.54646108418729233 0.1444847662218687 0 0.53404982287327418 0.19215288291432539 0 0.51484304721220842 0.69707233951836334 0 0.47818752133962877 0.66454462905280853 0 0.51172471858873747 0.64015771271794875 0 0.30292766048163949 0.51484304721221474 0 0.33436424489304489 0.47849603121740791 0 0.35815651743779398 0.51113440447909086 0 0.6027107599280892 0.83436006790502326 0 0.63969251517836323 0.84598529912890386 0 0.62483828039315681 0.8780818733396436 0 0.1656399320949789 0.60271075992809464 0 0.1540147008710982 0.63969251517836956 0 0.1219181266603569 0.62483828039315903 0 0.83436006790498052 0.39728924007189959 0 0.84598529912889664 0.36030748482164038 0 0.87815187193233801 0.37523526017134418 0 0.3972892400718947 0.16563993209502181 0 0.3603074848216346 0.15401470087110539 0 0.37516171960683908 0.121918126660369 0 0.70015119067225129 0.48481914991727459 0 0.64455163611866495 0.50369301794551069 0 0.66329969176266512 0.46626046872004567 0 0.57387636360620708 0.54318431390135336 0 0.53087311892591971 0.55299263141448529 0 0.554170140907293 0.50922353359177785 0 0.50333998054938722 0.50119715791968966 0 0.50753758205811061 0.4506562873613274 0 0.54783891860069212 0.46640164214823893 0 0.58267137064684116 0.87013301365640838 0 0.6027107599280892 0.83436006790502326 0 0.62483828039315681 0.8780818733396436 0 0.12986698634359389 0.58267137064684615 0 0.1656399320949789 0.60271075992809464 0 0.1219181266603569 0.62483828039315903 0 0.87012666750595846 0.41743873185103042 0 0.83436006790498052 0.39728924007189959 0 0.87815187193233801 0.37523526017134418 0 0.41732862935313042 0.12986698634362279 0 0.3972892400718947 0.16563993209502181 0 0.37516171960683908 0.121918126660369 0 0.35984320557492089 0.56698606271778873 0 0.35815651743779398 0.51113440447909086 0 0.39982789553993509 0.53462762214740622 0 0.43087117257049001 0.8215422551712771 0 0.46593838964869061 0.80781872835503554 0 0.45353891581270822 0.85551523377818905 0 0.17845774482872559 0.43087117257049429 0 0.19218127164496679 0.46593838964869538 0 0.1444847662218138 0.45353891581271188 0 0.8215422551712277 0.56912882742954496 0 0.80781854240107975 0.53406203754901738 0 0.85551478316835361 0.54646211938695222 0 0.56912882742954041 0.17845774482877461 0 0.53404982287327418 0.19215288291432539 0 0.54646108418729233 0.1444847662218687 0 0.89586000931544074 0.25714619498770419 0 0.89556054516486661 0.21720615046483649 0 0.94465622530468663 0.23167460333446291 0 0.91838802593870927 0.18172590289757809 0 0.94465622530468663 0.23167460333446291 0 0.89556054516486661 0.21720615046483649 0 0.25714619498771307 0.1041399906845497 0 0.21720615046484709 0.1044394548351292 0 0.23167460333446299 0.05534377469531044 0 0.18172590289758209 0.08161197406129285 0 0.23167460333446299 0.05534377469531044 0 0.21720615046484709 0.1044394548351292 0 0.50333998054938722 0.50119715791968966 0 0.54783891860069212 0.46640164214823893 0 0.554170140907293 0.50922353359177785 0 0.16901316006868169 0.16800219386663079 0 0.12587517708284679 0.1889683322666954 0 0.12294765968567151 0.14825146416195439 0 0.83199780613337848 0.1690131600686714 0 0.8110316677333288 0.125875177082863 0 0.8517485358380722 0.12294765968568611 0 0.74198804864688339 0.90892718720327403 0 0.74154628962857594 0.86274820500026039 0 0.78020430794084783 0.88768307197553598 0 0.78284912262770068 0.83746308049763585 0 0.78020430794084783 0.88768307197553598 0 0.74154628962857594 0.86274820500026039 0 0.091072812796719582 0.74198804864687795 0 0.13725179499972981 0.74154628962856628 0 0.11231692802445629 0.78020430794084028 0 0.16253691950235041 0.78284912262768558 0 0.11231692802445629 0.78020430794084028 0 0.13725179499972981 0.74154628962856628 0 0.82118136511706341 0.082875076569723011 0 0.77925951159456153 0.09969477121230251 0 0.76543419162344684 0.056452228708420968 0 0.08287507656968085 0.1788186348829835 0 0.099694771212264055 0.22074048840547039 0 0.056452228708379938 0.23456580837661581 0 0.91838802593884228 0.81827409710237209 0 0.9041449437197947 0.7786886066890556 0 0.9442075111696665 0.76777356182390766 0 0.1817259028976386 0.91838802593888857 0 0.22131139331094829 0.9041449437198319 0 0.23222643817617661 0.94420751116970569 0 0.73688246401832591 0.11047754041323141 0 0.76543419162344684 0.056452228708420968 0 0.77925951159456153 0.09969477121230251 0 0.1104775404132264 0.2631175359816938 0 0.056452228708379938 0.23456580837661581 0 0.099694771212264055 0.22074048840547039 0 0.88949062093135778 0.73694585442531257 0 0.9442075111696665 0.76777356182390766 0 0.9041449437197947 0.7786886066890556 0 0.26305414557470391 0.88949062093136155 0 0.23222643817617661 0.94420751116970569 0 0.22131139331094829 0.9041449437198319 0 0.73984939806388494 0.70740600291923139 0 0.71159714897733284 0.75039044679290845 0 0.70252050881959183 0.70358884261915833 0 0.74917861927654894 0.74229989257760443 0 0.71159714897733284 0.75039044679290845 0 0.73984939806388494 0.70740600291923139 0 0.2925512105451914 0.73997990291173188 0 0.249609553207091 0.71159714897732929 0 0.29641115738084339 0.70252050881958938 0 0.25770010742238642 0.74917861927655205 0 0.249609553207091 0.71159714897732929 0 0.2925512105451914 0.73997990291173188 0 0.70740600291923772 0.26015060193611528 0 0.75039044679291111 0.28840285102267788 0 0.70358884261915744 0.29747949118041561 0 0.74229989257762263 0.250821380723454 0 0.75039044679291111 0.28840285102267788 0 0.70740600291923772 0.26015060193611528 0 0.26014443552207939 0.29262390443653519 0 0.28840285102268098 0.24960955320708811 0 0.29747949118041711 0.2964111573808435 0 0.25082138072344978 0.25770010742236849 0 0.28840285102268098 0.24960955320708811 0 0.26014443552207939 0.29262390443653519 0 0.88949062093135778 0.73694585442531257 0 0.85607519768343354 0.69380468830529196 0 0.90051880305432697 0.69261863673346957 0 0.26305414557470391 0.88949062093136155 0 0.30619531169472608 0.85607519768342955 0 0.30738136326657722 0.90051880305435028 0 0.73688246401832591 0.11047754041323141 0 0.69379929796456197 0.14392209494791061 0 0.69253601466723103 0.09949211948105087 0 0.1104775404132264 0.2631175359816938 0 0.14392209494791439 0.30620070203545702 0 0.099492119481027347 0.30746398533281638 0 0.58981073711177334 0.48140931020849848 0 0.54783891860069212 0.46640164214823893 0 0.59313386551587477 0.43977047843653239 0 0.640156794425081 0.43301393728221721 0 0.69595787604187809 0.43071000156707989 0 0.66329969176266512 0.46626046872004567 0 0.70015119067225129 0.48481914991727459 0 0.66329969176266512 0.46626046872004567 0 0.69595787604187809 0.43071000156707989 0 0.8289812646369813 0.82898126463698818 0 0.81306033001437827 0.8677384967307622 0 0.78284912262770068 0.83746308049763585 0 0.17101873536300011 0.82898126463696109 0 0.1322615032692282 0.8130603300143705 0 0.16253691950235041 0.78284912262768558 0 0.84534053180161173 0.2262639405833009 0 0.87355793346388477 0.18922011052113649 0 0.89556054516486661 0.21720615046483649 0 0.22626394058331961 0.15465946819838111 0 0.18922011052115781 0.12644206653611201 0 0.21720615046484709 0.1044394548351292 0 0.90082758526900886 0.098076845682916511 0 0.86148619541339633 0.089689702191568438 0 0.86589314360155567 0.054872692726639853 0 0.098076845682915317 0.099172414730993488 0 0.089689702191541126 0.13851380458662241 0 0.054872692726595548 0.13410685639845171 0 0.84598529912884157 0.63969251517827153 0 0.89064679688610338 0.6216080907827598 0 0.88396545633132484 0.6625197322180193 0 0.63969251517826664 0.15401470087115929 0 0.62160809078275991 0.1093532031139005 0 0.66251865414987876 0.1160340021949529 0 0.36030748482174152 0.84598529912882459 0 0.37839190921727062 0.89064679688614412 0 0.33748026778199908 0.88396545633134682 0 0.15401470087117619 0.36030748482174652 0 0.10935320311385981 0.37839190921727089 0 0.11603400219493119 0.33748134585014028 0 0.82118136511706341 0.082875076569723011 0 0.8517485358380722 0.12294765968568611 0 0.8110316677333288 0.125875177082863 0 0.08287507656968085 0.1788186348829835 0 0.12294765968567151 0.14825146416195439 0 0.12587517708284679 0.1889683322666954 0 0.75000000000034661 1 0 0.7000000000006934 1 0 0.71789175274016548 0.95136708251202151 0 0 0.75000000000034661 0 0 0.7000000000006934 0 0.04863291748797445 0.71789175274016204 0 1 0.24999999999941211 0 1 0.29999999999926641 0 0.94915666091748963 0.28320804985299752 0 0.24999999999941211 0 0 0.29999999999926641 0 0 0.28320804985300141 0.050843339082505573 0 0.55000000000173355 1 0 0.51507566941747085 0.9626786017237855 0 0.55307204985744796 0.94819812235491685 0 0 0.55000000000173355 0 0.037321398276215258 0.51507566941747263 0 0.051801877645083663 0.55307204985745195 0 1 0.44999999999882923 0 0.96266688603193029 0.48495124540067203 0 0.94812782820415209 0.44708943904932719 0 0.44999999999882923 0 0 0.48492433058289169 0.037321398276272413 0 0.44692795014265252 0.051801877645060238 0 0.49854341599767982 0.37075914768127122 0 0.51491507395299929 0.3326740076510219 0 0.54715635490880632 0.37829016026862072 0 0.91838802593884228 0.81827409710237209 0 0.88962265630811221 0.85311725681459705 0 0.87660297360393757 0.8104127896505644 0 0.1817259028976386 0.91838802593888857 0 0.14688274318541941 0.88962265630811932 0 0.18958721034944021 0.87660297360394568 0 0.50333998054938722 0.50119715791968966 0 0.554170140907293 0.50922353359177785 0 0.53087311892591971 0.55299263141448529 0 0.91890123454466932 0.39094742729597309 0 0.95886012268748921 0.4068558182724159 0 0.90991454156957952 0.4312731559748802 0 0.94812782820415209 0.44708943904932719 0 0.90991454156957952 0.4312731559748802 0 0.95886012268748921 0.4068558182724159 0 0.84999999999965292 1 0 0.82675923981951416 0.95611053755456221 0 0.86696410734367158 0.94753096683315619 0 0 0.84999999999965292 0 0.043889462445437968 0.82675923981951283 0 0.052469033166843738 0.86696410734366991 0 0.1817259028976386 0.91838802593888857 0 0.18045991219397989 0.960710939969875 0 0.13834721989462789 0.94095916274077984 0 0.91838802593884228 0.81827409710237209 0 0.96071093996985157 0.81954008780615684 0 0.94095916274074942 0.86165278010542579 0 0.08287507656968085 0.1788186348829835 0 0.038839999600931263 0.17949825993190149 0 0.054872692726595548 0.13410685639845171 0 0.82118136511706341 0.082875076569723011 0 0.82050174006822896 0.038839999600956771 0 0.86589314360155567 0.054872692726639853 0 0.15000000000062411 1 0 0.13834721989462789 0.94095916274077984 0 0.18045991219397989 0.960710939969875 0 1 0.84999999999960507 0 0.94095916274074942 0.86165278010542579 0 0.96071093996985157 0.81954008780615684 0 0 0.15000000000062411 0 0.054872692726595548 0.13410685639845171 0 0.038839999600931263 0.17949825993190149 0 0.84999999999960507 0 0 0.86589314360155567 0.054872692726639853 0 0.82050174006822896 0.038839999600956771 0 1 0.14999999999970359 0 0.96080966346491015 0.18035159017841959 0 0.94100406608115506 0.1383574446607955 0 0.14999999999970359 0 0 0.18035159017842109 0.039190336535090492 0 0.1383574446607988 0.058995933918849157 0 0.91838802593870927 0.18172590289757809 0 0.94100406608115506 0.1383574446607955 0 0.96080966346491015 0.18035159017841959 0 0.18172590289758209 0.08161197406129285 0 0.1383574446607988 0.058995933918849157 0 0.18035159017842109 0.039190336535090492 0 0.40653508887824003 0.61580573377480397 0 0.45030222762303879 0.58443295115431027 0 0.45517457031814612 0.62743100079604397 0 0.50333998054938722 0.50119715791968966 0 0.53087311892591971 0.55299263141448529 0 0.47974773860103892 0.54872726831320284 0 0.33382663527330159 0.44130125047503482 0 0.30597655500381687 0.3934681685211931 0 0.35481422397128459 0.40312981465069342 0 0.34804757266227387 0.35750068079406011 0 0.35481422397128459 0.40312981465069342 0 0.30597655500381687 0.3934681685211931 0 0.39419886675318527 0.41912225240070788 0 0.39222057657781068 0.38067796690227418 0 0.42930823106401639 0.40626685012722968 0 0.5586987495249669 0.33382663527330653 0 0.54715635490880632 0.37829016026862072 0 0.51491507395299929 0.3326740076510219 0 0.84598529912884157 0.63969251517827153 0 0.88396545633132484 0.6625197322180193 0 0.85607519768343354 0.69380468830529196 0 0.63969251517826664 0.15401470087115929 0 0.66251865414987876 0.1160340021949529 0 0.69379929796456197 0.14392209494791061 0 0.36030748482174152 0.84598529912882459 0 0.33748026778199908 0.88396545633134682 0 0.30619531169472608 0.85607519768342955 0 0.15401470087117619 0.36030748482174652 0 0.11603400219493119 0.33748134585014028 0 0.14392209494791439 0.30620070203545702 0 0.41009598069569558 0.49083935749285379 0 0.39982789553993509 0.53462762214740622 0 0.35815651743779398 0.51113440447909086 0 0.43087117257049001 0.8215422551712771 0 0.38703015239361932 0.80283068154761972 0 0.43306783640023289 0.78031198216144404 0 0.8215422551712277 0.56912882742954496 0 0.8028306815476034 0.61296984760642026 0 0.78031198216143516 0.56693216359979737 0 0.17845774482872559 0.43087117257049429 0 0.197169318452384 0.38703015239362498 0 0.21968801783855879 0.43306783640023788 0 0.56912882742954041 0.17845774482877461 0 0.61296984760641449 0.19716931845240021 0 0.56683314878414581 0.21944955250104689 0 0.86696410734367158 0.94753096683315619 0 0.82675923981951416 0.95611053755456221 0 0.85382799508926477 0.91295829388058414 0 0.052469033166843738 0.86696410734366991 0 0.043889462445437968 0.82675923981951283 0 0.087041706119416085 0.85382799508926188 0 0.81709574086843206 0.91318696080656769 0 0.85382799508926477 0.91295829388058414 0 0.82675923981951416 0.95611053755456221 0 0.086813039193431391 0.81709574086842884 0 0.087041706119416085 0.85382799508926188 0 0.043889462445437968 0.82675923981951283 0 0.77998481823117694 0.71397317153691997 0 0.8312019486901514 0.72745002167959472 0 0.78651189793386345 0.75664155808652755 0 0.28602682846308641 0.77998481823117594 0 0.27254997832041528 0.8312019486901443 0 0.24335844191347281 0.78651189793387466 0 0.71397317153692708 0.22001518176882201 0 0.72767516840721058 0.16853767177393791 0 0.7582555232258138 0.2115548431873896 0 0.22001518176882229 0.28602682846307981 0 0.1685376717739448 0.27232483159280108 0 0.2115548431873881 0.2417444767741872 0 0.54901591374940373 0.42306523525165751 0 0.50753758205811061 0.4506562873613274 0 0.5047849391802508 0.40719950955717021 0 0.54901591374940373 0.42306523525165751 0 0.59313386551587477 0.43977047843653239 0 0.54783891860069212 0.46640164214823893 0 0.81709574086843206 0.91318696080656769 0 0.81306033001437827 0.8677384967307622 0 0.85174853583809862 0.87705234031428159 0 0.086813039193431391 0.81709574086842884 0 0.1322615032692282 0.8130603300143705 0 0.1229476596857173 0.85174853583809695 0 0.839908789927305 0.77106070975262608 0 0.79422489417873421 0.79640925234634441 0 0.78651189793386345 0.75664155808652755 0 0.22893929024737289 0.83990878992727813 0 0.20359074765364421 0.79422489417871855 0 0.24335844191347281 0.78651189793387466 0 0.77216325087772952 0.15899695163319821 0 0.80027482104603809 0.20596721135052129 0 0.7582555232258138 0.2115548431873896 0 0.15899695163321451 0.22783674912227669 0 0.20596721135052939 0.19972517895396219 0 0.2115548431873881 0.2417444767741872 0 0.70087539567735502 0.57165914616526226 0 0.65501639383771026 0.594528181397324 0 0.66548584431530877 0.55616712808283064 0 0.69288637798153729 0.61204665218001397 0 0.65501639383771026 0.594528181397324 0 0.70087539567735502 0.57165914616526226 0 0.57188338999077359 0.29874123486230147 0 0.59596170682035776 0.34609402305862419 0 0.5586987495249669 0.33382663527330653 0 0.61204665218000809 0.30711362201846659 0 0.59596170682035776 0.34609402305862419 0 0.57188338999077359 0.29874123486230147 0 0.55307204985744796 0.94819812235491685 0 0.56877264426066887 0.91182300080710277 0 0.5931441817276254 0.95886012268751675 0 0.60938371359314658 0.91847489683800321 0 0.5931441817276254 0.95886012268751675 0 0.56877264426066887 0.91182300080710277 0 0.051801877645083663 0.55307204985745195 0 0.088176999192898689 0.56877264426067353 0 0.041139877312483641 0.59314418172763017 0 0.081525103161997597 0.6093837135931508 0 0.041139877312483641 0.59314418172763017 0 0.088176999192898689 0.56877264426067353 0 0.44692795014265252 0.051801877645060238 0 0.43122735573933979 0.088176999192917438 0 0.40685581827241191 0.041139877312511682 0 0.39061628640684498 0.081525103161991672 0 0.40685581827241191 0.041139877312511682 0 0.43122735573933979 0.088176999192917438 0 0.56566515596461675 0.63670464971409091 0 0.54058719659441246 0.66889411379075558 0 0.51172471858873747 0.64015771271794875 0 0.35984320557492089 0.56698606271778873 0 0.331306197573488 0.54052564146842386 0 0.35815651743779398 0.51113440447909086 0 0.51484304721220842 0.69707233951836334 0 0.51172471858873747 0.64015771271794875 0 0.54058719659441246 0.66889411379075558 0 0.30292766048163949 0.51484304721221474 0 0.35815651743779398 0.51113440447909086 0 0.331306197573488 0.54052564146842386 0 0.90045039720880915 0.9020090423547924 0 0.86696410734367158 0.94753096683315619 0 0.85382799508926477 0.91295829388058414 0 0.097990957645208238 0.90045039720880915 0 0.052469033166843738 0.86696410734366991 0 0.087041706119416085 0.85382799508926188 0 0.82118136511706341 0.082875076569723011 0 0.86589314360155567 0.054872692726639853 0 0.86148619541339633 0.089689702191568438 0 0.08287507656968085 0.1788186348829835 0 0.054872692726595548 0.13410685639845171 0 0.089689702191541126 0.13851380458662241 0 0.67757268808231397 0.93106206656183088 0 0.70475631558365914 0.90098127745102974 0 0.71789175274016548 0.95136708251202151 0 0.068937933438162791 0.67757268808231053 0 0.099018722548963364 0.70475631558365193 0 0.04863291748797445 0.71789175274016204 0 0.93106206656185309 0.32242731191769503 0 0.89886191075654698 0.29506339503703172 0 0.94915666091748963 0.28320804985299752 0 0.32242731191769902 0.068937933438140794 0 0.29506339503703888 0.1011380892434444 0 0.28320804985300141 0.050843339082505573 0 0.59819537371016407 0.74380966024143391 0 0.57578062281532438 0.77751665353176347 0 0.54465502325161819 0.74717983044080061 0 0.25619033975856881 0.59819537371016862 0 0.2224870800581388 0.57577541371134155 0 0.25287139441262568 0.54458355434492378 0 0.74380966024142703 0.40180462628984132 0 0.77752557158083724 0.42422273168818408 0 0.74730218607442667 0.45539100053644521 0 0.40180462628983732 0.2561903397585753 0 0.42421838472613971 0.22246502005787769 0 0.45533136021725079 0.2525687312087147 0 0.56566515596461675 0.63670464971409091 0 0.53542397956703913 0.60119875982347493 0 0.57484409313590223 0.58437321637184114 0 0.59819537371016407 0.74380966024143391 0 0.57051182622447827 0.69668652018496713 0 0.6083790122881827 0.70496300707145865 0 0.25619033975856881 0.59819537371016862 0 0.30429740679959738 0.56913905146460098 0 0.29503699292854352 0.60837901228818936 0 0.74380966024142703 0.40180462628984132 0 0.69595787604187809 0.43071000156707989 0 0.70496300707145554 0.39162098771181952 0 0.40180462628983732 0.2561903397585753 0 0.43059486795334201 0.30395973419063538 0 0.39162098771181342 0.29503699292854563 0 0.50000000000002642 0.7803135888501761 0 0.54465502325161819 0.74717983044080061 0 0.53770425635794761 0.80104587463999666 0 0.2196864111498267 0.50000000000003153 0 0.25287139441262568 0.54458355434492378 0 0.1989632851005598 0.53769147668950479 0 0.78031358885017377 0.49999999999997569 0 0.74730218607442667 0.45539100053644521 0 0.80106707846564795 0.46230714888029367 0 0.49999999999997108 0.21968641114982909 0 0.45533136021725079 0.2525687312087147 0 0.46229330881044273 0.19890916456654811 0 0.51484304721220842 0.69707233951836334 0 0.54058719659441246 0.66889411379075558 0 0.57051182622447827 0.69668652018496713 0 0.30292766048163949 0.51484304721221474 0 0.331306197573488 0.54052564146842386 0 0.30429740679959738 0.56913905146460098 0 0.56566515596461675 0.63670464971409091 0 0.57051182622447827 0.69668652018496713 0 0.54058719659441246 0.66889411379075558 0 0.35984320557492089 0.56698606271778873 0 0.30429740679959738 0.56913905146460098 0 0.331306197573488 0.54052564146842386 0 0.60938371359314658 0.91847489683800321 0 0.58267137064684116 0.87013301365640838 0 0.62483828039315681 0.8780818733396436 0 0.081525103161997597 0.6093837135931508 0 0.12986698634359389 0.58267137064684615 0 0.1219181266603569 0.62483828039315903 0 0.91890123454466932 0.39094742729597309 0 0.87012666750595846 0.41743873185103042 0 0.87815187193233801 0.37523526017134418 0 0.39061628640684498 0.081525103161991672 0 0.41732862935313042 0.12986698634362279 0 0.37516171960683908 0.121918126660369 0 0.5133022293955174 0.064893331803591428 0 0.52499999999875446 0.029444907164469181 0 0.55993888817186677 0.043612803661174412 0 0.064893331803534807 0.48669777060454478 0 0.029444907164209121 0.47500000000196552 0 0.043612803661092707 0.44006111182840391 0 0.93510666819640953 0.51330222939551939 0 0.97055509283553232 0.52499999999875435 0 0.95638719633882641 0.5599388881718611 0 0.48669777060454272 0.93510666819646593 0 0.47500000000196563 0.970555092835793 0 0.44006111182840962 0.9563871963389079 0 0.56759263990989184 0.81794319034601648 0 0.54047998161173716 0.84333512669480526 0 0.53770425635794761 0.80104587463999666 0 0.18205680965398621 0.56759263990989739 0 0.1566648733051971 0.54047998161174216 0 0.1989632851005598 0.53769147668950479 0 0.81794319034597418 0.43240736009009317 0 0.84333218736938698 0.4595365182652234 0 0.80106707846564795 0.46230714888029367 0 0.43240736009008851 0.18205680965402779 0 0.45952001838826873 0.15666487330524251 0 0.46229330881044273 0.19890916456654811 0 0.50333998054938722 0.50119715791968966 0 0.47974773860103892 0.54872726831320284 0 0.45293656999117771 0.51494832297079129 0 0.73982803480991577 0.79629608696991705 0 0.69892030930712212 0.7971997999085858 0 0.71159714897733284 0.75039044679290845 0 0.20370391303007401 0.73982803480989479 0 0.2028002000914135 0.69892030930711557 0 0.249609553207091 0.71159714897732929 0 0.79629608696994103 0.26017196519011448 0 0.7971997999085878 0.3010796906928917 0 0.75039044679291111 0.28840285102267788 0 0.26017196519013502 0.20370391303005 0 0.30107969069289831 0.20280020009141189 0 0.28840285102268098 0.24960955320708811 0 0.43087117257049001 0.8215422551712771 0 0.40481452396081791 0.85130421228141606 0 0.38703015239361932 0.80283068154761972 0 0.36030748482174152 0.84598529912882459 0 0.38703015239361932 0.80283068154761972 0 0.40481452396081791 0.85130421228141606 0 0.17845774482872559 0.43087117257049429 0 0.14869578771858949 0.40481452396082068 0 0.197169318452384 0.38703015239362498 0 0.8215422551712277 0.56912882742954496 0 0.85130417396420255 0.59518556406638579 0 0.8028306815476034 0.61296984760642026 0 0.84598529912884157 0.63969251517827153 0 0.8028306815476034 0.61296984760642026 0 0.85130417396420255 0.59518556406638579 0 0.15401470087117619 0.36030748482174652 0 0.197169318452384 0.38703015239362498 0 0.14869578771858949 0.40481452396082068 0 0.56912882742954041 0.17845774482877461 0 0.59518547603920147 0.14869578771864489 0 0.61296984760641449 0.19716931845240021 0 0.63969251517826664 0.15401470087115929 0 0.61296984760641449 0.19716931845240021 0 0.59518547603920147 0.14869578771864489 0 0.6519524273377173 0.64249931920594539 0 0.65501639383771026 0.594528181397324 0 0.69288637798153729 0.61204665218001397 0 0.6424993192059415 0.3480475726622802 0 0.59596170682035776 0.34609402305862419 0 0.61204665218000809 0.30711362201846659 0 0.35944937237716967 0.65164789808436319 0 0.40564717507982689 0.65626423320524974 0 0.38642358467307758 0.69286258923597266 0 0.90045039720880915 0.9020090423547924 0 0.85174853583809862 0.87705234031428159 0 0.88962265630811221 0.85311725681459705 0 0.097990957645208238 0.90045039720880915 0 0.1229476596857173 0.85174853583809695 0 0.14688274318541941 0.88962265630811932 0 0.90082758526900886 0.098076845682916511 0 0.88777909259956078 0.1484760565886154 0 0.8517485358380722 0.12294765968568611 0 0.098076845682915317 0.099172414730993488 0 0.1484760565886207 0.1122209074004519 0 0.12294765968567151 0.14825146416195439 0 0.35815651743779398 0.51113440447909086 0 0.33436424489304489 0.47849603121740791 0 0.37702386074717259 0.45819417564476811 0 0.92670321183853355 0.65773042910151081 0 0.94635952848698612 0.71209247961721311 0 0.90051880305432697 0.69261863673346957 0 0.65773042910151891 0.073296788161472337 0 0.71174922810186925 0.053730171687687178 0 0.69253601466723103 0.09949211948105087 0 0.3422695708985129 0.92670321183858773 0 0.28790752038294382 0.94635952848702642 0 0.30738136326657722 0.90051880305435028 0 0.073296788161418117 0.34226957089850552 0 0.053730171687646627 0.28825077189828552 0 0.099492119481027347 0.30746398533281638 0 0.43565339604028508 0.55159384357101338 0 0.45293656999117771 0.51494832297079129 0 0.47974773860103892 0.54872726831320284 0 0.33382663527330159 0.44130125047503482 0 0.2963043386970643 0.4298320229681446 0 0.30597655500381687 0.3934681685211931 0 1 0.69999999999921003 0 0.94635952848698612 0.71209247961721311 0 0.96779701826738695 0.67105375815842694 0 0.69999999999921003 0 0 0.71174922810186925 0.053730171687687178 0 0.67098510785536181 0.032220921767549461 0 0.30000000000124832 1 0 0.28790752038294382 0.94635952848702642 0 0.32894624184180998 0.96779701826738929 0 0 0.30000000000124832 0 0.053730171687646627 0.28825077189828552 0 0.032220921767546963 0.32901489214487523 0 0.56759263990989184 0.81794319034601648 0 0.57578062281532438 0.77751665353176347 0 0.61896574319320252 0.795216048370321 0 0.59819537371016407 0.74380966024143391 0 0.61896574319320252 0.795216048370321 0 0.57578062281532438 0.77751665353176347 0 0.25619033975856881 0.59819537371016862 0 0.2047839516296828 0.61896574319320252 0 0.2224870800581388 0.57577541371134155 0 0.18205680965398621 0.56759263990989739 0 0.2224870800581388 0.57577541371134155 0 0.2047839516296828 0.61896574319320252 0 0.74380966024142703 0.40180462628984132 0 0.79521604837030013 0.38103425680679831 0 0.77752557158083724 0.42422273168818408 0 0.81794319034597418 0.43240736009009317 0 0.77752557158083724 0.42422273168818408 0 0.79521604837030013 0.38103425680679831 0 0.40180462628983732 0.2561903397585753 0 0.38103425680679859 0.2047839516297037 0 0.42421838472613971 0.22246502005787769 0 0.43240736009008851 0.18205680965402779 0 0.42421838472613971 0.22246502005787769 0 0.38103425680679859 0.2047839516297037 0 0.63969251517836323 0.84598529912890386 0 0.6027107599280892 0.83436006790502326 0 0.61896574319320252 0.795216048370321 0 0.1540147008710982 0.63969251517836956 0 0.1656399320949789 0.60271075992809464 0 0.2047839516296828 0.61896574319320252 0 0.84598529912889664 0.36030748482164038 0 0.83436006790498052 0.39728924007189959 0 0.79521604837030013 0.38103425680679831 0 0.3603074848216346 0.15401470087110539 0 0.3972892400718947 0.16563993209502181 0 0.38103425680679859 0.2047839516297037 0 0.53432142347292233 0.88563193847251998 0 0.58267137064684116 0.87013301365640838 0 0.56877264426066887 0.91182300080710277 0 0.1143680615274819 0.53432142347292733 0 0.12986698634359389 0.58267137064684615 0 0.088176999192898689 0.56877264426067353 0 0.91890123454466932 0.39094742729597309 0 0.90991454156957952 0.4312731559748802 0 0.87012666750595846 0.41743873185103042 0 0.46567857652706018 0.1143680615275231 0 0.41732862935313042 0.12986698634362279 0 0.43122735573933979 0.088176999192917438 0 0.60938371359314658 0.91847489683800321 0 0.56877264426066887 0.91182300080710277 0 0.58267137064684116 0.87013301365640838 0 0.081525103161997597 0.6093837135931508 0 0.088176999192898689 0.56877264426067353 0 0.12986698634359389 0.58267137064684615 0 0.88561059063756964 0.46572761956237563 0 0.87012666750595846 0.41743873185103042 0 0.90991454156957952 0.4312731559748802 0 0.39061628640684498 0.081525103161991672 0 0.43122735573933979 0.088176999192917438 0 0.41732862935313042 0.12986698634362279 0 0.56759263990989184 0.81794319034601648 0 0.6027107599280892 0.83436006790502326 0 0.58267137064684116 0.87013301365640838 0 0.18205680965398621 0.56759263990989739 0 0.1656399320949789 0.60271075992809464 0 0.12986698634359389 0.58267137064684615 0 0.81794319034597418 0.43240736009009317 0 0.83436006790498052 0.39728924007189959 0 0.87012666750595846 0.41743873185103042 0 0.43240736009008851 0.18205680965402779 0 0.3972892400718947 0.16563993209502181 0 0.41732862935313042 0.12986698634362279 0 0.77998481823117694 0.71397317153691997 0 0.78651189793386345 0.75664155808652755 0 0.74917861927654894 0.74229989257760443 0 0.28602682846308641 0.77998481823117594 0 0.24335844191347281 0.78651189793387466 0 0.25770010742238642 0.74917861927655205 0 0.71397317153692708 0.22001518176882201 0 0.7582555232258138 0.2115548431873896 0 0.74229989257762263 0.250821380723454 0 0.22001518176882229 0.28602682846307981 0 0.2115548431873881 0.2417444767741872 0 0.25082138072344978 0.25770010742236849 0 0.8215422551712277 0.56912882742954496 0 0.78031198216143516 0.56693216359979737 0 0.80781854240107975 0.53406203754901738 0 0.43087117257049001 0.8215422551712771 0 0.43306783640023289 0.78031198216144404 0 0.46593838964869061 0.80781872835503554 0 0.56912882742954041 0.17845774482877461 0 0.56683314878414581 0.21944955250104689 0 0.53404982287327418 0.19215288291432539 0 0.17845774482872559 0.43087117257049429 0 0.21968801783855879 0.43306783640023788 0 0.19218127164496679 0.46593838964869538 0 0.92670321183853355 0.65773042910151081 0 0.96779701826738695 0.67105375815842694 0 0.94635952848698612 0.71209247961721311 0 0.65773042910151891 0.073296788161472337 0 0.67098510785536181 0.032220921767549461 0 0.71174922810186925 0.053730171687687178 0 0.3422695708985129 0.92670321183858773 0 0.32894624184180998 0.96779701826738929 0 0.28790752038294382 0.94635952848702642 0 0.073296788161418117 0.34226957089850552 0 0.032220921767546963 0.32901489214487523 0 0.053730171687646627 0.28825077189828552 0 0.51484304721220842 0.69707233951836334 0 0.46736891737654429 0.70015537930374983 0 0.47818752133962877 0.66454462905280853 0 0.30292766048163949 0.51484304721221474 0 0.29988655052531688 0.46700727827593119 0 0.33436424489304489 0.47849603121740791 0 0.53432142347292233 0.88563193847251998 0 0.52425337578225772 0.9223731761594427 0 0.48758069708049379 0.89080072540186539 0 0.1143680615274819 0.53432142347292733 0 0.07762682384055844 0.52425337578226128 0 0.1091992745981364 0.48758069708049778 0 0.88561059063756964 0.46572761956237563 0 0.92203742772043751 0.47579485578641628 0 0.89079805168298443 0.51242544533572376 0 0.46567857652706018 0.1143680615275231 0 0.47574662421782782 0.077626823840590969 0 0.51241930291950477 0.1091992745981813 0 0.49189101320880302 0.59024331187324797 0 0.47974773860103892 0.54872726831320284 0 0.53087311892591971 0.55299263141448529 0 0.81709574086843206 0.91318696080656769 0 0.78020430794084783 0.88768307197553598 0 0.81306033001437827 0.8677384967307622 0 0.086813039193431391 0.81709574086842884 0 0.11231692802445629 0.78020430794084028 0 0.1322615032692282 0.8130603300143705 0 0.90045039720880915 0.9020090423547924 0 0.85382799508926477 0.91295829388058414 0 0.85174853583809862 0.87705234031428159 0 0.097990957645208238 0.90045039720880915 0 0.087041706119416085 0.85382799508926188 0 0.1229476596857173 0.85174853583809695 0 0.82118136511706341 0.082875076569723011 0 0.86148619541339633 0.089689702191568438 0 0.8517485358380722 0.12294765968568611 0 0.08287507656968085 0.1788186348829835 0 0.089689702191541126 0.13851380458662241 0 0.12294765968567151 0.14825146416195439 0 0.56759263990989184 0.81794319034601648 0 0.61896574319320252 0.795216048370321 0 0.6027107599280892 0.83436006790502326 0 0.18205680965398621 0.56759263990989739 0 0.2047839516296828 0.61896574319320252 0 0.1656399320949789 0.60271075992809464 0 0.81794319034597418 0.43240736009009317 0 0.79521604837030013 0.38103425680679831 0 0.83436006790498052 0.39728924007189959 0 0.43240736009008851 0.18205680965402779 0 0.38103425680679859 0.2047839516297037 0 0.3972892400718947 0.16563993209502181 0 0.91838802593870927 0.18172590289757809 0 0.87355793346388477 0.18922011052113649 0 0.88777909259956078 0.1484760565886154 0 0.18172590289758209 0.08161197406129285 0 0.18922011052115781 0.12644206653611201 0 0.1484760565886207 0.1122209074004519 0 0.50333998054938722 0.50119715791968966 0 0.46152714345798918 0.47344359412352599 0 0.50753758205811061 0.4506562873613274 0 0.46102425708533701 0.43254199134332588 0 0.50753758205811061 0.4506562873613274 0 0.46152714345798918 0.47344359412352599 0 0.70252050881959183 0.70358884261915833 0 0.67626275269587088 0.72713741921009012 0 0.6768914574865772 0.67861120078714243 0 0.29641115738084339 0.70252050881958938 0 0.27349656744860212 0.67581741996408695 0 0.32259853082073792 0.67670072609835186 0 0.70358884261915744 0.29747949118041561 0 0.72713741921008324 0.32373724730413678 0 0.6786112007871401 0.32310854251343019 0 0.29747949118041711 0.2964111573808435 0 0.32373692627050221 0.27286413781593999 0 0.3231032570156932 0.32141443408924047 0 0.43301393728221038 0.35984320557492139 0 0.39222057657781068 0.38067796690227418 0 0.39120887188745579 0.33407577688404289 0 0.48669777060454272 0.93510666819646593 0 0.48758069708049379 0.89080072540186539 0 0.52425337578225772 0.9223731761594427 0 0.064893331803534807 0.48669777060454478 0 0.1091992745981364 0.48758069708049778 0 0.07762682384055844 0.52425337578226128 0 0.93510666819640953 0.51330222939551939 0 0.89079805168298443 0.51242544533572376 0 0.92203742772043751 0.47579485578641628 0 0.5133022293955174 0.064893331803591428 0 0.51241930291950477 0.1091992745981813 0 0.47574662421782782 0.077626823840590969 0 0.4434591735942961 0.66641640622551224 0 0.42715538333808079 0.70077759375307946 0 0.40564717507982689 0.65626423320524974 0 0.38642358467307758 0.69286258923597266 0 0.40564717507982689 0.65626423320524974 0 0.42715538333808079 0.70077759375307946 0 0.57387636360620708 0.54318431390135336 0 0.554170140907293 0.50922353359177785 0 0.59621567360238914 0.5184866806641607 0 0.84999999999965292 1 0 0.79999999999999982 1 0 0.82675923981951416 0.95611053755456221 0 0 0.84999999999965292 0 0 0.79999999999999982 0 0.043889462445437968 0.82675923981951283 0 1 0.14999999999970359 0 1 0.19999999999955789 0 0.96080966346491015 0.18035159017841959 0 0.14999999999970359 0 0 0.19999999999955789 0 0 0.18035159017842109 0.039190336535090492 0 1 0.79999999999947335 0 1 0.84999999999960507 0 0.96071093996985157 0.81954008780615684 0 0.79999999999947335 0 0 0.84999999999960507 0 0 0.82050174006822896 0.038839999600956771 0 0.20000000000083221 1 0 0.15000000000062411 1 0 0.18045991219397989 0.960710939969875 0 0 0.20000000000083221 0 0 0.15000000000062411 0 0.038839999600931263 0.17949825993190149 0 0.64518564541690571 0.69601563325001548 0 0.6768914574865772 0.67861120078714243 0 0.67626275269587088 0.72713741921009012 0 0.30421635384321521 0.64514939193436716 0 0.32259853082073792 0.67670072609835186 0 0.27349656744860212 0.67581741996408695 0 0.69601563325001248 0.35481435458309712 0 0.6786112007871401 0.32310854251343019 0 0.72713741921008324 0.32373724730413678 0 0.35481435458309307 0.30398436674998969 0 0.3231032570156932 0.32141443408924047 0 0.32373692627050221 0.27286413781593999 0 0.49771727055908782 0.83998685797641781 0 0.48758069708049379 0.89080072540186539 0 0.45353891581270822 0.85551523377818905 0 0.16001314202358469 0.49771727055909287 0 0.1091992745981364 0.48758069708049778 0 0.1444847662218138 0.45353891581271188 0 0.83998574657308889 0.50228528270184081 0 0.89079805168298443 0.51242544533572376 0 0.85551478316835361 0.54646211938695222 0 0.50228272944093777 0.16001314202359701 0 0.51241930291950477 0.1091992745981813 0 0.54646108418729233 0.1444847662218687 0 0.70252050881959183 0.70358884261915833 0 0.6768914574865772 0.67861120078714243 0 0.71518943060973483 0.65679402931717101 0 0.29641115738084339 0.70252050881958938 0 0.32259853082073792 0.67670072609835186 0 0.34270280102445921 0.71672416762035873 0 0.70358884261915744 0.29747949118041561 0 0.6786112007871401 0.32310854251343019 0 0.65679402931716913 0.28481056939027388 0 0.29747949118041711 0.2964111573808435 0 0.3231032570156932 0.32141443408924047 0 0.28473805236128291 0.34355768118673757 0 0.92670321183853355 0.65773042910151081 0 0.96654491682122368 0.6363613838740827 0 0.96779701826738695 0.67105375815842694 0 0.65773042910151891 0.073296788161472337 0 0.63635157668793507 0.033457646040912177 0 0.67098510785536181 0.032220921767549461 0 0.073296788161418117 0.34226957089850552 0 0.033457646040922301 0.36364842331228431 0 0.032220921767546963 0.32901489214487523 0 0.3422695708985129 0.92670321183858773 0 0.36363861612613613 0.96654491682121313 0 0.32894624184180998 0.96779701826738929 0 1 0.64999999999907843 0 1 0.69999999999921003 0 0.96779701826738695 0.67105375815842694 0 0.64999999999907843 0 0 0.69999999999921003 0 0 0.67098510785536181 0.032220921767549461 0 0.35000000000145642 1 0 0.30000000000124832 1 0 0.32894624184180998 0.96779701826738929 0 0 0.35000000000145642 0 0 0.30000000000124832 0 0.032220921767546963 0.32901489214487523 0 0 0.40000000000166441 0 0 0.35000000000145642 0 0.033457646040922301 0.36364842331228431 0 0.40000000000166441 1 0 0.35000000000145642 1 0 0.36363861612613613 0.96654491682121313 0 0.59999999999894682 0 0 0.64999999999907843 0 0 0.63635157668793507 0.033457646040912177 0 1 0.59999999999894682 0 1 0.64999999999907843 0 0.96654491682122368 0.6363613838740827 0 0.81709574086843206 0.91318696080656769 0 0.85174853583809862 0.87705234031428159 0 0.85382799508926477 0.91295829388058414 0 0.086813039193431391 0.81709574086842884 0 0.1229476596857173 0.85174853583809695 0 0.087041706119416085 0.85382799508926188 0 0.90082758526900886 0.098076845682916511 0 0.8517485358380722 0.12294765968568611 0 0.86148619541339633 0.089689702191568438 0 0.098076845682915317 0.099172414730993488 0 0.12294765968567151 0.14825146416195439 0 0.089689702191541126 0.13851380458662241 0 0.59819537371016407 0.74380966024143391 0 0.6083790122881827 0.70496300707145865 0 0.64203711532612107 0.74316477213290444 0 0.64518564541690571 0.69601563325001548 0 0.64203711532612107 0.74316477213290444 0 0.6083790122881827 0.70496300707145865 0 0.25619033975856881 0.59819537371016862 0 0.29503699292854352 0.60837901228818936 0 0.25684529255773247 0.64203554247963057 0 0.30421635384321521 0.64514939193436716 0 0.25684529255773247 0.64203554247963057 0 0.29503699292854352 0.60837901228818936 0 0.74380966024142703 0.40180462628984132 0 0.70496300707145554 0.39162098771181952 0 0.74316477213289889 0.35796288467388632 0 0.69601563325001248 0.35481435458309712 0 0.74316477213289889 0.35796288467388632 0 0.70496300707145554 0.39162098771181952 0 0.40180462628983732 0.2561903397585753 0 0.39162098771181342 0.29503699292854563 0 0.3579628846738841 0.25683522786710378 0 0.35481435458309307 0.30398436674998969 0 0.3579628846738841 0.25683522786710378 0 0.39162098771181342 0.29503699292854563 0 0.8289812646369813 0.82898126463698818 0 0.85174853583809862 0.87705234031428159 0 0.81306033001437827 0.8677384967307622 0 0.17101873536300011 0.82898126463696109 0 0.1229476596857173 0.85174853583809695 0 0.1322615032692282 0.8130603300143705 0 0.8215422551712277 0.56912882742954496 0 0.85551478316835361 0.54646211938695222 0 0.85130417396420255 0.59518556406638579 0 0.43087117257049001 0.8215422551712771 0 0.45353891581270822 0.85551523377818905 0 0.40481452396081791 0.85130421228141606 0 0.56912882742954041 0.17845774482877461 0 0.54646108418729233 0.1444847662218687 0 0.59518547603920147 0.14869578771864489 0 0.17845774482872559 0.43087117257049429 0 0.1444847662218138 0.45353891581271188 0 0.14869578771858949 0.40481452396082068 0 0.49854341599767982 0.37075914768127122 0 0.46543211128216788 0.38788423543681888 0 0.47253211736503098 0.34081710830804929 0 0.43301393728221038 0.35984320557492139 0 0.47253211736503098 0.34081710830804929 0 0.46543211128216788 0.38788423543681888 0 0.36030748482174152 0.84598529912882459 0 0.40481452396081791 0.85130421228141606 0 0.37839190921727062 0.89064679688614412 0 0.84598529912884157 0.63969251517827153 0 0.85130417396420255 0.59518556406638579 0 0.89064679688610338 0.6216080907827598 0 0.15401470087117619 0.36030748482174652 0 0.14869578771858949 0.40481452396082068 0 0.10935320311385981 0.37839190921727089 0 0.63969251517826664 0.15401470087115929 0 0.59518547603920147 0.14869578771864489 0 0.62160809078275991 0.1093532031139005 0 0.64455163611866495 0.50369301794551069 0 0.61866949026800744 0.55492322767366287 0 0.59621567360238914 0.5184866806641607 0 0.64518564541690571 0.69601563325001548 0 0.6083790122881827 0.70496300707145865 0 0.60879112811253555 0.66592422311595834 0 0.30421635384321521 0.64514939193436716 0 0.29503699292854352 0.60837901228818936 0 0.33231497408081678 0.60779218732873663 0 0.69601563325001248 0.35481435458309712 0 0.70496300707145554 0.39162098771181952 0 0.66346942254826746 0.391530810754116 0 0.35481435458309307 0.30398436674998969 0 0.39162098771181342 0.29503699292854563 0 0.39120887188745579 0.33407577688404289 0 0.39507969989512881 0.74417394063201048 0 0.38703015239361932 0.80283068154761972 0 0.35837423432538362 0.77730446904312345 0 0.74417394063200648 0.6049203001048884 0 0.8028306815476034 0.61296984760642026 0 0.77730446904309636 0.64162576567462737 0 0.25582605936799319 0.39507969989513358 0 0.197169318452384 0.38703015239362498 0 0.22269553095687891 0.35837423432538801 0 0.60492030010488373 0.25582605936799729 0 0.61296984760641449 0.19716931845240021 0 0.64162576567462404 0.22269553095690481 0 0.46102425708533701 0.43254199134332588 0 0.46152714345798918 0.47344359412352599 0 0.42340342337193693 0.44762131874855388 0 0.5586987495249669 0.33382663527330653 0 0.52929435216580312 0.29671213472503383 0 0.57188338999077359 0.29874123486230147 0 0.58981073711177334 0.48140931020849848 0 0.554170140907293 0.50922353359177785 0 0.54783891860069212 0.46640164214823893 0 0.35944937237716967 0.65164789808436319 0 0.33231497408081678 0.60779218732873663 0 0.37104651296145419 0.60545170748311072 0 0.58981073711177334 0.48140931020849848 0 0.59621567360238914 0.5184866806641607 0 0.554170140907293 0.50922353359177785 0 0.55000000000173355 1 0 0.50000000000205869 1 0 0.51507566941747085 0.9626786017237855 0 0 0.55000000000173355 0 0 0.50000000000205869 0 0.037321398276215258 0.51507566941747263 0 1 0.44999999999882923 0 1 0.49999999999869432 0 0.96266688603193029 0.48495124540067203 0 0.44999999999882923 0 0 0.49999999999869432 0 0 0.48492433058289169 0.037321398276272413 0 0.78031198216143516 0.56693216359979737 0 0.76797069865873757 0.53315993670164308 0 0.80781854240107975 0.53406203754901738 0 0.43306783640023289 0.78031198216144404 0 0.46634612187967051 0.76767585524061377 0 0.46593838964869061 0.80781872835503554 0 0.56683314878414581 0.21944955250104689 0 0.53265327255359129 0.23135454206919101 0 0.53404982287327418 0.19215288291432539 0 0.21968801783855879 0.43306783640023788 0 0.23232476702437141 0.46634525369567709 0 0.19218127164496679 0.46593838964869538 0 0.5586987495249669 0.33382663527330653 0 0.51491507395299929 0.3326740076510219 0 0.52929435216580312 0.29671213472503383 0 0.43565339604028508 0.55159384357101338 0 0.47974773860103892 0.54872726831320284 0 0.45030222762303879 0.58443295115431027 0 0.50333998054938722 0.50119715791968966 0 0.45293656999117771 0.51494832297079129 0 0.46152714345798918 0.47344359412352599 0 0 0 0 0.032369857048753323 0.032369857048862027 0 0 0.050000000000207989 0 1 0 0 0.96763014295114425 0.032369857048773903 0 0.94999999999986839 0 0 1 0 0 1 0.049999999999899652 0 0.96763014295114425 0.032369857048773903 0 0 0 0 0.049999999999899652 0 0 0.032369857048753323 0.032369857048862027 0 1 1 0 0.94999999999979179 1 0 0.96763014295120153 0.96763014295122851 0 1 1 0 0.96763014295120153 0.96763014295122851 0 1 0.94999999999986839 0 0 1 0 0.030452409610489669 0.96954759038951022 0 0.050000000000207989 1 0 0 1 0 0 0.94999999999979179 0 0.030452409610489669 0.96954759038951022 0 0.35984320557492089 0.56698606271778873 0 0.39982789553993509 0.53462762214740622 0 0.40468198875170619 0.57637931869191572 0 0.41009598069569558 0.49083935749285379 0 0.37702386074717259 0.45819417564476811 0 0.42340342337193693 0.44762131874855388 0 0.39419886675318527 0.41912225240070788 0 0.42340342337193693 0.44762131874855388 0 0.37702386074717259 0.45819417564476811 0 0.60938371359314658 0.91847489683800321 0 0.63753756910470316 0.95578163339252209 0 0.5931441817276254 0.95886012268751675 0 0.081525103161997597 0.6093837135931508 0 0.04421836660747535 0.63753756910470205 0 0.041139877312483641 0.59314418172763017 0 0.91890123454466932 0.39094742729597309 0 0.95581270756939096 0.36248656652865863 0 0.95886012268748921 0.4068558182724159 0 0.39061628640684498 0.081525103161991672 0 0.36246243089534252 0.044218366607477223 0 0.40685581827241191 0.041139877312511682 0 0.66820316019503978 0.77769800602796979 0 0.67626275269587088 0.72713741921009012 0 0.71159714897733284 0.75039044679290845 0 0.22230199397202771 0.66820316019503168 0 0.27349656744860212 0.67581741996408695 0 0.249609553207091 0.71159714897732929 0 0.77769800602796679 0.33179683980497482 0 0.72713741921008324 0.32373724730413678 0 0.75039044679291111 0.28840285102267788 0 0.33179683980498331 0.2223019939720311 0 0.32373692627050221 0.27286413781593999 0 0.28840285102268098 0.24960955320708811 0 0.54901591374940373 0.42306523525165751 0 0.54783891860069212 0.46640164214823893 0 0.50753758205811061 0.4506562873613274 0 0.34804757266227387 0.35750068079406011 0 0.39120887188745579 0.33407577688404289 0 0.39222057657781068 0.38067796690227418 0 0.7000000000006934 1 0 0.6766004019857832 0.9676421564932749 0 0.71789175274016548 0.95136708251202151 0 0 0.7000000000006934 0 0.032357843506722522 0.67660040198578164 0 0.04863291748797445 0.71789175274016204 0 0.67757268808231397 0.93106206656183088 0 0.71789175274016548 0.95136708251202151 0 0.6766004019857832 0.9676421564932749 0 0.068937933438162791 0.67757268808231053 0 0.04863291748797445 0.71789175274016204 0 0.032357843506722522 0.67660040198578164 0 1 0.29999999999926641 0 0.96720628700974665 0.32362438565954771 0 0.94915666091748963 0.28320804985299752 0 0.29999999999926641 0 0 0.32361955853288599 0.032799927825624707 0 0.28320804985300141 0.050843339082505573 0 0.93106206656185309 0.32242731191769503 0 0.94915666091748963 0.28320804985299752 0 0.96720628700974665 0.32362438565954771 0 0.32242731191769902 0.068937933438140794 0 0.28320804985300141 0.050843339082505573 0 0.32361955853288599 0.032799927825624707 0 0.91838802593884228 0.81827409710237209 0 0.87660297360393757 0.8104127896505644 0 0.9041449437197947 0.7786886066890556 0 0.1817259028976386 0.91838802593888857 0 0.18958721034944021 0.87660297360394568 0 0.22131139331094829 0.9041449437198319 0 0.76395804595204597 0.67808171673060369 0 0.77730446904309636 0.64162576567462737 0 0.80847852346122429 0.67208120229789559 0 0.32191828326940508 0.76395804595204586 0 0.35837423432538362 0.77730446904312345 0 0.32791879770213411 0.80847852346120164 0 0.67808171673060202 0.23604195404795861 0 0.64162576567462404 0.22269553095690481 0 0.67208120229787616 0.1915214765387884 0 0.2360419540479583 0.32191828326940741 0 0.22269553095687891 0.35837423432538801 0 0.19152147653881049 0.32791879770215432 0 0.82118136511706341 0.082875076569723011 0 0.8110316677333288 0.125875177082863 0 0.77925951159456153 0.09969477121230251 0 0.08287507656968085 0.1788186348829835 0 0.12587517708284679 0.1889683322666954 0 0.099694771212264055 0.22074048840547039 0 0.43301393728221038 0.35984320557492139 0 0.46543211128216788 0.38788423543681888 0 0.42930823106401639 0.40626685012722968 0 0.43590673999053309 0.90289902042279657 0 0.45353891581270822 0.85551523377818905 0 0.48758069708049379 0.89080072540186539 0 0.097100979577207341 0.43590673999053198 0 0.1444847662218138 0.45353891581271188 0 0.1091992745981364 0.48758069708049778 0 0.90289902042272274 0.56409326000946114 0 0.85551478316835361 0.54646211938695222 0 0.89079805168298443 0.51242544533572376 0 0.56409326000946236 0.097100979577281268 0 0.54646108418729233 0.1444847662218687 0 0.51241930291950477 0.1091992745981813 0 0.51484304721220842 0.69707233951836334 0 0.49073113440598592 0.73759004618730417 0 0.46736891737654429 0.70015537930374983 0 0.44764943295894188 0.73752415265401661 0 0.46736891737654429 0.70015537930374983 0 0.49073113440598592 0.73759004618730417 0 0.30292766048163949 0.51484304721221474 0 0.262418491288269 0.49071922292154141 0 0.29988655052531688 0.46700727827593119 0 0.26247584734598628 0.44764943295894732 0 0.29988655052531688 0.46700727827593119 0 0.262418491288269 0.49071922292154141 0 0.70015119067225129 0.48481914991727459 0 0.73815142352639962 0.50697050072007344 0 0.69798396601998558 0.5289734597937793 0 0.73752415265401194 0.55235056704108476 0 0.69798396601998558 0.5289734597937793 0 0.73815142352639962 0.50697050072007344 0 0.67757268808231397 0.93106206656183088 0 0.6441774148058701 0.91458123574274031 0 0.66923299355723143 0.8804077449518628 0 0.068937933438162791 0.67757268808231053 0 0.085418764257258195 0.64417741480586865 0 0.1195922550481313 0.66923299355722787 0 0.93106206656185309 0.32242731191769503 0 0.91286712511202617 0.35637271447129198 0 0.88040774495187946 0.33076700644278889 0 0.32242731191769902 0.068937933438140794 0 0.35582258519414178 0.085418764257258431 0 0.33076700644279272 0.1195922550481146 0 0.63969251517836323 0.84598529912890386 0 0.66923299355723143 0.8804077449518628 0 0.62483828039315681 0.8780818733396436 0 0.1540147008710982 0.63969251517836956 0 0.1195922550481313 0.66923299355722787 0 0.1219181266603569 0.62483828039315903 0 0.84598529912889664 0.36030748482164038 0 0.88040774495187946 0.33076700644278889 0 0.87815187193233801 0.37523526017134418 0 0.3603074848216346 0.15401470087110539 0 0.33076700644279272 0.1195922550481146 0 0.37516171960683908 0.121918126660369 0 0.46102425708533701 0.43254199134332588 0 0.5047849391802508 0.40719950955717021 0 0.50753758205811061 0.4506562873613274 0 0.85607519768343354 0.69380468830529196 0 0.88396545633132484 0.6625197322180193 0 0.90051880305432697 0.69261863673346957 0 0.30619531169472608 0.85607519768342955 0 0.33748026778199908 0.88396545633134682 0 0.30738136326657722 0.90051880305435028 0 0.69379929796456197 0.14392209494791061 0 0.66251865414987876 0.1160340021949529 0 0.69253601466723103 0.09949211948105087 0 0.14392209494791439 0.30620070203545702 0 0.11603400219493119 0.33748134585014028 0 0.099492119481027347 0.30746398533281638 0 0.78284912262770068 0.83746308049763585 0 0.81306033001437827 0.8677384967307622 0 0.78020430794084783 0.88768307197553598 0 0.16253691950235041 0.78284912262768558 0 0.1322615032692282 0.8130603300143705 0 0.11231692802445629 0.78020430794084028 0 0.66820316019503978 0.77769800602796979 0 0.64203711532612107 0.74316477213290444 0 0.67626275269587088 0.72713741921009012 0 0.22230199397202771 0.66820316019503168 0 0.25684529255773247 0.64203554247963057 0 0.27349656744860212 0.67581741996408695 0 0.77769800602796679 0.33179683980497482 0 0.74316477213289889 0.35796288467388632 0 0.72713741921008324 0.32373724730413678 0 0.33179683980498331 0.2223019939720311 0 0.3579628846738841 0.25683522786710378 0 0.32373692627050221 0.27286413781593999 0 0.4434591735942961 0.66641640622551224 0 0.45517457031814612 0.62743100079604397 0 0.47818752133962877 0.66454462905280853 0 0.7000000000006934 1 0 0.65000000000104008 1 0 0.6766004019857832 0.9676421564932749 0 0 0.7000000000006934 0 0 0.65000000000104008 0 0.032357843506722522 0.67660040198578164 0 1 0.29999999999926641 0 1 0.34999999999912063 0 0.96720628700974665 0.32362438565954771 0 0.29999999999926641 0 0 0.34999999999912063 0 0 0.32361955853288599 0.032799927825624707 0 0.49854341599767982 0.37075914768127122 0 0.47253211736503098 0.34081710830804929 0 0.51491507395299929 0.3326740076510219 0 0.50000000000205869 1 0 0.45000000000187229 1 0 0.47500000000196563 0.970555092835793 0 0 0.50000000000205869 0 0 0.45000000000187229 0 0.029444907164209121 0.47500000000196552 0 1 0.49999999999869432 0 1 0.5499999999988151 0 0.97055509283553232 0.52499999999875435 0 0.49999999999869432 0 0 0.5499999999988151 0 0 0.52499999999875446 0.029444907164469181 0 0.91838802593870927 0.18172590289757809 0 0.89556054516486661 0.21720615046483649 0 0.87355793346388477 0.18922011052113649 0 0.18172590289758209 0.08161197406129285 0 0.21720615046484709 0.1044394548351292 0 0.18922011052115781 0.12644206653611201 0 0.48378871228000903 0.29745177826977359 0 0.51491507395299929 0.3326740076510219 0 0.47253211736503098 0.34081710830804929 0 0.58981073711177334 0.48140931020849848 0 0.59313386551587477 0.43977047843653239 0 0.62619054498681193 0.46482944251856079 0 0.640156794425081 0.43301393728221721 0 0.62619054498681193 0.46482944251856079 0 0.59313386551587477 0.43977047843653239 0 0 0.45000000000187229 0 0.043612803661092707 0.44006111182840391 0 0.029444907164209121 0.47500000000196552 0 0.45000000000187229 1 0 0.44006111182840962 0.9563871963389079 0 0.47500000000196563 0.970555092835793 0 0.5499999999988151 0 0 0.55993888817186677 0.043612803661174412 0 0.52499999999875446 0.029444907164469181 0 1 0.5499999999988151 0 0.95638719633882641 0.5599388881718611 0 0.97055509283553232 0.52499999999875435 0 0.57051182622447827 0.69668652018496713 0 0.60879112811253555 0.66592422311595834 0 0.6083790122881827 0.70496300707145865 0 0.30429740679959738 0.56913905146460098 0 0.33231497408081678 0.60779218732873663 0 0.29503699292854352 0.60837901228818936 0 0.69595787604187809 0.43071000156707989 0 0.66346942254826746 0.391530810754116 0 0.70496300707145554 0.39162098771181952 0 0.43059486795334201 0.30395973419063538 0 0.39120887188745579 0.33407577688404289 0 0.39162098771181342 0.29503699292854563 0 0.35984320557492089 0.56698606271778873 0 0.37104651296145419 0.60545170748311072 0 0.33231497408081678 0.60779218732873663 0 0.43565339604028508 0.55159384357101338 0 0.40468198875170619 0.57637931869191572 0 0.39982789553993509 0.53462762214740622 0 0.66820316019503978 0.77769800602796979 0 0.71159714897733284 0.75039044679290845 0 0.69892030930712212 0.7971997999085858 0 0.22230199397202771 0.66820316019503168 0 0.249609553207091 0.71159714897732929 0 0.2028002000914135 0.69892030930711557 0 0.77769800602796679 0.33179683980497482 0 0.75039044679291111 0.28840285102267788 0 0.7971997999085878 0.3010796906928917 0 0.33179683980498331 0.2223019939720311 0 0.28840285102268098 0.24960955320708811 0 0.30107969069289831 0.20280020009141189 0 0.34804757266227387 0.35750068079406011 0 0.39222057657781068 0.38067796690227418 0 0.35481422397128459 0.40312981465069342 0 0.67757268808231397 0.93106206656183088 0 0.66923299355723143 0.8804077449518628 0 0.70475631558365914 0.90098127745102974 0 0.068937933438162791 0.67757268808231053 0 0.1195922550481313 0.66923299355722787 0 0.099018722548963364 0.70475631558365193 0 0.93106206656185309 0.32242731191769503 0 0.88040774495187946 0.33076700644278889 0 0.89886191075654698 0.29506339503703172 0 0.32242731191769902 0.068937933438140794 0 0.33076700644279272 0.1195922550481146 0 0.29506339503703888 0.1011380892434444 0 0.53432142347292233 0.88563193847251998 0 0.56877264426066887 0.91182300080710277 0 0.52425337578225772 0.9223731761594427 0 0.1143680615274819 0.53432142347292733 0 0.088176999192898689 0.56877264426067353 0 0.07762682384055844 0.52425337578226128 0 0.46567857652706018 0.1143680615275231 0 0.43122735573933979 0.088176999192917438 0 0.47574662421782782 0.077626823840590969 0 0.39419886675318527 0.41912225240070788 0 0.35481422397128459 0.40312981465069342 0 0.39222057657781068 0.38067796690227418 0 1 0.49999999999869432 0 0.97055509283553232 0.52499999999875435 0 0.96266688603193029 0.48495124540067203 0 0.49999999999869432 0 0 0.52499999999875446 0.029444907164469181 0 0.48492433058289169 0.037321398276272413 0 0.93510666819640953 0.51330222939551939 0 0.96266688603193029 0.48495124540067203 0 0.97055509283553232 0.52499999999875435 0 0.5133022293955174 0.064893331803591428 0 0.48492433058289169 0.037321398276272413 0 0.52499999999875446 0.029444907164469181 0 0 0.50000000000205869 0 0.029444907164209121 0.47500000000196552 0 0.037321398276215258 0.51507566941747263 0 0.50000000000205869 1 0 0.47500000000196563 0.970555092835793 0 0.51507566941747085 0.9626786017237855 0 0.48669777060454272 0.93510666819646593 0 0.51507566941747085 0.9626786017237855 0 0.47500000000196563 0.970555092835793 0 0.064893331803534807 0.48669777060454478 0 0.037321398276215258 0.51507566941747263 0 0.029444907164209121 0.47500000000196552 0 0.55307204985744796 0.94819812235491685 0 0.52425337578225772 0.9223731761594427 0 0.56877264426066887 0.91182300080710277 0 0.051801877645083663 0.55307204985745195 0 0.07762682384055844 0.52425337578226128 0 0.088176999192898689 0.56877264426067353 0 0.44692795014265252 0.051801877645060238 0 0.47574662421782782 0.077626823840590969 0 0.43122735573933979 0.088176999192917438 0 0.70085728320704077 0.84350379029875056 0 0.66919832404887702 0.81820888699730587 0 0.69892030930712212 0.7971997999085858 0 0.1564962097012354 0.70085728320703999 0 0.1817911130026923 0.66919832404888702 0 0.2028002000914135 0.69892030930711557 0 0.84350379029877964 0.29914271679296989 0 0.8182088869973061 0.33080167595111531 0 0.7971997999085878 0.3010796906928917 0 0.29914271679297122 0.15649620970120659 0 0.33080167595110582 0.18179111300269291 0 0.30107969069289831 0.20280020009141189 0 0.33382663527330159 0.44130125047503482 0 0.37702386074717259 0.45819417564476811 0 0.33436424489304489 0.47849603121740791 0 0.44764943295894188 0.73752415265401661 0 0.46634612187967051 0.76767585524061377 0 0.43306783640023289 0.78031198216144404 0 0.73752415265401194 0.55235056704108476 0 0.76797069865873757 0.53315993670164308 0 0.78031198216143516 0.56693216359979737 0 0.26247584734598628 0.44764943295894732 0 0.23232476702437141 0.46634525369567709 0 0.21968801783855879 0.43306783640023788 0 0.55175647814720108 0.26104505532086641 0 0.53265327255359129 0.23135454206919101 0 0.56683314878414581 0.21944955250104689 0 0.65000000000104008 1 0 0.63753756910470316 0.95578163339252209 0 0.6766004019857832 0.9676421564932749 0 0 0.65000000000104008 0 0.04421836660747535 0.63753756910470205 0 0.032357843506722522 0.67660040198578164 0 1 0.34999999999912063 0 0.95581270756939096 0.36248656652865863 0 0.96720628700974665 0.32362438565954771 0 0.34999999999912063 0 0 0.36246243089534252 0.044218366607477223 0 0.32361955853288599 0.032799927825624707 0 0.67757268808231397 0.93106206656183088 0 0.6766004019857832 0.9676421564932749 0 0.63753756910470316 0.95578163339252209 0 0.068937933438162791 0.67757268808231053 0 0.032357843506722522 0.67660040198578164 0 0.04421836660747535 0.63753756910470205 0 0.93106206656185309 0.32242731191769503 0 0.96720628700974665 0.32362438565954771 0 0.95581270756939096 0.36248656652865863 0 0.32242731191769902 0.068937933438140794 0 0.32361955853288599 0.032799927825624707 0 0.36246243089534252 0.044218366607477223 0 0.94812782820415209 0.44708943904932719 0 0.92203742772043751 0.47579485578641628 0 0.90991454156957952 0.4312731559748802 0 0.88561059063756964 0.46572761956237563 0 0.90991454156957952 0.4312731559748802 0 0.92203742772043751 0.47579485578641628 0 0.49189101320880302 0.59024331187324797 0 0.45517457031814612 0.62743100079604397 0 0.45030222762303879 0.58443295115431027 0 0.54465502325161819 0.74717983044080061 0 0.57578062281532438 0.77751665353176347 0 0.53770425635794761 0.80104587463999666 0 0.25287139441262568 0.54458355434492378 0 0.2224870800581388 0.57577541371134155 0 0.1989632851005598 0.53769147668950479 0 0.74730218607442667 0.45539100053644521 0 0.77752557158083724 0.42422273168818408 0 0.80106707846564795 0.46230714888029367 0 0.45533136021725079 0.2525687312087147 0 0.42421838472613971 0.22246502005787769 0 0.46229330881044273 0.19890916456654811 0 0.57387636360620708 0.54318431390135336 0 0.59621567360238914 0.5184866806641607 0 0.61866949026800744 0.55492322767366287 0 0.66923299355723143 0.8804077449518628 0 0.6441774148058701 0.91458123574274031 0 0.62483828039315681 0.8780818733396436 0 0.1195922550481313 0.66923299355722787 0 0.085418764257258195 0.64417741480586865 0 0.1219181266603569 0.62483828039315903 0 0.88040774495187946 0.33076700644278889 0 0.91286712511202617 0.35637271447129198 0 0.87815187193233801 0.37523526017134418 0 0.33076700644279272 0.1195922550481146 0 0.35582258519414178 0.085418764257258431 0 0.37516171960683908 0.121918126660369 0 0.49189101320880302 0.59024331187324797 0 0.45030222762303879 0.58443295115431027 0 0.47974773860103892 0.54872726831320284 0 0.92670321183853355 0.65773042910151081 0 0.90051880305432697 0.69261863673346957 0 0.88396545633132484 0.6625197322180193 0 0.65773042910151891 0.073296788161472337 0 0.69253601466723103 0.09949211948105087 0 0.66251865414987876 0.1160340021949529 0 0.3422695708985129 0.92670321183858773 0 0.30738136326657722 0.90051880305435028 0 0.33748026778199908 0.88396545633134682 0 0.073296788161418117 0.34226957089850552 0 0.099492119481027347 0.30746398533281638 0 0.11603400219493119 0.33748134585014028 0 0.60938371359314658 0.91847489683800321 0 0.6441774148058701 0.91458123574274031 0 0.63753756910470316 0.95578163339252209 0 0.081525103161997597 0.6093837135931508 0 0.085418764257258195 0.64417741480586865 0 0.04421836660747535 0.63753756910470205 0 0.91890123454466932 0.39094742729597309 0 0.91286712511202617 0.35637271447129198 0 0.95581270756939096 0.36248656652865863 0 0.39061628640684498 0.081525103161991672 0 0.35582258519414178 0.085418764257258431 0 0.36246243089534252 0.044218366607477223 0 0.67757268808231397 0.93106206656183088 0 0.63753756910470316 0.95578163339252209 0 0.6441774148058701 0.91458123574274031 0 0.068937933438162791 0.67757268808231053 0 0.04421836660747535 0.63753756910470205 0 0.085418764257258195 0.64417741480586865 0 0.93106206656185309 0.32242731191769503 0 0.95581270756939096 0.36248656652865863 0 0.91286712511202617 0.35637271447129198 0 0.32242731191769902 0.068937933438140794 0 0.36246243089534252 0.044218366607477223 0 0.35582258519414178 0.085418764257258431 0 0.56759263990989184 0.81794319034601648 0 0.53770425635794761 0.80104587463999666 0 0.57578062281532438 0.77751665353176347 0 0.18205680965398621 0.56759263990989739 0 0.1989632851005598 0.53769147668950479 0 0.2224870800581388 0.57577541371134155 0 0.81794319034597418 0.43240736009009317 0 0.80106707846564795 0.46230714888029367 0 0.77752557158083724 0.42422273168818408 0 0.43240736009008851 0.18205680965402779 0 0.46229330881044273 0.19890916456654811 0 0.42421838472613971 0.22246502005787769 0 0.4434591735942961 0.66641640622551224 0 0.46736891737654429 0.70015537930374983 0 0.42715538333808079 0.70077759375307946 0 0.44764943295894188 0.73752415265401661 0 0.42715538333808079 0.70077759375307946 0 0.46736891737654429 0.70015537930374983 0 0.66548584431530877 0.55616712808283064 0 0.69798396601998558 0.5289734597937793 0 0.70087539567735502 0.57165914616526226 0 0.33382663527330159 0.44130125047503482 0 0.29988655052531688 0.46700727827593119 0 0.2963043386970643 0.4298320229681446 0 0.73752415265401194 0.55235056704108476 0 0.70087539567735502 0.57165914616526226 0 0.69798396601998558 0.5289734597937793 0 0.26247584734598628 0.44764943295894732 0 0.2963043386970643 0.4298320229681446 0 0.29988655052531688 0.46700727827593119 0 0.46102425708533701 0.43254199134332588 0 0.46543211128216788 0.38788423543681888 0 0.5047849391802508 0.40719950955717021 0 0.49854341599767982 0.37075914768127122 0 0.5047849391802508 0.40719950955717021 0 0.46543211128216788 0.38788423543681888 0 0.55175647814720108 0.26104505532086641 0 0.57188338999077359 0.29874123486230147 0 0.52929435216580312 0.29671213472503383 0 0.48378871228000903 0.29745177826977359 0 0.52929435216580312 0.29671213472503383 0 0.51491507395299929 0.3326740076510219 0 0.46102425708533701 0.43254199134332588 0 0.42340342337193693 0.44762131874855388 0 0.42930823106401639 0.40626685012722968 0 0.39419886675318527 0.41912225240070788 0 0.42930823106401639 0.40626685012722968 0 0.42340342337193693 0.44762131874855388 0 0.94812782820415209 0.44708943904932719 0 0.96266688603193029 0.48495124540067203 0 0.92203742772043751 0.47579485578641628 0 0.44692795014265252 0.051801877645060238 0 0.48492433058289169 0.037321398276272413 0 0.47574662421782782 0.077626823840590969 0 0.93510666819640953 0.51330222939551939 0 0.92203742772043751 0.47579485578641628 0 0.96266688603193029 0.48495124540067203 0 0.5133022293955174 0.064893331803591428 0 0.47574662421782782 0.077626823840590969 0 0.48492433058289169 0.037321398276272413 0 0.55307204985744796 0.94819812235491685 0 0.51507566941747085 0.9626786017237855 0 0.52425337578225772 0.9223731761594427 0 0.051801877645083663 0.55307204985745195 0 0.037321398276215258 0.51507566941747263 0 0.07762682384055844 0.52425337578226128 0 0.48669777060454272 0.93510666819646593 0 0.52425337578225772 0.9223731761594427 0 0.51507566941747085 0.9626786017237855 0 0.064893331803534807 0.48669777060454478 0 0.07762682384055844 0.52425337578226128 0 0.037321398276215258 0.51507566941747263 0 0.70252050881959183 0.70358884261915833 0 0.71159714897733284 0.75039044679290845 0 0.67626275269587088 0.72713741921009012 0 0.29641115738084339 0.70252050881958938 0 0.249609553207091 0.71159714897732929 0 0.27349656744860212 0.67581741996408695 0 0.70358884261915744 0.29747949118041561 0 0.75039044679291111 0.28840285102267788 0 0.72713741921008324 0.32373724730413678 0 0.29747949118041711 0.2964111573808435 0 0.28840285102268098 0.24960955320708811 0 0.32373692627050221 0.27286413781593999 0 0.48378871228000903 0.29745177826977359 0 0.50732841191799194 0.2613117081243182 0 0.52929435216580312 0.29671213472503383 0 0.50000000000002642 0.7803135888501761 0 0.46634612187967051 0.76767585524061377 0 0.49073113440598592 0.73759004618730417 0 0.44764943295894188 0.73752415265401661 0 0.49073113440598592 0.73759004618730417 0 0.46634612187967051 0.76767585524061377 0 0.73752415265401194 0.55235056704108476 0 0.73815142352639962 0.50697050072007344 0 0.76797069865873757 0.53315993670164308 0 0.78031358885017377 0.49999999999997569 0 0.76797069865873757 0.53315993670164308 0 0.73815142352639962 0.50697050072007344 0 0.2196864111498267 0.50000000000003153 0 0.23232476702437141 0.46634525369567709 0 0.262418491288269 0.49071922292154141 0 0.26247584734598628 0.44764943295894732 0 0.262418491288269 0.49071922292154141 0 0.23232476702437141 0.46634525369567709 0 0.55175647814720108 0.26104505532086641 0 0.50732841191799194 0.2613117081243182 0 0.53265327255359129 0.23135454206919101 0 0.49999999999997108 0.21968641114982909 0 0.53265327255359129 0.23135454206919101 0 0.50732841191799194 0.2613117081243182 0 0.64455163611866495 0.50369301794551069 0 0.62619054498681193 0.46482944251856079 0 0.66329969176266512 0.46626046872004567 0 0.50000000000002642 0.7803135888501761 0 0.46593838964869061 0.80781872835503554 0 0.46634612187967051 0.76767585524061377 0 0.2196864111498267 0.50000000000003153 0 0.19218127164496679 0.46593838964869538 0 0.23232476702437141 0.46634525369567709 0 0.78031358885017377 0.49999999999997569 0 0.80781854240107975 0.53406203754901738 0 0.76797069865873757 0.53315993670164308 0 0.49999999999997108 0.21968641114982909 0 0.53404982287327418 0.19215288291432539 0 0.53265327255359129 0.23135454206919101 0 0.55175647814720108 0.26104505532086641 0 0.52929435216580312 0.29671213472503383 0 0.50732841191799194 0.2613117081243182 0 0.64518564541690571 0.69601563325001548 0 0.67626275269587088 0.72713741921009012 0 0.64203711532612107 0.74316477213290444 0 0.30421635384321521 0.64514939193436716 0 0.27349656744860212 0.67581741996408695 0 0.25684529255773247 0.64203554247963057 0 0.69601563325001248 0.35481435458309712 0 0.72713741921008324 0.32373724730413678 0 0.74316477213289889 0.35796288467388632 0 0.35481435458309307 0.30398436674998969 0 0.32373692627050221 0.27286413781593999 0 0.3579628846738841 0.25683522786710378 0 0.640156794425081 0.43301393728221721 0 0.66329969176266512 0.46626046872004567 0 0.62619054498681193 0.46482944251856079 0 1 0.64999999999907843 0 0.96779701826738695 0.67105375815842694 0 0.96654491682122368 0.6363613838740827 0 0.64999999999907843 0 0 0.67098510785536181 0.032220921767549461 0 0.63635157668793507 0.033457646040912177 0 0.35000000000145642 1 0 0.32894624184180998 0.96779701826738929 0 0.36363861612613613 0.96654491682121313 0 0 0.35000000000145642 0 0.032220921767546963 0.32901489214487523 0 0.033457646040922301 0.36364842331228431 0 0.66820316019503978 0.77769800602796979 0 0.69892030930712212 0.7971997999085858 0 0.66919832404887702 0.81820888699730587 0 0.22230199397202771 0.66820316019503168 0 0.2028002000914135 0.69892030930711557 0 0.1817911130026923 0.66919832404888702 0 0.77769800602796679 0.33179683980497482 0 0.7971997999085878 0.3010796906928917 0 0.8182088869973061 0.33080167595111531 0 0.33179683980498331 0.2223019939720311 0 0.30107969069289831 0.20280020009141189 0 0.33080167595110582 0.18179111300269291 0 0.4434591735942961 0.66641640622551224 0 0.47818752133962877 0.66454462905280853 0 0.46736891737654429 0.70015537930374983 0 0.33382663527330159 0.44130125047503482 0 0.33436424489304489 0.47849603121740791 0 0.29988655052531688 0.46700727827593119 0 0.46102425708533701 0.43254199134332588 0 0.42930823106401639 0.40626685012722968 0 0.46543211128216788 0.38788423543681888 0 0.35984320557492089 0.56698606271778873 0 0.40468198875170619 0.57637931869191572 0 0.37104651296145419 0.60545170748311072 0 0.60938371359314658 0.91847489683800321 0 0.62483828039315681 0.8780818733396436 0 0.6441774148058701 0.91458123574274031 0 0.081525103161997597 0.6093837135931508 0 0.1219181266603569 0.62483828039315903 0 0.085418764257258195 0.64417741480586865 0 0.91890123454466932 0.39094742729597309 0 0.87815187193233801 0.37523526017134418 0 0.91286712511202617 0.35637271447129198 0 0.39061628640684498 0.081525103161991672 0 0.37516171960683908 0.121918126660369 0 0.35582258519414178 0.085418764257258431 0 0.40653508887824003 0.61580573377480397 0 0.37104651296145419 0.60545170748311072 0 0.40468198875170619 0.57637931869191572 0 
</DataArray>
</Points>
<Cells>
<DataArray type="UInt32" Name="connectivity" format="ascii">
0 1 2 3 4 5 6 7 8 9 10 11 12 13 14 15 16 17 18 19 20 21 22 23 24 25 26 27 28 29 30 31 32 33 34 35 36 37 38 39 40 41 42 43 44 45 46 47 48 49 50 51 52 53 54 55 56 57 58 59 60 61 62 63 64 65 66 67 68 69 70 71 72 73 74 75 76 77 78 79 80 81 82 83 84 85 86 87 88 89 90 91 92 93 94 95 96 97 98 99 100 101 102 103 104 105 106 107 108 109 110 111 112 113 114 115 116 117 118 119 120 121 122 123 124 125 126 127 128 129 130 131 132 133 134 135 136 137 138 139 140 141 142 143 144 145 146 147 148 149 150 151 152 153 154 155 156 157 158 159 160 161 162 163 164 165 166 167 168 169 170 171 172 173 174 175 176 177 178 179 180 181 182 183 184 185 186 187 188 189 190 191 192 193 194 195 196 197 198 199 200 201 202 203 204 205 206 207 208 209 210 211 212 213 214 215 216 217 218 219 220 221 222 223 224 225 226 227 228 229 230 231 232 233 234 235 236 237 238 239 240 241 242 243 244 245 246 247 248 249 250 251 252 253 254 255 256 257 258 259 260 261 262 263 264 265 266 267 268 269 270 271 272 273 274 275 276 277 278 279 280 281 282 283 284 285 286 287 288 289 290 291 292 293 294 295 296 297 298 299 300 301 302 303 304 305 306 307 308 309 310 311 312 313 314 315 316 317 318 319 320 321 322 323 324 325 326 327 328 329 330 331 332 333 334 335 336 337 338 339 340 341 342 343 344 345 346 347 348 349 350 351 352 353 354 355 356 357 358 359 360 361 362 363 364 365 366 367 368 369 370 371 372 373 374 375 376 377 378 379 380 381 382 383 384 385 386 387 388 389 390 391 392 393 394 395 396 397 398 399 400 401 402 403 404 405 406 407 408 409 410 411 412 413 414 415 416 417 418 419 420 421 422 423 424 425 426 427 428 429 430 431 432 433 434 435 436 437 438 439 440 441 442 443 444 445 446 447 448 449 450 451 452 453 454 455 456 457 458 459 460 461 462 463 464 465 466 467 468 469 470 471 472 473 474 475 476 477 478 479 480 481 482 483 484 485 486 487 488 489 490 491 492 493 494 495 496 497 498 499 500 501 502 503 504 505 506 507 508 509 510 511 512 513 514 515 516 517 518 519 520 521 522 523 524 525 526 527 528 529 530 531 532 533 534 535 536 537 538 539 540 541 542 543 544 545 546 547 548 549 550 551 552 553 554 555 556 557 558 559 560 561 562 563 564 565 566 567 568 569 570 571 572 573 574 575 576 577 578 579 580 581 582 583 584 585 586 587 588 589 590 591 592 593 594 595 596 597 598 599 600 601 602 603 604 605 606 607 608 609 610 611 612 613 614 615 616 617 618 619 620 621 622 623 624 625 626 627 628 629 630 631 632 633 634 635 636 637 638 639 640 641 642 643 644 645 646 647 648 649 650 651 652 653 654 655 656 657 658 659 660 661 662 663 664 665 666 667 668 669 670 671 672 673 674 675 676 677 678 679 680 681 682 683 684 685 686 687 688 689 690 691 692 693 694 695 696 697 698 699 700 701 702 703 704 705 706 707 708 709 710 711 712 713 714 715 716 717 718 719 720 721 722 723 724 725 726 727 728 729 730 731 732 733 734 735 736 737 738 739 740 741 742 743 744 745 746 747 748 749 750 751 752 753 754 755 756 757 758 759 760 761 762 763 764 765 766 767 768 769 770 771 772 773 774 775 776 777 778 779 780 781 782 783 784 785 786 787 788 789 790 791 792 793 794 795 796 797 798 799 800 801 802 803 804 805 806 807 808 809 810 811 812 813 814 815 816 817 818 819 820 821 822 823 824 825 826 827 828 829 830 831 832 833 834 835 836 837 838 839 840 841 842 843 844 845 846 847 848 849 850 851 852 853 854 855 856 857 858 859 860 861 862 863 864 865 866 867 868 869 870 871 872 873 874 875 876 877 878 879 880 881 882 883 884 885 886 887 888 889 890 891 892 893 894 895 896 897 898 899 900 901 902 903 904 905 906 907 908 909 910 911 912 913 914 915 916 917 918 919 920 921 922 923 924 925 926 927 928 929 930 931 932 933 934 935 936 937 938 939 940 941 942 943 944 945 946 947 948 949 950 951 952 953 954 955 956 957 958 959 960 961 962 963 964 965 966 967 968 969 970 971 972 973 974 975 976 977 978 979 980 981 982 983 984 985 986 987 988 989 990 991 992 993 994 995 996 997 998 999 1000 1001 1002 1003 1004 1005 1006 1007 1008 1009 1010 1011 1012 1013 1014 1015 1016 1017 1018 1019 1020 1021 1022 1023 1024 1025 1026 1027 1028 1029 1030 1031 1032 1033 1034 1035 1036 1037 1038 1039 1040 1041 1042 1043 1044 1045 1046 1047 1048 1049 1050 1051 1052 1053 1054 1055 1056 1057 1058 1059 1060 1061 1062 1063 1064 1065 1066 1067 1068 1069 1070 1071 1072 1073 1074 1075 1076 1077 1078 1079 1080 1081 1082 1083 1084 1085 1086 1087 1088 1089 1090 1091 1092 1093 1094 1095 1096 1097 1098 1099 1100 1101 1102 1103 1104 1105 1106 1107 1108 1109 1110 1111 1112 1113 1114 1115 1116 1117 1118 1119 1120 1121 1122 1123 1124 1125 1126 1127 1128 1129 1130 1131 1132 1133 1134 1135 1136 1137 1138 1139 1140 1141 1142 1143 1144 1145 1146 1147 1148 1149 1150 1151 1152 1153 1154 1155 1156 1157 1158 1159 1160 1161 1162 1163 1164 1165 1166 1167 1168 1169 1170 1171 1172 1173 1174 1175 1176 1177 1178 1179 1180 1181 1182 1183 1184 1185 1186 1187 1188 1189 1190 1191 1192 1193 1194 1195 1196 1197 1198 1199 1200 1201 1202 1203 1204 1205 1206 1207 1208 1209 1210 1211 1212 1213 1214 1215 1216 1217 1218 1219 1220 1221 1222 1223 1224 1225 1226 1227 1228 1229 1230 1231 1232 1233 1234 1235 1236 1237 1238 1239 1240 1241 1242 1243 1244 1245 1246 1247 1248 1249 1250 1251 1252 1253 1254 1255 1256 1257 1258 1259 1260 1261 1262 1263 1264 1265 1266 1267 1268 1269 1270 1271 1272 1273 1274 1275 1276 1277 1278 1279 1280 1281 1282 1283 1284 1285 1286 1287 1288 1289 1290 1291 1292 1293 1294 1295 1296 1297 1298 1299 1300 1301 1302 1303 1304 1305 1306 1307 1308 1309 1310 1311 1312 1313 1314 1315 1316 1317 1318 1319 1320 1321 1322 1323 1324 1325 1326 1327 1328 1329 1330 1331 1332 1333 1334 1335 1336 1337 1338 1339 1340 1341 1342 1343 1344 1345 1346 1347 1348 1349 1350 1351 1352 1353 1354 1355 1356 1357 1358 1359 1360 1361 1362 1363 1364 1365 1366 1367 1368 1369 1370 1371 1372 1373 1374 1375 1376 1377 1378 1379 1380 1381 1382 1383 1384 1385 1386 1387 1388 1389 1390 1391 1392 1393 1394 1395 1396 1397 1398 1399 1400 1401 1402 1403 1404 1405 1406 1407 1408 1409 1410 1411 1412 1413 1414 1415 1416 1417 1418 1419 1420 1421 1422 1423 1424 1425 1426 1427 1428 1429 1430 1431 1432 1433 1434 1435 1436 1437 1438 1439 1440 1441 1442 1443 1444 1445 1446 1447 1448 1449 1450 1451 1452 1453 1454 1455 1456 1457 1458 1459 1460 1461 1462 1463 1464 1465 1466 1467 1468 1469 1470 1471 1472 1473 1474 1475 1476 1477 1478 1479 1480 1481 1482 1483 1484 1485 1486 1487 1488 1489 1490 1491 1492 1493 1494 1495 1496 1497 1498 1499 1500 1501 1502 1503 1504 1505 1506 1507 1508 1509 1510 1511 1512 1513 1514 1515 1516 1517 1518 1519 1520 1521 1522 1523 1524 1525 1526 1527 1528 1529 1530 1531 1532 1533 1534 1535 1536 1537 1538 1539 1540 1541 1542 1543 1544 1545 1546 1547 1548 1549 1550 1551 1552 1553 1554 1555 1556 1557 1558 1559 1560 1561 1562 1563 1564 1565 1566 1567 1568 1569 1570 1571 1572 1573 1574 1575 1576 1577 1578 1579 1580 1581 1582 1583 1584 1585 1586 1587 1588 1589 1590 1591 1592 1593 1594 1595 1596 1597 1598 1599 1600 1601 1602 1603 1604 1605 1606 1607 1608 1609 1610 1611 1612 1613 1614 1615 1616 1617 1618 1619 1620 1621 1622 1623 1624 1625 1626 1627 1628 1629 1630 1631 1632 1633 1634 1635 1636 1637 1638 1639 1640 1641 1642 1643 1644 1645 1646 1647 1648 1649 1650 1651 1652 1653 1654 1655 1656 1657 1658 1659 1660 1661 1662 1663 1664 1665 1666 1667 1668 1669 1670 1671 1672 1673 1674 1675 1676 1677 1678 1679 1680 1681 1682 1683 1684 1685 1686 1687 1688 1689 1690 1691 1692 1693 1694 1695 1696 1697 1698 1699 1700 1701 1702 1703 1704 1705 1706 1707 1708 1709 1710 1711 1712 1713 1714 1715 1716 1717 1718 1719 1720 1721 1722 1723 1724 1725 1726 1727 1728 1729 1730 1731 1732 1733 1734 1735 1736 1737 1738 1739 1740 1741 1742 1743 1744 1745 1746 1747 1748 1749 1750 1751 1752 1753 1754 1755 1756 1757 1758 1759 1760 1761 1762 1763 1764 1765 1766 1767 1768 1769 1770 1771 1772 1773 1774 1775 1776 1777 1778 1779 1780 1781 1782 1783 1784 1785 1786 1787 1788 1789 1790 1791 1792 1793 1794 1795 1796 1797 1798 1799 1800 1801 1802 1803 1804 1805 1806 1807 1808 1809 1810 1811 1812 1813 1814 1815 1816 1817 1818 1819 1820 1821 1822 1823 1824 1825 1826 1827 1828 1829 1830 1831 1832 1833 1834 1835 1836 1837 1838 1839 1840 1841 1842 1843 1844 1845 1846 1847 1848 1849 1850 1851 1852 1853 1854 1855 1856 1857 1858 1859 1860 1861 1862 1863 1864 1865 1866 1867 1868 1869 1870 1871 1872 1873 1874 1875 1876 1877 1878 1879 1880 1881 1882 1883 1884 1885 1886 1887 1888 1889 1890 1891 1892 1893 1894 1895 1896 1897 1898 1899 1900 1901 1902 1903 1904 1905 1906 1907 1908 1909 1910 1911 1912 1913 1914 1915 1916 1917 1918 1919 1920 1921 1922 1923 1924 1925 1926 1927 1928 1929 1930 1931 1932 1933 1934 1935 1936 1937 1938 1939 1940 1941 1942 1943 1944 1945 1946 1947 1948 1949 1950 1951 1952 1953 1954 1955 1956 1957 1958 1959 1960 1961 1962 1963 1964 1965 1966 1967 1968 1969 1970 1971 1972 1973 1974 1975 1976 1977 1978 1979 1980 1981 1982 1983 1984 1985 1986 1987 1988 1989 1990 1991 1992 1993 1994 1995 1996 1997 1998 1999 2000 2001 2002 2003 2004 2005 2006 2007 2008 2009 2010 2011 2012 2013 2014 2015 2016 2017 2018 2019 2020 2021 2022 2023 2024 2025 2026 2027 2028 2029 2030 2031 2032 2033 2034 2035 2036 2037 2038 2039 2040 2041 2042 2043 2044 2045 2046 2047 2048 2049 2050 2051 2052 2053 2054 2055 2056 2057 2058 2059 2060 2061 2062 2063 2064 2065 2066 2067 2068 2069 2070 2071 2072 2073 2074 2075 2076 2077 2078 2079 2080 2081 2082 2083 2084 2085 2086 2087 2088 2089 2090 2091 2092 2093 2094 2095 2096 2097 2098 2099 2100 2101 2102 2103 2104 2105 2106 2107 2108 2109 2110 2111 2112 2113 2114 2115 2116 2117 2118 2119 2120 2121 2122 2123 2124 2125 2126 2127 2128 2129 2130 2131 2132 2133 2134 2135 2136 2137 2138 2139 2140 2141 2142 2143 2144 2145 2146 2147 2148 2149 2150 2151 2152 2153 2154 2155 2156 2157 2158 2159 2160 2161 2162 2163 2164 2165 2166 2167 2168 2169 2170 2171 2172 2173 2174 2175 2176 2177 2178 2179 2180 2181 2182 2183 2184 2185 2186 2187 2188 2189 2190 2191 2192 2193 2194 2195 2196 2197 2198 2199 2200 2201 2202 2203 2204 2205 2206 2207 2208 2209 2210 2211 2212 2213 2214 2215 2216 2217 2218 2219 2220 2221 2222 2223 2224 2225 2226 2227 2228 2229 2230 2231 2232 2233 2234 2235 2236 2237 2238 2239 2240 2241 2242 2243 2244 2245 2246 2247 2248 2249 2250 2251 2252 2253 2254 2255 2256 2257 2258 2259 2260 2261 2262 2263 2264 2265 2266 2267 2268 2269 2270 2271 2272 2273 2274 2275 2276 2277 2278 2279 2280 2281 2282 2283 2284 2285 2286 2287 2288 2289 2290 2291 2292 2293 2294 2295 2296 2297 2298 2299 2300 2301 2302 2303 2304 2305 2306 2307 2308 2309 2310 2311 2312 2313 2314 2315 2316 2317 2318 2319 2320 2321 2322 2323 2324 2325 2326 2327 2328 2329 2330 2331 2332 2333 2334 2335 2336 2337 2338 2339 2340 2341 2342 2343 2344 2345 2346 2347 2348 2349 2350 2351 2352 2353 2354 2355 2356 2357 2358 2359 2360 2361 2362 2363 2364 2365 2366 2367 2368 2369 2370 2371 2372 2373 2374 2375 2376 2377 2378 2379 2380 2381 2382 2383 2384 2385 2386 2387 2388 2389 2390 2391 2392 2393 2394 2395 2396 2397 2398 2399 2400 2401 2402 2403 2404 2405 2406 2407 2408 2409 2410 2411 2412 2413 2414 2415 2416 2417 2418 2419 2420 2421 2422 2423 2424 2425 2426 2427 2428 2429 2430 2431 2432 2433 2434 2435 2436 2437 2438 2439 2440 2441 2442 2443 2444 2445 2446 2447 2448 2449 2450 2451 2452 2453 2454 2455 2456 2457 2458 2459 2460 2461 2462 2463 2464 2465 2466 2467 2468 2469 2470 2471 2472 2473 2474 2475 2476 2477 2478 2479 2480 2481 2482 2483 2484 2485 2486 2487 2488 2489 2490 2491 2492 2493 2494 2495 2496 2497 2498 2499 2500 2501 2502 2503 2504 2505 2506 2507 2508 2509 2510 2511 2512 2513 2514 2515 2516 2517 2518 2519 2520 2521 2522 2523 2524 2525 2526 2527 2528 2529 2530 2531 2532 2533 2534 2535 2536 2537 2538 2539 2540 2541 2542 2543 2544 2545 2546 2547 2548 2549 2550 2551 2552 2553 2554 2555 2556 2557 2558 2559 2560 2561 2562 2563 2564 2565 2566 2567 2568 2569 2570 2571 2572 2573 2574 2575 2576 2577 2578 2579 2580 2581 2582 2583 2584 2585 2586 2587 2588 2589 2590 2591 2592 2593 2594 2595 2596 2597 2598 2599 2600 2601 2602 2603 2604 2605 2606 2607 2608 2609 2610 2611 2612 2613 2614 2615 2616 2617 2618 2619 2620 2621 2622 2623 2624 2625 2626 2627 2628 2629 2630 2631 2632 2633 2634 2635 2636 2637 2638 2639 2640 2641 2642 2643 2644 2645 2646 2647 2648 2649 2650 2651 2652 2653 2654 2655 2656 2657 2658 2659 2660 2661 2662 2663 2664 2665 2666 2667 2668 2669 2670 2671 2672 2673 2674 2675 2676 2677 2678 2679 2680 2681 2682 2683 2684 2685 2686 2687 2688 2689 2690 2691 2692 2693 2694 2695 2696 2697 2698 2699 2700 2701 2702 2703 2704 2705 2706 2707 2708 2709 2710 2711 2712 2713 2714 2715 2716 2717 2718 2719 2720 2721 2722 2723 2724 2725 2726 2727 2728 2729 2730 2731 2732 2733 2734 2735 2736 2737 2738 2739 2740 2741 2742 2743 2744 2745 2746 2747 2748 2749 2750 2751 2752 2753 2754 2755 2756 2757 2758 2759 2760 2761 2762 2763 2764 2765 2766 2767 2768 2769 2770 2771 2772 2773 2774 2775 2776 2777 2778 2779 2780 2781 2782 2783 2784 2785 2786 2787 2788 2789 2790 2791 2792 2793 2794 2795 2796 2797 2798 2799 2800 2801 2802 2803 2804 2805 2806 2807 2808 2809 2810 2811 2812 2813 2814 2815 2816 2817 2818 2819 2820 2821 2822 2823 2824 2825 2826 2827 2828 2829 2830 2831 2832 2833 2834 2835 2836 2837 2838 2839 2840 2841 2842 2843 2844 2845 2846 2847 2848 2849 2850 2851 2852 2853 2854 2855 2856 2857 2858 2859 2860 2861 2862 2863 2864 2865 2866 2867 2868 2869 2870 2871 2872 2873 2874 2875 2876 2877 2878 2879 2880 2881 2882 2883 2884 2885 2886 2887 2888 2889 2890 2891 2892 2893 2894 2895 2896 2897 2898 2899 2900 2901 2902 2903 2904 2905 2906 2907 2908 2909 2910 2911 2912 2913 2914 2915 2916 2917 2918 2919 2920 2921 2922 2923 2924 2925 2926 2927 2928 2929 2930 2931 2932 2933 2934 2935 2936 2937 2938 2939 2940 2941 2942 2943 2944 2945 2946 2947 2948 2949 2950 2951 2952 2953 2954 2955 2956 2957 2958 2959 2960 2961 2962 2963 2964 2965 2966 2967 2968 2969 2970 2971 2972 2973 2974 2975 2976 2977 2978 2979 2980 2981 2982 2983 2984 2985 2986 2987 2988 2989 2990 2991 2992 2993 2994 2995 2996 2997 2998 2999 3000 3001 3002 3003 3004 3005 3006 3007 3008 3009 3010 3011 3012 3013 3014 3015 3016 3017 3018 3019 3020 3021 3022 3023 3024 3025 3026 3027 3028 3029 3030 3031 3032 3033 3034 3035 3036 3037 3038 3039 3040 3041 3042 3043 3044 3045 3046 3047 3048 3049 3050 3051 3052 3053 3054 3055 3056 3057 3058 3059 3060 3061 3062 3063 3064 3065 3066 3067 3068 3069 3070 3071 3072 3073 3074 3075 3076 3077 3078 3079 3080 3081 3082 3083 3084 3085 3086 3087 3088 3089 3090 3091 3092 3093 3094 3095 3096 3097 3098 3099 3100 3101 3102 3103 3104 3105 3106 3107 3108 3109 3110 3111 3112 3113 3114 3115 3116 3117 3118 3119 3120 3121 3122 3123 3124 3125 3126 3127 3128 3129 3130 3131 3132 3133 3134 3135 3136 3137 3138 3139 3140 3141 3142 3143 3144 3145 3146 3147 3148 3149 3150 3151 3152 3153 3154 3155 3156 3157 3158 3159 3160 3161 
</DataArray>
<DataArray type="UInt32" Name="offsets" format="ascii">
3 6 9 12 15 18 21 24 27 30 33 36 39 42 45 48 51 54 57 60 63 66 69 72 75 78 81 84 87 90 93 96 99 102 105 108 111 114 117 120 123 126 129 132 135 138 141 144 147 150 153 156 159 162 165 168 171 174 177 180 183 186 189 192 195 198 201 204 207 210 213 216 219 222 225 228 231 234 237 240 243 246 249 252 255 258 261 264 267 270 273 276 279 282 285 288 291 294 297 300 303 306 309 312 315 318 321 324 327 330 333 336 339 342 345 348 351 354 357 360 363 366 369 372 375 378 381 384 387 390 393 396 399 402 405 408 411 414 417 420 423 426 429 432 435 438 441 444 447 450 453 456 459 462 465 468 471 474 477 480 483 486 489 492 495 498 501 504 507 510 513 516 519 522 525 528 531 534 537 540 543 546 549 552 555 558 561 564 567 570 573 576 579 582 585 588 591 594 597 600 603 606 609 612 615 618 621 624 627 630 633 636 639 642 645 648 651 654 657 660 663 666 669 672 675 678 681 684 687 690 693 696 699 702 705 708 711 714 717 720 723 726 729 732 735 738 741 744 747 750 753 756 759 762 765 768 771 774 777 780 783 786 789 792 795 798 801 804 807 810 813 816 819 822 825 828 831 834 837 840 843 846 849 852 855 858 861 864 867 870 873 876 879 882 885 888 891 894 897 900 903 906 909 912 915 918 921 924 927 930 933 936 939 942 945 948 951 954 957 960 963 966 969 972 975 978 981 984 987 990 993 996 999 1002 1005 1008 1011 1014 1017 1020 1023 1026 1029 1032 1035 1038 1041 1044 1047 1050 1053 1056 1059 1062 1065 1068 1071 1074 1077 1080 1083 1086 1089 1092 1095 1098 1101 1104 1107 1110 1113 1116 1119 1122 1125 1128 1131 1134 1137 1140 1143 1146 1149 1152 1155 1158 1161 1164 1167 1170 1173 1176 1179 1182 1185 1188 1191 1194 1197 1200 1203 1206 1209 1212 1215 1218 1221 1224 1227 1230 1233 1236 1239 1242 1245 1248 1251 1254 1257 1260 1263 1266 1269 1272 1275 1278 1281 1284 1287 1290 1293 1296 1299 1302 1305 1308 1311 1314 1317 1320 1323 1326 1329 1332 1335 1338 1341 1344 1347 1350 1353 1356 1359 1362 1365 1368 1371 1374 1377 1380 1383 1386 1389 1392 1395 1398 1401 1404 1407 1410 1413 1416 1419 1422 1425 1428 1431 1434 1437 1440 1443 1446 1449 1452 1455 1458 1461 1464 1467 1470 1473 1476 1479 1482 1485 1488 1491 1494 1497 1500 1503 1506 1509 1512 1515 1518 1521 1524 1527 1530 1533 1536 1539 1542 1545 1548 1551 1554 1557 1560 1563 1566 1569 1572 1575 1578 1581 1584 1587 1590 1593 1596 1599 1602 1605 1608 1611 1614 1617 1620 1623 1626 1629 1632 1635 1638 1641 1644 1647 1650 1653 1656 1659 1662 1665 1668 1671 1674 1677 1680 1683 1686 1689 1692 1695 1698 1701 1704 1707 1710 1713 1716 1719 1722 1725 1728 1731 1734 1737 1740 1743 1746 1749 1752 1755 1758 1761 1764 1767 1770 1773 1776 1779 1782 1785 1788 1791 1794 1797 1800 1803 1806 1809 1812 1815 1818 1821 1824 1827 1830 1833 1836 1839 1842 1845 1848 1851 1854 1857 1860 1863 1866 1869 1872 1875 1878 1881 1884 1887 1890 1893 1896 1899 1902 1905 1908 1911 1914 1917 1920 1923 1926 1929 1932 1935 1938 1941 1944 1947 1950 1953 1956 1959 1962 1965 1968 1971 1974 1977 1980 1983 1986 1989 1992 1995 1998 2001 2004 2007 2010 2013 2016 2019 2022 2025 2028 2031 2034 2037 2040 2043 2046 2049 2052 2055 2058 2061 2064 2067 2070 2073 2076 2079 2082 2085 2088 2091 2094 2097 2100 2103 2106 2109 2112 2115 2118 2121 2124 2127 2130 2133 2136 2139 2142 2145 2148 2151 2154 2157 2160 2163 2166 2169 2172 2175 2178 2181 2184 2187 2190 2193 2196 2199 2202 2205 2208 2211 2214 2217 2220 2223 2226 2229 2232 2235 2238 2241 2244 2247 2250 2253 2256 2259 2262 2265 2268 2271 2274 2277 2280 2283 2286 2289 2292 2295 2298 2301 2304 2307 2310 2313 2316 2319 2322 2325 2328 2331 2334 2337 2340 2343 2346 2349 2352 2355 2358 2361 2364 2367 2370 2373 2376 2379 2382 2385 2388 2391 2394 2397 2400 2403 2406 2409 2412 2415 2418 2421 2424 2427 2430 2433 2436 2439 2442 2445 2448 2451 2454 2457 2460 2463 2466 2469 2472 2475 2478 2481 2484 2487 2490 2493 2496 2499 2502 2505 2508 2511 2514 2517 2520 2523 2526 2529 2532 2535 2538 2541 2544 2547 2550 2553 2556 2559 2562 2565 2568 2571 2574 2577 2580 2583 2586 2589 2592 2595 2598 2601 2604 2607 2610 2613 2616 2619 2622 2625 2628 2631 2634 2637 2640 2643 2646 2649 2652 2655 2658 2661 2664 2667 2670 2673 2676 2679 2682 2685 2688 2691 2694 2697 2700 2703 2706 2709 2712 2715 2718 2721 2724 2727 2730 2733 2736 2739 2742 2745 2748 2751 2754 2757 2760 2763 2766 2769 2772 2775 2778 2781 2784 2787 2790 2793 2796 2799 2802 2805 2808 2811 2814 2817 2820 2823 2826 2829 2832 2835 2838 2841 2844 2847 2850 2853 2856 2859 2862 2865 2868 2871 2874 2877 2880 2883 2886 2889 2892 2895 2898 2901 2904 2907 2910 2913 2916 2919 2922 2925 2928 2931 2934 2937 2940 2943 2946 2949 2952 2955 2958 2961 2964 2967 2970 2973 2976 2979 2982 2985 2988 2991 2994 2997 3000 3003 3006 3009 3012 3015 3018 3021 3024 3027 3030 3033 3036 3039 3042 3045 3048 3051 3054 3057 3060 3063 3066 3069 3072 3075 3078 3081 3084 3087 3090 3093 3096 3099 3102 3105 3108 3111 3114 3117 3120 3123 3126 3129 3132 3135 3138 3141 3144 3147 3150 3153 3156 3159 3162 
</DataArray>
<DataArray type="UInt32" Name="types" format="ascii">
5 5 5 5 5 5 5 5 5 5 5 5 5 5 5 5 5 5 5 5 5 5 5 5 5 5 5 5 5 5 5 5 5 5 5 5 5 5 5 5 5 5 5 5 5 5 5 5 5 5 5 5 5 5 5 5 5 5 5 5 5 5 5 5 5 5 5 5 5 5 5 5 5 5 5 5 5 5 5 5 5 5 5 5 5 5 5 5 5 5 5 5 5 5 5 5 5 5 5 5 5 5 5 5 5 5 5 5 5 5 5 5 5 5 5 5 5 5 5 5 5 5 5 5 5 5 5 5 5 5 5 5 5 5 5 5 5 5 5 5 5 5 5 5 5 5 5 5 5 5 5 5 5 5 5 5 5 5 5 5 5 5 5 5 5 5 5 5 5 5 5 5 5 5 5 5 5 5 5 5 5 5 5 5 5 5 5 5 5 5 5 5 5 5 5 5 5 5 5 5 5 5 5 5 5 5 5 5 5 5 5 5 5 5 5 5 5 5 5 5 5 5 5 5 5 5 5 5 5 5 5 5 5 5 5 5 5 5 5 5 5 5 5 5 5 5 5 5 5 5 5 5 5 5 5 5 5 5 5 5 5 5 5 5 5 5 5 5 5 5 5 5 5 5 5 5 5 5 5 5 5 5 5 5 5 5 5 5 5 5 5 5 5 5 5 5 5 5 5 5 5 5 5 5 5 5 5 5 5 5 5 5 5 5 5 5 5 5 5 5 5 5 5 5 5 5 5 5 5 5 5 5 5 5 5 5 5 5 5 5 5 5 5 5 5 5 5 5 5 5 5 5 5 5 5 5 5 5 5 5 5 5 5 5 5 5 5 5 5 5 5 5 5 5 5 5 5 5 5 5 5 5 5 5 5 5 5 5 5 5 5 5 5 5 5 5 5 5 5 5 5 5 5 5 5 5 5 5 5 5 5 5 5 5 5 5 5 5 5 5 5 5 5 5 5 5 5 5 5 5 5 5 5 5 5 5 5 5 5 5 5 5 5 5 5 5 5 5 5 5 5 5 5 5 5 5 5 5 5 5 5 5 5 5 5 5 5 5 5 5 5 5 5 5 5 5 5 5 5 5 5 5 5 5 5 5 5 5 5 5 5 5 5 5 5 5 5 5 5 5 5 5 5 5 5 5 5 5 5 5 5 5 5 5 5 5 5 5 5 5 5 5 5 5 5 5 5 5 5 5 5 5 5 5 5 5 5 5 5 5 5 5 5 5 5 5 5 5 5 5 5 5 5 5 5 5 5 5 5 5 5 5 5 5 5 5 5 5 5 5 5 5 5 5 5 5 5 5 5 5 5 5 5 5 5 5 5 5 5 5 5 5 5 5 5 5 5 5 5 5 5 5 5 5 5 5 5 5 5 5 5 5 5 5 5 5 5 5 5 5 5 5 5 5 5 5 5 5 5 5 5 5 5 5 5 5 5 5 5 5 5 5 5 5 5 5 5 5 5 5 5 5 5 5 5 5 5 5 5 5 5 5 5 5 5 5 5 5 5 5 5 5 5 5 5 5 5 5 5 5 5 5 5 5 5 5 5 5 5 5 5 5 5 5 5 5 5 5 5 5 5 5 5 5 5 5 5 5 5 5 5 5 5 5 5 5 5 5 5 5 5 5 5 5 5 5 5 5 5 5 5 5 5 5 5 5 5 5 5 5 5 5 5 5 5 5 5 5 5 5 5 5 5 5 5 5 5 5 5 5 5 5 5 5 5 5 5 5 5 5 5 5 5 5 5 5 5 5 5 5 5 5 5 5 5 5 5 5 5 5 5 5 5 5 5 5 5 5 5 5 5 5 5 5 5 5 5 5 5 5 5 5 5 5 5 5 5 5 5 5 5 5 5 5 5 5 5 5 5 5 5 5 5 5 5 5 5 5 5 5 5 5 5 5 5 5 5 5 5 5 5 5 5 5 5 5 5 5 5 5 5 5 5 5 5 5 5 5 5 5 5 5 5 5 5 5 5 5 5 5 5 5 5 5 5 5 5 5 5 5 5 5 5 5 5 5 5 5 5 5 5 5 5 5 5 5 5 5 5 5 5 5 5 5 5 5 5 5 5 5 5 5 5 5 5 5 5 5 5 5 5 5 5 5 5 5 5 5 5 5 5 5 5 5 5 5 5 5 5 5 5 5 5 5 5 5 5 5 5 5 5 5 5 5 5 5 5 5 5 5 5 5 5 5 5 5 5 5 5 5 5 5 5 5 5 5 5 5 5 5 5 5 5 5 5 5 5 5 5 5 5 5 5 5 5 5 5 5 5 5 5 5 5 5 5 5 5 5 5 5 5 5 5 5 5 5 5 5 5 5 5 5 5 5 5 5 5 5 5 5 5 5 5 5 5 5 5 5 5 5 5 5 5 5 
</DataArray>
</Cells>
<PointData Scalars="" Vectors="displacement," Tensors="">
<DataArray type="Float64" Name="displacement" NumberOfComponents="3" format="ascii">
-0.00020779274589119768 -0.0022982907390448276 0 -0.00014417640078543813 -0.002148341908629412 0 -0.00010387607045469772 -0.0022721724032778792 0 0.00047331574009229515 -0.0018517132865885026 0 0.0003881747003075727 -0.0017293407532743893 0 0.00045567326291139548 -0.001674025599347624 0 -0.00043038142526122931 -0.0011512178684825475 0 -0.00036880637195354512 -0.0012535712054590046 0 -0.00043603954640194815 -0.00132402603224248 0 0.00014305616057666952 -0.00066659322052190569 0 0.00010769300666603961 -0.00079822259649033089 0 7.0988284607395667e-05 -0.00067961037158502358 0 0.00012910500451902254 -0.0019293250679361597 0 0.00021967110951479651 -0.0018378280619494949 0 0.00021425133067998127 -0.0020329098717700301 0 0.00029796930475031074 -0.0019590832041130636 0 0.0002142513306799813 -0.0020329098717700301 0 0.00021967110951479651 -0.0018378280619494949 0 0.0002539452137700346 -0.0012481712438084742 0 0.00017603679507770175 -0.0011010806740458928 0 0.00028541728047457287 -0.0011148090286920128 0 0.00023546330094499827 -0.00096665984615650026 0 0.00028541728047457287 -0.0011148090286920128 0 0.00017603679507770172 -0.0011010806740458928 0 0.00047517620882381274 -0.002866523596386299 0 0.0005425301297176516 -0.0029966862092646977 0 0.000429979098807602 -0.0030061759491073325 0 -0.00078190774728569543 -0.0023375982656998837 0 -0.00085032201135481166 -0.002455124477834557 0 -0.00085601778982667416 -0.002265961913920248 0 0.00059121239637738732 -0.00078734969798864649 0 0.00064216703619343575 -0.00075652969062697112 0 0.00070918265775175382 -0.00091910468230172739 0 -0.00016002347629057669 -0.00024638405549585015 0 -9.7788479229342265e-05 -0.00012485675006798842 0 -7.0720883268101672e-05 -0.00011142829990574461 0 0.00077191122717406939 -0.0031792089280170402 0 0.00068122756121700696 -0.0031769440644861509 0 0.00078079738050868593 -0.003048086465112568 0 -0.00094657780241309971 -0.0028569030128829183 0 -0.00094520498960704588 -0.0026946830060127938 0 -0.0008764704374391478 -0.0028731337238051143 0 -0.0003833738088275227 -0.00033147098218007804 0 -0.0005943663989078856 -0.00059189372873066459 0 -0.00046886664499012893 -0.00043256667443996504 0 -0.00078106249288388281 -0.0030480732189849431 0 -0.00068140334005762368 -0.003176924769462572 0 -0.00077213402519896222 -0.0031792074683656326 0 0.00012782419322232246 -9.5797083748329809e-05 0 2.020406211108451e-08 -1.0110671270874412e-07 0 5.1609601639642342e-08 -1.3287494351025205e-07 0 0.0008762494058404248 -0.0028731483130419733 0 0.00094503756935591758 -0.002694797035224759 0 0.0009463453784067028 -0.0028569503927909933 0 0.00046938150028247668 -0.00043227182761758923 0 0.00059546591381447829 -0.00059116867819846786 0 0.00038394417897961276 -0.00033126396160468183 0 -5.1615603989671912e-08 -1.3407336992498706e-07 0 -2.0031618068793506e-08 -9.9941662904714925e-08 0 -0.00012800892743179113 -9.6231715728304539e-05 0 0.00068440700721619091 -0.00073543250317797699 0 0.00064216703619343575 -0.00075652969062697112 0 0.00058830557464848679 -0.00061896968326413454 0 -2.9832533472265946e-08 -1.1314589212841917e-07 0 -9.7788479229342265e-05 -0.00012485675006798842 0 -8.5289230582347733e-05 -8.9941461050471711e-05 0 0.00058848701648276606 -0.0031741339142363346 0 0.0005425301297176516 -0.0029966862092646977 0 0.00063641747725382946 -0.0030305896480282866 0 -0.00094346649867332942 -0.0025331916621956466 0 -0.00085032201135481166 -0.002455124477834557 0 -0.00086754023865828593 -0.0026169086216588683 0 0.00094337273034494505 -0.0025332854328503304 0 0.00087522764726710321 -0.0025939264483600564 0 0.00084491916311708838 -0.0024254693157829085 0 2.9258987776043357e-08 -1.1320626163891202e-07 0 8.4621919530092682e-05 -8.9639867277607993e-05 0 9.9297509682313263e-05 -0.00012699440008877172 0 -0.00058876717979727421 -0.0031740178690308888 0 -0.00062341373055147344 -0.0030452851906505765 0 -0.00052551637765788182 -0.0029863130011060913 0 -0.00068459864775428036 -0.00073553084757003713 0 -0.00058703466358633698 -0.00061629824803583269 0 -0.00064486981702591649 -0.00076413312188149205 0 -6.6562824106066057e-08 -0.0024166111468794786 0 7.4747035203958382e-05 -0.0024875462780524792 0 -4.6489591451424915e-06 -0.0026191582536795794 0 -0.00052741019924553128 -0.0015131822208566102 0 -0.00057235371251511511 -0.001645082987527541 0 -0.00063610805126260075 -0.0015285812035385616 0 0.00052717683483050255 -0.0015132595802874139 0 0.00055620693478650738 -0.001396721969729499 0 0.00063691749885029286 -0.0015435909252592757 0 -1.1617811487408815e-07 -0.00055384625215541502 0 -4.1435238995776984e-05 -0.0004940153018773946 0 2.6310102796727119e-06 -0.00038365421150423972 0 0.00058848701648276606 -0.0031741339142363346 0 0.00049392305384894837 -0.0031710705147341869 0 0.0005425301297176516 -0.0029966862092646977 0 -0.00094346649867332942 -0.0025331916621956466 0 -0.00094155342121990978 -0.0023726043511795797 0 -0.00085032201135481166 -0.002455124477834557 0 0.00068440700721619091 -0.00073543250317797699 0 0.00075300193618619226 -0.00087818256039020226 0 0.00064216703619343575 -0.00075652969062697112 0 -2.9832533472265946e-08 -1.1314589212841917e-07 0 -1.5629572183051557e-08 -1.0650612943190703e-07 0 -9.7788479229342265e-05 -0.00012485675006798842 0 0.00094143498029468213 -0.0023726607529942793 0 0.00094337273034494505 -0.0025332854328503304 0 0.00084491916311708838 -0.0024254693157829085 0 1.686411537749564e-08 -1.0534816779651594e-07 0 2.9258987776043357e-08 -1.1320626163891202e-07 0 9.9297509682313263e-05 -0.00012699440008877172 0 -0.00049409527166167824 -0.0031710248818775837 0 -0.00058876717979727421 -0.0031740178690308888 0 -0.00052551637765788182 -0.0029863130011060913 0 -0.00075361298303495538 -0.00087814331274888762 0 -0.00068459864775428036 -0.00073553084757003713 0 -0.00064486981702591649 -0.00076413312188149205 0 0.00094143498029468213 -0.0023726607529942793 0 0.00084491916311708838 -0.0024254693157829085 0 0.00084677974500749263 -0.0022466873342417244 0 1.686411537749564e-08 -1.0534816779651594e-07 0 9.9297509682313263e-05 -0.00012699440008877172 0 7.3529311794407208e-05 -0.00011804025586291729 0 -0.00049409527166167824 -0.0031710248818775837 0 -0.00052551637765788182 -0.0029863130011060918 0 -0.00041894639374722998 -0.0029890079584216881 0 -0.00075361298303495538 -0.00087814331274888762 0 -0.00064486981702591649 -0.00076413312188149205 0 -0.00070959513120636396 -0.00093163316144718729 0 0.0006377951039568552 -0.0026110463449468204 0 0.00072481884739569735 -0.0025557187449308564 0 0.00074923194878838482 -0.0026971556067237981 0 -0.00063799479004637036 -0.0026109781623901043 0 -0.00060419021028767649 -0.0027661753998609417 0 -0.0006834633932435054 -0.0028133325178847039 0 -0.00020779274589119768 -0.0022982907390448276 0 -0.00010387607045469772 -0.0022721724032778792 0 -0.00013286578361118486 -0.0024184019698785825 0 0.00047331574009229515 -0.0018517132865885026 0 0.00045567326291139548 -0.001674025599347624 0 0.00053775704118202961 -0.0017352469128137159 0 -0.00043038142526122931 -0.0011512178684825475 0 -0.00043603954640194815 -0.00132402603224248 0 -0.00050954061137647598 -0.0012915028367955219 0 0.00014305616057666952 -0.00066659322052190569 0 7.0988284607395653e-05 -0.00067961037158502347 0 8.0670018124084575e-05 -0.00055371859875312133 0 0.00078079738050868593 -0.003048086465112568 0 0.00068122756121700696 -0.0031769440644861509 0 0.00071024917233146066 -0.0030051660603631954 0 -0.0008764704374391478 -0.0028731337238051143 0 -0.00094520498960704588 -0.0026946830060127938 0 -0.00085329942346823028 -0.0027468282164838593 0 -0.00046059483272706915 -0.00044211272480495372 0 -0.0005943663989078856 -0.00059189372873066459 0 -0.0003833738088275227 -0.00033147098218007804 0 -0.00070052238379951135 -0.0029831202481859619 0 -0.00068140334005762357 -0.003176924769462572 0 -0.00078106249288388281 -0.0030480732189849431 0 0.00014291703195362104 -0.00013556277874378112 0 2.0204062111084281e-08 -1.0110671270874351e-07 0 0.00012782419322232246 -9.5797083748329809e-05 0 0.00084142008714734571 -0.0027292232889052168 0 0.00094503756935591758 -0.002694797035224759 0 0.0008762494058404248 -0.0028731483130419733 0 0.00038394417897961276 -0.00033126396160468183 0 0.0005954659138144784 -0.00059116867819846797 0 0.0004645465857672519 -0.00045021290298310991 0 -0.00012800892743179113 -9.6231715728304539e-05 0 -2.0031618068789184e-08 -9.994166290471167e-08 0 -0.00015219992420105759 -0.00014532851430842372 0 -0.00058767111193925561 -0.00080058116386683825 0 -0.00055021173056940792 -0.000672981544114903 0 -0.00046334125087349481 -0.00065131461081644349 0 0.00016482199376385026 -0.0002609230724927228 0 0.00018128516800150347 -0.00024258136167337456 0 0.00027030933465842265 -0.0004062737187666969 0 0.00074710854318957721 -0.0023183361657239904 0 0.000773718555993518 -0.0024559322063709222 0 0.00065738047037402104 -0.0024220069295998667 0 -0.00046544555711423358 -0.0028010843243378276 0 -0.00054497272696982615 -0.002854244740895363 0 -0.00052968340840016121 -0.0026397427655910077 0 0.00047517620882381274 -0.002866523596386299 0 0.000429979098807602 -0.0030061759491073325 0 0.0004034194181136944 -0.0028363318485142264 0 -0.00078190774728569543 -0.0023375982656998837 0 -0.00085601778982667416 -0.002265961913920248 0 -0.00076688955862835352 -0.0022161134703612517 0 0.00059121239637738732 -0.00078734969798864649 0 0.00070918265775175382 -0.00091910468230172739 0 0.00063571760801047622 -0.00091081607424819825 0 -0.00016002347629057669 -0.00024638405549585015 0 -7.0720883268101672e-05 -0.00011142829990574461 0 -0.00012970857074257953 -0.00023544582496112597 0 7.2473577654567594e-05 -0.0001633319184094334 0 8.0336721374808884e-05 -0.0002527672944927796 0 3.8974441822607122e-05 -0.00013289342951354019 0 0.0008099871524176683 -0.0020698152097588566 0 0.00074384927690344103 -0.0019460258091672481 0 0.00082782376506089375 -0.0019045872920064591 0 -0.00072162293958860462 -0.0010813884876204032 0 -0.00068182458026902807 -0.0011704547020758168 0 -0.00077371073400690511 -0.001253311900494048 0 -0.00031266384187396488 -0.0029188756229876411 0 -0.00024121449835582729 -0.00279498378828356 0 -0.00020873067215855894 -0.0029587687243675651 0 -4.6489591451424915e-06 -0.0026191582536795794 0 7.4747035203958382e-05 -0.0024875462780524792 0 8.0252875644868101e-05 -0.0026310716280103629 0 -0.00063610805126260075 -0.0015285812035385616 0 -0.00057235371251511511 -0.001645082987527541 0 -0.00064972724599371369 -0.0016690160805712519 0 0.00063691749885029286 -0.0015435909252592757 0 0.00055620693478650727 -0.0013967219697294988 0 0.0006316040568906283 -0.0014061335626041167 0 2.6310102796727119e-06 -0.00038365421150423972 0 -4.1435238995776984e-05 -0.0004940153018773946 0 -3.5771152633669437e-05 -0.0003766293427384559 0 0.0006377951039568552 -0.0026110463449468204 0 0.00074923194878838493 -0.0026971556067237981 0 0.00068068186118392456 -0.0027717727044979826 0 -0.00063799479004637036 -0.0026109781623901043 0 -0.0006834633932435054 -0.0028133325178847039 0 -0.00072663300976025767 -0.0026911914083143835 0 0.00036235690495981979 -0.0004595830569725879 0 0.00029714468300811719 -0.00032638625840598396 0 0.00040258650312836679 -0.00042618583400017994 0 -0.00035973875994660273 -0.00045591672966465878 0 -0.00038529897139833889 -0.00041800378635593275 0 -0.00027603398209118498 -0.00029481715826551295 0 -0.00046334125087349481 -0.00065131461081644349 0 -0.00055021173056940792 -0.000672981544114903 0 -0.0004581479941722943 -0.00054789578564332639 0 0.00027030933465842265 -0.0004062737187666969 0 0.00018128516800150347 -0.00024258136167337456 0 0.00025687363926780001 -0.00032151131120598971 0 0.00036235690495981979 -0.0004595830569725879 0 0.00040258650312836679 -0.00042618583400017994 0 0.00045722414703929122 -0.00054774167819609664 0 -0.00035973875994660273 -0.00045591672966465878 0 -0.00027603398209118498 -0.00029481715826551295 0 -0.00025779641530052956 -0.00032351256241854628 0 -0.00035098325526095156 -0.0023734013066136809 0 -0.00031018854496165748 -0.0022112096524859325 0 -0.00027995637839331282 -0.0024142229464615412 0 0.00051397059063366555 -0.0021006198346152269 0 0.00042062162324592794 -0.0020189301491387169 0 0.00053787983504120286 -0.0019822081704195158 0 -0.00042613597030475501 -0.00091833727049626642 0 -0.00035654481511514978 -0.0009707545289312445 0 -0.0004709477900237852 -0.0010433271397606654 0 0.00023273078252402095 -0.00061815739785779319 0 0.00023202855867306669 -0.00076564987652355 0 0.00017457925295091299 -0.0005706421317826332 0 -0.00046544555711423358 -0.0028010843243378276 0 -0.00041894639374722998 -0.0029890079584216881 0 -0.00052551637765788182 -0.0029863130011060913 0 -0.00058767111193925561 -0.00080058116386683825 0 -0.00070959513120636396 -0.00093163316144718718 0 -0.00064486981702591649 -0.00076413312188149205 0 0.00074710854318957721 -0.0023183361657239904 0 0.00084677974500749263 -0.0022466873342417244 0 0.00084491916311708838 -0.0024254693157829085 0 0.00016482199376385026 -0.0002609230724927228 0 7.3529311794407194e-05 -0.00011804025586291729 0 9.9297509682313263e-05 -0.00012699440008877172 0 -0.00052968340840016121 -0.0026397427655910077 0 -0.00054497272696982615 -0.002854244740895363 0 -0.0006041902102876766 -0.0027661753998609422 0 0.00065738047037402104 -0.0024220069295998667 0 0.000773718555993518 -0.0024559322063709222 0 0.00072481884739569735 -0.0025557187449308564 0 -0.00027995637839331282 -0.0024142229464615412 0 -0.00031018854496165748 -0.0022112096524859325 0 -0.00020779274589119768 -0.0022982907390448276 0 0.00053787983504120286 -0.0019822081704195158 0 0.00042062162324592794 -0.0020189301491387169 0 0.00047331574009229515 -0.0018517132865885026 0 -0.0004709477900237852 -0.0010433271397606654 0 -0.00035654481511514978 -0.0009707545289312445 0 -0.00043038142526122931 -0.0011512178684825475 0 0.00017457925295091299 -0.0005706421317826332 0 0.00023202855867306669 -0.00076564987652355 0 0.00014305616057666952 -0.00066659322052190569 0 0.00014572966969531555 -0.0017515973534774152 0 6.9195590524764698e-05 -0.0018064773324673134 0 5.9542733860306813e-05 -0.0016415347180372597 0 0.00092970891030384024 -0.0019010565876823719 0 0.00082782376506089375 -0.0019045872920064591 0 0.00085078003000011013 -0.0017680569164638049 0 9.2984099235308432e-09 -1.0622034465900243e-07 0 3.8974441822607122e-05 -0.00013289342951354019 0 1.6654385866777732e-05 -9.3185503950580996e-05 0 -0.00020061639535284259 -0.0031630545973447121 0 -0.00020873067215855894 -0.0029587687243675651 0 -0.00011975750949330015 -0.0030141414700690875 0 -0.00087454670306918168 -0.0013024765997062954 0 -0.00077371073400690511 -0.001253311900494048 0 -0.00082126643113579684 -0.0013991689403450973 0 -0.00012758186812172754 -0.0028333634966245854 0 -2.6685611245572843e-05 -0.0029412713366421422 0 -0.00011975750949330015 -0.0030141414700690875 0 -0.00072969505763338671 -0.001359382615218431 0 -0.0008004924177996191 -0.0015330814334125668 0 -0.00082126643113579684 -0.0013991689403450973 0 0.00075954911304439187 -0.0017653891200734399 0 0.00080651595804999258 -0.0016159690345402126 0 0.00085078003000011013 -0.0017680569164638049 0 3.7577975587456451e-05 -0.00021965293215015462 0 5.3064299298891213e-06 -0.00014147067712877174 0 1.6654385866777732e-05 -9.3185503950580996e-05 0 0.00014214276853938813 -0.0016112405257468331 0 0.00014572966969531555 -0.0017515973534774152 0 5.9542733860306813e-05 -0.0016415347180372597 0 0.00093854191882716993 -0.0022134287213730107 0 0.00094143498029468213 -0.0023726607529942793 0 0.00084677974500749263 -0.0022466873342417244 0 1.0253085051736124e-08 -1.116200688088409e-07 0 1.686411537749564e-08 -1.0534816779651594e-07 0 7.3529311794407208e-05 -0.00011804025586291729 0 -0.00039765060942316351 -0.0031679219559449579 0 -0.00049409527166167824 -0.0031710248818775837 0 -0.00041894639374722998 -0.0029890079584216881 0 -0.00080422619925509561 -0.0010197433088883683 0 -0.00075361298303495538 -0.00087814331274888762 0 -0.00070959513120636396 -0.00093163316144718729 0 0.00075954911304439187 -0.0017653891200734399 0 0.00067100330906813663 -0.0018493996632280357 0 0.0006728277998433146 -0.0016929517064410778 0 -0.00012758186812172754 -0.0028333634966245854 0 -0.0001888130976782341 -0.0026604624277806795 0 -9.2377216815993965e-05 -0.0026724416939643966 0 3.7577975587456451e-05 -0.00021965293215015462 0 8.1375979108745767e-05 -0.00035502892848725503 0 3.9792869686698872e-05 -0.00034213189980245045 0 -0.00072969505763338671 -0.001359382615218431 0 -0.00062614102811370655 -0.0012322822803265364 0 -0.00065220033231694005 -0.0013919644485942189 0 0.00075954911304439187 -0.0017653891200734399 0 0.00074384927690344103 -0.0019460258091672481 0 0.00067100330906813663 -0.0018493996632280357 0 3.7577975587456451e-05 -0.00021965293215015462 0 8.0336721374808884e-05 -0.0002527672944927796 0 8.137597910874578e-05 -0.00035502892848725503 0 -0.00012758186812172754 -0.0028333634966245854 0 -0.00024121449835582729 -0.00279498378828356 0 -0.0001888130976782341 -0.0026604624277806795 0 -0.00072969505763338671 -0.001359382615218431 0 -0.00068182458026902807 -0.0011704547020758168 0 -0.00062614102811370655 -0.0012322822803265364 0 0.00047331574009229515 -0.0018517132865885026 0 0.00037574803321033966 -0.0018637420247207283 0 0.0003881747003075727 -0.0017293407532743895 0 -0.00020779274589119768 -0.0022982907390448276 0 -0.0002242097051290758 -0.0021250931310003679 0 -0.00014417640078543813 -0.002148341908629412 0 0.00014305616057666952 -0.00066659322052190569 0 0.00017167523426776115 -0.00082977107311471771 0 0.00010769300666603961 -0.00079822259649033089 0 -0.00043038142526122931 -0.0011512178684825475 0 -0.00034050615626599236 -0.001129365449321387 0 -0.00036880637195354512 -0.0012535712054590046 0 2.9290049726234963e-05 -0.0021331883778587641 0 0.00013934149459531806 -0.0021341681781843758 0 8.8414695260928064e-05 -0.0023047041477367914 0 -0.00037462648020235843 -0.0015369809609958145 0 -0.00037834358333849421 -0.0017196184447510678 0 -0.00047310822552405231 -0.0016507073900468682 0 0.0003752894237965307 -0.0014366810302424513 0 0.00035500334285354151 -0.0012539344929145507 0 0.00045586834372899986 -0.0013529016402226198 0 -2.4848047930198425e-05 -0.00079161712843649548 0 -0.00010569425770222347 -0.00081446569991857059 0 -5.9886732439554159e-05 -0.00065310039308360223 0 0.00051836740217973932 -0.00056591711661410757 0 0.00058830557464848679 -0.00061896968326413454 0 0.00064216703619343575 -0.00075652969062697112 0 -0.00017578565147336188 -0.00019702867595228649 0 -8.5289230582347733e-05 -8.9941461050471711e-05 0 -9.7788479229342265e-05 -0.00012485675006798842 0 0.00061712509018875918 -0.0028877393130083691 0 0.00063641747725382946 -0.0030305896480282866 0 0.0005425301297176516 -0.0029966862092646977 0 -0.00079126229648453521 -0.0025818472620629833 0 -0.00086754023865828593 -0.0026169086216588683 0 -0.00085032201135481166 -0.002455124477834557 0 0.00080032223815788264 -0.0025863194615844873 0 0.00084491916311708838 -0.0024254693157829085 0 0.00087522764726710321 -0.0025939264483600564 0 0.00018308907329321283 -0.00020048612305015602 0 9.9297509682313263e-05 -0.00012699440008877172 0 8.4621919530092682e-05 -8.9639867277607993e-05 0 -0.00061963412913276349 -0.002905096065880095 0 -0.00052551637765788182 -0.0029863130011060913 0 -0.00062341373055147344 -0.0030452851906505765 0 -0.00051059230716432417 -0.000554153071190023 0 -0.00064486981702591649 -0.00076413312188149205 0 -0.00058703466358633698 -0.00061629824803583269 0 0.00019428972242569611 -0.0022964273916770846 0 8.8414695260928064e-05 -0.0023047041477367914 0 0.00013934149459531806 -0.0021341681781843758 0 -0.00047210963199138491 -0.0018292448334591362 0 -0.00047310822552405231 -0.0016507073900468682 0 -0.00037834358333849421 -0.0017196184447510678 0 0.00043231116352742625 -0.0011735279798425092 0 0.00045586834372899986 -0.0013529016402226198 0 0.00035500334285354151 -0.0012539344929145507 0 -0.00013460733425290635 -0.00066859378611138236 0 -5.9886732439554159e-05 -0.00065310039308360223 0 -0.00010569425770222347 -0.00081446569991857059 0 0.00064068935769119909 -0.0022772954819222958 0 0.00054505388646375308 -0.0022230728952495008 0 0.00059737261802977654 -0.0020902099346634248 0 -0.00044651508620257251 -0.0026053061093371083 0 -0.00042043429702581938 -0.0024320088836918023 0 -0.00033947847410252481 -0.0025224872580310062 0 0.00023146065827348928 -0.00042528351852907302 0 0.00026812106961744139 -0.00057632002490324295 0 0.00018916302648152518 -0.00048255538265266521 0 -0.0004993543722475464 -0.0007894532839440759 0 -0.00042623128518380865 -0.00080808146424137016 0 -0.00050691820446217178 -0.00095802944840751142 0 0.00068553830659291378 -0.0021718960430541223 0 0.00064068935769119909 -0.0022772954819222958 0 0.00059737261802977654 -0.0020902099346634248 0 0.00016778774202570379 -0.00034894636203067111 0 0.00023146065827348928 -0.00042528351852907302 0 0.00018916302648152518 -0.00048255538265266521 0 -0.00038196788199740603 -0.0026847093423115636 0 -0.00044651508620257251 -0.0026053061093371083 0 -0.00033947847410252481 -0.0025224872580310062 0 -0.00057205598986640436 -0.00091564386447881303 0 -0.0004993543722475464 -0.0007894532839440759 0 -0.00050691820446217178 -0.00095802944840751142 0 0.00029796930475031074 -0.0019590832041130636 0 0.00037574803321033972 -0.0018637420247207283 0 0.00042062162324592794 -0.0020189301491387169 0 -0.00027630720586626836 -0.0019884568609160116 0 -0.0002242097051290758 -0.0021250931310003679 0 -0.00031018854496165748 -0.0022112096524859325 0 0.00023546330094499827 -0.00096665984615650026 0 0.00017167523426776115 -0.00082977107311471771 0 0.00023202855867306669 -0.00076564987652355 0 -0.00025445109091786676 -0.0010000306081998341 0 -0.00034050615626599236 -0.001129365449321387 0 -0.00035654481511514978 -0.0009707545289312445 0 0.00033370868630712121 -0.0025549753806145634 0 0.00033423464664543402 -0.0027641468577436039 0 0.00027624839265144254 -0.0026456994747630145 0 0.00039534853146621951 -0.002643412619923082 0 0.00033423464664543407 -0.0027641468577436039 0 0.00033370868630712121 -0.0025549753806145634 0 -0.00061529517959152727 -0.0020829369958201911 0 -0.00072861345266867362 -0.0020971245941924766 0 -0.0006648781074627873 -0.0019929396107007057 0 -0.00066298398767916872 -0.0021922240167601302 0 -0.00072861345266867362 -0.0020971245941924766 0 -0.00061529517959152727 -0.0020829369958201911 0 0.00052569091131569759 -0.00097284346507876601 0 0.00063360439082667654 -0.0010114283186476061 0 0.0005931037094048904 -0.0010853857165908944 0 0.00054441790350998509 -0.0008849813751821711 0 0.00063360439082667665 -0.0010114283186476063 0 0.00052569091131569759 -0.00097284346507876601 0 -0.00017840712473916998 -0.00045523410222103388 0 -0.00012276804604049887 -0.0002818656808858166 0 -0.00012556979184683411 -0.00037233028770464622 0 -0.00018837131972941016 -0.00038610906661725933 0 -0.00012276804604049887 -0.0002818656808858166 0 -0.00017840712473916998 -0.00045523410222103388 0 -1.5944052604305923e-05 -0.0017682909935149002 0 2.2955097203641704e-05 -0.0019387993580709279 0 -8.8271264669958376e-05 -0.0018963926426639876 0 8.7998167894428049e-05 -0.0012023633162733796 0 8.5632993322870226e-06 -0.0011478124639405932 0 8.0495221648949202e-05 -0.0010535051300061269 0 -0.00012758186812172754 -0.0028333634966245854 0 -2.4792970126681376e-05 -0.0027913338106478301 0 -2.6685611245572843e-05 -0.0029412713366421422 0 -0.00072969505763338671 -0.001359382615218431 0 -0.00072407944938199654 -0.0015172416048447998 0 -0.0008004924177996191 -0.0015330814334125668 0 0.00075954911304439187 -0.0017653891200734399 0 0.00072942700994222797 -0.001596732146433133 0 0.00080651595804999258 -0.0016159690345402126 0 3.7577975587456451e-05 -0.00021965293215015462 0 8.4245641901014124e-06 -0.0002503164018382441 0 5.3064299298891213e-06 -0.00014147067712877174 0 -1.5944052604305923e-05 -0.0017682909935149002 0 6.9195590524764698e-05 -0.0018064773324673134 0 2.2955097203641704e-05 -0.0019387993580709279 0 0.00012910500451902254 -0.0019293250679361597 0 2.2955097203641704e-05 -0.0019387993580709279 0 6.9195590524764698e-05 -0.0018064773324673134 0 7.2473577654567594e-05 -0.0001633319184094334 0 0.00011551206871534745 -0.00027226150793481946 0 8.0336721374808884e-05 -0.0002527672944927796 0 0.0008099871524176683 -0.0020698152097588566 0 0.00073442644348290854 -0.002076417927364562 0 0.00074384927690344103 -0.0019460258091672481 0 -0.00031266384187396488 -0.0029188756229876411 0 -0.00032137514634921236 -0.0027755131306065571 0 -0.00024121449835582729 -0.00279498378828356 0 -0.00072162293958860462 -0.0010813884876204032 0 -0.00064405314548468214 -0.0010356536442611979 0 -0.00068182458026902807 -0.0011704547020758168 0 0.0006377951039568552 -0.0026110463449468204 0 0.00057273531035746 -0.0024985147121469849 0 0.00065738047037402104 -0.0024220069295998667 0 -0.00063799479004637036 -0.0026109781623901043 0 -0.00057698726117697203 -0.0024916965970761757 0 -0.00052968340840016121 -0.0026397427655910077 0 0.00036235690495981979 -0.0004595830569725879 0 0.0003712924432517025 -0.00056080406495685091 0 0.00027030933465842265 -0.0004062737187666969 0 -0.00035973875994660273 -0.00045591672966465878 0 -0.00035420544773971462 -0.00053873582901163911 0 -0.00046334125087349481 -0.00065131461081644349 0 0.000664663772620891 -0.0019929878706092881 0 0.00059737261802977654 -0.0020902099346634248 0 0.00058371439256145647 -0.0018939930294118374 0 -0.00027642254483493294 -0.0026457131927966858 0 -0.00033947847410252481 -0.0025224872580310062 0 -0.00022374735420452552 -0.0024977074751145758 0 0.00012553306626968697 -0.00037310424492383704 0 0.00018916302648152518 -0.00048255538265266521 0 0.00012627927357838965 -0.00049279070941481411 0 -0.00059335209805742124 -0.0010848637883773223 0 -0.00050691820446217178 -0.00095802944840751142 0 -0.00053187907632787248 -0.0011493272946794912 0 0.00021967110951479651 -0.0018378280619494949 0 0.00022915287457263614 -0.0016564714485566676 0 0.00030179119177982562 -0.0017970521965496606 0 0.00047517620882381274 -0.002866523596386299 0 0.00054734870496896322 -0.0027996779598170284 0 0.0005425301297176516 -0.0029966862092646977 0 -0.00078190774728569543 -0.0023375982656998837 0 -0.00074459910843332848 -0.0024586907091189258 0 -0.00085032201135481166 -0.002455124477834557 0 0.00061712509018875918 -0.0028877393130083691 0 0.0005425301297176516 -0.0029966862092646977 0 0.00054734870496896322 -0.0027996779598170284 0 -0.00079126229648453521 -0.0025818472620629833 0 -0.00085032201135481166 -0.002455124477834557 0 -0.00074459910843332848 -0.0024586907091189258 0 0.00047002224429989537 -0.0024902657986905262 0 0.00057273531035746 -0.0024985147121469849 0 0.00055183208634807207 -0.0026330654198268707 0 0.0006377951039568552 -0.0026110463449468204 0 0.00055183208634807207 -0.0026330654198268707 0 0.00057273531035746 -0.0024985147121469849 0 -0.00057653796894850077 -0.0023116373389898168 0 -0.00057698726117697203 -0.0024916965970761757 0 -0.00065324814058486617 -0.0024602172639893662 0 -0.00063799479004637036 -0.0026109781623901043 0 -0.00065324814058486617 -0.0024602172639893662 0 -0.00057698726117697203 -0.0024916965970761757 0 0.00042882340665454115 -0.00073101018675933622 0 0.00037129244325170244 -0.00056080406495685091 0 0.0004672218453626689 -0.00064924730262801405 0 0.00036235690495981979 -0.0004595830569725879 0 0.0004672218453626689 -0.00064924730262801405 0 0.00037129244325170244 -0.00056080406495685091 0 -0.0002853821601278103 -0.00053086377729311899 0 -0.00035420544773971462 -0.00053873582901163911 0 -0.00026490758698294667 -0.00039274435421286753 0 -0.00035973875994660273 -0.00045591672966465878 0 -0.00026490758698294667 -0.00039274435421286753 0 -0.00035420544773971462 -0.00053873582901163911 0 0.00076996497466705859 -0.0028580096892883672 0 0.00084486733040962405 -0.0029896274899350889 0 0.00078079738050868593 -0.003048086465112568 0 0.00029953939932977143 -0.00027034971918741451 0 0.00022517239874048141 -0.0001697590605101862 0 0.00038394417897961276 -0.00033126396160468183 0 0.00029953939932977143 -0.00027034971918741451 0 0.00012782419322232243 -9.5797083748329782e-05 0 0.00022517239874048141 -0.0001697590605101862 0 -0.00077290593775510106 -0.0028528674378668767 0 -0.00084513580738021499 -0.0029895867972478214 0 -0.0008764704374391478 -0.0028731337238051143 0 0.00076996497466705859 -0.0028580096892883672 0 0.0008762494058404248 -0.0028731483130419733 0 0.00084486733040962405 -0.0029896274899350889 0 -0.00030266176652944091 -0.00027440825040555048 0 -0.0002246457162994719 -0.00016925471703898442 0 -0.00012800892743179113 -9.6231715728304539e-05 0 -0.00030266176652944091 -0.00027440825040555048 0 -0.0003833738088275227 -0.00033147098218007804 0 -0.0002246457162994719 -0.0001692547170389844 0 -0.00077290593775510106 -0.0028528674378668767 0 -0.00078106249288388281 -0.0030480732189849431 0 -0.00084513580738021499 -0.0029895867972478214 0 0.00075954911304439187 -0.0017653891200734399 0 0.00082782376506089375 -0.0019045872920064591 0 0.00074384927690344103 -0.0019460258091672481 0 -0.00012758186812172754 -0.0028333634966245854 0 -0.00020873067215855897 -0.0029587687243675651 0 -0.00024121449835582729 -0.00279498378828356 0 3.7577975587456451e-05 -0.00021965293215015462 0 3.8974441822607122e-05 -0.00013289342951354019 0 8.0336721374808884e-05 -0.0002527672944927796 0 -0.00072969505763338671 -0.001359382615218431 0 -0.00077371073400690511 -0.001253311900494048 0 -0.00068182458026902807 -0.0011704547020758168 0 0.00029796930475031074 -0.0019590832041130636 0 0.00028594830228316942 -0.0021395684581122253 0 0.00021425133067998127 -0.0020329098717700301 0 -0.00027630720586626836 -0.0019884568609160116 0 -0.00038309395004528906 -0.0019758687322020854 0 -0.00032729030758461852 -0.0018445064700544438 0 0.00023546330094499827 -0.00096665984615650026 0 0.00032842894952636343 -0.0010020792345567281 0 0.00028541728047457287 -0.0011148090286920128 0 -0.00025445109091786676 -0.0010000306081998341 0 -0.00022201858451891576 -0.00082515478881483879 0 -0.00017497047445214696 -0.00091537265247751214 0 0.00092159626121162232 -0.0017473462714926976 0 0.00092970891030384024 -0.0019010565876823719 0 0.00085078003000011013 -0.0017680569164638049 0 -2.5952813843731693e-10 -1.1047807157071126e-07 0 9.2984099235308432e-09 -1.0622034465900243e-07 0 1.6654385866777732e-05 -9.3185503950580996e-05 0 -0.00010062509762330382 -0.0031615298027372328 0 -0.00020061639535284259 -0.0031630545973447121 0 -0.00011975750949330015 -0.0030141414700690875 0 -0.00089496518573427535 -0.0014488704768799803 0 -0.00087454670306918168 -0.0013024765997062954 0 -0.00082126643113579684 -0.0013991689403450973 0 0.00030792784232230435 -0.00025357929664401077 0 0.00038394417897961276 -0.00033126396160468178 0 0.00022517239874048141 -0.0001697590605101862 0 4.1403204596518823e-09 -9.4311537556947938e-08 0 -0.00012800892743179113 -9.6231715728304539e-05 0 -0.0002246457162994719 -0.0001692547170389844 0 -4.6074160444190891e-09 -9.4697747100876979e-08 0 0.00022517239874048141 -0.0001697590605101862 0 0.00012782419322232246 -9.5797083748329809e-05 0 0.00094832319597020561 -0.0030195204190697844 0 0.00084486733040962405 -0.0029896274899350889 0 0.0008762494058404248 -0.0028731483130419733 0 0.00086163163938850326 -0.0031808187858094993 0 0.00078079738050868593 -0.0030480864651125684 0 0.00084486733040962405 -0.0029896274899350889 0 -0.0009485790203225136 -0.003019489765954419 0 -0.0008764704374391478 -0.0028731337238051143 0 -0.00084513580738021499 -0.0029895867972478214 0 -0.00030761726362892858 -0.00025375141666418089 0 -0.0002246457162994719 -0.0001692547170389844 0 -0.0003833738088275227 -0.00033147098218007804 0 -0.00086187211917018334 -0.0031807869529869317 0 -0.00084513580738021499 -0.0029895867972478214 0 -0.00078106249288388281 -0.0030480732189849431 0 0.00010049107583881975 -0.0031615508873316495 0 0.00010574275386776208 -0.0029864152040884129 0 0.00018568437386979816 -0.0030237257410884936 0 -0.0009225981189462198 -0.0017471430820200015 0 -0.00083582993104937774 -0.0017442248513798054 0 -0.00086002687773552831 -0.0018721216268212184 0 0.00089589472492623585 -0.001448527479782011 0 0.0008093305866090822 -0.0014170273786759315 0 0.00081130018463822337 -0.0012997671034696296 0 -3.3804002510200792e-09 -1.0639035379366119e-07 0 -1.6332369320533447e-05 -0.0001139615824060154 0 -2.4358603127661461e-05 -8.7971518440260274e-05 0 0.00036235690495981979 -0.0004595830569725879 0 0.00027030933465842265 -0.0004062737187666969 0 0.00025687363926780001 -0.00032151131120598971 0 -0.00035973875994660273 -0.00045591672966465878 0 -0.00046334125087349481 -0.00065131461081644349 0 -0.0004581479941722943 -0.00054789578564332639 0 0.00047002224429989537 -0.0024902657986905262 0 0.00047359728525257598 -0.0027123217118088208 0 0.00039534853146621951 -0.002643412619923082 0 -0.00057653796894850077 -0.0023116373389898168 0 -0.00069894525044329812 -0.0023288570029902666 0 -0.00066298398767916872 -0.0021922240167601302 0 0.00042882340665454115 -0.00073101018675933622 0 0.0005270463344472469 -0.00077524635779923701 0 0.00054441790350998509 -0.0008849813751821711 0 -0.0002853821601278103 -0.00053086377729311899 0 -0.00021341662994411721 -0.00036198107001414437 0 -0.00018837131972941016 -0.00038610906661725933 0 6.8151700625850934e-05 -0.0027741459486193571 0 -2.4792970126681376e-05 -0.0027913338106478301 0 -4.6489591451424915e-06 -0.0026191582536795794 0 -0.00072465146579125614 -0.0016645948759610634 0 -0.00072407944938199654 -0.0015172416048447998 0 -0.00063610805126260075 -0.0015285812035385616 0 0.00070878433788924518 -0.0014453486598993961 0 0.00072942700994222797 -0.001596732146433133 0 0.00063691749885029286 -0.0015435909252592757 0 -2.3892189641801433e-05 -0.00026379374227153819 0 8.4245641901014124e-06 -0.0002503164018382441 0 2.6310102796727119e-06 -0.00038365421150423972 0 -0.00058767111193925561 -0.00080058116386683825 0 -0.00064949245999238077 -0.00095173421371141367 0 -0.00070959513120636396 -0.00093163316144718729 0 -0.00046544555711423358 -0.0028010843243378276 0 -0.00038013386232047956 -0.0028336138125431365 0 -0.00041894639374722998 -0.0029890079584216881 0 0.00016482199376385026 -0.0002609230724927228 0 0.00012095996493773923 -0.00023078164705873298 0 7.3529311794407208e-05 -0.00011804025586291729 0 0.00074710854318957721 -0.0023183361657239904 0 0.00076532230013092047 -0.0021770188284977688 0 0.00084677974500749263 -0.0022466873342417244 0 0.00054505388646375308 -0.0022230728952495008 0 0.00051397059063366555 -0.0021006198346152269 0 0.00059737261802977654 -0.0020902099346634248 0 -0.00042043429702581938 -0.0024320088836918023 0 -0.00035098325526095156 -0.0023734013066136809 0 -0.00033947847410252481 -0.0025224872580310062 0 0.00026812106961744139 -0.00057632002490324295 0 0.00023273078252402095 -0.00061815739785779319 0 0.00018916302648152518 -0.00048255538265266521 0 -0.00042623128518380865 -0.00080808146424137016 0 -0.00042613597030475501 -0.00091833727049626642 0 -0.00050691820446217178 -0.00095802944840751142 0 0.0006377951039568552 -0.0026110463449468204 0 0.00065738047037402104 -0.0024220069295998667 0 0.00072481884739569735 -0.0025557187449308564 0 -0.00063799479004637036 -0.0026109781623901043 0 -0.00052968340840016121 -0.0026397427655910077 0 -0.0006041902102876766 -0.0027661753998609422 0 0.00031905394566064758 -0.0016692348368383817 0 0.00027373575020047633 -0.0014870309574397476 0 0.00037797381334759439 -0.0015847586855775296 0 0.0003752894237965307 -0.0014366810302424513 0 0.00037797381334759439 -0.0015847586855775296 0 0.00027373575020047633 -0.0014870309574397476 0 0.00054505388646375308 -0.0022230728952495008 0 0.00046901755801788788 -0.0021934935142765657 0 0.00051397059063366555 -0.0021006198346152269 0 -0.00042043429702581938 -0.0024320088836918023 0 -0.00040763057723018582 -0.0022969433833017984 0 -0.00035098325526095156 -0.0023734013066136809 0 0.00026812106961744139 -0.00057632002490324295 0 0.00029172445688978614 -0.00069941915496077789 0 0.00023273078252402095 -0.00061815739785779319 0 -0.00042623128518380865 -0.00080808146424137016 0 -0.00036607068492394002 -0.00081350388952874996 0 -0.00042613597030475501 -0.00091833727049626642 0 0.00076996497466705859 -0.0028580096892883672 0 0.00078079738050868593 -0.003048086465112568 0 0.00071024917233146066 -0.0030051660603631954 0 -0.00077290593775510106 -0.0028528674378668767 0 -0.0008764704374391478 -0.0028731337238051143 0 -0.00085329942346823028 -0.0027468282164838593 0 0.00029953939932977143 -0.00027034971918741451 0 0.00038394417897961276 -0.00033126396160468183 0 0.0004645465857672519 -0.00045021290298310991 0 0.00076996497466705859 -0.0028580096892883672 0 0.00084142008714734571 -0.0027292232889052164 0 0.0008762494058404248 -0.0028731483130419733 0 0.00029953939932977143 -0.00027034971918741451 0 0.00014291703195362104 -0.00013556277874378112 0 0.00012782419322232246 -9.5797083748329809e-05 0 -0.00030266176652944091 -0.00027440825040555048 0 -0.00012800892743179113 -9.6231715728304539e-05 0 -0.00015219992420105759 -0.00014532851430842372 0 -0.00077290593775510106 -0.0028528674378668767 0 -0.00070052238379951135 -0.0029831202481859619 0 -0.00078106249288388281 -0.0030480732189849431 0 -0.00030266176652944091 -0.00027440825040555048 0 -0.00046059483272706915 -0.00044211272480495372 0 -0.0003833738088275227 -0.00033147098218007804 0 8.7998167894428049e-05 -0.0012023633162733796 0 8.0495221648949202e-05 -0.0010535051300061269 0 0.00017603679507770172 -0.0011010806740458928 0 -2.2057459978833222e-06 -0.0010276471045942454 0 8.0495221648949202e-05 -0.0010535051300061269 0 8.5632993322870226e-06 -0.0011478124639405932 0 0.00031905394566064758 -0.0016692348368383817 0 0.00030179119177982562 -0.0017970521965496606 0 0.00022915287457263614 -0.0016564714485566676 0 -6.6562824106066057e-08 -0.0024166111468794786 0 -4.6489591451424915e-06 -0.0026191582536795794 0 -6.7737528735820675e-05 -0.0025104743825588374 0 -0.00052741019924553128 -0.0015131822208566102 0 -0.00063610805126260075 -0.0015285812035385616 0 -0.00056981231299828815 -0.0014114522209487824 0 0.00052717683483050255 -0.0015132595802874139 0 0.00063691749885029286 -0.0015435909252592757 0 0.00058418791851854194 -0.0016357072689784217 0 -1.1617811487408815e-07 -0.00055384625215541502 0 2.6310102796727119e-06 -0.00038365421150423972 0 3.7015282991216043e-05 -0.00047341571473105817 0 0.00039534853146621951 -0.002643412619923082 0 0.00047359728525257598 -0.0027123217118088208 0 0.0004034194181136944 -0.0028363318485142264 0 -0.00066298398767916872 -0.0021922240167601302 0 -0.00069894525044329812 -0.0023288570029902666 0 -0.00076688955862835352 -0.0022161134703612517 0 0.00054441790350998509 -0.0008849813751821711 0 0.0005270463344472469 -0.00077524635779923701 0 0.00063571760801047622 -0.00091081607424819825 0 -0.00018837131972941016 -0.00038610906661725933 0 -0.00021341662994411721 -0.00036198107001414443 0 -0.00012970857074257953 -0.00023544582496112597 0 0.00047331574009229515 -0.0018517132865885026 0 0.00042062162324592794 -0.0020189301491387169 0 0.00037574803321033966 -0.0018637420247207283 0 -0.00020779274589119768 -0.0022982907390448276 0 -0.00031018854496165748 -0.0022112096524859325 0 -0.0002242097051290758 -0.0021250931310003679 0 0.00014305616057666952 -0.00066659322052190569 0 0.00023202855867306669 -0.00076564987652355 0 0.00017167523426776115 -0.00082977107311471771 0 -0.00043038142526122931 -0.0011512178684825475 0 -0.00035654481511514978 -0.0009707545289312445 0 -0.00034050615626599236 -0.001129365449321387 0 0.00074710854318957721 -0.0023183361657239904 0 0.00065738047037402104 -0.0024220069295998667 0 0.00064068935769119909 -0.0022772954819222958 0 0.00016482199376385026 -0.0002609230724927228 0 0.00027030933465842265 -0.0004062737187666969 0 0.00023146065827348928 -0.00042528351852907302 0 -0.00046544555711423358 -0.0028010843243378276 0 -0.00052968340840016121 -0.0026397427655910073 0 -0.00044651508620257251 -0.0026053061093371083 0 -0.00058767111193925561 -0.00080058116386683825 0 -0.00046334125087349481 -0.00065131461081644349 0 -0.0004993543722475464 -0.0007894532839440759 0 0.00021967110951479651 -0.0018378280619494949 0 0.00014572966969531555 -0.0017515973534774152 0 0.00022915287457263614 -0.0016564714485566676 0 -0.00012446146618288553 -0.0016391019425634049 0 -0.00019237781026185648 -0.0015850645839550108 0 -8.9858365702496598e-05 -0.0015128708115491193 0 -0.00016948970998910298 -0.0014351489548464977 0 -8.9858365702496598e-05 -0.0015128708115491193 0 -0.00019237781026185648 -0.0015850645839550108 0 -0.0001117572749190031 -0.0020302330534651006 0 -0.00018595848859193843 -0.0019985995604252078 0 -8.8271264669958376e-05 -0.0018963926426639876 0 -0.00018329462503054219 -0.0018606841578822451 0 -8.8271264669958376e-05 -0.0018963926426639876 0 -0.00018595848859193843 -0.0019985995604252078 0 0.00059121239637738732 -0.00078734969798864649 0 0.0004672218453626689 -0.00064924730262801405 0 0.00053719825005518447 -0.00065788684395319216 0 -0.00016002347629057669 -0.00024638405549585015 0 -0.00026490758698294667 -0.00039274435421286753 0 -0.0001916094395941084 -0.0002548851160691519 0 -0.00016948970998910298 -0.0014351489548464977 0 -0.00026967385413939794 -0.0015119805334457583 0 -0.00022746859997020981 -0.001329827191859121 0 0.00049392305384894837 -0.0031710705147341869 0 0.000429979098807602 -0.0030061759491073325 0 0.0005425301297176516 -0.0029966862092646977 0 -0.00094155342121990978 -0.0023726043511795797 0 -0.00085601778982667416 -0.002265961913920248 0 -0.00085032201135481166 -0.002455124477834557 0 0.00075300193618619226 -0.00087818256039020226 0 0.00070918265775175382 -0.0009191046823017275 0 0.00064216703619343575 -0.00075652969062697112 0 -1.5629572183058475e-08 -1.0650612943191586e-07 0 -7.0720883268101672e-05 -0.00011142829990574461 0 -9.7788479229342265e-05 -0.00012485675006798842 0 0.00075954911304439187 -0.0017653891200734399 0 0.00085078003000011013 -0.0017680569164638049 0 0.00082782376506089375 -0.0019045872920064591 0 3.7577975587456451e-05 -0.00021965293215015462 0 1.6654385866777732e-05 -9.3185503950580983e-05 0 3.8974441822607122e-05 -0.00013289342951354019 0 -0.00012758186812172754 -0.0028333634966245854 0 -0.00011975750949330017 -0.0030141414700690875 0 -0.00020873067215855894 -0.0029587687243675651 0 -0.00072969505763338671 -0.001359382615218431 0 -0.00082126643113579684 -0.0013991689403450973 0 -0.00077371073400690511 -0.001253311900494048 0 -0.00018329462503054219 -0.0018606841578822451 0 -0.00018551262209089397 -0.0017265418447885243 0 -9.7024291475312444e-05 -0.0017499670650583086 0 -0.00011175268339983361 -0.00099487704632268453 0 -0.00010569425770222349 -0.00081446569991857059 0 -4.4488653350791754e-05 -0.00093030947494829634 0 -2.4848047930198425e-05 -0.00079161712843649548 0 -4.4488653350791754e-05 -0.00093030947494829634 0 -0.00010569425770222347 -0.00081446569991857059 0 0.00029946632299988814 -0.0031650943431719256 0 0.00020042862089115896 -0.0031630494020481697 0 0.00027350326873035581 -0.0030154620696517661 0 -0.00093538627848835918 -0.0020565141456451129 0 -0.00092995016488253419 -0.0019007931272272476 0 -0.00085926058411070277 -0.0020109605073631385 0 0.00084472207941972514 -0.001158395416202462 0 0.00087398389431194161 -0.0013021657487152505 0 0.00078304087793337014 -0.0011645064598463141 0 -1.4613960591931579e-08 -1.0753260594535841e-07 0 -6.4403251842547679e-09 -1.0832619423583516e-07 0 -3.8148261347602178e-05 -9.421321948556083e-05 0 0.00047002224429989537 -0.0024902657986905262 0 0.00048726630724816255 -0.0023116629111955551 0 0.00055808357284570177 -0.0023656020320320958 0 -0.00057653796894850077 -0.0023116373389898168 0 -0.00047438586787122494 -0.0023333491971526282 0 -0.00050208077059211184 -0.0024601063230210991 0 0.00042882340665454115 -0.00073101018675933622 0 0.00033635517413460863 -0.00067995208993937772 0 0.0003187285988218337 -0.00056199252980103625 0 -0.0002853821601278103 -0.00053086377729311899 0 -0.00035281236689335715 -0.00070501962694754269 0 -0.00039733342060384324 -0.00066858925865526651 0 0.00030792784232230435 -0.00025357929664401077 0 0.00022517239874048141 -0.0001697590605101862 0 0.00013941825038937865 -0.00010583087978529995 0 4.1403204596518823e-09 -9.4311537556947938e-08 0 -0.0002246457162994719 -0.0001692547170389844 0 -0.00013907623210937181 -0.00010568852147229861 0 -4.6074160444190891e-09 -9.4697747100876979e-08 0 0.00013941825038937865 -0.00010583087978529995 0 0.00022517239874048141 -0.0001697590605101862 0 -0.00030761726362892858 -0.00025375141666418089 0 -0.00013907623210937181 -0.00010568852147229861 0 -0.0002246457162994719 -0.0001692547170389844 0 0.00094832319597020561 -0.0030195204190697844 0 0.0008919859549211777 -0.0030756787537412952 0 0.00084486733040962405 -0.0029896274899350889 0 0.00086163163938850326 -0.0031808187858094993 0 0.00084486733040962405 -0.0029896274899350889 0 0.0008919859549211777 -0.0030756787537412952 0 -0.00086187211917018334 -0.0031807869529869317 0 -0.00089569643103300158 -0.0030819618129751445 0 -0.00084513580738021499 -0.0029895867972478214 0 -0.0009485790203225136 -0.003019489765954419 0 -0.00084513580738021499 -0.0029895867972478214 0 -0.00089569643103300158 -0.0030819618129751445 0 0.00076996497466705859 -0.0028580096892883672 0 0.00074923194878838482 -0.0026971556067237981 0 0.00084142008714734571 -0.0027292232889052168 0 -0.00077290593775510106 -0.0028528674378668767 0 -0.0006834633932435054 -0.0028133325178847039 0 -0.00070052238379951135 -0.0029831202481859619 0 0.00080032223815788264 -0.0025863194615844873 0 0.00084142008714734571 -0.0027292232889052168 0 0.00074923194878838482 -0.0026971556067237981 0 0.00051836740217973932 -0.00056591711661410757 0 0.00040258650312836679 -0.00042618583400017994 0 0.0004645465857672519 -0.00045021290298310991 0 -0.00061963412913276349 -0.002905096065880095 0 -0.00070052238379951135 -0.0029831202481859619 0 -0.0006834633932435054 -0.0028133325178847039 0 -0.00017578565147336188 -0.00019702867595228649 0 -0.00027603398209118498 -0.00029481715826551295 0 -0.00015219992420105759 -0.00014532851430842372 0 0.00029953939932977143 -0.00027034971918741451 0 0.0004645465857672519 -0.00045021290298310991 0 0.00040258650312836679 -0.00042618583400017994 0 -0.00030266176652944091 -0.00027440825040555048 0 -0.00015219992420105759 -0.00014532851430842372 0 -0.00027603398209118498 -0.00029481715826551295 0 0.00014214276853938813 -0.0016112405257468331 0 0.00022915287457263614 -0.0016564714485566676 0 0.00014572966969531555 -0.0017515973534774152 0 0.00017603679507770172 -0.0011010806740458928 0 8.0495221648949202e-05 -0.0010535051300061269 0 0.0001572585969575445 -0.00095308589469817243 0 -0.00022374735420452552 -0.0024977074751145758 0 -0.00033947847410252481 -0.0025224872580310062 0 -0.00027995637839331282 -0.0024142229464615412 0 0.00058371439256145647 -0.0018939930294118374 0 0.00059737261802977643 -0.0020902099346634243 0 0.00053787983504120286 -0.0019822081704195158 0 -0.00053187907632787248 -0.0011493272946794912 0 -0.00050691820446217178 -0.00095802944840751142 0 -0.0004709477900237852 -0.0010433271397606654 0 0.00012627927357838965 -0.00049279070941481411 0 0.00018916302648152518 -0.00048255538265266521 0 0.00017457925295091299 -0.0005706421317826332 0 -0.00018925145587432468 -0.0011960902147283826 0 -0.00022746859997020981 -0.001329827191859121 0 -0.00025669367352354385 -0.0011497384649079348 0 -0.00030340980566313553 -0.0012818879572845325 0 -0.00025669367352354385 -0.0011497384649079348 0 -0.00022746859997020981 -0.001329827191859121 0 -0.00018329462503054219 -0.0018606841578822451 0 -0.00018595848859193843 -0.0019985995604252073 0 -0.00027630720586626836 -0.0019884568609160116 0 6.8151700625850934e-05 -0.0027741459486193571 0 -4.6489591451424915e-06 -0.0026191582536795794 0 8.0252875644868101e-05 -0.0026310716280103629 0 -0.00072465146579125614 -0.0016645948759610634 0 -0.00063610805126260064 -0.0015285812035385616 0 -0.00064972724599371369 -0.0016690160805712519 0 0.00070878433788924518 -0.0014453486598993961 0 0.00063691749885029286 -0.0015435909252592759 0 0.0006316040568906283 -0.0014061335626041167 0 -2.3892189641801433e-05 -0.00026379374227153819 0 2.6310102796727203e-06 -0.00038365421150423972 0 -3.5771152633669437e-05 -0.0003766293427384559 0 -0.00025207532387015985 -0.0018299896553748726 0 -0.00018329462503054219 -0.0018606841578822451 0 -0.00027630720586626836 -0.0019884568609160116 0 0.00029796930475031074 -0.0019590832041130636 0 0.00042062162324592794 -0.0020189301491387169 0 0.00034735609485569052 -0.0020854595495004851 0 -0.00027630720586626836 -0.0019884568609160116 0 -0.00031018854496165748 -0.0022112096524859325 0 -0.00034842223596214921 -0.0020791450186833753 0 0.00023546330094499827 -0.00096665984615650026 0 0.00023202855867306669 -0.00076564987652355 0 0.00028409019612450734 -0.0008939815718654251 0 -0.00025445109091786676 -0.0010000306081998341 0 -0.00035654481511514978 -0.0009707545289312445 0 -0.00028107252096293912 -0.00088805146027134984 0 0.00047002224429989537 -0.0024902657986905262 0 0.00039534853146621951 -0.002643412619923082 0 0.00039124461464939324 -0.0024878929051277998 0 -0.00057653796894850077 -0.0023116373389898168 0 -0.00066298398767916872 -0.0021922240167601302 0 -0.00057708069250437817 -0.0021765432862299121 0 0.00042882340665454115 -0.00073101018675933622 0 0.00054441790350998509 -0.0008849813751821711 0 0.00046759965990872366 -0.00086472178534180064 0 -0.0002853821601278103 -0.00053086377729311899 0 -0.00018837131972941016 -0.00038610906661725933 0 -0.00023275761112528481 -0.00052243461587351571 0 -0.00011175268339983361 -0.00099487704632268453 0 -0.00012466732869755051 -0.0011486842392145345 0 -0.00018530533471983662 -0.0010681497938282753 0 0.00047002224429989537 -0.0024902657986905262 0 0.00055183208634807207 -0.0026330654198268707 0 0.00047359728525257598 -0.0027123217118088208 0 -0.00057653796894850077 -0.0023116373389898168 0 -0.00065324814058486617 -0.0024602172639893662 0 -0.00069894525044329812 -0.0023288570029902666 0 0.00042882340665454115 -0.00073101018675933622 0 0.0004672218453626689 -0.00064924730262801405 0 0.0005270463344472469 -0.00077524635779923701 0 -0.0002853821601278103 -0.00053086377729311899 0 -0.00026490758698294667 -0.00039274435421286753 0 -0.00021341662994411721 -0.00036198107001414443 0 0.00012910500451902254 -0.0019293250679361597 0 0.00014572966969531555 -0.0017515973534774152 0 0.00021967110951479651 -0.0018378280619494949 0 0.000664663772620891 -0.0019929878706092881 0 0.00068553830659291378 -0.0021718960430541223 0 0.00059737261802977654 -0.0020902099346634248 0 0.00012553306626968697 -0.00037310424492383704 0 0.00016778774202570379 -0.00034894636203067111 0 0.00018916302648152518 -0.00048255538265266521 0 -0.00027642254483493294 -0.0026457131927966858 0 -0.00038196788199740603 -0.0026847093423115636 0 -0.00033947847410252481 -0.0025224872580310062 0 -0.00059335209805742124 -0.0010848637883773223 0 -0.00057205598986640436 -0.00091564386447881303 0 -0.00050691820446217178 -0.00095802944840751142 0 -0.00057653796894850077 -0.0023116373389898168 0 -0.00050208077059211184 -0.0024601063230210991 0 -0.00057698726117697203 -0.0024916965970761757 0 0.00047002224429989537 -0.0024902657986905262 0 0.00055808357284570177 -0.0023656020320320958 0 0.00057273531035746 -0.0024985147121469849 0 -0.0002853821601278103 -0.00053086377729311899 0 -0.00039733342060384319 -0.00066858925865526651 0 -0.00035420544773971462 -0.00053873582901163911 0 0.00042882340665454115 -0.00073101018675933622 0 0.0003187285988218337 -0.00056199252980103625 0 0.00037129244325170244 -0.00056080406495685091 0 2.2955097203641704e-05 -0.0019387993580709279 0 -4.3207220412002446e-05 -0.0020224909964134744 0 -8.8271264669958376e-05 -0.0018963926426639876 0 8.7998167894428049e-05 -0.0012023633162733796 0 0.00017603679507770172 -0.0011010806740458928 0 0.00016974940355828243 -0.0012631542245631262 0 0.0002539452137700346 -0.0012481712438084742 0 0.00016974940355828243 -0.0012631542245631262 0 0.00017603679507770172 -0.0011010806740458928 0 0.00039730282448594792 -0.0021739051487354769 0 0.00042062162324592794 -0.0020189301491387169 0 0.00046901755801788788 -0.0021934935142765661 0 -0.00039958272953192044 -0.0021704993968778507 0 -0.00031018854496165748 -0.0022112096524859325 0 -0.00040763057723018582 -0.0022969433833017984 0 0.00051397059063366555 -0.0021006198346152269 0 0.00046901755801788788 -0.0021934935142765661 0 0.00042062162324592794 -0.0020189301491387169 0 -0.00035098325526095156 -0.0023734013066136809 0 -0.00040763057723018582 -0.0022969433833017984 0 -0.00031018854496165748 -0.0022112096524859325 0 0.00031145692753614169 -0.0008175021703749455 0 0.00023202855867306669 -0.00076564987652355 0 0.00029172445688978614 -0.00069941915496077789 0 -0.00030850161511381414 -0.00081403907780327556 0 -0.00035654481511514978 -0.0009707545289312445 0 -0.00036607068492394002 -0.00081350388952874996 0 0.00023273078252402095 -0.00061815739785779319 0 0.00029172445688978614 -0.00069941915496077789 0 0.00023202855867306669 -0.00076564987652355 0 -0.00042613597030475501 -0.00091833727049626642 0 -0.00036607068492394002 -0.00081350388952874996 0 -0.00035654481511514978 -0.0009707545289312445 0 0.00047517620882381274 -0.002866523596386299 0 0.0004034194181136944 -0.0028363318485142264 0 0.00047359728525257598 -0.0027123217118088208 0 -0.00078190774728569543 -0.0023375982656998837 0 -0.00076688955862835352 -0.0022161134703612517 0 -0.00069894525044329812 -0.0023288570029902666 0 0.00059121239637738732 -0.00078734969798864649 0 0.00063571760801047622 -0.00091081607424819825 0 0.0005270463344472469 -0.00077524635779923701 0 -0.00016002347629057669 -0.00024638405549585015 0 -0.00012970857074257953 -0.00023544582496112597 0 -0.00021341662994411721 -0.00036198107001414443 0 0.00019428972242569611 -0.0022964273916770846 0 0.00028037103532740454 -0.0022987518751622876 0 0.00023540244500185395 -0.0024723989189259369 0 0.00033167165092781221 -0.0024183550715726832 0 0.00023540244500185395 -0.0024723989189259369 0 0.00028037103532740454 -0.0022987518751622876 0 -0.00047210963199138491 -0.0018292448334591362 0 -0.00047358190555832043 -0.0019755336149961567 0 -0.00057037083818144293 -0.0019117468938449744 0 -0.0005397923798033075 -0.002070682211716001 0 -0.00057037083818144293 -0.0019117468938449744 0 -0.00047358190555832043 -0.0019755336149961567 0 0.00043231116352742625 -0.0011735279798425092 0 0.00041155081173440723 -0.0010278640961649207 0 0.00051529998480026747 -0.0011258888889968033 0 0.00045624426159239219 -0.0009563731681047306 0 0.00051529998480026747 -0.0011258888889968033 0 0.00041155081173440723 -0.0010278640961649207 0 -0.00013460733425290635 -0.00066859378611138236 0 -0.00019499690504898775 -0.00067584265687723377 0 -0.00013746946513540383 -0.0005148854107463218 0 -0.00020989715890640647 -0.00057466100632642492 0 -0.00013746946513540383 -0.0005148854107463218 0 -0.00019499690504898775 -0.00067584265687723377 0 0.0008099871524176683 -0.0020698152097588566 0 0.00082782376506089375 -0.0019045872920064591 0 0.00087724217179460738 -0.002008767531768269 0 7.2473577654567594e-05 -0.0001633319184094334 0 3.8974441822607122e-05 -0.00013289342951354019 0 2.8667483589077191e-05 -7.043953660879308e-05 0 -0.00031266384187396488 -0.0029188756229876411 0 -0.00020873067215855894 -0.0029587687243675651 0 -0.0002717436135683647 -0.0030517875486511729 0 -0.00072162293958860462 -0.0010813884876204032 0 -0.00077371073400690511 -0.001253311900494048 0 -0.00080088185051682031 -0.0011752447568619145 0 0.00029796930475031074 -0.0019590832041130636 0 0.00034735609485569052 -0.0020854595495004851 0 0.00028594830228316942 -0.0021395684581122253 0 -0.00027630720586626836 -0.0019884568609160116 0 -0.00034842223596214921 -0.0020791450186833753 0 -0.00038309395004528906 -0.0019758687322020854 0 0.00023546330094499827 -0.00096665984615650026 0 0.00028409019612450734 -0.0008939815718654251 0 0.00032842894952636343 -0.0010020792345567281 0 -0.00025445109091786676 -0.0010000306081998341 0 -0.00028107252096293912 -0.00088805146027134984 0 -0.00022201858451891576 -0.00082515478881483879 0 0.00047002224429989537 -0.0024902657986905262 0 0.00041559228621831782 -0.0023325114119043381 0 0.00048726630724816255 -0.0023116629111955551 0 -0.00057653796894850077 -0.0023116373389898168 0 -0.00048951101186692106 -0.0022093603309912349 0 -0.00047438586787122494 -0.0023333491971526282 0 0.00042882340665454115 -0.00073101018675933622 0 0.00037984558111922996 -0.00080294037148084612 0 0.00033635517413460868 -0.00067995208993937783 0 -0.0002853821601278103 -0.00053086377729311899 0 -0.00028939937282315866 -0.00066651641484550715 0 -0.00035281236689335715 -0.00070501962694754269 0 -0.00012446146618288553 -0.0016391019425634049 0 -9.7024291475312458e-05 -0.0017499670650583086 0 -0.00018551262209089397 -0.0017265418447885243 0 -6.4403251842547679e-09 -1.0832619423583516e-07 0 -3.3804002510200792e-09 -1.0639035379366119e-07 0 -2.4358603127661461e-05 -8.7971518440260274e-05 0 0.00087398389431194161 -0.0013021657487152505 0 0.00089589472492623585 -0.001448527479782011 0 0.00081130018463822337 -0.0012997671034696296 0 -0.00092995016488253419 -0.0019007931272272476 0 -0.0009225981189462198 -0.0017471430820200015 0 -0.00086002687773552831 -0.0018721216268212184 0 0.00020042862089115896 -0.0031630494020481697 0 0.00010049107583881975 -0.0031615508873316495 0 0.00018568437386979816 -0.0030237257410884936 0 0.00030792784232230435 -0.00025357929664401077 0 0.00046938150028247668 -0.00043227182761758923 0 0.00038394417897961276 -0.00033126396160468183 0 4.1403204596518823e-09 -9.4311537556947938e-08 0 -5.1615603989671912e-08 -1.3407336992498706e-07 0 -0.00012800892743179113 -9.6231715728304539e-05 0 0.00086163163938850326 -0.0031808187858094993 0 0.00077191122717406939 -0.0031792089280170402 0 0.00078079738050868593 -0.003048086465112568 0 -0.0009485790203225136 -0.003019489765954419 0 -0.00094657780241309971 -0.0028569030128829183 0 -0.0008764704374391478 -0.0028731337238051143 0 0.0009463453784067028 -0.0028569503927909933 0 0.00094832319597020561 -0.0030195204190697844 0 0.0008762494058404248 -0.0028731483130419733 0 5.1609601639642342e-08 -1.3287494351025205e-07 0 -4.6074160444190891e-09 -9.4697747100876979e-08 0 0.00012782419322232246 -9.5797083748329809e-05 0 -0.00077213402519896222 -0.0031792074683656326 0 -0.00086187211917018334 -0.0031807869529869317 0 -0.00078106249288388281 -0.0030480732189849431 0 -0.00046886664499012893 -0.00043256667443996504 0 -0.00030761726362892858 -0.00025375141666418089 0 -0.0003833738088275227 -0.00033147098218007804 0 0.00074710854318957721 -0.0023183361657239904 0 0.00064068935769119909 -0.0022772954819222958 0 0.00068553830659291378 -0.0021718960430541223 0 0.00016482199376385026 -0.0002609230724927228 0 0.00023146065827348928 -0.00042528351852907302 0 0.00016778774202570379 -0.00034894636203067111 0 -0.00046544555711423358 -0.0028010843243378276 0 -0.00044651508620257251 -0.0026053061093371083 0 -0.00038196788199740603 -0.0026847093423115636 0 -0.00058767111193925561 -0.00080058116386683825 0 -0.0004993543722475464 -0.0007894532839440759 0 -0.00057205598986640436 -0.00091564386447881303 0 2.9290049726234963e-05 -0.0021331883778587641 0 8.8414695260928064e-05 -0.0023047041477367914 0 -1.854424303001558e-05 -0.0022712315644727002 0 -0.00037462648020235843 -0.0015369809609958145 0 -0.00047310822552405231 -0.0016507073900468682 0 -0.00044628409841873082 -0.0014678530874569589 0 0.0003752894237965307 -0.0014366810302424513 0 0.00045586834372899986 -0.0013529016402226198 0 0.00045027339874771091 -0.0015221835127744924 0 -2.4848047930198425e-05 -0.00079161712843649548 0 -5.9886732439554159e-05 -0.00065310039308360223 0 9.8152668504624492e-06 -0.00067943111651737765 0 0.00031905394566064758 -0.0016692348368383817 0 0.00022915287457263614 -0.0016564714485566676 0 0.00027373575020047633 -0.0014870309574397476 0 9.4180072228248213e-05 -0.00090975816211160689 0 0.0001572585969575445 -0.00095308589469817243 0 8.0495221648949202e-05 -0.0010535051300061269 0 -0.00016948970998910298 -0.0014351489548464977 0 -0.00014049637284144356 -0.0012876887323828433 0 -7.186119789917652e-05 -0.0013714664448792166 0 0.00027624839265144254 -0.0026456994747630145 0 0.00023540244500185395 -0.0024723989189259369 0 0.00033370868630712121 -0.0025549753806145634 0 -0.0006648781074627873 -0.0019929396107007057 0 -0.00057037083818144293 -0.0019117468938449744 0 -0.00061529517959152727 -0.0020829369958201911 0 0.0005931037094048904 -0.0010853857165908944 0 0.00051529998480026747 -0.0011258888889968033 0 0.00052569091131569759 -0.00097284346507876601 0 -0.00012556979184683411 -0.00037233028770464622 0 -0.00013746946513540383 -0.0005148854107463218 0 -0.00017840712473916998 -0.00045523410222103388 0 0.00020042862089115896 -0.0031630494020481697 0 0.00018568437386979816 -0.0030237257410884936 0 0.00027350326873035581 -0.0030154620696517661 0 -0.00092995016488253419 -0.0019007931272272476 0 -0.00086002687773552831 -0.0018721216268212184 0 -0.00085926058411070277 -0.0020109605073631385 0 0.00087398389431194161 -0.0013021657487152505 0 0.00081130018463822337 -0.0012997671034696296 0 0.00078304087793337014 -0.0011645064598463141 0 -6.4403251842547679e-09 -1.0832619423583516e-07 0 -2.4358603127661461e-05 -8.7971518440260274e-05 0 -3.8148261347602178e-05 -9.421321948556083e-05 0 0.00029796930475031074 -0.0019590832041130636 0 0.00021967110951479654 -0.0018378280619494949 0 0.00030179119177982562 -0.0017970521965496606 0 0.00023546330094499827 -0.00096665984615650026 0 0.00017603679507770172 -0.0011010806740458928 0 0.0001572585969575445 -0.00095308589469817243 0 0.00012910500451902254 -0.0019293250679361597 0 0.00021425133067998127 -0.0020329098717700301 0 0.00013934149459531806 -0.0021341681781843758 0 -0.0002716174940597002 -0.0017010605552855685 0 -0.00032729030758461852 -0.0018445064700544438 0 -0.00037834358333849421 -0.0017196184447510678 0 0.0002539452137700346 -0.0012481712438084742 0 0.00028541728047457287 -0.0011148090286920128 0 0.00035500334285354151 -0.0012539344929145507 0 -0.00011175268339983361 -0.00099487704632268453 0 -0.00017497047445214696 -0.00091537265247751214 0 -0.00010569425770222347 -0.00081446569991857059 0 9.2984099235308432e-09 -1.0622034465900243e-07 0 2.8667483589077191e-05 -7.043953660879308e-05 0 3.8974441822607122e-05 -0.00013289342951354019 0 0.00092970891030384024 -0.0019010565876823719 0 0.00087724217179460738 -0.002008767531768269 0 0.00082782376506089375 -0.0019045872920064591 0 -0.00087454670306918168 -0.0013024765997062954 0 -0.00080088185051682031 -0.0011752447568619145 0 -0.00077371073400690511 -0.001253311900494048 0 -0.00020061639535284259 -0.0031630545973447121 0 -0.0002717436135683647 -0.0030517875486511729 0 -0.00020873067215855894 -0.0029587687243675651 0 -6.6562824106066057e-08 -0.0024166111468794786 0 -1.854424303001558e-05 -0.0022712315644727002 0 8.8414695260928064e-05 -0.0023047041477367914 0 -0.00052741019924553128 -0.0015131822208566102 0 -0.00044628409841873082 -0.0014678530874569589 0 -0.00047310822552405231 -0.0016507073900468682 0 0.00052717683483050255 -0.0015132595802874139 0 0.00045027339874771091 -0.0015221835127744924 0 0.00045586834372899986 -0.0013529016402226198 0 -1.1617811487408815e-07 -0.00055384625215541502 0 9.8152668504624492e-06 -0.00067943111651737765 0 -5.9886732439554159e-05 -0.00065310039308360223 0 -0.00020779274589119768 -0.0022982907390448276 0 -0.00013286578361118486 -0.0024184019698785821 0 -0.00022374735420452552 -0.0024977074751145758 0 -0.00043038142526122931 -0.0011512178684825475 0 -0.00050954061137647598 -0.0012915028367955219 0 -0.00053187907632787248 -0.0011493272946794912 0 0.00047331574009229515 -0.0018517132865885026 0 0.00053775704118202961 -0.0017352469128137159 0 0.00058371439256145647 -0.0018939930294118374 0 0.00014305616057666952 -0.00066659322052190569 0 8.0670018124084575e-05 -0.00055371859875312144 0 0.00012627927357838965 -0.00049279070941481411 0 0.00054505388646375308 -0.0022230728952495008 0 0.00048726630724816255 -0.0023116629111955551 0 0.00046901755801788788 -0.0021934935142765661 0 -0.00042043429702581938 -0.0024320088836918023 0 -0.00047438586787122494 -0.0023333491971526282 0 -0.00040763057723018582 -0.0022969433833017984 0 0.00026812106961744139 -0.00057632002490324295 0 0.00033635517413460868 -0.00067995208993937783 0 0.00029172445688978614 -0.00069941915496077789 0 -0.00042623128518380865 -0.00080808146424137016 0 -0.00035281236689335715 -0.00070501962694754258 0 -0.00036607068492394002 -0.00081350388952874996 0 -1.5944052604305923e-05 -0.0017682909935149002 0 5.9542733860306813e-05 -0.0016415347180372597 0 6.9195590524764698e-05 -0.0018064773324673134 0 -0.00016948970998910298 -0.0014351489548464977 0 -7.1861197899176506e-05 -0.0013714664448792166 0 -8.9858365702496598e-05 -0.0015128708115491193 0 0.00033167165092781221 -0.0024183550715726832 0 0.00033370868630712121 -0.0025549753806145634 0 0.00023540244500185395 -0.0024723989189259369 0 -0.0005397923798033075 -0.002070682211716001 0 -0.00061529517959152727 -0.0020829369958201911 0 -0.00057037083818144293 -0.0019117468938449744 0 0.00045624426159239219 -0.0009563731681047306 0 0.00052569091131569759 -0.00097284346507876601 0 0.00051529998480026747 -0.0011258888889968033 0 -0.00020989715890640647 -0.00057466100632642492 0 -0.00017840712473916998 -0.00045523410222103388 0 -0.00013746946513540383 -0.0005148854107463218 0 0.00036235690495981979 -0.0004595830569725879 0 0.00045722414703929122 -0.00054774167819609664 0 0.0004672218453626689 -0.00064924730262801405 0 -0.00035973875994660273 -0.00045591672966465878 0 -0.00025779641530052956 -0.00032351256241854628 0 -0.00026490758698294667 -0.00039274435421286753 0 0.00016814134765822983 -0.0014031234531172063 0 0.00023393264972802253 -0.0013526163405065779 0 0.00027373575020047633 -0.0014870309574397476 0 0.00018340516448044159 -0.0015297692555572802 0 0.00016814134765822983 -0.0014031234531172063 0 0.00027373575020047633 -0.0014870309574397476 0 6.8151700625850934e-05 -0.0027741459486193571 0 8.0252875644868101e-05 -0.0026310716280103629 0 0.00016398755348411321 -0.002723388552240677 0 0.00013399790222882392 -0.0025460130252213161 0 0.00016398755348411321 -0.002723388552240677 0 8.0252875644868101e-05 -0.0026310716280103629 0 -0.00072465146579125614 -0.0016645948759610634 0 -0.00064972724599371369 -0.0016690160805712519 0 -0.00070398265874072172 -0.0018148733541714201 0 -0.00060743563390272873 -0.0017490348870765318 0 -0.00070398265874072172 -0.0018148733541714201 0 -0.00064972724599371369 -0.0016690160805712519 0 0.00070878433788924518 -0.0014453486598993961 0 0.0006316040568906283 -0.0014061335626041167 0 0.00066472186400864323 -0.0012830466747282131 0 0.00057720012933365017 -0.0013058378213410781 0 0.00066472186400864323 -0.0012830466747282131 0 0.0006316040568906283 -0.0014061335626041167 0 -2.3892189641801433e-05 -0.00026379374227153819 0 -3.5771152633669437e-05 -0.0003766293427384559 0 -6.3790505153586425e-05 -0.00030459005381732406 0 -6.936501682010981e-05 -0.00044677796657343087 0 -6.3790505153586439e-05 -0.00030459005381732406 0 -3.5771152633669437e-05 -0.0003766293427384559 0 0.00039534853146621951 -0.002643412619923082 0 0.0004034194181136944 -0.0028363318485142264 0 0.00033423464664543407 -0.0027641468577436039 0 -0.00066298398767916872 -0.0021922240167601302 0 -0.00076688955862835352 -0.0022161134703612517 0 -0.00072861345266867362 -0.0020971245941924766 0 0.00054441790350998509 -0.0008849813751821711 0 0.00063571760801047622 -0.00091081607424819825 0 0.00063360439082667665 -0.0010114283186476063 0 -0.00018837131972941016 -0.00038610906661725933 0 -0.0001297085707425795 -0.00023544582496112597 0 -0.00012276804604049887 -0.0002818656808858166 0 0.00065738047037402104 -0.0024220069295998667 0 0.00055808357284570177 -0.0023656020320320958 0 0.00064068935769119909 -0.0022772954819222958 0 -0.00052968340840016121 -0.0026397427655910077 0 -0.00050208077059211184 -0.0024601063230210991 0 -0.00044651508620257251 -0.0026053061093371083 0 0.00027030933465842265 -0.0004062737187666969 0 0.0003187285988218337 -0.00056199252980103625 0 0.00023146065827348928 -0.00042528351852907302 0 -0.00046334125087349481 -0.00065131461081644349 0 -0.00039733342060384324 -0.00066858925865526651 0 -0.0004993543722475464 -0.0007894532839440759 0 0.00059121239637738732 -0.00078734969798864649 0 0.0005270463344472469 -0.00077524635779923701 0 0.0004672218453626689 -0.00064924730262801405 0 -0.00016002347629057669 -0.00024638405549585015 0 -0.00021341662994411721 -0.00036198107001414443 0 -0.00026490758698294667 -0.00039274435421286753 0 -4.6489591451424915e-06 -0.0026191582536795794 0 -9.2377216815993965e-05 -0.0026724416939643966 0 -6.7737528735820675e-05 -0.0025104743825588374 0 -0.00063610805126260075 -0.0015285812035385616 0 -0.00065220033231694005 -0.0013919644485942189 0 -0.00056981231299828815 -0.0014114522209487824 0 0.00063691749885029286 -0.0015435909252592757 0 0.0006728277998433146 -0.0016929517064410778 0 0.00058418791851854194 -0.0016357072689784217 0 2.6310102796727119e-06 -0.00038365421150423972 0 3.9792869686698872e-05 -0.00034213189980245045 0 3.7015282991216043e-05 -0.00047341571473105817 0 2.9290049726234963e-05 -0.0021331883778587641 0 -4.3207220412002446e-05 -0.0020224909964134744 0 2.2955097203641704e-05 -0.0019387993580709279 0 -0.00037462648020235843 -0.0015369809609958145 0 -0.00030974441974719521 -0.0014068688043819774 0 -0.00026967385413939794 -0.0015119805334457583 0 0.00020339008400489485 -0.0026037156352431466 0 0.00027624839265144254 -0.0026456994747630145 0 0.00024721770847688213 -0.0027528368435292159 0 -0.0006410805955550284 -0.0018690605797796541 0 -0.0006648781074627873 -0.0019929396107007057 0 -0.00072172984345370201 -0.0019530949210268976 0 0.00059224101436214209 -0.0011991337290451556 0 0.0005931037094048904 -0.0010853857165908944 0 0.0006582071926280453 -0.0011526109856438453 0 -9.7036235851898339e-05 -0.00040227535856437709 0 -0.00012556979184683411 -0.00037233028770464622 0 -9.090450960753893e-05 -0.00028554291606395756 0 0.0003752894237965307 -0.0014366810302424513 0 0.00027373575020047633 -0.0014870309574397476 0 0.00030296417043168712 -0.0013649843618682798 0 0.00014214276853938813 -0.0016112405257468331 0 5.9542733860306813e-05 -0.0016415347180372597 0 0.00010285896877344663 -0.0014938738324857832 0 6.1925555657933813e-06 -0.001464434327510565 0 1.3736219502959544e-05 -0.0012934942233453202 0 8.8806983103874299e-05 -0.0013481605766023012 0 0.00016398755348411321 -0.002723388552240677 0 0.00020339008400489483 -0.0026037156352431466 0 0.00024721770847688213 -0.0027528368435292159 0 -0.00070398265874072172 -0.0018148733541714201 0 -0.0006410805955550284 -0.0018690605797796541 0 -0.00072172984345370201 -0.0019530949210268976 0 0.00066472186400864323 -0.0012830466747282131 0 0.00059224101436214209 -0.0011991337290451556 0 0.0006582071926280453 -0.0011526109856438453 0 -6.3790505153586425e-05 -0.00030459005381732406 0 -9.7036235851898339e-05 -0.00040227535856437709 0 -9.090450960753893e-05 -0.00028554291606395756 0 -0.0002716174940597002 -0.0017010605552855685 0 -0.00026967385413939794 -0.0015119805334457583 0 -0.00019237781026185648 -0.0015850645839550108 0 -0.00013723315116875455 -0.0025583181340934642 0 -6.7737528735820675e-05 -0.0025104743825588374 0 -9.2377216815993965e-05 -0.0026724416939643966 0 -0.00058333158242833253 -0.001302460239247753 0 -0.00056981231299828815 -0.0014114522209487824 0 -0.00065220033231694005 -0.0013919644485942189 0 0.00061411652850056932 -0.0017553755188742094 0 0.00058418791851854194 -0.0016357072689784217 0 0.0006728277998433146 -0.0016929517064410778 0 7.0114391259925012e-05 -0.00043547459978761143 0 3.7015282991216043e-05 -0.00047341571473105817 0 3.9792869686698872e-05 -0.00034213189980245045 0 0.00059121239637738732 -0.00078734969798864649 0 0.00053719825005518447 -0.00065788684395319216 0 0.00064216703619343575 -0.00075652969062697112 0 0.00051836740217973932 -0.00056591711661410757 0 0.00064216703619343575 -0.00075652969062697112 0 0.00053719825005518447 -0.00065788684395319216 0 -0.00016002347629057669 -0.00024638405549585015 0 -0.0001916094395941084 -0.0002548851160691519 0 -9.7788479229342265e-05 -0.00012485675006798842 0 -0.00017578565147336188 -0.00019702867595228649 0 -9.7788479229342265e-05 -0.00012485675006798842 0 -0.0001916094395941084 -0.0002548851160691519 0 6.1925555657933813e-06 -0.001464434327510565 0 8.8806983103874299e-05 -0.0013481605766023012 0 0.00010285896877344663 -0.0014938738324857832 0 -0.00035973875994660273 -0.00045591672966465878 0 -0.00045814799417229424 -0.00054789578564332639 0 -0.00038529897139833889 -0.00041800378635593275 0 0.00036235690495981979 -0.0004595830569725879 0 0.00025687363926780001 -0.00032151131120598971 0 0.00029714468300811719 -0.00032638625840598396 0 0.00047517620882381274 -0.002866523596386299 0 0.00047359728525257598 -0.0027123217118088208 0 0.00054734870496896322 -0.0027996779598170284 0 0.00055183208634807207 -0.0026330654198268707 0 0.00054734870496896322 -0.0027996779598170284 0 0.00047359728525257598 -0.0027123217118088208 0 -0.00078190774728569543 -0.0023375982656998837 0 -0.00069894525044329812 -0.0023288570029902666 0 -0.00074459910843332848 -0.0024586907091189258 0 -0.00065324814058486617 -0.0024602172639893662 0 -0.00074459910843332848 -0.0024586907091189258 0 -0.00069894525044329812 -0.0023288570029902666 0 0.00018308907329321283 -0.00020048612305015602 0 0.00018128516800150347 -0.00024258136167337456 0 9.9297509682313263e-05 -0.00012699440008877172 0 -0.00051059230716432417 -0.000554153071190023 0 -0.00055021173056940792 -0.000672981544114903 0 -0.00064486981702591649 -0.00076413312188149205 0 0.00080032223815788264 -0.0025863194615844873 0 0.000773718555993518 -0.0024559322063709222 0 0.00084491916311708838 -0.0024254693157829085 0 -0.00061963412913276349 -0.002905096065880095 0 -0.00054497272696982615 -0.002854244740895363 0 -0.00052551637765788182 -0.0029863130011060913 0 0.00016482199376385026 -0.0002609230724927228 0 9.9297509682313263e-05 -0.00012699440008877172 0 0.00018128516800150347 -0.00024258136167337456 0 -0.00058767111193925561 -0.00080058116386683825 0 -0.00064486981702591649 -0.00076413312188149205 0 -0.00055021173056940792 -0.000672981544114903 0 0.00074710854318957721 -0.0023183361657239904 0 0.00084491916311708838 -0.0024254693157829085 0 0.000773718555993518 -0.0024559322063709222 0 -0.00046544555711423358 -0.0028010843243378276 0 -0.00052551637765788182 -0.0029863130011060913 0 -0.00054497272696982615 -0.002854244740895363 0 0.00046901755801788788 -0.0021934935142765661 0 0.00041559228621831782 -0.0023325114119043381 0 0.00039730282448594792 -0.0021739051487354769 0 0.00048726630724816255 -0.0023116629111955551 0 0.00041559228621831782 -0.0023325114119043381 0 0.00046901755801788788 -0.0021934935142765661 0 -0.00040763057723018582 -0.0022969433833017984 0 -0.00048951101186692106 -0.0022093603309912349 0 -0.00039958272953192044 -0.0021704993968778507 0 -0.00047438586787122494 -0.0023333491971526282 0 -0.00048951101186692106 -0.0022093603309912349 0 -0.00040763057723018582 -0.0022969433833017984 0 0.00029172445688978614 -0.00069941915496077789 0 0.00037984558111922996 -0.00080294037148084612 0 0.00031145692753614169 -0.0008175021703749455 0 0.00033635517413460868 -0.00067995208993937783 0 0.00037984558111922996 -0.00080294037148084612 0 0.00029172445688978614 -0.00069941915496077789 0 -0.00036607068492394002 -0.00081350388952874996 0 -0.00028939937282315866 -0.00066651641484550715 0 -0.00030850161511381414 -0.00081403907780327556 0 -0.00035281236689335715 -0.00070501962694754269 0 -0.00028939937282315866 -0.00066651641484550715 0 -0.00036607068492394002 -0.00081350388952874996 0 0.00074710854318957721 -0.0023183361657239904 0 0.00068553830659291378 -0.0021718960430541223 0 0.00076532230013092047 -0.0021770188284977688 0 -0.00046544555711423358 -0.0028010843243378276 0 -0.00038196788199740603 -0.0026847093423115636 0 -0.00038013386232047956 -0.0028336138125431365 0 0.00016482199376385026 -0.0002609230724927228 0 0.00016778774202570379 -0.00034894636203067111 0 0.00012095996493773923 -0.00023078164705873298 0 -0.00058767111193925561 -0.00080058116386683825 0 -0.00057205598986640436 -0.00091564386447881313 0 -0.00064949245999238088 -0.00095173421371141367 0 0.00016814134765822983 -0.0014031234531172063 0 8.8806983103874299e-05 -0.0013481605766023012 0 0.00016974940355828243 -0.0012631542245631262 0 0.0002539452137700346 -0.0012481712438084742 0 0.00035500334285354151 -0.0012539344929145507 0 0.00030296417043168712 -0.0013649843618682798 0 0.0003752894237965307 -0.0014366810302424513 0 0.00030296417043168712 -0.0013649843618682798 0 0.00035500334285354151 -0.0012539344929145507 0 0.0006377951039568552 -0.0026110463449468204 0 0.00060881619247554275 -0.0027370428469832642 0 0.00055183208634807207 -0.0026330654198268707 0 -0.00063799479004637036 -0.0026109781623901043 0 -0.00070900709259087116 -0.0025633678540933932 0 -0.00065324814058486617 -0.0024602172639893662 0 0.0004672218453626689 -0.00064924730262801405 0 0.00045722414703929122 -0.00054774167819609664 0 0.00053719825005518447 -0.00065788684395319216 0 -0.00026490758698294667 -0.00039274435421286753 0 -0.00025779641530052956 -0.00032351256241854628 0 -0.0001916094395941084 -0.0002548851160691519 0 0.00029953939932977143 -0.00027034971918741451 0 0.00023608202602568671 -0.00023220394246200934 0 0.00014291703195362104 -0.00013556277874378112 0 -0.00030266176652944091 -0.00027440825040555048 0 -0.00041496568741501163 -0.00041636781686666058 0 -0.00046059483272706915 -0.00044211272480495372 0 0.000664663772620891 -0.0019929878706092881 0 0.00074384927690344103 -0.0019460258091672481 0 0.00073442644348290854 -0.002076417927364562 0 0.00012553306626968697 -0.00037310424492383704 0 8.0336721374808884e-05 -0.0002527672944927796 0 0.00011551206871534745 -0.00027226150793481946 0 -0.00027642254483493294 -0.0026457131927966858 0 -0.00024121449835582727 -0.00279498378828356 0 -0.00032137514634921236 -0.0027755131306065571 0 -0.00059335209805742124 -0.0010848637883773223 0 -0.00068182458026902807 -0.0011704547020758168 0 -0.00064405314548468214 -0.0010356536442611979 0 0.00018308907329321283 -0.00020048612305015602 0 0.00029714468300811719 -0.00032638625840598396 0 0.00025687363926780001 -0.00032151131120598971 0 -0.00051059230716432417 -0.000554153071190023 0 -0.00038529897139833889 -0.00041800378635593275 0 -0.0004581479941722943 -0.00054789578564332639 0 0.00049392305384894837 -0.0031710705147341869 0 0.00039745251216996043 -0.0031679293572703321 0 0.000429979098807602 -0.0030061759491073325 0 -0.00094155342121990978 -0.0023726043511795797 0 -0.00093878425160138655 -0.0022135147499834514 0 -0.00085601778982667416 -0.002265961913920248 0 0.00075300193618619226 -0.00087818256039020226 0 0.00080470399371365849 -0.001019435827602434 0 0.00070918265775175382 -0.00091910468230172739 0 -1.5629572183058475e-08 -1.0650612943191586e-07 0 -1.0308857890207645e-08 -1.1012058521348949e-07 0 -7.0720883268101672e-05 -0.00011142829990574461 0 0.00010049107583881975 -0.0031615508873316495 0 3.0053470553171042e-05 -0.0030346351761722894 0 0.00010574275386776208 -0.0029864152040884129 0 -0.0009225981189462198 -0.0017471430820200015 0 -0.00085364829547211556 -0.0016306043974661773 0 -0.00083582993104937774 -0.0017442248513798054 0 0.00089589472492623585 -0.001448527479782011 0 0.00084605649702635245 -0.001538841766752731 0 0.0008093305866090822 -0.0014170273786759315 0 -3.3804002510200792e-09 -1.0639035379366119e-07 0 -3.0400208955632555e-06 -7.8903821559247404e-05 0 -1.6332369320533444e-05 -0.00011396158240601538 0 -2.2057459978833222e-06 -0.0010276471045942454 0 2.3540383385898405e-05 -0.0009038359079503105 0 8.0495221648949202e-05 -0.0010535051300061269 0 0.00080032223815788264 -0.0025863194615844873 0 0.00074923194878838482 -0.0026971556067237981 0 0.00072481884739569735 -0.0025557187449308564 0 -0.00061963412913276349 -0.002905096065880095 0 -0.0006834633932435054 -0.0028133325178847039 0 -0.0006041902102876766 -0.0027661753998609422 0 6.1925555657933813e-06 -0.001464434327510565 0 0.00010285896877344663 -0.0014938738324857832 0 5.9542733860306813e-05 -0.0016415347180372597 0 0.00073705250000620601 -0.001227686489194081 0 0.00081130018463822337 -0.0012997671034696296 0 0.00073904511963467285 -0.0013485242529432801 0 0.0008093305866090822 -0.0014170273786759315 0 0.00073904511963467285 -0.0013485242529432801 0 0.00081130018463822337 -0.0012997671034696296 0 0.00068122756121700696 -0.0031769440644861509 0 0.00063641747725382935 -0.0030305896480282866 0 0.00071024917233146066 -0.0030051660603631954 0 -0.00094520498960704588 -0.0026946830060127938 0 -0.00086754023865828593 -0.0026169086216588683 0 -0.00085329942346823028 -0.0027468282164838593 0 -0.00061963412913276349 -0.002905096065880095 0 -0.00062341373055147344 -0.0030452851906505765 0 -0.00070052238379951135 -0.0029831202481859619 0 0.00080032223815788264 -0.0025863194615844873 0 0.00087522764726710321 -0.0025939264483600564 0 0.00084142008714734571 -0.0027292232889052168 0 -0.00051059230716432417 -0.000554153071190023 0 -0.00058703466358633698 -0.00061629824803583269 0 -0.00046059483272706915 -0.00044211272480495372 0 0.00018308907329321283 -0.00020048612305015602 0 8.4621919530092682e-05 -8.9639867277607993e-05 0 0.00014291703195362104 -0.00013556277874378112 0 -0.00068140334005762357 -0.003176924769462572 0 -0.00070052238379951135 -0.0029831202481859619 0 -0.00062341373055147344 -0.0030452851906505765 0 0.00094503756935591758 -0.002694797035224759 0 0.00084142008714734571 -0.0027292232889052168 0 0.00087522764726710321 -0.0025939264483600564 0 -0.0005943663989078856 -0.00059189372873066459 0 -0.0004605948327270692 -0.00044211272480495378 0 -0.00058703466358633698 -0.00061629824803583269 0 2.020406211108451e-08 -1.0110671270874412e-07 0 0.00014291703195362104 -0.00013556277874378112 0 8.4621919530092682e-05 -8.9639867277607993e-05 0 0.00059546591381447829 -0.00059116867819846786 0 0.00058830557464848679 -0.00061896968326413454 0 0.0004645465857672519 -0.00045021290298310991 0 -2.0031618068789184e-08 -9.994166290471167e-08 0 -8.5289230582347733e-05 -8.9941461050471711e-05 0 -0.00015219992420105759 -0.00014532851430842372 0 0.00051836740217973932 -0.00056591711661410757 0 0.0004645465857672519 -0.00045021290298310991 0 0.00058830557464848679 -0.00061896968326413454 0 -0.00017578565147336188 -0.00019702867595228649 0 -0.00015219992420105759 -0.00014532851430842372 0 -8.5289230582347733e-05 -8.9941461050471711e-05 0 -0.00018329462503054219 -0.0018606841578822451 0 -9.7024291475312444e-05 -0.0017499670650583086 0 -8.8271264669958376e-05 -0.0018963926426639876 0 6.1925555657933813e-06 -0.001464434327510565 0 5.9542733860306813e-05 -0.0016415347180372597 0 -3.922844464815703e-05 -0.0016267247798338082 0 -0.00030340980566313553 -0.0012818879572845325 0 -0.00034050615626599236 -0.001129365449321387 0 -0.00025669367352354385 -0.0011497384649079348 0 -0.00025445109091786676 -0.0010000306081998341 0 -0.00025669367352354385 -0.0011497384649079348 0 -0.00034050615626599236 -0.001129365449321387 0 -0.00018925145587432468 -0.0011960902147283826 0 -0.00018530533471983662 -0.0010681497938282753 0 -0.00012466732869755051 -0.0011486842392145345 0 9.4180072228248213e-05 -0.00090975816211160689 0 8.0495221648949202e-05 -0.0010535051300061269 0 2.3540383385898405e-05 -0.0009038359079503105 0 0.000664663772620891 -0.0019929878706092881 0 0.00073442644348290854 -0.002076417927364562 0 0.00068553830659291378 -0.0021718960430541223 0 0.00012553306626968697 -0.00037310424492383704 0 0.00011551206871534745 -0.00027226150793481946 0 0.00016778774202570379 -0.00034894636203067111 0 -0.00027642254483493294 -0.0026457131927966858 0 -0.00032137514634921236 -0.0027755131306065571 0 -0.00038196788199740603 -0.0026847093423115636 0 -0.00059335209805742124 -0.0010848637883773223 0 -0.00064405314548468214 -0.0010356536442611979 0 -0.00057205598986640436 -0.00091564386447881303 0 -0.00016948970998910298 -0.0014351489548464977 0 -0.00019237781026185648 -0.0015850645839550108 0 -0.00026967385413939794 -0.0015119805334457583 0 -0.00013723315116875455 -0.0025583181340934642 0 -0.00022374735420452552 -0.0024977074751145758 0 -0.00013286578361118486 -0.0024184019698785825 0 0.00061411652850056932 -0.0017553755188742094 0 0.00058371439256145647 -0.0018939930294118374 0 0.00053775704118202961 -0.0017352469128137159 0 -0.00058333158242833253 -0.001302460239247753 0 -0.00053187907632787248 -0.0011493272946794912 0 -0.00050954061137647598 -0.0012915028367955219 0 7.0114391259925012e-05 -0.00043547459978761143 0 0.00012627927357838965 -0.00049279070941481411 0 8.0670018124084575e-05 -0.00055371859875312133 0 0.00071024917233146066 -0.0030051660603631954 0 0.00063641747725382946 -0.0030305896480282866 0 0.00068505882276623058 -0.0028902134276422172 0 -0.00085329942346823028 -0.0027468282164838593 0 -0.00086754023865828593 -0.0026169086216588683 0 -0.00079136841163466134 -0.0027014804388205233 0 0.00061712509018875918 -0.0028877393130083691 0 0.00068505882276623058 -0.0028902134276422172 0 0.00063641747725382946 -0.0030305896480282866 0 -0.00079126229648453521 -0.0025818472620629833 0 -0.00079136841163466134 -0.0027014804388205233 0 -0.00086754023865828593 -0.0026169086216588683 0 0.00054505388646375308 -0.0022230728952495008 0 0.00064068935769119909 -0.0022772954819222958 0 0.00055808357284570177 -0.0023656020320320958 0 -0.00042043429702581938 -0.0024320088836918023 0 -0.00044651508620257251 -0.0026053061093371083 0 -0.00050208077059211184 -0.0024601063230210991 0 0.00026812106961744139 -0.00057632002490324295 0 0.00023146065827348928 -0.00042528351852907302 0 0.0003187285988218337 -0.00056199252980103625 0 -0.00042623128518380865 -0.00080808146424137016 0 -0.0004993543722475464 -0.0007894532839440759 0 -0.00039733342060384324 -0.00066858925865526651 0 8.7998167894428049e-05 -0.0012023633162733796 0 1.3736219502959544e-05 -0.0012934942233453202 0 8.5632993322870226e-06 -0.0011478124639405932 0 8.7998167894428049e-05 -0.0012023633162733796 0 0.00016974940355828243 -0.0012631542245631262 0 8.8806983103874299e-05 -0.0013481605766023012 0 0.00061712509018875918 -0.0028877393130083691 0 0.00060881619247554275 -0.0027370428469832642 0 0.00068068186118392456 -0.0027717727044979826 0 -0.00079126229648453521 -0.0025818472620629833 0 -0.00070900709259087116 -0.0025633678540933932 0 -0.00072663300976025767 -0.0026911914083143835 0 0.00065738047037402104 -0.0024220069295998667 0 0.00057273531035746 -0.0024985147121469849 0 0.00055808357284570177 -0.0023656020320320958 0 -0.00052968340840016121 -0.0026397427655910077 0 -0.00057698726117697203 -0.0024916965970761757 0 -0.00050208077059211184 -0.0024601063230210991 0 0.00027030933465842265 -0.0004062737187666969 0 0.00037129244325170244 -0.00056080406495685091 0 0.0003187285988218337 -0.00056199252980103625 0 -0.00046334125087349481 -0.00065131461081644349 0 -0.00035420544773971462 -0.00053873582901163911 0 -0.00039733342060384324 -0.00066858925865526651 0 0.0003881747003075727 -0.0017293407532743895 0 0.00030179119177982562 -0.0017970521965496606 0 0.00031905394566064758 -0.0016692348368383817 0 0.00037574803321033966 -0.0018637420247207283 0 0.00030179119177982562 -0.0017970521965496606 0 0.0003881747003075727 -0.0017293407532743895 0 0.00010769300666603961 -0.00079822259649033089 0 0.0001572585969575445 -0.00095308589469817243 0 9.4180072228248213e-05 -0.00090975816211160689 0 0.00017167523426776115 -0.00082977107311471771 0 0.0001572585969575445 -0.00095308589469817243 0 0.00010769300666603961 -0.00079822259649033089 0 0.00010574275386776208 -0.0029864152040884129 0 0.0001366834627577912 -0.0028638045562293479 0 0.00018568437386979816 -0.0030237257410884936 0 0.00021723970079602425 -0.0028881304873487595 0 0.00018568437386979816 -0.0030237257410884936 0 0.0001366834627577912 -0.0028638045562293479 0 -0.00083582993104937774 -0.0017442248513798054 0 -0.00077577252296041584 -0.0017829611689884688 0 -0.00086002687773552831 -0.0018721216268212184 0 -0.00079208400621854551 -0.001913720217294586 0 -0.00086002687773552831 -0.0018721216268212184 0 -0.00077577252296041584 -0.0017829611689884688 0 -1.6332369320533444e-05 -0.00011396158240601538 0 -3.6235005203777094e-05 -0.00019931560636697655 0 -2.4358603127661461e-05 -8.7971518440260274e-05 0 -5.3654218500434398e-05 -0.0001820477947993305 0 -2.4358603127661464e-05 -8.7971518440260274e-05 0 -3.6235005203777094e-05 -0.00019931560636697655 0 0.00012910500451902254 -0.0019293250679361597 0 8.002504331435321e-05 -0.0020380146935707511 0 2.2955097203641704e-05 -0.0019387993580709279 0 -0.0002716174940597002 -0.0017010605552855685 0 -0.00032381872547132372 -0.0016171887178357176 0 -0.00026967385413939794 -0.0015119805334457583 0 2.9290049726234963e-05 -0.0021331883778587641 0 2.2955097203641704e-05 -0.0019387993580709279 0 8.002504331435321e-05 -0.0020380146935707511 0 -0.00037462648020235843 -0.0015369809609958145 0 -0.00026967385413939794 -0.0015119805334457583 0 -0.00032381872547132372 -0.0016171887178357176 0 0.00076996497466705859 -0.0028580096892883672 0 0.00071024917233146066 -0.0030051660603631954 0 0.00068505882276623058 -0.0028902134276422172 0 -0.00077290593775510106 -0.0028528674378668767 0 -0.00085329942346823028 -0.0027468282164838593 0 -0.00079136841163466134 -0.0027014804388205233 0 0.00018308907329321283 -0.00020048612305015602 0 0.00014291703195362104 -0.00013556277874378112 0 0.00023608202602568671 -0.00023220394246200934 0 -0.00051059230716432417 -0.000554153071190023 0 -0.00046059483272706915 -0.00044211272480495372 0 -0.00041496568741501163 -0.00041636781686666058 0 0.00035126787435600117 -0.0029349873999182027 0 0.0004034194181136944 -0.0028363318485142264 0 0.000429979098807602 -0.0030061759491073325 0 -0.00081884139928740799 -0.0021339779479724831 0 -0.00076688955862835352 -0.0022161134703612517 0 -0.00085601778982667416 -0.002265961913920248 0 0.00071405086182580314 -0.0010235246845794676 0 0.00063571760801047622 -0.00091081607424819825 0 0.00070918265775175382 -0.00091910468230172739 0 -7.6536467389066036e-05 -0.00015331989624935629 0 -0.00012970857074257953 -0.00023544582496112597 0 -7.0720883268101672e-05 -0.00011142829990574461 0 0.00019428972242569611 -0.0022964273916770846 0 0.00015008336276009734 -0.0024094347830058453 0 8.8414695260928064e-05 -0.0023047041477367914 0 -0.00047210963199138491 -0.0018292448334591362 0 -0.0005334572827195138 -0.0017637165572762649 0 -0.00047310822552405231 -0.0016507073900468682 0 0.00043231116352742625 -0.0011735279798425092 0 0.00050103979653776879 -0.0012609888965161408 0 0.00045586834372899986 -0.0013529016402226198 0 -0.00013460733425290635 -0.00066859378611138236 0 -9.2049195489087441e-05 -0.00056457799252022521 0 -5.9886732439554159e-05 -0.00065310039308360223 0 0.00012910500451902254 -0.0019293250679361597 0 6.9195590524764698e-05 -0.0018064773324673134 0 0.00014572966969531555 -0.0017515973534774152 0 0.00019428972242569611 -0.0022964273916770846 0 0.00013934149459531806 -0.0021341681781843753 0 0.00021392327111148616 -0.002165572986426808 0 -0.00047210963199138491 -0.0018292448334591362 0 -0.00037834358333849421 -0.0017196184447510678 0 -0.00039889455397934504 -0.001854000498180298 0 0.00043231116352742625 -0.0011735279798425092 0 0.00035500334285354151 -0.0012539344929145507 0 0.00035884211902367585 -0.0011266088360836922 0 -0.00013460733425290635 -0.00066859378611138236 0 -0.00010569425770222349 -0.00081446569991857059 0 -0.00016194278556206967 -0.00079088146025997153 0 -6.6562824106066057e-08 -0.0024166111468794786 0 8.8414695260928064e-05 -0.0023047041477367914 0 7.4747035203958382e-05 -0.0024875462780524792 0 -0.00052741019924553128 -0.0015131822208566102 0 -0.00047310822552405231 -0.0016507073900468682 0 -0.00057235371251511511 -0.001645082987527541 0 0.00052717683483050255 -0.0015132595802874139 0 0.00045586834372899986 -0.0013529016402226198 0 0.00055620693478650738 -0.001396721969729499 0 -1.1617811487408815e-07 -0.00055384625215541502 0 -5.9886732439554159e-05 -0.00065310039308360223 0 -4.1435238995776984e-05 -0.0004940153018773946 0 2.9290049726234963e-05 -0.0021331883778587641 0 8.002504331435321e-05 -0.0020380146935707511 0 0.00013934149459531806 -0.0021341681781843758 0 -0.00037462648020235843 -0.0015369809609958145 0 -0.00032381872547132372 -0.0016171887178357176 0 -0.00037834358333849421 -0.0017196184447510678 0 0.00012910500451902254 -0.0019293250679361597 0 0.00013934149459531806 -0.0021341681781843758 0 8.002504331435321e-05 -0.0020380146935707511 0 -0.0002716174940597002 -0.0017010605552855685 0 -0.00037834358333849421 -0.0017196184447510678 0 -0.00032381872547132372 -0.0016171887178357176 0 0.00021723970079602425 -0.0028881304873487595 0 0.00016398755348411321 -0.0027233885522406766 0 0.00024721770847688213 -0.0027528368435292159 0 -0.00079208400621854551 -0.001913720217294586 0 -0.00070398265874072172 -0.0018148733541714201 0 -0.00072172984345370201 -0.0019530949210268976 0 0.00073705250000620601 -0.001227686489194081 0 0.00066472186400864312 -0.0012830466747282131 0 0.0006582071926280453 -0.0011526109856438453 0 -5.3654218500434398e-05 -0.0001820477947993305 0 -6.3790505153586425e-05 -0.00030459005381732406 0 -9.090450960753893e-05 -0.00028554291606395756 0 5.3064299298891213e-06 -0.00014147067712877174 0 5.1212003961786887e-06 -6.1787214525058399e-05 0 1.6654385866777732e-05 -9.3185503950580996e-05 0 -0.0008004924177996191 -0.0015330814334125668 0 -0.00085596204236428053 -0.0015112084761672963 0 -0.00082126643113579684 -0.0013991689403450973 0 0.00080651595804999258 -0.0016159690345402126 0 0.00086843446178833886 -0.001663938236563959 0 0.00085078003000011013 -0.0017680569164638049 0 -2.6685611245572843e-05 -0.0029412713366421422 0 -5.0154411180219411e-05 -0.0030613950234528535 0 -0.00011975750949330015 -0.0030141414700690875 0 0.00013399790222882392 -0.0025460130252213161 0 8.0252875644868101e-05 -0.0026310716280103629 0 7.4747035203958382e-05 -0.0024875462780524792 0 -0.00060743563390272873 -0.0017490348870765318 0 -0.00064972724599371369 -0.0016690160805712519 0 -0.00057235371251511511 -0.001645082987527541 0 0.00057720012933365017 -0.0013058378213410781 0 0.0006316040568906283 -0.0014061335626041167 0 0.00055620693478650738 -0.001396721969729499 0 -6.936501682010981e-05 -0.00044677796657343087 0 -3.5771152633669437e-05 -0.0003766293427384559 0 -4.1435238995776984e-05 -0.0004940153018773946 0 6.1925555657933813e-06 -0.001464434327510565 0 -3.922844464815703e-05 -0.0016267247798338082 0 -8.9858365702496598e-05 -0.0015128708115491193 0 0.00047002224429989537 -0.0024902657986905262 0 0.00039124461464939324 -0.0024878929051277993 0 0.00041559228621831782 -0.0023325114119043381 0 -0.00057653796894850077 -0.0023116373389898168 0 -0.00057708069250437817 -0.0021765432862299121 0 -0.00048951101186692106 -0.0022093603309912349 0 0.00042882340665454115 -0.00073101018675933622 0 0.00046759965990872366 -0.00086472178534180064 0 0.00037984558111922996 -0.00080294037148084612 0 -0.0002853821601278103 -0.00053086377729311899 0 -0.00023275761112528481 -0.00052243461587351571 0 -0.00028939937282315866 -0.00066651641484550715 0 -0.00013723315116875455 -0.0025583181340934642 0 -0.0001888130976782341 -0.0026604624277806795 0 -0.00022374735420452552 -0.0024977074751145758 0 -0.00027642254483493294 -0.0026457131927966858 0 -0.00022374735420452552 -0.0024977074751145758 0 -0.0001888130976782341 -0.0026604624277806795 0 -0.00058333158242833253 -0.001302460239247753 0 -0.00062614102811370655 -0.0012322822803265364 0 -0.00053187907632787248 -0.0011493272946794912 0 0.00061411652850056932 -0.0017553755188742094 0 0.00067100330906813663 -0.0018493996632280357 0 0.00058371439256145647 -0.0018939930294118374 0 0.000664663772620891 -0.0019929878706092881 0 0.00058371439256145647 -0.0018939930294118374 0 0.00067100330906813663 -0.0018493996632280357 0 -0.00059335209805742124 -0.0010848637883773223 0 -0.00053187907632787248 -0.0011493272946794912 0 -0.00062614102811370655 -0.0012322822803265364 0 7.0114391259925012e-05 -0.00043547459978761143 0 8.137597910874578e-05 -0.00035502892848725503 0 0.00012627927357838965 -0.00049279070941481411 0 0.00012553306626968697 -0.00037310424492383704 0 0.00012627927357838965 -0.00049279070941481411 0 8.137597910874578e-05 -0.00035502892848725503 0 0.00029796930475031074 -0.0019590832041130636 0 0.00030179119177982562 -0.0017970521965496606 0 0.00037574803321033966 -0.0018637420247207283 0 0.00023546330094499827 -0.00096665984615650026 0 0.0001572585969575445 -0.00095308589469817243 0 0.00017167523426776115 -0.00082977107311471771 0 -0.00027630720586626836 -0.0019884568609160116 0 -0.00018595848859193843 -0.0019985995604252078 0 -0.0002242097051290758 -0.0021250931310003679 0 0.00076996497466705859 -0.0028580096892883672 0 0.00068068186118392445 -0.0027717727044979821 0 0.00074923194878838482 -0.0026971556067237981 0 -0.00077290593775510106 -0.0028528674378668767 0 -0.00072663300976025756 -0.0026911914083143831 0 -0.0006834633932435054 -0.0028133325178847039 0 0.00029953939932977143 -0.00027034971918741451 0 0.00040258650312836679 -0.00042618583400017999 0 0.00029714468300811719 -0.00032638625840598396 0 -0.00030266176652944091 -0.00027440825040555048 0 -0.00027603398209118492 -0.00029481715826551295 0 -0.00038529897139833889 -0.00041800378635593275 0 -0.00026967385413939794 -0.0015119805334457583 0 -0.00030974441974719521 -0.0014068688043819774 0 -0.00022746859997020981 -0.001329827191859121 0 0.0008099871524176683 -0.0020698152097588566 0 0.00084677974500749263 -0.0022466873342417244 0 0.00076532230013092047 -0.0021770188284977688 0 7.2473577654567594e-05 -0.0001633319184094334 0 7.3529311794407208e-05 -0.00011804025586291729 0 0.00012095996493773923 -0.00023078164705873298 0 -0.00031266384187396488 -0.0029188756229876411 0 -0.00041894639374722998 -0.0029890079584216881 0 -0.00038013386232047956 -0.0028336138125431365 0 -0.00072162293958860462 -0.0010813884876204032 0 -0.00070959513120636396 -0.00093163316144718718 0 -0.00064949245999238088 -0.00095173421371141367 0 -0.00012446146618288553 -0.0016391019425634049 0 -8.9858365702496584e-05 -0.0015128708115491193 0 -3.922844464815703e-05 -0.0016267247798338082 0 -0.00030340980566313553 -0.0012818879572845325 0 -0.00036880637195354512 -0.0012535712054590046 0 -0.00034050615626599236 -0.001129365449321387 0 0.00093854191882716993 -0.0022134287213730107 0 0.00084677974500749263 -0.0022466873342417244 0 0.00088200579998571965 -0.0021186379122109665 0 1.0253085051736124e-08 -1.116200688088409e-07 0 7.3529311794407222e-05 -0.00011804025586291731 0 3.6106494072235885e-05 -6.8180310885451701e-05 0 -0.00039765060942316351 -0.0031679219559449579 0 -0.00041894639374722998 -0.0029890079584216881 0 -0.00033991502579416394 -0.0030579252788555263 0 -0.00080422619925509561 -0.0010197433088883683 0 -0.00070959513120636396 -0.00093163316144718729 0 -0.00077899749397645156 -0.001073303117414437 0 0.00013399790222882392 -0.0025460130252213161 0 0.00015008336276009734 -0.0024094347830058453 0 0.00023540244500185395 -0.0024723989189259369 0 0.00019428972242569611 -0.0022964273916770846 0 0.00023540244500185398 -0.0024723989189259369 0 0.00015008336276009734 -0.0024094347830058453 0 -0.00047210963199138491 -0.0018292448334591362 0 -0.00057037083818144293 -0.0019117468938449744 0 -0.0005334572827195138 -0.0017637165572762649 0 -0.00060743563390272873 -0.0017490348870765318 0 -0.0005334572827195138 -0.0017637165572762649 0 -0.00057037083818144293 -0.0019117468938449744 0 0.00043231116352742625 -0.0011735279798425092 0 0.00051529998480026747 -0.0011258888889968033 0 0.00050103979653776879 -0.0012609888965161408 0 0.00057720012933365017 -0.0013058378213410781 0 0.00050103979653776879 -0.0012609888965161408 0 0.00051529998480026747 -0.0011258888889968033 0 -0.00013460733425290635 -0.00066859378611138236 0 -0.00013746946513540383 -0.0005148854107463218 0 -9.2049195489087441e-05 -0.00056457799252022521 0 -6.936501682010981e-05 -0.00044677796657343087 0 -9.2049195489087441e-05 -0.00056457799252022521 0 -0.00013746946513540383 -0.0005148854107463218 0 0.00027624839265144254 -0.0026456994747630145 0 0.00020339008400489485 -0.0026037156352431466 0 0.00023540244500185395 -0.0024723989189259369 0 -0.0006648781074627873 -0.0019929396107007057 0 -0.0006410805955550284 -0.0018690605797796541 0 -0.00057037083818144293 -0.0019117468938449744 0 0.0005931037094048904 -0.0010853857165908944 0 0.00059224101436214209 -0.0011991337290451556 0 0.00051529998480026747 -0.0011258888889968033 0 -0.00012556979184683411 -0.00037233028770464622 0 -9.7036235851898339e-05 -0.00040227535856437709 0 -0.00013746946513540383 -0.0005148854107463218 0 6.8151700625850934e-05 -0.0027741459486193571 0 0.00016398755348411321 -0.002723388552240677 0 0.0001366834627577912 -0.0028638045562293479 0 -0.00072465146579125614 -0.0016645948759610634 0 -0.00070398265874072172 -0.0018148733541714201 0 -0.00077577252296041584 -0.0017829611689884688 0 0.00073705250000620601 -0.001227686489194081 0 0.00073904511963467285 -0.0013485242529432801 0 0.00066472186400864323 -0.0012830466747282131 0 -2.3892189641801433e-05 -0.00026379374227153819 0 -6.3790505153586412e-05 -0.00030459005381732406 0 -3.6235005203777094e-05 -0.00019931560636697655 0 0.00021723970079602425 -0.0028881304873487595 0 0.0001366834627577912 -0.0028638045562293479 0 0.00016398755348411321 -0.002723388552240677 0 -0.00079208400621854551 -0.001913720217294586 0 -0.00077577252296041584 -0.0017829611689884688 0 -0.00070398265874072172 -0.0018148733541714201 0 0.00070878433788924518 -0.0014453486598993961 0 0.00066472186400864323 -0.0012830466747282131 0 0.00073904511963467285 -0.0013485242529432801 0 -5.3654218500434398e-05 -0.0001820477947993305 0 -3.6235005203777094e-05 -0.00019931560636697655 0 -6.3790505153586425e-05 -0.00030459005381732406 0 0.00013399790222882392 -0.0025460130252213161 0 0.00020339008400489485 -0.0026037156352431466 0 0.00016398755348411321 -0.002723388552240677 0 -0.00060743563390272873 -0.0017490348870765318 0 -0.0006410805955550284 -0.0018690605797796541 0 -0.00070398265874072172 -0.0018148733541714201 0 0.00057720012933365017 -0.0013058378213410781 0 0.00059224101436214209 -0.0011991337290451556 0 0.00066472186400864323 -0.0012830466747282131 0 -6.936501682010981e-05 -0.00044677796657343087 0 -9.7036235851898339e-05 -0.00040227535856437709 0 -6.3790505153586425e-05 -0.00030459005381732406 0 0.00054505388646375308 -0.0022230728952495008 0 0.00055808357284570177 -0.0023656020320320958 0 0.00048726630724816255 -0.0023116629111955551 0 -0.00042043429702581938 -0.0024320088836918023 0 -0.00050208077059211184 -0.0024601063230210991 0 -0.00047438586787122494 -0.0023333491971526282 0 0.00026812106961744139 -0.00057632002490324295 0 0.0003187285988218337 -0.00056199252980103625 0 0.00033635517413460868 -0.00067995208993937783 0 -0.00042623128518380865 -0.00080808146424137016 0 -0.00039733342060384324 -0.00066858925865526651 0 -0.00035281236689335715 -0.00070501962694754269 0 0.00061411652850056932 -0.0017553755188742094 0 0.00053775704118202972 -0.0017352469128137159 0 0.00058418791851854194 -0.0016357072689784217 0 -0.00013723315116875455 -0.0025583181340934642 0 -0.00013286578361118486 -0.0024184019698785825 0 -6.7737528735820675e-05 -0.0025104743825588374 0 7.0114391259925012e-05 -0.00043547459978761143 0 8.0670018124084575e-05 -0.00055371859875312133 0 3.7015282991216043e-05 -0.00047341571473105817 0 -0.00058333158242833253 -0.001302460239247753 0 -0.00050954061137647598 -0.0012915028367955219 0 -0.00056981231299828815 -0.0014114522209487824 0 0.0008099871524176683 -0.0020698152097588566 0 0.00088200579998571965 -0.0021186379122109665 0 0.00084677974500749263 -0.0022466873342417244 0 7.2473577654567594e-05 -0.0001633319184094334 0 3.6106494072235885e-05 -6.8180310885451701e-05 0 7.3529311794407208e-05 -0.00011804025586291729 0 -0.00031266384187396488 -0.0029188756229876411 0 -0.00033991502579416394 -0.0030579252788555263 0 -0.00041894639374722998 -0.0029890079584216881 0 -0.00072162293958860462 -0.0010813884876204032 0 -0.00077899749397645156 -0.001073303117414437 0 -0.00070959513120636396 -0.00093163316144718729 0 2.9290049726234963e-05 -0.0021331883778587641 0 -6.4682535715692756e-05 -0.0021441764810814267 0 -4.3207220412002446e-05 -0.0020224909964134744 0 -0.00037462648020235843 -0.0015369809609958145 0 -0.00037173127998817184 -0.0013770514498982177 0 -0.00030974441974719521 -0.0014068688043819774 0 6.8151700625850934e-05 -0.0027741459486193571 0 4.814290863532677e-05 -0.002898349399162259 0 -2.4792970126681376e-05 -0.0027913338106478301 0 -0.00072465146579125614 -0.0016645948759610634 0 -0.00078697377819387799 -0.001645883927278961 0 -0.00072407944938199654 -0.0015172416048447998 0 0.00070878433788924518 -0.0014453486598993961 0 0.00077497281379308421 -0.0014936087980841055 0 0.00072942700994222797 -0.001596732146433133 0 -2.3892189641801433e-05 -0.00026379374227153819 0 -1.1735819054236073e-05 -0.00017234869173375617 0 8.4245641901014124e-06 -0.0002503164018382441 0 -1.5944052604305923e-05 -0.0017682909935149002 0 -3.922844464815703e-05 -0.0016267247798338082 0 5.9542733860306813e-05 -0.0016415347180372597 0 0.00061712509018875918 -0.0028877393130083691 0 0.00054734870496896322 -0.0027996779598170284 0 0.00060881619247554275 -0.0027370428469832642 0 -0.00079126229648453521 -0.0025818472620629833 0 -0.00074459910843332848 -0.0024586907091189258 0 -0.00070900709259087116 -0.0025633678540933932 0 0.00076996497466705859 -0.0028580096892883672 0 0.00068505882276623058 -0.0028902134276422172 0 0.00068068186118392456 -0.0027717727044979826 0 -0.00077290593775510106 -0.0028528674378668767 0 -0.00079136841163466134 -0.0027014804388205233 0 -0.00072663300976025767 -0.0026911914083143835 0 0.00018308907329321283 -0.00020048612305015602 0 0.00023608202602568671 -0.00023220394246200934 0 0.00029714468300811719 -0.00032638625840598396 0 -0.00051059230716432417 -0.000554153071190023 0 -0.00041496568741501157 -0.00041636781686666053 0 -0.00038529897139833889 -0.00041800378635593275 0 0.00013399790222882392 -0.0025460130252213161 0 0.00023540244500185395 -0.0024723989189259369 0 0.00020339008400489485 -0.0026037156352431466 0 -0.00060743563390272873 -0.0017490348870765318 0 -0.00057037083818144293 -0.0019117468938449744 0 -0.0006410805955550284 -0.0018690605797796541 0 0.00057720012933365017 -0.0013058378213410781 0 0.00051529998480026747 -0.0011258888889968033 0 0.00059224101436214209 -0.0011991337290451556 0 -6.936501682010981e-05 -0.00044677796657343087 0 -0.00013746946513540383 -0.0005148854107463218 0 -9.7036235851898339e-05 -0.00040227535856437709 0 0.00051836740217973932 -0.00056591711661410757 0 0.00045722414703929122 -0.00054774167819609664 0 0.00040258650312836679 -0.00042618583400017994 0 -0.00017578565147336188 -0.00019702867595228649 0 -0.00025779641530052956 -0.00032351256241854628 0 -0.00027603398209118498 -0.00029481715826551295 0 6.1925555657933813e-06 -0.001464434327510565 0 -7.186119789917652e-05 -0.0013714664448792166 0 1.3736219502959544e-05 -0.0012934942233453202 0 -7.0579850661437507e-05 -0.0012337807986255174 0 1.3736219502959544e-05 -0.0012934942233453202 0 -7.186119789917652e-05 -0.0013714664448792166 0 0.00039730282448594792 -0.0021739051487354769 0 0.00034690063145654024 -0.0022490946981804411 0 0.00034735609485569052 -0.0020854595495004851 0 -0.00039958272953192044 -0.0021704993968778507 0 -0.00044302076848743653 -0.0020849749448040773 0 -0.00034842223596214921 -0.0020791450186833753 0 0.00031145692753614169 -0.0008175021703749455 0 0.00036529411143959247 -0.00090944269222555173 0 0.00028409019612450734 -0.0008939815718654251 0 -0.00030850161511381414 -0.00081403907780327556 0 -0.00025336547029226154 -0.00073263246913300207 0 -0.00028107252096293912 -0.00088805146027134984 0 -0.00011175268339983361 -0.00099487704632268453 0 -0.00018530533471983662 -0.0010681497938282753 0 -0.00017497047445214696 -0.00091537265247751214 0 -2.6685611245572843e-05 -0.0029412713366421422 0 -2.4792970126681376e-05 -0.0027913338106478301 0 4.814290863532677e-05 -0.002898349399162259 0 -0.0008004924177996191 -0.0015330814334125668 0 -0.00072407944938199654 -0.0015172416048447998 0 -0.00078697377819387799 -0.001645883927278961 0 0.00080651595804999258 -0.0016159690345402126 0 0.00072942700994222797 -0.001596732146433133 0 0.00077497281379308421 -0.0014936087980841055 0 5.3064299298891213e-06 -0.00014147067712877174 0 8.4245641901014124e-06 -0.0002503164018382441 0 -1.1735819054236073e-05 -0.00017234869173375617 0 -0.0001117572749190031 -0.0020302330534651006 0 -0.00014417640078543813 -0.002148341908629412 0 -0.00018595848859193843 -0.0019985995604252078 0 -0.0002242097051290758 -0.0021250931310003679 0 -0.00018595848859193843 -0.0019985995604252078 0 -0.00014417640078543813 -0.002148341908629412 0 0.00014214276853938813 -0.0016112405257468331 0 0.00010285896877344663 -0.0014938738324857832 0 0.00018340516448044159 -0.0015297692555572802 0 0.00068122756121700696 -0.0031769440644861509 0 0.00058848701648276606 -0.0031741339142363346 0 0.00063641747725382946 -0.0030305896480282866 0 -0.00094520498960704588 -0.0026946830060127938 0 -0.00094346649867332942 -0.0025331916621956466 0 -0.00086754023865828593 -0.0026169086216588683 0 0.00059546591381447829 -0.00059116867819846786 0 0.00068440700721619091 -0.00073543250317797699 0 0.00058830557464848679 -0.00061896968326413454 0 -2.0031618068789184e-08 -9.994166290471167e-08 0 -2.9832533472265946e-08 -1.1314589212841917e-07 0 -8.5289230582347733e-05 -8.9941461050471711e-05 0 0.00094337273034494505 -0.0025332854328503304 0 0.00094503756935591758 -0.002694797035224759 0 0.00087522764726710321 -0.0025939264483600564 0 2.9258987776043357e-08 -1.1320626163891202e-07 0 2.020406211108451e-08 -1.0110671270874412e-07 0 8.4621919530092682e-05 -8.9639867277607993e-05 0 -0.00058876717979727421 -0.0031740178690308888 0 -0.00068140334005762357 -0.003176924769462572 0 -0.00062341373055147344 -0.0030452851906505765 0 -0.00068459864775428036 -0.00073553084757003713 0 -0.0005943663989078856 -0.00059189372873066459 0 -0.00058703466358633698 -0.00061629824803583269 0 0.00028594830228316942 -0.0021395684581122253 0 0.00034735609485569052 -0.0020854595495004851 0 0.00034690063145654024 -0.0022490946981804411 0 -0.00038309395004528906 -0.0019758687322020854 0 -0.00034842223596214921 -0.0020791450186833753 0 -0.00044302076848743653 -0.0020849749448040773 0 0.00032842894952636343 -0.0010020792345567281 0 0.00028409019612450734 -0.0008939815718654251 0 0.00036529411143959247 -0.00090944269222555173 0 -0.00022201858451891576 -0.00082515478881483879 0 -0.00028107252096293912 -0.00088805146027134984 0 -0.00025336547029226154 -0.00073263246913300207 0 -4.6489591451424915e-06 -0.0026191582536795794 0 -2.4792970126681376e-05 -0.0027913338106478301 0 -9.2377216815993965e-05 -0.0026724416939643966 0 -0.00063610805126260075 -0.0015285812035385616 0 -0.00072407944938199654 -0.0015172416048447998 0 -0.00065220033231694005 -0.0013919644485942189 0 0.00063691749885029286 -0.0015435909252592757 0 0.00072942700994222797 -0.001596732146433133 0 0.0006728277998433146 -0.0016929517064410778 0 2.6310102796727119e-06 -0.00038365421150423972 0 8.4245641901014124e-06 -0.0002503164018382441 0 3.9792869686698872e-05 -0.00034213189980245045 0 0.00039730282448594792 -0.0021739051487354769 0 0.00034735609485569052 -0.0020854595495004851 0 0.00042062162324592794 -0.0020189301491387169 0 -0.00039958272953192044 -0.0021704993968778507 0 -0.00034842223596214921 -0.0020791450186833753 0 -0.00031018854496165748 -0.0022112096524859325 0 0.00031145692753614169 -0.0008175021703749455 0 0.00028409019612450734 -0.0008939815718654251 0 0.00023202855867306669 -0.00076564987652355 0 -0.00030850161511381414 -0.00081403907780327556 0 -0.00028107252096293912 -0.00088805146027134984 0 -0.00035654481511514978 -0.0009707545289312445 0 0.0008099871524176683 -0.0020698152097588566 0 0.00087724217179460738 -0.002008767531768269 0 0.00088200579998571965 -0.0021186379122109665 0 7.2473577654567594e-05 -0.0001633319184094334 0 2.8667483589077191e-05 -7.043953660879308e-05 0 3.6106494072235885e-05 -6.8180310885451701e-05 0 -0.00072162293958860462 -0.0010813884876204032 0 -0.00080088185051682031 -0.0011752447568619145 0 -0.00077899749397645156 -0.001073303117414437 0 -0.00031266384187396488 -0.0029188756229876411 0 -0.0002717436135683647 -0.0030517875486511729 0 -0.00033991502579416394 -0.0030579252788555263 0 0.00093515003655241305 -0.0020562798646917885 0 0.00093854191882716993 -0.0022134287213730107 0 0.00088200579998571965 -0.0021186379122109665 0 1.2093579175710098e-08 -1.0657370094326225e-07 0 1.0253085051736124e-08 -1.116200688088409e-07 0 3.6106494072235885e-05 -6.8180310885451701e-05 0 -0.00029971863137204165 -0.0031651787398142366 0 -0.00039765060942316351 -0.0031679219559449579 0 -0.00033991502579416394 -0.0030579252788555263 0 -0.00084461288438021057 -0.0011593410372702923 0 -0.00080422619925509561 -0.0010197433088883683 0 -0.00077899749397645156 -0.001073303117414437 0 -0.00087454670306918168 -0.0013024765997062954 0 -0.00084461288438021046 -0.0011593410372702923 0 -0.00080088185051682031 -0.0011752447568619145 0 -0.00020061639535284259 -0.0031630545973447121 0 -0.00029971863137204165 -0.0031651787398142366 0 -0.0002717436135683647 -0.0030517875486511729 0 9.2984099235308432e-09 -1.0622034465900243e-07 0 1.2093579175710098e-08 -1.0657370094326225e-07 0 2.8667483589077191e-05 -7.043953660879308e-05 0 0.00092970891030384024 -0.0019010565876823719 0 0.00093515003655241305 -0.0020562798646917885 0 0.00087724217179460738 -0.002008767531768269 0 0.00061712509018875918 -0.0028877393130083691 0 0.00068068186118392456 -0.0027717727044979826 0 0.00068505882276623058 -0.0028902134276422172 0 -0.00079126229648453521 -0.0025818472620629833 0 -0.00072663300976025767 -0.0026911914083143835 0 -0.00079136841163466134 -0.0027014804388205233 0 0.00029953939932977143 -0.00027034971918741451 0 0.00029714468300811713 -0.00032638625840598391 0 0.00023608202602568671 -0.00023220394246200934 0 -0.00030266176652944091 -0.00027440825040555048 0 -0.00038529897139833889 -0.00041800378635593275 0 -0.00041496568741501163 -0.00041636781686666058 0 0.00019428972242569611 -0.0022964273916770846 0 0.00021392327111148616 -0.002165572986426808 0 0.00028037103532740454 -0.0022987518751622876 0 0.00028594830228316942 -0.0021395684581122253 0 0.00028037103532740454 -0.0022987518751622876 0 0.00021392327111148616 -0.002165572986426808 0 -0.00047210963199138491 -0.0018292448334591362 0 -0.00039889455397934504 -0.001854000498180298 0 -0.00047358190555832043 -0.0019755336149961567 0 -0.00038309395004528906 -0.0019758687322020854 0 -0.00047358190555832043 -0.0019755336149961567 0 -0.00039889455397934504 -0.001854000498180298 0 0.00043231116352742625 -0.0011735279798425092 0 0.00035884211902367585 -0.0011266088360836922 0 0.00041155081173440723 -0.0010278640961649207 0 0.00032842894952636343 -0.0010020792345567281 0 0.00041155081173440723 -0.0010278640961649207 0 0.00035884211902367585 -0.0011266088360836922 0 -0.00013460733425290635 -0.00066859378611138236 0 -0.00016194278556206967 -0.00079088146025997153 0 -0.00019499690504898775 -0.00067584265687723377 0 -0.00022201858451891576 -0.00082515478881483879 0 -0.00019499690504898775 -0.00067584265687723377 0 -0.00016194278556206967 -0.00079088146025997153 0 0.0006377951039568552 -0.0026110463449468204 0 0.00068068186118392445 -0.0027717727044979821 0 0.00060881619247554275 -0.0027370428469832642 0 -0.00063799479004637036 -0.0026109781623901043 0 -0.00072663300976025767 -0.0026911914083143835 0 -0.00070900709259087116 -0.0025633678540933932 0 0.00061411652850056932 -0.0017553755188742094 0 0.0006728277998433146 -0.0016929517064410778 0 0.00067100330906813663 -0.0018493996632280357 0 -0.00013723315116875455 -0.0025583181340934642 0 -9.2377216815993978e-05 -0.0026724416939643966 0 -0.0001888130976782341 -0.0026604624277806795 0 7.0114391259925012e-05 -0.00043547459978761143 0 3.9792869686698872e-05 -0.00034213189980245045 0 8.137597910874578e-05 -0.00035502892848725503 0 -0.00058333158242833253 -0.001302460239247753 0 -0.00065220033231694005 -0.0013919644485942189 0 -0.00062614102811370655 -0.0012322822803265364 0 -2.2057459978833222e-06 -0.0010276471045942454 0 -5.9509686795421995e-05 -0.0010849039067752184 0 -4.4488653350791754e-05 -0.00093030947494829634 0 -0.00011175268339983361 -0.00099487704632268453 0 -4.4488653350791754e-05 -0.00093030947494829634 0 -5.9509686795421995e-05 -0.0010849039067752184 0 -0.00027642254483493294 -0.0026457131927966858 0 -0.0001888130976782341 -0.0026604624277806795 0 -0.00024121449835582729 -0.00279498378828356 0 0.000664663772620891 -0.0019929878706092881 0 0.00067100330906813663 -0.0018493996632280357 0 0.00074384927690344103 -0.0019460258091672481 0 -0.00059335209805742124 -0.0010848637883773223 0 -0.00062614102811370655 -0.0012322822803265364 0 -0.00068182458026902807 -0.0011704547020758168 0 0.00012553306626968697 -0.00037310424492383704 0 8.137597910874578e-05 -0.00035502892848725503 0 8.0336721374808884e-05 -0.0002527672944927796 0 0.00027373575020047633 -0.0014870309574397476 0 0.00022915287457263614 -0.0016564714485566676 0 0.00018340516448044159 -0.0015297692555572802 0 0.00028594830228316942 -0.0021395684581122253 0 0.00021392327111148616 -0.002165572986426808 0 0.00021425133067998127 -0.0020329098717700301 0 -0.00038309395004528906 -0.0019758687322020854 0 -0.00039889455397934504 -0.001854000498180298 0 -0.00032729030758461852 -0.0018445064700544438 0 0.00032842894952636343 -0.0010020792345567281 0 0.00035884211902367585 -0.0011266088360836922 0 0.00028541728047457287 -0.0011148090286920128 0 -0.00022201858451891576 -0.00082515478881483879 0 -0.00016194278556206967 -0.00079088146025997153 0 -0.00017497047445214696 -0.00091537265247751214 0 -0.00020779274589119768 -0.0022982907390448276 0 -0.00022374735420452552 -0.0024977074751145758 0 -0.00027995637839331282 -0.0024142229464615412 0 0.00047331574009229515 -0.0018517132865885026 0 0.00058371439256145647 -0.0018939930294118374 0 0.00053787983504120286 -0.0019822081704195158 0 -0.00043038142526122931 -0.0011512178684825475 0 -0.00053187907632787248 -0.0011493272946794912 0 -0.0004709477900237852 -0.0010433271397606654 0 0.00014305616057666952 -0.00066659322052190569 0 0.00012627927357838965 -0.00049279070941481411 0 0.00017457925295091299 -0.0005706421317826332 0 -7.0579850661437507e-05 -0.0012337807986255174 0 -7.186119789917652e-05 -0.0013714664448792166 0 -0.00014049637284144356 -0.0012876887323828433 0 9.4180072228248213e-05 -0.00090975816211160689 0 4.3239608909051365e-05 -0.0007896926279303885 0 0.00010769300666603961 -0.00079822259649033089 0 0.00016814134765822983 -0.0014031234531172063 0 0.00010285896877344663 -0.0014938738324857832 0 8.8806983103874299e-05 -0.0013481605766023012 0 -0.00027630720586626836 -0.0019884568609160116 0 -0.00032729030758461852 -0.0018445064700544438 0 -0.00025207532387015985 -0.0018299896553748726 0 0.00016814134765822983 -0.0014031234531172063 0 0.00018340516448044159 -0.0015297692555572802 0 0.00010285896877344663 -0.0014938738324857832 0 0.00010049107583881975 -0.0031615508873316495 0 -3.5081930399637397e-08 -0.0031610408061202031 0 3.0053470553171042e-05 -0.0030346351761722894 0 -0.0009225981189462198 -0.0017471430820200015 0 -0.00091092887045805262 -0.0015963145654074972 0 -0.00085364829547211556 -0.0016306043974661773 0 0.00089589472492623585 -0.001448527479782011 0 0.00091090596217858707 -0.0015969396442734026 0 0.00084605649702635245 -0.001538841766752731 0 -3.3804002510200792e-09 -1.0639035379366119e-07 0 2.6801308223253907e-09 -1.0793892444116241e-07 0 -3.0400208955632555e-06 -7.8903821559247404e-05 0 0.00053775704118202961 -0.0017352469128137159 0 0.00051011232363119569 -0.0016191637915499437 0 0.00058418791851854194 -0.0016357072689784217 0 -0.00013286578361118486 -0.0024184019698785825 0 -6.6869908813577887e-05 -0.0023741110789499056 0 -6.7737528735820675e-05 -0.0025104743825588374 0 8.0670018124084575e-05 -0.00055371859875312133 0 4.0725281569093935e-05 -0.00058887651485839171 0 3.7015282991216043e-05 -0.00047341571473105817 0 -0.00050954061137647598 -0.0012915028367955219 0 -0.00049626938417748293 -0.0013969665255372233 0 -0.00056981231299828815 -0.0014114522209487824 0 9.4180072228248213e-05 -0.00090975816211160689 0 2.3540383385898405e-05 -0.0009038359079503105 0 4.3239608909051358e-05 -0.0007896926279303885 0 -0.00012446146618288553 -0.0016391019425634049 0 -3.922844464815703e-05 -0.0016267247798338082 0 -9.7024291475312444e-05 -0.0017499670650583086 0 6.1925555657933813e-06 -0.001464434327510565 0 -8.9858365702496598e-05 -0.0015128708115491193 0 -7.186119789917652e-05 -0.0013714664448792166 0 -1.8550233977976427e-07 -3.1151535590771032e-07 0 -0.00013907623210937181 -0.00010568852147229861 0 -0.00030761726362892858 -0.00025375141666418089 0 1.8613738659196514e-07 -3.1158865596318244e-07 0 0.00013941825038937862 -0.00010583087978529992 0 -4.6074160444190891e-09 -9.4697747100876979e-08 0 1.8613738659196514e-07 -3.1158865596318244e-07 0 0.00030792784232230435 -0.00025357929664401077 0 0.00013941825038937865 -0.00010583087978529995 0 -1.8550233977976427e-07 -3.1151535590771032e-07 0 4.1403204596518823e-09 -9.4311537556947938e-08 0 -0.00013907623210937181 -0.00010568852147229861 0 0.00094992691370212701 -0.0031820973575975324 0 0.00086163163938850326 -0.0031808187858094993 0 0.0008919859549211777 -0.0030756787537412952 0 0.00094992691370212701 -0.0031820973575975324 0 0.0008919859549211777 -0.0030756787537412952 0 0.00094832319597020561 -0.0030195204190697844 0 -0.00095014083985097287 -0.0031820230285603901 0 -0.00089569643103300158 -0.0030819618129751445 0 -0.00086187211917018334 -0.0031807869529869317 0 -0.00095014083985097287 -0.0031820230285603901 0 -0.0009485790203225136 -0.003019489765954419 0 -0.00089569643103300158 -0.0030819618129751445 0 -0.0002716174940597002 -0.0017010605552855685 0 -0.00019237781026185648 -0.0015850645839550108 0 -0.00018551262209089397 -0.0017265418447885243 0 -0.00016948970998910298 -0.0014351489548464977 0 -0.00022746859997020981 -0.001329827191859121 0 -0.00014049637284144356 -0.0012876887323828433 0 -0.00018925145587432468 -0.0011960902147283826 0 -0.00014049637284144353 -0.0012876887323828433 0 -0.00022746859997020981 -0.001329827191859121 0 0.00021723970079602425 -0.0028881304873487595 0 0.00027350326873035581 -0.0030154620696517661 0 0.00018568437386979816 -0.0030237257410884936 0 -0.00079208400621854551 -0.001913720217294586 0 -0.00085926058411070277 -0.0020109605073631385 0 -0.00086002687773552831 -0.0018721216268212184 0 0.00073705250000620601 -0.001227686489194081 0 0.00078304087793337014 -0.0011645064598463141 0 0.00081130018463822337 -0.0012997671034696296 0 -5.3654218500434398e-05 -0.0001820477947993305 0 -3.8148261347602178e-05 -9.421321948556083e-05 0 -2.4358603127661461e-05 -8.7971518440260274e-05 0 0.00033167165092781221 -0.0024183550715726832 0 0.00034690063145654024 -0.0022490946981804411 0 0.00041559228621831782 -0.0023325114119043381 0 -0.0005397923798033075 -0.002070682211716001 0 -0.00044302076848743653 -0.0020849749448040773 0 -0.00048951101186692106 -0.0022093603309912349 0 0.00045624426159239219 -0.0009563731681047306 0 0.00036529411143959247 -0.00090944269222555173 0 0.00037984558111922996 -0.00080294037148084612 0 -0.00020989715890640647 -0.00057466100632642492 0 -0.00025336547029226154 -0.00073263246913300207 0 -0.00028939937282315866 -0.00066651641484550715 0 8.7998167894428049e-05 -0.0012023633162733796 0 8.8806983103874299e-05 -0.0013481605766023012 0 1.3736219502959544e-05 -0.0012934942233453202 0 -0.00025445109091786676 -0.0010000306081998341 0 -0.00017497047445214696 -0.00091537265247751214 0 -0.00018530533471983662 -0.0010681497938282753 0 0.00039745251216996043 -0.0031679293572703321 0 0.0003504410887873458 -0.0030577645061951719 0 0.000429979098807602 -0.0030061759491073325 0 -0.00093878425160138655 -0.0022135147499834514 0 -0.0008822090957943114 -0.0021363038161311201 0 -0.00085601778982667416 -0.002265961913920248 0 0.00035126787435600117 -0.0029349873999182027 0 0.000429979098807602 -0.0030061759491073325 0 0.0003504410887873458 -0.0030577645061951719 0 -0.00081884139928740799 -0.0021339779479724831 0 -0.00085601778982667416 -0.002265961913920248 0 -0.0008822090957943114 -0.0021363038161311201 0 0.00080470399371365849 -0.001019435827602434 0 0.00077430857334920831 -0.0010569158533663982 0 0.00070918265775175382 -0.00091910468230172739 0 -1.0308857890207645e-08 -1.1012058521348949e-07 0 -3.6992744001167235e-05 -6.9899241423692062e-05 0 -7.0720883268101672e-05 -0.00011142829990574461 0 0.00071405086182580314 -0.0010235246845794676 0 0.00070918265775175382 -0.00091910468230172739 0 0.00077430857334920831 -0.0010569158533663982 0 -7.6536467389066036e-05 -0.00015331989624935629 0 -7.0720883268101672e-05 -0.00011142829990574461 0 -3.6992744001167235e-05 -6.9899241423692062e-05 0 0.00080032223815788264 -0.0025863194615844873 0 0.00072481884739569735 -0.0025557187449308564 0 0.000773718555993518 -0.0024559322063709222 0 -0.00061963412913276349 -0.002905096065880095 0 -0.0006041902102876766 -0.0027661753998609422 0 -0.00054497272696982615 -0.002854244740895363 0 0.00051397059063366555 -0.0021006198346152269 0 0.00053787983504120286 -0.0019822081704195158 0 0.00059737261802977654 -0.0020902099346634248 0 -0.00035098325526095156 -0.0023734013066136809 0 -0.00027995637839331282 -0.0024142229464615412 0 -0.00033947847410252481 -0.0025224872580310062 0 0.00023273078252402095 -0.00061815739785779319 0 0.00017457925295091302 -0.0005706421317826332 0 0.00018916302648152518 -0.00048255538265266521 0 -0.00042613597030475501 -0.00091833727049626642 0 -0.0004709477900237852 -0.0010433271397606654 0 -0.00050691820446217178 -0.00095802944840751142 0 0.00018308907329321283 -0.00020048612305015602 0 0.00025687363926780001 -0.00032151131120598971 0 0.00018128516800150347 -0.00024258136167337456 0 -0.00051059230716432417 -0.000554153071190023 0 -0.0004581479941722943 -0.00054789578564332639 0 -0.00055021173056940792 -0.000672981544114903 0 -0.00011175268339983361 -0.00099487704632268453 0 -5.9509686795421995e-05 -0.0010849039067752184 0 -0.00012466732869755051 -0.0011486842392145345 0 -0.00012758186812172754 -0.0028333634966245854 0 -9.2377216815993965e-05 -0.0026724416939643966 0 -2.4792970126681376e-05 -0.0027913338106478301 0 -0.00072969505763338671 -0.001359382615218431 0 -0.00065220033231694005 -0.0013919644485942189 0 -0.00072407944938199654 -0.0015172416048447998 0 0.00075954911304439187 -0.0017653891200734399 0 0.0006728277998433146 -0.0016929517064410778 0 0.00072942700994222797 -0.001596732146433133 0 3.7577975587456451e-05 -0.00021965293215015462 0 3.9792869686698879e-05 -0.0003421318998024504 0 8.4245641901014124e-06 -0.0002503164018382441 0 2.9290049726234963e-05 -0.0021331883778587641 0 -1.854424303001558e-05 -0.0022712315644727002 0 -6.4682535715692756e-05 -0.0021441764810814267 0 -0.00010387607045469772 -0.0022721724032778792 0 -6.4682535715692756e-05 -0.0021441764810814267 0 -1.854424303001558e-05 -0.0022712315644727002 0 -0.00037462648020235843 -0.0015369809609958145 0 -0.00044628409841873082 -0.0014678530874569589 0 -0.00037173127998817184 -0.0013770514498982177 0 -0.00043603954640194815 -0.00132402603224248 0 -0.00037173127998817184 -0.0013770514498982174 0 -0.00044628409841873082 -0.0014678530874569589 0 0.0003752894237965307 -0.0014366810302424513 0 0.00045027339874771091 -0.0015221835127744924 0 0.00037797381334759439 -0.0015847586855775296 0 0.00045567326291139548 -0.001674025599347624 0 0.00037797381334759439 -0.0015847586855775296 0 0.00045027339874771091 -0.0015221835127744924 0 0.00035126787435600117 -0.0029349873999182027 0 0.00028566685299420317 -0.0028772304134078068 0 0.00033423464664543407 -0.0027641468577436039 0 -0.00081884139928740799 -0.0021339779479724831 0 -0.00078779248579185959 -0.002023845858819079 0 -0.00072861345266867362 -0.0020971245941924766 0 0.00071405086182580314 -0.0010235246845794676 0 0.00070667400457281881 -0.0011158496060392018 0 0.00063360439082667665 -0.0010114283186476063 0 -7.6536467389066036e-05 -0.00015331989624935629 0 -7.4646414778756836e-05 -0.00019317393689722109 0 -0.00012276804604049887 -0.0002818656808858166 0 0.00027624839265144254 -0.0026456994747630145 0 0.00033423464664543402 -0.0027641468577436039 0 0.00024721770847688213 -0.0027528368435292159 0 -0.0006648781074627873 -0.0019929396107007057 0 -0.00072861345266867362 -0.0020971245941924766 0 -0.00072172984345370201 -0.0019530949210268976 0 0.0005931037094048904 -0.0010853857165908944 0 0.00063360439082667665 -0.0010114283186476063 0 0.0006582071926280453 -0.0011526109856438453 0 -0.00012556979184683411 -0.00037233028770464622 0 -0.00012276804604049887 -0.0002818656808858166 0 -9.090450960753893e-05 -0.00028554291606395756 0 -7.0579850661437507e-05 -0.0012337807986255174 0 8.5632993322870226e-06 -0.0011478124639405932 0 1.3736219502959544e-05 -0.0012934942233453202 0 0.00068553830659291378 -0.0021718960430541223 0 0.00073442644348290843 -0.002076417927364562 0 0.00076532230013092047 -0.0021770188284977688 0 -0.00038196788199740603 -0.0026847093423115636 0 -0.00032137514634921236 -0.0027755131306065571 0 -0.00038013386232047956 -0.0028336138125431365 0 0.00016778774202570379 -0.00034894636203067111 0 0.00011551206871534745 -0.00027226150793481941 0 0.00012095996493773923 -0.00023078164705873298 0 -0.00057205598986640436 -0.00091564386447881303 0 -0.00064405314548468214 -0.0010356536442611979 0 -0.00064949245999238088 -0.00095173421371141367 0 0.00055183208634807207 -0.0026330654198268707 0 0.00060881619247554275 -0.0027370428469832642 0 0.00054734870496896322 -0.0027996779598170284 0 -0.00065324814058486617 -0.0024602172639893662 0 -0.00070900709259087116 -0.0025633678540933932 0 -0.00074459910843332848 -0.0024586907091189258 0 0.00033167165092781221 -0.0024183550715726832 0 0.00028037103532740454 -0.0022987518751622876 0 0.00034690063145654024 -0.0022490946981804411 0 -0.0005397923798033075 -0.002070682211716001 0 -0.00047358190555832043 -0.0019755336149961567 0 -0.00044302076848743653 -0.0020849749448040773 0 0.00045624426159239219 -0.0009563731681047306 0 0.00041155081173440723 -0.0010278640961649207 0 0.00036529411143959247 -0.00090944269222555173 0 -0.00020989715890640647 -0.00057466100632642492 0 -0.00019499690504898775 -0.00067584265687723377 0 -0.00025336547029226154 -0.00073263246913300207 0 -0.0001117572749190031 -0.0020302330534651006 0 -8.8271264669958376e-05 -0.0018963926426639876 0 -4.3207220412002446e-05 -0.0020224909964134744 0 0.00039745251216996043 -0.0031679293572703321 0 0.00029946632299988814 -0.0031650943431719256 0 0.0003504410887873458 -0.0030577645061951719 0 -0.00093878425160138655 -0.0022135147499834514 0 -0.00093538627848835918 -0.0020565141456451129 0 -0.0008822090957943114 -0.0021363038161311201 0 0.00080470399371365849 -0.001019435827602434 0 0.00084472207941972514 -0.001158395416202462 0 0.00077430857334920831 -0.0010569158533663982 0 -1.0308857890207645e-08 -1.1012058521348949e-07 0 -1.4613960591931579e-08 -1.0753260594535841e-07 0 -3.6992744001167235e-05 -6.9899241423692062e-05 0 -2.2057459978833222e-06 -0.0010276471045942454 0 -4.4488653350791754e-05 -0.00093030947494829634 0 2.3540383385898405e-05 -0.0009038359079503105 0 -3.5081930399637397e-08 -0.0031610408061202031 0 -0.00010062509762330382 -0.0031615298027372328 0 -5.0154411180219411e-05 -0.0030613950234528535 0 -0.00091092887045805262 -0.0015963145654074972 0 -0.00089496518573427535 -0.0014488704768799803 0 -0.00085596204236428053 -0.0015112084761672963 0 0.00091090596217858707 -0.0015969396442734028 0 0.00092159626121162232 -0.0017473462714926976 0 0.00086843446178833886 -0.001663938236563959 0 2.6801308223253907e-09 -1.0793892444116241e-07 0 -2.5952813843731693e-10 -1.1047807157071126e-07 0 5.1212003961786887e-06 -6.1787214525058399e-05 0 0.00051836740217973932 -0.00056591711661410757 0 0.00053719825005518447 -0.00065788684395319216 0 0.00045722414703929122 -0.00054774167819609664 0 -0.00017578565147336188 -0.00019702867595228649 0 -0.0001916094395941084 -0.0002548851160691519 0 -0.00025779641530052956 -0.00032351256241854628 0 -2.4848047930198425e-05 -0.00079161712843649548 0 2.3540383385898405e-05 -0.0009038359079503105 0 -4.4488653350791754e-05 -0.00093030947494829634 0 0.00016814134765822983 -0.0014031234531172063 0 0.00016974940355828243 -0.0012631542245631262 0 0.00023393264972802253 -0.0013526163405065779 0 0.0002539452137700346 -0.0012481712438084742 0 0.00023393264972802256 -0.0013526163405065779 0 0.00016974940355828243 -0.0012631542245631262 0 -0.00089496518573427535 -0.0014488704768799803 0 -0.00082126643113579684 -0.0013991689403450973 0 -0.00085596204236428053 -0.0015112084761672963 0 -0.00010062509762330382 -0.0031615298027372328 0 -0.00011975750949330015 -0.0030141414700690875 0 -5.0154411180219411e-05 -0.0030613950234528535 0 -2.5952813843731693e-10 -1.1047807157071126e-07 0 1.6654385866777732e-05 -9.3185503950580996e-05 0 5.1212003961786887e-06 -6.1787214525058399e-05 0 0.00092159626121162232 -0.0017473462714926976 0 0.00085078003000011013 -0.0017680569164638049 0 0.00086843446178833886 -0.001663938236563959 0 0.00013934149459531806 -0.0021341681781843758 0 0.00021425133067998127 -0.0020329098717700301 0 0.00021392327111148616 -0.002165572986426808 0 -0.00037834358333849421 -0.0017196184447510678 0 -0.00032729030758461857 -0.0018445064700544438 0 -0.00039889455397934504 -0.001854000498180298 0 0.00035500334285354151 -0.0012539344929145507 0 0.00028541728047457287 -0.0011148090286920128 0 0.00035884211902367585 -0.0011266088360836922 0 -0.00010569425770222347 -0.00081446569991857059 0 -0.00017497047445214696 -0.00091537265247751214 0 -0.00016194278556206967 -0.00079088146025997153 0 -0.0002716174940597002 -0.0017010605552855685 0 -0.00025207532387015985 -0.0018299896553748726 0 -0.00032729030758461852 -0.0018445064700544438 0 -0.00012446146618288553 -0.0016391019425634049 0 -0.000185512622090894 -0.0017265418447885243 0 -0.00019237781026185648 -0.0015850645839550108 0 0.00033167165092781221 -0.0024183550715726832 0 0.00041559228621831782 -0.0023325114119043381 0 0.00039124461464939324 -0.0024878929051277998 0 -0.0005397923798033075 -0.002070682211716001 0 -0.00048951101186692106 -0.0022093603309912349 0 -0.00057708069250437817 -0.0021765432862299121 0 0.00045624426159239219 -0.0009563731681047306 0 0.00037984558111922996 -0.00080294037148084612 0 0.00046759965990872366 -0.00086472178534180064 0 -0.00020989715890640647 -0.00057466100632642492 0 -0.00028939937282315866 -0.00066651641484550715 0 -0.00023275761112528481 -0.00052243461587351571 0 -0.00025445109091786676 -0.0010000306081998341 0 -0.00018530533471983662 -0.0010681497938282753 0 -0.00025669367352354385 -0.0011497384649079348 0 0.00035126787435600117 -0.0029349873999182027 0 0.00033423464664543407 -0.0027641468577436039 0 0.0004034194181136944 -0.0028363318485142264 0 -0.00081884139928740799 -0.0021339779479724831 0 -0.00072861345266867362 -0.0020971245941924766 0 -0.00076688955862835352 -0.0022161134703612517 0 0.00071405086182580314 -0.0010235246845794676 0 0.00063360439082667665 -0.0010114283186476063 0 0.00063571760801047622 -0.00091081607424819825 0 -7.6536467389066036e-05 -0.00015331989624935629 0 -0.00012276804604049887 -0.0002818656808858166 0 -0.00012970857074257953 -0.00023544582496112597 0 6.8151700625850934e-05 -0.0027741459486193571 0 0.0001366834627577912 -0.0028638045562293479 0 4.814290863532677e-05 -0.002898349399162259 0 -0.00072465146579125614 -0.0016645948759610634 0 -0.00077577252296041584 -0.0017829611689884688 0 -0.00078697377819387799 -0.001645883927278961 0 -2.3892189641801433e-05 -0.00026379374227153819 0 -3.6235005203777094e-05 -0.00019931560636697655 0 -1.1735819054236073e-05 -0.00017234869173375617 0 -0.00018925145587432468 -0.0011960902147283826 0 -0.00025669367352354385 -0.0011497384649079348 0 -0.00018530533471983662 -0.0010681497938282753 0 0.00091090596217858707 -0.0015969396442734028 0 0.00086843446178833886 -0.001663938236563959 0 0.00084605649702635245 -0.001538841766752731 0 2.6801308223253907e-09 -1.0793892444116241e-07 0 5.1212003961786887e-06 -6.1787214525058399e-05 0 -3.0400208955632555e-06 -7.8903821559247404e-05 0 0.00080651595804999258 -0.0016159690345402126 0 0.00084605649702635245 -0.001538841766752731 0 0.00086843446178833886 -0.001663938236563959 0 5.3064299298891213e-06 -0.00014147067712877174 0 -3.0400208955632555e-06 -7.890382155924739e-05 0 5.1212003961786887e-06 -6.1787214525058399e-05 0 -0.00091092887045805262 -0.0015963145654074972 0 -0.00085596204236428053 -0.0015112084761672963 0 -0.00085364829547211556 -0.0016306043974661773 0 -3.5081930399637397e-08 -0.0031610408061202031 0 -5.0154411180219411e-05 -0.0030613950234528535 0 3.0053470553171042e-05 -0.0030346351761722894 0 -2.6685611245572843e-05 -0.0029412713366421422 0 3.0053470553171042e-05 -0.0030346351761722894 0 -5.0154411180219411e-05 -0.0030613950234528535 0 -0.0008004924177996191 -0.0015330814334125668 0 -0.00085364829547211556 -0.0016306043974661773 0 -0.00085596204236428053 -0.0015112084761672963 0 0.00010574275386776208 -0.0029864152040884129 0 4.814290863532677e-05 -0.002898349399162259 0 0.0001366834627577912 -0.0028638045562293479 0 -0.00083582993104937774 -0.0017442248513798054 0 -0.00078697377819387799 -0.001645883927278961 0 -0.00077577252296041584 -0.0017829611689884688 0 -1.6332369320533444e-05 -0.00011396158240601538 0 -1.1735819054236074e-05 -0.00017234869173375617 0 -3.6235005203777094e-05 -0.00019931560636697655 0 0.00039534853146621951 -0.002643412619923082 0 0.00033370868630712121 -0.0025549753806145634 0 0.00039124461464939324 -0.0024878929051277998 0 -0.00066298398767916872 -0.0021922240167601302 0 -0.00061529517959152727 -0.0020829369958201911 0 -0.00057708069250437817 -0.0021765432862299121 0 0.00054441790350998509 -0.0008849813751821711 0 0.00052569091131569759 -0.00097284346507876601 0 0.00046759965990872366 -0.00086472178534180064 0 -0.00018837131972941016 -0.00038610906661725933 0 -0.00017840712473916998 -0.00045523410222103388 0 -0.00023275761112528481 -0.00052243461587351571 0 -0.00030340980566313553 -0.0012818879572845325 0 -0.00022746859997020981 -0.001329827191859121 0 -0.00030974441974719521 -0.0014068688043819774 0 -0.00010387607045469772 -0.0022721724032778792 0 -6.6869908813577873e-05 -0.0023741110789499056 0 -0.00013286578361118486 -0.0024184019698785825 0 0.00045567326291139548 -0.001674025599347624 0 0.00051011232363119569 -0.0016191637915499437 0 0.00053775704118202961 -0.0017352469128137159 0 -0.00043603954640194815 -0.00132402603224248 0 -0.00049626938417748293 -0.0013969665255372233 0 -0.00050954061137647598 -0.0012915028367955219 0 7.0988284607395667e-05 -0.00067961037158502358 0 4.0725281569093928e-05 -0.00058887651485839171 0 8.0670018124084575e-05 -0.00055371859875312133 0 0.00029946632299988814 -0.0031650943431719256 0 0.00027350326873035581 -0.0030154620696517661 0 0.0003504410887873458 -0.0030577645061951719 0 -0.00093538627848835918 -0.0020565141456451129 0 -0.00085926058411070277 -0.0020109605073631385 0 -0.0008822090957943114 -0.0021363038161311201 0 0.00084472207941972514 -0.001158395416202462 0 0.00078304087793337014 -0.0011645064598463141 0 0.00077430857334920831 -0.0010569158533663982 0 -1.4613960591931579e-08 -1.0753260594535841e-07 0 -3.8148261347602178e-05 -9.421321948556083e-05 0 -3.6992744001167235e-05 -6.9899241423692062e-05 0 0.00035126787435600117 -0.0029349873999182027 0 0.0003504410887873458 -0.0030577645061951719 0 0.00027350326873035581 -0.0030154620696517661 0 -0.00081884139928740799 -0.0021339779479724831 0 -0.0008822090957943114 -0.0021363038161311201 0 -0.00085926058411070277 -0.0020109605073631385 0 0.00071405086182580314 -0.0010235246845794676 0 0.00077430857334920842 -0.0010569158533663982 0 0.00078304087793337014 -0.0011645064598463141 0 -7.6536467389066036e-05 -0.00015331989624935629 0 -3.6992744001167241e-05 -6.9899241423692076e-05 0 -3.8148261347602178e-05 -9.421321948556083e-05 0 0.0008093305866090822 -0.0014170273786759315 0 0.00077497281379308421 -0.0014936087980841055 0 0.00073904511963467285 -0.0013485242529432801 0 0.00070878433788924518 -0.0014453486598993961 0 0.00073904511963467285 -0.0013485242529432801 0 0.00077497281379308421 -0.0014936087980841055 0 -1.5944052604305923e-05 -0.0017682909935149002 0 -8.8271264669958376e-05 -0.0018963926426639876 0 -9.7024291475312444e-05 -0.0017499670650583086 0 8.8414695260928064e-05 -0.0023047041477367914 0 0.00015008336276009732 -0.0024094347830058453 0 7.4747035203958382e-05 -0.0024875462780524792 0 -0.00047310822552405231 -0.0016507073900468682 0 -0.0005334572827195138 -0.0017637165572762649 0 -0.00057235371251511511 -0.001645082987527541 0 0.00045586834372899986 -0.0013529016402226198 0 0.00050103979653776879 -0.0012609888965161408 0 0.00055620693478650738 -0.001396721969729499 0 -5.9886732439554159e-05 -0.00065310039308360223 0 -9.2049195489087441e-05 -0.00056457799252022521 0 -4.1435238995776984e-05 -0.0004940153018773946 0 0.00014214276853938813 -0.0016112405257468331 0 0.00018340516448044157 -0.0015297692555572802 0 0.00022915287457263614 -0.0016564714485566676 0 0.00033423464664543407 -0.0027641468577436039 0 0.00028566685299420322 -0.0028772304134078073 0 0.00024721770847688213 -0.0027528368435292159 0 -0.00072861345266867362 -0.0020971245941924766 0 -0.00078779248579185959 -0.002023845858819079 0 -0.00072172984345370201 -0.0019530949210268976 0 0.00063360439082667665 -0.0010114283186476063 0 0.00070667400457281881 -0.0011158496060392018 0 0.0006582071926280453 -0.0011526109856438453 0 -0.00012276804604049887 -0.0002818656808858166 0 -7.4646414778756836e-05 -0.00019317393689722109 0 -9.090450960753893e-05 -0.00028554291606395756 0 -1.5944052604305923e-05 -0.0017682909935149002 0 -9.7024291475312444e-05 -0.0017499670650583086 0 -3.922844464815703e-05 -0.0016267247798338082 0 0.0008099871524176683 -0.0020698152097588566 0 0.00076532230013092047 -0.0021770188284977688 0 0.00073442644348290854 -0.002076417927364562 0 7.2473577654567594e-05 -0.0001633319184094334 0 0.00012095996493773923 -0.00023078164705873298 0 0.00011551206871534745 -0.00027226150793481946 0 -0.00031266384187396488 -0.0029188756229876411 0 -0.00038013386232047956 -0.0028336138125431365 0 -0.00032137514634921236 -0.0027755131306065571 0 -0.00072162293958860462 -0.0010813884876204032 0 -0.00064949245999238088 -0.00095173421371141367 0 -0.00064405314548468214 -0.0010356536442611979 0 0.00021723970079602425 -0.0028881304873487595 0 0.00028566685299420322 -0.0028772304134078073 0 0.00027350326873035581 -0.0030154620696517661 0 -0.00079208400621854551 -0.001913720217294586 0 -0.00078779248579185959 -0.002023845858819079 0 -0.00085926058411070277 -0.0020109605073631385 0 0.00073705250000620601 -0.001227686489194081 0 0.00070667400457281881 -0.0011158496060392018 0 0.00078304087793337014 -0.0011645064598463141 0 -5.3654218500434398e-05 -0.0001820477947993305 0 -7.4646414778756836e-05 -0.00019317393689722109 0 -3.8148261347602178e-05 -9.421321948556083e-05 0 0.00035126787435600117 -0.0029349873999182027 0 0.00027350326873035581 -0.0030154620696517661 0 0.00028566685299420322 -0.0028772304134078073 0 -0.00081884139928740799 -0.0021339779479724831 0 -0.00085926058411070277 -0.0020109605073631385 0 -0.00078779248579185959 -0.002023845858819079 0 0.00071405086182580314 -0.0010235246845794676 0 0.00078304087793337014 -0.0011645064598463141 0 0.00070667400457281881 -0.0011158496060392018 0 -7.6536467389066036e-05 -0.00015331989624935629 0 -3.8148261347602178e-05 -9.421321948556083e-05 0 -7.4646414778756836e-05 -0.00019317393689722109 0 0.00013399790222882392 -0.0025460130252213161 0 7.4747035203958382e-05 -0.0024875462780524792 0 0.00015008336276009734 -0.0024094347830058453 0 -0.00060743563390272873 -0.0017490348870765318 0 -0.00057235371251511511 -0.001645082987527541 0 -0.0005334572827195138 -0.0017637165572762649 0 0.00057720012933365017 -0.0013058378213410781 0 0.00055620693478650738 -0.001396721969729499 0 0.00050103979653776879 -0.0012609888965161408 0 -6.936501682010981e-05 -0.00044677796657343087 0 -4.1435238995776984e-05 -0.0004940153018773946 0 -9.2049195489087441e-05 -0.00056457799252022521 0 -0.0001117572749190031 -0.0020302330534651006 0 -6.4682535715692756e-05 -0.0021441764810814267 0 -0.00014417640078543813 -0.002148341908629412 0 -0.00010387607045469772 -0.0022721724032778792 0 -0.00014417640078543813 -0.002148341908629412 0 -6.4682535715692756e-05 -0.0021441764810814267 0 0.00031905394566064758 -0.0016692348368383817 0 0.00037797381334759439 -0.0015847586855775296 0 0.0003881747003075727 -0.0017293407532743895 0 -0.00030340980566313553 -0.0012818879572845325 0 -0.00037173127998817184 -0.0013770514498982177 0 -0.00036880637195354512 -0.0012535712054590046 0 0.00045567326291139548 -0.001674025599347624 0 0.0003881747003075727 -0.0017293407532743895 0 0.00037797381334759439 -0.0015847586855775296 0 -0.00043603954640194815 -0.00132402603224248 0 -0.00036880637195354512 -0.0012535712054590046 0 -0.00037173127998817184 -0.0013770514498982177 0 -7.0579850661437507e-05 -0.0012337807986255174 0 -5.9509686795421995e-05 -0.0010849039067752184 0 8.5632993322870226e-06 -0.0011478124639405932 0 -2.2057459978833222e-06 -0.0010276471045942454 0 8.5632993322870192e-06 -0.0011478124639405932 0 -5.9509686795421995e-05 -0.0010849039067752184 0 7.0988284607395667e-05 -0.00067961037158502358 0 0.00010769300666603961 -0.00079822259649033089 0 4.3239608909051358e-05 -0.0007896926279303885 0 -2.4848047930198425e-05 -0.00079161712843649548 0 4.3239608909051358e-05 -0.0007896926279303885 0 2.3540383385898405e-05 -0.0009038359079503105 0 -7.0579850661437507e-05 -0.0012337807986255174 0 -0.00014049637284144356 -0.0012876887323828433 0 -0.00012466732869755051 -0.0011486842392145345 0 -0.00018925145587432468 -0.0011960902147283826 0 -0.00012466732869755051 -0.0011486842392145345 0 -0.00014049637284144356 -0.0012876887323828433 0 0.0008093305866090822 -0.0014170273786759315 0 0.00084605649702635245 -0.001538841766752731 0 0.00077497281379308421 -0.0014936087980841055 0 -1.6332369320533444e-05 -0.00011396158240601538 0 -3.0400208955632555e-06 -7.8903821559247404e-05 0 -1.1735819054236073e-05 -0.00017234869173375617 0 0.00080651595804999258 -0.0016159690345402126 0 0.00077497281379308421 -0.0014936087980841055 0 0.00084605649702635245 -0.001538841766752731 0 5.3064299298891213e-06 -0.00014147067712877174 0 -1.1735819054236073e-05 -0.00017234869173375617 0 -3.0400208955632555e-06 -7.8903821559247404e-05 0 0.00010574275386776208 -0.0029864152040884129 0 3.0053470553171042e-05 -0.0030346351761722894 0 4.814290863532677e-05 -0.002898349399162259 0 -0.00083582993104937774 -0.0017442248513798054 0 -0.00085364829547211556 -0.0016306043974661773 0 -0.00078697377819387799 -0.001645883927278961 0 -2.6685611245572843e-05 -0.0029412713366421422 0 4.814290863532677e-05 -0.002898349399162259 0 3.0053470553171042e-05 -0.0030346351761722894 0 -0.0008004924177996191 -0.0015330814334125668 0 -0.00078697377819387799 -0.001645883927278961 0 -0.00085364829547211556 -0.0016306043974661773 0 0.00039730282448594792 -0.0021739051487354769 0 0.00041559228621831782 -0.0023325114119043381 0 0.00034690063145654024 -0.0022490946981804411 0 -0.00039958272953192044 -0.0021704993968778507 0 -0.00048951101186692106 -0.0022093603309912349 0 -0.00044302076848743653 -0.0020849749448040773 0 0.00031145692753614169 -0.0008175021703749455 0 0.00037984558111922996 -0.00080294037148084612 0 0.00036529411143959247 -0.00090944269222555173 0 -0.00030850161511381414 -0.00081403907780327556 0 -0.00028939937282315866 -0.00066651641484550715 0 -0.00025336547029226154 -0.00073263246913300207 0 -2.4848047930198425e-05 -0.00079161712843649548 0 9.8152668504624559e-06 -0.00067943111651737765 0 4.3239608909051358e-05 -0.0007896926279303885 0 -6.6562824106066057e-08 -0.0024166111468794786 0 -6.6869908813577873e-05 -0.0023741110789499056 0 -1.854424303001558e-05 -0.0022712315644727002 0 -0.00010387607045469772 -0.0022721724032778792 0 -1.854424303001558e-05 -0.0022712315644727002 0 -6.6869908813577873e-05 -0.0023741110789499056 0 0.00045567326291139548 -0.001674025599347624 0 0.00045027339874771091 -0.0015221835127744924 0 0.00051011232363119569 -0.0016191637915499437 0 0.00052717683483050255 -0.0015132595802874139 0 0.00051011232363119569 -0.0016191637915499437 0 0.00045027339874771091 -0.0015221835127744924 0 -0.00052741019924553128 -0.0015131822208566102 0 -0.00049626938417748293 -0.0013969665255372233 0 -0.00044628409841873082 -0.0014678530874569589 0 -0.00043603954640194815 -0.00132402603224248 0 -0.00044628409841873082 -0.0014678530874569589 0 -0.00049626938417748293 -0.0013969665255372233 0 7.0988284607395667e-05 -0.00067961037158502358 0 9.8152668504624492e-06 -0.00067943111651737765 0 4.0725281569093928e-05 -0.00058887651485839171 0 -1.1617811487408815e-07 -0.00055384625215541502 0 4.0725281569093928e-05 -0.00058887651485839182 0 9.8152668504624492e-06 -0.00067943111651737765 0 0.00027373575020047633 -0.0014870309574397476 0 0.00023393264972802253 -0.0013526163405065779 0 0.00030296417043168712 -0.0013649843618682798 0 -6.6562824106066057e-08 -0.0024166111468794786 0 -6.7737528735820675e-05 -0.0025104743825588374 0 -6.6869908813577873e-05 -0.0023741110789499056 0 -0.00052741019924553128 -0.0015131822208566102 0 -0.00056981231299828815 -0.0014114522209487824 0 -0.00049626938417748293 -0.0013969665255372233 0 0.00052717683483050255 -0.0015132595802874139 0 0.00058418791851854194 -0.0016357072689784217 0 0.00051011232363119569 -0.0016191637915499437 0 -1.1617811487408815e-07 -0.00055384625215541502 0 3.7015282991216036e-05 -0.00047341571473105817 0 4.0725281569093928e-05 -0.00058887651485839171 0 7.0988284607395667e-05 -0.00067961037158502358 0 4.3239608909051358e-05 -0.0007896926279303885 0 9.8152668504624492e-06 -0.00067943111651737765 0 0.00028594830228316942 -0.0021395684581122253 0 0.00034690063145654024 -0.0022490946981804411 0 0.00028037103532740454 -0.0022987518751622876 0 -0.00038309395004528906 -0.0019758687322020854 0 -0.00044302076848743653 -0.0020849749448040773 0 -0.00047358190555832043 -0.0019755336149961567 0 0.00032842894952636343 -0.0010020792345567281 0 0.00036529411143959247 -0.00090944269222555173 0 0.00041155081173440723 -0.0010278640961649207 0 -0.00022201858451891576 -0.00082515478881483879 0 -0.00025336547029226154 -0.00073263246913300207 0 -0.00019499690504898775 -0.00067584265687723377 0 0.0002539452137700346 -0.0012481712438084742 0 0.00030296417043168712 -0.0013649843618682798 0 0.00023393264972802253 -0.0013526163405065779 0 0.00093515003655241305 -0.0020562798646917885 0 0.00088200579998571965 -0.0021186379122109665 0 0.00087724217179460738 -0.002008767531768269 0 1.2093579175710098e-08 -1.0657370094326225e-07 0 3.6106494072235885e-05 -6.8180310885451701e-05 0 2.8667483589077191e-05 -7.043953660879308e-05 0 -0.00029971863137204165 -0.0031651787398142366 0 -0.00033991502579416394 -0.0030579252788555263 0 -0.0002717436135683647 -0.0030517875486511729 0 -0.00084461288438021057 -0.0011593410372702923 0 -0.00077899749397645156 -0.001073303117414437 0 -0.00080088185051682031 -0.0011752447568619145 0 0.00033167165092781221 -0.0024183550715726832 0 0.00039124461464939324 -0.0024878929051277998 0 0.00033370868630712121 -0.0025549753806145634 0 -0.0005397923798033075 -0.002070682211716001 0 -0.00057708069250437817 -0.0021765432862299121 0 -0.00061529517959152727 -0.0020829369958201911 0 0.00045624426159239219 -0.0009563731681047306 0 0.00046759965990872366 -0.00086472178534180064 0 0.00052569091131569759 -0.00097284346507876601 0 -0.00020989715890640647 -0.00057466100632642492 0 -0.00023275761112528481 -0.00052243461587351571 0 -0.00017840712473916998 -0.00045523410222103388 0 -0.0001117572749190031 -0.0020302330534651006 0 -4.3207220412002446e-05 -0.0020224909964134744 0 -6.4682535715692756e-05 -0.0021441764810814267 0 -0.00030340980566313553 -0.0012818879572845325 0 -0.00030974441974719521 -0.0014068688043819774 0 -0.00037173127998817184 -0.0013770514498982177 0 -7.0579850661437507e-05 -0.0012337807986255174 0 -0.00012466732869755051 -0.0011486842392145345 0 -5.9509686795421995e-05 -0.0010849039067752184 0 -0.0002716174940597002 -0.0017010605552855685 0 -0.00018551262209089397 -0.0017265418447885243 0 -0.00025207532387015985 -0.0018299896553748726 0 0.00021723970079602425 -0.0028881304873487595 0 0.00024721770847688208 -0.0027528368435292159 0 0.00028566685299420322 -0.0028772304134078073 0 -0.00079208400621854551 -0.001913720217294586 0 -0.00072172984345370201 -0.0019530949210268976 0 -0.00078779248579185959 -0.002023845858819079 0 0.00073705250000620601 -0.001227686489194081 0 0.0006582071926280453 -0.0011526109856438453 0 0.00070667400457281881 -0.0011158496060392018 0 -5.3654218500434398e-05 -0.0001820477947993305 0 -9.090450960753893e-05 -0.00028554291606395756 0 -7.4646414778756836e-05 -0.00019317393689722109 0 -0.00018329462503054219 -0.0018606841578822451 0 -0.00025207532387015985 -0.0018299896553748726 0 -0.00018551262209089397 -0.0017265418447885243 0 
</DataArray>
</PointData>
<CellData Scalars="" Vectors="" Tensors="stress,">
<DataArray type="Float64" Name="stress" NumberOfComponents="9" format="ascii">
6141650.7321125269 605484.72274678946 0 605484.72274678946 -101511845.63273644 0 0 0 -33379568.215218425 3890250.8621785641 -1582812.9145932198 0 -1582812.9145932198 -100915877.13134146 0 0 0 -33958969.194206953 767201.27214038372 -72196.63779810071 0 -72196.63779810071 -102014085.06158972 0 0 0 -35436409.326307416 -12908935.435347348 1766236.6442936659 0 1766236.6442936659 -102767653.68684036 0 0 0 -40486806.192765683 5418966.184705019 -710618.4185886085 0 -710618.4185886085 -101736998.48522353 0 0 0 -33711311.305181503 5247369.0737636089 -1106324.0233028829 0 -1106324.0233028829 -101904181.82450461 0 0 0 -33829884.462759376 -1458892.3742515445 366775.0438323915 0 366775.0438323915 -103007677.8100971 0 0 0 -36563299.564521849 -1316393.559515059 1115509.5441589057 0 1115509.5441589057 -102705007.01825231 0 0 0 -36407490.202218592 4851375.9892494678 -637250.14355379343 0 -637250.14355379343 -100081311.76428843 0 0 0 -33330477.521263599 1414932.7493821383 1059910.3624041677 0 1059910.3624041677 -98202352.199948788 0 0 0 -33875596.80769825 -221885.73973691463 1856058.8529319316 0 1856058.8529319316 -94579700.031708717 0 0 0 -33180555.020005882 -41461568.062273629 -14408205.552608255 0 -14408205.552608255 -99618206.681106567 0 0 0 -49377921.16018308 2069799.8062121868 -162026.37985236 0 -162026.37985236 -99794561.453820229 0 0 0 -34203666.576663017 300746.51240211719 162354.70081031322 0 162354.70081031322 -99665756.105844393 0 0 0 -34777753.357704818 3081462.0626755953 -4271535.3759970665 0 -4271535.3759970665 -96388169.221658587 0 0 0 -32657347.505643994 2102532.8316776752 174855.57009398937 0 174855.57009398937 -99787507.759411335 0 0 0 -34189741.224706888 -55693416.012534857 31889307.70030348 0 31889307.70030348 -103466521.78274018 0 0 0 -55705978.228346244 311731.51021385193 -181696.9513194561 0 -181696.9513194561 -99618826.150381088 0 0 0 -34757483.124058485 3152067.1090028882 4398487.9599943757 0 4398487.9599943757 -96085410.375910163 0 0 0 -32526670.143417567 -55945576.031757012 -31934944.724314205 0 -31934944.724314205 -103935022.90002982 0 0 0 -55958209.626125388 -780225.53442561626 1669689.7043967992 0 1669689.7043967992 -96507070.309821725 0 0 0 -34050553.545486569 -36554650.660938755 -19489660.03900199 0 -19489660.03900199 -89661748.25159575 0 0 0 -44175739.619387075 3766557.4041975737 -275828.01775729656 0 -275828.01775729656 -100064912.17435527 0 0 0 -33704424.169555068 282461.91434860229 352232.67195221782 0 352232.67195221782 -99313594.969076633 0 0 0 -34660896.569154978 315590.14971530437 -366365.87023845315 0 -366365.87023845315 -99323584.980717182 0 0 0 -34652798.190850616 -37218317.634433001 19333821.603148434 0 19333821.603148434 -90146027.483395875 0 0 0 -44577520.791240096 3848498.0574399233 309972.69910997152 0 309972.69910997152 -99994451.948093891 0 0 0 -33651083.861729026 -617973.19124776125 -1718712.5138194934 0 -1718712.5138194934 -96851605.355997205 0 0 0 -34114352.491535753 6790960.4336696863 -155242.65391969681 0 -155242.65391969681 -100799614.13510513 0 0 0 -32903028.795502424 2513484.7935199142 1968827.5020066202 0 1968827.5020066202 -99829377.674699306 0 0 0 -34060562.508412778 2251727.1918079853 -1444459.1325721741 0 -1444459.1325721741 -100387828.93802071 0 0 0 -34347635.611174583 -18980406.629145473 -189133.20814873278 0 -189133.20814873278 -97993578.326220751 0 0 0 -40940894.734378129 4366400.5182962418 -187845.10901235259 0 -187845.10901235259 -99964070.619706154 0 0 0 -33459184.535493374 580510.66344360029 343326.97118097544 0 343326.97118097544 -98510377.961026803 0 0 0 -34275453.554153882 480650.6182774023 1191137.5043959916 0 1191137.5043959916 -87587377.182553232 0 0 0 -30487354.297496468 -52582264.573811911 -17664189.930442151 0 -17664189.930442151 -97669009.021409839 0 0 0 -52587945.758327611 539446.48822559789 -381171.884344697 0 -381171.884344697 -98555485.648265556 0 0 0 -34305613.706014015 -52435157.853748262 17584415.992631458 0 17584415.992631458 -97393744.439702228 0 0 0 -52440115.802707665 4354501.7309634686 198537.44104904591 0 198537.44104904591 -100109534.65415668 0 0 0 -33514261.523117304 567053.15668648481 -1405122.9533454776 0 -1405122.9533454776 -87456180.717634678 0 0 0 -30411194.646331787 441216.63423967361 -434298.62594002485 0 -434298.62594002485 -98648824.878074646 0 0 0 -34372662.885342002 -34931714.92462644 15967501.508366093 0 15967501.508366093 -87519535.693283319 0 0 0 -42857937.71626842 5167845.1342409253 334310.64995753765 0 334310.64995753765 -99874355.52696836 0 0 0 -33147278.63745445 -1240580.3604493737 593992.89877877384 0 593992.89877877384 -94824132.936402917 0 0 0 -33622649.653898299 2950855.3439466953 -1028203.7916168869 0 -1028203.7916168869 -99232066.773489475 0 0 0 -33698424.000339746 3333433.6884308457 864493.65159368515 0 864493.65159368515 -99667545.003849387 0 0 0 -33716938.96039623 6429936.2849304676 633906.7574326992 0 633906.7574326992 -100985988.87364483 0 0 0 -33094618.406050205 3688841.3395186514 -1943775.2885019183 0 -1943775.2885019183 -100880307.54103827 0 0 0 -34017013.170531884 1639995.5494921505 368048.35961419344 0 368048.35961419344 -101726960.16636482 0 0 0 -35030437.615905493 -11195886.865144551 2139325.3933826853 0 2139325.3933826853 -99758213.905322909 0 0 0 -38833935.269663632 1966380.0426335335 -192142.38538885117 0 -192142.38538885117 -100211129.48655319 0 0 0 -34385662.305371761 420634.07907009125 249880.73861646652 0 249880.73861646652 -99932512.95217371 0 0 0 -34829157.605586052 -6960324.312476933 -8456030.0048990399 0 -8456030.0048990399 -109542261.1219967 0 0 0 -40775904.902065754 2009112.2801011801 201294.92799150944 0 201294.92799150944 -100256580.81236112 0 0 0 -34386613.986291051 -34931696.188138261 25220433.053741392 0 25220433.053741392 -95415855.637902901 0 0 0 -45621643.13911441 402620.89632081985 -272837.17856740952 0 -272837.17856740952 -99897460.807211876 0 0 0 -34823193.968811989 -6277240.7484607995 8651736.4077294767 0 8651736.4077294767 -109435875.28193542 0 0 0 -40499590.610638648 -35248030.126174569 -25293853.969401814 0 -25293853.969401814 -95039416.20047757 0 0 0 -45600606.214328259 -4502555.2447587252 -5476904.9158871323 0 -5476904.9158871323 -100932166.31724904 0 0 0 -36902152.546702743 -30747925.343308151 13182885.55442322 0 13182885.55442322 -102512739.51830956 0 0 0 -46641232.70156619 2727254.0424312353 -1409150.3478883505 0 -1409150.3478883505 -98414715.729099035 0 0 0 -33490611.590333581 4746811.3534971476 933395.03786507249 0 933395.03786507249 -99804883.969688416 0 0 0 -33270325.415666938 5210455.1869719028 -707637.54941368103 0 -707637.54941368103 -100136213.8578279 0 0 0 -33224015.534799576 939912.84837150574 1194920.1411733627 0 1194920.1411733627 -98927513.705958843 0 0 0 -34295660.30015564 -380971.68014037609 1234548.0046561658 0 1234548.0046561658 -98166639.590025067 0 0 0 -34491663.944557905 -27978721.954956599 -12448078.389542043 0 -12448078.389542043 -91600678.812501475 0 0 0 -41852790.268610321 -37170817.57526245 7053696.6328736916 0 7053696.6328736916 -95759798.315558314 0 0 0 -46525715.56178727 1511866.3099608421 -1587814.505672574 0 -1587814.505672574 -97143784.406514883 0 0 0 -33471171.333793879 655071.68597942591 552125.91804713011 0 552125.91804713011 -94981740.871836066 0 0 0 -33014334.215049803 6519195.224881053 504875.50751715899 0 504875.50751715899 -100349636.19774485 0 0 0 -32840654.340502024 6864039.6509008408 -130429.84540808201 0 -130429.84540808201 -100705472.1374917 0 0 0 -32844501.370306969 2777055.3137305975 1749624.9102517962 0 1749624.9102517962 -98706415.819386721 0 0 0 -33575276.176979542 2232904.3259801865 -1703981.7981430292 0 -1703981.7981430292 -98784658.86943984 0 0 0 -33793114.090210795 -25346423.631141871 -1404594.0956596583 0 -1404594.0956596583 -99256021.65200448 0 0 0 -43610855.849101186 2366839.5040957928 -830554.82849985361 0 -830554.82849985361 -100000781.01315784 0 0 0 -34171879.528171778 2648786.5316622257 891250.89215397835 0 891250.89215397835 -99916184.382240534 0 0 0 -34043589.247702122 -9072548.9985255599 14950155.344469622 0 14950155.344469622 -101150863.79955313 0 0 0 -38578194.479327559 -9966892.7374987304 -15313676.724921096 0 -15313676.724921096 -99815844.694536686 0 0 0 -38423958.101212382 -5765774.941526711 -7774276.9148998074 0 -7774276.9148998074 -104937483.00368905 0 0 0 -38746140.280825555 -19891750.835493542 14346782.285293937 0 14346782.285293937 -96346475.967718661 0 0 0 -40683379.381124295 -13872833.477500856 12542081.092870682 0 12542081.092870682 -105424668.4372468 0 0 0 -41754125.670161664 -22082632.094215363 -15624130.66302292 0 -15624130.66302292 -104702377.41974938 0 0 0 -44374753.329887599 5605532.1456071138 1128181.3275754452 0 1128181.3275754452 -101035337.83437014 0 0 0 -33400431.991067052 4529548.2769060135 -1830779.8996885717 0 -1830779.8996885717 -100000301.7160964 0 0 0 -33414763.703716755 -3093320.3830670118 -2226586.3866773546 0 -2226586.3866773546 -102826456.83059299 0 0 0 -37071922.024780989 -12495571.399591029 4187904.7058633566 0 4187904.7058633566 -102056362.94661793 0 0 0 -40093177.021173179 5041359.8064979315 615654.72848021984 0 615654.72848021984 -100047412.77291453 0 0 0 -33252118.538245797 -107115.71706360579 -1730664.742749393 0 -1730664.742749393 -94579057.755701184 0 0 0 -33140160.715467691 1558646.1894706488 -1108776.3512095213 0 -1108776.3512095213 -98128591.618636847 0 0 0 -33799480.900208235 -40675419.699836545 13882219.911781292 0 13882219.911781292 -98829837.995029658 0 0 0 -48826840.193203174 3837952.3687573075 966379.23424267769 0 966379.23424267769 -100272956.05480766 0 0 0 -33752251.290117562 2103594.1282141209 -1121208.1255541295 0 -1121208.1255541295 -99394417.473678112 0 0 0 -34051788.170912504 6043974.3324083686 1006436.6274499297 0 1006436.6274499297 -100720338.94287598 0 0 0 -33136727.613663733 4105740.0647619963 -1818184.5338688493 0 -1818184.5338688493 -100876738.13229871 0 0 0 -33869849.323637724 -1545885.2312488556 -751933.44920898974 0 -751933.44920898974 -101961686.29600096 0 0 0 -36227650.034537554 -12093274.322069407 4060561.7724675536 0 4060561.7724675536 -101758484.36233971 0 0 0 -39848115.539543152 4739981.732922554 -493089.78727543354 0 -493089.78727543354 -102537463.26800704 0 0 0 -34229118.537279606 771017.61539828777 -644739.89015194774 0 -644739.89015194774 -95331780.14260149 0 0 0 -33096266.884521127 -39704767.837216072 5631076.3603832982 0 5631076.3603832982 -88731676.218205243 0 0 0 -44952755.419397451 7435298.4663529396 139982.34643387794 0 139982.34643387794 -99937796.402055591 0 0 0 -32375874.277496099 -129725.34449136257 1242569.2349592634 0 1242569.2349592634 -93395558.857155085 0 0 0 -32733849.470576167 7416048.123847723 111836.47973132133 0 111836.47973132133 -100046658.97129822 0 0 0 -32420713.796607494 740317.23170310259 1787342.9984086156 0 1787342.9984086156 -95014170.453875065 0 0 0 -32995848.627760112 1490318.0757136345 -1277951.8172807693 0 -1277951.8172807693 -95428984.033758163 0 0 0 -32878533.085315585 -37439691.983097225 3174917.5313092731 0 3174917.5313092731 -92810106.624671459 0 0 0 -45587429.51271905 4174672.0115932524 -306421.21658301353 0 -306421.21658301353 -102550148.07697561 0 0 0 -34431416.622883886 386822.25065165013 -400422.55114591122 0 -400422.55114591122 -97780653.631710157 0 0 0 -34087840.98337049 -51207629.169040821 13683977.310368894 0 13683977.310368894 -95107438.205733806 0 0 0 -51210273.581171118 5432253.3081166744 242266.75141774307 0 242266.75141774307 -100134000.69991302 0 0 0 -33145611.587128878 647914.81779120257 83230.409214913845 0 83230.409214913845 -86789581.952814981 0 0 0 -30149583.497258268 1847375.6210666895 -2066114.0153732896 0 -2066114.0153732896 -98663721.05486846 0 0 0 -33885720.901830792 6947025.1411315203 398957.33179819584 0 398957.33179819584 -100227171.2956171 0 0 0 -32648051.15407002 -24999785.919919685 3129554.9019742757 0 3129554.9019742757 -93452735.694878414 0 0 0 -41458382.565179326 1587515.2731287479 1340990.666010201 0 1340990.666010201 -98613373.826159477 0 0 0 -33959050.493560791 2351865.0466605723 -1970626.6969546676 0 -1970626.6969546676 -97358665.752345443 0 0 0 -33252380.246989697 -32981430.209508955 4406303.9582195207 0 4406303.9582195207 -98134932.838108569 0 0 0 -45890727.066666126 6710175.7226061821 490398.21693041921 0 490398.21693041921 -100489551.70830059 0 0 0 -32822781.594993114 959266.98953971267 908038.51620084047 0 908038.51620084047 -96916963.321962178 0 0 0 -33585193.716347963 4130772.6185917854 -1637391.4837148339 0 -1637391.4837148339 -101595416.39935899 0 0 0 -34112625.323268414 6138960.5634883642 761064.32487654686 0 761064.32487654686 -101010521.48937553 0 0 0 -33205046.324060559 -7929216.2138323113 2207862.6258397698 0 2207862.6258397698 -101627438.14011708 0 0 0 -38344829.023882262 -423052.58543527126 246117.20219119824 0 246117.20219119824 -102633490.13670325 0 0 0 -36069789.952748537 6368998.3016285896 -373889.52456211485 0 -373889.52456211485 -101138896.98770666 0 0 0 -33169464.540127397 3613593.9702365473 1530490.725069344 0 1530490.725069344 -101762935.73509197 0 0 0 -34352269.617699377 2075670.4798156768 -845121.57410299778 0 -845121.57410299778 -102048337.55537421 0 0 0 -34990433.4764456 -7764374.9945256114 -1215741.8321777545 0 -1215741.8321777545 -100080597.5223707 0 0 0 -37745740.380913675 1202576.8089880347 2333010.7131828032 0 2333010.7131828032 -94908158.016983151 0 0 0 -32796953.422798276 -40256201.575702921 -20318771.139243346 0 -20318771.139243346 -99463856.829082534 0 0 0 -48902020.441674903 4134580.1265628934 -525290.36078238487 0 -525290.36078238487 -99625329.888544679 0 0 0 -33421762.416693628 1458707.74021101 663504.70132915676 0 663504.70132915676 -98531308.224286556 0 0 0 -33975410.16942668 1354068.4638365507 -617390.68897306919 0 -617390.68897306919 -98583192.084871769 0 0 0 -34030193.267362237 -39342928.275809795 21030959.738990542 0 21030959.738990542 -98577879.327534795 0 0 0 -48272282.661170587 4262490.6339147091 509461.31125295162 0 509461.31125295162 -99546561.357504845 0 0 0 -33349424.753256321 1342409.0873571038 -2344748.2498567402 0 -2344748.2498567402 -95294715.054823637 0 0 0 -32883307.088613331 6180151.2386412621 -557520.48146798834 0 -557520.48146798834 -101536547.7927072 0 0 0 -33374738.79392314 3810432.5436911434 1593932.7405959964 0 1593932.7405959964 -100906530.16716623 0 0 0 -33983634.168216243 822057.70633602887 -70974.912893980742 0 -70974.912893980742 -101894214.60508296 0 0 0 -35375254.914561383 -12545477.989991248 -1472199.0693360455 0 -1472199.0693360455 -102190341.82105374 0 0 0 -40157536.933865726 3689416.1423661709 -1721712.9204305112 0 -1721712.9204305112 -99578721.090438604 0 0 0 -33561256.731825352 5546538.604126215 1195019.8146461248 0 1195019.8146461248 -100151056.88662815 0 0 0 -33111581.398875594 -18354511.90259593 8223592.5769916773 0 8223592.5769916773 -101843378.44595572 0 0 0 -42069261.621993087 -4650327.7450913787 -3124558.0435748845 0 -3124558.0435748845 -102168911.02399099 0 0 0 -37386733.56917876 2940104.9357120991 -1869540.0234251022 0 -1869540.0234251022 -99678354.553025246 0 0 0 -33858387.366059661 -16655213.638367951 8207553.9811493754 0 8207553.9811493754 -97589976.751224607 0 0 0 -39985816.636357367 5287829.8569122553 1065864.7352636456 0 1065864.7352636456 -100346045.94146609 0 0 0 -33270375.62959373 -213555.91070985794 -2572698.213092804 0 -2572698.213092804 -101146075.05783755 0 0 0 -35475870.838991582 4856015.0620766878 -1423704.5394069552 0 -1423704.5394069552 -101288499.03408742 0 0 0 -33751369.390203953 5656406.1517198086 1011785.5582147241 0 1011785.5582147241 -101340368.65447915 0 0 0 -33489386.875965834 -7879503.6065522134 2342313.0218624622 0 2342313.0218624622 -103234681.79850352 0 0 0 -38889964.891769499 -3030647.2440872788 -1405846.0960164219 0 -1405846.0960164219 -102844305.41585493 0 0 0 -37056233.430979788 6221264.5248470297 -836358.40446734428 0 -836358.40446734428 -100123826.98944166 0 0 0 -32865896.862607956 5647102.7849106789 -991775.79156911373 0 -991775.79156911373 -100432724.32480717 0 0 0 -33174967.538963795 2806092.3466637135 1916592.0554634454 0 1916592.0554634454 -98894476.517438412 0 0 0 -33630934.459771156 2618080.885289669 1755654.9786723852 0 1755654.9786723852 -99243128.197164774 0 0 0 -33818766.559156418 -135068.29792964458 289570.54743588099 0 289570.54743588099 -99413022.82193017 0 0 0 -34841831.891950965 -1153841.8447958231 1728728.0049231052 0 1728728.0049231052 -101309615.51958156 0 0 0 -35862210.077532053 -23953880.255942628 -7093697.1258054972 0 -7093697.1258054972 -98665269.00251849 0 0 0 -42916702.240461394 -20408681.534314454 -8514980.4881301671 0 -8514980.4881301671 -96753879.025620818 0 0 0 -41006896.19597733 5355213.1104255915 182966.10010325909 0 182966.10010325909 -102478155.55713475 0 0 0 -33993029.856348157 -1177725.6299481392 529864.35331110656 0 529864.35331110656 -102875929.70244646 0 0 0 -36418779.366338015 7213071.0446557999 180496.56016203761 0 180496.56016203761 -100230468.96530485 0 0 0 -32556089.272227049 1414126.6448667049 1238480.6879723668 0 1238480.6879723668 -96263765.279853225 0 0 0 -33197373.522245288 1103959.8826084733 -1949491.6755158901 0 -1949491.6755158901 -97168594.821334898 0 0 0 -33622622.22855407 -32034364.111972526 1003136.5497824298 0 1003136.5497824298 -92828338.961745113 0 0 0 -43701946.075801164 5196042.5836232901 -170235.94698193669 0 -170235.94698193669 -102072399.70839238 0 0 0 -33906724.993669271 5437986.6563155651 -328604.81621560082 0 -328604.81621560082 -102391698.88723588 0 0 0 -33933799.280822277 -28618292.983916059 8662883.6462817639 0 8662883.6462817639 -93623495.070707366 0 0 0 -42784625.819118187 1748798.4780406952 -1469427.8297214657 0 -1469427.8297214657 -98162315.382803679 0 0 0 -33744730.916666746 6556606.1601614058 572112.49109327793 0 572112.49109327793 -99936513.655724525 0 0 0 -32682967.623447269 1388595.3487701416 754845.25896811113 0 754845.25896811113 -97049666.824333429 0 0 0 -33481375.016447067 3772175.8209373951 -1394126.7318122387 0 -1394126.7318122387 -99275908.129656553 0 0 0 -33426306.308051586 3777628.2456805706 1258015.3902511001 0 1258015.3902511001 -99867296.035730362 0 0 0 -33631383.726517439 -14732677.071790993 9880022.0679102838 0 9880022.0679102838 -102199897.79711753 0 0 0 -40926401.204117954 -12287831.62944746 -10004253.302481368 0 -10004253.302481368 -104565609.5873726 0 0 0 -40898704.425886989 2917573.0705282688 -1983555.6146523058 0 -1983555.6146523058 -99820666.333534956 0 0 0 -33916082.642052531 6183810.1104428768 884963.77522045374 0 884963.77522045374 -100344975.7647326 0 0 0 -32956407.979001522 -17049972.116768032 6209419.8994502723 0 6209419.8994502723 -96376994.247439802 0 0 0 -39699438.227472737 931847.35158610344 -512096.22010147572 0 -512096.22010147572 -100668716.45699108 0 0 0 -34907904.186891675 4654080.9608933032 -1043027.2082082629 0 -1043027.2082082629 -102281828.98492414 0 0 0 -34169711.808410853 4895907.3822293282 -732087.62473541498 0 -732087.62473541498 -99619090.359924316 0 0 0 -33153114.042193174 1689847.2417119741 1066181.3424937725 0 1066181.3424937725 -98647793.143907785 0 0 0 -33935281.0657686 3723217.7773990631 -663704.47407054901 0 -663704.47407054901 -100236174.89287853 0 0 0 -33779534.990417719 1299827.7298724651 888655.61276000738 0 888655.61276000738 -99432063.852627516 0 0 0 -34346282.642964363 4412460.6556310654 -1307022.1507340986 0 -1307022.1507340986 -99701866.55066061 0 0 0 -33351292.063260317 3481258.7721161842 -1244464.9905219674 0 -1244464.9905219674 -100094688.90027618 0 0 0 -33814700.544856071 3319531.1974952957 1459489.8314757347 0 1459489.8314757347 -100052288.32831906 0 0 0 -33856464.995788261 3751867.1644665003 1347436.8885247707 0 1347436.8885247707 -99361495.348536968 0 0 0 -33463369.864424825 -4938389.42939239 6478759.121642381 0 6478759.121642381 -100475087.78451353 0 0 0 -36894717.02486708 -11322558.66244559 9665427.5126769245 0 9665427.5126769245 -104261608.52314556 0 0 0 -40454458.514956906 -12332413.862774551 -9937900.5833403822 0 -9937900.5833403822 -101180283.45748383 0 0 0 -39729444.062090456 -13660359.150963485 -9910759.8199767098 0 -9910759.8199767098 -101638391.37039322 0 0 0 -40354562.682474852 1260837.3085227013 -192597.70269143581 0 -192597.70269143581 -100143603.00199938 0 0 0 -34608967.992716789 -18210633.882125616 23022374.184077434 0 23022374.184077434 -127890878.59984487 0 0 0 -51135529.368689671 -21519818.358119443 25548449.308243208 0 25548449.308243208 -105403965.34066334 0 0 0 -44423324.294573963 1136390.2331879139 226634.6907273531 0 226634.6907273531 -99840415.802126884 0 0 0 -34546408.949128628 1151168.1400840282 -216471.75146645308 0 -216471.75146645308 -99818974.428122044 0 0 0 -34533732.200813532 -21610854.6822927 -25495012.270651288 0 -25495012.270651288 -105273135.33935796 0 0 0 -44409396.507577717 -16866279.13504532 -22536983.142285723 0 -22536983.142285723 -127298615.75043827 0 0 0 -50457713.209919259 1253238.9094760418 181328.36585080624 0 181328.36585080624 -100197996.27338815 0 0 0 -34630665.077369213 1520709.0550985336 -1462898.2983086109 0 -1462898.2983086109 -97437622.42011857 0 0 0 -33570919.677757144 7055125.1568318605 374178.86878347397 0 374178.86878347397 -99961560.812407494 0 0 0 -32517252.479451299 -30515647.040117174 5818992.0217197537 0 5818992.0217197537 -91378431.091145724 0 0 0 -42662927.34594202 1043284.0350964665 1493791.5625277162 0 1493791.5625277162 -96480938.993271828 0 0 0 -33403179.235361397 5500588.2712718844 -1065667.3731923699 0 -1065667.3731923699 -101309023.43501651 0 0 0 -33532952.30731076 4912436.238041997 1343563.7047697008 0 1343563.7047697008 -101600501.66558456 0 0 0 -33840822.899639964 -3267633.2494310141 852097.30866687 0 852097.30866687 -102940491.84080887 0 0 0 -37172843.781583905 -5277192.5345444083 -1988863.3603918254 0 -1988863.3603918254 -102601394.56371546 0 0 0 -37757505.484391034 233241.38409790641 -634501.8501367569 0 -634501.8501367569 -94465372.294266969 0 0 0 -32981245.818559196 -49788339.681177504 3819167.2901666542 0 3819167.2901666542 -92474982.765686169 0 0 0 -49792162.856402285 7642573.8447167873 134450.58528082957 0 134450.58528082957 -100082417.40738106 0 0 0 -32353945.246932507 876619.21590190963 640074.31303274632 0 640074.31303274632 -89616514.067176715 0 0 0 -31058963.197946131 1302525.3018766493 14935140.056783251 0 14935140.056783251 -106815522.78365555 0 0 0 -36929549.118622616 -40151683.721286088 -34288532.057307974 0 -34288532.057307974 -112971340.94302714 0 0 0 -53593058.632509634 -39809530.929011971 34197304.261792779 0 34197304.261792779 -113142089.86550462 0 0 0 -53533067.278080791 592410.15165066719 -120794.78235545754 0 -120794.78235545754 -99825177.09842968 0 0 0 -34731468.431372404 1490478.9060940742 -148678.78395670652 0 -148678.78395670652 -99681700.187535763 0 0 0 -34366927.448504448 589841.90403604507 112130.62832081318 0 112130.62832081318 -99808304.838832378 0 0 0 -34726462.027178764 1143901.1269155145 -14771899.893757902 0 -14771899.893757902 -107297634.3576417 0 0 0 -37153806.630754173 1478699.4133397937 146890.97821712494 0 146890.97821712494 -99695539.83424294 0 0 0 -34375894.147316039 7325345.6994621903 -143796.5601824522 0 -143796.5601824522 -100139159.94461572 0 0 0 -32484834.985803589 12510.663740873337 860870.28568729386 0 860870.28568729386 -96218767.488644838 0 0 0 -33672189.88871634 639654.59888768196 -468338.52889700979 0 -468338.52889700979 -92920321.194041252 0 0 0 -32298233.308303714 -39248609.674313314 -3614259.512764886 0 -3614259.512764886 -88876053.491661549 0 0 0 -44843632.108091198 -17040657.952992916 14613051.36556422 0 14613051.36556422 -101877244.82986277 0 0 0 -41621265.97399947 -5967383.1732728928 -8758350.3619741797 0 -8758350.3619741797 -100638417.53944606 0 0 0 -37312030.249451652 5348113.208150655 -1103807.9882376194 0 -1103807.9882376194 -99847384.040556759 0 0 0 -33074744.79134199 3379429.3036956787 1616873.2950046062 0 1616873.2950046062 -98964357.775957584 0 0 0 -33454724.965291977 -3548998.1725441217 3626001.8976323474 0 3626001.8976323474 -101152174.28277647 0 0 0 -36645410.359362125 -23043392.160465464 -10208557.065146297 0 -10208557.065146297 -102339367.05389702 0 0 0 -43883965.725026891 7075384.1990194321 -68723.304954119027 0 -68723.304954119027 -100491090.54781199 0 0 0 -32695497.22207737 2190779.4953707308 2065991.5376116633 0 2065991.5376116633 -97234079.852954686 0 0 0 -33265155.125154391 2188608.3636967242 -1627059.7030106187 0 -1627059.7030106187 -97173836.468475223 0 0 0 -33244829.836672515 -31158398.476748586 225718.65133647807 0 225718.65133647807 -97528924.963091999 0 0 0 -45040563.203944206 186738.46369823813 -696676.9473696053 0 -696676.9473696053 -97927722.221602291 0 0 0 -34209344.31526646 5567310.6822974682 727425.85548508167 0 727425.85548508167 -100011241.45903873 0 0 0 -33055375.771859646 -29356365.440144598 12521140.705703873 0 12521140.705703873 -92423834.498217911 0 0 0 -42623069.978426889 1225939.5243045688 -1214302.1691201329 0 -1214302.1691201329 -98579250.001526058 0 0 0 -34073658.667027652 3954226.9249490499 -1853384.8505523205 0 -1853384.8505523205 -99918966.882703662 0 0 0 -33587658.985213876 5263060.5587797165 1275340.5769877136 0 1275340.5769877136 -100741370.77903891 0 0 0 -33417408.577090979 -12329328.096708506 6143224.4220066443 0 6143224.4220066443 -99596403.294983685 0 0 0 -39174005.987092286 -2191798.7181212306 -3113303.6893417239 0 -3113303.6893417239 -101889268.29121178 0 0 0 -36428373.453266561 2626896.8120087683 -1124310.8129677773 0 -1124310.8129677773 -99703395.47094804 0 0 0 -33976774.530628651 4000046.910595417 1067967.4186262041 0 1067967.4186262041 -99652861.717635155 0 0 0 -33478485.182464123 3496144.6276820302 -1242710.9711052775 0 -1242710.9711052775 -102139347.60632539 0 0 0 -34525121.042525232 2876954.6409002244 -837972.87504428625 0 -837972.87504428625 -101997406.2225028 0 0 0 -34692158.053560883 4342514.5771400928 -1711663.0026367903 0 -1711663.0026367903 -99989614.996284962 0 0 0 -33476485.146700859 5493792.6666070223 1303328.1418734789 0 1303328.1418734789 -100247352.9962976 0 0 0 -33163746.115391612 -14032648.656478405 5885355.1997170746 0 5885355.1997170746 -103035657.44186339 0 0 0 -40973907.13441968 -5747080.7816030979 -3204095.2528879642 0 -3204095.2528879642 -103099999.93864679 0 0 0 -38096478.252087593 2431280.4124364853 -317005.14096069336 0 -317005.14096069336 -99486026.68550688 0 0 0 -33969161.19557476 1451380.1695170403 376004.4060863927 0 376004.4060863927 -99325499.303611279 0 0 0 -34255941.69693327 -7037655.3980038464 12897283.913954813 0 12897283.913954813 -103470883.19475275 0 0 0 -38677988.507464767 1464679.388250947 -398661.95724970102 0 -398661.95724970102 -99296249.877571821 0 0 0 -34241049.671262264 -38028874.344256662 28954833.482477132 0 28954833.482477132 -113361038.8710016 0 0 0 -52986469.625340424 -38395550.384259284 -28132237.387236588 0 -28132237.387236588 -113768508.15708613 0 0 0 -53257420.489470884 2502522.4367849827 335016.3753837347 0 335016.3753837347 -99500302.2556777 0 0 0 -33949222.936612368 -6750835.1847097576 -12964725.760989204 0 -12964725.760989204 -103847205.52951199 0 0 0 -38709314.249977589 -1869604.9009876847 -56344.575419843197 0 -56344.575419843197 -103172651.78937455 0 0 0 -36764789.841626704 -3166612.7783051729 -173816.10998722911 0 -173816.10998722911 -103055375.00073576 0 0 0 -37177695.722664475 4218417.8616276085 -1092288.894277513 0 -1092288.894277513 -101785109.44862336 0 0 0 -34148342.055448502 6876728.164035812 144332.82330787182 0 144332.82330787182 -100718231.65935437 0 0 0 -32844526.223361477 2393527.6135150194 1509098.7186282519 0 1509098.7186282519 -100153353.77637029 0 0 0 -34215939.156999469 2695785.2088565826 -1877227.8141715564 0 -1877227.8141715564 -99656516.926122904 0 0 0 -33936256.101043224 -19397788.561132051 532173.06787121296 0 532173.06787121296 -98132920.823362693 0 0 0 -41135748.284573205 4979822.9085726738 -993087.08320578933 0 -993087.08320578933 -100364592.99729776 0 0 0 -33384669.531053782 2037591.8715440035 1643088.5455935001 0 1643088.5455935001 -99401190.575260162 0 0 0 -34077259.546300769 -1384165.2759190351 2742362.9267387092 0 2742362.9267387092 -100944141.18698335 0 0 0 -35814907.262015834 -19299125.172151476 -10169400.140460541 0 -10169400.140460541 -94401868.227974504 0 0 0 -39795347.69004412 4511692.3019049764 -1802303.1502901912 0 -1802303.1502901912 -100733505.3675164 0 0 0 -33677634.572963953 5741868.697894454 1059243.8143295646 0 1059243.8143295646 -101373375.89339566 0 0 0 -33471027.518425345 -7842460.4445189238 2036677.7381155491 0 2036677.7381155491 -101507968.91189742 0 0 0 -38272650.274745762 -367001.7930997014 -1061817.8646320105 0 -1061817.8646320105 -102288626.27212 0 0 0 -35929469.822826922 2343196.8712738752 -1501745.8125165105 0 -1501745.8125165105 -99800226.713827133 0 0 0 -34109960.444893479 -16528058.370926321 11453916.286324859 0 11453916.286324859 -96911472.647454172 0 0 0 -39703835.856433183 4609897.7926408052 1085005.6975491643 0 1085005.6975491643 -100247623.03295708 0 0 0 -33473203.834110618 -2000537.8047109842 -4675450.5365646929 0 -4675450.5365646929 -101290717.35500073 0 0 0 -36151939.305899084 4661272.7866294384 -623146.35762041807 0 -623146.35762041807 -102124023.45669031 0 0 0 -34111962.734521389 3721836.6921474934 595083.16737520695 0 595083.16737520695 -102526601.64560151 0 0 0 -34581667.733708858 3076333.3458776474 226644.4200156033 0 226644.4200156033 -102969582.88058543 0 0 0 -34962637.337147832 5620180.5388689041 670223.3935752809 0 670223.3935752809 -101878712.52304626 0 0 0 -33690486.194462061 5395876.222933054 573223.77613973618 0 573223.77613973618 -101926903.09826612 0 0 0 -33785859.406366587 -4646662.6311722398 5844777.1986701936 0 5844777.1986701936 -102064024.30653381 0 0 0 -37348740.428197086 -31110862.248592585 -14080099.226942733 0 -14080099.226942733 -102282333.0723674 0 0 0 -46687618.36233598 2442717.3196930885 290526.83573682606 0 290526.83573682606 -102836078.29218554 0 0 0 -35137676.340372324 4992602.6007242203 -297993.89003390074 0 -297993.89003390074 -99960046.727097273 0 0 0 -33238605.444230795 410821.82542037964 421544.25354966521 0 421544.25354966521 -98595480.070100546 0 0 0 -34364630.385637999 -1038838.0952195525 -288304.45831108093 0 -288304.45831108093 -94436569.662531376 0 0 0 -33416392.715212822 -35534908.71792201 -15745318.027963467 0 -15745318.027963467 -87822421.899003357 0 0 0 -43175065.715923876 849071.84456038475 -1592929.9084081799 0 -1592929.9084081799 -96488072.293727875 0 0 0 -33473650.157208443 -39575665.278350592 3699144.5173872113 0 3699144.5173872113 -94076755.826495022 0 0 0 -46778347.386695966 7031212.592609182 336021.33065772057 0 336021.33065772057 -100305974.94250154 0 0 0 -32646166.822462067 1429048.9618035555 799967.40002372116 0 799967.40002372116 -93281622.260412931 0 0 0 -32148400.65451324 4837321.6848245636 526811.0401904583 0 526811.0401904583 -102209961.27405198 0 0 0 -34080423.856229447 -5370471.8865959905 -1004232.778192848 0 -1004232.778192848 -102329432.12383264 0 0 0 -37694966.403650075 -8846076.0537219346 -208076.4493971467 0 -208076.4493971467 -102854867.14329556 0 0 0 -39095330.118956178 7143048.8450922966 -119958.12387627967 0 -119958.12387627967 -99920283.127018452 0 0 0 -32472031.998674154 604400.89735654602 437118.89884668589 0 437118.89884668589 -95502872.390005261 0 0 0 -33214465.022426926 562701.24422187742 -890053.48458349705 0 -890053.48458349705 -88171057.799700588 0 0 0 -30662924.79441743 -49650895.742692567 -8624557.939109752 0 -8624557.939109752 -92218147.676895007 0 0 0 -49654165.196855649 4216939.5412861407 -1547188.2595404387 0 -1547188.2595404387 -100374549.97113061 0 0 0 -33655163.650445431 4424531.0078544617 1601381.4534825832 0 1601381.4534825832 -100027959.53183651 0 0 0 -33461199.983393669 -7680417.0946534872 6720928.5422188081 0 6720928.5422188081 -101537307.7097367 0 0 0 -38226203.681536555 -7367214.0874731466 -6256120.0889890492 0 -6256120.0889890492 -101302374.05061322 0 0 0 -38034355.848330222 -10231151.566490382 34101300.347772896 0 34101300.347772896 -145290145.09731975 0 0 0 -54432453.83233355 -40910153.429055586 -34062765.957289964 0 -34062765.957289964 -113469798.22682771 0 0 0 -54032983.079559177 -40992617.652486049 34217764.66794771 0 34217764.66794771 -113752250.2111236 0 0 0 -54160703.752263367 -10032605.027023271 -33949852.512994051 0 -33949852.512994051 -145100102.92545059 0 0 0 -54296447.783365861 367579.2530374527 26581.840147256851 0 26581.840147256851 -100128214.69747972 0 0 0 -34916222.405554771 794890.48710423708 -42733.285074949265 0 -42733.285074949265 -100093425.09672749 0 0 0 -34754487.113368213 769866.8398039341 42226.87650513649 0 42226.87650513649 -100113622.59781599 0 0 0 -34770314.515304327 374354.71852445602 -16493.812272727489 0 -16493.812272727489 -100109581.73505306 0 0 0 -34907329.455785275 1268960.2885016799 -532367.89298188686 0 -532367.89298188686 -99998262.779697478 0 0 0 -34555255.871918499 2128948.3974413872 498700.66809305549 0 498700.66809305549 -100213676.88989925 0 0 0 -34329654.972360373 1868096.3751721382 -699352.1785172224 0 -699352.1785172224 -99010060.779408693 0 0 0 -33999687.541482687 -7854812.3592025042 9873418.7532805055 0 9873418.7532805055 -103394438.50367272 0 0 0 -38937237.802006245 3413042.9021294117 607662.13428342342 0 607662.13428342342 -99491242.281918526 0 0 0 -33627369.782926321 -34674340.157907963 -21653576.665689845 0 -21653576.665689845 -106859513.61245456 0 0 0 -49536848.819626883 -7978421.0099647045 13744065.872489423 0 13744065.872489423 -108143119.55879104 0 0 0 -40642539.199064553 -15504050.856408685 -22138077.838660862 0 -22138077.838660862 -96749743.170225739 0 0 0 -39288827.909322053 4253751.6938463449 -757567.70352885127 0 -757567.70352885127 -102474973.72306681 0 0 0 -34377427.710227132 -2272779.5687078834 1080033.089927651 0 1080033.089927651 -102284548.05472255 0 0 0 -36595064.668200612 6018279.9723689556 1000977.7191790789 0 1000977.7191790789 -100720586.6388936 0 0 0 -33145807.333283663 3513858.6010843515 -1906244.8767040968 0 -1906244.8767040968 -99526314.438421369 0 0 0 -33604359.543068051 -1693003.0074677169 -1180855.5612064004 0 -1180855.5612064004 -101867420.91715205 0 0 0 -36246148.373616904 -19657576.592270076 5235199.702688843 0 5235199.702688843 -100737917.04921567 0 0 0 -42138422.77451998 -443433.87679246068 -105430.17955181003 0 -105430.17955181003 -103112712.10447335 0 0 0 -36244651.093443125 1565802.5076800585 -108325.74303135276 0 -108325.74303135276 -102281256.06021893 0 0 0 -35250408.743388593 5368658.9169936031 979410.95659458637 0 979410.95659458637 -101914113.52941898 0 0 0 -33790909.114349142 7050655.9490644932 -106336.55786478519 0 -106336.55786478519 -100345160.88642263 0 0 0 -32653076.728075504 1928974.7178561687 1916703.578305006 0 1916703.578305006 -99118984.736634016 0 0 0 -34016503.506572127 1577423.4569330215 -1873351.9864699841 0 -1873351.9864699841 -99175679.151148796 0 0 0 -34159389.492975473 -22678614.297684401 -1042997.1214073747 0 -1042997.1214073747 -94097353.348005891 0 0 0 -40871588.675991595 5133504.7305886745 912234.65029469132 0 912234.65029469132 -101805651.33906031 0 0 0 -33835251.312965393 5030178.7476704121 -1507073.7272875309 0 -1507073.7272875309 -101059952.3069129 0 0 0 -33610420.74573493 5297799.3338489532 1416092.3314849138 0 1416092.3314849138 -101184007.82972264 0 0 0 -33560172.973555684 -4239015.5120829642 2086568.7522262931 0 2086568.7522262931 -101593156.37465334 0 0 0 -37041260.160357714 -2486162.5381169319 -1840179.2262481079 0 -1840179.2262481079 -102362754.9408958 0 0 0 -36697121.117654443 5216449.5705645084 -1240164.5403431654 0 -1240164.5403431654 -100364756.21350479 0 0 0 -33301907.325028896 3182453.118252039 1726254.374229908 0 1726254.374229908 -100035128.14013863 0 0 0 -33898436.257660627 -2431712.438138783 3366686.3430115581 0 3366686.3430115581 -101492157.56412792 0 0 0 -36373354.500793338 -14057541.752782643 -8705806.827385053 0 -8705806.827385053 -98339781.404489756 0 0 0 -39339063.105045319 -2069622.3225446045 -314964.28847432137 0 -314964.28847432137 -102790197.73363052 0 0 0 -36700937.019661337 4311624.4094718695 -1200567.0599699616 0 -1200567.0599699616 -100397300.22318363 0 0 0 -33629986.534799099 3100963.9225838184 1531852.569747746 0 1531852.569747746 -99469386.471294165 0 0 0 -33728947.892048597 -5316768.640542984 6435541.3840988725 0 6435541.3840988725 -103601782.37668729 0 0 0 -38121492.856030703 -19752698.380690604 -10352391.717964634 0 -10352391.717964634 -100597095.29149625 0 0 0 -42122427.785265386 5080873.705123812 -801337.77697843313 0 -801337.77697843313 -102331941.13714093 0 0 0 -34037873.601205915 3235476.3386159837 -1823685.6186329722 0 -1823685.6186329722 -98689010.194438815 0 0 0 -33408736.849538118 -25435909.283643514 7960404.4977024868 0 7960404.4977024868 -101246985.6728133 0 0 0 -44339013.234759897 5964270.3420972824 903512.41733650863 0 903512.41733650863 -100351302.74165869 0 0 0 -33035461.339846611 -2205601.264938131 -1227814.4488935471 0 -1227814.4488935471 -100784733.96573058 0 0 0 -36046617.330734089 4357876.3924694061 1480900.978488028 0 1480900.978488028 -99493045.512333155 0 0 0 -33297309.191952229 4492286.7888360023 -1425366.0562560558 0 -1425366.0562560558 -99555024.032142639 0 0 0 -33271958.035157204 -14414357.085173666 -8312753.223615557 0 -8312753.223615557 -104385956.96674705 0 0 0 -41580109.91817224 -13023115.052577257 7714413.1778588295 0 7714413.1778588295 -104517494.86183381 0 0 0 -41139213.470043898 5765575.0664650202 108986.63020816445 0 108986.63020816445 -101764886.35879445 0 0 0 -33599758.952315211 -400211.51308906078 547797.93237161636 0 547797.93237161636 -102998215.76377416 0 0 0 -36189449.546902061 526265.03966879845 95976.430846884847 0 95976.430846884847 -102751669.78114438 0 0 0 -35778891.659516454 4737007.4050577879 -1598667.3315973282 0 -1598667.3315973282 -100859255.05714083 0 0 0 -33642786.678228974 5488372.4041595459 1361154.0323075056 0 1361154.0323075056 -100425809.9481225 0 0 0 -33228103.14038682 4348486.1406048536 -1853555.8634660244 0 -1853555.8634660244 -100555235.92609239 0 0 0 -33672362.424920559 5364563.8419867754 1363124.7864655256 0 1363124.7864655256 -100772974.75909734 0 0 0 -33392943.820988536 -8857941.7203732729 4383815.6690692976 0 4383815.6690692976 -102872910.94533277 0 0 0 -39105798.432997167 -6183598.5892339051 -2719940.7432344854 0 -2719940.7432344854 -102993799.70677188 0 0 0 -38212089.403601974 -8170377.0723108351 4261092.416694805 0 4261092.416694805 -100269937.80487758 0 0 0 -37954110.207015961 -2017805.0532878637 -2641698.1643974781 0 -2641698.1643974781 -101672267.85495275 0 0 0 -36291525.517884195 5477213.8416857719 -826797.83756965399 0 -826797.83756965399 -99767047.667586803 0 0 0 -33001441.839065313 2495477.5027295649 1384027.000138998 0 1384027.000138998 -98014172.655751348 0 0 0 -33431543.303557724 -1835872.5567277968 2919604.5027816296 0 2919604.5027816296 -99355420.076446787 0 0 0 -35416952.4216111 -34574490.819771081 -13023411.96273277 0 -13023411.96273277 -103689054.56681508 0 0 0 -48392240.885305136 6182572.3453805447 -963604.12407151237 0 -963604.12407151237 -100720923.10803246 0 0 0 -33088422.766927958 5836508.6950953007 -1028299.7650896311 0 -1028299.7650896311 -100951949.32622766 0 0 0 -33290404.220896482 3799310.1577499826 1933566.8417326808 0 1933566.8417326808 -100744301.28819248 0 0 0 -33930746.895654947 4143154.4267579913 1955862.8158125281 0 1955862.8158125281 -99756611.788404107 0 0 0 -33464710.076576054 401442.77303166036 338683.18789502978 0 338683.18789502978 -101827355.56784396 0 0 0 -35499069.478184395 -1618514.2486717701 1579261.7071104944 0 1579261.7071104944 -102161675.75429344 0 0 0 -36323066.501037836 -11533636.484302133 -3772679.5808681347 0 -3772679.5808681347 -99712217.50725019 0 0 0 -38936048.897043318 -15308070.862409413 -4029063.90346203 0 -4029063.90346203 -101546804.62752295 0 0 0 -40899206.421476424 1182651.5245694518 -844151.9461735487 0 -844151.9461735487 -96736635.103419542 0 0 0 -33443894.252597392 -35900194.153940581 8580746.0563595816 0 8580746.0563595816 -90834153.353073448 0 0 0 -44357021.627454914 6928654.4226472378 273486.92144197226 0 273486.92144197226 -99881647.974827766 0 0 0 -32533547.743263483 814828.37289819121 1221573.3084048629 0 1221573.3084048629 -94389112.762276888 0 0 0 -32750999.536282569 5295063.2466391325 -1337148.4727993608 0 -1337148.4727993608 -101523875.95216012 0 0 0 -33680084.446932316 5259718.0975575447 1392418.1547158957 0 1392418.1547158957 -100909753.15084434 0 0 0 -33477512.268650293 -3719574.9566881061 2300846.8070015907 0 2300846.8070015907 -102719247.46539366 0 0 0 -37253587.84772861 -4440556.684977293 -1969232.3528926075 0 -1969232.3528926075 -102152774.7196126 0 0 0 -37307665.991606474 4909625.0915926695 -1520880.1387079954 0 -1520880.1387079954 -100002309.23867917 0 0 0 -33282439.451480389 4152839.1085586548 1707806.4534327388 0 1707806.4534327388 -100442136.35479021 0 0 0 -33701254.036181211 -6321761.9707401395 4255574.7038089335 0 4255574.7038089335 -101491895.473153 0 0 0 -37734780.105362535 -10023134.390155375 -6506782.058026731 0 -6506782.058026731 -102810756.52108455 0 0 0 -39491861.818933964 4593762.6428925991 572715.57145267725 0 572715.57145267725 -102632863.89721537 0 0 0 -34313685.439013004 -49830927.546261892 -5919071.9939485975 0 -5919071.9939485975 -92546648.214410082 0 0 0 -49832151.516235188 888193.25048265152 -1079015.4170271754 0 -1079015.4170271754 -89590499.675701186 0 0 0 -31045807.24882653 886200.6684610456 377813.30357724428 0 377813.30357724428 -94076688.999020413 0 0 0 -32616670.915695824 7708776.7198438644 -46621.471705371208 0 -46621.471705371208 -99898037.580897331 0 0 0 -32266241.30136919 -10326850.759696852 12020088.925116956 0 12020088.925116956 -115525246.39299493 0 0 0 -44048234.003442124 -56026041.48276113 -31952140.152232777 0 -31952140.152232777 -103984641.69718564 0 0 0 -56003739.112981364 1277269.6819205284 -57678.735882152127 0 -57678.735882152127 -100165541.69250202 0 0 0 -34610895.203703642 204946.92284941673 46821.65131354332 0 46821.65131354332 -99943030.469741344 0 0 0 -34908329.241412163 197623.18684333569 -59224.589989066124 0 -59224.589989066124 -99936680.609154329 0 0 0 -34908670.097808659 -55773871.518245816 31905721.326704863 0 31905721.326704863 -103515799.0851035 0 0 0 -55751384.711172245 1287689.4734227657 61677.992368643972 0 61677.992368643972 -100166398.3731842 0 0 0 -34607548.114916563 -10299576.24102865 -11960704.971153527 0 -11960704.971153527 -115586084.29904021 0 0 0 -44059981.189024106 2931086.3523621559 -1579945.6355847865 0 -1579945.6355847865 -98744812.47786665 0 0 0 -33534804.14392662 -26077841.776301712 11203109.005737767 0 11203109.005737767 -102004854.68346685 0 0 0 -44828943.760919005 5529229.1363679171 989101.86552476883 0 989101.86552476883 -99818944.265777707 0 0 0 -33001400.295293331 -2695207.1165117025 -2317127.5469481349 0 -2317127.5469481349 -100383924.20533741 0 0 0 -36077695.9626472 6271089.4542285204 -135981.2083144784 0 -135981.2083144784 -101699300.77783155 0 0 0 -33399873.963261008 2927825.2551342249 1181926.3782011867 0 1181926.3782011867 -101321854.23299885 0 0 0 -34437910.142252564 2133541.9007666111 -863729.73291033506 0 -863729.73291033506 -101501311.43722463 0 0 0 -34778719.337760329 -13565043.383597046 -634923.40198978782 0 -634923.40198978782 -102536989.79875529 0 0 0 -40635711.613823324 3776679.8187196255 -837153.288351411 0 -837153.288351411 -102567457.39601159 0 0 0 -34576772.152052164 -4360040.9672737122 306017.30602283776 0 306017.30602283776 -102546539.19931865 0 0 0 -37417303.05830729 1905283.8589882851 -24733.911172091961 0 -24733.911172091961 -103068917.57945287 0 0 0 -35407271.802162528 5973973.4354501963 -932857.98563420773 0 -932857.98563420773 -100555840.30528116 0 0 0 -33103653.404440999 2958156.8843882084 2037498.6551250815 0 2037498.6551250815 -99665495.292660475 0 0 0 -33847568.442895174 219927.98963963985 597145.29151551425 0 597145.29151551425 -101353240.93017507 0 0 0 -35396659.529187441 -17514509.662084356 -5772099.6673315465 0 -5772099.6673315465 -97338028.925891012 0 0 0 -40198388.505791411 6974152.4800392091 -197371.5190423727 0 -197371.5190423727 -100200426.61729974 0 0 0 -32629195.94804135 -322155.12799096107 742853.47317264974 0 742853.47317264974 -96773946.98635602 0 0 0 -33983635.740021586 -408879.64617311954 -336832.83216384798 0 -336832.83216384798 -92837549.534102678 0 0 0 -32636250.213096499 -38256415.113160111 -6437637.1997158751 0 -6437637.1997158751 -86275986.980095088 0 0 0 -43586340.73263932 4961534.3937345743 -1067611.6716958284 0 -1067611.6716958284 -101553486.01619554 0 0 0 -33807183.067861319 -4099646.2209767699 684267.35548484325 0 684267.35548484325 -103106450.00832975 0 0 0 -37522133.680257261 5700478.0483564138 -813851.30603277683 0 -813851.30603277683 -101778403.97105074 0 0 0 -33627274.072943091 4317612.622146666 1332044.8874390125 0 1332044.8874390125 -101621326.42886674 0 0 0 -34056299.832351983 771428.91229116917 236255.95243510604 0 236255.95243510604 -102681302.0307821 0 0 0 -35668455.591471851 -5119379.3890874982 -881516.20449668169 0 -881516.20449668169 -102210924.39844286 0 0 0 -37565606.325635612 -42192573.429650463 7177583.3861513734 0 7177583.3861513734 -90442758.271737084 0 0 0 -46422366.095485643 63075.642079114914 -793105.6826082468 0 -793105.6826082468 -96589007.813140869 0 0 0 -33784076.259871602 995494.79421621561 414268.68306559324 0 414268.68306559324 -90903809.972308397 0 0 0 -31467910.312332153 6907302.1675362587 241160.64999985695 0 241160.64999985695 -100244733.35366201 0 0 0 -32668100.915144205 6618445.6466862261 -139544.43097370863 0 -139544.43097370863 -101029474.95889008 0 0 0 -33043860.259271473 2868073.3010685444 1684769.368960306 0 1684769.368960306 -101073721.24237919 0 0 0 -34371976.779458761 2636971.8083389997 -1193117.6278764009 0 -1193117.6278764009 -101424584.80422616 0 0 0 -34575664.5485605 -12332393.141295262 36005.373004585505 0 36005.373004585505 -99477340.43633981 0 0 0 -39133406.752172299 6396109.2734035254 628144.09984207153 0 628144.09984207153 -100892644.99608183 0 0 0 -33073787.502937317 435151.91131061316 325972.77066367865 0 325972.77066367865 -101105897.38095856 0 0 0 -35234760.914376795 3635075.8479926586 -1821851.4488081932 0 -1821851.4488081932 -100145807.53185153 0 0 0 -33778756.089350581 -17227476.276947528 3334681.4328265041 0 3334681.4328265041 -100945773.85955095 0 0 0 -41360637.547774494 4146480.0627121925 -1740123.3082362413 0 -1740123.3082362413 -100395207.81306171 0 0 0 -33687054.712622643 4742698.5918402672 1523726.6716606617 0 1523726.6716606617 -100525190.70384336 0 0 0 -33523872.239201069 -7526273.8877099156 5597395.6161896288 0 5597395.6161896288 -99804821.453266621 0 0 0 -37565883.369341731 -4152700.7593815923 -4228628.5534887314 0 -4228628.5534887314 -101041216.1733588 0 0 0 -36817870.926459074 4773584.7495980263 -5059.300081372261 0 -5059.300081372261 -102662026.95588326 0 0 0 -34260954.772199988 2565595.7853145599 485382.81736409664 0 485382.81736409664 -102859636.98784757 0 0 0 -35102914.420886636 6127911.2641872875 -991319.04598873854 0 -991319.04598873854 -100390965.33069387 0 0 0 -32992068.923277188 3563282.1454613209 1795780.85573861 0 1795780.85573861 -99824852.718678951 0 0 0 -33691549.700626254 -1383404.109822154 975004.91858706996 0 975004.91858706996 -101347871.75426304 0 0 0 -35955946.552429914 -17570923.180189118 -6426812.1768090278 0 -6426812.1768090278 -100293342.41801433 0 0 0 -41252492.959371194 -6137358.9315615296 8900642.8824258 0 8900642.8824258 -101110632.58583403 0 0 0 -37536797.031088471 -16705039.347940266 -14509936.313414082 0 -14509936.313414082 -100931088.98972535 0 0 0 -41172644.918182939 2128481.7069334984 -149338.9920912981 0 -149338.9920912981 -103025407.55468917 0 0 0 -35313924.046714425 3017944.6287168711 -687372.88547092676 0 -687372.88547092676 -102660050.06765869 0 0 0 -34874736.903629616 6877729.5845382512 -335980.09695613384 0 -335980.09695613384 -100539712.58654636 0 0 0 -32781694.05070278 6900373.0978713036 -344973.82795155048 0 -344973.82795155048 -100538614.73115933 0 0 0 -32773384.571650743 2435306.2014971972 2178467.6531132534 0 2178467.6531132534 -97924569.922175169 0 0 0 -33421242.302237391 2566016.8913023472 1858572.966286093 0 1858572.966286093 -98700681.522900343 0 0 0 -33647132.621059418 1921066.8194419146 -1135767.3180045038 0 -1135767.3180045038 -97875894.70531559 0 0 0 -33584189.76005578 1423164.6667921543 -1481779.87833637 0 -1481779.87833637 -98827504.193794966 0 0 0 -34091518.83445096 -28869986.897950538 -1805027.4455260336 0 -1805027.4455260336 -97682231.049385384 0 0 0 -44293276.281567581 -24913892.084856614 -3376609.0648729801 0 -3376609.0648729801 -97494306.178714186 0 0 0 -42842869.392249748 6007079.9006465375 -831122.27424681187 0 -831122.27424681187 -99848709.669685364 0 0 0 -32844570.419163615 2735844.1914923191 1643483.5316990539 0 1643483.5316990539 -98096653.938518524 0 0 0 -33376283.411459208 -106643.17469537258 1236344.6398958527 0 1236344.6398958527 -97913817.743510008 0 0 0 -34307161.321371913 -30262918.576744244 -10057499.448091373 0 -10057499.448091373 -100288498.26451576 0 0 0 -45692995.894441023 3804156.0712673664 -1572984.2209757864 0 -1572984.2209757864 -99011090.599003315 0 0 0 -33322427.084707737 4909871.1954931021 1226396.3573548794 0 1226396.3573548794 -99833107.742256403 0 0 0 -33223132.791367173 -21300995.59402442 10010484.418633327 0 10010484.418633327 -104429224.80632842 0 0 0 -44005577.140123487 -7529265.8321586251 -6211066.0548507124 0 -6211066.0548507124 -103043563.53122425 0 0 0 -38700490.277184069 -1630412.00224334 4701856.1751944833 0 4701856.1751944833 -100488493.62810409 0 0 0 -35741616.970621526 -18803524.263199143 -12372860.582465768 0 -12372860.582465768 -95723428.905196726 0 0 0 -40084433.608938538 6892583.6691982746 133645.92062059045 0 133645.92062059045 -100664387.94342756 0 0 0 -32820131.495980024 2138484.6260487437 1677791.8007515073 0 1677791.8007515073 -98704636.988961518 0 0 0 -33798153.327019393 2562935.3606778383 -1778513.8762342334 0 -1778513.8762342334 -98826425.821080565 0 0 0 -33692221.661141038 -25305184.732233703 1459263.9205661714 0 1459263.9205661714 -98616546.704587996 0 0 0 -43372606.002887607 5877206.4037197828 145456.73827010393 0 145456.73827010393 -101945402.60056639 0 0 0 -33623868.668896317 2931804.3116059303 751746.37166231871 0 751746.37166231871 -102568702.32706642 0 0 0 -34872914.30541122 6588641.4446611404 -686871.54106411338 0 -686871.54106411338 -100227687.85202217 0 0 0 -32773666.242576361 2090080.5289229155 1939421.4363292456 0 1939421.4363292456 -99335399.386504173 0 0 0 -34035861.600153565 939021.80698755383 -432909.62434500456 0 -432909.62434500456 -99726166.409533858 0 0 0 -34575500.610891193 -20681087.539944798 -5959893.4790512733 0 -5959893.4790512733 -93833779.614299536 0 0 0 -40080203.503985494 2613704.9987741709 -810001.55156970024 0 -810001.55156970024 -102649847.10738301 0 0 0 -35012649.738013148 3965180.3029433489 -367411.81423002481 0 -367411.81423002481 -102880755.62703538 0 0 0 -34620451.363432288 1645106.5983123705 -286620.57632493973 0 -286620.57632493973 -103269066.76493131 0 0 0 -35568386.058316596 6642120.8454425335 -574377.55988442898 0 -574377.55988442898 -100413377.78994322 0 0 0 -32819939.930575252 2952393.2148339748 2099258.3270936012 0 2099258.3270936012 -97583945.709857941 0 0 0 -33121043.373258591 1374624.6340646744 -589545.07669687271 0 -589545.07669687271 -97553598.228217483 0 0 0 -33662640.757953525 -30901756.012854025 -4577536.1096304879 0 -4577536.1096304879 -99678015.26825732 0 0 0 -45702919.948388949 3532352.4290689975 650690.11769843102 0 650690.11769843102 -102410330.49212259 0 0 0 -34607292.322068736 6854889.3222339153 378595.23236837983 0 378595.23236837983 -100479474.44184923 0 0 0 -32768604.791865349 1911711.7676301599 1212903.8113817573 0 1212903.8113817573 -99958424.360142827 0 0 0 -34316349.40737921 2504360.159760952 -2079825.8928952813 0 -2079825.8928952813 -99458178.917014599 0 0 0 -33933836.565038681 -19803123.160327017 2156859.0834608525 0 2156859.0834608525 -95348739.969035327 0 0 0 -40303152.095276833 96685.571696809027 2830258.0095714927 0 2830258.0095714927 -99440555.16773884 0 0 0 -34770354.35861475 -4013983.5928258896 5556753.1031679213 0 5556753.1031679213 -102642721.80130154 0 0 0 -37329846.887944639 -26744499.906826541 -14882244.28106566 0 -14882244.28106566 -94138401.889329329 0 0 0 -42309015.628654554 -32833150.449160144 -16552500.981575292 0 -16552500.981575292 -98611851.044114083 0 0 0 -46005750.52264598 2829952.9657611847 52413.390615075827 0 52413.390615075827 -102981978.99600339 0 0 0 -35053209.110584855 -16271582.185847938 -13251510.863739863 0 -13251510.863739863 -108162877.23012346 0 0 0 -43552060.795589924 -22076374.350982994 15601729.141043171 0 15601729.141043171 -105315048.94777867 0 0 0 -44586998.154566586 4331213.3043398764 -904993.28438723087 0 -904993.28438723087 -100381748.64690663 0 0 0 -33617687.369898088 4813941.2474079579 -1050279.9623401165 0 -1050279.9623401165 -99677272.137383312 0 0 0 -33202165.811491206 1855488.3813533783 1358237.5907045854 0 1358237.5907045854 -99201457.338370323 0 0 0 -34071089.13495636 2607628.3991732597 1342366.3804946467 0 1342366.3804946467 -99123388.894783974 0 0 0 -33780516.173463821 -31049415.690733977 16077006.428576054 0 16077006.428576054 -98369227.211630791 0 0 0 -45296525.015827648 -3641965.4924075902 -5509892.8163995147 0 -5509892.8163995147 -102325339.42068303 0 0 0 -37088556.719581753 1555970.8149165511 -950972.47273778915 0 -950972.47273778915 -99128823.624503493 0 0 0 -34150498.483355343 3839865.1303579807 639914.24261370301 0 639914.24261370301 -100116534.7831049 0 0 0 -33696834.378461599 -25762738.059530206 14097840.795611501 0 14097840.795611501 -93868225.7883524 0 0 0 -41870837.34675891 -150451.57888418436 -2734634.4910354614 0 -2734634.4910354614 -101020552.3629359 0 0 0 -35409851.379637063 1275679.3728926182 -1132981.5363086462 0 -1132981.5363086462 -99379794.32818985 0 0 0 -34336440.234353781 4499657.1128344536 755840.9354237318 0 755840.9354237318 -99898713.906095028 0 0 0 -33389669.877640963 4916217.2069766521 -1632469.8495618105 0 -1632469.8495618105 -100541899.71105385 0 0 0 -33468988.876427174 4768152.7443516254 -1524460.3314642608 0 -1524460.3314642608 -100277793.804461 0 0 0 -33428374.371038198 4789114.4808042049 1620876.168631196 0 1620876.168631196 -100714210.94874048 0 0 0 -33573783.763777733 5087919.9103830457 1551001.324570179 0 1551001.324570179 -99863664.352514029 0 0 0 -33171510.554745853 -5412519.8100011349 3832857.9258093834 0 3832857.9258093834 -101217744.35521781 0 0 0 -37320592.457826614 -9768035.4377463609 5340753.5499610305 0 5340753.5499610305 -103968489.49135187 0 0 0 -39807783.725184396 -4969270.5600662231 -4098502.0398529172 0 -4098502.0398529172 -101522079.67573631 0 0 0 -37271972.582530856 -8780883.4665700197 -4485063.9682911187 0 -4485063.9682911187 -103070732.84517133 0 0 0 -39148065.709109485 2273860.9881355762 -1657149.5968266726 0 -1657149.5968266726 -98413320.673172474 0 0 0 -33648810.889762878 5269611.7263224125 902056.61491948366 0 902056.61491948366 -100334587.97748184 0 0 0 -33272741.687905788 -30272766.358710259 10121178.939633425 0 10121178.939633425 -98115326.373681873 0 0 0 -44935832.456337243 -1035319.4138732553 -2486764.4237364233 0 -2486764.4237364233 -99941732.310049772 0 0 0 -35341968.103373051 1587219.3903467655 45434.580923333764 0 45434.580923333764 -102833132.03005672 0 0 0 -35436069.423898578 788666.55066537857 -336414.21639380977 0 -336414.21639380977 -102513675.86477304 0 0 0 -35603753.259937763 1641832.6644120216 -227645.48996242881 0 -227645.48996242881 -102427803.36078835 0 0 0 -35275089.743731737 3797658.749358058 -1110331.3391509056 0 -1110331.3391509056 -99629504.679410934 0 0 0 -33541146.075518727 2733661.3721728325 1166141.0001067817 0 1166141.0001067817 -99780402.660998821 0 0 0 -33966359.451089144 -5222046.0208909512 7709457.3852491975 0 7709457.3852491975 -105226764.82445467 0 0 0 -38657083.79587096 -18929477.567269385 -13943720.696432009 0 -13943720.696432009 -96086549.276678652 0 0 0 -40255609.395381778 -21863353.988647059 24364027.425745942 0 24364027.425745942 -98611328.439074457 0 0 0 -42166138.849702522 -7858421.8041412607 -13428054.786579922 0 -13428054.786579922 -107618950.31815912 0 0 0 -40417080.242805131 2601009.3381345272 -1925422.6728901565 0 -1925422.6728901565 -97952281.268084049 0 0 0 -33372945.175482273 -30272186.075020388 6717355.9414762408 0 6717355.9414762408 -98718734.458254248 0 0 0 -45146822.186646119 6250435.1970897913 694458.66082298756 0 694458.66082298756 -100406032.44228029 0 0 0 -32954459.03581655 64051.570971488953 -188061.00780642033 0 -188061.00780642033 -98218120.109617949 0 0 0 -34353923.988526225 -18439745.15682371 16553728.951784521 0 16553728.951784521 -98909746.826374531 0 0 0 -41072322.194119409 -3590467.1085618138 -9952294.7855327427 0 -9952294.7855327427 -102113181.69159722 0 0 0 -36996277.080055714 5461694.5010199547 -218230.40033447742 0 -218230.40033447742 -100108900.70342827 0 0 0 -33126522.170842886 388418.52538397454 367491.06674516201 0 367491.06674516201 -97692144.607705534 0 0 0 -34056304.12881241 694991.3373723675 -62679.604252874851 0 -62679.604252874851 -86550861.410734028 0 0 0 -30049554.525676604 -51082759.346762985 -13907910.889192093 0 -13907910.889192093 -94874062.460323125 0 0 0 -51084887.63248013 7689103.4461860657 -26962.578780889511 0 -26962.578780889511 -99922840.967137337 0 0 0 -32281808.13233304 1129231.9909018278 657603.38427519798 0 657603.38427519798 -94204510.737735271 0 0 0 -32576347.56139183 333038.60060596466 -997112.25527182221 0 -997112.25527182221 -93662666.773875237 0 0 0 -32665369.860644102 -40979990.785812512 -2142779.0493607558 0 -2142779.0493607558 -89534988.368570104 0 0 0 -45680242.704033911 -2749265.399718374 253068.56748887897 0 253068.56748887897 -101859101.33513045 0 0 0 -36612928.357197016 1665869.2206295729 -938351.95057731867 0 -938351.95057731867 -99923433.86849165 0 0 0 -34390147.626751781 3002186.5330150127 745671.61227333546 0 745671.61227333546 -100123656.53968096 0 0 0 -33992514.502332687 3016315.867500186 -220129.6424812451 0 -220129.6424812451 -102881805.26541162 0 0 0 -34952921.289268851 336197.13083803654 -1353817.1364903301 0 -1353817.1364903301 -95867790.520039558 0 0 0 -33436057.686220527 1277339.1239409447 -1302993.523495093 0 -1302993.523495093 -93322805.757681847 0 0 0 -32215913.32180953 3052220.5477471352 -275726.29166305065 0 -275726.29166305065 -99799960.297533989 0 0 0 -33861708.912425518 525272.32072782516 336921.21773451567 0 336921.21773451567 -99505395.811751842 0 0 0 -34643043.221858501 2800483.7401088923 422901.07217288017 0 422901.07217288017 -100340837.27598879 0 0 0 -34139123.737557963 792388.67931985855 -555433.95692872629 0 -555433.95692872629 -99616936.665480137 0 0 0 -34588591.79515624 -4572295.8328425586 -8248504.7690256936 0 -8248504.7690256936 -105761720.32312405 0 0 0 -38616905.654588312 -37146788.816112153 21051618.457770523 0 21051618.457770523 -97396695.363756225 0 0 0 -47090219.462953903 3270042.3433573246 285158.88590216637 0 285158.88590216637 -99665263.347401381 0 0 0 -33738327.351415396 663584.2042593956 -337732.23805454373 0 -337732.23805454373 -99307080.282344818 0 0 0 -34525223.627329826 4050103.7350265384 -3412262.9565326273 0 -3412262.9565326273 -96303173.873801351 0 0 0 -32288574.548571169 -38956491.632820062 23308763.890161004 0 23308763.890161004 -95547711.693181366 0 0 0 -47076471.164100498 3843693.5761870146 3354781.095922254 0 3354781.095922254 -96038317.962137341 0 0 0 -32268118.535082638 -38634828.890865013 -23233743.981590185 0 -23233743.981590185 -95489689.615254104 0 0 0 -46943581.477141678 -4359355.0489990413 7768484.603061676 0 7768484.603061676 -106259979.37912583 0 0 0 -38716767.049843699 -33933512.99559658 -20255622.091811322 0 -20255622.091811322 -96070345.090093285 0 0 0 -45501350.329991452 5170561.3345565796 636917.92178958654 0 636917.92178958654 -102283291.81887865 0 0 0 -33989455.669512749 3981259.5029262304 -14315.282862603664 0 -14315.282862603664 -102987617.88352883 0 0 0 -34652225.433211088 -1148870.7481338978 -113066.99920037389 0 -113066.99920037389 -103056565.08399999 0 0 0 -36471902.541246891 -334752.31635165215 -738917.50521922112 0 -738917.50521922112 -102223442.61576414 0 0 0 -35895368.226240516 -1167662.3505928442 -643903.16025716066 0 -643903.16025716066 -103231682.0719658 0 0 0 -36539770.547895424 -5949198.8067496121 604773.77242562175 0 604773.77242562175 -103075720.37475604 0 0 0 -38158721.713526994 2207306.7441550493 -1872392.0356971025 0 -1872392.0356971025 -99188295.174623728 0 0 0 -33943345.950664043 -22206983.40298973 7708280.548081398 0 7708280.548081398 -94668965.226273239 0 0 0 -40906582.020242006 5992618.4025295973 812307.12854933739 0 812307.12854933739 -100192188.70037818 0 0 0 -32969849.604247212 856596.99326258898 -660469.78220787644 0 -660469.78220787644 -99544796.481656671 0 0 0 -34540869.820937932 3239034.7238452435 782596.97293180227 0 782596.97293180227 -102475150.6430639 0 0 0 -34732640.571726561 6424328.0407066345 636293.70767953992 0 636293.70767953992 -100851476.46550035 0 0 0 -33049501.94867754 3146144.1304550171 -2178011.8275845647 0 -2178011.8275845647 -99698430.556895375 0 0 0 -33793300.249254107 1378386.8072784543 411697.02423489094 0 411697.02423489094 -100930036.58759487 0 0 0 -34843077.423110723 -17836882.39645493 2471342.0601735041 0 2471342.0601735041 -98488929.268361092 0 0 0 -40714034.08268562 2891480.4907648563 -428362.10145834088 0 -428362.10145834088 -99914739.446537495 0 0 0 -33958140.634520292 1410440.0324297547 516170.74664771557 0 516170.74664771557 -99178762.573443651 0 0 0 -34218912.889355123 2959190.857288599 -549042.13427761104 0 -549042.13427761104 -100197828.81173754 0 0 0 -34033523.28405714 863794.13200438209 695492.7157394886 0 695492.7157394886 -99763092.799855694 0 0 0 -34614754.533747554 3405871.2186214924 -1666948.0902415514 0 -1666948.0902415514 -100065982.07071638 0 0 0 -33831038.798233271 4830660.9244223833 1408692.7561781406 0 1408692.7561781406 -100320274.84980869 0 0 0 -33421364.873885036 -11623314.788567021 8211034.5387337059 0 8211034.5387337059 -98581636.737770289 0 0 0 -38571733.034218058 -2957241.6897030473 -4713458.3137367293 0 -4713458.3137367293 -101469209.43305326 0 0 0 -36549257.89296478 -435752.27982497215 -261436.93676036596 0 -261436.93676036596 -103321981.09145546 0 0 0 -36315206.679948092 610941.58005678654 -346746.83759254217 0 -346746.83759254217 -103274414.85036588 0 0 0 -35932215.644608021 3146268.7335002422 -833403.0372389555 0 -833403.0372389555 -100051800.79622376 0 0 0 -33916936.221953154 1906996.7730391026 953987.00515102595 0 953987.00515102595 -99775733.656279564 0 0 0 -34254057.90913415 3236079.7090983391 -1541175.263263464 0 -1541175.263263464 -100126655.11023283 0 0 0 -33911701.390397072 3995210.6582077742 1409770.7946856022 0 1409770.7946856022 -100117732.93553782 0 0 0 -33642882.797065616 -9785583.0243936479 9189089.4556021988 0 9189089.4556021988 -99518587.254185259 0 0 0 -38256459.597502619 -5074454.6416063309 -7300042.5878283679 0 -7300042.5878283679 -99893524.616494298 0 0 0 -36738792.740335166 4119064.8112094402 -1400486.5252441764 0 -1400486.5252441764 -102102755.80194187 0 0 0 -34294291.846756458 4596879.3606938124 -1309945.9978018403 0 -1309945.9978018403 -101154077.67703962 0 0 0 -33795019.410720944 -4914690.1384459138 1199453.6513765454 0 1199453.6513765454 -101656631.52081609 0 0 0 -37299962.580741704 -8291838.0656774938 1486832.4591244757 0 1486832.4591244757 -103277142.25372523 0 0 0 -39049143.111790925 7379592.6209272146 -213102.52258133888 0 -213102.52258133888 -100148910.831738 0 0 0 -32469261.373783708 7073216.7914955616 -307432.82702291012 0 -307432.82702291012 -100069810.43699622 0 0 0 -32548807.775925159 1575523.2390375137 1329046.2872796357 0 1329046.2872796357 -95060352.867520809 0 0 0 -32719690.36996913 784662.95860171318 1300309.2303054929 0 1300309.2303054929 -97396371.098466396 0 0 0 -33814097.84895277 -41526652.990952305 -4349902.4852730073 0 -4349902.4852730073 -94849219.786083221 0 0 0 -47731555.47196243 -32469645.560153484 -5597043.4544959217 0 -5597043.4544959217 -89666356.0537076 0 0 0 -42747600.564851373 5739225.3729834557 -337702.04536247253 0 -337702.04536247253 -101825855.7555728 0 0 0 -33630320.633906126 3851914.8336532116 1131177.203155458 0 1131177.203155458 -102283134.90046906 0 0 0 -34450927.023385525 5903901.3011814952 -359821.13258874416 0 -359821.13258874416 -101845766.08126441 0 0 0 -33579652.673029125 3315857.0055027008 1130602.9590213373 0 1130602.9590213373 -101997786.07266665 0 0 0 -34538675.173507214 2410117.0229463577 -490849.91869676113 0 -490849.91869676113 -100041219.96194649 0 0 0 -34170886.028650045 1093638.6004312038 488608.33422845602 0 488608.33422845602 -99838379.365492821 0 0 0 -34560659.267771721 -29097745.296137005 24717278.458842136 0 24717278.458842136 -102284981.3258602 0 0 0 -45983954.317699015 -6898516.1456229389 -9583523.7288289219 0 -9583523.7288289219 -102931493.77882993 0 0 0 -38440503.473558515 5961415.5405573845 -573721.86982315779 0 -573721.86982315779 -99880967.060228825 0 0 0 -32871843.031884909 1704617.9918240309 1205599.1008585691 0 1205599.1008585691 -97379890.724861145 0 0 0 -33486345.456562877 747385.16040986776 63464.651330113411 0 63464.651330113411 -94141021.449386597 0 0 0 -32687772.701141894 -38864901.849685416 -11987383.36894444 0 -11987383.36894444 -97364171.836297765 0 0 0 -47680175.790094122 6558469.6464560032 -552477.30712127686 0 -552477.30712127686 -100832085.69914126 0 0 0 -32995765.618440032 3591679.0385661125 1845667.1293399632 0 1845667.1293399632 -101071774.27186179 0 0 0 -34118033.331653595 1574722.1974822283 -643828.86358955503 0 -643828.86358955503 -101376065.40787351 0 0 0 -34930470.123636961 -11187936.447695106 -2653160.793285355 0 -2653160.793285355 -99193335.90639925 0 0 0 -38633445.323933035 5090114.3075819016 -373399.05039530993 0 -373399.05039530993 -102092324.93274236 0 0 0 -33950773.718806028 6113332.4572874308 -777409.17858183384 0 -777409.17858183384 -101064218.05293083 0 0 0 -33232809.958475232 3958742.8114221096 1709777.6130076051 0 1709777.6130076051 -101460007.54785395 0 0 0 -34125442.657751083 540740.04275226593 -154701.87884160876 0 -154701.87884160876 -102299957.53233719 0 0 0 -35615726.121354699 -7200423.9871994853 -1978859.815821141 0 -1978859.815821141 -99858011.657577395 0 0 0 -37470452.475671947 6687413.2958266735 -117589.40872013569 0 -117589.40872013569 -100896958.07719064 0 0 0 -32973340.673477411 3167465.6251924038 1521749.9024973512 0 1521749.9024973512 -100548272.55758488 0 0 0 -34083282.426337242 2382877.2254751325 -1493701.1812746525 0 -1493701.1812746525 -100450645.21053588 0 0 0 -34323718.794771254 -17064840.111797303 -1444833.5790601969 0 -1444833.5790601969 -100235976.66479737 0 0 0 -41055285.871808171 5977681.8565245867 -356083.0428828001 0 -356083.0428828001 -101866378.82751226 0 0 0 -33561043.939845443 3523931.8584250212 1066400.9845340252 0 1066400.9845340252 -101775138.54023194 0 0 0 -34387922.338632345 5837699.5089660287 -334573.18308663368 0 -334573.18308663368 -101824733.52577972 0 0 0 -33595461.905884802 4038373.3600316048 1073600.6795396656 0 1073600.6795396656 -102083541.15724134 0 0 0 -34315808.729023457 6722054.5974146128 -503091.44585871696 0 -503091.44585871696 -100175266.57386136 0 0 0 -32708624.191756129 1566928.0737142563 1742613.3397680521 0 1742613.3397680521 -98505224.576669693 0 0 0 -33928403.776034355 909689.01178050041 -1196197.8382280171 0 -1196197.8382280171 -98153770.071193457 0 0 0 -34035428.370794415 -26508223.294992566 -6015008.3119777292 0 -6015008.3119777292 -92767077.616558567 0 0 0 -41746355.319042884 -39827996.410189517 1120243.2251783758 0 1120243.2251783758 -90495922.656187743 0 0 0 -45613371.673232041 1187281.8045841455 729060.30657236278 0 729060.30657236278 -93174457.324661016 0 0 0 -32195511.432026863 510812.21341872215 -1471243.1930156946 0 -1471243.1930156946 -95487657.733383894 0 0 0 -33241895.931987882 7475966.5533827543 149995.12976181507 0 149995.12976181507 -100047793.39222479 0 0 0 -32400139.393594861 6770880.7979850769 -388029.39669370651 0 -388029.39669370651 -100703203.45382166 0 0 0 -32876312.92954278 2348530.8677811623 2052853.0867406726 0 2052853.0867406726 -99622004.127212286 0 0 0 -34045715.640800714 1506761.3222506046 -1216805.690466404 0 -1216805.690466404 -100324873.96184897 0 0 0 -34586339.423859358 -19359586.794786513 -2171553.5280450732 0 -2171553.5280450732 -95895420.264118254 0 0 0 -40339252.470616698 3167929.3801139593 227841.58228427172 0 227841.58228427172 -102835105.83846676 0 0 0 -34883511.760423541 5161191.1406912804 -1307393.7397088911 0 -1307393.7397088911 -100458950.59555244 0 0 0 -33354215.809201717 4241685.7016705275 1662080.2410696745 0 1662080.2410696745 -99460775.980550021 0 0 0 -33326681.597607732 -5506741.9579860102 4746697.7076371014 0 4746697.7076371014 -103240706.13936579 0 0 0 -38061606.834073082 -16028606.756295502 -7279667.3247725181 0 -7279667.3247725181 -102182883.70317352 0 0 0 -41374021.660814226 6728049.3227002621 559829.5282677412 0 559829.5282677412 -100364487.3871789 0 0 0 -32772753.322567344 6337609.9251455069 714911.32886552811 0 714911.32886552811 -100723240.63097501 0 0 0 -33034970.747040153 1362512.7534139156 1021911.2954223454 0 1021911.2954223454 -100047793.57007301 0 0 0 -34539848.285830736 2837931.786231041 -1955968.9837017059 0 -1955968.9837017059 -99496879.610183477 0 0 0 -33830631.738383293 3195641.42180264 -1996879.4055339694 0 -1996879.4055339694 -98560986.109063148 0 0 0 -33377870.640540957 41718.225670933723 -85749.212706834078 0 -85749.212706834078 -99984995.589548707 0 0 0 -34980147.077357173 -19847471.452250332 4291417.7695029527 0 4291417.7695029527 -96869970.90398559 0 0 0 -40851104.824682564 -25771202.821645722 5185984.6401249021 0 5185984.6401249021 -100538024.65914685 0 0 0 -44208229.618277386 4649037.2599555403 -1490555.9903606772 0 -1490555.9903606772 -101804149.16330352 0 0 0 -34004289.166171774 -3077449.2241066098 1619017.6007083841 0 1619017.6007083841 -100978700.42454326 0 0 0 -36419652.377027452 5639402.7772240639 1025201.0811453164 0 1025201.0811453164 -101377917.55391026 0 0 0 -33508480.171839952 2716361.2185931206 -752714.50358814001 0 -752714.50358814001 -99116444.148458481 0 0 0 -33740029.025453091 2667196.9990086555 685315.04165816307 0 685315.04165816307 -99402770.984192133 0 0 0 -33857450.894814134 -20991641.047686338 18785911.992225513 0 18785911.992225513 -110340822.10185926 0 0 0 -45966362.102340996 -24971961.379690915 -18403976.832730614 0 -18403976.832730614 -109798331.08238775 0 0 0 -47169602.361727536 2250185.5004771352 706080.03109624982 0 706080.03109624982 -102431968.67325532 0 0 0 -35063624.1104725 1710694.8846335411 -1220821.2553511858 0 -1220821.2553511858 -97380546.72789216 0 0 0 -33484448.145140409 -37923207.48456648 11684249.92624443 0 11684249.92624443 -97046540.998769939 0 0 0 -47239411.969167739 6078833.206635952 570077.96813255548 0 570077.96813255548 -100036220.26600838 0 0 0 -32885085.470780373 -11975.304843723774 310221.28339710832 0 310221.28339710832 -94832881.556273282 0 0 0 -33195699.901391089 3936356.4912446737 249072.92467594147 0 249072.92467594147 -103020027.99697077 0 0 0 -34679285.027004123 1341771.2262473106 -233982.6139447242 0 -233982.6139447242 -102183848.64702845 0 0 0 -35294727.09727335 563416.13349270821 -545468.28382708132 0 -545468.28382708132 -97222102.369650841 0 0 0 -33830540.182655573 -41234216.546891153 12463309.281403622 0 12463309.281403622 -89241702.373182356 0 0 0 -45666571.622025728 6200541.659347415 293372.47682142258 0 293372.47682142258 -99785258.332507253 0 0 0 -32754650.835605979 -808084.91202843189 1205971.0137237236 0 1205971.0137237236 -91220343.383834839 0 0 0 -32209949.903552175 6424750.0886852145 -656518.68119293451 0 -656518.68119293451 -100914348.75785929 0 0 0 -33071359.53421098 6328187.1242554188 -641450.57068502903 0 -641450.57068502903 -101100123.96904492 0 0 0 -33170177.895676374 3886177.8595621586 1784475.960691303 0 1784475.960691303 -100039144.59628057 0 0 0 -33653538.357851267 3084577.7625416517 2085689.2583997399 0 2085689.2583997399 -99947965.71765542 0 0 0 -33902185.784289837 50213.992287635803 -73245.330458492041 0 -73245.330458492041 -101316287.43244457 0 0 0 -35443125.704054832 883043.19855546951 -318793.18772932887 0 -318793.18772932887 -101317123.80145669 0 0 0 -35151928.211015463 -17170776.997645766 -3543940.2417233288 0 -3543940.2417233288 -102342958.80794048 0 0 0 -41829807.531955212 -16553113.878972128 -2819418.6269333065 0 -2819418.6269333065 -98366257.368177533 0 0 0 -40221779.936502382 6399822.2715723515 -711187.8316219449 0 -711187.8316219449 -100687812.92753696 0 0 0 -33000796.729587793 3270754.6639155746 1989045.8664734364 0 1989045.8664734364 -98736454.048487663 0 0 0 -33412994.784600317 90408.041610866785 5726.5584440231323 0 5726.5584440231323 -99672116.556692362 0 0 0 -34853597.980278581 -24295322.546703756 -5465852.5564223304 0 -5465852.5564223304 -100530254.41447461 0 0 0 -43688951.936412454 7134478.0628561974 -268716.9458117187 0 -268716.9458117187 -100135313.0092144 0 0 0 -32550292.231225252 1843099.1815750003 1637197.4768049717 0 1637197.4768049717 -97632569.716136336 0 0 0 -33526314.687096417 1600941.6241588891 -1281280.1213279963 0 -1281280.1213279963 -95181494.183519244 0 0 0 -32753193.395776123 -28864453.312701702 -3936104.2683870383 0 -3936104.2683870383 -92845990.596121669 0 0 0 -42598655.368088186 6975262.8015367985 -388312.65988309681 0 -388312.65988309681 -100338169.25713205 0 0 0 -32677017.259458303 2245645.699606061 1786079.4321517944 0 1786079.4321517944 -96389518.343350232 0 0 0 -32950355.425310493 1221761.3381573558 -1840244.567101717 0 -1840244.567101717 -97462609.854729652 0 0 0 -33684296.980800331 -36933278.323930994 -5021336.4465608206 0 -5021336.4465608206 -97697512.246152252 0 0 0 -47120776.699529141 6659022.214827776 -584777.26573014259 0 -584777.26573014259 -100430378.82089901 0 0 0 -32819974.812124729 2521439.8773012161 2090279.0911342502 0 2090279.0911342502 -99246977.542177916 0 0 0 -33853938.182706833 1411032.6098540425 -913028.80468809605 0 -913028.80468809605 -99953321.347622633 0 0 0 -34489801.058219016 -21642190.767400384 -3793156.0906141214 0 -3793156.0906141214 -95547936.116109312 0 0 0 -41016544.409228384 4600193.6940792799 -1555209.8458029032 0 -1555209.8458029032 -99496247.693359554 0 0 0 -33213618.899747968 4972899.4791970253 1406385.7882655859 0 1406385.7882655859 -100045487.67808819 0 0 0 -33275405.86961174 -14948512.207679749 7186786.92673105 0 7186786.92673105 -103876338.90759742 0 0 0 -41588697.890347064 -9478573.5247299224 -5604843.2605626285 0 -5604843.2605626285 -104273769.31571206 0 0 0 -39813319.994154647 3181537.3906056881 -1815014.4456406608 0 -1815014.4456406608 -99521354.348251343 0 0 0 -33718935.935175896 6735077.4381884485 367135.3542034626 0 367135.3542034626 -100728968.39093396 0 0 0 -32897861.833460674 -21111035.637986206 2717166.6161293089 0 2717166.6161293089 -100202199.28899726 0 0 0 -42459632.224444203 1752517.1645268202 1189495.9592143409 0 1189495.9592143409 -99994556.333422184 0 0 0 -34384713.709113479 613132.65449976921 -1020510.392141819 0 -1020510.392141819 -98101669.112735987 0 0 0 -34120987.760382652 -37361614.053588554 10089711.310575508 0 10089711.310575508 -91401335.59498328 0 0 0 -45067032.377000123 5818393.9736120105 422948.05818378925 0 422948.05818378925 -100228542.97232425 0 0 0 -33043552.149549067 700163.60370588303 -349482.56550586224 0 -349482.56550586224 -93729664.586444497 0 0 0 -32560325.343958557 6107902.5484659672 80035.033026464283 0 80035.033026464283 -101761657.66676521 0 0 0 -33478814.291404724 2099133.0622130185 760228.65691208839 0 760228.65691208839 -102238670.81358384 0 0 0 -35048838.212979838 7252215.7956113815 -59641.539167046547 0 -59641.539167046547 -100163142.36696899 0 0 0 -32518824.299975157 1447489.9285587072 1596429.8715840727 0 1596429.8715840727 -97466984.074160099 0 0 0 -33606822.950960398 1275741.012816906 -1947034.9186490923 0 -1947034.9186490923 -97547228.439052582 0 0 0 -33695020.599182487 -28725654.416926786 -1323007.3791214079 0 -1323007.3791214079 -91935024.462017387 0 0 0 -42231237.607630461 4204705.5925400853 -96588.639552116394 0 -96588.639552116394 -102608524.46058363 0 0 0 -34441336.603815138 4326953.9531674385 -851198.70361024141 0 -851198.70361024141 -99417802.297337055 0 0 0 -33281796.92045927 2369806.0567042828 1028135.9625105858 0 1028135.9625105858 -98945342.781379461 0 0 0 -33801437.853636146 2224963.036655426 -666115.03401404619 0 -666115.03401404619 -100150893.78946638 0 0 0 -34274075.763484001 1760564.2291985154 701352.14782226086 0 701352.14782226086 -99664620.707034111 0 0 0 -34266419.767242372 -26613026.653673679 18226241.481062092 0 18226241.481062092 -104109761.36658001 0 0 0 -45752975.807088763 -10675757.10189566 -12101166.538132936 0 -12101166.538132936 -106217770.12659927 0 0 0 -40912734.529973239 6694925.1149835587 -603993.8336815834 0 -603993.8336815834 -100417759.53730249 0 0 0 -32802992.047811747 3244447.5355250835 1801908.221001029 0 1801908.221001029 -99454926.162102222 0 0 0 -33673667.519301891 1319359.8983809948 -995279.01181173325 0 -995279.01181173325 -100120647.25302601 0 0 0 -34580450.574125767 -20379370.218858004 -5260058.2416447178 0 -5260058.2416447178 -98660363.972757459 0 0 0 -41663906.967065394 -4352521.9720788896 9694470.4602806158 0 9694470.4602806158 -104452622.22878861 0 0 0 -38081800.470303684 -17012721.9821852 -17243173.766840711 0 -17243173.766840711 -97505323.933760017 0 0 0 -40081316.070580795 1855744.123134017 258933.87798663974 0 258933.87798663974 -103016746.13537395 0 0 0 -35406350.704284072 906736.26845300198 -265651.25022305548 0 -265651.25022305548 -103099482.14543557 0 0 0 -35767461.056943893 5056415.7357201576 -1468826.0648002028 0 -1468826.0648002028 -101098965.38111877 0 0 0 -33614892.37588954 5187690.3745030165 1521594.4598832726 0 1521594.4598832726 -100483327.5298233 0 0 0 -33353473.004361987 -3713627.4413842559 2795869.2769212127 0 2795869.2769212127 -102108094.70290959 0 0 0 -37037602.750502884 -4993270.4737449884 -3174234.0535038114 0 -3174234.0535038114 -101093720.91848719 0 0 0 -37130446.987281263 -4134093.541954875 -1375613.7185241729 0 -1375613.7185241729 -103178083.79047465 0 0 0 -37559262.066350281 7330543.7946219593 -75891.784981966019 0 -75891.784981966019 -100182971.80474752 0 0 0 -32498349.803543791 1522304.2090163231 1938791.1577372365 0 1938791.1577372365 -95982952.803806067 0 0 0 -33061227.008176446 2095011.7305045128 -1357834.4940810911 0 -1357834.4940810911 -95260168.611396551 0 0 0 -32607804.908312082 -36488750.235128827 691258.44607695192 0 691258.44607695192 -95244725.69104977 0 0 0 -46106716.57416252 5807953.3460486531 655565.78349047899 0 655565.78349047899 -101517682.40184259 0 0 0 -33498405.169527829 5720364.710853219 796268.84139585495 0 796268.84139585495 -101787503.18451238 0 0 0 -33623498.465780854 3313873.1265627146 -541247.15881252289 0 -541247.15881252289 -102662156.94563985 0 0 0 -34771899.336676955 3261905.1519076824 -174039.70214354992 0 -174039.70214354992 -99931370.129181862 0 0 0 -33834312.742046118 520185.86076140404 269933.55124080181 0 269933.55124080181 -99099188.424677372 0 0 0 -34502650.897370815 291793.91014407331 2536569.9100623429 0 2536569.9100623429 -88620618.651417404 0 0 0 -30915088.659445722 -53494003.021659024 -21758833.069553096 0 -21758833.069553096 -99334804.565477028 0 0 0 -53490082.655497618 505204.27766765334 -297742.71419334412 0 -297742.71419334412 -99119722.234488681 0 0 0 -34515081.284887418 -53794438.934523411 21783154.782625522 0 21783154.782625522 -99893609.534783557 0 0 0 -53790816.964257441 3157103.6756486893 185386.04728251146 0 185386.04728251146 -100006704.8994689 0 0 0 -33897360.428336859 541700.63847788738 -2511850.7320029438 0 -2511850.7320029438 -88100388.17237325 0 0 0 -30645540.636863325 5578007.255535841 -1296850.795085758 0 -1296850.795085758 -100811314.24442935 0 0 0 -33331657.446112752 4686789.7005518675 1557009.2272207141 0 1557009.2272207141 -101410326.18093014 0 0 0 -33853237.768132329 -3769412.8503572047 2068825.5300132036 0 2068825.5300132036 -102265561.98867327 0 0 0 -37112241.193660647 -7036358.8488280773 -3248278.2790272385 0 -3248278.2790272385 -102196572.122419 0 0 0 -38231525.839936435 7059361.2908251286 159358.49750769138 0 159358.49750769138 -100356193.96415925 0 0 0 -32653891.435666919 1663039.369582057 1607301.1935096681 0 1607301.1935096681 -98834294.822771549 0 0 0 -34009939.408616185 1669495.3092198372 -2131822.8700526357 0 -2131822.8700526357 -98814154.545357227 0 0 0 -34000630.732648134 -23807791.239955738 767119.88967388868 0 767119.88967388868 -93443565.600909814 0 0 0 -41037974.89430292 5078787.3601632118 -1535565.185133934 0 -1535565.185133934 -100639012.89036489 0 0 0 -33446078.935570717 5077403.7341400385 1398241.9789964557 0 1398241.9789964557 -101225061.23498321 0 0 0 -33651680.125295281 -6920598.8546292782 2264882.1898229271 0 2264882.1898229271 -102667060.91269779 0 0 0 -38355680.918564498 -4985078.0343475342 -2964586.3820745945 0 -2964586.3820745945 -102624903.84653389 0 0 0 -37663493.658308506 1131729.1844506264 -882603.56689602137 0 -882603.56689602137 -96655203.62210083 0 0 0 -33433216.053177595 -43382375.187405162 9481127.625459969 0 9481127.625459969 -94811833.451311231 0 0 0 -48367973.023550741 857158.45183956623 720399.92648303509 0 720399.92648303509 -90942725.022542715 0 0 0 -31529948.299746037 6576026.1979894638 290855.09736835957 0 290855.09736835957 -100020210.11202121 0 0 0 -32705464.369910836 98284.35623550415 -505809.83686733246 0 -505809.83686733246 -96654066.380986214 0 0 0 -33794523.708662748 -49296826.097175479 11201393.07010117 0 11201393.07010117 -91549145.044327095 0 0 0 -49296089.899525896 6324726.3447465897 225589.53315597243 0 225589.53315597243 -100176340.274858 0 0 0 -32848064.875539303 303084.86033631884 441491.92768734694 0 441491.92768734694 -85743094.84833774 0 0 0 -29904003.49580048 425337.15251300542 937744.73454779387 0 937744.73454779387 -87854395.339667141 0 0 0 -30600170.36550393 7207737.3304951191 143056.44883406162 0 143056.44883406162 -99873900.407694817 0 0 0 -32433157.07701993 -49047792.124517985 8564833.4370370172 0 8564833.4370370172 -91091951.281821594 0 0 0 -49048910.192218855 646311.28851791599 -457644.21355891228 0 -457644.21355891228 -95174002.850187629 0 0 0 -33084692.046584405 3296473.7506828308 -730710.86106824875 0 -730710.86106824875 -99564951.357177258 0 0 0 -33693967.16227293 2082447.3574967384 837922.20292294025 0 837922.20292294025 -99109656.676511288 0 0 0 -33959523.261655331 -18605137.055685431 18282948.903521065 0 18282948.903521065 -100255301.49245101 0 0 0 -41601153.491847724 -9006283.1849145591 -15597512.024499953 0 -15597512.024499953 -109657846.4634403 0 0 0 -41532445.376924127 5861204.0802025199 -936217.62946885824 0 -936217.62946885824 -101320223.11208868 0 0 0 -33410656.661160052 5971280.6942620128 -1034950.5580227375 0 -1034950.5580227375 -100905308.82178584 0 0 0 -33226909.844633475 4431997.9194408655 1764435.4008902907 0 1764435.4008902907 -100395947.99473953 0 0 0 -33587382.526354432 4329589.5159974098 1663642.792612657 0 1663642.792612657 -101293385.80652714 0 0 0 -33937328.701685429 -537060.671910882 1093180.8278407156 0 1093180.8278407156 -102366711.81048644 0 0 0 -36016320.368839025 -1869438.3666768074 780583.96435622498 0 780583.96435622498 -102669399.50766087 0 0 0 -36588593.256018281 -13251373.032904148 -2244074.7760119736 0 -2244074.7760119736 -103031747.26885346 0 0 0 -40699092.105615139 -7877527.2613895908 -3077617.6627370119 0 -3077617.6627370119 -101344903.80891481 0 0 0 -38227850.874606527 3490209.9460141659 -907276.40409374237 0 -907276.40409374237 -99472230.316274643 0 0 0 -33593707.129591227 3197971.0780045986 1040088.2478211522 0 1040088.2478211522 -99069598.405241966 0 0 0 -33555069.564532995 2747650.0915708542 -2047862.9270784259 0 -2047862.9270784259 -98178878.546941996 0 0 0 -33400929.959379911 6649782.6496062279 469271.74407207966 0 469271.74407207966 -100749492.90517282 0 0 0 -32934898.589448214 -27961535.824827552 3139516.3673460633 0 3139516.3673460633 -99003078.791681796 0 0 0 -44437615.115778267 1298509.4539327621 936619.52245524526 0 936619.52245524526 -98875419.623107195 0 0 0 -34151918.559211016 -2940331.0712740421 -299524.92968197167 0 -299524.92968197167 -102493055.33308804 0 0 0 -36901685.241526723 -4085777.4910110235 -106367.07574523985 0 -106367.07574523985 -103000330.71544528 0 0 0 -37480137.872259736 6684921.1685304642 623156.50231561065 0 623156.50231561065 -100130121.8702755 0 0 0 -32705820.245610952 2086475.426776588 -1948273.6169278622 0 -1948273.6169278622 -99128882.701610893 0 0 0 -33964842.54619211 1022208.0787051767 790850.80364733934 0 790850.80364733934 -99142223.084597856 0 0 0 -34342005.252062455 -22362964.090032101 5528718.1801443743 0 5528718.1801443743 -93845553.696215361 0 0 0 -40672981.225186586 3181581.9065057635 -640882.05445462465 0 -640882.05445462465 -102409139.75549006 0 0 0 -34729645.247144401 5604448.3814716339 -1075869.0609572083 0 -1075869.0609572083 -101582354.097826 0 0 0 -33592267.000724077 4692887.1565479636 1521075.7699676156 0 1521075.7699676156 -101001087.03781652 0 0 0 -33707869.958444178 -729576.95745027065 1191736.1833418608 0 1191736.1833418608 -102422666.23711693 0 0 0 -36103285.118098378 -6983088.8700476885 -1609178.9658080712 0 -1609178.9658080712 -101829657.00155914 0 0 0 -38084461.055062473 6097370.856131494 1000281.7820591927 0 1000281.7820591927 -100890723.35352325 0 0 0 -33177673.374087036 3794315.9943039417 -1971647.3617836386 0 -1971647.3617836386 -99964189.591451645 0 0 0 -33659455.759001732 575241.51701188087 -975980.90222926438 0 -975980.90222926438 -101897003.17993832 0 0 0 -35462616.582024336 -14113202.516890809 3920609.6849956214 0 3920609.6849956214 -99060985.355141312 0 0 0 -39610965.755211219 1026467.4665424209 293264.52313363552 0 293264.52313363552 -103056170.33699495 0 0 0 -35710396.004658401 -9389174.147407949 1323672.7293905914 0 1323672.7293905914 -103424930.37242675 0 0 0 -39484936.581942141 2051353.5570186377 -465807.78040665388 0 -465807.78040665388 -103150436.77861714 0 0 0 -35384679.127559543 5008839.8692361116 1324964.6030601263 0 1324964.6030601263 -101536998.68109608 0 0 0 -33784855.584151149 2935824.679618001 -212636.67059975863 0 -212636.67059975863 -102958954.3094278 0 0 0 -35008095.370433331 7997733.2790036201 -42685.678736740614 0 -42685.678736740614 -100034104.21884871 0 0 0 -32212729.828945637 206205.71494894422 663622.41102439165 0 663622.41102439165 -92706514.838710666 0 0 0 -32375108.193316646 768984.97791165533 -594964.57855087519 0 -594964.57855087519 -90916493.929919839 0 0 0 -31551628.133202728 -49258214.998277962 -815089.93019121489 0 -815089.93019121489 -91486468.460885793 0 0 0 -49260639.210707307 3115531.8571628332 -1997553.2733370066 0 -1997553.2733370066 -100258725.48207057 0 0 0 -34000117.768717647 6659888.9903197289 397490.04146486521 0 397490.04146486521 -100922538.17388678 0 0 0 -32991927.214248419 -15996781.617190778 1407720.7868995667 0 1407720.7868995667 -99235331.622563839 0 0 0 -40331239.633914053 2073589.2778065801 964626.75878715515 0 964626.75878715515 -101007430.0444653 0 0 0 -34626844.268330395 -4734310.6786655188 451460.12777349539 0 451460.12777349539 -100840527.89474237 0 0 0 -36951193.500692844 4295947.5871846676 334975.84586606175 0 334975.84586606175 -102380628.88409567 0 0 0 -34329638.453918934 2752581.0570278168 -81656.634404659271 0 -81656.634404659271 -103134424.20838547 0 0 0 -35133645.10297513 -37763280.42018716 -43352425.588992245 0 -43352425.588992245 -176297090.26146623 0 0 0 -74921129.738578677 -75997926.028833821 43007661.689269632 0 43007661.689269632 -141356999.54227528 0 0 0 -76074223.949888185 -37871313.395606719 43492809.004021555 0 43492809.004021555 -176249296.74443805 0 0 0 -74942213.549015671 -75896463.193175927 -42901915.366818219 0 -42901915.366818219 -141167308.97045794 0 0 0 -75972320.257271841 408959.17639636993 -15104.512562210359 0 -15104.512562210359 -100149389.31612873 0 0 0 -34909150.548906326 306087.05293297768 -39702.489369153976 0 -39702.489369153976 -99882530.680617332 0 0 0 -34851755.26968956 407199.29589176178 22436.82369685173 0 22436.82369685173 -100122310.65668344 0 0 0 -34900288.976277113 271164.37687622645 39209.528144598007 0 39209.528144598007 -99874457.708017111 0 0 0 -34861152.665899403 4301737.6255042553 848128.70497000217 0 848128.70497000217 -102465524.36091208 0 0 0 -34357325.357392788 1663769.9038633108 401051.29363000393 0 401051.29363000393 -102756726.54162478 0 0 0 -35382534.823216677 1167012.7932165861 -283935.94870758057 0 -283935.94870758057 -102761635.58544123 0 0 0 -35558117.977278531 6972168.0914287567 -335132.79845046997 0 -335132.79845046997 -100149054.15713286 0 0 0 -32611910.122996807 1331460.7648392916 1318314.5185582638 0 1318314.5185582638 -96012305.075131655 0 0 0 -33138295.508602262 1324788.1205489635 -831774.69369509816 0 -831774.69369509816 -91804994.3779037 0 0 0 -31668072.190074205 -42952324.376462378 -6392623.0370000675 0 -6392623.0370000675 -95070760.105545357 0 0 0 -48308079.568702705 5374382.316272229 -1348887.289806962 0 -1348887.289806962 -100811622.51669526 0 0 0 -33403034.070148021 4385139.4600880146 1823834.9079125673 0 1823834.9079125673 -100160615.34009171 0 0 0 -33521416.55800128 -3428595.2554216385 2934442.998265665 0 2934442.998265665 -102793867.63454163 0 0 0 -37177862.011487246 -10091880.420310833 -4634715.0536207855 0 -4634715.0536207855 -100745070.10049048 0 0 0 -38792932.682280459 1031401.1620144472 269344.17219954729 0 269344.17219954729 -102996728.08558422 0 0 0 -35687864.42324952 -2872164.7128274441 -786299.57869638503 0 -786299.57869638503 -102538381.11624539 0 0 0 -36893691.040175498 6042295.8198577166 -254168.50054621696 0 -254168.50054621696 -99900332.32490468 0 0 0 -32850312.776766419 333167.5777875185 471339.84921270609 0 471339.84921270609 -97527599.937426805 0 0 0 -34018051.325873852 5603116.0777397156 -454282.32344228029 0 -454282.32344228029 -100317313.29731083 0 0 0 -33149969.026849985 487595.38213157654 996036.79946100712 0 996036.79946100712 -98157468.00215745 0 0 0 -34184455.417009234 -760120.44489222765 -877972.30914646387 0 -877972.30914646387 -91670183.367645621 0 0 0 -32350606.334388256 -39774162.250852808 -12492312.919595134 0 -12492312.919595134 -88187027.153721124 0 0 0 -44786416.291600868 -4619.9070877432823 567795.66043031216 0 567795.66043031216 -93608938.908895552 0 0 0 -32764745.585594296 -38645263.996898837 -10857236.446708459 0 -10857236.446708459 -91839525.777876705 0 0 0 -45669676.421171419 2268228.3720076084 -973306.56284105778 0 -973306.56284105778 -98789101.52671051 0 0 0 -33782305.604146242 4324170.2084179521 789488.05858075619 0 789488.05858075619 -99419832.580352783 0 0 0 -33283481.830177248 3741228.6601414084 -1830001.993696928 0 -1830001.993696928 -100342979.51019251 0 0 0 -33810612.797517955 6007970.6594133377 1073172.3225184977 0 1073172.3225184977 -100265299.19952297 0 0 0 -32990064.989038229 -14067651.080223441 6051808.8726076484 0 6051808.8726076484 -100471493.94700307 0 0 0 -40088700.759529293 -982383.35573354363 -1425043.0749362707 0 -1425043.0749362707 -100933185.99004716 0 0 0 -35670449.271023244 -31420070.445105061 17684516.043186203 0 17684516.043186203 -104523102.1721763 0 0 0 -47580110.416048482 -5505202.0431604981 -6846783.1538385153 0 -6846783.1538385153 -101288405.5641706 0 0 0 -37377762.662565887 -2074892.0551489592 -568934.97740283608 0 -568934.97740283608 -102855604.19054401 0 0 0 -36725673.685992599 7097390.7188641429 169446.60540652275 0 169446.60540652275 -100446134.18154752 0 0 0 -32672060.211939275 1745362.0923652649 1916169.1983264983 0 1916169.1983264983 -96601742.016139507 0 0 0 -33199732.973320961 2295633.6280337572 -1750277.3971790671 0 -1750277.3971790671 -96722681.820809841 0 0 0 -33049466.867471695 -33124161.711245328 2682794.0511468798 0 2682794.0511468798 -97516983.353225425 0 0 0 -45724400.772564739 6419462.2417433262 78885.084008693695 0 78885.084008693695 -101179373.41126561 0 0 0 -33165968.909332752 6242024.9658398628 234405.08102196455 0 234405.08102196455 -101590710.19150376 0 0 0 -33372039.828982234 2843817.0537244081 1159208.3186754584 0 1159208.3186754584 -101918044.40852571 0 0 0 -34675979.574180484 1857996.1553351879 749331.75683796406 0 749331.75683796406 -101737449.53948474 0 0 0 -34957808.684452176 3055863.9071199894 -1336525.9314590693 0 -1336525.9314590693 -101976768.44602156 0 0 0 -34622316.588615656 3276277.3375234604 -1321500.7023639977 0 -1321500.7023639977 -101307819.73422861 0 0 0 -34311039.838846803 6400327.1572518349 -568213.85139888525 0 -568213.85139888525 -99969573.495637894 0 0 0 -32749236.218435287 2158030.2072318792 1457560.8827471137 0 1457560.8827471137 -97258915.929588556 0 0 0 -33285310.002824903 899871.88953852654 -577445.62544336915 0 -577445.62544336915 -95621372.782654583 0 0 0 -33152525.312590539 -35546080.209646299 -9393547.0285283029 0 -9393547.0285283029 -97548638.544594467 0 0 0 -46583151.563984275 6202568.8215332031 -754136.91591048241 0 -754136.91591048241 -100477476.61358213 0 0 0 -32996217.727217197 2584151.3858530521 1931160.6831980348 0 1931160.6831980348 -98023792.949826717 0 0 0 -33403874.547390699 22656.096908926964 385268.16973602772 0 385268.16973602772 -98617499.73401475 0 0 0 -34508195.272987127 -29712383.651308119 -6727229.9477730095 0 -6727229.9477730095 -98379362.608652472 0 0 0 -44832111.190986216 224536.05841743946 266235.42974549532 0 266235.42974549532 -103071391.7281878 0 0 0 -35996399.484419465 2433296.3794056177 -1628754.9909539223 0 -1628754.9909539223 -98121283.710399151 0 0 0 -33490795.565847516 6110262.842633009 757715.83885788918 0 757715.83885788918 -99870498.180835247 0 0 0 -32816082.368370771 -29478168.517606124 9501528.7840716317 0 9501528.7840716317 -97633687.661999464 0 0 0 -44489149.662861928 69502.906700849533 -457366.49718999863 0 -457366.49718999863 -98217951.033584476 0 0 0 -34351956.844409227 3771494.3577451706 -1015586.0477217436 0 -1015586.0477217436 -100230903.25891304 0 0 0 -33760793.115408897 2524636.1089041233 1203105.762619853 0 1203105.762619853 -99320210.208353758 0 0 0 -33878450.934807301 5841616.7895358801 -1168553.8031318188 0 -1168553.8031318188 -100478905.55194736 0 0 0 -33123051.066843867 3993090.3113912344 1894804.3534227014 0 1894804.3534227014 -100847954.76397443 0 0 0 -33899202.558404446 -2137382.3206735849 1431832.7085117102 0 1431832.7085117102 -101748062.24029374 0 0 0 -36359905.596338511 -11104520.056621671 -4233904.7137092352 0 -4233904.7137092352 -101072496.55814624 0 0 0 -39261955.815168798 5678052.2353743315 291061.78938317299 0 291061.78938317299 -102219957.23797762 0 0 0 -33789666.750910997 6437908.4884133339 -210157.4600110054 0 -210157.4600110054 -100028100.43094873 0 0 0 -32756567.179887295 368377.88852861611 474967.25625514984 0 474967.25625514984 -96417399.191978142 0 0 0 -33617157.456207365 301383.27166680904 -588478.69439607859 0 -588478.69439607859 -85351309.684753582 0 0 0 -29767474.244580463 -49651442.331590094 -11274019.850500511 0 -11274019.850500511 -92204901.355579615 0 0 0 -49649720.290509395 -6172899.6159059405 152571.73688328266 0 152571.73688328266 -103351355.63311613 0 0 0 -38333489.337157786 8020921.6870808601 38135.831973075867 0 38135.831973075867 -100064020.5154562 0 0 0 -32215084.589931011 339386.89809715748 673481.72354960442 0 673481.72354960442 -90552076.917619944 0 0 0 -31574441.506832957 180808.20400541084 -648405.53127861023 0 -648405.53127861023 -92460566.178724185 0 0 0 -32297915.291151594 -48878690.051424541 1738329.4052232725 0 1738329.4052232725 -90771350.485261872 0 0 0 -48877514.187840238 -4059794.9002178311 6381262.1882749498 0 6381262.1882749498 -100549657.98436111 0 0 0 -36613308.509602636 -31145315.528283983 -17594652.108945176 0 -17594652.108945176 -104646914.3393476 0 0 0 -47527280.453671068 -5323991.655092597 -274882.51982495189 0 -274882.51982495189 -101188579.49437094 0 0 0 -37279399.902312279 1820141.462275207 -393788.63983428478 0 -393788.63983428478 -102816998.23021035 0 0 0 -35348899.868777335 359818.46952658892 41762.441399335861 0 41762.441399335861 -103023248.1714201 0 0 0 -35932200.395662725 -684099.52233576775 1113194.6905970424 0 1113194.6905970424 -93416552.790132523 0 0 0 -32935228.309363842 7662751.8401582837 28999.07453763485 0 28999.07453763485 -99996248.246886492 0 0 0 -32316723.742355049 -41234174.187302269 3012196.4642088488 0 3012196.4642088488 -87611286.031679705 0 0 0 -45095911.07664369 365651.74992370605 -562985.8636688292 0 -562985.8636688292 -94303900.044355392 0 0 0 -32878386.9030509 5917106.6883921623 -740415.57013219595 0 -740415.57013219595 -101403127.59091043 0 0 0 -33420107.315881491 4389084.833907485 1308350.8487910628 0 1308350.8487910628 -101546331.64047575 0 0 0 -34005036.382298827 -842883.0617249012 321396.038197577 0 321396.038197577 -102643901.7688843 0 0 0 -36220374.690713167 -8685044.5683599114 -1930643.7928994596 0 -1930643.7928994596 -102756402.37389183 0 0 0 -39004506.429788172 4644269.8210222125 1127165.2316327691 0 1127165.2316327691 -102148572.48125124 0 0 0 -34126505.931080282 4022307.1884580851 427754.5304761529 0 427754.5304761529 -102461804.06062889 0 0 0 -34453823.905259848 5624613.5256986618 -1290730.7835187912 0 -1290730.7835187912 -100220085.76359701 0 0 0 -33108415.283264399 3850872.5055212975 1758156.6494145393 0 1758156.6494145393 -100095710.07261443 0 0 0 -33685693.148482561 -3068829.0251913667 2634453.3359613717 0 2634453.3359613717 -101990430.0252732 0 0 0 -36770740.667662442 -14527276.206321061 -6438335.0234828442 0 -6438335.0234828442 -100725978.22385025 0 0 0 -40338639.050559938 -2462695.2364349365 -1104748.8059457839 0 -1104748.8059457839 -103166702.42595887 0 0 0 -36970289.181837797 5600907.4281476736 -697807.03440928459 0 -697807.03440928459 -100317793.94300473 0 0 0 -33150910.280199885 1298515.6900215149 1439214.6752632111 0 1439214.6752632111 -98897063.251137733 0 0 0 -34159491.646390438 -257530.11872494221 644065.12530362606 0 644065.12530362606 -99061846.975909948 0 0 0 -34761781.98312223 -27710805.39953785 -10199663.680257276 0 -10199663.680257276 -93068269.928396255 0 0 0 -42272676.364776894 7136180.0953121185 -264758.83653074503 0 -264758.83653074503 -100399408.94855499 0 0 0 -32642130.09863472 1591202.8597985506 1968907.2350337505 0 1968907.2350337505 -96491613.492184877 0 0 0 -33215143.721335173 -36096338.661105528 -1755488.2426316962 0 -1755488.2426316962 -95874315.633761197 0 0 0 -46189729.003203347 -233722.32088124752 -166731.34876076877 0 -166731.34876076877 -102806210.3316102 0 0 0 -36063976.428372025 -239098.57402670383 -874057.0391779542 0 -874057.0391779542 -94283829.429443359 0 0 0 -33083024.801214457 -40307308.616070502 140008.13250383362 0 140008.13250383362 -86502256.405018225 0 0 0 -44383347.757381052 1108073.6511356831 -1152029.6438298821 0 -1152029.6438298821 -93424272.646471024 0 0 0 -32310669.648367405 -43087012.308894023 617411.1809955705 0 617411.1809955705 -92525445.886672467 0 0 0 -47464360.368448272 211133.24902629852 442778.50369274616 0 442778.50369274616 -93425931.450520515 0 0 0 -32625179.370522976 7740955.7532229424 46848.374673128128 0 46848.374673128128 -100017752.6213665 0 0 0 -32296878.903850079 7657963.9608211517 1255.6546498537064 0 1255.6546498537064 -100125176.10624647 0 0 0 -32363524.250898838 316427.2702088356 1243565.0378608704 0 1243565.0378608704 -93866738.255150318 0 0 0 -32742608.844729424 7364938.2417292595 -167218.40501052141 0 -167218.40501052141 -100086913.71466589 0 0 0 -32452691.415527821 984366.85113549232 1386156.597325027 0 1386156.597325027 -96355244.158504486 0 0 0 -33379807.057579279 -33889636.255344816 -2895781.1997053921 0 -2895781.1997053921 -89713365.431430653 0 0 0 -43261050.590371422 5854567.6265935898 -1062923.6757820249 0 -1062923.6757820249 -100044782.50602341 0 0 0 -32966575.20780015 3546612.9724570513 1760715.5748828053 0 1760715.5748828053 -99365529.993926048 0 0 0 -33536620.957514286 -2167940.5638814569 1865931.9935964048 0 1865931.9935964048 -100641254.21103954 0 0 0 -35983218.171222329 -20420863.600740522 -8306259.2235406935 0 -8306259.2235406935 -101809746.85420519 0 0 0 -42780713.659231007 1042740.4267178774 85991.795006513596 0 85991.795006513596 -102919783.21720433 0 0 0 -35656964.976670265 6465454.4824259281 362464.98366320133 0 362464.98366320133 -101273602.9996016 0 0 0 -33182851.981011629 3472378.2607911825 -1620955.2612213492 0 -1620955.2612213492 -100559284.44006991 0 0 0 -33980417.162747622 1533567.1240677834 762932.85084423423 0 762932.85084423423 -100982758.13733649 0 0 0 -34807216.85464406 -16928860.815516144 1891613.9388727397 0 1891613.9388727397 -102566979.05843234 0 0 0 -41823543.955881983 6328220.0486656427 -256219.33373534679 0 -256219.33373534679 -100187580.62232828 0 0 0 -32850776.200781465 -158957.69014549255 668045.44081556797 0 668045.44081556797 -97530995.914366245 0 0 0 -34191483.761579037 -449208.2536791563 -109985.97110408545 0 -109985.97110408545 -91761607.986790895 0 0 0 -32273785.684164524 -39083232.215621963 -9315273.7848773338 0 -9315273.7848773338 -86524787.954283997 0 0 0 -43962807.059467077 6605600.7515497133 -338207.60441207886 0 -338207.60441207886 -99768520.321575925 0 0 0 -32607021.849509247 1311764.6334297657 866671.08666479588 0 866671.08666479588 -96645114.514726639 0 0 0 -33366672.458453894 992380.31841921806 -1175269.5436968431 0 -1175269.5436968431 -92085238.000046492 0 0 0 -31882500.188569546 -41293967.685724072 -10325805.345522271 0 -10325805.345522271 -93209724.159790382 0 0 0 -47076292.145930059 655599.90315616131 -1552250.1240481436 0 -1552250.1240481436 -95724591.633667588 0 0 0 -33274147.105679035 1571980.1969732046 -1211449.999573648 0 -1211449.999573648 -95578808.210737944 0 0 0 -32902389.804817796 5034244.3492510319 181083.03175574541 0 181083.03175574541 -102195402.53418231 0 0 0 -34006405.364725947 6430176.1074792147 -483954.20833307505 0 -483954.20833307505 -101179179.03059888 0 0 0 -33162151.023091674 3189887.5767282248 1933649.995695591 0 1933649.995695591 -100195366.43715334 0 0 0 -33951917.601148725 1511685.5467479825 -669507.75939458609 0 -669507.75939458609 -101479950.01008928 0 0 0 -34988892.562169433 -16505554.764208436 -1656065.3713555485 0 -1656065.3713555485 -100026666.01683241 0 0 0 -40786277.273364276 3932921.0801770687 -476707.38308846951 0 -476707.38308846951 -102650564.0385077 0 0 0 -34551175.035415888 6348485.336586237 -630814.12965488434 0 -630814.12965488434 -100168393.93572116 0 0 0 -32836968.00969708 1585168.7772083282 1637454.1246823072 0 1637454.1246823072 -98607173.040689945 0 0 0 -33957701.492218494 717518.66111063957 -432479.07804140449 0 -432479.07804140449 -98372435.591751814 0 0 0 -34179220.925724387 -26652495.476692691 -7981251.2103458717 0 -7981251.2103458717 -93053386.306659758 0 0 0 -41897058.624173343 4721166.4585385323 275377.40014573187 0 275377.40014573187 -102714250.72198629 0 0 0 -34297579.492206693 1533245.7565757036 -1562907.5356410742 0 -1562907.5356410742 -98508125.215126753 0 0 0 -33941207.810492873 -29359358.83079426 9079226.7184464633 0 9079226.7184464633 -94160384.971853971 0 0 0 -43231910.330926865 5778027.442066431 664532.43841993809 0 664532.43841993809 -100380842.63069248 0 0 0 -33110985.316019297 506939.28868544102 -584958.48811528087 0 -584958.48811528087 -97836533.210113049 0 0 0 -34065357.872499526 6804981.4221827984 -412103.65823671222 0 -412103.65823671222 -99883788.85170126 0 0 0 -32577582.600331306 1294196.3379223645 1288861.3867081404 0 1288861.3867081404 -97382879.654832572 0 0 0 -33631039.160918444 794542.87101922929 -1068597.6622436047 0 -1068597.6622436047 -95396385.827176183 0 0 0 -33110645.034654871 -33600078.601707421 -7512028.1451041698 0 -7512028.1451041698 -91740626.815874055 0 0 0 -43869246.896153517 6157635.6954545975 -485170.93298774958 0 -485170.93298774958 -100256998.17959023 0 0 0 -32934776.86944747 1028294.3606864214 1343650.7265148163 0 1343650.7265148163 -97841454.436575174 0 0 0 -33884606.026560903 710570.93074315786 -92592.683347165585 0 -92592.683347165585 -94731629.52229619 0 0 0 -32907370.50704354 -36252432.42454116 -8195920.6834015287 0 -8195920.6834015287 -93463144.881311983 0 0 0 -45400452.057048619 6798697.0330295563 -381882.34528774023 0 -381882.34528774023 -100549111.99782467 0 0 0 -32812645.237678528 3293735.353154242 1810775.6737381816 0 1810775.6737381816 -99880944.326523662 0 0 0 -33805523.1406793 2043703.9787688851 -1190588.748077333 0 -1190588.748077333 -100127401.43903542 0 0 0 -34329294.111093223 -19099623.392453074 -2770354.1585202068 0 -2770354.1585202068 -99630228.207178652 0 0 0 -41555448.059871137 6016348.713227272 452040.38321876526 0 452040.38321876526 -101781504.74822021 0 0 0 -33517804.612247467 6363626.9019060135 452769.37751019001 0 452769.37751019001 -101136420.32371926 0 0 0 -33170477.697634697 3868861.0697369576 -1123233.3714849949 0 -1123233.3714849949 -101672983.11069417 0 0 0 -34231442.714335084 783134.73064124584 144236.15189936757 0 144236.15189936757 -102576664.71900177 0 0 0 -35627735.495926142 3714714.8526381254 -1554286.213186413 0 -1554286.213186413 -101665417.33629251 0 0 0 -34282745.869279027 2038502.4181597233 600036.48472857475 0 600036.48472857475 -102044836.36950755 0 0 0 -35002216.882971525 -1180608.8976485804 -376345.54889881611 0 -376345.54889881611 -103102827.8660955 0 0 0 -36499202.867310412 -2054720.6704150438 209593.20191913843 0 209593.20191913843 -102685503.842379 0 0 0 -36659078.579477906 -7546293.4270837605 1183045.282936424 0 1183045.282936424 -100030597.54442418 0 0 0 -37651911.840027779 -9274366.8714253902 414610.97820968693 0 414610.97820968693 -102770828.92427278 0 0 0 -39215818.528494239 242391.15130782127 -336925.58099231124 0 -336925.58099231124 -102894790.75133896 0 0 0 -35928339.860010862 -308759.12620651722 -6544.7956444174051 0 -6544.7956444174051 -103036736.37591887 0 0 0 -36170923.425743818 1363488.4710869193 -986050.8701274991 0 -986050.8701274991 -93239204.074711561 0 0 0 -32156500.461268604 -41170532.728170916 -1061976.9080065079 0 -1061976.9080065079 -93204688.184879586 0 0 0 -47031327.31956768 578119.87077885866 -1592471.2732088566 0 -1592471.2732088566 -95667876.982218862 0 0 0 -33281414.989004076 -36014277.364182472 -826837.65017811488 0 -826837.65017811488 -90454050.803088859 0 0 0 -44263914.858544976 7395600.0578961372 -161852.17067492008 0 -161852.17067492008 -100208621.7487278 0 0 0 -32484557.591791391 715737.37425929308 1536621.3114343882 0 1536621.3114343882 -95499104.606554627 0 0 0 -33174178.531303346 7500094.1122713089 14228.560154020786 0 14228.560154020786 -100029403.0481534 0 0 0 -32385258.127558708 1133942.0050448775 1126201.6112414002 0 1126201.6112414002 -95254603.082796216 0 0 0 -32942231.377212822 5395022.8918201923 -1339222.5523706675 0 -1339222.5523706675 -100475741.03526175 0 0 0 -33278251.350204468 4781617.6547932625 1603395.0728862584 0 1603395.0728862584 -100708048.26719332 0 0 0 -33574250.714339972 -6525045.9312932491 3168205.631122753 0 3168205.631122753 -102602139.91935325 0 0 0 -38194515.047726154 -10602686.6735809 -4615123.5528331399 0 -4615123.5528331399 -104087238.05537531 0 0 0 -40141473.655134693 -7708400.2266283035 73505.68367305398 0 73505.68367305398 -99829894.296398342 0 0 0 -37638403.083059311 6503388.1742510796 183007.35332724452 0 183007.35332724452 -101308398.1039691 0 0 0 -33181753.475401402 6552402.5068969727 261611.5940763799 0 261611.5940763799 -101014055.19371271 0 0 0 -33061578.440385342 3267060.3848004676 -1648312.7975010276 0 -1648312.7975010276 -101326682.5668688 0 0 0 -34320867.76372394 2845699.3298329115 -1620007.0526522398 0 -1620007.0526522398 -100597372.29367554 0 0 0 -34213085.537344933 2482522.4368544221 1071718.5324504972 0 1071718.5324504972 -101004677.87775624 0 0 0 -34482754.40431565 2329370.7681020666 1133979.9762207866 0 1133979.9762207866 -101482056.92099093 0 0 0 -34703440.153511152 -11271513.185559988 1105655.5097698239 0 1105655.5097698239 -99658392.421618938 0 0 0 -38825466.962512553 -16524778.599581897 252703.6157688722 0 252703.6157688722 -101760323.27193165 0 0 0 -41399785.655029714 1906022.3832511306 -556173.35276031494 0 -556173.35276031494 -102432915.35070288 0 0 0 -35184412.538608134 6781573.2747731209 112729.08169704676 0 112729.08169704676 -100865924.73601246 0 0 0 -32929523.01143384 2371893.4420412779 1579140.6343926787 0 1579140.6343926787 -100417764.76546121 0 0 0 -34316054.963196874 2908912.0247694254 -1641453.2273840904 0 -1641453.2273840904 -100596597.32317066 0 0 0 -34190689.85444057 -16669079.868679225 1173658.1210335046 0 1173658.1210335046 -99622406.367911458 0 0 0 -40702020.18280673 -12659397.432367623 668356.72526666522 0 668356.72526666522 -102221015.33121181 0 0 0 -40208144.467252702 5488297.4459432364 -1224443.6415464282 0 -1224443.6415464282 -101202872.80198479 0 0 0 -33500101.374614596 4844831.9931023121 1746517.0799952745 0 1746517.0799952745 -100299629.79947019 0 0 0 -33409179.232228756 -2347835.1829497218 2169140.6104846597 0 2169140.6104846597 -103028835.94862771 0 0 0 -36881834.896052122 -9329093.0623304844 -2922025.4689691216 0 -2922025.4689691216 -102089862.24809372 0 0 0 -38996634.358648419 1620320.339004159 -187975.26210707426 0 -187975.26210707426 -102883188.17767048 0 0 0 -35442003.743533134 -121640.40369057655 -550689.7314171195 0 -550689.7314171195 -97365820.060588837 0 0 0 -34120611.162497997 -38355004.28200002 9480652.586951714 0 9480652.586951714 -85459453.828040436 0 0 0 -43335060.338514157 6537450.2844438553 197671.71782624722 0 197671.71782624722 -100072709.94960785 0 0 0 -32737340.882807732 -482244.81755363941 475168.42604532838 0 475168.42604532838 -91635765.677941322 0 0 0 -32241303.67342329 5348321.5707247257 -1219708.0285676718 0 -1219708.0285676718 -100793141.69313765 0 0 0 -33405687.042844772 3594234.7474522591 1901600.1352889538 0 1901600.1352889538 -99782194.399500608 0 0 0 -33665785.878217101 -1779133.3786128163 2426084.185572207 0 2426084.185572207 -102287304.50848198 0 0 0 -36423253.260483146 -14402083.514803052 -6340819.5433140844 0 -6340819.5433140844 -98594904.317753613 0 0 0 -39548945.741394758 6074332.8241534233 359619.64083392918 0 359619.64083392918 -101502402.50565147 0 0 0 -33399824.388524294 2266049.0489412732 588431.89600139856 0 588431.89600139856 -102283607.86535199 0 0 0 -35006145.585743889 -1079710.8969333768 -7518.091837823391 0 -7518.091837823391 -102936595.66302741 0 0 0 -36405707.295986176 4531901.7782664299 879877.0138322413 0 879877.0138322413 -101969766.8496418 0 0 0 -34103252.77498126 6546364.0857907534 -535473.79442417622 0 -535473.79442417622 -100291428.72926164 0 0 0 -32810772.625215054 2218387.9835865498 1719866.0377233922 0 1719866.0377233922 -97042927.031264782 0 0 0 -33188588.666687012 1277866.4520915747 -581171.35347564518 0 -581171.35347564518 -95412872.488451004 0 0 0 -32947252.112725854 -36834654.174978428 -6877591.6776274592 0 -6877591.6776274592 -98264621.833223328 0 0 0 -47284746.602870606 4901128.5841003656 941991.66080960631 0 941991.66080960631 -102235818.83422089 0 0 0 -34067141.587542176 
</DataArray>
</CellData>
</Piece>
</UnstructuredGrid>
</VTKFile>
